# el_label, x, y, sXX, sYY, sZZ, sXY
1.000000000000000000e+00 5.001558685302734375e+01 -5.209727883338928223e-01 -2.413918733596801758e+00 -3.018612384796142578e+00 -1.629759311676025391e+00 -2.135901451110839844e+00
2.000000000000000000e+00 4.982708740234375000e+01 -5.848914980888366699e-01 -7.234058380126953125e-01 1.052945613861083984e+00 9.886191785335540771e-02 3.531140983104705811e-01
3.000000000000000000e+00 4.963858795166015625e+01 -6.488101482391357422e-01 -1.688754677772521973e+00 -3.819902241230010986e-01 -6.212234497070312500e-01 -2.691157460212707520e-01
4.000000000000000000e+00 4.945009231567382812e+01 -7.127288579940795898e-01 -1.966904401779174805e+00 1.615893989801406860e-01 -5.415945053100585938e-01 -3.856846690177917480e-01
5.000000000000000000e+00 5.003966522216796875e+01 -5.741913914680480957e-01 7.275552272796630859e+00 -5.685424804687500000e-01 2.012103080749511719e+00 3.865630626678466797e+00
6.000000000000000000e+00 4.986722183227539062e+01 -6.735891103744506836e-01 1.912886142730712891e+00 9.547473788261413574e-01 8.602900505065917969e-01 1.644355058670043945e+00
7.000000000000000000e+00 4.969477844238281250e+01 -7.729868888854980469e-01 1.428111910820007324e+00 1.641426563262939453e+00 9.208615422248840332e-01 2.006220102310180664e+00
8.000000000000000000e+00 4.952233123779296875e+01 -8.723846077919006348e-01 4.567529559135437012e-01 8.296239376068115234e-01 3.859130740165710449e-01 1.245382785797119141e+00
9.000000000000000000e+00 5.007364654541015625e+01 -6.217028498649597168e-01 8.707169532775878906e+00 5.742991924285888672e+00 4.335048198699951172e+00 8.925571441650390625e+00
1.000000000000000000e+01 4.992385864257812500e+01 -7.527748942375183105e-01 4.999729156494140625e+00 3.621346473693847656e+00 2.586322784423828125e+00 5.241028308868408203e+00
1.100000000000000000e+01 4.977406692504882812e+01 -8.838469386100769043e-01 2.821830034255981445e+00 3.363864421844482422e+00 1.855708360671997070e+00 3.771528244018554688e+00
1.200000000000000000e+01 4.962427520751953125e+01 -1.014918923377990723e+00 2.167770862579345703e+00 3.313139915466308594e+00 1.644273161888122559e+00 3.551946401596069336e+00
1.300000000000000000e+01 5.011623001098632812e+01 -6.616885066032409668e-01 8.242793083190917969e+00 1.310795974731445312e+01 6.405225753784179688e+00 1.178406429290771484e+01
1.400000000000000000e+01 4.999482727050781250e+01 -8.194176554679870605e-01 4.885905742645263672e+00 8.231389999389648438e+00 3.935188770294189453e+00 7.775310039520263672e+00
1.500000000000000000e+01 4.987342453002929688e+01 -9.771468639373779297e-01 3.597642183303833008e+00 6.919194221496582031e+00 3.155050992965698242e+00 6.063147544860839844e+00
1.600000000000000000e+01 4.975201797485351562e+01 -1.134876012802124023e+00 2.601958513259887695e+00 5.812452793121337891e+00 2.524323463439941406e+00 4.989276885986328125e+00
1.700000000000000000e+01 5.016578292846679688e+01 -6.926178336143493652e-01 5.892757892608642578e+00 2.040378189086914062e+01 7.888962268829345703e+00 1.239250183105468750e+01
1.800000000000000000e+01 5.007741546630859375e+01 -8.709665536880493164e-01 4.086925983428955078e+00 1.395219135284423828e+01 5.411735534667968750e+00 8.843394279479980469e+00
1.900000000000000000e+01 4.998904418945312500e+01 -1.049315333366394043e+00 2.812750577926635742e+00 1.093729496002197266e+01 4.125013828277587891e+00 7.138541698455810547e+00
2.000000000000000000e+01 4.990067672729492188e+01 -1.227663993835449219e+00 2.148687601089477539e+00 9.792462348937988281e+00 3.582345008850097656e+00 6.009754657745361328e+00
2.100000000000000000e+01 5.022040557861328125e+01 -7.133069038391113281e-01 4.070661067962646484e+00 2.737508392333984375e+01 9.433723449707031250e+00 1.067164802551269531e+01
2.200000000000000000e+01 5.016845703125000000e+01 -9.054483771324157715e-01 2.390578269958496094e+00 1.905924034118652344e+01 6.434945583343505859e+00 8.379664421081542969e+00
2.300000000000000000e+01 5.011650848388671875e+01 -1.097589850425720215e+00 1.928139925003051758e+00 1.570629215240478516e+01 5.290329456329345703e+00 6.826550006866455078e+00
2.400000000000000000e+01 5.006455612182617188e+01 -1.289731264114379883e+00 1.116164684295654297e+00 1.335865306854248047e+01 4.342445373535156250e+00 6.097610473632812500e+00
2.500000000000000000e+01 5.027801513671875000e+01 -7.229638099670410156e-01 2.361472845077514648e+00 3.232002258300781250e+01 1.040444850921630859e+01 7.524344921112060547e+00
2.600000000000000000e+01 5.026447296142578125e+01 -9.215431213378906250e-01 1.771112799644470215e+00 2.380596542358398438e+01 7.673123836517333984e+00 6.311254501342773438e+00
2.700000000000000000e+01 5.025092697143554688e+01 -1.120122432708740234e+00 5.712280869483947754e-01 1.948935699462890625e+01 6.018175601959228516e+00 5.541906356811523438e+00
2.800000000000000000e+01 5.023738479614257812e+01 -1.318701744079589844e+00 7.119672894477844238e-01 1.709704017639160156e+01 5.342702388763427734e+00 4.735121250152587891e+00
2.900000000000000000e+01 5.033640289306640625e+01 -7.212187647819519043e-01 3.146188735961914062e+00 3.572862625122070312e+01 1.166244411468505859e+01 3.229988574981689453e+00
3.000000000000000000e+01 5.036178588867187500e+01 -9.186348319053649902e-01 1.032932758331298828e+00 2.676808357238769531e+01 8.340305328369140625e+00 3.588257312774658203e+00
3.100000000000000000e+01 5.038716506958007812e+01 -1.116050839424133301e+00 7.957821488380432129e-01 2.266454696655273438e+01 7.038098812103271484e+00 3.170969247817993164e+00
3.200000000000000000e+01 5.041254425048828125e+01 -1.313466787338256836e+00 -1.437229812145233154e-01 1.978657341003417969e+01 5.892855167388916016e+00 2.824228048324584961e+00
3.300000000000000000e+01 5.039333343505859375e+01 -7.081387042999267578e-01 4.221385478973388672e+00 3.657559585571289062e+01 1.223909473419189453e+01 -9.534595012664794922e-01
3.400000000000000000e+01 5.045666503906250000e+01 -8.968347311019897461e-01 2.683944940567016602e+00 2.856888580322265625e+01 9.375849723815917969e+00 4.095017910003662109e-01
3.500000000000000000e+01 5.052000045776367188e+01 -1.085530757904052734e+00 7.727946043014526367e-01 2.417852783203125000e+01 7.485396862030029297e+00 6.482616066932678223e-01
3.600000000000000000e+01 5.058333206176757812e+01 -1.274226665496826172e+00 7.478626966476440430e-01 2.174892997741699219e+01 6.749037742614746094e+00 5.006402730941772461e-01
3.700000000000000000e+01 5.044662475585937500e+01 -6.842243075370788574e-01 8.020401000976562500e+00 3.608770370483398438e+01 1.323243141174316406e+01 -4.332065582275390625e+00
3.800000000000000000e+01 5.054548645019531250e+01 -8.569774031639099121e-01 4.047626972198486328e+00 2.851107025146484375e+01 9.767608642578125000e+00 -2.541320323944091797e+00
3.900000000000000000e+01 5.064434814453125000e+01 -1.029730439186096191e+00 3.128087282180786133e+00 2.458705711364746094e+01 8.314542770385742188e+00 -1.700166106224060059e+00
4.000000000000000000e+01 5.074320983886718750e+01 -1.202483415603637695e+00 1.242971181869506836e+00 2.209059333801269531e+01 7.000069141387939453e+00 -1.382959485054016113e+00
4.100000000000000000e+01 5.049424362182617188e+01 -6.503909230232238770e-01 1.132341384887695312e+01 3.386823272705078125e+01 1.355749416351318359e+01 -6.662058353424072266e+00
4.200000000000000000e+01 5.062485122680664062e+01 -8.005883693695068359e-01 7.500037670135498047e+00 2.765592956542968750e+01 1.054679012298583984e+01 -4.473391056060791016e+00
4.300000000000000000e+01 5.075545501708984375e+01 -9.507858157157897949e-01 4.967024803161621094e+00 2.363123893737792969e+01 8.579479217529296875e+00 -3.723201274871826172e+00
4.400000000000000000e+01 5.088605880737304688e+01 -1.100983262062072754e+00 4.194572448730468750e+00 2.116806030273437500e+01 7.608789920806884766e+00 -2.668088197708129883e+00
4.500000000000000000e+01 5.053435897827148438e+01 -6.079336404800415039e-01 1.584273052215576172e+01 3.170747756958007812e+01 1.426506233215332031e+01 -7.202949523925781250e+00
4.600000000000000000e+01 5.069171142578125000e+01 -7.298262119293212891e-01 1.026954269409179688e+01 2.559010505676269531e+01 1.075789356231689453e+01 -5.688403129577636719e+00
4.700000000000000000e+01 5.084906387329101562e+01 -8.517188429832458496e-01 8.206585884094238281e+00 2.225358200073242188e+01 9.138051033020019531e+00 -4.422998428344726562e+00
4.800000000000000000e+01 5.100641250610351562e+01 -9.736114144325256348e-01 6.460918903350830078e+00 1.968669128417968750e+01 7.844283103942871094e+00 -3.989719152450561523e+00
4.900000000000000000e+01 5.056544494628906250e+01 -5.584775805473327637e-01 1.902926254272460938e+01 2.895701408386230469e+01 1.439588260650634766e+01 -6.779489994049072266e+00
5.000000000000000000e+01 5.074351882934570312e+01 -6.473995447158813477e-01 1.370979785919189453e+01 2.394029998779296875e+01 1.129502964019775391e+01 -5.289670944213867188e+00
5.100000000000000000e+01 5.092158889770507812e+01 -7.363214492797851562e-01 1.058401584625244141e+01 2.019596290588378906e+01 9.233993530273437500e+00 -4.673840045928955078e+00
5.200000000000000000e+01 5.109966278076171875e+01 -8.252434134483337402e-01 9.058271408081054688e+00 1.833144950866699219e+01 8.216916084289550781e+00 -3.648601531982421875e+00
5.300000000000000000e+01 5.058630371093750000e+01 -5.039159655570983887e-01 2.193436241149902344e+01 2.766789245605468750e+01 1.488067626953125000e+01 -5.020988464355468750e+00
5.400000000000000000e+01 5.077828216552734375e+01 -5.564634799957275391e-01 1.600312232971191406e+01 2.175205802917480469e+01 1.132655429840087891e+01 -4.276174545288085938e+00
5.500000000000000000e+01 5.097026062011718750e+01 -6.090109348297119141e-01 1.281052017211914062e+01 1.917775726318359375e+01 9.596483230590820312e+00 -3.394400596618652344e+00
5.600000000000000000e+01 5.116223907470703125e+01 -6.615584492683410645e-01 1.072583866119384766e+01 1.640881729125976562e+01 8.140397071838378906e+00 -3.147111415863037109e+00
5.700000000000000000e+01 5.059613800048828125e+01 -4.463371932506561279e-01 2.317506980895996094e+01 2.619467926025390625e+01 1.481092453002929688e+01 -2.924165010452270508e+00
5.800000000000000000e+01 5.079467391967773438e+01 -4.604988396167755127e-01 1.767673683166503906e+01 2.127689361572265625e+01 1.168608951568603516e+01 -2.320362329483032227e+00
5.900000000000000000e+01 5.099320983886718750e+01 -4.746604561805725098e-01 1.413269424438476562e+01 1.765388488769531250e+01 9.535973548889160156e+00 -1.754705190658569336e+00
6.000000000000000000e+01 5.119174575805664062e+01 -4.888221025466918945e-01 1.143172931671142578e+01 1.615537071228027344e+01 8.276129722595214844e+00 -1.313156366348266602e+00
6.100000000000000000e+01 5.059457397460937500e+01 -3.879452943801879883e-01 2.364256858825683594e+01 2.684683227539062500e+01 1.514682006835937500e+01 -6.924920082092285156e-01
6.200000000000000000e+01 5.079206848144531250e+01 -3.631789982318878174e-01 1.790481948852539062e+01 2.048633956909179688e+01 1.151734733581542969e+01 -1.616489142179489136e-01
6.300000000000000000e+01 5.098955917358398438e+01 -3.384127020835876465e-01 1.451774978637695312e+01 1.807559585571289062e+01 9.778003692626953125e+00 1.570070981979370117e-01
6.400000000000000000e+01 5.118705368041992188e+01 -3.136464059352874756e-01 1.209873294830322266e+01 1.522343254089355469e+01 8.196649551391601562e+00 7.652457356452941895e-01
6.500000000000000000e+01 5.058167266845703125e+01 -3.309756517410278320e-01 2.244497299194335938e+01 2.710191345214843750e+01 1.486406612396240234e+01 1.477662324905395508e+00
6.600000000000000000e+01 5.077056503295898438e+01 -2.682296037673950195e-01 1.729071044921875000e+01 2.186796569824218750e+01 1.174760246276855469e+01 1.480384826660156250e+00
6.700000000000000000e+01 5.095945358276367188e+01 -2.054835557937622070e-01 1.387177944183349609e+01 1.790415573120117188e+01 9.532780647277832031e+00 2.073999881744384766e+00
6.800000000000000000e+01 5.114834594726562500e+01 -1.427375078201293945e-01 1.188784790039062500e+01 1.634642791748046875e+01 8.470282554626464844e+00 2.039285898208618164e+00
6.900000000000000000e+01 5.055792236328125000e+01 -2.776089310646057129e-01 2.097013092041015625e+01 2.907349967956542969e+01 1.501308917999267578e+01 2.510992527008056641e+00
7.000000000000000000e+01 5.073098373413085938e+01 -1.792850643396377563e-01 1.524096965789794922e+01 2.286140060424804688e+01 1.143071079254150391e+01 3.008315324783325195e+00
7.100000000000000000e+01 5.090404129028320312e+01 -8.096119761466979980e-02 1.263198661804199219e+01 1.953997421264648438e+01 9.651588439941406250e+00 2.624567031860351562e+00
7.200000000000000000e+01 5.107710266113281250e+01 1.736267097294330597e-02 1.053446292877197266e+01 1.667740058898925781e+01 8.163558959960937500e+00 3.257213830947875977e+00
7.300000000000000000e+01 5.052423858642578125e+01 -2.298875749111175537e-01 1.789538764953613281e+01 3.109393882751464844e+01 1.469679832458496094e+01 3.153408527374267578e+00
7.400000000000000000e+01 5.067483901977539062e+01 -9.974946081638336182e-02 1.332693195343017578e+01 2.457472801208496094e+01 1.137049770355224609e+01 2.864667892456054688e+00
7.500000000000000000e+01 5.082544326782226562e+01 3.038865327835083008e-02 1.022670555114746094e+01 2.100572395324707031e+01 9.369729042053222656e+00 3.077986717224121094e+00
7.600000000000000000e+01 5.097604751586914062e+01 1.605267673730850220e-01 8.976374626159667969e+00 1.806451034545898438e+01 8.112265586853027344e+00 2.634592533111572266e+00
7.700000000000000000e+01 5.048190689086914062e+01 -1.896382272243499756e-01 1.528984165191650391e+01 3.275938415527343750e+01 1.441476726531982422e+01 2.456710577011108398e+00
7.800000000000000000e+01 5.060428619384765625e+01 -3.266720846295356750e-02 1.047595310211181641e+01 2.659075927734375000e+01 1.112001323699951172e+01 1.859347462654113770e+00
7.900000000000000000e+01 5.072666931152343750e+01 1.243038102984428406e-01 8.522118568420410156e+00 2.178979110717773438e+01 9.093572616577148438e+00 2.066531658172607422e+00
8.000000000000000000e+01 5.084905242919921875e+01 2.812748253345489502e-01 6.449285984039306641e+00 1.987430381774902344e+01 7.897077083587646484e+00 2.061909198760986328e+00
8.100000000000000000e+01 5.043254852294921875e+01 -1.584015190601348877e-01 1.242585277557373047e+01 3.470645523071289062e+01 1.413969326019287109e+01 2.827931046485900879e-01
8.200000000000000000e+01 5.052202224731445312e+01 1.939396560192108154e-02 8.385608673095703125e+00 2.721045684814453125e+01 1.067881965637207031e+01 1.632765829563140869e-01
8.300000000000000000e+01 5.061149978637695312e+01 1.971894502639770508e-01 6.581193447113037109e+00 2.308877563476562500e+01 8.900990486145019531e+00 -1.966276913881301880e-01
8.400000000000000000e+01 5.070097732543945312e+01 3.749849498271942139e-01 5.154741287231445312e+00 1.935668563842773438e+01 7.353428363800048828e+00 7.792606949806213379e-01
8.500000000000000000e+01 5.037805175781250000e+01 -1.373731195926666260e-01 1.016505622863769531e+01 3.509611129760742188e+01 1.357835006713867188e+01 -2.549980878829956055e+00
8.600000000000000000e+01 5.043119812011718750e+01 5.444129183888435364e-02 7.112226486206054688e+00 2.725514221191406250e+01 1.031021022796630859e+01 -2.813720703125000000e+00
8.700000000000000000e+01 5.048434448242187500e+01 2.462557107210159302e-01 5.240720272064208984e+00 2.288111495971679688e+01 8.436550140380859375e+00 -2.209032773971557617e+00
8.800000000000000000e+01 5.053749084472656250e+01 4.380701184272766113e-01 4.511441230773925781e+00 1.959687805175781250e+01 7.232495784759521484e+00 -2.257751464843750000e+00
8.900000000000000000e+01 5.032050704956054688e+01 -1.273579448461532593e-01 9.120494842529296875e+00 3.417809295654296875e+01 1.298957633972167969e+01 -6.366324901580810547e+00
9.000000000000000000e+01 5.033528518676757812e+01 7.113325595855712891e-02 6.742078304290771484e+00 2.587459182739257812e+01 9.785000801086425781e+00 -5.642968177795410156e+00
9.100000000000000000e+01 5.035006713867187500e+01 2.696244716644287109e-01 5.032645702362060547e+00 2.139707183837890625e+01 7.928915023803710938e+00 -4.887302398681640625e+00
9.200000000000000000e+01 5.036484909057617188e+01 4.681156575679779053e-01 4.241001129150390625e+00 1.914419364929199219e+01 7.015558242797851562e+00 -4.151650428771972656e+00
9.300000000000000000e+01 5.026211166381835938e+01 -1.287393420934677124e-01 9.596522331237792969e+00 3.145668029785156250e+01 1.231595993041992188e+01 -1.003934192657470703e+01
9.400000000000000000e+01 5.023796081542968750e+01 6.883092969655990601e-02 7.317198276519775391e+00 2.301079750061035156e+01 9.098398208618164062e+00 -8.379333496093750000e+00
9.500000000000000000e+01 5.021380996704101562e+01 2.664012014865875244e-01 5.815691947937011719e+00 1.909801864624023438e+01 7.474112987518310547e+00 -6.972868442535400391e+00
9.600000000000000000e+01 5.018965911865234375e+01 4.639714658260345459e-01 4.817094802856445312e+00 1.604136657714843750e+01 6.257538318634033203e+00 -6.099650382995605469e+00
9.700000000000000000e+01 5.020509719848632812e+01 -1.414644271135330200e-01 1.137370681762695312e+01 2.686425781250000000e+01 1.147138881683349609e+01 -1.311632251739501953e+01
9.800000000000000000e+01 5.014294433593750000e+01 4.762244224548339844e-02 8.766678810119628906e+00 1.911730194091796875e+01 8.365194320678710938e+00 -1.015241241455078125e+01
9.900000000000000000e+01 5.008078765869140625e+01 2.367093116044998169e-01 7.259653091430664062e+00 1.538357257843017578e+01 6.792967796325683594e+00 -8.397459030151367188e+00
1.000000000000000000e+02 5.001863098144531250e+01 4.257961809635162354e-01 5.768832683563232422e+00 1.325591564178466797e+01 5.707424163818359375e+00 -7.569891929626464844e+00
1.010000000000000000e+02 5.015165710449218750e+01 -1.650461405515670776e-01 1.381218719482421875e+01 2.087316894531250000e+01 1.040560722351074219e+01 -1.471416091918945312e+01
1.020000000000000000e+02 5.005387496948242188e+01 8.319597691297531128e-03 1.085300540924072266e+01 1.441506481170654297e+01 7.580420970916748047e+00 -1.065135478973388672e+01
1.030000000000000000e+02 4.995609283447265625e+01 1.816853433847427368e-01 8.608393669128417969e+00 1.128947544097900391e+01 5.969360828399658203e+00 -8.948704719543457031e+00
1.040000000000000000e+02 4.985831069946289062e+01 3.550510704517364502e-01 7.320626735687255859e+00 9.957992553710937500e+00 5.183585643768310547e+00 -7.374750614166259766e+00
1.050000000000000000e+02 5.010383224487304688e+01 -1.985818147659301758e-01 1.677346229553222656e+01 1.451275157928466797e+01 9.385864257812500000e+00 -1.422232913970947266e+01
1.060000000000000000e+02 4.997416687011718750e+01 -4.757319390773773193e-02 1.231072616577148438e+01 9.300030708312988281e+00 6.483227252960205078e+00 -1.000350761413574219e+01
1.070000000000000000e+02 4.984449768066406250e+01 1.034354194998741150e-01 9.996003150939941406e+00 7.544348716735839844e+00 5.262105464935302734e+00 -7.914974689483642578e+00
1.080000000000000000e+02 4.971482849121093750e+01 2.544440329074859619e-01 8.456165313720703125e+00 5.846489429473876953e+00 4.290796279907226562e+00 -6.748350620269775391e+00
1.090000000000000000e+02 5.006345367431640625e+01 -2.407878041267395020e-01 1.846142387390136719e+01 7.982622623443603516e+00 7.933214187622070312e+00 -1.193866825103759766e+01
1.100000000000000000e+02 4.990686416625976562e+01 -1.179165095090866089e-01 1.317008590698242188e+01 5.138223171234130859e+00 5.492492675781250000e+00 -7.846732616424560547e+00
1.110000000000000000e+02 4.975027465820312500e+01 4.954783245921134949e-03 1.036104011535644531e+01 3.753627777099609375e+00 4.234400272369384766e+00 -6.056462287902832031e+00
1.120000000000000000e+02 4.959368515014648438e+01 1.278260648250579834e-01 8.742208480834960938e+00 3.283670186996459961e+00 3.607763528823852539e+00 -5.328657627105712891e+00
1.130000000000000000e+02 5.003206253051757812e+01 -2.900485694408416748e-01 1.856229209899902344e+01 2.997429847717285156e+00 6.467916488647460938e+00 -7.961474418640136719e+00
1.140000000000000000e+02 4.985454559326171875e+01 -2.000177949666976929e-01 1.217228031158447266e+01 1.647546410560607910e+00 4.145947933197021484e+00 -4.833268642425537109e+00
1.150000000000000000e+02 4.967702865600585938e+01 -1.099870055913925171e-01 9.668140411376953125e+00 1.500599622726440430e+00 3.350622177124023438e+00 -3.768252611160278320e+00
1.160000000000000000e+02 4.949951553344726562e+01 -1.995622552931308746e-02 7.809311389923095703e+00 1.250618696212768555e+00 2.717978954315185547e+00 -3.176377534866333008e+00
1.170000000000000000e+02 5.001086425781250000e+01 -3.444785475730895996e-01 1.546643066406250000e+01 -4.733946621417999268e-01 4.497910976409912109e+00 -3.335787057876586914e+00
1.180000000000000000e+02 4.981921386718750000e+01 -2.907344102859497070e-01 9.674989700317382812e+00 -1.000322997570037842e-01 2.872487068176269531e+00 -1.671744942665100098e+00
1.190000000000000000e+02 4.962756729125976562e+01 -2.369902878999710083e-01 7.009881496429443359e+00 4.118110537528991699e-01 2.226507663726806641e+00 -1.503196954727172852e+00
1.200000000000000000e+02 4.943592071533203125e+01 -1.832461506128311157e-01 6.296210765838623047e+00 3.080167174339294434e-01 1.981268286705017090e+00 -1.596811890602111816e+00
1.210000000000000000e+02 5.000066757202148438e+01 -4.019942879676818848e-01 9.326788902282714844e+00 -1.886677503585815430e+00 2.232033491134643555e+00 1.388644933700561523e+00
1.220000000000000000e+02 4.980222320556640625e+01 -3.865939974784851074e-01 4.277595043182373047e+00 -1.501629594713449478e-03 1.282827973365783691e+00 1.718365252017974854e-01
1.230000000000000000e+02 4.960377883911132812e+01 -3.711937069892883301e-01 4.590384483337402344e+00 1.905513107776641846e-01 1.434280633926391602e+00 -5.273512005805969238e-01
1.240000000000000000e+02 4.940533447265625000e+01 -3.557933866977691650e-01 3.451400756835937500e+00 -2.230251431465148926e-01 9.685127139091491699e-01 -1.309928596019744873e-01
1.250000000000000000e+02 5.000186538696289062e+01 -4.603942632675170898e-01 -3.438559532165527344e+00 -1.160737037658691406e+00 -1.379788875579833984e+00 1.932876706123352051e+00
1.260000000000000000e+02 4.980422210693359375e+01 -4.839272797107696533e-01 1.615301609039306641e+00 6.301345229148864746e-01 6.736308336257934570e-01 -3.662394881248474121e-01
1.270000000000000000e+02 4.960657501220703125e+01 -5.074602961540222168e-01 6.212795376777648926e-01 -3.280758857727050781e-01 8.796109259128570557e-02 2.709357738494873047e-01
1.280000000000000000e+02 4.940893173217773438e+01 -5.309933423995971680e-01 6.150938272476196289e-01 1.662998348474502563e-01 2.344181090593338013e-01 -4.330649599432945251e-02
1.290000000000000000e+02 1.777486610412597656e+01 1.073900461196899414e+00 -7.744351625442504883e-01 4.830171763896942139e-01 -8.742538839578628540e-02 -4.342422261834144592e-02
1.300000000000000000e+02 1.792778015136718750e+01 4.714254438877105713e-01 -5.718601942062377930e-01 -3.500555157661437988e-01 -2.765747308731079102e-01 -3.123751282691955566e-02
1.310000000000000000e+02 1.644459342956542969e+01 1.723731011152267456e-01 -5.376181006431579590e-01 -2.485552132129669189e-01 -2.358519881963729858e-01 -8.325617015361785889e-02
1.320000000000000000e+02 1.848871994018554688e+01 6.747622489929199219e-01 -5.511239171028137207e-01 3.959602117538452148e-01 -4.654910787940025330e-02 2.171989157795906067e-02
1.330000000000000000e+02 1.726383209228515625e+01 2.464335858821868896e-01 -4.445725083351135254e-01 3.188639581203460693e-01 -3.771257027983665466e-02 -9.351153671741485596e-02
1.340000000000000000e+02 1.847787094116210938e+01 1.163098692893981934e+00 -7.763058543205261230e-01 -5.511943101882934570e-01 -3.982500433921813965e-01 -5.939632654190063477e-02
1.350000000000000000e+02 1.630637359619140625e+01 9.048026204109191895e-01 -6.315914392471313477e-01 2.330091446638107300e-01 -1.195746883749961853e-01 -1.293331980705261230e-01
1.360000000000000000e+02 1.839068794250488281e+01 1.810296177864074707e-01 -8.117859363555908203e-01 1.010426580905914307e-01 -2.132229804992675781e-01 -1.255981922149658203e-01
1.370000000000000000e+02 1.705963325500488281e+01 9.744657874107360840e-01 -7.592436075210571289e-01 -3.151962161064147949e-01 -3.223319649696350098e-01 -7.162155956029891968e-02
1.380000000000000000e+02 2.069370651245117188e+01 3.904900848865509033e-01 -1.034899473190307617e+00 8.304986357688903809e-01 -6.132024526596069336e-02 6.472561359405517578e-01
1.390000000000000000e+02 2.311314582824707031e+01 -1.502791643142700195e-01 -2.116342067718505859e+00 3.651920258998870850e-01 -5.253449678421020508e-01 3.841052204370498657e-02
1.400000000000000000e+02 2.569888687133789062e+01 -5.156913399696350098e-01 -3.947162151336669922e+00 5.529577136039733887e-01 -1.018261313438415527e+00 9.900782704353332520e-01
1.410000000000000000e+02 2.401404762268066406e+01 3.338841721415519714e-02 -1.314990520477294922e+00 1.084719777107238770e+00 -6.908123940229415894e-02 -4.550593495368957520e-01
1.420000000000000000e+02 2.763137626647949219e+01 -1.746285796165466309e+00 1.408062696456909180e+00 1.864744186401367188e+00 9.818420410156250000e-01 -1.006511807441711426e+00
1.430000000000000000e+02 2.771944427490234375e+01 -1.175511240959167480e+00 -3.084876775741577148e+00 -8.403323888778686523e-01 -1.177562713623046875e+00 1.384900808334350586e+00
1.440000000000000000e+02 2.848646163940429688e+01 -2.198873519897460938e+00 1.913554966449737549e-01 -8.512714505195617676e-01 -1.979747861623764038e-01 6.746832281351089478e-03
1.450000000000000000e+02 2.930397224426269531e+01 -2.423318624496459961e+00 -6.134585142135620117e-01 2.557511925697326660e-01 -1.073121950030326843e-01 1.447818726301193237e-01
1.460000000000000000e+02 1.982421684265136719e+01 3.275624811649322510e-01 -7.606558203697204590e-01 2.056622058153152466e-01 -1.664980947971343994e-01 -1.403264999389648438e-01
1.470000000000000000e+02 1.909939575195312500e+01 1.000163033604621887e-01 -3.877692818641662598e-01 1.206387951970100403e-01 -8.013914525508880615e-02 -1.087401211261749268e-01
1.480000000000000000e+02 1.978351783752441406e+01 -9.413920342922210693e-02 -3.556480258703231812e-02 -2.273629903793334961e-01 -7.887834310531616211e-02 -3.738718852400779724e-02
1.490000000000000000e+02 2.930961036682128906e+01 -1.660121440887451172e+00 -1.627554416656494141e+00 -4.513887465000152588e-01 -6.236829757690429688e-01 5.422991514205932617e-01
1.500000000000000000e+02 3.012296295166015625e+01 -2.638345956802368164e+00 -5.054739117622375488e-01 -8.352279663085937500e-01 -4.022105634212493896e-01 1.679502874612808228e-01
1.510000000000000000e+02 3.009844779968261719e+01 -1.867299437522888184e+00 -1.660236358642578125e+00 -4.143708944320678711e-02 -5.105020403861999512e-01 2.668940424919128418e-01
1.520000000000000000e+02 2.688036918640136719e+01 -8.299868702888488770e-01 -4.853324890136718750e+00 -2.606500983238220215e-01 -1.534192562103271484e+00 1.929127097129821777e+00
1.530000000000000000e+02 2.669494247436523438e+01 -1.065739393234252930e+00 2.955982685089111328e+00 7.686724662780761719e-01 1.117396593093872070e+00 -2.196123600006103516e+00
1.540000000000000000e+02 2.604942893981933594e+01 -5.149537920951843262e-01 -7.251200675964355469e+00 -1.079969525337219238e+00 -2.499351024627685547e+00 1.707720518112182617e+00
1.550000000000000000e+02 2.534797477722167969e+01 -2.902369797229766846e-01 -4.116709232330322266e+00 1.654060602188110352e+00 -7.387945652008056641e-01 1.140704751014709473e+00
1.560000000000000000e+02 2.502335357666015625e+01 -2.417187690734863281e-01 -1.588969516754150391e+01 -2.271211385726928711e+00 -5.448272228240966797e+00 6.222605705261230469e+00
1.570000000000000000e+02 2.246835899353027344e+01 1.378261744976043701e-01 -1.154987335205078125e+00 1.842343688011169434e+00 2.062068879604339600e-01 -5.790501236915588379e-01
1.580000000000000000e+02 2.035116004943847656e+01 -1.736120879650115967e-01 -1.102007646113634109e-02 1.310327291488647461e+00 3.897921442985534668e-01 -4.142463803291320801e-01
1.590000000000000000e+02 1.996188163757324219e+01 8.227458000183105469e-01 -1.242813944816589355e+00 -6.635022759437561035e-01 -5.718948841094970703e-01 1.110774558037519455e-02
1.600000000000000000e+02 1.914756202697753906e+01 5.841042995452880859e-01 -9.551706314086914062e-01 -1.324689835309982300e-01 -3.262918889522552490e-01 -5.863340571522712708e-02
1.610000000000000000e+02 1.921282958984375000e+01 1.082078099250793457e+00 -7.626459002494812012e-01 5.883541703224182129e-01 -5.228751152753829956e-02 1.949671059846878052e-01
1.620000000000000000e+02 2.161278152465820312e+01 8.425430953502655029e-02 -8.689551949501037598e-01 -1.208636999130249023e+00 -6.232776641845703125e-01 2.419973462820053101e-01
1.630000000000000000e+02 2.852224922180175781e+01 -1.443525433540344238e+00 -2.106306791305541992e+00 -2.508346438407897949e-01 -7.071424126625061035e-01 9.014471173286437988e-01
1.640000000000000000e+02 2.421053886413574219e+01 -1.071830093860626221e-01 -1.060844993591308594e+01 -4.446547627449035645e-01 -3.315931320190429688e+00 8.239516019821166992e-01
1.650000000000000000e+02 2.475981521606445312e+01 -1.221572384238243103e-01 -1.180936241149902344e+01 -3.183304309844970703e+00 -4.497800350189208984e+00 3.607840061187744141e+00
1.660000000000000000e+02 2.316209220886230469e+01 1.658043712377548218e-01 -1.756278038024902344e+00 -1.344278693199157715e+00 -9.301670193672180176e-01 1.128530144691467285e+00
1.670000000000000000e+02 3.171501731872558594e+01 -2.317536830902099609e+00 -8.673970699310302734e-01 -5.343440175056457520e-01 -4.205223321914672852e-01 -1.662448495626449585e-01
1.680000000000000000e+02 3.159167480468750000e+01 -1.573781251907348633e+00 -1.067501544952392578e+00 7.132867723703384399e-02 -2.988518476486206055e-01 -4.322809278964996338e-01
1.690000000000000000e+02 3.092625236511230469e+01 -2.603541374206542969e+00 -6.116052865982055664e-01 -2.028884291648864746e-01 -2.443481087684631348e-01 2.445305325090885162e-02
1.700000000000000000e+02 3.329127502441406250e+01 -1.721204519271850586e+00 -8.527331352233886719e-01 -4.376115798950195312e-01 -3.871034085750579834e-01 -3.834974169731140137e-01
1.710000000000000000e+02 3.305626296997070312e+01 -1.019069790840148926e+00 -1.141551375389099121e+00 1.015915535390377045e-02 -3.394176661968231201e-01 -5.593284964561462402e-01
1.720000000000000000e+02 3.232479095458984375e+01 -1.299670934677124023e+00 -1.085666656494140625e+00 -4.260442852973937988e-01 -4.535132944583892822e-01 -3.866704404354095459e-01
1.730000000000000000e+02 3.250396728515625000e+01 -2.022616147994995117e+00 -7.952777743339538574e-01 -5.356414709240198135e-03 -2.401902675628662109e-01 -4.671706557273864746e-01
1.740000000000000000e+02 3.085874366760253906e+01 -1.838975429534912109e+00 -1.438173055648803711e+00 -5.418415665626525879e-01 -5.940043926239013672e-01 -1.383793801069259644e-01
1.750000000000000000e+02 3.381026458740234375e+01 -7.248246073722839355e-01 -1.273392796516418457e+00 -4.380263984203338623e-01 -5.134257674217224121e-01 -4.685331881046295166e-01
1.760000000000000000e+02 3.458703231811523438e+01 -4.199312925338745117e-01 -1.313770771026611328e+00 -3.627247875556349754e-03 -3.952193856239318848e-01 -6.177339553833007812e-01
1.770000000000000000e+02 3.405215835571289062e+01 -1.424708485603332520e+00 -8.788652420043945312e-01 -2.338686212897300720e-02 -2.706756293773651123e-01 -5.279914736747741699e-01
1.780000000000000000e+02 3.536509704589843750e+01 -1.194015666842460632e-01 -1.398331999778747559e+00 -4.013465046882629395e-01 -5.399035811424255371e-01 -4.925785958766937256e-01
1.790000000000000000e+02 3.691955184936523438e+01 4.870322942733764648e-01 -1.278682827949523926e+00 -2.917647361755371094e-01 -4.711342751979827881e-01 -4.047405123710632324e-01
1.800000000000000000e+02 3.769688415527343750e+01 7.879440784454345703e-01 -1.063857197761535645e+00 1.473753899335861206e-01 -2.749445438385009766e-01 -2.964110970497131348e-01
1.810000000000000000e+02 3.846224212646484375e+01 2.872591614723205566e-01 -1.044948697090148926e+00 4.065270721912384033e-01 -1.915264874696731567e-01 -7.598341442644596100e-03
1.820000000000000000e+02 3.847284317016601562e+01 1.084994435310363770e+00 -7.363281250000000000e-01 -1.012191027402877808e-01 -2.512641847133636475e-01 -9.165237843990325928e-02
1.830000000000000000e+02 3.699311447143554688e+01 -2.780858278274536133e-01 -1.020242691040039062e+00 1.979634910821914673e-01 -2.466837465763092041e-01 -2.736250758171081543e-01
1.840000000000000000e+02 3.614285659790039062e+01 1.828823834657669067e-01 -1.350170850753784180e+00 1.730039715766906738e-02 -3.998611271381378174e-01 -5.443332791328430176e-01
1.850000000000000000e+02 3.478684234619140625e+01 -1.136123776435852051e+00 -9.750301837921142578e-01 -3.248982429504394531e-01 -3.899785280227661133e-01 -4.064656496047973633e-01
1.860000000000000000e+02 3.552282333374023438e+01 -8.519025444984436035e-01 -9.785751104354858398e-01 4.031849279999732971e-02 -2.814770042896270752e-01 -4.708563983440399170e-01
1.870000000000000000e+02 3.625850296020507812e+01 -5.659272074699401855e-01 -1.061465978622436523e+00 -1.607535034418106079e-01 -3.666658699512481689e-01 -3.121945559978485107e-01
1.880000000000000000e+02 3.772836685180664062e+01 6.517409812659025192e-03 -1.051743268966674805e+00 6.735736876726150513e-02 -2.953157722949981689e-01 -1.310876160860061646e-01
1.890000000000000000e+02 4.027894592285156250e+01 -2.541387975215911865e-01 -1.024701833724975586e+00 9.268458001315593719e-03 -3.046300113201141357e-01 2.448030114173889160e-01
1.900000000000000000e+02 4.047003936767578125e+01 4.750773012638092041e-01 -1.230932712554931641e+00 -3.480192739516496658e-03 -3.703238666057586670e-01 5.051507353782653809e-01
1.910000000000000000e+02 3.969956207275390625e+01 2.476016059517860413e-02 -1.030065298080444336e+00 3.701458573341369629e-01 -1.979758143424987793e-01 1.462969630956649780e-01
1.920000000000000000e+02 4.085557556152343750e+01 -5.415500402450561523e-01 -9.694851636886596680e-01 1.353641897439956665e-01 -2.502363026142120361e-01 3.377653658390045166e-01
1.930000000000000000e+02 4.111045455932617188e+01 1.569967120885848999e-01 -1.391236186027526855e+00 -3.393190503120422363e-01 -5.191665887832641602e-01 5.598306059837341309e-01
1.940000000000000000e+02 3.982687759399414062e+01 7.846456766128540039e-01 -1.019289135932922363e+00 -2.243098765611648560e-01 -3.730797171592712402e-01 3.047868907451629639e-01
1.950000000000000000e+02 3.911914825439453125e+01 2.937080264091491699e-01 -1.046622872352600098e+00 1.137729808688163757e-01 -2.798549532890319824e-01 5.941653996706008911e-02
1.960000000000000000e+02 3.918268203735351562e+01 1.084262847900390625e+00 -7.019596099853515625e-01 2.652706503868103027e-01 -1.310066878795623779e-01 1.385650783777236938e-01
1.970000000000000000e+02 4.250700378417968750e+01 -3.963981866836547852e-01 -1.178323745727539062e+00 -2.396705448627471924e-01 -4.253982901573181152e-01 5.490167140960693359e-01
1.980000000000000000e+02 4.151531600952148438e+01 -8.242236971855163574e-01 -7.690886259078979492e-01 -2.042232453823089600e-01 -2.919935584068298340e-01 4.778028130531311035e-01
1.990000000000000000e+02 4.375409698486328125e+01 -1.632939934730529785e+00 -6.581177562475204468e-02 -4.143690168857574463e-01 -1.440542340278625488e-01 5.628235340118408203e-01
2.000000000000000000e+02 4.300669479370117188e+01 -1.363770723342895508e+00 -4.242376387119293213e-01 -2.615025937557220459e-01 -2.057220786809921265e-01 6.574118137359619141e-01
2.010000000000000000e+02 4.394734954833984375e+01 -9.159503579139709473e-01 -5.964912772178649902e-01 -2.056651264429092407e-01 -2.406469285488128662e-01 3.906146585941314697e-01
2.020000000000000000e+02 4.178872680664062500e+01 -1.361862868070602417e-01 -1.389008045196533203e+00 -1.795032322406768799e-01 -4.705533683300018311e-01 5.870478749275207520e-01
2.030000000000000000e+02 4.322666549682617188e+01 -6.564318537712097168e-01 -9.058876037597656250e-01 -2.040358483791351318e-01 -3.329770267009735107e-01 4.871445000171661377e-01
2.040000000000000000e+02 4.226031494140625000e+01 -1.094086289405822754e+00 -6.937764883041381836e-01 -1.536127179861068726e-01 -2.542167603969573975e-01 5.322223305702209473e-01
2.050000000000000000e+02 4.690954208374023438e+01 -1.598350644111633301e+00 -5.944198966026306152e-01 -8.947849273681640625e-02 -2.051695138216018677e-01 -5.095204114913940430e-01
2.060000000000000000e+02 4.723628234863281250e+01 -2.121991872787475586e+00 5.095682740211486816e-01 -4.488258808851242065e-02 1.394057124853134155e-01 -3.496293127536773682e-01
2.070000000000000000e+02 4.454398727416992188e+01 -1.831027030944824219e+00 -2.800752222537994385e-02 -4.970805644989013672e-01 -1.575264334678649902e-01 2.246977239847183228e-01
2.080000000000000000e+02 4.711179351806640625e+01 -2.468582630157470703e+00 7.018547654151916504e-01 7.124913390725851059e-03 2.126939147710800171e-01 -3.157824277877807617e-01
2.090000000000000000e+02 4.721186828613281250e+01 -1.936715245246887207e+00 3.113906271755695343e-02 -1.420528739690780640e-01 -3.327414393424987793e-02 -4.266993105411529541e-01
2.100000000000000000e+02 4.621723175048828125e+01 -2.156782388687133789e+00 1.474882215261459351e-01 -2.963273227214813232e-01 -4.465173184871673584e-02 -3.928478956222534180e-01
2.110000000000000000e+02 4.720491409301757812e+01 -1.748753905296325684e+00 -3.035580515861511230e-01 -1.719100773334503174e-01 -1.426404416561126709e-01 -5.040123462677001953e-01
2.120000000000000000e+02 4.709891891479492188e+01 -1.168725609779357910e+00 -1.686952233314514160e+00 -9.343872778117656708e-03 -5.088888406753540039e-01 -1.103455275297164917e-01
2.130000000000000000e+02 4.652327346801757812e+01 -1.764759182929992676e+00 -2.968027591705322266e-01 -1.015609130263328552e-01 -1.195091009140014648e-01 -4.495542645454406738e-01
2.140000000000000000e+02 4.681496429443359375e+01 -1.300522923469543457e+00 -1.150001883506774902e+00 -4.560183733701705933e-02 -3.586811125278472900e-01 -1.860772818326950073e-01
2.150000000000000000e+02 4.550033187866210938e+01 -1.229265213012695312e+00 -2.796626091003417969e-01 -1.051049456000328064e-01 -1.154302582144737244e-01 -4.293842613697052002e-02
2.160000000000000000e+02 4.469759368896484375e+01 -1.105457067489624023e+00 -3.148219287395477295e-01 -1.644974946975708008e-01 -1.437958180904388428e-01 1.943866759538650513e-01
2.170000000000000000e+02 4.721935272216796875e+01 -1.563967108726501465e+00 -8.889197707176208496e-01 -2.215467691421508789e-01 -3.331399559974670410e-01 -4.501420557498931885e-01
2.180000000000000000e+02 4.721690750122070312e+01 -2.297544479370117188e+00 6.136447191238403320e-01 -1.307018250226974487e-01 1.448828727006912231e-01 -2.995080649852752686e-01
2.190000000000000000e+02 4.719818878173828125e+01 -1.376064062118530273e+00 -1.368797898292541504e+00 -7.285000383853912354e-02 -4.324943721294403076e-01 -5.502378940582275391e-01
2.200000000000000000e+02 4.626571273803710938e+01 -1.264719843864440918e+00 -5.382851958274841309e-01 5.236222594976425171e-02 -1.457768976688385010e-01 -1.258895397186279297e-01
2.210000000000000000e+02 4.680354690551757812e+01 -2.275314092636108398e+00 4.507245719432830811e-01 2.437752299010753632e-02 1.425306200981140137e-01 -4.597145617008209229e-01
2.220000000000000000e+02 4.539929962158203125e+01 -1.962345361709594727e+00 -2.047833241522312164e-02 -2.635070085525512695e-01 -8.519560098648071289e-02 -4.756998643279075623e-02
2.230000000000000000e+02 4.691503524780273438e+01 -2.025647401809692383e+00 1.438939273357391357e-01 -1.531306356191635132e-01 -2.771011553704738617e-03 -4.997295439243316650e-01
2.240000000000000000e+02 5.093313598632812500e+01 -1.608422517776489258e+00 7.920058369636535645e-01 1.858128547668457031e+01 5.811987400054931641e+00 -4.784089922904968262e-01
2.250000000000000000e+02 5.136869812011718750e+01 -9.734426140785217285e-01 7.111032962799072266e+00 1.652551269531250000e+01 7.090963840484619141e+00 -3.237773418426513672e+00
2.260000000000000000e+02 5.151493835449218750e+01 -1.019294187426567078e-01 8.139974594116210938e+00 1.301652240753173828e+01 6.346949100494384766e+00 2.420612812042236328e+00
2.270000000000000000e+02 5.132522964477539062e+01 -8.261451870203018188e-02 9.418035507202148438e+00 1.434168338775634766e+01 7.127915859222412109e+00 2.235224008560180664e+00
2.280000000000000000e+02 4.766471862792968750e+01 -9.097645878791809082e-01 -5.687400102615356445e-01 6.670347414910793304e-03 -1.686208993196487427e-01 -8.796004205942153931e-02
2.290000000000000000e+02 4.951798248291015625e+01 8.408911228179931641e-01 5.119192600250244141e+00 5.761373043060302734e+00 3.264169692993164062e+00 -5.495956420898437500e+00
2.300000000000000000e+02 5.124532318115234375e+01 -9.111463427543640137e-01 8.012694358825683594e+00 1.610547828674316406e+01 7.235451698303222656e+00 -3.468970298767089844e+00
2.310000000000000000e+02 4.925646209716796875e+01 -7.854051589965820312e-01 -2.245400190353393555e+00 -2.240948975086212158e-01 -7.408485412597656250e-01 -3.779515624046325684e-01
2.320000000000000000e+02 4.752682876586914062e+01 -2.497823238372802734e+00 7.796164155006408691e-01 4.310440421104431152e-01 3.631981313228607178e-01 -1.774567924439907074e-02
2.330000000000000000e+02 4.769353485107421875e+01 -2.279385089874267578e+00 7.550632953643798828e-01 3.499906659126281738e-01 3.315162062644958496e-01 2.836627885699272156e-02
2.340000000000000000e+02 4.749899291992187500e+01 -1.951101899147033691e+00 2.603488266468048096e-01 -6.983562558889389038e-02 5.715396255254745483e-02 -3.433515727519989014e-01
2.350000000000000000e+02 4.792715072631835938e+01 -1.349376678466796875e+00 -1.410854935646057129e+00 -1.280544102191925049e-01 -4.616727828979492188e-01 -4.719458520412445068e-01
2.360000000000000000e+02 5.038813781738281250e+01 -1.649003982543945312e+00 -7.173033952713012695e-01 1.611263656616210938e+01 4.618600368499755859e+00 3.380801200866699219e+00
2.370000000000000000e+02 5.085319900512695312e+01 -1.464666366577148438e+00 6.414895653724670410e-01 2.003943252563476562e+01 6.204276561737060547e+00 -1.437627196311950684e+00
2.380000000000000000e+02 5.014135360717773438e+01 -1.886026620864868164e+00 -3.588298559188842773e-01 1.301105308532714844e+01 3.795666933059692383e+00 3.812638759613037109e+00
2.390000000000000000e+02 4.971838760375976562e+01 -1.932757019996643066e+00 8.884813785552978516e-01 8.558134078979492188e+00 2.833984613418579102e+00 3.984868526458740234e+00
2.400000000000000000e+02 4.947631072998046875e+01 -1.165064573287963867e+00 1.760469794273376465e+00 2.833072423934936523e+00 1.378062605857849121e+00 2.868149042129516602e+00
2.410000000000000000e+02 4.921379852294921875e+01 -1.787495493888854980e+00 1.385726094245910645e+00 4.107614517211914062e+00 1.648002147674560547e+00 2.725265026092529297e+00
2.420000000000000000e+02 4.866685867309570312e+01 -9.242126941680908203e-01 -2.835038185119628906e+00 -6.602279096841812134e-02 -8.703182935714721680e-01 -6.803163886070251465e-01
2.430000000000000000e+02 4.805216598510742188e+01 -2.142796754837036133e+00 8.046762347221374512e-01 7.672933340072631836e-01 4.715908765792846680e-01 3.468321859836578369e-01
2.440000000000000000e+02 4.772117233276367188e+01 -2.454714775085449219e+00 9.561372399330139160e-01 6.788402795791625977e-01 4.904932677745819092e-01 1.004192903637886047e-01
2.450000000000000000e+02 4.820283126831054688e+01 -7.401093840599060059e-01 -2.561048567295074463e-01 -4.483823850750923157e-02 -9.028292447328567505e-02 -1.386058926582336426e-01
2.460000000000000000e+02 4.995058059692382812e+01 6.419957280158996582e-01 4.878475189208984375e+00 1.182222366333007812e+01 5.010209560394287109e+00 -5.929752349853515625e+00
2.470000000000000000e+02 4.746748733520507812e+01 -9.512178301811218262e-01 -5.528181195259094238e-01 -9.890798479318618774e-02 -1.955178231000900269e-01 -1.349135935306549072e-01
2.480000000000000000e+02 4.767504501342773438e+01 -7.179334163665771484e-01 -1.551766395568847656e-01 4.910282324999570847e-03 -4.507990553975105286e-02 -1.491665542125701904e-01
2.490000000000000000e+02 4.785016250610351562e+01 -8.801861405372619629e-01 -5.537899136543273926e-01 1.076192501932382584e-02 -1.629083901643753052e-01 -1.621302813291549683e-01
2.500000000000000000e+02 4.818387222290039062e+01 4.601136445999145508e-01 3.176800727844238281e+00 4.208850264549255371e-01 1.079305768013000488e+00 -1.833721756935119629e+00
2.510000000000000000e+02 4.856947326660156250e+01 5.877919197082519531e-01 4.069272518157958984e+00 1.026124954223632812e+00 1.528619289398193359e+00 -2.809223175048828125e+00
2.520000000000000000e+02 4.920483398437500000e+01 -3.327240347862243652e-01 3.182810306549072266e+00 3.886245563626289368e-02 9.665018320083618164e-01 -3.949149549007415771e-01
2.530000000000000000e+02 4.921083068847656250e+01 -5.522502064704895020e-01 3.861145675182342529e-01 -1.239690110087394714e-01 7.864367216825485229e-02 3.237513825297355652e-02
2.540000000000000000e+02 5.083617782592773438e+01 5.371959805488586426e-01 4.594560146331787109e+00 1.895697212219238281e+01 7.065459728240966797e+00 1.582895398139953613e+00
2.550000000000000000e+02 5.067113876342773438e+01 6.919471621513366699e-01 3.749555110931396484e+00 1.607155036926269531e+01 5.946331501007080078e+00 -8.236863017082214355e-01
2.560000000000000000e+02 4.961914062500000000e+01 6.961771249771118164e-01 5.485626697540283203e+00 7.033497810363769531e+00 3.755737543106079102e+00 -6.321358203887939453e+00
2.570000000000000000e+02 4.933617401123046875e+01 7.674698829650878906e-01 5.317713260650634766e+00 4.512863636016845703e+00 2.949172973632812500e+00 -5.353430747985839844e+00
2.580000000000000000e+02 4.889553070068359375e+01 -1.075294971466064453e+00 -1.257359147071838379e+00 2.373105436563491821e-01 -3.060145676136016846e-01 -1.116045191884040833e-01
2.590000000000000000e+02 4.931536483764648438e+01 -1.290081501007080078e+00 1.297704458236694336e+00 2.572391033172607422e+00 1.161028742790222168e+00 2.506173849105834961e+00
2.600000000000000000e+02 5.017108154296875000e+01 -1.675538778305053711e+00 6.028035283088684082e-02 1.418177509307861328e+01 4.272616863250732422e+00 4.122800827026367188e+00
2.610000000000000000e+02 5.000937271118164062e+01 -1.474968314170837402e+00 9.174660444259643555e-01 1.236523723602294922e+01 3.984811067581176758e+00 5.207081317901611328e+00
2.620000000000000000e+02 5.080298995971679688e+01 -1.354277253150939941e+00 1.150403738021850586e+00 2.106671142578125000e+01 6.665134906768798828e+00 -1.230297327041625977e+00
2.630000000000000000e+02 5.131312561035156250e+01 -7.095201015472412109e-01 9.862719535827636719e+00 1.611771965026855469e+01 7.794131755828857422e+00 -2.853370189666748047e+00
2.640000000000000000e+02 4.847495651245117188e+01 -9.781464338302612305e-01 -2.799128293991088867e+00 -1.932709813117980957e-01 -8.977198004722595215e-01 -7.112284898757934570e-01
2.650000000000000000e+02 4.889593505859375000e+01 -2.150584697723388672e+00 1.291732549667358398e+00 3.204144239425659180e+00 1.348763108253479004e+00 1.866792798042297363e+00
2.660000000000000000e+02 4.749515914916992188e+01 -1.381409645080566406e+00 -1.330444693565368652e+00 -3.754341304302215576e-01 -5.117636322975158691e-01 -4.525311291217803955e-01
2.670000000000000000e+02 4.768473052978515625e+01 -1.148894309997558594e+00 -2.546329498291015625e+00 -1.603964269161224365e-01 -8.120177984237670898e-01 -6.479575037956237793e-01
2.680000000000000000e+02 4.746289443969726562e+01 -5.674670338630676270e-01 8.534947037696838379e-02 5.760071426630020142e-02 4.288505390286445618e-02 -1.897741109132766724e-01
2.690000000000000000e+02 4.750028991699218750e+01 -2.133258104324340820e+00 5.168020129203796387e-01 -6.184748187661170959e-02 1.364863514900207520e-01 -2.606659829616546631e-01
2.700000000000000000e+02 4.751236343383789062e+01 -2.315472364425659180e+00 7.273159623146057129e-01 3.017934858798980713e-01 3.087328374385833740e-01 -2.440504878759384155e-01
2.710000000000000000e+02 4.811078262329101562e+01 -2.347627162933349609e+00 1.175805687904357910e+00 1.120833992958068848e+00 6.889919042587280273e-01 4.982666075229644775e-01
2.720000000000000000e+02 4.740877532958984375e+01 3.617084920406341553e-01 1.561538815498352051e+00 3.333545029163360596e-01 5.684679746627807617e-01 -1.084945321083068848e+00
2.730000000000000000e+02 4.792232513427734375e+01 1.086568534374237061e-01 2.118906736373901367e+00 1.530981510877609253e-01 6.816014647483825684e-01 -9.335488677024841309e-01
2.740000000000000000e+02 4.944338226318359375e+01 2.553882300853729248e-01 7.541883468627929688e+00 2.811832427978515625e+00 3.106114864349365234e+00 -4.725414752960205078e+00
2.750000000000000000e+02 4.958451080322265625e+01 4.067356884479522705e-01 7.236032485961914062e+00 5.321210384368896484e+00 3.767173051834106445e+00 -6.202712059020996094e+00
2.760000000000000000e+02 4.975220489501953125e+01 5.413644313812255859e-01 6.343147754669189453e+00 7.742870807647705078e+00 4.225805759429931641e+00 -6.620746135711669922e+00
2.770000000000000000e+02 4.759704208374023438e+01 3.966933488845825195e-01 1.711336493492126465e+00 2.354486584663391113e-01 5.840355157852172852e-01 -1.186630368232727051e+00
2.780000000000000000e+02 4.759002304077148438e+01 2.026726752519607544e-01 1.697743535041809082e+00 1.961807757616043091e-01 5.681772828102111816e-01 -9.593103528022766113e-01
2.790000000000000000e+02 4.797840499877929688e+01 4.208025336265563965e-01 2.600969791412353516e+00 2.846103310585021973e-01 8.656740784645080566e-01 -1.507436156272888184e+00
2.800000000000000000e+02 4.989286804199218750e+01 8.900088667869567871e-01 4.268912315368652344e+00 8.740395545959472656e+00 3.902792215347290039e+00 -5.591286182403564453e+00
2.810000000000000000e+02 5.098812866210937500e+01 4.076679050922393799e-01 5.123367309570312500e+00 1.786705589294433594e+01 6.897126674652099609e+00 1.488081336021423340e+00
2.820000000000000000e+02 5.026617813110351562e+01 9.088699221611022949e-01 2.802501916885375977e+00 1.426365947723388672e+01 5.119848251342773438e+00 -4.031684398651123047e+00
2.830000000000000000e+02 5.045123291015625000e+01 7.329329848289489746e-01 3.178572893142700195e+00 1.555715370178222656e+01 5.620718002319335938e+00 -3.174627542495727539e+00
2.840000000000000000e+02 5.017750549316406250e+01 6.789039969444274902e-01 3.473566293716430664e+00 1.488705253601074219e+01 5.508185863494873047e+00 -5.694383144378662109e+00
2.850000000000000000e+02 4.924480056762695312e+01 -1.188120245933532715e-01 5.331554889678955078e+00 9.884348511695861816e-02 1.629119396209716797e+00 -1.316269040107727051e+00
2.860000000000000000e+02 4.896606445312500000e+01 4.927856624126434326e-01 5.278321266174316406e+00 1.582443118095397949e+00 2.058229446411132812e+00 -3.549819707870483398e+00
2.870000000000000000e+02 5.146228408813476562e+01 2.051925659179687500e-01 8.066578865051269531e+00 1.279756927490234375e+01 6.259244441986083984e+00 3.666244983673095703e+00
2.880000000000000000e+02 4.901169967651367188e+01 -5.731548070907592773e-01 2.758597135543823242e-01 5.697416514158248901e-02 9.985016286373138428e-02 -4.054004698991775513e-02
2.890000000000000000e+02 5.120083236694335938e+01 4.504351913928985596e-01 5.785957336425781250e+00 1.407493591308593750e+01 5.958267688751220703e+00 2.404042959213256836e+00
2.900000000000000000e+02 5.125387573242187500e+01 1.135604605078697205e-01 9.808990478515625000e+00 1.559092617034912109e+01 7.619975090026855469e+00 3.405464172363281250e+00
2.910000000000000000e+02 5.111667633056640625e+01 2.827232480049133301e-01 7.934396266937255859e+00 1.552702331542968750e+01 7.038425922393798828e+00 2.752312660217285156e+00
2.920000000000000000e+02 5.136338043212890625e+01 -2.351061552762985229e-01 1.143540668487548828e+01 1.413178443908691406e+01 7.670157432556152344e+00 8.810594677925109863e-01
2.930000000000000000e+02 5.136613464355468750e+01 -5.366986393928527832e-01 9.699476242065429688e+00 1.464757537841796875e+01 7.304115772247314453e+00 -1.414595484733581543e+00
2.940000000000000000e+02 5.035203552246093750e+01 -1.845403432846069336e+00 -5.487919449806213379e-01 1.522828769683837891e+01 4.403848648071289062e+00 3.064719438552856445e+00
2.950000000000000000e+02 4.921033096313476562e+01 -1.130987048149108887e+00 4.059351384639739990e-01 9.351791739463806152e-01 4.023343026638031006e-01 1.189108014106750488e+00
2.960000000000000000e+02 5.147965240478515625e+01 -1.096145629882812500e+00 4.997596740722656250e+00 1.546138286590576172e+01 6.137693881988525391e+00 -3.204912900924682617e+00
2.970000000000000000e+02 5.162814712524414062e+01 -5.838449597358703613e-01 8.203107833862304688e+00 1.286173725128173828e+01 6.319453716278076172e+00 -2.617607712745666504e-01
2.980000000000000000e+02 5.151160812377929688e+01 -3.052103221416473389e-01 9.411117553710937500e+00 1.322401809692382812e+01 6.790540695190429688e+00 1.018692374229431152e+00
2.990000000000000000e+02 4.981692504882812500e+01 -1.415840268135070801e+00 1.707499861717224121e+00 8.706222534179687500e+00 3.124116659164428711e+00 5.265500068664550781e+00
3.000000000000000000e+02 5.061330032348632812e+01 -1.591468334197998047e+00 7.771955728530883789e-01 1.808921813964843750e+01 5.659924030303955078e+00 1.043314218521118164e+00
3.010000000000000000e+02 4.840976715087890625e+01 -6.843634247779846191e-01 -1.272855997085571289e-01 -2.228865958750247955e-02 -4.487227648496627808e-02 -1.390868425369262695e-01
3.020000000000000000e+02 4.801736831665039062e+01 -8.208509683609008789e-01 -3.789705336093902588e-01 -6.435284763574600220e-02 -1.329970061779022217e-01 -1.654000878334045410e-01
3.030000000000000000e+02 4.861100006103515625e+01 -6.400402188301086426e-01 3.254687041044235229e-02 -4.373287037014961243e-02 -3.355800407007336617e-03 -1.285650581121444702e-01
3.040000000000000000e+02 4.808465957641601562e+01 -1.072766900062561035e+00 -2.668785095214843750e+00 -1.848892122507095337e-01 -8.561022877693176270e-01 -6.851063370704650879e-01
3.050000000000000000e+02 4.771340179443359375e+01 -1.366002678871154785e+00 -1.600572943687438965e+00 -2.214123159646987915e-01 -5.465955734252929688e-01 -4.034118056297302246e-01
3.060000000000000000e+02 4.750287628173828125e+01 -1.575491786003112793e+00 -7.899566292762756348e-01 -1.465362012386322021e-01 -2.809478342533111572e-01 -5.431935787200927734e-01
3.070000000000000000e+02 4.748023223876953125e+01 -1.183836340904235840e+00 -2.764971494674682617e+00 -3.180448114871978760e-01 -9.249048829078674316e-01 -4.182781875133514404e-01
3.080000000000000000e+02 4.869859695434570312e+01 -2.200947761535644531e+00 1.228495359420776367e+00 2.474845409393310547e+00 1.111002206802368164e+00 1.505669116973876953e+00
3.090000000000000000e+02 4.950165557861328125e+01 -1.978617906570434570e+00 1.025062918663024902e+00 6.802529811859130859e+00 2.348277807235717773e+00 3.390900611877441406e+00
3.100000000000000000e+02 4.993274307250976562e+01 -1.914409279823303223e+00 2.658359408378601074e-01 1.090796279907226562e+01 3.352139472961425781e+00 3.973705291748046875e+00
3.110000000000000000e+02 4.850167846679687500e+01 -2.243244647979736328e+00 1.306869387626647949e+00 1.962504506111145020e+00 9.808121323585510254e-01 1.088022708892822266e+00
3.120000000000000000e+02 4.791575622558593750e+01 -2.404553413391113281e+00 1.032052993774414062e+00 8.549924492835998535e-01 5.661136507987976074e-01 3.934090733528137207e-01
3.130000000000000000e+02 4.909368133544921875e+01 -2.098660230636596680e+00 1.249022006988525391e+00 4.237447261810302734e+00 1.645940780639648438e+00 2.364119768142700195e+00
3.140000000000000000e+02 5.057044982910156250e+01 -1.790566205978393555e+00 -8.774054050445556641e-01 1.619758987426757812e+01 4.596055030822753906e+00 1.976691126823425293e+00
3.150000000000000000e+02 5.021021270751953125e+01 -1.499073028564453125e+00 -7.918339222669601440e-02 1.519022369384765625e+01 4.533312320709228516e+00 4.749367713928222656e+00
3.160000000000000000e+02 4.844546890258789062e+01 -1.989573478698730469e+00 8.607181310653686523e-01 1.249109745025634766e+00 6.329483389854431152e-01 8.489674925804138184e-01
3.170000000000000000e+02 4.905459213256835938e+01 -8.373951315879821777e-01 -2.501803398132324219e+00 1.600260473787784576e-02 -7.457402944564819336e-01 -4.229474067687988281e-01
3.180000000000000000e+02 4.742477798461914062e+01 -1.126134954392910004e-02 1.102756381034851074e+00 5.601456016302108765e-02 3.476313054561614990e-01 -4.775690138339996338e-01
3.190000000000000000e+02 4.745122909545898438e+01 -3.795317113399505615e-01 4.533863067626953125e-01 1.376234833151102066e-02 1.401446014642715454e-01 -1.579873412847518921e-01
3.200000000000000000e+02 4.767941665649414062e+01 -1.960909008979797363e+00 3.175429999828338623e-01 1.559415180236101151e-02 9.994114190340042114e-02 -2.436192184686660767e-01
3.210000000000000000e+02 4.761532592773437500e+01 3.996817395091056824e-02 1.494899630546569824e+00 1.624442934989929199e-01 4.972031712532043457e-01 -7.634508609771728516e-01
3.220000000000000000e+02 4.932863616943359375e+01 7.822983711957931519e-02 6.893453598022460938e+00 1.180648803710937500e+00 2.422230720520019531e+00 -3.148370265960693359e+00
3.230000000000000000e+02 4.913522720336914062e+01 7.209235429763793945e-01 5.400867938995361328e+00 2.918550014495849609e+00 2.495825290679931641e+00 -4.621854305267333984e+00
3.240000000000000000e+02 4.851966094970703125e+01 -4.881902411580085754e-02 2.881984472274780273e+00 -9.836670011281967163e-03 8.616443276405334473e-01 -8.779696822166442871e-01
3.250000000000000000e+02 4.811635971069335938e+01 -1.454251352697610855e-02 2.071145772933959961e+00 -1.236267201602458954e-02 6.176349520683288574e-01 -7.421118021011352539e-01
3.260000000000000000e+02 4.934937286376953125e+01 -9.846293330192565918e-01 1.794314682483673096e-01 9.168266654014587402e-01 3.288774490356445312e-01 1.142811775207519531e+00
3.270000000000000000e+02 4.935109710693359375e+01 -1.503890872001647949e+00 1.582647800445556641e+00 3.693564653396606445e+00 1.582863688468933105e+00 3.058452844619750977e+00
3.280000000000000000e+02 4.840598297119140625e+01 -1.569006562232971191e+00 2.664536051452159882e-02 4.938169717788696289e-01 1.561387032270431519e-01 2.831645905971527100e-01
3.290000000000000000e+02 4.974160766601562500e+01 -1.644377231597900391e+00 1.113091230392456055e+00 8.516631126403808594e+00 2.888916730880737305e+00 4.546529293060302734e+00
3.300000000000000000e+02 4.794101715087890625e+01 -1.580634593963623047e+00 -5.931505560874938965e-01 -3.001063363626599312e-03 -1.788454949855804443e-01 -2.190464884042739868e-01
3.310000000000000000e+02 4.903016281127929688e+01 3.244526982307434082e-01 5.637382507324218750e+00 1.276800751686096191e+00 2.074254989624023438e+00 -3.165047168731689453e+00
3.320000000000000000e+02 4.882768630981445312e+01 -1.365647673606872559e+00 1.821428239345550537e-01 8.793614506721496582e-01 3.184512853622436523e-01 8.006314635276794434e-01
3.330000000000000000e+02 4.772240829467773438e+01 -1.575481414794921875e+00 -6.458618640899658203e-01 -2.498403042554855347e-01 -2.687106430530548096e-01 -3.732100427150726318e-01
3.340000000000000000e+02 4.799224853515625000e+01 -2.679554224014282227e-01 1.316349506378173828e+00 3.718799352645874023e-02 4.060612320899963379e-01 -3.581224977970123291e-01
3.350000000000000000e+02 4.888500213623046875e+01 2.425524890422821045e-01 5.139554977416992188e+00 5.301111340522766113e-01 1.700899839401245117e+00 -2.435180187225341797e+00
3.360000000000000000e+02 4.812570953369140625e+01 -4.635198116302490234e-01 7.340756058692932129e-01 -1.713893190026283264e-02 2.150809913873672485e-01 -2.283324599266052246e-01
3.370000000000000000e+02 4.881164169311523438e+01 -6.021201610565185547e-01 1.554562747478485107e-01 -1.082892864942550659e-01 1.415009703487157822e-02 -4.242860525846481323e-02
3.380000000000000000e+02 4.817101669311523438e+01 -1.606359601020812988e+00 -1.761850416660308838e-01 2.462723553180694580e-01 2.102619223296642303e-02 3.412759676575660706e-02
3.390000000000000000e+02 4.811645889282226562e+01 -1.841225266456604004e+00 3.942758142948150635e-01 5.116720795631408691e-01 2.717843651771545410e-01 2.183986306190490723e-01
3.400000000000000000e+02 4.914468002319335938e+01 -1.542014360427856445e+00 1.233228564262390137e+00 2.525636196136474609e+00 1.127659320831298828e+00 2.152701377868652344e+00
3.410000000000000000e+02 4.912822341918945312e+01 4.943828582763671875e-01 5.909070968627929688e+00 2.304746866226196289e+00 2.464145421981811523e+00 -4.119394779205322266e+00
3.420000000000000000e+02 4.904686355590820312e+01 -3.588985651731491089e-02 4.833995342254638672e+00 2.002975493669509888e-01 1.510287880897521973e+00 -1.555181026458740234e+00
3.430000000000000000e+02 4.941194915771484375e+01 -1.719757318496704102e+00 1.405462384223937988e+00 5.401543617248535156e+00 2.042101860046386719e+00 3.490734338760375977e+00
3.440000000000000000e+02 4.913803100585937500e+01 -1.316151380538940430e+00 6.475752592086791992e-01 1.688453435897827148e+00 7.008085846900939941e-01 1.592031478881835938e+00
3.450000000000000000e+02 4.887870407104492188e+01 5.968783795833587646e-02 4.436524868011474609e+00 3.141463994979858398e-01 1.425201296806335449e+00 -1.499244570732116699e+00
3.460000000000000000e+02 4.855921173095703125e+01 -3.431630730628967285e-01 1.663626670837402344e+00 -6.954047828912734985e-02 4.782258570194244385e-01 -2.425850480794906616e-01
3.470000000000000000e+02 4.901436996459960938e+01 -1.846294283866882324e+00 1.324132084846496582e+00 3.002083301544189453e+00 1.297864556312561035e+00 2.128919839859008789e+00
3.480000000000000000e+02 4.824510955810546875e+01 -2.034167289733886719e+00 8.039262890815734863e-01 9.481961131095886230e-01 5.256367325782775879e-01 4.891378283500671387e-01
3.490000000000000000e+02 4.864097595214843750e+01 3.337448239326477051e-01 4.308784008026123047e+00 5.578148365020751953e-01 1.459979653358459473e+00 -2.157379388809204102e+00
3.500000000000000000e+02 4.766398239135742188e+01 -2.115960359573364258e+00 5.929915904998779297e-01 2.655620872974395752e-01 2.575660943984985352e-01 -1.713656336069107056e-01
3.510000000000000000e+02 4.780697631835937500e+01 -2.053326606750488281e+00 5.537831783294677734e-01 2.801530659198760986e-01 2.501808702945709229e-01 1.638018712401390076e-02
3.520000000000000000e+02 4.771542358398437500e+01 -1.780702590942382812e+00 -7.989278435707092285e-02 -1.874804263934493065e-03 -2.453027665615081787e-02 -3.009833395481109619e-01
3.530000000000000000e+02 4.750377655029296875e+01 -1.766004800796508789e+00 -2.370585799217224121e-01 -1.831500083208084106e-01 -1.260625720024108887e-01 -3.805652260780334473e-01
3.540000000000000000e+02 4.787188720703125000e+01 -2.222039937973022461e+00 8.463114500045776367e-01 6.268075108528137207e-01 4.419356882572174072e-01 1.260259896516799927e-01
3.550000000000000000e+02 4.830632019042968750e+01 -2.289410591125488281e+00 1.227831602096557617e+00 1.558172464370727539e+00 8.358011841773986816e-01 8.566359281539916992e-01
3.560000000000000000e+02 4.863338851928710938e+01 -1.976439714431762695e+00 1.133035898208618164e+00 1.872518539428710938e+00 9.016663432121276855e-01 1.233979463577270508e+00
3.570000000000000000e+02 4.746580505371093750e+01 -7.599261403083801270e-01 -2.354662269353866577e-01 2.576528675854206085e-02 -6.291028112173080444e-02 2.355194417759776115e-03
3.580000000000000000e+02 4.769005966186523438e+01 -5.057594776153564453e-01 3.423968851566314697e-01 8.268950507044792175e-03 1.051997542381286621e-01 -1.298588365316390991e-01
3.590000000000000000e+02 4.743786621093750000e+01 -1.943809390068054199e-01 8.695887923240661621e-01 6.775544583797454834e-02 2.812032699584960938e-01 -4.245332181453704834e-01
3.600000000000000000e+02 4.787963104248046875e+01 -7.122820019721984863e-01 -9.706223756074905396e-02 2.607030794024467468e-02 -2.129757963120937347e-02 -9.724134206771850586e-02
3.610000000000000000e+02 4.791617202758789062e+01 -4.997252821922302246e-01 3.292724490165710449e-01 2.073303051292896271e-02 1.050016433000564575e-01 -1.501091271638870239e-01
3.620000000000000000e+02 4.788625717163085938e+01 -1.112045288085937500e+00 -2.607038974761962891e+00 -1.714242994785308838e-01 -8.335389494895935059e-01 -6.615008711814880371e-01
3.630000000000000000e+02 4.813653182983398438e+01 -1.329005718231201172e+00 -1.314163923263549805e+00 -5.020527169108390808e-02 -4.093107581138610840e-01 -3.843494653701782227e-01
3.640000000000000000e+02 4.834053421020507812e+01 -1.288180351257324219e+00 -1.228947877883911133e+00 -1.698205620050430298e-02 -3.737789690494537354e-01 -2.935652136802673340e-01
3.650000000000000000e+02 4.828032302856445312e+01 -1.028557300567626953e+00 -2.733931541442871094e+00 -1.656751930713653564e-01 -8.698819875717163086e-01 -7.031631469726562500e-01
3.660000000000000000e+02 4.885686874389648438e+01 -8.727738261222839355e-01 -2.757012367248535156e+00 -9.214358031749725342e-02 -8.547468185424804688e-01 -5.496087074279785156e-01
3.670000000000000000e+02 4.872824096679687500e+01 -1.148330092430114746e+00 -1.159162163734436035e+00 1.111668571829795837e-01 -3.143985867500305176e-01 -9.312323480844497681e-02
3.680000000000000000e+02 4.905670547485351562e+01 -1.055272459983825684e+00 -6.159646511077880859e-01 3.860194981098175049e-01 -6.898355484008789062e-02 3.828744292259216309e-01
3.690000000000000000e+02 4.881787109375000000e+01 -1.910197854042053223e+00 1.223301649093627930e+00 2.307876825332641602e+00 1.059353470802307129e+00 1.612179756164550781e+00
3.700000000000000000e+02 4.929387283325195312e+01 -2.045269489288330078e+00 1.203374266624450684e+00 5.268229484558105469e+00 1.941481113433837891e+00 2.869349002838134766e+00
3.710000000000000000e+02 4.766186523437500000e+01 -3.130419552326202393e-01 7.898554801940917969e-01 4.991798475384712219e-02 2.519320249557495117e-01 -3.190953135490417480e-01
3.720000000000000000e+02 4.763886260986328125e+01 -1.340375393629074097e-01 1.200137853622436523e+00 5.292066186666488647e-02 3.759175539016723633e-01 -4.501350820064544678e-01
3.730000000000000000e+02 4.741408538818359375e+01 1.718503087759017944e-01 1.385537147521972656e+00 2.437205314636230469e-01 4.887773096561431885e-01 -8.843334913253784180e-01
3.740000000000000000e+02 4.778393936157226562e+01 4.165077805519104004e-01 2.242563486099243164e+00 3.208860456943511963e-01 7.690348625183105469e-01 -1.458596110343933105e+00
3.750000000000000000e+02 4.774682617187500000e+01 1.790681481361389160e-01 1.796912312507629395e+00 6.142945587635040283e-02 5.575025677680969238e-01 -8.951480984687805176e-01
3.760000000000000000e+02 4.826027679443359375e+01 1.722363382577896118e-01 2.893591403961181641e+00 1.954808682203292847e-01 9.267216920852661133e-01 -1.282084703445434570e+00
3.770000000000000000e+02 4.833991622924804688e+01 -3.818370401859283447e-01 1.235231757164001465e+00 -6.599359959363937378e-02 3.507714271545410156e-01 -2.512378096580505371e-01
3.780000000000000000e+02 4.877524185180664062e+01 -3.055547475814819336e-01 2.253559350967407227e+00 -5.841177701950073242e-02 6.585442423820495605e-01 -3.813427388668060303e-01
3.790000000000000000e+02 4.899471282958984375e+01 -3.020440936088562012e-01 2.754081487655639648e+00 -9.954090416431427002e-02 7.963621616363525391e-01 -3.613701164722442627e-01
3.800000000000000000e+02 5.124221420288085938e+01 -1.282168626785278320e+00 3.845802068710327148e+00 1.651608848571777344e+01 6.108567237854003906e+00 -2.720068931579589844e+00
3.810000000000000000e+02 5.096461868286132812e+01 -1.275236368179321289e+00 1.986120462417602539e+00 1.993921279907226562e+01 6.577600002288818359e+00 -2.047765493392944336e+00
3.820000000000000000e+02 4.845701980590820312e+01 2.409110069274902344e-01 3.527093887329101562e+00 3.084051907062530518e-01 1.150649785995483398e+00 -1.651090502738952637e+00
3.830000000000000000e+02 4.838230514526367188e+01 5.279026031494140625e-01 3.767559289932250977e+00 6.402099728584289551e-01 1.322330713272094727e+00 -2.296860218048095703e+00
3.840000000000000000e+02 4.875011444091796875e+01 1.586884856224060059e-01 3.922679424285888672e+00 4.226339459419250488e-01 1.303593993186950684e+00 -1.864030003547668457e+00
3.850000000000000000e+02 4.880712509155273438e+01 4.315680861473083496e-01 4.902031421661376953e+00 1.082379579544067383e+00 1.795323252677917480e+00 -2.956156492233276367e+00
3.860000000000000000e+02 4.875390625000000000e+01 6.461347341537475586e-01 4.573121070861816406e+00 1.495135188102722168e+00 1.820476770401000977e+00 -3.375126838684082031e+00
3.870000000000000000e+02 4.893911743164062500e+01 6.937264204025268555e-01 4.988242149353027344e+00 2.037629365921020508e+00 2.107761383056640625e+00 -3.949975490570068359e+00
3.880000000000000000e+02 4.929197311401367188e+01 3.954130113124847412e-01 6.586443901062011719e+00 2.690804243087768555e+00 2.783174514770507812e+00 -4.630113601684570312e+00
3.890000000000000000e+02 4.969262695312500000e+01 8.675557374954223633e-01 4.388679504394531250e+00 8.439855575561523438e+00 3.848560571670532227e+00 -6.014713287353515625e+00
3.900000000000000000e+02 4.944421768188476562e+01 5.655056834220886230e-01 6.383533954620361328e+00 4.463903427124023438e+00 3.254231214523315430e+00 -5.464241981506347656e+00
3.910000000000000000e+02 4.916473007202148438e+01 1.903394311666488647e-01 6.155690670013427734e+00 1.021560072898864746e+00 2.153175115585327148e+00 -2.928056240081787109e+00
3.920000000000000000e+02 5.099893951416015625e+01 7.054683566093444824e-01 4.098179817199707031e+00 1.558844470977783203e+01 5.905987262725830078e+00 1.662616968154907227e+00
3.930000000000000000e+02 5.143909835815429688e+01 -7.086067795753479004e-01 9.188910484313964844e+00 1.492515277862548828e+01 7.234219074249267578e+00 -2.029021263122558594e+00
3.940000000000000000e+02 5.111692047119140625e+01 -1.133077383041381836e+00 4.606465339660644531e+00 1.868778038024902344e+01 6.988273620605468750e+00 -2.620879411697387695e+00
3.950000000000000000e+02 5.041376113891601562e+01 -1.487635254859924316e+00 5.067272186279296875e-01 1.779768180847167969e+01 5.491322517395019531e+00 2.776413440704345703e+00
3.960000000000000000e+02 4.963176727294921875e+01 -1.317272186279296875e+00 2.019888162612915039e+00 5.775873661041259766e+00 2.338728666305541992e+00 4.425554275512695312e+00
3.970000000000000000e+02 4.995750808715820312e+01 -1.673293709754943848e+00 5.948243141174316406e-01 1.122677135467529297e+01 3.546478748321533203e+00 4.779882431030273438e+00
3.980000000000000000e+02 5.061525726318359375e+01 -1.440518975257873535e+00 -4.579418525099754333e-02 1.984172821044921875e+01 5.938780307769775391e+00 4.555045068264007568e-01
3.990000000000000000e+02 4.781448364257812500e+01 -1.571233272552490234e-01 1.202610373497009277e+00 -1.489966269582509995e-02 3.563131988048553467e-01 -4.101923704147338867e-01
4.000000000000000000e+02 4.796113586425781250e+01 -1.964789271354675293e+00 5.801253914833068848e-01 4.361800253391265869e-01 3.048916161060333252e-01 7.906903326511383057e-02
4.010000000000000000e+02 4.954100036621093750e+01 -1.550318598747253418e+00 1.608362317085266113e+00 5.693118095397949219e+00 2.190444231033325195e+00 3.919229745864868164e+00
4.020000000000000000e+02 4.862474822998046875e+01 -1.462116003036499023e+00 8.481828868389129639e-02 6.791557669639587402e-01 2.291922122240066528e-01 4.972940683364868164e-01
4.030000000000000000e+02 4.853984069824218750e+01 -1.222556233406066895e+00 -1.170747160911560059e+00 1.571219712495803833e-01 -3.040875494480133057e-01 -1.657124161720275879e-01
4.040000000000000000e+02 4.898126220703125000e+01 -1.236287832260131836e+00 3.055216073989868164e-01 9.241976141929626465e-01 3.689157664775848389e-01 9.562895298004150391e-01
4.050000000000000000e+02 4.831092834472656250e+01 -8.698502182960510254e-02 2.249661207199096680e+00 1.285102404654026031e-02 6.787536144256591797e-01 -6.507519483566284180e-01
4.060000000000000000e+02 4.792281341552734375e+01 -1.789645552635192871e+00 8.291463553905487061e-02 3.026213124394416809e-02 3.395302966237068176e-02 -1.626817286014556885e-01
4.070000000000000000e+02 4.893210983276367188e+01 -1.597224235534667969e+00 9.072547554969787598e-01 1.886908054351806641e+00 8.382488489151000977e-01 1.505297064781188965e+00
4.080000000000000000e+02 4.872461700439453125e+01 -1.685262203216552734e+00 6.913090944290161133e-01 1.374403119087219238e+00 6.197136640548706055e-01 1.107536077499389648e+00
4.090000000000000000e+02 4.852108001708984375e+01 -1.792701244354248047e+00 6.868849396705627441e-01 1.141850829124450684e+00 5.486207008361816406e-01 7.657594084739685059e-01
4.100000000000000000e+02 4.872636032104492188e+01 -3.210307285189628601e-02 3.705451011657714844e+00 6.052690744400024414e-02 1.129793286323547363e+00 -1.068199515342712402e+00
4.110000000000000000e+02 4.542972183227539062e+01 1.508630365133285522e-01 -3.195039033889770508e-01 1.886877119541168213e-01 -3.924486041069030762e-02 -2.853869199752807617e-01
4.120000000000000000e+02 4.705990219116210938e+01 -9.150998592376708984e-01 -5.565469264984130859e-01 6.421638280153274536e-02 -1.476991623640060425e-01 9.174065291881561279e-02
4.130000000000000000e+02 4.715882110595703125e+01 -7.320802211761474609e-01 -4.489894211292266846e-01 1.327878236770629883e-01 -9.486047923564910889e-02 -5.105144530534744263e-02
4.140000000000000000e+02 4.614703369140625000e+01 -3.550383448600769043e-01 -4.139434099197387695e-01 5.904247518628835678e-03 -1.224117428064346313e-01 -7.929250597953796387e-02
4.150000000000000000e+02 4.712844848632812500e+01 1.320847570896148682e-01 9.434639215469360352e-01 3.872000053524971008e-02 2.946551740169525146e-01 -6.129009127616882324e-01
4.160000000000000000e+02 4.668291854858398438e+01 1.921833753585815430e-01 6.422781348228454590e-01 1.879809349775314331e-01 2.490777224302291870e-01 -7.288211584091186523e-01
4.170000000000000000e+02 4.487516784667968750e+01 4.746657982468605042e-02 -7.906107902526855469e-01 1.012579798698425293e-01 -2.068058550357818604e-01 3.354193642735481262e-02
4.180000000000000000e+02 4.549984741210937500e+01 -4.800652265548706055e-01 -8.404203653335571289e-01 3.209435939788818359e-02 -2.424978017807006836e-01 3.731716051697731018e-02
4.190000000000000000e+02 4.481671905517578125e+01 -4.405098855495452881e-01 -9.982124567031860352e-01 3.490508999675512314e-03 -2.984165847301483154e-01 1.152961105108261108e-01
4.200000000000000000e+02 4.504301452636718750e+01 5.090103745460510254e-01 -4.368929266929626465e-01 2.669186592102050781e-01 -5.099228769540786743e-02 -4.115711450576782227e-01
4.210000000000000000e+02 4.718499374389648438e+01 -5.431153774261474609e-01 5.756814032793045044e-02 1.042631790041923523e-01 4.854939505457878113e-02 -1.413630694150924683e-01
4.220000000000000000e+02 4.685739898681640625e+01 -5.439764261245727539e-01 -1.328668892383575439e-01 1.225465610623359680e-01 -3.096096683293581009e-03 -1.576317846775054932e-01
4.230000000000000000e+02 4.719033813476562500e+01 -5.703232809901237488e-02 8.888224959373474121e-01 7.353718578815460205e-02 2.887079119682312012e-01 -5.248773097991943359e-01
4.240000000000000000e+02 4.671662902832031250e+01 -2.108095288276672363e-01 1.540042012929916382e-01 1.204736158251762390e-01 8.234334737062454224e-02 -3.475092351436614990e-01
4.250000000000000000e+02 4.724381256103515625e+01 -2.153988033533096313e-01 7.324660420417785645e-01 1.672466099262237549e-02 2.247572094202041626e-01 -2.971360981464385986e-01
4.260000000000000000e+02 4.706153869628906250e+01 -2.016311585903167725e-01 5.466271638870239258e-01 1.453606337308883667e-01 2.075963318347930908e-01 -4.130257964134216309e-01
4.270000000000000000e+02 4.720861053466796875e+01 -3.662211298942565918e-01 2.752402722835540771e-01 1.515507698059082031e-01 1.280373185873031616e-01 -2.930316925048828125e-01
4.280000000000000000e+02 4.647873687744140625e+01 -7.539745569229125977e-01 -7.056164145469665527e-01 -5.580870062112808228e-02 -2.284275442361831665e-01 6.262184679508209229e-02
4.290000000000000000e+02 4.606379699707031250e+01 2.795358002185821533e-01 7.928031682968139648e-02 2.085213363170623779e-01 8.634049445390701294e-02 -5.497164130210876465e-01
4.300000000000000000e+02 4.700227737426757812e+01 3.694743812084197998e-01 1.084073424339294434e+00 1.634550541639328003e-01 3.742585480213165283e-01 -9.314320683479309082e-01
4.310000000000000000e+02 4.340343475341796875e+01 9.601488709449768066e-01 -1.174609541893005371e+00 2.020568102598190308e-01 -2.917658090591430664e-01 -3.369887545704841614e-02
4.320000000000000000e+02 4.420140457153320312e+01 2.044474780559539795e-01 -1.023490309715270996e+00 1.526091545820236206e-01 -2.612643539905548096e-01 5.360076203942298889e-02
4.330000000000000000e+02 4.283208847045898438e+01 2.259752005338668823e-01 -1.571529030799865723e+00 -1.309319287538528442e-01 -5.107382535934448242e-01 5.353027582168579102e-01
4.340000000000000000e+02 4.428497695922851562e+01 7.040962576866149902e-01 -8.137285709381103516e-01 3.105398416519165039e-01 -1.509566158056259155e-01 -1.744716465473175049e-01
4.350000000000000000e+02 4.248154067993164062e+01 1.234971404075622559e+00 -1.494063615798950195e+00 1.440965831279754639e-01 -4.049901068210601807e-01 2.648132443428039551e-01
4.360000000000000000e+02 4.215386199951171875e+01 5.665354728698730469e-01 -1.757500886917114258e+00 -2.048887461423873901e-01 -5.887168645858764648e-01 5.315265655517578125e-01
4.370000000000000000e+02 4.342110824584960938e+01 -6.086104363203048706e-02 -1.374357819557189941e+00 -1.831583976745605469e-01 -4.672548472881317139e-01 4.269881248474121094e-01
4.380000000000000000e+02 4.411052322387695312e+01 -2.798376083374023438e-01 -1.138767004013061523e+00 2.454093191772699356e-03 -3.408938646316528320e-01 3.236531019210815430e-01
4.390000000000000000e+02 4.341694641113281250e+01 3.954064249992370605e-01 -1.337736725807189941e+00 5.119086802005767822e-02 -3.859637379646301270e-01 2.361196130514144897e-01
4.400000000000000000e+02 4.008607864379882812e+01 2.347794055938720703e+00 -3.467886924743652344e+00 -2.114692181348800659e-01 -1.103806853294372559e+00 -5.092828869819641113e-01
4.410000000000000000e+02 3.924859237670898438e+01 1.918622970581054688e+00 -6.260554790496826172e+00 -1.374876499176025391e+00 -2.290629386901855469e+00 1.786475032567977905e-01
4.420000000000000000e+02 4.066986846923828125e+01 1.245835542678833008e+00 -2.536557912826538086e+00 -4.787120223045349121e-01 -9.045810103416442871e-01 7.840893864631652832e-01
4.430000000000000000e+02 4.163364028930664062e+01 1.592744350433349609e+00 -1.997340440750122070e+00 2.382573857903480530e-02 -5.920544266700744629e-01 2.603715956211090088e-01
4.440000000000000000e+02 4.137876510620117188e+01 8.941976428031921387e-01 -1.963985562324523926e+00 -1.486306041479110718e-01 -6.337848305702209473e-01 7.688485383987426758e-01
4.450000000000000000e+02 3.931212234497070312e+01 2.709177732467651367e+00 -1.749127030372619629e+00 -1.417068481445312500e+00 -9.498586654663085938e-01 -1.384001970291137695e+00
4.460000000000000000e+02 4.086096572875976562e+01 1.975051641464233398e+00 -2.195192813873291016e+00 3.592414036393165588e-02 -6.477806568145751953e-01 3.523137271404266357e-01
4.470000000000000000e+02 3.995876693725585938e+01 1.587908506393432617e+00 -3.321689367294311523e+00 -1.576968580484390259e-01 -1.043815851211547852e+00 1.086699962615966797e+00
4.480000000000000000e+02 3.316690444946289062e+01 7.908318638801574707e-01 -2.408855438232421875e+00 -9.857289493083953857e-03 -7.256138324737548828e-01 -8.910961747169494629e-01
4.490000000000000000e+02 3.399934387207031250e+01 6.623410582542419434e-01 -2.808618783950805664e+00 -4.224424064159393311e-01 -9.693183302879333496e-01 -1.406222224235534668e+00
4.500000000000000000e+02 3.436914443969726562e+01 1.189764857292175293e+00 -4.865035057067871094e+00 -7.370739579200744629e-01 -1.680632710456848145e+00 -1.386243402957916260e-01
4.510000000000000000e+02 3.783919525146484375e+01 2.484255313873291016e+00 -5.176674723625183105e-01 1.902294158935546875e+00 4.153880178928375244e-01 1.130055546760559082e+00
4.520000000000000000e+02 3.703740692138671875e+01 1.373660683631896973e+00 -5.290460109710693359e+00 3.468759059906005859e-01 -1.483075261116027832e+00 -7.018050551414489746e-01
4.530000000000000000e+02 3.334777450561523438e+01 3.404574692249298096e-01 -9.035261273384094238e-01 -1.822015494108200073e-01 -3.257183134555816650e-01 -8.642637729644775391e-01
4.540000000000000000e+02 3.353592681884765625e+01 -1.197979226708412170e-01 -8.404582142829895020e-01 -1.272386759519577026e-01 -2.903090715408325195e-01 -4.562388062477111816e-01
4.550000000000000000e+02 3.501575469970703125e+01 1.059977054595947266e+00 -5.244610786437988281e+00 -8.115476369857788086e-01 -1.816847562789916992e+00 -9.529741406440734863e-01
4.560000000000000000e+02 3.555833053588867188e+01 6.905598640441894531e-01 -7.519139051437377930e-01 5.427137613296508789e-01 -6.276004761457443237e-02 2.650181949138641357e-01
4.570000000000000000e+02 3.575750350952148438e+01 1.575511693954467773e+00 -6.763729572296142578e+00 -4.117034077644348145e-01 -2.152629852294921875e+00 -9.364502429962158203e-01
4.580000000000000000e+02 3.622613906860351562e+01 1.030777692794799805e+00 -2.935212373733520508e+00 6.292279064655303955e-02 -8.616868853569030762e-01 1.027141958475112915e-01
4.590000000000000000e+02 3.782004547119140625e+01 1.683207035064697266e+00 -6.713785171508789062e+00 2.964221537113189697e-01 -1.925208926200866699e+00 -2.198812484741210938e+00
4.600000000000000000e+02 3.853881835937500000e+01 1.949121356010437012e+00 -7.904845714569091797e+00 -2.138724803924560547e+00 -3.013071298599243164e+00 -2.081648588180541992e+00
4.610000000000000000e+02 3.856629180908203125e+01 2.753397226333618164e+00 -6.464342027902603149e-02 -1.168987393379211426e+00 -3.700892329216003418e-01 3.088412880897521973e-01
4.620000000000000000e+02 3.379653930664062500e+01 1.053609251976013184e+00 -3.092064619064331055e+00 -9.910474717617034912e-02 -9.573508501052856445e-01 -1.427249610424041748e-01
4.630000000000000000e+02 3.424254989624023438e+01 2.046553343534469604e-01 1.929249763488769531e-01 -1.934994906187057495e-01 -1.723564782878383994e-04 -5.071172714233398438e-01
4.640000000000000000e+02 3.494199752807617188e+01 4.520132541656494141e-01 4.724245667457580566e-01 -5.883672237396240234e-01 -3.478279337286949158e-02 3.217813074588775635e-01
4.650000000000000000e+02 3.690625000000000000e+01 2.049182176589965820e+00 -2.295551061630249023e+00 4.845294952392578125e-01 -5.433064699172973633e-01 -2.681672871112823486e-01
4.660000000000000000e+02 3.083432960510253906e+01 -2.170480340719223022e-01 -1.296679019927978516e+00 1.970482915639877319e-01 -3.298892080783843994e-01 -1.667462438344955444e-01
4.670000000000000000e+02 3.085270309448242188e+01 -9.999262094497680664e-01 -9.067407846450805664e-01 9.173502773046493530e-02 -2.445017248392105103e-01 -1.510455310344696045e-01
4.680000000000000000e+02 3.216926574707031250e+01 -6.736713051795959473e-01 -1.207839488983154297e+00 -1.436111032962799072e-01 -4.054351747035980225e-01 -4.984914362430572510e-01
4.690000000000000000e+02 3.193232536315917969e+01 -3.087860345840454102e-01 -1.173564553260803223e+00 -1.416726410388946533e-02 -3.563195466995239258e-01 -3.906557559967041016e-01
4.700000000000000000e+02 3.283817291259765625e+01 -3.977768719196319580e-01 -1.095706701278686523e+00 -2.227385640144348145e-01 -3.955335915088653564e-01 -4.389865696430206299e-01
4.710000000000000000e+02 3.245020675659179688e+01 5.051715970039367676e-01 -1.405375242233276367e+00 3.088934114202857018e-03 -4.206858873367309570e-01 -5.988985896110534668e-01
4.720000000000000000e+02 3.264751434326171875e+01 4.808262735605239868e-02 -1.355813741683959961e+00 -1.902184486389160156e-01 -4.638096392154693604e-01 -5.448737740516662598e-01
4.730000000000000000e+02 3.166022682189941406e+01 1.470156908035278320e-01 -1.413849830627441406e+00 1.844937801361083984e-01 -3.688068091869354248e-01 -3.069770932197570801e-01
4.740000000000000000e+02 3.155240631103515625e+01 -8.315400481224060059e-01 -1.162856936454772949e+00 -7.721925526857376099e-02 -3.720228672027587891e-01 -3.463332951068878174e-01
4.750000000000000000e+02 1.934751129150390625e+01 2.503270149230957031e+00 -1.472450852394104004e+00 -1.972358822822570801e-01 -5.009060502052307129e-01 2.371704131364822388e-01
4.760000000000000000e+02 2.005071449279785156e+01 1.556203603744506836e+00 -1.936921477317810059e+00 -1.168551743030548096e-01 -6.161329746246337891e-01 4.648019969463348389e-01
4.770000000000000000e+02 1.928076744079589844e+01 1.755981087684631348e+00 -2.180542707443237305e+00 -1.799620687961578369e-01 -7.081514596939086914e-01 3.812965452671051025e-01
4.780000000000000000e+02 2.158644676208496094e+01 1.168239593505859375e+00 -1.819993615150451660e+00 -1.243957802653312683e-01 -5.833168625831604004e-01 4.604018628597259521e-01
4.790000000000000000e+02 2.307723426818847656e+01 1.624484539031982422e+00 -1.503173232078552246e+00 -1.095253601670265198e-01 -4.838095903396606445e-01 3.975636959075927734e-01
4.800000000000000000e+02 2.233542251586914062e+01 9.922933578491210938e-01 -1.803803205490112305e+00 -1.315954774618148804e-01 -5.806195735931396484e-01 4.720196127891540527e-01
4.810000000000000000e+02 2.398313713073730469e+01 4.381691217422485352e-01 -1.842026948928833008e+00 -1.126797497272491455e-01 -5.864120125770568848e-01 5.008071064949035645e-01
4.820000000000000000e+02 2.469855880737304688e+01 3.134082555770874023e-01 -1.860244393348693848e+00 -1.298201680183410645e-01 -5.970193743705749512e-01 4.805203676223754883e-01
4.830000000000000000e+02 2.544886207580566406e+01 1.369469165802001953e-01 -1.847000718116760254e+00 -1.200567930936813354e-01 -5.901172757148742676e-01 4.793216288089752197e-01
4.840000000000000000e+02 2.621602630615234375e+01 -5.633327364921569824e-02 -1.828893065452575684e+00 -1.142800152301788330e-01 -5.829519033432006836e-01 4.654717743396759033e-01
4.850000000000000000e+02 2.698558807373046875e+01 -2.541643083095550537e-01 -1.780665516853332520e+00 -9.220874309539794922e-02 -5.618622899055480957e-01 4.351961612701416016e-01
4.860000000000000000e+02 2.852584266662597656e+01 -6.537437438964843750e-01 -1.521163940429687500e+00 -5.399964377284049988e-02 -4.725490808486938477e-01 3.100258409976959229e-01
4.870000000000000000e+02 2.929613304138183594e+01 -8.536532521247863770e-01 -1.288794517517089844e+00 2.754814177751541138e-02 -3.783739209175109863e-01 1.992657333612442017e-01
4.880000000000000000e+02 2.926754379272460938e+01 -8.154577016830444336e-02 -1.367285609245300293e+00 1.453448981046676636e-01 -3.665822148323059082e-01 5.605578050017356873e-02
4.890000000000000000e+02 3.006602287292480469e+01 -1.052662253379821777e+00 -9.434955120086669922e-01 5.329184606671333313e-02 -2.670611143112182617e-01 5.086318403482437134e-02
4.900000000000000000e+02 3.003009986877441406e+01 -2.786456644535064697e-01 -1.332580327987670898e+00 2.634302973747253418e-01 -3.207449913024902344e-01 -6.056484207510948181e-02
4.910000000000000000e+02 2.011012649536132812e+01 2.305401802062988281e+00 -1.632553458213806152e+00 -1.203050240874290466e-01 -5.258575081825256348e-01 2.752524614334106445e-01
4.920000000000000000e+02 2.087202072143554688e+01 2.110936641693115234e+00 -1.554348111152648926e+00 -1.048496291041374207e-01 -4.977593123912811279e-01 3.496868312358856201e-01
4.930000000000000000e+02 2.163119125366210938e+01 1.921256065368652344e+00 -1.543224573135375977e+00 -1.192598938941955566e-01 -4.987453520298004150e-01 3.752850592136383057e-01
4.940000000000000000e+02 2.237283515930175781e+01 1.747218847274780273e+00 -1.507787942886352539e+00 -1.237826570868492126e-01 -4.894711971282958984e-01 3.849911987781524658e-01
4.950000000000000000e+02 2.399707603454589844e+01 1.007387638092041016e+00 -1.602350354194641113e+00 -1.057427302002906799e-01 -5.124279260635375977e-01 4.254848062992095947e-01
4.960000000000000000e+02 2.471397018432617188e+01 1.074061155319213867e+00 -1.530882000923156738e+00 -1.094195991754531860e-01 -4.920904934406280518e-01 4.234510660171508789e-01
4.970000000000000000e+02 2.545693969726562500e+01 8.995088934898376465e-01 -1.544818997383117676e+00 -9.158602356910705566e-02 -4.909215271472930908e-01 4.055536985397338867e-01
4.980000000000000000e+02 2.697899818420410156e+01 5.122158527374267578e-01 -1.530459761619567871e+00 -1.423768699169158936e-02 -4.634092450141906738e-01 3.250670731067657471e-01
4.990000000000000000e+02 2.775563621520996094e+01 -4.536604583263397217e-01 -1.681633472442626953e+00 -6.172522157430648804e-02 -5.230076313018798828e-01 3.750858902931213379e-01
5.000000000000000000e+02 2.081994247436523438e+01 1.359829425811767578e+00 -1.864413619041442871e+00 -1.182681471109390259e-01 -5.948045253753662109e-01 4.584031999111175537e-01
5.010000000000000000e+02 2.621677017211914062e+01 7.081378102302551270e-01 -1.542289733886718750e+00 -5.937023460865020752e-02 -4.804979860782623291e-01 3.767274320125579834e-01
5.020000000000000000e+02 2.366904449462890625e+01 1.446964621543884277e+00 -1.523677706718444824e+00 -1.191085800528526306e-01 -4.928358793258666992e-01 4.145331084728240967e-01
5.030000000000000000e+02 2.850458717346191406e+01 1.164546683430671692e-01 -1.456418275833129883e+00 1.048584878444671631e-01 -4.054679274559020996e-01 1.433847397565841675e-01
5.040000000000000000e+02 2.774171447753906250e+01 3.146288096904754639e-01 -1.513038635253906250e+00 3.771350905299186707e-02 -4.425975382328033447e-01 2.646069824695587158e-01
5.050000000000000000e+02 2.338090705871582031e+01 6.175161004066467285e-01 -1.826690912246704102e+00 -1.450057923793792725e-01 -5.915089845657348633e-01 4.767838716506958008e-01
5.060000000000000000e+02 2.305155563354492188e+01 1.057019233703613281e+00 -1.724507451057434082e+00 -1.179052740335464478e-01 -5.527238249778747559e-01 4.623675346374511719e-01
5.070000000000000000e+02 1.611225318908691406e+01 2.416136503219604492e+00 -9.285147786140441895e-01 3.108151257038116455e-02 -2.692299783229827881e-01 3.161482512950897217e-01
5.080000000000000000e+02 1.692862129211425781e+01 2.473628282546997070e+00 -1.158994317054748535e+00 3.509445860981941223e-02 -3.371699452400207520e-01 2.812829315662384033e-01
5.090000000000000000e+02 1.619552993774414062e+01 1.680045008659362793e+00 -1.080629706382751465e+00 -3.478738246485590935e-03 -3.252325356006622314e-01 5.156028643250465393e-02
5.100000000000000000e+02 1.774459457397460938e+01 2.528052330017089844e+00 -1.393538951873779297e+00 -2.690424211323261261e-02 -4.261329472064971924e-01 3.432232439517974854e-01
5.110000000000000000e+02 1.851055526733398438e+01 1.834378838539123535e+00 -2.091531276702880859e+00 -1.264699995517730713e-01 -6.654003858566284180e-01 1.652094274759292603e-01
5.120000000000000000e+02 1.855901145935058594e+01 2.579250097274780273e+00 -1.381521701812744141e+00 -1.796629279851913452e-01 -4.683553874492645264e-01 3.384186923503875732e-01
5.130000000000000000e+02 1.696798706054687500e+01 1.734610080718994141e+00 -1.348317146301269531e+00 5.754886660724878311e-03 -4.027687013149261475e-01 5.551763623952865601e-02
5.140000000000000000e+02 1.774004745483398438e+01 1.786107659339904785e+00 -1.644989490509033203e+00 1.225877925753593445e-02 -4.898192286491394043e-01 4.417726024985313416e-02
5.150000000000000000e+02 1.307423973083496094e+01 1.803115367889404297e+00 -1.691549122333526611e-01 2.547008544206619263e-02 -4.310544580221176147e-02 1.748540401458740234e-01
5.160000000000000000e+02 1.322374725341796875e+01 1.078295350074768066e+00 1.038933265954256058e-02 1.291261520236730576e-02 6.990584544837474823e-03 7.680249959230422974e-02
5.170000000000000000e+02 1.396254444122314453e+01 1.243136167526245117e+00 -1.680376529693603516e-01 2.559527568519115448e-02 -4.273271188139915466e-02 6.764981895685195923e-02
5.180000000000000000e+02 1.470126342773437500e+01 1.407449364662170410e+00 -4.065303206443786621e-01 2.100852876901626587e-02 -1.156565397977828979e-01 4.750041663646697998e-02
5.190000000000000000e+02 1.544029712677001953e+01 1.569983482360839844e+00 -7.473899722099304199e-01 7.243760861456394196e-03 -2.220438718795776367e-01 4.104388877749443054e-02
5.200000000000000000e+02 1.532874107360839844e+01 2.303210496902465820e+00 -7.194170355796813965e-01 4.082810878753662109e-02 -2.035766690969467163e-01 3.118159770965576172e-01
5.210000000000000000e+02 1.382568740844726562e+01 1.970758438110351562e+00 -3.275770246982574463e-01 3.376111015677452087e-02 -8.814477175474166870e-02 2.156372964382171631e-01
5.220000000000000000e+02 1.457705688476562500e+01 2.137874126434326172e+00 -5.338554978370666504e-01 6.124101579189300537e-02 -1.417843550443649292e-01 2.659994065761566162e-01
5.230000000000000000e+02 1.104393005371093750e+01 6.161050796508789062e-01 2.406049370765686035e-01 8.841549977660179138e-03 7.483394443988800049e-02 5.583067238330841064e-02
5.240000000000000000e+02 1.093760776519775391e+01 1.349887132644653320e+00 9.118727594614028931e-02 -2.018514834344387054e-02 2.130063995718955994e-02 5.697395652532577515e-02
5.250000000000000000e+02 1.032133674621582031e+01 4.645727574825286865e-01 2.382835894823074341e-01 -6.999411154538393021e-03 6.938525289297103882e-02 3.988654911518096924e-02
5.260000000000000000e+02 1.176770782470703125e+01 7.675349712371826172e-01 2.068393081426620483e-01 4.892528057098388672e-03 6.351955235004425049e-02 6.901122629642486572e-02
5.270000000000000000e+02 1.234649181365966797e+01 1.644436478614807129e+00 -4.353848844766616821e-02 -1.154463179409503937e-02 -1.652493514120578766e-02 1.336791813373565674e-01
5.280000000000000000e+02 1.249242305755615234e+01 9.189449548721313477e-01 1.332343965768814087e-01 1.771392859518527985e-02 4.528449848294258118e-02 7.381615042686462402e-02
5.290000000000000000e+02 1.023481845855712891e+01 1.202500104904174805e+00 1.417094916105270386e-01 -2.531284838914871216e-02 3.491899371147155762e-02 3.109826333820819855e-02
5.300000000000000000e+02 1.164158153533935547e+01 1.497171759605407715e+00 3.796064481139183044e-02 -6.303745321929454803e-03 9.497069753706455231e-03 8.442474156618118286e-02
5.310000000000000000e+02 8.738976478576660156e+00 3.806764781475067139e-01 2.652642726898193359e-01 -3.065939294174313545e-03 7.865950465202331543e-02 1.751093222992494702e-04
5.320000000000000000e+02 8.719267845153808594e+00 1.120676517486572266e+00 1.517318338155746460e-01 -1.771926693618297577e-02 4.020376875996589661e-02 2.006807335419580340e-05
5.330000000000000000e+02 7.164478778839111328e+00 1.118019104003906250e+00 1.474346816539764404e-01 -9.563205763697624207e-03 4.136144369840621948e-02 -2.741543389856815338e-02
5.340000000000000000e+02 6.292463302612304688e+00 3.770544826984405518e-01 2.097043395042419434e-01 -3.442045999690890312e-03 6.187868863344192505e-02 -1.379281654953956604e-02
5.350000000000000000e+02 5.476712703704833984e+00 3.768434524536132812e-01 1.765388101339340210e-01 1.966073177754878998e-03 5.355146527290344238e-02 -1.458368822932243347e-02
5.360000000000000000e+02 4.661345481872558594e+00 3.765997588634490967e-01 1.408412605524063110e-01 -2.421532524749636650e-03 4.152591899037361145e-02 -1.615221984684467316e-02
5.370000000000000000e+02 3.032949686050415039e+00 3.775091171264648438e-01 6.808635592460632324e-02 -7.620452670380473137e-04 2.019729278981685638e-02 -1.532162539660930634e-02
5.380000000000000000e+02 2.221997976303100586e+00 3.784421682357788086e-01 3.626035526394844055e-02 2.050182083621621132e-03 1.149316132068634033e-02 -1.271747797727584839e-02
5.390000000000000000e+02 2.505794763565063477e+00 1.118442177772521973e+00 4.016109555959701538e-02 3.847463987767696381e-03 1.320256758481264114e-02 -3.625075519084930420e-02
5.400000000000000000e+02 1.745976328849792480e+00 1.122917294502258301e+00 2.305181510746479034e-02 1.023310795426368713e-02 9.985476732254028320e-03 -2.798184566199779510e-02
5.410000000000000000e+02 3.682450354099273682e-01 9.625021815299987793e-01 1.386388787068426609e-03 7.557728793472051620e-03 2.683235332369804382e-03 -4.731541499495506287e-03
5.420000000000000000e+02 6.944741606712341309e-01 4.059950113296508789e-01 3.304801881313323975e-03 2.554040402173995972e-03 1.757652731612324715e-03 -3.034758614376187325e-03
5.430000000000000000e+02 3.278808116912841797e+00 1.117509126663208008e+00 5.807833746075630188e-02 3.663818119093775749e-03 1.852264627814292908e-02 -4.084052145481109619e-02
5.440000000000000000e+02 3.846553564071655273e+00 3.765962421894073486e-01 1.037664338946342468e-01 1.851167646236717701e-03 3.168528154492378235e-02 -1.564667932689189911e-02
5.450000000000000000e+02 5.608756542205810547e+00 1.116843461990356445e+00 1.175396144390106201e-01 -4.760010633617639542e-03 3.383387997746467590e-02 -3.916522115468978882e-02
5.460000000000000000e+02 6.386569023132324219e+00 1.117054462432861328e+00 1.333912163972854614e-01 -3.022955264896154404e-03 3.911048173904418945e-02 -3.348685055971145630e-02
5.470000000000000000e+02 7.108311176300048828e+00 3.780190646648406982e-01 2.372742295265197754e-01 7.116810302250087261e-04 7.139577716588973999e-02 -1.001662202179431915e-02
5.480000000000000000e+02 7.924066066741943359e+00 3.789985179901123047e-01 2.574607431888580322e-01 -3.293735440820455551e-03 7.625010609626770020e-02 -7.377095054835081100e-03
5.490000000000000000e+02 7.942295551300048828e+00 1.118998527526855469e+00 1.530780643224716187e-01 -8.629643358290195465e-03 4.333452880382537842e-02 -1.341754291206598282e-02
5.500000000000000000e+02 9.552846908569335938e+00 3.859910368919372559e-01 2.476602941751480103e-01 -9.188511408865451813e-03 7.154153287410736084e-02 1.440792437642812729e-02
5.510000000000000000e+02 9.495200157165527344e+00 1.125990986824035645e+00 1.559580415487289429e-01 -2.714910544455051422e-02 3.864268213510513306e-02 2.195814065635204315e-02
5.520000000000000000e+02 1.054147243499755859e+00 1.145995020866394043e+00 1.141519006341695786e-02 1.318152528256177902e-02 7.379014510661363602e-03 -1.845373585820198059e-02
5.530000000000000000e+02 4.831327438354492188e+00 1.116599798202514648e+00 9.803449362516403198e-02 4.495340399444103241e-04 2.954520657658576965e-02 -4.113967716693878174e-02
5.540000000000000000e+02 4.054473876953125000e+00 1.116596221923828125e+00 7.895296066999435425e-02 -1.834403374232351780e-03 2.313556708395481110e-02 -4.238390550017356873e-02
5.550000000000000000e+02 1.424241423606872559e+00 3.829173147678375244e-01 1.365722808986902237e-02 1.797758042812347412e-03 4.636495839804410934e-03 -8.502824231982231140e-03
5.560000000000000000e+02 1.338139057159423828e+01 3.142086565494537354e-01 -5.065837502479553223e-01 1.844105273485183716e-01 -9.665196388959884644e-02 -1.722171306610107422e-01
5.570000000000000000e+02 1.410687160491943359e+01 4.760258793830871582e-01 -5.569504499435424805e-01 -2.667263150215148926e-01 -2.471030354499816895e-01 -9.670446813106536865e-02
5.580000000000000000e+02 1.353089809417724609e+01 -4.106113612651824951e-01 -3.726525008678436279e-01 -2.492839545011520386e-01 -1.865809410810470581e-01 -1.260605901479721069e-01
5.590000000000000000e+02 1.483218193054199219e+01 6.374483108520507812e-01 -5.744259953498840332e-01 2.020359784364700317e-01 -1.117170006036758423e-01 -1.913425028324127197e-01
5.600000000000000000e+02 1.495638942718505859e+01 -9.297639876604080200e-02 -4.474518001079559326e-01 -2.700839638710021973e-01 -2.152607291936874390e-01 -8.643034100532531738e-02
5.610000000000000000e+02 1.566942024230957031e+01 6.387124955654144287e-02 -4.638000130653381348e-01 2.971732616424560547e-01 -4.998802393674850464e-02 -1.803507208824157715e-01
5.620000000000000000e+02 1.555786418914794922e+01 7.970982789993286133e-01 -6.064371466636657715e-01 -2.340858429670333862e-01 -2.521568834781646729e-01 -8.178838342428207397e-02
5.630000000000000000e+02 1.424372863769531250e+01 -2.515964508056640625e-01 -4.212568402290344238e-01 1.934813708066940308e-01 -6.833264231681823730e-02 -1.820364743471145630e-01
5.640000000000000000e+02 3.318807840347290039e+00 -1.896373629570007324e+00 -1.515321806073188782e-02 1.663401909172534943e-02 4.442402569111436605e-04 -8.765411563217639923e-03
5.650000000000000000e+02 4.727960109710693359e+00 -1.807242035865783691e+00 -3.527540713548660278e-02 3.645250573754310608e-02 3.531293477863073349e-04 -1.105258148163557053e-02
5.660000000000000000e+02 8.980464935302734375e+00 -2.528767108917236328e+00 -1.076717004179954529e-01 -1.192125156521797180e-01 -6.806526333093643188e-02 -1.461007148027420044e-01
5.670000000000000000e+02 1.797977638244628906e+01 -2.982315301895141602e+00 1.421733796596527100e-01 3.541384041309356689e-01 1.488935351371765137e-01 1.342487782239913940e-01
5.680000000000000000e+02 1.672818756103515625e+01 -1.477153897285461426e+00 -1.585420668125152588e-01 -2.725192606449127197e-01 -1.293183863162994385e-01 -4.349781945347785950e-02
5.690000000000000000e+02 2.011921501159667969e+01 -9.026787281036376953e-01 1.993804425001144409e-01 3.502638339996337891e-01 1.648932844400405884e-01 -1.861826628446578979e-01
5.700000000000000000e+02 1.740003585815429688e+01 -5.177055597305297852e-01 -4.482711255550384521e-01 -1.575045734643936157e-01 -1.817326992750167847e-01 -8.780197799205780029e-02
5.710000000000000000e+02 5.287900567054748535e-01 -1.057946014404296875e+01 6.239595357328653336e-03 -2.289662137627601624e-02 -4.997107665985822678e-03 4.157020244747400284e-03
5.720000000000000000e+02 6.692250728607177734e+00 -1.488424682617187500e+01 -2.147374004125595093e-01 -3.608403205871582031e-01 -1.726733148097991943e-01 -2.239059954881668091e-01
5.730000000000000000e+02 1.014692306518554688e+01 -1.257758331298828125e+01 -1.709190309047698975e-01 -3.103662468492984772e-02 -6.058669462800025940e-02 -7.450970262289047241e-02
5.740000000000000000e+02 8.947634696960449219e+00 -1.300498580932617188e+01 -2.561406493186950684e-01 -1.849720925092697144e-01 -1.323338299989700317e-01 -1.661981046199798584e-01
5.750000000000000000e+02 1.246246719360351562e+01 -1.211083793640136719e+01 5.457830056548118591e-02 1.209364384412765503e-01 5.265441909432411194e-02 -1.112885773181915283e-01
5.760000000000000000e+02 1.596574401855468750e+01 -8.387323379516601562e+00 -2.840001322329044342e-02 2.764564156532287598e-01 7.441692054271697998e-02 6.992073263972997665e-03
5.770000000000000000e+02 1.824059104919433594e+01 -1.457357597351074219e+01 -1.208199858665466309e-01 1.993009150028228760e-01 2.354427613317966461e-02 -2.302519083023071289e-01
5.780000000000000000e+02 1.560848045349121094e+01 -9.848887443542480469e+00 7.586410641670227051e-02 3.443537652492523193e-01 1.260653585195541382e-01 -2.143012546002864838e-02
5.790000000000000000e+02 1.704022216796875000e+01 -8.426171302795410156e+00 8.996882289648056030e-02 4.848813116550445557e-01 1.724550426006317139e-01 -4.255827516317367554e-02
5.800000000000000000e+02 1.722501182556152344e+01 -5.530586242675781250e+00 1.014822944998741150e-01 4.571883678436279297e-01 1.676011979579925537e-01 5.966203659772872925e-02
5.810000000000000000e+02 3.597905397415161133e+00 -2.069222450256347656e+01 9.953992813825607300e-02 -2.557140290737152100e-01 -4.685223475098609924e-02 -1.731030046939849854e-01
5.820000000000000000e+02 6.254408359527587891e+00 -2.200002479553222656e+01 2.777709960937500000e-01 1.297610849142074585e-01 1.222596243023872375e-01 -1.757744997739791870e-01
5.830000000000000000e+02 9.007546424865722656e+00 -2.315659141540527344e+01 3.137548267841339111e-01 1.208442635834217072e-02 9.775178134441375732e-02 -1.190643832087516785e-01
5.840000000000000000e+02 7.520390987396240234e+00 -2.283934020996093750e+01 3.993346989154815674e-01 1.368841826915740967e-01 1.608656644821166992e-01 -1.651942282915115356e-01
5.850000000000000000e+02 4.193661689758300781e+00 -2.412310981750488281e+01 8.152660727500915527e-02 -2.354022860527038574e-01 -4.616270586848258972e-02 -1.628784276545047760e-02
5.860000000000000000e+02 6.059504747390747070e-01 -3.035189628601074219e+01 -1.180860446766018867e-03 -5.117880702018737793e-01 -1.538906842470169067e-01 -5.039531271904706955e-03
5.870000000000000000e+02 1.228589248657226562e+01 -3.637213897705078125e+01 9.170654416084289551e-02 -2.666020998731255531e-03 2.671215869486331940e-02 -1.509179621934890747e-01
5.880000000000000000e+02 1.335949134826660156e+01 -3.705473327636718750e+01 1.552942991256713867e-01 1.788176000118255615e-01 1.002335697412490845e-01 -1.521547883749008179e-01
5.890000000000000000e+02 1.263444900512695312e+01 -3.506837463378906250e+01 4.212096706032752991e-02 -4.620018601417541504e-02 -1.223765313625335693e-03 -1.034089922904968262e-01
5.900000000000000000e+02 1.256042861938476562e+01 -3.066355705261230469e+01 -1.438143700361251831e-01 -3.074619770050048828e-01 -1.353829056024551392e-01 -1.811721920967102051e-01
5.910000000000000000e+02 1.415118312835693359e+01 -2.985842132568359375e+01 -1.579757183790206909e-01 -4.329766929149627686e-01 -1.772857159376144409e-01 -2.546481490135192871e-01
5.920000000000000000e+02 1.492648601531982422e+01 -2.861969757080078125e+01 -1.236048042774200439e-01 -3.450519442558288574e-01 -1.405970305204391479e-01 -2.106751650571823120e-01
5.930000000000000000e+02 1.192842292785644531e+01 -2.261867141723632812e+01 -2.071794271469116211e-01 -1.527570337057113647e-01 -1.079809367656707764e-01 -1.849904656410217285e-01
5.940000000000000000e+02 1.050660705566406250e+01 -2.302927398681640625e+01 7.545886933803558350e-02 -1.173013262450695038e-02 1.911862194538116455e-02 -9.932505339384078979e-02
5.950000000000000000e+02 1.088940811157226562e+01 -2.417708396911621094e+01 3.731222450733184814e-02 -1.475394517183303833e-01 -3.306816890835762024e-02 -2.416640520095825195e-01
5.960000000000000000e+02 7.264037609100341797e+00 -3.863526153564453125e+01 1.101826131343841553e-01 -3.264629542827606201e-01 -6.488410383462905884e-02 -1.267040818929672241e-01
5.970000000000000000e+02 9.799634933471679688e+00 -3.399574279785156250e+01 -2.857999503612518311e-02 -1.843517124652862549e-01 -6.387951225042343140e-02 -2.066185623407363892e-01
5.980000000000000000e+02 6.368784904479980469e-01 -3.174276733398437500e+01 -2.271908102557063103e-03 -5.294252038002014160e-01 -1.595091223716735840e-01 -9.161903522908687592e-03
5.990000000000000000e+02 9.511125683784484863e-01 -3.725171661376953125e+01 2.954463474452495575e-03 -6.486583948135375977e-01 -1.937111914157867432e-01 -1.545860059559345245e-02
6.000000000000000000e+02 3.250905513763427734e+00 -3.770799255371093750e+01 2.539053186774253845e-02 -5.465813279151916504e-01 -1.563572436571121216e-01 -6.512542068958282471e-02
6.010000000000000000e+02 2.215706825256347656e+01 -3.978539657592773438e+01 3.941146731376647949e-01 1.307271122932434082e-01 1.574525386095046997e-01 1.930294334888458252e-01
6.020000000000000000e+02 2.254503059387207031e+01 -4.151098251342773438e+01 4.937461614608764648e-01 1.385034918785095215e-01 1.896748989820480347e-01 4.654051735997200012e-02
6.030000000000000000e+02 2.508856010437011719e+01 -4.045958709716796875e+01 3.191308379173278809e-01 3.543542325496673584e-01 2.020455300807952881e-01 7.541837543249130249e-02
6.040000000000000000e+02 2.629987716674804688e+01 -3.861366271972656250e+01 2.289522439241409302e-01 4.924031496047973633e-01 2.164066135883331299e-01 1.344012916088104248e-01
6.050000000000000000e+02 2.877735137939453125e+01 -3.927379989624023438e+01 1.675217151641845703e-01 8.126873970031738281e-01 2.940627336502075195e-01 1.638711243867874146e-01
6.060000000000000000e+02 4.000820159912109375e+01 -3.527196884155273438e+01 4.364877343177795410e-01 1.707137227058410645e+00 6.430874466896057129e-01 -1.211131215095520020e+00
6.070000000000000000e+02 3.918874740600585938e+01 -3.214985656738281250e+01 8.959060311317443848e-01 6.460516929626464844e+00 2.206927061080932617e+00 1.272144198417663574e+00
6.080000000000000000e+02 3.852789306640625000e+01 -3.573107147216796875e+01 -2.390725761651992798e-01 3.009123086929321289e+00 8.310151696205139160e-01 5.134382843971252441e-01
6.090000000000000000e+02 3.613640213012695312e+01 -2.997350120544433594e+01 8.650465607643127441e-01 1.360802888870239258e+00 6.677548289299011230e-01 7.278777360916137695e-01
6.100000000000000000e+02 3.732894134521484375e+01 -3.115959358215332031e+01 1.230896830558776855e+00 2.734720706939697266e+00 1.189685225486755371e+00 9.341531395912170410e-01
6.110000000000000000e+02 3.115636825561523438e+01 -2.623369407653808594e+01 1.699528843164443970e-01 3.399772942066192627e-01 1.529790461063385010e-01 -2.901342213153839111e-01
6.120000000000000000e+02 2.937649345397949219e+01 -2.439677238464355469e+01 2.544628679752349854e-01 9.684754610061645508e-01 3.668814897537231445e-01 -3.931315839290618896e-01
6.130000000000000000e+02 2.787328910827636719e+01 -2.687172889709472656e+01 1.552020609378814697e-01 6.071020960807800293e-01 2.286912500858306885e-01 -2.057602554559707642e-01
6.140000000000000000e+02 2.246799659729003906e+01 -2.803986167907714844e+01 3.080683648586273193e-01 2.448218315839767456e-01 1.658670604228973389e-01 -2.652751803398132324e-01
6.150000000000000000e+02 2.324380493164062500e+01 -2.701519203186035156e+01 3.767744302749633789e-01 3.090589940547943115e-01 2.057500183582305908e-01 -1.720554679632186890e-01
6.160000000000000000e+02 2.342790603637695312e+01 -2.901942634582519531e+01 2.484436780214309692e-01 3.857907950878143311e-01 1.902703493833541870e-01 -2.366477549076080322e-01
6.170000000000000000e+02 2.509442710876464844e+01 -2.873971748352050781e+01 2.380441129207611084e-01 4.710091054439544678e-01 2.127159684896469116e-01 -1.888974308967590332e-01
6.180000000000000000e+02 2.517569541931152344e+01 -3.341981124877929688e+01 -5.347172729671001434e-03 3.641007840633392334e-01 1.076260805130004883e-01 -3.282788023352622986e-02
6.190000000000000000e+02 2.353427696228027344e+01 -3.895424270629882812e+01 3.202884495258331299e-01 1.942966878414154053e-01 1.543755382299423218e-01 1.834163069725036621e-01
6.200000000000000000e+02 3.578666687011718750e+01 -3.626425170898437500e+01 2.366490513086318970e-01 1.976425290107727051e+00 6.639223098754882812e-01 6.768286824226379395e-01
6.210000000000000000e+02 4.077892303466796875e+01 -3.618009185791015625e+01 5.318436026573181152e-01 9.535491466522216797e-01 4.456178247928619385e-01 -3.260206580162048340e-01
6.220000000000000000e+02 4.878148651123046875e+01 -3.593745803833007812e+01 8.215246200561523438e-01 3.815758466720581055e+00 1.391184926033020020e+00 1.720578312873840332e+00
6.230000000000000000e+02 4.981674957275390625e+01 -3.744627761840820312e+01 -7.420169115066528320e-01 4.914813041687011719e+00 1.251838803291320801e+00 8.668084144592285156e-01
6.240000000000000000e+02 4.780273056030273438e+01 -3.685610198974609375e+01 5.656805038452148438e-01 1.907475590705871582e+00 7.419468164443969727e-01 8.836160898208618164e-01
6.250000000000000000e+02 5.719753646850585938e+01 -3.755553054809570312e+01 -6.182873249053955078e-01 3.782141685485839844e+00 9.491562843322753906e-01 -1.106284618377685547e+00
6.260000000000000000e+02 5.598152542114257812e+01 -3.618184661865234375e+01 1.164227873086929321e-01 6.792974472045898438e+00 2.072819232940673828e+00 -9.419935941696166992e-01
6.270000000000000000e+02 5.966312789916992188e+01 -3.956148910522460938e+01 -1.916159749031066895e+00 -6.376610398292541504e-01 -7.661462426185607910e-01 -5.556132793426513672e-01
6.280000000000000000e+02 5.911303329467773438e+01 -3.771375274658203125e+01 -1.535308599472045898e+00 6.634905338287353516e-01 -2.615454196929931641e-01 2.669860422611236572e-01
6.290000000000000000e+02 6.002945709228515625e+01 -3.811348342895507812e+01 -3.495599746704101562e+00 -1.106543183326721191e+00 -1.380642890930175781e+00 1.142516613006591797e+00
6.300000000000000000e+02 6.136688613891601562e+01 -3.837389373779296875e+01 -3.343157529830932617e+00 -1.742203384637832642e-01 -1.055213332176208496e+00 -3.083484172821044922e-01
6.310000000000000000e+02 6.430092620849609375e+01 -3.736307144165039062e+01 -1.158561587333679199e+00 6.542073488235473633e-01 -1.513062566518783569e-01 3.269688487052917480e-01
6.320000000000000000e+02 6.999967193603515625e+01 -3.524164581298828125e+01 7.410054206848144531e-01 5.653510570526123047e+00 1.918354749679565430e+00 -1.223356008529663086e+00
6.330000000000000000e+02 7.793008422851562500e+01 -4.165963745117187500e+01 -4.030064214020967484e-03 7.961478710174560547e+00 2.387234449386596680e+00 -1.522495411336421967e-03
6.340000000000000000e+02 7.736602783203125000e+01 -3.669610977172851562e+01 1.137482933700084686e-02 7.515200614929199219e+00 2.257972717285156250e+00 -1.281657218933105469e-01
6.350000000000000000e+02 7.817504119873046875e+01 -3.028187942504882812e+01 -6.853109598159790039e-02 7.803087711334228516e+00 2.320366859436035156e+00 1.004719287157058716e-01
6.360000000000000000e+02 7.486716461181640625e+01 -2.072438240051269531e+01 1.268156766891479492e+00 1.017249584197998047e+01 3.432195901870727539e+00 2.183027118444442749e-01
6.370000000000000000e+02 7.238288879394531250e+01 -1.787409782409667969e+01 1.409173130989074707e+00 4.122794151306152344e+00 1.659590244293212891e+00 -2.092420578002929688e+00
6.380000000000000000e+02 7.832682800292968750e+01 -1.116288089752197266e+01 -3.490582704544067383e-01 9.534583091735839844e+00 2.755657434463500977e+00 -7.387609481811523438e-01
6.390000000000000000e+02 7.942368316650390625e+01 -1.252317714691162109e+01 -7.555379997938871384e-03 1.076834297180175781e+01 3.228236198425292969e+00 -8.771374076604843140e-02
6.400000000000000000e+02 7.305693054199218750e+01 -1.157042789459228516e+01 -2.986615896224975586e+00 4.393018484115600586e-01 -7.641941905021667480e-01 -5.455767512321472168e-01
6.410000000000000000e+02 7.088778686523437500e+01 -1.216840839385986328e+01 -2.600789785385131836e+00 -5.016286969184875488e-01 -9.307255148887634277e-01 -1.290054798126220703e+00
6.420000000000000000e+02 6.898291778564453125e+01 -1.357965946197509766e+01 -5.189681053161621094e-01 7.160022258758544922e-01 5.911022797226905823e-02 -2.014049291610717773e+00
6.430000000000000000e+02 6.844741821289062500e+01 -1.614975166320800781e+01 -3.382393121719360352e+00 -4.965574666857719421e-02 -1.029614686965942383e+00 -8.372401595115661621e-01
6.440000000000000000e+02 7.142378234863281250e+01 -1.702933120727539062e+01 1.225758194923400879e+00 1.659959197044372559e+00 8.657152056694030762e-01 -1.250782251358032227e+00
6.450000000000000000e+02 7.038336944580078125e+01 -1.630083274841308594e+01 -7.542168498039245605e-01 6.059848070144653320e-01 -4.446962475776672363e-02 -9.855457544326782227e-01
6.460000000000000000e+02 7.354780578613281250e+01 -1.954652595520019531e+01 1.395446300506591797e+00 1.001641559600830078e+01 3.423558712005615234e+00 -2.039998054504394531e+00
6.470000000000000000e+02 7.825875854492187500e+01 -1.810670471191406250e+01 8.632012456655502319e-02 8.425791740417480469e+00 2.553633451461791992e+00 1.030776500701904297e+00
6.480000000000000000e+02 7.724300384521484375e+01 -1.087341308593750000e+01 -7.927708029747009277e-01 9.478508949279785156e+00 2.605721473693847656e+00 -1.069074034690856934e+00
6.490000000000000000e+02 7.535079193115234375e+01 -8.096192359924316406e+00 6.466863155364990234e-01 1.376947498321533203e+01 4.324848175048828125e+00 2.225196361541748047e-01
6.500000000000000000e+02 7.676998901367187500e+01 -6.923485279083251953e+00 1.104124307632446289e+00 1.040041542053222656e+01 3.451361894607543945e+00 -7.045332193374633789e-01
6.510000000000000000e+02 7.690401458740234375e+01 -5.553676128387451172e+00 9.495636224746704102e-01 9.941280364990234375e+00 3.267253160476684570e+00 -1.143397614359855652e-01
6.520000000000000000e+02 7.942790985107421875e+01 2.708251476287841797e+00 -3.057177877053618431e-03 8.130482673645019531e+00 2.438227653503417969e+00 -1.855965405702590942e-01
6.530000000000000000e+02 7.011506652832031250e+01 3.542753219604492188e+00 4.660216271877288818e-01 3.046791553497314453e+00 1.053843975067138672e+00 1.729156255722045898e+00
6.540000000000000000e+02 6.740100097656250000e+01 6.919173717498779297e+00 -1.282495379447937012e+00 1.937481760978698730e-01 -3.266241848468780518e-01 4.599454402923583984e-01
6.550000000000000000e+02 6.318869781494140625e+01 6.442475318908691406e+00 -1.076903462409973145e+00 2.833101272583007812e+00 5.268593430519104004e-01 -1.217916965484619141e+00
6.560000000000000000e+02 6.326722335815429688e+01 8.202369689941406250e+00 -3.226273059844970703e-01 1.197414398193359375e+00 2.624361217021942139e-01 -2.074935734272003174e-01
6.570000000000000000e+02 6.099816131591796875e+01 -3.391404151916503906e+00 2.096087217330932617e+00 1.390184116363525391e+01 4.799378395080566406e+00 -3.051059007644653320e+00
6.580000000000000000e+02 6.598352813720703125e+01 -3.696989059448242188e+00 1.880511283874511719e+00 6.534620761871337891e+00 2.524539709091186523e+00 2.568222761154174805e+00
6.590000000000000000e+02 6.497695922851562500e+01 -3.241876363754272461e+00 1.496958971023559570e+00 7.352724075317382812e+00 2.654904842376708984e+00 1.184876561164855957e+00
6.600000000000000000e+02 6.123916625976562500e+01 -4.768428325653076172e+00 4.648302197456359863e-01 1.229804229736328125e+01 3.828861713409423828e+00 -1.056439638137817383e+00
6.610000000000000000e+02 6.335947036743164062e+01 -6.726277351379394531e+00 1.704915404319763184e+00 9.710787773132324219e+00 3.424710988998413086e+00 -4.153565466403961182e-01
6.620000000000000000e+02 6.186551666259765625e+01 -1.039272594451904297e+01 -1.107134699821472168e+00 7.246741771697998047e+00 1.841882109642028809e+00 9.167905449867248535e-01
6.630000000000000000e+02 6.132596969604492188e+01 -9.040395736694335938e+00 7.894589900970458984e-01 8.139886856079101562e+00 2.678803920745849609e+00 1.524351716041564941e+00
6.640000000000000000e+02 5.817472457885742188e+01 -1.107842350006103516e+01 -1.513968467712402344e+00 1.254725575447082520e+00 -7.777287065982818604e-02 3.259547054767608643e-01
6.650000000000000000e+02 5.997769165039062500e+01 -1.148700904846191406e+01 -1.018104910850524902e+00 5.366954326629638672e+00 1.304654836654663086e+00 2.313882589340209961e+00
6.660000000000000000e+02 5.695772171020507812e+01 -1.031325721740722656e+01 -2.098779201507568359e+00 2.744781374931335449e-01 -5.472903251647949219e-01 -5.706101655960083008e-01
6.670000000000000000e+02 5.410799026489257812e+01 -1.033034896850585938e+01 -1.614009290933609009e-01 4.894053459167480469e+00 1.419795751571655273e+00 -2.379038095474243164e+00
6.680000000000000000e+02 4.958957290649414062e+01 -2.542781829833984375e+00 5.342710018157958984e-01 7.797828674316406250e+00 2.499629974365234375e+00 2.491945505142211914e+00
6.690000000000000000e+02 5.020888137817382812e+01 -2.175480365753173828e+00 -3.728531002998352051e-01 1.288144969940185547e+01 3.752578973770141602e+00 2.868521690368652344e+00
6.700000000000000000e+02 5.215589141845703125e+01 -1.464650750160217285e+00 2.973172664642333984e+00 1.342290115356445312e+01 4.918822288513183594e+00 -1.047541975975036621e+00
6.710000000000000000e+02 5.323553466796875000e+01 -1.944786667823791504e+00 8.250882625579833984e-01 7.459141731262207031e+00 2.485269069671630859e+00 1.607658505439758301e+00
6.720000000000000000e+02 7.824802398681640625e+01 3.867727518081665039e+00 -7.248056679964065552e-02 7.355752468109130859e+00 2.184981584548950195e+00 -6.238601803779602051e-01
6.730000000000000000e+02 7.932715606689453125e+01 8.260160446166992188e+00 4.463380668312311172e-03 5.630321502685546875e+00 1.690435409545898438e+00 -3.094345629215240479e-01
6.740000000000000000e+02 7.206368255615234375e+01 1.383701133728027344e+01 1.045095801353454590e+00 1.355479907989501953e+01 4.379968643188476562e+00 -7.351660132408142090e-01
6.750000000000000000e+02 7.211430358886718750e+01 1.108906459808349609e+01 1.647177934646606445e+00 1.383763408660888672e+01 4.645443439483642578e+00 2.278784513473510742e+00
6.760000000000000000e+02 7.129129028320312500e+01 9.149507522583007812e+00 2.569888591766357422e+00 9.271910667419433594e+00 3.552539587020874023e+00 3.618583917617797852e+00
6.770000000000000000e+02 7.243238830566406250e+01 9.975354194641113281e+00 2.069700717926025391e+00 1.102520751953125000e+01 3.928472518920898438e+00 1.954035997390747070e+00
6.780000000000000000e+02 6.987897491455078125e+01 6.884638309478759766e+00 9.064417481422424316e-01 3.546363115310668945e+00 1.335841417312622070e+00 2.109549999237060547e+00
6.790000000000000000e+02 7.932920837402343750e+01 1.251337051391601562e+01 1.543703973293304443e-01 4.922266960144042969e+00 1.522991180419921875e+00 1.024653092026710510e-01
6.800000000000000000e+02 7.938394927978515625e+01 1.673745727539062500e+01 -5.352146178483963013e-02 6.634561538696289062e+00 1.974312067031860352e+00 3.614566922187805176e-01
6.810000000000000000e+02 7.012998962402343750e+01 1.751674270629882812e+01 -1.879362463951110840e-01 2.426290988922119141e+00 6.715064048767089844e-01 -1.058497905731201172e+00
6.820000000000000000e+02 7.168282318115234375e+01 1.522913074493408203e+01 1.246454238891601562e+00 1.131847763061523438e+01 3.769479513168334961e+00 -2.366940259933471680e+00
6.830000000000000000e+02 7.821728515625000000e+01 1.817371177673339844e+01 -1.749556213617324829e-01 7.414000034332275391e+00 2.171713352203369141e+00 7.752725481986999512e-01
6.840000000000000000e+02 7.937631988525390625e+01 2.369063758850097656e+01 -6.670963950455188751e-03 8.351883888244628906e+00 2.503563880920410156e+00 -3.897333890199661255e-02
6.850000000000000000e+02 6.811761474609375000e+01 2.956140327453613281e+01 1.397302746772766113e+00 4.919677734375000000e+00 1.895094156265258789e+00 8.448294997215270996e-01
6.860000000000000000e+02 6.372570419311523438e+01 3.039178276062011719e+01 3.606943786144256592e-01 7.354168415069580078e+00 2.314458847045898438e+00 1.842692196369171143e-01
6.870000000000000000e+02 6.427320098876953125e+01 3.159537124633789062e+01 6.920506358146667480e-01 6.361169338226318359e+00 2.115966081619262695e+00 5.876891687512397766e-02
6.880000000000000000e+02 6.358482742309570312e+01 2.911452102661132812e+01 8.227518945932388306e-02 7.801426887512207031e+00 2.365110635757446289e+00 6.255553364753723145e-01
6.890000000000000000e+02 6.346899795532226562e+01 2.778143119812011719e+01 7.965828776359558105e-01 9.958284378051757812e+00 3.226460218429565430e+00 1.447217226028442383e+00
6.900000000000000000e+02 6.320347595214843750e+01 2.644645500183105469e+01 2.621847867965698242e+00 1.140041828155517578e+01 4.206679821014404297e+00 3.792110681533813477e+00
6.910000000000000000e+02 6.481306457519531250e+01 2.139343643188476562e+01 -1.810700297355651855e+00 2.611885070800781250e+00 2.403554320335388184e-01 3.707297325134277344e+00
6.920000000000000000e+02 6.231721878051757812e+01 2.397848701477050781e+01 -3.948312625288963318e-02 6.116768836975097656e+00 1.823185682296752930e+00 3.386307716369628906e+00
6.930000000000000000e+02 5.843579483032226562e+01 2.326225471496582031e+01 -7.936638832092285156e+00 -2.692799568176269531e-01 -2.461775541305541992e+00 -4.967819750308990479e-01
6.940000000000000000e+02 5.719572067260742188e+01 2.328770637512207031e+01 -5.099226474761962891e+00 5.872064232826232910e-01 -1.353605985641479492e+00 -6.522781848907470703e-01
6.950000000000000000e+02 5.541214370727539062e+01 2.433496856689453125e+01 -2.546577751636505127e-01 3.508725166320800781e+00 9.762202501296997070e-01 -1.859555602073669434e+00
6.960000000000000000e+02 5.457586669921875000e+01 2.532711982727050781e+01 1.757095456123352051e+00 6.110101699829101562e+00 2.360159158706665039e+00 -3.090005874633789062e+00
6.970000000000000000e+02 4.935690689086914062e+01 2.250012016296386719e+01 -3.229120671749114990e-01 2.847372770309448242e+00 7.573382258415222168e-01 -4.764200448989868164e-01
6.980000000000000000e+02 4.571586227416992188e+01 2.471480751037597656e+01 1.080314040184020996e+00 4.309613704681396484e+00 1.616978287696838379e+00 1.589181661605834961e+00
6.990000000000000000e+02 4.830744934082031250e+01 2.219590568542480469e+01 -3.679871261119842529e-01 2.568504810333251953e+00 6.601552963256835938e-01 -3.145551085472106934e-01
7.000000000000000000e+02 4.502554702758789062e+01 2.348273277282714844e+01 8.200212121009826660e-01 2.731033563613891602e+00 1.065316438674926758e+00 1.498889207839965820e+00
7.010000000000000000e+02 4.586425781250000000e+01 2.144266128540039062e+01 -1.150359272956848145e+00 2.538376331329345703e+00 4.164051115512847900e-01 1.075755834579467773e+00
7.020000000000000000e+02 4.321582794189453125e+01 2.055753326416015625e+01 -1.347785592079162598e+00 1.804599642753601074e+00 1.370442509651184082e-01 9.020673036575317383e-01
7.030000000000000000e+02 4.074446487426757812e+01 2.052143096923828125e+01 -5.925930142402648926e-01 2.323997169733047485e-01 -1.080579832196235657e-01 -4.957075715065002441e-01
7.040000000000000000e+02 4.069708251953125000e+01 2.172425842285156250e+01 -2.017719268798828125e+00 6.344678695313632488e-05 -6.052967309951782227e-01 -1.514862477779388428e-01
7.050000000000000000e+02 3.938245391845703125e+01 2.190908622741699219e+01 -8.630129098892211914e-01 3.079604804515838623e-01 -1.665157228708267212e-01 -3.270641565322875977e-01
7.060000000000000000e+02 3.948786163330078125e+01 2.055483436584472656e+01 -5.890442132949829102e-01 7.447177767753601074e-01 4.670206457376480103e-02 -1.030331254005432129e+00
7.070000000000000000e+02 3.752743148803710938e+01 1.117617416381835938e+01 4.849005937576293945e-01 -1.629250645637512207e-01 9.659265726804733276e-02 -1.982568502426147461e-01
7.080000000000000000e+02 3.559399414062500000e+01 1.229467487335205078e+01 5.616331696510314941e-01 7.471201568841934204e-02 1.909035444259643555e-01 -2.545487880706787109e-01
7.090000000000000000e+02 3.905444335937500000e+01 8.786437988281250000e+00 -1.675224006175994873e-01 -1.362310647964477539e+00 -4.589499235153198242e-01 3.825684487819671631e-01
7.100000000000000000e+02 3.943295669555664062e+01 7.404482841491699219e+00 -9.193252772092819214e-02 -1.390108704566955566e+00 -4.446123540401458740e-01 3.142665922641754150e-01
7.110000000000000000e+02 3.954619979858398438e+01 6.032223701477050781e+00 9.254142642021179199e-03 -7.461794614791870117e-01 -2.210775911808013916e-01 2.773967683315277100e-01
7.120000000000000000e+02 4.039812088012695312e+01 3.052797555923461914e+00 -1.358072161674499512e+00 -6.632152795791625977e-01 -6.063862442970275879e-01 -1.001110315322875977e+00
7.130000000000000000e+02 4.362655258178710938e+01 1.653880357742309570e+00 -9.798244833946228027e-01 5.589390397071838379e-01 -1.262656301259994507e-01 -3.653754591941833496e-01
7.140000000000000000e+02 4.526451873779296875e+01 1.099494814872741699e+00 -1.808009594678878784e-01 5.388765931129455566e-01 1.074226796627044678e-01 -7.836139798164367676e-01
7.150000000000000000e+02 4.835771942138671875e+01 8.555063009262084961e-01 3.553194284439086914e+00 1.262513995170593262e+00 1.444712400436401367e+00 -3.080077886581420898e+00
7.160000000000000000e+02 4.986858367919921875e+01 1.257073283195495605e+00 2.764121532440185547e+00 9.216414451599121094e+00 3.594160795211791992e+00 -5.342271804809570312e+00
7.170000000000000000e+02 4.796079254150390625e+01 7.874146699905395508e-01 2.880659580230712891e+00 7.242670059204101562e-01 1.081477999687194824e+00 -2.354553699493408203e+00
7.180000000000000000e+02 4.755166244506835938e+01 7.258972644805908203e+00 1.662048220634460449e+00 3.366292238235473633e+00 1.508502125740051270e+00 -2.502002716064453125e+00
7.190000000000000000e+02 4.650228118896484375e+01 8.204551696777343750e+00 2.464792728424072266e+00 4.268411159515380859e+00 2.019961118698120117e+00 -3.320640802383422852e+00
7.200000000000000000e+02 4.434487915039062500e+01 9.933216094970703125e+00 2.297575950622558594e+00 6.533493518829345703e+00 2.649320840835571289e+00 -2.282573938369750977e+00
7.210000000000000000e+02 4.463109207153320312e+01 1.252776813507080078e+01 3.806769549846649170e-01 8.213673591613769531e+00 2.578305244445800781e+00 -7.523632049560546875e-01
7.220000000000000000e+02 4.499051666259765625e+01 1.532803249359130859e+01 3.378422856330871582e-01 4.759809494018554688e+00 1.529295444488525391e+00 9.514939785003662109e-01
7.230000000000000000e+02 4.470975112915039062e+01 1.391847133636474609e+01 4.922349750995635986e-01 6.638663291931152344e+00 2.139269590377807617e+00 2.912562787532806396e-01
7.240000000000000000e+02 4.205376815795898438e+01 2.180424118041992188e+01 -1.895581007003784180e+00 5.223359912633895874e-02 -5.530042052268981934e-01 -7.625079154968261719e-02
7.250000000000000000e+02 4.402680206298828125e+01 1.906230545043945312e+01 -1.203156471252441406e+00 2.525462150573730469e+00 3.966917097568511963e-01 5.815642476081848145e-01
7.260000000000000000e+02 4.683039093017578125e+01 1.936786842346191406e+01 -2.308796882629394531e+00 1.514083743095397949e+00 -2.384139597415924072e-01 5.071927905082702637e-01
7.270000000000000000e+02 4.958588027954101562e+01 1.887885665893554688e+01 -3.122184991836547852e+00 4.080502986907958984e-01 -8.142404556274414062e-01 -3.523059189319610596e-01
7.280000000000000000e+02 5.077201080322265625e+01 1.795440292358398438e+01 -3.933015093207359314e-02 1.608190178871154785e+00 4.706580042839050293e-01 -7.872321009635925293e-01
7.290000000000000000e+02 5.277239990234375000e+01 1.598562145233154297e+01 2.119825124740600586e+00 3.748652696609497070e+00 1.760543346405029297e+00 -2.625303268432617188e+00
7.300000000000000000e+02 5.365055084228515625e+01 1.502180385589599609e+01 2.114801645278930664e+00 6.086934566497802734e+00 2.460520744323730469e+00 -3.129007339477539062e+00
7.310000000000000000e+02 5.475314712524414062e+01 1.987846374511718750e+01 -1.173370599746704102e+00 4.838896751403808594e+00 1.099657893180847168e+00 -2.618392705917358398e+00
7.320000000000000000e+02 6.066525650024414062e+01 1.341896820068359375e+01 4.306456148624420166e-01 1.122029590606689453e+01 3.495282411575317383e+00 3.721177279949188232e-01
7.330000000000000000e+02 6.106869506835937500e+01 1.616173934936523438e+01 1.846983671188354492e+00 1.346366977691650391e+01 4.593195915222167969e+00 3.639158964157104492e+00
7.340000000000000000e+02 6.111402130126953125e+01 2.003673934936523438e+01 -1.590281166136264801e-02 7.204907417297363281e+00 2.156701326370239258e+00 2.819366693496704102e+00
7.350000000000000000e+02 6.371219635009765625e+01 1.991167068481445312e+01 3.259989619255065918e-01 3.464664220809936523e+00 1.137198925018310547e+00 3.147858858108520508e+00
7.360000000000000000e+02 6.397525787353515625e+01 2.495710372924804688e+01 1.048513174057006836e+00 6.727712154388427734e+00 2.332867622375488281e+00 1.635441184043884277e+00
7.370000000000000000e+02 6.500730895996093750e+01 2.018072509765625000e+01 -4.383813381195068359e+00 4.169436991214752197e-01 -1.190060853958129883e+00 7.583567500114440918e-01
7.380000000000000000e+02 7.682089233398437500e+01 2.372321701049804688e+01 -1.990166455507278442e-01 7.380069255828857422e+00 2.154315710067749023e+00 -2.519890069961547852e-01
7.390000000000000000e+02 7.936882019042968750e+01 2.924775505065917969e+01 2.964365296065807343e-02 7.681797504425048828e+00 2.313432216644287109e+00 -4.206647351384162903e-02
7.400000000000000000e+02 6.967710876464843750e+01 3.661146926879882812e+01 -3.046334683895111084e-01 5.677514076232910156e+00 1.611864209175109863e+00 4.651680886745452881e-01
7.410000000000000000e+02 6.143685531616210938e+01 3.790665435791015625e+01 -5.654707551002502441e-01 1.607880711555480957e+00 3.127229809761047363e-01 -7.599861025810241699e-01
7.420000000000000000e+02 6.325453948974609375e+01 3.796059417724609375e+01 -8.213036060333251953e-01 2.732850074768066406e+00 5.734639167785644531e-01 -4.303938448429107666e-01
7.430000000000000000e+02 5.860950851440429688e+01 3.593562316894531250e+01 -2.535864591598510742e+00 -7.214497029781341553e-02 -7.824028730392456055e-01 3.379557430744171143e-01
7.440000000000000000e+02 5.851657867431640625e+01 3.769007492065429688e+01 -4.259575605392456055e-01 5.825275778770446777e-01 4.697101563215255737e-02 5.374310016632080078e-01
7.450000000000000000e+02 5.602386093139648438e+01 3.493618774414062500e+01 -3.067640662193298340e-01 1.493323802947998047e+00 3.559679090976715088e-01 8.244156241416931152e-01
7.460000000000000000e+02 5.496256637573242188e+01 3.629071044921875000e+01 -1.128401875495910645e+00 3.029663324356079102e+00 5.703784227371215820e-01 7.048867344856262207e-01
7.470000000000000000e+02 6.217790985107421875e+01 3.664002609252929688e+01 -1.183467745780944824e+00 2.408067941665649414e+00 3.673800230026245117e-01 -9.398260116577148438e-01
7.480000000000000000e+02 6.175091552734375000e+01 3.453739166259765625e+01 -6.099686026573181152e-01 1.293483495712280273e+00 2.050544619560241699e-01 -2.554088532924652100e-01
7.490000000000000000e+02 6.262960433959960938e+01 3.350558853149414062e+01 1.308844685554504395e-01 2.907455205917358398e+00 9.115019440650939941e-01 -9.920750260353088379e-01
7.500000000000000000e+02 6.330146789550781250e+01 3.243087387084960938e+01 6.769506335258483887e-01 6.045694351196289062e+00 2.016793489456176758e+00 -7.383887767791748047e-01
7.510000000000000000e+02 7.931250000000000000e+01 3.200365829467773438e+01 3.716676309704780579e-02 7.592789173126220703e+00 2.288986921310424805e+00 1.731259562075138092e-02
7.520000000000000000e+02 7.904998016357421875e+01 3.745679855346679688e+01 1.017194427549839020e-02 7.765741348266601562e+00 2.332773923873901367e+00 1.752594113349914551e-02
7.530000000000000000e+02 7.200373840332031250e+01 3.916798019409179688e+01 -3.102901577949523926e-01 6.133146762847900391e+00 1.746856927871704102e+00 2.854862213134765625e-01
7.540000000000000000e+02 7.674031066894531250e+01 3.810820770263671875e+01 -1.020164713263511658e-01 7.320919990539550781e+00 2.165671110153198242e+00 1.790334731340408325e-01
7.550000000000000000e+02 5.273292922973632812e+01 3.555519866943359375e+01 -8.960337638854980469e-01 4.129634857177734375e+00 9.700802564620971680e-01 7.310156524181365967e-02
7.560000000000000000e+02 5.000272369384765625e+01 3.581893539428710938e+01 -6.605257987976074219e-01 4.068410396575927734e+00 1.022365331649780273e+00 -4.852759540081024170e-01
7.570000000000000000e+02 5.360359954833984375e+01 3.080568313598632812e+01 8.268849253654479980e-01 8.070753097534179688e+00 2.669291496276855469e+00 7.564540505409240723e-01
7.580000000000000000e+02 5.420473480224609375e+01 3.287200927734375000e+01 8.477848768234252930e-01 5.568171501159667969e+00 1.924786806106567383e+00 1.678139686584472656e+00
7.590000000000000000e+02 4.832276535034179688e+01 3.142479896545410156e+01 7.961394190788269043e-01 3.961921691894531250e+00 1.427418351173400879e+00 -7.581014037132263184e-01
7.600000000000000000e+02 5.361196517944335938e+01 2.957047653198242188e+01 -6.165779381990432739e-02 8.372903823852539062e+00 2.493373870849609375e+00 -2.574015595018863678e-02
7.610000000000000000e+02 5.357694625854492188e+01 2.835061836242675781e+01 6.985728144645690918e-01 9.295772552490234375e+00 2.998303651809692383e+00 -7.805760502815246582e-01
7.620000000000000000e+02 4.265532302856445312e+01 4.098390197753906250e+01 -2.035670280456542969e-01 1.840522766113281250e+00 4.910867214202880859e-01 -2.006195485591888428e-01
7.630000000000000000e+02 4.491566085815429688e+01 3.727521514892578125e+01 -3.692067861557006836e-01 2.488204479217529297e+00 6.356992721557617188e-01 -6.752939820289611816e-01
7.640000000000000000e+02 4.318268585205078125e+01 3.304960632324218750e+01 5.700086355209350586e-01 1.299411654472351074e+00 5.608260631561279297e-01 -9.424276947975158691e-01
7.650000000000000000e+02 4.192627334594726562e+01 3.422356033325195312e+01 1.086508557200431824e-01 7.915267348289489746e-01 2.700532674789428711e-01 -5.987259149551391602e-01
7.660000000000000000e+02 4.511495590209960938e+01 3.098790740966796875e+01 1.085832476615905762e+00 3.046208858489990234e+00 1.239612460136413574e+00 -1.485039234161376953e+00
7.670000000000000000e+02 4.609131240844726562e+01 2.891355705261230469e+01 8.710563778877258301e-01 4.460630893707275391e+00 1.599506139755249023e+00 -1.032497286796569824e+00
7.680000000000000000e+02 4.617747116088867188e+01 2.752944374084472656e+01 2.096107155084609985e-01 4.564403533935546875e+00 1.432204246520996094e+00 -1.962001174688339233e-01
7.690000000000000000e+02 3.876420593261718750e+01 3.458093261718750000e+01 -4.195386469364166260e-01 1.516262888908386230e-01 -8.037370443344116211e-02 5.430752784013748169e-02
7.700000000000000000e+02 3.785528945922851562e+01 3.651703643798828125e+01 -6.978344172239303589e-03 7.770407795906066895e-01 2.310187220573425293e-01 3.082858026027679443e-01
7.710000000000000000e+02 3.630910491943359375e+01 3.357940292358398438e+01 1.022198237478733063e-02 1.220111131668090820e+00 3.690999150276184082e-01 3.908855915069580078e-01
7.720000000000000000e+02 4.032380676269531250e+01 3.487242889404296875e+01 -2.417530715465545654e-01 4.606439173221588135e-01 6.566725671291351318e-02 -3.015229701995849609e-01
7.730000000000000000e+02 3.621486663818359375e+01 3.710343551635742188e+01 -2.236136980354785919e-02 1.006236553192138672e+00 2.951625585556030273e-01 2.267634868621826172e-01
7.740000000000000000e+02 2.958269309997558594e+01 3.548003768920898438e+01 1.624326221644878387e-02 1.085584640502929688e+00 3.305483758449554443e-01 -1.576444655656814575e-01
7.750000000000000000e+02 2.788387107849121094e+01 2.855282592773437500e+01 6.082842350006103516e-01 2.446983307600021362e-01 2.558947801589965820e-01 -2.945924699306488037e-01
7.760000000000000000e+02 2.907787132263183594e+01 2.929220390319824219e+01 6.760948300361633301e-01 6.004545092582702637e-01 3.829647898674011230e-01 -3.775497078895568848e-01
7.770000000000000000e+02 2.879316902160644531e+01 2.774239921569824219e+01 4.317935109138488770e-01 3.277063369750976562e-01 2.278499454259872437e-01 -3.394772708415985107e-01
7.780000000000000000e+02 2.975080680847167969e+01 2.686640739440917969e+01 4.224150180816650391e-01 5.248529911041259766e-01 2.841804027557373047e-01 -4.159438312053680420e-01
7.790000000000000000e+02 3.143902969360351562e+01 2.466496467590332031e+01 3.166492879390716553e-01 1.853783249855041504e+00 6.511297821998596191e-01 -4.166395068168640137e-01
7.800000000000000000e+02 3.344480895996093750e+01 2.434675979614257812e+01 3.167624771595001221e-01 2.300175905227661133e+00 7.850815057754516602e-01 -1.812490373849868774e-01
7.810000000000000000e+02 3.323786163330078125e+01 2.606014060974121094e+01 5.643576383590698242e-01 2.279076814651489258e+00 8.530303835868835449e-01 -2.809814512729644775e-01
7.820000000000000000e+02 3.524424362182617188e+01 2.655727195739746094e+01 5.344499349594116211e-01 4.153520584106445312e+00 1.406391143798828125e+00 -9.144229292869567871e-01
7.830000000000000000e+02 3.368264770507812500e+01 2.785097122192382812e+01 5.999958515167236328e-01 2.647334814071655273e+00 9.741991758346557617e-01 -4.359246194362640381e-01
7.840000000000000000e+02 3.555032730102539062e+01 3.100921440124511719e+01 2.762459218502044678e-01 2.373444080352783203e+00 7.949069738388061523e-01 5.776876807212829590e-01
7.850000000000000000e+02 3.508286666870117188e+01 2.961297225952148438e+01 2.801825702190399170e-01 3.182708501815795898e+00 1.038867354393005371e+00 2.621082663536071777e-01
7.860000000000000000e+02 3.609349441528320312e+01 3.225130462646484375e+01 2.137173861265182495e-01 1.599504470825195312e+00 5.439665913581848145e-01 5.371466875076293945e-01
7.870000000000000000e+02 2.363903427124023438e+01 3.833596038818359375e+01 4.973366484045982361e-02 5.359361767768859863e-01 1.757009625434875488e-01 -9.234673529863357544e-02
7.880000000000000000e+02 2.281777763366699219e+01 4.107891845703125000e+01 6.623402982950210571e-02 4.797577559947967529e-01 1.637975424528121948e-01 -2.135590091347694397e-02
7.890000000000000000e+02 2.607751464843750000e+01 2.942936515808105469e+01 8.886777162551879883e-01 4.584409594535827637e-01 4.041356146335601807e-01 1.975167393684387207e-01
7.900000000000000000e+02 2.376406097412109375e+01 3.198656272888183594e+01 2.037093192338943481e-01 5.832048058509826660e-01 2.360742390155792236e-01 4.458167124539613724e-03
7.910000000000000000e+02 2.483093643188476562e+01 2.968157386779785156e+01 6.319695115089416504e-01 6.526629328727722168e-01 3.853897452354431152e-01 2.948963344097137451e-01
7.920000000000000000e+02 2.875690841674804688e+01 3.024369430541992188e+01 5.828722119331359863e-01 6.465961933135986328e-01 3.688405156135559082e-01 -3.079131245613098145e-01
7.930000000000000000e+02 1.840099334716796875e+01 4.099761581420898438e+01 1.150286421179771423e-01 1.632243990898132324e-01 8.347591757774353027e-02 -1.101766154170036316e-02
7.940000000000000000e+02 1.628247261047363281e+01 3.556251144409179688e+01 8.495844900608062744e-02 -3.420551121234893799e-02 1.522588077932596207e-02 6.353306770324707031e-02
7.950000000000000000e+02 1.226845550537109375e+01 3.476341247558593750e+01 1.064361557364463806e-01 -2.805014513432979584e-02 2.351580187678337097e-02 4.199138376861810684e-03
7.960000000000000000e+02 1.623340606689453125e+01 3.351117324829101562e+01 -1.375509500503540039e-01 -2.231558784842491150e-02 -4.795996472239494324e-02 1.134738028049468994e-01
7.970000000000000000e+02 1.726150131225585938e+01 3.287491226196289062e+01 -1.886094957590103149e-01 -1.355020850896835327e-01 -9.723347425460815430e-02 1.065666452050209045e-01
7.980000000000000000e+02 1.983318710327148438e+01 2.886174011230468750e+01 5.505704320967197418e-03 -7.554838061332702637e-02 -2.101280353963375092e-02 1.193245723843574524e-01
7.990000000000000000e+02 2.434369659423828125e+01 2.810448646545410156e+01 7.426475882530212402e-01 8.357015848159790039e-01 4.735047519207000732e-01 6.237955689430236816e-01
8.000000000000000000e+02 2.050982666015625000e+01 2.706877326965332031e+01 3.374344706535339355e-01 3.245354294776916504e-01 1.985909789800643921e-01 4.502086639404296875e-01
8.010000000000000000e+02 1.945397949218750000e+01 2.438382530212402344e+01 6.020452976226806641e-01 4.481240808963775635e-01 3.150508105754852295e-01 3.436873257160186768e-01
8.020000000000000000e+02 2.048123741149902344e+01 2.388372993469238281e+01 4.067092537879943848e-01 3.865728974342346191e-01 2.379846423864364624e-01 2.372409701347351074e-01
8.030000000000000000e+02 1.760661506652832031e+01 2.399498176574707031e+01 8.808192610740661621e-01 4.451197385787963867e-01 3.977816998958587646e-01 5.201746821403503418e-01
8.040000000000000000e+02 1.755896377563476562e+01 1.916135787963867188e+01 4.883670061826705933e-02 -1.340636163949966431e-01 -2.556807361543178558e-02 1.937851756811141968e-01
8.050000000000000000e+02 1.478121471405029297e+01 1.848736953735351562e+01 4.213294982910156250e-01 1.056498140096664429e-01 1.580937951803207397e-01 2.620948553085327148e-01
8.060000000000000000e+02 1.614808654785156250e+01 1.943934059143066406e+01 2.006906718015670776e-01 -5.549725890159606934e-02 4.355802386999130249e-02 3.602342605590820312e-01
8.070000000000000000e+02 1.668480110168457031e+01 2.131515884399414062e+01 3.888134956359863281e-01 1.542658954858779907e-01 1.629238128662109375e-01 3.518065214157104492e-01
8.080000000000000000e+02 1.982197380065917969e+01 1.706130599975585938e+01 -2.401704937219619751e-01 -2.158131301403045654e-01 -1.367950886487960815e-01 1.554004400968551636e-01
8.090000000000000000e+02 2.280397796630859375e+01 1.854971885681152344e+01 2.200530767440795898e-01 6.395223736763000488e-01 2.578726410865783691e-01 -3.124947547912597656e-01
8.100000000000000000e+02 2.490883636474609375e+01 1.509150314331054688e+01 4.308031126856803894e-02 2.362391650676727295e-01 8.379583805799484253e-02 -1.105552092194557190e-01
8.110000000000000000e+02 2.032917594909667969e+01 9.996093750000000000e+00 3.207388222217559814e-01 3.280462026596069336e-01 1.946355104446411133e-01 3.128328323364257812e-01
8.120000000000000000e+02 2.030409431457519531e+01 8.698173522949218750e+00 5.227317810058593750e-01 2.581919133663177490e-01 2.342770993709564209e-01 3.572405874729156494e-01
8.130000000000000000e+02 1.911809921264648438e+01 8.269874572753906250e+00 7.040187120437622070e-01 5.183774828910827637e-01 3.667188584804534912e-01 5.520027875900268555e-01
8.140000000000000000e+02 1.800253295898437500e+01 7.489817619323730469e+00 8.310458660125732422e-01 4.370354712009429932e-01 3.804244101047515869e-01 5.723474621772766113e-01
8.150000000000000000e+02 2.018997573852539062e+01 3.024183750152587891e+00 -1.144789576530456543e+00 -1.515826135873794556e-01 -3.889116644859313965e-01 2.192301899194717407e-01
8.160000000000000000e+02 2.169920730590820312e+01 2.673547983169555664e+00 -1.228518009185791016e+00 -1.303426623344421387e-01 -4.076582193374633789e-01 2.860637009143829346e-01
8.170000000000000000e+02 2.629128837585449219e+01 1.467627286911010742e+00 -1.292939543724060059e+00 1.372270286083221436e-03 -3.874701857566833496e-01 3.142298758029937744e-01
8.180000000000000000e+02 2.780698204040527344e+01 1.139621853828430176e+00 -1.307024121284484863e+00 1.446444392204284668e-01 -3.487139046192169189e-01 1.800483316183090210e-01
8.190000000000000000e+02 3.111413383483886719e+01 2.548541545867919922e+00 -8.851045370101928711e-01 2.979039549827575684e-01 -1.761601716279983521e-01 1.174085885286331177e-01
8.200000000000000000e+02 3.350307846069335938e+01 1.463697075843811035e+00 -3.185041189193725586e+00 -2.065300643444061279e-01 -1.017471432685852051e+00 -1.981272697448730469e-01
8.210000000000000000e+02 3.288642501831054688e+01 1.224535703659057617e+00 -2.470151185989379883e+00 6.837464869022369385e-02 -7.205330133438110352e-01 -1.643147915601730347e-01
8.220000000000000000e+02 1.109191131591796875e+01 3.527309036254882812e+01 2.730470299720764160e-01 5.595738813281059265e-02 9.870132058858871460e-02 8.520981669425964355e-02
8.230000000000000000e+02 9.660825729370117188e+00 3.619581985473632812e+01 2.310742735862731934e-01 8.916871249675750732e-02 9.607289731502532959e-02 1.109966039657592773e-01
8.240000000000000000e+02 1.249907684326171875e+01 3.707189178466796875e+01 1.267160922288894653e-01 1.738961413502693176e-02 4.323171079158782959e-02 1.561998873949050903e-01
8.250000000000000000e+02 2.002973318099975586e+00 4.165859222412109375e+01 -8.199917525053024292e-02 -9.633529782295227051e-01 -3.136056363582611084e-01 -2.323823235929012299e-02
8.260000000000000000e+02 4.404044628143310547e+00 3.823999404907226562e+01 2.756792493164539337e-02 -6.420940160751342773e-01 -1.843578219413757324e-01 7.212865166366100311e-04
8.270000000000000000e+02 5.165495872497558594e-01 3.323169326782226562e+01 -2.683584112673997879e-03 -1.208076834678649902e+00 -3.632281422615051270e-01 1.930826157331466675e-02
8.280000000000000000e+02 1.590035915374755859e+00 3.305984115600585938e+01 3.922094032168388367e-02 -1.026312828063964844e+00 -2.961275577545166016e-01 5.651866644620895386e-02
8.290000000000000000e+02 7.710395812988281250e+00 3.379938507080078125e+01 2.929312288761138916e-01 1.378111243247985840e-01 1.292227059602737427e-01 2.032417953014373779e-01
8.300000000000000000e+02 6.851039886474609375e+00 3.276544570922851562e+01 1.513819396495819092e-01 -1.156283449381589890e-02 4.194572940468788147e-02 1.061230003833770752e-01
8.310000000000000000e+02 5.263130187988281250e+00 3.083510780334472656e+01 4.156763479113578796e-02 -5.334423184394836426e-01 -1.475624144077301025e-01 7.514432817697525024e-02
8.320000000000000000e+02 5.700312137603759766e+00 2.820143318176269531e+01 -2.751488238573074341e-02 -8.417265415191650391e-01 -2.607724368572235107e-01 5.740948766469955444e-02
8.330000000000000000e+02 3.264382362365722656e+00 2.651693153381347656e+01 -7.999959588050842285e-02 -7.136827707290649414e-01 -2.381047010421752930e-01 7.608272135257720947e-02
8.340000000000000000e+02 6.546546220779418945e-01 2.489693641662597656e+01 -1.073368359357118607e-02 -7.412249445915222168e-01 -2.255875915288925171e-01 1.502198982052505016e-03
8.350000000000000000e+02 2.014181375503540039e+00 2.217379570007324219e+01 7.345570251345634460e-03 -7.028149366378784180e-01 -2.086407989263534546e-01 -2.675182558596134186e-02
8.360000000000000000e+02 2.032112598419189453e+00 1.781363868713378906e+01 4.701328650116920471e-02 -6.371172070503234863e-01 -1.770311892032623291e-01 7.297990471124649048e-02
8.370000000000000000e+02 2.016538858413696289e+00 1.083231925964355469e+01 -2.678567357361316681e-02 -1.650221049785614014e-01 -5.754233151674270630e-02 1.775754839181900024e-01
8.380000000000000000e+02 1.017091941833496094e+01 1.957737326622009277e+00 1.684429496526718140e-02 -4.725818336009979248e-02 -9.124166332185268402e-03 5.279375240206718445e-02
8.390000000000000000e+02 1.246932697296142578e+01 7.431114196777343750e+00 -1.071875095367431641e+00 -6.866378784179687500e-01 -5.275539159774780273e-01 7.135610580444335938e-01
8.400000000000000000e+02 1.085022640228271484e+01 2.085998296737670898e+00 -1.668771356344223022e-02 -4.223627969622612000e-02 -1.767719723284244537e-02 7.310760766267776489e-02
8.410000000000000000e+02 1.153372573852539062e+01 2.189724922180175781e+00 -7.927647233009338379e-02 -5.668750405311584473e-02 -4.078919440507888794e-02 1.289786994457244873e-01
8.420000000000000000e+02 1.366862010955810547e+01 2.744138717651367188e+00 -3.988109529018402100e-01 1.466349977999925613e-02 -1.152442321181297302e-01 3.531099557876586914e-01
8.430000000000000000e+02 1.686312675476074219e+01 3.254346847534179688e+00 -9.401357173919677734e-01 5.223896726965904236e-02 -2.663690149784088135e-01 4.851146340370178223e-01
8.440000000000000000e+02 1.772139930725097656e+01 3.310706853866577148e+00 -9.896323084831237793e-01 -2.188744582235813141e-02 -3.034559190273284912e-01 4.373086094856262207e-01
8.450000000000000000e+02 3.396606063842773438e+01 1.734208345413208008e+00 -4.771095275878906250e+00 -5.313760042190551758e-01 -1.590741395950317383e+00 9.526934623718261719e-01
8.460000000000000000e+02 2.898571777343750000e+01 6.635919094085693359e+00 2.162891477346420288e-01 1.226685523986816406e+00 4.328924119472503662e-01 -1.479395478963851929e-01
8.470000000000000000e+02 2.853631973266601562e+01 9.231677055358886719e+00 3.023425936698913574e-01 8.012652397155761719e-01 3.310823440551757812e-01 2.101973593235015869e-01
8.480000000000000000e+02 3.026779937744140625e+01 1.088255214691162109e+01 3.946489989757537842e-01 7.561013102531433105e-01 3.452250957489013672e-01 5.294561982154846191e-01
8.490000000000000000e+02 2.932472419738769531e+01 1.190405082702636719e+01 3.533926308155059814e-01 5.962108373641967773e-01 2.848810553550720215e-01 2.657101750373840332e-01
8.500000000000000000e+02 3.006942367553710938e+01 1.541291618347167969e+01 3.729322552680969238e-01 3.101725876331329346e-01 2.049314528703689575e-01 3.131957948207855225e-01
8.510000000000000000e+02 3.098277664184570312e+01 1.442712497711181641e+01 2.094907909631729126e-01 6.947078704833984375e-01 2.712595760822296143e-01 4.183129668235778809e-01
8.520000000000000000e+02 2.884140396118164062e+01 1.494639968872070312e+01 1.931138932704925537e-01 1.276368200778961182e-01 9.622521698474884033e-02 1.574781090021133423e-01
8.530000000000000000e+02 2.667718887329101562e+01 1.522323894500732422e+01 8.336392790079116821e-02 4.260590299963951111e-02 3.779095038771629333e-02 -5.211098119616508484e-02
8.540000000000000000e+02 2.456668090820312500e+01 1.666880607604980469e+01 1.742891669273376465e-01 2.835847735404968262e-01 1.373621821403503418e-01 -2.191268056631088257e-01
8.550000000000000000e+02 2.205982589721679688e+01 1.760214042663574219e+01 3.980301320552825928e-02 2.822173535823822021e-01 9.660611301660537720e-02 -8.853236585855484009e-02
8.560000000000000000e+02 2.361562919616699219e+01 1.757863807678222656e+01 2.317583113908767700e-01 4.460616707801818848e-01 2.033459991216659546e-01 -3.087797462940216064e-01
8.570000000000000000e+02 1.863854026794433594e+01 1.726987266540527344e+01 -4.087246656417846680e-01 -2.928154766559600830e-01 -2.104620486497879028e-01 3.038803935050964355e-01
8.580000000000000000e+02 2.219638252258300781e+01 2.050792884826660156e+01 8.063889294862747192e-02 5.251972675323486328e-01 1.817508637905120850e-01 -1.396975070238113403e-01
8.590000000000000000e+02 2.369661140441894531e+01 2.693154525756835938e+01 3.985030055046081543e-01 9.244971275329589844e-01 3.969000577926635742e-01 5.896843075752258301e-01
8.600000000000000000e+02 2.316769599914550781e+01 2.568134880065917969e+01 2.561540007591247559e-01 7.316002249717712402e-01 2.963262796401977539e-01 3.936239778995513916e-01
8.610000000000000000e+02 3.295333862304687500e+01 1.240595817565917969e+01 3.550173640251159668e-01 5.314158648252487183e-02 1.224476844072341919e-01 1.258585900068283081e-01
8.620000000000000000e+02 3.959941482543945312e+01 3.464058399200439453e+00 4.629394114017486572e-01 -1.034365415573120117e+00 -1.714277863502502441e-01 -2.255558818578720093e-01
8.630000000000000000e+02 3.882799911499023438e+01 3.497926712036132812e+00 1.089155912399291992e+00 -2.734218835830688477e-01 2.447202205657958984e-01 3.332203626632690430e-01
8.640000000000000000e+02 3.823841476440429688e+01 3.279445171356201172e+00 2.378546953201293945e+00 2.085035085678100586e+00 1.339074611663818359e+00 2.095095396041870117e+00
8.650000000000000000e+02 5.210332870483398438e+01 -1.695372015237808228e-01 7.535036563873291016e+00 1.045641613006591797e+01 5.397436141967773438e+00 1.873729348182678223e+00
8.660000000000000000e+02 5.275743103027343750e+01 -5.938792824745178223e-01 4.872870445251464844e+00 8.546765327453613281e+00 4.025890827178955078e+00 1.754594087600708008e+00
8.670000000000000000e+02 4.292506027221679688e+01 -2.252081155776977539e+00 2.629097402095794678e-01 -2.962819337844848633e-01 -1.001165807247161865e-02 5.876420736312866211e-01
8.680000000000000000e+02 3.899501800537109375e+01 -2.022570371627807617e+00 -2.798732817173004150e-01 6.262018084526062012e-01 1.038985475897789001e-01 6.815797090530395508e-02
8.690000000000000000e+02 3.999876785278320312e+01 -9.636619687080383301e-01 -7.326534390449523926e-01 3.627221882343292236e-01 -1.109793856739997864e-01 1.697417348623275757e-01
8.700000000000000000e+02 3.952000045776367188e+01 -6.709251403808593750e-01 -8.808315396308898926e-01 2.216207832098007202e-01 -1.977632194757461548e-01 1.539738923311233521e-01
8.710000000000000000e+02 3.647696685791015625e+01 -1.272801399230957031e+00 -6.779202818870544434e-01 1.643823236227035522e-01 -1.540613919496536255e-01 -2.887126803398132324e-01
8.720000000000000000e+02 3.431991195678710938e+01 -2.201659679412841797e+00 -5.768176317214965820e-01 -2.684912979602813721e-01 -2.535926699638366699e-01 -3.362687230110168457e-01
8.730000000000000000e+02 2.990929603576660156e+01 -5.463914394378662109e+00 -1.101857703179121017e-02 -5.315508246421813965e-01 -1.627708226442337036e-01 -2.554854452610015869e-01
8.740000000000000000e+02 2.979047393798828125e+01 -7.360066413879394531e+00 -3.479829803109169006e-02 -8.815348148345947266e-01 -2.748999297618865967e-01 -4.238993301987648010e-02
8.750000000000000000e+02 3.044322776794433594e+01 -6.498713493347167969e+00 2.294170260429382324e-01 -5.011056661605834961e-01 -8.150659501552581787e-02 -1.147348061203956604e-01
8.760000000000000000e+02 3.386345672607421875e+01 -8.344743728637695312e+00 1.215781047940254211e-01 1.300321221351623535e-01 7.548306882381439209e-02 1.283604800701141357e-01
8.770000000000000000e+02 2.864211845397949219e+01 -1.101438808441162109e+01 -7.507337927818298340e-01 -6.504574418067932129e-01 -4.203573763370513916e-01 -6.040086746215820312e-01
8.780000000000000000e+02 2.868843841552734375e+01 -1.483051776885986328e+01 -5.654148459434509277e-01 2.062870264053344727e-01 -1.077383533120155334e-01 -4.746029153466224670e-02
8.790000000000000000e+02 2.733125686645507812e+01 -1.318850421905517578e+01 -1.289787769317626953e+00 -3.589115440845489502e-01 -4.946098029613494873e-01 -5.352758765220642090e-01
8.800000000000000000e+02 2.474440956115722656e+01 -1.353454971313476562e+01 -1.776240944862365723e+00 -3.217023611068725586e-01 -6.293830275535583496e-01 -6.308434605598449707e-01
8.810000000000000000e+02 2.217718124389648438e+01 -1.391030311584472656e+01 -1.174695014953613281e+00 -9.394150227308273315e-02 -3.805909454822540283e-01 -1.191769465804100037e-01
8.820000000000000000e+02 2.104070281982421875e+01 -1.423733139038085938e+01 -7.048273086547851562e-01 -6.615673005580902100e-02 -2.312952131032943726e-01 -1.676945239305496216e-01
8.830000000000000000e+02 2.028454780578613281e+01 -1.298252391815185547e+01 -3.650861978530883789e-01 -2.092041075229644775e-02 -1.158019825816154480e-01 7.873950153589248657e-02
8.840000000000000000e+02 1.843303298950195312e+01 -1.097988414764404297e+01 -1.191255450248718262e-02 1.318398714065551758e-01 3.597819805145263672e-02 -1.425986550748348236e-02
8.850000000000000000e+02 1.937357711791992188e+01 -1.199753189086914062e+01 -7.818471640348434448e-02 1.514566392870619893e-04 -2.340997755527496338e-02 2.127654664218425751e-02
8.860000000000000000e+02 1.851212310791015625e+01 -1.282443428039550781e+01 -1.940438747406005859e-01 1.634290367364883423e-01 -9.184453636407852173e-03 3.648130688816308975e-03
8.870000000000000000e+02 1.790049362182617188e+01 -1.661437416076660156e+01 -3.838666155934333801e-02 -3.252963069826364517e-03 -1.249188743531703949e-02 -4.482831358909606934e-01
8.880000000000000000e+02 2.216898918151855469e+01 -2.600188636779785156e+01 4.188275635242462158e-01 1.742735952138900757e-01 1.779303550720214844e-01 -1.437391638755798340e-01
8.890000000000000000e+02 2.263633346557617188e+01 -1.528958606719970703e+01 -6.783723831176757812e-01 -2.775078713893890381e-01 -2.867640554904937744e-01 -5.278263092041015625e-01
8.900000000000000000e+02 2.343601989746093750e+01 -1.382737255096435547e+01 -1.733260869979858398e+00 -2.038175165653228760e-01 -5.811235308647155762e-01 -3.900214135646820068e-01
8.910000000000000000e+02 2.965988922119140625e+01 -1.847194862365722656e+01 3.057481944561004639e-01 1.320589542388916016e+00 4.879013299942016602e-01 6.077456474304199219e-01
8.920000000000000000e+02 2.921402168273925781e+01 -1.972077560424804688e+01 2.735824286937713623e-01 1.456897258758544922e+00 5.191439390182495117e-01 4.331008493900299072e-01
8.930000000000000000e+02 2.752846145629882812e+01 -2.191605377197265625e+01 2.872415482997894287e-01 8.430396318435668945e-01 3.390843570232391357e-01 2.356105484068393707e-02
8.940000000000000000e+02 2.878561782836914062e+01 -2.232487487792968750e+01 1.675988733768463135e-01 1.362842917442321777e+00 4.591325223445892334e-01 -8.729671686887741089e-02
8.950000000000000000e+02 2.917203140258789062e+01 -3.937761545181274414e+00 3.421162068843841553e-01 6.828733682632446289e-01 3.074968755245208740e-01 -1.614997088909149170e-01
8.960000000000000000e+02 1.579206085205078125e+01 -7.854597568511962891e-01 -3.352925181388854980e-01 -2.387899160385131836e-01 -1.722247302532196045e-01 -1.189767420291900635e-01
8.970000000000000000e+02 1.208868122100830078e+01 -1.475861072540283203e+00 -2.336649894714355469e-01 6.695010513067245483e-02 -5.001446232199668884e-02 -1.118735447525978088e-01
8.980000000000000000e+02 5.240139389038085938e+01 -1.556492805480957031e+01 -2.763373136520385742e+00 9.968435764312744141e-01 -5.299588441848754883e-01 -1.371622562408447266e+00
8.990000000000000000e+02 5.331856155395507812e+01 -1.650885581970214844e+01 -1.715850114822387695e+00 1.545879006385803223e+00 -5.099131166934967041e-02 -1.274247169494628906e+00
9.000000000000000000e+02 5.401842498779296875e+01 -1.548814105987548828e+01 -1.630093097686767578e+00 4.372994899749755859e+00 8.228704929351806641e-01 -2.798005342483520508e+00
9.010000000000000000e+02 5.435030746459960938e+01 -1.725740242004394531e+01 1.006001949310302734e+00 5.224952220916748047e+00 1.869286298751831055e+00 -2.120479106903076172e+00
9.020000000000000000e+02 5.701579284667968750e+01 -1.796392250061035156e+01 8.437317013740539551e-01 6.334948539733886719e+00 2.153604030609130859e+00 -8.142903447151184082e-02
9.030000000000000000e+02 6.469051361083984375e+01 -2.018086051940917969e+01 2.677248716354370117e-01 9.836580276489257812e+00 3.031291484832763672e+00 2.268993062898516655e-03
9.040000000000000000e+02 6.445735168457031250e+01 -1.750556564331054688e+01 -5.294297337532043457e-01 6.536551475524902344e+00 1.802136540412902832e+00 8.663690835237503052e-02
9.050000000000000000e+02 6.311382675170898438e+01 -1.787952804565429688e+01 -2.830024361610412598e-01 6.770292758941650391e+00 1.946187138557434082e+00 -5.287020206451416016e-01
9.060000000000000000e+02 6.680634307861328125e+01 -1.040992450714111328e+01 1.895290374755859375e+00 4.288902759552001953e+00 1.855257987976074219e+00 -2.583406686782836914e+00
9.070000000000000000e+02 6.549702453613281250e+01 -1.077652645111083984e+01 6.458473205566406250e-02 7.168696403503417969e+00 2.169984340667724609e+00 -1.429054498672485352e+00
9.080000000000000000e+02 5.557788848876953125e+01 -1.779122161865234375e+01 9.899988174438476562e-01 6.795351028442382812e+00 2.335604906082153320e+00 -1.250186920166015625e+00
9.090000000000000000e+02 5.548301315307617188e+01 -2.055319023132324219e+01 4.610218405723571777e-01 1.017880725860595703e+01 3.191948890686035156e+00 -2.564013600349426270e-01
9.100000000000000000e+02 5.775176620483398438e+01 -2.461221122741699219e+01 -2.314216196537017822e-01 5.478396892547607422e+00 1.574092507362365723e+00 1.085164785385131836e+00
9.110000000000000000e+02 5.671730041503906250e+01 -2.203880310058593750e+01 2.105977058410644531e+00 6.932680130004882812e+00 2.711597204208374023e+00 1.130283832550048828e+00
9.120000000000000000e+02 5.475767517089843750e+01 -2.597766113281250000e+01 -2.521269083023071289e+00 6.768454551696777344e+00 1.274155616760253906e+00 1.931595802307128906e+00
9.130000000000000000e+02 5.559102249145507812e+01 -2.661156654357910156e+01 -1.365663170814514160e+00 6.855043888092041016e+00 1.646814227104187012e+00 2.052788257598876953e+00
9.140000000000000000e+02 5.825064849853515625e+01 -2.802066612243652344e+01 1.200934052467346191e+00 4.520303249359130859e+00 1.716371178627014160e+00 1.787913084030151367e+00
9.150000000000000000e+02 5.735247802734375000e+01 -2.909565353393554688e+01 1.164428830146789551e+00 6.693666934967041016e+00 2.357428789138793945e+00 3.010927200317382812e+00
9.160000000000000000e+02 5.319272613525390625e+01 -2.591877365112304688e+01 -2.289259195327758789e+00 2.244131326675415039e+00 -1.353836245834827423e-02 1.423008203506469727e+00
9.170000000000000000e+02 4.673024749755859375e+01 -2.843377494812011719e+01 -4.747760295867919922e-02 1.396702647209167480e+00 4.047675132751464844e-01 -1.346805453300476074e+00
9.180000000000000000e+02 4.963294601440429688e+01 -2.568225669860839844e+01 -2.345065355300903320e+00 1.250633478164672852e+00 -3.283295929431915283e-01 -1.078064203262329102e+00
9.190000000000000000e+02 4.891648483276367188e+01 -2.444105529785156250e+01 -1.207870602607727051e+00 1.477047681808471680e+00 8.075314760208129883e-02 -6.586348414421081543e-01
9.200000000000000000e+02 4.416580581665039062e+01 -2.283881950378417969e+01 1.156762957572937012e+00 3.157256603240966797e+00 1.294205904006958008e+00 1.614360809326171875e+00
9.210000000000000000e+02 4.703252410888671875e+01 -2.216753196716308594e+01 1.393453240394592285e+00 6.742006301879882812e+00 2.440637826919555664e+00 -1.469699859619140625e+00
9.220000000000000000e+02 4.489842605590820312e+01 -2.774551773071289062e+01 -1.569894433021545410e+00 5.601183176040649414e-01 -3.029328286647796631e-01 -6.015860289335250854e-02
9.230000000000000000e+02 4.594921112060546875e+01 -2.731853675842285156e+01 -1.011120200157165527e+00 1.548463106155395508e+00 1.612028926610946655e-01 -8.645809888839721680e-01
9.240000000000000000e+02 4.775712585449218750e+01 -2.928364181518554688e+01 1.634317040443420410e+00 2.395986795425415039e+00 1.209091186523437500e+00 -1.980858564376831055e+00
9.250000000000000000e+02 4.869601058959960938e+01 -3.033452796936035156e+01 2.052050590515136719e+00 4.241991519927978516e+00 1.888212561607360840e+00 -2.472309589385986328e+00
9.260000000000000000e+02 4.928973388671875000e+01 -3.155355834960937500e+01 1.286291122436523438e+00 6.220578193664550781e+00 2.252060890197753906e+00 -1.629248857498168945e+00
9.270000000000000000e+02 4.958283996582031250e+01 -3.275004577636718750e+01 5.239716768264770508e-01 6.717234134674072266e+00 2.172361850738525391e+00 -3.903903812170028687e-02
9.280000000000000000e+02 5.023342895507812500e+01 -3.369270324707031250e+01 1.413836717605590820e+00 6.206437587738037109e+00 2.286082267761230469e+00 8.525812625885009766e-01
9.290000000000000000e+02 4.665433120727539062e+01 -2.066540336608886719e+01 1.170196175575256348e+00 9.481572151184082031e+00 3.195530414581298828e+00 2.931250333786010742e-01
9.300000000000000000e+02 4.612802124023437500e+01 -1.638253402709960938e+01 -9.971743822097778320e-01 6.293956756591796875e+00 1.589034795761108398e+00 1.667265057563781738e+00
9.310000000000000000e+02 4.053230285644531250e+01 -1.651599693298339844e+01 -5.559729877859354019e-03 2.768046855926513672e-01 8.137349039316177368e-02 -2.495572566986083984e-01
9.320000000000000000e+02 4.752710342407226562e+01 -1.661638832092285156e+01 -1.257887959480285645e+00 5.742287158966064453e+00 1.345319747924804688e+00 2.293947219848632812e+00
9.330000000000000000e+02 4.891484832763671875e+01 -1.663810348510742188e+01 -1.875105738639831543e+00 2.103688001632690430e+00 6.857471168041229248e-02 1.193171739578247070e+00
9.340000000000000000e+02 5.014161682128906250e+01 -1.632592773437500000e+01 -4.638283729553222656e+00 6.217107549309730530e-02 -1.372833847999572754e+00 -6.011855006217956543e-01
9.350000000000000000e+02 7.386315917968750000e+01 -2.209374237060546875e+01 7.494730353355407715e-01 1.333128166198730469e+01 4.224226474761962891e+00 4.410837590694427490e-01
9.360000000000000000e+02 7.940067291259765625e+01 -2.636059761047363281e+01 1.950861886143684387e-03 7.704481124877929688e+00 2.311929702758789062e+00 -2.143807560205459595e-01
9.370000000000000000e+02 7.143538665771484375e+01 -2.623433113098144531e+01 -2.010871410369873047e+00 1.677699208259582520e+00 -9.995164722204208374e-02 8.180513381958007812e-01
9.380000000000000000e+02 6.899877166748046875e+01 -2.707012367248535156e+01 -2.061317443847656250e+00 6.573531627655029297e-01 -4.211892783641815186e-01 -4.803796112537384033e-01
9.390000000000000000e+02 6.712105560302734375e+01 -2.532477188110351562e+01 6.003973484039306641e-01 3.972199201583862305e+00 1.371778964996337891e+00 -2.072744846343994141e+00
9.400000000000000000e+02 6.351252746582031250e+01 -2.763904762268066406e+01 5.277693867683410645e-01 3.793942451477050781e+00 1.296513557434082031e+00 -2.137761354446411133e+00
9.410000000000000000e+02 6.568330383300781250e+01 -2.891740989685058594e+01 1.825807452201843262e+00 9.218094825744628906e+00 3.313170671463012695e+00 -3.321905374526977539e+00
9.420000000000000000e+02 6.570089721679687500e+01 -3.032358551025390625e+01 2.766239166259765625e+00 1.176199054718017578e+01 4.358469009399414062e+00 -3.892748117446899414e+00
9.430000000000000000e+02 6.602951049804687500e+01 -3.303870010375976562e+01 3.800416588783264160e-01 8.768090248107910156e+00 2.744439363479614258e+00 -7.530804872512817383e-01
9.440000000000000000e+02 6.611238861083984375e+01 -3.439865112304687500e+01 4.488173127174377441e-01 7.488568305969238281e+00 2.381215810775756836e+00 -4.602394998073577881e-02
9.450000000000000000e+02 6.518362426757812500e+01 -3.639755249023437500e+01 2.197647541761398315e-01 3.989487648010253906e+00 1.262775659561157227e+00 5.861629247665405273e-01
9.460000000000000000e+02 6.727040100097656250e+01 -4.152317428588867188e+01 -1.354966402053833008e+00 4.422393321990966797e+00 9.202280044555664062e-01 -3.050120919942855835e-02
9.470000000000000000e+02 6.579022979736328125e+01 -3.784074401855468750e+01 -2.075135231018066406e+00 4.714406013488769531e+00 7.917813062667846680e-01 6.874788552522659302e-02
9.480000000000000000e+02 6.117235565185546875e+01 -2.647847557067871094e+01 -4.895694732666015625e+00 -5.061646103858947754e-01 -1.620557904243469238e+00 -1.190271005034446716e-01
9.490000000000000000e+02 6.467163848876953125e+01 -2.165401458740234375e+01 2.016458511352539062e+00 1.203749561309814453e+01 4.216186046600341797e+00 -2.249642610549926758e+00
9.500000000000000000e+02 6.708352661132812500e+01 -1.631122970581054688e+01 -3.639440536499023438e+00 1.720798909664154053e-01 -1.040208101272583008e+00 -4.793180525302886963e-01
9.510000000000000000e+02 6.953215026855468750e+01 -1.549422454833984375e+01 -1.486563801765441895e+00 1.479636728763580322e-01 -4.015800356864929199e-01 -1.520506381988525391e+00
9.520000000000000000e+02 4.512886810302734375e+01 -2.694532632827758789e+00 3.426773548126220703e-01 -6.935750246047973633e-01 -1.052693128585815430e-01 6.789393723011016846e-02
9.530000000000000000e+02 4.598327636718750000e+01 -2.860583066940307617e+00 5.328356623649597168e-01 -4.771553575992584229e-01 1.670409366488456726e-02 -1.188028007745742798e-01
9.540000000000000000e+02 4.654956436157226562e+01 -3.800423622131347656e+00 8.501375913619995117e-01 -1.393067240715026855e-01 2.132492512464523315e-01 1.131913736462593079e-01
9.550000000000000000e+02 4.957464599609375000e+01 -2.281229972839355469e+00 8.402343392372131348e-01 7.883851528167724609e+00 2.617225885391235352e+00 3.063606500625610352e+00
9.560000000000000000e+02 4.770112991333007812e+01 -9.715655326843261719e+00 9.514674544334411621e-01 9.121440887451171875e+00 3.021872520446777344e+00 2.390105247497558594e+00
9.570000000000000000e+02 4.976529312133789062e+01 -1.336006164550781250e+01 1.789562217891216278e-02 3.959802389144897461e+00 1.193309426307678223e+00 1.136826753616333008e+00
9.580000000000000000e+02 4.541692352294921875e+01 -1.296930408477783203e+01 1.026450991630554199e+00 3.203689813613891602e+00 1.269042253494262695e+00 2.487408876419067383e+00
9.590000000000000000e+02 4.286593627929687500e+01 -1.376346969604492188e+01 -2.865948915481567383e+00 -4.657170549035072327e-02 -8.737561702728271484e-01 2.803617417812347412e-01
9.600000000000000000e+02 4.072259521484375000e+01 -1.988061904907226562e+01 4.405416846275329590e-01 1.279712915420532227e+00 5.160763859748840332e-01 4.410054385662078857e-01
9.610000000000000000e+02 4.009201049804687500e+01 -2.473099327087402344e+01 1.321965098381042480e+00 4.936325073242187500e+00 1.877487182617187500e+00 2.064140796661376953e+00
9.620000000000000000e+02 4.093086624145507812e+01 -2.456255531311035156e+01 1.356110572814941406e+00 2.861513853073120117e+00 1.265287280082702637e+00 2.033558368682861328e+00
9.630000000000000000e+02 4.178630065917968750e+01 -1.424793910980224609e+01 -1.931867480278015137e+00 -9.573657810688018799e-02 -6.082812547683715820e-01 9.917056187987327576e-03
9.640000000000000000e+02 4.086167526245117188e+01 -1.329288959503173828e+01 -2.286103725433349609e+00 -2.427448332309722900e-01 -7.586545348167419434e-01 4.194861054420471191e-01
9.650000000000000000e+02 3.750474548339843750e+01 -1.188876247406005859e+01 -6.316604018211364746e-01 8.038004636764526367e-01 5.164200812578201294e-02 8.288655430078506470e-02
9.660000000000000000e+02 3.713370132446289062e+01 -7.833816051483154297e+00 2.051932662725448608e-01 2.089518785476684570e+00 6.884136199951171875e-01 2.879898250102996826e-01
9.670000000000000000e+02 3.838747787475585938e+01 -5.163578987121582031e+00 1.239183425903320312e+00 1.522745132446289062e+00 8.285785317420959473e-01 1.158960103988647461e+00
9.680000000000000000e+02 3.541027450561523438e+01 -2.687604904174804688e+00 -2.949328124523162842e-01 7.192442566156387329e-02 -6.690251827239990234e-02 -1.994918137788772583e-01
9.690000000000000000e+02 6.240647125244140625e+01 -2.686120223999023438e+01 -3.329748392105102539e+00 1.316407203674316406e+00 -6.040023565292358398e-01 -2.501560151576995850e-01
9.700000000000000000e+02 6.606344604492187500e+01 -2.438437271118164062e+01 2.344164848327636719e+00 7.023549556732177734e+00 2.810314416885375977e+00 -4.302868366241455078e+00
9.710000000000000000e+02 6.498708343505859375e+01 -2.701926422119140625e+01 -2.169404506683349609e+00 8.013957023620605469e+00 1.753365635871887207e+00 -2.354037046432495117e+00
9.720000000000000000e+02 5.584708786010742188e+01 -3.315753936767578125e+01 8.381480574607849121e-01 9.756203651428222656e+00 3.178305625915527344e+00 6.821121573448181152e-01
9.730000000000000000e+02 5.150262451171875000e+01 -3.158775711059570312e+01 1.919618010520935059e+00 4.801971912384033203e+00 2.016477108001708984e+00 3.630388155579566956e-02
9.740000000000000000e+02 5.985208129882812500e+01 -2.600918006896972656e+01 -2.336573362350463867e+00 1.451483607292175293e+00 -2.655269205570220947e-01 7.781816720962524414e-01
9.750000000000000000e+02 1.590427303314208984e+01 -1.852467727661132812e+01 -3.576951846480369568e-02 -1.700069308280944824e-01 -6.173293292522430420e-02 -2.228087484836578369e-01
9.760000000000000000e+02 1.601997375488281250e+01 -1.722353363037109375e+01 6.098491698503494263e-02 3.377045691013336182e-01 1.196068450808525085e-01 -2.426218837499618530e-01
9.770000000000000000e+02 1.742958068847656250e+01 -2.163273620605468750e+01 -2.657493948936462402e-01 -1.358100771903991699e-01 -1.204678416252136230e-01 -3.342970311641693115e-01
9.780000000000000000e+02 1.726851844787597656e+01 -2.687585258483886719e+01 2.804115712642669678e-01 -5.856341868638992310e-02 6.655444949865341187e-02 -1.913138898089528084e-03
9.790000000000000000e+02 4.833895683288574219e+00 -1.960510253906250000e+01 1.432437635958194733e-02 -3.456454277038574219e-01 -9.939631819725036621e-02 -1.328793615102767944e-01
9.800000000000000000e+02 4.362455844879150391e+00 -1.867315292358398438e+01 -3.398589044809341431e-02 -3.441275656223297119e-01 -1.134340316057205200e-01 -1.738663613796234131e-01
9.810000000000000000e+02 2.144440889358520508e+00 -1.845041275024414062e+01 -5.906352400779724121e-02 -2.422195374965667725e-01 -9.038492292165756226e-02 -1.505606025457382202e-01
9.820000000000000000e+02 3.415864706039428711e+00 -1.829738235473632812e+01 -6.761427223682403564e-02 -3.202005922794342041e-01 -1.163444593548774719e-01 -1.947331130504608154e-01
9.830000000000000000e+02 5.788564205169677734e+00 -1.613422584533691406e+01 -1.481308192014694214e-01 -4.434382021427154541e-01 -1.774707138538360596e-01 -2.507849633693695068e-01
9.840000000000000000e+02 1.868195772171020508e+00 -1.434403228759765625e+01 -1.398164685815572739e-02 -1.077372208237648010e-01 -3.651566058397293091e-02 -2.077997289597988129e-02
9.850000000000000000e+02 5.459641265869140625e+01 1.317565250396728516e+01 1.350476861000061035e+00 1.030099391937255859e+01 3.495441198348999023e+00 -2.044214725494384766e+00
9.860000000000000000e+02 6.068873977661132812e+01 9.035336494445800781e+00 -3.614439964294433594e-01 6.623296737670898438e+00 1.878555893898010254e+00 -7.459598183631896973e-01
9.870000000000000000e+02 5.439675521850585938e+01 7.827859878540039062e+00 1.668520808219909668e+00 1.074410057067871094e+01 3.723786354064941406e+00 3.227498769760131836e+00
9.880000000000000000e+02 5.755817413330078125e+01 2.446599960327148438e+00 7.740334272384643555e-01 4.260789394378662109e+00 1.510446906089782715e+00 -4.880798757076263428e-01
9.890000000000000000e+02 5.424103927612304688e+01 1.275598168373107910e+00 2.505766153335571289e+00 3.977082729339599609e+00 1.944854617118835449e+00 3.690040588378906250e+00
9.900000000000000000e+02 5.802778625488281250e+01 1.132136702537536621e+00 1.433459997177124023e+00 3.184297084808349609e+00 1.385327100753784180e+00 -1.485383152961730957e+00
9.910000000000000000e+02 5.297705078125000000e+01 6.258004188537597656e+00 -1.470827817916870117e+00 4.022102832794189453e+00 7.653824687004089355e-01 1.781131267547607422e+00
9.920000000000000000e+02 5.148727035522460938e+01 1.091730356216430664e+00 2.964730501174926758e+00 1.238525295257568359e+01 4.604995250701904297e+00 2.683541297912597656e+00
9.930000000000000000e+02 5.188737106323242188e+01 4.533988535404205322e-01 6.134162902832031250e+00 1.101762485504150391e+01 5.145536422729492188e+00 3.402501344680786133e+00
9.940000000000000000e+02 4.974461364746093750e+01 1.728456377983093262e+00 2.037456274032592773e+00 7.932282924652099609e+00 2.990921735763549805e+00 -4.481989860534667969e+00
9.950000000000000000e+02 4.904768371582031250e+01 1.932766914367675781e+00 2.099277734756469727e+00 4.652734756469726562e+00 2.025603771209716797e+00 -4.671552181243896484e+00
9.960000000000000000e+02 1.666318511962890625e+01 6.935570240020751953e+00 5.766600370407104492e-01 2.515360116958618164e-01 2.484588176012039185e-01 3.985759019851684570e-01
9.970000000000000000e+02 1.045029926300048828e+01 9.206342697143554688e+00 -6.083495020866394043e-01 -8.227552175521850586e-01 -4.293314218521118164e-01 5.935885906219482422e-01
9.980000000000000000e+02 9.582743644714355469e+00 1.102796649932861328e+01 -2.230024039745330811e-01 -7.626904845237731934e-01 -2.957078814506530762e-01 3.501909673213958740e-01
9.990000000000000000e+02 9.545451164245605469e+00 1.353523635864257812e+01 1.126638054847717285e-01 1.488369107246398926e-01 7.845021784305572510e-02 2.215085327625274658e-01
1.000000000000000000e+03 9.547036170959472656e+00 1.229019927978515625e+01 -1.339879631996154785e-02 -3.181599378585815430e-01 -9.946762025356292725e-02 1.248837187886238098e-01
1.001000000000000000e+03 7.813028335571289062e+00 1.394036388397216797e+01 1.956938803195953369e-01 -2.226802557706832886e-01 -8.095910772681236267e-03 4.255422353744506836e-01
1.002000000000000000e+03 4.566196918487548828e+00 1.598714542388916016e+01 1.644669920206069946e-01 -4.251047670841217041e-01 -7.819132506847381592e-02 2.623293399810791016e-01
1.003000000000000000e+03 1.103105735778808594e+01 1.661298942565917969e+01 7.258536219596862793e-01 7.021430134773254395e-01 4.283989965915679932e-01 6.399132013320922852e-01
1.004000000000000000e+03 1.213609504699707031e+01 1.748285102844238281e+01 9.171828031539916992e-01 5.433535575866699219e-01 4.381608963012695312e-01 6.439524888992309570e-01
1.005000000000000000e+03 3.158679389953613281e+01 -1.586394977569580078e+01 3.109233081340789795e-01 6.821666359901428223e-01 2.979269623756408691e-01 4.928759336471557617e-01
1.006000000000000000e+03 3.268722915649414062e+01 -1.524566936492919922e+01 -2.520924210548400879e-01 2.558738291263580322e-01 1.134420628659427166e-03 2.492396235466003418e-01
1.007000000000000000e+03 2.405413818359375000e+01 -1.607245826721191406e+01 -4.429846405982971191e-01 -3.112109005451202393e-01 -2.262586653232574463e-01 -4.905055165290832520e-01
1.008000000000000000e+03 3.384090805053710938e+01 -1.481767940521240234e+01 -1.065788149833679199e+00 -3.853568807244300842e-02 -3.312971591949462891e-01 3.114694654941558838e-01
1.009000000000000000e+03 3.755610275268554688e+01 -1.344076538085937500e+01 -1.061748027801513672e+00 6.214855313301086426e-01 -1.320787370204925537e-01 -1.475456915795803070e-02
1.010000000000000000e+03 3.806768417358398438e+01 -1.079409217834472656e+01 9.839237667620182037e-03 6.243551373481750488e-01 1.902583092451095581e-01 -2.538158595561981201e-01
1.011000000000000000e+03 3.690070343017578125e+01 -1.607284355163574219e+01 -4.585471749305725098e-01 2.597190812230110168e-02 -1.297725886106491089e-01 5.174171179533004761e-02
1.012000000000000000e+03 3.782319259643554688e+01 -1.694635772705078125e+01 -5.997779220342636108e-02 1.414195001125335693e-01 2.443251386284828186e-02 -2.614830620586872101e-02
1.013000000000000000e+03 3.905611801147460938e+01 -1.749442672729492188e+01 6.579145789146423340e-02 6.079296767711639404e-02 3.797532618045806885e-02 -2.092309445142745972e-01
1.014000000000000000e+03 3.984816360473632812e+01 -2.246950912475585938e+01 1.212600269354879856e-03 2.227374315261840820e+00 6.685760617256164551e-01 5.882654190063476562e-01
1.015000000000000000e+03 4.303149795532226562e+01 -2.202885246276855469e+01 1.240414261817932129e+00 2.912386417388916016e+00 1.245840191841125488e+00 1.886531352996826172e+00
1.016000000000000000e+03 4.119788742065429688e+01 -2.776934242248535156e+01 -1.623077988624572754e-01 2.518106937408447266e+00 7.067397236824035645e-01 1.242480397224426270e+00
1.017000000000000000e+03 4.074027252197265625e+01 -2.533652496337890625e+01 1.384413123130798340e+00 3.460641622543334961e+00 1.453516483306884766e+00 2.088800907135009766e+00
1.018000000000000000e+03 3.989669418334960938e+01 -2.775878143310546875e+01 -5.237346887588500977e-02 4.391377925872802734e+00 1.301701307296752930e+00 1.427341818809509277e+00
1.019000000000000000e+03 3.734015274047851562e+01 -2.846312904357910156e+01 3.023457229137420654e-01 1.906916975975036621e+00 6.627787947654724121e-01 1.003399729728698730e+00
1.020000000000000000e+03 3.342441177368164062e+01 -2.916454124450683594e+01 8.702922612428665161e-02 1.096839606761932373e-01 5.901395529508590698e-02 -1.656310707330703735e-01
1.021000000000000000e+03 3.290904998779296875e+01 -2.799938964843750000e+01 -1.349883079528808594e-01 1.244125664234161377e-01 -3.172722179442644119e-03 -1.479574441909790039e-01
1.022000000000000000e+03 1.449297428131103516e+01 -2.147599411010742188e+01 -5.929192304611206055e-01 -5.813517570495605469e-01 -3.522813022136688232e-01 -5.067629814147949219e-01
1.023000000000000000e+03 2.001903152465820312e+01 -2.649367523193359375e+01 7.145571708679199219e-01 1.246813535690307617e-01 2.517715692520141602e-01 -1.714818030595779419e-01
1.024000000000000000e+03 1.719731903076171875e+01 -4.028361511230468750e+01 7.745858430862426758e-01 1.223212182521820068e-01 2.690721154212951660e-01 -1.918007880449295044e-01
1.025000000000000000e+03 1.885971832275390625e+01 -4.083108901977539062e+01 7.046612501144409180e-01 7.147097587585449219e-02 2.328396737575531006e-01 -2.923611027654260397e-04
1.026000000000000000e+03 1.538969039916992188e+01 -4.065100097656250000e+01 4.767750799655914307e-01 1.717859357595443726e-01 1.945683062076568604e-01 -1.289433687925338745e-01
1.027000000000000000e+03 1.529274177551269531e+01 -3.895239257812500000e+01 2.779308855533599854e-01 2.250446528196334839e-01 1.508926600217819214e-01 -2.871798872947692871e-01
1.028000000000000000e+03 1.567962169647216797e+01 2.310805511474609375e+01 8.574597239494323730e-01 2.462023496627807617e-01 3.310986161231994629e-01 4.221653044223785400e-01
1.029000000000000000e+03 1.036508369445800781e+01 2.259959411621093750e+01 -2.088595181703567505e-01 -3.942443057894706726e-02 -7.448518276214599609e-02 9.656325727701187134e-02
1.030000000000000000e+03 9.090764999389648438e+00 2.218177986145019531e+01 -1.313438862562179565e-01 -1.433156132698059082e-01 -8.239784836769104004e-02 1.078969389200210571e-01
1.031000000000000000e+03 7.453741073608398438e+00 2.433777999877929688e+01 -2.107034921646118164e-01 -3.015913069248199463e-01 -1.536884456872940063e-01 2.477655708789825439e-01
1.032000000000000000e+03 1.963193774223327637e+00 2.644515037536621094e+01 -4.481622949242591858e-02 -7.492190003395080566e-01 -2.382105588912963867e-01 5.757319182157516479e-02
1.033000000000000000e+03 6.631230926513671875e+01 2.033446502685546875e+01 -6.388953685760498047e+00 -5.002193450927734375e-01 -2.066751956939697266e+00 1.017925143241882324e+00
1.034000000000000000e+03 6.833001708984375000e+01 1.952328872680664062e+01 -3.906667470932006836e+00 -1.604347378015518188e-01 -1.220130681991577148e+00 9.447002410888671875e-01
1.035000000000000000e+03 6.922718811035156250e+01 1.853252220153808594e+01 -1.084203481674194336e+00 8.511149287223815918e-01 -6.992655992507934570e-02 2.746638655662536621e-01
1.036000000000000000e+03 6.421534729003906250e+01 7.295664310455322266e+00 -2.195414066314697266e+00 1.410521715879440308e-01 -6.163085699081420898e-01 2.406190186738967896e-01
1.037000000000000000e+03 6.142797088623046875e+01 1.008428668975830078e+01 1.169630050659179688e+00 6.320800781250000000e+00 2.247129201889038086e+00 -1.923301219940185547e+00
1.038000000000000000e+03 6.064142990112304688e+01 1.206072330474853516e+01 6.672655940055847168e-01 9.994761466979980469e+00 3.198608160018920898e+00 -7.213044762611389160e-01
1.039000000000000000e+03 5.478306579589843750e+01 1.186761379241943359e+01 5.587891340255737305e-01 1.225374126434326172e+01 3.843759059906005859e+00 -5.909188389778137207e-01
1.040000000000000000e+03 3.181028366088867188e+01 2.327834892272949219e+01 1.412449926137924194e-01 2.227042198181152344e+00 7.104861140251159668e-01 -1.858068555593490601e-01
1.041000000000000000e+03 3.186089134216308594e+01 2.056880760192871094e+01 1.470629591494798660e-02 1.940099596977233887e+00 5.864417552947998047e-01 -7.287292927503585815e-02
1.042000000000000000e+03 3.805969619750976562e+01 2.183716583251953125e+01 -2.504922747611999512e-01 1.033000707626342773e+00 2.347525358200073242e-01 -7.205479741096496582e-01
1.043000000000000000e+03 3.671141052246093750e+01 2.409828186035156250e+01 8.075419068336486816e-01 1.561262011528015137e+00 7.106411457061767578e-01 -1.136193871498107910e+00
1.044000000000000000e+03 5.311985397338867188e+01 3.212656402587890625e+01 9.131877422332763672e-01 6.606164932250976562e+00 2.255805730819702148e+00 6.166235208511352539e-01
1.045000000000000000e+03 7.241391754150390625e+01 -1.244573712348937988e+00 -6.229143142700195312e-01 1.504536151885986328e+00 2.644865512847900391e-01 -7.299469113349914551e-01
1.046000000000000000e+03 7.437924194335937500e+01 -3.437716960906982422e+00 8.742257356643676758e-01 7.976245403289794922e+00 2.655141353607177734e+00 -2.648756980895996094e+00
1.047000000000000000e+03 7.709341430664062500e+01 1.152573704719543457e+00 -4.486908316612243652e-01 7.445375919342041016e+00 2.099005460739135742e+00 -4.593860507011413574e-01
1.048000000000000000e+03 7.696144866943359375e+01 -4.206215381622314453e+00 3.371352255344390869e-01 9.356837272644042969e+00 2.908191680908203125e+00 1.091530993580818176e-01
1.049000000000000000e+03 6.008142089843750000e+01 -9.524834632873535156e+00 3.940543830394744873e-01 4.845794677734375000e+00 1.571954727172851562e+00 2.068664550781250000e+00
1.050000000000000000e+03 6.124757003784179688e+01 -7.628856182098388672e+00 1.688116669654846191e+00 1.030882549285888672e+01 3.599082708358764648e+00 1.591868400573730469e+00
1.051000000000000000e+03 6.773728179931640625e+01 -1.508008837699890137e+00 1.842956185340881348e+00 2.286669254302978516e+00 1.238887667655944824e+00 1.812712311744689941e+00
1.052000000000000000e+03 6.676876831054687500e+01 -2.512159585952758789e+00 2.017412185668945312e+00 3.801884174346923828e+00 1.745788931846618652e+00 2.548643350601196289e+00
1.053000000000000000e+03 6.857462310791015625e+01 -4.341038763523101807e-01 9.095748066902160645e-01 1.575807213783264160e+00 7.456145882606506348e-01 1.795251369476318359e+00
1.054000000000000000e+03 6.978716278076171875e+01 -8.107652664184570312e-01 -7.210092246532440186e-02 4.415859282016754150e-01 1.108454987406730652e-01 8.057707548141479492e-01
1.055000000000000000e+03 4.517039108276367188e+01 -3.855621719360351562e+01 -8.397706151008605957e-01 6.354861855506896973e-01 -6.128532066941261292e-02 3.934062719345092773e-01
1.056000000000000000e+03 4.302044296264648438e+01 -3.851284027099609375e+01 -8.999205827713012695e-01 4.836583733558654785e-01 -1.248786672949790955e-01 -1.080328226089477539e-01
1.057000000000000000e+03 4.682741546630859375e+01 -3.786706924438476562e+01 -3.322789669036865234e-01 9.929503798484802246e-01 1.982014179229736328e-01 7.453712821006774902e-01
1.058000000000000000e+03 4.149391174316406250e+01 -3.749191284179687500e+01 -5.234320759773254395e-01 4.082677066326141357e-01 -3.454930335283279419e-02 -4.358201324939727783e-01
1.059000000000000000e+03 3.966973876953125000e+01 -3.100282287597656250e+01 1.096175551414489746e+00 6.081258773803710938e+00 2.153230428695678711e+00 2.397407531738281250e+00
1.060000000000000000e+03 3.780970764160156250e+01 -2.733266258239746094e+01 8.590641021728515625e-01 2.073941707611083984e+00 8.799017071723937988e-01 1.471738457679748535e+00
1.061000000000000000e+03 4.026714324951171875e+01 -2.989748001098632812e+01 1.507687926292419434e+00 4.682666301727294922e+00 1.857106328010559082e+00 2.334530591964721680e+00
1.062000000000000000e+03 5.871613693237304688e+01 7.480944506824016571e-03 2.149988651275634766e+00 3.586837530136108398e+00 1.721047759056091309e+00 -2.606293201446533203e+00
1.063000000000000000e+03 5.960139846801757812e+01 -9.897124767303466797e-01 2.839745521545410156e+00 5.653012275695800781e+00 2.547827482223510742e+00 -3.904405832290649414e+00
1.064000000000000000e+03 5.030182647705078125e+01 -2.835301017761230469e+01 5.678534507751464844e-01 2.761316061019897461e+00 9.987508654594421387e-01 -6.235044002532958984e-01
1.065000000000000000e+03 5.095940399169921875e+01 -2.690617179870605469e+01 -3.338331282138824463e-01 1.483572125434875488e+00 3.449217081069946289e-01 -7.573823332786560059e-01
1.066000000000000000e+03 4.730906677246093750e+01 -1.094456005096435547e+01 3.202238798141479492e+00 1.119371891021728516e+01 4.318787574768066406e+00 4.437383174896240234e+00
1.067000000000000000e+03 4.816792297363281250e+01 -8.607647895812988281e+00 3.735542297363281250e-01 6.532644271850585938e+00 2.071859598159790039e+00 2.366715192794799805e+00
1.068000000000000000e+03 9.777676582336425781e+00 -1.826327085494995117e+00 -1.544024348258972168e-01 -1.458095461130142212e-01 -9.006359428167343140e-02 -1.447216272354125977e-01
1.069000000000000000e+03 2.511428260803222656e+01 -3.204524612426757812e+01 1.293220072984695435e-01 4.424682259559631348e-01 1.715370714664459229e-01 -1.227382197976112366e-01
1.070000000000000000e+03 6.593096923828125000e+01 -3.165715789794921875e+01 9.105572700500488281e-01 1.093899440765380859e+01 3.554865360260009766e+00 -1.906138896942138672e+00
1.071000000000000000e+03 6.799929046630859375e+01 -2.767640686035156250e+01 2.177020162343978882e-01 3.640421867370605469e+00 1.157437205314636230e+00 -1.902809500694274902e+00
1.072000000000000000e+03 7.819082641601562500e+01 -2.610467147827148438e+01 -1.559587866067886353e-01 7.882381439208984375e+00 2.317926645278930664e+00 -4.810372889041900635e-01
1.073000000000000000e+03 7.943400573730468750e+01 -2.359160232543945312e+01 7.045289874076843262e-02 6.742458343505859375e+00 2.043873310089111328e+00 -1.597562134265899658e-01
1.074000000000000000e+03 7.934416198730468750e+01 -3.327676773071289062e+01 -2.429317496716976166e-02 7.950079441070556641e+00 2.377735853195190430e+00 4.647175967693328857e-02
1.075000000000000000e+03 5.086045074462890625e+01 -1.489833736419677734e+01 -8.616195321083068848e-01 8.600950837135314941e-01 -4.573315090965479612e-04 -2.480079233646392822e-01
1.076000000000000000e+03 4.582782745361328125e+01 -1.752547454833984375e+01 -9.781774878501892090e-02 5.772790908813476562e+00 1.702491998672485352e+00 1.006762981414794922e+00
1.077000000000000000e+03 3.894932937622070312e+01 -1.162582111358642578e+01 -2.507217526435852051e-01 2.474593371152877808e-01 -9.787291055545210838e-04 9.425458498299121857e-03
1.078000000000000000e+03 3.711552047729492188e+01 -9.051393508911132812e+00 1.892829686403274536e-01 1.626547574996948242e+00 5.447491407394409180e-01 -6.773880124092102051e-02
1.079000000000000000e+03 3.078789138793945312e+01 -1.120753383636474609e+01 -6.280459761619567871e-01 -8.402942121028900146e-02 -2.136226147413253784e-01 6.393386423587799072e-02
1.080000000000000000e+03 6.863023376464843750e+01 7.127372264862060547e+00 7.123628854751586914e-01 1.566975235939025879e+00 6.838014125823974609e-01 1.495129346847534180e+00
1.081000000000000000e+03 6.902355957031250000e+01 2.155363464355468750e+01 -1.471701979637145996e+00 2.653776407241821289e+00 3.546223342418670654e-01 -1.312027454376220703e+00
1.082000000000000000e+03 6.964617919921875000e+01 2.035251235961914062e+01 -2.605213165283203125e+00 3.478220224380493164e+00 2.619021534919738770e-01 -1.244183540344238281e+00
1.083000000000000000e+03 5.869021224975585938e+01 1.556280231475830078e+01 2.167030572891235352e+00 8.609974861145019531e+00 3.233101606369018555e+00 1.499291181564331055e+00
1.084000000000000000e+03 3.367938995361328125e+01 1.705775070190429688e+01 3.282506465911865234e-01 1.079825639724731445e+00 4.224228858947753906e-01 -3.641953766345977783e-01
1.085000000000000000e+03 2.161036682128906250e+01 8.683212280273437500e+00 4.447237551212310791e-01 -8.228794485330581665e-02 1.087307408452033997e-01 2.123868614435195923e-01
1.086000000000000000e+03 3.195295524597167969e+01 1.801423645019531250e+01 1.690281927585601807e-01 1.655840277671813965e+00 5.474605560302734375e-01 8.458111435174942017e-02
1.087000000000000000e+03 6.610039520263671875e+01 3.225345993041992188e+01 4.563561379909515381e-01 5.499157428741455078e+00 1.786654114723205566e+00 8.044652938842773438e-01
1.088000000000000000e+03 4.637636184692382812e+01 3.035316276550292969e+01 9.962098598480224609e-01 3.841639757156372070e+00 1.451354861259460449e+00 -1.116260528564453125e+00
1.089000000000000000e+03 2.245193481445312500e+01 2.307975387573242188e+01 7.271827012300491333e-02 3.135610520839691162e-01 1.158837974071502686e-01 8.130869269371032715e-02
1.090000000000000000e+03 1.899184107780456543e+00 1.639752006530761719e+01 4.577511548995971680e-02 -5.831770896911621094e-01 -1.612205952405929565e-01 1.228406876325607300e-01
1.091000000000000000e+03 9.075470924377441406e+00 1.469351100921630859e+01 3.003805577754974365e-01 1.490412056446075439e-01 1.348265260457992554e-01 3.463557362556457520e-01
1.092000000000000000e+03 2.083223342895507812e+01 1.988324737548828125e+01 1.823419183492660522e-01 2.085849493741989136e-01 1.172780618071556091e-01 -1.414462029933929443e-01
1.093000000000000000e+03 1.915885090827941895e+00 9.401290893554687500e+00 -3.626358136534690857e-02 -7.329557090997695923e-02 -3.286774829030036926e-02 1.389423757791519165e-01
1.094000000000000000e+03 3.975379562377929688e+01 4.912291049957275391e+00 1.441516727209091187e-01 -5.633071064949035645e-01 -1.257466375827789307e-01 2.691740989685058594e-01
1.095000000000000000e+03 4.365122222900390625e+01 5.964830875396728516e+00 -2.858019173145294189e-01 2.716077327728271484e+00 7.290825843811035156e-01 -8.550952672958374023e-01
1.096000000000000000e+03 2.578924942016601562e+01 1.100686740875244141e+01 3.302029073238372803e-01 1.678172945976257324e-01 1.494060605764389038e-01 6.423044204711914062e-02
1.097000000000000000e+03 4.360326766967773438e+01 8.702274322509765625e+00 1.370918631553649902e+00 3.724222421646118164e+00 1.528542399406433105e+00 -1.068567633628845215e+00
1.098000000000000000e+03 3.938724517822265625e+01 1.055333137512207031e+01 8.537746667861938477e-01 -1.398637332022190094e-02 2.519364953041076660e-01 -6.303470730781555176e-01
1.099000000000000000e+03 9.037713050842285156e+00 -1.843201041221618652e+00 -1.274498850107192993e-01 3.968879953026771545e-02 -2.632832527160644531e-02 -8.704733848571777344e-02
1.100000000000000000e+03 7.574929237365722656e+00 -1.846845269203186035e+00 -9.041987359523773193e-02 4.514512419700622559e-02 -1.358242426067590714e-02 -5.462576076388359070e-02
1.101000000000000000e+03 8.304881095886230469e+00 -1.846714138984680176e+00 -1.236973553895950317e-01 -1.032499447464942932e-01 -6.808418780565261841e-02 -1.180548220872879028e-01
1.102000000000000000e+03 6.846422195434570312e+00 -1.847453236579895020e+00 -7.749778777360916138e-02 -8.228836953639984131e-02 -4.793584719300270081e-02 -8.492791652679443359e-02
1.103000000000000000e+03 2.599465131759643555e+00 -1.975938439369201660e+00 -8.812583982944488525e-03 -2.812228724360466003e-02 -1.108046155422925949e-02 -1.325746066868305206e-02
1.104000000000000000e+03 3.482826471328735352e+00 -2.668788433074951172e+00 -2.207292243838310242e-02 -4.051637277007102966e-02 -1.877678930759429932e-02 -3.161772713065147400e-02
1.105000000000000000e+03 4.026227474212646484e+00 -1.840426325798034668e+00 -2.194528654217720032e-02 -4.734687507152557373e-02 -2.078764885663986206e-02 -3.523121774196624756e-02
1.106000000000000000e+03 1.871543169021606445e+00 -2.077014446258544922e+00 -4.619506187736988068e-03 5.465054884552955627e-03 2.536645333748310804e-04 -3.064029617235064507e-03
1.107000000000000000e+03 1.133011460304260254e+00 -2.159259796142578125e+00 -3.786484245210886002e-03 -9.610222652554512024e-03 -4.019012209028005600e-03 -2.685023937374353409e-03
1.108000000000000000e+03 2.117680311203002930e+00 -4.162727737426757812e+01 -1.175377983599901199e-03 -6.725408434867858887e-01 -2.021148651838302612e-01 3.304597630631178617e-04
1.109000000000000000e+03 1.184908509254455566e+00 -3.860811233520507812e+01 9.236960322596132755e-04 -6.674746274948120117e-01 -1.999652832746505737e-01 -1.352236326783895493e-02
1.110000000000000000e+03 7.141383290290832520e-01 -3.451682662963867188e+01 -8.764713420532643795e-04 -5.878229141235351562e-01 -1.766098141670227051e-01 -1.637636125087738037e-02
1.111000000000000000e+03 6.676629185676574707e-01 -3.313121795654296875e+01 -1.984198577702045441e-03 -5.554410815238952637e-01 -1.672275960445404053e-01 -1.376526243984699249e-02
1.112000000000000000e+03 5.771471858024597168e-01 -2.895814323425292969e+01 -6.550159305334091187e-03 -5.079179406166076660e-01 -1.543404310941696167e-01 3.185078036040067673e-03
1.113000000000000000e+03 5.760748386383056641e-01 -2.755870437622070312e+01 5.997235886752605438e-03 -5.182694196701049805e-01 -1.536816507577896118e-01 6.073447875678539276e-03
1.114000000000000000e+03 1.692424774169921875e+00 -2.739720153808593750e+01 -6.194841582328081131e-03 -4.444136917591094971e-01 -1.351825594902038574e-01 1.959102414548397064e-02
1.115000000000000000e+03 2.138627052307128906e+00 -2.297961807250976562e+01 5.899490416049957275e-02 -4.006508886814117432e-01 -1.024967953562736511e-01 -3.727071732282638550e-02
1.116000000000000000e+03 7.337851524353027344e-01 -2.179121017456054688e+01 1.932512037456035614e-02 -4.958150684833526611e-01 -1.429469883441925049e-01 -3.751886636018753052e-02
1.117000000000000000e+03 7.161052227020263672e-01 -2.035391426086425781e+01 4.078879486769437790e-03 -4.039474129676818848e-01 -1.199605613946914673e-01 -6.501793861389160156e-02
1.118000000000000000e+03 2.134255886077880859e+00 -1.701895713806152344e+01 -3.371155634522438049e-02 -2.063267230987548828e-01 -7.201148569583892822e-02 -1.018895730376243591e-01
1.119000000000000000e+03 6.223300695419311523e-01 -1.474455833435058594e+01 -9.779945947229862213e-03 -2.869270183145999908e-02 -1.154179405421018600e-02 -1.266418304294347763e-02
1.120000000000000000e+03 5.863559842109680176e-01 -1.335724925994873047e+01 1.220934791490435600e-03 -9.118785150349140167e-03 -2.369354944676160812e-03 4.496082838159054518e-04
1.121000000000000000e+03 1.762424468994140625e+00 -1.301493930816650391e+01 -1.871185749769210815e-02 -9.681904315948486328e-02 -3.465927019715309143e-02 -4.143021069467067719e-03
1.122000000000000000e+03 5.097594261169433594e-01 -9.192809104919433594e+00 -4.171696025878190994e-03 -3.068156912922859192e-02 -1.045597996562719345e-02 -5.316102178767323494e-04
1.123000000000000000e+03 4.917991161346435547e-01 -7.807869911193847656e+00 4.081735853105783463e-03 -2.846391499042510986e-02 -7.314654067158699036e-03 6.252129096537828445e-04
1.124000000000000000e+03 1.486750721931457520e+00 -7.697506427764892578e+00 -1.946750562638044357e-03 -5.141705647110939026e-02 -1.600914262235164642e-02 -1.051836553961038589e-02
1.125000000000000000e+03 4.779710173606872559e-01 -6.415757656097412109e+00 -4.408548411447554827e-04 -2.488164417445659637e-02 -7.596749346703290939e-03 -4.979041405022144318e-03
1.126000000000000000e+03 7.170442962646484375e+01 -4.133795547485351562e+01 -7.658986449241638184e-01 6.380185127258300781e+00 1.684285879135131836e+00 -1.967790722846984863e-01
1.127000000000000000e+03 3.191789054870605469e+01 -3.941193389892578125e+01 -1.089685875922441483e-02 1.257091760635375977e+00 3.738584518432617188e-01 3.112866580486297607e-01
1.128000000000000000e+03 1.213708400726318359e+01 -3.779884338378906250e+01 2.292001396417617798e-01 -3.895440697669982910e-02 5.707371607422828674e-02 -1.568918079137802124e-01
1.129000000000000000e+03 7.847232055664062500e+01 4.026287078857421875e+01 -6.584107875823974609e-02 7.735640048980712891e+00 2.300939559936523438e+00 -5.127098038792610168e-02
1.130000000000000000e+03 7.801809692382812500e+01 4.174517059326171875e+01 9.142997115850448608e-02 7.696895599365234375e+00 2.336497545242309570e+00 -2.534330822527408600e-02
1.131000000000000000e+03 7.868044281005859375e+01 3.883596420288085938e+01 -3.250873088836669922e-02 7.766825675964355469e+00 2.320295095443725586e+00 -3.446373157203197479e-03
1.132000000000000000e+03 7.924390411376953125e+01 3.474053955078125000e+01 1.974309422075748444e-02 7.690596103668212891e+00 2.313101768493652344e+00 3.820808604359626770e-02
1.133000000000000000e+03 7.772095489501953125e+01 3.453255462646484375e+01 -1.874784007668495178e-02 7.349807262420654297e+00 2.199317693710327148e+00 1.307623535394668579e-01
1.134000000000000000e+03 7.927967834472656250e+01 3.337375640869140625e+01 -1.770643889904022217e-02 7.632689952850341797e+00 2.284495115280151367e+00 3.347327932715415955e-02
1.135000000000000000e+03 7.934446716308593750e+01 3.062858200073242188e+01 -6.056216545403003693e-03 7.603776931762695312e+00 2.279316186904907227e+00 -1.609134301543235779e-02
1.136000000000000000e+03 7.811290740966796875e+01 2.921199035644531250e+01 4.170277714729309082e-02 7.366511821746826172e+00 2.222464323043823242e+00 -1.307138651609420776e-01
1.137000000000000000e+03 7.937992858886718750e+01 2.647514724731445312e+01 1.176225766539573669e-02 8.014724731445312500e+00 2.407946109771728516e+00 -8.012473583221435547e-02
1.138000000000000000e+03 7.686144256591796875e+01 2.653419494628906250e+01 5.372157320380210876e-02 7.149044513702392578e+00 2.160829782485961914e+00 -3.387009203433990479e-01
1.139000000000000000e+03 7.937692260742187500e+01 2.508426856994628906e+01 -2.102273330092430115e-02 8.205371856689453125e+00 2.455304622650146484e+00 -6.866591423749923706e-02
1.140000000000000000e+03 7.939737701416015625e+01 2.090439224243164062e+01 -2.088843472301959991e-02 8.289972305297851562e+00 2.480725288391113281e+00 1.031176820397377014e-01
1.141000000000000000e+03 7.940788269042968750e+01 1.951710128784179688e+01 -7.754800468683242798e-02 7.949538707733154297e+00 2.361597061157226562e+00 2.213684022426605225e-01
1.142000000000000000e+03 7.818695831298828125e+01 2.090907859802246094e+01 -2.280628979206085205e-01 7.858725547790527344e+00 2.289198875427246094e+00 2.444980740547180176e-01
1.143000000000000000e+03 7.940362548828125000e+01 1.812767028808593750e+01 7.247274741530418396e-03 7.365652561187744141e+00 2.211869955062866211e+00 3.037100136280059814e-01
1.144000000000000000e+03 7.934847259521484375e+01 1.392758655548095703e+01 -6.840417161583900452e-03 5.288928031921386719e+00 1.584626197814941406e+00 2.539340257644653320e-01
1.145000000000000000e+03 7.799566650390625000e+01 1.247860050201416016e+01 3.021669685840606689e-01 6.129035472869873047e+00 1.929360747337341309e+00 2.819480597972869873e-01
1.146000000000000000e+03 7.931274414062500000e+01 1.109797000885009766e+01 9.533188305795192719e-03 4.895323276519775391e+00 1.471457004547119141e+00 -7.340564578771591187e-02
1.147000000000000000e+03 7.935852813720703125e+01 6.854564189910888672e+00 -3.846138017252087593e-03 6.283457756042480469e+00 1.883883476257324219e+00 -3.106182813644409180e-01
1.148000000000000000e+03 7.939031219482421875e+01 5.462645053863525391e+00 -8.152808062732219696e-03 6.961220264434814453e+00 2.085920333862304688e+00 -2.982681989669799805e-01
1.149000000000000000e+03 7.817832946777343750e+01 5.216230869293212891e+00 -7.825976610183715820e-02 7.037578582763671875e+00 2.087795734405517578e+00 -7.176790833473205566e-01
1.150000000000000000e+03 7.941524505615234375e+01 4.081254005432128906e+00 -4.123841226100921631e-02 7.602234840393066406e+00 2.268298864364624023e+00 -2.453226298093795776e-01
1.151000000000000000e+03 7.941680908203125000e+01 -3.350196778774261475e-02 2.876932360231876373e-02 8.524896621704101562e+00 2.566099882125854492e+00 2.489991486072540283e-02
1.152000000000000000e+03 7.940538024902343750e+01 -1.411063313484191895e+00 -1.625388711690902710e-01 8.305721282958984375e+00 2.442954540252685547e+00 1.757417917251586914e-01
1.153000000000000000e+03 7.939630889892578125e+01 -2.793843984603881836e+00 8.514372259378433228e-02 7.797550678253173828e+00 2.364808320999145508e+00 2.711400091648101807e-01
1.154000000000000000e+03 7.938736724853515625e+01 -4.185773849487304688e+00 -4.132171720266342163e-02 7.243196010589599609e+00 2.160562276840209961e+00 2.193770706653594971e-01
1.155000000000000000e+03 7.500209045410156250e+01 -9.538216590881347656e+00 6.681582927703857422e-01 1.073577213287353516e+01 3.421179056167602539e+00 1.310717701911926270e+00
1.156000000000000000e+03 7.933672332763671875e+01 -8.412506103515625000e+00 -4.491535201668739319e-02 7.843953132629394531e+00 2.339711427688598633e+00 -5.058812499046325684e-01
1.157000000000000000e+03 7.943457794189453125e+01 -1.115126037597656250e+01 -2.712461352348327637e-01 1.018450355529785156e+01 2.973977088928222656e+00 -4.287322759628295898e-01
1.158000000000000000e+03 7.825739288330078125e+01 -1.246224021911621094e+01 -4.618156552314758301e-01 9.714183807373046875e+00 2.775710344314575195e+00 -4.693946540355682373e-01
1.159000000000000000e+03 7.939250183105468750e+01 -1.530404663085937500e+01 -1.005493029952049255e-01 1.028749847412109375e+01 3.056084871292114258e+00 3.213146626949310303e-01
1.160000000000000000e+03 7.376102447509765625e+01 -1.716685104370117188e+01 3.746534138917922974e-02 6.035817623138427734e+00 1.821984887123107910e+00 -1.654504388570785522e-01
1.161000000000000000e+03 7.941659545898437500e+01 -1.811045074462890625e+01 -5.577000975608825684e-02 8.531586647033691406e+00 2.542744874954223633e+00 4.088761210441589355e-01
1.162000000000000000e+03 7.824714660644531250e+01 -1.953364562988281250e+01 1.649079322814941406e-01 8.042117118835449219e+00 2.462107419967651367e+00 8.015636801719665527e-01
1.163000000000000000e+03 7.434544372558593750e+01 -2.330660247802734375e+01 1.563268184661865234e+00 1.195099163055419922e+01 4.054277896881103516e+00 7.024943828582763672e-01
1.164000000000000000e+03 7.824923706054687500e+01 -2.337965202331542969e+01 3.010354042053222656e-01 7.578200340270996094e+00 2.363770723342895508e+00 -2.099550664424896240e-01
1.165000000000000000e+03 7.943029022216796875e+01 -2.497199821472167969e+01 -8.374398574233055115e-03 7.203668594360351562e+00 2.158588171005249023e+00 -2.211504578590393066e-01
1.166000000000000000e+03 7.937955474853515625e+01 -2.914494514465332031e+01 -2.516167983412742615e-02 8.194563865661621094e+00 2.450820446014404297e+00 -3.684017434716224670e-02
1.167000000000000000e+03 7.815374755859375000e+01 -3.160669517517089844e+01 -2.113240025937557220e-02 7.663589477539062500e+00 2.292737007141113281e+00 1.670602262020111084e-01
1.168000000000000000e+03 7.937987518310546875e+01 -3.190427398681640625e+01 2.537575922906398773e-02 8.057930946350097656e+00 2.424992084503173828e+00 3.636130318045616150e-02
1.169000000000000000e+03 7.919661712646484375e+01 -3.598431396484375000e+01 -2.215114608407020569e-02 7.894623279571533203e+00 2.361741542816162109e+00 -4.104648716747760773e-03
1.170000000000000000e+03 7.907786560058593750e+01 -3.733854675292968750e+01 2.950665540993213654e-02 7.916623115539550781e+00 2.383838891983032227e+00 -2.528220787644386292e-02
1.171000000000000000e+03 7.889227294921875000e+01 -3.870549774169921875e+01 -1.020621880888938904e-02 7.949954509735107422e+00 2.381924390792846680e+00 -2.788042463362216949e-02
1.172000000000000000e+03 7.856831359863281250e+01 -4.010643386840820312e+01 -1.921553723514080048e-02 7.961004734039306641e+00 2.382536649703979492e+00 -7.634599693119525909e-03
1.173000000000000000e+03 7.828319549560546875e+00 4.128849792480468750e+01 -8.615602552890777588e-02 -1.789536476135253906e-01 -7.953289896249771118e-02 -9.883317165076732635e-03
1.174000000000000000e+03 6.899584197998046875e+01 3.882432937622070312e+01 -5.330420136451721191e-01 5.391351699829101562e+00 1.457492947578430176e+00 1.871402561664581299e-01
1.175000000000000000e+03 3.866798877716064453e-01 2.191054344177246094e+00 2.246821299195289612e-03 3.816885128617286682e-02 1.212470140308141708e-02 -1.146798860281705856e-02
1.176000000000000000e+03 2.882774114608764648e+00 3.062357187271118164e+00 -2.254332182928919792e-03 1.165917329490184784e-02 2.821452217176556587e-03 -5.601663142442703247e-02
1.177000000000000000e+03 4.536215305328369141e+00 5.209354877471923828e+00 -1.259685158729553223e-01 -2.405491285026073456e-02 -4.500702768564224243e-02 -1.044240081682801247e-03
1.178000000000000000e+03 6.476036906242370605e-01 9.320953369140625000e+00 -8.596747182309627533e-03 -1.148256473243236542e-03 -2.923501189798116684e-03 4.956130683422088623e-02
1.179000000000000000e+03 6.311192512512207031e-01 1.216079521179199219e+01 -1.412688987329602242e-03 -2.633964419364929199e-01 -7.944273948669433594e-02 6.902939081192016602e-02
1.180000000000000000e+03 1.892599344253540039e+00 1.230747127532958984e+01 -6.734648253768682480e-03 -2.799215614795684814e-01 -8.599685877561569214e-02 1.959223896265029907e-01
1.181000000000000000e+03 6.312668919563293457e-01 1.638068962097167969e+01 1.160726789385080338e-02 -7.021363973617553711e-01 -2.071587294340133667e-01 3.999941051006317139e-02
1.182000000000000000e+03 6.659917235374450684e-01 1.778476905822753906e+01 4.862130153924226761e-03 -7.706916332244873047e-01 -2.297488451004028320e-01 2.197726443409919739e-02
1.183000000000000000e+03 6.761367917060852051e-01 2.205288505554199219e+01 1.441327738575637341e-03 -7.812673449516296387e-01 -2.339477986097335815e-01 -1.379204727709293365e-02
1.184000000000000000e+03 3.123358964920043945e+00 2.378544998168945312e+01 -3.080712072551250458e-02 -6.757037639617919922e-01 -2.119532525539398193e-01 -9.148298762738704681e-03
1.185000000000000000e+03 4.472605705261230469e+00 2.505732345581054688e+01 -1.010964810848236084e-01 -6.640202403068542480e-01 -2.295350134372711182e-01 5.033265426754951477e-02
1.186000000000000000e+03 1.941266417503356934e+00 2.502467346191406250e+01 -2.944712899625301361e-02 -7.246958613395690918e-01 -2.262428998947143555e-01 7.279023528099060059e-03
1.187000000000000000e+03 1.731144785881042480e+00 2.931181907653808594e+01 -2.081906795501708984e-02 -8.518067002296447754e-01 -2.617877423763275146e-01 1.157896071672439575e-01
1.188000000000000000e+03 5.342823266983032227e-01 3.050033569335937500e+01 -9.191820397973060608e-03 -1.022129178047180176e+00 -3.093962967395782471e-01 4.448268935084342957e-02
1.189000000000000000e+03 4.206912517547607422e+00 3.024418830871582031e+01 2.501267567276954651e-02 -7.257691025733947754e-01 -2.102269232273101807e-01 1.409900039434432983e-01
1.190000000000000000e+03 6.066543459892272949e-01 3.594582748413085938e+01 4.856826271861791611e-03 -1.214204072952270508e+00 -3.628041744232177734e-01 -1.672666706144809723e-02
1.191000000000000000e+03 2.130247116088867188e+00 3.673319625854492188e+01 1.830219849944114685e-02 -9.805678129196166992e-01 -2.886796891689300537e-01 -3.850952908396720886e-02
1.192000000000000000e+03 9.315068721771240234e-01 3.870148849487304688e+01 5.874806083738803864e-03 -1.082591056823730469e+00 -3.230148851871490479e-01 -4.603153467178344727e-02
1.193000000000000000e+03 1.278705239295959473e+00 4.010821914672851562e+01 2.269385941326618195e-02 -9.995362758636474609e-01 -2.930527329444885254e-01 -6.960080564022064209e-02
1.194000000000000000e+03 9.471217155456542969e+00 1.873904585838317871e+00 4.709193855524063110e-02 -4.411258548498153687e-02 8.938049431890249252e-04 2.049509622156620026e-02
1.195000000000000000e+03 8.740417480468750000e+00 1.866906285285949707e+00 5.956170335412025452e-02 -3.394613787531852722e-02 7.684669923037290573e-03 9.275336749851703644e-03
1.196000000000000000e+03 7.998885154724121094e+00 1.867552042007446289e+00 6.317345052957534790e-02 -2.990240417420864105e-02 9.981313720345497131e-03 -1.536041870713233948e-02
1.197000000000000000e+03 7.249485492706298828e+00 1.868587970733642578e+00 6.136742606759071350e-02 -1.819516532123088837e-02 1.295167766511440277e-02 -2.966919355094432831e-02
1.198000000000000000e+03 6.499751567840576172e+00 1.873139381408691406e+00 6.077718362212181091e-02 -1.491813827306032181e-02 1.375771313905715942e-02 -4.353294149041175842e-02
1.199000000000000000e+03 5.750339508056640625e+00 1.883373975753784180e+00 5.424933135509490967e-02 -5.886938888579607010e-03 1.450871676206588745e-02 -4.920078814029693604e-02
1.200000000000000000e+03 4.996278285980224609e+00 1.901759624481201172e+00 4.971755668520927429e-02 -6.469918880611658096e-03 1.297429110854864120e-02 -5.440684407949447632e-02
1.201000000000000000e+03 4.238501548767089844e+00 1.931782722473144531e+00 4.088380560278892517e-02 2.455580979585647583e-04 1.233880966901779175e-02 -5.679472163319587708e-02
1.202000000000000000e+03 3.477961063385009766e+00 1.975593686103820801e+00 3.394005075097084045e-02 1.561935408972203732e-03 1.065059565007686615e-02 -5.668916925787925720e-02
1.203000000000000000e+03 1.938860535621643066e+00 2.093202829360961914e+00 1.585481874644756317e-02 2.016001380980014801e-02 1.080445013940334320e-02 -4.457604885101318359e-02
1.204000000000000000e+03 1.162266016006469727e+00 2.149612188339233398e+00 7.324841339141130447e-03 3.128061443567276001e-02 1.158163696527481079e-02 -3.180494159460067749e-02
1.205000000000000000e+03 1.141278171539306641e+01 8.321618080139160156e+00 -6.827137470245361328e-01 -6.361160278320312500e-01 -3.956489264965057373e-01 6.941554546356201172e-01
1.206000000000000000e+03 1.220971775054931641e+01 2.331870079040527344e+00 -1.605390310287475586e-01 -4.116436094045639038e-02 -6.051101535558700562e-02 1.806712299585342407e-01
1.207000000000000000e+03 1.431608963012695312e+01 3.727113962173461914e+00 -5.076857209205627441e-01 -3.096884302794933319e-02 -1.615963578224182129e-01 5.674381256103515625e-01
1.208000000000000000e+03 1.443647193908691406e+01 2.899450778961181641e+00 -5.219228267669677734e-01 1.239426899701356888e-02 -1.528585702180862427e-01 4.259091019630432129e-01
1.209000000000000000e+03 1.520623493194580078e+01 3.042549133300781250e+00 -6.780840754508972168e-01 6.016283482313156128e-02 -1.853763610124588013e-01 4.781770706176757812e-01
1.210000000000000000e+03 1.861160659790039062e+01 4.204251289367675781e+00 -6.939028501510620117e-01 1.360971201211214066e-02 -2.040879428386688232e-01 3.401139974594116211e-01
1.211000000000000000e+03 1.858595848083496094e+01 3.347353458404541016e+00 -1.049823403358459473e+00 -8.453845977783203125e-02 -3.403085470199584961e-01 3.444204926490783691e-01
1.212000000000000000e+03 2.247843933105468750e+01 2.504454612731933594e+00 -1.246272206306457520e+00 -1.087477803230285645e-01 -4.065059721469879150e-01 3.148750364780426025e-01
1.213000000000000000e+03 2.097866821289062500e+01 3.521513462066650391e+00 -8.955824375152587891e-01 -1.535908430814743042e-01 -3.147519826889038086e-01 2.162202596664428711e-01
1.214000000000000000e+03 2.326102828979492188e+01 2.308411359786987305e+00 -1.247839927673339844e+00 -1.239339858293533325e-01 -4.115321934223175049e-01 3.350785672664642334e-01
1.215000000000000000e+03 2.403448486328125000e+01 2.092145204544067383e+00 -1.241369724273681641e+00 -9.729211032390594482e-02 -4.015985429286956787e-01 3.527108132839202881e-01
1.216000000000000000e+03 2.479345130920410156e+01 1.877345204353332520e+00 -1.265642285346984863e+00 -8.399637788534164429e-02 -4.048915803432464600e-01 3.523434996604919434e-01
1.217000000000000000e+03 2.858028602600097656e+01 9.944029450416564941e-01 -1.340980887413024902e+00 2.400823980569839478e-01 -3.302695751190185547e-01 1.209583654999732971e-01
1.218000000000000000e+03 2.989893722534179688e+01 4.870621681213378906e+00 2.052903622388839722e-01 8.011659383773803711e-01 3.019368946552276611e-01 -3.447465598583221436e-01
1.219000000000000000e+03 2.937091827392578125e+01 8.384999036788940430e-01 -1.386853337287902832e+00 3.222809731960296631e-01 -3.193717002868652344e-01 -1.077651605010032654e-02
1.220000000000000000e+03 3.014658737182617188e+01 6.378968954086303711e-01 -1.357866406440734863e+00 3.070849478244781494e-01 -3.152344226837158203e-01 -7.375592738389968872e-02
1.221000000000000000e+03 3.120311164855957031e+01 1.198957920074462891e+00 -1.390998125076293945e+00 3.811389207839965820e-01 -3.029577434062957764e-01 -1.856961399316787720e-01
1.222000000000000000e+03 3.315704727172851562e+01 1.851874709129333496e+00 -2.940997362136840820e+00 -1.981814354658126831e-01 -9.417536258697509766e-01 9.105584621429443359e-01
1.223000000000000000e+03 2.660382080078125000e+01 2.861384391784667969e+00 -8.403068780899047852e-01 9.635136276483535767e-02 -2.231866568326950073e-01 2.381516695022583008e-01
1.224000000000000000e+03 4.166169738769531250e+01 3.369595289230346680e+00 -9.373732209205627441e-01 1.768382340669631958e-01 -2.281605005264282227e-01 -6.205832958221435547e-01
1.225000000000000000e+03 4.118862152099609375e+01 2.666964054107666016e+00 -1.973434090614318848e+00 2.347128689289093018e-01 -5.216163992881774902e-01 -2.549221813678741455e-01
1.226000000000000000e+03 4.197659301757812500e+01 2.297164201736450195e+00 -1.427691221237182617e+00 2.820661365985870361e-01 -3.436875343322753906e-01 -1.149620935320854187e-01
1.227000000000000000e+03 4.445568847656250000e+01 1.345837354660034180e+00 -6.284352540969848633e-01 5.411222577095031738e-01 -2.619389072060585022e-02 -6.071627736091613770e-01
1.228000000000000000e+03 4.605750656127929688e+01 9.310511350631713867e-01 4.482771456241607666e-01 4.509567022323608398e-01 2.697701454162597656e-01 -1.106617808341979980e+00
1.229000000000000000e+03 4.872828674316406250e+01 8.879684805870056152e-01 4.392067432403564453e+00 1.953618526458740234e+00 1.903705835342407227e+00 -3.819828510284423828e+00
1.230000000000000000e+03 4.776834869384765625e+01 7.381219863891601562e-01 2.387208700180053711e+00 5.009137392044067383e-01 8.664367198944091797e-01 -1.864731550216674805e+00
1.231000000000000000e+03 4.891312026977539062e+01 9.354900717735290527e-01 4.619890689849853516e+00 2.553264141082763672e+00 2.151946306228637695e+00 -4.270012855529785156e+00
1.232000000000000000e+03 4.945130538940429688e+01 1.098128437995910645e+00 3.982856035232543945e+00 5.799431800842285156e+00 2.934686422348022461e+00 -5.435788154602050781e+00
1.233000000000000000e+03 4.978235626220703125e+01 -2.262746572494506836e+00 2.628615200519561768e-01 9.345298767089843750e+00 2.882447957992553711e+00 3.110676527023315430e+00
1.234000000000000000e+03 4.881571578979492188e+01 -2.573309183120727539e+00 1.362923145294189453e+00 3.704075098037719727e+00 1.520099520683288574e+00 1.724989056587219238e+00
1.235000000000000000e+03 4.835055541992187500e+01 -2.571479082107543945e+00 1.287675976753234863e+00 2.155321359634399414e+00 1.032899141311645508e+00 8.858194351196289062e-01
1.236000000000000000e+03 4.833348083496093750e+01 -2.882705450057983398e+00 1.318749427795410156e+00 2.337615013122558594e+00 1.096909403800964355e+00 9.289723634719848633e-01
1.237000000000000000e+03 4.764089584350585938e+01 -3.976417303085327148e+00 1.001563191413879395e+00 1.894563555717468262e+00 8.688380122184753418e-01 4.254123866558074951e-01
1.238000000000000000e+03 4.794928359985351562e+01 -2.794780015945434570e+00 1.243325233459472656e+00 1.285450577735900879e+00 7.586327195167541504e-01 5.823946595191955566e-01
1.239000000000000000e+03 4.680989837646484375e+01 -2.980540990829467773e+00 8.601371645927429199e-01 -8.933042734861373901e-02 2.312420159578323364e-01 -1.863396018743515015e-01
1.240000000000000000e+03 4.436017227172851562e+01 -2.470269918441772461e+00 1.158425435423851013e-01 -6.211346983909606934e-01 -1.515876501798629761e-01 4.141972959041595459e-01
1.241000000000000000e+03 4.054142379760742188e+01 -1.291236400604248047e+00 -5.102928280830383301e-01 1.970053613185882568e-01 -9.398624300956726074e-02 2.873574197292327881e-01
1.242000000000000000e+03 4.120510864257812500e+01 -1.710327148437500000e+00 -2.984969615936279297e-01 2.212178856134414673e-01 -2.318372391164302826e-02 4.776366651058197021e-01
1.243000000000000000e+03 4.204845428466796875e+01 -2.082547187805175781e+00 4.788506403565406799e-02 -1.162274405360221863e-01 -2.050271257758140564e-02 6.612967252731323242e-01
1.244000000000000000e+03 3.867138671875000000e+01 -2.917906641960144043e-01 -1.030174732208251953e+00 3.381078839302062988e-01 -2.076200544834136963e-01 2.415195107460021973e-02
1.245000000000000000e+03 3.353177261352539062e+01 -2.495532512664794922e+00 -4.937369525432586670e-01 -9.616341441869735718e-02 -1.769701093435287476e-01 -4.405988752841949463e-01
1.246000000000000000e+03 3.608711242675781250e+01 -2.254390001296997070e+00 -3.229594230651855469e-01 1.823363900184631348e-01 -4.218691214919090271e-02 -2.684487998485565186e-01
1.247000000000000000e+03 3.504795455932617188e+01 -1.897545576095581055e+00 -5.844321250915527344e-01 8.224137127399444580e-03 -1.728623956441879272e-01 -4.352692961692810059e-01
1.248000000000000000e+03 3.668098068237304688e+01 -3.404090881347656250e+00 1.068466305732727051e-01 5.663582682609558105e-01 2.019614726305007935e-01 -9.144545532763004303e-03
1.249000000000000000e+03 3.718904876708984375e+01 -9.617592692375183105e-01 -8.633939027786254883e-01 1.766343414783477783e-01 -2.060278803110122681e-01 -1.381679624319076538e-01
1.250000000000000000e+03 3.926512908935546875e+01 -4.355060100555419922e+00 1.308236598968505859e+00 8.276622891426086426e-01 6.407696604728698730e-01 9.957066774368286133e-01
1.251000000000000000e+03 3.186108398437500000e+01 -3.096683502197265625e+00 -3.818781971931457520e-01 -2.425504326820373535e-01 -1.873285919427871704e-01 -2.237590849399566650e-01
1.252000000000000000e+03 3.099287033081054688e+01 -3.368075370788574219e+00 -8.728551119565963745e-02 -8.158764839172363281e-01 -2.709485888481140137e-01 -1.113719940185546875e-01
1.253000000000000000e+03 3.012456321716308594e+01 -3.410970687866210938e+00 3.504326045513153076e-01 -1.811870783567428589e-01 5.077366158366203308e-02 -2.087930887937545776e-01
1.254000000000000000e+03 2.869691848754882812e+01 -3.056143522262573242e+00 5.331006050109863281e-01 1.055840969085693359e+00 4.766824841499328613e-01 -9.779903888702392578e-01
1.255000000000000000e+03 2.934109497070312500e+01 -3.192212581634521484e+00 3.448084294795989990e-01 -7.202219367027282715e-01 -1.126240417361259460e-01 1.697934865951538086e-01
1.256000000000000000e+03 3.150944519042968750e+01 -5.995902538299560547e+00 1.335903108119964600e-01 -5.989485979080200195e-01 -1.396074891090393066e-01 -2.319957911968231201e-01
1.257000000000000000e+03 2.598264503479003906e+01 -1.315138244628906250e+01 -1.664212346076965332e+00 -4.313819706439971924e-01 -6.286782622337341309e-01 -7.463673353195190430e-01
1.258000000000000000e+03 1.750612449645996094e+01 -9.839964866638183594e+00 1.125751435756683350e-02 3.426209986209869385e-01 1.061635538935661316e-01 -1.153104603290557861e-01
1.259000000000000000e+03 1.752641105651855469e+01 -4.190567493438720703e+00 -3.020998090505599976e-03 4.476991295814514160e-01 1.334034353494644165e-01 1.532699316740036011e-01
1.260000000000000000e+03 1.514054298400878906e+01 -1.905006885528564453e+00 -1.068909093737602234e-01 -1.862796097993850708e-01 -8.795115351676940918e-02 -1.474029123783111572e-01
1.261000000000000000e+03 1.921982002258300781e+01 -1.627801179885864258e+00 -9.898156672716140747e-02 -1.811129152774810791e-01 -8.402834087610244751e-02 3.416073024272918701e-01
1.262000000000000000e+03 1.899276924133300781e+01 -4.523146748542785645e-01 -3.232744038105010986e-01 2.042752876877784729e-02 -9.085406363010406494e-02 -6.292076408863067627e-02
1.263000000000000000e+03 1.959267044067382812e+01 -6.227410435676574707e-01 -4.873750731348991394e-02 4.641048982739448547e-02 -6.981051992624998093e-04 2.135667502880096436e-01
1.264000000000000000e+03 1.821515464782714844e+01 -1.206480026245117188e+00 -3.541312515735626221e-01 -1.607080176472663879e-02 -1.110606119036674500e-01 1.727720499038696289e-01
1.265000000000000000e+03 1.656606101989746094e+01 -6.277500391006469727e-01 -3.058267235755920410e-01 3.247944712638854980e-01 5.690331105142831802e-03 -1.166714131832122803e-01
1.266000000000000000e+03 1.361086845397949219e+01 -1.208227753639221191e+00 -2.821086645126342773e-01 1.087646484375000000e-01 -5.200320854783058167e-02 -1.168951764702796936e-01
1.267000000000000000e+03 1.600800132751464844e+01 -2.861096143722534180e+00 -1.636311225593090057e-02 2.197048452217131853e-04 -4.843022208660840988e-03 -1.219593286514282227e-01
1.268000000000000000e+03 1.433663749694824219e+01 -1.075472235679626465e+00 -2.509615421295166016e-01 -2.023202329874038696e-01 -1.359845399856567383e-01 -1.540905386209487915e-01
1.269000000000000000e+03 1.131406974792480469e+01 -1.611239552497863770e+00 -2.004902660846710205e-01 -1.746480762958526611e-01 -1.125415042042732239e-01 -1.609402745962142944e-01
1.270000000000000000e+03 1.053803062438964844e+01 -1.746143937110900879e+00 -1.753764748573303223e-01 4.816314950585365295e-02 -3.816400095820426941e-02 -1.051325127482414246e-01
1.271000000000000000e+03 5.515815734863281250e+01 -2.325227165222167969e+01 1.756351709365844727e+00 9.204349517822265625e+00 3.288210391998291016e+00 2.912176609039306641e+00
1.272000000000000000e+03 7.353356170654296875e+01 -1.830861282348632812e+01 7.564625740051269531e-01 7.178866386413574219e+00 2.380598783493041992e+00 -1.203067421913146973e+00
1.273000000000000000e+03 6.510123443603515625e+01 -2.316376113891601562e+01 3.097073793411254883e+00 1.118788433074951172e+01 4.285487651824951172e+00 -4.456727981567382812e+00
1.274000000000000000e+03 4.468259429931640625e+01 -3.476602315902709961e+00 2.859002351760864258e-01 -8.954270482063293457e-01 -1.828580498695373535e-01 4.687834680080413818e-01
1.275000000000000000e+03 5.248208236694335938e+01 -7.598913192749023438e+00 1.434475660324096680e+00 1.110147190093994141e+01 3.760784149169921875e+00 -1.411525964736938477e+00
1.276000000000000000e+03 3.987381362915039062e+01 -1.250563049316406250e+01 -7.821826934814453125e-01 -7.547741383314132690e-02 -2.572980225086212158e-01 3.278275430202484131e-01
1.277000000000000000e+03 3.702133178710937500e+01 -1.036369514465332031e+01 5.239935964345932007e-02 1.126328468322753906e+00 3.536183536052703857e-01 -2.357847988605499268e-02
1.278000000000000000e+03 6.353380584716796875e+01 -3.977663421630859375e+01 -1.246183276176452637e+00 9.210934638977050781e-01 -9.752696752548217773e-02 4.363319575786590576e-01
1.279000000000000000e+03 5.614177322387695312e+01 -3.177432250976562500e+01 1.252426981925964355e+00 1.025539493560791016e+01 3.452346563339233398e+00 2.181941986083984375e+00
1.280000000000000000e+03 1.652680206298828125e+01 -1.589690685272216797e+01 1.466440409421920776e-01 4.191685914993286133e-01 1.697437912225723267e-01 -2.830009162425994873e-01
1.281000000000000000e+03 1.385679531097412109e+01 -2.818659400939941406e+01 -3.483739122748374939e-02 -3.588893115520477295e-01 -1.181180104613304138e-01 -1.755051314830780029e-01
1.282000000000000000e+03 7.815150737762451172e+00 -1.387736988067626953e+01 -2.023264765739440918e-01 -2.117808312177658081e-01 -1.242321953177452087e-01 -2.221048921346664429e-01
1.283000000000000000e+03 5.470328521728515625e+01 1.438056850433349609e+01 1.860445380210876465e+00 8.080097198486328125e+00 2.982162952423095703e+00 -1.871763348579406738e+00
1.284000000000000000e+03 5.471048355102539062e+01 9.105494499206542969e+00 1.364972710609436035e+00 1.415556526184082031e+01 4.656161308288574219e+00 2.367412805557250977e+00
1.285000000000000000e+03 4.231249618530273438e+01 4.859579563140869141e+00 -3.454829454421997070e-01 9.275138974189758301e-01 1.746092885732650757e-01 -4.024139940738677979e-01
1.286000000000000000e+03 1.750465774536132812e+01 1.790537071228027344e+01 -4.362902641296386719e-01 -1.829406619071960449e-01 -1.857692748308181763e-01 2.931558489799499512e-01
1.287000000000000000e+03 1.953787994384765625e+01 4.047205924987792969e+00 -7.428794503211975098e-01 -8.492428064346313477e-02 -2.483411133289337158e-01 2.524593472480773926e-01
1.288000000000000000e+03 9.395039558410644531e+00 9.811360359191894531e+00 -4.820841550827026367e-01 -6.595993041992187500e-01 -3.425050377845764160e-01 4.355562627315521240e-01
1.289000000000000000e+03 1.014912891387939453e+01 1.557557296752929688e+01 4.063907265663146973e-01 5.508169531822204590e-01 2.871623039245605469e-01 4.530571401119232178e-01
1.290000000000000000e+03 3.899780654907226562e+01 -1.867916297912597656e+01 1.120748966932296753e-01 -2.024916373193264008e-02 2.754771895706653595e-02 -3.050820343196392059e-02
1.291000000000000000e+03 3.973002243041992188e+01 -2.115654754638671875e+01 7.615941017866134644e-02 9.337881803512573242e-01 3.029842674732208252e-01 4.164292812347412109e-01
1.292000000000000000e+03 3.480577850341796875e+01 -2.871550369262695312e+01 -2.399724572896957397e-01 1.547610312700271606e-01 -2.556342817842960358e-02 -3.016573749482631683e-02
1.293000000000000000e+03 3.018698310852050781e+01 -1.732696533203125000e+01 5.575917959213256836e-01 1.102666735649108887e+00 4.980775713920593262e-01 6.342059373855590820e-01
1.294000000000000000e+03 2.423371887207031250e+01 -3.001419639587402344e+01 1.522576808929443359e-01 4.152548313140869141e-01 1.702537536621093750e-01 -2.442769706249237061e-01
1.295000000000000000e+03 2.503404426574707031e+01 -3.632236099243164062e+01 5.254113301634788513e-02 3.671423494815826416e-01 1.259050518274307251e-01 8.978810161352157593e-02
1.296000000000000000e+03 1.276659774780273438e+01 -3.373239135742187500e+01 -2.920699492096900940e-02 -2.303499728441238403e-01 -7.786709070205688477e-02 -7.897956669330596924e-02
1.297000000000000000e+03 1.303700542449951172e+01 -3.239090347290039062e+01 -5.873343721032142639e-02 -3.805528283119201660e-01 -1.317858695983886719e-01 -1.405244320631027222e-01
1.298000000000000000e+03 1.597301673889160156e+01 -2.753913497924804688e+01 1.696123927831649780e-02 -2.308026552200317383e-01 -6.415242701768875122e-02 -1.338183134794235229e-01
1.299000000000000000e+03 1.360194873809814453e+01 3.464155578613281250e+01 4.208130389451980591e-02 -1.472944114357233047e-02 8.205558173358440399e-03 5.173095688223838806e-02
1.300000000000000000e+03 1.504962921142578125e+01 3.430837249755859375e+01 -3.684104979038238525e-02 -6.106486171483993530e-02 -2.937177382409572601e-02 6.847845762968063354e-02
1.301000000000000000e+03 1.932284736633300781e+01 3.129151535034179688e+01 -1.080968976020812988e-01 -2.087996900081634521e-01 -9.506897628307342529e-02 1.039693653583526611e-01
1.302000000000000000e+03 2.275321388244628906e+01 2.439246749877929688e+01 1.069840267300605774e-01 4.662899076938629150e-01 1.719821840524673462e-01 2.291897386312484741e-01
1.303000000000000000e+03 1.442814636230468750e+01 2.169115829467773438e+01 4.155374467372894287e-01 2.181626707315444946e-01 1.901100426912307739e-01 4.892797470092773438e-01
1.304000000000000000e+03 1.304541301727294922e+01 2.273124694824218750e+01 2.791787087917327881e-01 5.514598265290260315e-02 1.002974063158035278e-01 1.793290376663208008e-01
1.305000000000000000e+03 6.477798461914062500e+00 2.540972137451171875e+01 -2.252936363220214844e-01 -6.280934214591979980e-01 -2.560161352157592773e-01 2.766988575458526611e-01
1.306000000000000000e+03 7.095997619628906250e+01 1.642848205566406250e+01 1.192669987678527832e+00 5.733263492584228516e+00 2.077780008316040039e+00 -2.392220735549926758e+00
1.307000000000000000e+03 6.498548889160156250e+01 6.305676460266113281e+00 -1.891912341117858887e+00 1.844477653503417969e-01 -5.122393369674682617e-01 1.549570560455322266e-01
1.308000000000000000e+03 6.079576110839843750e+01 1.479856586456298828e+01 7.595454454421997070e-01 1.281025218963623047e+01 4.070939064025878906e+00 1.677707910537719727e+00
1.309000000000000000e+03 6.207874298095703125e+01 1.864423179626464844e+01 4.089225292205810547e+00 9.458808898925781250e+00 4.064410209655761719e+00 5.385214805603027344e+00
1.310000000000000000e+03 3.231905746459960938e+01 1.673095703125000000e+01 3.970584869384765625e-01 1.254822373390197754e+00 4.955642819404602051e-01 4.840797930955886841e-02
1.311000000000000000e+03 2.768117523193359375e+01 1.432160854339599609e+01 2.068115323781967163e-01 1.426162570714950562e-01 1.048283427953720093e-01 4.754364117980003357e-02
1.312000000000000000e+03 2.226342964172363281e+01 2.177198028564453125e+01 2.126085944473743439e-02 3.448131680488586426e-01 1.098222136497497559e-01 -1.254820544272661209e-02
1.313000000000000000e+03 2.187095069885253906e+01 2.785730743408203125e+01 3.656815886497497559e-01 4.226801693439483643e-01 2.365085333585739136e-01 4.020983576774597168e-01
1.314000000000000000e+03 4.786125183105468750e+01 2.999693298339843750e+01 1.123075604438781738e+00 4.077578544616699219e+00 1.560196280479431152e+00 -6.570096611976623535e-01
1.315000000000000000e+03 4.610251235961914062e+01 2.609168624877929688e+01 6.919047236442565918e-01 4.774555206298828125e+00 1.639937996864318848e+00 5.925920009613037109e-01
1.316000000000000000e+03 4.330023574829101562e+01 2.211412239074707031e+01 -5.765630602836608887e-01 1.170599937438964844e+00 1.782110482454299927e-01 6.483976840972900391e-01
1.317000000000000000e+03 3.585734176635742188e+01 2.521895027160644531e+01 9.770458340644836426e-01 3.132116317749023438e+00 1.232748627662658691e+00 -1.317182064056396484e+00
1.318000000000000000e+03 6.499895477294921875e+01 2.883610153198242188e+01 1.091061830520629883e+00 7.022861957550048828e+00 2.434177160263061523e+00 1.420977711677551270e+00
1.319000000000000000e+03 5.975678253173828125e+01 2.352848815917968750e+01 -4.986849308013916016e+00 6.161882281303405762e-01 -1.311198353767395020e+00 -6.627964228391647339e-02
1.320000000000000000e+03 5.503448486328125000e+01 3.390118026733398438e+01 6.463093757629394531e-01 3.060966491699218750e+00 1.112182736396789551e+00 1.349188804626464844e+00
1.321000000000000000e+03 7.939170074462890625e+01 -9.795802116394042969e+00 1.381379216909408569e-01 8.962434768676757812e+00 2.730171680450439453e+00 -5.844227075576782227e-01
1.322000000000000000e+03 6.608689117431640625e+01 -9.396720886230468750e+00 2.308662652969360352e+00 7.558120250701904297e+00 2.960034847259521484e+00 -3.847765684127807617e+00
1.323000000000000000e+03 6.393371963500976562e+01 -5.664746761322021484e+00 1.798972249031066895e+00 1.003456974029541016e+01 3.550062417984008789e+00 -9.945614933967590332e-01
1.324000000000000000e+03 4.089975738525390625e+01 -2.886836624145507812e+01 7.095540165901184082e-01 2.809171676635742188e+00 1.055617690086364746e+00 1.608611822128295898e+00
1.325000000000000000e+03 6.042720794677734375e+01 -2.120260953903198242e+00 3.314747810363769531e+00 1.010098457336425781e+01 4.024719715118408203e+00 -4.673395156860351562e+00
1.326000000000000000e+03 5.462019729614257812e+01 -8.978055000305175781e+00 1.436383485794067383e+00 2.765456676483154297e+00 1.260552048683166504e+00 -2.184119462966918945e+00
1.327000000000000000e+03 4.613592147827148438e+01 1.585139274597167969e+00 5.098898410797119141e-01 9.055774211883544922e-01 4.246401786804199219e-01 -1.711077809333801270e+00
1.328000000000000000e+03 4.731136322021484375e+01 7.478695511817932129e-01 1.775054335594177246e+00 3.809455037117004395e-01 6.467999815940856934e-01 -1.592197775840759277e+00
1.329000000000000000e+03 4.864747619628906250e+01 6.415793895721435547e+00 -4.208283126354217529e-01 2.167235374450683594e+00 5.239220857620239258e-01 -1.303427338600158691e+00
1.330000000000000000e+03 5.033053970336914062e+01 1.356296777725219727e+00 1.753078341484069824e+00 1.165581607818603516e+01 4.022668361663818359e+00 -2.920685529708862305e+00
1.331000000000000000e+03 4.826674652099609375e+01 1.150740623474121094e+00 3.286873102188110352e+00 1.530742287635803223e+00 1.445284605026245117e+00 -3.286903619766235352e+00
1.332000000000000000e+03 4.763031387329101562e+01 -2.771806478500366211e+00 1.142019033432006836e+00 7.550601363182067871e-01 5.691237449645996094e-01 1.795098483562469482e-01
1.333000000000000000e+03 4.662802886962890625e+01 -6.797175407409667969e+00 -1.494431734085083008e+00 -1.694075584411621094e+00 -9.565522074699401855e-01 1.554238319396972656e+00
1.334000000000000000e+03 5.250182723999023438e+01 -4.952219009399414062e+00 8.074163198471069336e-01 1.962178230285644531e+01 6.128759860992431641e+00 -3.447840809822082520e-01
1.335000000000000000e+03 4.823788452148437500e+01 -6.213556289672851562e+00 -3.334586918354034424e-01 4.307003498077392578e+00 1.192063570022583008e+00 1.404421806335449219e+00
1.336000000000000000e+03 4.955965423583984375e+01 -2.825288772583007812e+00 6.499805450439453125e-01 7.726665496826171875e+00 2.512993812561035156e+00 2.246531724929809570e+00
1.337000000000000000e+03 4.779149246215820312e+01 -2.652644157409667969e+00 1.143115282058715820e+00 9.859696626663208008e-01 6.387254595756530762e-01 3.353416621685028076e-01
1.338000000000000000e+03 4.901990890502929688e+01 -2.490777015686035156e+00 1.293915867805480957e+00 4.558717727661132812e+00 1.755790114402770996e+00 2.057367801666259766e+00
1.339000000000000000e+03 4.999979019165039062e+01 -2.229628086090087891e+00 -5.466808006167411804e-02 1.107359886169433594e+01 3.305679321289062500e+00 3.217639207839965820e+00
1.340000000000000000e+03 4.941056823730468750e+01 -5.693400859832763672e+00 4.812062382698059082e-01 6.871032714843750000e+00 2.205671548843383789e+00 1.593273878097534180e+00
1.341000000000000000e+03 4.859182357788085938e+01 -3.037758827209472656e+00 1.365174651145935059e+00 3.594644784927368164e+00 1.487945795059204102e+00 1.306397438049316406e+00
1.342000000000000000e+03 4.204886245727539062e+01 -3.362472057342529297e+00 7.972154617309570312e-01 6.583550572395324707e-02 2.589152753353118896e-01 2.262169420719146729e-01
1.343000000000000000e+03 3.892099380493164062e+01 -7.292151451110839844e-01 -8.149462342262268066e-01 4.705199003219604492e-01 -1.033278927206993103e-01 3.807336464524269104e-02
1.344000000000000000e+03 4.010070800781250000e+01 -1.982209801673889160e+00 -2.512955665588378906e-01 4.515676498413085938e-01 6.008161604404449463e-02 2.392597943544387817e-01
1.345000000000000000e+03 1.291388988494873047e+01 2.534831047058105469e+00 -2.593483924865722656e-01 -4.487134516239166260e-02 -9.126592427492141724e-02 2.716225981712341309e-01
1.346000000000000000e+03 1.204539394378662109e+01 2.938762903213500977e+00 -2.266280651092529297e-01 -9.506496042013168335e-02 -9.650790691375732422e-02 2.295128107070922852e-01
1.347000000000000000e+03 1.078644752502441406e+01 2.873126983642578125e+00 -1.353350579738616943e-01 -9.286087006330490112e-02 -6.845878064632415771e-02 1.210684850811958313e-01
1.348000000000000000e+03 1.149084091186523438e+01 4.488480091094970703e+00 -3.375521600246429443e-01 -2.539982199668884277e-01 -1.774651110172271729e-01 2.681425213813781738e-01
1.349000000000000000e+03 1.009794902801513672e+01 2.731231451034545898e+00 -8.314695209264755249e-02 -8.527559041976928711e-02 -5.052676424384117126e-02 6.830736994743347168e-02
1.350000000000000000e+03 1.506401157379150391e+01 -9.402124881744384766e-01 -3.137570619583129883e-01 2.051276266574859619e-01 -3.258883580565452576e-02 -1.430544555187225342e-01
1.351000000000000000e+03 1.286128807067871094e+01 -1.341778039932250977e+00 -2.383226603269577026e-01 -1.785906106233596802e-01 -1.250739842653274536e-01 -1.751746535301208496e-01
1.352000000000000000e+03 1.424632072448730469e+01 -3.842414140701293945e+00 -9.383773431181907654e-03 6.871506571769714355e-02 1.779938861727714539e-02 -2.015381120145320892e-02
1.353000000000000000e+03 1.696718025207519531e+01 -2.897570848464965820e+00 -1.902587711811065674e-03 2.230105549097061157e-01 6.633239239454269409e-02 9.894883632659912109e-02
1.354000000000000000e+03 4.144917011260986328e+00 -2.524976730346679688e+00 -1.889090053737163544e-02 1.052924804389476776e-02 -2.508495468646287918e-03 -1.602932438254356384e-02
1.355000000000000000e+03 6.765569210052490234e+00 -2.541285991668701172e+00 -5.737220495939254761e-02 2.335533685982227325e-02 -1.020505931228399277e-02 -5.516734346747398376e-02
1.356000000000000000e+03 5.424067020416259766e+00 -1.817028641700744629e+00 -4.078318178653717041e-02 -7.176177948713302612e-02 -3.376348689198493958e-02 -5.937547236680984497e-02
1.357000000000000000e+03 8.161821365356445312e+00 -3.203672170639038086e+00 -6.995952874422073364e-02 -1.081477105617523193e-01 -5.343217402696609497e-02 -1.352489292621612549e-01
1.358000000000000000e+03 8.233962059020996094e+00 -2.532227516174316406e+00 -7.875698059797286987e-02 1.935922540724277496e-02 -1.781932823359966278e-02 -8.594557642936706543e-02
1.359000000000000000e+03 7.499012470245361328e+00 -2.530716896057128906e+00 -7.845289260149002075e-02 -9.843330085277557373e-02 -5.306585878133773804e-02 -1.143150180578231812e-01
1.360000000000000000e+03 6.126033306121826172e+00 -1.842284440994262695e+00 -5.575028434395790100e-02 4.329450801014900208e-02 -3.736732061952352524e-03 -2.993348613381385803e-02
1.361000000000000000e+03 6.021522998809814453e+00 -2.565361261367797852e+00 -5.101369321346282959e-02 -7.539535313844680786e-02 -3.792271390557289124e-02 -8.493769913911819458e-02
1.362000000000000000e+03 4.768680572509765625e+00 -2.409244775772094727e+00 -2.925048209726810455e-02 -5.521443113684654236e-02 -2.533947303891181946e-02 -5.902192741632461548e-02
1.363000000000000000e+03 2.374275922775268555e+00 -5.037383079528808594e+00 2.387097105383872986e-03 -3.178350254893302917e-02 -8.818921633064746857e-03 -1.414227392524480820e-02
1.364000000000000000e+03 3.796586692333221436e-01 -2.197120428085327148e+00 -3.569244407117366791e-03 2.596147591248154640e-03 -2.919290564022958279e-04 -5.322369979694485664e-04
1.365000000000000000e+03 4.271186888217926025e-01 -3.597054004669189453e+00 2.102643484249711037e-03 -6.623425055295228958e-03 -1.356234541162848473e-03 -2.707094419747591019e-03
1.366000000000000000e+03 4.650400578975677490e-01 -5.008207798004150391e+00 -1.538239070214331150e-03 -1.150346081703901291e-02 -3.912509884685277939e-03 -2.175959059968590736e-03
1.367000000000000000e+03 9.742647171020507812e+00 -2.494618177413940430e+00 -1.037096828222274780e-01 1.205230038613080978e-02 -2.749721333384513855e-02 -1.026404798030853271e-01
1.368000000000000000e+03 9.484095573425292969e+00 2.586984634399414062e+00 -4.400173947215080261e-02 -5.880633369088172913e-02 -3.084242343902587891e-02 4.398853704333305359e-02
1.369000000000000000e+03 8.097630500793457031e+00 2.605236768722534180e+00 -2.172643132507801056e-02 -5.149571225047111511e-02 -2.196664363145828247e-02 -4.376566968858242035e-03
1.370000000000000000e+03 7.361816883087158203e+00 2.603889942169189453e+00 -1.341443322598934174e-02 -3.790416195988655090e-02 -1.539557892829179764e-02 -2.859200723469257355e-02
1.371000000000000000e+03 6.631054878234863281e+00 2.617715358734130859e+00 -1.109873224049806595e-02 -2.106145955622196198e-02 -9.648057632148265839e-03 -3.699449077248573303e-02
1.372000000000000000e+03 5.903921604156494141e+00 2.643176794052124023e+00 -2.812779508531093597e-03 -1.833153888583183289e-02 -6.343295797705650330e-03 -4.767443612217903137e-02
1.373000000000000000e+03 2.625417232513427734e+00 7.035871505737304688e+00 -6.142287328839302063e-02 8.276484441012144089e-04 -1.817856729030609131e-02 5.345010384917259216e-02
1.374000000000000000e+03 5.359673976898193359e+00 3.439542055130004883e+00 -5.279338359832763672e-02 -1.972233317792415619e-02 -2.175471559166908264e-02 -4.312259331345558167e-02
1.375000000000000000e+03 1.258507966995239258e+00 3.435234308242797852e+00 -3.032944863662123680e-03 5.581485852599143982e-02 1.583457365632057190e-02 -3.659506514668464661e-02
1.376000000000000000e+03 2.711542367935180664e+00 2.031694889068603516e+00 2.376491948962211609e-02 1.233397610485553741e-02 1.082966849207878113e-02 -5.367714166641235352e-02
1.377000000000000000e+03 2.082466363906860352e+00 3.253137111663818359e+00 -4.486619960516691208e-03 3.399225324392318726e-02 8.851690217852592468e-03 -5.136555433273315430e-02
1.378000000000000000e+03 1.899411010742187500e+01 -1.037740230560302734e+00 1.341963708400726318e-01 2.126407176256179810e-01 1.040511280298233032e-01 6.777757406234741211e-02
1.379000000000000000e+03 1.823752212524414062e+01 -4.510973691940307617e-01 -1.461184322834014893e-01 1.676319688558578491e-01 6.454063579440116882e-03 -3.443893045186996460e-02
1.380000000000000000e+03 3.575938034057617188e+01 -1.579514503479003906e+00 -7.089929580688476562e-01 -1.888165622949600220e-02 -2.183623760938644409e-01 -2.678106427192687988e-01
1.381000000000000000e+03 3.681473159790039062e+01 -1.913119673728942871e+00 -5.331096649169921875e-01 2.273950576782226562e-01 -9.171437472105026245e-02 -1.435414105653762817e-01
1.382000000000000000e+03 3.463798522949218750e+01 -3.061391115188598633e+00 -1.842158436775207520e-01 1.331584341824054718e-02 -5.127000063657760620e-02 -3.550712466239929199e-01
1.383000000000000000e+03 3.978567886352539062e+01 -3.517110109329223633e+00 1.184502363204956055e+00 6.698944568634033203e-01 5.563190579414367676e-01 6.309986710548400879e-01
1.384000000000000000e+03 3.789901351928710938e+01 -6.369677186012268066e-01 -8.495229482650756836e-01 3.806775510311126709e-01 -1.406536251306533813e-01 -1.248318925499916077e-01
1.385000000000000000e+03 3.821102905273437500e+01 -1.117138385772705078e+00 -7.831445336341857910e-01 3.964757025241851807e-01 -1.160006448626518250e-01 -9.370378218591213226e-03
1.386000000000000000e+03 3.270234680175781250e+01 -2.797259807586669922e+00 -5.013569593429565430e-01 -4.451038837432861328e-01 -2.839382290840148926e-01 -2.405895143747329712e-01
1.387000000000000000e+03 3.691178131103515625e+01 -6.861928939819335938e+00 4.591525793075561523e-01 1.784616708755493164e+00 6.731308102607727051e-01 4.215554296970367432e-01
1.388000000000000000e+03 1.601500701904296875e+01 3.174599885940551758e+00 -7.995310425758361816e-01 5.828981101512908936e-02 -2.223723679780960083e-01 4.746267795562744141e-01
1.389000000000000000e+03 1.304701137542724609e+01 4.481575965881347656e+00 -4.059303402900695801e-01 -2.533684372901916504e-01 -1.977896392345428467e-01 4.402914941310882568e-01
1.390000000000000000e+03 1.347844696044921875e+01 3.623092174530029297e+00 -4.040383696556091309e-01 -1.326122134923934937e-01 -1.609951704740524292e-01 4.619151055812835693e-01
1.391000000000000000e+03 1.586888790130615234e+01 3.984664678573608398e+00 -6.677257418632507324e-01 7.989306747913360596e-02 -1.763498038053512573e-01 5.863947272300720215e-01
1.392000000000000000e+03 1.147350502014160156e+01 2.823826789855957031e+00 -1.646326184272766113e-01 -9.147296845912933350e-02 -7.683167606592178345e-02 1.541611105203628540e-01
1.393000000000000000e+03 5.159372329711914062e+01 3.285532474517822266e+00 -6.005679368972778320e-01 6.138551712036132812e+00 1.661395192146301270e+00 1.981646776199340820e+00
1.394000000000000000e+03 5.278388214111328125e+01 -3.051794528961181641e+00 6.284871101379394531e-01 1.478785514831542969e+01 4.624902725219726562e+00 9.920651316642761230e-01
1.395000000000000000e+03 5.102042388916015625e+01 -2.034098625183105469e+00 -4.563686847686767578e-01 1.660996818542480469e+01 4.846079826354980469e+00 -1.836851984262466431e-01
1.396000000000000000e+03 5.183739471435546875e+01 -2.316810369491577148e+00 -4.590275585651397705e-01 1.486730003356933594e+01 4.322481632232666016e+00 -1.291345357894897461e+00
1.397000000000000000e+03 5.522026443481445312e+01 1.614108681678771973e+00 2.217444658279418945e+00 3.368049144744873047e+00 1.675648093223571777e+00 2.925914287567138672e+00
1.398000000000000000e+03 5.427891921997070312e+01 2.054899930953979492e-01 3.722160100936889648e+00 3.417156696319580078e+00 2.141795158386230469e+00 2.897251367568969727e+00
1.399000000000000000e+03 5.385934066772460938e+01 -8.754261136054992676e-01 2.890869855880737305e+00 3.873624563217163086e+00 2.029348373413085938e+00 2.297024011611938477e+00
1.400000000000000000e+03 5.067221832275390625e+01 5.136196136474609375e+00 -5.282952308654785156e+00 4.159045219421386719e-01 -1.460114359855651855e+00 -6.532230377197265625e-01
1.401000000000000000e+03 5.105216598510742188e+01 1.772815585136413574e+00 9.207144379615783691e-01 1.042557144165039062e+01 3.403885841369628906e+00 5.202385783195495605e-01
1.402000000000000000e+03 2.715883255004882812e+01 2.062387466430664062e+00 -1.069358825683593750e+00 1.537802964448928833e-01 -2.746735513210296631e-01 2.237348258495330811e-01
1.403000000000000000e+03 2.704568481445312500e+01 1.292053580284118652e+00 -1.309281826019287109e+00 7.853154093027114868e-02 -3.692250847816467285e-01 2.605327069759368896e-01
1.404000000000000000e+03 2.093947029113769531e+01 2.831284046173095703e+00 -1.265318751335144043e+00 -1.147634163498878479e-01 -4.140246510505676270e-01 2.390376478433609009e-01
1.405000000000000000e+03 2.554271697998046875e+01 1.666848421096801758e+00 -1.263137459754943848e+00 -4.906280711293220520e-02 -3.936600983142852783e-01 3.460844755172729492e-01
1.406000000000000000e+03 3.084086036682128906e+01 5.366611480712890625e-01 -1.446140170097351074e+00 4.004036784172058105e-01 -3.137209415435791016e-01 -1.471107602119445801e-01
1.407000000000000000e+03 2.500784492492675781e+01 2.640978097915649414e+00 -9.827949404716491699e-01 -4.980443418025970459e-02 -3.097798228263854980e-01 2.984293997287750244e-01
1.408000000000000000e+03 2.869917106628417969e+01 1.968854784965515137e+00 -1.084700345993041992e+00 3.304965496063232422e-01 -2.262611538171768188e-01 8.610364794731140137e-02
1.409000000000000000e+03 2.031407165527343750e+01 3.673970699310302734e+00 -8.917520046234130859e-01 -1.271161884069442749e-01 -3.056604564189910889e-01 2.074555456638336182e-01
1.410000000000000000e+03 1.941608619689941406e+01 3.250221490859985352e+00 -1.089257836341857910e+00 -1.422618627548217773e-01 -3.694559335708618164e-01 2.716740667819976807e-01
1.411000000000000000e+03 2.258193778991699219e+01 3.344145774841308594e+00 -8.884483575820922852e-01 -1.415135860443115234e-01 -3.089886009693145752e-01 2.460551410913467407e-01
1.412000000000000000e+03 2.424791717529296875e+01 2.875961303710937500e+00 -9.661832451820373535e-01 -9.111174196004867554e-02 -3.171885013580322266e-01 2.836740911006927490e-01
1.413000000000000000e+03 2.953933525085449219e+01 3.863875389099121094e+00 -4.072420299053192139e-01 5.904275178909301758e-01 5.495564639568328857e-02 4.279950633645057678e-02
1.414000000000000000e+03 2.877141380310058594e+01 5.316228866577148438e+00 1.060821712017059326e-01 8.054179549217224121e-01 2.734500467777252197e-01 -7.915423810482025146e-02
1.415000000000000000e+03 2.644131469726562500e+01 2.191445589065551758e+00 -1.042796254158020020e+00 6.857156753540039062e-02 -2.922674119472503662e-01 2.708123624324798584e-01
1.416000000000000000e+03 2.131288719177246094e+01 5.602206707000732422e+00 -1.405164003372192383e-01 -1.027032807469367981e-01 -7.296590507030487061e-02 1.339359879493713379e-01
1.417000000000000000e+03 3.189453125000000000e+01 1.498110413551330566e+00 -1.658841013908386230e+00 3.163899481296539307e-01 -4.027353227138519287e-01 2.796594984829425812e-02
1.418000000000000000e+03 1.843820571899414062e+01 5.092000484466552734e+00 -3.670862019062042236e-01 1.653543710708618164e-01 -6.051954999566078186e-02 3.287083208560943604e-01
1.419000000000000000e+03 1.360484123229980469e+01 -2.078437566757202148e+00 -1.424039453268051147e-01 -1.587947010993957520e-01 -9.035959094762802124e-02 -1.815088093280792236e-01
1.420000000000000000e+03 1.051278591156005859e+01 -2.418661355972290039e+00 -1.280931532382965088e-01 -1.479615271091461182e-01 -8.281640708446502686e-02 -1.720822453498840332e-01
1.421000000000000000e+03 1.206122779846191406e+01 -2.243985891342163086e+00 -1.491669267416000366e-01 -1.575639992952346802e-01 -9.201928228139877319e-02 -1.795257329940795898e-01
1.422000000000000000e+03 1.640394020080566406e+01 -5.443323135375976562e+00 2.127145417034626007e-03 3.303902149200439453e-01 9.975520521402359009e-02 5.801652371883392334e-02
1.423000000000000000e+03 4.063676071166992188e+01 -2.493650197982788086e+00 2.452495694160461426e-01 4.627951383590698242e-01 2.124134004116058350e-01 2.962749302387237549e-01
1.424000000000000000e+03 4.395439147949218750e+01 -2.949612855911254883e+00 1.549544483423233032e-01 -6.104688048362731934e-01 -1.366543024778366089e-01 4.524383544921875000e-01
1.425000000000000000e+03 4.367121124267578125e+01 -2.325909376144409180e+00 5.714216455817222595e-02 -5.747868418693542480e-01 -1.552934050559997559e-01 4.363209307193756104e-01
1.426000000000000000e+03 3.254225540161132812e+01 1.643838167190551758e+00 -1.821471095085144043e+00 3.385017514228820801e-01 -4.448907971382141113e-01 -1.498417742550373077e-02
1.427000000000000000e+03 3.080943679809570312e+01 4.062028884887695312e+00 4.417644068598747253e-02 2.379700243473052979e-01 8.464393764734268188e-02 -1.758542507886886597e-01
1.428000000000000000e+03 3.029397964477539062e+01 3.304080724716186523e+00 -6.126286983489990234e-01 5.375517606735229492e-01 -2.252309583127498627e-02 -4.955517128109931946e-02
1.429000000000000000e+03 1.767258834838867188e+01 4.146482467651367188e+00 -7.270328402519226074e-01 1.057539731264114380e-01 -1.863836497068405151e-01 4.845239818096160889e-01
1.430000000000000000e+03 1.667701911926269531e+01 4.986505985260009766e+00 -5.288971662521362305e-01 1.677700579166412354e-01 -1.083381250500679016e-01 5.835320353507995605e-01
1.431000000000000000e+03 1.780767250061035156e+01 5.769955635070800781e+00 -1.277503222227096558e-01 2.953280806541442871e-01 5.027332901954650879e-02 4.094862043857574463e-01
1.432000000000000000e+03 1.518027114868164062e+01 6.638116836547851562e+00 -2.496397644281387329e-01 1.675582304596900940e-02 -6.986518204212188721e-02 2.926882803440093994e-01
1.433000000000000000e+03 4.681541442871093750e+01 7.992294430732727051e-01 1.090201377868652344e+00 4.278677999973297119e-01 4.554207623004913330e-01 -1.329161047935485840e+00
1.434000000000000000e+03 4.626479721069335938e+01 2.256826400756835938e+00 4.757432639598846436e-01 1.410190939903259277e+00 5.657802820205688477e-01 -2.346423864364624023e+00
1.435000000000000000e+03 4.783125305175781250e+01 1.080975055694580078e+00 2.632145166397094727e+00 1.022327184677124023e+00 1.096341729164123535e+00 -2.648695230484008789e+00
1.436000000000000000e+03 4.396334457397460938e+01 2.456144094467163086e+00 -7.654483914375305176e-01 9.906954169273376465e-01 6.757411360740661621e-02 -8.963539004325866699e-01
1.437000000000000000e+03 4.488550949096679688e+01 -4.953108787536621094e+00 -8.376839756965637207e-01 -1.086325287818908691e+00 -5.772027969360351562e-01 9.932934045791625977e-01
1.438000000000000000e+03 4.566314697265625000e+01 -3.741556167602539062e+00 5.935033559799194336e-01 -9.620898365974426270e-01 -1.105759441852569580e-01 2.309616357088088989e-01
1.439000000000000000e+03 4.577368927001953125e+01 -5.856512546539306641e+00 -1.594411492347717285e+00 -1.747937083244323730e+00 -1.002704620361328125e+00 1.688682317733764648e+00
1.440000000000000000e+03 4.737158584594726562e+01 -3.196142196655273438e+00 1.188677310943603516e+00 7.025922536849975586e-01 5.673808455467224121e-01 1.140097677707672119e-01
1.441000000000000000e+03 3.508221817016601562e+01 -4.635058403015136719e+00 3.158159852027893066e-01 1.292960941791534424e-01 1.335336267948150635e-01 -8.871442824602127075e-02
1.442000000000000000e+03 3.292239761352539062e+01 -3.643246173858642578e+00 -1.371120512485504150e-01 -2.297260016202926636e-01 -1.100514158606529236e-01 -3.243017494678497314e-01
1.443000000000000000e+03 3.203179931640625000e+01 -3.945199251174926758e+00 -2.146921306848526001e-02 -6.005496978759765625e-01 -1.866056770086288452e-01 -1.655296534299850464e-01
1.444000000000000000e+03 3.105173683166503906e+01 -4.217750549316406250e+00 3.038620203733444214e-02 -3.917371928691864014e-01 -1.084052994847297668e-01 -3.288346529006958008e-01
1.445000000000000000e+03 1.823868370056152344e+01 -2.008855819702148438e+00 2.190859615802764893e-01 5.602937936782836914e-01 2.338139265775680542e-01 1.915287040174007416e-02
1.446000000000000000e+03 4.278896331787109375e+01 1.960789322853088379e+00 -1.334617257118225098e+00 4.930493533611297607e-01 -2.524703741073608398e-01 -2.282214015722274780e-01
1.447000000000000000e+03 4.024570465087890625e+01 4.192393779754638672e+00 -1.080877985805273056e-02 -5.119692683219909668e-01 -1.568334251642227173e-01 9.841701015830039978e-03
1.448000000000000000e+03 4.095182418823242188e+01 4.756282329559326172e+00 -8.619739115238189697e-02 -3.869462385773658752e-02 -3.746760264039039612e-02 7.080558571033179760e-04
1.449000000000000000e+03 3.892377471923828125e+01 4.124639511108398438e+00 3.850756585597991943e-01 4.042615890502929688e-01 2.368011772632598877e-01 5.274385213851928711e-01
1.450000000000000000e+03 4.592738723754882812e+01 6.414041519165039062e+00 1.758377067744731903e-02 4.230515003204345703e+00 1.274429678916931152e+00 -2.322675704956054688e+00
1.451000000000000000e+03 4.316532516479492188e+01 2.730740308761596680e+00 -9.523983001708984375e-01 8.918524980545043945e-01 -1.816374436020851135e-02 -6.251671314239501953e-01
1.452000000000000000e+03 4.240320968627929688e+01 3.033608675003051758e+00 -1.169533610343933105e+00 6.825873255729675293e-01 -1.460838913917541504e-01 -4.332565665245056152e-01
1.453000000000000000e+03 3.984393692016601562e+01 -2.371493911743164062e+01 6.774537563323974609e-01 4.511075973510742188e+00 1.556558847427368164e+00 1.396141409873962402e+00
1.454000000000000000e+03 4.855978775024414062e+01 -2.646915245056152344e+01 -1.246084570884704590e+00 2.673873186111450195e+00 4.283365607261657715e-01 -1.863145828247070312e+00
1.455000000000000000e+03 4.744897842407226562e+01 2.563212013244628906e+01 1.030259966850280762e+00 3.804343938827514648e+00 1.450381159782409668e+00 3.946049511432647705e-01
1.456000000000000000e+03 4.760393142700195312e+01 2.864792251586914062e+01 1.058790564537048340e+00 4.050429344177246094e+00 1.532765984535217285e+00 -5.890758633613586426e-01
1.457000000000000000e+03 1.860850715637207031e+01 -2.652325248718261719e+01 6.150708794593811035e-01 4.514595493674278259e-02 1.980650424957275391e-01 -1.199216302484273911e-02
1.458000000000000000e+03 3.028748130798339844e+01 3.129879379272460938e+01 4.072599112987518311e-01 1.085906267166137695e+00 4.479498565196990967e-01 -3.873508572578430176e-01
1.459000000000000000e+03 4.656056213378906250e+01 -1.211425209045410156e+01 3.153933048248291016e+00 6.866662025451660156e+00 3.006178617477416992e+00 4.360630512237548828e+00
1.460000000000000000e+03 5.087038040161132812e+01 -8.569688796997070312e+00 7.012515068054199219e-01 8.383316993713378906e+00 2.725370645523071289e+00 2.011461973190307617e+00
1.461000000000000000e+03 3.301773071289062500e+01 1.544250965118408203e+01 3.814481794834136963e-01 7.188206911087036133e-01 3.300806581974029541e-01 -1.131467670202255249e-01
1.462000000000000000e+03 3.111310768127441406e+01 1.615499877929687500e+01 4.209721386432647705e-01 9.081277251243591309e-01 3.987299501895904541e-01 4.298147261142730713e-01
1.463000000000000000e+03 6.077520370483398438e+01 3.548126983642578125e+01 -1.959548711776733398e+00 4.393704533576965332e-01 -4.560534656047821045e-01 1.481060385704040527e-01
1.464000000000000000e+03 4.961699295043945312e+01 -3.484717559814453125e+01 1.324693799018859863e+00 5.801389694213867188e+00 2.137825012207031250e+00 1.501270771026611328e+00
1.465000000000000000e+03 4.262274551391601562e+01 -4.107806015014648438e+01 -2.215508818626403809e-01 4.711862802505493164e-01 7.489062100648880005e-02 -2.210325002670288086e-01
1.466000000000000000e+03 3.915242767333984375e+01 -3.994344711303710938e+01 -6.158782839775085449e-01 1.588988661766052246e+00 2.919331192970275879e-01 -8.562283217906951904e-02
1.467000000000000000e+03 3.916525268554687500e+01 -3.437618255615234375e+01 7.480093836784362793e-01 4.545613288879394531e+00 1.588086724281311035e+00 -3.975842297077178955e-01
1.468000000000000000e+03 5.256948852539062500e+01 -3.362128067016601562e+01 1.720497012138366699e+00 5.363383769989013672e+00 2.125164270401000977e+00 5.408940315246582031e-01
1.469000000000000000e+03 4.965301513671875000e+01 -2.984316635131835938e+01 1.512522101402282715e+00 3.715621232986450195e+00 1.568443059921264648e+00 -1.060991764068603516e+00
1.470000000000000000e+03 4.731621170043945312e+01 -7.786086559295654297e+00 -5.788719654083251953e-01 3.054352283477783203e+00 7.426440715789794922e-01 9.085208773612976074e-01
1.471000000000000000e+03 5.810540008544921875e+01 4.122345733642578125e+01 -2.316134721040725708e-01 1.420433521270751953e+00 3.566460311412811279e-01 2.776300311088562012e-01
1.472000000000000000e+03 5.986705017089843750e+01 3.663034820556640625e+01 -1.862480044364929199e+00 2.386301457881927490e-01 -4.871549606323242188e-01 -6.406618654727935791e-02
1.473000000000000000e+03 5.726149749755859375e+01 3.568091964721679688e+01 -1.534664511680603027e+00 5.581892728805541992e-01 -2.929425835609436035e-01 3.922177255153656006e-01
1.474000000000000000e+03 1.516155910491943359e+01 -2.397702026367187500e+01 4.149847850203514099e-02 -4.019601941108703613e-01 -1.081385090947151184e-01 -2.693546116352081299e-01
1.475000000000000000e+03 1.843288612365722656e+01 -2.556985855102539062e+01 3.630586266517639160e-01 3.070900030434131622e-02 1.181302890181541443e-01 -1.589533984661102295e-01
1.476000000000000000e+03 4.372989273071289062e+01 -2.759900665283203125e+01 -2.711587905883789062e+00 -3.537737429141998291e-01 -9.196084737777709961e-01 3.963800966739654541e-01
1.477000000000000000e+03 4.088080596923828125e+01 -3.418120622634887695e+00 1.383496165275573730e+00 3.713428974151611328e-01 5.264517068862915039e-01 5.479909777641296387e-01
1.478000000000000000e+03 3.214875793457031250e+01 -1.082417392730712891e+01 -4.509155452251434326e-01 4.647022485733032227e-02 -1.213335916399955750e-01 2.167002558708190918e-01
1.479000000000000000e+03 3.583585739135742188e+01 -9.208640098571777344e+00 1.912780255079269409e-01 8.029484152793884277e-01 2.982679307460784912e-01 2.683149278163909912e-01
1.480000000000000000e+03 2.188786888122558594e+01 1.935062599182128906e+01 1.978130787611007690e-01 4.692458808422088623e-01 2.001176923513412476e-01 -2.364544570446014404e-01
1.481000000000000000e+03 3.306474685668945312e+01 2.316585350036621094e+01 1.728752851486206055e-01 2.194009304046630859e+00 7.100654244422912598e-01 -2.003461122512817383e-01
1.482000000000000000e+03 4.252798080444335938e+01 -2.770552825927734375e+01 -1.254858374595642090e+00 7.732951641082763672e-01 -1.444689929485321045e-01 5.738693475723266602e-01
1.483000000000000000e+03 2.743454170227050781e+01 2.981517028808593750e+01 7.471289038658142090e-01 3.830888271331787109e-01 3.390653133392333984e-01 -1.206801831722259521e-01
1.484000000000000000e+03 2.233620452880859375e+01 3.184511756896972656e+01 5.019848793745040894e-02 4.301784932613372803e-01 1.441130936145782471e-01 -2.582741156220436096e-02
1.485000000000000000e+03 3.205968856811523438e+01 1.393462562561035156e+01 3.223578035831451416e-01 4.845810234546661377e-01 2.420816421508789062e-01 1.726692318916320801e-01
1.486000000000000000e+03 2.758493614196777344e+01 1.234818267822265625e+01 3.211124241352081299e-01 2.832316756248474121e-01 1.813032329082489014e-01 9.635730832815170288e-02
1.487000000000000000e+03 2.953888130187988281e+01 9.898234367370605469e+00 3.197399377822875977e-01 9.585846662521362305e-01 3.834973871707916260e-01 3.744280636310577393e-01
1.488000000000000000e+03 3.572154617309570312e+01 1.744805145263671875e+01 3.340201675891876221e-01 1.010472178459167480e+00 4.033477008342742920e-01 -8.042781352996826172e-01
1.489000000000000000e+03 3.765573501586914062e+01 -6.111745357513427734e+00 6.305750608444213867e-01 1.997341156005859375e+00 7.883748412132263184e-01 8.950052857398986816e-01
1.490000000000000000e+03 3.620812225341796875e+01 -7.538441658020019531e+00 3.992464840412139893e-01 9.806013703346252441e-01 4.139543473720550537e-01 1.566420942544937134e-01
1.491000000000000000e+03 2.039352226257324219e+01 1.901378440856933594e+01 9.779178351163864136e-02 9.272287040948867798e-02 5.715439468622207642e-02 -8.008625358343124390e-02
1.492000000000000000e+03 3.666057205200195312e+01 -1.162821197509765625e+01 -5.495979785919189453e-01 5.630599260330200195e-01 4.038584418594837189e-03 1.887608915567398071e-01
1.493000000000000000e+03 3.706746292114257812e+01 -4.060517311096191406e+00 3.716266751289367676e-01 7.139604687690734863e-01 3.256761431694030762e-01 9.898471087217330933e-02
1.494000000000000000e+03 3.697933197021484375e+01 -5.407514095306396484e+00 7.148204445838928223e-01 1.111563324928283691e+00 5.479151606559753418e-01 3.267179429531097412e-01
1.495000000000000000e+03 4.466365051269531250e+01 -1.454396343231201172e+01 -9.713667631149291992e-01 2.954050779342651367e+00 5.948052406311035156e-01 2.132416248321533203e+00
1.496000000000000000e+03 4.410660171508789062e+01 -1.347197818756103516e+01 -1.460518598556518555e+00 9.871168732643127441e-01 -1.420205235481262207e-01 6.240323781967163086e-01
1.497000000000000000e+03 2.983390808105468750e+01 2.850727462768554688e+01 6.024520397186279297e-01 7.365140914916992188e-01 4.016898274421691895e-01 -5.030651688575744629e-01
1.498000000000000000e+03 3.065924263000488281e+01 2.587123298645019531e+01 4.108726978302001953e-01 9.807615280151367188e-01 4.174902737140655518e-01 -5.316808223724365234e-01
1.499000000000000000e+03 3.183548355102539062e+01 2.188712310791015625e+01 -2.098088525235652924e-02 2.117976903915405273e+00 6.290988326072692871e-01 -6.673990190029144287e-02
1.500000000000000000e+03 3.752985763549804688e+01 2.306522560119628906e+01 2.960636615753173828e-01 1.058185100555419922e+00 4.062746465206146240e-01 -7.131718397140502930e-01
1.501000000000000000e+03 3.070302391052246094e+01 2.757884025573730469e+01 5.033369660377502441e-01 1.044092893600463867e+00 4.642289578914642334e-01 -5.220801830291748047e-01
1.502000000000000000e+03 3.429616928100585938e+01 3.158178329467773438e+01 1.268554776906967163e-01 2.092637777328491211e+00 6.658479571342468262e-01 -3.648781776428222656e-02
1.503000000000000000e+03 4.734132766723632812e+01 -1.402021026611328125e+01 -1.346000432968139648e+00 6.293399333953857422e+00 1.484219670295715332e+00 2.689609527587890625e+00
1.504000000000000000e+03 3.206239318847656250e+01 -2.712671089172363281e+01 1.837933510541915894e-01 2.694758772850036621e-01 1.359807699918746948e-01 -1.567447185516357422e-01
1.505000000000000000e+03 2.703511619567871094e+01 -3.354560470581054688e+01 1.798517554998397827e-01 5.308611392974853516e-01 2.132138609886169434e-01 -7.321593165397644043e-02
1.506000000000000000e+03 2.064563560485839844e+01 1.279940509796142578e+01 2.581077069044113159e-02 -1.211710646748542786e-01 -2.860808745026588440e-02 8.579748123884201050e-02
1.507000000000000000e+03 4.595306777954101562e+01 -1.412960052490234375e+01 -1.250517129898071289e+00 5.394435882568359375e+00 1.243175625801086426e+00 2.816003322601318359e+00
1.508000000000000000e+03 2.100847053527832031e+01 2.095930480957031250e+01 1.606184989213943481e-01 2.902697324752807617e-01 1.352664679288864136e-01 -1.574265062808990479e-01
1.509000000000000000e+03 2.003486633300781250e+01 2.570926856994628906e+01 5.227625966072082520e-01 4.366938769817352295e-01 2.878369390964508057e-01 4.606497287750244141e-01
1.510000000000000000e+03 1.850083541870117188e+01 2.497135543823242188e+01 7.383050918579101562e-01 6.656296253204345703e-01 4.211803972721099854e-01 6.186200976371765137e-01
1.511000000000000000e+03 4.632679748535156250e+01 -5.553290367126464844e+00 -5.514336824417114258e-01 -1.160917401313781738e+00 -5.137053132057189941e-01 8.189810514450073242e-01
1.512000000000000000e+03 2.090187835693359375e+01 2.837512969970703125e+01 1.108332276344299316e-01 3.149169683456420898e-01 1.277250647544860840e-01 3.262307047843933105e-01
1.513000000000000000e+03 2.063793373107910156e+01 1.134438323974609375e+01 3.314059600234031677e-02 4.437173530459403992e-02 2.325369976460933685e-02 1.284480243921279907e-01
1.514000000000000000e+03 2.558051109313964844e+01 1.583176517486572266e+01 1.401183605194091797e-01 1.543004065752029419e-01 8.832562714815139771e-02 -1.248438656330108643e-01
1.515000000000000000e+03 4.720315170288085938e+01 -4.538794040679931641e+00 6.486937999725341797e-01 1.223044753074645996e+00 5.615215897560119629e-01 2.727180421352386475e-01
1.516000000000000000e+03 2.120879554748535156e+01 2.215810775756835938e+01 1.673036813735961914e-01 3.719081878662109375e-01 1.617635488510131836e-01 -1.554905064404010773e-02
1.517000000000000000e+03 3.826263809204101562e+01 -3.146089172363281250e+01 1.330528140068054199e+00 3.708325862884521484e+00 1.511656165122985840e+00 9.505943655967712402e-01
1.518000000000000000e+03 3.323395919799804688e+01 1.941034317016601562e+01 6.971269845962524414e-02 1.711874842643737793e+00 5.344762802124023438e-01 -2.162113338708877563e-01
1.519000000000000000e+03 3.191330718994140625e+01 1.927714157104492188e+01 -1.327962707728147507e-02 1.798806905746459961e+00 5.356581807136535645e-01 -7.308331131935119629e-02
1.520000000000000000e+03 3.301490783691406250e+01 2.186250114440917969e+01 2.038852078840136528e-03 2.095577239990234375e+00 6.292848587036132812e-01 -2.330902963876724243e-01
1.521000000000000000e+03 3.309555053710937500e+01 2.061849594116210938e+01 -1.554098445922136307e-02 1.895369887351989746e+00 5.639486312866210938e-01 -2.492610961198806763e-01
1.522000000000000000e+03 5.141915512084960938e+01 -1.023765659332275391e+01 4.817514717578887939e-01 6.286041736602783203e+00 2.030338048934936523e+00 6.092890501022338867e-01
1.523000000000000000e+03 5.195485305786132812e+01 -9.019795417785644531e+00 2.898426949977874756e-01 7.456970214843750000e+00 2.324043750762939453e+00 6.812356114387512207e-01
1.524000000000000000e+03 3.985506820678710938e+01 -2.663342475891113281e+00 3.769860863685607910e-01 5.147678256034851074e-01 2.675261795520782471e-01 2.490131556987762451e-01
1.525000000000000000e+03 4.388506698608398438e+01 -4.196337699890136719e+00 -1.113691627979278564e-01 -5.549567937850952148e-01 -1.998977810144424438e-01 4.674827754497528076e-01
1.526000000000000000e+03 3.517687606811523438e+01 -1.242598819732666016e+01 -6.234887242317199707e-01 2.947937846183776855e-01 -9.860848635435104370e-02 3.415055871009826660e-01
1.527000000000000000e+03 3.682876586914062500e+01 -1.263555049896240234e+01 -6.524176597595214844e-01 5.085341334342956543e-01 -4.316506162285804749e-02 1.089514791965484619e-01
1.528000000000000000e+03 3.976048660278320312e+01 -3.787696075439453125e+01 -7.481653690338134766e-01 1.566430449485778809e+00 2.454795390367507935e-01 -1.582473963499069214e-01
1.529000000000000000e+03 4.930938720703125000e+01 -3.970468902587890625e+01 -1.200416922569274902e+00 3.980816602706909180e+00 8.341199159622192383e-01 5.963286161422729492e-01
1.530000000000000000e+03 4.913306427001953125e+01 -2.751849746704101562e+01 -8.766306042671203613e-01 2.311891317367553711e+00 4.305782318115234375e-01 -1.708406209945678711e+00
1.531000000000000000e+03 4.662974929809570312e+01 -4.112260055541992188e+01 -5.883229970932006836e-01 1.979708671569824219e+00 4.174157083034515381e-01 3.329714834690093994e-01
1.532000000000000000e+03 5.731200790405273438e+01 1.804437065124511719e+01 1.321710348129272461e+00 5.577754497528076172e+00 2.069839477539062500e+00 -4.201101660728454590e-01
1.533000000000000000e+03 5.908832550048828125e+01 1.989772224426269531e+01 2.360746413469314575e-01 5.047574520111083984e+00 1.585094809532165527e+00 6.942322254180908203e-01
1.534000000000000000e+03 3.886310577392578125e+01 -2.772318840026855469e+01 2.690928243100643158e-02 4.530648231506347656e+00 1.367267251014709473e+00 1.516302466392517090e+00
1.535000000000000000e+03 3.755311584472656250e+01 -3.226214981079101562e+01 1.292044043540954590e+00 2.971267461776733398e+00 1.278993368148803711e+00 1.038343787193298340e+00
1.536000000000000000e+03 3.830504989624023438e+01 -3.331074905395507812e+01 1.131466627120971680e+00 4.506742477416992188e+00 1.691462755203247070e+00 7.420557141304016113e-01
1.537000000000000000e+03 3.109491157531738281e+01 1.180412960052490234e+01 5.710318088531494141e-01 6.072343587875366211e-01 3.534798324108123779e-01 4.531237483024597168e-01
1.538000000000000000e+03 3.170938682556152344e+01 1.281313705444335938e+01 3.584766685962677002e-01 5.401788353919982910e-01 2.695966660976409912e-01 3.777948021888732910e-01
1.539000000000000000e+03 4.784832382202148438e+01 -2.538913917541503906e+01 -1.488308072090148926e+00 2.882979393005371094e+00 4.184013903141021729e-01 -1.730950474739074707e+00
1.540000000000000000e+03 4.795146560668945312e+01 -2.341427040100097656e+01 7.224392890930175781e-01 2.513275146484375000e+00 9.707143306732177734e-01 -1.654448628425598145e+00
1.541000000000000000e+03 6.672756958007812500e+01 2.976862907409667969e+01 1.266101002693176270e+00 5.508199691772460938e+00 2.032290220260620117e+00 1.194673061370849609e+00
1.542000000000000000e+03 6.313132095336914062e+01 3.557917785644531250e+01 -1.293121695518493652e+00 3.290997266769409180e+00 5.993626713752746582e-01 -4.491620063781738281e-01
1.543000000000000000e+03 3.936791610717773438e+01 -2.547488594055175781e+01 1.658112049102783203e+00 6.044890403747558594e+00 2.310900688171386719e+00 2.711665630340576172e+00
1.544000000000000000e+03 3.864907073974609375e+01 -2.644606018066406250e+01 1.867781400680541992e+00 4.285812377929687500e+00 1.846078157424926758e+00 2.569010019302368164e+00
1.545000000000000000e+03 3.198016357421875000e+01 -2.976916885375976562e+01 3.536872565746307373e-01 5.197067260742187500e-01 2.620182037353515625e-01 -3.459182381629943848e-01
1.546000000000000000e+03 2.898887634277343750e+01 7.895392417907714844e+00 1.081965863704681396e-01 1.141487598419189453e+00 3.749052584171295166e-01 1.485014408826828003e-01
1.547000000000000000e+03 2.598655509948730469e+01 3.136206626892089844e+00 -7.599880695343017578e-01 5.022161453962326050e-02 -2.129299491643905640e-01 2.410323470830917358e-01
1.548000000000000000e+03 2.835232734680175781e+01 -2.364990997314453125e+01 2.728492319583892822e-01 1.079924225807189941e+00 4.058320224285125732e-01 -1.427721232175827026e-01
1.549000000000000000e+03 3.845307922363281250e+01 -2.970372009277343750e+01 4.426967799663543701e-01 3.765725135803222656e+00 1.262526512145996094e+00 1.032058835029602051e+00
1.550000000000000000e+03 3.607092285156250000e+01 -2.848451042175292969e+01 4.734361916780471802e-02 4.803245365619659424e-01 1.583004444837570190e-01 3.983125984668731689e-01
1.551000000000000000e+03 3.587495422363281250e+01 -1.528151702880859375e+01 -1.078438282012939453e+00 -1.200737245380878448e-02 -3.271337151527404785e-01 2.474405318498611450e-01
1.552000000000000000e+03 2.758092880249023438e+01 -2.499328994750976562e+01 2.235640436410903931e-01 6.615717411041259766e-01 2.655407488346099854e-01 -1.062184795737266541e-01
1.553000000000000000e+03 4.868043136596679688e+01 -1.535715579986572266e+01 -2.581743717193603516e+00 4.644513607025146484e+00 6.188310384750366211e-01 2.309977769851684570e+00
1.554000000000000000e+03 5.134221267700195312e+01 -1.603979110717773438e+01 -5.301987171173095703e+00 -2.179732322692871094e-01 -1.655988216400146484e+00 -5.679578185081481934e-01
1.555000000000000000e+03 3.474726486206054688e+01 -1.151644229888916016e+01 -3.096534907817840576e-01 3.305797576904296875e-01 6.277886219322681427e-03 4.559376835823059082e-01
1.556000000000000000e+03 3.119749259948730469e+01 -1.468622398376464844e+01 -6.271761059761047363e-01 6.559029221534729004e-01 8.618042804300785065e-03 2.537648975849151611e-01
1.557000000000000000e+03 3.829021835327148438e+01 -1.255447196960449219e+01 -7.196330428123474121e-01 5.217480659484863281e-01 -5.936548486351966858e-02 2.675717463716864586e-03
1.558000000000000000e+03 3.004553794860839844e+01 -1.481390666961669922e+01 -4.479909241199493408e-01 5.237357616424560547e-01 2.272344194352626801e-02 1.422411650419235229e-01
1.559000000000000000e+03 3.029512023925781250e+01 -1.610458183288574219e+01 8.694881200790405273e-02 7.876535654067993164e-01 2.623807191848754883e-01 3.872106373310089111e-01
1.560000000000000000e+03 4.360693740844726562e+01 -2.665224456787109375e+01 -2.041819542646408081e-01 4.535007178783416748e-01 7.479562610387802124e-02 5.293749570846557617e-01
1.561000000000000000e+03 3.856615447998046875e+01 -2.864484214782714844e+01 2.246704399585723877e-01 3.876449108123779297e+00 1.230335831642150879e+00 1.470684528350830078e+00
1.562000000000000000e+03 2.785010147094726562e+01 -2.068817138671875000e+01 3.085258603096008301e-01 9.297949075698852539e-01 3.714962303638458252e-01 1.276591867208480835e-01
1.563000000000000000e+03 4.005091094970703125e+01 -1.412848281860351562e+01 -1.238337635993957520e+00 2.848121821880340576e-01 -2.860576212406158447e-01 -4.277114272117614746e-01
1.564000000000000000e+03 2.891960716247558594e+01 -2.102783393859863281e+01 8.684892952442169189e-02 1.449435472488403320e+00 4.608853459358215332e-01 2.023921608924865723e-01
1.565000000000000000e+03 3.021735191345214844e+01 -2.534199333190917969e+01 2.962142825126647949e-01 6.031201481819152832e-01 2.698003351688385010e-01 -3.649829328060150146e-01
1.566000000000000000e+03 3.939355468750000000e+01 -1.987312698364257812e+01 4.789568856358528137e-02 1.060730218887329102e-01 4.619061201810836792e-02 1.394184082746505737e-01
1.567000000000000000e+03 4.053312301635742188e+01 -1.872617912292480469e+01 3.506615757942199707e-01 7.802594900131225586e-01 3.392763137817382812e-01 -7.779411040246486664e-03
1.568000000000000000e+03 2.890375137329101562e+01 -1.708607864379882812e+01 1.401836127042770386e-01 5.728601217269897461e-01 2.139131128787994385e-01 1.538945734500885010e-01
1.569000000000000000e+03 2.854240608215332031e+01 -1.817461967468261719e+01 3.519977033138275146e-01 7.558405399322509766e-01 3.323514759540557861e-01 2.921331524848937988e-01
1.570000000000000000e+03 5.388850402832031250e+01 2.637723350524902344e+01 1.847767949104309082e+00 9.108598709106445312e+00 3.286909818649291992e+00 -2.625369548797607422e+00
1.571000000000000000e+03 5.132996368408203125e+01 2.826857376098632812e+01 1.389869689941406250e+00 5.847274780273437500e+00 2.171143293380737305e+00 -6.502135396003723145e-01
1.572000000000000000e+03 4.446738815307617188e+01 -1.734776496887207031e+01 3.675282597541809082e-01 4.267288684844970703e+00 1.390445113182067871e+00 1.108337640762329102e+00
1.573000000000000000e+03 4.726025772094726562e+01 -1.782786750793457031e+01 1.370183348655700684e+00 7.695563316345214844e+00 2.719723939895629883e+00 2.728343725204467773e+00
1.574000000000000000e+03 3.124358940124511719e+01 -2.784895896911621094e+01 -2.833280898630619049e-02 4.567030370235443115e-01 1.285110712051391602e-01 -2.459836304187774658e-01
1.575000000000000000e+03 3.040040588378906250e+01 -2.715643882751464844e+01 1.369055956602096558e-01 5.770905613899230957e-01 2.141988426446914673e-01 -2.894354760646820068e-01
1.576000000000000000e+03 6.265770721435546875e+01 2.525395584106445312e+01 2.946447372436523438e+00 8.086624145507812500e+00 3.309921264648437500e+00 4.273421287536621094e+00
1.577000000000000000e+03 6.601636505126953125e+01 2.725815200805664062e+01 2.207389354705810547e+00 5.102362155914306641e+00 2.192925453186035156e+00 1.271825790405273438e+00
1.578000000000000000e+03 2.760715293884277344e+01 1.053989219665527344e+01 3.575545251369476318e-01 4.021788537502288818e-01 2.279200106859207153e-01 1.217557340860366821e-01
1.579000000000000000e+03 1.138259410858154297e+01 -1.256263160705566406e+01 -1.971140690147876740e-02 3.673290833830833435e-03 -4.811434540897607803e-03 -3.306630998849868774e-02
1.580000000000000000e+03 9.693767547607421875e+00 -1.161113643646240234e+01 -5.944043025374412537e-02 -1.506230384111404419e-01 -6.301903724670410156e-02 -1.131534874439239502e-01
1.581000000000000000e+03 1.371726036071777344e+01 6.747720241546630859e+00 -1.084591150283813477e+00 -3.034777045249938965e-01 -4.164206683635711670e-01 5.263375043869018555e-01
1.582000000000000000e+03 2.849464225769042969e+01 1.304887580871582031e+01 2.863889336585998535e-01 2.898786962032318115e-01 1.728802919387817383e-01 1.699732989072799683e-01
1.583000000000000000e+03 2.849657058715820312e+01 1.117566490173339844e+01 3.296085596084594727e-01 4.726755917072296143e-01 2.406852543354034424e-01 1.943944543600082397e-01
1.584000000000000000e+03 5.545325851440429688e+01 2.997671365737915039e-01 2.429769277572631836e+00 1.063513159751892090e+00 1.047984719276428223e+00 1.743938088417053223e+00
1.585000000000000000e+03 5.670990371704101562e+01 5.781949162483215332e-01 1.588491320610046387e+00 9.414680600166320801e-01 7.589878439903259277e-01 5.607179179787635803e-02
1.586000000000000000e+03 6.237099838256835938e+01 2.122033691406250000e+01 -2.583958148956298828e+00 6.436941146850585938e+00 1.155894875526428223e+00 3.839678287506103516e+00
1.587000000000000000e+03 6.115821456909179688e+01 2.123651123046875000e+01 -1.851260662078857422e+00 6.254281044006347656e+00 1.320906162261962891e+00 3.240269184112548828e+00
1.588000000000000000e+03 2.959666061401367188e+01 1.913510203361511230e+00 -1.164632081985473633e+00 4.213002920150756836e-01 -2.229995578527450562e-01 8.127395063638687134e-02
1.589000000000000000e+03 3.172700691223144531e+01 3.210498809814453125e+00 -3.524022996425628662e-01 1.060354933142662048e-01 -7.391004264354705811e-02 7.559781521558761597e-02
1.590000000000000000e+03 2.316515922546386719e+01 -1.649973106384277344e+01 -3.114538490772247314e-01 -2.711026072502136230e-01 -1.747669428586959839e-01 -4.955111443996429443e-01
1.591000000000000000e+03 1.621623039245605469e+01 -3.969544601440429688e+01 5.671295523643493652e-01 2.664993107318878174e-01 2.500886619091033936e-01 -3.125866353511810303e-01
1.592000000000000000e+03 1.419536399841308594e+01 -3.810019302368164062e+01 2.660999298095703125e-01 2.086849659681320190e-01 1.424354761838912964e-01 -2.100967019796371460e-01
1.593000000000000000e+03 6.100452423095703125e+01 2.389463615417480469e+01 -9.156441092491149902e-01 3.392026901245117188e+00 7.429148554801940918e-01 2.307793617248535156e+00
1.594000000000000000e+03 2.453489685058593750e+01 -3.772889328002929688e+01 2.043756991624832153e-01 3.307925760746002197e-01 1.605504751205444336e-01 1.381887793540954590e-01
1.595000000000000000e+03 5.324044036865234375e+01 3.414712905883789062e+01 -3.513393402099609375e-01 4.944828510284423828e+00 1.378046751022338867e+00 2.062333561480045319e-02
1.596000000000000000e+03 4.707173156738281250e+01 3.190905761718750000e+01 7.082715034484863281e-01 3.543704271316528320e+00 1.275592684745788574e+00 -8.511974811553955078e-01
1.597000000000000000e+03 5.181760787963867188e+01 3.160354042053222656e+01 8.745254278182983398e-01 5.560199737548828125e+00 1.930417537689208984e+00 -3.472656011581420898e-01
1.598000000000000000e+03 5.988236999511718750e+01 2.236941337585449219e+01 -2.854262590408325195e+00 2.962954044342041016e+00 3.260748460888862610e-02 2.551092386245727539e+00
1.599000000000000000e+03 5.994349670410156250e+01 7.303469777107238770e-01 6.970512866973876953e-01 5.831210136413574219e+00 1.958478450775146484e+00 -2.341602325439453125e+00
1.600000000000000000e+03 5.424383163452148438e+01 2.353276252746582031e+01 -1.878335952758789062e+00 5.896408081054687500e+00 1.205421686172485352e+00 -2.246183633804321289e+00
1.601000000000000000e+03 1.261486721038818359e+01 -4.038609313964843750e+01 3.015574514865875244e-01 -3.579697385430335999e-02 7.972814142704010010e-02 -6.306926906108856201e-02
1.602000000000000000e+03 6.577497863769531250e+01 -1.686831283569335938e+01 -1.932659745216369629e+00 3.561375379562377930e+00 4.886147379875183105e-01 6.312167048454284668e-01
1.603000000000000000e+03 6.375133132934570312e+01 -1.614171981811523438e+01 -2.288688659667968750e+00 6.381575584411621094e+00 1.227866053581237793e+00 2.021715342998504639e-01
1.604000000000000000e+03 6.390180206298828125e+01 3.440699768066406250e+01 -8.521875739097595215e-01 4.624105930328369141e+00 1.131575584411621094e+00 1.906862705945968628e-01
1.605000000000000000e+03 2.537276077270507812e+01 -3.065466308593750000e+01 1.457121670246124268e-01 5.061525702476501465e-01 1.955594271421432495e-01 -1.779289096593856812e-01
1.606000000000000000e+03 1.443491935729980469e+01 -1.408378505706787109e+01 1.817381083965301514e-01 4.072002768516540527e-01 1.766815185546875000e-01 -2.678882777690887451e-01
1.607000000000000000e+03 2.936876678466796875e+01 -9.849427223205566406e+00 -4.456815719604492188e-01 -9.127417802810668945e-01 -4.075269997119903564e-01 -3.668251037597656250e-01
1.608000000000000000e+03 2.772981643676757812e+01 -1.197698593139648438e+01 -1.291574835777282715e+00 -5.573620796203613281e-01 -5.546811223030090332e-01 -7.184076309204101562e-01
1.609000000000000000e+03 6.111671066284179688e+01 2.251081275939941406e+01 -3.305215120315551758e+00 5.521871089935302734e+00 6.649967432022094727e-01 3.562076807022094727e+00
1.610000000000000000e+03 6.529856109619140625e+01 3.002978706359863281e+01 8.880032300949096680e-01 6.119714260101318359e+00 2.102315187454223633e+00 8.614040613174438477e-01
1.611000000000000000e+03 2.703383445739746094e+01 -3.514340209960937500e+01 1.206160858273506165e-01 5.678063631057739258e-01 2.065267264842987061e-01 7.675647735595703125e-02
1.612000000000000000e+03 5.601646423339843750e+01 2.311398506164550781e+01 -2.658698797225952148e+00 3.197890520095825195e+00 1.617575585842132568e-01 -1.852294087409973145e+00
1.613000000000000000e+03 1.350388145446777344e+01 -3.109252929687500000e+01 -1.313823610544204712e-01 -4.609200060367584229e-01 -1.776907145977020264e-01 -2.108658403158187866e-01
1.614000000000000000e+03 1.068586254119873047e+01 -3.600519943237304688e+01 9.624814987182617188e-02 -1.586255133152008057e-01 -1.871320977807044983e-02 -1.862421631813049316e-01
1.615000000000000000e+03 2.653683662414550781e+01 -2.436690902709960938e+01 3.028994798660278320e-01 6.467759013175964355e-01 2.849026024341583252e-01 -3.620483726263046265e-02
1.616000000000000000e+03 2.065143203735351562e+01 -4.061345291137695312e+01 5.897801518440246582e-01 1.273305118083953857e-01 2.151332050561904907e-01 8.082026988267898560e-02
1.617000000000000000e+03 6.219124221801757812e+01 3.731433868408203125e+00 -3.239977061748504639e-01 4.816114425659179688e+00 1.347635030746459961e+00 -1.305847644805908203e+00
1.618000000000000000e+03 6.412724304199218750e+01 2.565921783447265625e+00 3.380156755447387695e-01 3.786361694335937500e+00 1.237313151359558105e+00 6.764768809080123901e-02
1.619000000000000000e+03 5.599317932128906250e+01 1.181118679046630859e+01 1.394494295120239258e+00 1.023934650421142578e+01 3.490152359008789062e+00 2.816410660743713379e-01
1.620000000000000000e+03 1.323176193237304688e+01 -2.945440673828125000e+01 -1.281887888908386230e-01 -3.453006446361541748e-01 -1.420468240976333618e-01 -1.862283796072006226e-01
1.621000000000000000e+03 1.568034648895263672e+01 -1.977925109863281250e+01 -3.466736376285552979e-01 -7.037740349769592285e-01 -3.151343166828155518e-01 -4.577688276767730713e-01
1.622000000000000000e+03 1.743287277221679688e+01 -1.253404378890991211e+00 -1.190854609012603760e-01 4.157021343708038330e-01 8.898500353097915649e-02 -2.148540616035461426e-01
1.623000000000000000e+03 7.209725189208984375e+01 -1.259311580657958984e+01 -2.251600503921508789e+00 4.108842611312866211e-01 -5.522148609161376953e-01 -9.010957479476928711e-01
1.624000000000000000e+03 7.139715576171875000e+01 -1.379293823242187500e+01 -3.843537271022796631e-01 6.194615364074707031e-01 7.053234428167343140e-02 -1.356674075126647949e+00
1.625000000000000000e+03 2.135428810119628906e+01 -2.707991790771484375e+01 4.980381131172180176e-01 2.209976315498352051e-01 2.157107293605804443e-01 -2.324975579977035522e-01
1.626000000000000000e+03 1.152641868591308594e+01 -3.325584793090820312e+01 -6.753340363502502441e-02 -1.789994835853576660e-01 -7.395986467599868774e-02 -1.938468664884567261e-01
1.627000000000000000e+03 1.536142349243164062e+01 -2.522601509094238281e+01 1.742876172065734863e-01 -3.798477947711944580e-01 -6.166804954409599304e-02 -2.336913645267486572e-01
1.628000000000000000e+03 1.223176479339599609e+01 -2.366786003112792969e+01 -3.719605505466461182e-02 -2.368910312652587891e-01 -8.222612738609313965e-02 -2.839656770229339600e-01
1.629000000000000000e+03 2.313847541809082031e+01 -2.505797767639160156e+01 3.546916842460632324e-01 2.736990451812744141e-01 1.885172128677368164e-01 -7.055940479040145874e-02
1.630000000000000000e+03 2.515752792358398438e+01 -3.485507965087890625e+01 6.367725878953933716e-02 3.339565992355346680e-01 1.192901581525802612e-01 6.275254418142139912e-04
1.631000000000000000e+03 2.688924789428710938e+01 -3.076502799987792969e+01 2.325996458530426025e-01 4.769183397293090820e-01 2.128553986549377441e-01 -1.887877732515335083e-01
1.632000000000000000e+03 5.262730026245117188e+01 -6.197221755981445312e+00 1.975278615951538086e+00 1.674817276000976562e+01 5.617035388946533203e+00 -2.727554559707641602e+00
1.633000000000000000e+03 5.215999984741210938e+01 -3.842356681823730469e+00 4.733122587203979492e-01 1.664134025573730469e+01 5.134395599365234375e+00 3.561108410358428955e-01
1.634000000000000000e+03 1.706535148620605469e+01 -6.928473949432373047e+00 -5.064760521054267883e-02 4.707526266574859619e-01 1.260315030813217163e-01 4.687375854700803757e-03
1.635000000000000000e+03 1.496953296661376953e+01 -1.107444477081298828e+01 -1.160706803202629089e-01 2.923553884029388428e-01 5.288541689515113831e-02 -1.922521926462650299e-02
1.636000000000000000e+03 2.964398384094238281e+01 -8.559774398803710938e+00 -1.995582878589630127e-02 -1.060733675956726074e+00 -3.242068588733673096e-01 -1.307314932346343994e-01
1.637000000000000000e+03 6.137003326416015625e+01 -6.200951576232910156e+00 5.451625585556030273e-01 1.143802642822265625e+01 3.594956636428833008e+00 1.068133953958749771e-02
1.638000000000000000e+03 2.597538948059082031e+01 -1.657155227661132812e+01 -1.640305668115615845e-01 -7.789669930934906006e-02 -7.257817685604095459e-02 -2.106515020132064819e-01
1.639000000000000000e+03 6.450785827636718750e+01 -2.845705604553222656e+01 2.166650295257568359e+00 7.543797969818115234e+00 2.913134336471557617e+00 -4.037978172302246094e+00
1.640000000000000000e+03 2.888862609863281250e+01 -1.605853652954101562e+01 -1.360818445682525635e-01 4.293574988842010498e-01 8.798269182443618774e-02 1.066820695996284485e-01
1.641000000000000000e+03 1.436660575866699219e+01 -1.992791175842285156e+00 -1.885733157396316528e-01 1.431747972965240479e-01 -1.361955888569355011e-02 -8.156519383192062378e-02
1.642000000000000000e+03 3.223348617553710938e+01 -4.794353961944580078e+00 1.437271535396575928e-01 -4.376532435417175293e-01 -8.817782998085021973e-02 -3.139151930809020996e-01
1.643000000000000000e+03 5.533332443237304688e+01 -1.101132869720458984e+01 -8.017234206199645996e-01 2.715130567550659180e+00 5.740221738815307617e-01 -2.252328634262084961e+00
1.644000000000000000e+03 5.654317092895507812e+01 -1.151290130615234375e+01 -4.110098481178283691e-01 2.135829925537109375e+00 5.174459815025329590e-01 -1.699938058853149414e+00
1.645000000000000000e+03 2.620156860351562500e+01 -1.462383079528808594e+01 -7.747908234596252441e-01 -3.191623091697692871e-01 -3.281859457492828369e-01 -3.339492380619049072e-01
1.646000000000000000e+03 7.351029205322265625e+01 -2.402969169616699219e+01 2.444215059280395508e+00 1.210558891296386719e+01 4.364941120147705078e+00 3.009910821914672852e+00
1.647000000000000000e+03 7.297337341308593750e+01 -2.493447494506835938e+01 6.444221138954162598e-01 6.346783638000488281e+00 2.097361803054809570e+00 3.249187946319580078e+00
1.648000000000000000e+03 1.615378952026367188e+01 -6.853249073028564453e+00 1.152974963188171387e-01 3.574344515800476074e-01 1.418195813894271851e-01 -3.543044254183769226e-02
1.649000000000000000e+03 5.277204513549804688e+01 2.541737556457519531e+01 8.627921342849731445e-01 5.719428539276123047e+00 1.974666118621826172e+00 -7.420740723609924316e-01
1.650000000000000000e+03 4.822602462768554688e+01 1.918026542663574219e+01 -3.617116928100585938e+00 -7.496581971645355225e-02 -1.107624769210815430e+00 -2.987776994705200195e-01
1.651000000000000000e+03 1.989525222778320312e+01 3.309429550170898438e+01 2.658272348344326019e-02 7.754162698984146118e-02 3.123730607330799103e-02 -5.142165720462799072e-02
1.652000000000000000e+03 6.948519134521484375e+01 -1.217952728271484375e+01 -5.804004669189453125e-01 7.086718082427978516e-01 3.848141804337501526e-02 -1.234639167785644531e+00
1.653000000000000000e+03 6.827674865722656250e+01 -1.170641517639160156e+01 1.216864228248596191e+00 1.735497832298278809e+00 8.857086300849914551e-01 -1.719985246658325195e+00
1.654000000000000000e+03 1.927698326110839844e+01 -1.384388446807861328e+01 -3.575862348079681396e-01 1.100555285811424255e-01 -7.425920665264129639e-02 -1.402079164981842041e-01
1.655000000000000000e+03 1.665844535827636719e+01 -1.071757316589355469e+01 -7.658524811267852783e-02 2.480008900165557861e-01 5.142468959093093872e-02 4.583521746098995209e-03
1.656000000000000000e+03 1.682784843444824219e+01 -1.279125404357910156e+01 -1.079951599240303040e-01 2.576584219932556152e-01 4.489897936582565308e-02 -1.434245333075523376e-02
1.657000000000000000e+03 3.070041656494140625e+01 -7.971435546875000000e+00 1.963208243250846863e-02 -4.957967400550842285e-01 -1.428494006395339966e-01 -1.133696287870407104e-01
1.658000000000000000e+03 3.125607299804687500e+01 -7.343147277832031250e+00 -4.903125017881393433e-02 -6.383559107780456543e-01 -2.062161564826965332e-01 -2.519173026084899902e-01
1.659000000000000000e+03 7.449353790283203125e+01 1.407159423828125000e+01 1.152712464332580566e+00 8.761564254760742188e+00 2.974282979965209961e+00 1.042743206024169922e+00
1.660000000000000000e+03 1.923880767822265625e+01 2.615739250183105469e+01 4.200397431850433350e-01 7.371291518211364746e-01 3.471506834030151367e-01 4.805361628532409668e-01
1.661000000000000000e+03 6.817018127441406250e+01 -2.608423042297363281e+01 -3.105637788772583008e+00 1.130666613578796387e+00 -5.924913287162780762e-01 -6.246292591094970703e-01
1.662000000000000000e+03 1.212867927551269531e+01 2.057495117187500000e+01 2.505373060703277588e-01 2.045607417821884155e-01 1.365294158458709717e-01 3.388293385505676270e-01
1.663000000000000000e+03 8.394038200378417969e+00 2.338745117187500000e+01 -2.597582340240478516e-01 -2.054833024740219116e-01 -1.395724564790725708e-01 1.731101721525192261e-01
1.664000000000000000e+03 6.512683868408203125e+01 -6.273313999176025391e+00 8.629128932952880859e-01 1.229668235778808594e+01 3.947878599166870117e+00 -2.874385714530944824e-01
1.665000000000000000e+03 7.814622497558593750e+01 1.679726982116699219e+01 1.589929684996604919e-02 7.022631168365478516e+00 2.111559152603149414e+00 8.691937327384948730e-01
1.666000000000000000e+03 7.562714385986328125e+01 1.535585498809814453e+01 4.359928369522094727e-01 7.867452144622802734e+00 2.491033554077148438e+00 1.295591115951538086e+00
1.667000000000000000e+03 5.571299743652343750e+01 7.832748889923095703e+00 7.255703806877136230e-01 9.554983139038085938e+00 3.084166049957275391e+00 3.470686376094818115e-01
1.668000000000000000e+03 6.614672851562500000e+01 6.775313854217529297e+00 -2.882608413696289062e+00 -1.099280193448066711e-01 -8.977609276771545410e-01 5.185700058937072754e-01
1.669000000000000000e+03 4.625685501098632812e+01 1.789954376220703125e+01 -1.215821385383605957e+00 1.618050098419189453e+00 1.206686124205589294e-01 3.757942020893096924e-01
1.670000000000000000e+03 5.902875900268554688e+01 -1.018905544281005859e+01 -1.629404306411743164e+00 1.360173344612121582e+00 -8.076929301023483276e-02 8.214138150215148926e-01
1.671000000000000000e+03 6.513232421875000000e+01 -9.840048789978027344e+00 6.128641366958618164e-01 8.554089546203613281e+00 2.750086069107055664e+00 -1.055086016654968262e+00
1.672000000000000000e+03 6.239033889770507812e+01 1.987876319885253906e+01 8.909307122230529785e-01 7.334421634674072266e+00 2.467605829238891602e+00 4.026942253112792969e+00
1.673000000000000000e+03 8.818114280700683594e+00 -2.438888359069824219e+01 9.044490754604339600e-02 6.241100654006004333e-02 4.585677385330200195e-02 -1.687436401844024658e-01
1.674000000000000000e+03 6.631193757057189941e-01 -2.471067428588867188e+01 1.616834662854671478e-02 -5.515685677528381348e-01 -1.606200635433197021e-01 6.084445863962173462e-03
1.675000000000000000e+03 5.313064098358154297e+00 -2.081973075866699219e+01 1.492587774991989136e-01 -1.804247032850980759e-03 4.423636198043823242e-02 -1.120242699980735779e-01
1.676000000000000000e+03 7.417152404785156250e+01 -1.074092102050781250e+01 -1.333220362663269043e+00 3.601349115371704102e+00 6.804386377334594727e-01 8.191487193107604980e-01
1.677000000000000000e+03 8.682930946350097656e+00 3.470777130126953125e+01 4.063277542591094971e-01 1.370447725057601929e-01 1.630117595195770264e-01 1.767286658287048340e-01
1.678000000000000000e+03 7.808414459228515625e+01 -2.751432609558105469e+01 -1.989410221576690674e-01 7.916223049163818359e+00 2.315184593200683594e+00 -2.614520788192749023e-01
1.679000000000000000e+03 5.499233627319335938e+01 -3.470573425292968750e+01 1.156914234161376953e+00 7.980616092681884766e+00 2.741259098052978516e+00 1.740925759077072144e-01
1.680000000000000000e+03 7.168635559082031250e+01 7.329462528228759766e+00 3.965102881193161011e-02 7.509255886077880859e+00 2.264672040939331055e+00 1.383496284484863281e+00
1.681000000000000000e+03 7.047649383544921875e+01 8.156468391418457031e+00 2.128688573837280273e+00 4.864273071289062500e+00 2.097888469696044922e+00 2.997548341751098633e+00
1.682000000000000000e+03 7.310729980468750000e+01 9.076268196105957031e+00 1.373441338539123535e+00 8.504122734069824219e+00 2.963269233703613281e+00 4.010110497474670410e-01
1.683000000000000000e+03 6.111571502685546875e+01 -2.356719207763671875e+01 2.266687393188476562e+00 3.006634473800659180e+00 1.581996560096740723e+00 -5.438648462295532227e-01
1.684000000000000000e+03 5.573455810546875000e+01 -9.782872200012207031e+00 -7.803663611412048340e-03 1.790399074554443359e+00 5.347785949707031250e-01 -1.264292955398559570e+00
1.685000000000000000e+03 5.359974288940429688e+01 -8.118700027465820312e+00 2.118443250656127930e+00 7.318801403045654297e+00 2.831173419952392578e+00 -3.191606044769287109e+00
1.686000000000000000e+03 5.831982135772705078e+00 2.673810005187988281e+01 -1.495134979486465454e-01 -9.163017868995666504e-01 -3.197445869445800781e-01 1.971704661846160889e-01
1.687000000000000000e+03 5.734898567199707031e+00 2.954428482055664062e+01 -2.348519628867506981e-03 -6.021825671195983887e-01 -1.813593357801437378e-01 2.016597799956798553e-02
1.688000000000000000e+03 7.111151885986328125e+01 1.812973976135253906e+01 -1.250759720802307129e+00 5.417019367218017578e+00 1.249877929687500000e+00 -8.342167735099792480e-01
1.689000000000000000e+03 1.334233665466308594e+01 3.585347747802734375e+01 1.847866177558898926e-01 -5.339671671390533447e-02 3.941697254776954651e-02 7.776690274477005005e-02
1.690000000000000000e+03 1.455215263366699219e+01 3.715494155883789062e+01 8.604460954666137695e-02 -3.396416828036308289e-02 1.562413200736045837e-02 1.168006733059883118e-01
1.691000000000000000e+03 6.150960159301757812e+01 1.746328163146972656e+01 2.961033821105957031e+00 1.227231025695800781e+01 4.570003032684326172e+00 5.269659996032714844e+00
1.692000000000000000e+03 5.433582687377929688e+01 1.599497795104980469e+01 1.289629697799682617e+00 5.997648239135742188e+00 2.186183452606201172e+00 -1.695018053054809570e+00
1.693000000000000000e+03 2.009666252136230469e+01 1.558520030975341797e+01 -2.599340975284576416e-01 -4.087527096271514893e-01 -2.006060481071472168e-01 2.493626475334167480e-01
1.694000000000000000e+03 2.133334922790527344e+01 1.578494644165039062e+01 -1.986765116453170776e-01 6.433764845132827759e-02 -4.030165821313858032e-02 4.724555835127830505e-02
1.695000000000000000e+03 5.913769531250000000e+01 -2.715729141235351562e+01 -2.218137264251708984e+00 1.283786535263061523e+00 -2.803052365779876709e-01 8.609123826026916504e-01
1.696000000000000000e+03 5.581960296630859375e+01 1.304412269592285156e+01 1.692258596420288086e+00 9.341279029846191406e+00 3.310061216354370117e+00 8.316607773303985596e-02
1.697000000000000000e+03 5.481740570068359375e+01 1.048960304260253906e+01 4.125337898731231689e-01 1.307885932922363281e+01 4.047418117523193359e+00 5.503927469253540039e-01
1.698000000000000000e+03 6.751647186279296875e+01 3.769909143447875977e+00 6.924345493316650391e-01 2.043004274368286133e+00 8.206316232681274414e-01 2.012000083923339844e+00
1.699000000000000000e+03 7.016227722167968750e+01 4.017530381679534912e-01 5.075173377990722656e-01 1.226992845535278320e+00 5.203530788421630859e-01 1.467831492424011230e+00
1.700000000000000000e+03 5.920106124877929688e+01 -1.227159786224365234e+01 -5.957169532775878906e-01 3.805703878402709961e+00 9.629961252212524414e-01 1.377168059349060059e+00
1.701000000000000000e+03 3.761385440826416016e+00 2.152204513549804688e+01 3.117853216826915741e-02 -6.025110483169555664e-01 -1.713997572660446167e-01 -3.125392133370041847e-03
1.702000000000000000e+03 7.182389068603515625e+01 -2.773013305664062500e+01 -7.953575253486633301e-01 3.617528438568115234e+00 8.466512560844421387e-01 2.080563306808471680e+00
1.703000000000000000e+03 7.017488861083984375e+01 -2.656872940063476562e+01 -3.826136827468872070e+00 4.924476891756057739e-02 -1.133067607879638672e+00 9.914647042751312256e-02
1.704000000000000000e+03 7.036782836914062500e+01 1.925173377990722656e+01 -2.553850650787353516e+00 4.030509948730468750e+00 4.429976940155029297e-01 -4.729291498661041260e-01
1.705000000000000000e+03 6.739113807678222656e+00 1.295137691497802734e+01 2.913892082870006561e-02 -2.386550754308700562e-01 -6.285484880208969116e-02 4.621286690235137939e-01
1.706000000000000000e+03 7.336261749267578125e+01 1.266614818572998047e+01 1.634752273559570312e+00 1.096227169036865234e+01 3.779107093811035156e+00 7.249209880828857422e-01
1.707000000000000000e+03 7.213591003417968750e+01 1.238066387176513672e+01 3.240064680576324463e-01 1.447609043121337891e+01 4.440029144287109375e+00 6.155782341957092285e-01
1.708000000000000000e+03 7.375746917724609375e+01 -2.080658340454101562e+01 4.954559803009033203e-01 1.291354656219482422e+01 4.022700786590576172e+00 -1.144670009613037109e+00
1.709000000000000000e+03 7.940169525146484375e+01 -1.670775985717773438e+01 3.918240964412689209e-02 9.470428466796875000e+00 2.852883338928222656e+00 3.868016302585601807e-01
1.710000000000000000e+03 6.156970977783203125e+01 8.290877342224121094e+00 -4.145772159099578857e-01 5.123570442199707031e+00 1.412697911262512207e+00 -1.352647423744201660e+00
1.711000000000000000e+03 6.232119369506835938e+01 9.150852203369140625e+00 3.986385762691497803e-01 2.422420740127563477e+00 8.463177680969238281e-01 -1.437621712684631348e+00
1.712000000000000000e+03 6.240731048583984375e+01 7.396799087524414062e+00 -1.160662889480590820e+00 3.370539188385009766e+00 6.629629135131835938e-01 -1.182852387428283691e+00
1.713000000000000000e+03 6.161559581756591797e+00 3.167133712768554688e+01 5.210367962718009949e-02 -2.955653965473175049e-01 -7.303851842880249023e-02 4.624311625957489014e-02
1.714000000000000000e+03 6.005059432983398438e+01 -3.884408569335937500e+01 -2.081862449645996094e+00 -2.946921885013580322e-01 -7.129664421081542969e-01 -6.201621890068054199e-01
1.715000000000000000e+03 4.976828765869140625e+01 5.797752380371093750e+00 -5.956579685211181641e+00 3.704136908054351807e-01 -1.675849795341491699e+00 -6.053508520126342773e-01
1.716000000000000000e+03 4.530708694458007812e+01 -2.606340217590332031e+01 -7.635878324508666992e-01 1.973356723785400391e+00 3.629306554794311523e-01 -5.505288243293762207e-01
1.717000000000000000e+03 4.684635162353515625e+01 -1.913494682312011719e+01 1.180483937263488770e+00 9.783992767333984375e+00 3.289343118667602539e+00 2.525995016098022461e+00
1.718000000000000000e+03 6.360549163818359375e+01 6.915085949003696442e-03 8.243978023529052734e-01 6.028245925903320312e+00 2.055793046951293945e+00 1.550616621971130371e-01
1.719000000000000000e+03 6.712743377685546875e+01 -1.498858833312988281e+01 -1.361592411994934082e+00 1.329362750053405762e+00 -9.668884798884391785e-03 -2.414886951446533203e-01
1.720000000000000000e+03 6.477431488037109375e+01 -1.883782005310058594e+01 4.193559885025024414e-01 7.778392314910888672e+00 2.459324598312377930e+00 6.125162839889526367e-01
1.721000000000000000e+03 6.217555236816406250e+01 -2.135050392150878906e+01 2.786752462387084961e+00 5.247851848602294922e+00 2.410381317138671875e+00 -1.380544424057006836e+00
1.722000000000000000e+03 2.729559707641601562e+01 8.895931243896484375e+00 3.006797432899475098e-01 4.576857089996337891e-01 2.275096327066421509e-01 5.185045674443244934e-02
1.723000000000000000e+03 6.163924407958984375e+01 -2.530559349060058594e+01 3.238193094730377197e-01 1.303539752960205078e+00 4.882077276706695557e-01 -1.082187891006469727e+00
1.724000000000000000e+03 4.789203643798828125e+01 2.331415176391601562e+01 2.114549428224563599e-01 2.961870431900024414e+00 9.519976377487182617e-01 1.787227690219879150e-01
1.725000000000000000e+03 7.945912933349609375e+01 -2.223250961303710938e+01 9.483329206705093384e-02 6.580627918243408203e+00 2.002638339996337891e+00 4.051854461431503296e-02
1.726000000000000000e+03 1.339860916137695312e+01 1.815878486633300781e+01 9.266216158866882324e-01 3.259660005569458008e-01 3.757762908935546875e-01 5.123059749603271484e-01
1.727000000000000000e+03 1.190109443664550781e+01 2.154826164245605469e+01 1.348911821842193604e-01 1.032014191150665283e-01 7.142778486013412476e-02 2.757815122604370117e-01
1.728000000000000000e+03 6.543283081054687500e+01 -8.320893287658691406e+00 2.172082901000976562e+00 1.188649749755859375e+01 4.217574119567871094e+00 -2.897875070571899414e+00
1.729000000000000000e+03 4.920941543579101562e+01 -2.409195661544799805e+00 1.232462882995605469e+00 5.507780551910400391e+00 2.022073030471801758e+00 2.551198959350585938e+00
1.730000000000000000e+03 6.658074951171875000e+01 -3.585361862182617188e+01 3.136445581912994385e-01 5.948288917541503906e+00 1.878579974174499512e+00 -3.162045478820800781e-01
1.731000000000000000e+03 6.344373703002929688e+01 -1.903852462768554688e+01 4.790760278701782227e-01 7.140787601470947266e+00 2.285959005355834961e+00 -7.898716330528259277e-01
1.732000000000000000e+03 5.300382232666015625e+01 -9.570636749267578125e+00 -2.319434583187103271e-01 6.694375038146972656e+00 1.938729405403137207e+00 -8.776806592941284180e-01
1.733000000000000000e+03 5.705960464477539062e+01 8.959038734436035156e+00 1.021567106246948242e+00 9.120004653930664062e+00 3.042471647262573242e+00 3.699204027652740479e-01
1.734000000000000000e+03 7.816742706298828125e+01 -1.524907493591308594e+01 -2.125786393880844116e-01 9.247400283813476562e+00 2.710446357727050781e+00 6.860625743865966797e-01
1.735000000000000000e+03 1.665595173835754395e+00 -1.168114185333251953e+01 9.275578893721103668e-03 -7.316925376653671265e-02 -1.916810311377048492e-02 6.123770028352737427e-03
1.736000000000000000e+03 6.139101791381835938e+01 -3.950001907348632812e+01 -1.869735479354858398e+00 -5.165030956268310547e-01 -7.158715724945068359e-01 1.270968168973922729e-01
1.737000000000000000e+03 1.963838386535644531e+01 2.749575805664062500e+01 7.499787956476211548e-02 3.147937953472137451e-01 1.169375032186508179e-01 1.918836086988449097e-01
1.738000000000000000e+03 5.165397524833679199e-01 3.187100982666015625e+01 1.562678068876266479e-02 -1.129988074302673340e+00 -3.343083858489990234e-01 3.592043742537498474e-02
1.739000000000000000e+03 2.008673477172851562e+01 2.260286712646484375e+01 3.221406638622283936e-01 3.482995033264160156e-01 2.011320441961288452e-01 8.954105526208877563e-02
1.740000000000000000e+03 7.887138366699218750e+00 2.148055839538574219e+01 2.697250992059707642e-02 -2.414889484643936157e-01 -6.435492634773254395e-02 8.475606888532638550e-02
1.741000000000000000e+03 1.845077705383300781e+01 2.187147712707519531e+01 3.885600864887237549e-01 2.667118608951568604e-01 1.965815871953964233e-01 1.635024249553680420e-01
1.742000000000000000e+03 7.279837036132812500e+01 -2.611835670471191406e+01 -1.129684448242187500e+00 4.965243339538574219e+00 1.150667667388916016e+00 1.706707119941711426e+00
1.743000000000000000e+03 5.334361648559570312e+01 -1.317112159729003906e+01 -6.232293844223022461e-01 3.507697343826293945e+00 8.653404116630554199e-01 -2.296166896820068359e+00
1.744000000000000000e+03 1.834424781799316406e+01 3.222760391235351562e+01 -1.515734344720840454e-01 -1.280062347650527954e-01 -8.387389779090881348e-02 1.449997872114181519e-01
1.745000000000000000e+03 7.501636028289794922e+00 3.554293441772460938e+01 1.815727949142456055e-01 -6.612190604209899902e-02 3.463526815176010132e-02 -3.366163582541048527e-04
1.746000000000000000e+03 4.743178367614746094e+00 3.703939056396484375e+01 3.703469783067703247e-02 -5.207855105400085449e-01 -1.451252400875091553e-01 -8.071281015872955322e-03
1.747000000000000000e+03 7.221015167236328125e+01 -1.450584220886230469e+01 -6.373038291931152344e-01 1.922822952270507812e+00 3.856557309627532959e-01 -9.687761664390563965e-01
1.748000000000000000e+03 2.062370491027832031e+01 7.486281871795654297e+00 4.370834827423095703e-01 5.992952268570661545e-03 1.329229325056076050e-01 2.192999124526977539e-01
1.749000000000000000e+03 6.649292755126953125e+01 -2.630824279785156250e+01 -1.996257305145263672e+00 6.736464500427246094e+00 1.422062158584594727e+00 -2.709009647369384766e+00
1.750000000000000000e+03 3.417803955078125000e+01 2.642419052124023438e+01 6.852892041206359863e-01 2.935826301574707031e+00 1.086334705352783203e+00 -4.409903585910797119e-01
1.751000000000000000e+03 1.880621528625488281e+01 3.823734283447265625e+01 1.196333393454551697e-01 1.375114768743515015e-01 7.714344561100006104e-02 -1.750377938151359558e-02
1.752000000000000000e+03 1.620636367797851562e+01 1.836141395568847656e+01 -2.492128312587738037e-01 -1.325006186962127686e-01 -1.145140305161476135e-01 2.029333263635635376e-01
1.753000000000000000e+03 3.430913925170898438e+01 2.278632164001464844e+01 5.889626592397689819e-02 2.228341579437255859e+00 6.861713528633117676e-01 -3.400548696517944336e-01
1.754000000000000000e+03 2.039184570312500000e+01 3.043624877929687500e+01 -4.681570082902908325e-02 3.061934560537338257e-02 -4.858907312154769897e-03 7.227018475532531738e-02
1.755000000000000000e+03 1.703126335144042969e+01 2.274521064758300781e+01 7.252762913703918457e-01 3.161822259426116943e-01 3.124375641345977783e-01 3.844281733036041260e-01
1.756000000000000000e+03 1.438819694519042969e+01 2.289915847778320312e+01 6.202079057693481445e-01 1.211084350943565369e-01 2.223949134349822998e-01 2.824539244174957275e-01
1.757000000000000000e+03 5.759050846099853516e-01 2.912725067138671875e+01 7.698653731495141983e-03 -9.041053056716918945e-01 -2.689220011234283447e-01 4.355630651116371155e-02
1.758000000000000000e+03 7.291728210449218750e+01 -1.687886428833007812e+01 1.215780451893806458e-01 4.976348400115966797e+00 1.529377937316894531e+00 -6.446658372879028320e-01
1.759000000000000000e+03 5.556077003479003906e+00 4.134375572204589844e+00 -9.641943871974945068e-02 -2.225470729172229767e-02 -3.560224547982215881e-02 -2.371439523994922638e-02
1.760000000000000000e+03 1.315294742584228516e+01 2.165581512451171875e+01 2.644071877002716064e-01 1.730972081422805786e-01 1.312513202428817749e-01 3.808251619338989258e-01
1.761000000000000000e+03 1.168817043304443359e+01 2.264191246032714844e+01 -3.486372157931327820e-02 2.740751765668392181e-02 -2.236861502751708031e-03 9.421614557504653931e-02
1.762000000000000000e+03 7.298753261566162109e+00 2.256519699096679688e+01 -8.401713520288467407e-02 -2.887493968009948730e-01 -1.118299588561058044e-01 1.017063856124877930e-01
1.763000000000000000e+03 1.443751144409179688e+01 2.047657585144042969e+01 2.902048230171203613e-01 2.343866378068923950e-01 1.573774367570877075e-01 5.225320458412170410e-01
1.764000000000000000e+03 7.054348754882812500e+01 -1.460901069641113281e+01 -4.758705496788024902e-01 9.007046222686767578e-01 1.274502277374267578e-01 -2.191390514373779297e+00
1.765000000000000000e+03 3.751258850097656250e+01 3.389425659179687500e+01 -9.708686172962188721e-02 6.632313728332519531e-01 1.698433607816696167e-01 2.959882318973541260e-01
1.766000000000000000e+03 3.077054214477539062e+01 2.937440490722656250e+01 5.664601325988769531e-01 1.153336763381958008e+00 5.159390568733215332e-01 -5.000095367431640625e-01
1.767000000000000000e+03 6.430586242675781250e+01 -2.518178367614746094e+01 -6.560561060905456543e-01 7.784786224365234375e+00 2.138619184494018555e+00 -2.505692720413208008e+00
1.768000000000000000e+03 3.674114608764648438e+01 2.141349220275878906e+01 -1.238080114126205444e-01 1.529320120811462402e+00 4.216536581516265869e-01 -8.595318794250488281e-01
1.769000000000000000e+03 7.831712341308593750e+01 -2.476055526733398438e+01 1.189000383019447327e-01 7.635510444641113281e+00 2.326323270797729492e+00 -5.491012930870056152e-01
1.770000000000000000e+03 7.602179718017578125e+01 -2.386387443542480469e+01 9.847516417503356934e-01 9.040529251098632812e+00 3.007584333419799805e+00 -3.527504503726959229e-01
1.771000000000000000e+03 5.390011215209960938e+01 -2.483678436279296875e+01 -1.405887126922607422e+00 3.720439910888671875e+00 6.943657994270324707e-01 1.890188574790954590e+00
1.772000000000000000e+03 6.543966674804687500e+01 -4.979124546051025391e+00 9.494591951370239258e-01 1.024406909942626953e+01 3.358058452606201172e+00 1.566373825073242188e+00
1.773000000000000000e+03 4.555328369140625000e+01 9.195114135742187500e+00 2.852813243865966797e+00 6.871147632598876953e+00 2.917188167572021484e+00 -3.612052202224731445e+00
1.774000000000000000e+03 4.469388961791992188e+01 1.120806026458740234e+01 1.597237110137939453e+00 8.704173088073730469e+00 3.090423107147216797e+00 -2.470205307006835938e+00
1.775000000000000000e+03 5.224972152709960938e+01 4.697358131408691406e+00 -1.808894395828247070e+00 3.860687255859375000e+00 6.155378818511962891e-01 3.234840154647827148e+00
1.776000000000000000e+03 5.177278518676757812e+01 5.751224517822265625e+00 -6.210151195526123047e+00 2.168799042701721191e-01 -1.797981381416320801e+00 1.004527136683464050e-01
1.777000000000000000e+03 7.112965393066406250e+01 -8.240321874618530273e-01 -1.441004157066345215e+00 2.179986685514450073e-01 -3.669016659259796143e-01 4.445090517401695251e-02
1.778000000000000000e+03 3.576603698730468750e+01 3.489345169067382812e+01 -2.688331305980682373e-01 1.216448426246643066e+00 2.842845916748046875e-01 2.272161990404129028e-01
1.779000000000000000e+03 7.294317626953125000e+01 -1.523644570261240005e-02 -4.729354679584503174e-01 3.707407236099243164e+00 9.703415632247924805e-01 -1.181966662406921387e+00
1.780000000000000000e+03 6.920402526855468750e+01 6.938509345054626465e-01 5.968556404113769531e-01 1.560102105140686035e+00 6.470873355865478516e-01 1.885430812835693359e+00
1.781000000000000000e+03 6.302178955078125000e+01 -3.817718505859375000e+01 -2.353585720062255859e+00 4.508283138275146484e-01 -5.708271861076354980e-01 -1.524967253208160400e-01
1.782000000000000000e+03 5.462685012817382812e+01 5.335135459899902344e+00 -1.985790371894836426e+00 7.401637077331542969e+00 1.624754071235656738e+00 2.067275047302246094e+00
1.783000000000000000e+03 5.433625793457031250e+01 6.589940547943115234e+00 -2.429368048906326294e-01 7.997093200683593750e+00 2.326246738433837891e+00 2.290733337402343750e+00
1.784000000000000000e+03 7.781703948974609375e+01 3.321257019042968750e+01 6.405512243509292603e-02 7.296262741088867188e+00 2.208095312118530273e+00 9.389661997556686401e-02
1.785000000000000000e+03 7.918597412109375000e+01 3.610001373291015625e+01 -2.709776349365711212e-02 7.738390922546386719e+00 2.313387870788574219e+00 2.623299509286880493e-02
1.786000000000000000e+03 7.945816040039062500e+01 -2.088120460510253906e+01 2.554804086685180664e-02 6.910905838012695312e+00 2.080936193466186523e+00 2.087004184722900391e-01
1.787000000000000000e+03 7.691319274902343750e+01 -2.879756355285644531e+01 -3.712351024150848389e-01 7.735918045043945312e+00 2.209404945373535156e+00 1.001792922616004944e-01
1.788000000000000000e+03 7.937295532226562500e+01 -2.775350570678710938e+01 -6.531141698360443115e-02 8.050913810729980469e+00 2.395680665969848633e+00 -1.309742629528045654e-01
1.789000000000000000e+03 7.696238708496093750e+01 -3.796452331542968750e+01 4.431528504937887192e-03 7.475544929504394531e+00 2.243993043899536133e+00 -1.566341668367385864e-01
1.790000000000000000e+03 7.928220367431640625e+01 -3.463531112670898438e+01 5.013960227370262146e-02 7.898964405059814453e+00 2.384731292724609375e+00 1.316125970333814621e-03
1.791000000000000000e+03 7.553131103515625000e+01 -2.751035881042480469e+01 -8.559244275093078613e-01 8.004558563232421875e+00 2.144590139389038086e+00 3.085017204284667969e-01
1.792000000000000000e+03 7.938867187500000000e+01 -3.052780723571777344e+01 -3.720168024301528931e-02 8.161258697509765625e+00 2.437216997146606445e+00 3.615381568670272827e-02
1.793000000000000000e+03 7.804840087890625000e+01 -3.291412353515625000e+01 8.491762727499008179e-02 7.568249702453613281e+00 2.295950174331665039e+00 7.919437438249588013e-02
1.794000000000000000e+03 7.479453277587890625e+01 -3.804951858520507812e+01 -1.088264491409063339e-02 6.812055587768554688e+00 2.040351867675781250e+00 -5.165884494781494141e-01
1.795000000000000000e+03 7.622779846191406250e+01 -3.921630859375000000e+01 -7.063825428485870361e-02 7.508366584777832031e+00 2.231318473815917969e+00 -2.794626057147979736e-01
1.796000000000000000e+03 7.809073638916015625e+01 1.538466358184814453e+01 6.588426232337951660e-02 6.637724876403808594e+00 2.011082649230957031e+00 8.672513961791992188e-01
1.797000000000000000e+03 7.936412048339843750e+01 1.533863544464111328e+01 7.917080074548721313e-02 5.896317958831787109e+00 1.792646646499633789e+00 3.302666246891021729e-01
1.798000000000000000e+03 7.938357543945312500e+01 2.229510879516601562e+01 -4.852477461099624634e-02 8.400233268737792969e+00 2.505512714385986328e+00 2.420781739056110382e-02
1.799000000000000000e+03 7.792109680175781250e+01 3.188850975036621094e+01 4.065437242388725281e-02 7.286292076110839844e+00 2.198084115982055664e+00 3.129045665264129639e-02
1.800000000000000000e+03 7.813922119140625000e+01 2.785616683959960938e+01 6.480549275875091553e-02 7.466729164123535156e+00 2.259460210800170898e+00 -1.925791651010513306e-01
1.801000000000000000e+03 7.937950897216796875e+01 2.786305236816406250e+01 -4.112298600375652313e-03 7.825294971466064453e+00 2.346354961395263672e+00 -7.016719877719879150e-02
1.802000000000000000e+03 7.811799621582031250e+01 2.510076904296875000e+01 -2.451683580875396729e-02 7.720977306365966797e+00 2.308938264846801758e+00 -2.180297970771789551e-01
1.803000000000000000e+03 7.811622619628906250e+01 2.370086288452148438e+01 -1.184650734066963196e-01 7.823278903961181641e+00 2.311444282531738281e+00 -1.174352616071701050e-01
1.804000000000000000e+03 7.243614196777343750e+01 1.607579231262207031e+01 3.570388853549957275e-01 9.216598510742187500e+00 2.872091293334960938e+00 6.004537642002105713e-02
1.805000000000000000e+03 7.519910430908203125e+01 1.076784229278564453e+01 1.257186412811279297e+00 7.920936107635498047e+00 2.753436803817749023e+00 2.832015790045261383e-02
1.806000000000000000e+03 7.793630981445312500e+01 9.520346641540527344e+00 2.429110854864120483e-01 6.209788322448730469e+00 1.935809731483459473e+00 -5.651618242263793945e-01
1.807000000000000000e+03 7.930996704101562500e+01 9.677742004394531250e+00 1.070296391844749451e-01 5.145979881286621094e+00 1.575902819633483887e+00 -1.819476038217544556e-01
1.808000000000000000e+03 7.478093719482421875e+01 -1.703634643554687500e+01 -2.962964475154876709e-01 7.274541854858398438e+00 2.093473672866821289e+00 4.605550169944763184e-01
1.809000000000000000e+03 7.940436553955078125e+01 -1.390683078765869141e+01 -1.189889535307884216e-01 1.076051330566406250e+01 3.192457199096679688e+00 6.826665252447128296e-02
1.810000000000000000e+03 7.942776489257812500e+01 -1.950636672973632812e+01 9.680882841348648071e-02 7.608371734619140625e+00 2.311554193496704102e+00 3.586993813514709473e-01
1.811000000000000000e+03 7.654116058349609375e+01 -2.220815658569335938e+01 9.504804015159606934e-01 8.724265098571777344e+00 2.902423858642578125e+00 1.558968424797058105e-01
1.812000000000000000e+03 7.934302520751953125e+01 -6.992955207824707031e+00 2.355567961931228638e-01 7.044194698333740234e+00 2.183925390243530273e+00 -2.937324941158294678e-01
1.813000000000000000e+03 7.936975860595703125e+01 -5.584887504577636719e+00 1.389744728803634644e-01 6.867848873138427734e+00 2.102046966552734375e+00 1.124381572008132935e-01
1.814000000000000000e+03 7.823515319824218750e+01 -9.215545654296875000e-02 -2.736164033412933350e-01 8.101030349731445312e+00 2.348224163055419922e+00 5.961518734693527222e-02
1.815000000000000000e+03 7.942652893066406250e+01 1.339249968528747559e+00 -9.966438263654708862e-02 8.458611488342285156e+00 2.507683992385864258e+00 -7.036062330007553101e-02
1.816000000000000000e+03 7.798851776123046875e+01 8.036842346191406250e+00 1.078645288944244385e-01 6.459970951080322266e+00 1.970350742340087891e+00 -7.041847109794616699e-01
1.817000000000000000e+03 7.429637908935546875e+01 3.710374832153320312e+01 -1.187275350093841553e-01 6.608699321746826172e+00 1.946991562843322754e+00 3.113796412944793701e-01
1.818000000000000000e+03 7.794258880615234375e+01 1.101173591613769531e+01 4.020486176013946533e-01 6.044975757598876953e+00 1.934107303619384766e+00 -1.131303161382675171e-01
1.819000000000000000e+03 7.826839447021484375e+01 1.235851049423217773e+00 -1.867231428623199463e-01 7.929698467254638672e+00 2.322892427444458008e+00 -2.993455231189727783e-01
1.820000000000000000e+03 7.827748870849609375e+01 2.546407699584960938e+00 -1.604602932929992676e-01 7.646371841430664062e+00 2.245773553848266602e+00 -4.550292789936065674e-01
1.821000000000000000e+03 7.558889007568359375e+01 -2.911399364471435547e+00 -1.213015392422676086e-01 8.724653244018554688e+00 2.581005573272705078e+00 -5.640428662300109863e-01
1.822000000000000000e+03 7.588208770751953125e+01 1.101406097412109375e+00 -5.114521384239196777e-01 6.786214351654052734e+00 1.882428646087646484e+00 -7.546432018280029297e-01
1.823000000000000000e+03 7.567901611328125000e+01 -5.421455383300781250e+00 1.359940409660339355e+00 1.237675666809082031e+01 4.121008872985839844e+00 -1.555227637290954590e+00
1.824000000000000000e+03 7.820748138427734375e+01 -1.383153915405273438e+01 -5.033948421478271484e-01 9.634774208068847656e+00 2.739413738250732422e+00 3.903217315673828125e-01
1.825000000000000000e+03 7.563146209716796875e+01 -1.533572483062744141e+01 -8.133984804153442383e-01 7.369312763214111328e+00 1.966774344444274902e+00 8.200485706329345703e-01
1.826000000000000000e+03 7.599378967285156250e+01 -1.816629219055175781e+01 1.769388169050216675e-01 8.256103515625000000e+00 2.529912710189819336e+00 1.142958402633666992e+00
1.827000000000000000e+03 7.743758392333984375e+01 -2.139760971069335938e+01 6.360238194465637207e-01 7.951945304870605469e+00 2.576390743255615234e+00 4.756453931331634521e-01
1.828000000000000000e+03 7.796085357666015625e+01 -8.571465492248535156e+00 4.487154185771942139e-01 9.053464889526367188e+00 2.850654125213623047e+00 -1.310863375663757324e+00
1.829000000000000000e+03 7.609399414062500000e+01 -1.019377803802490234e+01 -7.690737247467041016e-01 9.552544593811035156e+00 2.635041236877441406e+00 -1.040976524353027344e+00
1.830000000000000000e+03 1.960599517822265625e+01 7.112806797027587891e+00 3.860701620578765869e-01 1.305159032344818115e-01 1.549758166074752808e-01 2.128225713968276978e-01
1.831000000000000000e+03 5.374733734130859375e+01 -3.377818298339843750e+01 1.607673287391662598e+00 6.253236293792724609e+00 2.358273029327392578e+00 7.473164200782775879e-01
1.832000000000000000e+03 5.553586578369140625e+01 -2.959646034240722656e+01 7.753162384033203125e-01 6.914565086364746094e+00 2.306964397430419922e+00 1.692650079727172852e+00
1.833000000000000000e+03 5.663874435424804688e+01 -3.041646575927734375e+01 1.702567577362060547e+00 9.303403854370117188e+00 3.301791429519653320e+00 3.291772127151489258e+00
1.834000000000000000e+03 4.455723953247070312e+01 2.201392364501953125e+01 -5.370914340019226074e-01 2.292916774749755859e+00 5.267476439476013184e-01 1.140041589736938477e+00
1.835000000000000000e+03 2.210180664062500000e+01 1.095796775817871094e+01 2.642678618431091309e-01 3.098506480455398560e-02 8.857588469982147217e-02 2.660128176212310791e-01
1.836000000000000000e+03 1.582369327545166016e+01 2.060573577880859375e+01 3.318913280963897705e-01 1.227010339498519897e-01 1.363777071237564087e-01 4.427655935287475586e-01
1.837000000000000000e+03 3.971073913574218750e+01 3.754522705078125000e+01 1.203721910715103149e-01 8.792406916618347168e-01 2.998838722705841064e-01 -1.355323791503906250e-01
1.838000000000000000e+03 7.486689758300781250e+01 -4.732685089111328125e+00 1.234752655029296875e+00 1.225090217590332031e+01 4.045696258544921875e+00 -2.768698453903198242e+00
1.839000000000000000e+03 2.108505249023437500e+01 1.716263389587402344e+01 -6.664648652076721191e-02 8.899674564599990845e-02 6.705078762024641037e-03 -2.386928908526897430e-02
1.840000000000000000e+03 1.961189460754394531e+01 1.851824378967285156e+01 2.046729810535907745e-02 -1.636599004268646240e-02 1.230392605066299438e-03 -2.993656322360038757e-02
1.841000000000000000e+03 5.899442672729492188e+01 1.107202529907226562e+01 1.236647367477416992e+00 8.608173370361328125e+00 2.953446149826049805e+00 4.244600832462310791e-01
1.842000000000000000e+03 7.542192077636718750e+01 -6.677204132080078125e+00 7.177324891090393066e-01 1.417667865753173828e+01 4.468323230743408203e+00 -1.159996151924133301e+00
1.843000000000000000e+03 6.443999481201171875e+01 -4.486450195312500000e+00 1.691751122474670410e+00 9.363687515258789062e+00 3.316631555557250977e+00 -3.014856018126010895e-02
1.844000000000000000e+03 5.862307357788085938e+01 -3.852552032470703125e+01 -1.543229579925537109e+00 1.634363412857055664e+00 2.734013088047504425e-02 1.045042499899864197e-01
1.845000000000000000e+03 5.919966125488281250e+01 -4.049924087524414062e+01 -7.924814820289611816e-01 8.056830763816833496e-01 3.960485104471445084e-03 -8.319297432899475098e-01
1.846000000000000000e+03 3.554006576538085938e+01 2.101654434204101562e+01 -9.767825901508331299e-02 1.780344724655151367e+00 5.047999620437622070e-01 -7.099066972732543945e-01
1.847000000000000000e+03 8.391728401184082031e+00 1.310794448852539062e+01 1.268847137689590454e-01 -2.211192399263381958e-01 -2.827036008238792419e-02 4.381313920021057129e-01
1.848000000000000000e+03 4.551818847656250000e+01 1.667502975463867188e+01 4.781071245670318604e-01 3.257796764373779297e+00 1.120771169662475586e+00 9.202194213867187500e-01
1.849000000000000000e+03 9.301844596862792969e+00 1.662485885620117188e+01 5.344632267951965332e-01 5.645383149385452271e-02 1.772751212120056152e-01 3.088934421539306641e-01
1.850000000000000000e+03 2.203487777709960938e+01 1.309647369384765625e+01 1.443674787878990173e-02 1.827416382730007172e-02 9.813273325562477112e-03 1.278373897075653076e-01
1.851000000000000000e+03 5.047838973999023438e+01 2.903970146179199219e+01 1.443041920661926270e+00 4.940960884094238281e+00 1.915200829505920410e+00 -4.160887002944946289e-01
1.852000000000000000e+03 1.468932533264160156e+01 4.423199653625488281e+00 -4.905967116355895996e-01 1.144490553997457027e-03 -1.468356698751449585e-01 6.345776319503784180e-01
1.853000000000000000e+03 1.676561737060546875e+01 4.101104259490966797e+00 -6.848567128181457520e-01 6.470391899347305298e-02 -1.860458403825759888e-01 5.702202320098876953e-01
1.854000000000000000e+03 9.858326911926269531e+00 8.161885261535644531e+00 -5.055833458900451660e-01 -4.756582975387573242e-01 -2.943724989891052246e-01 3.649556636810302734e-01
1.855000000000000000e+03 7.475008010864257812e+00 3.323841333389282227e+00 -8.834699541330337524e-02 -5.240520089864730835e-02 -4.222565889358520508e-02 -8.776066824793815613e-03
1.856000000000000000e+03 7.311069488525390625e+01 -1.357395172119140625e+01 -8.624111413955688477e-01 2.620927572250366211e+00 5.275549292564392090e-01 6.892494857311248779e-02
1.857000000000000000e+03 4.418323898315429688e+01 3.196506690979003906e+01 9.194341301918029785e-01 1.802894473075866699e+00 8.166986107826232910e-01 -1.295917749404907227e+00
1.858000000000000000e+03 5.513698577880859375e+01 1.544363021850585938e+01 1.655879616737365723e+00 6.654930114746093750e+00 2.493242979049682617e+00 -1.201343655586242676e+00
1.859000000000000000e+03 4.513069534301757812e+01 3.310965347290039062e+01 2.713807225227355957e-01 2.756707906723022461e+00 9.084265828132629395e-01 -1.081236004829406738e+00
1.860000000000000000e+03 5.666795349121093750e+01 -2.693507194519042969e+01 -2.084530591964721680e+00 6.611953258514404297e+00 1.358226656913757324e+00 1.623240947723388672e+00
1.861000000000000000e+03 4.710647583007812500e+01 2.098456764221191406e+01 -1.444514870643615723e+00 1.762228250503540039e+00 9.531401842832565308e-02 9.305107593536376953e-01
1.862000000000000000e+03 4.552116775512695312e+01 1.995285797119140625e+01 -1.666523814201354980e+00 2.575436592102050781e+00 2.726738154888153076e-01 1.090888738632202148e+00
1.863000000000000000e+03 5.588935852050781250e+01 1.413207912445068359e+01 1.676741838455200195e+00 8.668416023254394531e+00 3.103547334671020508e+00 -2.086476236581802368e-01
1.864000000000000000e+03 5.179957962036132812e+01 1.696118545532226562e+01 1.129745244979858398e+00 2.451627731323242188e+00 1.074411869049072266e+00 -1.972602248191833496e+00
1.865000000000000000e+03 5.016201782226562500e+01 -3.107281684875488281e+01 1.698781251907348633e+00 4.774608135223388672e+00 1.942016720771789551e+00 -7.792061567306518555e-01
1.866000000000000000e+03 6.754599761962890625e+01 -3.287658691406250000e+01 1.398445844650268555e+00 6.900869846343994141e+00 2.489794731140136719e+00 -1.571030020713806152e+00
1.867000000000000000e+03 6.715344238281250000e+01 -3.022827911376953125e+01 2.386561393737792969e+00 5.995954513549804688e+00 2.514754772186279297e+00 -1.961714386940002441e+00
1.868000000000000000e+03 6.268678665161132812e+01 -7.738272666931152344e+00 1.789260625839233398e+00 9.275203704833984375e+00 3.319339275360107422e+00 -3.955121338367462158e-01
1.869000000000000000e+03 6.454022979736328125e+01 -7.398357391357421875e+00 1.848964810371398926e+00 1.134730434417724609e+01 3.958880662918090820e+00 -1.443152785301208496e+00
1.870000000000000000e+03 4.189979934692382812e+01 1.109673118591308594e+01 1.688224196434020996e+00 2.730272531509399414e+00 1.325549006462097168e+00 -1.294259071350097656e+00
1.871000000000000000e+03 3.395854568481445312e+01 3.473084640502929688e+01 -1.824260801076889038e-01 1.470084905624389648e+00 3.862976431846618652e-01 2.730532363057136536e-02
1.872000000000000000e+03 2.746420478820800781e+01 3.157972526550292969e+01 4.689331054687500000e-01 7.148140072822570801e-01 3.551241159439086914e-01 -4.611878842115402222e-02
1.873000000000000000e+03 1.340278434753417969e+01 -1.321344947814941406e+01 1.034291684627532959e-01 2.013052552938461304e-01 9.142032265663146973e-02 -1.363107264041900635e-01
1.874000000000000000e+03 1.532662200927734375e+01 -1.510100460052490234e+01 1.885855793952941895e-01 5.506134033203125000e-01 2.217596918344497681e-01 -2.817313671112060547e-01
1.875000000000000000e+03 7.816596221923828125e+01 -4.193541526794433594e+00 1.928402185440063477e-01 8.282640457153320312e+00 2.542644262313842773e+00 5.446946620941162109e-01
1.876000000000000000e+03 6.541583251953125000e+01 -2.559806442260742188e+01 -1.168664813041687012e+00 8.052855491638183594e+00 2.065257310867309570e+00 -2.787605762481689453e+00
1.877000000000000000e+03 4.360032653808593750e+01 1.417885875701904297e+01 7.407686114311218262e-01 4.629751205444335938e+00 1.611155986785888672e+00 -7.122296690940856934e-01
1.878000000000000000e+03 3.834972763061523438e+01 1.005026435852050781e+01 1.654865890741348267e-01 -6.842247843742370605e-01 -1.556214541196823120e-01 1.704519540071487427e-01
1.879000000000000000e+03 6.665164947509765625e+01 -7.438253164291381836e-01 1.151983261108398438e+00 3.601528167724609375e+00 1.426053404808044434e+00 1.926772117614746094e+00
1.880000000000000000e+03 6.204767608642578125e+01 -2.862299203872680664e+00 2.564139604568481445e+00 9.418432235717773438e+00 3.594771623611450195e+00 -1.541994094848632812e+00
1.881000000000000000e+03 3.496537399291992188e+01 2.809274673461914062e+01 2.729200422763824463e-01 3.832378387451171875e+00 1.231589555740356445e+00 -1.683322042226791382e-01
1.882000000000000000e+03 5.627813339233398438e+01 -2.828875160217285156e+01 -1.217532977461814880e-01 7.078160762786865234e+00 2.086922407150268555e+00 1.901051640510559082e+00
1.883000000000000000e+03 7.804457855224609375e+01 -7.015249252319335938e+00 6.947593688964843750e-01 8.764427185058593750e+00 2.837755918502807617e+00 -4.716566205024719238e-01
1.884000000000000000e+03 7.425468444824218750e+01 -8.970400094985961914e-01 -8.570618033409118652e-01 6.156865596771240234e+00 1.589941143989562988e+00 -1.123271584510803223e+00
1.885000000000000000e+03 7.354351806640625000e+01 -2.197463989257812500e+00 6.756483316421508789e-01 4.978045940399169922e+00 1.696108341217041016e+00 -1.646753787994384766e+00
1.886000000000000000e+03 6.783005523681640625e+01 -3.418813705444335938e+01 1.027006864547729492e+00 6.023300647735595703e+00 2.115092277526855469e+00 -1.319275975227355957e+00
1.887000000000000000e+03 7.105446624755859375e+01 -2.940936660766601562e+01 9.203169345855712891e-01 3.509086608886718750e+00 1.328821063041687012e+00 5.744254589080810547e-01
1.888000000000000000e+03 6.394115829467773438e+01 -2.647474098205566406e+01 -2.204757690429687500e+00 6.952369689941406250e+00 1.424283623695373535e+00 -2.550611734390258789e+00
1.889000000000000000e+03 3.622298812866210938e+01 2.255738449096679688e+01 -3.636882454156875610e-02 1.878769874572753906e+00 5.527203083038330078e-01 -7.862311005592346191e-01
1.890000000000000000e+03 4.595495986938476562e+01 3.233473587036132812e+01 4.394100010395050049e-01 3.203824758529663086e+00 1.092970490455627441e+00 -9.990912079811096191e-01
1.891000000000000000e+03 6.709211730957031250e+01 -1.145218181610107422e+01 1.006628513336181641e+00 3.662549734115600586e+00 1.400753498077392578e+00 -1.728528261184692383e+00
1.892000000000000000e+03 7.038269805908203125e+01 -1.356952667236328125e+01 -1.995192170143127441e-01 1.263339668512344360e-01 -2.195557765662670135e-02 -2.139376878738403320e+00
1.893000000000000000e+03 4.373701477050781250e+01 1.573001575469970703e+01 3.606489002704620361e-01 3.777751922607421875e+00 1.241520285606384277e+00 -3.835772871971130371e-01
1.894000000000000000e+03 5.161430358886718750e+01 1.877672576904296875e+01 -1.437567710876464844e+00 3.302415847778320312e+00 5.594543814659118652e-01 -1.640720248222351074e+00
1.895000000000000000e+03 5.252265167236328125e+01 1.769217681884765625e+01 3.353632986545562744e-01 3.571928501129150391e+00 1.172187566757202148e+00 -1.976446509361267090e+00
1.896000000000000000e+03 5.350086593627929688e+01 1.681497192382812500e+01 7.634851932525634766e-01 4.874594211578369141e+00 1.691423773765563965e+00 -2.269703388214111328e+00
1.897000000000000000e+03 5.780761337280273438e+01 1.136047840118408203e+01 1.675110101699829102e+00 9.128046989440917969e+00 3.240947246551513672e+00 9.070757627487182617e-01
1.898000000000000000e+03 5.603906250000000000e+01 1.044030189514160156e+01 1.411170482635498047e+00 1.088155555725097656e+01 3.687817811965942383e+00 1.160239219665527344e+00
1.899000000000000000e+03 5.152143001556396484e+00 -1.745391845703125000e+01 -1.319769918918609619e-01 -5.233024358749389648e-01 -1.965838223695755005e-01 -1.852433532476425171e-01
1.900000000000000000e+03 1.731905555725097656e+01 -1.770352554321289062e+01 -1.028770115226507187e-02 3.736830875277519226e-02 8.124182000756263733e-03 -5.548036098480224609e-01
1.901000000000000000e+03 1.325585651397705078e+01 -2.210365867614746094e+01 -4.551576673984527588e-01 -2.420630753040313721e-01 -2.091662287712097168e-01 -3.529019951820373535e-01
1.902000000000000000e+03 1.762415695190429688e+01 -1.181176757812500000e+01 -7.333546131849288940e-02 2.711413204669952393e-01 5.934175476431846619e-02 -2.102632261812686920e-02
1.903000000000000000e+03 5.538619995117187500e+01 -1.918306732177734375e+01 1.162057042121887207e+00 8.727894783020019531e+00 2.966985464096069336e+00 -1.486406803131103516e+00
1.904000000000000000e+03 5.605577087402343750e+01 -1.636893463134765625e+01 -5.276108980178833008e-01 5.448798179626464844e+00 1.476356148719787598e+00 -6.799290180206298828e-01
1.905000000000000000e+03 5.080799865722656250e+01 -2.539807701110839844e+01 -4.011333942413330078e+00 1.227752193808555603e-01 -1.166567683219909668e+00 -1.599293798208236694e-01
1.906000000000000000e+03 9.209070205688476562e+00 -2.697966575622558594e+01 -6.740369647741317749e-02 -7.373147457838058472e-02 -4.234055429697036743e-02 -1.774641275405883789e-01
1.907000000000000000e+03 5.201514434814453125e+01 -2.546120643615722656e+01 -4.102532863616943359e+00 5.546801686286926270e-01 -1.064355850219726562e+00 3.688114285469055176e-01
1.908000000000000000e+03 5.320991897583007812e+01 -1.474258518218994141e+01 -1.165613412857055664e+00 2.665948629379272461e+00 4.501005709171295166e-01 -2.617769002914428711e+00
1.909000000000000000e+03 1.622054290771484375e+01 -2.228708648681640625e+01 -1.883099377155303955e-01 -3.099775612354278564e-01 -1.494862437248229980e-01 -2.551853060722351074e-01
1.910000000000000000e+03 1.573749923706054688e+01 -2.102648544311523438e+01 -5.000313520431518555e-01 -5.633575916290283203e-01 -3.190166652202606201e-01 -4.085916876792907715e-01
1.911000000000000000e+03 1.273539924621582031e+01 -2.584615135192871094e+01 7.003092020750045776e-02 -3.411728441715240479e-01 -8.134257048368453979e-02 -2.455691695213317871e-01
1.912000000000000000e+03 6.110582947731018066e-01 -2.614723396301269531e+01 -1.025596540421247482e-02 -5.355998873710632324e-01 -1.637567579746246338e-01 8.656249381601810455e-03
1.913000000000000000e+03 1.356662368774414062e+01 -2.320874786376953125e+01 -1.161215752363204956e-01 -4.416414499282836914e-01 -1.673289090394973755e-01 -3.587423861026763916e-01
1.914000000000000000e+03 1.984306931495666504e+00 -1.566997528076171875e+01 -3.930481523275375366e-02 -1.611266732215881348e-01 -6.012944504618644714e-02 -6.799552589654922485e-02
1.915000000000000000e+03 6.628071665763854980e-01 -1.613081741333007812e+01 -3.196474281139671803e-04 -6.706857681274414062e-02 -2.021646685898303986e-02 -2.091145329177379608e-02
1.916000000000000000e+03 1.671454048156738281e+01 -1.980791282653808594e+01 -3.927877247333526611e-01 -7.758648693561553955e-02 -1.411122530698776245e-01 -4.631105363368988037e-01
1.917000000000000000e+03 1.695872306823730469e+01 -1.879133033752441406e+01 -2.180984765291213989e-01 -5.614221096038818359e-02 -8.227220922708511353e-02 -5.619089007377624512e-01
1.918000000000000000e+03 4.104267120361328125e+01 -2.118504333496093750e+01 4.067340195178985596e-01 1.943530440330505371e+00 7.050793170928955078e-01 1.090225577354431152e+00
1.919000000000000000e+03 4.689586257934570312e+01 -2.633953857421875000e+01 -1.114817023277282715e+00 2.837528705596923828e+00 5.168135166168212891e-01 -1.764479517936706543e+00
1.920000000000000000e+03 5.543976211547851562e+01 -2.196625328063964844e+01 1.362895369529724121e+00 1.140674591064453125e+01 3.830892324447631836e+00 1.643686890602111816e+00
1.921000000000000000e+03 5.688329315185546875e+01 -1.927837753295898438e+01 1.477184534072875977e+00 6.565637588500976562e+00 2.412846565246582031e+00 2.275570109486579895e-02
1.922000000000000000e+03 5.521225738525390625e+01 -2.760786247253417969e+01 -1.438422560691833496e+00 6.459356784820556641e+00 1.506280183792114258e+00 1.337100028991699219e+00
1.923000000000000000e+03 1.529446601867675781e+00 -4.002225494384765625e+01 1.378172636032104492e-02 -6.726719141006469727e-01 -1.976670622825622559e-01 -1.956971827894449234e-03
1.924000000000000000e+03 7.383947372436523438e-01 3.731091308593750000e+01 9.604585357010364532e-03 -1.156073331832885742e+00 -3.439406156539916992e-01 -3.368192911148071289e-02
1.925000000000000000e+03 3.319092988967895508e+00 3.630663681030273438e+01 4.708792641758918762e-02 -7.902064323425292969e-01 -2.229355424642562866e-01 -3.497634455561637878e-02
1.926000000000000000e+03 5.425843596458435059e-01 3.459092712402343750e+01 1.244819164276123047e-02 -1.236734867095947266e+00 -3.672860264778137207e-01 3.448666771873831749e-03
1.927000000000000000e+03 6.382128596305847168e-01 2.773159408569335938e+01 -1.358083076775074005e-02 -8.151114583015441895e-01 -2.486076802015304565e-01 3.420273959636688232e-02
1.928000000000000000e+03 6.564033031463623047e-01 2.631223487854003906e+01 -3.195945871993899345e-03 -7.609767913818359375e-01 -2.292518317699432373e-01 1.714634150266647339e-02
1.929000000000000000e+03 7.999873757362365723e-01 -3.589255523681640625e+01 -1.046316348947584629e-03 -6.212722659111022949e-01 -1.866955757141113281e-01 -1.830554008483886719e-02
1.930000000000000000e+03 1.993011713027954102e+00 -3.275777053833007812e+01 -7.195230573415756226e-03 -4.942057728767395020e-01 -1.504203081130981445e-01 -4.076039791107177734e-02
1.931000000000000000e+03 6.571613550186157227e-01 2.348081207275390625e+01 -3.015733556821942329e-03 -7.541234493255615234e-01 -2.271417677402496338e-01 -1.270384714007377625e-02
1.932000000000000000e+03 3.371408462524414062e+00 3.120339012145996094e+01 5.209492146968841553e-02 -7.550558447837829590e-01 -2.108882814645767212e-01 1.422194987535476685e-01
1.933000000000000000e+03 4.292444705963134766e+00 3.403798675537109375e+01 1.304033994674682617e-01 -6.518893837928771973e-01 -1.564457863569259644e-01 5.081309005618095398e-02
1.934000000000000000e+03 2.629664897918701172e+00 3.456097793579101562e+01 5.798788741230964661e-02 -8.951042890548706055e-01 -2.511349320411682129e-01 1.981462351977825165e-02
1.935000000000000000e+03 2.525026559829711914e+00 3.807677841186523438e+01 3.261259943246841431e-02 -9.015123248100280762e-01 -2.606699168682098389e-01 -7.959539443254470825e-02
1.936000000000000000e+03 3.284233570098876953e+00 3.931160736083984375e+01 9.914672002196311951e-03 -8.974082469940185547e-01 -2.662480771541595459e-01 -4.611205309629440308e-02
1.937000000000000000e+03 2.787315607070922852e+00 -2.842576026916503906e+01 -2.237303741276264191e-02 -3.814390599727630615e-01 -1.211436241865158081e-01 9.660214418545365334e-04
1.938000000000000000e+03 6.052642345428466797e+00 -2.449937057495117188e+01 8.291371166706085205e-02 -2.583457157015800476e-02 1.712374202907085419e-02 -3.009261004626750946e-02
1.939000000000000000e+03 1.590570449829101562e+00 -1.034972381591796875e+01 -6.042999215424060822e-03 -6.550074368715286255e-02 -2.146312221884727478e-02 1.930341939441859722e-03
1.940000000000000000e+03 7.185360193252563477e-01 -2.324476814270019531e+01 5.257108714431524277e-03 -5.441761612892150879e-01 -1.616757214069366455e-01 -1.805290766060352325e-02
1.941000000000000000e+03 2.655604124069213867e+00 -3.654681015014648438e+01 9.399659000337123871e-03 -5.534049272537231445e-01 -1.632015705108642578e-01 -6.649229675531387329e-02
1.942000000000000000e+03 6.835000514984130859e-01 2.061991882324218750e+01 3.937731031328439713e-03 -8.026034832000732422e-01 -2.395997345447540283e-01 -8.265226148068904877e-03
1.943000000000000000e+03 6.742017269134521484e-01 1.919546890258789062e+01 9.999844245612621307e-03 -8.024017810821533203e-01 -2.377205789089202881e-01 6.667554378509521484e-03
1.944000000000000000e+03 5.939775705337524414e-01 1.497391128540039062e+01 6.113294046372175217e-03 -5.821069478988647461e-01 -1.727980971336364746e-01 6.017883494496345520e-02
1.945000000000000000e+03 5.982264280319213867e-01 1.356845664978027344e+01 1.694357604719698429e-03 -4.239807128906250000e-01 -1.266859024763107300e-01 6.927870959043502808e-02
1.946000000000000000e+03 6.990519762039184570e-01 7.864326953887939453e+00 -1.117399521172046661e-02 8.347497880458831787e-02 2.169029600918292999e-02 2.722352184355258942e-02
1.947000000000000000e+03 6.607435941696166992e-01 6.378177642822265625e+00 -9.766084142029285431e-03 1.165464669466018677e-01 3.203411400318145752e-02 7.745883427560329437e-03
1.948000000000000000e+03 7.022135257720947266e-01 -1.751784133911132812e+01 -2.076838724315166473e-02 -1.505245566368103027e-01 -5.138788372278213501e-02 -4.951497539877891541e-02
1.949000000000000000e+03 5.392979621887207031e+00 -4.048414611816406250e+01 6.266683340072631836e-02 -4.676136076450347900e-01 -1.214840337634086609e-01 -6.610256433486938477e-02
1.950000000000000000e+03 4.087137222290039062e+00 -3.897838211059570312e+01 3.945400193333625793e-02 -5.490218997001647949e-01 -1.528703719377517700e-01 -7.746816426515579224e-02
1.951000000000000000e+03 3.535044670104980469e+00 -3.479267120361328125e+01 -4.342262633144855499e-03 -4.705182313919067383e-01 -1.424581408500671387e-01 -9.172098338603973389e-02
1.952000000000000000e+03 2.091592311859130859e+00 -3.407871627807617188e+01 -5.365091376006603241e-03 -5.192252993583679199e-01 -1.573771089315414429e-01 -5.185173824429512024e-02
1.953000000000000000e+03 1.924870610237121582e+00 -3.141159629821777344e+01 -1.021876093000173569e-02 -4.709627628326416016e-01 -1.443544477224349976e-01 -3.041152469813823700e-02
1.954000000000000000e+03 1.801232337951660156e+00 -2.601560211181640625e+01 -4.703926679212599993e-04 -4.440227150917053223e-01 -1.333479285240173340e-01 1.869993843138217926e-02
1.955000000000000000e+03 1.930027961730957031e+00 -2.456248855590820312e+01 2.067863196134567261e-02 -4.280385971069335938e-01 -1.222079917788505554e-01 1.094465050846338272e-02
1.956000000000000000e+03 2.200075387954711914e+00 -2.139412498474121094e+01 7.085135579109191895e-02 -3.756061792373657227e-01 -9.142644703388214111e-02 -1.106800809502601624e-01
1.957000000000000000e+03 7.153061628341674805e-01 -1.892185974121093750e+01 -3.891191678121685982e-03 -2.715495526790618896e-01 -8.263222128152847290e-02 -6.790038943290710449e-02
1.958000000000000000e+03 6.218771457672119141e+00 -9.468811988830566406e+00 1.091834902763366699e-02 -1.827046871185302734e-01 -5.153590068221092224e-02 -7.396679371595382690e-02
1.959000000000000000e+03 5.537660121917724609e-01 -1.196858215332031250e+01 -4.888930357992649078e-03 -1.488321553915739059e-02 -5.931643769145011902e-03 3.503544488921761513e-03
1.960000000000000000e+03 2.933248758316040039e+00 -1.263709735870361328e+01 -2.895999001339077950e-03 -1.441073566675186157e-01 -4.410100728273391724e-02 -1.525788381695747375e-02
1.961000000000000000e+03 2.508902788162231445e+00 -7.589094161987304688e+00 1.541237439960241318e-02 -6.300895661115646362e-02 -1.427897345274686813e-02 -8.203631266951560974e-03
1.962000000000000000e+03 2.592749118804931641e+00 -4.054411888122558594e+00 -6.804653443396091461e-03 -2.362102456390857697e-02 -9.127703495323657990e-03 -2.624711208045482635e-02
1.963000000000000000e+03 1.295345902442932129e+00 -3.516644239425659180e+00 -8.364683017134666443e-04 -5.746527109295129776e-03 -1.974898623302578926e-03 -6.640219595283269882e-03
1.964000000000000000e+03 4.991622269153594971e-01 4.949993610382080078e+00 -2.008776646107435226e-03 1.182111129164695740e-01 3.486070036888122559e-02 -8.560333400964736938e-03
1.965000000000000000e+03 3.516466617584228516e+00 4.861592769622802734e+00 -7.234099507331848145e-02 -2.677644835785031319e-03 -2.250559069216251373e-02 -2.018072083592414856e-02
1.966000000000000000e+03 6.588112115859985352e-01 1.074071979522705078e+01 -3.750405274331569672e-03 -1.199371889233589172e-01 -3.710627928376197815e-02 6.322169303894042969e-02
1.967000000000000000e+03 1.779570579528808594e+00 1.368312454223632812e+01 8.449883200228214264e-03 -3.985028862953186035e-01 -1.170159056782722473e-01 1.833568662405014038e-01
1.968000000000000000e+03 2.010804891586303711e+00 1.923324203491210938e+01 3.171570226550102234e-02 -6.738682389259338379e-01 -1.926457583904266357e-01 2.259837836027145386e-02
1.969000000000000000e+03 1.930723547935485840e+00 2.362287139892578125e+01 -2.078566141426563263e-02 -7.134158611297607422e-01 -2.202604562044143677e-01 -1.757374592125415802e-02
1.970000000000000000e+03 4.395857238769531250e+01 -1.988120651245117188e+01 1.667754292488098145e+00 3.310840606689453125e+00 1.493578433990478516e+00 1.235933899879455566e+00
1.971000000000000000e+03 5.679109954833984375e+01 -2.063498115539550781e+01 1.918356776237487793e+00 7.450712680816650391e+00 2.810720920562744141e+00 5.295428037643432617e-01
1.972000000000000000e+03 4.699869537353515625e+01 -2.425227165222167969e+01 -8.929744958877563477e-01 4.012415885925292969e+00 9.358323812484741211e-01 -9.544815421104431152e-01
1.973000000000000000e+03 3.419969177246093750e+01 1.343527793884277344e+01 5.540647506713867188e-01 1.765926480293273926e-01 2.191972285509109497e-01 -1.769378930330276489e-01
1.974000000000000000e+03 3.427620315551757812e+01 1.235624885559082031e+01 3.360528945922851562e-01 1.285642087459564209e-01 1.393851339817047119e-01 -1.138454303145408630e-01
1.975000000000000000e+03 3.314148712158203125e+01 1.359544372558593750e+01 4.476859271526336670e-01 4.424364864826202393e-01 2.670367360115051270e-01 9.047710150480270386e-02
1.976000000000000000e+03 4.054618453979492188e+01 7.805162429809570312e+00 9.720092266798019409e-02 4.879573881626129150e-01 1.755474954843521118e-01 8.260720223188400269e-02
1.977000000000000000e+03 3.880607604980468750e+01 1.176116466522216797e+01 1.158726334571838379e+00 1.010984927415847778e-01 3.779474496841430664e-01 -6.840798258781433105e-01
1.978000000000000000e+03 3.837750625610351562e+01 1.301877117156982422e+01 1.092012763023376465e+00 2.135007530450820923e-01 3.916540443897247314e-01 -8.042315840721130371e-01
1.979000000000000000e+03 3.695993041992187500e+01 1.249432182312011719e+01 8.006473183631896973e-01 1.621756255626678467e-01 2.888468801975250244e-01 -4.280058443546295166e-01
1.980000000000000000e+03 4.092409896850585938e+01 3.733589649200439453e+00 -3.661869466304779053e-01 -3.076513111591339111e-01 -2.021514773368835449e-01 -3.333101570606231689e-01
1.981000000000000000e+03 3.951868820190429688e+01 1.815960884094238281e+01 2.376576811075210571e-01 1.025766611099243164e+00 3.790273070335388184e-01 -1.084161996841430664e+00
1.982000000000000000e+03 2.292633056640625000e+01 1.671992874145507812e+01 -7.555741816759109497e-03 3.722071945667266846e-01 1.093954294919967651e-01 -1.187178045511245728e-01
1.983000000000000000e+03 4.432093429565429688e+01 3.364550113677978516e+00 -6.268383264541625977e-01 1.582117438316345215e+00 2.865837514400482178e-01 -1.394835352897644043e+00
1.984000000000000000e+03 6.010682678222656250e+01 1.646390914916992188e+01 2.410267353057861328e+00 1.005308914184570312e+01 3.739006996154785156e+00 2.618811607360839844e+00
1.985000000000000000e+03 6.766839599609375000e+01 2.076723480224609375e+01 -3.903576374053955078e+00 1.620418392121791840e-02 -1.166211605072021484e+00 1.048775836825370789e-01
1.986000000000000000e+03 4.866710281372070312e+01 1.117637395858764648e+00 3.887822866439819336e+00 2.193464756011962891e+00 1.824386358261108398e+00 -3.948474407196044922e+00
1.987000000000000000e+03 4.690923690795898438e+01 2.996736526489257812e+00 2.249299883842468262e-01 2.300571203231811523e+00 7.576503753662109375e-01 -3.145036458969116211e+00
1.988000000000000000e+03 4.755826950073242188e+01 7.477056980133056641e-01 2.170252084732055664e+00 4.451476633548736572e-01 7.846199274063110352e-01 -1.740605950355529785e+00
1.989000000000000000e+03 4.815623092651367188e+01 8.270404934883117676e-01 3.131459951400756836e+00 8.921656012535095215e-01 1.207087635993957520e+00 -2.619134902954101562e+00
1.990000000000000000e+03 4.947954559326171875e+01 1.446825385093688965e+00 2.904815912246704102e+00 6.031113147735595703e+00 2.680778741836547852e+00 -5.035643577575683594e+00
1.991000000000000000e+03 4.945648956298828125e+01 -3.749082803726196289e+00 8.446867465972900391e-01 7.294040679931640625e+00 2.441618204116821289e+00 1.516803145408630371e+00
1.992000000000000000e+03 4.788628005981445312e+01 -3.048180103302001953e+00 1.289049267768859863e+00 1.558207154273986816e+00 8.541769385337829590e-01 5.504396557807922363e-01
1.993000000000000000e+03 5.131224441528320312e+01 -4.181224346160888672e+00 6.447142362594604492e-01 1.395955848693847656e+01 4.381281852722167969e+00 -4.002889096736907959e-01
1.994000000000000000e+03 4.926050567626953125e+01 -2.749985456466674805e+00 8.490033149719238281e-01 6.124102592468261719e+00 2.091931819915771484e+00 2.217107534408569336e+00
1.995000000000000000e+03 4.716633987426757812e+01 -3.881641149520874023e+00 1.028474092483520508e+00 5.245879888534545898e-01 4.659186005592346191e-01 2.680801153182983398e-01
1.996000000000000000e+03 5.062934112548828125e+01 2.314094781875610352e+00 5.760249495506286621e-01 7.353191375732421875e+00 2.378764867782592773e+00 -9.519561529159545898e-01
1.997000000000000000e+03 4.986987304687500000e+01 -2.959159135818481445e+00 2.325979471206665039e-01 9.745810508728027344e+00 2.993522644042968750e+00 1.907586455345153809e+00
1.998000000000000000e+03 4.836587142944335938e+01 1.753443002700805664e+00 2.628440141677856445e+00 2.614201068878173828e+00 1.572792410850524902e+00 -4.016771793365478516e+00
1.999000000000000000e+03 4.756826019287109375e+01 1.241618037223815918e+00 2.073435068130493164e+00 9.130900502204895020e-01 8.959575295448303223e-01 -2.500517129898071289e+00
2.000000000000000000e+03 3.955457687377929688e+01 -1.588770151138305664e+00 -4.157316088676452637e-01 4.242509007453918457e-01 2.555782441049814224e-03 1.841824203729629517e-01
2.001000000000000000e+03 3.753698730468750000e+01 -1.538319349288940430e+00 -5.396754741668701172e-01 4.167864322662353516e-01 -3.686671331524848938e-02 -1.416111886501312256e-01
2.002000000000000000e+03 3.912565612792968750e+01 -2.587354421615600586e+00 2.656872868537902832e-01 6.660761833190917969e-01 2.795290350914001465e-01 2.191500812768936157e-01
2.003000000000000000e+03 5.095484924316406250e+01 -2.576559066772460938e+00 -1.348344445228576660e+00 1.477295780181884766e+01 4.027383804321289062e+00 -3.564871102571487427e-02
2.004000000000000000e+03 1.727801132202148438e+01 -1.966010212898254395e+00 3.889739513397216797e-02 6.613541394472122192e-02 3.150984272360801697e-02 -3.775881975889205933e-02
2.005000000000000000e+03 1.596456623077392578e+01 -1.775598406791687012e+00 -1.292951852083206177e-01 3.041403293609619141e-01 5.245353654026985168e-02 -7.940235733985900879e-02
2.006000000000000000e+03 9.523894309997558594e+00 5.710851192474365234e+00 -3.859726190567016602e-01 -2.452616691589355469e-01 -1.893702894449234009e-01 1.657064557075500488e-01
2.007000000000000000e+03 1.283369255065917969e+01 -2.163941383361816406e+00 -1.596312224864959717e-01 5.663220956921577454e-02 -3.089970536530017853e-02 -1.062674596905708313e-01
2.008000000000000000e+03 1.513892650604248047e+01 -2.902107715606689453e+00 -7.646784931421279907e-02 1.612661182880401611e-01 2.543948218226432800e-02 -1.168520073406398296e-03
2.009000000000000000e+03 5.322006225585937500e+00 -3.584743261337280273e+00 -1.657755859196186066e-02 -8.786465972661972046e-02 -3.133266419172286987e-02 -6.723929196596145630e-02
2.010000000000000000e+03 6.025609016418457031e+00 -3.306225776672363281e+00 -3.514392673969268799e-02 8.476162329316139221e-03 -8.000330068171024323e-03 -5.909298360347747803e-02
2.011000000000000000e+03 7.439640522003173828e+00 -3.191305875778198242e+00 -4.705556109547615051e-02 2.405789215117692947e-03 -1.339493226259946823e-02 -8.284460008144378662e-02
2.012000000000000000e+03 1.046808052062988281e+01 -3.112660169601440430e+00 -7.056576013565063477e-02 -1.838948694057762623e-03 -2.172141149640083313e-02 -1.043154746294021606e-01
2.013000000000000000e+03 7.379940509796142578e+00 -3.841754198074340820e+00 -4.774269089102745056e-02 -9.424415230751037598e-02 -4.259605333209037781e-02 -1.214130446314811707e-01
2.014000000000000000e+03 4.993379116058349609e+00 -2.954655408859252930e+00 -3.229709342122077942e-02 -5.972921499051153660e-04 -9.868316352367401123e-03 -4.665239527821540833e-02
2.015000000000000000e+03 5.355655670166015625e+00 -2.468473434448242188e+00 -3.557209670543670654e-02 7.292899303138256073e-03 -8.483759127557277679e-03 -2.169223874807357788e-02
2.016000000000000000e+03 6.734265327453613281e+00 -3.210920095443725586e+00 -4.471128806471824646e-02 -1.007948070764541626e-01 -4.365182667970657349e-02 -1.016298457980155945e-01
2.017000000000000000e+03 2.094429969787597656e+00 -3.232997417449951172e+00 -6.084843538701534271e-03 -3.158974274992942810e-02 -1.130237616598606110e-02 -1.295413170009851456e-02
2.018000000000000000e+03 3.654500484466552734e+00 -8.704950332641601562e+00 2.799363620579242706e-02 -1.069376319646835327e-01 -2.368319965898990631e-02 -1.485835574567317963e-02
2.019000000000000000e+03 1.437359094619750977e+00 -6.356559276580810547e+00 6.130155175924301147e-03 -3.331772983074188232e-02 -8.156271651387214661e-03 -5.497675389051437378e-03
2.020000000000000000e+03 1.128780651092529297e+01 -2.326308727264404297e+00 -1.366694420576095581e-01 2.590837515890598297e-02 -3.322832286357879639e-02 -1.119940131902694702e-01
2.021000000000000000e+03 4.473443984985351562e+01 2.139779090881347656e+00 -4.411458969116210938e-01 9.956092238426208496e-01 1.663389950990676880e-01 -1.123967885971069336e+00
2.022000000000000000e+03 4.545164489746093750e+01 1.818961858749389648e+00 -3.331216424703598022e-02 9.794777631759643555e-01 2.838496863842010498e-01 -1.419697403907775879e+00
2.023000000000000000e+03 1.267053794860839844e+01 3.263978004455566406e+00 -3.063991665840148926e-01 -1.127646490931510925e-01 -1.257491409778594971e-01 3.032377064228057861e-01
2.024000000000000000e+03 1.221723747253417969e+01 3.919845819473266602e+00 -3.357936143875122070e-01 -1.774946898221969604e-01 -1.539864987134933472e-01 3.129494190216064453e-01
2.025000000000000000e+03 6.072808265686035156e+00 3.391691923141479492e+00 -6.546599417924880981e-02 -2.536620944738388062e-02 -2.724966220557689667e-02 -3.533044829964637756e-02
2.026000000000000000e+03 8.818678855895996094e+00 2.608588457107543945e+00 -2.873136661946773529e-02 -6.004674732685089111e-02 -2.663343399763107300e-02 1.556390430778264999e-02
2.027000000000000000e+03 8.941710472106933594e+00 3.358727455139160156e+00 -1.309357583522796631e-01 -9.169917553663253784e-02 -6.679048389196395874e-02 4.296779632568359375e-02
2.028000000000000000e+03 3.913923263549804688e+00 3.752172708511352539e+00 -3.958634287118911743e-02 -5.567009095102548599e-03 -1.354600582271814346e-02 -4.699373617768287659e-02
2.029000000000000000e+03 3.658573150634765625e+00 2.897567033767700195e+00 -4.184865858405828476e-03 4.427264444530010223e-03 7.271967479027807713e-05 -5.731078237295150757e-02
2.030000000000000000e+03 4.414596557617187500e+00 2.773336648941040039e+00 -1.973211299628019333e-03 -6.223401054739952087e-03 -2.458983799442648888e-03 -5.709080770611763000e-02
2.031000000000000000e+03 5.163582324981689453e+00 2.689663410186767578e+00 -3.786845132708549500e-03 -8.020163513720035553e-03 -3.542102640494704247e-03 -5.334516987204551697e-02
2.032000000000000000e+03 1.459795951843261719e+00 4.698623657226562500e+00 -1.203779503703117371e-02 6.847109645605087280e-02 1.692998968064785004e-02 -2.861163951456546783e-02
2.033000000000000000e+03 4.204200208187103271e-01 3.570172786712646484e+00 -1.016550697386264801e-03 8.364097774028778076e-02 2.478732913732528687e-02 -1.368222478777170181e-02
2.034000000000000000e+03 5.227672576904296875e+00 5.043796062469482422e+00 -1.469978243112564087e-01 -2.933439798653125763e-02 -5.289966613054275513e-02 -1.471751951612532139e-03
2.035000000000000000e+03 1.554695892333984375e+01 -5.302766323089599609e+00 8.665622025728225708e-02 2.182621061801910400e-01 9.147550165653228760e-02 -5.022602900862693787e-02
2.036000000000000000e+03 3.821199417114257812e+01 -2.940238952636718750e+00 1.186757162213325500e-01 7.700302600860595703e-01 2.666117846965789795e-01 2.024442255496978760e-01
2.037000000000000000e+03 3.377475738525390625e+01 -3.343032598495483398e+00 -2.189468890428543091e-01 -2.857196331024169922e-01 -1.513999551534652710e-01 -2.342302203178405762e-01
2.038000000000000000e+03 3.775663375854492188e+01 -3.509259462356567383e+00 2.926725149154663086e-01 7.184338569641113281e-01 3.033319115638732910e-01 1.929313093423843384e-01
2.039000000000000000e+03 3.562096405029296875e+01 -4.040288448333740234e+00 1.779575645923614502e-01 3.997637927532196045e-01 1.733164042234420776e-01 -1.412106454372406006e-01
2.040000000000000000e+03 1.506321525573730469e+01 3.777934551239013672e+00 -6.037772893905639648e-01 6.153196468949317932e-02 -1.626735925674438477e-01 5.729373693466186523e-01
2.041000000000000000e+03 1.311920166015625000e+01 5.977207183837890625e+00 -5.997124314308166504e-01 -4.453904330730438232e-01 -3.135308623313903809e-01 4.944926798343658447e-01
2.042000000000000000e+03 2.790473175048828125e+01 2.012006044387817383e+00 -1.099081635475158691e+00 2.461080104112625122e-01 -2.558920681476593018e-01 1.642559021711349487e-01
2.043000000000000000e+03 2.112857246398925781e+01 4.552201271057128906e+00 -5.279785990715026855e-01 -1.144839599728584290e-01 -1.927387714385986328e-01 1.831051856279373169e-01
2.044000000000000000e+03 2.172875595092773438e+01 3.466184854507446289e+00 -9.323000311851501465e-01 -1.287002712488174438e-01 -3.183000981807708740e-01 2.166988551616668701e-01
2.045000000000000000e+03 2.095869636535644531e+01 6.474077701568603516e+00 1.242904737591743469e-01 -6.496360898017883301e-02 1.779806055128574371e-02 1.403256803750991821e-01
2.046000000000000000e+03 2.573322105407714844e+01 2.403861522674560547e+00 -1.034654021263122559e+00 -9.848483838140964508e-03 -3.133507668972015381e-01 2.873219549655914307e-01
2.047000000000000000e+03 2.343605232238769531e+01 3.144312381744384766e+00 -9.110100865364074707e-01 -1.082930192351341248e-01 -3.057909309864044189e-01 2.730833590030670166e-01
2.048000000000000000e+03 2.868008422851562500e+01 2.956694364547729492e+00 -8.412625193595886230e-01 3.890534341335296631e-01 -1.356627196073532104e-01 1.327573508024215698e-01
2.049000000000000000e+03 2.439718246459960938e+01 6.596229553222656250e+00 1.340480744838714600e-01 -1.028436645865440369e-01 9.361323900520801544e-03 1.252848953008651733e-01
2.050000000000000000e+03 2.719094085693359375e+01 2.786268711090087891e+00 -8.461119532585144043e-01 2.271160483360290527e-01 -1.856987625360488892e-01 2.175722569227218628e-01
2.051000000000000000e+03 2.764454841613769531e+01 3.843637704849243164e+00 -4.727229177951812744e-01 3.380367159843444824e-01 -4.040585830807685852e-02 1.622566878795623779e-01
2.052000000000000000e+03 2.858665466308593750e+01 4.046613693237304688e+00 -3.485774993896484375e-01 4.389986395835876465e-01 2.712634019553661346e-02 9.771654009819030762e-02
2.053000000000000000e+03 2.065734100341796875e+01 4.148200988769531250e+00 -7.184517383575439453e-01 -1.422412246465682983e-01 -2.582078874111175537e-01 1.805864125490188599e-01
2.054000000000000000e+03 2.527112579345703125e+01 3.413350582122802734e+00 -7.397381663322448730e-01 -1.913057081401348114e-02 -2.276606261730194092e-01 2.380152791738510132e-01
2.055000000000000000e+03 2.449355506896972656e+01 3.634686946868896484e+00 -6.857080459594726562e-01 -6.420780718326568604e-02 -2.249747514724731445e-01 2.509278357028961182e-01
2.056000000000000000e+03 1.994385147094726562e+01 4.762628555297851562e+00 -4.454582631587982178e-01 -4.901218786835670471e-02 -1.483411341905593872e-01 2.281281650066375732e-01
2.057000000000000000e+03 1.348308563232421875e+01 -3.768748521804809570e+00 -3.598151728510856628e-02 -5.662304535508155823e-02 -2.778136916458606720e-02 -1.743694841861724854e-01
2.058000000000000000e+03 1.198533058166503906e+01 -3.018744707107543945e+00 -8.156444877386093140e-02 1.876460574567317963e-02 -1.883995160460472107e-02 -1.107038855552673340e-01
2.059000000000000000e+03 1.399930572509765625e+01 -4.730560779571533203e+00 2.810115553438663483e-02 1.005051732063293457e-01 3.858190029859542847e-02 -1.406228095293045044e-01
2.060000000000000000e+03 4.723124313354492188e+01 1.352470278739929199e+00 1.670864343643188477e+00 8.301838040351867676e-01 7.503144741058349609e-01 -2.271543025970458984e+00
2.061000000000000000e+03 4.212537384033203125e+01 4.117068290710449219e+00 -5.445851087570190430e-01 6.092967391014099121e-01 1.941348612308502197e-02 -4.280902147293090820e-01
2.062000000000000000e+03 3.315578842163085938e+01 -4.491316318511962891e+00 8.533109724521636963e-02 -3.240278959274291992e-01 -7.160904258489608765e-02 -1.976473927497863770e-01
2.063000000000000000e+03 1.857534027099609375e+01 6.515268325805664062e+00 1.907529234886169434e-01 3.052187860012054443e-01 1.487915068864822388e-01 3.172877430915832520e-01
2.064000000000000000e+03 3.276235198974609375e+01 -6.558359622955322266e+00 3.058536350727081299e-01 -3.023283183574676514e-01 1.057592919096350670e-03 -1.196290627121925354e-01
2.065000000000000000e+03 3.400756835937500000e+01 -4.183770656585693359e+00 7.414719462394714355e-02 -9.455730020999908447e-02 -6.123032886534929276e-03 -2.660130858421325684e-01
2.066000000000000000e+03 9.698746681213378906e+00 -3.194692611694335938e+00 -8.848477900028228760e-02 -1.214186996221542358e-01 -6.297104060649871826e-02 -1.661995053291320801e-01
2.067000000000000000e+03 4.071987533569335938e+01 5.446070194244384766e+00 -5.713511258363723755e-02 7.084441371262073517e-03 -1.501520071178674698e-02 1.623454093933105469e-01
2.068000000000000000e+03 4.268717575073242188e+01 6.416933536529541016e+00 -8.724699169397354126e-02 1.936595678329467773e+00 5.548046231269836426e-01 -3.963427245616912842e-01
2.069000000000000000e+03 1.563339042663574219e+01 4.824803352355957031e+00 -5.095209479331970215e-01 8.077438920736312866e-02 -1.286239773035049438e-01 6.687093377113342285e-01
2.070000000000000000e+03 4.512235641479492188e+01 2.975572347640991211e+00 -3.827376365661621094e-01 1.632282137870788574e+00 3.748633563518524170e-01 -1.717000365257263184e+00
2.071000000000000000e+03 3.053346061706542969e+01 1.661522746086120605e+00 -1.356169223785400391e+00 4.987151026725769043e-01 -2.572362422943115234e-01 -4.997017234563827515e-02
2.072000000000000000e+03 2.059864425659179688e+01 5.264197349548339844e+00 -2.961205542087554932e-01 -8.363211899995803833e-02 -1.139257997274398804e-01 1.671942472457885742e-01
2.073000000000000000e+03 2.164869689941406250e+01 4.858302116394042969e+00 -3.924098908901214600e-01 -1.337201744318008423e-01 -1.578390151262283325e-01 1.649947017431259155e-01
2.074000000000000000e+03 5.221257400512695312e+01 1.653096199035644531e+00 2.073483228683471680e+00 8.292157173156738281e+00 3.109692335128784180e+00 4.002116680145263672e+00
2.075000000000000000e+03 3.970407104492187500e+01 -2.871108627319335938e+01 -1.058775708079338074e-01 4.643780231475830078e+00 1.361370801925659180e+00 1.202517986297607422e+00
2.076000000000000000e+03 4.202933120727539062e+01 2.053117942810058594e+01 -6.768231987953186035e-01 7.457023262977600098e-01 2.066374383866786957e-02 3.582123219966888428e-01
2.077000000000000000e+03 5.384446716308593750e+01 2.810432434082031250e+00 5.916957259178161621e-01 5.577914237976074219e+00 1.850883007049560547e+00 3.952292680740356445e+00
2.078000000000000000e+03 3.415272140502929688e+01 2.181714630126953125e+01 -5.853075068444013596e-03 2.022309064865112305e+00 6.049367785453796387e-01 -3.718739748001098633e-01
2.079000000000000000e+03 3.211320877075195312e+01 -1.417837715148925781e+01 -7.276847958564758301e-01 5.866016149520874023e-01 -4.232494905591011047e-02 5.370211601257324219e-01
2.080000000000000000e+03 3.369773101806640625e+01 -1.181850433349609375e+01 -4.473311901092529297e-01 2.857651710510253906e-01 -4.846980795264244080e-02 4.830237329006195068e-01
2.081000000000000000e+03 4.561899185180664062e+01 7.357469558715820312e+00 5.060315728187561035e-01 4.915740489959716797e+00 1.626531600952148438e+00 -2.212639093399047852e+00
2.082000000000000000e+03 4.471060562133789062e+01 8.093500137329101562e+00 9.020563364028930664e-01 4.735724449157714844e+00 1.691334247589111328e+00 -1.281348943710327148e+00
2.083000000000000000e+03 3.172172927856445312e+01 2.837079811096191406e+01 5.640327334403991699e-01 1.540732979774475098e+00 6.314297318458557129e-01 -5.527257919311523438e-01
2.084000000000000000e+03 3.255424118041992188e+01 2.720561408996582031e+01 5.583636164665222168e-01 1.932581424713134766e+00 7.472835183143615723e-01 -4.134171605110168457e-01
2.085000000000000000e+03 1.142376041412353516e+01 -2.513226127624511719e+01 2.474641054868698120e-02 -2.030719369649887085e-01 -5.349766090512275696e-02 -2.700748741626739502e-01
2.086000000000000000e+03 1.197680568695068359e+01 -3.193885231018066406e+01 -1.255180835723876953e-01 -2.571908533573150635e-01 -1.148126795887947083e-01 -1.739683747291564941e-01
2.087000000000000000e+03 4.757897949218750000e+01 2.721867942810058594e+01 1.174005389213562012e+00 4.238193035125732422e+00 1.623659491539001465e+00 -1.235329136252403259e-01
2.088000000000000000e+03 5.128814697265625000e+01 2.998300933837890625e+01 1.274544119834899902e+00 5.424138545989990234e+00 2.009604692459106445e+00 -7.882807850837707520e-01
2.089000000000000000e+03 3.957464218139648438e+01 1.930037117004394531e+01 -5.973944813013076782e-02 7.797496914863586426e-01 2.160030752420425415e-01 -1.049188256263732910e+00
2.090000000000000000e+03 3.053920555114746094e+01 1.347517108917236328e+01 3.017492592334747314e-01 5.576232671737670898e-01 2.578117549419403076e-01 3.476930260658264160e-01
2.091000000000000000e+03 5.638795852661132812e+01 1.945028543472290039e+00 1.881867051124572754e+00 3.312665462493896484e+00 1.558359742164611816e+00 1.113178610801696777e+00
2.092000000000000000e+03 5.229879760742187500e+01 2.856938552856445312e+01 1.302559733390808105e+00 6.364621162414550781e+00 2.300154209136962891e+00 -9.579364657402038574e-01
2.093000000000000000e+03 5.228969192504882812e+01 3.054342651367187500e+01 8.616175651550292969e-01 6.252085208892822266e+00 2.134110927581787109e+00 7.469844818115234375e-02
2.094000000000000000e+03 4.112462997436523438e+01 -2.251984786987304688e+01 7.520363330841064453e-01 2.715505123138427734e+00 1.040262460708618164e+00 1.939064145088195801e+00
2.095000000000000000e+03 4.097729873657226562e+01 -2.365150260925292969e+01 1.036673069000244141e+00 2.580600738525390625e+00 1.085182189941406250e+00 2.220081329345703125e+00
2.096000000000000000e+03 2.997379302978515625e+01 -4.345129013061523438e+00 3.490484133362770081e-02 -6.969160437583923340e-01 -1.986033618450164795e-01 -2.764756083488464355e-01
2.097000000000000000e+03 3.072782135009765625e+01 -2.872310066223144531e+01 1.867753118276596069e-01 5.873253345489501953e-01 2.322301864624023438e-01 -3.826225697994232178e-01
2.098000000000000000e+03 3.176714897155761719e+01 -2.864314460754394531e+01 7.560448348522186279e-02 4.675209820270538330e-01 1.629376411437988281e-01 -2.976852655410766602e-01
2.099000000000000000e+03 3.925623321533203125e+01 -1.494930553436279297e+01 -8.686274290084838867e-01 4.011793434619903564e-01 -1.402344256639480591e-01 -3.206016123294830322e-01
2.100000000000000000e+03 3.339089584350585938e+01 1.823585510253906250e+01 2.250737845897674561e-01 1.391376972198486328e+00 4.849352240562438965e-01 -2.661325335502624512e-01
2.101000000000000000e+03 6.726879882812500000e+01 4.672073364257812500e+00 4.073956012725830078e-01 1.652437806129455566e+00 6.179500222206115723e-01 1.883325815200805664e+00
2.102000000000000000e+03 6.751973724365234375e+01 2.914505600929260254e-01 1.004820227622985840e+00 2.712348222732543945e+00 1.115150570869445801e+00 2.024506807327270508e+00
2.103000000000000000e+03 4.457641220092773438e+01 -2.656491279602050781e+01 -6.735994815826416016e-01 8.365855216979980469e-01 4.889580607414245605e-02 -4.807206988334655762e-01
2.104000000000000000e+03 4.133882522583007812e+01 -2.662042045593261719e+01 -2.875185944139957428e-02 2.892042875289916992e+00 8.589873313903808594e-01 1.587819457054138184e+00
2.105000000000000000e+03 4.060853576660156250e+01 6.450405120849609375e+00 -8.822518400847911835e-03 8.647532016038894653e-02 2.329584024846553802e-02 3.024002611637115479e-01
2.106000000000000000e+03 3.493550872802734375e+01 -1.425971031188964844e+01 -9.723234772682189941e-01 -1.883099786937236786e-02 -2.973463535308837891e-01 2.448369115591049194e-01
2.107000000000000000e+03 7.148336029052734375e+01 4.176355004310607910e-01 4.426347315311431885e-01 1.402084112167358398e+00 5.534156560897827148e-01 5.518604442477226257e-02
2.108000000000000000e+03 7.006441497802734375e+01 1.472053527832031250e+00 8.447121977806091309e-01 1.673832058906555176e+00 7.555632591247558594e-01 1.508742332458496094e+00
2.109000000000000000e+03 6.702783203125000000e+01 3.098534393310546875e+01 8.953680396080017090e-01 5.382557392120361328e+00 1.883377671241760254e+00 9.399921894073486328e-01
2.110000000000000000e+03 6.567311096191406250e+01 3.116805458068847656e+01 7.921587228775024414e-01 5.743050575256347656e+00 1.960562705993652344e+00 8.776369690895080566e-01
2.111000000000000000e+03 9.523845672607421875e+00 -4.691570758819580078e+00 -4.408891126513481140e-02 -7.834629714488983154e-02 -3.673056140542030334e-02 -1.525268703699111938e-01
2.112000000000000000e+03 1.079751110076904297e+01 -1.124191856384277344e+01 -1.655909977853298187e-02 2.942353021353483200e-03 -4.085023887455463409e-03 -1.639129072427749634e-01
2.113000000000000000e+03 6.470432281494140625e+01 2.754697036743164062e+01 2.074679613113403320e+00 6.882672786712646484e+00 2.687205553054809570e+00 2.246796131134033203e+00
2.114000000000000000e+03 2.770201683044433594e+01 6.700963973999023438e+00 2.624613046646118164e-01 4.470843970775604248e-01 2.128637135028839111e-01 4.562504589557647705e-02
2.115000000000000000e+03 2.558575630187988281e+01 4.229451179504394531e+00 -3.974726200103759766e-01 2.729315683245658875e-02 -1.110538393259048462e-01 2.159219533205032349e-01
2.116000000000000000e+03 6.045748138427734375e+01 2.437235593795776367e+00 3.048412036150693893e-03 5.638484954833984375e+00 1.692460060119628906e+00 -1.770280122756958008e+00
2.117000000000000000e+03 5.209416580200195312e+01 2.625601959228515625e+01 1.724072694778442383e+00 5.622266292572021484e+00 2.203901529312133789e+00 -1.032376885414123535e+00
2.118000000000000000e+03 5.080031585693359375e+01 2.178074455261230469e+01 -1.181621432304382324e+00 3.421903610229492188e+00 6.720846891403198242e-01 -1.714741587638854980e+00
2.119000000000000000e+03 3.246747207641601562e+01 3.133527755737304688e+01 2.657086551189422607e-01 1.629522323608398438e+00 5.685693025588989258e-01 -3.720079064369201660e-01
2.120000000000000000e+03 6.274720382690429688e+01 -5.705686569213867188e+00 1.548335790634155273e+00 1.039966678619384766e+01 3.584400892257690430e+00 -4.095314145088195801e-01
2.121000000000000000e+03 1.084064865112304688e+01 7.474726200103759766e+00 -6.916064023971557617e-01 -5.249581336975097656e-01 -3.649693429470062256e-01 4.852289259433746338e-01
2.122000000000000000e+03 5.930379486083984375e+01 1.839516282081604004e+00 4.901573061943054199e-01 5.324337482452392578e+00 1.744348526000976562e+00 -2.069549083709716797e+00
2.123000000000000000e+03 5.873295211791992188e+01 3.063959360122680664e+00 2.516411840915679932e-01 5.161741256713867188e+00 1.624014735221862793e+00 -1.370495676994323730e+00
2.124000000000000000e+03 6.591726684570312500e+01 -1.272199440002441406e+01 -8.884298205375671387e-01 4.775607585906982422e+00 1.166153311729431152e+00 -4.609883129596710205e-01
2.125000000000000000e+03 6.031598281860351562e+01 1.074788665771484375e+01 1.303629159927368164e+00 8.385879516601562500e+00 2.906852722167968750e+00 -7.931359410285949707e-01
2.126000000000000000e+03 5.708771896362304688e+01 1.206197261810302734e+01 1.664507627487182617e+00 9.295753479003906250e+00 3.288078308105468750e+00 9.408686757087707520e-01
2.127000000000000000e+03 4.763934326171875000e+01 -2.738046073913574219e+01 -9.408324360847473145e-01 2.805227994918823242e+00 5.593186616897583008e-01 -1.891254901885986328e+00
2.128000000000000000e+03 4.844501495361328125e+01 -2.828648376464843750e+01 -1.975673437118530273e-01 2.990762233734130859e+00 8.379584550857543945e-01 -1.797768831253051758e+00
2.129000000000000000e+03 6.952298736572265625e+01 5.409364700317382812e+00 1.202402189373970032e-01 3.124794483184814453e+00 9.735104441642761230e-01 2.096490859985351562e+00
2.130000000000000000e+03 7.233885192871093750e+01 8.285778045654296875e+00 5.836222171783447266e-01 8.267521858215332031e+00 2.655343294143676758e+00 5.167317390441894531e-01
2.131000000000000000e+03 5.054114532470703125e+01 1.991168785095214844e+01 -1.916719436645507812e+00 2.468057632446289062e+00 1.654014587402343750e-01 -1.944891095161437988e+00
2.132000000000000000e+03 4.839496612548828125e+01 2.081568145751953125e+01 -8.498932123184204102e-01 1.244661092758178711e+00 1.184303537011146545e-01 -2.906438708305358887e-02
2.133000000000000000e+03 6.339146423339843750e+01 -2.166359901428222656e+01 2.933485031127929688e+00 7.314767360687255859e+00 3.074475765228271484e+00 -2.166205406188964844e+00
2.134000000000000000e+03 1.699564933776855469e+01 -2.594275665283203125e+01 2.769085168838500977e-01 -1.777798235416412354e-01 2.973861247301101685e-02 -1.680811792612075806e-01
2.135000000000000000e+03 2.044516944885253906e+01 1.424600982666015625e+01 -4.877320677042007446e-02 -3.125569820404052734e-01 -1.083990558981895447e-01 1.027426049113273621e-01
2.136000000000000000e+03 2.316746330261230469e+01 1.369427108764648438e+01 -1.266823802143335342e-02 1.823288947343826294e-01 5.089819803833961487e-02 9.952124953269958496e-02
2.137000000000000000e+03 7.594268035888671875e+01 3.351422786712646484e+00 -2.333666980266571045e-01 6.798444271087646484e+00 1.969523310661315918e+00 -7.770444750785827637e-01
2.138000000000000000e+03 4.700053405761718750e+01 6.202383518218994141e+00 -3.722375333309173584e-01 3.824918270111083984e+00 1.035804271697998047e+00 -2.249183177947998047e+00
2.139000000000000000e+03 6.066129684448242188e+01 -3.690747320652008057e-01 1.048172473907470703e+00 7.349474906921386719e+00 2.519294261932373047e+00 -2.413901805877685547e+00
2.140000000000000000e+03 7.331670379638671875e+01 -3.870844650268554688e+01 -2.785763740539550781e-01 6.499070644378662109e+00 1.866148233413696289e+00 -5.080229043960571289e-01
2.141000000000000000e+03 7.462477874755859375e+01 -3.405116271972656250e+01 5.238087773323059082e-01 6.253179073333740234e+00 2.033096313476562500e+00 -1.936651319265365601e-01
2.142000000000000000e+03 7.614608764648437500e+01 -3.477655029296875000e+01 1.356896907091140747e-01 7.014096736907958984e+00 2.144935846328735352e+00 -1.239003613591194153e-01
2.143000000000000000e+03 7.823018646240234375e+01 1.954211807250976562e+01 -1.909676790237426758e-01 7.721299648284912109e+00 2.259099483489990234e+00 4.930264651775360107e-01
2.144000000000000000e+03 7.173556518554687500e+01 1.699979591369628906e+01 -7.244379520416259766e-01 7.658247947692871094e+00 2.080142974853515625e+00 -9.418790340423583984e-01
2.145000000000000000e+03 7.574221801757812500e+01 -2.541455268859863281e+01 -4.956507384777069092e-01 8.541136741638183594e+00 2.413645982742309570e+00 -5.367148518562316895e-01
2.146000000000000000e+03 7.760469055175781250e+01 3.582375335693359375e+01 -1.413483638316392899e-02 7.415902137756347656e+00 2.220530033111572266e+00 1.264783740043640137e-01
2.147000000000000000e+03 7.630611419677734375e+01 3.300617599487304688e+01 9.015048295259475708e-02 6.913082122802734375e+00 2.100969791412353516e+00 1.489195078611373901e-01
2.148000000000000000e+03 7.650850677490234375e+01 -2.485540390014648438e+01 1.430835872888565063e-01 8.399623870849609375e+00 2.562812328338623047e+00 -6.030703186988830566e-01
2.149000000000000000e+03 7.814031219482421875e+01 -2.893033218383789062e+01 -1.914798766374588013e-01 7.875502109527587891e+00 2.305206775665283203e+00 -3.336940705776214600e-02
2.150000000000000000e+03 7.835167694091796875e+01 -2.208070755004882812e+01 3.262459635734558105e-01 7.526672840118408203e+00 2.355875492095947266e+00 6.486522406339645386e-02
2.151000000000000000e+03 7.786677551269531250e+01 -3.417927932739257812e+01 3.471384197473526001e-02 7.519109249114990234e+00 2.266146898269653320e+00 3.079936467111110687e-02
2.152000000000000000e+03 7.552649688720703125e+01 -3.716468811035156250e+01 2.479843609035015106e-02 7.094705104827880859e+00 2.135851144790649414e+00 -3.728502988815307617e-01
2.153000000000000000e+03 7.648699951171875000e+01 -3.361114883422851562e+01 2.432391494512557983e-01 6.994706630706787109e+00 2.171383619308471680e+00 -1.619235053658485413e-02
2.154000000000000000e+03 7.681259918212890625e+01 -3.249304962158203125e+01 1.307903975248336792e-01 7.095050811767578125e+00 2.167752504348754883e+00 1.918452680110931396e-01
2.155000000000000000e+03 7.482807922363281250e+01 -4.055557632446289062e+01 -2.233166396617889404e-01 7.008916854858398438e+00 2.035680055618286133e+00 -3.081099390983581543e-01
2.156000000000000000e+03 7.813918304443359375e+01 2.229460906982421875e+01 -1.160004660487174988e-01 7.877910614013671875e+00 2.328572988510131836e+00 1.718892529606819153e-02
2.157000000000000000e+03 7.695953369140625000e+01 2.088980484008789062e+01 -3.885776400566101074e-01 7.580414295196533203e+00 2.157551050186157227e+00 2.456338852643966675e-01
2.158000000000000000e+03 7.548587799072265625e+01 2.375534439086914062e+01 -3.691786825656890869e-01 6.886671543121337891e+00 1.955247879028320312e+00 -3.901684582233428955e-01
2.159000000000000000e+03 7.686121368408203125e+01 2.228077507019042969e+01 -3.859064280986785889e-01 7.507421016693115234e+00 2.136454343795776367e+00 2.568061696365475655e-03
2.160000000000000000e+03 7.679821014404296875e+01 1.547119331359863281e+01 2.354238331317901611e-01 7.289319515228271484e+00 2.257423162460327148e+00 1.103287577629089355e+00
2.161000000000000000e+03 7.805792236328125000e+01 1.393540477752685547e+01 3.050965666770935059e-01 6.289449691772460938e+00 1.978363871574401855e+00 6.199209690093994141e-01
2.162000000000000000e+03 7.836542510986328125e+01 -2.087916564941406250e+01 2.579481005668640137e-01 7.696599483489990234e+00 2.386364221572875977e+00 5.931440591812133789e-01
2.163000000000000000e+03 7.656870269775390625e+01 9.347795486450195312e+00 5.484214425086975098e-01 7.018849372863769531e+00 2.270181179046630859e+00 -5.934132933616638184e-01
2.164000000000000000e+03 7.682218170166015625e+01 2.514845275878906250e+01 -1.028661355376243591e-01 7.229757308959960938e+00 2.138067245483398438e+00 -3.277683258056640625e-01
2.165000000000000000e+03 7.813191986083984375e+01 2.648597526550292969e+01 -1.046269573271274567e-02 7.583868980407714844e+00 2.272022008895874023e+00 -2.315975874662399292e-01
2.166000000000000000e+03 7.803310394287109375e+01 3.055672073364257812e+01 9.410525858402252197e-02 7.305547714233398438e+00 2.219895839691162109e+00 -3.984593972563743591e-02
2.167000000000000000e+03 7.688713836669921875e+01 2.916840171813964844e+01 1.844530701637268066e-01 6.990574359893798828e+00 2.152508258819580078e+00 -1.749663501977920532e-01
2.168000000000000000e+03 7.815930175781250000e+01 -9.970344543457031250e+00 -3.076834678649902344e-01 9.442193984985351562e+00 2.740353345870971680e+00 -1.406429290771484375e+00
2.169000000000000000e+03 7.707394409179687500e+01 -1.234174060821533203e+01 -1.244642376899719238e+00 9.165366172790527344e+00 2.376217126846313477e+00 -1.756757795810699463e-01
2.170000000000000000e+03 7.820859527587890625e+01 -1.669017410278320312e+01 -1.803838759660720825e-01 8.944507598876953125e+00 2.629236936569213867e+00 9.862289428710937500e-01
2.171000000000000000e+03 7.812473297119140625e+01 -5.590172290802001953e+00 4.574065208435058594e-01 8.485971450805664062e+00 2.683013200759887695e+00 1.287414599210023880e-02
2.172000000000000000e+03 7.574088287353515625e+01 4.518023490905761719e+00 -2.466727197170257568e-01 6.888585567474365234e+00 1.992573857307434082e+00 -8.069927692413330078e-01
2.173000000000000000e+03 7.604579162597656250e+01 3.692053985595703125e+01 -6.968281418085098267e-02 7.055178642272949219e+00 2.095648765563964844e+00 2.425286769866943359e-01
2.174000000000000000e+03 7.817401123046875000e+01 -2.807453393936157227e+00 -1.540212035179138184e-01 8.319192886352539062e+00 2.449551343917846680e+00 4.803344309329986572e-01
2.175000000000000000e+03 7.819371032714843750e+01 -1.441715121269226074e+00 -1.847999095916748047e-01 8.160992622375488281e+00 2.392857789993286133e+00 2.748211324214935303e-01
2.176000000000000000e+03 7.573635101318359375e+01 2.915624237060546875e+01 2.213166505098342896e-01 6.633964538574218750e+00 2.056584358215332031e+00 -2.177417576313018799e-01
2.177000000000000000e+03 7.808575439453125000e+01 6.601122856140136719e+00 2.701011719182133675e-03 6.692759990692138672e+00 2.008638143539428711e+00 -8.056871294975280762e-01
2.178000000000000000e+03 7.683095550537109375e+01 6.280040264129638672e+00 -7.832687348127365112e-02 7.020938396453857422e+00 2.082783460617065430e+00 -9.220542311668395996e-01
2.179000000000000000e+03 7.393540191650390625e+01 -1.461711978912353516e+01 -9.028540849685668945e-01 4.806283950805664062e+00 1.171028971672058105e+00 5.021604299545288086e-01
2.180000000000000000e+03 7.579955291748046875e+01 -2.117906951904296875e+01 1.246562600135803223e+00 8.732050895690917969e+00 2.993584156036376953e+00 5.847815275192260742e-01
2.181000000000000000e+03 7.688600921630859375e+01 -1.516166782379150391e+01 -6.447317004203796387e-01 8.457072257995605469e+00 2.343702077865600586e+00 8.873409628868103027e-01
2.182000000000000000e+03 7.602407836914062500e+01 3.562743759155273438e+01 -3.331589326262474060e-02 6.967554092407226562e+00 2.080271482467651367e+00 2.714705467224121094e-01
2.183000000000000000e+03 7.493346405029296875e+01 3.141430664062500000e+01 2.914668917655944824e-01 6.447105884552001953e+00 2.021571874618530273e+00 9.340581297874450684e-02
2.184000000000000000e+03 7.648545074462890625e+01 3.170915985107421875e+01 1.895764619112014771e-01 6.899673938751220703e+00 2.126775026321411133e+00 6.340141594409942627e-02
2.185000000000000000e+03 7.269067382812500000e+01 1.730782508850097656e+01 -9.872789978981018066e-01 7.914848327636718750e+00 2.078270673751831055e+00 2.574233114719390869e-01
2.186000000000000000e+03 7.568019104003906250e+01 2.076435089111328125e+01 -8.306716084480285645e-01 7.449213981628417969e+00 1.985562682151794434e+00 1.848458498716354370e-01
2.187000000000000000e+03 7.656819915771484375e+01 1.095683860778808594e+01 8.169645667076110840e-01 7.123682022094726562e+00 2.382193803787231445e+00 -1.889859884977340698e-01
2.188000000000000000e+03 7.665119171142578125e+01 7.754700183868408203e+00 1.939527541399002075e-01 6.933434009552001953e+00 2.138216018676757812e+00 -9.527695178985595703e-01
2.189000000000000000e+03 7.557705688476562500e+01 -1.396296501159667969e+00 -6.611838340759277344e-01 7.743787288665771484e+00 2.124780893325805664e+00 -5.697968602180480957e-01
2.190000000000000000e+03 7.438137817382812500e+01 5.355711936950683594e+00 -1.809797435998916626e-01 6.768270969390869141e+00 1.976187348365783691e+00 -5.099909901618957520e-01
2.191000000000000000e+03 7.711238861083984375e+01 2.381760358810424805e+00 -2.695493996143341064e-01 7.284656047821044922e+00 2.104532003402709961e+00 -6.786379814147949219e-01
2.192000000000000000e+03 7.697292327880859375e+01 4.914544105529785156e+00 -1.153843253850936890e-01 6.989883899688720703e+00 2.062349796295166016e+00 -8.788896799087524414e-01
2.193000000000000000e+03 7.499926757812500000e+01 -1.387674999237060547e+01 -1.372163534164428711e+00 6.476254463195800781e+00 1.531227350234985352e+00 7.536432743072509766e-01
2.194000000000000000e+03 7.660385894775390625e+01 -2.040417480468750000e+01 6.989674568176269531e-01 8.699285507202148438e+00 2.819475889205932617e+00 8.242303133010864258e-01
2.195000000000000000e+03 7.691474151611328125e+01 -2.829433441162109375e+00 -2.367513924837112427e-01 8.530668258666992188e+00 2.488174915313720703e+00 2.225616127252578735e-01
2.196000000000000000e+03 7.660161590576171875e+01 -8.478380203247070312e+00 9.911221265792846680e-01 1.045623493194580078e+01 3.434207201004028320e+00 -1.079500436782836914e+00
2.197000000000000000e+03 4.622240829467773438e+01 -1.533692169189453125e+01 -1.913677930831909180e+00 6.026845932006835938e+00 1.233950376510620117e+00 2.526552438735961914e+00
2.198000000000000000e+03 2.149419021606445312e+01 2.344756317138671875e+01 1.965823620557785034e-01 3.917314708232879639e-01 1.764941513538360596e-01 1.809673309326171875e-01
2.199000000000000000e+03 2.186887931823730469e+01 2.478244590759277344e+01 3.137506842613220215e-01 4.306952953338623047e-01 2.233337908983230591e-01 3.594468533992767334e-01
2.200000000000000000e+03 4.434401321411132812e+01 3.438184356689453125e+01 5.115260556340217590e-02 2.073876142501831055e+00 6.375086307525634766e-01 -9.419714212417602539e-01
2.201000000000000000e+03 3.048690414428710938e+01 -8.809071540832519531e+00 -2.114908546209335327e-01 -5.836856365203857422e-01 -2.385529428720474243e-01 -1.194756105542182922e-01
2.202000000000000000e+03 6.602198791503906250e+01 -2.750919532775878906e+01 -9.324938058853149414e-01 7.355627536773681641e+00 1.926940083503723145e+00 -2.481718540191650391e+00
2.203000000000000000e+03 3.853491973876953125e+01 -1.586618423461914062e+01 -4.517441987991333008e-01 2.267691791057586670e-01 -6.749250739812850952e-02 -2.448575049638748169e-01
2.204000000000000000e+03 3.916578674316406250e+01 -1.333580493927001953e+01 -1.363997220993041992e+00 5.034407377243041992e-01 -2.581669390201568604e-01 -4.531248286366462708e-02
2.205000000000000000e+03 2.855471801757812500e+01 -2.564104461669921875e+01 1.644575297832489014e-01 7.893173694610595703e-01 2.861324548721313477e-01 -1.282363235950469971e-01
2.206000000000000000e+03 2.969081497192382812e+01 -2.825724411010742188e+01 1.026234328746795654e-01 5.855659246444702148e-01 2.064568102359771729e-01 -3.022888898849487305e-01
2.207000000000000000e+03 2.521343708038330078e+00 3.234542083740234375e+01 4.850227013230323792e-02 -8.848200440406799316e-01 -2.508953511714935303e-01 1.103929653763771057e-01
2.208000000000000000e+03 3.371059417724609375e+00 3.325598907470703125e+01 1.047885417938232422e-01 -7.701484560966491699e-01 -1.996079683303833008e-01 8.115161955356597900e-02
2.209000000000000000e+03 3.280715227127075195e+00 2.801370429992675781e+01 -7.802151888608932495e-02 -7.479423880577087402e-01 -2.477891743183135986e-01 1.508486121892929077e-01
2.210000000000000000e+03 4.183158397674560547e+00 2.387348556518554688e+01 -5.725779756903648376e-02 -6.269469857215881348e-01 -2.052614241838455200e-01 3.347295150160789490e-02
2.211000000000000000e+03 1.953234434127807617e+00 2.794252014160156250e+01 -2.416695840656757355e-02 -8.003630638122558594e-01 -2.473589926958084106e-01 9.490021318197250366e-02
2.212000000000000000e+03 3.517833709716796875e+00 2.935930633544921875e+01 -1.355435047298669815e-02 -7.599478363990783691e-01 -2.320506572723388672e-01 1.656126379966735840e-01
2.213000000000000000e+03 2.601565599441528320e+00 3.008492469787597656e+01 -2.352612093091011047e-03 -8.432835340499877930e-01 -2.536908388137817383e-01 1.578122526407241821e-01
2.214000000000000000e+03 1.588673353195190430e+00 3.183654785156250000e+01 1.244691479951143265e-02 -9.767926335334777832e-01 -2.893037199974060059e-01 9.578456729650497437e-02
2.215000000000000000e+03 1.630189895629882812e+00 3.055330848693847656e+01 1.398075465112924576e-02 -9.284159541130065918e-01 -2.743305563926696777e-01 1.121439486742019653e-01
2.216000000000000000e+03 1.779103517532348633e+00 3.550407409667968750e+01 4.509371519088745117e-02 -1.020234346389770508e+00 -2.925421893596649170e-01 -1.931467838585376740e-02
2.217000000000000000e+03 1.652907013893127441e+00 3.431217575073242188e+01 1.944451592862606049e-02 -1.036910533905029297e+00 -3.052397966384887695e-01 2.646142244338989258e-02
2.218000000000000000e+03 5.996738910675048828e+00 3.376198959350585938e+01 2.097121775150299072e-01 -3.206918835639953613e-01 -3.329391404986381531e-02 5.270801112055778503e-02
2.219000000000000000e+03 3.952018737792968750e+00 -3.569541549682617188e+01 1.158743444830179214e-02 -4.656414687633514404e-01 -1.362162083387374878e-01 -1.004386171698570251e-01
2.220000000000000000e+03 1.712424993515014648e+00 -2.872583770751953125e+01 -1.002476084977388382e-02 -4.480179548263549805e-01 -1.374128162860870361e-01 -2.027537673711776733e-03
2.221000000000000000e+03 6.721599102020263672e+00 -2.690836524963378906e+01 -6.281943619251251221e-02 -9.268621355295181274e-02 -4.665169492363929749e-02 -8.366841822862625122e-02
2.222000000000000000e+03 3.087554931640625000e+00 -2.965796661376953125e+01 -3.097895905375480652e-02 -3.790158033370971680e-01 -1.229984313249588013e-01 -2.703567594289779663e-02
2.223000000000000000e+03 1.829658985137939453e+00 -3.005650329589843750e+01 -1.331173628568649292e-02 -4.581153094768524170e-01 -1.414281129837036133e-01 -1.223769970238208771e-02
2.224000000000000000e+03 6.263816356658935547e+00 2.186744117736816406e+01 2.050429582595825195e-02 -4.227457642555236816e-01 -1.206724420189857483e-01 7.393102347850799561e-02
2.225000000000000000e+03 2.044270992279052734e+00 2.068141365051269531e+01 2.244282700121402740e-02 -6.903100013732910156e-01 -2.003601640462875366e-01 -6.241146940737962723e-03
2.226000000000000000e+03 3.253004312515258789e+00 2.250008964538574219e+01 -1.717202598229050636e-03 -6.370342969894409180e-01 -1.916254460811614990e-01 -7.986305281519889832e-03
2.227000000000000000e+03 2.088188886642456055e+00 -1.991946601867675781e+01 1.990951783955097198e-02 -3.111915588378906250e-01 -8.738461136817932129e-02 -1.713885068893432617e-01
2.228000000000000000e+03 3.283205270767211914e+00 -1.513491344451904297e+01 -5.786338075995445251e-02 -1.995847374200820923e-01 -7.723443955183029175e-02 -6.300918757915496826e-02
2.229000000000000000e+03 6.043165206909179688e+00 -1.389496994018554688e+01 -1.079000756144523621e-01 -2.638166248798370361e-01 -1.115150079131126404e-01 -1.435541361570358276e-01
2.230000000000000000e+03 7.173755645751953125e+00 1.990465736389160156e+01 1.865709573030471802e-01 -2.860182821750640869e-01 -2.983419969677925110e-02 8.196594566106796265e-02
2.231000000000000000e+03 1.962637901306152344e+00 8.120757102966308594e+00 -4.646125435829162598e-02 -7.093584164977073669e-03 -1.606645248830318451e-02 7.639310508966445923e-02
2.232000000000000000e+03 3.108123779296875000e+00 -2.457951927185058594e+01 1.846103370189666748e-02 -3.270731270313262939e-01 -9.258362650871276855e-02 1.284949295222759247e-02
2.233000000000000000e+03 5.295122146606445312e+00 -2.311879730224609375e+01 1.895619779825210571e-01 -9.174541383981704712e-02 2.934497036039829254e-02 -1.962049491703510284e-02
2.234000000000000000e+03 3.452280759811401367e+00 -1.634697341918945312e+01 -9.741783142089843750e-02 -2.574829161167144775e-01 -1.064702272415161133e-01 -1.394091844558715820e-01
2.235000000000000000e+03 2.656111955642700195e+00 -1.010953807830810547e+01 1.912536285817623138e-02 -9.962771832942962646e-02 -2.415070682764053345e-02 3.631544532254338264e-04
2.236000000000000000e+03 1.537345290184020996e+00 -9.023140907287597656e+00 1.141168456524610519e-02 -5.423844978213310242e-02 -1.284802984446287155e-02 3.519754391163587570e-03
2.237000000000000000e+03 7.283070564270019531e+00 -4.507520198822021484e+00 9.647326543927192688e-03 -6.308574974536895752e-02 -1.603152602910995483e-02 -8.043272793292999268e-02
2.238000000000000000e+03 3.679270505905151367e+00 7.837769508361816406e+00 -1.374194771051406860e-01 -5.705123394727706909e-02 -5.834121257066726685e-02 1.328679621219635010e-01
2.239000000000000000e+03 1.838424086570739746e+00 5.971987724304199219e+00 -3.070986084640026093e-02 4.229863733053207397e-02 3.476632526144385338e-03 3.898703958839178085e-03
2.240000000000000000e+03 1.744100451469421387e+00 1.502772521972656250e+01 2.665472961962223053e-02 -4.990755915641784668e-01 -1.417262554168701172e-01 1.586948782205581665e-01
2.241000000000000000e+03 2.781426429748535156e+00 1.503906726837158203e+01 5.395730212330818176e-02 -4.625561237335205078e-01 -1.225796490907669067e-01 2.269926518201828003e-01
2.242000000000000000e+03 3.724501132965087891e+00 -3.400773286819458008e+00 -4.441169556230306625e-03 -8.174944669008255005e-03 -3.784834407269954681e-03 -2.172505296766757965e-02
2.243000000000000000e+03 1.413922071456909180e+00 -4.946470260620117188e+00 -3.328293096274137497e-03 -3.118610568344593048e-02 -1.035431958734989166e-02 -1.493033021688461304e-02
2.244000000000000000e+03 2.899935960769653320e+00 8.901170730590820312e+00 -8.517288416624069214e-02 -7.579662650823593140e-02 -4.829085245728492737e-02 1.654548794031143188e-01
2.245000000000000000e+03 4.088745117187500000e+00 -1.221278095245361328e+01 -3.632660582661628723e-02 -1.966123878955841064e-01 -6.988169997930526733e-02 -3.665087372064590454e-02
2.246000000000000000e+03 4.657928466796875000e+00 -1.588911533355712891e+01 -1.241898238658905029e-01 -3.328675627708435059e-01 -1.371172070503234863e-01 -1.186468452215194702e-01
2.247000000000000000e+03 2.584592580795288086e+00 -8.851778984069824219e+00 -5.085670272819697857e-04 -8.729108422994613647e-02 -2.633989602327346802e-02 -1.605347730219364166e-02
2.248000000000000000e+03 4.758471965789794922e+00 -3.652672958374023438e+01 3.127051144838333130e-02 -4.625699818134307861e-01 -1.293898373842239380e-01 -1.187753379344940186e-01
2.249000000000000000e+03 2.282500982284545898e+00 -3.535219192504882812e+01 2.747645135968923569e-03 -5.395323634147644043e-01 -1.610354036092758179e-01 -5.701571330428123474e-02
2.250000000000000000e+03 3.398405313491821289e+00 -3.365290451049804688e+01 -9.790701791644096375e-03 -4.495535790920257568e-01 -1.378032863140106201e-01 -8.059278130531311035e-02
2.251000000000000000e+03 5.789491653442382812e+00 -3.263084411621093750e+01 -4.920330643653869629e-02 -3.012937903404235840e-01 -1.051491275429725647e-01 -1.332655549049377441e-01
2.252000000000000000e+03 6.474359512329101562e+00 -2.584458351135253906e+01 -2.275701984763145447e-02 -6.420005112886428833e-02 -2.608712017536163330e-02 -5.715554580092430115e-02
2.253000000000000000e+03 3.303779363632202148e+00 -1.949088668823242188e+01 -1.355492696166038513e-02 -2.941373884677886963e-01 -9.230769425630569458e-02 -1.790362596511840820e-01
2.254000000000000000e+03 3.182501554489135742e+00 1.258438110351562500e+01 -9.603402577340602875e-03 -2.886615693569183350e-01 -8.947949111461639404e-02 2.877905368804931641e-01
2.255000000000000000e+03 2.993573904037475586e+00 1.609309959411621094e+01 8.998812735080718994e-02 -5.034005045890808105e-01 -1.240237206220626831e-01 1.844353377819061279e-01
2.256000000000000000e+03 3.359292984008789062e+00 1.928783035278320312e+01 7.290962338447570801e-02 -5.800929665565490723e-01 -1.521549969911575317e-01 5.377786606550216675e-02
2.257000000000000000e+03 3.770190477371215820e+00 1.688846588134765625e+01 1.294888108968734741e-01 -4.948303401470184326e-01 -1.096024587750434875e-01 1.790884137153625488e-01
2.258000000000000000e+03 2.621404838562011719e+01 3.139632797241210938e+01 3.077795505523681641e-01 7.202598452568054199e-01 3.084118068218231201e-01 -3.388397628441452980e-03
2.259000000000000000e+03 7.227146148681640625e+01 1.863273620605468750e+01 -1.939208984375000000e+00 7.088196754455566406e+00 1.544696211814880371e+00 -8.292408287525177002e-02
2.260000000000000000e+03 2.280572509765625000e+01 2.740471839904785156e+01 5.084635615348815918e-01 5.889612436294555664e-01 3.292274475097656250e-01 5.134276151657104492e-01
2.261000000000000000e+03 4.181956863403320312e+01 7.873759269714355469e+00 3.905314803123474121e-01 1.651242852210998535e+00 6.125323176383972168e-01 -2.204273194074630737e-01
2.262000000000000000e+03 4.112268829345703125e+01 1.390236282348632812e+01 1.311438202857971191e+00 1.777271270751953125e+00 9.266128540039062500e-01 -1.390153646469116211e+00
2.263000000000000000e+03 5.792248535156250000e+01 -2.691123390197753906e+01 -2.461782932281494141e+00 6.337861537933349609e+00 1.162823557853698730e+00 1.789665699005126953e+00
2.264000000000000000e+03 5.361131668090820312e+01 -3.766241455078125000e+01 -6.967468261718750000e-01 5.085654735565185547e+00 1.316672444343566895e+00 5.917142033576965332e-01
2.265000000000000000e+03 5.707848739624023438e+01 -4.082081985473632812e+01 -1.834674000740051270e+00 3.330547809600830078e+00 4.487621188163757324e-01 -5.908980965614318848e-01
2.266000000000000000e+03 3.433882141113281250e+01 2.073703193664550781e+01 -4.635412245988845825e-02 1.899044513702392578e+00 5.558071136474609375e-01 -4.283337593078613281e-01
2.267000000000000000e+03 5.324382781982421875e+01 1.832301139831542969e+01 -6.617367267608642578e-01 4.600807666778564453e+00 1.181721210479736328e+00 -2.117698669433593750e+00
2.268000000000000000e+03 5.297977447509765625e+01 -4.062727737426757812e+01 -1.979293584823608398e+00 5.133464813232421875e+00 9.462513327598571777e-01 4.157576262950897217e-01
2.269000000000000000e+03 2.173179626464843750e+01 9.784175872802734375e+00 4.005854129791259766e-01 -8.136872947216033936e-02 9.576500207185745239e-02 2.884480953216552734e-01
2.270000000000000000e+03 2.491904067993164062e+01 1.350428009033203125e+01 1.002836078405380249e-01 2.015213519334793091e-01 9.054148942232131958e-02 7.142357993870973587e-03
2.271000000000000000e+03 3.659399032592773438e+01 1.399484729766845703e+01 7.863253355026245117e-01 3.305760324001312256e-01 3.350704014301300049e-01 -6.438857316970825195e-01
2.272000000000000000e+03 3.525552749633789062e+01 1.626746177673339844e+01 4.918392896652221680e-01 7.950701117515563965e-01 3.860728144645690918e-01 -6.593219041824340820e-01
2.273000000000000000e+03 4.929133987426757812e+01 -9.193688392639160156e+00 9.842081665992736816e-01 7.332237243652343750e+00 2.494933605194091797e+00 3.320211410522460938e+00
2.274000000000000000e+03 5.032297897338867188e+01 -1.248887825012207031e+01 3.858951032161712646e-01 4.252327919006347656e+00 1.391466975212097168e+00 6.007748246192932129e-01
2.275000000000000000e+03 2.421939659118652344e+01 -2.793040466308593750e+01 2.460470348596572876e-01 3.647401034832000732e-01 1.832361519336700439e-01 -2.123662382364273071e-01
2.276000000000000000e+03 2.266942405700683594e+01 -2.209236145019531250e+01 2.125039994716644287e-01 1.024952307343482971e-01 9.449976682662963867e-02 -2.150467336177825928e-01
2.277000000000000000e+03 7.547344970703125000e+01 -2.278074645996093750e+01 1.280280470848083496e+00 9.377874374389648438e+00 3.197446346282958984e+00 1.328789293766021729e-01
2.278000000000000000e+03 4.223000335693359375e+01 1.583980464935302734e+01 4.475851058959960938e-01 2.537609100341796875e+00 8.955582976341247559e-01 -1.065878629684448242e+00
2.279000000000000000e+03 5.487830734252929688e+01 2.249797630310058594e+01 -2.076527833938598633e+00 4.961943626403808594e+00 8.656247258186340332e-01 -2.748132944107055664e+00
2.280000000000000000e+03 5.349487304687500000e+01 2.448668479919433594e+01 -6.092165112495422363e-01 6.319780826568603516e+00 1.713169336318969727e+00 -1.148332118988037109e+00
2.281000000000000000e+03 4.117166519165039062e+01 1.005540084838867188e+01 1.121028780937194824e+00 1.402560949325561523e+00 7.570769190788269043e-01 -8.249378800392150879e-01
2.282000000000000000e+03 1.412407970428466797e+01 -1.038410949707031250e+01 5.761277675628662109e-02 2.456232905387878418e-01 9.097082167863845825e-02 -4.395237937569618225e-02
2.283000000000000000e+03 5.768206405639648438e+01 1.339399147033691406e+01 1.781240582466125488e+00 8.865414619445800781e+00 3.193996667861938477e+00 1.162368297576904297e+00
2.284000000000000000e+03 4.744019317626953125e+01 -5.800134181976318359e+00 -4.537359774112701416e-01 2.350043773651123047e+00 5.688923597335815430e-01 8.031505942344665527e-01
2.285000000000000000e+03 2.141735649108886719e+01 2.657760047912597656e+01 4.343849122524261475e-01 3.977806866168975830e-01 2.496496737003326416e-01 5.193540453910827637e-01
2.286000000000000000e+03 2.094375801086425781e+01 2.523086738586425781e+01 4.582827687263488770e-01 3.800169825553894043e-01 2.514899075031280518e-01 4.259234368801116943e-01
2.287000000000000000e+03 4.549472332000732422e+00 2.925830459594726562e+01 -1.561344601213932037e-03 -7.290487289428710938e-01 -2.191830128431320190e-01 1.529189497232437134e-01
2.288000000000000000e+03 6.378932952880859375e+01 -1.282660102844238281e+01 -1.811484694480895996e+00 6.824647426605224609e+00 1.503948807716369629e+00 6.978726983070373535e-01
2.289000000000000000e+03 4.623955535888671875e+01 3.368923187255859375e+01 8.054186403751373291e-02 3.081426620483398438e+00 9.485905766487121582e-01 -9.010439515113830566e-01
2.290000000000000000e+03 6.557621479034423828e+00 2.354511070251464844e+01 -1.323471516370773315e-01 -4.459377825260162354e-01 -1.734854727983474731e-01 1.640061289072036743e-01
2.291000000000000000e+03 5.011669635772705078e+00 2.353879737854003906e+01 -6.853803247213363647e-02 -5.561745762825012207e-01 -1.874137818813323975e-01 4.583578184247016907e-02
2.292000000000000000e+03 4.923364257812500000e+01 2.963349342346191406e+01 1.214566349983215332e+00 4.292057037353515625e+00 1.651986956596374512e+00 -6.531199812889099121e-01
2.293000000000000000e+03 1.562063121795654297e+01 2.172980117797851562e+01 4.133901894092559814e-01 2.914475500583648682e-01 2.114513218402862549e-01 4.689741730690002441e-01
2.294000000000000000e+03 2.671145820617675781e+01 1.340854358673095703e+01 2.022977322340011597e-01 1.777782887220382690e-01 1.140227988362312317e-01 1.320627052336931229e-02
2.295000000000000000e+03 7.559721374511718750e+01 1.739779281616210938e+01 -4.033026099205017090e-01 7.936791896820068359e+00 2.260046958923339844e+00 1.201958537101745605e+00
2.296000000000000000e+03 1.669163131713867188e+01 -4.116152286529541016e+00 1.098350510001182556e-01 2.608803510665893555e-01 1.112146228551864624e-01 2.681545540690422058e-02
2.297000000000000000e+03 2.501582336425781250e+01 -1.484435558319091797e+01 -9.101681709289550781e-01 -3.548274636268615723e-01 -3.794986903667449951e-01 -4.142988324165344238e-01
2.298000000000000000e+03 1.112656211853027344e+01 -3.457783126831054688e+01 5.052031017839908600e-03 -1.695972234010696411e-01 -4.936355724930763245e-02 -1.977254450321197510e-01
2.299000000000000000e+03 2.998439979553222656e+01 -1.365983676910400391e+01 -7.980152368545532227e-01 3.241766691207885742e-01 -1.421515792608261108e-01 7.297358661890029907e-02
2.300000000000000000e+03 2.709465789794921875e+01 -1.907855796813964844e+01 3.195570409297943115e-01 4.486346542835235596e-01 2.304575145244598389e-01 6.090054288506507874e-02
2.301000000000000000e+03 2.739081382751464844e+01 -1.780112838745117188e+01 1.227976530790328979e-01 2.745352685451507568e-01 1.191998794674873352e-01 -1.136370562016963959e-02
2.302000000000000000e+03 3.155990982055664062e+01 2.650027847290039062e+01 4.043417274951934814e-01 1.540928959846496582e+00 5.835812091827392578e-01 -4.801841080188751221e-01
2.303000000000000000e+03 3.159236717224121094e+01 3.042981147766113281e+01 4.173972010612487793e-01 1.414260625839233398e+00 5.494973063468933105e-01 -4.664041101932525635e-01
2.304000000000000000e+03 8.905984878540039062e+00 8.714789390563964844e+00 -5.175186395645141602e-01 -3.684452474117279053e-01 -2.657891511917114258e-01 3.182339668273925781e-01
2.305000000000000000e+03 9.034167289733886719e+00 4.194020271301269531e+00 -2.158436775207519531e-01 -1.420145928859710693e-01 -1.073574870824813843e-01 6.759335100650787354e-02
2.306000000000000000e+03 5.347160339355468750e+01 1.139670610427856445e+00 3.200750350952148438e+00 5.646792888641357422e+00 2.654263019561767578e+00 4.035083770751953125e+00
2.307000000000000000e+03 5.328323745727539062e+01 3.194321095943450928e-01 4.399271488189697266e+00 5.346792221069335938e+00 2.923819065093994141e+00 3.858878850936889648e+00
2.308000000000000000e+03 6.047105026245117188e+01 -1.646793746948242188e+01 -2.424341887235641479e-01 5.990822315216064453e+00 1.724516510963439941e+00 1.767441928386688232e-01
2.309000000000000000e+03 6.234825897216796875e+01 -2.022681236267089844e+01 2.191688060760498047e+00 5.925288200378417969e+00 2.435092926025390625e+00 -1.541794300079345703e+00
2.310000000000000000e+03 9.547009468078613281e+00 2.072103881835937500e+01 1.509557962417602539e-01 -4.600759595632553101e-02 3.148446232080459595e-02 1.140493080019950867e-01
2.311000000000000000e+03 1.305873870849609375e+01 1.896858024597167969e+01 5.194534659385681152e-01 3.991548717021942139e-01 2.755824923515319824e-01 4.691734611988067627e-01
2.312000000000000000e+03 3.842670822143554688e+01 -3.946674346923828125e+00 6.992238759994506836e-01 9.532642364501953125e-01 4.957464337348937988e-01 5.129425525665283203e-01
2.313000000000000000e+03 3.889202117919921875e+01 -3.260489702224731445e+00 4.716208279132843018e-01 6.549817323684692383e-01 3.379807472229003906e-01 4.213041663169860840e-01
2.314000000000000000e+03 1.487955856323242188e+01 -2.274563789367675781e+01 -8.950145542621612549e-02 -4.808486700057983398e-01 -1.711050420999526978e-01 -2.939051687717437744e-01
2.315000000000000000e+03 4.155921173095703125e+01 -1.602756690979003906e+01 -1.906294375658035278e-01 4.658652842044830322e-01 8.257075399160385132e-02 -1.767195612192153931e-01
2.316000000000000000e+03 7.064554595947265625e+01 -3.703616333007812500e+01 -7.599306106567382812e-02 5.862021923065185547e+00 1.735808610916137695e+00 -9.489133358001708984e-01
2.317000000000000000e+03 6.730566406250000000e+01 -3.735722732543945312e+01 -9.181954860687255859e-01 4.736171722412109375e+00 1.145392894744873047e+00 -7.592475414276123047e-01
2.318000000000000000e+03 5.105467224121093750e+01 2.560616683959960938e+01 9.902741909027099609e-01 4.702085971832275391e+00 1.707708120346069336e+00 -3.516512513160705566e-01
2.319000000000000000e+03 5.207191085815429688e+01 2.769626426696777344e+01 1.608209609985351562e+00 6.013021945953369141e+00 2.286369562149047852e+00 -9.387968182563781738e-01
2.320000000000000000e+03 2.164241409301757812e+01 -1.567687511444091797e+01 -5.396786928176879883e-01 -1.386191248893737793e-01 -2.034893482923507690e-01 -5.308585166931152344e-01
2.321000000000000000e+03 1.080609226226806641e+01 -3.134313774108886719e+01 -1.340554952621459961e-01 -1.858077049255371094e-01 -9.595896303653717041e-02 -1.953870207071304321e-01
2.322000000000000000e+03 4.355565261840820312e+01 1.281217479705810547e+01 1.333275794982910156e+00 5.488410472869873047e+00 2.046505928039550781e+00 -1.524890422821044922e+00
2.323000000000000000e+03 1.276283550262451172e+01 -2.987965822219848633e+00 -9.359464049339294434e-02 -1.214027404785156250e-01 -6.449921429157257080e-02 -1.817855089902877808e-01
2.324000000000000000e+03 2.684703063964843750e+01 -2.633974838256835938e+01 2.175927907228469849e-01 6.270692348480224609e-01 2.533985972404479980e-01 -1.099235787987709045e-01
2.325000000000000000e+03 5.586305999755859375e+01 9.074692726135253906e+00 1.731997609138488770e+00 9.924496650695800781e+00 3.496948242187500000e+00 1.172473192214965820e+00
2.326000000000000000e+03 6.009925460815429688e+01 8.140380859375000000e+00 -1.800283789634704590e-01 6.528788089752197266e+00 1.904627799987792969e+00 -8.370069265365600586e-01
2.327000000000000000e+03 1.997025108337402344e+01 -1.496278858184814453e+01 -3.490419089794158936e-01 3.899831324815750122e-02 -9.301307797431945801e-02 -3.462794423103332520e-01
2.328000000000000000e+03 1.972412872314453125e+01 -1.676726150512695312e+01 -2.174852341413497925e-01 -2.143848687410354614e-02 -7.167711853981018066e-02 -5.537092685699462891e-01
2.329000000000000000e+03 5.062695312500000000e+01 -3.212347793579101562e+01 2.002501964569091797e+00 5.284269332885742188e+00 2.186031341552734375e+00 -8.247288316488265991e-02
2.330000000000000000e+03 5.114456939697265625e+01 -3.300791931152343750e+01 1.439691901206970215e+00 5.563902378082275391e+00 2.101078271865844727e+00 2.809420228004455566e-01
2.331000000000000000e+03 3.886513137817382812e+01 -3.053685569763183594e+01 1.001172661781311035e+00 4.428133010864257812e+00 1.628791689872741699e+00 1.363317966461181641e+00
2.332000000000000000e+03 4.353703308105468750e+01 -1.494937801361083984e+01 -4.162811338901519775e-01 1.377349257469177246e+00 2.883204221725463867e-01 1.129686951637268066e+00
2.333000000000000000e+03 3.840377807617187500e+01 -1.421175098419189453e+01 -9.355124235153198242e-01 4.607809782028198242e-01 -1.424194276332855225e-01 -3.351480662822723389e-01
2.334000000000000000e+03 3.946972656250000000e+01 -1.641763496398925781e+01 -1.749618947505950928e-01 3.219194412231445312e-01 4.408726096153259277e-02 -2.461997866630554199e-01
2.335000000000000000e+03 2.818416213989257812e+01 -1.941611099243164062e+01 2.754032611846923828e-01 8.524826765060424805e-01 3.383657932281494141e-01 2.429695874452590942e-01
2.336000000000000000e+03 6.087414932250976562e+01 1.891254234313964844e+01 1.443622827529907227e+00 7.856913566589355469e+00 2.790160894393920898e+00 2.322345733642578125e+00
2.337000000000000000e+03 4.432735824584960938e+01 -1.861311721801757812e+01 1.058055996894836426e+00 3.933655500411987305e+00 1.497513413429260254e+00 6.952114701271057129e-01
2.338000000000000000e+03 2.894292831420898438e+01 -1.251850700378417969e+01 -1.001556992530822754e+00 -5.843759328126907349e-02 -3.179983794689178467e-01 -2.619032859802246094e-01
2.339000000000000000e+03 4.606666564941406250e+01 -2.516359519958496094e+01 -7.299770116806030273e-01 3.011266946792602539e+00 6.843870282173156738e-01 -5.936840772628784180e-01
2.340000000000000000e+03 4.762684631347656250e+01 -1.269313526153564453e+01 4.976149201393127441e-01 6.894381523132324219e+00 2.217598915100097656e+00 2.186643123626708984e+00
2.341000000000000000e+03 7.583634185791015625e+01 -4.257971763610839844e+00 5.891426205635070801e-01 9.560971260070800781e+00 3.045034170150756836e+00 -5.899617671966552734e-01
2.342000000000000000e+03 7.692970275878906250e+01 -1.451349616050720215e+00 -4.246444702148437500e-01 8.223293304443359375e+00 2.339594602584838867e+00 8.938340842723846436e-02
2.343000000000000000e+03 3.625003051757812500e+01 -3.134992790222167969e+01 1.206409454345703125e+00 1.597646236419677734e+00 8.412167429924011230e-01 7.178798317909240723e-01
2.344000000000000000e+03 7.152609252929687500e+01 1.985571861267089844e+01 -2.072638511657714844e+00 5.863068103790283203e+00 1.137128949165344238e+00 -1.042744517326354980e+00
2.345000000000000000e+03 6.575076293945312500e+01 -1.173833751678466797e+01 -3.879361748695373535e-01 5.752544403076171875e+00 1.609382390975952148e+00 -9.386755824089050293e-01
2.346000000000000000e+03 3.553714370727539062e+01 -8.219327926635742188e+00 3.753238916397094727e-01 7.730923891067504883e-01 3.445248901844024658e-01 2.540669143199920654e-01
2.347000000000000000e+03 5.432479858398437500e+01 -3.241399383544921875e+01 2.026531457901000977e+00 6.567411422729492188e+00 2.578182935714721680e+00 1.057830929756164551e+00
2.348000000000000000e+03 5.487025833129882812e+01 -3.097806739807128906e+01 1.799622535705566406e+00 6.946606159210205078e+00 2.623868703842163086e+00 1.371963977813720703e+00
2.349000000000000000e+03 2.582744407653808594e+01 1.428884124755859375e+01 1.709813028573989868e-01 1.764345616102218628e-01 1.042247638106346130e-01 -7.428158819675445557e-02
2.350000000000000000e+03 2.395665359497070312e+01 1.592798423767089844e+01 4.502834379673004150e-02 3.104183077812194824e-01 1.066339984536170959e-01 -1.314905881881713867e-01
2.351000000000000000e+03 1.710452079772949219e+01 3.399885177612304688e+01 -4.198097437620162964e-02 -6.578941643238067627e-02 -3.233111649751663208e-02 5.712673813104629517e-02
2.352000000000000000e+03 1.838931274414062500e+01 3.583305358886718750e+01 1.107394397258758545e-01 4.563765227794647217e-02 4.691312834620475769e-02 -2.431173808872699738e-02
2.353000000000000000e+03 6.479843902587890625e+01 3.991112518310546875e+01 -6.664937138557434082e-01 3.736563682556152344e+00 9.210209846496582031e-01 -1.096697598695755005e-01
2.354000000000000000e+03 2.659432601928710938e+01 6.771144866943359375e+00 2.100541591644287109e-01 2.232589721679687500e-01 1.299939304590225220e-01 8.221236616373062134e-02
2.355000000000000000e+03 2.763983345031738281e+01 7.791194438934326172e+00 3.539820611476898193e-01 5.390610694885253906e-01 2.679129242897033691e-01 -1.677117496728897095e-02
2.356000000000000000e+03 1.670448875427246094e+01 5.945974349975585938e+00 -1.237848252058029175e-01 2.908895313739776611e-01 5.013140663504600525e-02 5.165962576866149902e-01
2.357000000000000000e+03 1.901836585998535156e+01 1.962360382080078125e+01 1.414127647876739502e-01 4.984614998102188110e-02 5.737767368555068970e-02 -1.121865585446357727e-02
2.358000000000000000e+03 1.869577407836914062e+01 1.863127517700195312e+01 -7.281066849827766418e-03 -9.120554476976394653e-02 -2.954598329961299896e-02 7.212061434984207153e-02
2.359000000000000000e+03 5.919341278076171875e+01 -2.194517707824707031e+01 2.320686578750610352e+00 4.332333087921142578e+00 1.995905876159667969e+00 4.353030025959014893e-01
2.360000000000000000e+03 6.349047470092773438e+01 -2.026363945007324219e+01 1.606959342956542969e+00 8.151059150695800781e+00 2.927405595779418945e+00 -1.579879641532897949e+00
2.361000000000000000e+03 2.594730186462402344e+01 -2.937257385253906250e+01 2.084894776344299316e-01 4.596856832504272461e-01 2.004525512456893921e-01 -2.198820859193801880e-01
2.362000000000000000e+03 2.598521232604980469e+01 -2.758576202392578125e+01 1.933929920196533203e-01 4.891009330749511719e-01 2.047481834888458252e-01 -1.870946586132049561e-01
2.363000000000000000e+03 6.379375076293945312e+01 -3.483184576034545898e+00 1.892270565032958984e+00 8.403488159179687500e+00 3.088727474212646484e+00 -1.994571536779403687e-01
2.364000000000000000e+03 6.250954055786132812e+01 -4.258210659027099609e+00 1.880665421485900879e+00 1.035657310485839844e+01 3.671171665191650391e+00 -1.585228562355041504e+00
2.365000000000000000e+03 3.572045898437500000e+01 2.365532493591308594e+01 2.409887909889221191e-01 2.389500856399536133e+00 7.891469001770019531e-01 -7.102941274642944336e-01
2.366000000000000000e+03 3.463168334960937500e+01 2.374647903442382812e+01 1.810807734727859497e-01 2.409972190856933594e+00 7.773159146308898926e-01 -3.671669960021972656e-01
2.367000000000000000e+03 4.297085762023925781e+00 3.206349563598632812e+01 9.485840052366256714e-02 -6.349633932113647461e-01 -1.620315015316009521e-01 1.314926594495773315e-01
2.368000000000000000e+03 6.773279190063476562e+00 2.090163993835449219e+01 8.556960523128509521e-02 -3.318744301795959473e-01 -7.389144599437713623e-02 7.282159477472305298e-02
2.369000000000000000e+03 1.515948295593261719e+01 -1.302732372283935547e+01 -4.307978972792625427e-02 3.773581981658935547e-01 1.002835258841514587e-01 -7.970882207155227661e-02
2.370000000000000000e+03 4.561576080322265625e+01 -1.890665626525878906e+01 1.647156476974487305e+00 6.008138179779052734e+00 2.296588420867919922e+00 1.076285123825073242e+00
2.371000000000000000e+03 4.311255645751953125e+01 -1.826196861267089844e+01 9.293518066406250000e-01 2.529213905334472656e+00 1.037569761276245117e+00 9.209492206573486328e-01
2.372000000000000000e+03 5.930041885375976562e+01 -2.397373390197753906e+01 1.033856987953186035e+00 3.218026638031005859e+00 1.275565147399902344e+00 9.006711244583129883e-01
2.373000000000000000e+03 5.806211090087890625e+01 -2.073528289794921875e+01 2.491235017776489258e+00 5.290513992309570312e+00 2.334524631500244141e+00 4.543848931789398193e-01
2.374000000000000000e+03 6.382424163818359375e+01 3.697159528732299805e+00 1.214454919099807739e-01 3.261163234710693359e+00 1.014782547950744629e+00 -3.971964716911315918e-01
2.375000000000000000e+03 4.878701019287109375e+01 -1.027646923065185547e+01 2.321679592132568359e+00 6.661115646362304688e+00 2.694838523864746094e+00 3.360932826995849609e+00
2.376000000000000000e+03 1.979125213623046875e+01 2.132371902465820312e+01 2.879056930541992188e-01 2.309219241142272949e-01 1.556482911109924316e-01 8.169702254235744476e-03
2.377000000000000000e+03 1.889410400390625000e+01 2.316766166687011719e+01 5.149239897727966309e-01 3.783642053604125977e-01 2.679864466190338135e-01 2.211133390665054321e-01
2.378000000000000000e+03 4.515965652465820312e+01 -2.390904426574707031e+01 2.404692173004150391e-01 3.207799911499023438e+00 1.034480810165405273e+00 7.749206423759460449e-01
2.379000000000000000e+03 6.150536346435546875e+01 6.660505771636962891e+00 -8.770259618759155273e-01 5.142089843750000000e+00 1.279519200325012207e+00 -1.639674544334411621e+00
2.380000000000000000e+03 6.846531677246093750e+01 5.715774536132812500e+00 2.028856240212917328e-02 2.198280572891235352e+00 6.655707359313964844e-01 2.292078971862792969e+00
2.381000000000000000e+03 6.639176940917968750e+01 5.709493637084960938e+00 -1.317106187343597412e-01 2.508900463581085205e-01 3.575383126735687256e-02 1.132873654365539551e+00
2.382000000000000000e+03 5.462496566772460938e+01 -2.862586593627929688e+01 6.312163174152374268e-02 5.975865364074707031e+00 1.811696052551269531e+00 1.658030271530151367e+00
2.383000000000000000e+03 1.163082599639892578e+01 -2.833035469055175781e+01 -6.740156561136245728e-02 -2.501267194747924805e-01 -9.525848925113677979e-02 -1.964870393276214600e-01
2.384000000000000000e+03 1.028976821899414062e+01 -3.266967010498046875e+01 -9.142373502254486084e-02 -1.871745884418487549e-01 -8.357949554920196533e-02 -2.017597705125808716e-01
2.385000000000000000e+03 3.365140151977539062e+01 -3.066072082519531250e+01 7.700155377388000488e-01 5.005689263343811035e-01 3.811753392219543457e-01 -9.593557566404342651e-02
2.386000000000000000e+03 3.828235244750976562e+01 4.073662948608398438e+01 5.646688863635063171e-02 1.106925725936889648e+00 3.490177989006042480e-01 1.191659830510616302e-02
2.387000000000000000e+03 3.171978569030761719e+01 4.097024917602539062e+01 -8.024527132511138916e-02 1.089788794517517090e+00 3.028630316257476807e-01 1.483790948987007141e-02
2.388000000000000000e+03 4.284904003143310547e+00 -2.191649055480957031e+01 1.825497597455978394e-01 -2.519663274288177490e-01 -2.082497067749500275e-02 -1.040220186114311218e-01
2.389000000000000000e+03 5.153250694274902344e+00 3.287739944458007812e+01 1.681742519140243530e-01 -5.077456235885620117e-01 -1.018714085221290588e-01 1.060859411954879761e-01
2.390000000000000000e+03 6.833921051025390625e+01 1.355103969573974609e+00 8.401535153388977051e-01 1.932926177978515625e+00 8.319239020347595215e-01 2.177419424057006836e+00
2.391000000000000000e+03 1.063938808441162109e+01 -2.584287452697753906e+01 -5.818188656121492386e-03 -1.528301388025283813e-01 -4.759449884295463562e-02 -2.368028312921524048e-01
2.392000000000000000e+03 2.959464073181152344e+01 -1.171415710449218750e+01 -8.995467424392700195e-01 -2.555601000785827637e-01 -3.465320467948913574e-01 -2.135048657655715942e-01
2.393000000000000000e+03 5.861023712158203125e+01 2.217824554443359375e+01 -2.181092262268066406e+00 6.975634098052978516e-01 -4.450586736202239990e-01 1.333266496658325195e-01
2.394000000000000000e+03 2.239164543151855469e+01 3.030405998229980469e+01 1.629641354084014893e-01 4.408028125762939453e-01 1.811300814151763916e-01 1.269251108169555664e-01
2.395000000000000000e+03 2.143581581115722656e+01 2.965509796142578125e+01 1.198094189167022705e-01 3.307082355022430420e-01 1.351552903652191162e-01 1.427202224731445312e-01
2.396000000000000000e+03 4.429617309570312500e+01 1.722073173522949219e+01 -5.605075359344482422e-01 2.944355726242065430e+00 7.151544690132141113e-01 -1.648201346397399902e-01
2.397000000000000000e+03 4.206516647338867188e+01 1.756974029541015625e+01 -1.237247586250305176e-01 2.141884326934814453e+00 6.054478883743286133e-01 -7.251976132392883301e-01
2.398000000000000000e+03 3.673064804077148438e+01 -1.431225776672363281e+01 -8.647204637527465820e-01 3.236198127269744873e-01 -1.623301804065704346e-01 -1.199496611952781677e-01
2.399000000000000000e+03 3.763549041748046875e+01 -1.512940692901611328e+01 -8.887999057769775391e-01 4.038706719875335693e-01 -1.454787701368331909e-01 -9.769043326377868652e-02
2.400000000000000000e+03 4.417527008056640625e+01 -1.611112022399902344e+01 -4.256368279457092285e-01 3.105743646621704102e+00 8.040320277214050293e-01 1.333667635917663574e+00
2.401000000000000000e+03 4.251336288452148438e+01 -1.539625835418701172e+01 -4.285094738006591797e-01 6.901041269302368164e-01 7.847838848829269409e-02 3.276389539241790771e-01
2.402000000000000000e+03 7.503899383544921875e+01 -2.447344970703125000e+01 6.882824301719665527e-01 8.963298797607421875e+00 2.895474433898925781e+00 -1.907296478748321533e-02
2.403000000000000000e+03 2.125073814392089844e+01 1.832805442810058594e+01 7.081065326929092407e-02 1.506849527359008789e-01 6.644868105649948120e-02 -1.090772449970245361e-01
2.404000000000000000e+03 4.340415191650390625e+01 1.160654544830322266e+01 1.898276209831237793e+00 4.604347229003906250e+00 1.950787067413330078e+00 -1.634215593338012695e+00
2.405000000000000000e+03 5.109058380126953125e+01 3.281285476684570312e+01 5.530769824981689453e-01 4.892808437347412109e+00 1.633765697479248047e+00 -5.005079507827758789e-01
2.406000000000000000e+03 5.945770645141601562e+01 -1.747355842590332031e+01 6.435208916664123535e-01 5.625534534454345703e+00 1.880716681480407715e+00 3.256605938076972961e-02
2.407000000000000000e+03 5.830106353759765625e+01 -1.935602760314941406e+01 1.696230888366699219e+00 5.838451862335205078e+00 2.260404825210571289e+00 2.852674722671508789e-01
2.408000000000000000e+03 6.365970230102539062e+01 2.376995277404785156e+01 -4.486124813556671143e-01 6.686606407165527344e+00 1.871398210525512695e+00 2.830618619918823242e+00
2.409000000000000000e+03 6.358983612060546875e+01 2.125179672241210938e+01 -2.945708036422729492e+00 5.577207565307617188e+00 7.894497513771057129e-01 4.231437683105468750e+00
2.410000000000000000e+03 4.549056625366210938e+01 4.391256332397460938e+00 -7.368143796920776367e-01 2.851386547088623047e+00 6.343716979026794434e-01 -2.268327474594116211e+00
2.411000000000000000e+03 2.584134483337402344e+01 -2.560746574401855469e+01 2.589377760887145996e-01 4.703994095325469971e-01 2.188011556863784790e-01 -8.664152771234512329e-02
2.412000000000000000e+03 2.668717575073242188e+01 1.165574455261230469e+01 2.969770431518554688e-01 2.453482151031494141e-01 1.626975834369659424e-01 8.108920603990554810e-02
2.413000000000000000e+03 2.663817787170410156e+01 1.000175189971923828e+01 3.729682862758636475e-01 2.962555289268493652e-01 2.007671445608139038e-01 8.724346011877059937e-02
2.414000000000000000e+03 6.401976013183593750e+01 -2.389591217041015625e+01 1.600257992744445801e+00 7.161961555480957031e+00 2.628665924072265625e+00 -2.047783374786376953e+00
2.415000000000000000e+03 5.536400222778320312e+01 2.135436439514160156e+01 -2.003185033798217773e+00 4.418798923492431641e+00 7.246841788291931152e-01 -2.828560352325439453e+00
2.416000000000000000e+03 6.081999206542968750e+01 7.493003845214843750e+00 -9.161679744720458984e-01 5.911536216735839844e+00 1.498610496520996094e+00 -1.019786953926086426e+00
2.417000000000000000e+03 3.407206344604492188e+01 2.530920410156250000e+01 5.676327347755432129e-01 2.730799674987792969e+00 9.895297288894653320e-01 -3.303085565567016602e-01
2.418000000000000000e+03 1.610588073730468750e+01 -1.389970111846923828e+01 -3.487156331539154053e-02 4.211362898349761963e-01 1.158794239163398743e-01 -1.026729568839073181e-01
2.419000000000000000e+03 1.713302993774414062e+01 -1.461409473419189453e+01 -5.576492473483085632e-02 1.869972944259643555e-01 3.936970978975296021e-02 -1.468437612056732178e-01
2.420000000000000000e+03 5.305516433715820312e+01 2.121549224853515625e+01 -1.671192288398742676e+00 4.881410598754882812e+00 9.630655050277709961e-01 -2.374620676040649414e+00
2.421000000000000000e+03 1.276810169219970703e+01 -2.698602676391601562e+01 1.309583149850368500e-02 -3.407422602176666260e-01 -9.829393029212951660e-02 -2.137826234102249146e-01
2.422000000000000000e+03 1.554474067687988281e+01 -2.648327255249023438e+01 1.451353579759597778e-01 -3.345323503017425537e-01 -5.681910365819931030e-02 -1.726161837577819824e-01
2.423000000000000000e+03 5.800348663330078125e+01 -2.346780204772949219e+01 1.073211908340454102e+00 5.443928718566894531e+00 1.955142259597778320e+00 1.230746507644653320e+00
2.424000000000000000e+03 1.029380702972412109e+01 -3.773413848876953125e+01 1.632099151611328125e-01 -1.624835431575775146e-01 2.179116563638672233e-04 -1.344790309667587280e-01
2.425000000000000000e+03 7.130691528320312500e+01 -1.539026260375976562e+01 -3.748708367347717285e-01 1.676420927047729492e+00 3.904650211334228516e-01 -1.730761170387268066e+00
2.426000000000000000e+03 1.036647415161132812e+01 1.756027221679687500e+01 5.508488416671752930e-01 3.086211681365966797e-01 2.578409910202026367e-01 3.109510838985443115e-01
2.427000000000000000e+03 5.500020027160644531e+00 1.680839157104492188e+01 2.419325858354568481e-01 -3.918439447879791260e-01 -4.497340694069862366e-02 2.342702746391296387e-01
2.428000000000000000e+03 3.457989501953125000e+01 1.958988380432128906e+01 5.144600570201873779e-02 1.589718818664550781e+00 4.923494756221771240e-01 -5.527257919311523438e-01
2.429000000000000000e+03 3.828495407104492188e+01 2.049660682678222656e+01 -4.485561847686767578e-01 1.006954550743103027e+00 1.675195097923278809e-01 -1.013577580451965332e+00
2.430000000000000000e+03 4.603555297851562500e+01 -2.293796539306640625e+01 7.089340686798095703e-01 4.804736614227294922e+00 1.654101252555847168e+00 4.501176774501800537e-01
2.431000000000000000e+03 4.024903488159179688e+01 -2.617880058288574219e+01 8.562383651733398438e-01 3.576056957244873047e+00 1.329688549041748047e+00 1.541783213615417480e+00
2.432000000000000000e+03 3.950520324707031250e+01 -2.698380661010742188e+01 1.383216828107833862e-01 4.499058723449707031e+00 1.391214132308959961e+00 1.510861277580261230e+00
2.433000000000000000e+03 4.238288116455078125e+01 1.424122810363769531e+01 1.165216565132141113e+00 3.313884973526000977e+00 1.343730449676513672e+00 -1.361391305923461914e+00
2.434000000000000000e+03 4.689832687377929688e+01 2.413809013366699219e+01 9.199835062026977539e-01 3.132686376571655273e+00 1.215801000595092773e+00 3.312357366085052490e-01
2.435000000000000000e+03 1.992114067077636719e+01 -2.531789588928222656e+01 3.472716808319091797e-01 1.603653877973556519e-01 1.522911190986633301e-01 -1.328938156366348267e-01
2.436000000000000000e+03 6.720302581787109375e+01 2.214709854125976562e+01 -8.285042047500610352e-01 1.247105360031127930e+00 1.255803406238555908e-01 -1.323384940624237061e-01
2.437000000000000000e+03 7.489279174804687500e+01 -1.953637886047363281e+01 7.721304297447204590e-01 8.996047019958496094e+00 2.930453300476074219e+00 6.638033986091613770e-01
2.438000000000000000e+03 7.712257385253906250e+01 -1.810385894775390625e+01 6.980410963296890259e-02 8.473855018615722656e+00 2.563097715377807617e+00 1.209053397178649902e+00
2.439000000000000000e+03 9.517716407775878906e+00 1.852331161499023438e+01 4.145070314407348633e-01 5.060164630413055420e-02 1.395325958728790283e-01 2.044773250818252563e-01
2.440000000000000000e+03 4.409961318969726562e+01 7.041439056396484375e+00 2.931923866271972656e-01 3.437419652938842773e+00 1.119183659553527832e+00 -1.214671373367309570e+00
2.441000000000000000e+03 4.626866531372070312e+01 2.282574462890625000e+01 -2.518595457077026367e-01 2.777296304702758789e+00 7.576310634613037109e-01 7.991651892662048340e-01
2.442000000000000000e+03 4.433766174316406250e+01 2.039147758483886719e+01 -1.679476141929626465e+00 2.433383464813232422e+00 2.261722236871719360e-01 8.471973538398742676e-01
2.443000000000000000e+03 5.808894729614257812e+01 1.952433586120605469e+01 7.021600008010864258e-01 4.688387870788574219e+00 1.617164373397827148e+00 -2.629624605178833008e-01
2.444000000000000000e+03 7.450207519531250000e+01 -2.879137420654296875e+01 -5.393249988555908203e-01 6.616904735565185547e+00 1.823273897171020508e+00 9.984900355339050293e-01
2.445000000000000000e+03 6.140649414062500000e+01 -1.566110014915466309e+00 1.750647664070129395e+00 8.960753440856933594e+00 3.213420391082763672e+00 -1.726246476173400879e+00
2.446000000000000000e+03 4.824691390991210938e+01 -1.143890190124511719e+01 2.691987276077270508e+00 6.591670036315917969e+00 2.785097122192382812e+00 2.146525144577026367e+00
2.447000000000000000e+03 6.288683891296386719e+00 3.562068557739257812e+01 1.298232972621917725e-01 -2.851729989051818848e-01 -4.660490900278091431e-02 -2.688685990869998932e-02
2.448000000000000000e+03 6.233115386962890625e+01 2.255877494812011719e+01 -2.874635934829711914e+00 6.300383567810058594e+00 1.027724266052246094e+00 3.725464820861816406e+00
2.449000000000000000e+03 6.268214797973632812e+01 -8.870066642761230469e+00 8.676586747169494629e-01 8.829639434814453125e+00 2.909189462661743164e+00 1.310119926929473877e-01
2.450000000000000000e+03 1.203392887115478516e+01 4.098142242431640625e+01 1.420513540506362915e-02 1.582952216267585754e-02 9.010396897792816162e-03 5.623216181993484497e-02
2.451000000000000000e+03 5.806358718872070312e+01 1.241390323638916016e+01 1.614557027816772461e+00 9.067657470703125000e+00 3.204664468765258789e+00 9.273933172225952148e-01
2.452000000000000000e+03 5.829663848876953125e+01 1.430231475830078125e+01 2.119477033615112305e+00 8.716029167175292969e+00 3.250651836395263672e+00 1.269814252853393555e+00
2.453000000000000000e+03 7.356226348876953125e+01 1.148758888244628906e+01 1.634976983070373535e+00 9.664726257324218750e+00 3.389910936355590820e+00 5.171637535095214844e-01
2.454000000000000000e+03 7.385646057128906250e+01 1.043994808197021484e+01 1.587909340858459473e+00 9.474744796752929688e+00 3.318796157836914062e+00 6.087129004299640656e-03
2.455000000000000000e+03 6.293354797363281250e+01 -2.300774192810058594e+01 2.996263980865478516e+00 5.683489799499511719e+00 2.603926181793212891e+00 -1.756821274757385254e+00
2.456000000000000000e+03 6.280911254882812500e+01 -2.588318824768066406e+01 -1.412821054458618164e+00 3.467592716217041016e+00 6.164315342903137207e-01 -2.290903568267822266e+00
2.457000000000000000e+03 7.406520843505859375e+01 -1.267745780944824219e+01 -1.500425696372985840e+00 4.231959342956542969e+00 8.194601535797119141e-01 1.141441106796264648e+00
2.458000000000000000e+03 4.598554611206054688e+00 2.652123260498046875e+01 -1.626091152429580688e-01 -7.089908123016357422e-01 -2.614799737930297852e-01 1.203267499804496765e-01
2.459000000000000000e+03 4.536156177520751953e+00 2.801328086853027344e+01 -9.473910927772521973e-02 -7.369977235794067383e-01 -2.495210468769073486e-01 1.651848256587982178e-01
2.460000000000000000e+03 3.643910980224609375e+01 -3.268705368041992188e+01 1.339371204376220703e+00 2.358136892318725586e+00 1.109252452850341797e+00 7.760561704635620117e-01
2.461000000000000000e+03 4.057702636718750000e+01 -1.760427856445312500e+01 2.716186940670013428e-01 5.498449802398681641e-01 2.464390993118286133e-01 -8.821660280227661133e-02
2.462000000000000000e+03 4.357674407958984375e+01 -2.108457565307617188e+01 1.574998497962951660e+00 3.198354721069335938e+00 1.432006001472473145e+00 1.564890146255493164e+00
2.463000000000000000e+03 1.458262348175048828e+01 1.936049461364746094e+01 3.313150703907012939e-01 2.000527828931808472e-01 1.594103574752807617e-01 5.061789751052856445e-01
2.464000000000000000e+03 5.221117401123046875e+01 3.351836395263671875e+01 6.877061445266008377e-03 4.743617057800292969e+00 1.425148248672485352e+00 -1.697791814804077148e-01
2.465000000000000000e+03 5.008165359497070312e+01 3.200611877441406250e+01 6.663950085639953613e-01 4.536058902740478516e+00 1.560736179351806641e+00 -6.143498420715332031e-01
2.466000000000000000e+03 7.432783508300781250e+01 7.169499397277832031e+00 1.288990527391433716e-01 7.342656612396240234e+00 2.241466760635375977e+00 -5.226726531982421875e-01
2.467000000000000000e+03 7.304508209228515625e+01 -2.755079650878906250e+01 -1.184368014335632324e+00 5.559201240539550781e+00 1.312449932098388672e+00 1.651592612266540527e+00
2.468000000000000000e+03 6.947473907470703125e+01 -2.841212463378906250e+01 1.006367325782775879e+00 1.853422403335571289e+00 8.579369783401489258e-01 -5.795698761940002441e-01
2.469000000000000000e+03 7.383970642089843750e+01 1.700359725952148438e+01 -6.773180365562438965e-01 8.214899063110351562e+00 2.261274337768554688e+00 8.852671384811401367e-01
2.470000000000000000e+03 2.711227607727050781e+01 -2.312606048583984375e+01 3.018988370895385742e-01 6.933646798133850098e-01 2.985790669918060303e-01 -1.144377794116735458e-02
2.471000000000000000e+03 4.725632190704345703e+00 -2.703908348083496094e+01 -2.601444162428379059e-02 -2.078606486320495605e-01 -7.016252726316452026e-02 -3.493701806291937828e-03
2.472000000000000000e+03 7.407436847686767578e+00 -2.424123764038085938e+01 1.024647355079650879e-01 5.792095512151718140e-02 4.811570793390274048e-02 -8.977035433053970337e-02
2.473000000000000000e+03 1.176756191253662109e+01 -1.079958724975585938e+01 -5.693180114030838013e-02 3.209311887621879578e-02 -7.451604586094617844e-03 -1.002142056822776794e-01
2.474000000000000000e+03 1.421778583526611328e+01 -1.216401672363281250e+01 1.398224662989377975e-02 3.194488584995269775e-01 1.000293344259262085e-01 -1.140464991331100464e-01
2.475000000000000000e+03 4.308401489257812500e+01 1.922739410400390625e+01 -8.595786094665527344e-01 1.961452960968017578e+00 3.305622935295104980e-01 1.487139463424682617e-01
2.476000000000000000e+03 8.227371215820312500e+00 1.576450920104980469e+01 4.182447195053100586e-01 -8.018862456083297729e-02 1.014168336987495422e-01 3.691304922103881836e-01
2.477000000000000000e+03 3.260586547851562500e+01 -8.870377540588378906e+00 -1.006276533007621765e-01 -2.131717503070831299e-01 -9.413982182741165161e-02 8.551193773746490479e-02
2.478000000000000000e+03 2.694803619384765625e+01 -3.209182739257812500e+01 1.616968661546707153e-01 5.158480405807495117e-01 2.032634764909744263e-01 -1.609448641538619995e-01
2.479000000000000000e+03 6.638059234619140625e+01 2.853627395629882812e+01 1.803564429283142090e+00 5.211297988891601562e+00 2.104458808898925781e+00 1.349536180496215820e+00
2.480000000000000000e+03 6.436203002929687500e+01 2.621336936950683594e+01 2.812534332275390625e+00 6.388730049133300781e+00 2.760379314422607422e+00 1.889557838439941406e+00
2.481000000000000000e+03 3.309862899780273438e+01 -1.353143215179443359e+01 -5.879405736923217773e-01 2.593818008899688721e-01 -9.856763482093811035e-02 5.613335967063903809e-01
2.482000000000000000e+03 3.403536319732666016e+00 1.114411544799804688e+01 -5.444498360157012939e-02 -1.913954466581344604e-01 -7.375212758779525757e-02 2.801035046577453613e-01
2.483000000000000000e+03 8.434590339660644531e+00 1.116576671600341797e+01 -2.960616648197174072e-01 -2.806001007556915283e-01 -1.729985326528549194e-01 4.395304918289184570e-01
2.484000000000000000e+03 2.540229797363281250e+01 7.531315326690673828e+00 2.883570194244384766e-01 2.964194864034652710e-02 9.539968520402908325e-02 8.444464206695556641e-02
2.485000000000000000e+03 6.984633636474609375e+01 -2.974761009216308594e+01 1.855051994323730469e+00 3.073198080062866211e+00 1.478474974632263184e+00 -3.986807912588119507e-02
2.486000000000000000e+03 2.158793830871582031e+01 1.442401790618896484e+01 -1.295752078294754028e-01 -4.564417526125907898e-03 -4.024188593029975891e-02 1.472700536251068115e-01
2.487000000000000000e+03 4.706106567382812500e+01 -6.347537040710449219e+00 -9.729402065277099609e-01 9.467951655387878418e-01 -7.843527942895889282e-03 6.939399838447570801e-01
2.488000000000000000e+03 4.875470352172851562e+01 -7.625179290771484375e+00 -2.995059490203857422e-01 6.085783004760742188e+00 1.735883116722106934e+00 2.706198930740356445e+00
2.489000000000000000e+03 2.195354270935058594e+01 3.352730178833007812e+01 9.012868255376815796e-02 3.814944326877593994e-01 1.414869427680969238e-01 -7.515908032655715942e-02
2.490000000000000000e+03 2.057310867309570312e+01 3.494649505615234375e+01 7.706183195114135742e-02 2.118587046861648560e-01 8.667615801095962524e-02 -8.815068006515502930e-02
2.491000000000000000e+03 7.289902210235595703e+00 -1.299293804168701172e+01 -1.455698162317276001e-01 -2.679458260536193848e-01 -1.240546926856040955e-01 -1.460775285959243774e-01
2.492000000000000000e+03 4.299043655395507812e+01 1.046327304840087891e+01 1.771600961685180664e+00 3.774303436279296875e+00 1.663771390914916992e+00 -1.294808983802795410e+00
2.493000000000000000e+03 6.564643859863281250e+01 -1.894380211830139160e+00 1.403761863708496094e+00 5.522283554077148438e+00 2.077813625335693359e+00 1.514554262161254883e+00
2.494000000000000000e+03 6.360144805908203125e+01 -1.367481040954589844e+01 -1.908932566642761230e+00 6.566855430603027344e+00 1.397376894950866699e+00 8.275442719459533691e-01
2.495000000000000000e+03 6.085690307617187500e+01 -1.088610076904296875e+01 -1.953733563423156738e+00 6.679182052612304688e+00 1.417634487152099609e+00 1.572344541549682617e+00
2.496000000000000000e+03 3.513527297973632812e+01 3.398776245117187500e+01 -1.419294178485870361e-01 1.593719840049743652e+00 4.355371296405792236e-01 1.990160793066024780e-01
2.497000000000000000e+03 5.338244247436523438e+01 5.078698635101318359e+00 -3.039400100708007812e+00 6.298252105712890625e+00 9.776556491851806641e-01 3.590148210525512695e+00
2.498000000000000000e+03 5.280548858642578125e+01 2.720659255981445312e+00 6.530128121376037598e-01 6.147965431213378906e+00 2.040293455123901367e+00 3.952926874160766602e+00
2.499000000000000000e+03 6.302978134155273438e+01 -4.157841491699218750e+01 -8.133169412612915039e-01 6.328616738319396973e-01 -5.413657426834106445e-02 2.120587527751922607e-01
2.500000000000000000e+03 7.026958465576171875e+01 2.216394996643066406e+01 -1.323364496231079102e+00 3.980572462081909180e+00 7.971624135971069336e-01 -1.271713495254516602e+00
2.501000000000000000e+03 5.132984924316406250e+01 -3.518712615966796875e+01 1.170219779014587402e+00 4.752825736999511719e+00 1.776913642883300781e+00 5.949150323867797852e-01
2.502000000000000000e+03 1.531933021545410156e+01 5.717411041259765625e+00 -3.763119876384735107e-01 7.316072285175323486e-02 -9.094537794589996338e-02 6.283372640609741211e-01
2.503000000000000000e+03 5.147297668457031250e+01 -5.111720085144042969e+00 1.912162184715270996e+00 1.268684387207031250e+01 4.379701614379882812e+00 -3.399465084075927734e-01
2.504000000000000000e+03 5.191000366210937500e+01 -2.697572898864746094e+01 -6.142516434192657471e-02 1.735385775566101074e+00 5.021882057189941406e-01 6.958730816841125488e-01
2.505000000000000000e+03 5.424176788330078125e+01 -2.681666564941406250e+01 -1.164423704147338867e+00 5.721820831298828125e+00 1.367219209671020508e+00 2.458375215530395508e+00
2.506000000000000000e+03 1.684671592712402344e+01 -2.071073913574218750e+01 -3.379567265510559082e-01 -1.369731575250625610e-01 -1.424789577722549438e-01 -3.724760115146636963e-01
2.507000000000000000e+03 1.888878440856933594e+01 -1.979656410217285156e+01 -1.600648164749145508e-01 -2.790544740855693817e-02 -5.639107897877693176e-02 -5.191978216171264648e-01
2.508000000000000000e+03 7.297238159179687500e+01 -1.535356044769287109e+01 -4.943256378173828125e-01 3.851642370223999023e+00 1.007194995880126953e+00 -3.588596880435943604e-01
2.509000000000000000e+03 7.142285156250000000e+01 2.257103347778320312e+01 -8.620441555976867676e-01 5.030842781066894531e+00 1.250639557838439941e+00 -1.242913722991943359e+00
2.510000000000000000e+03 4.961108016967773438e+01 -1.421817874908447266e+01 -8.260044455528259277e-01 3.540703535079956055e+00 8.144097328186035156e-01 1.206455349922180176e+00
2.511000000000000000e+03 5.146694946289062500e+01 -6.180600643157958984e+00 1.706755638122558594e+00 1.138544464111328125e+01 3.927660226821899414e+00 1.141751885414123535e+00
2.512000000000000000e+03 5.976886749267578125e+01 1.512046337127685547e+01 2.012114286422729492e+00 1.024806308746337891e+01 3.678053379058837891e+00 2.053581237792968750e+00
2.513000000000000000e+03 6.223474502563476562e+01 -2.417032241821289062e+01 1.166025519371032715e+00 3.724681138992309570e+00 1.467211961746215820e+00 -1.280320525169372559e+00
2.514000000000000000e+03 5.624152374267578125e+01 -1.260603237152099609e+01 -6.206507086753845215e-01 3.023159980773925781e+00 7.207527756690979004e-01 -1.623912930488586426e+00
2.515000000000000000e+03 5.177753448486328125e+01 4.101909637451171875e+01 -1.109571695327758789e+00 3.274289369583129883e+00 6.494153141975402832e-01 4.841017350554466248e-02
2.516000000000000000e+03 5.326088333129882812e+01 3.745226669311523438e+01 -1.273489356040954590e+00 3.826303958892822266e+00 7.658444046974182129e-01 4.239387810230255127e-01
2.517000000000000000e+03 2.126749038696289062e+01 -2.480967903137207031e+01 3.509923815727233887e-01 1.805996894836425781e-01 1.594776213169097900e-01 -9.398344904184341431e-02
2.518000000000000000e+03 1.827039718627929688e+01 -2.239234542846679688e+01 -1.000240445137023926e-01 -3.537123277783393860e-02 -4.061858355998992920e-02 -2.834113538265228271e-01
2.519000000000000000e+03 6.442559051513671875e+01 3.335066604614257812e+01 -2.090039849281311035e-01 4.815618991851806641e+00 1.381984472274780273e+00 5.593350529670715332e-01
2.520000000000000000e+03 5.521518707275390625e+01 -1.237249565124511719e+01 -3.628351390361785889e-01 3.398331880569458008e+00 9.106490612030029297e-01 -2.418914556503295898e+00
2.521000000000000000e+03 5.151078033447265625e+01 -2.903623580932617188e+01 1.046216726303100586e+00 3.439777612686157227e+00 1.345798373222351074e+00 8.086004853248596191e-02
2.522000000000000000e+03 3.683295440673828125e+01 -3.410553359985351562e+01 1.080346822738647461e+00 2.356106996536254883e+00 1.030936121940612793e+00 8.715695142745971680e-01
2.523000000000000000e+03 3.806983947753906250e+01 -3.700027847290039062e+01 -3.497621715068817139e-01 2.407049417495727539e+00 6.171861886978149414e-01 3.435436487197875977e-01
2.524000000000000000e+03 6.701996612548828125e+01 -2.896162796020507812e+01 1.263301849365234375e+00 6.757273197174072266e+00 2.406172513961791992e+00 -2.094049930572509766e+00
2.525000000000000000e+03 6.742150878906250000e+01 -2.691182136535644531e+01 -1.385018825531005859e+00 4.831175804138183594e+00 1.033846974372863770e+00 -2.544170856475830078e+00
2.526000000000000000e+03 2.981059455871582031e+01 3.009257507324218750e+01 5.564200878143310547e-01 8.699199557304382324e-01 4.279020130634307861e-01 -4.350581765174865723e-01
2.527000000000000000e+03 3.369335556030273438e+01 3.030151176452636719e+01 3.404735922813415527e-01 2.223509073257446289e+00 7.691947817802429199e-01 -2.524791359901428223e-01
2.528000000000000000e+03 6.367620086669921875e+01 -8.347043037414550781e+00 1.765316963195800781e+00 9.015129089355468750e+00 3.234133958816528320e+00 -5.168780088424682617e-01
2.529000000000000000e+03 6.303052902221679688e+01 -1.004607677459716797e+01 -1.515084207057952881e-01 8.218083381652832031e+00 2.419972419738769531e+00 4.204646348953247070e-01
2.530000000000000000e+03 8.328114509582519531e+00 2.019424057006835938e+01 1.614238619804382324e-01 -1.840659230947494507e-01 -6.792618427425622940e-03 1.009291708469390869e-01
2.531000000000000000e+03 5.341172790527343750e+01 -3.590529632568359375e+01 9.361990690231323242e-01 5.577230453491210938e+00 1.954028844833374023e+00 4.502350687980651855e-01
2.532000000000000000e+03 2.360243606567382812e+01 3.015817260742187500e+01 2.513051331043243408e-01 6.345700621604919434e-01 2.657625675201416016e-01 1.491349786520004272e-01
2.533000000000000000e+03 7.931092262268066406e+00 9.125067710876464844e+00 -4.447551965713500977e-01 -2.787606120109558105e-01 -2.170547395944595337e-01 3.181075751781463623e-01
2.534000000000000000e+03 5.576329040527343750e+01 6.676218509674072266e+00 -5.002753734588623047e-01 9.330657005310058594e+00 2.649114608764648438e+00 6.026322245597839355e-01
2.535000000000000000e+03 5.820766067504882812e+01 8.654673576354980469e+00 4.978111386299133301e-01 7.905822753906250000e+00 2.521090269088745117e+00 7.067505270242691040e-02
2.536000000000000000e+03 2.946268653869628906e+01 1.360527038574218750e+01 3.220405876636505127e-01 4.437789022922515869e-01 2.297458499670028687e-01 2.969043254852294922e-01
2.537000000000000000e+03 5.637700557708740234e+00 2.450891494750976562e+01 -1.013019457459449768e-01 -6.248719096183776855e-01 -2.178521603345870972e-01 1.157368347048759460e-01
2.538000000000000000e+03 5.873802947998046875e+01 -2.512917900085449219e+01 -4.141778647899627686e-01 4.132953643798828125e+00 1.115632772445678711e+00 1.975878477096557617e+00
2.539000000000000000e+03 5.655905532836914062e+01 -2.449139595031738281e+01 -6.415345072746276855e-01 7.536018848419189453e+00 2.068345308303833008e+00 1.294116258621215820e+00
2.540000000000000000e+03 2.394544410705566406e+01 -2.418419647216796875e+01 3.163970708847045898e-01 2.778142392635345459e-01 1.782633960247039795e-01 -9.699046611785888672e-02
2.541000000000000000e+03 2.375341033935546875e+01 -1.499922275543212891e+01 -8.173532485961914062e-01 -3.541808128356933594e-01 -3.514602184295654297e-01 -4.440130889415740967e-01
2.542000000000000000e+03 6.507137298583984375e+01 -1.573502731323242188e+01 -2.634533405303955078e+00 5.232707977294921875e+00 7.794523239135742188e-01 7.432698011398315430e-01
2.543000000000000000e+03 6.205875015258789062e+01 -1.834362792968750000e+01 4.211577475070953369e-01 6.470126152038574219e+00 2.067385196685791016e+00 -5.935950279235839844e-01
2.544000000000000000e+03 5.109479141235351562e+01 -2.811236572265625000e+01 1.466354727745056152e-01 2.749196767807006836e+00 8.687496781349182129e-01 9.351390413939952850e-03
2.545000000000000000e+03 3.374642562866210938e+01 1.438390636444091797e+01 4.928278625011444092e-01 5.322526693344116211e-01 3.075241446495056152e-01 -1.336746215820312500e-01
2.546000000000000000e+03 3.119294548034667969e+01 -1.247236061096191406e+01 -7.518752813339233398e-01 2.581073939800262451e-01 -1.481303572654724121e-01 2.300059497356414795e-01
2.547000000000000000e+03 3.049583816528320312e+01 -2.998052215576171875e+01 2.937800288200378418e-01 4.845413863658905029e-01 2.334964275360107422e-01 -2.688149213790893555e-01
2.548000000000000000e+03 2.508379936218261719e+01 3.165027618408203125e+01 2.386706620454788208e-01 6.453402042388916016e-01 2.652032673358917236e-01 -3.703569062054157257e-03
2.549000000000000000e+03 7.612013339996337891e+00 -2.571424102783203125e+01 -2.983608283102512360e-02 -2.348126471042633057e-02 -1.599520444869995117e-02 -1.135483533143997192e-01
2.550000000000000000e+03 9.848042488098144531e+00 -2.500788307189941406e+01 2.581409178674221039e-02 -5.008406192064285278e-02 -7.280991412699222565e-03 -2.375850975513458252e-01
2.551000000000000000e+03 5.555825042724609375e+01 -2.563252258300781250e+01 -2.800594568252563477e+00 6.919288158416748047e+00 1.235608100891113281e+00 1.744878411293029785e+00
2.552000000000000000e+03 5.497143936157226562e+01 -1.601048088073730469e+01 -1.839542031288146973e+00 5.332149028778076172e+00 1.047782063484191895e+00 -1.389307856559753418e+00
2.553000000000000000e+03 5.661531066894531250e+01 -2.332177352905273438e+01 9.408122301101684570e-01 6.792413234710693359e+00 2.319967508316040039e+00 3.981995880603790283e-01
2.554000000000000000e+03 3.658289718627929688e+01 1.815562438964843750e+01 2.467062622308731079e-01 1.020195126533508301e+00 3.800704181194305420e-01 -1.029842257499694824e+00
2.555000000000000000e+03 8.491989135742187500e+00 -1.218461322784423828e+01 -1.175557821989059448e-01 -1.550639122724533081e-01 -8.178590983152389526e-02 -1.302384436130523682e-01
2.556000000000000000e+03 4.375885486602783203e+00 -1.338172817230224609e+01 -3.992633521556854248e-02 -2.127865701913833618e-01 -7.581386715173721313e-02 -6.139800325036048889e-02
2.557000000000000000e+03 5.995637893676757812e+01 3.932367706298828125e+01 -4.435436427593231201e-01 1.440220475196838379e+00 2.990030646324157715e-01 -2.574669197201728821e-02
2.558000000000000000e+03 3.230736541748046875e+01 -4.150276947021484375e+01 -1.519275456666946411e-01 1.428399443626403809e+00 3.829415738582611084e-01 8.828665316104888916e-02
2.559000000000000000e+03 5.536320114135742188e+01 -1.364533424377441406e+01 -1.160025119781494141e+00 4.181293010711669922e+00 9.063804149627685547e-01 -1.979507923126220703e+00
2.560000000000000000e+03 5.944316101074218750e+01 1.374493598937988281e+01 1.335086464881896973e+00 1.005334377288818359e+01 3.416529178619384766e+00 1.206172943115234375e+00
2.561000000000000000e+03 6.555281829833984375e+01 5.304855823516845703e+00 -1.607875376939773560e-01 8.525241613388061523e-01 2.075209915637969971e-01 4.636696875095367432e-01
2.562000000000000000e+03 6.306538772583007812e+01 2.914223432540893555e+00 -2.337809279561042786e-02 4.654662132263183594e+00 1.389385223388671875e+00 -6.917890310287475586e-01
2.563000000000000000e+03 5.881896591186523438e+01 2.102410125732421875e+01 -6.837196350097656250e-01 3.353404045104980469e+00 8.009052872657775879e-01 4.005228877067565918e-01
2.564000000000000000e+03 5.937760543823242188e+01 1.809224700927734375e+01 1.794355511665344238e+00 6.999728679656982422e+00 2.638225317001342773e+00 1.101154804229736328e+00
2.565000000000000000e+03 5.638010025024414062e+01 2.173708152770996094e+01 -2.671545743942260742e+00 3.215627431869506836e+00 1.632245182991027832e-01 -2.746379852294921875e+00
2.566000000000000000e+03 6.726017761230468750e+01 -1.248174762725830078e+01 -2.951765656471252441e-01 3.122695922851562500e+00 8.482558131217956543e-01 -1.055591106414794922e+00
2.567000000000000000e+03 7.512657165527343750e+01 -1.165396690368652344e+01 -2.371737957000732422e+00 7.432600498199462891e+00 1.518258810043334961e+00 5.623377561569213867e-01
2.568000000000000000e+03 7.602096557617187500e+01 -1.287767219543457031e+01 -1.407165408134460449e+00 7.955602169036865234e+00 1.964531064033508301e+00 3.613069653511047363e-01
2.569000000000000000e+03 6.831739807128906250e+01 -3.558952713012695312e+01 2.623614072799682617e-01 5.820464611053466797e+00 1.824847698211669922e+00 -1.238534450531005859e+00
2.570000000000000000e+03 7.010638427734375000e+01 -3.320563125610351562e+01 1.712692022323608398e+00 4.893691539764404297e+00 1.981914997100830078e+00 -1.073195576667785645e+00
2.571000000000000000e+03 4.982177734375000000e+01 -1.521626663208007812e+01 -1.610642552375793457e+00 1.893192172050476074e+00 8.476489037275314331e-02 1.758528232574462891e+00
2.572000000000000000e+03 5.175475311279296875e+01 -1.440672874450683594e+01 -1.183977842330932617e+00 1.391909480094909668e+00 6.237948313355445862e-02 -1.435141563415527344e+00
2.573000000000000000e+03 5.013649749755859375e+01 -2.603997468948364258e+00 -5.395333766937255859e-01 1.178130722045898438e+01 3.372532129287719727e+00 2.213143825531005859e+00
2.574000000000000000e+03 4.840448379516601562e+01 -3.404483318328857422e+00 1.399169206619262695e+00 3.184410333633422852e+00 1.375073909759521484e+00 1.097013354301452637e+00
2.575000000000000000e+03 4.658449935913085938e+01 -4.573274612426757812e+00 6.148831248283386230e-01 -3.203932940959930420e-01 8.834694325923919678e-02 3.068762719631195068e-01
2.576000000000000000e+03 5.018805694580078125e+01 1.915084719657897949e+00 8.648273348808288574e-01 8.617636680603027344e+00 2.844739198684692383e+00 -2.327804565429687500e+00
2.577000000000000000e+03 5.007213211059570312e+01 2.423427104949951172e+00 3.927447795867919922e-01 6.286594390869140625e+00 2.003801822662353516e+00 -2.791206598281860352e+00
2.578000000000000000e+03 5.041632080078125000e+01 3.720638990402221680e+00 -1.472783207893371582e+00 3.637668848037719727e+00 6.494657397270202637e-01 -1.559999465942382812e+00
2.579000000000000000e+03 4.979867553710937500e+01 4.352389335632324219e+00 -1.570258378982543945e+00 2.702527523040771484e+00 3.396807610988616943e-01 -2.787547349929809570e+00
2.580000000000000000e+03 9.685948371887207031e+00 3.242161512374877930e+00 -1.321290135383605957e-01 -8.810362964868545532e-02 -6.606978923082351685e-02 6.308162957429885864e-02
2.581000000000000000e+03 4.869145584106445312e+01 2.729444980621337891e+00 6.402560472488403320e-01 3.666172266006469727e+00 1.291928529739379883e+00 -4.341881752014160156e+00
2.582000000000000000e+03 4.804505157470703125e+01 1.421325206756591797e+00 2.589723110198974609e+00 1.535220503807067871e+00 1.237483143806457520e+00 -3.388155698776245117e+00
2.583000000000000000e+03 5.150975418090820312e+01 -3.035613298416137695e+00 -3.596457839012145996e-01 1.406561851501464844e+01 4.111792087554931641e+00 -4.809859693050384521e-01
2.584000000000000000e+03 5.039670562744140625e+01 -2.519431591033935547e+00 -8.844931721687316895e-01 1.334379291534423828e+01 3.737789869308471680e+00 2.038984060287475586e+00
2.585000000000000000e+03 1.166588115692138672e+01 3.388923883438110352e+00 -2.413641512393951416e-01 -1.466298103332519531e-01 -1.163981854915618896e-01 2.206656485795974731e-01
2.586000000000000000e+03 4.575646972656250000e+01 -4.660903930664062500e+00 1.480804532766342163e-01 -1.056306600570678711e+00 -2.724678516387939453e-01 5.713716149330139160e-01
2.587000000000000000e+03 1.224412536621093750e+01 5.221896648406982422e+00 -4.595412015914916992e-01 -3.266724646091461182e-01 -2.358641028404235840e-01 3.800733387470245361e-01
2.588000000000000000e+03 1.434621047973632812e+01 -2.916986703872680664e+00 -4.505809396505355835e-02 -9.121151268482208252e-02 -4.088088124990463257e-02 -1.800728440284729004e-01
2.589000000000000000e+03 8.917400360107421875e+00 -3.218189001083374023e+00 -5.350685864686965942e-02 -1.251917518675327301e-02 -1.980780996382236481e-02 -1.065817326307296753e-01
2.590000000000000000e+03 8.068565368652343750e+00 -3.869113445281982422e+00 -2.399273216724395752e-02 -3.433153778314590454e-02 -1.749728061258792877e-02 -9.831757843494415283e-02
2.591000000000000000e+03 8.826607704162597656e+00 -3.915255784988403320e+00 -5.510048568248748779e-02 -1.086058616638183594e-01 -4.911190271377563477e-02 -1.508689820766448975e-01
2.592000000000000000e+03 4.637830734252929688e+00 -3.931076526641845703e+00 -1.125298719853162766e-02 -1.414507534354925156e-02 -7.619419135153293610e-03 -3.622262179851531982e-02
2.593000000000000000e+03 3.445168018341064453e+00 -6.280004024505615234e+00 1.431402750313282013e-02 -5.904742702841758728e-02 -1.342002023011445999e-02 -2.483797818422317505e-02
2.594000000000000000e+03 4.362041473388671875e+00 -3.206573486328125000e+00 -2.682375907897949219e-02 -5.859658867120742798e-02 -2.562610432505607605e-02 -5.220523849129676819e-02
2.595000000000000000e+03 3.313666582107543945e+00 -5.163005352020263672e+00 -9.214843623340129852e-03 -6.299514323472976685e-02 -2.166299708187580109e-02 -4.150599613785743713e-02
2.596000000000000000e+03 3.272018671035766602e+00 -4.275716781616210938e+00 9.125269018113613129e-03 -3.120647743344306946e-02 -6.624362431466579437e-03 -1.979443430900573730e-02
2.597000000000000000e+03 6.644685268402099609e+00 -4.425914764404296875e+00 -3.319213911890983582e-02 -5.768011882901191711e-02 -2.726167626678943634e-02 -1.000098958611488342e-01
2.598000000000000000e+03 2.418014287948608398e+00 -6.323359012603759766e+00 -1.001826603896915913e-03 -6.072887405753135681e-02 -1.851921156048774719e-02 -2.480329014360904694e-02
2.599000000000000000e+03 4.864236068725585938e+01 2.158683538436889648e+00 1.482843995094299316e+00 3.602952241897583008e+00 1.525738835334777832e+00 -4.380575180053710938e+00
2.600000000000000000e+03 1.500650978088378906e+01 -3.960664749145507812e+00 3.105422481894493103e-02 5.466907098889350891e-02 2.571698836982250214e-02 -1.330915540456771851e-01
2.601000000000000000e+03 3.597346878051757812e+01 -3.326238393783569336e+00 -1.758661866188049316e-02 1.583227366209030151e-01 4.222083464264869690e-02 -1.723767817020416260e-01
2.602000000000000000e+03 3.482844543457031250e+01 -3.897625446319580078e+00 3.227552399039268494e-02 -1.040525585412979126e-01 -2.153310924768447876e-02 -2.125340104103088379e-01
2.603000000000000000e+03 6.772743225097656250e+00 3.366968631744384766e+00 -6.888283044099807739e-02 -3.945756703615188599e-02 -3.250211849808692932e-02 -2.703056856989860535e-02
2.604000000000000000e+03 4.567865371704101562e+00 8.653424263000488281e+00 -1.925735324621200562e-01 -7.881245762109756470e-02 -8.141579478979110718e-02 2.055279016494750977e-01
2.605000000000000000e+03 6.923937320709228516e+00 4.169037342071533203e+00 -1.443780511617660522e-01 -5.529339984059333801e-02 -5.990143865346908569e-02 9.172699064947664738e-04
2.606000000000000000e+03 8.193793296813964844e+00 3.328173160552978516e+00 -1.067326292395591736e-01 -8.080466836690902710e-02 -5.626118928194046021e-02 5.845708306878805161e-03
2.607000000000000000e+03 6.433306217193603516e+00 5.495471954345703125e+00 -2.208340466022491455e-01 -6.993106752634048462e-02 -8.722953498363494873e-02 4.320491850376129150e-02
2.608000000000000000e+03 4.642370223999023438e+00 3.564321279525756836e+00 -4.713390395045280457e-02 -7.628665771335363388e-03 -1.642877049744129181e-02 -4.431903734803199768e-02
2.609000000000000000e+03 3.151215314865112305e+00 4.018021106719970703e+00 -3.775074705481529236e-02 1.131639536470174789e-02 -7.930305786430835724e-03 -4.346746206283569336e-02
2.610000000000000000e+03 2.757712125778198242e+00 5.356416702270507812e+00 -5.839696153998374939e-02 1.657722331583499908e-02 -1.254592090845108032e-02 -6.121018901467323303e-03
2.611000000000000000e+03 2.340528964996337891e+00 4.353264331817626953e+00 -2.447717078030109406e-02 2.721606940031051636e-02 8.216693531721830368e-04 -3.743320703506469727e-02
2.612000000000000000e+03 3.763760375976562500e+01 -2.572454214096069336e+00 -1.418592929840087891e-01 4.291660785675048828e-01 8.619203418493270874e-02 2.577506937086582184e-02
2.613000000000000000e+03 3.704320526123046875e+01 -2.523328304290771484e+00 -1.823561191558837891e-01 5.103999972343444824e-01 9.841316938400268555e-02 -9.217625856399536133e-02
2.614000000000000000e+03 1.124303054809570312e+01 5.913507461547851562e+00 -5.039265751838684082e-01 -4.019116461277008057e-01 -2.717514634132385254e-01 3.080085813999176025e-01
2.615000000000000000e+03 4.348723983764648438e+01 3.524631023406982422e+00 -8.372741937637329102e-01 1.475448250770568848e+00 1.914522200822830200e-01 -9.337601065635681152e-01
2.616000000000000000e+03 2.176148986816406250e+01 4.194064617156982422e+00 -6.468790173530578613e-01 -1.607232838869094849e-01 -2.422806769609451294e-01 1.650493741035461426e-01
2.617000000000000000e+03 2.008843803405761719e+01 6.114915847778320312e+00 1.468279026448726654e-02 3.163300827145576477e-02 1.389473956078290939e-02 1.815994232892990112e-01
2.618000000000000000e+03 3.560034179687500000e+01 -5.351819992065429688e+00 4.696894586086273193e-01 5.078493952751159668e-01 2.932616472244262695e-01 -1.417946070432662964e-03
2.619000000000000000e+03 2.208938980102539062e+01 5.800155639648437500e+00 -7.485899329185485840e-02 -1.370362639427185059e-01 -6.356857717037200928e-02 1.321452707052230835e-01
2.620000000000000000e+03 2.253332901000976562e+01 4.180573940277099609e+00 -6.281371116638183594e-01 -1.379869431257247925e-01 -2.298372238874435425e-01 1.801796555519104004e-01
2.621000000000000000e+03 2.323459243774414062e+01 4.351104259490966797e+00 -5.082523822784423828e-01 -1.317351311445236206e-01 -1.919962614774703979e-01 1.905441880226135254e-01
2.622000000000000000e+03 2.463506698608398438e+01 5.212809085845947266e+00 -1.689699590206146240e-01 -7.614155113697052002e-02 -7.353345304727554321e-02 1.635459661483764648e-01
2.623000000000000000e+03 2.535401153564453125e+01 5.483331203460693359e+00 -6.018566340208053589e-02 1.295356824994087219e-02 -1.416962873190641403e-02 1.505320221185684204e-01
2.624000000000000000e+03 2.787583541870117188e+01 2.901216983795166016e+00 -7.982562780380249023e-01 3.021565079689025879e-01 -1.488299369812011719e-01 1.581784337759017944e-01
2.625000000000000000e+03 2.956478500366210938e+01 2.934744596481323242e+00 -7.684773802757263184e-01 4.483377039432525635e-01 -9.604190289974212646e-02 5.975656211376190186e-02
2.626000000000000000e+03 2.638119888305664062e+01 3.853044986724853516e+00 -5.466061830520629883e-01 1.087474673986434937e-01 -1.313576102256774902e-01 2.114234864711761475e-01
2.627000000000000000e+03 4.682859039306640625e+01 2.174028873443603516e+00 7.640039920806884766e-01 1.521580338478088379e+00 6.856752634048461914e-01 -2.661477565765380859e+00
2.628000000000000000e+03 1.406743049621582031e+01 5.165227890014648438e+00 -4.831119775772094727e-01 -2.362480163574218750e-01 -2.158080041408538818e-01 6.343555450439453125e-01
2.629000000000000000e+03 5.099138641357421875e+01 -3.438497066497802734e+00 1.306375563144683838e-01 1.346146392822265625e+01 4.077630519866943359e+00 1.917912662029266357e-01
2.630000000000000000e+03 1.122579956054687500e+01 -3.039278030395507812e+00 -8.485871553421020508e-02 -1.409142017364501953e-01 -6.773187965154647827e-02 -1.847886592149734497e-01
2.631000000000000000e+03 1.338954639434814453e+01 -4.499742507934570312e+00 5.943374335765838623e-02 1.306700892746448517e-02 2.175022475421428680e-02 -8.572368323802947998e-02
2.632000000000000000e+03 1.268915843963623047e+01 -4.529910564422607422e+00 -3.979726880788803101e-02 -7.893275469541549683e-02 -3.561900556087493896e-02 -1.254302859306335449e-01
2.633000000000000000e+03 4.281909179687500000e+01 3.794197320938110352e+00 -6.949988007545471191e-01 1.020064711570739746e+00 9.751979261636734009e-02 -6.707143783569335938e-01
2.634000000000000000e+03 4.499893951416015625e+01 6.573064327239990234e+00 -1.153723224997520447e-01 3.991327762603759766e+00 1.162786602973937988e+00 -1.363194823265075684e+00
2.635000000000000000e+03 4.621804046630859375e+01 2.940829753875732422e+00 -5.545155331492424011e-02 1.985907435417175293e+00 5.791367888450622559e-01 -2.618644714355468750e+00
2.636000000000000000e+03 4.572713470458984375e+01 2.493238687515258789e+00 -4.136035591363906860e-02 1.524825215339660645e+00 4.450394511222839355e-01 -1.993194341659545898e+00
2.637000000000000000e+03 9.668726921081542969e+00 -3.939561605453491211e+00 -1.652365177869796753e-02 -3.630948439240455627e-02 -1.584994047880172729e-02 -1.149294823408126831e-01
2.638000000000000000e+03 5.187793350219726562e+01 2.374017953872680664e+00 4.007990956306457520e-01 8.116485595703125000e+00 2.555185317993164062e+00 2.850716829299926758e+00
2.639000000000000000e+03 3.475329208374023438e+01 -5.969916343688964844e+00 4.249475896358489990e-01 1.494485139846801758e-01 1.723188310861587524e-01 1.320192962884902954e-02
2.640000000000000000e+03 3.343741607666015625e+01 -5.390798091888427734e+00 2.898110449314117432e-01 -2.345326691865921021e-01 1.658351160585880280e-02 -1.603828817605972290e-01
2.641000000000000000e+03 4.159316635131835938e+01 5.645977497100830078e+00 -1.360839605331420898e-01 7.043955326080322266e-01 1.704934686422348022e-01 -5.114039033651351929e-02
2.642000000000000000e+03 4.140755462646484375e+01 4.348160266876220703e+00 -3.401328325271606445e-01 1.651267558336257935e-01 -5.250182002782821655e-02 -2.565814852714538574e-01
2.643000000000000000e+03 3.250187683105468750e+01 -5.659820556640625000e+00 2.095698416233062744e-01 -2.958156168460845947e-01 -2.587373554706573486e-02 -1.996620297431945801e-01
2.644000000000000000e+03 3.375215148925781250e+01 -6.415288925170898438e+00 3.338142931461334229e-01 -1.332157012075185776e-02 9.614781290292739868e-02 -7.238406687974929810e-02
2.645000000000000000e+03 1.045873355865478516e+01 -3.807088375091552734e+00 -5.117683485150337219e-02 -1.463783234357833862e-01 -5.926654860377311707e-02 -1.829526275396347046e-01
2.646000000000000000e+03 4.904307174682617188e+01 5.007586002349853516e+00 -2.327044010162353516e+00 2.919794559478759766e+00 1.778251826763153076e-01 -3.508397579193115234e+00
2.647000000000000000e+03 5.123515319824218750e+01 4.234826087951660156e+00 -1.539966821670532227e+00 2.528188228607177734e+00 2.964664101600646973e-01 5.337952971458435059e-01
2.648000000000000000e+03 3.118372917175292969e+01 -5.119171619415283203e+00 1.532319635152816772e-01 -5.270271897315979004e-01 -1.121385768055915833e-01 -1.777965575456619263e-01
2.649000000000000000e+03 1.192436218261718750e+01 6.718359470367431641e+00 -7.942614555358886719e-01 -4.749065041542053223e-01 -3.807503879070281982e-01 4.243083298206329346e-01
2.650000000000000000e+03 1.022379398345947266e+01 6.590752124786376953e+00 -5.421517491340637207e-01 -3.366880714893341064e-01 -2.636519670486450195e-01 2.434722036123275757e-01
2.651000000000000000e+03 2.604998397827148438e+01 5.033421516418457031e+00 -1.468112170696258545e-01 7.422672957181930542e-02 -2.177534438669681549e-02 1.497867256402969360e-01
2.652000000000000000e+03 4.880175018310546875e+01 -1.303056907653808594e+01 1.914025545120239258e-01 5.140602588653564453e+00 1.599601507186889648e+00 1.493340730667114258e+00
2.653000000000000000e+03 4.859406661987304688e+01 -1.416350650787353516e+01 -9.778594970703125000e-01 4.780570507049560547e+00 1.140813350677490234e+00 1.871678233146667480e+00
2.654000000000000000e+03 6.329602432250976562e+01 -2.103821992874145508e+00 1.631590604782104492e+00 7.884624958038330078e+00 2.854864597320556641e+00 -2.526682317256927490e-01
2.655000000000000000e+03 4.241088485717773438e+01 -2.299152565002441406e+01 1.131298661231994629e+00 2.457138776779174805e+00 1.076531171798706055e+00 2.008687973022460938e+00
2.656000000000000000e+03 3.419951248168945312e+01 -1.302003192901611328e+01 -5.792145133018493652e-01 1.959004253149032593e-01 -1.149942204356193542e-01 4.423491656780242920e-01
2.657000000000000000e+03 5.066074752807617188e+01 2.744279670715332031e+01 1.636277437210083008e+00 4.814234256744384766e+00 1.935153484344482422e+00 -5.062209367752075195e-01
2.658000000000000000e+03 4.012242507934570312e+01 9.254164695739746094e+00 5.270770192146301270e-01 2.994511127471923828e-01 2.479584515094757080e-01 -3.557492196559906006e-01
2.659000000000000000e+03 4.087077331542968750e+01 -1.499596691131591797e+01 -7.916644811630249023e-01 1.427222490310668945e-01 -1.946826726198196411e-01 -3.054501116275787354e-01
2.660000000000000000e+03 4.250783157348632812e+01 -2.669987106323242188e+01 -1.364639103412628174e-01 1.068624258041381836e+00 2.796481251716613770e-01 1.553810119628906250e+00
2.661000000000000000e+03 4.160707855224609375e+01 -2.561739158630371094e+01 1.034072637557983398e+00 2.189135074615478516e+00 9.669622778892517090e-01 1.755218029022216797e+00
2.662000000000000000e+03 4.970190048217773438e+01 2.114815521240234375e+01 -8.533163070678710938e-01 2.147214412689208984e+00 3.881694078445434570e-01 -1.321485877037048340e+00
2.663000000000000000e+03 1.095858860015869141e+01 3.705630064010620117e+00 -2.416868954896926880e-01 -1.495152562856674194e-01 -1.173606440424919128e-01 1.647065877914428711e-01
2.664000000000000000e+03 3.854126739501953125e+01 -2.408315896987915039e+00 -1.609814912080764771e-02 5.423596501350402832e-01 1.578784584999084473e-01 1.580766290426254272e-01
2.665000000000000000e+03 4.808772659301757812e+01 5.622753143310546875e+00 -2.271242141723632812e+00 3.651776313781738281e+00 4.141602516174316406e-01 -2.680351972579956055e+00
2.666000000000000000e+03 4.950979614257812500e+01 2.265547752380371094e+00 8.112025856971740723e-01 5.675193786621093750e+00 1.945918917655944824e+00 -4.072438240051269531e+00
2.667000000000000000e+03 5.602589035034179688e+01 5.441203117370605469e+00 -8.535352945327758789e-01 7.734974384307861328e+00 2.064431667327880859e+00 1.015102028846740723e+00
2.668000000000000000e+03 6.327413940429687500e+01 -2.480103874206542969e+01 4.276617467403411865e-01 5.098888397216796875e+00 1.657964944839477539e+00 -2.298086404800415039e+00
2.669000000000000000e+03 1.925245094299316406e+01 5.578007221221923828e+00 -2.235994935035705566e-01 3.918635845184326172e-02 -5.532393977046012878e-02 2.511309981346130371e-01
2.670000000000000000e+03 5.923672485351562500e+01 1.235571765899658203e+01 1.525133013725280762e+00 9.128389358520507812e+00 3.196056842803955078e+00 7.101318240165710449e-01
2.671000000000000000e+03 5.254228210449218750e+01 2.037539100646972656e+01 -1.516828656196594238e+00 4.410543441772460938e+00 8.681144118309020996e-01 -2.415935993194580078e+00
2.672000000000000000e+03 3.570586013793945312e+01 -1.151909732818603516e+01 -3.454754054546356201e-01 6.225718855857849121e-01 8.312893658876419067e-02 2.409587353467941284e-01
2.673000000000000000e+03 3.240655136108398438e+01 2.528905296325683594e+01 4.241527318954467773e-01 2.037381410598754883e+00 7.384602427482604980e-01 -2.265779227018356323e-01
2.674000000000000000e+03 3.126036643981933594e+01 -8.653959274291992188e+00 -2.012102305889129639e-01 -4.883029460906982422e-01 -2.068539559841156006e-01 -1.703556030988693237e-01
2.675000000000000000e+03 3.903270339965820312e+01 1.731530761718750000e+01 4.131601154804229736e-01 1.022086739540100098e+00 4.305740594863891602e-01 -1.121276378631591797e+00
2.676000000000000000e+03 2.387060928344726562e+01 -1.757522201538085938e+01 -5.934385210275650024e-02 -1.695332974195480347e-01 -6.866314262151718140e-02 -3.994029760360717773e-01
2.677000000000000000e+03 3.622042465209960938e+01 -6.102150440216064453e+00 5.950309038162231445e-01 8.076940178871154785e-01 4.208174645900726318e-01 2.721480727195739746e-01
2.678000000000000000e+03 5.481383514404296875e+01 4.143322467803955078e+00 -1.042404651641845703e+00 6.545517444610595703e+00 1.650933861732482910e+00 3.051326513290405273e+00
2.679000000000000000e+03 2.647591209411621094e+01 7.683615684509277344e+00 3.050065636634826660e-01 1.846105754375457764e-01 1.468851417303085327e-01 7.554852962493896484e-02
2.680000000000000000e+03 3.188245964050292969e+01 1.501400184631347656e+01 2.977682948112487793e-01 7.698100209236145020e-01 3.202734887599945068e-01 1.197219640016555786e-01
2.681000000000000000e+03 7.500743865966796875e+01 1.635630035400390625e+01 -3.398146107792854309e-02 8.100000381469726562e+00 2.419805526733398438e+00 1.222000598907470703e+00
2.682000000000000000e+03 7.708137512207031250e+01 1.956878089904785156e+01 -5.420773029327392578e-01 7.649135112762451172e+00 2.132117271423339844e+00 5.780659317970275879e-01
2.683000000000000000e+03 3.118901824951171875e+01 -1.364676856994628906e+01 -6.570340991020202637e-01 3.860036730766296387e-01 -8.130912482738494873e-02 3.853026926517486572e-01
2.684000000000000000e+03 4.198553848266601562e+01 1.913943290710449219e+01 -6.266123056411743164e-01 1.406005620956420898e+00 2.338179945945739746e-01 -8.681398630142211914e-02
2.685000000000000000e+03 4.334226989746093750e+01 1.805336952209472656e+01 -7.706511616706848145e-01 2.635239601135253906e+00 5.593765377998352051e-01 -8.334485441446304321e-02
2.686000000000000000e+03 1.761351394653320312e+01 4.967963695526123047e+00 -4.797391593456268311e-01 1.800687909126281738e-01 -8.990110456943511963e-02 4.786857366561889648e-01
2.687000000000000000e+03 9.280206680297851562e+00 7.228645801544189453e+00 -5.250390172004699707e-01 -3.016051948070526123e-01 -2.479932606220245361e-01 2.751738131046295166e-01
2.688000000000000000e+03 4.231635665893554688e+01 9.243451118469238281e+00 1.374083638191223145e+00 2.777639865875244141e+00 1.245517015457153320e+00 -7.705639004707336426e-01
2.689000000000000000e+03 2.694070816040039062e+01 -2.954974555969238281e+01 1.595956981182098389e-01 5.684586763381958008e-01 2.184163182973861694e-01 -2.275273650884628296e-01
2.690000000000000000e+03 5.015970611572265625e+01 -7.043727397918701172e+00 5.687952637672424316e-01 8.283223152160644531e+00 2.655605554580688477e+00 2.241591930389404297e+00
2.691000000000000000e+03 3.419279098510742188e+01 1.589196681976318359e+01 5.232215523719787598e-01 8.350176811218261719e-01 4.074717760086059570e-01 -4.079792797565460205e-01
2.692000000000000000e+03 3.772921371459960938e+01 -4.667483806610107422e+00 6.940561532974243164e-01 1.104468345642089844e+00 5.395573377609252930e-01 5.060063004493713379e-01
2.693000000000000000e+03 3.728142547607421875e+01 -3.046776533126831055e+00 1.774917542934417725e-02 5.891253948211669922e-01 1.820623576641082764e-01 -1.358496211469173431e-02
2.694000000000000000e+03 6.251755142211914062e+01 -8.801131844520568848e-01 1.232625007629394531e+00 7.233590602874755859e+00 2.539864778518676758e+00 -5.895595550537109375e-01
2.695000000000000000e+03 2.289176177978515625e+01 1.198588848114013672e+01 1.360236257314682007e-01 8.530369400978088379e-02 6.639819592237472534e-02 1.826416403055191040e-01
2.696000000000000000e+03 4.996345138549804688e+01 2.519473075866699219e+01 9.450131654739379883e-01 4.058579444885253906e+00 1.501077771186828613e+00 -4.185796976089477539e-01
2.697000000000000000e+03 4.744807815551757812e+01 -1.534764480590820312e+01 -2.268765211105346680e+00 5.444898605346679688e+00 9.528400301933288574e-01 2.405411243438720703e+00
2.698000000000000000e+03 4.165927124023437500e+01 6.599749088287353516e+00 -5.977106466889381409e-02 1.235952496528625488e+00 3.528544306755065918e-01 -3.552265837788581848e-02
2.699000000000000000e+03 7.666814422607421875e+01 1.249721717834472656e+01 8.048315048217773438e-01 6.970933914184570312e+00 2.332729578018188477e+00 3.776429295539855957e-01
2.700000000000000000e+03 7.711684417724609375e+01 -1.940917205810546875e+01 4.105332195758819580e-01 8.199029922485351562e+00 2.582869052886962891e+00 1.142417430877685547e+00
2.701000000000000000e+03 7.607170104980468750e+01 -1.940321731567382812e+01 6.517294049263000488e-01 8.806015968322753906e+00 2.837323665618896484e+00 9.045056104660034180e-01
2.702000000000000000e+03 7.555725097656250000e+01 5.866640090942382812e+00 -1.159917712211608887e-01 6.935502529144287109e+00 2.045853376388549805e+00 -8.676784634590148926e-01
2.703000000000000000e+03 7.589957427978515625e+01 2.248704910278320312e+00 -4.142656326293945312e-01 6.649293422698974609e+00 1.870508432388305664e+00 -7.262984514236450195e-01
2.704000000000000000e+03 7.449154663085937500e+01 1.287595081329345703e+01 1.604166865348815918e+00 8.729572296142578125e+00 3.100121736526489258e+00 4.222635328769683838e-01
2.705000000000000000e+03 7.681881713867187500e+01 1.397869300842285156e+01 5.170691013336181641e-01 7.097533226013183594e+00 2.284380674362182617e+00 8.944012522697448730e-01
2.706000000000000000e+03 7.407954406738281250e+01 9.434476852416992188e+00 1.364570856094360352e+00 8.770004272460937500e+00 3.040372610092163086e+00 -5.758137255907058716e-02
2.707000000000000000e+03 7.703127288818359375e+01 -1.671008300781250000e+01 -2.308007627725601196e-01 8.358635902404785156e+00 2.438350439071655273e+00 1.175743103027343750e+00
2.708000000000000000e+03 7.588722991943359375e+01 -1.683243942260742188e+01 -3.305687010288238525e-01 8.109343528747558594e+00 2.333632469177246094e+00 1.075094103813171387e+00
2.709000000000000000e+03 7.381689453125000000e+01 6.196374416351318359e+00 -1.122236847877502441e-01 7.018210411071777344e+00 2.071795940399169922e+00 -2.183372974395751953e-01
2.710000000000000000e+03 7.708560943603515625e+01 3.625174999237060547e+00 -2.123077958822250366e-01 7.091062545776367188e+00 2.063626527786254883e+00 -7.744418382644653320e-01
2.711000000000000000e+03 7.700018310546875000e+01 -1.368958854675292969e+01 -8.867706656455993652e-01 8.543284416198730469e+00 2.296954154968261719e+00 4.009740352630615234e-01
2.712000000000000000e+03 7.451911163330078125e+01 -1.578700542449951172e+01 -6.871484518051147461e-01 6.214369297027587891e+00 1.658166170120239258e+00 5.047287940979003906e-01
2.713000000000000000e+03 7.439369964599609375e+01 1.821162605285644531e+01 -1.144684672355651855e+00 7.848246574401855469e+00 2.011068582534790039e+00 6.972610950469970703e-01
2.714000000000000000e+03 7.687325286865234375e+01 1.693437957763671875e+01 -8.397024869918823242e-02 7.442934989929199219e+00 2.207689285278320312e+00 1.190404295921325684e+00
2.715000000000000000e+03 7.346118164062500000e+01 1.557370567321777344e+01 5.619099736213684082e-01 9.142059326171875000e+00 2.911190748214721680e+00 6.249809861183166504e-01
2.716000000000000000e+03 7.587709045410156250e+01 -4.926785826683044434e-02 -8.332440853118896484e-01 7.199010372161865234e+00 1.909729957580566406e+00 -6.328967809677124023e-01
2.717000000000000000e+03 7.703559875488281250e+01 -1.151371151208877563e-01 -5.552402734756469727e-01 7.781122684478759766e+00 2.167764663696289062e+00 -2.350591868162155151e-01
2.718000000000000000e+03 7.706352233886718750e+01 1.827480506896972656e+01 -3.688527941703796387e-01 7.614017486572265625e+00 2.173549413681030273e+00 9.593337178230285645e-01
2.719000000000000000e+03 7.708065032958984375e+01 -2.343404960632324219e+01 6.371092796325683594e-01 8.081200599670410156e+00 2.615493059158325195e+00 -2.470671385526657104e-01
2.720000000000000000e+03 7.428498840332031250e+01 3.545458602905273438e+01 1.681455969810485840e-02 6.540584564208984375e+00 1.967219710350036621e+00 3.060616850852966309e-01
2.721000000000000000e+03 7.643190765380859375e+01 -2.627212715148925781e+01 -3.753485679626464844e-01 8.164761543273925781e+00 2.336823940277099609e+00 -2.986609637737274170e-01
2.722000000000000000e+03 7.474653625488281250e+01 -3.004589653015136719e+01 -6.306545436382293701e-02 6.332931995391845703e+00 1.880959987640380859e+00 7.038298249244689941e-01
2.723000000000000000e+03 7.678256225585937500e+01 -2.745874977111816406e+01 -4.940064549446105957e-01 7.937174320220947266e+00 2.232950210571289062e+00 -2.123362123966217041e-01
2.724000000000000000e+03 7.552713012695312500e+01 2.222131347656250000e+01 -5.963029265403747559e-01 7.182607173919677734e+00 1.975891351699829102e+00 -1.950463503599166870e-01
2.725000000000000000e+03 7.425165557861328125e+01 2.686879730224609375e+01 2.752555310726165771e-01 6.133111000061035156e+00 1.922510027885437012e+00 -4.742487072944641113e-01
2.726000000000000000e+03 7.329844665527343750e+01 2.273759460449218750e+01 -8.572738170623779297e-01 6.315449237823486328e+00 1.637452602386474609e+00 -8.186207413673400879e-01
2.727000000000000000e+03 7.689873504638671875e+01 2.787674140930175781e+01 8.456767350435256958e-02 7.058559894561767578e+00 2.142938375473022461e+00 -2.843397259712219238e-01
2.728000000000000000e+03 7.564079284667968750e+01 2.798530197143554688e+01 2.393584400415420532e-01 6.641943454742431641e+00 2.064390659332275391e+00 -3.102773427963256836e-01
2.729000000000000000e+03 7.699049377441406250e+01 -3.008017158508300781e+01 -2.087440043687820435e-01 7.447195529937744141e+00 2.171535491943359375e+00 2.733282446861267090e-01
2.730000000000000000e+03 7.424704742431640625e+01 -3.680638504028320312e+01 1.814373433589935303e-01 6.474673271179199219e+00 1.996833205223083496e+00 -4.590775370597839355e-01
2.731000000000000000e+03 7.584742736816406250e+01 -3.600653839111328125e+01 1.659185737371444702e-01 6.973705291748046875e+00 2.141887187957763672e+00 -2.178957313299179077e-01
2.732000000000000000e+03 7.673705291748046875e+01 3.043370628356933594e+01 1.450814008712768555e-01 6.932027816772460938e+00 2.123132705688476562e+00 -5.819315090775489807e-02
2.733000000000000000e+03 7.506789398193359375e+01 -3.118733406066894531e+01 2.506832778453826904e-01 6.416963577270507812e+00 2.000294208526611328e+00 4.475888013839721680e-01
2.734000000000000000e+03 7.121675109863281250e+01 -3.434128189086914062e+01 8.720844388008117676e-01 5.444639682769775391e+00 1.895017266273498535e+00 -8.723297119140625000e-01
2.735000000000000000e+03 7.594591522216796875e+01 -3.108228302001953125e+01 3.349942713975906372e-02 6.846200466156005859e+00 2.063910007476806641e+00 4.129688739776611328e-01
2.736000000000000000e+03 7.584404754638671875e+01 -2.997445297241210938e+01 -1.858875155448913574e-01 7.051095008850097656e+00 2.059562206268310547e+00 4.813933074474334717e-01
2.737000000000000000e+03 7.698543548583984375e+01 -3.131308746337890625e+01 3.333421424031257629e-02 7.273792266845703125e+00 2.192137956619262695e+00 2.476624697446823120e-01
2.738000000000000000e+03 7.460657501220703125e+01 3.406871795654296875e+01 7.288375496864318848e-02 6.533856391906738281e+00 1.982022047042846680e+00 3.335660099983215332e-01
2.739000000000000000e+03 7.552955627441406250e+01 3.019732475280761719e+01 3.412975370883941650e-01 6.529280662536621094e+00 2.061173439025878906e+00 -5.816053599119186401e-02
2.740000000000000000e+03 7.264884948730468750e+01 -3.685345077514648438e+01 1.074572503566741943e-01 6.146778583526611328e+00 1.876270771026611328e+00 -7.699183225631713867e-01
2.741000000000000000e+03 2.278855895996093750e+01 6.750133037567138672e+00 1.816039532423019409e-01 -1.522556394338607788e-01 8.804494515061378479e-03 1.325794160366058350e-01
2.742000000000000000e+03 3.542652511596679688e+01 -6.800338745117187500e+00 5.461753606796264648e-01 6.180553436279296875e-01 3.492692112922668457e-01 1.346861273050308228e-01
2.743000000000000000e+03 3.319807052612304688e+01 -7.937328815460205078e+00 2.304040491580963135e-01 4.229046031832695007e-02 8.180835098028182983e-02 8.759423345327377319e-02
2.744000000000000000e+03 2.328358650207519531e+01 2.869334030151367188e+01 4.818221926689147949e-01 5.529291629791259766e-01 3.104254007339477539e-01 3.022443354129791260e-01
2.745000000000000000e+03 4.277931594848632812e+01 -1.926354789733886719e+01 9.056007266044616699e-01 2.507544040679931641e+00 1.023943424224853516e+00 8.355543017387390137e-01
2.746000000000000000e+03 2.686308097839355469e+01 -1.576051330566406250e+01 -4.123562872409820557e-01 -4.922490939497947693e-02 -1.384743601083755493e-01 -1.794502288103103638e-01
2.747000000000000000e+03 2.225966453552246094e+01 -1.697472000122070312e+01 -2.355626374483108521e-01 -2.041779160499572754e-01 -1.319221705198287964e-01 -5.373156070709228516e-01
2.748000000000000000e+03 3.196591138839721680e+00 2.510758018493652344e+01 -7.995565235614776611e-02 -6.961491703987121582e-01 -2.328314483165740967e-01 3.272534906864166260e-02
2.749000000000000000e+03 3.253562450408935547e+00 2.058830451965332031e+01 4.599500074982643127e-02 -6.104777455329895020e-01 -1.693448126316070557e-01 6.117657292634248734e-03
2.750000000000000000e+03 4.277656078338623047e+00 2.294231605529785156e+01 -9.128668345510959625e-03 -5.954078435897827148e-01 -1.813609600067138672e-01 4.565784707665443420e-03
2.751000000000000000e+03 4.083120346069335938e+00 -1.708946228027343750e+01 -1.120214983820915222e-01 -2.881173491477966309e-01 -1.200416460633277893e-01 -1.513351052999496460e-01
2.752000000000000000e+03 4.655968666076660156e+00 -1.460786342620849609e+01 -1.025001555681228638e-01 -3.140870034694671631e-01 -1.249761506915092468e-01 -1.054427176713943481e-01
2.753000000000000000e+03 4.747158527374267578e+00 2.211472702026367188e+01 5.425169598311185837e-03 -5.431553721427917480e-01 -1.613190472126007080e-01 2.101820707321166992e-02
2.754000000000000000e+03 3.676232814788818359e+00 1.533092689514160156e+01 1.132369339466094971e-01 -4.252749383449554443e-01 -9.361140429973602295e-02 2.623098790645599365e-01
2.755000000000000000e+03 7.084403514862060547e+00 1.486179637908935547e+01 2.700771093368530273e-01 -2.295575290918350220e-01 1.215587556362152100e-02 3.953574299812316895e-01
2.756000000000000000e+03 4.632586479187011719e+00 1.965127372741699219e+01 1.109409332275390625e-01 -5.013804435729980469e-01 -1.171318441629409790e-01 6.267688423395156860e-02
2.757000000000000000e+03 2.973568677902221680e+00 -2.600429534912109375e+01 9.876834228634834290e-03 -3.392624855041503906e-01 -9.881569445133209229e-02 1.384058501571416855e-02
2.758000000000000000e+03 2.687268733978271484e+00 -2.732553863525390625e+01 -1.996791735291481018e-02 -3.793255686759948730e-01 -1.197880432009696960e-01 1.341229677200317383e-02
2.759000000000000000e+03 4.863355636596679688e+00 -2.528763008117675781e+01 3.194350004196166992e-02 -1.705116033554077148e-01 -4.157043248414993286e-02 8.074181154370307922e-03
2.760000000000000000e+03 5.932898044586181641e+00 -2.734431648254394531e+01 -5.842844396829605103e-02 -1.487430334091186523e-01 -6.215144321322441101e-02 -5.791174620389938354e-02
2.761000000000000000e+03 2.953090190887451172e+00 1.387746334075927734e+01 3.342147171497344971e-02 -3.723400831222534180e-01 -1.016755774617195129e-01 2.684364318847656250e-01
2.762000000000000000e+03 5.241609573364257812e+00 1.496274566650390625e+01 1.717983782291412354e-01 -3.491662740707397461e-01 -5.321037024259567261e-02 3.464758396148681641e-01
2.763000000000000000e+03 4.561777114868164062e+00 1.304237270355224609e+01 1.776627637445926666e-02 -2.796705663204193115e-01 -7.857128977775573730e-02 3.769875466823577881e-01
2.764000000000000000e+03 3.707145929336547852e+00 -9.889428138732910156e+00 -4.305274225771427155e-03 -1.301513761281967163e-01 -4.033699259161949158e-02 -2.703790552914142609e-02
2.765000000000000000e+03 2.770180702209472656e+00 -1.137016773223876953e+01 -1.430341973900794983e-02 -1.251073032617568970e-01 -4.182321578264236450e-02 -8.520834147930145264e-03
2.766000000000000000e+03 3.247036218643188477e+00 -3.105843925476074219e+01 -2.920982427895069122e-02 -3.960182070732116699e-01 -1.275684088468551636e-01 -4.841252788901329041e-02
2.767000000000000000e+03 5.467158317565917969e+00 -2.893221664428710938e+01 -7.063245773315429688e-02 -2.192445993423461914e-01 -8.696311712265014648e-02 -6.518649309873580933e-02
2.768000000000000000e+03 3.112370014190673828e+00 -1.389398479461669922e+01 -5.120122432708740234e-02 -1.996309757232666016e-01 -7.524965703487396240e-02 -4.018046706914901733e-02
2.769000000000000000e+03 6.058290004730224609e+00 1.048851203918457031e+01 -2.086127996444702148e-01 -1.661219596862792969e-01 -1.124204322695732117e-01 3.695462048053741455e-01
2.770000000000000000e+03 6.209881782531738281e+00 -1.102381610870361328e+01 -2.068880572915077209e-02 -2.218690961599349976e-01 -7.276736944913864136e-02 -6.900955736637115479e-02
2.771000000000000000e+03 6.987547874450683594e+00 -3.601970672607421875e+01 3.567685186862945557e-02 -3.114328086376190186e-01 -8.272678405046463013e-02 -1.673427373170852661e-01
2.772000000000000000e+03 4.340030670166015625e+00 -2.931732749938964844e+01 -5.204417929053306580e-02 -2.906957268714904785e-01 -1.028219684958457947e-01 -3.958402946591377258e-02
2.773000000000000000e+03 3.317900896072387695e+00 -3.239140701293945312e+01 -2.222273126244544983e-02 -4.206550121307373047e-01 -1.328633278608322144e-01 -7.158201932907104492e-02
2.774000000000000000e+03 5.452993869781494141e+00 -5.702260017395019531e+00 7.321286946535110474e-03 -6.067564710974693298e-02 -1.600630767643451691e-02 -6.232680380344390869e-02
2.775000000000000000e+03 5.296891212463378906e+00 9.331550598144531250e+00 -2.226137667894363403e-01 -1.224082782864570618e-01 -1.035066097974777222e-01 2.728020250797271729e-01
2.776000000000000000e+03 2.394561004638671875e+01 1.276460933685302734e+01 1.287549436092376709e-01 1.358158886432647705e-01 7.937125116586685181e-02 6.842295825481414795e-02
2.777000000000000000e+03 6.137542724609375000e+00 3.708997344970703125e+01 6.159237399697303772e-02 -3.389405608177185059e-01 -8.320445567369461060e-02 -2.590370923280715942e-02
2.778000000000000000e+03 1.316454219818115234e+01 2.057993507385253906e+01 2.827805280685424805e-01 2.955453097820281982e-01 1.734977513551712036e-01 4.978894889354705811e-01
2.779000000000000000e+03 4.937258529663085938e+01 -2.860380172729492188e+01 3.536206781864166260e-01 2.883004665374755859e+00 9.709875583648681641e-01 -1.252319693565368652e+00
2.780000000000000000e+03 5.070623397827148438e+01 -2.953380966186523438e+01 1.041253089904785156e+00 3.597924232482910156e+00 1.391753196716308594e+00 -2.727007567882537842e-01
2.781000000000000000e+03 2.873074722290039062e+01 -1.355770969390869141e+01 -8.183798193931579590e-01 5.850233137607574463e-02 -2.279632538557052612e-01 -1.002782583236694336e-01
2.782000000000000000e+03 2.735181236267089844e+01 -1.462728500366210938e+01 -6.714312434196472168e-01 -2.271667309105396271e-02 -2.082443684339523315e-01 -2.196492105722427368e-01
2.783000000000000000e+03 7.327489471435546875e+01 1.407723712921142578e+01 1.284053087234497070e+00 1.053228664398193359e+01 3.544901847839355469e+00 2.594763040542602539e-01
2.784000000000000000e+03 3.582512283325195312e+01 -1.035953617095947266e+01 -1.014188081026077271e-01 6.863250732421875000e-01 1.754718720912933350e-01 3.582884371280670166e-01
2.785000000000000000e+03 4.771484851837158203e+00 4.060074996948242188e+01 -6.342267990112304688e-02 -5.994048714637756348e-01 -1.988482773303985596e-01 2.458535507321357727e-02
2.786000000000000000e+03 5.839143276214599609e+00 3.880877685546875000e+01 -2.629246748983860016e-02 -3.597060143947601318e-01 -1.157995387911796570e-01 -1.624692045152187347e-02
2.787000000000000000e+03 6.735550689697265625e+01 2.694264030456542969e+01 1.865298986434936523e+00 4.178951263427734375e+00 1.813275098800659180e+00 6.996338963508605957e-01
2.788000000000000000e+03 1.163202571868896484e+01 1.835574340820312500e+01 5.990708470344543457e-01 4.256649613380432129e-01 3.074207305908203125e-01 4.067119657993316650e-01
2.789000000000000000e+03 1.255270481109619141e+01 1.977985191345214844e+01 3.222506642341613770e-01 3.644319176673889160e-01 2.060047686100006104e-01 4.435911178588867188e-01
2.790000000000000000e+03 1.590055656433105469e+01 -1.188727378845214844e+01 -5.944178998470306396e-02 3.646996617317199707e-01 9.157736599445343018e-02 -3.623065352439880371e-02
2.791000000000000000e+03 5.997064208984375000e+01 2.119947242736816406e+01 -1.203000903129577637e+00 4.492340087890625000e+00 9.868018031120300293e-01 2.074574470520019531e+00
2.792000000000000000e+03 1.984969902038574219e+01 2.007391166687011719e+01 1.625240445137023926e-01 1.077466085553169250e-01 8.108119666576385498e-02 -7.484769076108932495e-02
2.793000000000000000e+03 2.169036865234375000e+01 7.641048431396484375e+00 3.788401484489440918e-01 -8.203712105751037598e-02 8.904090523719787598e-02 1.828094869852066040e-01
2.794000000000000000e+03 2.618232727050781250e+01 8.603351593017578125e+00 3.769232332706451416e-01 1.900472640991210938e-01 1.700911521911621094e-01 4.053748026490211487e-02
2.795000000000000000e+03 6.474932098388671875e+01 4.458705425262451172e+00 4.379063472151756287e-02 1.758582472801208496e+00 5.407119393348693848e-01 4.826669394969940186e-02
2.796000000000000000e+03 4.487417221069335938e+01 -2.181335449218750000e+01 1.487162590026855469e+00 4.332829952239990234e+00 1.745997786521911621e+00 1.370646595954895020e+00
2.797000000000000000e+03 4.535974502563476562e+01 -2.042955780029296875e+01 1.946408629417419434e+00 5.697760105133056641e+00 2.293250560760498047e+00 1.148211717605590820e+00
2.798000000000000000e+03 6.655526733398437500e+01 1.009799361228942871e+00 8.720805048942565918e-01 2.949525117874145508e+00 1.146481752395629883e+00 1.864453911781311035e+00
2.799000000000000000e+03 7.405128479003906250e+01 -2.497587585449218750e+01 -1.007912397384643555e+00 9.411650657653808594e+00 2.521121501922607422e+00 -5.280933976173400879e-01
2.800000000000000000e+03 7.539483642578125000e+01 -2.630727005004882812e+01 -7.767506241798400879e-01 8.472848892211914062e+00 2.308829307556152344e+00 -1.421860456466674805e-01
2.801000000000000000e+03 2.594151687622070312e+01 -2.258608627319335938e+01 3.167805373668670654e-01 5.156542062759399414e-01 2.497304230928421021e-01 -1.979109086096286774e-02
2.802000000000000000e+03 2.437230300903320312e+01 -2.317917251586914062e+01 2.980552017688751221e-01 3.139702081680297852e-01 1.836076229810714722e-01 -8.250173926353454590e-02
2.803000000000000000e+03 5.857827377319335938e+01 9.885453224182128906e+00 1.039198160171508789e+00 8.395114898681640625e+00 2.830293893814086914e+00 2.191270142793655396e-01
2.804000000000000000e+03 5.970349884033203125e+01 9.546160697937011719e+00 4.806877970695495605e-01 7.291228294372558594e+00 2.331574916839599609e+00 -1.158961653709411621e-01
2.805000000000000000e+03 6.600863647460937500e+01 2.167052841186523438e+01 -9.724197983741760254e-01 4.833179712295532227e-01 -1.467305570840835571e-01 1.277546405792236328e+00
2.806000000000000000e+03 6.048073577880859375e+01 -2.471096229553222656e+01 5.662792325019836426e-01 1.948545336723327637e+00 7.544473409652709961e-01 6.379990577697753906e-01
2.807000000000000000e+03 4.335948944091796875e+01 -2.460960578918457031e+01 8.534426093101501465e-01 1.991400957107543945e+00 8.534530997276306152e-01 1.523043632507324219e+00
2.808000000000000000e+03 6.456332397460937500e+01 -9.807129502296447754e-01 1.100384950637817383e+00 5.959720611572265625e+00 2.118031740188598633e+00 8.734990954399108887e-01
2.809000000000000000e+03 1.768158721923828125e+01 -1.362195396423339844e+01 -1.700345426797866821e-01 2.892904579639434814e-01 3.577677160501480103e-02 -1.158822551369667053e-01
2.810000000000000000e+03 8.236680030822753906e+00 1.011738395690917969e+01 -3.773226737976074219e-01 -2.834220528602600098e-01 -1.982234269380569458e-01 3.643772900104522705e-01
2.811000000000000000e+03 7.320768833160400391e+00 1.139754867553710938e+01 -1.736716330051422119e-01 -2.064822167158126831e-01 -1.140461564064025879e-01 4.506575167179107666e-01
2.812000000000000000e+03 7.482498168945312500e+01 -1.827986145019531250e+01 2.440772801637649536e-01 8.656893730163574219e+00 2.670291185379028320e+00 5.095421671867370605e-01
2.813000000000000000e+03 2.234301948547363281e+01 -2.400222206115722656e+01 2.922444641590118408e-01 1.527537405490875244e-01 1.334994584321975708e-01 -1.468232423067092896e-01
2.814000000000000000e+03 1.335717296600341797e+01 -1.123782825469970703e+01 -5.174233391880989075e-02 2.037862986326217651e-01 4.561319202184677124e-02 -9.224973618984222412e-02
2.815000000000000000e+03 4.503943252563476562e+01 1.854665565490722656e+01 -1.755469679832458496e+00 2.903210163116455078e+00 3.443221747875213623e-01 5.681013464927673340e-01
2.816000000000000000e+03 7.387492370605468750e+01 8.538426399230957031e+00 5.277274250984191895e-01 8.187573432922363281e+00 2.614590406417846680e+00 -2.888512015342712402e-01
2.817000000000000000e+03 6.527795410156250000e+01 2.465977668762207031e+01 1.284307241439819336e+00 4.732697486877441406e+00 1.805101394653320312e+00 1.460335850715637207e+00
2.818000000000000000e+03 3.066362762451171875e+01 3.289138412475585938e+01 2.109102904796600342e-01 1.171531558036804199e+00 4.147325456142425537e-01 -2.944423854351043701e-01
2.819000000000000000e+03 7.419259643554687500e+01 -2.618781280517578125e+01 -9.913645386695861816e-01 8.522586822509765625e+00 2.259366750717163086e+00 1.015079259872436523e+00
2.820000000000000000e+03 7.429817962646484375e+01 -2.749856376647949219e+01 -1.190822243690490723e+00 7.028734207153320312e+00 1.751373648643493652e+00 1.074340343475341797e+00
2.821000000000000000e+03 3.733177566528320312e+01 -2.986160087585449219e+01 6.941478848457336426e-01 2.288187265396118164e+00 8.947005271911621094e-01 9.841133356094360352e-01
2.822000000000000000e+03 3.514157104492187500e+01 -3.155958747863769531e+01 1.193250656127929688e+00 1.242747664451599121e+00 7.307994961738586426e-01 4.201175570487976074e-01
2.823000000000000000e+03 3.493382644653320312e+01 -3.022039413452148438e+01 9.711396694183349609e-01 5.011861920356750488e-01 4.416977763175964355e-01 3.240427672863006592e-01
2.824000000000000000e+03 6.832028198242187500e+01 3.070258378982543945e+00 7.692323923110961914e-01 2.088747739791870117e+00 8.573940396308898926e-01 2.181346178054809570e+00
2.825000000000000000e+03 7.064490509033203125e+01 -2.803046798706054688e+01 8.682988286018371582e-01 1.800607800483703613e+00 8.006719946861267090e-01 1.231619477272033691e+00
2.826000000000000000e+03 5.367130279541015625e+01 3.947580099105834961e+00 -7.318074107170104980e-01 5.733463764190673828e+00 1.500496864318847656e+00 3.503426074981689453e+00
2.827000000000000000e+03 1.270593929290771484e+01 -2.807414627075195312e+01 -2.129599638283252716e-02 -3.166329562664031982e-01 -1.013786867260932922e-01 -1.848527044057846069e-01
2.828000000000000000e+03 6.353895187377929688e+01 2.253456878662109375e+01 -1.784319519996643066e+00 5.522106647491455078e+00 1.121336102485656738e+00 3.533896684646606445e+00
2.829000000000000000e+03 6.485073089599609375e+01 2.353660774230957031e+01 -1.230771839618682861e-01 4.461637973785400391e+00 1.301568269729614258e+00 1.808588981628417969e+00
2.830000000000000000e+03 3.587837982177734375e+01 1.991144943237304688e+01 -3.905342519283294678e-02 1.504867672920227051e+00 4.397442638874053955e-01 -8.094152212142944336e-01
2.831000000000000000e+03 3.469732284545898438e+01 1.842566299438476562e+01 1.731716096401214600e-01 1.321224570274353027e+00 4.483188688755035400e-01 -6.005518436431884766e-01
2.832000000000000000e+03 6.008197402954101562e+01 -1.323667716979980469e+01 -1.428930640220642090e+00 5.669483661651611328e+00 1.272165894508361816e+00 1.186523199081420898e+00
2.833000000000000000e+03 3.051265335083007812e+01 -9.955811500549316406e+00 -4.459092915058135986e-01 -4.470928609371185303e-01 -2.679006457328796387e-01 -1.169461458921432495e-01
2.834000000000000000e+03 2.998102569580078125e+01 -1.262715530395507812e+01 -7.451622486114501953e-01 9.033826738595962524e-02 -1.964471787214279175e-01 1.385232806205749512e-01
2.835000000000000000e+03 5.039448547363281250e+01 -6.006887912750244141e+00 8.596453070640563965e-01 9.483426094055175781e+00 3.102921247482299805e+00 1.384656310081481934e+00
2.836000000000000000e+03 1.521332931518554688e+01 -6.641513347625732422e+00 4.350101202726364136e-02 1.917223632335662842e-01 7.056701183319091797e-02 4.209844395518302917e-03
2.837000000000000000e+03 1.303371906280517578e+01 -8.537971496582031250e+00 7.275675982236862183e-02 1.438371837139129639e-01 6.497818231582641602e-02 -8.280726522207260132e-02
2.838000000000000000e+03 7.084175109863281250e+01 2.098171806335449219e+01 -1.722387671470642090e+00 4.603238105773925781e+00 8.642551302909851074e-01 -1.137572050094604492e+00
2.839000000000000000e+03 7.192037963867187500e+01 2.150637245178222656e+01 -1.530128836631774902e+00 5.724704265594482422e+00 1.258372664451599121e+00 -1.068530440330505371e+00
2.840000000000000000e+03 1.834421920776367188e+01 -2.075971984863281250e+01 -1.897560954093933105e-01 2.655980363488197327e-02 -4.895888641476631165e-02 -4.501895308494567871e-01
2.841000000000000000e+03 1.121262645721435547e+01 -9.718882560729980469e+00 5.050707235932350159e-02 1.771992444992065430e-02 2.046809904277324677e-02 -1.433192193508148193e-01
2.842000000000000000e+03 9.485451698303222656e+00 -3.068214225769042969e+01 -1.192476823925971985e-01 -1.725588738918304443e-01 -8.754196763038635254e-02 -1.782650500535964966e-01
2.843000000000000000e+03 5.722306823730468750e+01 1.488571929931640625e+01 1.924600005149841309e+00 8.030608177185058594e+00 2.986562490463256836e+00 6.864568591117858887e-01
2.844000000000000000e+03 2.873458290100097656e+01 -3.186225128173828125e+01 3.136721849441528320e-01 5.376526117324829102e-01 2.553974390029907227e-01 -1.433918625116348267e-01
2.845000000000000000e+03 5.636410140991210938e+01 -1.496148967742919922e+01 -1.054077148437500000e+00 4.882727146148681641e+00 1.148594975471496582e+00 -1.260743141174316406e+00
2.846000000000000000e+03 5.758807754516601562e+01 -1.218708801269531250e+01 -3.747266232967376709e-01 2.393314123153686523e+00 6.055762171745300293e-01 -4.041828513145446777e-01
2.847000000000000000e+03 5.288052749633789062e+01 -2.732245826721191406e+01 -6.995835304260253906e-01 3.250828027725219727e+00 7.653733491897583008e-01 1.553440690040588379e+00
2.848000000000000000e+03 4.947628402709960938e+01 2.618585777282714844e+01 1.376806855201721191e+00 4.080173015594482422e+00 1.637093901634216309e+00 -1.724243164062500000e-01
2.849000000000000000e+03 6.415723419189453125e+01 -9.972425460815429688e+00 3.770991563796997070e-01 8.145579338073730469e+00 2.556803464889526367e+00 -3.663102090358734131e-01
2.850000000000000000e+03 6.581148529052734375e+01 -1.486642360687255859e+01 -2.016915798187255859e+00 4.113783836364746094e+00 6.290603876113891602e-01 7.799693942070007324e-01
2.851000000000000000e+03 5.554388046264648438e+00 -1.015738964080810547e+01 1.732807047665119171e-02 -1.623291224241256714e-01 -4.350031539797782898e-02 -5.440751835703849792e-02
2.852000000000000000e+03 5.603959274291992188e+01 4.234155178070068359e+00 -5.351585745811462402e-01 6.521165370941162109e+00 1.795801997184753418e+00 1.400516748428344727e+00
2.853000000000000000e+03 5.939471817016601562e+01 7.500581264495849609e+00 -5.245887637138366699e-01 7.111105918884277344e+00 1.975955128669738770e+00 -6.844167709350585938e-01
2.854000000000000000e+03 5.782563781738281250e+01 -2.568186187744140625e+01 -1.414557933807373047e+00 5.884279251098632812e+00 1.340916395187377930e+00 1.793298363685607910e+00
2.855000000000000000e+03 5.002558517456054688e+01 -2.710490798950195312e+01 -1.070305228233337402e+00 1.826831102371215820e+00 2.269577533006668091e-01 -1.416247725486755371e+00
2.856000000000000000e+03 6.904508209228515625e+01 4.137813568115234375e+00 5.459400415420532227e-01 2.438557147979736328e+00 8.953491449356079102e-01 2.164044618606567383e+00
2.857000000000000000e+03 5.375786972045898438e+01 1.958943557739257812e+01 -1.175001502037048340e+00 4.989548683166503906e+00 1.144364237785339355e+00 -2.533656597137451172e+00
2.858000000000000000e+03 5.405012130737304688e+01 1.864383697509765625e+01 -7.594235539436340332e-01 5.047431468963623047e+00 1.286402344703674316e+00 -2.245650053024291992e+00
2.859000000000000000e+03 6.160853576660156250e+01 -1.215998554229736328e+01 -1.298830747604370117e+00 6.528498649597167969e+00 1.568900465965270996e+00 1.550580501556396484e+00
2.860000000000000000e+03 1.401192378997802734e+01 -2.557240486145019531e+01 1.082516238093376160e-01 -3.986396193504333496e-01 -8.711640536785125732e-02 -2.479854524135589600e-01
2.861000000000000000e+03 1.411095237731933594e+01 -2.684877204895019531e+01 8.497943729162216187e-02 -3.739448487758636475e-01 -8.668962866067886353e-02 -1.936165690422058105e-01
2.862000000000000000e+03 7.434221649169921875e+01 2.364132499694824219e+01 -4.036231637001037598e-01 6.558602809906005859e+00 1.846493840217590332e+00 -5.817878842353820801e-01
2.863000000000000000e+03 5.244213867187500000e+01 -1.076659774780273438e+01 2.164392769336700439e-01 5.305534839630126953e+00 1.656592249870300293e+00 -6.428320407867431641e-01
2.864000000000000000e+03 5.419266510009765625e+01 -1.255929851531982422e+01 -8.744333386421203613e-01 4.071493625640869141e+00 9.591181278228759766e-01 -2.463143348693847656e+00
2.865000000000000000e+03 5.382744979858398438e+01 -2.782935333251953125e+01 -9.271964430809020996e-01 4.408583164215087891e+00 1.044416069984436035e+00 1.666987776756286621e+00
2.866000000000000000e+03 6.394724273681640625e+01 5.469677925109863281e+00 -5.177480578422546387e-01 1.998528003692626953e+00 4.442339837551116943e-01 -8.837589621543884277e-01
2.867000000000000000e+03 6.213975524902343750e+01 5.647221565246582031e+00 -7.456351518630981445e-01 4.199253082275390625e+00 1.036085367202758789e+00 -1.512256741523742676e+00
2.868000000000000000e+03 5.664721298217773438e+01 -2.566140747070312500e+01 -1.896496534347534180e+00 7.008041381835937500e+00 1.533463478088378906e+00 1.732426285743713379e+00
2.869000000000000000e+03 2.346344566345214844e+01 3.405905532836914062e+01 8.268220722675323486e-02 5.278209447860717773e-01 1.831509470939636230e-01 -1.087243109941482544e-01
2.870000000000000000e+03 4.955949783325195312e+01 3.090591049194335938e+01 1.014239907264709473e+00 4.569933414459228516e+00 1.675251960754394531e+00 -6.630842685699462891e-01
2.871000000000000000e+03 5.041040039062500000e+01 -1.395432090759277344e+01 -5.827355980873107910e-01 2.739664316177368164e+00 6.470785737037658691e-01 6.411282420158386230e-01
2.872000000000000000e+03 5.090503311157226562e+01 -1.141569805145263672e+01 7.092458009719848633e-01 4.898568153381347656e+00 1.682344198226928711e+00 6.822487115859985352e-01
2.873000000000000000e+03 4.586611175537109375e+01 3.533929824829101562e+01 -2.987229526042938232e-01 2.978330612182617188e+00 8.038823008537292480e-01 -8.700913786888122559e-01
2.874000000000000000e+03 8.400550842285156250e+00 7.788268566131591797e+00 -4.264734685420989990e-01 -2.760792672634124756e-01 -2.107658237218856812e-01 2.398660928010940552e-01
2.875000000000000000e+03 1.815141677856445312e+01 -2.450865364074707031e+01 1.632328033447265625e-01 -3.957111015915870667e-02 3.709850460290908813e-02 -2.165698856115341187e-01
2.876000000000000000e+03 6.739655303955078125e+01 -1.361943912506103516e+01 -8.827412724494934082e-01 2.558088302612304688e+00 5.026040673255920410e-01 -1.035241484642028809e+00
2.877000000000000000e+03 7.567193603515625000e+01 4.073208999633789062e+01 -9.146975725889205933e-02 7.229775905609130859e+00 2.141491889953613281e+00 1.879968941211700439e-01
2.878000000000000000e+03 2.918868637084960938e+01 -2.958415222167968750e+01 2.101558893918991089e-01 6.268619298934936523e-01 2.511053681373596191e-01 -2.633830010890960693e-01
2.879000000000000000e+03 5.855370712280273438e+01 6.689113616943359375e+00 -1.573090702295303345e-01 7.076007843017578125e+00 2.075609683990478516e+00 -7.378373146057128906e-01
2.880000000000000000e+03 5.775000762939453125e+01 7.535458087921142578e+00 5.511632934212684631e-02 8.095871925354003906e+00 2.445296525955200195e+00 -2.830964326858520508e-01
2.881000000000000000e+03 3.591562652587890625e+01 -1.335464572906494141e+01 -7.882761955261230469e-01 3.633811771869659424e-01 -1.274684965610504150e-01 1.466933637857437134e-01
2.882000000000000000e+03 2.246811294555664062e+01 1.572004318237304688e+01 -9.538371860980987549e-02 2.262006402015686035e-01 3.924507275223731995e-02 -2.347627189010381699e-03
2.883000000000000000e+03 2.410772705078125000e+01 1.435665607452392578e+01 3.948650136590003967e-02 2.288334667682647705e-01 8.049599081277847290e-02 -4.312885552644729614e-02
2.884000000000000000e+03 5.069276046752929688e+01 3.099491691589355469e+01 1.033380985260009766e+00 4.937811851501464844e+00 1.791357874870300293e+00 -4.786926805973052979e-01
2.885000000000000000e+03 5.017857360839843750e+01 3.410582733154296875e+01 -1.907081156969070435e-01 4.243410587310791016e+00 1.215810775756835938e+00 -6.415268182754516602e-01
2.886000000000000000e+03 5.141582489013671875e+01 3.499061584472656250e+01 -6.443586349487304688e-01 4.462276935577392578e+00 1.145375490188598633e+00 -3.300918340682983398e-01
2.887000000000000000e+03 6.856402587890625000e+01 -1.495666122436523438e+01 -1.104512572288513184e+00 2.195679992437362671e-01 -2.654833793640136719e-01 -1.711225986480712891e+00
2.888000000000000000e+03 7.261695861816406250e+01 2.047283744812011719e+01 -1.760966539382934570e+00 6.458721637725830078e+00 1.409326553344726562e+00 -5.304381847381591797e-01
2.889000000000000000e+03 5.521805191040039062e+01 1.645127296447753906e+01 1.105861186981201172e+00 6.046318531036376953e+00 2.145653963088989258e+00 -1.243443012237548828e+00
2.890000000000000000e+03 5.628074645996093750e+01 1.770957183837890625e+01 8.880553245544433594e-01 5.672621250152587891e+00 1.968203067779541016e+00 -9.587424397468566895e-01
2.891000000000000000e+03 5.734590148925781250e+01 1.022787857055664062e+01 1.492422938346862793e+00 8.883444786071777344e+00 3.112760305404663086e+00 7.148467302322387695e-01
2.892000000000000000e+03 2.407839012145996094e+01 -2.597092056274414062e+01 3.230780065059661865e-01 3.140954971313476562e-01 1.911520510911941528e-01 -1.186641156673431396e-01
2.893000000000000000e+03 2.504258346557617188e+01 -2.679376411437988281e+01 3.002096712589263916e-01 4.476827979087829590e-01 2.243677377700805664e-01 -1.238766983151435852e-01
2.894000000000000000e+03 6.647669219970703125e+01 3.786121368408203125e+01 -7.637881040573120117e-01 4.865134716033935547e+00 1.230404019355773926e+00 1.057163178920745850e-01
2.895000000000000000e+03 6.185985946655273438e+01 4.126206207275390625e+01 -2.639302909374237061e-01 2.200157165527343750e+00 5.808681249618530273e-01 -2.877976000308990479e-01
2.896000000000000000e+03 3.696203231811523438e+01 -3.808339309692382812e+01 -4.927031397819519043e-01 2.211911439895629883e+00 5.157625079154968262e-01 3.990044295787811279e-01
2.897000000000000000e+03 1.211235141754150391e+01 -9.198121070861816406e+00 -2.572185732424259186e-02 1.738205738365650177e-02 -2.501939889043569565e-03 -1.093860194087028503e-01
2.898000000000000000e+03 3.844764709472656250e+01 1.930678939819335938e+01 -3.384011983871459961e-02 9.947432279586791992e-01 2.882709205150604248e-01 -1.152745246887207031e+00
2.899000000000000000e+03 3.708779907226562500e+01 2.027829742431640625e+01 -1.595054864883422852e-01 1.344014883041381836e+00 3.553528189659118652e-01 -9.723737835884094238e-01
2.900000000000000000e+03 6.774092864990234375e+01 2.824853706359863281e+01 1.741589307785034180e+00 4.666164398193359375e+00 1.922326087951660156e+00 8.123816251754760742e-01
2.901000000000000000e+03 7.216874694824218750e+01 3.188272476196289062e+01 4.858326315879821777e-01 5.766209602355957031e+00 1.875612735748291016e+00 3.673748373985290527e-01
2.902000000000000000e+03 6.854737854003906250e+01 -3.004862213134765625e+01 2.214499711990356445e+00 4.174801826477050781e+00 1.916790485382080078e+00 -1.541733026504516602e+00
2.903000000000000000e+03 6.437847137451171875e+01 -1.097758102416992188e+01 -6.073083281517028809e-01 7.640821933746337891e+00 2.110054016113281250e+00 7.953362166881561279e-02
2.904000000000000000e+03 5.621067047119140625e+00 -1.274993991851806641e+01 -7.259246706962585449e-02 -2.585989832878112793e-01 -9.935744106769561768e-02 -8.567392826080322266e-02
2.905000000000000000e+03 5.204049587249755859e+00 -1.169060611724853516e+01 -1.202799472957849503e-02 -1.903053969144821167e-01 -6.070001795887947083e-02 -5.344791710376739502e-02
2.906000000000000000e+03 3.482131576538085938e+01 1.479362201690673828e+01 5.728262066841125488e-01 4.917395114898681641e-01 3.193697333335876465e-01 -4.144086539745330811e-01
2.907000000000000000e+03 4.175936889648437500e+01 -1.883929061889648438e+01 6.889156699180603027e-01 1.454349398612976074e+00 6.429795026779174805e-01 4.992963075637817383e-01
2.908000000000000000e+03 4.448620605468750000e+01 4.431904792785644531e+00 -7.161356210708618164e-01 2.483814001083374023e+00 5.303034782409667969e-01 -1.458850145339965820e+00
2.909000000000000000e+03 2.787772560119628906e+01 -1.660341644287109375e+01 -4.707776382565498352e-02 2.973704040050506592e-01 7.508779317140579224e-02 2.262686192989349365e-02
2.910000000000000000e+03 1.791487503051757812e+01 2.050282478332519531e+01 3.127072751522064209e-01 7.875446975231170654e-02 1.174385175108909607e-01 1.603562384843826294e-01
2.911000000000000000e+03 5.673581123352050781e+00 2.277037239074707031e+01 -2.316600643098354340e-02 -5.062228441238403320e-01 -1.588166505098342896e-01 4.358081147074699402e-02
2.912000000000000000e+03 2.150507545471191406e+01 3.708931732177734375e+01 8.421314507722854614e-02 3.576728999614715576e-01 1.325658112764358521e-01 -7.457864284515380859e-02
2.913000000000000000e+03 2.783144187927246094e+01 -2.809027290344238281e+01 1.395365893840789795e-01 6.134670972824096680e-01 2.259010970592498779e-01 -2.237073034048080444e-01
2.914000000000000000e+03 2.877909660339355469e+01 -2.748887252807617188e+01 1.321128606796264648e-01 6.747857332229614258e-01 2.420695871114730835e-01 -2.117800563573837280e-01
2.915000000000000000e+03 8.145173072814941406e+00 -3.001944160461425781e+01 -1.158610209822654724e-01 -1.598372310400009155e-01 -8.270947635173797607e-02 -1.576933711767196655e-01
2.916000000000000000e+03 9.180763244628906250e+00 -3.539809036254882812e+01 4.131311923265457153e-02 -2.116477787494659424e-01 -5.110039561986923218e-02 -1.978017985820770264e-01
2.917000000000000000e+03 1.885735893249511719e+01 -1.569113445281982422e+01 -1.589204967021942139e-01 8.219871670007705688e-02 -2.301653474569320679e-02 -3.693641424179077148e-01
2.918000000000000000e+03 6.884920501708984375e+01 -3.141280364990234375e+01 2.229319572448730469e+00 4.642045021057128906e+00 2.061409235000610352e+00 -1.103904008865356445e+00
2.919000000000000000e+03 5.236936187744140625e+01 2.360490989685058594e+01 -8.302060961723327637e-01 5.175927162170410156e+00 1.303716301918029785e+00 -1.393727660179138184e+00
2.920000000000000000e+03 4.884306716918945312e+01 2.844032669067382812e+01 1.379045128822326660e+00 4.370025157928466797e+00 1.724721074104309082e+00 -3.584828674793243408e-01
2.921000000000000000e+03 4.890279006958007812e+01 2.726408004760742188e+01 1.439920783042907715e+00 4.109587669372558594e+00 1.664852619171142578e+00 -2.052960544824600220e-01
2.922000000000000000e+03 4.733494949340820312e+01 2.230544662475585938e+01 -5.308655649423599243e-02 2.333229303359985352e+00 6.840428709983825684e-01 2.266165912151336670e-01
2.923000000000000000e+03 1.254979038238525391e+01 -2.473808097839355469e+01 4.178079962730407715e-02 -3.378052711486816406e-01 -8.880733698606491089e-02 -3.088634908199310303e-01
2.924000000000000000e+03 4.073690795898437500e+01 1.536884021759033203e+01 8.715716600418090820e-01 1.685613870620727539e+00 7.671556472778320312e-01 -1.330787062644958496e+00
2.925000000000000000e+03 5.682892990112304688e+01 1.305616283416748047e+01 1.668730020523071289e+00 9.229576110839843750e+00 3.269491910934448242e+00 5.179667472839355469e-01
2.926000000000000000e+03 2.333081626892089844e+01 1.034661579132080078e+01 3.398560583591461182e-01 -2.618051134049892426e-02 9.410266578197479248e-02 1.775004863739013672e-01
2.927000000000000000e+03 2.295045661926269531e+01 9.453413009643554688e+00 3.710092306137084961e-01 -5.301978439092636108e-02 9.539683908224105835e-02 1.921991258859634399e-01
2.928000000000000000e+03 1.382669639587402344e+01 -2.436527061462402344e+01 8.736044913530349731e-02 -4.256528019905090332e-01 -1.014877110719680786e-01 -2.812207043170928955e-01
2.929000000000000000e+03 1.152181911468505859e+01 -3.008253669738769531e+01 -1.320418417453765869e-01 -2.406689822673797607e-01 -1.118132397532463074e-01 -1.738129556179046631e-01
2.930000000000000000e+03 6.947483062744140625e+00 -3.136908149719238281e+01 -8.296754211187362671e-02 -2.267531305551528931e-01 -9.291620552539825439e-02 -1.485373228788375854e-01
2.931000000000000000e+03 2.636873435974121094e+01 -2.144268608093261719e+01 3.474366068840026855e-01 4.930936694145202637e-01 2.521590888500213623e-01 1.668909750878810883e-02
2.932000000000000000e+03 5.449070739746093750e+01 -1.456911849975585938e+01 -1.462401151657104492e+00 4.105047702789306641e+00 7.927939891815185547e-01 -2.058965682983398438e+00
2.933000000000000000e+03 5.532825469970703125e+01 -1.481468105316162109e+01 -8.954525589942932129e-01 4.431155204772949219e+00 1.060710787773132324e+00 -2.040403604507446289e+00
2.934000000000000000e+03 2.569250106811523438e+01 9.532757759094238281e+00 3.576910197734832764e-01 1.373068541288375854e-01 1.484993547201156616e-01 7.509141415357589722e-02
2.935000000000000000e+03 7.665409088134765625e+00 1.239860820770263672e+01 -6.412895768880844116e-02 -2.383963018655776978e-01 -9.075757861137390137e-02 4.865463972091674805e-01
2.936000000000000000e+03 4.117667198181152344e+00 1.427919197082519531e+01 8.025704324245452881e-02 -3.719123899936676025e-01 -8.749660104513168335e-02 3.286664485931396484e-01
2.937000000000000000e+03 3.533454513549804688e+01 1.363483333587646484e+01 6.509575843811035156e-01 3.055407106876373291e-01 2.869494855403900146e-01 -3.934198021888732910e-01
2.938000000000000000e+03 3.799270248413085938e+01 1.435815620422363281e+01 1.021826267242431641e+00 5.650230050086975098e-01 4.760547876358032227e-01 -9.543653726577758789e-01
2.939000000000000000e+03 4.428596115112304688e+01 -2.451474380493164062e+01 4.371681213378906250e-01 2.312396287918090820e+00 8.248692750930786133e-01 8.405412435531616211e-01
2.940000000000000000e+03 6.815628814697265625e+01 4.578175544738769531e+00 4.575075805187225342e-01 1.866267442703247070e+00 6.971325278282165527e-01 2.283018112182617188e+00
2.941000000000000000e+03 6.630949401855468750e+01 4.728713512420654297e+00 3.355471193790435791e-01 1.251973867416381836e+00 4.762563109397888184e-01 1.328454732894897461e+00
2.942000000000000000e+03 5.725262832641601562e+01 -1.660692214965820312e+01 1.587045006453990936e-02 5.760383605957031250e+00 1.732876181602478027e+00 -2.502642273902893066e-01
2.943000000000000000e+03 5.615059280395507812e+01 1.521540832519531250e+01 1.872229218482971191e+00 7.484723091125488281e+00 2.807085752487182617e+00 -2.264807671308517456e-01
2.944000000000000000e+03 4.268636322021484375e+01 3.808342361450195312e+01 -1.772356927394866943e-01 1.755854606628417969e+00 4.735856652259826660e-01 -6.055941581726074219e-01
2.945000000000000000e+03 5.308137130737304688e+01 -3.157606124877929688e+01 2.128021717071533203e+00 5.145059585571289062e+00 2.181924343109130859e+00 7.551889419555664062e-01
2.946000000000000000e+03 5.373710632324218750e+01 -2.895555686950683594e+01 7.506678104400634766e-01 4.971435070037841797e+00 1.716630935668945312e+00 1.198796153068542480e+00
2.947000000000000000e+03 5.036971282958984375e+01 -9.724712371826171875e+00 9.797648787498474121e-01 6.585207939147949219e+00 2.269491910934448242e+00 2.338640928268432617e+00
2.948000000000000000e+03 1.676231384277343750e+01 -2.483443260192871094e+01 1.814987212419509888e-01 -2.240768373012542725e-01 -1.277343835681676865e-02 -2.322247624397277832e-01
2.949000000000000000e+03 1.656964874267578125e+01 -2.356874275207519531e+01 2.002368308603763580e-02 -2.720929682254791260e-01 -7.562078535556793213e-02 -2.603126466274261475e-01
2.950000000000000000e+03 3.506482315063476562e+01 2.463880538940429688e+01 4.846881926059722900e-01 2.728778600692749023e+00 9.640400409698486328e-01 -5.846454501152038574e-01
2.951000000000000000e+03 5.271343231201171875e+01 -2.856893348693847656e+01 5.861475467681884766e-01 3.641006708145141602e+00 1.268146276473999023e+00 6.961931586265563965e-01
2.952000000000000000e+03 5.178133773803710938e+01 -3.684449386596679688e+01 -3.888787925243377686e-01 5.032855033874511719e+00 1.393192887306213379e+00 9.203256368637084961e-01
2.953000000000000000e+03 4.076826095581054688e+01 1.918788909912109375e+01 -2.409908026456832886e-01 1.131280779838562012e+00 2.670870125293731689e-01 -6.399424672126770020e-01
2.954000000000000000e+03 4.252947616577148438e+01 1.299175071716308594e+01 1.474959611892700195e+00 3.314970254898071289e+00 1.436978936195373535e+00 -1.356552362442016602e+00
2.955000000000000000e+03 1.790508651733398438e+01 -2.338605308532714844e+01 1.852115057408809662e-02 -8.424908667802810669e-02 -1.971838064491748810e-02 -2.405779361724853516e-01
2.956000000000000000e+03 1.945833969116210938e+01 -2.414369010925292969e+01 1.751026660203933716e-01 9.625010192394256592e-02 8.140583336353302002e-02 -1.837642788887023926e-01
2.957000000000000000e+03 4.903342819213867188e+01 3.299294662475585938e+01 3.325364291667938232e-01 4.189376831054687500e+00 1.356573939323425293e+00 -7.908111810684204102e-01
2.958000000000000000e+03 5.688671493530273438e+01 1.391907691955566406e+01 2.033878564834594727e+00 8.532658576965332031e+00 3.169961214065551758e+00 6.337414979934692383e-01
2.959000000000000000e+03 1.835223770141601562e+01 -1.831197357177734375e+01 -1.531533747911453247e-01 -3.957849740982055664e-02 -5.781956017017364502e-02 -5.771768093109130859e-01
2.960000000000000000e+03 1.918469619750976562e+01 -1.887897872924804688e+01 -1.717896610498428345e-01 3.687107190489768982e-02 -4.047557711601257324e-02 -5.619384050369262695e-01
2.961000000000000000e+03 6.242924118041992188e+01 -1.155502319335937500e+01 -1.559319376945495605e+00 7.387063980102539062e+00 1.748323440551757812e+00 1.297748684883117676e+00
2.962000000000000000e+03 4.520663833618164062e+01 -1.567111301422119141e+01 -8.728008866310119629e-01 4.780319690704345703e+00 1.172255635261535645e+00 1.710089683532714844e+00
2.963000000000000000e+03 4.310857391357421875e+01 -1.637631225585937500e+01 1.954499334096908569e-01 1.836890935897827148e+00 6.097022294998168945e-01 6.263329386711120605e-01
2.964000000000000000e+03 1.564015007019042969e+01 3.956940078735351562e+01 1.032176390290260315e-01 4.481292888522148132e-02 4.440917074680328369e-02 4.729871079325675964e-02
2.965000000000000000e+03 5.977621078491210938e+01 1.918547821044921875e+01 1.313434362411499023e+00 6.489908218383789062e+00 2.341002702713012695e+00 1.585161805152893066e+00
2.966000000000000000e+03 5.774044418334960938e+01 2.075944709777832031e+01 -7.484508752822875977e-01 3.020725488662719727e+00 6.816824078559875488e-01 -9.710956811904907227e-01
2.967000000000000000e+03 4.565759658813476562e+00 1.768339729309082031e+01 1.730834990739822388e-01 -4.734001755714416504e-01 -9.009499847888946533e-02 1.479994058609008789e-01
2.968000000000000000e+03 8.545155525207519531e+00 1.763803482055664062e+01 4.363999366760253906e-01 -7.374325394630432129e-02 1.087970063090324402e-01 2.219718843698501587e-01
2.969000000000000000e+03 3.408174896240234375e+01 -3.212164688110351562e+01 1.093237519264221191e+00 7.111724615097045898e-01 5.413230061531066895e-01 4.116139113903045654e-01
2.970000000000000000e+03 1.892683410644531250e+01 -1.746908569335937500e+01 -1.360948979854583740e-01 1.872862689197063446e-02 -3.520988300442695618e-02 -5.526443123817443848e-01
2.971000000000000000e+03 1.025695323944091797e+01 1.958620834350585938e+01 3.232973814010620117e-01 1.195308715105056763e-01 1.328484714031219482e-01 1.915131360292434692e-01
2.972000000000000000e+03 8.410279273986816406e+00 -3.694715118408203125e+01 8.106691390275955200e-02 -2.544055879116058350e-01 -5.200159922242164612e-02 -1.697650849819183350e-01
2.973000000000000000e+03 3.978020858764648438e+01 1.342961406707763672e+01 1.306194901466369629e+00 9.691922068595886230e-01 6.826161742210388184e-01 -1.197135329246520996e+00
2.974000000000000000e+03 3.939299392700195312e+01 1.473515129089355469e+01 1.079376101493835449e+00 8.797064423561096191e-01 5.877248048782348633e-01 -1.222417593002319336e+00
2.975000000000000000e+03 6.069015121459960938e+01 -2.192160224914550781e+01 2.723059892654418945e+00 4.053033828735351562e+00 2.032828092575073242e+00 -5.559098124504089355e-01
2.976000000000000000e+03 2.886957168579101562e+01 3.162797164916992188e+01 4.646193981170654297e-01 7.683658599853515625e-01 3.698955774307250977e-01 -2.618434429168701172e-01
2.977000000000000000e+03 3.471492385864257812e+01 3.605101776123046875e+01 -2.524682283401489258e-01 1.365457773208618164e+00 3.338968753814697266e-01 1.925216764211654663e-01
2.978000000000000000e+03 3.680666351318359375e+01 3.552071380615234375e+01 -3.451636135578155518e-01 1.024038553237915039e+00 2.036624848842620850e-01 3.982993066310882568e-01
2.979000000000000000e+03 4.268260478973388672e+00 2.070356369018554688e+01 6.724389642477035522e-02 -5.481124520301818848e-01 -1.442605704069137573e-01 2.639268711209297180e-02
2.980000000000000000e+03 8.342734336853027344e+00 1.882000732421875000e+01 3.272726237773895264e-01 -1.480356454849243164e-01 5.377108976244926453e-02 1.437856703996658325e-01
2.981000000000000000e+03 6.345238113403320312e+01 -1.480448150634765625e+01 -1.865815520286560059e+00 6.357741355895996094e+00 1.347577810287475586e+00 7.753220796585083008e-01
2.982000000000000000e+03 5.847935867309570312e+01 -1.680244064331054688e+01 1.639979034662246704e-01 5.678170204162597656e+00 1.752650380134582520e+00 8.176263421773910522e-02
2.983000000000000000e+03 2.802695274353027344e+01 -4.140684890747070312e+01 2.291261553764343262e-01 6.760537624359130859e-01 2.715539634227752686e-01 5.940124765038490295e-02
2.984000000000000000e+03 6.135048675537109375e+01 -1.746612739562988281e+01 1.102795153856277466e-01 6.134377479553222656e+00 1.873397111892700195e+00 -3.145839571952819824e-01
2.985000000000000000e+03 5.743620681762695312e+01 2.198836898803710938e+01 -2.065669059753417969e+00 1.673553466796875000e+00 -1.176347136497497559e-01 -2.228102922439575195e+00
2.986000000000000000e+03 4.766844177246093750e+01 -4.506567955017089844e+00 7.472988963127136230e-01 1.929672122001647949e+00 8.030912876129150391e-01 6.788064241409301758e-01
2.987000000000000000e+03 4.964558792114257812e+01 -4.810149192810058594e+00 8.337870836257934570e-01 7.703045368194580078e+00 2.561049699783325195e+00 1.137446641921997070e+00
2.988000000000000000e+03 4.887691497802734375e+01 1.536639809608459473e+00 2.746217727661132812e+00 3.352426528930664062e+00 1.829593300819396973e+00 -4.354981899261474609e+00
2.989000000000000000e+03 4.791775512695312500e+01 -5.008089542388916016e+00 5.141645073890686035e-01 2.831045150756835938e+00 1.003562927246093750e+00 7.822813391685485840e-01
2.990000000000000000e+03 4.813777923583984375e+01 2.664319515228271484e+00 8.617874383926391602e-01 2.971541404724121094e+00 1.149998664855957031e+00 -4.040773868560791016e+00
2.991000000000000000e+03 4.776391220092773438e+01 1.759003281593322754e+00 1.891057133674621582e+00 1.800860047340393066e+00 1.107575178146362305e+00 -3.369574546813964844e+00
2.992000000000000000e+03 1.002013301849365234e+01 4.074975967407226562e+00 -2.391456067562103271e-01 -1.602178514003753662e-01 -1.198090389370918274e-01 1.274091899394989014e-01
2.993000000000000000e+03 5.653847217559814453e+00 -4.345202445983886719e+00 -2.273342013359069824e-02 -2.333617582917213440e-02 -1.382087916135787964e-02 -6.195279583334922791e-02
2.994000000000000000e+03 4.190387725830078125e+00 -5.062416553497314453e+00 1.011703442782163620e-02 -4.297009855508804321e-02 -9.855919517576694489e-03 -3.408734500408172607e-02
2.995000000000000000e+03 4.568082809448242188e+01 5.374436855316162109e+00 -7.979482412338256836e-01 3.615913391113281250e+00 8.453894853591918945e-01 -1.963793516159057617e+00
2.996000000000000000e+03 9.109759330749511719e+00 -1.052526473999023438e+01 4.901260603219270706e-03 -1.137619614601135254e-01 -3.265821188688278198e-02 -1.383954733610153198e-01
2.997000000000000000e+03 6.758316516876220703e+00 -3.829970121383666992e+00 -2.349353581666946411e-02 -2.462970837950706482e-02 -1.443697325885295868e-02 -8.572323620319366455e-02
2.998000000000000000e+03 7.498486995697021484e+00 -5.074847221374511719e+00 -2.097964473068714142e-02 -1.059719920158386230e-01 -3.808549046516418457e-02 -1.218057796359062195e-01
2.999000000000000000e+03 6.219316482543945312e+00 -3.969665288925170898e+00 -1.394493319094181061e-02 -1.073977500200271606e-01 -3.640280291438102722e-02 -8.728593587875366211e-02
3.000000000000000000e+03 8.664759635925292969e+00 -4.627940654754638672e+00 9.985909797251224518e-03 -7.120776921510696411e-02 -1.836655847728252411e-02 -1.155402436852455139e-01
3.001000000000000000e+03 7.930694580078125000e+00 -4.529593467712402344e+00 -2.335281670093536377e-02 -9.271425008773803711e-02 -3.482012078166007996e-02 -1.354611515998840332e-01
3.002000000000000000e+03 3.958791732788085938e+00 -4.164570808410644531e+00 -2.175613678991794586e-02 -6.213499978184700012e-02 -2.516734041273593903e-02 -5.450318381190299988e-02
3.003000000000000000e+03 3.578168153762817383e+00 -7.484515666961669922e+00 3.807320958003401756e-03 -9.804748743772506714e-02 -2.827204950153827667e-02 -3.871984779834747314e-02
3.004000000000000000e+03 4.842846679687500000e+01 3.215385913848876953e+00 5.235271528363227844e-02 3.587312936782836914e+00 1.091899633407592773e+00 -4.102217674255371094e+00
3.005000000000000000e+03 4.224161624908447266e+00 4.525236129760742188e+00 -8.633123338222503662e-02 -9.616828523576259613e-03 -2.878441847860813141e-02 -2.663007192313671112e-02
3.006000000000000000e+03 4.914972305297851562e+00 4.310970783233642578e+00 -8.677586913108825684e-02 -2.231520786881446838e-02 -3.272732347249984741e-02 -2.878308482468128204e-02
3.007000000000000000e+03 6.201675415039062500e+00 4.153765201568603516e+00 -1.181792691349983215e-01 -4.610994830727577209e-02 -4.928676411509513855e-02 -1.444739568978548050e-02
3.008000000000000000e+03 4.602130889892578125e+00 5.900677204132080078e+00 -1.553117483854293823e-01 -2.871554344892501831e-02 -5.520818755030632019e-02 3.202797472476959229e-02
3.009000000000000000e+03 4.307107162475585938e+01 5.120121955871582031e+00 -4.176025688648223877e-01 1.783721089363098145e+00 4.098355472087860107e-01 -7.290596961975097656e-01
3.010000000000000000e+03 4.348432159423828125e+01 4.351426601409912109e+00 -5.428097248077392578e-01 1.663571119308471680e+00 3.362284302711486816e-01 -8.844584822654724121e-01
3.011000000000000000e+03 5.919671535491943359e+00 4.745635032653808594e+00 -1.438142061233520508e-01 -4.295036941766738892e-02 -5.602937191724777222e-02 -6.157896947115659714e-03
3.012000000000000000e+03 7.600086212158203125e+00 3.996471881866455078e+00 -1.476036310195922852e-01 -7.811878621578216553e-02 -6.771672517061233521e-02 7.391314022243022919e-03
3.013000000000000000e+03 7.932393074035644531e+00 5.678279399871826172e+00 -3.133150935173034668e-01 -1.436951607465744019e-01 -1.371030807495117188e-01 9.414657950401306152e-02
3.014000000000000000e+03 8.228167533874511719e+00 4.002519130706787109e+00 -1.778072267770767212e-01 -9.033769369125366211e-02 -8.044347167015075684e-02 3.103568218648433685e-02
3.015000000000000000e+03 8.696986198425292969e+00 5.023520469665527344e+00 -2.823158800601959229e-01 -1.469274312257766724e-01 -1.287729889154434204e-01 7.937593013048171997e-02
3.016000000000000000e+03 1.265876388549804688e+01 -3.811760425567626953e+00 -4.948817659169435501e-03 1.476624608039855957e-02 2.945228479802608490e-03 -9.425619244575500488e-02
3.017000000000000000e+03 5.006756973266601562e+01 3.083858728408813477e+00 -2.372307777404785156e-01 4.777669906616210938e+00 1.362131714820861816e+00 -2.806159257888793945e+00
3.018000000000000000e+03 4.839660263061523438e+01 4.283319473266601562e+00 -1.322333335876464844e+00 3.447472810745239258e+00 6.375417709350585938e-01 -3.574709892272949219e+00
3.019000000000000000e+03 1.051879787445068359e+01 5.044679164886474609e+00 -3.627908825874328613e-01 -2.425671219825744629e-01 -1.816073954105377197e-01 1.856469660997390747e-01
3.020000000000000000e+03 2.289274978637695312e+01 5.898801803588867188e+00 -2.551614120602607727e-02 -1.555780619382858276e-01 -5.432825908064842224e-02 1.232852712273597717e-01
3.021000000000000000e+03 2.695942306518554688e+01 3.390212774276733398e+00 -6.281814575195312500e-01 1.955670863389968872e-01 -1.297843158245086670e-01 2.084946185350418091e-01
3.022000000000000000e+03 2.232495117187500000e+01 4.988957881927490234e+00 -3.043246865272521973e-01 -1.477505266666412354e-01 -1.356225609779357910e-01 1.358090788125991821e-01
3.023000000000000000e+03 2.304750442504882812e+01 5.105039596557617188e+00 -2.753919363021850586e-01 -1.570630818605422974e-01 -1.297365128993988037e-01 1.388358324766159058e-01
3.024000000000000000e+03 2.367004585266113281e+01 6.706429958343505859e+00 1.606802642345428467e-01 -1.431440114974975586e-01 5.260874982923269272e-03 1.189213842153549194e-01
3.025000000000000000e+03 2.469537162780761719e+01 4.425477981567382812e+00 -3.765292465686798096e-01 -6.773648411035537720e-02 -1.332797259092330933e-01 1.867396086454391479e-01
3.026000000000000000e+03 2.568923759460449219e+01 6.059132099151611328e+00 6.452168524265289307e-02 4.745391756296157837e-02 3.359267860651016235e-02 1.286975890398025513e-01
3.027000000000000000e+03 2.369459533691406250e+01 5.921068668365478516e+00 -6.334039382636547089e-03 -1.511050909757614136e-01 -4.723174124956130981e-02 1.273423284292221069e-01
3.028000000000000000e+03 2.752118110656738281e+01 5.559929370880126953e+00 3.745785355567932129e-02 3.838103115558624268e-01 1.263804584741592407e-01 1.013141125440597534e-01
3.029000000000000000e+03 1.184350681304931641e+01 -3.811497926712036133e+00 -4.674214497208595276e-02 -1.008020564913749695e-01 -4.426326230168342590e-02 -1.725447028875350952e-01
3.030000000000000000e+03 5.289836502075195312e+01 1.943760871887207031e+00 1.315489768981933594e+00 6.778491973876953125e+00 2.428194522857666016e+00 3.974811553955078125e+00
3.031000000000000000e+03 1.113271808624267578e+01 -3.713458776473999023e+00 -4.983013123273849487e-02 -1.235469244420528412e-02 -1.865544728934764862e-02 -1.100317016243934631e-01
3.032000000000000000e+03 1.344056034088134766e+01 -5.174530506134033203e+00 -6.296933162957429886e-03 -2.759507112205028534e-02 -1.016760151833295822e-02 -9.591215103864669800e-02
3.033000000000000000e+03 4.464548873901367188e+01 5.555806159973144531e+00 -3.768093287944793701e-01 3.145773410797119141e+00 8.306892514228820801e-01 -1.509703516960144043e+00
3.034000000000000000e+03 3.431083679199218750e+01 -5.049064636230468750e+00 3.027179241180419922e-01 -1.353653799742460251e-02 8.675441890954971313e-02 -1.518375873565673828e-01
3.035000000000000000e+03 4.758065795898437500e+01 4.764987945556640625e+00 -1.140350103378295898e+00 3.560562610626220703e+00 7.260637879371643066e-01 -3.507420063018798828e+00
3.036000000000000000e+03 4.853443527221679688e+01 -5.377587795257568359e+00 3.183107078075408936e-01 4.906161785125732422e+00 1.567341685295104980e+00 1.167967319488525391e+00
3.037000000000000000e+03 4.892967987060546875e+01 -3.140013456344604492e+00 1.206359624862670898e+00 4.869682312011718750e+00 1.822812676429748535e+00 1.706118583679199219e+00
3.038000000000000000e+03 1.271905612945556641e+01 -5.149074077606201172e+00 7.189191877841949463e-02 -8.902874775230884552e-03 1.889671199023723602e-02 -9.070993959903717041e-02
3.039000000000000000e+03 1.582672023773193359e+01 -4.047431468963623047e+00 3.477825969457626343e-02 1.751959025859832764e-01 6.299225240945816040e-02 3.782314807176589966e-02
3.040000000000000000e+03 6.002694320678710938e+01 2.012849807739257812e+01 -2.727586403489112854e-02 5.696206569671630859e+00 1.700679183006286621e+00 1.743341565132141113e+00
3.041000000000000000e+03 9.275326728820800781e+00 -5.358965396881103516e+00 3.468691557645797729e-02 -9.147910773754119873e-02 -1.703765802085399628e-02 -1.456727236509323120e-01
3.042000000000000000e+03 1.080493450164794922e+01 -4.311812877655029297e+00 -2.500978484749794006e-02 -3.972906246781349182e-02 -1.942165382206439972e-02 -1.444356292486190796e-01
3.043000000000000000e+03 3.255610275268554688e+01 -7.387980461120605469e+00 3.955915570259094238e-02 -3.185894489288330078e-01 -8.370908349752426147e-02 -9.587495774030685425e-02
3.044000000000000000e+03 3.172048187255859375e+01 -9.614434242248535156e+00 -2.478984147310256958e-01 -8.025359362363815308e-02 -9.844560176134109497e-02 1.289490312337875366e-01
3.045000000000000000e+03 2.382675743103027344e+01 7.508470535278320312e+00 2.791287899017333984e-01 -1.212420314550399780e-01 4.736603051424026489e-02 1.418409645557403564e-01
3.046000000000000000e+03 1.148391151428222656e+01 -2.719835472106933594e+01 -2.319296076893806458e-02 -2.351170033216476440e-01 -7.749298959970474243e-02 -2.106156498193740845e-01
3.047000000000000000e+03 1.482650279998779297e+01 -8.050219535827636719e+00 5.585710704326629639e-02 2.460316419601440430e-01 9.056662768125534058e-02 -4.277028515934944153e-02
3.048000000000000000e+03 1.379964637756347656e+01 -7.563042640686035156e+00 2.494757622480392456e-02 8.583717048168182373e-02 3.323542326688766479e-02 -5.114497989416122437e-02
3.049000000000000000e+03 4.808034133911132812e+01 -4.558393001556396484e+00 7.857374548912048340e-01 3.353825569152832031e+00 1.241868853569030762e+00 7.492606043815612793e-01
3.050000000000000000e+03 3.344471740722656250e+01 -1.055289459228515625e+01 -2.675451040267944336e-01 1.769967079162597656e-01 -2.716451510787010193e-02 3.851769268512725830e-01
3.051000000000000000e+03 3.395574951171875000e+01 -7.435742378234863281e+00 3.504374921321868896e-01 7.708935439586639404e-02 1.282580494880676270e-01 1.136772632598876953e-01
3.052000000000000000e+03 4.914839553833007812e+01 -6.657624721527099609e+00 -8.691264688968658447e-02 6.863519668579101562e+00 2.032982110977172852e+00 1.988589525222778320e+00
3.053000000000000000e+03 3.469164276123046875e+01 -8.438441276550292969e+00 2.865424454212188721e-01 3.044277131557464600e-01 1.772910505533218384e-01 2.204050868749618530e-01
3.054000000000000000e+03 7.812878131866455078e+00 6.985461235046386719e+00 -4.053359925746917725e-01 -1.723474860191345215e-01 -1.733050495386123657e-01 1.715887933969497681e-01
3.055000000000000000e+03 4.197077941894531250e+01 -1.982788276672363281e+01 7.573748826980590820e-01 1.960039377212524414e+00 8.152242898941040039e-01 7.755945324897766113e-01
3.056000000000000000e+03 3.195487785339355469e+01 -6.806174755096435547e+00 2.118552923202514648e-01 -3.722899854183197021e-01 -4.813040792942047119e-02 -1.052772402763366699e-01
3.057000000000000000e+03 4.304698562622070312e+01 7.515438079833984375e+00 4.175803661346435547e-01 3.015133619308471680e+00 1.029814124107360840e+00 -6.279325485229492188e-01
3.058000000000000000e+03 4.330440521240234375e+01 -1.728939247131347656e+01 4.691396653652191162e-01 2.258595705032348633e+00 8.183206319808959961e-01 6.143279671669006348e-01
3.059000000000000000e+03 2.133148574829101562e+01 -1.743082809448242188e+01 -2.077672630548477173e-01 -1.238242685794830322e-01 -9.947746247053146362e-02 -5.858150124549865723e-01
3.060000000000000000e+03 1.996537590026855469e+01 -1.909552192687988281e+01 -1.120380684733390808e-01 -3.788652643561363220e-02 -4.497737810015678406e-02 -5.321617722511291504e-01
3.061000000000000000e+03 7.117336273193359375e+01 2.370955467224121094e+01 -3.387973606586456299e-01 4.621980190277099609e+00 1.284954905509948730e+00 -1.047664999961853027e+00
3.062000000000000000e+03 3.482282257080078125e+01 1.730540275573730469e+01 3.501692712306976318e-01 1.100467443466186523e+00 4.351910054683685303e-01 -5.830293893814086914e-01
3.063000000000000000e+03 6.696046447753906250e+01 2.564654922485351562e+01 1.749217867851257324e+00 3.846081733703613281e+00 1.678589940071105957e+00 6.496173143386840820e-01
3.064000000000000000e+03 6.846192932128906250e+01 2.289277839660644531e+01 -4.362806975841522217e-01 2.136725902557373047e+00 5.101335644721984863e-01 -8.668341636657714844e-01
3.065000000000000000e+03 6.869395446777343750e+01 2.660751533508300781e+01 1.516989827156066895e+00 4.020601272583007812e+00 1.661277413368225098e+00 1.016795486211776733e-01
3.066000000000000000e+03 5.108190536499023438e+01 -3.066008186340332031e+01 1.825170516967773438e+00 4.229253292083740234e+00 1.816327095031738281e+00 -6.869671400636434555e-03
3.067000000000000000e+03 5.184430694580078125e+01 -2.817501449584960938e+01 9.622634202241897583e-02 3.295878410339355469e+00 1.017631411552429199e+00 3.761803805828094482e-01
3.068000000000000000e+03 4.977848434448242188e+01 -8.121768951416015625e+00 4.307849705219268799e-01 7.737264156341552734e+00 2.450414657592773438e+00 2.913284540176391602e+00
3.069000000000000000e+03 5.911368560791015625e+01 -2.085975456237792969e+01 2.316996097564697266e+00 4.944102287292480469e+00 2.178329706192016602e+00 1.545335203409194946e-01
3.070000000000000000e+03 5.345728683471679688e+01 -1.148431301116943359e+01 -5.746029019355773926e-01 4.255320549011230469e+00 1.104215383529663086e+00 -1.814339041709899902e+00
3.071000000000000000e+03 7.311940765380859375e+01 -3.352714538574218750e+01 7.699794173240661621e-01 5.678411483764648438e+00 1.934517264366149902e+00 -3.343458771705627441e-01
3.072000000000000000e+03 5.065678024291992188e+01 -2.903904676437377930e+00 -7.981041073799133301e-01 1.317658329010009766e+01 3.713543653488159180e+00 5.650025606155395508e-01
3.073000000000000000e+03 6.109845352172851562e+01 1.361452817916870117e+00 1.856243610382080078e-01 6.325693607330322266e+00 1.953395366668701172e+00 -1.724360346794128418e+00
3.074000000000000000e+03 6.173503875732421875e+01 -2.247611236572265625e+01 2.855072259902954102e+00 4.227014541625976562e+00 2.124625921249389648e+00 -1.118151903152465820e+00
3.075000000000000000e+03 5.496074295043945312e+01 2.908076286315917969e+00 8.314005136489868164e-01 4.962754726409912109e+00 1.738246560096740723e+00 2.862189769744873047e+00
3.076000000000000000e+03 8.852273941040039062e+00 -2.566074371337890625e+01 -3.228853642940521240e-02 -2.564912103116512299e-02 -1.738129742443561554e-02 -1.711777001619338989e-01
3.077000000000000000e+03 6.665698242187500000e+01 2.331231307983398438e+01 2.322643697261810303e-01 2.363979101181030273e+00 7.788730263710021973e-01 7.024306058883666992e-01
3.078000000000000000e+03 6.177505111694335938e+01 2.672333717346191406e-01 5.158907175064086914e-01 6.918182373046875000e+00 2.230221986770629883e+00 -1.177606701850891113e+00
3.079000000000000000e+03 4.576894378662109375e+01 3.601182699203491211e+00 -4.606359899044036865e-01 2.402783393859863281e+00 5.826442241668701172e-01 -2.377500295639038086e+00
3.080000000000000000e+03 6.114335250854492188e+01 3.966943502426147461e+00 -3.959601521492004395e-01 5.356771469116210938e+00 1.488243341445922852e+00 -1.682840824127197266e+00
3.081000000000000000e+03 4.983937072753906250e+01 -1.083686828613281250e+01 1.605785965919494629e+00 5.723210334777832031e+00 2.198698759078979492e+00 1.778063774108886719e+00
3.082000000000000000e+03 3.854132843017578125e+01 1.819068145751953125e+01 2.297672927379608154e-01 9.043320417404174805e-01 3.402298092842102051e-01 -1.162047505378723145e+00
3.083000000000000000e+03 5.811848831176757812e+01 4.425260543823242188e+00 -2.143940478563308716e-01 6.212663173675537109e+00 1.799480795860290527e+00 -6.385235786437988281e-01
3.084000000000000000e+03 6.293799972534179688e+01 4.639331340789794922e+00 -5.442786216735839844e-01 3.818135261535644531e+00 9.821569919586181641e-01 -1.148387789726257324e+00
3.085000000000000000e+03 7.369561004638671875e+01 -3.027043533325195312e+01 4.254177510738372803e-01 5.552464008331298828e+00 1.793364524841308594e+00 7.983235716819763184e-01
3.086000000000000000e+03 6.078051757812500000e+01 -1.265961933135986328e+01 -1.673859119415283203e+00 6.036498546600341797e+00 1.308791756629943848e+00 1.152360677719116211e+00
3.087000000000000000e+03 5.705010604858398438e+01 -1.319447231292724609e+01 -6.292763948440551758e-01 3.647104740142822266e+00 9.053484797477722168e-01 -1.050914883613586426e+00
3.088000000000000000e+03 3.991507768630981445e+00 -2.638038825988769531e+01 -6.096281111240386963e-03 -2.722364962100982666e-01 -8.349983394145965576e-02 8.781286887824535370e-03
3.089000000000000000e+03 5.950867843627929688e+01 6.023399829864501953e+00 -6.571949720382690430e-01 6.512969970703125000e+00 1.756732583045959473e+00 -1.190219879150390625e+00
3.090000000000000000e+03 2.647523880004882812e+01 5.862634658813476562e+00 6.260246038436889648e-02 1.613409221172332764e-01 6.718301773071289062e-02 1.123542934656143188e-01
3.091000000000000000e+03 5.754503250122070312e+01 1.609094619750976562e+01 2.107413768768310547e+00 7.211403846740722656e+00 2.795645236968994141e+00 6.007229089736938477e-01
3.092000000000000000e+03 5.905618286132812500e+01 1.682104301452636719e+01 2.589778423309326172e+00 7.903579235076904297e+00 3.148007392883300781e+00 1.591246962547302246e+00
3.093000000000000000e+03 5.241438293457031250e+01 -2.971868896484375000e+01 1.299190282821655273e+00 4.147034168243408203e+00 1.633867383003234863e+00 5.980012416839599609e-01
3.094000000000000000e+03 7.221074676513671875e+01 -2.912920951843261719e+01 6.182968020439147949e-01 4.178767204284667969e+00 1.439119219779968262e+00 1.202224493026733398e+00
3.095000000000000000e+03 2.109896087646484375e+01 3.217119979858398438e+01 1.947613619267940521e-02 2.352147251367568970e-01 7.640726119279861450e-02 -2.933096513152122498e-02
3.096000000000000000e+03 3.328141403198242188e+01 -3.478951263427734375e+01 6.881988048553466797e-01 1.069194912910461426e+00 5.272181630134582520e-01 5.052714943885803223e-01
3.097000000000000000e+03 3.406066656112670898e+00 6.190976619720458984e+00 -9.409575909376144409e-02 -1.167781278491020203e-02 -3.173207119107246399e-02 3.098082356154918671e-02
3.098000000000000000e+03 6.571196746826171875e+01 7.294786721467971802e-02 9.368761181831359863e-01 4.324969768524169922e+00 1.578553795814514160e+00 1.444982767105102539e+00
3.099000000000000000e+03 2.186687278747558594e+01 6.678886413574218750e+00 1.828705668449401855e-01 -1.264813840389251709e-01 1.691675558686256409e-02 1.303874254226684570e-01
3.100000000000000000e+03 4.254782867431640625e+01 -2.569649505615234375e+01 7.058830857276916504e-01 1.672086000442504883e+00 7.133907079696655273e-01 1.551757574081420898e+00
3.101000000000000000e+03 4.350638198852539062e+01 -2.565322685241699219e+01 3.901845514774322510e-01 1.425310850143432617e+00 5.446486473083496094e-01 1.044691920280456543e+00
3.102000000000000000e+03 7.552680969238281250e+00 8.243601799011230469e+00 -4.054558873176574707e-01 -1.960130184888839722e-01 -1.804406642913818359e-01 2.274148613214492798e-01
3.103000000000000000e+03 7.083291530609130859e+00 6.287693977355957031e+00 -2.941202521324157715e-01 -1.178082898259162903e-01 -1.235785633325576782e-01 9.484293311834335327e-02
3.104000000000000000e+03 2.675098228454589844e+01 -2.027952766418457031e+01 3.129867315292358398e-01 4.929144978523254395e-01 2.417703717947006226e-01 2.093160338699817657e-02
3.105000000000000000e+03 2.565616607666015625e+01 -1.984116935729980469e+01 2.922439873218536377e-01 2.176078408956527710e-01 1.529555469751358032e-01 -8.170686662197113037e-02
3.106000000000000000e+03 1.753242683410644531e+01 -2.011830139160156250e+01 -2.762362658977508545e-01 -6.424704194068908691e-02 -1.021449938416481018e-01 -4.926783442497253418e-01
3.107000000000000000e+03 2.397746467590332031e+01 9.146915435791015625e+00 3.759542405605316162e-01 -6.508620828390121460e-02 9.326041489839553833e-02 1.607265770435333252e-01
3.108000000000000000e+03 4.665696334838867188e+01 5.152158260345458984e+00 -1.314251899719238281e+00 3.820757865905761719e+00 7.519518136978149414e-01 -2.923144102096557617e+00
3.109000000000000000e+03 2.630194091796875000e+01 -1.760509490966796875e+01 3.974036499857902527e-02 9.582552313804626465e-02 4.066976532340049744e-02 -1.174224764108657837e-01
3.110000000000000000e+03 4.234178161621093750e+01 -2.099461555480957031e+01 1.153716444969177246e+00 2.462768316268920898e+00 1.084945440292358398e+00 1.472393155097961426e+00
3.111000000000000000e+03 1.428692626953125000e+01 -6.307231426239013672e+00 7.370533049106597900e-02 1.352039277553558350e-01 6.267277896404266357e-02 -8.403325825929641724e-02
3.112000000000000000e+03 4.447283554077148438e+01 -2.557618713378906250e+01 8.512784540653228760e-02 1.760210514068603516e+00 5.536015033721923828e-01 4.317997395992279053e-01
3.113000000000000000e+03 7.487828063964843750e+01 2.728902816772460938e+00 -3.755243420600891113e-01 6.365833282470703125e+00 1.797092676162719727e+00 -6.733536124229431152e-01
3.114000000000000000e+03 2.671849822998046875e+01 -2.847916984558105469e+01 2.133555561304092407e-01 5.414083003997802734e-01 2.264291495084762573e-01 -1.869620829820632935e-01
3.115000000000000000e+03 5.051844406127929688e+01 -5.072608470916748047e+00 9.890975952148437500e-01 1.006451606750488281e+01 3.316084146499633789e+00 1.112468600273132324e+00
3.116000000000000000e+03 5.040280532836914062e+01 -3.599557638168334961e+00 3.438348770141601562e-01 1.127832126617431641e+01 3.486646890640258789e+00 7.528725862503051758e-01
3.117000000000000000e+03 3.998981475830078125e+01 1.215352916717529297e+01 1.345132470130920410e+00 7.341169714927673340e-01 6.237748265266418457e-01 -1.133829474449157715e+00
3.118000000000000000e+03 1.151306343078613281e+01 -4.586361885070800781e+00 1.354638300836086273e-02 -7.484114170074462891e-02 -1.838842779397964478e-02 -1.257334947586059570e-01
3.119000000000000000e+03 1.024485206604003906e+01 -1.013741779327392578e+01 -1.301805675029754639e-02 -1.018044874072074890e-01 -3.444676473736763000e-02 -1.135633736848831177e-01
3.120000000000000000e+03 7.471387481689453125e+01 3.278473663330078125e+01 2.782621979713439941e-01 6.420886993408203125e+00 2.009744644165039062e+00 2.110885977745056152e-01
3.121000000000000000e+03 7.434364318847656250e+01 2.827680015563964844e+01 3.608355224132537842e-01 6.122545719146728516e+00 1.945014357566833496e+00 -2.732069492340087891e-01
3.122000000000000000e+03 2.699142646789550781e+01 4.589379787445068359e+00 -2.069489806890487671e-01 2.625084221363067627e-01 1.666783168911933899e-02 1.776328533887863159e-01
3.123000000000000000e+03 7.457918548583984375e+01 1.531398296356201172e+01 5.141072273254394531e-01 8.613049507141113281e+00 2.738147020339965820e+00 1.128697037696838379e+00
3.124000000000000000e+03 7.418386077880859375e+01 -3.167473602294921875e+01 5.012264847755432129e-01 5.888016223907470703e+00 1.916772842407226562e+00 2.819691598415374756e-01
3.125000000000000000e+03 7.569787597656250000e+01 -2.875565910339355469e+01 -6.274705529212951660e-01 7.335028171539306641e+00 2.012267351150512695e+00 4.855095446109771729e-01
3.126000000000000000e+03 2.043560600280761719e+01 -1.785140228271484375e+01 -1.530255526304244995e-01 -6.864744424819946289e-02 -6.650190055370330811e-02 -5.688775777816772461e-01
3.127000000000000000e+03 2.066753387451171875e+01 -1.617856407165527344e+01 -3.436008989810943604e-01 -7.435678690671920776e-02 -1.253872960805892944e-01 -5.032649636268615723e-01
3.128000000000000000e+03 7.428601837158203125e+01 2.236882972717285156e+01 -8.253737092018127441e-01 6.732810974121093750e+00 1.772231221199035645e+00 -3.607026040554046631e-01
3.129000000000000000e+03 7.546497344970703125e+01 2.524235343933105469e+01 -6.140939891338348389e-02 6.749152183532714844e+00 2.006322860717773438e+00 -4.756135344505310059e-01
3.130000000000000000e+03 7.556225585937500000e+01 2.665418052673339844e+01 7.526642084121704102e-02 6.631496906280517578e+00 2.012028932571411133e+00 -4.130428135395050049e-01
3.131000000000000000e+03 7.248809814453125000e+01 2.479725837707519531e+01 -4.805633798241615295e-02 5.378525257110595703e+00 1.599140644073486328e+00 -8.171662688255310059e-01
3.132000000000000000e+03 7.340692138671875000e+01 1.930232238769531250e+01 -1.518391728401184082e+00 7.402764320373535156e+00 1.765311717987060547e+00 3.158805519342422485e-02
3.133000000000000000e+03 7.732610321044921875e+01 -2.463164710998535156e+01 3.358119428157806396e-01 8.065466880798339844e+00 2.520383596420288086e+00 -6.564311385154724121e-01
3.134000000000000000e+03 7.551386260986328125e+01 1.274067497253417969e+01 1.139178156852722168e+00 7.907661914825439453e+00 2.714051961898803711e+00 6.630250215530395508e-01
3.135000000000000000e+03 7.539949035644531250e+01 7.266730785369873047e+00 1.082195863127708435e-01 7.379750728607177734e+00 2.246391057968139648e+00 -7.834522128105163574e-01
3.136000000000000000e+03 7.334970092773437500e+01 5.222406387329101562e+00 -1.221254765987396240e-01 6.339276313781738281e+00 1.865145206451416016e+00 -2.335105650126934052e-02
3.137000000000000000e+03 7.136515045166015625e+01 3.073729753494262695e+00 3.419078290462493896e-01 3.636399030685424805e+00 1.193492054939270020e+00 1.013468503952026367e+00
3.138000000000000000e+03 7.446379089355468750e+01 4.003143310546875000e+00 -2.659863829612731934e-01 6.313237190246582031e+00 1.814175248146057129e+00 -6.522460579872131348e-01
3.139000000000000000e+03 7.601568603515625000e+01 1.953850936889648438e+01 -7.214535474777221680e-01 7.567606449127197266e+00 2.053845882415771484e+00 5.840041041374206543e-01
3.140000000000000000e+03 7.484214782714843750e+01 8.174529075622558594e+00 3.840669393539428711e-01 7.651305198669433594e+00 2.410611629486083984e+00 -5.834061503410339355e-01
3.141000000000000000e+03 7.488804626464843750e+01 4.762834608554840088e-01 -7.378007173538208008e-01 6.457741737365722656e+00 1.715982317924499512e+00 -9.528231620788574219e-01
3.142000000000000000e+03 7.525408172607421875e+01 9.355391502380371094e+00 9.000011682510375977e-01 7.756988525390625000e+00 2.597096920013427734e+00 -6.606311798095703125e-01
3.143000000000000000e+03 7.565559387207031250e+01 1.403262042999267578e+01 7.748224735260009766e-01 7.723924636840820312e+00 2.549624204635620117e+00 8.795300722122192383e-01
3.144000000000000000e+03 6.573408508300781250e+01 3.734057426452636719e+00 5.160471200942993164e-01 2.173443555831909180e+00 8.068472146987915039e-01 1.049189805984497070e+00
3.145000000000000000e+03 7.447190093994140625e+01 2.020964622497558594e+01 -1.169476866722106934e+00 7.287761211395263672e+00 1.835485219955444336e+00 1.334033757448196411e-01
3.146000000000000000e+03 7.261994171142578125e+01 -3.050837707519531250e+01 6.674541234970092773e-01 4.912737369537353516e+00 1.674057483673095703e+00 6.208619475364685059e-01
3.147000000000000000e+03 7.514247131347656250e+01 -3.285202407836914062e+01 4.027419984340667725e-01 6.399848461151123047e+00 2.040776968002319336e+00 1.224636584520339966e-01
3.148000000000000000e+03 7.270912933349609375e+01 -3.509299087524414062e+01 6.287462711334228516e-01 5.800510883331298828e+00 1.928777098655700684e+00 -6.395361423492431641e-01
3.149000000000000000e+03 3.830388259887695312e+01 1.656220626831054688e+01 6.167374849319458008e-01 9.405938386917114258e-01 4.671993851661682129e-01 -1.179624438285827637e+00
3.150000000000000000e+03 7.359240722656250000e+01 3.059752273559570312e+01 5.150273442268371582e-01 6.000025749206542969e+00 1.954515933990478516e+00 9.756521135568618774e-02
3.151000000000000000e+03 4.656206130981445312e+00 -3.075317764282226562e+01 -5.730093270540237427e-02 -3.131790161132812500e-01 -1.111439839005470276e-01 -8.025338500738143921e-02
3.152000000000000000e+03 3.838628768920898438e+00 -1.105121898651123047e+01 1.490753982216119766e-02 -1.529989242553710938e-01 -4.142741486430168152e-02 -1.904837228357791901e-02
3.153000000000000000e+03 5.140638828277587891e+00 -2.784461784362792969e+01 -6.013875082135200500e-02 -1.945069730281829834e-01 -7.639371603727340698e-02 -3.822870180010795593e-02
3.154000000000000000e+03 4.295905590057373047e+00 -2.801626968383789062e+01 -4.359039291739463806e-02 -2.752598822116851807e-01 -9.565508365631103516e-02 -1.282781269401311874e-02
3.155000000000000000e+03 7.112704467773437500e+01 6.196569919586181641e+00 2.073871940374374390e-01 5.585537910461425781e+00 1.737877488136291504e+00 1.849509954452514648e+00
3.156000000000000000e+03 7.333792877197265625e+01 7.655111789703369141e+00 2.417612820863723755e-01 7.754286766052246094e+00 2.398814439773559570e+00 1.123894006013870239e-01
3.157000000000000000e+03 5.751484298706054688e+01 -1.518970108032226562e+01 -5.901085138320922852e-01 4.969463825225830078e+00 1.313806653022766113e+00 -4.574501812458038330e-01
3.158000000000000000e+03 3.373097658157348633e+00 -2.319168663024902344e+01 1.105017662048339844e-01 -2.862330377101898193e-01 -5.271937698125839233e-02 -3.716034442186355591e-02
3.159000000000000000e+03 5.251781940460205078e+00 2.123688125610351562e+01 5.874422937631607056e-02 -4.859794676303863525e-01 -1.281705647706985474e-01 2.909742482006549835e-02
3.160000000000000000e+03 6.281139373779296875e+00 1.941630744934082031e+01 1.824781894683837891e-01 -3.782708048820495605e-01 -5.873777717351913452e-02 9.901081025600433350e-02
3.161000000000000000e+03 5.726187229156494141e+00 2.029809761047363281e+01 1.298434287309646606e-01 -4.361204802989959717e-01 -9.188311547040939331e-02 6.473789364099502563e-02
3.162000000000000000e+03 2.495149040222167969e+01 1.039029693603515625e+01 3.501398563385009766e-01 8.436112850904464722e-02 1.303502917289733887e-01 1.064648628234863281e-01
3.163000000000000000e+03 5.503743648529052734e+00 -2.633917999267578125e+01 -2.484041638672351837e-02 -1.287720799446105957e-01 -4.608374834060668945e-02 -2.336314320564270020e-02
3.164000000000000000e+03 3.493997573852539062e+00 -2.763638114929199219e+01 -2.724666520953178406e-02 -3.177283406257629395e-01 -1.034924983978271484e-01 -3.837649710476398468e-03
3.165000000000000000e+03 8.636662483215332031e+00 -3.338182449340820312e+01 -4.843934252858161926e-02 -2.140831202268600464e-01 -7.875673472881317139e-02 -2.021776437759399414e-01
3.166000000000000000e+03 6.327210426330566406e+00 1.584942054748535156e+01 2.759870290756225586e-01 -3.218536674976348877e-01 -1.375998836010694504e-02 3.261783719062805176e-01
3.167000000000000000e+03 5.891185283660888672e+00 1.385081768035888672e+01 9.870909154415130615e-02 -3.031405508518218994e-01 -6.132943555712699890e-02 4.217719733715057373e-01
3.168000000000000000e+03 5.807811737060546875e+00 -3.511496734619140625e+01 2.776615554466843605e-03 -3.581606447696685791e-01 -1.066152080893516541e-01 -1.507728248834609985e-01
3.169000000000000000e+03 7.874064922332763672e+00 -3.460596466064453125e+01 -7.711219601333141327e-03 -2.504265606403350830e-01 -7.744133472442626953e-02 -1.912458539009094238e-01
3.170000000000000000e+03 3.843361139297485352e+00 9.773423194885253906e+00 -1.159305274486541748e-01 -1.262020915746688843e-01 -7.263978570699691772e-02 2.438580095767974854e-01
3.171000000000000000e+03 6.151489257812500000e+00 1.170005130767822266e+01 -1.136400029063224792e-01 -2.167363315820693970e-01 -9.911289811134338379e-02 4.379462599754333496e-01
3.172000000000000000e+03 6.075710296630859375e+00 9.547410011291503906e+00 -2.781291604042053223e-01 -1.428368836641311646e-01 -1.262898147106170654e-01 3.175914585590362549e-01
3.173000000000000000e+03 7.235742950439453125e+01 3.497972488403320312e+01 5.624817684292793274e-02 6.065014839172363281e+00 1.836378931999206543e+00 4.496627748012542725e-01
3.174000000000000000e+03 7.024465942382812500e+01 3.449278259277343750e+01 6.166914477944374084e-02 5.714211940765380859e+00 1.732764363288879395e+00 5.777867436408996582e-01
3.175000000000000000e+03 4.759908199310302734e+00 -8.646935462951660156e+00 5.642544943839311600e-03 -1.357440799474716187e-01 -3.903046250343322754e-02 -5.252712592482566833e-02
3.176000000000000000e+03 5.487400531768798828e+00 7.986658573150634766e+00 -2.638439834117889404e-01 -8.992376923561096191e-02 -1.061303243041038513e-01 1.807532459497451782e-01
3.177000000000000000e+03 3.971662521362304688e+00 5.544675350189208984e+00 -1.145043894648551941e-01 -1.242418959736824036e-02 -3.807857260107994080e-02 1.351225748658180237e-02
3.178000000000000000e+03 5.431521892547607422e+00 6.943019866943359375e+00 -2.264648377895355225e-01 -6.612862646579742432e-02 -8.777803927659988403e-02 1.037717163562774658e-01
3.179000000000000000e+03 6.182256221771240234e+00 -5.044506072998046875e+00 1.977584091946482658e-03 -1.077982783317565918e-01 -3.174620866775512695e-02 -9.101309627294540405e-02
3.180000000000000000e+03 4.513216972351074219e+00 -6.142370700836181641e+00 -2.120110206305980682e-03 -1.019331589341163635e-01 -3.121598064899444580e-02 -6.070136278867721558e-02
3.181000000000000000e+03 4.191427612304687500e+01 -1.783580207824707031e+01 4.730034172534942627e-01 1.159040331840515137e+00 4.896131157875061035e-01 1.783464252948760986e-01
3.182000000000000000e+03 2.399612236022949219e+01 1.115989398956298828e+01 3.044243156909942627e-01 5.740982666611671448e-02 1.085502430796623230e-01 1.407550573348999023e-01
3.183000000000000000e+03 2.279853820800781250e+01 8.535809516906738281e+00 3.835481405258178711e-01 -1.327399611473083496e-01 7.524245232343673706e-02 2.119912952184677124e-01
3.184000000000000000e+03 6.782036781311035156e+00 -1.199486732482910156e+01 -5.417076498270034790e-02 -2.049060910940170288e-01 -7.772305607795715332e-02 -9.943448752164840698e-02
3.185000000000000000e+03 6.462744903564453125e+01 -1.192312145233154297e+01 -1.203710556030273438e+00 6.868070125579833984e+00 1.699307918548583984e+00 5.059167370200157166e-02
3.186000000000000000e+03 3.596522140502929688e+01 1.523991012573242188e+01 7.351509332656860352e-01 5.857299566268920898e-01 3.962642550468444824e-01 -7.125757932662963867e-01
3.187000000000000000e+03 5.998136520385742188e+01 -2.287164497375488281e+01 2.403208017349243164e+00 3.390345335006713867e+00 1.738066077232360840e+00 1.906140446662902832e-01
3.188000000000000000e+03 3.466940689086914062e+01 -1.044564151763916016e+01 -1.338299363851547241e-01 4.371363222599029541e-01 9.099191427230834961e-02 3.553849160671234131e-01
3.189000000000000000e+03 5.234295272827148438e+01 2.187760353088378906e+01 -1.537760496139526367e+00 4.859858989715576172e+00 9.966295361518859863e-01 -2.055304765701293945e+00
3.190000000000000000e+03 5.439873504638671875e+01 2.091188621520996094e+01 -1.741843342781066895e+00 4.999784469604492188e+00 9.773823022842407227e-01 -2.768060922622680664e+00
3.191000000000000000e+03 5.601525497436523438e+01 1.898017311096191406e+01 1.030409783124923706e-01 4.767997264862060547e+00 1.461311459541320801e+00 -1.786396503448486328e+00
3.192000000000000000e+03 5.321148300170898438e+01 2.274150848388671875e+01 -1.560702443122863770e+00 5.449291229248046875e+00 1.166576623916625977e+00 -1.954584002494812012e+00
3.193000000000000000e+03 5.160549545288085938e+01 2.458626556396484375e+01 1.567327231168746948e-01 5.020993232727050781e+00 1.553317785263061523e+00 -8.851611614227294922e-01
3.194000000000000000e+03 6.236170959472656250e+01 -1.921320533752441406e+01 1.143815755844116211e+00 6.630079746246337891e+00 2.332168579101562500e+00 -1.306623220443725586e+00
3.195000000000000000e+03 6.035952377319335938e+01 -1.848224258422851562e+01 1.194037079811096191e+00 5.596887588500976562e+00 2.037277460098266602e+00 -2.534965574741363525e-01
3.196000000000000000e+03 1.159943866729736328e+01 -2.605049324035644531e+01 1.754840253852307796e-03 -2.541998028755187988e-01 -7.573348283767700195e-02 -2.613765597343444824e-01
3.197000000000000000e+03 5.386836242675781250e+01 -1.403532886505126953e+01 -1.303743839263916016e+00 3.948080539703369141e+00 7.933009862899780273e-01 -2.583148956298828125e+00
3.198000000000000000e+03 5.630201339721679688e+01 -1.368692970275878906e+01 -5.731010437011718750e-01 3.915653467178344727e+00 1.002765774726867676e+00 -1.606213450431823730e+00
3.199000000000000000e+03 2.061001014709472656e+01 -2.358895111083984375e+01 1.628372073173522949e-01 1.211790516972541809e-01 8.520487695932388306e-02 -2.086077481508255005e-01
3.200000000000000000e+03 4.980436706542968750e+01 2.798610115051269531e+01 1.569124341011047363e+00 4.475992202758789062e+00 1.813534975051879883e+00 -5.392967462539672852e-01
3.201000000000000000e+03 6.657313537597656250e+01 2.996512174606323242e+00 7.390817403793334961e-01 2.294468641281127930e+00 9.100651741027832031e-01 1.730714440345764160e+00
3.202000000000000000e+03 5.258916473388671875e+01 3.669564723968505859e+00 -1.067463874816894531e+00 5.765295028686523438e+00 1.409349322319030762e+00 3.438401699066162109e+00
3.203000000000000000e+03 5.198331832885742188e+01 -1.283281326293945312e+01 -1.244654580950737000e-01 3.242304086685180664e+00 9.353516101837158203e-01 -9.821735620498657227e-01
3.204000000000000000e+03 5.256162261962890625e+01 -1.380915164947509766e+01 -8.405767083168029785e-01 2.526678800582885742e+00 5.058306455612182617e-01 -1.923601269721984863e+00
3.205000000000000000e+03 2.590563774108886719e+01 3.297603988647460938e+01 2.499937415122985840e-01 7.103477120399475098e-01 2.881024479866027832e-01 -6.959342211484909058e-02
3.206000000000000000e+03 2.361764907836914062e+01 3.606546401977539062e+01 8.193447440862655640e-02 5.526982545852661133e-01 1.903898268938064575e-01 -1.255609393119812012e-01
3.207000000000000000e+03 5.798845672607421875e+01 1.722660636901855469e+01 1.773385763168334961e+00 6.678069591522216797e+00 2.535436630249023438e+00 3.635119497776031494e-01
3.208000000000000000e+03 4.232389450073242188e+01 -1.690935897827148438e+01 4.076844155788421631e-01 1.182689905166625977e+00 4.771122932434082031e-01 4.074784517288208008e-01
3.209000000000000000e+03 5.057614135742187500e+01 2.654096794128417969e+01 1.668578743934631348e+00 4.501757621765136719e+00 1.851100802421569824e+00 -4.485566914081573486e-01
3.210000000000000000e+03 4.098632049560546875e+01 1.188356971740722656e+01 1.505864143371582031e+00 1.498524546623229980e+00 9.013165831565856934e-01 -1.182683587074279785e+00
3.211000000000000000e+03 1.966821861267089844e+01 -1.826356887817382812e+01 -1.684377193450927734e-01 -2.739012800157070160e-02 -5.874835699796676636e-02 -5.897575020790100098e-01
3.212000000000000000e+03 4.035183334350585938e+01 1.108522319793701172e+01 1.286559104919433594e+00 8.388251066207885742e-01 6.376152634620666504e-01 -9.386147260665893555e-01
3.213000000000000000e+03 2.485795783996582031e+01 -2.488764953613281250e+01 3.280795514583587646e-01 4.140020012855529785e-01 2.226244658231735229e-01 -4.936335235834121704e-02
3.214000000000000000e+03 5.993378067016601562e+01 3.587723493576049805e+00 -3.309686779975891113e-01 5.795530796051025391e+00 1.639368653297424316e+00 -1.653019428253173828e+00
3.215000000000000000e+03 5.952576446533203125e+01 4.845471382141113281e+00 -3.937485218048095703e-01 6.147362232208251953e+00 1.726084113121032715e+00 -1.387639045715332031e+00
3.216000000000000000e+03 6.126929473876953125e+01 -2.008317565917968750e+01 2.117836236953735352e+00 5.267989158630371094e+00 2.215747594833374023e+00 -9.343260526657104492e-01
3.217000000000000000e+03 6.116989517211914062e+01 -2.100861167907714844e+01 2.639231204986572266e+00 4.582558155059814453e+00 2.166536808013916016e+00 -9.448638558387756348e-01
3.218000000000000000e+03 6.245944595336914062e+01 -1.665415382385253906e+01 -9.446766972541809082e-01 6.649445056915283203e+00 1.711430430412292480e+00 3.920675814151763916e-02
3.219000000000000000e+03 5.683102798461914062e+01 7.849855899810791016e+00 4.824983775615692139e-01 8.815551757812500000e+00 2.789415121078491211e+00 3.835173547267913818e-01
3.220000000000000000e+03 5.375401973724365234e+00 1.862047386169433594e+01 1.751698106527328491e-01 -4.371639490127563477e-01 -7.859823852777481079e-02 1.157660037279129028e-01
3.221000000000000000e+03 7.137395477294921875e+01 1.775116324424743652e+00 5.013533234596252441e-01 2.840259313583374023e+00 1.002483844757080078e+00 4.817512929439544678e-01
3.222000000000000000e+03 7.314743041992187500e+01 3.928029298782348633e+00 -1.275700330734252930e-01 5.537548542022705078e+00 1.622993588447570801e+00 -1.197399944067001343e-01
3.223000000000000000e+03 5.835545730590820312e+01 -1.804090881347656250e+01 1.079488515853881836e+00 5.627227306365966797e+00 2.012014627456665039e+00 5.990749970078468323e-02
3.224000000000000000e+03 7.064760589599609375e+01 4.900716781616210938e+00 1.853533238172531128e-01 4.115491390228271484e+00 1.290253400802612305e+00 1.715768814086914062e+00
3.225000000000000000e+03 7.278492736816406250e+01 6.696172714233398438e+00 6.999624520540237427e-02 7.010163307189941406e+00 2.124047994613647461e+00 2.670128047466278076e-01
3.226000000000000000e+03 5.671995925903320312e+01 2.048128509521484375e+01 -5.304602384567260742e-01 3.645400285720825195e+00 9.344819784164428711e-01 -2.063775300979614258e+00
3.227000000000000000e+03 3.735971832275390625e+01 1.919996070861816406e+01 -4.294653236865997314e-02 1.124099850654602051e+00 3.243459761142730713e-01 -1.085245728492736816e+00
3.228000000000000000e+03 3.515881347656250000e+01 -3.442157363891601562e+01 7.434967160224914551e-01 1.621082663536071777e+00 7.093737721443176270e-01 8.532641530036926270e-01
3.229000000000000000e+03 6.921797943115234375e+01 -3.389179611206054688e+01 1.170506477355957031e+00 5.643018722534179688e+00 2.044057607650756836e+00 -1.469958424568176270e+00
3.230000000000000000e+03 5.500948333740234375e+01 1.877500915527343750e+01 -3.148529231548309326e-01 4.963018894195556641e+00 1.394449830055236816e+00 -2.118351697921752930e+00
3.231000000000000000e+03 2.832443618774414062e+01 -3.051863098144531250e+01 2.322616577148437500e-01 5.583975911140441895e-01 2.371977865695953369e-01 -2.546230554580688477e-01
3.232000000000000000e+03 6.596804809570312500e+01 -1.374561214447021484e+01 -1.299750566482543945e+00 3.900601625442504883e+00 7.802553176879882812e-01 1.179871112108230591e-01
3.233000000000000000e+03 2.906734275817871094e+01 -3.530054473876953125e+01 2.980426549911499023e-01 6.863496899604797363e-01 2.953176796436309814e-01 1.227906197309494019e-01
3.234000000000000000e+03 1.111288642883300781e+01 2.024226570129394531e+01 2.204254269599914551e-01 1.365664750337600708e-01 1.070975661277770996e-01 2.699666619300842285e-01
3.235000000000000000e+03 4.765621566772460938e+01 3.365665435791015625e+01 4.130196198821067810e-02 3.673702716827392578e+00 1.114501357078552246e+00 -8.691990971565246582e-01
3.236000000000000000e+03 3.491117477416992188e+01 -3.897835922241210938e+01 -2.671397924423217773e-01 1.782488465309143066e+00 4.546045958995819092e-01 3.240792751312255859e-01
3.237000000000000000e+03 1.085315132141113281e+01 3.836303329467773438e+01 8.638458326458930969e-03 2.669986709952354431e-02 1.060149725526571274e-02 1.123332381248474121e-01
3.238000000000000000e+03 5.605520629882812500e+01 3.137427806854248047e+00 4.285531044006347656e-01 5.033743381500244141e+00 1.638689041137695312e+00 1.861200571060180664e+00
3.239000000000000000e+03 2.578330230712890625e+01 1.263021278381347656e+01 2.376200407743453979e-01 1.854046136140823364e-01 1.269073933362960815e-01 1.451040431857109070e-02
3.240000000000000000e+03 6.929399871826171875e+01 2.363799095153808594e+00 8.350000977516174316e-01 2.130128622055053711e+00 8.895385861396789551e-01 1.824981927871704102e+00
3.241000000000000000e+03 5.051263046264648438e+01 2.284391403198242188e+01 -4.102581739425659180e-01 3.643565416336059570e+00 9.699921607971191406e-01 -1.197031378746032715e+00
3.242000000000000000e+03 2.735074043273925781e+01 4.117757797241210938e+01 -4.983655735850334167e-02 8.802666664123535156e-01 2.491290420293807983e-01 -3.951637074351310730e-02
3.243000000000000000e+03 2.513178443908691406e+01 3.483238983154296875e+01 9.696425497531890869e-02 6.852779388427734375e-01 2.346726506948471069e-01 -1.069881394505500793e-01
3.244000000000000000e+03 3.044439697265625000e+01 3.803203964233398438e+01 -8.390697091817855835e-02 1.124186754226684570e+00 3.120839595794677734e-01 -4.233754798769950867e-02
3.245000000000000000e+03 7.226966094970703125e+01 4.137551116943359375e+01 -3.414862155914306641e-01 6.267751216888427734e+00 1.777879476547241211e+00 8.740823715925216675e-02
3.246000000000000000e+03 6.448287010192871094e+00 1.777354049682617188e+01 2.950183451175689697e-01 -3.353524804115295410e-01 -1.210024207830429077e-02 1.797147542238235474e-01
3.247000000000000000e+03 7.138554573059082031e+00 1.884299468994140625e+01 2.582269310951232910e-01 -2.892735302448272705e-01 -9.313985705375671387e-03 1.259303689002990723e-01
3.248000000000000000e+03 5.511124038696289062e+01 1.758888244628906250e+01 5.151877403259277344e-01 5.430619239807128906e+00 1.783742070198059082e+00 -1.599838256835937500e+00
3.249000000000000000e+03 5.828260040283203125e+01 1.830427932739257812e+01 1.474504947662353516e+00 5.948445796966552734e+00 2.226885318756103516e+00 4.089762270450592041e-01
3.250000000000000000e+03 6.855593872070312500e+01 3.242711257934570312e+01 5.615921020507812500e-01 5.376540184020996094e+00 1.781439661979675293e+00 8.232809305191040039e-01
3.251000000000000000e+03 6.676644134521484375e+01 3.326343917846679688e+01 1.338071227073669434e-01 5.278839588165283203e+00 1.623794078826904297e+00 8.394819498062133789e-01
3.252000000000000000e+03 9.025965690612792969e+00 -3.215990447998046875e+01 -9.901393949985504150e-02 -1.825530380010604858e-01 -8.447009325027465820e-02 -1.916220188140869141e-01
3.253000000000000000e+03 4.879489135742187500e+01 2.520198249816894531e+01 1.104993224143981934e+00 3.620013475418090820e+00 1.417502045631408691e+00 -7.757105678319931030e-02
3.254000000000000000e+03 4.896792602539062500e+01 2.382407951354980469e+01 3.980959057807922363e-01 3.360695362091064453e+00 1.127637386322021484e+00 -3.616265654563903809e-01
3.255000000000000000e+03 3.250505065917968750e+01 -1.220073699951171875e+01 -5.957087874412536621e-01 2.794889211654663086e-01 -9.486596286296844482e-02 4.584948718547821045e-01
3.256000000000000000e+03 3.574925994873046875e+01 1.832852745056152344e+01 1.941616684198379517e-01 1.246380686759948730e+00 4.321627020835876465e-01 -7.944955825805664062e-01
3.257000000000000000e+03 6.465461730957031250e+01 2.252455329895019531e+01 -1.161060690879821777e+00 4.210513591766357422e+00 9.148358702659606934e-01 2.735680580139160156e+00
3.258000000000000000e+03 6.564073181152343750e+01 2.595367813110351562e+01 1.933576345443725586e+00 4.914188385009765625e+00 2.054329395294189453e+00 1.232651233673095703e+00
3.259000000000000000e+03 6.655624389648437500e+01 2.442856407165527344e+01 1.176234245300292969e+00 3.311150312423706055e+00 1.346215367317199707e+00 7.533065676689147949e-01
3.260000000000000000e+03 5.156336212158203125e+01 2.088330078125000000e+01 -1.358740329742431641e+00 3.923203468322753906e+00 7.693389058113098145e-01 -2.051261663436889648e+00
3.261000000000000000e+03 4.352465438842773438e+01 -2.367476081848144531e+01 8.504747748374938965e-01 2.728896856307983398e+00 1.073811531066894531e+00 1.743396878242492676e+00
3.262000000000000000e+03 4.065257263183593750e+01 1.774771881103515625e+01 1.699738502502441406e-01 1.404734849929809570e+00 4.724125862121582031e-01 -1.001005411148071289e+00
3.263000000000000000e+03 6.992231750488281250e+01 3.078298187255859375e+01 9.498529434204101562e-01 5.207214832305908203e+00 1.847120285034179688e+00 5.571213960647583008e-01
3.264000000000000000e+03 3.353844833374023438e+01 3.344238662719726562e+01 -4.320044815540313721e-02 1.681448459625244141e+00 4.914743900299072266e-01 -1.058291718363761902e-01
3.265000000000000000e+03 3.200541305541992188e+01 3.257318878173828125e+01 1.409083455801010132e-01 1.472885727882385254e+00 4.841382205486297607e-01 -3.125299811363220215e-01
3.266000000000000000e+03 7.412046909332275391e+00 1.683184242248535156e+01 3.851741850376129150e-01 -2.284600585699081421e-01 4.701424017548561096e-02 2.569479644298553467e-01
3.267000000000000000e+03 6.335640716552734375e+01 -1.116933917999267578e+01 -1.171480178833007812e+00 7.453938961029052734e+00 1.884737730026245117e+00 5.722894072532653809e-01
3.268000000000000000e+03 6.303796005249023438e+01 -1.242819023132324219e+01 -1.472090959548950195e+00 6.827272891998291016e+00 1.606554508209228516e+00 9.915297627449035645e-01
3.269000000000000000e+03 9.690203666687011719e+00 -2.818998527526855469e+01 -9.390002489089965820e-02 -1.583479493856430054e-01 -7.567439228296279907e-02 -1.833947598934173584e-01
3.270000000000000000e+03 5.221189880371093750e+01 -3.248970794677734375e+01 2.296919345855712891e+00 5.230118751525878906e+00 2.258111476898193359e+00 6.708737611770629883e-01
3.271000000000000000e+03 4.775491333007812500e+01 -3.454274415969848633e+00 1.328341245651245117e+00 1.637145161628723145e+00 8.896459341049194336e-01 4.680874049663543701e-01
3.272000000000000000e+03 4.967074203491210938e+01 -3.177257061004638672e+00 5.621786117553710938e-01 8.709587097167968750e+00 2.781529664993286133e+00 1.717162489891052246e+00
3.273000000000000000e+03 4.870166397094726562e+01 -3.862543821334838867e+00 1.050681591033935547e+00 4.423878192901611328e+00 1.642367959022521973e+00 1.322648644447326660e+00
3.274000000000000000e+03 4.902189636230468750e+01 -4.381384372711181641e+00 9.893304705619812012e-01 5.696581840515136719e+00 2.005773782730102539e+00 1.367181420326232910e+00
3.275000000000000000e+03 7.509574413299560547e+00 -6.156632900238037109e+00 2.314898557960987091e-02 -1.260033696889877319e-01 -3.085631690919399261e-02 -1.132664680480957031e-01
3.276000000000000000e+03 6.222253322601318359e+00 -6.460057735443115234e+00 2.563022822141647339e-02 -1.273452341556549072e-01 -3.051450289785861969e-02 -8.127394318580627441e-02
3.277000000000000000e+03 4.712362289428710938e+00 -7.376430511474609375e+00 3.317718952894210815e-02 -1.012841686606407166e-01 -2.043209411203861237e-02 -3.715710714459419250e-02
3.278000000000000000e+03 7.286433219909667969e+00 4.969563484191894531e+00 -2.147106677293777466e-01 -9.176462143659591675e-02 -9.194258600473403931e-02 2.886500582098960876e-02
3.279000000000000000e+03 5.485647201538085938e+00 5.889489650726318359e+00 -1.916679143905639648e-01 -5.558094009757041931e-02 -7.417465746402740479e-02 4.579579085111618042e-02
3.280000000000000000e+03 1.017723751068115234e+01 -6.094260692596435547e+00 -1.014045067131519318e-02 -1.075436845421791077e-01 -3.530523926019668579e-02 -1.744863688945770264e-01
3.281000000000000000e+03 1.033166790008544922e+01 -4.979546546936035156e+00 1.844163984060287476e-02 -1.022003069519996643e-01 -2.512759901583194733e-02 -1.302337050437927246e-01
3.282000000000000000e+03 7.955438613891601562e+00 4.545376300811767578e+00 -2.053889483213424683e-01 -1.028052940964698792e-01 -9.245827049016952515e-02 4.339119046926498413e-02
3.283000000000000000e+03 8.636698722839355469e+00 6.399154663085937500e+00 -3.936680555343627930e-01 -2.088301181793212891e-01 -1.807494461536407471e-01 1.441501975059509277e-01
3.284000000000000000e+03 4.815810012817382812e+01 2.116538763046264648e+00 1.360715150833129883e+00 2.541076660156250000e+00 1.170537471771240234e+00 -3.955684900283813477e+00
3.285000000000000000e+03 4.757060241699218750e+01 2.799838066101074219e+00 5.128067135810852051e-01 2.573039054870605469e+00 9.257537126541137695e-01 -3.602093458175659180e+00
3.286000000000000000e+03 2.498391532897949219e+01 6.634461402893066406e+00 1.447626650333404541e-01 -1.258299779146909714e-02 3.965389728546142578e-02 1.221649199724197388e-01
3.287000000000000000e+03 2.508390045166015625e+01 6.043371200561523438e+00 3.524246439337730408e-02 -4.462825506925582886e-02 -2.815737156197428703e-03 1.139852926135063171e-01
3.288000000000000000e+03 2.380640792846679688e+01 5.172165870666503906e+00 -2.223453074693679810e-01 -1.232808381319046021e-01 -1.036878451704978943e-01 1.535182446241378784e-01
3.289000000000000000e+03 4.935181808471679688e+01 2.987248897552490234e+00 6.226091086864471436e-02 4.671452999114990234e+00 1.420114159584045410e+00 -3.796928644180297852e+00
3.290000000000000000e+03 1.469611930847167969e+01 -5.083578109741210938e+00 4.963581264019012451e-02 8.527582883834838867e-02 4.047349095344543457e-02 -1.196302473545074463e-02
3.291000000000000000e+03 4.633489990234375000e+01 4.233223915100097656e+00 -5.999014377593994141e-01 3.015666723251342773e+00 7.247295379638671875e-01 -2.863090276718139648e+00
3.292000000000000000e+03 1.181674385070800781e+01 -5.597276210784912109e+00 6.110747531056404114e-02 -6.720942258834838867e-02 -1.830585650168359280e-03 -8.814102411270141602e-02
3.293000000000000000e+03 9.619964599609375000e+00 -6.101687908172607422e+00 4.062769189476966858e-02 -8.358437567949295044e-02 -1.288700569421052933e-02 -1.328680366277694702e-01
3.294000000000000000e+03 1.296456909179687500e+01 -6.999752998352050781e+00 4.581868648529052734e-02 8.684629201889038086e-02 3.979949653148651123e-02 -1.017303615808486938e-01
3.295000000000000000e+03 3.192530250549316406e+01 -8.094887733459472656e+00 5.785910785198211670e-02 -2.042060941457748413e-01 -4.390409588813781738e-02 2.873057872056961060e-02
3.296000000000000000e+03 2.546663665771484375e+01 -2.374462890625000000e+01 3.239060044288635254e-01 4.122070372104644775e-01 2.208339124917984009e-01 -4.300358146429061890e-02
3.297000000000000000e+03 4.788289642333984375e+01 3.569590330123901367e+00 -3.170970678329467773e-01 3.331955432891845703e+00 9.044575095176696777e-01 -4.007088184356689453e+00
3.298000000000000000e+03 6.148747253417968750e+01 2.974477291107177734e+00 -2.557743787765502930e-01 5.596051692962646484e+00 1.602083206176757812e+00 -1.532840132713317871e+00
3.299000000000000000e+03 6.091244125366210938e+01 5.092298030853271484e+00 -7.704021334648132324e-01 5.539272785186767578e+00 1.430661201477050781e+00 -1.625030159950256348e+00
3.300000000000000000e+03 1.158525943756103516e+01 -8.316879272460937500e+00 7.957728952169418335e-02 2.948838472366333008e-02 3.271970152854919434e-02 -1.157759055495262146e-01
3.301000000000000000e+03 1.213639450073242188e+01 -4.904852867126464844e+00 -4.428599029779434204e-03 2.091269381344318390e-02 4.945228341966867447e-03 -1.642637103796005249e-01
3.302000000000000000e+03 6.407283020019531250e+01 1.212496995925903320e+00 5.557247996330261230e-01 4.918664932250976562e+00 1.642316937446594238e+00 3.528750240802764893e-01
3.303000000000000000e+03 5.454035568237304688e+01 -1.366520690917968750e+01 -7.009586095809936523e-01 3.682084321975708008e+00 8.943377137184143066e-01 -2.424280405044555664e+00
3.304000000000000000e+03 5.957796096801757812e+01 -1.969381141662597656e+01 2.129060983657836914e+00 4.881362438201904297e+00 2.103127002716064453e+00 -1.360291987657546997e-01
3.305000000000000000e+03 6.138169860839843750e+01 -1.909741973876953125e+01 1.621793508529663086e+00 5.503239154815673828e+00 2.137509822845458984e+00 -8.785073757171630859e-01
3.306000000000000000e+03 4.903654479980468750e+01 3.713775634765625000e+00 -1.037286520004272461e+00 3.796647310256958008e+00 8.278082609176635742e-01 -3.780535221099853516e+00
3.307000000000000000e+03 1.266885662078857422e+01 -1.019122028350830078e+01 4.428093507885932922e-02 1.310405880212783813e-01 5.259645730257034302e-02 -1.035954803228378296e-01
3.308000000000000000e+03 2.807087898254394531e+01 -2.933399963378906250e+01 1.972553431987762451e-01 5.383694767951965332e-01 2.206874489784240723e-01 -2.517600953578948975e-01
3.309000000000000000e+03 4.970474720001220703e+00 -4.765011310577392578e+00 -7.885444909334182739e-03 -9.199337661266326904e-02 -2.996364608407020569e-02 -7.293331623077392578e-02
3.310000000000000000e+03 4.986076354980468750e+01 -4.163677692413330078e+00 8.144309520721435547e-01 8.589075088500976562e+00 2.821051836013793945e+00 1.380899310111999512e+00
3.311000000000000000e+03 5.025256729125976562e+01 -3.037191390991210938e+00 -5.510234460234642029e-02 1.151892662048339844e+01 3.439147472381591797e+00 1.420327782630920410e+00
3.312000000000000000e+03 2.567442512512207031e+01 6.767005443572998047e+00 1.768416911363601685e-01 2.321704104542732239e-02 6.001761928200721741e-02 9.610767662525177002e-02
3.313000000000000000e+03 2.509172439575195312e+01 8.356109619140625000e+00 3.318923115730285645e-01 3.372063860297203064e-03 1.005793139338493347e-01 1.130947247147560120e-01
3.314000000000000000e+03 2.080768394470214844e+01 -2.018899345397949219e+01 2.094909083098173141e-03 -3.685445338487625122e-02 -1.042786333709955215e-02 -4.493516385555267334e-01
3.315000000000000000e+03 7.305712127685546875e+01 -3.197791671752929688e+01 9.922098517417907715e-01 5.301308631896972656e+00 1.888055443763732910e+00 2.049757838249206543e-01
3.316000000000000000e+03 4.308271884918212891e+00 6.791225910186767578e+00 -1.559858769178390503e-01 -3.912159800529479980e-02 -5.853224545717239380e-02 8.151964843273162842e-02
3.317000000000000000e+03 1.338357734680175781e+01 -6.035234451293945312e+00 7.282327860593795776e-02 4.571339488029479980e-02 3.556100279092788696e-02 -5.516928806900978088e-02
3.318000000000000000e+03 7.282099914550781250e+01 2.202728271484375000e+01 -1.114801049232482910e+00 6.044485569000244141e+00 1.478905320167541504e+00 -8.363233208656311035e-01
3.319000000000000000e+03 3.648204421997070312e+01 1.734502792358398438e+01 3.945969343185424805e-01 9.785035848617553711e-01 4.119301438331604004e-01 -9.504308104515075684e-01
3.320000000000000000e+03 6.736267089843750000e+01 2.088485002517700195e+00 8.504127264022827148e-01 2.497923374176025391e+00 1.004500865936279297e+00 1.991706252098083496e+00
3.321000000000000000e+03 4.812276840209960938e+00 -1.072568321228027344e+01 -1.294354721903800964e-02 -1.822494268417358398e-01 -5.855789035558700562e-02 -3.755356743931770325e-02
3.322000000000000000e+03 2.455944442749023438e+01 -1.937937927246093750e+01 1.852540373802185059e-01 1.672727987170219421e-02 6.059439480304718018e-02 -2.516711950302124023e-01
3.323000000000000000e+03 5.693365097045898438e+01 6.892716884613037109e+00 6.364484317600727081e-03 8.125828742980957031e+00 2.439657926559448242e+00 1.203931681811809540e-02
3.324000000000000000e+03 2.486089515686035156e+01 1.190090751647949219e+01 2.258882820606231689e-01 1.442892402410507202e-01 1.110532581806182861e-01 9.910663217306137085e-02
3.325000000000000000e+03 6.251471328735351562e+01 -1.317255020141601562e+01 -1.830675840377807617e+00 6.742706775665283203e+00 1.473609328269958496e+00 1.003654360771179199e+00
3.326000000000000000e+03 3.467848205566406250e+01 -9.384840965270996094e+00 3.341532498598098755e-02 3.439402580261230469e-01 1.132066771388053894e-01 3.380959928035736084e-01
3.327000000000000000e+03 7.334441375732421875e+01 -2.892097282409667969e+01 -2.498796880245208740e-01 5.417773723602294922e+00 1.550368189811706543e+00 1.360481977462768555e+00
3.328000000000000000e+03 7.084371948242187500e+01 -3.235909652709960938e+01 1.459408879280090332e+00 4.756917476654052734e+00 1.864897966384887695e+00 -5.803802609443664551e-01
3.329000000000000000e+03 6.539951324462890625e+01 1.227017045021057129e+00 7.282993793487548828e-01 3.889379262924194336e+00 1.385303616523742676e+00 1.196707367897033691e+00
3.330000000000000000e+03 4.003851699829101562e+01 -1.565062713623046875e+01 -5.148365497589111328e-01 3.093594908714294434e-01 -6.164311990141868591e-02 -3.688327670097351074e-01
3.331000000000000000e+03 7.369612121582031250e+01 2.448589515686035156e+01 -2.162131816148757935e-01 6.177427768707275391e+00 1.788364410400390625e+00 -7.067669034004211426e-01
3.332000000000000000e+03 7.408020782470703125e+01 2.553584289550781250e+01 -2.695569954812526703e-02 6.122137069702148438e+00 1.828554391860961914e+00 -5.919939875602722168e-01
3.333000000000000000e+03 7.117635345458984375e+01 2.490010070800781250e+01 2.373056113719940186e-01 4.726020812988281250e+00 1.488997936248779297e+00 -8.916289806365966797e-01
3.334000000000000000e+03 7.137623596191406250e+01 2.611569404602050781e+01 5.773791670799255371e-01 4.740849494934082031e+00 1.595468640327453613e+00 -6.298623681068420410e-01
3.335000000000000000e+03 7.379596710205078125e+01 1.490198850631713867e+00 -3.028893470764160156e-01 5.160964488983154297e+00 1.457422494888305664e+00 -7.957826852798461914e-01
3.336000000000000000e+03 5.699969100952148438e+01 3.666414260864257812e+00 1.196815967559814453e-01 5.763609409332275391e+00 1.764987349510192871e+00 5.084382891654968262e-01
3.337000000000000000e+03 6.767904663085937500e+01 2.398036003112792969e+01 8.026858568191528320e-01 2.760899782180786133e+00 1.069075703620910645e+00 -1.612138897180557251e-01
3.338000000000000000e+03 2.163678932189941406e+01 -2.287460136413574219e+01 1.984403878450393677e-01 1.467967480421066284e-01 1.035711467266082764e-01 -1.743354946374893188e-01
3.339000000000000000e+03 1.993123054504394531e+01 -2.252540779113769531e+01 5.898602306842803955e-02 8.258306235074996948e-02 4.247072711586952209e-02 -2.494135200977325439e-01
3.340000000000000000e+03 6.383007526397705078e+00 -2.831875991821289062e+01 -8.345898985862731934e-02 -1.604161709547042847e-01 -7.316254824399948120e-02 -9.178098291158676147e-02
3.341000000000000000e+03 7.089372634887695312e+00 -2.767537879943847656e+01 -8.100134134292602539e-02 -1.268319636583328247e-01 -6.234999373555183411e-02 -1.094011813402175903e-01
3.342000000000000000e+03 4.677503108978271484e+00 -3.214647293090820312e+01 -4.142205789685249329e-02 -3.404388725757598877e-01 -1.145582795143127441e-01 -9.860092401504516602e-02
3.343000000000000000e+03 5.702235412597656250e+01 1.925652313232421875e+01 2.233893424272537231e-01 4.681608200073242188e+00 1.471499323844909668e+00 -1.236573457717895508e+00
3.344000000000000000e+03 5.790108680725097656e+00 -8.580396652221679688e+00 3.930342197418212891e-02 -1.409993916749954224e-01 -3.050878830254077911e-02 -4.913521185517311096e-02
3.345000000000000000e+03 7.323361968994140625e+01 3.332750320434570312e+01 2.932339608669281006e-01 6.107237815856933594e+00 1.920141577720642090e+00 3.606776595115661621e-01
3.346000000000000000e+03 6.707118034362792969e+00 8.556111335754394531e+00 -3.545025587081909180e-01 -1.451169550418853760e-01 -1.498858481645584106e-01 2.421989887952804565e-01
3.347000000000000000e+03 1.108950901031494141e+01 -5.343984127044677734e+00 -1.187664642930030823e-02 -3.737084567546844482e-02 -1.477424800395965576e-02 -1.526603996753692627e-01
3.348000000000000000e+03 5.846501827239990234e+00 -7.471950531005859375e+00 1.274211518466472626e-02 -1.265388727188110352e-01 -3.413902595639228821e-02 -7.994245737791061401e-02
3.349000000000000000e+03 5.273843002319335938e+01 -1.231415081024169922e+01 -3.119231164455413818e-01 3.916146516799926758e+00 1.081266999244689941e+00 -1.792054891586303711e+00
3.350000000000000000e+03 1.031107234954833984e+01 -2.704255676269531250e+01 -5.562110245227813721e-02 -1.487801820039749146e-01 -6.132038310170173645e-02 -2.180445641279220581e-01
3.351000000000000000e+03 7.364977264404296875e+01 2.126036071777343750e+01 -1.238998889923095703e+00 6.897440433502197266e+00 1.697532534599304199e+00 -4.466562271118164062e-01
3.352000000000000000e+03 5.870245742797851562e+01 -1.547444343566894531e+01 -3.542266190052032471e-01 5.390714168548583984e+00 1.510946273803710938e+00 2.607183754444122314e-01
3.353000000000000000e+03 5.785012054443359375e+01 -1.391505432128906250e+01 -5.931411981582641602e-01 4.059936046600341797e+00 1.040038466453552246e+00 -4.243747889995574951e-01
3.354000000000000000e+03 3.221113967895507812e+01 -3.120304107666015625e+01 6.262797117233276367e-01 3.908724188804626465e-01 3.051456212997436523e-01 -1.235130056738853455e-01
3.355000000000000000e+03 7.236630249023437500e+01 2.377221488952636719e+01 -4.285145103931427002e-01 5.575473785400390625e+00 1.544087767601013184e+00 -9.921879172325134277e-01
3.356000000000000000e+03 2.295858955383300781e+01 -1.823723030090332031e+01 -1.692486740648746490e-02 -1.437898427248001099e-01 -4.821441322565078735e-02 -4.384123980998992920e-01
3.357000000000000000e+03 7.913906097412109375e+00 -1.115842533111572266e+01 -3.517059609293937683e-02 -2.199361324310302734e-01 -7.653202116489410400e-02 -1.028711050748825073e-01
3.358000000000000000e+03 3.789523696899414062e+01 1.557961177825927734e+01 8.221879005432128906e-01 6.801810860633850098e-01 4.507106840610504150e-01 -1.038670778274536133e+00
3.359000000000000000e+03 5.806238937377929688e+01 -2.212776756286621094e+01 2.057855606079101562e+00 5.180403232574462891e+00 2.171477556228637695e+00 4.516129493713378906e-01
3.360000000000000000e+03 7.146481323242187500e+01 -3.074652481079101562e+01 1.428628921508789062e+00 4.169548034667968750e+00 1.679453134536743164e+00 3.512896299362182617e-01
3.361000000000000000e+03 4.197319412231445312e+01 -2.393830871582031250e+01 1.013744473457336426e+00 2.571976423263549805e+00 1.075716257095336914e+00 2.152843236923217773e+00
3.362000000000000000e+03 4.000511550903320312e+01 1.655089950561523438e+01 5.768395662307739258e-01 1.317931175231933594e+00 5.684311985969543457e-01 -1.209393739700317383e+00
3.363000000000000000e+03 6.895923614501953125e+01 -3.271744918823242188e+01 1.966419219970703125e+00 5.098269462585449219e+00 2.119406700134277344e+00 -1.653900384902954102e+00
3.364000000000000000e+03 7.241934204101562500e+01 2.282416343688964844e+01 -8.831714391708374023e-01 5.633166313171386719e+00 1.424998402595520020e+00 -9.407591223716735840e-01
3.365000000000000000e+03 2.894048500061035156e+01 -3.351488494873046875e+01 3.067052364349365234e-01 6.273352503776550293e-01 2.802121341228485107e-01 1.949199242517352104e-03
3.366000000000000000e+03 3.155070495605468750e+01 -3.725226593017578125e+01 2.467818409204483032e-01 1.074035406112670898e+00 3.962451815605163574e-01 3.665450215339660645e-01
3.367000000000000000e+03 3.269713973999023438e+01 -3.286755371093750000e+01 7.962660193443298340e-01 7.619484663009643555e-01 4.674643576145172119e-01 2.282904088497161865e-01
3.368000000000000000e+03 6.562638092041015625e+01 2.283799362182617188e+01 -1.271083801984786987e-01 3.019379615783691406e+00 8.676813840866088867e-01 1.806964993476867676e+00
3.369000000000000000e+03 2.088982391357421875e+01 -1.905061340332031250e+01 -9.209010750055313110e-02 -3.074371069669723511e-02 -3.685014694929122925e-02 -5.253820419311523438e-01
3.370000000000000000e+03 1.454237651824951172e+01 -9.364480018615722656e+00 -2.839725464582443237e-02 2.168554067611694336e-01 5.653744563460350037e-02 -4.229622706770896912e-02
3.371000000000000000e+03 7.258361816406250000e+01 2.492141246795654297e+00 3.504475206136703491e-02 4.397713184356689453e+00 1.329827308654785156e+00 -6.571252644062042236e-02
3.372000000000000000e+03 5.877907943725585938e+01 -1.413699054718017578e+01 -7.741578221321105957e-01 4.695201396942138672e+00 1.176313161849975586e+00 4.965113401412963867e-01
3.373000000000000000e+03 5.846212768554687500e+01 -1.305448532104492188e+01 -7.137819528579711914e-01 3.558862686157226562e+00 8.535242080688476562e-01 4.035036265850067139e-01
3.374000000000000000e+03 1.049914741516113281e+01 -2.923901176452636719e+01 -1.133427023887634277e-01 -1.743275970220565796e-01 -8.630108833312988281e-02 -1.768074929714202881e-01
3.375000000000000000e+03 6.717564392089843750e+01 3.218493652343750000e+01 5.445395708084106445e-01 5.358113765716552734e+00 1.770796060562133789e+00 9.586348533630371094e-01
3.376000000000000000e+03 7.196086120605468750e+01 2.853599739074707031e+01 8.418074846267700195e-01 5.191005706787109375e+00 1.809844017028808594e+00 -6.680999696254730225e-02
3.377000000000000000e+03 6.211589050292968750e+01 -1.433476257324218750e+01 -1.807727217674255371e+00 6.682699203491210938e+00 1.462491631507873535e+00 9.903898239135742188e-01
3.378000000000000000e+03 6.056439590454101562e+01 -1.473124980926513672e+01 -1.188833355903625488e+00 6.182464122772216797e+00 1.498089194297790527e+00 9.020170569419860840e-01
3.379000000000000000e+03 2.472537994384765625e+01 -2.202699279785156250e+01 3.267145752906799316e-01 2.474635839462280273e-01 1.722534447908401489e-01 -8.938886970281600952e-02
3.380000000000000000e+03 7.480621337890625000e+01 1.188669300079345703e+01 1.393026590347290039e+00 8.693319320678710938e+00 3.025903701782226562e+00 1.286904662847518921e-01
3.381000000000000000e+03 6.099085235595703125e+01 -1.375435543060302734e+01 -1.179566264152526855e+00 6.080794334411621094e+00 1.470368385314941406e+00 1.135351419448852539e+00
3.382000000000000000e+03 4.928680038452148438e+01 -1.193236637115478516e+01 1.224225997924804688e+00 5.409332752227783203e+00 1.990067601203918457e+00 1.646709322929382324e+00
3.383000000000000000e+03 6.969582557678222656e+00 9.408718109130859375e+00 -3.352360129356384277e-01 -1.626035422086715698e-01 -1.493518650531768799e-01 3.174982368946075439e-01
3.384000000000000000e+03 7.140860557556152344e+00 1.036559391021728516e+01 -3.007707893848419189e-01 -1.982692033052444458e-01 -1.497119963169097900e-01 4.067566394805908203e-01
3.385000000000000000e+03 5.349522781372070312e+01 2.049566841125488281e+01 -1.699895381927490234e+00 4.972429275512695312e+00 9.817602038383483887e-01 -2.650218009948730469e+00
3.386000000000000000e+03 8.297086715698242188e+00 -2.752552413940429688e+01 -8.198422938585281372e-02 -9.313903003931045532e-02 -5.253697931766510010e-02 -1.446140855550765991e-01
3.387000000000000000e+03 8.603114128112792969e+00 -2.863014984130859375e+01 -1.044790148735046387e-01 -1.228658407926559448e-01 -6.820345669984817505e-02 -1.552858948707580566e-01
3.388000000000000000e+03 4.783223724365234375e+01 3.579767608642578125e+01 -4.732597172260284424e-01 3.522520542144775391e+00 9.147782921791076660e-01 -7.602882385253906250e-01
3.389000000000000000e+03 5.635770797729492188e+01 1.641274261474609375e+01 1.515112876892089844e+00 6.403960227966308594e+00 2.375721931457519531e+00 -4.729638397693634033e-01
3.390000000000000000e+03 5.745722198486328125e+01 5.787512302398681641e+00 -4.005923569202423096e-01 7.421160221099853516e+00 2.106170415878295898e+00 -2.472828775644302368e-01
3.391000000000000000e+03 7.228054046630859375e+01 5.617859840393066406e+00 -1.560119241476058960e-01 6.184244632720947266e+00 1.808469772338867188e+00 5.676380991935729980e-01
3.392000000000000000e+03 7.559934139251708984e+00 -2.689095115661621094e+01 -7.129218429327011108e-02 -8.312523365020751953e-02 -4.632522538304328918e-02 -1.197383478283882141e-01
3.393000000000000000e+03 5.504673385620117188e+01 3.970821380615234375e+01 -8.135011792182922363e-01 2.363839626312255859e+00 4.651015102863311768e-01 4.321770071983337402e-01
3.394000000000000000e+03 5.068015670776367188e+01 3.819932174682617188e+01 -1.070815443992614746e+00 3.615312099456787109e+00 7.633489966392517090e-01 -5.140014737844467163e-02
3.395000000000000000e+03 6.223193359375000000e+01 2.040687561035156250e+00 5.543385446071624756e-02 5.616997241973876953e+00 1.701729416847229004e+00 -1.052274584770202637e+00
3.396000000000000000e+03 6.475670623779296875e+01 -1.284361553192138672e+01 -1.493371009826660156e+00 6.052317619323730469e+00 1.367684006690979004e+00 4.028319120407104492e-01
3.397000000000000000e+03 5.153588104248046875e+01 2.262434005737304688e+01 -8.989020586013793945e-01 4.531845569610595703e+00 1.089883089065551758e+00 -1.622047543525695801e+00
3.398000000000000000e+03 5.030462646484375000e+01 2.405954742431640625e+01 2.581513524055480957e-01 3.940586566925048828e+00 1.259621381759643555e+00 -6.318994760513305664e-01
3.399000000000000000e+03 2.524713134765625000e+01 -2.092807006835937500e+01 2.940190136432647705e-01 2.688357830047607422e-01 1.688564419746398926e-01 -9.644769132137298584e-02
3.400000000000000000e+03 3.651413345336914062e+01 -4.127654647827148438e+01 -5.415174961090087891e-01 1.751746892929077148e+00 3.630688190460205078e-01 7.566794753074645996e-02
3.401000000000000000e+03 8.122309684753417969e+00 3.899376678466796875e+01 -1.667044498026371002e-02 -1.207459568977355957e-01 -4.122491925954818726e-02 -1.387852011248469353e-03
3.402000000000000000e+03 6.030346393585205078e+00 -3.018012237548828125e+01 -8.328189700841903687e-02 -2.268920242786407471e-01 -9.305217862129211426e-02 -1.033677607774734497e-01
3.403000000000000000e+03 4.906947326660156250e+01 -3.787085533142089844e+00 1.113843321800231934e+00 5.864432811737060547e+00 2.093482971191406250e+00 1.299854040145874023e+00
3.404000000000000000e+03 8.769484519958496094e+00 -7.379627227783203125e+00 1.343824062496423721e-02 -1.161241084337234497e-01 -3.080576099455356598e-02 -1.174765676259994507e-01
3.405000000000000000e+03 7.137165546417236328e+00 -6.920156002044677734e+00 1.911038532853126526e-02 -1.107028797268867493e-01 -2.747774869203567505e-02 -1.033806428313255310e-01
3.406000000000000000e+03 6.841143608093261719e+00 -5.658440589904785156e+00 9.695016779005527496e-03 -7.411698251962661743e-02 -1.932659000158309937e-02 -9.309094399213790894e-02
3.407000000000000000e+03 8.460532188415527344e+00 -5.838879585266113281e+00 4.038865864276885986e-02 -1.186697855591773987e-01 -2.348433993756771088e-02 -1.438544392585754395e-01
3.408000000000000000e+03 9.506850242614746094e+00 -6.702790260314941406e+00 -7.654225453734397888e-03 -9.142501652240753174e-02 -2.972377091646194458e-02 -1.322175264358520508e-01
3.409000000000000000e+03 4.713866424560546875e+01 3.884951591491699219e+00 -6.642966270446777344e-01 3.131251573562622070e+00 7.400864958763122559e-01 -3.382818698883056641e+00
3.410000000000000000e+03 2.395364189147949219e+01 8.340678215026855469e+00 3.414765000343322754e-01 -7.310604304075241089e-02 8.051113784313201904e-02 1.244861185550689697e-01
3.411000000000000000e+03 1.076053905487060547e+01 -8.771043777465820312e+00 -3.352121915668249130e-03 -7.432471215724945068e-02 -2.330305054783821106e-02 -1.210503205657005310e-01
3.412000000000000000e+03 5.891674995422363281e+00 8.799714088439941406e+00 -2.702271640300750732e-01 -1.136571913957595825e-01 -1.151653081178665161e-01 2.480250746011734009e-01
3.413000000000000000e+03 1.085957813262939453e+01 -6.173863887786865234e+00 5.884753167629241943e-02 -6.385634094476699829e-02 -1.502643455751240253e-03 -1.116755902767181396e-01
3.414000000000000000e+03 1.159552764892578125e+01 -6.339662551879882812e+00 -7.844456471502780914e-03 -3.256811574101448059e-02 -1.212377194315195084e-02 -1.656579077243804932e-01
3.415000000000000000e+03 7.826184749603271484e+00 -8.127608299255371094e+00 3.494791686534881592e-02 -1.463853120803833008e-01 -3.343122079968452454e-02 -1.109189763665199280e-01
3.416000000000000000e+03 1.986015510559082031e+01 -2.003339958190917969e+01 -1.425743848085403442e-01 2.933228388428688049e-02 -3.397262841463088989e-02 -5.135809183120727539e-01
3.417000000000000000e+03 1.918587112426757812e+01 -2.157038688659667969e+01 -1.202620193362236023e-01 7.849884219467639923e-03 -3.372364118695259094e-02 -3.935953676700592041e-01
3.418000000000000000e+03 1.898511505126953125e+01 -2.313259887695312500e+01 3.839364647865295410e-02 2.723198384046554565e-02 1.968768984079360962e-02 -2.735093235969543457e-01
3.419000000000000000e+03 2.276011085510253906e+01 7.635915279388427734e+00 3.283345401287078857e-01 -1.540965288877487183e-01 5.227139964699745178e-02 1.509208232164382935e-01
3.420000000000000000e+03 6.468099594116210938e+00 7.011690139770507812e+00 -3.105573654174804688e-01 -1.018080189824104309e-01 -1.237096115946769714e-01 1.336060613393783569e-01
3.421000000000000000e+03 6.831317138671875000e+01 2.520323371887207031e+01 1.173055291175842285e+00 3.295312643051147461e+00 1.340510368347167969e+00 -1.751823723316192627e-01
3.422000000000000000e+03 6.982179260253906250e+01 2.348776054382324219e+01 -9.656056761741638184e-02 3.787970781326293945e+00 1.107423067092895508e+00 -1.158276915550231934e+00
3.423000000000000000e+03 6.151093292236328125e+01 -1.554470252990722656e+01 -1.315338492393493652e+00 6.363093376159667969e+00 1.514326453208923340e+00 3.912279009819030762e-01
3.424000000000000000e+03 7.732354640960693359e+00 -2.830197715759277344e+01 -9.560181200504302979e-02 -1.306487619876861572e-01 -6.787516921758651733e-02 -1.277410089969635010e-01
3.425000000000000000e+03 2.011291122436523438e+01 -2.092552185058593750e+01 -1.735976338386535645e-02 4.085351154208183289e-02 7.048124913126230240e-03 -3.977465629577636719e-01
3.426000000000000000e+03 2.483894920349121094e+01 9.167570114135742188e+00 3.777926862239837646e-01 2.478920109570026398e-02 1.207745671272277832e-01 9.124624729156494141e-02
3.427000000000000000e+03 3.683821487426757812e+01 1.600824165344238281e+01 6.897468566894531250e-01 7.264964580535888672e-01 4.248729944229125977e-01 -9.375647902488708496e-01
3.428000000000000000e+03 7.659512042999267578e+00 -9.198798179626464844e+00 1.899003982543945312e-02 -1.537141948938369751e-01 -4.041724279522895813e-02 -9.482804685831069946e-02
3.429000000000000000e+03 3.391151809692382812e+01 -3.686258697509765625e+01 1.995792984962463379e-01 1.523608684539794922e+00 5.169563889503479004e-01 6.248280405998229980e-01
3.430000000000000000e+03 5.988689422607421875e+01 -2.127991867065429688e+01 2.597007751464843750e+00 4.085563182830810547e+00 2.004771232604980469e+00 -1.716262847185134888e-01
3.431000000000000000e+03 7.272398376464843750e+01 2.589349555969238281e+01 2.715360224246978760e-01 5.499709606170654297e+00 1.731373667716979980e+00 -6.719607114791870117e-01
3.432000000000000000e+03 7.185394287109375000e+01 4.377009868621826172e+00 3.574201464653015137e-02 4.858948707580566406e+00 1.468407154083251953e+00 9.463331699371337891e-01
3.433000000000000000e+03 9.843366622924804688e+00 -9.117280960083007812e+00 4.932142421603202820e-02 -6.914806365966796875e-02 -5.947990808635950089e-03 -1.406172513961791992e-01
3.434000000000000000e+03 1.039994239807128906e+01 -7.937544345855712891e+00 7.846193015575408936e-02 -4.777936264872550964e-02 9.204771369695663452e-03 -1.336949765682220459e-01
3.435000000000000000e+03 5.971327209472656250e+01 -1.423455238342285156e+01 -8.110265135765075684e-01 5.383737087249755859e+00 1.371813178062438965e+00 9.546947479248046875e-01
3.436000000000000000e+03 7.023747253417968750e+01 -3.111500930786132812e+01 1.949883341789245605e+00 4.073964595794677734e+00 1.807154417037963867e+00 -6.715551614761352539e-01
3.437000000000000000e+03 7.117344379425048828e+00 -1.021383762359619141e+01 2.112300507724285126e-02 -1.726251691579818726e-01 -4.545065015554428101e-02 -9.219219535589218140e-02
3.438000000000000000e+03 3.354469299316406250e+01 -9.349290847778320312e+00 -3.744994848966598511e-02 2.220534235239028931e-01 5.538104474544525146e-02 2.482220530509948730e-01
3.439000000000000000e+03 2.332625007629394531e+01 -2.326009559631347656e+01 3.118315637111663818e-01 2.252610027790069580e-01 1.611277610063552856e-01 -8.168978244066238403e-02
3.440000000000000000e+03 1.254642677307128906e+01 -5.838325977325439453e+00 8.369998075067996979e-03 1.804837398231029510e-02 7.925511337816715240e-03 -1.562384068965911865e-01
3.441000000000000000e+03 7.810704708099365234e+00 -3.249117660522460938e+01 -7.513781636953353882e-02 -2.135339826345443726e-01 -8.660154044628143311e-02 -1.771060079336166382e-01
3.442000000000000000e+03 6.287990951538085938e+01 9.690319895744323730e-01 4.896326959133148193e-01 5.752461433410644531e+00 1.872628331184387207e+00 -5.737711191177368164e-01
3.443000000000000000e+03 7.088077068328857422e+00 -2.924405097961425781e+01 -9.162613749504089355e-02 -1.667657494544982910e-01 -7.751756906509399414e-02 -1.209909170866012573e-01
3.444000000000000000e+03 7.295128631591796875e+01 2.709542083740234375e+01 4.300694167613983154e-01 5.551661491394042969e+00 1.794519186019897461e+00 -4.635005295276641846e-01
3.445000000000000000e+03 7.002799224853515625e+01 2.632490730285644531e+01 1.118003726005554199e+00 4.218441963195800781e+00 1.600933790206909180e+00 -3.555516302585601807e-01
3.446000000000000000e+03 6.736910343170166016e+00 -3.368412017822265625e+01 -3.325426951050758362e-02 -2.835101187229156494e-01 -9.502931684255599976e-02 -1.646030098199844360e-01
3.447000000000000000e+03 4.682796478271484375e+00 -3.460117340087890625e+01 -1.998184248805046082e-03 -4.081903696060180664e-01 -1.230565682053565979e-01 -1.190448403358459473e-01
3.448000000000000000e+03 7.434107971191406250e+01 -3.546466827392578125e+01 2.544724047183990479e-01 6.426724433898925781e+00 2.004359006881713867e+00 -4.574364721775054932e-01
3.449000000000000000e+03 7.181716156005859375e+01 -3.314711761474609375e+01 1.290957570075988770e+00 5.123614311218261719e+00 1.924371480941772461e+00 -4.598840475082397461e-01
3.450000000000000000e+03 3.304978179931640625e+01 3.715477752685546875e+01 -1.561534255743026733e-01 1.260956406593322754e+00 3.314408957958221436e-01 5.170465633273124695e-02
3.451000000000000000e+03 2.261484718322753906e+01 -2.007995033264160156e+01 1.058456599712371826e-01 -3.869614005088806152e-02 2.014485746622085571e-02 -3.711060583591461182e-01
3.452000000000000000e+03 2.191959953308105469e+01 -1.877239990234375000e+01 -2.129910513758659363e-02 -7.482763379812240601e-02 -2.883801981806755066e-02 -4.650303423404693604e-01
3.453000000000000000e+03 2.086953926086425781e+01 -2.182219123840332031e+01 4.298136383295059204e-02 6.872678548097610474e-02 3.351244702935218811e-02 -3.195505738258361816e-01
3.454000000000000000e+03 3.897607421875000000e+01 1.581141948699951172e+01 8.615665435791015625e-01 9.993187785148620605e-01 5.582656264305114746e-01 -1.219440698623657227e+00
3.455000000000000000e+03 3.121285820007324219e+01 -3.519380950927734375e+01 4.374136328697204590e-01 8.609730005264282227e-01 3.895159959793090820e-01 3.090216815471649170e-01
3.456000000000000000e+03 6.907497406005859375e+01 2.795425796508789062e+01 1.487331628799438477e+00 4.447933197021484375e+00 1.780579328536987305e+00 3.091792464256286621e-01
3.457000000000000000e+03 7.136402130126953125e+01 3.033638000488281250e+01 8.554304838180541992e-01 5.330530643463134766e+00 1.855788350105285645e+00 3.584576845169067383e-01
3.458000000000000000e+03 6.744949340820312500e+01 3.587603759765625000e+01 -4.783710241317749023e-01 5.307779312133789062e+00 1.448822498321533203e+00 4.522117078304290771e-01
3.459000000000000000e+03 7.309661102294921875e+01 2.839586067199707031e+01 6.177468299865722656e-01 5.680486679077148438e+00 1.889469981193542480e+00 -2.042176425457000732e-01
3.460000000000000000e+03 6.542185211181640625e+01 2.584294795989990234e+00 6.341430544853210449e-01 3.059333562850952148e+00 1.108042955398559570e+00 1.040895462036132812e+00
3.461000000000000000e+03 3.606398773193359375e+01 1.670639038085937500e+01 4.861899614334106445e-01 8.737926483154296875e-01 4.079947769641876221e-01 -8.379774093627929688e-01
3.462000000000000000e+03 4.730156707763671875e+01 4.107296752929687500e+01 -8.777346014976501465e-01 3.089221954345703125e+00 6.634461879730224609e-01 -2.081667333841323853e-01
3.463000000000000000e+03 3.631802749633789062e+01 1.896429061889648438e+01 8.541525155305862427e-02 1.287642955780029297e+00 4.119174480438232422e-01 -9.212937355041503906e-01
3.464000000000000000e+03 7.205300903320312500e+01 3.703337860107421875e+01 -1.888964474201202393e-01 6.115551471710205078e+00 1.777996540069580078e+00 3.756415545940399170e-01
3.465000000000000000e+03 6.817914581298828125e+01 3.405718612670898438e+01 -6.893704086542129517e-02 5.436108112335205078e+00 1.610151410102844238e+00 8.106490969657897949e-01
3.466000000000000000e+03 6.974871826171875000e+01 2.492300033569335938e+01 5.837199091911315918e-01 3.731142520904541016e+00 1.294458746910095215e+00 -7.587316036224365234e-01
3.467000000000000000e+03 8.256461143493652344e+00 -4.152556610107421875e+01 1.562463641166687012e-01 -3.051777482032775879e-01 -4.467941820621490479e-02 -3.703838959336280823e-02
3.468000000000000000e+03 9.576296806335449219e+00 -3.962332916259765625e+01 1.749213635921478271e-01 -1.975942701101303101e-01 -6.801872514188289642e-03 -1.015737131237983704e-01
3.469000000000000000e+03 6.550083923339843750e+01 3.513833618164062500e+01 -7.437264323234558105e-01 4.869831562042236328e+00 1.237831592559814453e+00 4.598864018917083740e-01
3.470000000000000000e+03 4.839889526367187500e+01 -4.064172744750976562e+00 1.106543540954589844e+00 3.823482036590576172e+00 1.479007720947265625e+00 1.045256137847900391e+00
3.471000000000000000e+03 8.877474784851074219e+00 -6.633745670318603516e+00 5.751738697290420532e-02 -1.115107461810112000e-01 -1.619800925254821777e-02 -1.366715133190155029e-01
3.472000000000000000e+03 9.489248275756835938e+00 -7.389806270599365234e+00 8.325265347957611084e-02 -9.658981859683990479e-02 -4.001150373369455338e-03 -1.302046626806259155e-01
3.473000000000000000e+03 1.008893108367919922e+01 -6.708756923675537109e+00 9.730437397956848145e-02 -1.043407395482063293e-01 -2.110908273607492447e-03 -1.121280565857887268e-01
3.474000000000000000e+03 7.120622158050537109e+00 7.501090526580810547e+00 -3.513398468494415283e-01 -1.571827381849288940e-01 -1.525567770004272461e-01 1.761552691459655762e-01
3.475000000000000000e+03 2.464415550231933594e+01 7.172992229461669922e+00 2.190467566251754761e-01 -6.224015727639198303e-02 4.704197868704795837e-02 1.193880587816238403e-01
3.476000000000000000e+03 1.176310157775878906e+01 -7.059418201446533203e+00 8.079394698143005371e-02 2.086104638874530792e-02 3.049649856984615326e-02 -1.042440310120582581e-01
3.477000000000000000e+03 8.778425216674804688e+00 -9.351912498474121094e+00 1.584363915026187897e-02 -1.590827703475952148e-01 -4.297173768281936646e-02 -1.159679740667343140e-01
3.478000000000000000e+03 9.605119705200195312e+00 -8.189236640930175781e+00 6.729153916239738464e-03 -1.161723881959915161e-01 -3.283296898007392883e-02 -1.227045580744743347e-01
3.479000000000000000e+03 6.687775611877441406e+00 -8.734345436096191406e+00 3.010051697492599487e-02 -1.599107980728149414e-01 -3.894308581948280334e-02 -9.431903809309005737e-02
3.480000000000000000e+03 8.741536140441894531e+00 -8.266485214233398438e+00 5.534359067678451538e-02 -1.129190996289253235e-01 -1.727265305817127228e-02 -1.243870258331298828e-01
3.481000000000000000e+03 1.226485443115234375e+01 -6.554428577423095703e+00 6.299616396427154541e-02 -3.664677590131759644e-02 7.904817350208759308e-03 -8.202802389860153198e-02
3.482000000000000000e+03 2.173912048339843750e+01 -2.094480514526367188e+01 8.885163068771362305e-02 6.059911847114562988e-02 4.483522474765777588e-02 -3.309167623519897461e-01
3.483000000000000000e+03 2.356575202941894531e+01 -2.121240997314453125e+01 2.349590510129928589e-01 1.532670110464096069e-01 1.164678186178207397e-01 -1.849238276481628418e-01
3.484000000000000000e+03 7.185609436035156250e+01 -3.200599288940429688e+01 1.277976870536804199e+00 4.828441619873046875e+00 1.831925630569458008e+00 -2.361362278461456299e-01
3.485000000000000000e+03 7.259524536132812500e+01 2.954317092895507812e+01 6.568781733512878418e-01 5.590779781341552734e+00 1.874297380447387695e+00 2.347374707460403442e-02
3.486000000000000000e+03 7.036796569824218750e+01 2.764389228820800781e+01 1.156340479850769043e+00 4.601424217224121094e+00 1.727329492568969727e+00 -2.601542696356773376e-02
3.487000000000000000e+03 6.948643493652343750e+01 2.931657791137695312e+01 1.264491915702819824e+00 4.866409778594970703e+00 1.839270472526550293e+00 5.453792214393615723e-01
3.488000000000000000e+03 6.843547058105468750e+01 3.093043899536132812e+01 9.550052285194396973e-01 5.234062671661376953e+00 1.856720328330993652e+00 9.158776998519897461e-01
3.489000000000000000e+03 5.812780380249023438e+00 -3.753186798095703125e+01 5.108157545328140259e-02 -4.057740867137908936e-01 -1.064077541232109070e-01 -1.338545531034469604e-01
3.490000000000000000e+03 7.165470886230468750e+01 2.733798980712890625e+01 8.418667912483215332e-01 4.993979454040527344e+00 1.750753879547119141e+00 -3.257445096969604492e-01
3.491000000000000000e+03 4.812527179718017578e+00 1.163527488708496094e+01 -7.693863660097122192e-02 -2.163144797086715698e-01 -8.797593414783477783e-02 3.712516427040100098e-01
3.492000000000000000e+03 6.875350952148437500e+01 -3.711750411987304688e+01 -2.702984213829040527e-01 5.859972953796386719e+00 1.676902413368225098e+00 -1.173146247863769531e+00
3.493000000000000000e+03 2.909587669372558594e+01 3.337622451782226562e+01 2.359844446182250977e-01 9.683411121368408203e-01 3.612976670265197754e-01 -2.079723924398422241e-01
3.494000000000000000e+03 2.905668067932128906e+01 -3.723302459716796875e+01 2.039225101470947266e-01 7.815259695053100586e-01 2.956345379352569580e-01 2.310319244861602783e-01
3.495000000000000000e+03 6.877826690673828125e+00 -7.809602260589599609e+00 3.502097725868225098e-02 -1.401765793561935425e-01 -3.154667839407920837e-02 -7.905373722314834595e-02
3.496000000000000000e+03 7.984185695648193359e+00 -7.226399898529052734e+00 4.393079131841659546e-02 -1.244646012783050537e-01 -2.416014112532138824e-02 -1.129166036844253540e-01
3.497000000000000000e+03 1.013311100006103516e+01 -7.271699905395507812e+00 -1.475114561617374420e-02 -8.683490008115768433e-02 -3.047581389546394348e-02 -1.338617652654647827e-01
3.498000000000000000e+03 7.078620910644531250e+01 2.896713066101074219e+01 1.063634395599365234e+00 4.982496738433837891e+00 1.813839316368103027e+00 1.289125531911849976e-01
3.499000000000000000e+03 7.032920074462890625e+01 3.249800872802734375e+01 4.923293888568878174e-01 5.525875568389892578e+00 1.805461525917053223e+00 6.931419968605041504e-01
3.500000000000000000e+03 7.086339569091796875e+01 -3.911803054809570312e+01 -6.725424528121948242e-01 6.131522655487060547e+00 1.637694120407104492e+00 -6.262197494506835938e-01
3.501000000000000000e+03 4.742470550537109375e+01 3.830993270874023438e+01 -7.415504455566406250e-01 3.203270912170410156e+00 7.385161519050598145e-01 -5.360261797904968262e-01
3.502000000000000000e+03 6.805596923828125000e+01 4.123392486572265625e+01 -6.123450398445129395e-01 4.929161548614501953e+00 1.295044898986816406e+00 3.521948680281639099e-02
3.503000000000000000e+03 2.685219955444335938e+01 -3.684490585327148438e+01 1.753609925508499146e-01 5.547827482223510742e-01 2.190431207418441772e-01 1.221805438399314880e-01
3.504000000000000000e+03 3.086285972595214844e+01 -3.329932403564453125e+01 5.465344786643981934e-01 6.242579221725463867e-01 3.512377142906188965e-01 6.950400769710540771e-02
3.505000000000000000e+03 3.053427696228027344e+01 -3.155736160278320312e+01 4.348976612091064453e-01 6.027499437332153320e-01 3.112942874431610107e-01 -1.641101688146591187e-01
3.506000000000000000e+03 1.110352706909179688e+01 -7.496969699859619141e+00 1.223826501518487930e-02 -7.899543642997741699e-02 -2.002714946866035461e-02 -1.367144137620925903e-01
3.507000000000000000e+03 5.210014343261718750e+00 3.492671966552734375e+01 1.586653292179107666e-01 -4.832782149314880371e-01 -9.738386422395706177e-02 1.567468792200088501e-02
3.508000000000000000e+03 7.892148017883300781e+00 3.700793457031250000e+01 5.062462389469146729e-02 -5.610297992825508118e-02 -1.643506577238440514e-03 9.084728546440601349e-03
3.509000000000000000e+03 7.485774993896484375e+01 3.887992858886718750e+01 -1.839971393346786499e-01 6.895424842834472656e+00 2.013428211212158203e+00 2.293823361396789551e-01
3.510000000000000000e+03 3.494788360595703125e+01 3.938371276855468750e+01 -5.856474488973617554e-02 1.120462775230407715e+00 3.185694217681884766e-01 9.794928133487701416e-02
3.511000000000000000e+03 6.464660644531250000e+01 3.666797256469726562e+01 -9.812521338462829590e-01 4.294900894165039062e+00 9.940946102142333984e-01 1.338009908795356750e-02
3.512000000000000000e+03 2.710249900817871094e+01 3.840057754516601562e+01 -3.216670360416173935e-03 8.450547456741333008e-01 2.525514364242553711e-01 -8.520583808422088623e-02
3.513000000000000000e+03 2.718256568908691406e+01 3.568647003173828125e+01 7.713827490806579590e-02 8.455742597579956055e-01 2.768137454986572266e-01 -1.317194104194641113e-01
3.514000000000000000e+03 2.743636703491210938e+01 3.344779205322265625e+01 2.029954046010971069e-01 8.333716988563537598e-01 3.109101355075836182e-01 -1.554880142211914062e-01
3.515000000000000000e+03 3.262582015991210938e+01 2.418941736221313477e+00 -9.421222209930419922e-01 -2.525165379047393799e-01 -3.583916425704956055e-01 5.638380050659179688e-01
3.516000000000000000e+03 3.220062637329101562e+01 9.791796803474426270e-01 -1.762607097625732422e+00 3.705620169639587402e-01 -4.176135361194610596e-01 -4.686803817749023438e-01
3.517000000000000000e+03 3.149544906616210938e+01 7.055067420005798340e-01 -1.458753347396850586e+00 2.126981914043426514e-01 -3.738165497779846191e-01 -2.458610981702804565e-01
3.518000000000000000e+03 4.675745391845703125e+01 1.446156740188598633e+00 1.196900963783264160e+00 8.381040692329406738e-01 6.105015277862548828e-01 -2.083836078643798828e+00
3.519000000000000000e+03 4.854924011230468750e+01 8.796837925910949707e-01 4.011058330535888672e+00 1.466555118560791016e+00 1.643283963203430176e+00 -3.404072046279907227e+00
3.520000000000000000e+03 4.926577377319335938e+01 1.035964965820312500e+00 4.202467918395996094e+00 4.576489925384521484e+00 2.633687257766723633e+00 -4.960984706878662109e+00
3.521000000000000000e+03 4.909541702270507812e+01 9.645295143127441406e-01 4.483024120330810547e+00 3.484572172164916992e+00 2.390279054641723633e+00 -4.723370552062988281e+00
3.522000000000000000e+03 4.964699554443359375e+01 1.153851270675659180e+00 3.416157722473144531e+00 7.519780635833740234e+00 3.280781507492065430e+00 -5.093933582305908203e+00
3.523000000000000000e+03 4.795709228515625000e+01 -2.597398996353149414e+00 1.234618902206420898e+00 1.070267796516418457e+00 6.914660334587097168e-01 4.854733943939208984e-01
3.524000000000000000e+03 4.814636230468750000e+01 -2.579691410064697266e+00 1.262526392936706543e+00 1.438359379768371582e+00 8.102657198905944824e-01 7.051963210105895996e-01
3.525000000000000000e+03 4.817228317260742188e+01 -3.086322307586669922e+00 1.304271936416625977e+00 2.127211332321166992e+00 1.029444932937622070e+00 8.265726566314697266e-01
3.526000000000000000e+03 4.857487487792968750e+01 -2.578851222991943359e+00 1.288263320922851562e+00 2.906300544738769531e+00 1.258369207382202148e+00 1.355226278305053711e+00
3.527000000000000000e+03 4.939672088623046875e+01 -2.343164205551147461e+00 1.123047113418579102e+00 6.406244277954101562e+00 2.258787393569946289e+00 2.822107076644897461e+00
3.528000000000000000e+03 5.039555740356445312e+01 -2.102081298828125000e+00 -9.957477450370788574e-01 1.402517318725585938e+01 3.908827781677246094e+00 2.421427011489868164e+00
3.529000000000000000e+03 5.059639739990234375e+01 -2.071258068084716797e+00 -1.181030988693237305e+00 1.583864974975585938e+01 4.397285938262939453e+00 1.801152467727661133e+00
3.530000000000000000e+03 5.251913070678710938e+01 5.365453958511352539e-01 4.192039012908935547e+00 8.741083145141601562e+00 3.879936695098876953e+00 4.222964286804199219e+00
3.531000000000000000e+03 3.009894752502441406e+01 1.261526870727539062e+01 2.599857449531555176e-01 5.645726919174194336e-01 2.473675459623336792e-01 3.108667731285095215e-01
3.532000000000000000e+03 5.516157150268554688e+01 -2.447747993469238281e+01 -4.067348241806030273e-01 6.912970542907714844e+00 1.951870799064636230e+00 1.857463240623474121e+00
3.533000000000000000e+03 6.868969440460205078e+00 3.460083389282226562e+01 2.631632387638092041e-01 -1.578934341669082642e-01 3.158094361424446106e-02 3.265000879764556885e-02
3.534000000000000000e+03 1.069798755645751953e+01 2.126486206054687500e+01 1.304834783077239990e-01 2.477252669632434845e-02 4.657680168747901917e-02 2.012765556573867798e-01
3.535000000000000000e+03 7.213121032714843750e+01 -1.616619110107421875e+01 -2.118095904588699341e-01 3.037126779556274414e+00 8.475951552391052246e-01 -1.199186563491821289e+00
3.536000000000000000e+03 6.449533843994140625e+01 -9.072825431823730469e+00 1.272743582725524902e+00 8.772485733032226562e+00 3.013568878173828125e+00 -6.736658811569213867e-01
3.537000000000000000e+03 4.314253234863281250e+01 -3.336605548858642578e+00 2.068009823560714722e-01 -4.829014539718627930e-01 -8.283014595508575439e-02 3.654688596725463867e-01
3.538000000000000000e+03 4.786509704589843750e+01 -7.038154125213623047e+00 -1.206291437149047852e+00 4.499497890472412109e+00 9.879618883132934570e-01 1.667426586151123047e+00
3.539000000000000000e+03 5.235197830200195312e+01 2.955860328674316406e+01 1.100983977317810059e+00 7.069903850555419922e+00 2.451266288757324219e+00 -2.091439217329025269e-01
3.540000000000000000e+03 5.306840515136718750e+01 2.720412635803222656e+01 1.619593977928161621e+00 8.247398376464843750e+00 2.960097789764404297e+00 -1.389575839042663574e+00
3.541000000000000000e+03 5.143144989013671875e+01 2.696054649353027344e+01 1.704292535781860352e+00 5.716484546661376953e+00 2.226233005523681641e+00 -7.692147493362426758e-01
3.542000000000000000e+03 6.048966979980468750e+01 1.775072860717773438e+01 3.033272743225097656e+00 8.990347862243652344e+00 3.607086181640625000e+00 2.941618680953979492e+00
3.543000000000000000e+03 1.660307884216308594e+01 -4.182058715820312500e+01 5.321532487869262695e-01 1.644333004951477051e-01 2.089759558439254761e-01 -4.350217059254646301e-02
3.544000000000000000e+03 1.247803592681884766e+01 -4.182847595214843750e+01 3.050674200057983398e-01 -1.543561834841966629e-02 8.688954263925552368e-02 -4.153784830123186111e-03
3.545000000000000000e+03 1.504537868499755859e+01 -3.970783615112304688e+01 4.128118157386779785e-01 1.463070362806320190e-01 1.677356511354446411e-01 -1.985705196857452393e-01
3.546000000000000000e+03 3.726313018798828125e+01 -3.565617752075195312e+01 7.785758376121520996e-02 2.480911731719970703e+00 7.676308155059814453e-01 8.345015645027160645e-01
3.547000000000000000e+03 6.735973358154296875e+01 -3.154314994812011719e+01 2.488654375076293945e+00 6.630093097686767578e+00 2.735624313354492188e+00 -2.501304149627685547e+00
3.548000000000000000e+03 8.557128906250000000e+00 1.220378303527832031e+01 -7.866523414850234985e-02 -2.519527673721313477e-01 -9.918539971113204956e-02 4.651321768760681152e-01
3.549000000000000000e+03 5.059040069580078125e+01 -2.342264175415039062e+00 -5.892291665077209473e-01 1.508945274353027344e+01 4.350067138671875000e+00 1.744553565979003906e+00
3.550000000000000000e+03 4.985728454589843750e+01 -2.601555585861206055e+00 1.685635000467300415e-01 9.956418037414550781e+00 3.037494659423828125e+00 2.379980325698852539e+00
3.551000000000000000e+03 3.913811492919921875e+01 -1.171849727630615234e+00 -6.915487647056579590e-01 5.123486518859863281e-01 -5.376004055142402649e-02 1.692678779363632202e-02
3.552000000000000000e+03 4.929424667358398438e+01 -3.176074981689453125e+00 1.093614459037780762e+00 6.501149177551269531e+00 2.278429031372070312e+00 1.688828587532043457e+00
3.553000000000000000e+03 4.322587585449218750e+01 3.589768981933593750e+01 -7.386507093906402588e-02 1.660781383514404297e+00 4.760749042034149170e-01 -8.468540310859680176e-01
3.554000000000000000e+03 1.327326774597167969e+01 -3.907464599609375000e+01 2.572539150714874268e-01 6.251365691423416138e-02 9.593027085065841675e-02 -1.390547454357147217e-01
3.555000000000000000e+03 4.814297485351562500e+01 -2.825707912445068359e+00 1.278332591056823730e+00 1.686097860336303711e+00 8.893291354179382324e-01 7.146654725074768066e-01
3.556000000000000000e+03 3.972008514404296875e+01 -3.630603408813476562e+01 -7.666008919477462769e-02 2.248351812362670898e+00 6.515075564384460449e-01 -5.829842686653137207e-01
3.557000000000000000e+03 6.740483093261718750e+01 5.775736331939697266e+00 -7.144986093044281006e-02 8.700542449951171875e-01 2.395813167095184326e-01 1.972529053688049316e+00
3.558000000000000000e+03 5.388952636718750000e+01 2.186738204956054688e+01 -2.039716958999633789e+00 5.313299655914306641e+00 9.820748567581176758e-01 -2.581115007400512695e+00
3.559000000000000000e+03 4.736008071899414062e+01 2.029765844345092773e+00 1.266087532043457031e+00 1.680566191673278809e+00 8.839961290359497070e-01 -3.149678707122802734e+00
3.560000000000000000e+03 5.274403762817382812e+01 1.269548892974853516e+00 3.379850149154663086e+00 7.260139942169189453e+00 3.191997051239013672e+00 4.198647975921630859e+00
3.561000000000000000e+03 3.200220108032226562e+01 2.032718658447265625e+00 -1.590402364730834961e+00 3.523429036140441895e-01 -3.714178502559661865e-01 1.179341077804565430e-01
3.562000000000000000e+03 5.280393218994140625e+01 -3.473904037475585938e+01 1.461977243423461914e+00 5.871930599212646484e+00 2.200172185897827148e+00 5.365809798240661621e-01
3.563000000000000000e+03 5.136805343627929688e+01 -3.395330810546875000e+01 2.141750335693359375e+00 5.295285224914550781e+00 2.231110572814941406e+00 8.964276909828186035e-01
3.564000000000000000e+03 5.655996322631835938e+01 3.750838470458984375e+01 -8.303647041320800781e-01 1.423996090888977051e+00 1.780894249677658081e-01 9.995828270912170410e-01
3.565000000000000000e+03 3.801140975952148438e+01 -2.029111385345458984e+00 -3.203991055488586426e-01 5.680990815162658691e-01 7.430999726057052612e-02 -8.027992211282253265e-03
3.566000000000000000e+03 5.360538482666015625e+01 -3.027112960815429688e+01 1.425084352493286133e+00 5.135795116424560547e+00 1.968263745307922363e+00 9.726796746253967285e-01
3.567000000000000000e+03 5.127381515502929688e+01 -7.359007835388183594e+00 7.169120311737060547e-01 1.060467624664306641e+01 3.396476507186889648e+00 1.654566884040832520e+00
3.568000000000000000e+03 5.076780319213867188e+01 3.036087036132812500e+00 -4.074448645114898682e-01 5.814779281616210938e+00 1.622200369834899902e+00 -4.703728258609771729e-01
3.569000000000000000e+03 5.114832687377929688e+01 -1.333490467071533203e+01 6.043528020381927490e-02 2.855545759201049805e+00 8.747943639755249023e-01 -1.890728324651718140e-01
3.570000000000000000e+03 6.704235076904296875e+01 -2.781518554687500000e+01 -1.843300461769104004e-02 6.256065368652343750e+00 1.871289730072021484e+00 -2.234032630920410156e+00
3.571000000000000000e+03 5.404107666015625000e+01 3.500862503051757812e+01 -8.950443267822265625e-01 4.319434165954589844e+00 1.027317047119140625e+00 6.874979138374328613e-01
3.572000000000000000e+03 5.572924804687500000e+01 2.018109703063964844e+01 -1.034951567649841309e+00 4.309511184692382812e+00 9.823678731918334961e-01 -2.555341243743896484e+00
3.573000000000000000e+03 2.230516624450683594e+01 2.905454063415527344e+01 2.630370259284973145e-01 5.083251595497131348e-01 2.314086705446243286e-01 2.583581507205963135e-01
3.574000000000000000e+03 7.497444152832031250e+01 -2.175722694396972656e+01 1.332832098007202148e+00 1.056054019927978516e+01 3.568011760711669922e+00 1.853864490985870361e-01
3.575000000000000000e+03 4.911815261840820312e+01 1.202223658561706543e+00 3.891320705413818359e+00 4.101459503173828125e+00 2.397834062576293945e+00 -4.795168876647949219e+00
3.576000000000000000e+03 3.485718917846679688e+01 -7.587266921997070312e+00 2.799539864063262939e-01 3.512656688690185547e-01 1.893658936023712158e-01 1.273041814565658569e-01
3.577000000000000000e+03 4.687847137451171875e+01 -5.288098812103271484e+00 -7.133555412292480469e-02 4.098559021949768066e-01 1.015561074018478394e-01 2.190011143684387207e-01
3.578000000000000000e+03 4.743566131591796875e+01 -5.185259342193603516e+00 2.231626063585281372e-01 2.031235694885253906e+00 6.763194799423217773e-01 7.443717718124389648e-01
3.579000000000000000e+03 7.742407989501953125e+01 3.704598999023437500e+01 -5.272912234067916870e-02 7.464344501495361328e+00 2.223484754562377930e+00 1.337099969387054443e-01
3.580000000000000000e+03 4.918654632568359375e+01 1.535819530487060547e+00 2.754291772842407227e+00 5.111158370971679688e+00 2.359635114669799805e+00 -4.862257480621337891e+00
3.581000000000000000e+03 4.889373016357421875e+01 1.205720901489257812e+00 3.717682838439941406e+00 3.211724758148193359e+00 2.078822374343872070e+00 -4.395664215087890625e+00
3.582000000000000000e+03 3.857677078247070312e+01 -1.572719693183898926e+00 -4.864569008350372314e-01 4.674405455589294434e-01 -5.704903509467840195e-03 7.260844856500625610e-02
3.583000000000000000e+03 4.855691909790039062e+01 1.419003009796142578e+00 2.980181932449340820e+00 2.484085083007812500e+00 1.639280080795288086e+00 -4.093116760253906250e+00
3.584000000000000000e+03 4.249998092651367188e+01 -2.468485832214355469e+01 1.003606319427490234e+00 2.017630338668823242e+00 9.063710570335388184e-01 1.742627382278442383e+00
3.585000000000000000e+03 2.948461151123046875e+01 -2.638374900817871094e+01 9.783256053924560547e-02 6.893313527107238770e-01 2.361491620540618896e-01 -2.988314330577850342e-01
3.586000000000000000e+03 1.793810272216796875e+01 -1.924358367919921875e+01 -2.218831926584243774e-01 4.238846898078918457e-02 -5.384841933846473694e-02 -5.615149736404418945e-01
3.587000000000000000e+03 1.847516632080078125e+01 3.381766891479492188e+01 8.189008571207523346e-03 -6.832345575094223022e-02 -1.804033480584621429e-02 9.509088122285902500e-04
3.588000000000000000e+03 5.053310394287109375e+01 -4.279351234436035156e+00 1.086832404136657715e+00 1.050942230224609375e+01 3.478876590728759766e+00 4.881298840045928955e-01
3.589000000000000000e+03 6.846804809570312500e+01 -3.864120864868164062e+01 -1.066524863243103027e+00 5.316950321197509766e+00 1.275127649307250977e+00 -6.660447716712951660e-01
3.590000000000000000e+03 6.646315765380859375e+01 -3.957697677612304688e+01 -1.370018959045410156e+00 4.210120677947998047e+00 8.520305156707763672e-01 1.469962447881698608e-01
3.591000000000000000e+03 6.828142547607421875e+01 -2.878401947021484375e+01 1.177300095558166504e+00 3.242020130157470703e+00 1.325796127319335938e+00 -1.608902335166931152e+00
3.592000000000000000e+03 6.511503601074218750e+01 3.266397857666015625e+01 4.946575760841369629e-01 5.209726810455322266e+00 1.711315274238586426e+00 7.512984275817871094e-01
3.593000000000000000e+03 7.616543579101562500e+01 3.431739425659179688e+01 7.028210908174514771e-02 6.918747425079345703e+00 2.096708774566650391e+00 2.042388916015625000e-01
3.594000000000000000e+03 7.357604217529296875e+01 -1.622556686401367188e+01 -4.668487906455993652e-01 5.239000797271728516e+00 1.431645631790161133e+00 -5.246045533567667007e-03
3.595000000000000000e+03 2.799735069274902344e+00 -2.877885341644287109e+00 -9.094381704926490784e-03 -7.924136589281260967e-04 -2.966038649901747704e-03 -1.774898171424865723e-02
3.596000000000000000e+03 3.940339279174804688e+01 -2.966434860229492188e+01 5.747811794281005859e-01 4.577278137207031250e+00 1.545617818832397461e+00 1.457187891006469727e+00
3.597000000000000000e+03 7.763991546630859375e+01 -3.542900466918945312e+01 9.452850371599197388e-02 7.489308357238769531e+00 2.275151014328002930e+00 -5.883253365755081177e-02
3.598000000000000000e+03 6.060129547119140625e+01 -4.079050064086914062e+01 -7.562755346298217773e-01 1.889125257730484009e-01 -1.702089011669158936e-01 -1.671041846275329590e-01
3.599000000000000000e+03 6.370820617675781250e+01 -1.206218910217285156e+01 -1.393875598907470703e+00 7.056697845458984375e+00 1.698846697807312012e+00 8.749912977218627930e-01
3.600000000000000000e+03 4.814070129394531250e+01 -3.690869092941284180e+00 1.154269695281982422e+00 2.844770193099975586e+00 1.199712038040161133e+00 8.635263442993164062e-01
3.601000000000000000e+03 4.986425018310546875e+01 -3.640935897827148438e+00 8.405234813690185547e-01 9.030842781066894531e+00 2.961410045623779297e+00 1.368068456649780273e+00
3.602000000000000000e+03 3.632831192016601562e+01 -4.683403968811035156e+00 4.300021231174468994e-01 5.229796767234802246e-01 2.858945429325103760e-01 6.220519542694091797e-02
3.603000000000000000e+03 5.192565155029296875e+01 -1.182265186309814453e+01 8.113192021846771240e-02 4.297779083251953125e+00 1.313673257827758789e+00 -6.372504234313964844e-01
3.604000000000000000e+03 3.475933074951171875e+01 3.281954956054687500e+01 -6.227421015501022339e-02 1.791710257530212402e+00 5.188308358192443848e-01 9.822639077901840210e-02
3.605000000000000000e+03 3.279445648193359375e+01 2.922835731506347656e+01 4.845389127731323242e-01 2.053113222122192383e+00 7.612956762313842773e-01 -4.344071745872497559e-01
3.606000000000000000e+03 5.370795440673828125e+01 1.874113440513610840e+00 1.950233101844787598e+00 5.262167930603027344e+00 2.163720369338989258e+00 4.108832836151123047e+00
3.607000000000000000e+03 2.231617355346679688e+01 2.611086845397949219e+01 3.827149868011474609e-01 5.242232680320739746e-01 2.720814645290374756e-01 4.958291053771972656e-01
3.608000000000000000e+03 1.356860351562500000e+01 -9.508276939392089844e+00 -3.421978652477264404e-02 1.411572098731994629e-01 3.208122774958610535e-02 -9.418409317731857300e-02
3.609000000000000000e+03 3.248482513427734375e+01 3.528025817871093750e+01 -1.319670528173446655e-01 1.392199039459228516e+00 3.780695796012878418e-01 -8.160691708326339722e-02
3.610000000000000000e+03 3.121918106079101562e+01 3.461905670166015625e+01 2.512389328330755234e-03 1.283670306205749512e+00 3.858548104763031006e-01 -1.592532098293304443e-01
3.611000000000000000e+03 7.716147613525390625e+01 -2.563268089294433594e+01 -3.166313767433166504e-01 8.098098754882812500e+00 2.334440231323242188e+00 -5.718982219696044922e-01
3.612000000000000000e+03 1.233996772766113281e+01 -7.753369808197021484e+00 3.009662032127380371e-03 -5.716422107070684433e-03 -8.120279526337981224e-04 -1.151013895869255066e-01
3.613000000000000000e+03 6.470746612548828125e+01 -1.476109027862548828e+01 -2.088379621505737305e+00 5.665221691131591797e+00 1.073052525520324707e+00 4.527000188827514648e-01
3.614000000000000000e+03 5.980499267578125000e+01 -1.537627887725830078e+01 -7.144425511360168457e-01 5.736536502838134766e+00 1.506628274917602539e+00 4.576373398303985596e-01
3.615000000000000000e+03 3.510286712646484375e+01 -3.284025573730468750e+01 1.253606200218200684e+00 1.263208508491516113e+00 7.550444006919860840e-01 5.956406593322753906e-01
3.616000000000000000e+03 4.239044952392578125e+01 1.202940845489501953e+01 1.702267885208129883e+00 3.287181377410888672e+00 1.496834754943847656e+00 -1.356049656867980957e+00
3.617000000000000000e+03 3.513698959350585938e+01 2.207891082763671875e+01 -6.402426958084106445e-02 2.132864952087402344e+00 6.206521987915039062e-01 -5.455795526504516602e-01
3.618000000000000000e+03 6.417525291442871094e+00 7.784714698791503906e+00 -3.068620562553405762e-01 -1.152518764138221741e-01 -1.266341805458068848e-01 1.745812594890594482e-01
3.619000000000000000e+03 2.600379371643066406e+01 -1.874201583862304688e+01 2.138265520334243774e-01 1.368982940912246704e-01 1.052174568176269531e-01 -1.355447769165039062e-01
3.620000000000000000e+03 6.006253433227539062e+01 6.833212375640869141e+00 -3.888034522533416748e-01 6.312538146972656250e+00 1.777120471000671387e+00 -1.256255865097045898e+00
3.621000000000000000e+03 6.055781936645507812e+01 6.109582901000976562e+00 -6.945351362228393555e-01 5.672533035278320312e+00 1.493399381637573242e+00 -1.403022885322570801e+00
3.622000000000000000e+03 2.335408401489257812e+01 1.518137454986572266e+01 -5.851151421666145325e-02 3.097026050090789795e-01 7.535732537508010864e-02 -3.859692066907882690e-02
3.623000000000000000e+03 2.260331344604492188e+01 1.468331432342529297e+01 -1.051800847053527832e-01 1.740557104349136353e-01 2.066268958151340485e-02 3.925869241356849670e-02
3.624000000000000000e+03 4.805380630493164062e+01 -4.079139709472656250e+00 1.116199851036071777e+00 2.897991895675659180e+00 1.204257488250732422e+00 7.800688743591308594e-01
3.625000000000000000e+03 4.698685646057128906e+00 -3.338389205932617188e+01 -2.125480957329273224e-02 -3.795072436332702637e-01 -1.202286183834075928e-01 -1.215454041957855225e-01
3.626000000000000000e+03 6.474740600585937500e+01 -1.377640819549560547e+01 -1.876816868782043457e+00 5.911180973052978516e+00 1.210309267044067383e+00 5.982147455215454102e-01
3.627000000000000000e+03 5.925410461425781250e+01 8.438200950622558594e+00 3.259330987930297852e-02 7.430209636688232422e+00 2.238840818405151367e+00 -5.727736353874206543e-01
3.628000000000000000e+03 2.422688102722167969e+01 -2.032751274108886719e+01 2.460247874259948730e-01 8.896680176258087158e-02 1.004974767565727234e-01 -2.014988958835601807e-01
3.629000000000000000e+03 4.858086776733398438e+01 -4.638894081115722656e+00 8.726720213890075684e-01 4.787446498870849609e+00 1.698035597801208496e+00 1.307444453239440918e+00
3.630000000000000000e+03 3.107878446578979492e+00 -3.608807802200317383e+00 -2.079176902770996094e-02 -3.885308653116226196e-02 -1.789345592260360718e-02 -2.848343551158905029e-02
3.631000000000000000e+03 4.172934722900390625e+01 -2.472469139099121094e+01 1.253068923950195312e+00 2.338284969329833984e+00 1.077406167984008789e+00 2.144352197647094727e+00
3.632000000000000000e+03 3.673126459121704102e+00 3.741601943969726562e+01 5.269054695963859558e-02 -8.344966173171997070e-01 -2.345418334007263184e-01 -3.315152227878570557e-02
3.633000000000000000e+03 3.525779008865356445e+00 3.516558837890625000e+01 1.018578633666038513e-01 -7.563423514366149902e-01 -1.963453441858291626e-01 8.484654244966804981e-04
3.634000000000000000e+03 4.351099014282226562e+00 3.588037109375000000e+01 1.021045967936515808e-01 -6.277627944946289062e-01 -1.576974540948867798e-01 -1.570479199290275574e-02
3.635000000000000000e+03 1.356096076965332031e+01 -2.942198753356933594e+00 -8.131455630064010620e-02 6.230067461729049683e-02 -5.704164970666170120e-03 -7.181861996650695801e-02
3.636000000000000000e+03 3.313991165161132812e+01 3.224453353881835938e+01 8.079483360052108765e-02 1.786218643188476562e+00 5.601040720939636230e-01 -2.635366618633270264e-01
3.637000000000000000e+03 4.161361694335937500e+01 1.271210193634033203e+01 1.524519205093383789e+00 2.417425632476806641e+00 1.182583451271057129e+00 -1.447680830955505371e+00
3.638000000000000000e+03 1.135698509216308594e+01 1.932777404785156250e+01 3.790746331214904785e-01 2.963538169860839844e-01 2.026285231113433838e-01 3.046738803386688232e-01
3.639000000000000000e+03 3.643331527709960938e+01 -2.826085567474365234e+00 -2.141667604446411133e-01 2.332083433866500854e-01 5.712477955967187881e-03 -1.775009185075759888e-01
3.640000000000000000e+03 6.043609619140625000e+01 -2.041801261901855469e+01 2.294704914093017578e+00 4.734683990478515625e+00 2.108816623687744141e+00 -4.313367605209350586e-01
3.641000000000000000e+03 3.735620117187500000e+01 1.702679634094238281e+01 4.838333129882812500e-01 8.822978734970092773e-01 4.098393619060516357e-01 -1.100001573562622070e+00
3.642000000000000000e+03 3.753090286254882812e+01 1.810863113403320312e+01 2.752529978752136230e-01 1.030412912368774414e+00 3.916997611522674561e-01 -1.110206007957458496e+00
3.643000000000000000e+03 2.501564788818359375e+01 -1.600701904296875000e+01 -3.598636686801910400e-01 -3.022577464580535889e-01 -1.986364275217056274e-01 -3.711360692977905273e-01
3.644000000000000000e+03 2.456927490234375000e+01 -1.683600997924804688e+01 -1.062471717596054077e-01 -1.868158429861068726e-01 -8.791890740394592285e-02 -3.222323358058929443e-01
3.645000000000000000e+03 6.565252685546875000e+01 3.375471115112304688e+01 -3.196428418159484863e-01 5.258470058441162109e+00 1.481648087501525879e+00 6.492697596549987793e-01
3.646000000000000000e+03 2.428503227233886719e+01 9.804701805114746094e+00 3.664058744907379150e-01 2.061569876968860626e-02 1.161064729094505310e-01 1.341204643249511719e-01
3.647000000000000000e+03 5.403532409667968750e+01 1.771146202087402344e+01 2.471855878829956055e-01 5.026198387145996094e+00 1.582015156745910645e+00 -1.900984883308410645e+00
3.648000000000000000e+03 2.444427871704101562e+01 5.932815551757812500e+00 2.459072135388851166e-02 -7.957445085048675537e-02 -1.649511791765689850e-02 1.301107555627822876e-01
3.649000000000000000e+03 2.536635780334472656e+01 -1.737721824645996094e+01 -5.036528035998344421e-02 -1.125622019171714783e-01 -4.887824505567550659e-02 -2.739281058311462402e-01
3.650000000000000000e+03 7.599491119384765625e+01 1.849898529052734375e+01 -7.440762519836425781e-01 7.706327915191650391e+00 2.088675498962402344e+00 8.703796863555908203e-01
3.651000000000000000e+03 5.204050064086914062e+01 -3.080212974548339844e+01 1.702397584915161133e+00 4.430352687835693359e+00 1.839825034141540527e+00 4.105471670627593994e-01
3.652000000000000000e+03 4.964206218719482422e+00 1.031193351745605469e+01 -1.645177900791168213e-01 -1.519975215196609497e-01 -9.495459496974945068e-02 3.277361094951629639e-01
3.653000000000000000e+03 4.717025756835937500e+00 -9.769948959350585938e+00 3.482666984200477600e-02 -1.614742130041122437e-01 -3.799426555633544922e-02 -3.506162762641906738e-02
3.654000000000000000e+03 3.233398437500000000e+01 3.390408325195312500e+01 -8.917610161006450653e-03 1.449574828147888184e+00 4.321971535682678223e-01 -2.293061465024948120e-01
3.655000000000000000e+03 4.159804534912109375e+01 4.934129238128662109e+00 -2.379980683326721191e-01 4.992172420024871826e-01 7.836574316024780273e-02 -1.274545192718505859e-01
3.656000000000000000e+03 4.240814208984375000e+01 5.562360286712646484e+00 -2.395624518394470215e-01 1.538728952407836914e+00 3.897499740123748779e-01 -3.303855955600738525e-01
3.657000000000000000e+03 1.229072284698486328e+01 -2.904133605957031250e+01 -9.574034810066223145e-02 -2.730994820594787598e-01 -1.106519550085067749e-01 -1.669357568025588989e-01
3.658000000000000000e+03 2.487456703186035156e+01 -1.832837295532226562e+01 9.204151481389999390e-02 -2.873395569622516632e-02 1.899226941168308258e-02 -2.519034147262573242e-01
3.659000000000000000e+03 5.267297363281250000e+01 1.931112289428710938e+01 -1.430613040924072266e+00 4.350828170776367188e+00 8.760645389556884766e-01 -2.362383365631103516e+00
3.660000000000000000e+03 7.514719390869140625e+01 1.911371803283691406e+01 -9.574825763702392578e-01 7.705882549285888672e+00 2.024520158767700195e+00 5.915769934654235840e-01
3.661000000000000000e+03 3.402330398559570312e+00 1.795808219909667969e+01 1.002268344163894653e-01 -5.447118878364562988e-01 -1.333455145359039307e-01 1.020202860236167908e-01
3.662000000000000000e+03 1.062282752990722656e+01 -6.899457931518554688e+00 3.641355037689208984e-02 -2.587755583226680756e-02 3.160797758027911186e-03 -1.213331520557403564e-01
3.663000000000000000e+03 2.388828468322753906e+01 4.477314949035644531e+00 -4.067356288433074951e-01 -1.170623004436492920e-01 -1.571393758058547974e-01 1.863457858562469482e-01
3.664000000000000000e+03 2.371633529663085938e+01 3.853548765182495117e+00 -6.531893014907836914e-01 -1.192081123590469360e-01 -2.317192256450653076e-01 2.090548276901245117e-01
3.665000000000000000e+03 2.354835128784179688e+01 -1.943113708496093750e+01 1.256370693445205688e-01 -9.740785695612430573e-03 3.476888313889503479e-02 -3.196428418159484863e-01
3.666000000000000000e+03 8.199425697326660156e+00 -6.468228816986083984e+00 9.803421795368194580e-03 -9.452339261770248413e-02 -2.541599050164222717e-02 -1.105668023228645325e-01
3.667000000000000000e+03 7.340214538574218750e+01 2.363560104370117188e+01 -5.411418080329895020e-01 6.044629573822021484e+00 1.651046276092529297e+00 -7.020862698554992676e-01
3.668000000000000000e+03 7.573707580566406250e+01 -3.199301338195800781e+01 2.566499710083007812e-01 6.660608768463134766e+00 2.075177669525146484e+00 2.415944188833236694e-01
3.669000000000000000e+03 7.466744232177734375e+01 2.952511978149414062e+01 4.041368663311004639e-01 6.255614757537841797e+00 1.997925400733947754e+00 -1.554846018552780151e-01
3.670000000000000000e+03 7.969878673553466797e+00 -5.534787178039550781e+00 1.878964528441429138e-02 -6.566538661718368530e-02 -1.406272314488887787e-02 -1.064812988042831421e-01
3.671000000000000000e+03 9.909551620483398438e+00 -5.595870018005371094e+00 2.373312786221504211e-02 -5.965036898851394653e-02 -1.077517308294773102e-02 -1.217637956142425537e-01
3.672000000000000000e+03 9.059065818786621094e+00 -5.974751472473144531e+00 -3.867375198751688004e-04 -9.049720317125320435e-02 -2.726518176496028900e-02 -1.076002717018127441e-01
3.673000000000000000e+03 8.577854156494140625e+00 -5.274914741516113281e+00 -3.226866945624351501e-02 -1.015695407986640930e-01 -4.015146195888519287e-02 -1.211028695106506348e-01
3.674000000000000000e+03 1.115754413604736328e+01 -1.603091955184936523e-01 -3.683621883392333984e-01 -1.745112091302871704e-01 -1.628620177507400513e-01 -8.365747332572937012e-02
3.675000000000000000e+03 1.126386642456054688e+01 -8.940912485122680664e-01 -2.877708375453948975e-01 9.323122352361679077e-02 -5.836188793182373047e-02 -1.222958192229270935e-01
3.676000000000000000e+03 1.049932956695556641e+01 -1.051980972290039062e+00 -2.371683120727539062e-01 -1.685883700847625732e-01 -1.217270046472549438e-01 -1.043606400489807129e-01
3.677000000000000000e+03 1.279222297668457031e+01 -5.713624954223632812e-01 -3.575695753097534180e-01 1.307759582996368408e-01 -6.803808361291885376e-02 -1.504490822553634644e-01
3.678000000000000000e+03 1.264629268646240234e+01 1.541289687156677246e-01 -4.653054177761077881e-01 -2.222169488668441772e-01 -2.062567174434661865e-01 -9.643401205539703369e-02
3.679000000000000000e+03 1.190196800231933594e+01 -3.807745641097426414e-03 -4.119266271591186523e-01 1.362536698579788208e-01 -8.270189166069030762e-02 -1.326936036348342896e-01
3.680000000000000000e+03 1.202809429168701172e+01 -7.334445118904113770e-01 -3.120386004447937012e-01 -2.036933451890945435e-01 -1.547195911407470703e-01 -1.288692206144332886e-01
3.681000000000000000e+03 1.041281127929687500e+01 -3.140535950660705566e-01 -3.348161876201629639e-01 1.053548529744148254e-01 -6.883839517831802368e-02 -9.532099217176437378e-02
3.682000000000000000e+03 9.660583496093750000e+00 -3.871031999588012695e-01 -2.769399583339691162e-01 -1.442720293998718262e-01 -1.263635903596878052e-01 -3.803898021578788757e-02
3.683000000000000000e+03 8.901437759399414062e+00 -3.833611309528350830e-01 -1.928743124008178711e-01 1.100129336118698120e-01 -2.485841326415538788e-02 -4.096064716577529907e-02
3.684000000000000000e+03 8.142838478088378906e+00 -3.822377920150756836e-01 -1.456190347671508789e-01 -1.029314324259757996e-01 -7.456514239311218262e-02 -8.827444165945053101e-03
3.685000000000000000e+03 7.384317874908447266e+00 -3.816416263580322266e-01 -9.891033172607421875e-02 8.518390357494354248e-02 -4.117929842323064804e-03 -3.098466992378234863e-02
3.686000000000000000e+03 6.625857353210449219e+00 -3.809241652488708496e-01 -7.293974608182907104e-02 -7.621692866086959839e-02 -4.474700242280960083e-02 -6.366439629346132278e-05
3.687000000000000000e+03 5.867558479309082031e+00 -3.799938857555389404e-01 -4.211904481053352356e-02 6.122247129678726196e-02 5.731028504669666290e-03 -2.322605066001415253e-02
3.688000000000000000e+03 5.109274387359619141e+00 -3.788675963878631592e-01 -2.917169965803623199e-02 -5.236358940601348877e-02 -2.446058578789234161e-02 3.792087547481060028e-03
3.689000000000000000e+03 4.350872039794921875e+00 -3.776756227016448975e-01 -1.131133083254098892e-02 3.904910758137702942e-02 8.321332745254039764e-03 -1.481955405324697495e-02
3.690000000000000000e+03 3.592402935028076172e+00 -3.764508068561553955e-01 -5.891303997486829758e-03 -3.026422485709190369e-02 -1.084665860980749130e-02 3.659658599644899368e-03
3.691000000000000000e+03 2.834043025970458984e+00 -3.751347661018371582e-01 1.365794218145310879e-03 1.900349743664264679e-02 6.110787857323884964e-03 -6.590262986719608307e-03
3.692000000000000000e+03 2.077167272567749023e+00 -3.747134804725646973e-01 1.451638410799205303e-03 -1.234230678528547287e-02 -3.267200663685798645e-03 2.750302199274301529e-03
3.693000000000000000e+03 1.334073781967163086e+00 -3.800741434097290039e-01 2.457591705024242401e-03 5.612127017229795456e-03 2.420915756374597549e-03 -1.629160251468420029e-03
3.694000000000000000e+03 3.531542122364044189e-01 -9.606399536132812500e-01 3.427454736083745956e-03 1.426464295946061611e-03 1.456175697967410088e-03 -4.081519437022507191e-04
3.695000000000000000e+03 6.561777591705322266e-01 -4.032240808010101318e-01 -3.002679673954844475e-03 -3.021900309249758720e-03 -1.807374064810574055e-03 3.792613977566361427e-03
3.696000000000000000e+03 9.748202323913574219e+00 -1.127103209495544434e+00 -2.033489346504211426e-01 6.592966616153717041e-02 -4.122578352689743042e-02 -1.057897210121154785e-01
3.697000000000000000e+03 9.011062622070312500e+00 -1.123361110687255859e+00 -1.829001307487487793e-01 -1.193771660327911377e-01 -9.068318456411361694e-02 -8.026610314846038818e-02
3.698000000000000000e+03 8.274469375610351562e+00 -1.122237801551818848e+00 -1.369863152503967285e-01 7.507777959108352661e-02 -1.857256330549716949e-02 -6.841945648193359375e-02
3.699000000000000000e+03 7.537953376770019531e+00 -1.121641635894775391e+00 -1.089388877153396606e-01 -8.824232965707778931e-02 -5.915436521172523499e-02 -4.555189982056617737e-02
3.700000000000000000e+03 6.801498889923095703e+00 -1.120924115180969238e+00 -7.894732803106307983e-02 6.139643490314483643e-02 -5.265268497169017792e-03 -4.712838679552078247e-02
3.701000000000000000e+03 6.065205574035644531e+00 -1.119993925094604492e+00 -5.815563350915908813e-02 -6.738708168268203735e-02 -3.766281530261039734e-02 -2.662281692028045654e-02
3.702000000000000000e+03 5.328927040100097656e+00 -1.118867635726928711e+00 -4.120975360274314880e-02 4.441099986433982849e-02 9.603730286471545696e-04 -2.906904742121696472e-02
3.703000000000000000e+03 4.592530727386474609e+00 -1.117675662040710449e+00 -2.475033327937126160e-02 -4.624609649181365967e-02 -2.129893004894256592e-02 -1.477913744747638702e-02
3.704000000000000000e+03 3.856066942214965820e+00 -1.116450786590576172e+00 -1.817433908581733704e-02 2.752770669758319855e-02 2.806010423228144646e-03 -1.432447414845228195e-02
3.705000000000000000e+03 3.119712829589843750e+00 -1.115134716033935547e+00 -8.152845315635204315e-03 -2.808476611971855164e-02 -1.087128371000289917e-02 -5.580791272222995758e-03
3.706000000000000000e+03 2.384842634201049805e+00 -1.114713430404663086e+00 -4.523186013102531433e-03 1.427843421697616577e-02 2.926574554294347763e-03 -5.460065323859453201e-03
3.707000000000000000e+03 1.663754701614379883e+00 -1.120074152946472168e+00 -2.451521111652255058e-03 -1.424909103661775589e-02 -5.010183434933423996e-03 1.876299851574003696e-03
3.708000000000000000e+03 1.007864356040954590e+00 -1.143224120140075684e+00 2.684274688363075256e-03 5.758794024586677551e-03 2.532920567318797112e-03 -1.859264331869781017e-03
3.709000000000000000e+03 5.020408630371093750e+01 -4.570541083812713623e-01 2.248291015625000000e+01 1.010936069488525391e+01 9.777681350708007812e+00 1.355311870574951172e+01
3.710000000000000000e+03 5.021211242675781250e+01 -4.747936427593231201e-01 1.695330238342285156e+01 2.294460487365722656e+01 1.196937179565429688e+01 1.912471199035644531e+01
3.711000000000000000e+03 5.022343826293945312e+01 -4.906307756900787354e-01 1.407782459259033203e+01 3.333275222778320312e+01 1.422317314147949219e+01 1.955260848999023438e+01
3.712000000000000000e+03 5.023763275146484375e+01 -5.039593577384948730e-01 1.096146392822265625e+01 4.266115570068359375e+01 1.608678627014160156e+01 1.770305252075195312e+01
3.713000000000000000e+03 5.025415039062500000e+01 -5.142691135406494141e-01 9.326890945434570312e+00 5.056611633300781250e+01 1.796790313720703125e+01 1.377402687072753906e+01
3.714000000000000000e+03 5.027235794067382812e+01 -5.211654901504516602e-01 8.362391471862792969e+00 5.590291976928710938e+01 1.927959251403808594e+01 8.659014701843261719e+00
3.715000000000000000e+03 5.029156112670898438e+01 -5.243844389915466309e-01 9.752286911010742188e+00 5.920392227172851562e+01 2.068686294555664062e+01 2.609096527099609375e+00
3.716000000000000000e+03 5.031102371215820312e+01 -5.238027572631835938e-01 1.171487522125244141e+01 5.941756820678710938e+01 2.133973312377929688e+01 -3.043755292892456055e+00
3.717000000000000000e+03 5.033000183105468750e+01 -5.194427371025085449e-01 1.639974403381347656e+01 5.782523345947265625e+01 2.226749420166015625e+01 -7.917526245117187500e+00
3.718000000000000000e+03 5.034776306152343750e+01 -5.114712715148925781e-01 2.060517501831054688e+01 5.399880218505859375e+01 2.238119316101074219e+01 -1.131965351104736328e+01
3.719000000000000000e+03 5.036363601684570312e+01 -5.001934766769409180e-01 2.637401962280273438e+01 4.980839920043945312e+01 2.285472679138183594e+01 -1.268280696868896484e+01
3.720000000000000000e+03 5.037700653076171875e+01 -4.860410392284393311e-01 3.065557289123535156e+01 4.487219619750976562e+01 2.265833091735839844e+01 -1.253187274932861328e+01
3.721000000000000000e+03 5.038737106323242188e+01 -4.695557057857513428e-01 3.488112258911132812e+01 4.128211212158203125e+01 2.284897041320800781e+01 -1.049661445617675781e+01
3.722000000000000000e+03 5.039432525634765625e+01 -4.513685107231140137e-01 3.712812805175781250e+01 3.792387390136718750e+01 2.251560020446777344e+01 -7.690155506134033203e+00
3.723000000000000000e+03 5.039760208129882812e+01 -4.321755766868591309e-01 3.851416015625000000e+01 3.701898956298828125e+01 2.265994453430175781e+01 -4.133623600006103516e+00
3.724000000000000000e+03 5.039707946777343750e+01 -4.127115905284881592e-01 3.797729110717773438e+01 3.641211318969726562e+01 2.231682205200195312e+01 -5.665280222892761230e-01
3.725000000000000000e+03 5.039278030395507812e+01 -3.937217295169830322e-01 3.681718063354492188e+01 3.847446823120117188e+01 2.258749389648437500e+01 2.383680343627929688e+00
3.726000000000000000e+03 5.038486099243164062e+01 -3.759328126907348633e-01 3.378706741333007812e+01 4.075508880615234375e+01 2.236264610290527344e+01 4.975340843200683594e+00
3.727000000000000000e+03 5.037363433837890625e+01 -3.600257039070129395e-01 3.097207832336425781e+01 4.431768798828125000e+01 2.258692932128906250e+01 5.949455261230468750e+00
3.728000000000000000e+03 5.035952377319335938e+01 -3.466092348098754883e-01 2.687005233764648438e+01 4.875260162353515625e+01 2.268679618835449219e+01 5.670334339141845703e+00
3.729000000000000000e+03 5.034307098388671875e+01 -3.361970186233520508e-01 2.315759658813476562e+01 5.229590988159179688e+01 2.263605308532714844e+01 3.998517513275146484e+00
3.730000000000000000e+03 5.032490539550781250e+01 -3.291875422000885010e-01 2.003746795654296875e+01 5.562424468994140625e+01 2.269851303100585938e+01 4.100547432899475098e-01
3.731000000000000000e+03 5.030572509765625000e+01 -3.258491456508636475e-01 1.789174270629882812e+01 5.714244842529296875e+01 2.251025772094726562e+01 -4.223621368408203125e+00
3.732000000000000000e+03 5.028625869750976562e+01 -3.263096213340759277e-01 1.709228324890136719e+01 5.650514221191406250e+01 2.207922744750976562e+01 -9.735786437988281250e+00
3.733000000000000000e+03 5.026725387573242188e+01 -3.305513262748718262e-01 1.793353843688964844e+01 5.348562622070312500e+01 2.142574882507324219e+01 -1.504727745056152344e+01
3.734000000000000000e+03 5.024943923950195312e+01 -3.384118974208831787e-01 2.040950393676757812e+01 4.813230895996093750e+01 2.056254386901855469e+01 -1.953744506835937500e+01
3.735000000000000000e+03 5.023349761962890625e+01 -3.495904505252838135e-01 2.333736991882324219e+01 4.054769897460937500e+01 1.916551971435546875e+01 -2.256949615478515625e+01
3.736000000000000000e+03 5.022003936767578125e+01 -3.636591136455535889e-01 2.684001159667968750e+01 3.221047973632812500e+01 1.771514701843261719e+01 -2.342526435852050781e+01
3.737000000000000000e+03 5.020957565307617188e+01 -3.800793588161468506e-01 2.951133537292480469e+01 2.305284118652343750e+01 1.576925277709960938e+01 -2.228850364685058594e+01
3.738000000000000000e+03 5.020250701904296875e+01 -3.982226848602294922e-01 3.139060020446777344e+01 1.451869297027587891e+01 1.377278804779052734e+01 -1.887684822082519531e+01
3.739000000000000000e+03 5.019911193847656250e+01 -4.173946082592010498e-01 3.124985504150390625e+01 6.958440303802490234e+00 1.146248817443847656e+01 -1.384310626983642578e+01
3.740000000000000000e+03 5.019950866699218750e+01 -4.368612468242645264e-01 2.904394912719726562e+01 1.921600937843322754e+00 9.289665222167968750e+00 -3.693871736526489258e+00
