# el_label, x, y, sXX, sYY, sZZ, sXY
1.000000000000000000e+00 3.301525115966796875e+01 -6.451216340065002441e-01 -1.096101030707359314e-01 -2.667287111282348633e+00 -8.330691456794738770e-01 -1.300548315048217773e+00
2.000000000000000000e+00 3.283691787719726562e+01 -7.335213422775268555e-01 1.078680872917175293e+00 9.653732180595397949e-01 6.132162213325500488e-01 8.118550181388854980e-01
3.000000000000000000e+00 3.265858459472656250e+01 -8.219210505485534668e-01 4.749685227870941162e-01 3.103323653340339661e-02 1.518005281686782837e-01 2.855758368968963623e-01
4.000000000000000000e+00 3.248025131225585938e+01 -9.103207588195800781e-01 1.254675090312957764e-01 1.582370251417160034e-01 8.511136472225189209e-02 2.288022935390472412e-01
5.000000000000000000e+00 3.304619979858398438e+01 -6.946798563003540039e-01 6.719096183776855469e+00 1.858836561441421509e-01 2.071493864059448242e+00 4.406260967254638672e+00
6.000000000000000000e+00 3.288849639892578125e+01 -8.161183595657348633e-01 2.882834672927856445e+00 1.408733010292053223e+00 1.287470221519470215e+00 1.870449900627136230e+00
7.000000000000000000e+00 3.273079299926757812e+01 -9.375568628311157227e-01 2.279324054718017578e+00 1.766582965850830078e+00 1.213772058486938477e+00 2.240379095077514648e+00
8.000000000000000000e+00 3.257309341430664062e+01 -1.058995366096496582e+00 1.689386129379272461e+00 1.288809180259704590e+00 8.934586048126220703e-01 1.557492375373840332e+00
9.000000000000000000e+00 3.308620452880859375e+01 -7.372619509696960449e-01 7.009135246276855469e+00 6.792195796966552734e+00 4.140399456024169922e+00 7.887675762176513672e+00
1.000000000000000000e+01 3.295517349243164062e+01 -8.870885372161865234e-01 4.499687671661376953e+00 3.937137126922607422e+00 2.531047344207763672e+00 4.842676162719726562e+00
1.100000000000000000e+01 3.282414245605468750e+01 -1.036915183067321777e+00 3.024888515472412109e+00 3.699875354766845703e+00 2.017429113388061523e+00 3.403697967529296875e+00
1.200000000000000000e+01 3.269311141967773438e+01 -1.186741709709167480e+00 2.364895343780517578e+00 3.366452217102050781e+00 1.719404220581054688e+00 3.277348756790161133e+00
1.300000000000000000e+01 3.313373947143554688e+01 -7.712372541427612305e-01 5.918055534362792969e+00 1.313969421386718750e+01 5.717324733734130859e+00 9.458880424499511719e+00
1.400000000000000000e+01 3.303439712524414062e+01 -9.437140226364135742e-01 3.932574510574340820e+00 8.465149879455566406e+00 3.719317197799682617e+00 6.184408187866210938e+00
1.500000000000000000e+01 3.293505477905273438e+01 -1.116190791130065918e+00 3.061129808425903320e+00 6.649365425109863281e+00 2.913148641586303711e+00 4.937831401824951172e+00
1.600000000000000000e+01 3.283571243286132812e+01 -1.288667559623718262e+00 2.262713670730590820e+00 5.765688419342041016e+00 2.408520460128784180e+00 4.003720283508300781e+00
1.700000000000000000e+01 3.318697738647460938e+01 -7.953044772148132324e-01 4.012648582458496094e+00 1.953634071350097656e+01 7.064696788787841797e+00 8.648355484008789062e+00
1.800000000000000000e+01 3.312312698364257812e+01 -9.838261008262634277e-01 2.926034927368164062e+00 1.296470069885253906e+01 4.767220973968505859e+00 6.424264907836914062e+00
1.900000000000000000e+01 3.305928039550781250e+01 -1.172347784042358398e+00 2.224004268646240234e+00 1.030188274383544922e+01 3.757766008377075195e+00 4.994017601013183594e+00
2.000000000000000000e+01 3.299542999267578125e+01 -1.360869288444519043e+00 1.679001569747924805e+00 8.743505477905273438e+00 3.126752138137817383e+00 4.426002025604248047e+00
2.100000000000000000e+01 3.324388504028320312e+01 -8.085420727729797363e-01 2.639537096023559570e+00 2.464440155029296875e+01 8.185181617736816406e+00 6.326961994171142578e+00
2.200000000000000000e+01 3.321797561645507812e+01 -1.005888700485229492e+00 1.920997023582458496e+00 1.706451797485351562e+01 5.695654392242431641e+00 4.977057933807373047e+00
2.300000000000000000e+01 3.319206619262695312e+01 -1.203235387802124023e+00 1.375816226005554199e+00 1.371633815765380859e+01 4.527646064758300781e+00 4.313572406768798828e+00
2.400000000000000000e+01 3.316615295410156250e+01 -1.400582075119018555e+00 1.032521367073059082e+00 1.175876426696777344e+01 3.837385654449462891e+00 3.610410451889038086e+00
2.500000000000000000e+01 3.330228042602539062e+01 -8.104429841041564941e-01 2.296803712844848633e+00 2.804661369323730469e+01 9.103025436401367188e+00 2.662344932556152344e+00
2.600000000000000000e+01 3.331530380249023438e+01 -1.009056925773620605e+00 1.630982637405395508e+00 2.017016983032226562e+01 6.540345668792724609e+00 2.766975879669189453e+00
2.700000000000000000e+01 3.332832336425781250e+01 -1.207670807838439941e+00 9.758661389350891113e-01 1.628813362121582031e+01 5.179199695587158203e+00 2.439003944396972656e+00
2.800000000000000000e+01 3.334134292602539062e+01 -1.406284689903259277e+00 7.317231893539428711e-01 1.412847518920898438e+01 4.458059310913085938e+00 2.366756677627563477e+00
2.900000000000000000e+01 3.335993194580078125e+01 -8.009344339370727539e-01 3.671600341796875000e+00 2.966731452941894531e+01 1.000167465209960938e+01 -1.240931510925292969e+00
3.000000000000000000e+01 3.341138076782226562e+01 -9.932093024253845215e-01 2.083244800567626953e+00 2.173107147216796875e+01 7.144294738769531250e+00 -1.014260351657867432e-01
3.100000000000000000e+01 3.346283340454101562e+01 -1.185484170913696289e+00 1.524580001831054688e+00 1.798476791381835938e+01 5.852804660797119141e+00 2.811407744884490967e-01
3.200000000000000000e+01 3.351428985595703125e+01 -1.377759099006652832e+00 9.782322049140930176e-01 1.528340435028076172e+01 4.878490924835205078e+00 2.847583293914794922e-01
3.300000000000000000e+01 3.341462326049804688e+01 -7.803805470466613770e-01 5.906435489654541016e+00 2.917981529235839844e+01 1.052587509155273438e+01 -4.843847751617431641e+00
3.400000000000000000e+01 3.350253677368164062e+01 -9.589529037475585938e-01 4.005189418792724609e+00 2.224312591552734375e+01 7.874495029449462891e+00 -2.770356893539428711e+00
3.500000000000000000e+01 3.359045028686523438e+01 -1.137525200843811035e+00 2.612320184707641602e+00 1.808340072631835938e+01 6.208716392517089844e+00 -2.107069253921508789e+00
3.600000000000000000e+01 3.367836380004882812e+01 -1.316097497940063477e+00 2.182444334030151367e+00 1.588743686676025391e+01 5.420964241027832031e+00 -1.589933037757873535e+00
3.700000000000000000e+01 3.346426391601562500e+01 -7.495685219764709473e-01 9.853030204772949219e+00 2.779636001586914062e+01 1.129481697082519531e+01 -7.231014251708984375e+00
3.800000000000000000e+01 3.358527374267578125e+01 -9.075995087623596191e-01 6.083696365356445312e+00 2.109234809875488281e+01 8.152812957763671875e+00 -5.089641571044921875e+00
3.900000000000000000e+01 3.370627975463867188e+01 -1.065630555152893066e+00 5.036917209625244141e+00 1.763644218444824219e+01 6.802007675170898438e+00 -3.922272205352783203e+00
4.000000000000000000e+01 3.382728958129882812e+01 -1.223661422729492188e+00 3.744973182678222656e+00 1.486437702178955078e+01 5.582805156707763672e+00 -3.259632110595703125e+00
4.100000000000000000e+01 3.350695419311523438e+01 -7.096783518791198730e-01 1.322786521911621094e+01 2.506334877014160156e+01 1.148736381530761719e+01 -8.574584960937500000e+00
4.200000000000000000e+01 3.365642547607421875e+01 -8.411158919334411621e-01 9.507480621337890625e+00 1.974933242797851562e+01 8.777044296264648438e+00 -6.236278057098388672e+00
4.300000000000000000e+01 3.380589294433593750e+01 -9.725534319877624512e-01 7.136670112609863281e+00 1.581952857971191406e+01 6.886859416961669922e+00 -5.238697528839111328e+00
4.400000000000000000e+01 3.395536422729492188e+01 -1.103990912437438965e+00 6.458054542541503906e+00 1.378692150115966797e+01 6.073493003845214844e+00 -4.235204696655273438e+00
4.500000000000000000e+01 3.354105758666992188e+01 -6.622377038002014160e-01 1.729024505615234375e+01 2.312534141540527344e+01 1.212467575073242188e+01 -8.213376998901367188e+00
4.600000000000000000e+01 3.371326446533203125e+01 -7.620481252670288086e-01 1.205825805664062500e+01 1.725176811218261719e+01 8.793007850646972656e+00 -6.725793838500976562e+00
4.700000000000000000e+01 3.388547134399414062e+01 -8.618585467338562012e-01 1.016160106658935547e+01 1.438324451446533203e+01 7.363453865051269531e+00 -5.284514427185058594e+00
4.800000000000000000e+01 3.405767440795898438e+01 -9.616689682006835938e-01 8.269506454467773438e+00 1.179855251312255859e+01 6.020417690277099609e+00 -4.660741806030273438e+00
4.900000000000000000e+01 3.356526947021484375e+01 -6.090633869171142578e-01 1.970883369445800781e+01 2.054542922973632812e+01 1.207627868652343750e+01 -7.225458621978759766e+00
5.000000000000000000e+01 3.375362014770507812e+01 -6.734242439270019531e-01 1.499022769927978516e+01 1.592749404907226562e+01 9.275317192077636719e+00 -5.768008232116699219e+00
5.100000000000000000e+01 3.394196319580078125e+01 -7.377851605415344238e-01 1.203887748718261719e+01 1.210893249511718750e+01 7.244342803955078125e+00 -4.943622112274169922e+00
5.200000000000000000e+01 3.413031387329101562e+01 -8.021460175514221191e-01 1.059866523742675781e+01 1.051296997070312500e+01 6.333490848541259766e+00 -3.733646631240844727e+00
5.300000000000000000e+01 3.357866287231445312e+01 -5.521918535232543945e-01 2.174463462829589844e+01 2.000515174865722656e+01 1.252493572235107422e+01 -5.261158943176269531e+00
5.400000000000000000e+01 3.377593994140625000e+01 -5.786383748054504395e-01 1.651832771301269531e+01 1.392526340484619141e+01 9.133077621459960938e+00 -4.473399162292480469e+00
5.500000000000000000e+01 3.397321319580078125e+01 -6.050848960876464844e-01 1.374677562713623047e+01 1.142256736755371094e+01 7.550802707672119141e+00 -3.421536684036254883e+00
5.600000000000000000e+01 3.417049026489257812e+01 -6.315314173698425293e-01 1.172339534759521484e+01 8.542939186096191406e+00 6.079900264739990234e+00 -2.848586082458496094e+00
5.700000000000000000e+01 3.358072280883789062e+01 -4.938010871410369873e-01 2.219531631469726562e+01 1.918021392822265625e+01 1.241265869140625000e+01 -3.160768032073974609e+00
5.800000000000000000e+01 3.377937316894531250e+01 -4.813204109668731689e-01 1.726884460449218750e+01 1.392500305175781250e+01 9.358154296875000000e+00 -2.641646862030029297e+00
5.900000000000000000e+01 3.397801971435546875e+01 -4.688397347927093506e-01 1.430881214141845703e+01 1.020592975616455078e+01 7.354422569274902344e+00 -1.904110789299011230e+00
6.000000000000000000e+01 3.417667007446289062e+01 -4.563590586185455322e-01 1.229719257354736328e+01 8.481263160705566406e+00 6.233536720275878906e+00 -1.240746259689331055e+00
6.100000000000000000e+01 3.357136917114257812e+01 -4.361272752285003662e-01 2.175826072692871094e+01 1.983128166198730469e+01 1.247686290740966797e+01 -1.386964082717895508e+00
6.200000000000000000e+01 3.376378631591796875e+01 -3.851973712444305420e-01 1.681604003906250000e+01 1.413262844085693359e+01 9.284600257873535156e+00 -7.915896773338317871e-01
6.300000000000000000e+01 3.395619964599609375e+01 -3.342674970626831055e-01 1.380716133117675781e+01 1.059447479248046875e+01 7.320490837097167969e+00 -4.976297318935394287e-01
6.400000000000000000e+01 3.414861297607421875e+01 -2.833375930786132812e-01 1.192452239990234375e+01 8.142298698425292969e+00 6.020046710968017578e+00 8.900506049394607544e-02
6.500000000000000000e+01 3.355096817016601562e+01 -3.813794553279876709e-01 2.036915016174316406e+01 2.152627372741699219e+01 1.256862735748291016e+01 9.263298660516738892e-02
6.600000000000000000e+01 3.372977828979492188e+01 -2.939510345458984375e-01 1.528576564788818359e+01 1.488766765594482422e+01 9.052029609680175781e+00 4.250308573246002197e-01
6.700000000000000000e+01 3.390858840942382812e+01 -2.065226286649703979e-01 1.251660060882568359e+01 1.183415412902832031e+01 7.305226802825927734e+00 5.401070713996887207e-01
6.800000000000000000e+01 3.408739852905273438e+01 -1.190942153334617615e-01 1.042580318450927734e+01 8.571754455566406250e+00 5.699267387390136719e+00 8.620091080665588379e-01
6.900000000000000000e+01 3.352029037475585938e+01 -3.316542804241180420e-01 1.784419822692871094e+01 2.246161270141601562e+01 1.209174346923828125e+01 9.407947659492492676e-01
7.000000000000000000e+01 3.367864990234375000e+01 -2.110757380723953247e-01 1.343695068359375000e+01 1.732695198059082031e+01 9.229170799255371094e+00 6.281244158744812012e-01
7.100000000000000000e+01 3.383700942993164062e+01 -9.049720317125320435e-02 1.024201393127441406e+01 1.246413898468017578e+01 6.811845779418945312e+00 1.063478469848632812e+00
7.200000000000000000e+01 3.399536895751953125e+01 3.008132986724376678e-02 8.602847099304199219e+00 1.053601169586181641e+01 5.741657733917236328e+00 7.761113643646240234e-01
7.300000000000000000e+01 3.348051452636718750e+01 -2.888556122779846191e-01 1.598570251464843750e+01 2.546116065979003906e+01 1.243405914306640625e+01 2.556402981281280518e-01
7.400000000000000000e+01 3.361235809326171875e+01 -1.397446095943450928e-01 1.026946353912353516e+01 1.818408393859863281e+01 8.536064147949218750e+00 5.595460534095764160e-01
7.500000000000000000e+01 3.374420547485351562e+01 9.366383776068687439e-03 8.582695960998535156e+00 1.484695625305175781e+01 7.028895854949951172e+00 -1.702214181423187256e-01
7.600000000000000000e+01 3.387604904174804688e+01 1.584773808717727661e-01 5.934307098388671875e+00 1.092601203918457031e+01 5.058095932006835938e+00 7.466472983360290527e-01
7.700000000000000000e+01 3.343317031860351562e+01 -2.546224296092987061e-01 1.209363937377929688e+01 2.636701965332031250e+01 1.153819751739501953e+01 -5.975611209869384766e-01
7.800000000000000000e+01 3.353344726562500000e+01 -8.268932998180389404e-02 9.156502723693847656e+00 2.040691947937011719e+01 8.869026184082031250e+00 -1.543149709701538086e+00
7.900000000000000000e+01 3.363372802734375000e+01 8.924376964569091797e-02 5.281586170196533203e+00 1.550251674652099609e+01 6.235230922698974609e+00 -9.743233919143676758e-01
8.000000000000000000e+01 3.373400878906250000e+01 2.611768841743469238e-01 5.022634506225585938e+00 1.262866210937500000e+01 5.295389175415039062e+00 -1.749360918998718262e+00
8.100000000000000000e+01 3.338006210327148438e+01 -2.302657812833786011e-01 1.142287731170654297e+01 2.814466285705566406e+01 1.187026214599609375e+01 -3.245226144790649414e+00
8.200000000000000000e+01 3.344493484497070312e+01 -4.209489747881889343e-02 5.857704162597656250e+00 2.066771507263183594e+01 7.957625865936279297e+00 -3.414036273956298828e+00
8.300000000000000000e+01 3.350981140136718750e+01 1.460759788751602173e-01 5.238289833068847656e+00 1.649370956420898438e+01 6.519599437713623047e+00 -3.651578187942504883e+00
8.400000000000000000e+01 3.357468795776367188e+01 3.342468738555908203e-01 1.691115617752075195e+00 1.327754306793212891e+01 4.490597724914550781e+00 -3.285921096801757812e+00
8.500000000000000000e+01 3.332323074340820312e+01 -2.167183905839920044e-01 8.591834068298339844e+00 2.776980018615722656e+01 1.090849018096923828e+01 -6.368499755859375000e+00
8.600000000000000000e+01 3.335021209716796875e+01 -1.951590552926063538e-02 6.450474262237548828e+00 2.057727622985839844e+01 8.108325004577636719e+00 -6.086441516876220703e+00
8.700000000000000000e+01 3.337720108032226562e+01 1.776865720748901367e-01 2.863309383392333984e+00 1.626572990417480469e+01 5.738711833953857422e+00 -6.036581993103027344e+00
8.800000000000000000e+01 3.340418624877929688e+01 3.748890459537506104e-01 2.584393739700317383e+00 1.330508136749267578e+01 4.766842365264892578e+00 -5.586004257202148438e+00
8.900000000000000000e+01 3.326484298706054688e+01 -2.144990563392639160e-01 9.335144042968750000e+00 2.662760543823242188e+01 1.078882503509521484e+01 -9.333193778991699219e+00
9.000000000000000000e+01 3.325290679931640625e+01 -1.581704057753086090e-02 5.614688873291015625e+00 1.886355018615722656e+01 7.343471527099609375e+00 -9.026538848876953125e+00
9.100000000000000000e+01 3.324097061157226562e+01 1.828649789094924927e-01 3.902383804321289062e+00 1.511709594726562500e+01 5.705843925476074219e+00 -7.926302909851074219e+00
9.200000000000000000e+01 3.322903442382812500e+01 3.815470039844512939e-01 1.663989543914794922e+00 1.251122188568115234e+01 4.252563476562500000e+00 -8.040846824645996094e+00
9.300000000000000000e+01 3.320714569091796875e+01 -2.236928045749664307e-01 1.017451477050781250e+01 2.334085273742675781e+01 1.005461025238037109e+01 -1.265260791778564453e+01
9.400000000000000000e+01 3.315674209594726562e+01 -3.113995678722858429e-02 6.783045291900634766e+00 1.648804092407226562e+01 6.981326103210449219e+00 -1.069343280792236328e+01
9.500000000000000000e+01 3.310633850097656250e+01 1.614128947257995605e-01 4.679752826690673828e+00 1.268811416625976562e+01 5.210360050201416016e+00 -1.003615951538085938e+01
9.600000000000000000e+01 3.305593872070312500e+01 3.539657592773437500e-01 2.556528091430664062e+00 1.080007171630859375e+01 4.006979942321777344e+00 -8.981319427490234375e+00
9.700000000000000000e+01 3.315234375000000000e+01 -2.439475506544113159e-01 1.196372699737548828e+01 1.918472671508789062e+01 9.344535827636718750e+00 -1.436132049560546875e+01
9.800000000000000000e+01 3.306540298461914062e+01 -6.489784270524978638e-02 8.653217315673828125e+00 1.271590614318847656e+01 6.410737037658691406e+00 -1.191326618194580078e+01
9.900000000000000000e+01 3.297846603393554688e+01 1.141518503427505493e-01 5.660260200500488281e+00 1.004322528839111328e+01 4.711045742034912109e+00 -1.069987010955810547e+01
1.000000000000000000e+02 3.289152908325195312e+01 2.932015657424926758e-01 4.460155010223388672e+00 8.175372123718261719e+00 3.790657997131347656e+00 -9.840836524963378906e+00
1.010000000000000000e+02 3.310253524780273438e+01 -2.744875848293304443e-01 1.484084415435791016e+01 1.389824581146240234e+01 8.621726989746093750e+00 -1.474044227600097656e+01
1.020000000000000000e+02 3.298238754272460938e+01 -1.157979220151901245e-01 9.941762924194335938e+00 8.874941825866699219e+00 5.645011425018310547e+00 -1.180111312866210938e+01
1.030000000000000000e+02 3.286224746704101562e+01 4.289175197482109070e-02 7.483207225799560547e+00 6.691584587097167969e+00 4.252437591552734375e+00 -1.029240608215332031e+01
1.040000000000000000e+02 3.274210357666015625e+01 2.015814185142517090e-01 5.156560420989990234e+00 5.660639286041259766e+00 3.245159864425659180e+00 -9.671505928039550781e+00
1.050000000000000000e+02 3.305962753295898438e+01 -3.141433894634246826e-01 1.675599479675292969e+01 8.536349296569824219e+00 7.587702751159667969e+00 -1.346427345275878906e+01
1.060000000000000000e+02 3.291087722778320312e+01 -1.818909049034118652e-01 1.141214561462402344e+01 4.984282970428466797e+00 4.918928623199462891e+00 -1.025093460083007812e+01
1.070000000000000000e+02 3.276212692260742188e+01 -4.963843524456024170e-02 8.127098083496093750e+00 3.679023742675781250e+00 3.541836500167846680e+00 -9.065577507019042969e+00
1.080000000000000000e+02 3.261338043212890625e+01 8.261404186487197876e-02 6.171338081359863281e+00 3.152314901351928711e+00 2.797096014022827148e+00 -8.202206611633300781e+00
1.090000000000000000e+02 3.302526092529296875e+01 -3.613962829113006592e-01 1.779202842712402344e+01 3.758443117141723633e+00 6.465141296386718750e+00 -1.049747085571289062e+01
1.100000000000000000e+02 3.285360717773437500e+01 -2.606457173824310303e-01 1.151616477966308594e+01 1.843562602996826172e+00 4.007918357849121094e+00 -7.848035812377929688e+00
1.110000000000000000e+02 3.268194961547851562e+01 -1.598951816558837891e-01 8.206064224243164062e+00 1.143621444702148438e+00 2.804905652999877930e+00 -6.804922103881835938e+00
1.120000000000000000e+02 3.251028823852539062e+01 -5.914463102817535400e-02 5.965234756469726562e+00 1.193552136421203613e+00 2.147635936737060547e+00 -6.279397487640380859e+00
1.130000000000000000e+02 3.300075912475585938e+01 -4.144366681575775146e-01 1.699234008789062500e+01 5.074730515480041504e-01 5.249943733215332031e+00 -6.445612907409667969e+00
1.140000000000000000e+02 3.281276702880859375e+01 -3.490463793277740479e-01 1.003003692626953125e+01 -5.175583958625793457e-01 2.853743791580200195e+00 -4.837789535522460938e+00
1.150000000000000000e+02 3.262477493286132812e+01 -2.836560904979705811e-01 7.009845256805419922e+00 -4.581083357334136963e-02 2.089210271835327148e+00 -4.416641712188720703e+00
1.160000000000000000e+02 3.243678283691406250e+01 -2.182658165693283081e-01 5.087929725646972656e+00 -5.085135102272033691e-01 1.373824834823608398e+00 -4.141491889953613281e+00
1.170000000000000000e+02 3.298705673217773438e+01 -4.712333381175994873e-01 1.326284313201904297e+01 -1.809572100639343262e+00 3.435981273651123047e+00 -2.265123605728149414e+00
1.180000000000000000e+02 3.278992843627929688e+01 -4.437074959278106689e-01 7.145950317382812500e+00 -8.142248392105102539e-01 1.899517655372619629e+00 -2.000454664230346680e+00
1.190000000000000000e+02 3.259280395507812500e+01 -4.161816537380218506e-01 4.287644386291503906e+00 -9.728717207908630371e-01 9.944317340850830078e-01 -2.334344863891601562e+00
1.200000000000000000e+02 3.239567565917968750e+01 -3.886558115482330322e-01 3.285073518753051758e+00 -3.529724478721618652e-01 8.796303272247314453e-01 -2.791492462158203125e+00
1.210000000000000000e+02 3.298468017578125000e+01 -5.296111702919006348e-01 7.164161205291748047e+00 -1.393908977508544922e+00 1.731075644493103027e+00 1.416414618492126465e+00
1.220000000000000000e+02 3.278596496582031250e+01 -5.410039424896240234e-01 1.942854642868041992e+00 -8.093832731246948242e-01 3.400413990020751953e-01 -5.681087374687194824e-01
1.230000000000000000e+02 3.258724975585937500e+01 -5.523966550827026367e-01 1.849346518516540527e+00 -3.100772798061370850e-01 4.617807567119598389e-01 -1.622472882270812988e+00
1.240000000000000000e+02 3.238853836059570312e+01 -5.637893676757812500e-01 2.264131307601928711e-01 -1.003534078598022461e+00 -2.331362813711166382e-01 -1.222377419471740723e+00
1.250000000000000000e+02 3.299371337890625000e+01 -5.873345732688903809e-01 -4.076895713806152344e+00 -1.227376699447631836e+00 -1.591281652450561523e+00 1.081761717796325684e+00
1.260000000000000000e+02 3.280102539062500000e+01 -6.372095942497253418e-01 -2.447713315486907959e-01 4.032671451568603516e-01 4.754874482750892639e-02 -1.225951790809631348e+00
1.270000000000000000e+02 3.260833358764648438e+01 -6.870846152305603027e-01 -2.181837558746337891e+00 -9.732561707496643066e-01 -9.465280771255493164e-01 -7.172741889953613281e-01
1.280000000000000000e+02 3.241564178466796875e+01 -7.369596362113952637e-01 -2.573439836502075195e+00 -1.562502235174179077e-01 -8.189069628715515137e-01 -1.398947954177856445e+00
1.290000000000000000e+02 1.777486610412597656e+01 1.073900461196899414e+00 -3.722856044769287109e-01 5.410009250044822693e-02 -9.545565396547317505e-02 -2.474676258862018585e-02
1.300000000000000000e+02 1.792778015136718750e+01 4.714254438877105713e-01 -3.055423200130462646e-01 -1.871530897915363312e-02 -9.727729111909866333e-02 -7.240378763526678085e-03
1.310000000000000000e+02 1.644459342956542969e+01 1.723731011152267456e-01 -2.619671523571014404e-01 -1.679900102317333221e-02 -8.362984657287597656e-02 -5.283147096633911133e-02
1.320000000000000000e+02 1.848871994018554688e+01 6.747622489929199219e-01 -3.346562087535858154e-01 6.382155418395996094e-02 -8.125039190053939819e-02 1.414479804225265980e-03
1.330000000000000000e+02 1.726383209228515625e+01 2.464335858821868896e-01 -2.611564397811889648e-01 5.624584108591079712e-02 -6.147318333387374878e-02 -4.579221084713935852e-02
1.340000000000000000e+02 1.847787094116210938e+01 1.163098692893981934e+00 -3.453583717346191406e-01 -4.639670625329017639e-02 -1.175265163183212280e-01 -3.692042082548141479e-03
1.350000000000000000e+02 1.630637359619140625e+01 9.048026204109191895e-01 -3.224848806858062744e-01 3.598510473966598511e-02 -8.594993501901626587e-02 -5.321050807833671570e-02
1.360000000000000000e+02 1.839068794250488281e+01 1.810296177864074707e-01 -2.900099754333496094e-01 4.075362533330917358e-02 -7.477690279483795166e-02 -4.191779997199773788e-03
1.370000000000000000e+02 1.705963325500488281e+01 9.744657874107360840e-01 -3.662104606628417969e-01 -3.581980615854263306e-02 -1.206090822815895081e-01 -3.043972514569759369e-02
1.380000000000000000e+02 2.068951606750488281e+01 3.931725323200225830e-01 -4.879095256328582764e-01 2.983648516237735748e-02 -1.374219208955764771e-01 1.184415370225906372e-01
1.390000000000000000e+02 2.310082054138183594e+01 1.850986629724502563e-01 -6.031070351600646973e-01 2.981093227863311768e-01 -9.149931371212005615e-02 4.534892141819000244e-01
1.400000000000000000e+02 2.305299377441406250e+01 -1.312764286994934082e-01 -1.387516021728515625e+00 2.397476136684417725e-01 -3.443305492401123047e-01 -8.269508928060531616e-02
1.410000000000000000e+02 2.370422363281250000e+01 5.865713208913803101e-02 -1.980682492256164551e+00 -5.198592543601989746e-01 -7.501625418663024902e-01 -1.190600693225860596e-01
1.420000000000000000e+02 2.763228607177734375e+01 -1.749168515205383301e+00 1.102401852607727051e+00 6.953430771827697754e-01 5.393234491348266602e-01 -9.468630552291870117e-01
1.430000000000000000e+02 2.771801376342773438e+01 -1.177784442901611328e+00 -2.059497117996215820e+00 -7.986316084861755371e-01 -8.574386239051818848e-01 9.490754008293151855e-01
1.440000000000000000e+02 2.848942375183105469e+01 -2.209286451339721680e+00 2.882073819637298584e-01 6.232600286602973938e-02 1.051600128412246704e-01 -7.345178723335266113e-02
1.450000000000000000e+02 2.931963539123535156e+01 -2.449213027954101562e+00 -4.656327515840530396e-02 -2.383050918579101562e-01 -8.546051383018493652e-02 -1.291081160306930542e-01
1.460000000000000000e+02 3.077217102050781250e+01 -2.880990982055664062e+00 5.504115819931030273e-01 6.571148037910461426e-01 3.622579276561737061e-01 7.911246418952941895e-01
1.470000000000000000e+02 3.211353683471679688e+01 -1.086784601211547852e+00 -4.117581248283386230e-01 1.908089034259319305e-02 -1.178031712770462036e-01 4.137871414422988892e-02
1.480000000000000000e+02 3.240563964843750000e+01 -1.185766339302062988e+00 1.153445124626159668e+00 1.090020418167114258e+00 6.730396747589111328e-01 1.438833951950073242e+00
1.490000000000000000e+02 3.424423599243164062e+01 -4.915905743837356567e-02 9.068922042846679688e+00 7.235165596008300781e+00 4.891226291656494141e+00 1.185061097145080566e+00
1.500000000000000000e+02 3.413967895507812500e+01 1.363477408885955811e-01 7.252080440521240234e+00 7.263298988342285156e+00 4.354613780975341797e+00 1.524316668510437012e+00
1.510000000000000000e+02 3.294844436645507812e+01 6.783007383346557617e-01 2.918193638324737549e-01 8.260311126708984375e+00 2.565639019012451172e+00 -8.338383674621582031e+00
1.520000000000000000e+02 3.155914497375488281e+01 -7.425516247749328613e-01 -2.375920295715332031e+00 -2.615510225296020508e-01 -7.912414073944091797e-01 -1.190080761909484863e+00
1.530000000000000000e+02 3.048747634887695312e+01 -1.283983349800109863e+00 -2.641788482666015625e+00 3.147321343421936035e-01 -6.981169581413269043e-01 -2.830367386341094971e-01
1.540000000000000000e+02 3.087080001831054688e+01 -9.499893188476562500e-01 -3.010180234909057617e+00 2.244310826063156128e-01 -8.357247114181518555e-01 -5.590148568153381348e-01
1.550000000000000000e+02 3.353660202026367188e+01 -1.602851033210754395e+00 6.911992430686950684e-01 1.342118358612060547e+01 4.233714580535888672e+00 7.786701917648315430e-01
1.560000000000000000e+02 3.291253662109375000e+01 -2.128387451171875000e+00 4.589600563049316406e-01 7.404394626617431641e+00 2.359006404876708984e+00 2.934601306915283203e+00
1.570000000000000000e+02 2.005185890197753906e+01 1.552859663963317871e+00 -2.635030508041381836e+00 -2.280864119529724121e-01 -8.589350581169128418e-01 7.574650645256042480e-01
1.580000000000000000e+02 1.928114700317382812e+01 1.754921317100524902e+00 -2.731218576431274414e+00 -2.924179136753082275e-01 -9.070909023284912109e-01 5.749182105064392090e-01
1.590000000000000000e+02 1.981441497802734375e+01 3.328608274459838867e-01 -4.686420261859893799e-01 5.331950634717941284e-02 -1.245967596769332886e-01 -7.593157701194286346e-03
1.600000000000000000e+02 1.909704971313476562e+01 1.002058461308479309e-01 -3.146160542964935303e-01 5.883626267313957214e-02 -7.673393934965133667e-02 -2.830498479306697845e-02
1.610000000000000000e+02 1.977885246276855469e+01 -9.243784844875335693e-02 -1.857792288064956665e-01 5.991350393742322922e-03 -5.393636226654052734e-02 -2.171451598405838013e-02
1.620000000000000000e+02 2.161207008361816406e+01 8.443984389305114746e-02 -4.893895387649536133e-01 -1.262364834547042847e-01 -1.846878081560134888e-01 6.057812273502349854e-02
1.630000000000000000e+02 2.852266693115234375e+01 -1.453275680541992188e+00 -1.502800822257995605e+00 -2.336282096803188324e-02 -4.578490853309631348e-01 5.138657689094543457e-01
1.640000000000000000e+02 3.006701469421386719e+01 -1.813486814498901367e+00 -1.541935801506042480e+00 -8.419249206781387329e-02 -4.878385066986083984e-01 9.756368398666381836e-02
1.650000000000000000e+02 3.075565910339355469e+01 -2.502684354782104492e+00 1.123979687690734863e-01 3.515411019325256348e-01 1.391817182302474976e-01 6.181008815765380859e-01
1.660000000000000000e+02 3.192235374450683594e+01 -1.170627355575561523e+00 -6.132742762565612793e-01 1.031868159770965576e-01 -1.530262380838394165e-01 -1.061675325036048889e-01
1.670000000000000000e+02 3.108802986145019531e+01 -1.627717614173889160e+00 -9.082072377204895020e-01 1.238239780068397522e-01 -2.353149801492691040e-01 -1.844663023948669434e-01
1.680000000000000000e+02 2.687878990173339844e+01 -8.296626210212707520e-01 -3.789145708084106445e+00 -4.242328405380249023e-01 -1.264013528823852539e+00 1.832093119621276855e+00
1.690000000000000000e+02 2.604860877990722656e+01 -5.185148715972900391e-01 -6.667165756225585938e+00 -3.408174514770507812e-01 -2.102395057678222656e+00 1.312756180763244629e+00
1.700000000000000000e+02 2.535257530212402344e+01 -2.957092821598052979e-01 -1.075768351554870605e+00 4.788451492786407471e-01 -1.790769547224044800e-01 -2.235535345971584320e-02
1.710000000000000000e+02 2.246250724792480469e+01 1.446526646614074707e-01 -7.061403989791870117e-01 -1.326773036271333694e-02 -2.158224284648895264e-01 -5.725349858403205872e-02
1.720000000000000000e+02 1.995643997192382812e+01 8.264223337173461914e-01 -4.546397328376770020e-01 -7.116733491420745850e-02 -1.577421277761459351e-01 8.604601025581359863e-02
1.730000000000000000e+02 1.914376068115234375e+01 5.853409171104431152e-01 -3.639811277389526367e-01 2.488926239311695099e-02 -1.017275601625442505e-01 2.155349776148796082e-02
1.740000000000000000e+02 1.921127319335937500e+01 1.083151698112487793e+00 -3.621957600116729736e-01 6.477375328540802002e-02 -8.922659605741500854e-02 5.922696739435195923e-02
1.750000000000000000e+02 3.373802947998046875e+01 -1.507009863853454590e+00 1.459124088287353516e+00 1.389221954345703125e+01 4.605402946472167969e+00 -1.091812014579772949e+00
1.760000000000000000e+02 3.231594848632812500e+01 -2.336886644363403320e+00 7.629705667495727539e-01 3.972357273101806641e+00 1.420598387718200684e+00 2.551189899444580078e+00
1.770000000000000000e+02 3.178544425964355469e+01 -2.565908670425415039e+00 5.985643267631530762e-01 2.538564205169677734e+00 9.411385655403137207e-01 1.803245663642883301e+00
1.780000000000000000e+02 3.278862380981445312e+01 4.740065336227416992e-01 2.164723157882690430e+00 7.077999591827392578e+00 2.772816896438598633e+00 -8.984559059143066406e+00
1.790000000000000000e+02 3.325358581542968750e+01 9.175851941108703613e-01 -3.668283224105834961e-01 8.853069305419921875e+00 2.545872449874877930e+00 -6.679536342620849609e+00
1.800000000000000000e+02 3.429338455200195312e+01 1.981662958860397339e-01 5.948999881744384766e+00 6.690527439117431641e+00 3.791858196258544922e+00 1.585786819458007812e+00
1.810000000000000000e+02 3.435448837280273438e+01 -4.611770212650299072e-01 1.076618385314941406e+01 6.301772594451904297e+00 5.120387077331542969e+00 -9.036103487014770508e-01
1.820000000000000000e+02 3.420532226562500000e+01 -1.062466740608215332e+00 7.615095138549804688e+00 1.090192699432373047e+01 5.555106639862060547e+00 -3.703968286514282227e+00
1.830000000000000000e+02 3.109606170654296875e+01 -1.175673127174377441e+00 -3.722096443176269531e+00 -3.481349349021911621e-01 -1.221069455146789551e+00 -1.125205874443054199e+00
1.840000000000000000e+02 3.096301460266113281e+01 -2.125473022460937500e-01 -1.303737640380859375e+00 1.136171460151672363e+00 -5.026986449956893921e-02 -1.603550553321838379e+00
1.850000000000000000e+02 3.110600280761718750e+01 1.187437400221824646e-01 -1.533736139535903931e-01 1.171420097351074219e+00 3.054139316082000732e-01 -2.572291612625122070e+00
1.860000000000000000e+02 3.258134841918945312e+01 3.778942525386810303e-01 4.171284198760986328e+00 4.726267814636230469e+00 2.669265747070312500e+00 -8.600348472595214844e+00
1.870000000000000000e+02 3.239213562011718750e+01 5.991005897521972656e-01 1.613856196403503418e+00 4.401462078094482422e+00 1.804595589637756348e+00 -7.640111446380615234e+00
1.880000000000000000e+02 2.159298515319824219e+01 1.152447223663330078e+00 -3.074284791946411133e+00 -3.114663660526275635e-01 -1.015725374221801758e+00 9.670875072479248047e-01
1.890000000000000000e+02 2.315928459167480469e+01 1.520164966583251953e+00 -2.598690271377563477e+00 -5.025315284729003906e-01 -9.303665757179260254e-01 1.234794974327087402e+00
1.900000000000000000e+02 2.313032722473144531e+01 7.630387544631958008e-01 -3.816677093505859375e+00 -4.085508584976196289e-01 -1.267568349838256836e+00 1.225535631179809570e+00
1.910000000000000000e+02 2.388428688049316406e+01 5.882305502891540527e-01 -4.259360790252685547e+00 -4.165694117546081543e-01 -1.402779102325439453e+00 1.363625526428222656e+00
1.920000000000000000e+02 2.457948493957519531e+01 5.972806215286254883e-01 -4.270758628845214844e+00 -5.247910618782043457e-01 -1.438664913177490234e+00 1.484943866729736328e+00
1.930000000000000000e+02 2.521090316772460938e+01 6.104864478111267090e-01 -3.928370714187622070e+00 -3.670918643474578857e-01 -1.288638830184936523e+00 1.524405837059020996e+00
1.940000000000000000e+02 2.587444877624511719e+01 4.348616600036621094e-01 -4.208395957946777344e+00 -4.299397170543670654e-01 -1.391500711441040039e+00 1.445790290832519531e+00
1.950000000000000000e+02 2.660501480102539062e+01 2.334890663623809814e-01 -4.516751289367675781e+00 -2.466303706169128418e-01 -1.429014563560485840e+00 1.349695920944213867e+00
1.960000000000000000e+02 2.735758399963378906e+01 2.833113260567188263e-02 -4.566397190093994141e+00 -2.555452585220336914e-01 -1.446582794189453125e+00 1.173597693443298340e+00
1.970000000000000000e+02 2.811118125915527344e+01 -1.793260574340820312e-01 -4.489384174346923828e+00 1.434190291911363602e-02 -1.342512726783752441e+00 9.517823457717895508e-01
1.980000000000000000e+02 2.884708595275878906e+01 -3.919701576232910156e-01 -4.233078479766845703e+00 1.576219797134399414e-01 -1.222637057304382324e+00 5.886609554290771484e-01
1.990000000000000000e+02 2.952163887023925781e+01 -6.051441431045532227e-01 -3.865362405776977539e+00 4.605557918548583984e-01 -1.021442055702209473e+00 1.716068536043167114e-01
2.000000000000000000e+02 3.222319793701171875e+01 -1.308303922414779663e-01 3.797095537185668945e+00 2.097398340702056885e-01 1.202050566673278809e+00 -4.282099723815917969e+00
2.010000000000000000e+02 3.222204208374023438e+01 -7.872561216354370117e-01 -3.208859205245971680e+00 -7.490371465682983398e-01 -1.187368988990783691e+00 -1.231947302818298340e+00
2.020000000000000000e+02 3.381634140014648438e+01 4.085378944873809814e-01 1.596863746643066406e+00 9.936917304992675781e+00 3.460134267807006836e+00 -6.475146412849426270e-01
2.030000000000000000e+02 3.321313858032226562e+01 5.630581378936767578e-01 6.839408874511718750e-01 1.075096035003662109e+01 3.430470466613769531e+00 -7.021161079406738281e+00
2.040000000000000000e+02 3.217830657958984375e+01 -3.566510975360870361e-01 1.852855563163757324e+00 -8.083277344703674316e-01 3.133583366870880127e-01 -2.354765415191650391e+00
2.050000000000000000e+02 3.218180084228515625e+01 -5.755256414413452148e-01 -3.311628103256225586e-01 -3.828996717929840088e-01 -2.142187505960464478e-01 -1.703011274337768555e+00
2.060000000000000000e+02 3.229933929443359375e+01 -9.997195601463317871e-01 -1.347480118274688721e-01 1.212478429079055786e-01 -4.050048533827066422e-03 8.043461292982101440e-02
2.070000000000000000e+02 3.254271697998046875e+01 -1.360713243484497070e+00 1.815211176872253418e+00 2.908568859100341797e+00 1.417134046554565430e+00 2.639648437500000000e+00
2.080000000000000000e+02 3.292264556884765625e+01 -1.558332443237304688e+00 1.249137401580810547e+00 7.778554916381835938e+00 2.708307743072509766e+00 3.823313951492309570e+00
2.090000000000000000e+02 3.332417297363281250e+01 -1.648325324058532715e+00 4.179246425628662109e-01 1.192693710327148438e+01 3.703458547592163086e+00 2.243523597717285156e+00
2.100000000000000000e+02 3.428688430786132812e+01 -8.648881912231445312e-01 9.097671508789062500e+00 8.608124732971191406e+00 5.311738967895507812e+00 -3.433011770248413086e+00
2.110000000000000000e+02 1.934778785705566406e+01 2.502236843109130859e+00 -1.722769856452941895e+00 -4.326180517673492432e-01 -6.466163396835327148e-01 4.581883847713470459e-01
2.120000000000000000e+02 2.011096382141113281e+01 2.302137374877929688e+00 -1.999193191528320312e+00 -3.800384998321533203e-01 -7.137694954872131348e-01 6.467149853706359863e-01
2.130000000000000000e+02 2.087412834167480469e+01 2.103276968002319336e+00 -2.071612834930419922e+00 -4.039457738399505615e-01 -7.426675558090209961e-01 8.556086421012878418e-01
2.140000000000000000e+02 2.163701629638671875e+01 1.905649065971374512e+00 -2.226234197616577148e+00 -4.383462965488433838e-01 -7.993741631507873535e-01 9.771783947944641113e-01
2.150000000000000000e+02 2.239920806884765625e+01 1.710243105888366699e+00 -2.410618305206298828e+00 -5.084996223449707031e-01 -8.757353425025939941e-01 1.134727001190185547e+00
2.160000000000000000e+02 2.463703918457031250e+01 1.209517478942871094e+00 -2.843541145324707031e+00 -4.555589258670806885e-01 -9.897300004959106445e-01 1.322000384330749512e+00
2.170000000000000000e+02 2.536808967590332031e+01 1.065674185752868652e+00 -3.034580945968627930e+00 -4.171760976314544678e-01 -1.035527110099792480e+00 1.350788354873657227e+00
2.180000000000000000e+02 2.610634613037109375e+01 8.802856802940368652e-01 -3.100765466690063477e+00 -1.645329147577285767e-01 -9.795895218849182129e-01 1.291064977645874023e+00
2.190000000000000000e+02 2.685411071777343750e+01 6.797374486923217773e-01 -3.307004451751708984e+00 -1.037548631429672241e-01 -1.023227810859680176e+00 1.058327674865722656e+00
2.200000000000000000e+02 2.760896492004394531e+01 4.780441820621490479e-01 -3.441629409790039062e+00 1.809250265359878540e-01 -9.782112836837768555e-01 7.533060908317565918e-01
2.210000000000000000e+02 2.836450958251953125e+01 2.759677171707153320e-01 -3.237277746200561523e+00 4.632757902145385742e-01 -8.322005867958068848e-01 3.089672327041625977e-01
2.220000000000000000e+02 2.911048507690429688e+01 7.231808453798294067e-02 -2.913150787353515625e+00 9.150866270065307617e-01 -5.994192361831665039e-01 -2.143282443284988403e-01
2.230000000000000000e+02 3.300201034545898438e+01 5.262723565101623535e-01 1.802124142646789551e+00 9.516285896301269531e+00 3.395522832870483398e+00 -9.053618431091308594e+00
2.240000000000000000e+02 3.273615646362304688e+01 6.405874490737915039e-01 1.715573668479919434e+00 7.162302494049072266e+00 2.663362741470336914e+00 -8.875874519348144531e+00
2.250000000000000000e+02 3.057452583312988281e+01 -1.978802531957626343e-01 -2.199266433715820312e+00 1.330551624298095703e+00 -2.606144249439239502e-01 -1.098922967910766602e+00
2.260000000000000000e+02 3.244366836547851562e+01 2.186895608901977539e-01 4.412136077880859375e+00 3.121990680694580078e+00 2.260237932205200195e+00 -7.741172790527343750e+00
2.270000000000000000e+02 3.196586227416992188e+01 -5.987584590911865234e-01 -1.194686412811279297e+00 -7.098289132118225098e-01 -5.713546276092529297e-01 -1.393105387687683105e+00
2.280000000000000000e+02 3.143696022033691406e+01 2.974638044834136963e-01 8.741898536682128906e-01 1.333400607109069824e+00 6.622771620750427246e-01 -3.657780408859252930e+00
2.290000000000000000e+02 3.255616378784179688e+01 7.078521251678466797e-01 2.475096940994262695e+00 5.621554374694824219e+00 2.428995370864868164e+00 -8.747480392456054688e+00
2.300000000000000000e+02 3.152856063842773438e+01 1.335144788026809692e-01 1.041448712348937988e+00 1.096232533454895020e+00 6.413043737411499023e-01 -3.476557970046997070e+00
2.310000000000000000e+02 3.182150077819824219e+01 2.154323458671569824e-01 2.045486450195312500e+00 7.542918920516967773e-01 8.399334549903869629e-01 -4.275678157806396484e+00
2.320000000000000000e+02 3.167169761657714844e+01 1.910539567470550537e-01 1.210950970649719238e+00 1.313325524330139160e+00 7.572829127311706543e-01 -3.916802406311035156e+00
2.330000000000000000e+02 3.074978637695312500e+01 -4.828482866287231445e-02 -1.328977108001708984e+00 1.046570062637329102e+00 -8.472209423780441284e-02 -1.667554497718811035e+00
2.340000000000000000e+02 3.399270629882812500e+01 2.937490940093994141e-01 5.758587837219238281e+00 9.651370048522949219e+00 4.622987270355224609e+00 -3.118940293788909912e-01
2.350000000000000000e+02 3.395281982421875000e+01 7.140567898750305176e-01 -6.407647728919982910e-01 5.889762878417968750e+00 1.574699401855468750e+00 -3.651858270168304443e-01
2.360000000000000000e+02 3.223763275146484375e+01 2.478677481412887573e-01 3.317924022674560547e+00 1.748005509376525879e+00 1.519778847694396973e+00 -6.405091285705566406e+00
2.370000000000000000e+02 3.202778625488281250e+01 -8.415424227714538574e-01 -3.447651386260986328e+00 -4.112426340579986572e-01 -1.157668232917785645e+00 -1.492642283439636230e+00
2.380000000000000000e+02 3.145904350280761719e+01 -3.881595730781555176e-01 -9.082887172698974609e-01 3.301191627979278564e-01 -1.734508574008941650e-01 -1.684601426124572754e+00
2.390000000000000000e+02 3.174742698669433594e+01 -6.491468548774719238e-01 -1.700865507125854492e+00 -2.411623150110244751e-01 -5.826083421707153320e-01 -1.420776844024658203e+00
2.400000000000000000e+02 3.233079147338867188e+01 5.519551411271095276e-02 4.621418476104736328e+00 8.835512995719909668e-01 1.651490926742553711e+00 -5.713497638702392578e+00
2.410000000000000000e+02 3.363214111328125000e+01 4.932231307029724121e-01 3.048295021057128906e+00 1.110152244567871094e+01 4.244945049285888672e+00 -3.630059957504272461e+00
2.420000000000000000e+02 3.432426452636718750e+01 -2.484850883483886719e-01 1.070204162597656250e+01 6.719789028167724609e+00 5.226549148559570312e+00 4.172724783420562744e-01
2.430000000000000000e+02 3.447623825073242188e+01 -7.280582189559936523e-01 9.353354454040527344e+00 6.688838005065917969e+00 4.812657833099365234e+00 -2.015634775161743164e+00
2.440000000000000000e+02 3.433427047729492188e+01 -6.676884293556213379e-01 1.085879325866699219e+01 8.115441322326660156e+00 5.692270278930664062e+00 -2.074587106704711914e+00
2.450000000000000000e+02 3.469328689575195312e+01 -2.898987829685211182e-01 8.175607681274414062e+00 4.777762413024902344e+00 3.886011123657226562e+00 1.130718111991882324e+00
2.460000000000000000e+02 3.301102447509765625e+01 -1.833069682121276855e+00 6.536165475845336914e-01 8.777184486389160156e+00 2.829240322113037109e+00 3.166437625885009766e+00
2.470000000000000000e+02 3.391724014282226562e+01 -1.375988960266113281e+00 3.302019119262695312e+00 1.371217441558837891e+01 5.104258060455322266e+00 -2.630547285079956055e+00
2.480000000000000000e+02 3.272237396240234375e+01 -1.486657500267028809e+00 1.717614889144897461e+00 5.167881488800048828e+00 2.065648794174194336e+00 3.616017580032348633e+00
2.490000000000000000e+02 3.251733779907226562e+01 -2.256486177444458008e+00 7.286517024040222168e-01 4.949792385101318359e+00 1.703533172607421875e+00 2.673679828643798828e+00
2.500000000000000000e+02 3.271924209594726562e+01 -2.195323705673217773e+00 6.164580583572387695e-01 6.017646789550781250e+00 1.990231394767761230e+00 2.845186948776245117e+00
2.510000000000000000e+02 3.358644485473632812e+01 8.612014651298522949e-01 -3.193444252014160156e+00 7.913327693939208984e+00 1.415964961051940918e+00 -4.756501674652099609e+00
2.520000000000000000e+02 3.332912445068359375e+01 7.956059575080871582e-01 -2.616483449935913086e+00 9.581969261169433594e+00 2.089645862579345703e+00 -6.388391971588134766e+00
2.530000000000000000e+02 3.419719314575195312e+01 -1.582679152488708496e+00 3.064104080200195312e+00 1.124976539611816406e+01 4.294160842895507812e+00 -2.346659898757934570e+00
2.540000000000000000e+02 3.451613998413085938e+01 -1.186255216598510742e+00 6.597976684570312500e+00 8.746991157531738281e+00 4.603490352630615234e+00 -2.684185981750488281e+00
2.550000000000000000e+02 3.438193511962890625e+01 4.006136357784271240e-01 5.156405925750732422e+00 5.396762371063232422e+00 3.165950536727905273e+00 1.594781517982482910e+00
2.560000000000000000e+02 3.468354034423828125e+01 -6.219936013221740723e-01 8.682111740112304688e+00 5.030185222625732422e+00 4.113688945770263672e+00 -7.524868845939636230e-01
2.570000000000000000e+02 3.388080215454101562e+01 5.463966131210327148e-01 3.103143692016601562e+00 9.265089988708496094e+00 3.710470199584960938e+00 -2.124796867370605469e+00
2.580000000000000000e+02 3.451411056518554688e+01 -5.261012315750122070e-01 1.022287178039550781e+01 6.449939250946044922e+00 5.001843452453613281e+00 -6.194543838500976562e-01
2.590000000000000000e+02 3.464619827270507812e+01 -8.112925291061401367e-01 8.746952056884765625e+00 6.583073139190673828e+00 4.599007606506347656e+00 -1.428046464920043945e+00
2.600000000000000000e+02 3.459042358398437500e+01 -1.001582980155944824e+00 7.441730976104736328e+00 7.307635784149169922e+00 4.424809932708740234e+00 -2.349834203720092773e+00
2.610000000000000000e+02 3.407733535766601562e+01 -1.236904025077819824e+00 5.047270298004150391e+00 1.219650840759277344e+01 5.173133850097656250e+00 -3.692597150802612305e+00
2.620000000000000000e+02 3.433618545532226562e+01 -1.477714896202087402e+00 3.918124914169311523e+00 1.060598659515380859e+01 4.357233524322509766e+00 -2.638146638870239258e+00
2.630000000000000000e+02 3.377202987670898438e+01 7.967751622200012207e-01 1.860095381736755371e+00 7.832612514495849609e+00 2.907812356948852539e+00 -3.330931425094604492e+00
2.640000000000000000e+02 3.397815322875976562e+01 -1.524754762649536133e+00 2.544834375381469727e+00 1.280096817016601562e+01 4.603740692138671875e+00 -2.287856101989746094e+00
2.650000000000000000e+02 3.412255477905273438e+01 6.159002780914306641e-01 2.268318891525268555e+00 6.071979999542236328e+00 2.502089738845825195e+00 -1.688224971294403076e-01
2.660000000000000000e+02 3.342945861816406250e+01 5.526456832885742188e-01 -5.907021760940551758e-01 1.155723667144775391e+01 3.289960384368896484e+00 -5.827449321746826172e+00
2.670000000000000000e+02 3.270547485351562500e+01 7.874891757965087891e-01 2.064911872148513794e-01 6.657098770141601562e+00 2.059077024459838867e+00 -7.448686599731445312e+00
2.680000000000000000e+02 3.183592414855957031e+01 -9.044055342674255371e-01 -3.761320590972900391e+00 -6.684942245483398438e-01 -1.328944444656372070e+00 -1.443868994712829590e+00
2.690000000000000000e+02 3.040341758728027344e+01 -8.431262969970703125e-01 -3.400706052780151367e+00 7.381309270858764648e-01 -7.987725138664245605e-01 -2.486815303564071655e-01
2.700000000000000000e+02 3.080817413330078125e+01 -1.552119135856628418e+00 -1.413319706916809082e+00 -1.582228541374206543e-01 -4.714627563953399658e-01 -7.683625817298889160e-01
2.710000000000000000e+02 3.066529273986816406e+01 -1.634850740432739258e+00 -2.132692813873291016e+00 -4.187901318073272705e-01 -7.654448747634887695e-01 -3.410177528858184814e-01
2.720000000000000000e+02 3.151997375488281250e+01 -1.312333106994628906e+00 -1.014672875404357910e+00 1.340009123086929321e-01 -2.642015814781188965e-01 -2.765773236751556396e-01
2.730000000000000000e+02 3.171987152099609375e+01 -1.259401798248291016e+00 -8.419664502143859863e-01 -8.474112302064895630e-02 -2.780122756958007812e-01 -1.258608698844909668e-01
2.740000000000000000e+02 3.097539138793945312e+01 -1.481506466865539551e+00 -1.691552281379699707e+00 -2.043087631464004517e-01 -5.687583088874816895e-01 -5.765012502670288086e-01
2.750000000000000000e+02 3.144762039184570312e+01 -1.534708261489868164e+00 -5.491360425949096680e-01 1.413086801767349243e-01 -1.223482117056846619e-01 5.043985322117805481e-02
2.760000000000000000e+02 3.228257751464843750e+01 -2.003226518630981445e+00 1.099351525306701660e+00 3.504079341888427734e+00 1.381029248237609863e+00 2.609277963638305664e+00
2.770000000000000000e+02 3.310783004760742188e+01 -2.032964706420898438e+00 3.302742242813110352e-01 8.845051765441894531e+00 2.752597808837890625e+00 2.795669078826904297e+00
2.780000000000000000e+02 3.331423568725585938e+01 -1.943760871887207031e+00 2.250974923372268677e-01 1.046743297576904297e+01 3.207759141921997070e+00 2.274259090423583984e+00
2.790000000000000000e+02 3.352630996704101562e+01 -1.878455996513366699e+00 2.858796119689941406e-01 1.168089103698730469e+01 3.590031147003173828e+00 1.110327601432800293e+00
2.800000000000000000e+02 3.371334838867187500e+01 -1.840668439865112305e+00 5.854459404945373535e-01 1.215966796875000000e+01 3.823534011840820312e+00 2.024044394493103027e-01
2.810000000000000000e+02 3.200912475585937500e+01 -2.252953529357910156e+00 8.057414293289184570e-01 2.591696739196777344e+00 1.019231438636779785e+00 2.055888891220092773e+00
2.820000000000000000e+02 3.057687759399414062e+01 -2.918418884277343750e+00 4.623594284057617188e-01 8.159759640693664551e-01 3.835006058216094971e-01 5.672202706336975098e-01
2.830000000000000000e+02 2.034516143798828125e+01 -1.695503592491149902e-01 -2.293528318405151367e-01 1.561782509088516235e-01 -2.195237576961517334e-02 -6.400553882122039795e-02
2.840000000000000000e+02 3.217981719970703125e+01 5.160192251205444336e-01 3.048988103866577148e+00 3.082235813140869141e+00 1.839367151260375977e+00 -6.881300449371337891e+00
2.850000000000000000e+02 3.096470642089843750e+01 -4.546529054641723633e-01 -2.055196046829223633e+00 7.013382911682128906e-01 -4.061573147773742676e-01 -9.910162687301635742e-01
2.860000000000000000e+02 3.130018615722656250e+01 -8.514666557312011719e-02 -2.639344036579132080e-01 9.156337976455688477e-01 1.955098062753677368e-01 -2.229945898056030273e+00
2.870000000000000000e+02 3.197328948974609375e+01 4.638639986515045166e-01 2.096982240676879883e+00 2.241214513778686523e+00 1.301459074020385742e+00 -5.842502593994140625e+00
2.880000000000000000e+02 3.127958869934082031e+01 -1.111845493316650391e+00 -3.880838871002197266e+00 -3.041515052318572998e-01 -1.255497097969055176e+00 -1.301968336105346680e+00
2.890000000000000000e+02 3.146365737915039062e+01 -1.046460866928100586e+00 -4.014443874359130859e+00 -5.099329948425292969e-01 -1.357313036918640137e+00 -1.322584390640258789e+00
2.900000000000000000e+02 3.085603904724121094e+01 -2.278796434402465820e+00 -2.656173110008239746e-01 2.024762481451034546e-01 -1.894232071936130524e-02 6.099930405616760254e-01
2.910000000000000000e+02 3.138111877441406250e+01 -2.655426979064941406e+00 5.706871151924133301e-01 1.622793912887573242e+00 6.580443382263183594e-01 1.337773084640502930e+00
2.920000000000000000e+02 3.116476440429687500e+01 -2.697898149490356445e+00 4.008871912956237793e-01 1.087008118629455566e+00 4.463686048984527588e-01 1.177332520484924316e+00
2.930000000000000000e+02 3.157054328918457031e+01 -2.166514635086059570e+00 4.164291620254516602e-01 1.285414576530456543e+00 5.105531215667724609e-01 1.204413414001464844e+00
2.940000000000000000e+02 3.134830856323242188e+01 -2.363938093185424805e+00 3.544059693813323975e-01 1.033725142478942871e+00 4.164393246173858643e-01 1.129122018814086914e+00
2.950000000000000000e+02 3.155319786071777344e+01 -2.360865354537963867e+00 5.491401553153991699e-01 1.700030207633972168e+00 6.747511029243469238e-01 1.396430253982543945e+00
2.960000000000000000e+02 3.111694908142089844e+01 -2.348622560501098633e+00 1.720499247312545776e-01 8.825551867485046387e-01 3.163815438747406006e-01 8.542401194572448730e-01
2.970000000000000000e+02 3.058197975158691406e+01 -2.241577625274658203e+00 -4.601869285106658936e-01 -1.792059093713760376e-02 -1.434322595596313477e-01 3.272302150726318359e-01
2.980000000000000000e+02 3.095304679870605469e+01 -2.776574134826660156e+00 5.384330749511718750e-01 1.053130149841308594e+00 4.774689972400665283e-01 9.118363261222839355e-01
2.990000000000000000e+02 3.201469802856445312e+01 2.069662809371948242e-01 3.118929147720336914e+00 1.514308333396911621e+00 1.389971256256103516e+00 -5.308802127838134766e+00
3.000000000000000000e+02 3.222029113769531250e+01 -1.304316520690917969e+00 8.182977437973022461e-01 9.929455518722534180e-01 5.433729887008666992e-01 1.081648707389831543e+00
3.010000000000000000e+02 3.070696067810058594e+01 -1.252632856369018555e+00 -3.077082872390747070e+00 1.690880954265594482e-01 -8.723984360694885254e-01 -5.986626744270324707e-01
3.020000000000000000e+02 3.025704956054687500e+01 -2.360563039779663086e+00 -2.239151895046234131e-01 -2.805868685245513916e-01 -1.513506174087524414e-01 1.477506905794143677e-01
3.030000000000000000e+02 3.088391876220703125e+01 -1.967055797576904297e+00 -5.494216680526733398e-01 2.793181836605072021e-01 -8.103105425834655762e-02 2.710451483726501465e-01
3.040000000000000000e+02 3.168242835998535156e+01 -3.822582364082336426e-01 -1.838355511426925659e-01 -2.855145931243896484e-01 -1.408050358295440674e-01 -1.889976620674133301e+00
3.050000000000000000e+02 3.181477355957031250e+01 -1.508875370025634766e+00 1.725908517837524414e-01 6.356279850006103516e-01 2.424656599760055542e-01 5.503717660903930664e-01
3.060000000000000000e+02 3.285274887084960938e+01 -1.930238962173461914e+00 7.484135627746582031e-01 6.874591827392578125e+00 2.286901712417602539e+00 3.219003200531005859e+00
3.070000000000000000e+02 3.185051918029785156e+01 -2.392585277557373047e+00 7.074831724166870117e-01 2.411160707473754883e+00 9.355931878089904785e-01 1.766628026962280273e+00
3.080000000000000000e+02 3.115743446350097656e+01 -2.032232284545898438e+00 -2.832286357879638672e-01 3.925438523292541504e-01 3.279456496238708496e-02 4.970174133777618408e-01
3.090000000000000000e+02 3.196623802185058594e+01 -5.970801413059234619e-02 2.102081537246704102e+00 1.134330481290817261e-01 6.646543145179748535e-01 -3.748717784881591797e+00
3.100000000000000000e+02 3.176501464843750000e+01 3.184597194194793701e-02 1.578499197959899902e+00 6.413668394088745117e-01 6.659598350524902344e-01 -3.413777112960815430e+00
3.110000000000000000e+02 3.213110351562500000e+01 -1.627687335014343262e+00 9.769461154937744141e-01 1.742507100105285645e+00 8.158360123634338379e-01 1.627720355987548828e+00
3.120000000000000000e+02 3.234652709960937500e+01 -1.514776110649108887e+00 1.318720698356628418e+00 2.324310779571533203e+00 1.092909455299377441e+00 2.249874353408813477e+00
3.130000000000000000e+02 3.004682159423828125e+01 -7.930629253387451172e-01 -3.714510679244995117e+00 7.979177236557006836e-01 -8.749778866767883301e-01 -2.492408901453018188e-01
3.140000000000000000e+02 3.092181396484375000e+01 4.318920895457267761e-02 -8.962772488594055176e-01 1.273374319076538086e+00 1.131291240453720093e-01 -1.925073146820068359e+00
3.150000000000000000e+02 3.154099273681640625e+01 -2.034581601619720459e-01 2.434420734643936157e-01 1.344036012887954712e-01 1.133536994457244873e-01 -2.305668354034423828e+00
3.160000000000000000e+02 3.120137786865234375e+01 -8.661838769912719727e-01 -3.084810495376586914e+00 -6.686320155858993530e-02 -9.455021023750305176e-01 -8.803395628929138184e-01
3.170000000000000000e+02 3.108039665222167969e+01 -6.599059700965881348e-01 -2.437172889709472656e+00 3.171657323837280273e-01 -6.360021829605102539e-01 -7.876837849617004395e-01
3.180000000000000000e+02 3.127249145507812500e+01 -1.756985664367675781e+00 -5.214619040489196777e-01 2.593279480934143066e-01 -7.864017784595489502e-02 2.510652542114257812e-01
3.190000000000000000e+02 3.093657875061035156e+01 -7.645891308784484863e-01 -2.880994081497192383e+00 3.988790810108184814e-01 -7.446345090866088867e-01 -5.782554745674133301e-01
3.200000000000000000e+02 3.010202026367187500e+01 -2.740005970001220703e+00 1.775255054235458374e-01 -3.744736686348915100e-02 4.202343896031379700e-02 2.047030776739120483e-01
3.210000000000000000e+02 2.932252311706542969e+01 -1.685300111770629883e+00 -1.334103465080261230e+00 -3.337824642658233643e-01 -5.003657937049865723e-01 3.858612179756164551e-01
3.220000000000000000e+02 3.027899742126464844e+01 -4.290229380130767822e-01 -2.583386182785034180e+00 8.265968561172485352e-01 -5.270367860794067383e-01 -6.596850752830505371e-01
3.230000000000000000e+02 2.981770896911621094e+01 -1.315605342388153076e-01 -2.646018505096435547e+00 1.092534542083740234e+00 -4.660451412200927734e-01 -7.086264491081237793e-01
3.240000000000000000e+02 2.936733818054199219e+01 -1.038083910942077637e+00 -4.924321174621582031e+00 -2.747338116168975830e-01 -1.559716582298278809e+00 1.045572042465209961e+00
3.250000000000000000e+02 2.082255935668945312e+01 1.352037191390991211e+00 -2.806790351867675781e+00 -2.839547395706176758e-01 -9.272235631942749023e-01 8.467265963554382324e-01
3.260000000000000000e+02 2.711142539978027344e+01 -4.152942001819610596e-01 -5.969674587249755859e+00 -3.731412291526794434e-01 -1.902844786643981934e+00 1.608193159103393555e+00
3.270000000000000000e+02 2.390570831298828125e+01 1.347318887710571289e+00 -2.662486553192138672e+00 -5.810452103614807129e-01 -9.730595350265502930e-01 1.339634776115417480e+00
3.280000000000000000e+02 2.490501785278320312e+01 1.781502366065979004e-01 -5.042414188385009766e+00 -4.281169772148132324e-01 -1.641159296035766602e+00 1.531099796295166016e+00
3.290000000000000000e+02 2.559717369079589844e+01 -1.172572746872901917e-02 -5.547242641448974609e+00 -4.241754412651062012e-01 -1.791425466537475586e+00 1.582621335983276367e+00
3.300000000000000000e+02 2.863314247131347656e+01 -8.291487693786621094e-01 -5.598763465881347656e+00 -2.183517962694168091e-01 -1.745134472846984863e+00 1.368605256080627441e+00
3.310000000000000000e+02 2.634684181213378906e+01 -2.121898084878921509e-01 -5.828095912933349609e+00 -4.550577998161315918e-01 -1.884946107864379883e+00 1.614543676376342773e+00
3.320000000000000000e+02 2.236271476745605469e+01 9.550790786743164062e-01 -3.416829347610473633e+00 -3.435691595077514648e-01 -1.128119587898254395e+00 1.083318710327148438e+00
3.330000000000000000e+02 3.164899444580078125e+01 -9.765681624412536621e-01 -3.918869495391845703e+00 -3.298637866973876953e-01 -1.274620056152343750e+00 -1.521307706832885742e+00
3.340000000000000000e+02 3.138486862182617188e+01 -8.119890093803405762e-01 -2.855014324188232422e+00 -5.990549921989440918e-02 -8.744759559631347656e-01 -1.135886311531066895e+00
3.350000000000000000e+02 3.192509269714355469e+01 -3.334511518478393555e-01 1.042643189430236816e+00 -1.382688283920288086e-01 2.713123261928558350e-01 -2.394343137741088867e+00
3.360000000000000000e+02 3.090634918212890625e+01 -1.222917795181274414e+00 -3.426438331604003906e+00 -2.758211269974708557e-02 -1.036206126213073730e+00 -9.494038224220275879e-01
3.370000000000000000e+02 3.103672027587890625e+01 -9.428960084915161133e-01 -3.094116449356079102e+00 7.458129525184631348e-02 -9.058605432510375977e-01 -7.822073698043823242e-01
3.380000000000000000e+02 3.004834175109863281e+01 -1.222223520278930664e+00 -3.497232198715209961e+00 2.034613490104675293e-01 -9.881312847137451172e-01 4.584657251834869385e-01
3.390000000000000000e+02 2.787634468078613281e+01 -6.205145716667175293e-01 -5.911092281341552734e+00 -4.197833538055419922e-01 -1.899262666702270508e+00 1.509315490722656250e+00
3.400000000000000000e+02 3.202282714843750000e+01 -1.405735611915588379e+00 3.675639629364013672e-01 6.867828965187072754e-01 3.163040578365325928e-01 9.029940366744995117e-01
3.410000000000000000e+02 3.133272743225097656e+01 -1.373245239257812500e+00 -1.259469628334045410e+00 -2.400349080562591553e-01 -4.498513638973236084e-01 -3.380258679389953613e-01
3.420000000000000000e+02 3.114755439758300781e+01 -1.433688044548034668e+00 -1.459814906120300293e+00 2.341914223507046700e-03 -4.372418820858001709e-01 -4.098744988441467285e-01
3.430000000000000000e+02 3.056906700134277344e+01 -1.883660197257995605e+00 -1.474837660789489746e+00 -4.644435346126556396e-01 -5.817843675613403320e-01 -1.389834135770797729e-01
3.440000000000000000e+02 3.349340438842773438e+01 7.050691843032836914e-01 1.508648514747619629e+00 9.493432044982910156e+00 3.300624132156372070e+00 -5.024035453796386719e+00
3.450000000000000000e+02 3.315777206420898438e+01 7.228043675422668457e-01 5.064414143562316895e-01 9.711411476135253906e+00 3.065355777740478516e+00 -7.865729808807373047e+00
3.460000000000000000e+02 3.369336318969726562e+01 6.325175762176513672e-01 -1.284645676612854004e+00 9.432394981384277344e+00 2.444324731826782227e+00 -2.648655652999877930e+00
3.470000000000000000e+02 3.311788177490234375e+01 -1.627113342285156250e+00 7.000636458396911621e-01 1.011126232147216797e+01 3.243397951126098633e+00 3.446486949920654297e+00
3.480000000000000000e+02 3.265560150146484375e+01 -1.723647356033325195e+00 1.339529156684875488e+00 5.024586677551269531e+00 1.909234762191772461e+00 3.238853931427001953e+00
3.490000000000000000e+02 3.285363388061523438e+01 -1.752206683158874512e+00 1.105337381362915039e+00 7.214007377624511719e+00 2.495803356170654297e+00 3.566089630126953125e+00
3.500000000000000000e+02 3.380531311035156250e+01 -1.657810688018798828e+00 1.362603545188903809e+00 1.293435859680175781e+01 4.289088726043701172e+00 -7.087049484252929688e-01
3.510000000000000000e+02 3.403934478759765625e+01 -1.693170189857482910e+00 2.078507900238037109e+00 1.180321693420410156e+01 4.164517402648925781e+00 -1.528337836265563965e+00
3.520000000000000000e+02 3.414519119262695312e+01 -1.398427724838256836e+00 4.299272537231445312e+00 1.163248348236083984e+01 4.779526710510253906e+00 -2.929837703704833984e+00
3.530000000000000000e+02 3.430335235595703125e+01 -1.326466083526611328e+00 5.305017948150634766e+00 1.065612030029296875e+01 4.788341522216796875e+00 -3.059761762619018555e+00
3.540000000000000000e+02 3.442411422729492188e+01 -9.271749854087829590e-01 8.822170257568359375e+00 8.485172271728515625e+00 5.192202568054199219e+00 -2.762111902236938477e+00
3.550000000000000000e+02 3.470933914184570312e+01 -4.497264027595520020e-01 9.463505744934082031e+00 5.319839000701904297e+00 4.435003280639648438e+00 1.660616993904113770e-01
3.560000000000000000e+02 3.447589111328125000e+01 -1.943517029285430908e-01 9.369092941284179688e+00 5.358579158782958984e+00 4.418301582336425781e+00 9.297816753387451172e-01
3.570000000000000000e+02 3.423953247070312500e+01 3.773087263107299805e-01 5.781421184539794922e+00 6.202494621276855469e+00 3.595174789428710938e+00 1.012526035308837891e+00
3.580000000000000000e+02 3.463227462768554688e+01 -1.161196678876876831e-01 8.864917755126953125e+00 4.277207374572753906e+00 3.942637443542480469e+00 1.673333168029785156e+00
3.590000000000000000e+02 3.455679321289062500e+01 6.765861064195632935e-02 6.937811374664306641e+00 4.249851226806640625e+00 3.356298923492431641e+00 1.967867493629455566e+00
3.600000000000000000e+02 3.058247566223144531e+01 -2.655444860458374023e+00 3.017518818378448486e-01 5.798422098159790039e-01 2.644782364368438721e-01 4.973708987236022949e-01
3.610000000000000000e+02 3.159032058715820312e+01 -2.601936101913452148e+00 6.069528460502624512e-01 1.779011368751525879e+00 7.157892584800720215e-01 1.532277107238769531e+00
3.620000000000000000e+02 3.195649337768554688e+01 -2.517882347106933594e+00 7.712364196777343750e-01 2.810322046279907227e+00 1.074467539787292480e+00 2.056059122085571289e+00
3.630000000000000000e+02 3.212879562377929688e+01 -2.430695533752441406e+00 7.749530673027038574e-01 3.557117700576782227e+00 1.299621224403381348e+00 2.270035982131958008e+00
3.640000000000000000e+02 3.246597290039062500e+01 -2.001260995864868164e+00 1.036547064781188965e+00 4.342154502868652344e+00 1.613610386848449707e+00 2.830839395523071289e+00
3.650000000000000000e+02 3.266868209838867188e+01 -1.964500665664672852e+00 9.043493866920471191e-01 5.723777294158935547e+00 1.988438010215759277e+00 3.033928155899047852e+00
3.660000000000000000e+02 3.387649154663085938e+01 -1.792428135871887207e+00 1.203337907791137695e+00 1.202048492431640625e+01 3.967146873474121094e+00 -8.420286774635314941e-01
3.670000000000000000e+02 3.443721389770507812e+01 -1.352912783622741699e+00 5.451445579528808594e+00 9.076024055480957031e+00 4.358240604400634766e+00 -2.752799510955810547e+00
3.680000000000000000e+02 3.434930801391601562e+01 -1.131763577461242676e+00 6.630719661712646484e+00 9.400525093078613281e+00 4.809373378753662109e+00 -3.383130788803100586e+00
3.690000000000000000e+02 3.457892227172851562e+01 -3.649899661540985107e-01 9.518435478210449219e+00 5.015085697174072266e+00 4.360056400299072266e+00 2.977834641933441162e-01
3.700000000000000000e+02 3.446916198730468750e+01 2.439009249210357666e-01 6.583585262298583984e+00 4.446392059326171875e+00 3.308993101119995117e+00 1.899256229400634766e+00
3.710000000000000000e+02 3.427258300781250000e+01 5.181454420089721680e-01 1.749935388565063477e+00 5.487116336822509766e+00 2.171115636825561523e+00 1.301671743392944336e+00
3.720000000000000000e+02 3.140797042846679688e+01 5.033464357256889343e-02 5.096619129180908203e-01 6.060156226158142090e-01 3.347032666206359863e-01 -2.851077318191528320e+00
3.730000000000000000e+02 3.127114677429199219e+01 2.182478457689285278e-01 4.020411670207977295e-01 1.360887646675109863e+00 5.288786292076110840e-01 -2.912144899368286133e+00
3.740000000000000000e+02 3.160868835449218750e+01 3.634633123874664307e-01 1.276312351226806641e+00 1.605944156646728516e+00 8.646769523620605469e-01 -4.017499923706054688e+00
3.750000000000000000e+02 3.178601264953613281e+01 4.175941646099090576e-01 2.010118722915649414e+00 1.861312508583068848e+00 1.161429405212402344e+00 -5.201876163482666016e+00
3.760000000000000000e+02 3.288823318481445312e+01 8.377516269683837891e-01 -8.044777810573577881e-02 8.423162460327148438e+00 2.502814531326293945e+00 -8.330108642578125000e+00
3.770000000000000000e+02 3.307800292968750000e+01 8.827153444290161133e-01 -1.923583745956420898e+00 8.091156005859375000e+00 1.850271701812744141e+00 -7.485044479370117188e+00
3.780000000000000000e+02 3.341406631469726562e+01 9.110495448112487793e-01 -1.025349020957946777e+00 8.421725273132324219e+00 2.218912839889526367e+00 -5.332187175750732422e+00
3.790000000000000000e+02 2.669550132751464844e+01 -1.065971732139587402e+00 3.652975082397460938e+00 1.553852915763854980e+00 1.562048435211181641e+00 -2.216180086135864258e+00
3.800000000000000000e+02 2.443067741394042969e+01 -1.093192249536514282e-01 -4.738199234008789062e+00 1.333472132682800293e-01 -1.381455540657043457e+00 7.604028582572937012e-01
3.810000000000000000e+02 2.481787872314453125e+01 -1.330027431249618530e-01 -1.495128273963928223e+00 -6.523135900497436523e-01 -6.442325711250305176e-01 7.020109891891479492e-01
3.820000000000000000e+02 2.570000076293945312e+01 -5.197560191154479980e-01 5.198005214333534241e-02 8.243194818496704102e-01 2.628898620605468750e-01 -9.523974657058715820e-01
3.830000000000000000e+02 3.066530990600585938e+01 -8.679611086845397949e-01 -3.068494558334350586e+00 6.513363122940063477e-01 -7.251474857330322266e-01 -4.211525619029998779e-01
3.840000000000000000e+02 3.223631668090820312e+01 -1.821347117424011230e+00 1.010382294654846191e+00 2.604493141174316406e+00 1.084462642669677734e+00 2.214317798614501953e+00
3.850000000000000000e+02 3.243674850463867188e+01 -1.746080994606018066e+00 1.304018497467041016e+00 3.668059587478637695e+00 1.491623401641845703e+00 2.737174749374389648e+00
3.860000000000000000e+02 3.121747398376464844e+01 -2.781809866428375244e-01 -9.166004657745361328e-01 3.369508981704711914e-01 -1.738948822021484375e-01 -1.586789727210998535e+00
3.870000000000000000e+02 3.139612960815429688e+01 -5.962502956390380859e-01 -1.826574563980102539e+00 -8.793468028306961060e-02 -5.743528008460998535e-01 -1.239586591720581055e+00
3.880000000000000000e+02 3.076412391662597656e+01 -5.668407678604125977e-01 -2.473392963409423828e+00 6.749042868614196777e-01 -5.395466089248657227e-01 -7.211915850639343262e-01
3.890000000000000000e+02 3.117813110351562500e+01 -5.044735074043273926e-01 -1.824700474739074707e+00 5.571994185447692871e-01 -3.802503049373626709e-01 -1.239540696144104004e+00
3.900000000000000000e+02 3.218407440185546875e+01 -2.144559144973754883e+00 9.588822126388549805e-01 3.240620851516723633e+00 1.259850859642028809e+00 2.357064485549926758e+00
3.910000000000000000e+02 3.438857650756835938e+01 5.775733850896358490e-03 8.701697349548339844e+00 5.799848079681396484e+00 4.350463390350341797e+00 1.538864135742187500e+00
3.920000000000000000e+02 3.406502914428710938e+01 4.424685239791870117e-01 2.819191694259643555e+00 6.775918483734130859e+00 2.878532886505126953e+00 9.408091306686401367e-01
3.930000000000000000e+02 3.159317779541015625e+01 -3.571879491209983826e-02 9.502859711647033691e-01 7.530441880226135254e-01 5.109990239143371582e-01 -2.995597839355468750e+00
3.940000000000000000e+02 2.508388137817382812e+01 -2.567455768585205078e-01 -1.143454360961914062e+01 -2.501589775085449219e+00 -4.180840015411376953e+00 5.168124675750732422e+00
3.950000000000000000e+02 3.171596145629882812e+01 -2.270777702331542969e+00 6.578261852264404297e-01 1.744429826736450195e+00 7.206768393516540527e-01 1.646096229553222656e+00
3.960000000000000000e+02 3.147863388061523438e+01 -1.875716567039489746e+00 -2.641314454376697540e-02 7.355524897575378418e-01 2.127417922019958496e-01 6.846223473548889160e-01
3.970000000000000000e+02 3.184720802307128906e+01 -2.107645273208618164e+00 7.314400672912597656e-01 2.028571367263793945e+00 8.280034661293029785e-01 1.653516530990600586e+00
3.980000000000000000e+02 3.194833564758300781e+01 -1.919006228446960449e+00 8.029654026031494141e-01 1.849067687988281250e+00 7.956098914146423340e-01 1.729466319084167480e+00
3.990000000000000000e+02 3.138206863403320312e+01 -2.104772806167602539e+00 1.965607702732086182e-01 9.041356444358825684e-01 3.302089273929595947e-01 9.296591877937316895e-01
4.000000000000000000e+02 3.212646865844726562e+01 -1.965016365051269531e+00 9.212924838066101074e-01 2.377921342849731445e+00 9.897641539573669434e-01 1.963958859443664551e+00
4.010000000000000000e+02 3.088791847229003906e+01 -1.721968531608581543e+00 -1.543965220451354980e+00 4.688419774174690247e-02 -4.491243064403533936e-01 -5.347227305173873901e-02
4.020000000000000000e+02 3.162419319152832031e+01 -1.666015028953552246e+00 -9.871595352888107300e-02 5.297671556472778320e-01 1.293153613805770874e-01 5.904140472412109375e-01
4.030000000000000000e+02 3.166446685791015625e+01 -1.988734245300292969e+00 4.631838500499725342e-01 1.078562498092651367e+00 4.625239074230194092e-01 1.187136888504028320e+00
4.040000000000000000e+02 3.177691268920898438e+01 -1.820922017097473145e+00 4.077217578887939453e-01 1.198625802993774414e+00 4.819042682647705078e-01 1.084406018257141113e+00
4.050000000000000000e+02 3.193115425109863281e+01 -1.713235139846801758e+00 5.820997357368469238e-01 1.306738257408142090e+00 5.666514039039611816e-01 1.370089292526245117e+00
4.060000000000000000e+02 1.611225318908691406e+01 2.416136503219604492e+00 -1.182133555412292480e+00 -3.394462540745735168e-02 -3.648234605789184570e-01 2.070884853601455688e-01
4.070000000000000000e+02 1.692862129211425781e+01 2.473628282546997070e+00 -1.405320882797241211e+00 -1.594553142786026001e-02 -4.263799190521240234e-01 2.093479037284851074e-01
4.080000000000000000e+02 1.619552993774414062e+01 1.680045008659362793e+00 -1.490502715110778809e+00 -1.679005660116672516e-02 -4.521878361701965332e-01 -2.634372748434543610e-02
4.090000000000000000e+02 1.774459457397460938e+01 2.528052330017089844e+00 -1.630851864814758301e+00 -1.245601922273635864e-01 -5.266236066818237305e-01 3.568624258041381836e-01
4.100000000000000000e+02 1.851055526733398438e+01 1.834378838539123535e+00 -2.517233610153198242e+00 -1.917017847299575806e-01 -8.126806020736694336e-01 2.308093607425689697e-01
4.110000000000000000e+02 1.855901145935058594e+01 2.579250097274780273e+00 -1.595311522483825684e+00 -3.401879370212554932e-01 -5.806498527526855469e-01 4.753003716468811035e-01
4.120000000000000000e+02 1.696798706054687500e+01 1.734610080718994141e+00 -1.686984300613403320e+00 -2.372215315699577332e-02 -5.132119059562683105e-01 1.375276129692792892e-02
4.130000000000000000e+02 1.774004745483398438e+01 1.786107659339904785e+00 -1.973720192909240723e+00 4.003498703241348267e-03 -5.909150242805480957e-01 3.618951886892318726e-02
4.140000000000000000e+02 1.307423973083496094e+01 1.803115367889404297e+00 -5.254064798355102539e-01 2.637501992285251617e-02 -1.497094333171844482e-01 1.128868982195854187e-01
4.150000000000000000e+02 1.322374725341796875e+01 1.078295350074768066e+00 -4.851666688919067383e-01 7.757891900837421417e-03 -1.432226300239562988e-01 -2.924154698848724365e-02
4.160000000000000000e+02 1.396254444122314453e+01 1.243136167526245117e+00 -6.641368269920349121e-01 -6.992201786488294601e-03 -2.013387084007263184e-01 -4.287431761622428894e-02
4.170000000000000000e+02 1.470126342773437500e+01 1.407449364662170410e+00 -8.851351737976074219e-01 7.888318039476871490e-03 -2.631740570068359375e-01 -7.175707072019577026e-02
4.180000000000000000e+02 1.544029712677001953e+01 1.569983482360839844e+00 -1.210590958595275879e+00 -3.861241415143013000e-02 -3.747610151767730713e-01 -6.316342204809188843e-02
4.190000000000000000e+02 1.532874107360839844e+01 2.303210496902465820e+00 -1.009788513183593750e+00 1.582830026745796204e-02 -2.981880605220794678e-01 1.985788643360137939e-01
4.200000000000000000e+02 1.382568740844726562e+01 1.970758438110351562e+00 -6.742572188377380371e-01 4.498181119561195374e-02 -1.887826174497604370e-01 1.237014308571815491e-01
4.210000000000000000e+02 1.457705688476562500e+01 2.137874126434326172e+00 -8.675653338432312012e-01 3.210659697651863098e-02 -2.506376206874847412e-01 1.669872105121612549e-01
4.220000000000000000e+02 1.104393005371093750e+01 6.161050796508789062e-01 -1.617325097322463989e-01 2.445860765874385834e-03 -4.778599739074707031e-02 2.230487996712327003e-03
4.230000000000000000e+02 1.093760776519775391e+01 1.349887132644653320e+00 -2.298831939697265625e-01 6.293254438787698746e-03 -6.707698106765747070e-02 5.395176261663436890e-02
4.240000000000000000e+02 1.032133674621582031e+01 4.645727574825286865e-01 -1.008781120181083679e-01 9.276284836232662201e-04 -2.998514473438262939e-02 4.225148353725671768e-03
4.250000000000000000e+02 1.176770782470703125e+01 7.675349712371826172e-01 -2.416206598281860352e-01 3.919023089110851288e-03 -7.131049036979675293e-02 -5.255571566522121429e-03
4.260000000000000000e+02 1.234649181365966797e+01 1.644436478614807129e+00 -3.993255794048309326e-01 2.153077721595764160e-02 -1.133384406566619873e-01 8.498480170965194702e-02
4.270000000000000000e+02 1.249242305755615234e+01 9.189449548721313477e-01 -3.482466042041778564e-01 -5.214211414568126202e-04 -1.046304106712341309e-01 -1.107503753155469894e-02
4.280000000000000000e+02 1.023481845855712891e+01 1.202500104904174805e+00 -1.726128607988357544e-01 7.700582034885883331e-03 -4.947368055582046509e-02 4.423175007104873657e-02
4.290000000000000000e+02 1.164158153533935547e+01 1.497171759605407715e+00 -3.077177107334136963e-01 1.271908450871706009e-02 -8.849958330392837524e-02 7.488495111465454102e-02
4.300000000000000000e+02 8.738976478576660156e+00 3.806764781475067139e-01 -4.725902155041694641e-02 -3.578388132154941559e-03 -1.525122299790382385e-02 8.813922293484210968e-03
4.310000000000000000e+02 8.719267845153808594e+00 1.120676517486572266e+00 -9.616489708423614502e-02 7.071816944517195225e-04 -2.863731421530246735e-02 3.038215637207031250e-02
4.320000000000000000e+02 7.164478778839111328e+00 1.118019104003906250e+00 -5.287301912903785706e-02 -8.691556286066770554e-04 -1.612265221774578094e-02 2.188730612397193909e-02
4.330000000000000000e+02 6.292463302612304688e+00 3.770544826984405518e-01 2.511702012270689011e-03 1.413048477843403816e-03 1.177425147034227848e-03 5.123213864862918854e-03
4.340000000000000000e+02 5.476712703704833984e+00 3.768434524536132812e-01 1.236297376453876495e-02 -2.147946739569306374e-03 3.064508084207773209e-03 3.557224292308092117e-03
4.350000000000000000e+02 4.661345481872558594e+00 3.765997588634490967e-01 1.849128492176532745e-02 1.251652283826842904e-04 5.584934726357460022e-03 1.843293313868343830e-03
4.360000000000000000e+02 3.032949686050415039e+00 3.775091171264648438e-01 1.938651502132415771e-02 -6.534025305882096291e-04 5.619933828711509705e-03 -1.245983643457293510e-03
4.370000000000000000e+02 2.221997976303100586e+00 3.784421682357788086e-01 1.377919968217611313e-02 -6.799867842346429825e-04 3.929764032363891602e-03 -3.011303953826427460e-03
4.380000000000000000e+02 2.505794763565063477e+00 1.118442177772521973e+00 2.782235853374004364e-03 -3.048232523724436760e-03 -7.979899964993819594e-05 -3.684403840452432632e-03
4.390000000000000000e+02 1.745976328849792480e+00 1.122917294502258301e+00 2.872633282095193863e-03 -1.184096443466842175e-03 5.065610166639089584e-04 -6.984443403780460358e-03
4.400000000000000000e+02 3.682450354099273682e-01 9.625021815299987793e-01 9.755984647199511528e-04 4.343801643699407578e-03 1.595819951035082340e-03 -1.897562295198440552e-03
4.410000000000000000e+02 6.944741606712341309e-01 4.059950113296508789e-01 1.170263276435434818e-03 3.072855179198086262e-04 4.432646383065730333e-04 -2.450123196467757225e-03
4.420000000000000000e+02 3.278808116912841797e+00 1.117509126663208008e+00 -1.100871129892766476e-03 -4.007006529718637466e-03 -1.532363239675760269e-03 -1.315099798375740647e-04
4.430000000000000000e+02 3.846553564071655273e+00 3.765962421894073486e-01 2.070958167314529419e-02 -9.828122565522789955e-04 5.918031092733144760e-03 3.784260188695043325e-04
4.440000000000000000e+02 5.608756542205810547e+00 1.116843461990356445e+00 -2.326549962162971497e-02 -1.901442417874932289e-03 -7.550082635134458542e-03 1.313428394496440887e-02
4.450000000000000000e+02 6.386569023132324219e+00 1.117054462432861328e+00 -3.673347085714340210e-02 -5.510526243597269058e-03 -1.267319917678833008e-02 1.816340163350105286e-02
4.460000000000000000e+02 7.108311176300048828e+00 3.780190646648406982e-01 -1.113698352128267288e-02 -3.307488979771733284e-03 -4.333341494202613831e-03 6.640200503170490265e-03
4.470000000000000000e+02 7.924066066741943359e+00 3.789985179901123047e-01 -2.786680310964584351e-02 2.602124819532036781e-03 -7.579403463751077652e-03 7.943506352603435516e-03
4.480000000000000000e+02 7.942295551300048828e+00 1.118998527526855469e+00 -7.242228090763092041e-02 -5.698677618056535721e-03 -2.343628741800785065e-02 2.646121196448802948e-02
4.490000000000000000e+02 9.552846908569335938e+00 3.859910368919372559e-01 -6.683338433504104614e-02 3.748490242287516594e-03 -1.892546936869621277e-02 8.446607738733291626e-03
4.500000000000000000e+02 9.495200157165527344e+00 1.125990986824035645e+00 -1.268163323402404785e-01 -2.080260077491402626e-03 -3.866897895932197571e-02 3.228372335433959961e-02
4.510000000000000000e+02 1.054147243499755859e+00 1.145995020866394043e+00 2.756556728854775429e-03 2.219627611339092255e-03 1.492855255492031574e-03 -6.267140619456768036e-03
4.520000000000000000e+02 4.831327438354492188e+00 1.116599798202514648e+00 -1.299759838730096817e-02 -5.054874811321496964e-03 -5.415741819888353348e-03 9.003092534840106964e-03
4.530000000000000000e+02 4.054473876953125000e+00 1.116596221923828125e+00 -5.231077317148447037e-03 -2.533975755795836449e-03 -2.329515991732478142e-03 4.150060005486011505e-03
4.540000000000000000e+02 1.424241423606872559e+00 3.829173147678375244e-01 7.066685706377029419e-03 2.635948767419904470e-04 2.199084032326936722e-03 -2.912493422627449036e-03
4.550000000000000000e+02 1.338139057159423828e+01 3.142086565494537354e-01 -2.564241588115692139e-01 1.103096548467874527e-02 -7.361795753240585327e-02 -7.346218824386596680e-02
4.560000000000000000e+02 1.410687160491943359e+01 4.760258793830871582e-01 -2.793777287006378174e-01 -4.878708347678184509e-02 -9.844944626092910767e-02 -6.713061034679412842e-02
4.570000000000000000e+02 1.353089809417724609e+01 -4.106113612651824951e-01 -1.940656006336212158e-01 -4.661130532622337341e-02 -7.220306992530822754e-02 -7.474616914987564087e-02
4.580000000000000000e+02 1.483218193054199219e+01 6.374483108520507812e-01 -2.946287095546722412e-01 1.854883320629596710e-02 -8.282396942377090454e-02 -7.816529273986816406e-02
4.590000000000000000e+02 1.495638942718505859e+01 -9.297639876604080200e-02 -2.263565957546234131e-01 -3.753456845879554749e-02 -7.916735112667083740e-02 -6.578996032476425171e-02
4.600000000000000000e+02 1.566942024230957031e+01 6.387124955654144287e-02 -2.496456503868103027e-01 4.007037356495857239e-02 -6.287258118391036987e-02 -7.115302234888076782e-02
4.610000000000000000e+02 1.555786418914794922e+01 7.970982789993286133e-01 -3.008364439010620117e-01 -3.755916655063629150e-02 -1.015186831355094910e-01 -5.681333690881729126e-02
4.620000000000000000e+02 1.424372863769531250e+01 -2.515964508056640625e-01 -2.122842371463775635e-01 1.046988554298877716e-02 -6.054430827498435974e-02 -7.800494134426116943e-02
4.630000000000000000e+02 3.459954977035522461e+00 -1.906984090805053711e+00 -5.739632993936538696e-03 -7.924440316855907440e-03 -4.099221900105476379e-03 -3.530840389430522919e-03
4.640000000000000000e+02 5.045083045959472656e+00 -1.954103231430053711e+00 -1.340559311211109161e-02 -1.251485571265220642e-02 -7.776134647428989410e-03 -1.621197722852230072e-02
4.650000000000000000e+02 9.067515373229980469e+00 -2.629653453826904297e+00 -4.758105799555778503e-02 -3.905341401696205139e-02 -2.599034085869789124e-02 -7.120967656373977661e-02
4.660000000000000000e+02 1.789025115966796875e+01 -2.961669683456420898e+00 7.317836582660675049e-02 1.542184799909591675e-01 6.821905076503753662e-02 6.158100813627243042e-02
4.670000000000000000e+02 1.702773284912109375e+01 -1.847163200378417969e+00 -3.634069114923477173e-02 5.207657441496849060e-02 4.720765165984630585e-03 -3.981513530015945435e-02
4.680000000000000000e+02 2.011622619628906250e+01 -9.003829360008239746e-01 -2.405946142971515656e-02 5.154740810394287109e-02 8.246383629739284515e-03 -3.506071493029594421e-02
4.690000000000000000e+02 1.740995216369628906e+01 -4.480417072772979736e-01 -2.005006968975067139e-01 7.917537353932857513e-03 -5.777494981884956360e-02 -2.418829314410686493e-02
4.700000000000000000e+02 5.997817516326904297e-01 -1.073784637451171875e+01 -1.531168725341558456e-02 4.114588256925344467e-03 -3.359129652380943298e-03 -3.161722328513860703e-03
4.710000000000000000e+02 6.648169517517089844e+00 -1.470685672760009766e+01 -1.943508088588714600e-01 -2.333073765039443970e-01 -1.282974481582641602e-01 -1.763020753860473633e-01
4.720000000000000000e+02 1.013735771179199219e+01 -1.254753875732421875e+01 -2.821878790855407715e-01 -5.448642373085021973e-02 -1.010022908449172974e-01 -7.136903703212738037e-02
4.730000000000000000e+02 8.919534683227539062e+00 -1.294498920440673828e+01 -3.175143599510192871e-01 -1.785570085048675537e-01 -1.488214135169982910e-01 -1.745002567768096924e-01
4.740000000000000000e+02 1.259952640533447266e+01 -1.202584648132324219e+01 -2.315624803304672241e-02 1.576365530490875244e-01 4.034408926963806152e-02 -1.104203164577484131e-01
4.750000000000000000e+02 1.816787528991699219e+01 -1.576676559448242188e+01 1.362527310848236084e-01 1.263562440872192383e-01 7.878269255161285400e-02 -2.976586520671844482e-01
4.760000000000000000e+02 1.665460968017578125e+01 -1.046215057373046875e+01 -1.748999059200286865e-01 1.585948765277862549e-01 -4.891507793217897415e-03 8.947325497865676880e-02
4.770000000000000000e+02 1.702490043640136719e+01 -8.440443038940429688e+00 8.348369039595127106e-03 1.962483227252960205e-01 6.137900799512863159e-02 2.515201084315776825e-02
4.780000000000000000e+02 1.703531074523925781e+01 -5.575018882751464844e+00 4.560884088277816772e-02 2.275512218475341797e-01 8.194801956415176392e-02 2.621853910386562347e-02
4.790000000000000000e+02 3.082921266555786133e+00 -2.071891021728515625e+01 1.659341901540756226e-01 -2.369766235351562500e-01 -2.131273038685321808e-02 -1.664019525051116943e-01
4.800000000000000000e+02 5.962434768676757812e+00 -2.178850936889648438e+01 3.038374781608581543e-01 3.501650094985961914e-01 1.962007582187652588e-01 -2.800242602825164795e-01
4.810000000000000000e+02 7.718780517578125000e+00 -2.301845932006835938e+01 2.139028161764144897e-01 2.002466619014739990e-01 1.242448464035987854e-01 -2.260175943374633789e-01
4.820000000000000000e+02 2.876134872436523438e+00 -2.445458984375000000e+01 6.401322782039642334e-03 -3.531762361526489258e-01 -1.040324717760086060e-01 -2.020638063549995422e-02
4.830000000000000000e+02 6.681098937988281250e-01 -3.039046478271484375e+01 -1.069859135895967484e-02 -7.346494793891906738e-01 -2.236044257879257202e-01 3.148539736866950989e-02
4.840000000000000000e+02 1.216506195068359375e+01 -3.617238616943359375e+01 3.213673084974288940e-02 1.055906295776367188e+00 3.264129161834716797e-01 1.574808061122894287e-01
4.850000000000000000e+02 1.341743183135986328e+01 -3.694129943847656250e+01 4.346478357911109924e-02 7.755894064903259277e-01 2.457162588834762573e-01 1.837277039885520935e-02
4.860000000000000000e+02 1.261764240264892578e+01 -3.500117492675781250e+01 1.078929519280791283e-03 1.462543964385986328e+00 4.390868842601776123e-01 1.325904130935668945e-01
4.870000000000000000e+02 1.249666404724121094e+01 -3.058278465270996094e+01 5.894960165023803711e-01 1.496772527694702148e+00 6.258805990219116211e-01 6.053701639175415039e-01
4.880000000000000000e+02 1.412761211395263672e+01 -2.979778861999511719e+01 7.676765322685241699e-01 1.851784586906433105e+00 7.858383059501647949e-01 1.089757680892944336e+00
4.890000000000000000e+02 1.494446182250976562e+01 -2.855702781677246094e+01 1.042737483978271484e+00 1.557980179786682129e+00 7.802153229713439941e-01 1.136245965957641602e+00
4.900000000000000000e+02 1.168325328826904297e+01 -2.293311119079589844e+01 -5.358156189322471619e-02 1.232834234833717346e-01 2.091055922210216522e-02 8.284661173820495605e-02
4.910000000000000000e+02 1.036906719207763672e+01 -2.309462165832519531e+01 -1.429106593132019043e-01 1.357497274875640869e-02 -3.880070522427558899e-02 -4.093344137072563171e-02
4.920000000000000000e+02 1.143903732299804688e+01 -2.446298599243164062e+01 2.463184446096420288e-01 2.996630072593688965e-01 1.637944281101226807e-01 1.554036587476730347e-01
4.930000000000000000e+02 7.861087322235107422e+00 -3.693661117553710938e+01 -1.713936626911163330e-01 4.964131116867065430e-01 9.750583022832870483e-02 4.774799942970275879e-01
4.940000000000000000e+02 1.006916904449462891e+01 -3.379668807983398438e+01 2.633230090141296387e-01 8.062584996223449707e-01 3.208744525909423828e-01 4.858544170856475830e-01
4.950000000000000000e+02 7.052226662635803223e-01 -3.179364776611328125e+01 2.062326297163963318e-02 -6.540552973747253418e-01 -1.900296062231063843e-01 4.511271417140960693e-02
4.960000000000000000e+02 8.164065480232238770e-01 -3.739972686767578125e+01 3.748349845409393311e-02 -1.547909528017044067e-01 -3.519223630428314209e-02 8.911761641502380371e-02
4.970000000000000000e+02 2.654278039932250977e+00 -3.817966079711914062e+01 8.679558522999286652e-03 4.909039288759231567e-02 1.733098551630973816e-02 2.285531610250473022e-01
4.980000000000000000e+02 2.216130065917968750e+01 -3.978486633300781250e+01 -1.035423040390014648e+00 5.095303654670715332e-01 -1.577678024768829346e-01 -9.603039361536502838e-03
4.990000000000000000e+02 2.254926300048828125e+01 -4.151044845581054688e+01 -1.318170189857482910e+00 7.920353412628173828e-01 -1.578404605388641357e-01 2.316088080406188965e-01
5.000000000000000000e+02 2.513219833374023438e+01 -4.040782928466796875e+01 -1.271780371665954590e+00 2.620027542114257812e+00 4.044741690158843994e-01 -2.208778113126754761e-01
5.010000000000000000e+02 2.636348915100097656e+01 -3.848815155029296875e+01 -5.485490560531616211e-01 3.304998159408569336e+00 8.269347548484802246e-01 -4.731788635253906250e-01
5.020000000000000000e+02 2.897464179992675781e+01 -3.898622894287109375e+01 -6.398065686225891113e-01 3.163348674774169922e+00 7.570626735687255859e-01 -2.869393527507781982e-01
5.030000000000000000e+02 3.954316329956054688e+01 -3.543238830566406250e+01 -3.863908350467681885e-01 3.445849657058715820e+00 9.178376197814941406e-01 -8.741497993469238281e-01
5.040000000000000000e+02 3.900204849243164062e+01 -3.192132759094238281e+01 1.186976194381713867e+00 9.812431335449218750e+00 3.299822092056274414e+00 2.660773754119873047e+00
5.050000000000000000e+02 3.792807388305664062e+01 -3.638363265991210938e+01 -1.075089812278747559e+00 4.753610610961914062e+00 1.103556156158447266e+00 1.212343573570251465e+00
5.060000000000000000e+02 3.017761611938476562e+01 -2.528734970092773438e+01 6.248953938484191895e-01 3.064803600311279297e+00 1.106909751892089844e+00 -1.556589245796203613e+00
5.070000000000000000e+02 2.936725234985351562e+01 -2.427070808410644531e+01 1.090348243713378906e+00 6.751783847808837891e+00 2.352639675140380859e+00 -1.829637646675109863e+00
5.080000000000000000e+02 2.936255645751953125e+01 -2.608159828186035156e+01 -9.847632646560668945e-01 4.781991481781005859e+00 1.139168500900268555e+00 -6.467261314392089844e-01
5.090000000000000000e+02 2.244980621337890625e+01 -2.804335403442382812e+01 -1.288468480110168457e+00 -2.054732292890548706e-01 -4.481824934482574463e-01 9.195608496665954590e-01
5.100000000000000000e+02 2.319682884216308594e+01 -2.707062911987304688e+01 -1.166480779647827148e+00 1.120869874954223633e+00 -1.368324551731348038e-02 3.128308951854705811e-01
5.110000000000000000e+02 2.340736770629882812e+01 -2.904882621765136719e+01 -8.014048337936401367e-01 7.817460894584655762e-01 -5.897629540413618088e-03 1.254077255725860596e-01
5.120000000000000000e+02 2.504289627075195312e+01 -2.890303611755371094e+01 -1.471282005310058594e+00 3.372679948806762695e+00 5.704193711280822754e-01 4.705463647842407227e-01
5.130000000000000000e+02 2.971538925170898438e+01 -3.056727218627929688e+01 -8.601002693176269531e-01 2.836630821228027344e+00 5.929591655731201172e-01 -4.290449321269989014e-01
5.140000000000000000e+02 2.505178070068359375e+01 -3.344607543945312500e+01 -4.138400033116340637e-02 4.858343124389648438e+00 1.445087671279907227e+00 -1.284826695919036865e-01
5.150000000000000000e+02 2.354837226867675781e+01 -3.894053649902343750e+01 -4.248139560222625732e-01 1.257337212562561035e+00 2.497569918632507324e-01 3.854951262474060059e-01
5.160000000000000000e+02 4.041128540039062500e+01 -3.660795211791992188e+01 -7.330611944198608398e-01 1.760460257530212402e+00 3.082197010517120361e-01 -6.540202535688877106e-03
5.170000000000000000e+02 4.606475067138671875e+01 -3.756643295288085938e+01 -2.317936182022094727e+00 -4.262031316757202148e-01 -8.232418298721313477e-01 -6.082245707511901855e-01
5.180000000000000000e+02 4.873418807983398438e+01 -3.857349014282226562e+01 -2.292656183242797852e+00 4.717381000518798828e+00 7.274174094200134277e-01 1.233371973037719727e+00
5.190000000000000000e+02 4.826099014282226562e+01 -3.639453125000000000e+01 -1.883549615740776062e-02 3.165562152862548828e+00 9.440180063247680664e-01 1.442382335662841797e+00
5.200000000000000000e+02 5.822043609619140625e+01 -3.727009963989257812e+01 -5.815408825874328613e-01 2.221679687500000000e+00 4.920416474342346191e-01 -9.791192412376403809e-01
5.210000000000000000e+02 5.654051971435546875e+01 -3.529475784301757812e+01 1.934440374374389648e+00 1.009480857849121094e+01 3.608774662017822266e+00 -2.820118665695190430e+00
5.220000000000000000e+02 5.881647109985351562e+01 -4.041769027709960938e+01 -2.037014961242675781e+00 2.247134447097778320e+00 6.303583830595016479e-02 -6.065146327018737793e-01
5.230000000000000000e+02 5.878971099853515625e+01 -3.864150238037109375e+01 -1.540058851242065430e+00 1.473218917846679688e+00 -2.005197107791900635e-02 -1.010346293449401855e+00
5.240000000000000000e+02 6.140071105957031250e+01 -3.870553970336914062e+01 -3.675835609436035156e+00 -8.769572973251342773e-01 -1.365837931632995605e+00 6.043765693902969360e-02
5.250000000000000000e+02 6.424026489257812500e+01 -3.738584136962890625e+01 -1.441179990768432617e+00 1.224955201148986816e+00 -6.486743688583374023e-02 1.823046244680881500e-02
5.260000000000000000e+02 7.029145050048828125e+01 -3.496258926391601562e+01 7.794129848480224609e-01 5.895133495330810547e+00 2.002363920211791992e+00 -1.332654237747192383e+00
5.270000000000000000e+02 7.790715789794921875e+01 -4.166446304321289062e+01 -2.476114779710769653e-02 7.997018337249755859e+00 2.391677141189575195e+00 -6.666625384241342545e-03
5.280000000000000000e+02 7.733546447753906250e+01 -3.670425415039062500e+01 7.214182056486606598e-03 7.512469291687011719e+00 2.255904912948608398e+00 -2.262000441551208496e-01
5.290000000000000000e+02 7.770240783691406250e+01 -3.002831649780273438e+01 -1.505395323038101196e-01 7.497919082641601562e+00 2.204213857650756836e+00 1.005981788039207458e-01
5.300000000000000000e+02 7.474083709716796875e+01 -2.056528091430664062e+01 1.186436653137207031e+00 1.014227581024169922e+01 3.398613691329956055e+00 2.132822275161743164e-01
5.310000000000000000e+02 7.230313110351562500e+01 -1.764182090759277344e+01 1.041341304779052734e+00 3.765694379806518555e+00 1.442110657691955566e+00 -1.734034895896911621e+00
5.320000000000000000e+02 7.821405792236328125e+01 -1.109047412872314453e+01 -3.812905550003051758e-01 9.376551628112792969e+00 2.698578357696533203e+00 -7.397603392601013184e-01
5.330000000000000000e+02 7.935071563720703125e+01 -1.250121307373046875e+01 -7.206036150455474854e-02 1.032706451416015625e+01 3.076501131057739258e+00 -1.112415343523025513e-01
5.340000000000000000e+02 7.303525543212890625e+01 -1.144081211090087891e+01 -2.558677911758422852e+00 3.922177851200103760e-01 -6.499379873275756836e-01 -3.373366296291351318e-01
5.350000000000000000e+02 7.107157897949218750e+01 -1.211065387725830078e+01 -2.503829717636108398e+00 -2.927309870719909668e-01 -8.389682173728942871e-01 -9.564992189407348633e-01
5.360000000000000000e+02 6.961591339111328125e+01 -1.330634117126464844e+01 -4.674610197544097900e-01 2.473935931921005249e-01 -6.602022796869277954e-02 -1.948668360710144043e+00
5.370000000000000000e+02 6.962557983398437500e+01 -1.540176773071289062e+01 -8.477091789245605469e-01 1.253698170185089111e-01 -2.167018055915832520e-01 -1.255809187889099121e+00
5.380000000000000000e+02 7.129428100585937500e+01 -1.701438331604003906e+01 1.042952060699462891e+00 1.121289849281311035e+00 6.492725610733032227e-01 -7.472923398017883301e-01
5.390000000000000000e+02 7.035460662841796875e+01 -1.641306495666503906e+01 -5.373888611793518066e-01 1.848022490739822388e-01 -1.057759895920753479e-01 -6.593257188796997070e-01
5.400000000000000000e+02 7.347845458984375000e+01 -1.947784614562988281e+01 1.271820425987243652e+00 9.823032379150390625e+00 3.328455686569213867e+00 -2.040226936340332031e+00
5.410000000000000000e+02 7.810424041748046875e+01 -1.804845046997070312e+01 8.223816752433776855e-02 8.328552246093750000e+00 2.523236989974975586e+00 1.033506870269775391e+00
5.420000000000000000e+02 7.711727905273437500e+01 -1.071803188323974609e+01 -6.284474134445190430e-01 9.577367782592773438e+00 2.684676170349121094e+00 -1.008774518966674805e+00
5.430000000000000000e+02 7.532273101806640625e+01 -8.066808700561523438e+00 7.083918452262878418e-01 1.425052165985107422e+01 4.487673759460449219e+00 4.449097812175750732e-01
5.440000000000000000e+02 7.671172332763671875e+01 -6.872939109802246094e+00 1.120487213134765625e+00 1.062645149230957031e+01 3.524081468582153320e+00 -3.558726012706756592e-01
5.450000000000000000e+02 7.679907989501953125e+01 -5.468961715698242188e+00 8.624131679534912109e-01 1.017909336090087891e+01 3.312451839447021484e+00 1.809474974870681763e-01
5.460000000000000000e+02 7.941008758544921875e+01 2.910627365112304688e+00 -4.185244441032409668e-02 8.790875434875488281e+00 2.624706983566284180e+00 -2.320496141910552979e-01
5.470000000000000000e+02 7.005891418457031250e+01 3.301546573638916016e+00 3.442023396492004395e-01 2.653822183609008789e+00 8.994073271751403809e-01 1.686175704002380371e+00
5.480000000000000000e+02 6.710639953613281250e+01 6.028945446014404297e+00 -1.115938186645507812e+00 4.239444732666015625e-01 -2.075981199741363525e-01 9.978131651878356934e-01
5.490000000000000000e+02 6.332490921020507812e+01 5.613777160644531250e+00 -7.098141908645629883e-01 2.579730749130249023e+00 5.609749555587768555e-01 -1.344817638397216797e+00
5.500000000000000000e+02 6.319936752319335938e+01 8.222850799560546875e+00 -1.656288467347621918e-02 1.170179128646850586e+00 3.460848927497863770e-01 -4.272261261940002441e-01
5.510000000000000000e+02 6.095362854003906250e+01 -3.395073175430297852e+00 1.760977029800415039e+00 1.221867084503173828e+01 4.193894386291503906e+00 -2.554676771163940430e+00
5.520000000000000000e+02 6.600115966796875000e+01 -3.632646083831787109e+00 2.097126483917236328e+00 7.264765739440917969e+00 2.808567762374877930e+00 2.990388631820678711e+00
5.530000000000000000e+02 6.508867645263671875e+01 -2.978128671646118164e+00 1.487725257873535156e+00 7.061313152313232422e+00 2.564711570739746094e+00 1.449229955673217773e+00
5.540000000000000000e+02 6.119548797607421875e+01 -4.769528388977050781e+00 3.391757905483245850e-01 1.101394844055175781e+01 3.405937194824218750e+00 -7.742283940315246582e-01
5.550000000000000000e+02 6.329610443115234375e+01 -6.656530857086181641e+00 1.665339350700378418e+00 9.325051307678222656e+00 3.297117233276367188e+00 2.245754152536392212e-01
5.560000000000000000e+02 6.200280380249023438e+01 -1.011829185485839844e+01 -5.595536828041076660e-01 7.236399173736572266e+00 2.003053665161132812e+00 9.396179914474487305e-01
5.570000000000000000e+02 6.134703826904296875e+01 -8.927768707275390625e+00 1.099637031555175781e+00 8.215760231018066406e+00 2.794619321823120117e+00 1.675994753837585449e+00
5.580000000000000000e+02 5.794448089599609375e+01 -1.079642105102539062e+01 -7.607326507568359375e-01 9.038355946540832520e-01 4.293088614940643311e-02 -2.793229222297668457e-01
5.590000000000000000e+02 5.896207046508789062e+01 -1.132871437072753906e+01 2.118651121854782104e-01 3.185702800750732422e+00 1.019270420074462891e+00 1.368177652359008789e+00
5.600000000000000000e+02 5.686532211303710938e+01 -1.025199222564697266e+01 -8.013702630996704102e-01 7.072232365608215332e-01 -2.824411913752555847e-02 -1.067408084869384766e+00
5.610000000000000000e+02 5.354409027099609375e+01 -9.863381385803222656e+00 1.578573703765869141e+00 4.857285022735595703e+00 1.930757522583007812e+00 -2.662968873977661133e+00
5.620000000000000000e+02 4.765922927856445312e+01 -6.597442626953125000e+00 2.137153148651123047e+00 8.883209228515625000e+00 3.306108713150024414e+00 -2.123628377914428711e+00
5.630000000000000000e+02 4.797714996337890625e+01 -5.203692436218261719e+00 1.334468960762023926e+00 6.787975311279296875e+00 2.436733245849609375e+00 -1.368928670883178711e+00
5.640000000000000000e+02 4.894089508056640625e+01 -5.344954013824462891e+00 1.726559996604919434e+00 7.845582962036132812e+00 2.871642827987670898e+00 -8.395738005638122559e-01
5.650000000000000000e+02 4.573781204223632812e+01 -5.473769664764404297e+00 2.265927791595458984e+00 3.052020788192749023e+00 1.595384478569030762e+00 -2.655009746551513672e+00
5.660000000000000000e+02 4.994516372680664062e+01 -7.410983562469482422e+00 2.539182186126708984e+00 7.914117336273193359e+00 3.135989904403686523e+00 -9.664787910878658295e-03
5.670000000000000000e+02 4.836213302612304688e+01 -1.020276069641113281e+01 2.427876472473144531e+00 1.098588752746582031e+01 4.024129390716552734e+00 1.250496029853820801e+00
5.680000000000000000e+02 5.052300262451171875e+01 -1.307045173645019531e+01 -2.237505465745925903e-01 4.207000255584716797e+00 1.194974899291992188e+00 -1.021820306777954102e+00
5.690000000000000000e+02 4.742515563964843750e+01 -1.110760021209716797e+01 2.744444131851196289e+00 1.173858547210693359e+01 4.344908714294433594e+00 3.231433391571044922e+00
5.700000000000000000e+02 4.544804382324218750e+01 -1.290208244323730469e+01 -1.873103618621826172e+00 2.663150072097778320e+00 2.370139062404632568e-01 1.301399588584899902e+00
5.710000000000000000e+02 4.289309310913085938e+01 -1.375299549102783203e+01 -7.086670875549316406e+00 -2.891878485679626465e-01 -2.212757587432861328e+00 -1.914487481117248535e-01
5.720000000000000000e+02 4.038207244873046875e+01 -1.973285865783691406e+01 1.739338994026184082e+00 5.427818298339843750e+00 2.150147199630737305e+00 -1.185595631599426270e+00
5.730000000000000000e+02 4.181125640869140625e+01 -1.426302623748779297e+01 -4.627601623535156250e+00 3.750913143157958984e-01 -1.275753021240234375e+00 -7.508593201637268066e-01
5.740000000000000000e+02 4.086373138427734375e+01 -1.329619884490966797e+01 -4.276812553405761719e+00 9.199855923652648926e-01 -1.007048130035400391e+00 -4.501845836639404297e-01
5.750000000000000000e+02 3.749331665039062500e+01 -1.188942813873291016e+01 -5.231221318244934082e-01 6.043701171875000000e+00 1.656173706054687500e+00 -1.535843014717102051e+00
5.760000000000000000e+02 3.707037353515625000e+01 -7.915861129760742188e+00 1.185052156448364258e+00 1.295606994628906250e+01 4.242336750030517578e+00 5.861915349960327148e-01
5.770000000000000000e+02 3.828871154785156250e+01 -5.055313587188720703e+00 1.791818737983703613e+00 5.454003334045410156e+00 2.173746585845947266e+00 2.917753458023071289e+00
5.780000000000000000e+02 3.491232299804687500e+01 -1.102005362510681152e+00 6.567248344421386719e+00 6.258531570434570312e+00 3.847733974456787109e+00 -1.281118869781494141e+00
5.790000000000000000e+02 3.491508102416992188e+01 -7.141227368265390396e-03 6.497851848602294922e+00 3.589703559875488281e+00 3.026266574859619141e+00 2.451501607894897461e+00
5.800000000000000000e+02 3.387683105468750000e+01 1.048807501792907715e+00 -4.068209648132324219e+00 3.253258943557739258e+00 -2.444851845502853394e-01 -2.524199724197387695e+00
5.810000000000000000e+02 7.811081695556640625e+01 4.503965854644775391e+00 -5.281294137239456177e-02 7.617936611175537109e+00 2.269536972045898438e+00 -7.620333433151245117e-01
5.820000000000000000e+02 7.935913085937500000e+01 8.515436172485351562e+00 1.574346236884593964e-02 6.066536903381347656e+00 1.824684023857116699e+00 -3.020230233669281006e-01
5.830000000000000000e+02 7.206493377685546875e+01 1.382671833038330078e+01 6.419194936752319336e-01 1.334228229522705078e+01 4.195260524749755859e+00 -1.050832033157348633e+00
5.840000000000000000e+02 7.198204040527343750e+01 1.035370635986328125e+01 1.836711168289184570e+00 1.250894927978515625e+01 4.303698062896728516e+00 2.435151338577270508e+00
5.850000000000000000e+02 7.135314941406250000e+01 9.313049316406250000e+00 2.267899036407470703e+00 8.454968452453613281e+00 3.216860294342041016e+00 3.372792243957519531e+00
5.860000000000000000e+02 7.005146789550781250e+01 7.980266094207763672e+00 1.995444893836975098e+00 3.642486333847045898e+00 1.691379308700561523e+00 2.370480775833129883e+00
5.870000000000000000e+02 7.937388610839843750e+01 1.268359565734863281e+01 6.737048178911209106e-02 5.133057117462158203e+00 1.560128331184387207e+00 7.170706987380981445e-02
5.880000000000000000e+02 7.942575836181640625e+01 1.678777313232421875e+01 1.539824437350034714e-02 6.609926223754882812e+00 1.987597346305847168e+00 2.861120700836181641e-01
5.890000000000000000e+02 7.021866607666015625e+01 1.758333206176757812e+01 -5.715249851346015930e-02 3.052632808685302734e+00 8.986440896987915039e-01 -1.190425634384155273e+00
5.900000000000000000e+02 7.172206115722656250e+01 1.518177223205566406e+01 1.345328569412231445e+00 1.154594039916992188e+01 3.867380857467651367e+00 -2.293137073516845703e+00
5.910000000000000000e+02 7.822077178955078125e+01 1.822163009643554688e+01 -1.386985480785369873e-01 7.328884124755859375e+00 2.157055616378784180e+00 6.363788247108459473e-01
5.920000000000000000e+02 7.934626770019531250e+01 2.370945358276367188e+01 -3.203636407852172852e-02 8.095183372497558594e+00 2.418944120407104492e+00 -3.713920712471008301e-02
5.930000000000000000e+02 7.183068084716796875e+01 2.848311042785644531e+01 8.568316102027893066e-01 5.240315437316894531e+00 1.829144120216369629e+00 -1.029604971408843994e-01
5.940000000000000000e+02 6.360011672973632812e+01 3.068535423278808594e+01 3.469089567661285400e-01 7.339218616485595703e+00 2.305838346481323242e+00 2.014864003285765648e-04
5.950000000000000000e+02 6.498365020751953125e+01 3.087514686584472656e+01 6.770608425140380859e-01 6.076186656951904297e+00 2.025974273681640625e+00 4.076630771160125732e-01
5.960000000000000000e+02 6.377983093261718750e+01 2.814451217651367188e+01 9.315698742866516113e-01 9.174674987792968750e+00 3.031873464584350586e+00 1.335705518722534180e+00
5.970000000000000000e+02 6.431443786621093750e+01 2.703396987915039062e+01 2.471898317337036133e+00 8.404257774353027344e+00 3.262846708297729492e+00 2.224088668823242188e+00
5.980000000000000000e+02 6.321699523925781250e+01 2.618675041198730469e+01 2.887431383132934570e+00 1.061567783355712891e+01 4.050932884216308594e+00 3.960746526718139648e+00
5.990000000000000000e+02 6.488201141357421875e+01 2.143625640869140625e+01 -1.488622188568115234e+00 2.235135555267333984e+00 2.239540517330169678e-01 3.243676662445068359e+00
6.000000000000000000e+02 6.224272537231445312e+01 2.392955207824707031e+01 4.003172218799591064e-01 6.022241592407226562e+00 1.926767587661743164e+00 3.518081426620483398e+00
6.010000000000000000e+02 5.841121673583984375e+01 2.324552536010742188e+01 -6.383332252502441406e+00 -5.295646563172340393e-02 -1.930886745452880859e+00 -4.185043871402740479e-01
6.020000000000000000e+02 5.715016174316406250e+01 2.328598594665527344e+01 -3.952052116394042969e+00 6.213115453720092773e-01 -9.992222189903259277e-01 -7.502696514129638672e-01
6.030000000000000000e+02 5.542387390136718750e+01 2.438764381408691406e+01 1.279015541076660156e-01 2.975838422775268555e+00 9.311219453811645508e-01 -1.762574434280395508e+00
6.040000000000000000e+02 5.463440322875976562e+01 2.538488578796386719e+01 1.812557220458984375e+00 5.211323738098144531e+00 2.107164144515991211e+00 -2.781959056854248047e+00
6.050000000000000000e+02 4.987378311157226562e+01 2.183391761779785156e+01 -1.843909472227096558e-01 3.888410806655883789e+00 1.111205935478210449e+00 -1.218460053205490112e-01
6.060000000000000000e+02 4.590183639526367188e+01 2.491240119934082031e+01 2.347883701324462891e+00 1.079235363006591797e+01 3.942071199417114258e+00 3.425787925720214844e+00
6.070000000000000000e+02 4.586914062500000000e+01 2.352444648742675781e+01 1.585907816886901855e+00 7.943499088287353516e+00 2.858822107315063477e+00 2.941430091857910156e+00
6.080000000000000000e+02 4.610288619995117188e+01 2.214654731750488281e+01 -1.474560856819152832e+00 6.670584678649902344e+00 1.558807134628295898e+00 2.205865383148193359e+00
6.090000000000000000e+02 4.274110412597656250e+01 2.054677581787109375e+01 -1.547858595848083496e+00 2.694262027740478516e+00 3.439209759235382080e-01 1.500350713729858398e+00
6.100000000000000000e+02 4.068635177612304688e+01 2.007283401489257812e+01 -4.922049939632415771e-01 1.260446310043334961e+00 2.304724007844924927e-01 -1.199394464492797852e+00
6.110000000000000000e+02 4.074731445312500000e+01 2.154970169067382812e+01 -4.177972316741943359e+00 -5.212388932704925537e-02 -1.269028902053833008e+00 -3.965433537960052490e-01
6.120000000000000000e+02 3.935454559326171875e+01 2.178613853454589844e+01 -1.912036895751953125e+00 1.047141313552856445e+00 -2.594686746597290039e-01 -9.116504192352294922e-01
6.130000000000000000e+02 3.936409378051757812e+01 2.021338462829589844e+01 -9.480965137481689453e-01 1.727231144905090332e+00 2.337403744459152222e-01 -2.512979984283447266e+00
6.140000000000000000e+02 3.703468322753906250e+01 1.145471572875976562e+01 -3.674108088016510010e-01 1.033092975616455078e+00 1.997046470642089844e-01 -5.985770225524902344e-01
6.150000000000000000e+02 3.593097686767578125e+01 1.218232059478759766e+01 -2.510426044464111328e+00 3.031679093837738037e-01 -6.621774435043334961e-01 -1.933051943778991699e-01
6.160000000000000000e+02 3.920832443237304688e+01 1.023041725158691406e+01 4.820846617221832275e-01 7.264248371124267578e+00 2.323899984359741211e+00 -9.934650659561157227e-01
6.170000000000000000e+02 4.067123794555664062e+01 7.704792976379394531e+00 8.960071802139282227e-01 1.094555568695068359e+01 3.552468776702880859e+00 6.083381772041320801e-01
6.180000000000000000e+02 3.962949371337890625e+01 6.145802497863769531e+00 3.968082070350646973e-01 1.588185882568359375e+01 4.883600234985351562e+00 3.012434244155883789e-01
6.190000000000000000e+02 3.867811584472656250e+01 2.928867340087890625e+00 5.224842071533203125e+00 1.044625949859619141e+01 4.701330661773681641e+00 5.532803058624267578e+00
6.200000000000000000e+02 4.057728958129882812e+01 2.384234428405761719e+00 2.758038997650146484e+00 7.543911933898925781e+00 3.090585231781005859e+00 5.386478304862976074e-01
6.210000000000000000e+02 7.673301696777343750e+01 2.232383918762207031e+01 -3.980277776718139648e-01 7.337935924530029297e+00 2.081972360610961914e+00 -9.772884845733642578e-02
6.220000000000000000e+02 7.941119384765625000e+01 2.924288749694824219e+01 1.761386916041374207e-02 7.469565868377685547e+00 2.246153831481933594e+00 -3.770475834608078003e-02
6.230000000000000000e+02 6.878194427490234375e+01 3.502931213378906250e+01 -2.355646789073944092e-01 5.536698818206787109e+00 1.590340256690979004e+00 6.102510690689086914e-01
6.240000000000000000e+02 5.886917114257812500e+01 3.845133590698242188e+01 -3.365894556045532227e-01 1.254874825477600098e+00 2.754856050014495850e-01 7.582557201385498047e-01
6.250000000000000000e+02 5.607045364379882812e+01 3.493080902099609375e+01 4.389349520206451416e-01 2.672492027282714844e+00 9.334281086921691895e-01 1.570395946502685547e+00
6.260000000000000000e+02 5.508246612548828125e+01 3.620035171508789062e+01 -1.028017997741699219e+00 4.254285335540771484e+00 9.678802490234375000e-01 1.289497852325439453e+00
6.270000000000000000e+02 5.734167480468750000e+01 3.576398468017578125e+01 -1.063455224037170410e+00 9.406327009201049805e-01 -3.684675320982933044e-02 8.982777595520019531e-01
6.280000000000000000e+02 6.342749023437500000e+01 3.531108093261718750e+01 -1.861058712005615234e+00 4.025340080261230469e+00 6.492844223976135254e-01 -6.729850079864263535e-03
6.290000000000000000e+02 6.262073898315429688e+01 3.378771591186523438e+01 3.612852692604064941e-01 3.077202558517456055e+00 1.031546354293823242e+00 -7.040655612945556641e-01
6.300000000000000000e+02 6.375659561157226562e+01 3.329250335693359375e+01 2.021947801113128662e-01 4.990595817565917969e+00 1.557837128639221191e+00 -2.578884363174438477e-01
6.310000000000000000e+02 6.350463485717773438e+01 3.195648956298828125e+01 5.093743801116943359e-01 6.324717998504638672e+00 2.050227880477905273e+00 -6.267963647842407227e-01
6.320000000000000000e+02 7.932507324218750000e+01 3.199650764465332031e+01 7.257394492626190186e-03 7.419161319732666016e+00 2.227925539016723633e+00 2.081390470266342163e-02
6.330000000000000000e+02 7.930615234375000000e+01 3.750505065917968750e+01 6.070678937248885632e-04 7.674614429473876953e+00 2.302566528320312500e+00 2.647468447685241699e-02
6.340000000000000000e+02 6.739218139648437500e+01 4.123467254638671875e+01 -6.290202140808105469e-01 4.752830028533935547e+00 1.237142920494079590e+00 3.875763854011893272e-03
6.350000000000000000e+02 7.715129852294921875e+01 3.804377365112304688e+01 -7.044292241334915161e-02 7.265099048614501953e+00 2.158396959304809570e+00 1.221330687403678894e-01
6.360000000000000000e+02 5.320141220092773438e+01 3.535602188110351562e+01 -7.756515741348266602e-01 5.887351989746093750e+00 1.533510088920593262e+00 6.343911886215209961e-01
6.370000000000000000e+02 4.885582351684570312e+01 3.609879302978515625e+01 -1.198219656944274902e+00 5.280325412750244141e+00 1.224631667137145996e+00 -3.858063220977783203e-01
6.380000000000000000e+02 5.363168716430664062e+01 3.080231857299804688e+01 1.170026302337646484e+00 1.012845706939697266e+01 3.389544963836669922e+00 1.557489752769470215e+00
6.390000000000000000e+02 5.424526214599609375e+01 3.285105895996093750e+01 1.685644626617431641e+00 7.926700592041015625e+00 2.883703708648681641e+00 2.800380706787109375e+00
6.400000000000000000e+02 4.864800643920898438e+01 3.189341735839843750e+01 5.483966469764709473e-01 6.222229003906250000e+00 2.031187534332275391e+00 1.685377657413482666e-01
6.410000000000000000e+02 5.365723800659179688e+01 2.956281089782714844e+01 -4.276473820209503174e-02 9.354660034179687500e+00 2.793568611145019531e+00 3.874525725841522217e-01
6.420000000000000000e+02 5.361428070068359375e+01 2.833724975585937500e+01 6.001586914062500000e-01 9.321670532226562500e+00 2.976548910140991211e+00 -3.112591505050659180e-01
6.430000000000000000e+02 5.312309265136718750e+01 2.720262145996093750e+01 1.572951674461364746e+00 8.243606567382812500e+00 2.944967508316040039e+00 -7.916340231895446777e-01
6.440000000000000000e+02 4.311682891845703125e+01 3.292722702026367188e+01 -2.906819880008697510e-01 1.106722831726074219e+00 2.448122501373291016e-01 -5.969120860099792480e-01
6.450000000000000000e+02 4.197401809692382812e+01 3.390618896484375000e+01 -1.179562807083129883e+00 5.411455035209655762e-01 -1.915252059698104858e-01 -3.391300514340400696e-02
6.460000000000000000e+02 4.515806198120117188e+01 3.112518882751464844e+01 8.972490429878234863e-01 4.548479080200195312e+00 1.633718490600585938e+00 -1.682731986045837402e+00
6.470000000000000000e+02 4.608489608764648438e+01 2.900912284851074219e+01 1.041326522827148438e+00 8.283175468444824219e+00 2.797350645065307617e+00 -1.096346139907836914e+00
6.480000000000000000e+02 4.614152908325195312e+01 2.764162254333496094e+01 3.529122471809387207e-01 9.876896858215332031e+00 3.068942785263061523e+00 -2.736495621502399445e-02
6.490000000000000000e+02 3.880986404418945312e+01 3.488596725463867188e+01 -1.811382532119750977e+00 3.060171008110046387e-01 -4.516096115112304688e-01 2.156884819269180298e-01
6.500000000000000000e+02 3.574287033081054688e+01 3.350320816040039062e+01 -5.344700813293457031e-01 3.453044652938842773e+00 8.755723237991333008e-01 5.313783288002014160e-01
6.510000000000000000e+02 4.050581359863281250e+01 3.485364532470703125e+01 -1.934571146965026855e+00 5.584535654634237289e-03 -5.786959528923034668e-01 9.332916885614395142e-02
6.520000000000000000e+02 3.533728027343750000e+01 3.836732864379882812e+01 -9.797107577323913574e-01 2.520195007324218750e+00 4.621452987194061279e-01 3.122906386852264404e-01
6.530000000000000000e+02 2.974693107604980469e+01 3.705832290649414062e+01 -6.778215169906616211e-01 2.800468683242797852e+00 6.367941498756408691e-01 -4.070521891117095947e-01
6.540000000000000000e+02 2.767120933532714844e+01 2.880328178405761719e+01 7.619298696517944336e-01 7.067030072212219238e-01 4.405898451805114746e-01 -7.162489295005798340e-01
6.550000000000000000e+02 2.956158638000488281e+01 2.887293815612792969e+01 9.853944778442382812e-01 2.069866180419921875e+00 9.165781736373901367e-01 -1.375445842742919922e+00
6.560000000000000000e+02 2.868242263793945312e+01 2.789250755310058594e+01 9.754611849784851074e-01 1.011455774307250977e+00 5.960750579833984375e-01 -9.589038491249084473e-01
6.570000000000000000e+02 3.059501266479492188e+01 2.600103187561035156e+01 1.320642352104187012e+00 3.036993026733398438e+00 1.307290673255920410e+00 -1.704168081283569336e+00
6.580000000000000000e+02 3.136748313903808594e+01 2.495293998718261719e+01 1.017776846885681152e+00 5.581916332244873047e+00 1.979907989501953125e+00 -1.504467964172363281e+00
6.590000000000000000e+02 3.432186889648437500e+01 2.408711814880371094e+01 7.284721732139587402e-01 6.481831073760986328e+00 2.163090944290161133e+00 -6.713383793830871582e-01
6.600000000000000000e+02 3.392584609985351562e+01 2.586524391174316406e+01 1.517069458961486816e+00 7.082066535949707031e+00 2.579740762710571289e+00 -7.414869070053100586e-01
6.610000000000000000e+02 3.534173965454101562e+01 2.663620948791503906e+01 1.168836951255798340e+00 1.086741161346435547e+01 3.610874652862548828e+00 -2.084477901458740234e+00
6.620000000000000000e+02 3.441477203369140625e+01 2.685116767883300781e+01 1.550843596458435059e+00 8.215752601623535156e+00 2.929978847503662109e+00 -1.061899900436401367e+00
6.630000000000000000e+02 3.546298599243164062e+01 3.078966903686523438e+01 5.726988911628723145e-01 6.675003051757812500e+00 2.174310684204101562e+00 1.322406649589538574e+00
6.640000000000000000e+02 3.526743698120117188e+01 2.942774200439453125e+01 4.668326377868652344e-01 8.735239028930664062e+00 2.760621547698974609e+00 9.130811095237731934e-01
6.650000000000000000e+02 3.585170745849609375e+01 3.205438613891601562e+01 2.656233310699462891e-01 4.450085639953613281e+00 1.414712786674499512e+00 1.084898352622985840e+00
6.660000000000000000e+02 2.552273750305175781e+01 2.907678031921386719e+01 4.442150294780731201e-01 3.977633118629455566e-01 2.525935173034667969e-01 2.757383696734905243e-02
6.670000000000000000e+02 2.454482460021972656e+01 3.050885581970214844e+01 6.714025735855102539e-01 1.318846344947814941e+00 5.970746874809265137e-01 1.969003975391387939e-01
6.680000000000000000e+02 2.868137931823730469e+01 3.005738258361816406e+01 8.213249444961547852e-01 1.751876354217529297e+00 7.719603776931762695e-01 -1.205648541450500488e+00
6.690000000000000000e+02 1.576392459869384766e+01 3.613977050781250000e+01 -1.272624731063842773e-01 4.538331627845764160e-01 9.797120839357376099e-02 -3.077709376811981201e-01
6.700000000000000000e+02 1.113592815399169922e+01 3.534897613525390625e+01 -4.067299067974090576e-01 -4.156251903623342514e-03 -1.232658550143241882e-01 3.564602881669998169e-02
6.710000000000000000e+02 1.621144676208496094e+01 3.363340377807617188e+01 -1.017405465245246887e-02 2.136108577251434326e-01 6.103104352951049805e-02 -1.781263798475265503e-01
6.720000000000000000e+02 1.744628715515136719e+01 3.310324859619140625e+01 2.702457606792449951e-01 5.489677786827087402e-01 2.457640618085861206e-01 -4.059601128101348877e-01
6.730000000000000000e+02 1.993032836914062500e+01 2.787650108337402344e+01 1.747331917285919189e-01 3.942971467971801758e+00 1.235311388969421387e+00 9.038823843002319336e-02
6.740000000000000000e+02 2.446598434448242188e+01 2.839605903625488281e+01 2.527288496494293213e-01 9.744040369987487793e-01 3.681398630142211914e-01 4.376638233661651611e-01
6.750000000000000000e+02 2.098386955261230469e+01 2.579494857788085938e+01 -6.349601596593856812e-02 3.209173202514648438e+00 9.437031745910644531e-01 -1.508081555366516113e-01
6.760000000000000000e+02 2.012565422058105469e+01 2.493060302734375000e+01 -2.741653025150299072e-01 2.952426910400390625e+00 8.034785389900207520e-01 -1.310307830572128296e-01
6.770000000000000000e+02 2.080583953857421875e+01 2.398948478698730469e+01 7.913225144147872925e-02 3.272976636886596680e+00 1.005632638931274414e+00 -6.383287906646728516e-02
6.780000000000000000e+02 1.746344184875488281e+01 2.406353759765625000e+01 -2.388900518417358398e-01 1.482347259297966957e-03 -7.122231274843215942e-02 -1.389605849981307983e-01
6.790000000000000000e+02 1.781600379943847656e+01 1.905906486511230469e+01 8.578613996505737305e-01 2.491580843925476074e-01 3.321058452129364014e-01 -1.853888272307813168e-03
6.800000000000000000e+02 1.484751129150390625e+01 1.854255676269531250e+01 1.316280364990234375e+00 6.596411019563674927e-02 4.146733582019805908e-01 1.519707590341567993e-01
6.810000000000000000e+02 1.641991233825683594e+01 1.930657768249511719e+01 9.719268083572387695e-01 -1.446674168109893799e-01 2.481778115034103394e-01 3.026614189147949219e-01
6.820000000000000000e+02 1.659706687927246094e+01 2.163603210449218750e+01 8.703063130378723145e-01 5.370794236660003662e-02 2.772042751312255859e-01 1.118656992912292480e-01
6.830000000000000000e+02 1.989728164672851562e+01 1.705226898193359375e+01 -2.074530348181724548e-02 2.031987428665161133e+00 6.033726930618286133e-01 -2.286576926708221436e-01
6.840000000000000000e+02 2.251157569885253906e+01 1.757437515258789062e+01 4.295525550842285156e-01 3.371182680130004883e+00 1.140220522880554199e+00 -8.461409807205200195e-01
6.850000000000000000e+02 2.451027297973632812e+01 1.476637268066406250e+01 -1.266037225723266602e+00 1.848863005638122559e+00 1.748477369546890259e-01 -1.344376087188720703e+00
6.860000000000000000e+02 2.034973907470703125e+01 1.007472610473632812e+01 -6.431755144149065018e-03 1.125199347734451294e-01 3.182645142078399658e-02 -4.582568407058715820e-01
6.870000000000000000e+02 2.035232734680175781e+01 8.708490371704101562e+00 3.458533287048339844e-01 -2.499881982803344727e-01 2.875953726470470428e-02 -2.314619421958923340e-01
6.880000000000000000e+02 1.909968757629394531e+01 8.248782157897949219e+00 3.662219047546386719e-01 -3.653810620307922363e-01 2.522526192478835583e-04 3.317166119813919067e-02
6.890000000000000000e+02 1.793526649475097656e+01 7.477441787719726562e+00 8.157472610473632812e-01 1.150997579097747803e-01 2.792541086673736572e-01 3.095032870769500732e-01
6.900000000000000000e+02 2.021030807495117188e+01 3.049639940261840820e+00 -1.159339785575866699e+00 -5.696911215782165527e-01 -5.187093019485473633e-01 5.690271258354187012e-01
6.910000000000000000e+02 2.177953529357910156e+01 2.709797859191894531e+00 -1.307685613632202148e+00 -5.977133512496948242e-01 -5.716196894645690918e-01 8.961578011512756348e-01
6.920000000000000000e+02 2.627990531921386719e+01 1.461340427398681641e+00 -1.921398878097534180e+00 -4.430363886058330536e-03 -5.777487754821777344e-01 9.563682675361633301e-01
6.930000000000000000e+02 2.479973602294921875e+01 1.794425010681152344e+00 -1.772676229476928711e+00 -4.608151018619537354e-01 -6.700474023818969727e-01 1.204662680625915527e+00
6.940000000000000000e+02 3.037887001037597656e+01 3.352297842502593994e-01 -1.021173477172851562e+00 1.754770994186401367e+00 2.200792580842971802e-01 -2.003655910491943359e+00
6.950000000000000000e+02 3.082277870178222656e+01 3.872345685958862305e-01 -2.282733172178268433e-01 1.753617763519287109e+00 4.576033353805541992e-01 -2.611033201217651367e+00
6.960000000000000000e+02 3.301952362060546875e+01 1.083875179290771484e+00 -1.268510818481445312e+00 8.328743934631347656e+00 2.118070125579833984e+00 -7.258889675140380859e+00
6.970000000000000000e+02 4.626080989837646484e+00 4.051604461669921875e+01 -1.708984375000000000e-02 -2.839576303958892822e-01 -9.031423926353454590e-02 -5.080741830170154572e-03
6.980000000000000000e+02 8.706344604492187500e+00 3.473503112792968750e+01 -4.551011323928833008e-01 -1.542105227708816528e-01 -1.827934980392456055e-01 -1.234075203537940979e-01
6.990000000000000000e+02 1.278316211700439453e+01 3.716831588745117188e+01 -1.464819908142089844e-01 5.502970516681671143e-02 -2.743568457663059235e-02 -5.650607123970985413e-02
7.000000000000000000e+02 1.956609725952148438e+00 4.166945648193359375e+01 -5.603340920060873032e-03 -3.034510016441345215e-01 -9.271629899740219116e-02 -1.566914492286741734e-03
7.010000000000000000e+02 3.553963899612426758e+00 3.835031890869140625e+01 -3.129667788743972778e-02 -3.074349761009216309e-01 -1.016194969415664673e-01 -2.927781268954277039e-02
7.020000000000000000e+02 6.300580501556396484e-01 3.318611145019531250e+01 -1.582493074238300323e-02 -5.498289465904235840e-01 -1.696961522102355957e-01 -5.599801242351531982e-02
7.030000000000000000e+02 1.882688760757446289e+00 3.291628646850585938e+01 -4.240579530596733093e-02 -4.865969121456146240e-01 -1.587008088827133179e-01 -1.651317477226257324e-01
7.040000000000000000e+02 7.708089351654052734e+00 3.376115417480468750e+01 -2.403005510568618774e-01 -2.036931365728378296e-01 -1.331981122493743896e-01 -2.165175080299377441e-01
7.050000000000000000e+02 6.908040046691894531e+00 3.259150314331054688e+01 -1.566333472728729248e-01 -2.287690490484237671e-01 -1.156207174062728882e-01 -1.465141326189041138e-01
7.060000000000000000e+02 5.901125907897949219e+00 3.005205154418945312e+01 -4.195343330502510071e-02 7.393252849578857422e-02 9.593729861080646515e-03 -4.449991136789321899e-02
7.070000000000000000e+02 5.577304840087890625e+00 2.884579467773437500e+01 4.452711343765258789e-02 3.744963407516479492e-01 1.257070302963256836e-01 -1.252223402261734009e-01
7.080000000000000000e+02 2.948751926422119141e+00 2.649957466125488281e+01 1.374188661575317383e-01 -5.869228839874267578e-01 -1.348512172698974609e-01 -1.660477370023727417e-01
7.090000000000000000e+02 6.692160964012145996e-01 2.466809272766113281e+01 2.281442843377590179e-02 -1.448703765869140625e+00 -4.277667999267578125e-01 -2.140177413821220398e-02
7.100000000000000000e+02 1.861276626586914062e+00 2.303151893615722656e+01 3.948373720049858093e-02 -1.012473821640014648e+00 -2.918970286846160889e-01 4.212346673011779785e-02
7.110000000000000000e+02 2.183730363845825195e+00 1.738765335083007812e+01 1.726973243057727814e-02 -7.546083331108093262e-01 -2.212015837430953979e-01 1.606017500162124634e-01
7.120000000000000000e+02 1.749951243400573730e+00 1.167119693756103516e+01 -9.311680682003498077e-03 -4.150015711784362793e-01 -1.272939741611480713e-01 1.799203604459762573e-01
7.130000000000000000e+02 1.766452789306640625e+00 3.792844295501708984e+00 -1.538312342017889023e-02 -1.962590590119361877e-02 -1.050270907580852509e-02 1.704591140151023865e-02
7.140000000000000000e+02 1.011719799041748047e+01 1.963926076889038086e+00 -2.088173329830169678e-01 -1.205476652830839157e-02 -6.626162678003311157e-02 8.457051962614059448e-02
7.150000000000000000e+02 1.247088146209716797e+01 7.431087017059326172e+00 -5.218642950057983398e-01 -3.672757446765899658e-01 -2.667420208454132080e-01 3.930356800556182861e-01
7.160000000000000000e+02 1.080444908142089844e+01 2.118699312210083008e+00 -2.680070102214813232e-01 -1.333778025582432747e-03 -8.080223202705383301e-02 1.173609942197799683e-01
7.170000000000000000e+02 1.149695205688476562e+01 2.279674291610717773e+00 -3.272389173507690430e-01 -4.809170961380004883e-03 -9.961443394422531128e-02 1.422462016344070435e-01
7.180000000000000000e+02 1.369624900817871094e+01 2.742197990417480469e+00 -6.151701807975769043e-01 3.203040361404418945e-02 -1.749419271945953369e-01 2.910894751548767090e-01
7.190000000000000000e+02 1.694919967651367188e+01 3.272009372711181641e+00 -1.032350659370422363e+00 -7.980100065469741821e-02 -3.336455225944519043e-01 4.046495556831359863e-01
7.200000000000000000e+02 1.780196762084960938e+01 3.315944910049438477e+00 -1.051818251609802246e+00 -2.238396108150482178e-01 -3.826973438262939453e-01 4.405880570411682129e-01
7.210000000000000000e+02 3.062301063537597656e+01 -3.260559320449829102e+00 5.244534015655517578e-01 7.359327077865600586e-01 3.781158328056335449e-01 7.576209306716918945e-01
7.220000000000000000e+02 2.980461502075195312e+01 -7.380839824676513672e+00 -3.349334932863712311e-03 3.430292367935180664e+00 1.028082966804504395e+00 8.904948830604553223e-01
7.230000000000000000e+02 2.962305641174316406e+01 -8.579586982727050781e+00 1.035845518112182617e+00 6.583263397216796875e+00 2.285732746124267578e+00 1.772650957107543945e+00
7.240000000000000000e+02 3.716118621826171875e+01 -9.105952262878417969e+00 1.992892742156982422e+00 1.208260250091552734e+01 4.222648620605468750e+00 -2.186589002609252930e+00
7.250000000000000000e+02 2.916527557373046875e+01 -4.107908725738525391e+00 4.068136587738990784e-02 -7.148517295718193054e-03 1.005985401570796967e-02 1.276374012231826782e-01
7.260000000000000000e+02 3.013505554199218750e+01 -3.252541065216064453e+00 4.861866831779479980e-01 5.287001729011535645e-01 3.044660389423370361e-01 2.626498341560363770e-01
7.270000000000000000e+02 2.923129272460937500e+01 -9.813969612121582031e+00 2.896389007568359375e+00 7.894773960113525391e+00 3.237349033355712891e+00 4.022162437438964844e+00
7.280000000000000000e+02 2.854613304138183594e+01 -1.094002056121826172e+01 3.206701755523681641e+00 5.580710887908935547e+00 2.636223793029785156e+00 4.011564731597900391e+00
7.290000000000000000e+02 2.740847778320312500e+01 -1.305983257293701172e+01 3.204587474465370178e-02 3.494394302368164062e+00 1.057932019233703613e+00 1.951730608940124512e+00
7.300000000000000000e+02 2.479242515563964844e+01 -1.352472496032714844e+01 -1.199114203453063965e+00 3.778480887413024902e-01 -2.463798522949218750e-01 -2.287103980779647827e-02
7.310000000000000000e+02 2.236157226562500000e+01 -1.466930103302001953e+01 -9.538050889968872070e-01 -2.005070596933364868e-01 -3.462936580181121826e-01 -1.425379812717437744e-01
7.320000000000000000e+02 2.380898475646972656e+01 -1.683350372314453125e+01 8.754513263702392578e-01 9.646469950675964355e-01 5.520294904708862305e-01 3.462710082530975342e-01
7.330000000000000000e+02 2.219269752502441406e+01 -2.595538902282714844e+01 -3.857821524143218994e-01 2.779201269149780273e-01 -3.235860913991928101e-02 5.028097033500671387e-01
7.340000000000000000e+02 2.136765098571777344e+01 -1.374390506744384766e+01 -1.530794620513916016e+00 -2.463774979114532471e-01 -5.331516265869140625e-01 1.744985133409500122e-01
7.350000000000000000e+02 2.025029945373535156e+01 -1.294999313354492188e+01 -6.702166199684143066e-01 -2.199661284685134888e-01 -2.670548260211944580e-01 3.630239963531494141e-01
7.360000000000000000e+02 1.838267135620117188e+01 -1.089628982543945312e+01 -1.946627199649810791e-01 -9.350191056728363037e-02 -8.644938468933105469e-02 1.772859394550323486e-01
7.370000000000000000e+02 1.928635025024414062e+01 -1.193319606781005859e+01 -3.768950402736663818e-01 -1.878092885017395020e-01 -1.694113016128540039e-01 2.274412363767623901e-01
7.380000000000000000e+02 1.695251655578613281e+01 -1.293920326232910156e+01 -2.649717330932617188e-01 2.547187209129333496e-01 -3.075898159295320511e-03 -5.047844722867012024e-03
7.390000000000000000e+02 1.684575462341308594e+01 -1.675606346130371094e+01 1.859329044818878174e-01 2.630460560321807861e-01 1.346936970949172974e-01 -3.028224408626556396e-01
7.400000000000000000e+02 1.664909172058105469e+01 -1.937978363037109375e+01 3.318175077438354492e-01 2.008251249790191650e-01 1.597927957773208618e-01 1.878991276025772095e-01
7.410000000000000000e+02 1.360637664794921875e+01 -2.198813438415527344e+01 1.910917162895202637e-01 1.993130594491958618e-01 1.171214282512664795e-01 3.243368864059448242e-01
7.420000000000000000e+02 1.686437225341796875e+01 -2.165023994445800781e+01 6.734184622764587402e-01 2.277610599994659424e-01 2.703538537025451660e-01 5.708778500556945801e-01
7.430000000000000000e+02 1.859259796142578125e+01 -2.643210983276367188e+01 -1.314792595803737640e-02 7.636004686355590820e-02 1.896363496780395508e-02 5.789969563484191895e-01
7.440000000000000000e+02 2.001010131835937500e+01 -2.642311668395996094e+01 -1.282015681266784668e+00 -5.604591965675354004e-01 -5.527424812316894531e-01 9.320427179336547852e-01
7.450000000000000000e+02 1.588955593109130859e+01 -7.929018735885620117e-01 -1.670376658439636230e-01 -1.539522502571344376e-02 -5.472986772656440735e-02 -5.866734310984611511e-02
7.460000000000000000e+02 1.212914562225341797e+01 -1.476918220520019531e+00 -1.195004880428314209e-01 -1.426048204302787781e-02 -4.012829065322875977e-02 -7.495516538619995117e-02
7.470000000000000000e+02 5.258180236816406250e+01 -1.561719322204589844e+01 -2.934995889663696289e+00 1.541368842124938965e+00 -4.180881083011627197e-01 -2.120153665542602539e+00
7.480000000000000000e+02 5.344920730590820312e+01 -1.653219032287597656e+01 -1.044076323509216309e+00 2.523101806640625000e+00 4.437076449394226074e-01 -2.039966106414794922e+00
7.490000000000000000e+02 5.443301773071289062e+01 -1.554236602783203125e+01 -1.572100281715393066e+00 6.033780097961425781e+00 1.338503956794738770e+00 -3.132808685302734375e+00
7.500000000000000000e+02 5.447512054443359375e+01 -1.736652946472167969e+01 1.933114409446716309e+00 7.034466266632080078e+00 2.690274238586425781e+00 -2.825831174850463867e+00
7.510000000000000000e+02 5.734949493408203125e+01 -1.881667137145996094e+01 1.759673237800598145e+00 7.050131797790527344e+00 2.642941474914550781e+00 -1.615380942821502686e-01
7.520000000000000000e+02 6.470410156250000000e+01 -2.017471885681152344e+01 2.745950222015380859e-01 9.834198951721191406e+00 3.032638072967529297e+00 -1.317790448665618896e-01
7.530000000000000000e+02 6.448012542724609375e+01 -1.756779289245605469e+01 -3.992270231246948242e-01 6.283010959625244141e+00 1.765135169029235840e+00 8.817189186811447144e-02
7.540000000000000000e+02 6.308013916015625000e+01 -1.787574386596679688e+01 -1.289967913180589676e-02 6.879892826080322266e+00 2.060097932815551758e+00 -6.381754279136657715e-01
7.550000000000000000e+02 6.679236602783203125e+01 -1.049928092956542969e+01 1.369727253913879395e+00 3.644345521926879883e+00 1.504221916198730469e+00 -1.967816472053527832e+00
7.560000000000000000e+02 6.373840332031250000e+01 -1.055893611907958984e+01 -4.907711446285247803e-01 7.370505332946777344e+00 2.063920259475708008e+00 2.620619535446166992e-01
7.570000000000000000e+02 5.579119110107421875e+01 -1.817769050598144531e+01 1.751791596412658691e+00 8.336605072021484375e+00 3.026519060134887695e+00 -1.687395334243774414e+00
7.580000000000000000e+02 5.542626571655273438e+01 -2.066769218444824219e+01 5.313386321067810059e-01 1.188548755645751953e+01 3.725047826766967773e+00 -3.460756242275238037e-01
7.590000000000000000e+02 5.746671295166015625e+01 -2.456107330322265625e+01 -4.255162477493286133e-01 6.337952136993408203e+00 1.773730754852294922e+00 8.068785071372985840e-01
7.600000000000000000e+02 5.636228942871093750e+01 -2.225771713256835938e+01 2.324559926986694336e+00 8.254403114318847656e+00 3.173688888549804688e+00 1.097811698913574219e+00
7.610000000000000000e+02 5.467274093627929688e+01 -2.603058815002441406e+01 -2.813239812850952148e+00 7.132795810699462891e+00 1.295866727828979492e+00 2.260531425476074219e+00
7.620000000000000000e+02 5.551313018798828125e+01 -2.666432189941406250e+01 -1.528916716575622559e+00 7.399114131927490234e+00 1.761059284210205078e+00 2.174376487731933594e+00
7.630000000000000000e+02 5.823152923583984375e+01 -2.802059745788574219e+01 1.104184985160827637e+00 4.610746383666992188e+00 1.714479446411132812e+00 1.836692810058593750e+00
7.640000000000000000e+02 5.735940170288085938e+01 -2.910445022583007812e+01 1.185904860496520996e+00 6.918332576751708984e+00 2.431271314620971680e+00 3.045465469360351562e+00
7.650000000000000000e+02 5.309402465820312500e+01 -2.599248886108398438e+01 -2.665846109390258789e+00 2.292720317840576172e+00 -1.119377315044403076e-01 1.279608607292175293e+00
7.660000000000000000e+02 4.673496627807617188e+01 -2.852210235595703125e+01 3.688588142395019531e-01 2.484805107116699219e+00 8.560991287231445312e-01 -2.259893178939819336e+00
7.670000000000000000e+02 4.937917709350585938e+01 -2.555647277832031250e+01 -2.079762220382690430e+00 3.014304637908935547e+00 2.803627252578735352e-01 -2.206405639648437500e+00
7.680000000000000000e+02 4.880248641967773438e+01 -2.431598854064941406e+01 -5.565032735466957092e-02 3.045483112335205078e+00 8.969498276710510254e-01 -2.034002542495727539e+00
7.690000000000000000e+02 4.403551101684570312e+01 -2.234276199340820312e+01 3.001318454742431641e+00 4.031150341033935547e+00 2.109740734100341797e+00 4.274666905403137207e-01
7.700000000000000000e+02 4.702756500244140625e+01 -2.206694221496582031e+01 2.794376611709594727e+00 8.976156234741210938e+00 3.531159877777099609e+00 -2.939907550811767578e+00
7.710000000000000000e+02 4.484187698364257812e+01 -2.772156333923339844e+01 -3.035178899765014648e+00 6.833802461624145508e-01 -7.055395841598510742e-01 -3.521021902561187744e-01
7.720000000000000000e+02 4.595362854003906250e+01 -2.740417098999023438e+01 -1.424347162246704102e+00 2.621381044387817383e+00 3.591101765632629395e-01 -2.003762245178222656e+00
7.730000000000000000e+02 4.776641082763671875e+01 -2.931187820434570312e+01 3.069408655166625977e+00 4.191769123077392578e+00 2.178353309631347656e+00 -3.594088554382324219e+00
7.740000000000000000e+02 4.868628311157226562e+01 -3.032060241699218750e+01 3.694758415222167969e+00 7.418624401092529297e+00 3.334014892578125000e+00 -4.242917537689208984e+00
7.750000000000000000e+02 4.927824783325195312e+01 -3.154290008544921875e+01 2.026781558990478516e+00 1.039783477783203125e+01 3.727384805679321289e+00 -3.132701873779296875e+00
7.760000000000000000e+02 4.963973236083984375e+01 -3.282876968383789062e+01 1.018070101737976074e+00 1.008200454711914062e+01 3.330022573471069336e+00 -5.246431231498718262e-01
7.770000000000000000e+02 5.052061462402343750e+01 -3.450404357910156250e+01 1.450264096260070801e+00 7.684552669525146484e+00 2.740444898605346680e+00 4.259015023708343506e-01
7.780000000000000000e+02 4.670459365844726562e+01 -2.062470245361328125e+01 1.444781661033630371e+00 1.079576873779296875e+01 3.672165155410766602e+00 -2.944235801696777344e-01
7.790000000000000000e+02 4.625604248046875000e+01 -1.686231231689453125e+01 -8.581988215446472168e-01 6.904005050659179688e+00 1.813741803169250488e+00 1.571303606033325195e+00
7.800000000000000000e+02 4.046477890014648438e+01 -1.651409339904785156e+01 -4.655337035655975342e-01 3.637216091156005859e+00 9.515047073364257812e-01 -1.713010907173156738e+00
7.810000000000000000e+02 4.751556396484375000e+01 -1.679395103454589844e+01 -1.615145087242126465e+00 6.077562808990478516e+00 1.338725328445434570e+00 2.476972341537475586e+00
7.820000000000000000e+02 4.889030456542968750e+01 -1.667410659790039062e+01 -2.640851259231567383e+00 2.191460371017456055e+00 -1.348173022270202637e-01 1.074269652366638184e+00
7.830000000000000000e+02 5.015721511840820312e+01 -1.636242675781250000e+01 -5.843719959259033203e+00 -6.234445422887802124e-02 -1.771819353103637695e+00 -8.516429066658020020e-01
7.840000000000000000e+02 7.385218811035156250e+01 -2.202663803100585938e+01 6.884847879409790039e-01 1.335278511047363281e+01 4.212380886077880859e+00 4.117084741592407227e-01
7.850000000000000000e+02 7.945197296142578125e+01 -2.638540458679199219e+01 -2.255286090075969696e-02 7.375613689422607422e+00 2.205918073654174805e+00 -1.965015679597854614e-01
7.860000000000000000e+02 7.182225036621093750e+01 -2.605356979370117188e+01 -1.793015003204345703e+00 1.610223293304443359e+00 -5.483752116560935974e-02 1.059423565864562988e+00
7.870000000000000000e+02 7.095378112792968750e+01 -2.712912750244140625e+01 -1.596043348312377930e+00 1.300175547599792480e+00 -8.876036107540130615e-02 9.927921295166015625e-01
7.880000000000000000e+02 6.965077972412109375e+01 -2.650051689147949219e+01 -3.818343877792358398e+00 -2.157080173492431641e-01 -1.210215568542480469e+00 7.666749507188796997e-02
7.890000000000000000e+02 6.848137664794921875e+01 -2.905394744873046875e+01 1.799711942672729492e+00 4.105796813964843750e+00 1.771652579307556152e+00 -1.651186823844909668e+00
7.900000000000000000e+02 6.715899658203125000e+01 -2.540433311462402344e+01 4.598447382450103760e-01 4.733510017395019531e+00 1.558006525039672852e+00 -2.484451770782470703e+00
7.910000000000000000e+02 6.353421783447265625e+01 -2.760677528381347656e+01 8.990321755409240723e-01 4.343822956085205078e+00 1.572856545448303223e+00 -2.639051198959350586e+00
7.920000000000000000e+02 6.569495391845703125e+01 -2.896448135375976562e+01 2.516936063766479492e+00 9.944098472595214844e+00 3.738310575485229492e+00 -3.907648563385009766e+00
7.930000000000000000e+02 6.570203399658203125e+01 -3.031854057312011719e+01 2.917520046234130859e+00 1.269717502593994141e+01 4.684408664703369141e+00 -4.217939853668212891e+00
7.940000000000000000e+02 6.610111999511718750e+01 -3.302062988281250000e+01 3.692404925823211670e-01 9.475413322448730469e+00 2.953396320343017578e+00 -8.838912248611450195e-01
7.950000000000000000e+02 6.623928833007812500e+01 -3.437018203735351562e+01 4.419088065624237061e-01 8.064679145812988281e+00 2.551976442337036133e+00 -2.557324767112731934e-01
7.960000000000000000e+02 6.533676910400390625e+01 -3.646273422241210938e+01 -3.155640363693237305e-01 4.472961425781250000e+00 1.247219324111938477e+00 5.187468528747558594e-01
7.970000000000000000e+02 6.730857086181640625e+01 -4.157754898071289062e+01 -1.632568001747131348e+00 4.722044467926025391e+00 9.268429279327392578e-01 -1.141416374593973160e-02
7.980000000000000000e+02 6.655815124511718750e+01 -3.783363723754882812e+01 -1.934816718101501465e+00 5.216414451599121094e+00 9.844793677330017090e-01 -6.145738959312438965e-01
7.990000000000000000e+02 6.113298034667968750e+01 -2.643366050720214844e+01 -4.672811031341552734e+00 -3.724324703216552734e-01 -1.513573050498962402e+00 -3.898701667785644531e-01
8.000000000000000000e+02 6.472757720947265625e+01 -2.164656257629394531e+01 2.044147729873657227e+00 1.264843273162841797e+01 4.407773971557617188e+00 -2.552078485488891602e+00
8.010000000000000000e+02 6.694201660156250000e+01 -1.637006568908691406e+01 -2.929007053375244141e+00 1.509007960557937622e-01 -8.334318995475769043e-01 -4.429216086864471436e-01
8.020000000000000000e+02 6.827784729003906250e+01 -1.601713752746582031e+01 -2.404490470886230469e+00 6.087498273700475693e-03 -7.195209264755249023e-01 -7.584301829338073730e-01
8.030000000000000000e+02 4.355706024169921875e+01 -4.042340278625488281e+00 1.603500247001647949e-01 6.976357698440551758e-01 2.573957443237304688e-01 -8.244515061378479004e-01
8.040000000000000000e+02 4.469410705566406250e+01 -4.714306831359863281e+00 1.496536493301391602e+00 1.954944729804992676e+00 1.035444378852844238e+00 -1.638187527656555176e+00
8.050000000000000000e+02 3.483883285522460938e+01 -1.331057548522949219e+00 5.518990993499755859e+00 7.143299579620361328e+00 3.798687219619750977e+00 -1.750378966331481934e+00
8.060000000000000000e+02 4.233908462524414062e+01 -3.447184562683105469e+00 -1.510043382644653320e+00 3.770784139633178711e-01 -3.398894667625427246e-01 -2.638584673404693604e-01
8.070000000000000000e+02 3.964617538452148438e+01 4.818084716796875000e+00 2.492706060409545898e+00 1.607654762268066406e+01 5.570775985717773438e+00 2.978531122207641602e+00
8.080000000000000000e+02 4.862908554077148438e+01 6.353028774261474609e+00 -1.848002314567565918e+00 -6.511365175247192383e-01 -7.497416734695434570e-01 7.789488434791564941e-01
8.090000000000000000e+02 4.760517883300781250e+01 7.288147926330566406e+00 -7.434205412864685059e-01 -3.866724669933319092e-02 -2.346263378858566284e-01 5.642973184585571289e-01
8.100000000000000000e+02 5.090523529052734375e+01 2.583055496215820312e+00 3.327556550502777100e-01 3.302512645721435547e+00 1.090580463409423828e+00 1.322389364242553711e+00
8.110000000000000000e+02 5.083600616455078125e+01 4.752576828002929688e+00 -2.643010914325714111e-01 1.008933424949645996e+00 2.233897149562835693e-01 1.410364508628845215e+00
8.120000000000000000e+02 5.313419723510742188e+01 -1.523704886436462402e+00 1.577908039093017578e+00 7.427305221557617188e+00 2.701564073562622070e+00 2.492953777313232422e+00
8.130000000000000000e+02 5.191046142578125000e+01 -2.230960607528686523e+00 1.278593778610229492e+00 8.067644119262695312e+00 2.803871393203735352e+00 1.052310466766357422e+00
8.140000000000000000e+02 5.392556762695312500e+01 -6.435166597366333008e-01 1.101793646812438965e+00 4.618484973907470703e+00 1.716083526611328125e+00 2.495554447174072266e+00
8.150000000000000000e+02 5.309380722045898438e+01 6.185593605041503906e+00 3.087691783905029297e+00 5.391206264495849609e+00 2.543669462203979492e+00 3.628440856933593750e+00
8.160000000000000000e+02 5.544248199462890625e+01 3.641076982021331787e-01 -1.299937725067138672e+00 1.458770871162414551e+00 4.764993488788604736e-02 1.022047400474548340e+00
8.170000000000000000e+02 6.241267776489257812e+01 -2.678811454772949219e+01 -2.682193279266357422e+00 1.950287103652954102e+00 -2.195718139410018921e-01 -9.151636958122253418e-01
8.180000000000000000e+02 6.604524993896484375e+01 -2.439600372314453125e+01 2.383657217025756836e+00 7.648040771484375000e+00 3.009509325027465820e+00 -4.599493026733398438e+00
8.190000000000000000e+02 6.576119995117187500e+01 -2.653879165649414062e+01 -1.421378374099731445e+00 8.142082214355468750e+00 2.016211271286010742e+00 -2.980985879898071289e+00
8.200000000000000000e+02 5.593704223632812500e+01 -3.309056091308593750e+01 1.120835304260253906e+00 1.218731594085693359e+01 3.992445468902587891e+00 5.334888398647308350e-02
8.210000000000000000e+02 5.247193527221679688e+01 -3.139407730102539062e+01 2.796829700469970703e+00 5.866995811462402344e+00 2.599147796630859375e+00 -1.087138950824737549e-01
8.220000000000000000e+02 5.973291015625000000e+01 -2.597710418701171875e+01 -2.423683881759643555e+00 1.678319215774536133e+00 -2.236094027757644653e-01 7.090640664100646973e-01
8.230000000000000000e+02 1.725090980529785156e+01 -2.678805732727050781e+01 1.117246389389038086e+00 5.976886749267578125e-01 5.144805312156677246e-01 7.957969903945922852e-01
8.240000000000000000e+02 4.701005458831787109e+00 -1.923728179931640625e+01 1.043156087398529053e-01 1.803573071956634521e-01 8.540187776088714600e-02 -1.773405522108078003e-01
8.250000000000000000e+02 4.443566322326660156e+00 -1.787457275390625000e+01 -8.858820796012878418e-02 -5.206641182303428650e-02 -4.219638556241989136e-02 -1.778466999530792236e-01
8.260000000000000000e+02 1.920908689498901367e+00 -1.924362564086914062e+01 4.664967209100723267e-02 -3.726126253604888916e-01 -9.778888523578643799e-02 -1.754150390625000000e-01
8.270000000000000000e+02 3.166900873184204102e+00 -1.654738426208496094e+01 -1.211664602160453796e-01 -1.371549665927886963e-01 -7.749643176794052124e-02 -1.891676932573318481e-01
8.280000000000000000e+02 5.773797988891601562e+00 -1.591190528869628906e+01 -1.315243840217590332e-01 -2.282459437847137451e-01 -1.079310998320579529e-01 -1.691789329051971436e-01
8.290000000000000000e+02 1.936587691307067871e+00 -1.504133987426757812e+01 -5.989681184291839600e-02 -1.425743848085403442e-01 -6.074135750532150269e-02 -1.075436323881149292e-01
8.300000000000000000e+02 4.680243682861328125e+01 1.918302345275878906e+01 -1.575885534286499023e+00 5.565227031707763672e+00 1.196802496910095215e+00 2.913628578186035156e+00
8.310000000000000000e+02 4.814441299438476562e+01 1.905002784729003906e+01 -3.189016819000244141e+00 1.537220954895019531e+00 -4.955388009548187256e-01 1.772734999656677246e+00
8.320000000000000000e+02 5.081966781616210938e+01 1.809553146362304688e+01 -1.919505715370178223e+00 8.442901968955993652e-01 -3.225646317005157471e-01 4.146941751241683960e-02
8.330000000000000000e+02 5.282786941528320312e+01 1.604411506652832031e+01 1.049295663833618164e+00 2.538277149200439453e+00 1.076271772384643555e+00 -1.602415323257446289e+00
8.340000000000000000e+02 5.373855590820312500e+01 1.509730052947998047e+01 1.282770156860351562e+00 4.736045360565185547e+00 1.805644631385803223e+00 -2.019925117492675781e+00
8.350000000000000000e+02 5.733413314819335938e+01 1.285493755340576172e+01 1.509376525878906250e+00 8.340510368347167969e+00 2.954966068267822266e+00 1.363901972770690918e+00
8.360000000000000000e+02 5.453861999511718750e+01 1.913381004333496094e+01 -8.453626632690429688e-01 4.240015029907226562e+00 1.018395781517028809e+00 -2.277705430984497070e+00
8.370000000000000000e+02 5.471726989746093750e+01 1.313744354248046875e+01 9.966204166412353516e-01 8.630982398986816406e+00 2.888280868530273438e+00 -1.214290738105773926e+00
8.380000000000000000e+02 5.483840942382812500e+01 1.034047889709472656e+01 9.462107419967651367e-01 1.229066467285156250e+01 3.971062421798706055e+00 1.105747818946838379e+00
8.390000000000000000e+02 6.055953598022460938e+01 9.101440429687500000e+00 2.486786991357803345e-02 5.969150066375732422e+00 1.798205375671386719e+00 -5.344223976135253906e-01
8.400000000000000000e+02 5.427271270751953125e+01 7.885948657989501953e+00 3.050230979919433594e+00 1.181080055236816406e+01 4.458309650421142578e+00 4.816891670227050781e+00
8.410000000000000000e+02 5.764635086059570312e+01 2.445490837097167969e+00 -2.903941571712493896e-01 3.111533641815185547e+00 8.463418483734130859e-01 -1.293090462684631348e+00
8.420000000000000000e+02 5.176947784423828125e+01 3.534765243530273438e+00 5.131404399871826172e-01 3.323544502258300781e+00 1.151005506515502930e+00 2.714338541030883789e+00
8.430000000000000000e+02 5.806486511230468750e+01 1.127983808517456055e+00 -1.336702466011047363e+00 2.215201139450073242e+00 2.635496258735656738e-01 -1.729063630104064941e+00
8.440000000000000000e+02 4.659572982788085938e+01 8.214340209960937500e+00 -4.375892579555511475e-01 7.446200847625732422e-01 9.210924804210662842e-02 -1.074978187680244446e-01
8.450000000000000000e+02 4.442876434326171875e+01 9.700008392333984375e+00 9.614641964435577393e-02 7.681244850158691406e+00 2.333217382431030273e+00 5.995962023735046387e-02
8.460000000000000000e+02 4.456641387939453125e+01 1.245958137512207031e+01 8.185321688652038574e-01 1.353024959564208984e+01 4.304634571075439453e+00 2.060678750276565552e-01
8.470000000000000000e+02 4.495532608032226562e+01 1.528685569763183594e+01 1.853743553161621094e+00 1.311713218688964844e+01 4.491262912750244141e+00 3.631593227386474609e+00
8.480000000000000000e+02 4.465620803833007812e+01 1.388118839263916016e+01 1.088986635208129883e+00 1.435891723632812500e+01 4.634371280670166016e+00 2.105299472808837891e+00
8.490000000000000000e+02 4.219791793823242188e+01 2.174905204772949219e+01 -4.028454780578613281e+00 5.132310986518859863e-01 -1.054567217826843262e+00 -8.642217516899108887e-02
8.500000000000000000e+02 4.591072463989257812e+01 2.096527290344238281e+01 -2.475340127944946289e+00 6.816316127777099609e+00 1.302292823791503906e+00 2.970468282699584961e+00
8.510000000000000000e+02 1.657741737365722656e+01 6.940626621246337891e+00 9.394277334213256836e-01 1.358744502067565918e-01 3.225906491279602051e-01 3.825776278972625732e-01
8.520000000000000000e+02 1.044662570953369141e+01 9.200081825256347656e+00 -3.309028446674346924e-01 -3.678654730319976807e-01 -2.096304893493652344e-01 3.305402398109436035e-01
8.530000000000000000e+02 9.583749771118164062e+00 1.105978393554687500e+01 -1.118884235620498657e-01 -1.666372120380401611e-01 -8.355768769979476929e-02 1.944881230592727661e-01
8.540000000000000000e+02 9.539470672607421875e+00 1.355033969879150391e+01 9.229002147912979126e-02 4.707943499088287354e-01 1.689253151416778564e-01 1.962970644235610962e-01
8.550000000000000000e+02 9.551977157592773438e+00 1.231534481048583984e+01 1.044491585344076157e-02 1.829370707273483276e-01 5.801459401845932007e-02 9.896530956029891968e-02
8.560000000000000000e+02 7.761032581329345703e+00 1.402377033233642578e+01 1.332153677940368652e-01 2.980905957520008087e-02 4.890732839703559875e-02 3.244075179100036621e-01
8.570000000000000000e+02 5.571686744689941406e+00 1.845403861999511719e+01 1.165035888552665710e-01 -1.279422044754028320e-01 -3.431585151702165604e-03 1.434261649847030640e-01
8.580000000000000000e+02 1.092202472686767578e+01 1.663306045532226562e+01 4.946821331977844238e-01 5.734461545944213867e-01 3.204384744167327881e-01 4.376207888126373291e-01
8.590000000000000000e+02 1.201896286010742188e+01 1.765361785888671875e+01 7.846561074256896973e-01 3.795279860496520996e-01 3.492552042007446289e-01 4.233243465423583984e-01
8.600000000000000000e+02 3.160090065002441406e+01 -1.588044929504394531e+01 -1.703627258539199829e-01 3.073583602905273438e+00 8.709663152694702148e-01 1.641200065612792969e+00
8.610000000000000000e+02 2.874531745910644531e+01 -1.458410739898681641e+01 -1.087259888648986816e+00 5.391555309295654297e+00 1.291288614273071289e+00 2.006355762481689453e+00
8.620000000000000000e+02 3.273951721191406250e+01 -1.530625915527343750e+01 -3.628626823425292969e+00 6.531906723976135254e-01 -8.926308155059814453e-01 -2.186105400323867798e-02
8.630000000000000000e+02 2.552183151245117188e+01 -1.594324970245361328e+01 2.367338687181472778e-01 2.404649496078491211e+00 7.924150228500366211e-01 9.316806197166442871e-01
8.640000000000000000e+02 2.969123268127441406e+01 -1.848712348937988281e+01 1.766401290893554688e+00 8.351755142211914062e+00 3.035446882247924805e+00 3.514693260192871094e+00
8.650000000000000000e+02 2.355714607238769531e+01 -1.392700672149658203e+01 -1.831581830978393555e+00 -1.404636651277542114e-01 -5.916136503219604492e-01 -1.153804808855056763e-01
8.660000000000000000e+02 3.391109848022460938e+01 -1.491238975524902344e+01 -7.009140014648437500e+00 -5.806223750114440918e-01 -2.276928663253784180e+00 5.066592097282409668e-01
8.670000000000000000e+02 3.755718612670898438e+01 -1.344198226928710938e+01 -2.847315073013305664e+00 4.964323997497558594e+00 6.351026892662048340e-01 -1.617935657501220703e+00
8.680000000000000000e+02 3.806137847900390625e+01 -1.079551601409912109e+01 2.776271343231201172e+00 7.405861854553222656e+00 3.054640054702758789e+00 -3.806390523910522461e+00
8.690000000000000000e+02 3.690130615234375000e+01 -1.607358169555664062e+01 -1.023207902908325195e+00 2.460364580154418945e+00 4.311470389366149902e-01 -9.785227179527282715e-01
8.700000000000000000e+02 3.781795501708984375e+01 -1.694347763061523438e+01 8.842622041702270508e-01 4.408886432647705078e+00 1.587944626808166504e+00 -2.282246351242065430e+00
8.710000000000000000e+02 4.271899414062500000e+01 -2.481430053710937500e+01 1.888818740844726562e+00 3.113510131835937500e+00 1.500698685646057129e+00 9.069579243659973145e-01
8.720000000000000000e+02 4.610057449340820312e+01 -1.781154441833496094e+01 4.924722015857696533e-02 6.477782726287841797e+00 1.958108901977539062e+00 1.212290644645690918e+00
8.730000000000000000e+02 3.899281311035156250e+01 -1.747895622253417969e+01 8.570131659507751465e-01 5.142207145690917969e+00 1.799766063690185547e+00 -2.209874153137207031e+00
8.740000000000000000e+02 3.978965377807617188e+01 -2.231344795227050781e+01 -7.055824249982833862e-02 7.576584339141845703e+00 2.251807928085327148e+00 -2.857575416564941406e-01
8.750000000000000000e+02 4.317410278320312500e+01 -2.153333473205566406e+01 2.855959653854370117e+00 4.333550453186035156e+00 2.156852960586547852e+00 7.137576341629028320e-01
8.760000000000000000e+02 4.105552291870117188e+01 -2.796470642089843750e+01 -2.873149633407592773e+00 4.224738597869873047e+00 4.054766595363616943e-01 6.438875198364257812e-01
8.770000000000000000e+02 4.090499114990234375e+01 -2.890621948242187500e+01 -6.905115842819213867e-01 3.820106744766235352e+00 9.388785362243652344e-01 1.906521797180175781e+00
8.780000000000000000e+02 3.743430709838867188e+01 -2.868644714355468750e+01 -2.339524984359741211e+00 2.737863302230834961e+00 1.195014938712120056e-01 4.608263671398162842e-01
8.790000000000000000e+02 3.385253906250000000e+01 -2.952577590942382812e+01 -2.191782474517822266e+00 -3.342649340629577637e-01 -7.578142285346984863e-01 -3.044126927852630615e-01
8.800000000000000000e+02 3.294736480712890625e+01 -2.823465156555175781e+01 -3.084177732467651367e+00 -1.006077900528907776e-01 -9.554356932640075684e-01 3.075128495693206787e-01
8.810000000000000000e+02 3.106595802307128906e+01 -2.629523086547851562e+01 -2.431031018495559692e-01 1.512803673744201660e+00 3.809101879596710205e-01 -5.892012119293212891e-01
8.820000000000000000e+02 2.872978591918945312e+01 -2.228069496154785156e+01 9.111697077751159668e-01 9.630184173583984375e+00 3.162405967712402344e+00 -3.410955667495727539e-01
8.830000000000000000e+02 2.740432357788085938e+01 -2.182616615295410156e+01 1.735130310058593750e+00 5.733059406280517578e+00 2.240457057952880859e+00 6.280014514923095703e-01
8.840000000000000000e+02 2.920785140991210938e+01 -1.971074295043945312e+01 1.496254086494445801e+00 9.925731658935546875e+00 3.426595687866210938e+00 2.663121700286865234e+00
8.850000000000000000e+02 1.714622497558593750e+01 -4.034975051879882812e+01 -1.323955893516540527e+00 -2.143875658512115479e-01 -4.615030586719512939e-01 5.455698370933532715e-01
8.860000000000000000e+02 1.884741210937500000e+01 -4.085943984985351562e+01 -1.756609797477722168e+00 -3.284501731395721436e-01 -6.255179643630981445e-01 -2.281866073608398438e-01
8.870000000000000000e+02 1.525769805908203125e+01 -4.089635467529296875e+01 -1.185427665710449219e+00 5.030821543186903000e-03 -3.541190624237060547e-01 2.106843143701553345e-01
8.880000000000000000e+02 1.517327499389648438e+01 -3.883327865600585938e+01 -3.534931540489196777e-01 -2.035221457481384277e-01 -1.671045869588851929e-01 4.352434873580932617e-01
8.890000000000000000e+02 1.560577487945556641e+01 2.315687179565429688e+01 2.970175445079803467e-02 -1.336337774991989136e-01 -3.117960691452026367e-02 -1.077810451388359070e-01
8.900000000000000000e+02 1.165087032318115234e+01 2.259719848632812500e+01 4.210803210735321045e-01 2.697087079286575317e-02 1.344153583049774170e-01 -5.784748867154121399e-02
8.910000000000000000e+02 8.876574516296386719e+00 2.239180564880371094e+01 5.289912223815917969e-01 3.543603420257568359e-01 2.650054693222045898e-01 -2.907863557338714600e-01
8.920000000000000000e+02 7.386398792266845703e+00 2.444436836242675781e+01 5.228530764579772949e-01 5.967306494712829590e-01 3.358751237392425537e-01 -5.314817428588867188e-01
8.930000000000000000e+02 2.260581970214843750e+00 2.550738143920898438e+01 7.818970829248428345e-02 -8.570235967636108398e-01 -2.336501628160476685e-01 -7.748413830995559692e-02
8.940000000000000000e+02 6.503030395507812500e+01 2.018893241882324219e+01 -4.322875022888183594e+00 3.554464578628540039e-01 -1.190228581428527832e+00 6.648722290992736816e-01
8.950000000000000000e+02 6.363177490234375000e+01 2.474928855895996094e+01 7.337160110473632812e-01 7.169116497039794922e+00 2.370849847793579102e+00 1.760159730911254883e+00
8.960000000000000000e+02 6.372170257568359375e+01 1.991465759277343750e+01 9.099705517292022705e-02 3.189167976379394531e+00 9.840495586395263672e-01 2.888304233551025391e+00
8.970000000000000000e+02 6.103816223144531250e+01 1.991625785827636719e+01 8.749715983867645264e-02 7.185531139373779297e+00 2.181908369064331055e+00 2.643475770950317383e+00
8.980000000000000000e+02 5.452027893066406250e+01 1.619506263732910156e+01 4.840674400329589844e-01 5.084675788879394531e+00 1.670622944831848145e+00 -1.062778115272521973e+00
8.990000000000000000e+02 6.151956939697265625e+01 1.740936279296875000e+01 2.797806978225708008e+00 1.211157417297363281e+01 4.472814559936523438e+00 5.114677429199218750e+00
9.000000000000000000e+02 6.067218017578125000e+01 1.345562744140625000e+01 3.567872643470764160e-01 1.090261650085449219e+01 3.377821207046508789e+00 5.423443317413330078e-01
9.010000000000000000e+02 5.618576812744140625e+01 1.287629127502441406e+01 1.178793191909790039e+00 8.413448333740234375e+00 2.877672433853149414e+00 8.650335669517517090e-01
9.020000000000000000e+02 6.140425872802734375e+01 1.012511634826660156e+01 1.079987168312072754e+00 5.569126129150390625e+00 1.994734048843383789e+00 -1.693842411041259766e+00
9.030000000000000000e+02 6.634387969970703125e+01 2.032301521301269531e+01 -6.073240756988525391e+00 -4.457591176033020020e-01 -1.955699920654296875e+00 8.754435777664184570e-01
9.040000000000000000e+02 6.833348846435546875e+01 1.953854179382324219e+01 -3.525531053543090820e+00 8.252751827239990234e-02 -1.032901048660278320e+00 7.681767940521240234e-01
9.050000000000000000e+02 6.925595855712890625e+01 1.857962036132812500e+01 -9.949026703834533691e-01 1.158265948295593262e+00 4.900897666811943054e-02 3.650831803679466248e-02
9.060000000000000000e+02 6.962286376953125000e+01 2.045292091369628906e+01 -2.319794654846191406e+00 3.538434505462646484e+00 3.655919432640075684e-01 -1.379465818405151367e+00
9.070000000000000000e+02 6.899065399169921875e+01 2.151642608642578125e+01 -1.300407052040100098e+00 2.709463119506835938e+00 4.227167665958404541e-01 -1.398339152336120605e+00
9.080000000000000000e+02 6.408084869384765625e+01 7.322618007659912109e+00 -1.655035614967346191e+00 3.878915011882781982e-01 -3.801432549953460693e-01 -7.913916371762752533e-03
9.090000000000000000e+02 3.240075683593750000e+01 2.401622009277343750e+01 8.579344153404235840e-01 6.508174896240234375e+00 2.209832906723022461e+00 -6.692586541175842285e-01
9.100000000000000000e+02 3.023376464843750000e+01 1.554487991333007812e+01 -1.709914565086364746e+00 1.063754916191101074e+00 -1.938478946685791016e-01 8.851886391639709473e-01
9.110000000000000000e+02 3.026033592224121094e+01 1.308526992797851562e+01 -2.003751039505004883e+00 2.389900684356689453e+00 1.158448457717895508e-01 1.413546919822692871e+00
9.120000000000000000e+02 3.126941680908203125e+01 1.465384101867675781e+01 -1.823744177818298340e+00 2.746585369110107422e+00 2.768523395061492920e-01 1.473295211791992188e+00
9.130000000000000000e+02 3.287548828125000000e+01 1.353007030487060547e+01 -1.762981176376342773e+00 8.569654226303100586e-01 -2.718047201633453369e-01 4.889902770519256592e-01
9.140000000000000000e+02 2.951723861694335938e+01 1.466893768310546875e+01 -2.635847568511962891e+00 9.103165864944458008e-01 -5.176593065261840820e-01 8.450099229812622070e-01
9.150000000000000000e+02 2.716985511779785156e+01 1.506369972229003906e+01 -3.607932567596435547e+00 9.944766759872436523e-02 -1.052545428276062012e+00 -1.128898784518241882e-01
9.160000000000000000e+02 2.452423095703125000e+01 1.651026916503906250e+01 1.713414639234542847e-01 1.142845630645751953e+00 3.942561447620391846e-01 -6.576272845268249512e-01
9.170000000000000000e+02 2.231338310241699219e+01 1.630034828186035156e+01 -3.066706061363220215e-01 2.764864921569824219e+00 7.374582886695861816e-01 -4.618622064590454102e-01
9.180000000000000000e+02 2.364836692810058594e+01 1.729724311828613281e+01 6.779227852821350098e-01 2.411878347396850586e+00 9.269403815269470215e-01 -1.243157267570495605e+00
9.190000000000000000e+02 1.871670722961425781e+01 1.725366401672363281e+01 -4.814030602574348450e-02 5.511080622673034668e-01 1.508903354406356812e-01 -9.087151288986206055e-02
9.200000000000000000e+02 2.214344215393066406e+01 2.168850135803222656e+01 4.062045812606811523e-01 5.431890010833740234e+00 1.751428365707397461e+00 1.309944689273834229e-01
9.210000000000000000e+02 2.317608261108398438e+01 2.774600791931152344e+01 2.238032668828964233e-01 2.075773954391479492e+00 6.898731589317321777e-01 3.569402098655700684e-01
9.220000000000000000e+02 2.334326171875000000e+01 2.659566879272460938e+01 1.687968224287033081e-01 2.270266771316528320e+00 7.317190766334533691e-01 5.791649222373962402e-01
9.230000000000000000e+02 3.792065429687500000e+01 2.172785758972167969e+01 -5.001545548439025879e-01 2.405521631240844727e+00 5.716100931167602539e-01 -1.714239120483398438e+00
9.240000000000000000e+02 3.663530731201171875e+01 2.413028717041015625e+01 1.913752675056457520e+00 3.873400449752807617e+00 1.736145973205566406e+00 -2.611414670944213867e+00
9.250000000000000000e+02 5.311408615112304688e+01 3.211692810058593750e+01 1.553320050239562988e+00 8.565346717834472656e+00 3.035600185394287109e+00 1.591872572898864746e+00
9.260000000000000000e+02 7.247151184082031250e+01 -1.314948320388793945e+00 -1.284923434257507324e+00 1.565205693244934082e+00 8.408465236425399780e-02 -4.223715662956237793e-01
9.270000000000000000e+02 6.784471130371093750e+01 6.956064701080322266e+00 -9.643303751945495605e-01 3.369539976119995117e-01 -1.882129162549972534e-01 5.529857277870178223e-01
9.280000000000000000e+02 7.426823425292968750e+01 -3.609897851943969727e+00 9.486603736877441406e-01 7.478937149047851562e+00 2.528279304504394531e+00 -2.742708444595336914e+00
9.290000000000000000e+02 7.688015747070312500e+01 -5.533608794212341309e-01 -6.029410362243652344e-01 8.136934280395507812e+00 2.260197877883911133e+00 -3.295720741152763367e-02
9.300000000000000000e+02 7.671083831787109375e+01 -4.009080410003662109e+00 1.148025020956993103e-01 9.542909622192382812e+00 2.897313594818115234e+00 2.555232048034667969e-01
9.310000000000000000e+02 6.005260086059570312e+01 -9.549022674560546875e+00 5.859447717666625977e-01 4.973556518554687500e+00 1.667850255966186523e+00 2.348995923995971680e+00
9.320000000000000000e+02 6.123144149780273438e+01 -7.585375308990478516e+00 1.700404286384582520e+00 1.012226200103759766e+01 3.546799898147583008e+00 1.902269601821899414e+00
9.330000000000000000e+02 6.777214050292968750e+01 -1.488502144813537598e+00 1.705441474914550781e+00 2.474339723587036133e+00 1.253934383392333984e+00 1.978568553924560547e+00
9.340000000000000000e+02 6.682501983642578125e+01 -2.473855018615722656e+00 2.257982969284057617e+00 4.163037776947021484e+00 1.926306128501892090e+00 2.839078903198242188e+00
9.350000000000000000e+02 6.858799743652343750e+01 -3.296872377395629883e-01 6.712160706520080566e-01 1.722243189811706543e+00 7.180377840995788574e-01 1.899829983711242676e+00
9.360000000000000000e+02 6.982169342041015625e+01 -7.447263002395629883e-01 -3.781367838382720947e-01 5.372112989425659180e-01 4.772235080599784851e-02 9.069767594337463379e-01
9.370000000000000000e+02 2.905915641784667969e+01 7.608825206756591797e+00 6.175366640090942383e-01 8.947442054748535156e+00 2.869493722915649414e+00 -2.307778894901275635e-01
9.380000000000000000e+02 2.443177604675292969e+01 1.310922050476074219e+01 -6.733415126800537109e-01 1.827258348464965820e+00 3.461750447750091553e-01 -1.747196912765502930e+00
9.390000000000000000e+02 4.475753784179687500e+01 -3.827863311767578125e+01 -3.263994216918945312e+00 -3.660928606986999512e-01 -1.089026093482971191e+00 -2.339354604482650757e-01
9.400000000000000000e+02 4.306217956542968750e+01 -3.847178649902343750e+01 -3.162628650665283203e+00 -1.253655254840850830e-01 -9.863982796669006348e-01 1.322641968727111816e-02
9.410000000000000000e+02 4.151289749145507812e+01 -3.777519226074218750e+01 -1.970932364463806152e+00 5.214279890060424805e-01 -4.348513185977935791e-01 1.124873831868171692e-01
9.420000000000000000e+02 3.956598663330078125e+01 -3.078219413757324219e+01 1.794863224029541016e+00 9.848031997680664062e+00 3.492868661880493164e+00 3.473897457122802734e+00
9.430000000000000000e+02 3.801446151733398438e+01 -2.753018188476562500e+01 -1.928266644477844238e+00 3.547792673110961914e+00 4.858578145503997803e-01 1.192357301712036133e+00
9.440000000000000000e+02 4.028129577636718750e+01 -2.978017807006835938e+01 2.614184141159057617e+00 7.303175926208496094e+00 2.975208044052124023e+00 3.597204446792602539e+00
9.450000000000000000e+02 4.151982116699218750e+01 -2.555397415161132812e+01 1.322339296340942383e+00 3.781184911727905273e+00 1.531057238578796387e+00 1.561846494674682617e+00
9.460000000000000000e+02 4.058094787597656250e+01 -2.457794952392578125e+01 2.436992168426513672e+00 7.990067481994628906e+00 3.128117799758911133e+00 2.425208568572998047e+00
9.470000000000000000e+02 5.671825408935546875e+01 5.995234847068786621e-01 -2.247781515121459961e+00 3.211216628551483154e-01 -5.779979228973388672e-01 -3.972878158092498779e-01
9.480000000000000000e+02 5.872082138061523438e+01 -2.560784108936786652e-03 -2.128959596157073975e-01 2.730023145675659180e+00 7.551381587982177734e-01 -1.739081978797912598e+00
9.490000000000000000e+02 5.958959960937500000e+01 -9.995653033256530762e-01 2.002943038940429688e+00 4.582626342773437500e+00 1.975670814514160156e+00 -2.987022399902343750e+00
9.500000000000000000e+02 5.055148696899414062e+01 -2.848576354980468750e+01 9.216775894165039062e-01 4.471273422241210938e+00 1.617885231971740723e+00 -9.780600666999816895e-01
9.510000000000000000e+02 5.062965011596679688e+01 -2.700656890869140625e+01 -4.669311940670013428e-01 3.046232700347900391e+00 7.737904191017150879e-01 -1.990341305732727051e+00
9.520000000000000000e+02 9.795206069946289062e+00 -1.855040311813354492e+00 -7.365951687097549438e-02 -3.907726705074310303e-02 -3.382103517651557922e-02 -6.876877695322036743e-02
9.530000000000000000e+02 2.727273178100585938e+01 -3.001578140258789062e+01 -9.572015404701232910e-01 3.780575513839721680e+00 8.470121622085571289e-01 1.592171192169189453e-01
9.540000000000000000e+02 2.500739288330078125e+01 -3.212447357177734375e+01 2.961180508136749268e-01 4.795903205871582031e+00 1.527606487274169922e+00 -3.664070665836334229e-01
9.550000000000000000e+02 6.593929290771484375e+01 -3.164985656738281250e+01 1.024698376655578613e+00 1.178521251678466797e+01 3.842973232269287109e+00 -2.065106153488159180e+00
9.560000000000000000e+02 6.901625823974609375e+01 -2.780935668945312500e+01 9.130423069000244141e-01 1.831940174102783203e+00 8.234947323799133301e-01 -1.078534960746765137e+00
9.570000000000000000e+02 7.832989501953125000e+01 -2.621050262451171875e+01 -1.311819702386856079e-01 7.595841884613037109e+00 2.239398002624511719e+00 -4.575923085212707520e-01
9.580000000000000000e+02 7.943460845947265625e+01 -2.368412017822265625e+01 5.952155962586402893e-02 6.433738231658935547e+00 1.947977900505065918e+00 -1.333415657281875610e-01
9.590000000000000000e+02 7.930558013916015625e+01 -3.326393508911132812e+01 5.014702305197715759e-02 7.700445175170898438e+00 2.325177669525146484e+00 7.983705960214138031e-03
9.600000000000000000e+02 4.780913543701171875e+01 -9.164435386657714844e+00 1.229944825172424316e+00 1.360270690917968750e+01 4.449795722961425781e+00 2.687048912048339844e-01
9.610000000000000000e+02 3.894712448120117188e+01 -1.162779045104980469e+01 1.768625974655151367e+00 3.881588697433471680e+00 1.695064425468444824e+00 -3.045448303222656250e+00
9.620000000000000000e+02 6.895114135742187500e+01 7.435393333435058594e+00 8.361541032791137695e-01 1.014758467674255371e+00 5.552737712860107422e-01 1.127928614616394043e+00
9.630000000000000000e+02 4.953300094604492188e+01 1.890534591674804688e+01 -4.850811004638671875e+00 -2.910690382122993469e-02 -1.463975310325622559e+00 3.692655265331268311e-01
9.640000000000000000e+02 3.340756225585937500e+01 1.740285682678222656e+01 5.031908154487609863e-01 3.566025495529174805e+00 1.220764875411987305e+00 -8.633187413215637207e-01
9.650000000000000000e+02 2.172817993164062500e+01 8.822266578674316406e+00 6.504292488098144531e-01 3.412037193775177002e-01 2.974899113178253174e-01 -7.031068801879882812e-01
9.660000000000000000e+02 3.188735389709472656e+01 1.806351470947265625e+01 4.848850071430206299e-01 5.854024410247802734e+00 1.901672840118408203e+00 5.130643248558044434e-01
9.670000000000000000e+02 6.626088714599609375e+01 3.209629821777343750e+01 3.152204453945159912e-01 5.692646026611328125e+00 1.802360057830810547e+00 7.909170985221862793e-01
9.680000000000000000e+02 4.645935821533203125e+01 3.058469200134277344e+01 8.856290578842163086e-01 6.439420700073242188e+00 2.197515010833740234e+00 -7.798854708671569824e-01
9.690000000000000000e+02 1.047538757324218750e+01 2.014906120300292969e+01 4.683694243431091309e-01 2.496331781148910522e-01 2.154007852077484131e-01 -9.305193275213241577e-02
9.700000000000000000e+02 8.379037857055664062e+00 1.957120513916015625e+01 2.708104252815246582e-01 2.121431678533554077e-01 1.448860764503479004e-01 -3.177786991000175476e-02
9.710000000000000000e+02 2.243632507324218750e+01 2.300906944274902344e+01 1.109612062573432922e-01 4.993582725524902344e+00 1.531363248825073242e+00 7.031785249710083008e-01
9.720000000000000000e+02 2.228086948394775391e+00 1.583870887756347656e+01 1.961094327270984650e-02 -6.719250679016113281e-01 -1.956942379474639893e-01 1.891298890113830566e-01
9.730000000000000000e+02 8.996597290039062500e+00 1.470557308197021484e+01 2.306406348943710327e-01 4.095266163349151611e-01 1.920501738786697388e-01 2.678765654563903809e-01
9.740000000000000000e+02 2.080364799499511719e+01 2.001118659973144531e+01 9.946854114532470703e-01 3.060667276382446289e+00 1.216605782508850098e+00 -2.426765561103820801e-01
9.750000000000000000e+02 1.683637738227844238e+00 8.975576400756835938e+00 -1.861919276416301727e-02 -2.206337302923202515e-01 -7.177587598562240601e-02 1.273191720247268677e-01
9.760000000000000000e+02 4.108300399780273438e+01 5.148858547210693359e+00 2.929497241973876953e+00 9.556002616882324219e+00 3.745649814605712891e+00 9.664375185966491699e-01
9.770000000000000000e+02 2.959947967529296875e+01 9.589533805847167969e+00 7.761734127998352051e-01 5.367784976959228516e+00 1.843187570571899414e+00 1.328045368194580078e+00
9.780000000000000000e+02 3.920812606811523438e+01 8.830123901367187500e+00 6.903403401374816895e-01 1.024350547790527344e+01 3.280153751373291016e+00 -2.001628398895263672e+00
9.790000000000000000e+02 4.208522796630859375e+01 1.276362609863281250e+01 1.058214306831359863e+00 8.419480323791503906e+00 2.843308448791503906e+00 1.082164883613586426e+00
9.800000000000000000e+02 5.099920272827148438e+01 -1.508000564575195312e+01 -1.658818840980529785e+00 5.999477505683898926e-01 -3.176613152027130127e-01 -1.142597675323486328e+00
9.810000000000000000e+02 9.007571220397949219e+00 -1.870473504066467285e+00 -6.276018172502517700e-02 -1.290873438119888306e-02 -2.270067296922206879e-02 -5.730625987052917480e-02
9.820000000000000000e+02 7.438850402832031250e+00 -1.891225337982177734e+00 -3.863769024610519409e-02 -7.051678840070962906e-03 -1.370681077241897583e-02 -3.655399382114410400e-02
9.830000000000000000e+02 2.721862554550170898e+00 -1.848750233650207520e+00 -1.442262146156281233e-04 -1.480755279771983624e-03 -4.874944279436022043e-04 -1.626828685402870178e-03
9.840000000000000000e+02 3.297899246215820312e+00 -2.757490634918212891e+00 -2.177017740905284882e-03 -6.506678182631731033e-03 -2.605108777061104774e-03 -2.733285538852214813e-03
9.850000000000000000e+02 4.244469642639160156e+00 -1.936532258987426758e+00 -4.614066332578659058e-03 -4.939559847116470337e-03 -2.866087714210152626e-03 -7.676626089960336685e-03
9.860000000000000000e+02 2.048258781433105469e+00 -1.892661929130554199e+00 1.177759841084480286e-03 -4.157680552452802658e-03 -8.939761901274323463e-04 4.145998973399400711e-03
9.870000000000000000e+02 6.440381407737731934e-01 -3.602074384689331055e+00 5.568549502640962601e-03 4.796534776687622070e-03 3.109525190666317940e-03 1.571009634062647820e-03
9.880000000000000000e+02 2.042858600616455078e+00 -4.166384887695312500e+01 -1.121554896235466003e-01 1.461769193410873413e-01 1.020643115043640137e-02 3.217336162924766541e-02
9.890000000000000000e+02 9.808201789855957031e-01 -3.875454711914062500e+01 -2.998510003089904785e-02 -1.237544883042573929e-02 -1.270816475152969360e-02 8.300848305225372314e-02
9.900000000000000000e+02 7.693525552749633789e-01 -3.461522293090820312e+01 1.603577286005020142e-02 -4.230064749717712402e-01 -1.220912113785743713e-01 7.388368993997573853e-02
9.910000000000000000e+02 7.420083880424499512e-01 -3.320337295532226562e+01 -2.890165196731686592e-03 -5.495343804359436035e-01 -1.657273620367050171e-01 6.006846949458122253e-02
9.920000000000000000e+02 6.377367377281188965e-01 -2.898760795593261719e+01 2.585441246628761292e-02 -7.902398705482482910e-01 -2.293156385421752930e-01 1.871014572679996490e-02
9.930000000000000000e+02 6.174557805061340332e-01 -2.757933616638183594e+01 -1.849030330777168274e-02 -8.190050721168518066e-01 -2.512486279010772705e-01 6.021575070917606354e-03
9.940000000000000000e+02 1.842735767364501953e+00 -2.741625022888183594e+01 3.590507432818412781e-02 -5.735265612602233887e-01 -1.612864434719085693e-01 1.364129316061735153e-02
9.950000000000000000e+02 1.728432536125183105e+00 -2.327693748474121094e+01 -4.775235895067453384e-03 -5.588443279266357422e-01 -1.690858602523803711e-01 -2.162864618003368378e-02
9.960000000000000000e+02 5.912440419197082520e-01 -2.196892547607421875e+01 -1.413458026945590973e-02 -7.985483407974243164e-01 -2.438048869371414185e-01 -2.376850321888923645e-02
9.970000000000000000e+02 1.930346846580505371e+00 -1.786218452453613281e+01 -1.571815088391304016e-02 -2.876234650611877441e-01 -9.100247919559478760e-02 -2.037222236394882202e-01
9.980000000000000000e+02 6.125336289405822754e-01 -2.057828330993652344e+01 3.357476368546485901e-02 -7.154375314712524414e-01 -2.045588344335556030e-01 -4.569984227418899536e-02
9.990000000000000000e+02 1.926219224929809570e+00 -1.645860099792480469e+01 -2.966238930821418762e-02 -1.915734559297561646e-01 -6.637075543403625488e-02 -1.696562319993972778e-01
1.000000000000000000e+03 6.454508900642395020e-01 -1.496781921386718750e+01 -3.637742483988404274e-03 -1.316892653703689575e-01 -4.059810191392898560e-02 -4.752919450402259827e-02
1.001000000000000000e+03 6.397202014923095703e-01 -1.355615139007568359e+01 -1.752837374806404114e-02 -5.591359362006187439e-02 -2.203259058296680450e-02 -2.297581918537616730e-02
1.002000000000000000e+03 1.866827964782714844e+00 -1.221056079864501953e+01 -3.340880572795867920e-02 -6.492198258638381958e-02 -2.949923835694789886e-02 -3.438279777765274048e-02
1.003000000000000000e+03 5.819002389907836914e-01 -9.331890106201171875e+00 1.148121431469917297e-02 9.546083398163318634e-03 6.308189127594232559e-03 -1.285992329940199852e-03
1.004000000000000000e+03 5.802685022354125977e-01 -7.928949832916259766e+00 -1.140366587787866592e-02 8.917064405977725983e-03 -7.459803018718957901e-04 1.382149639539420605e-03
1.005000000000000000e+03 1.716488361358642578e+00 -8.078551292419433594e+00 9.854205884039402008e-03 -1.939963176846504211e-02 -2.863627858459949493e-03 -1.242060679942369461e-03
1.006000000000000000e+03 6.104737520217895508e-01 -6.523554325103759766e+00 9.720652364194393158e-03 7.029209285974502563e-03 5.024958867579698563e-03 4.540141089819371700e-04
1.007000000000000000e+03 7.163951873779296875e+01 -4.138007736206054688e+01 -8.943164348602294922e-01 6.514765739440917969e+00 1.686134815216064453e+00 -2.388765662908554077e-01
1.008000000000000000e+03 5.245664978027343750e+01 -4.118924331665039062e+01 -3.213157653808593750e+00 6.601650714874267578e+00 1.016547918319702148e+00 1.180557087063789368e-01
1.009000000000000000e+03 3.249109649658203125e+01 -4.134580993652343750e+01 -1.097371935844421387e+00 3.393684387207031250e+00 6.888937950134277344e-01 2.058965563774108887e-01
1.010000000000000000e+03 1.274372768402099609e+01 -3.767055130004882812e+01 -5.014445185661315918e-01 8.635779619216918945e-01 1.086400300264358521e-01 2.661712467670440674e-01
1.011000000000000000e+03 7.865499877929687500e+01 4.016789627075195312e+01 -2.302338555455207825e-02 7.624967575073242188e+00 2.280583381652832031e+00 -4.583130031824111938e-02
1.012000000000000000e+03 7.901540374755859375e+01 3.878478240966796875e+01 -3.597164154052734375e-02 7.671187877655029297e+00 2.290564775466918945e+00 -1.256886962801218033e-02
1.013000000000000000e+03 7.588378906250000000e+01 3.687757492065429688e+01 -9.541011601686477661e-02 6.968893051147460938e+00 2.062044858932495117e+00 2.251157760620117188e-01
1.014000000000000000e+03 7.916287231445312500e+01 3.485063552856445312e+01 8.738879114389419556e-03 7.529506683349609375e+00 2.261473655700683594e+00 4.890831187367439270e-02
1.015000000000000000e+03 7.777217102050781250e+01 3.317975234985351562e+01 3.607910871505737305e-02 7.175253868103027344e+00 2.163399934768676758e+00 1.121902242302894592e-01
1.016000000000000000e+03 7.925298309326171875e+01 3.339276885986328125e+01 7.011082954704761505e-03 7.463150978088378906e+00 2.241048574447631836e+00 3.470871970057487488e-02
1.017000000000000000e+03 7.938164520263671875e+01 3.061812400817871094e+01 1.346760522574186325e-02 7.408769130706787109e+00 2.226670980453491211e+00 -1.452954951673746109e-03
1.018000000000000000e+03 7.706681060791015625e+01 2.798601341247558594e+01 9.098836779594421387e-02 6.979671955108642578e+00 2.121198177337646484e+00 -2.242542803287506104e-01
1.019000000000000000e+03 7.937524414062500000e+01 2.649266624450683594e+01 1.161859091371297836e-02 7.768008708953857422e+00 2.333888053894042969e+00 -7.097208499908447266e-02
1.020000000000000000e+03 7.672106170654296875e+01 2.523849296569824219e+01 -7.593371719121932983e-02 7.050052642822265625e+00 2.092235565185546875e+00 -3.538833558559417725e-01
1.021000000000000000e+03 7.935382843017578125e+01 2.510623550415039062e+01 -5.047359038144350052e-03 7.949382781982421875e+00 2.383300542831420898e+00 -7.790821045637130737e-02
1.022000000000000000e+03 7.936000061035156250e+01 2.091983032226562500e+01 -4.986706003546714783e-02 8.030801773071289062e+00 2.394280195236206055e+00 1.020392328500747681e-01
1.023000000000000000e+03 7.938137054443359375e+01 1.953740501403808594e+01 -2.964153327047824860e-02 7.737339973449707031e+00 2.312309503555297852e+00 1.896913349628448486e-01
1.024000000000000000e+03 7.813027191162109375e+01 1.956314659118652344e+01 -1.815793961286544800e-01 7.548907756805419922e+00 2.210198402404785156e+00 4.512121677398681641e-01
1.025000000000000000e+03 7.940766143798828125e+01 1.816111755371093750e+01 -3.508619219064712524e-02 7.243447780609130859e+00 2.162508487701416016e+00 2.660218179225921631e-01
1.026000000000000000e+03 7.940631103515625000e+01 1.405662536621093750e+01 4.875196889042854309e-02 5.409154415130615234e+00 1.637371897697448730e+00 2.092659175395965576e-01
1.027000000000000000e+03 7.809783935546875000e+01 1.297929763793945312e+01 2.798312604427337646e-01 6.233026027679443359e+00 1.953857183456420898e+00 2.977768778800964355e-01
1.028000000000000000e+03 7.936260223388671875e+01 1.129848670959472656e+01 4.945705831050872803e-02 5.146778106689453125e+00 1.558870553970336914e+00 -5.024192109704017639e-02
1.029000000000000000e+03 7.934233856201171875e+01 7.118800640106201172e+00 2.726683951914310455e-02 6.762779235839843750e+00 2.037013769149780273e+00 -3.504414558410644531e-01
1.030000000000000000e+03 7.934449005126953125e+01 5.710474967956542969e+00 -1.979585550725460052e-02 7.500623226165771484e+00 2.244248151779174805e+00 -3.473914265632629395e-01
1.031000000000000000e+03 7.937058258056640625e+01 4.308522224426269531e+00 -1.825160346925258636e-02 8.183168411254882812e+00 2.449475049972534180e+00 -3.071711957454681396e-01
1.032000000000000000e+03 7.940229034423828125e+01 1.419394314289093018e-01 -1.430608145892620087e-02 9.350949287414550781e+00 2.800992965698242188e+00 -3.449059650301933289e-02
1.033000000000000000e+03 7.937519836425781250e+01 -1.238375306129455566e+00 -1.439551562070846558e-01 9.149762153625488281e+00 2.701742172241210938e+00 1.802016347646713257e-01
1.034000000000000000e+03 7.933525085449218750e+01 -2.645628452301025391e+00 -3.730118041858077049e-03 8.608969688415527344e+00 2.581571817398071289e+00 3.079753220081329346e-01
1.035000000000000000e+03 7.931550598144531250e+01 -4.088637351989746094e+00 -3.892610967159271240e-02 7.943348884582519531e+00 2.371326684951782227e+00 3.578918576240539551e-01
1.036000000000000000e+03 7.496741485595703125e+01 -9.484452247619628906e+00 1.019133687019348145e+00 1.156402969360351562e+01 3.774949073791503906e+00 1.810305595397949219e+00
1.037000000000000000e+03 7.931620788574218750e+01 -8.395801544189453125e+00 3.474738216027617455e-03 7.778749465942382812e+00 2.334667205810546875e+00 -3.976401090621948242e-01
1.038000000000000000e+03 7.939106750488281250e+01 -1.113441848754882812e+01 -2.067080438137054443e-01 9.771577835083007812e+00 2.869460821151733398e+00 -4.196739792823791504e-01
1.039000000000000000e+03 7.927880096435546875e+01 -1.527431011199951172e+01 -1.812675297260284424e-01 9.974670410156250000e+00 2.938020944595336914e+00 3.237435817718505859e-01
1.040000000000000000e+03 7.380313873291015625e+01 -1.642724609375000000e+01 -4.813704192638397217e-01 5.404168128967285156e+00 1.476839303970336914e+00 1.339360773563385010e-01
1.041000000000000000e+03 7.935375976562500000e+01 -1.808765220642089844e+01 -6.773914396762847900e-02 8.325170516967773438e+00 2.477229356765747070e+00 4.369808733463287354e-01
1.042000000000000000e+03 7.447589111328125000e+01 -2.322766113281250000e+01 1.256448149681091309e+00 1.156857681274414062e+01 3.847507476806640625e+00 7.408324480056762695e-01
1.043000000000000000e+03 7.816204071044921875e+01 -2.236930847167968750e+01 3.452837169170379639e-01 7.446554183959960938e+00 2.337551355361938477e+00 9.417475014925003052e-02
1.044000000000000000e+03 7.945603942871093750e+01 -2.503998374938964844e+01 7.772244978696107864e-03 6.879500865936279297e+00 2.066181898117065430e+00 -2.181065231561660767e-01
1.045000000000000000e+03 7.737939453125000000e+01 -2.658481025695800781e+01 -3.135847747325897217e-01 7.818853855133056641e+00 2.251580715179443359e+00 -3.829817175865173340e-01
1.046000000000000000e+03 7.930836486816406250e+01 -2.906447410583496094e+01 -4.744129255414009094e-02 7.793724060058593750e+00 2.323884963989257812e+00 -4.424236249178647995e-03
1.047000000000000000e+03 7.787249755859375000e+01 -3.155917739868164062e+01 6.079624220728874207e-02 7.368079185485839844e+00 2.228662490844726562e+00 1.119694039225578308e-01
1.048000000000000000e+03 7.928611755371093750e+01 -3.186286926269531250e+01 -5.104006081819534302e-02 7.748099803924560547e+00 2.309118032455444336e+00 3.157248347997665405e-02
1.049000000000000000e+03 7.920476531982421875e+01 -3.600344467163085938e+01 1.027924660593271255e-02 7.795438289642333984e+00 2.341715335845947266e+00 -4.676389321684837341e-02
1.050000000000000000e+03 7.906440734863281250e+01 -3.735172653198242188e+01 -3.578188829123973846e-03 7.867997169494628906e+00 2.359325647354125977e+00 -4.943113401532173157e-02
1.051000000000000000e+03 7.885350036621093750e+01 -3.870453262329101562e+01 1.869443804025650024e-02 7.944459915161132812e+00 2.388946294784545898e+00 -6.524922698736190796e-02
1.052000000000000000e+03 7.852079010009765625e+01 -4.010797500610351562e+01 -4.714009538292884827e-02 7.988153457641601562e+00 2.382303953170776367e+00 -3.375188633799552917e-02
1.053000000000000000e+03 2.755098724365234375e+01 4.098550796508789062e+01 -7.735239863395690918e-01 2.641556024551391602e+00 5.604096055030822754e-01 -6.974297761917114258e-02
1.054000000000000000e+03 4.714132690429687500e+01 3.876129150390625000e+01 -1.473520994186401367e+00 4.231933116912841797e+00 8.275236487388610840e-01 -5.440999269485473633e-01
1.055000000000000000e+03 3.810909986495971680e-01 2.165134906768798828e+00 -6.638511549681425095e-04 1.297551579773426056e-02 3.693499369546771049e-03 -2.529908204451203346e-03
1.056000000000000000e+03 2.629714488983154297e+00 2.896467447280883789e+00 -2.234751172363758087e-02 -1.525765191763639450e-02 -1.128154899924993515e-02 1.180391199886798859e-02
1.057000000000000000e+03 4.919046878814697266e+00 5.292031288146972656e+00 -1.135848984122276306e-01 -5.826121196150779724e-02 -5.155383422970771790e-02 1.125034913420677185e-01
1.058000000000000000e+03 1.584611058235168457e+00 4.908937454223632812e+00 -1.836138404905796051e-02 -3.811836987733840942e-02 -1.694392599165439606e-02 3.249413892626762390e-02
1.059000000000000000e+03 5.503841042518615723e-01 9.174304962158203125e+00 -3.223907900974154472e-03 -2.342060804367065430e-01 -7.122899591922760010e-02 4.476860165596008301e-02
1.060000000000000000e+03 5.849504470825195312e-01 1.196294593811035156e+01 -4.507176927290856838e-04 -5.214157700538635254e-01 -1.565599441528320312e-01 6.355237215757369995e-02
1.061000000000000000e+03 7.304405570030212402e-01 1.617466545104980469e+01 4.225857090204954147e-03 -9.681568145751953125e-01 -2.891792953014373779e-01 6.485109776258468628e-02
1.062000000000000000e+03 7.285423278808593750e-01 1.761560821533203125e+01 -1.908795209601521492e-03 -1.092720746994018555e+00 -3.283888697624206543e-01 6.430952250957489014e-02
1.063000000000000000e+03 6.239315271377563477e-01 2.190429878234863281e+01 4.557090345770120621e-03 -1.400170683860778809e+00 -4.186840653419494629e-01 3.394485637545585632e-02
1.064000000000000000e+03 3.524787664413452148e+00 2.476547813415527344e+01 1.689182668924331665e-01 -4.286796152591705322e-01 -7.792840152978897095e-02 -5.058866366744041443e-02
1.065000000000000000e+03 3.992299079895019531e+00 2.555791664123535156e+01 2.130045592784881592e-01 -2.428169250488281250e-01 -8.943712338805198669e-03 -1.414997577667236328e-01
1.066000000000000000e+03 1.842208027839660645e+00 3.016024780273437500e+01 -2.097498625516891479e-02 -6.927551031112670898e-01 -2.141190320253372192e-01 -2.453582584857940674e-01
1.067000000000000000e+03 6.088671684265136719e-01 3.036952018737792969e+01 6.396563723683357239e-03 -8.990544080734252930e-01 -2.677973508834838867e-01 -8.072425425052642822e-02
1.068000000000000000e+03 3.561520576477050781e+00 3.074668502807617188e+01 -3.679050132632255554e-02 -3.025052249431610107e-01 -1.017887145280838013e-01 -2.752728760242462158e-01
1.069000000000000000e+03 6.814466118812561035e-01 3.603572845458984375e+01 -1.183958165347576141e-02 -3.773930370807647705e-01 -1.167697831988334656e-01 -2.674134448170661926e-02
1.070000000000000000e+03 2.122867822647094727e+00 3.719749832153320312e+01 -2.415277808904647827e-02 -3.353478610515594482e-01 -1.078501939773559570e-01 -4.332920908927917480e-02
1.071000000000000000e+03 8.498946428298950195e-01 3.880849456787109375e+01 -3.538683056831359863e-03 -3.168476819992065430e-01 -9.611590951681137085e-02 -8.837203495204448700e-03
1.072000000000000000e+03 1.176455855369567871e+00 4.016481399536132812e+01 -1.205647597089409828e-03 -3.064365983009338379e-01 -9.229267388582229614e-02 -5.814940668642520905e-03
1.073000000000000000e+03 9.409848213195800781e+00 1.880003094673156738e+00 -1.703979969024658203e-01 -4.398671444505453110e-03 -5.243900045752525330e-02 6.880379468202590942e-02
1.074000000000000000e+03 8.674841880798339844e+00 1.868225455284118652e+00 -1.364341676235198975e-01 -1.132887881249189377e-02 -4.432891309261322021e-02 5.626514926552772522e-02
1.075000000000000000e+03 7.930680274963378906e+00 1.873333573341369629e+00 -1.117819771170616150e-01 -5.918207112699747086e-03 -3.531005606055259705e-02 4.787850379943847656e-02
1.076000000000000000e+03 7.179372310638427734e+00 1.882548332214355469e+00 -9.037832170724868774e-02 -1.147549040615558624e-02 -3.055614419281482697e-02 4.179331660270690918e-02
1.077000000000000000e+03 6.424126625061035156e+00 1.890225172042846680e+00 -7.185997813940048218e-02 -6.855459418147802353e-03 -2.361463010311126709e-02 3.357478976249694824e-02
1.078000000000000000e+03 5.666590213775634766e+00 1.896972298622131348e+00 -5.611922964453697205e-02 -1.115289982408285141e-02 -2.018163911998271942e-02 2.864814735949039459e-02
1.079000000000000000e+03 4.907988548278808594e+00 1.907843351364135742e+00 -4.104342684149742126e-02 -8.394135162234306335e-03 -1.483126915991306305e-02 2.034593373537063599e-02
1.080000000000000000e+03 4.149860858917236328e+00 1.924685478210449219e+00 -2.967000380158424377e-02 -1.097558252513408661e-02 -1.219367608428001404e-02 1.449481863528490067e-02
1.081000000000000000e+03 3.393480062484741211e+00 1.944753289222717285e+00 -1.910128630697727203e-02 -8.564631454646587372e-03 -8.299775421619415283e-03 6.774359848350286484e-03
1.082000000000000000e+03 1.890561699867248535e+00 1.993057608604431152e+00 -5.688683595508337021e-03 -6.289979908615350723e-03 -3.593598958104848862e-03 -2.281472086906433105e-03
1.083000000000000000e+03 1.137914657592773438e+00 2.067773342132568359e+00 -1.741115585900843143e-03 2.246214542537927628e-03 1.515296899015083909e-04 -5.861905403435230255e-03
1.084000000000000000e+03 1.141542339324951172e+01 8.313117027282714844e+00 -3.845269978046417236e-01 -3.699662685394287109e-01 -2.263479828834533691e-01 3.770106136798858643e-01
1.085000000000000000e+03 1.219865512847900391e+01 2.427249908447265625e+00 -4.041751921176910400e-01 3.219831502065062523e-03 -1.202866062521934509e-01 1.899393349885940552e-01
1.086000000000000000e+03 1.436805248260498047e+01 3.768785715103149414e+00 -5.565566420555114746e-01 3.189024329185485840e-02 -1.573999077081680298e-01 4.535236954689025879e-01
1.087000000000000000e+03 1.447095489501953125e+01 2.927318334579467773e+00 -7.139550447463989258e-01 3.707562014460563660e-02 -2.030638307332992554e-01 3.271130025386810303e-01
1.088000000000000000e+03 1.526158046722412109e+01 3.100354194641113281e+00 -8.182260990142822266e-01 1.527538802474737167e-02 -2.408852130174636841e-01 3.632373809814453125e-01
1.089000000000000000e+03 1.879276275634765625e+01 4.101312637329101562e+00 -5.020304918289184570e-01 -3.963911533355712891e-01 -2.695265114307403564e-01 4.031203091144561768e-01
1.090000000000000000e+03 1.863658905029296875e+01 3.316972494125366211e+00 -1.059094667434692383e+00 -3.726527392864227295e-01 -4.295242130756378174e-01 4.442602992057800293e-01
1.091000000000000000e+03 2.257324028015136719e+01 2.501651048660278320e+00 -1.371969819068908691e+00 -5.763658881187438965e-01 -5.845007300376892090e-01 1.009828567504882812e+00
1.092000000000000000e+03 2.112085342407226562e+01 3.671515703201293945e+00 -4.935031235218048096e-01 -6.763575673103332520e-01 -3.509581983089447021e-01 5.972187519073486328e-01
1.093000000000000000e+03 2.334420204162597656e+01 2.268933057785034180e+00 -1.463232398033142090e+00 -6.076366901397705078e-01 -6.212607026100158691e-01 1.125063180923461914e+00
1.094000000000000000e+03 2.408413314819335938e+01 2.026212692260742188e+00 -1.667735099792480469e+00 -4.915885329246520996e-01 -6.477971076965332031e-01 1.164900660514831543e+00
1.095000000000000000e+03 2.722209167480468750e+01 2.102680206298828125e+00 -3.503582179546356201e-01 9.774584174156188965e-01 1.881300508975982666e-01 2.746274769306182861e-01
1.096000000000000000e+03 2.631515502929687500e+01 2.930542707443237305e+00 4.343594610691070557e-01 5.822080373764038086e-01 3.049702346324920654e-01 3.808315396308898926e-01
1.097000000000000000e+03 2.862762069702148438e+01 8.034530282020568848e-01 -1.976103544235229492e+00 1.190797805786132812e+00 -2.355917543172836304e-01 -2.236784398555755615e-01
1.098000000000000000e+03 3.083451843261718750e+01 3.947196960449218750e+00 5.093993663787841797e+00 6.032732963562011719e+00 3.338017940521240234e+00 -5.976429462432861328e+00
1.099000000000000000e+03 3.061170959472656250e+01 3.564436733722686768e-01 -7.229381799697875977e-01 1.867907047271728516e+00 3.434906601905822754e-01 -2.089822530746459961e+00
1.100000000000000000e+03 2.971649932861328125e+01 1.041780829429626465e+00 -6.662388443946838379e-01 2.329135894775390625e+00 4.988691210746765137e-01 -1.688318848609924316e+00
1.101000000000000000e+03 3.117856025695800781e+01 4.100905954837799072e-01 2.856435179710388184e-01 1.699565172195434570e+00 5.955625772476196289e-01 -3.390251636505126953e+00
1.102000000000000000e+03 3.221046066284179688e+01 1.488139629364013672e+00 -1.187585949897766113e+00 5.474524021148681641e+00 1.286081433296203613e+00 -5.933307647705078125e+00
1.103000000000000000e+03 3.183117866516113281e+01 7.769539952278137207e-01 1.449618935585021973e+00 3.070701122283935547e+00 1.356096029281616211e+00 -5.871544361114501953e+00
1.104000000000000000e+03 3.226542663574218750e+01 9.637514948844909668e-01 1.419948577880859375e+00 4.929306030273437500e+00 1.904776334762573242e+00 -7.245946407318115234e+00
1.105000000000000000e+03 3.248756790161132812e+01 9.869117140769958496e-01 3.421636223793029785e-01 5.309159755706787109e+00 1.695397019386291504e+00 -7.056134223937988281e+00
1.106000000000000000e+03 3.345808792114257812e+01 1.153195142745971680e+00 -3.317847728729248047e+00 7.557522773742675781e+00 1.271902561187744141e+00 -4.913848400115966797e+00
1.107000000000000000e+03 3.475838470458984375e+01 3.925816714763641357e-01 4.132531642913818359e+00 2.827012300491333008e+00 2.087863206863403320e+00 2.880621433258056641e+00
1.108000000000000000e+03 3.496553802490234375e+01 -2.204370796680450439e-01 7.686143398284912109e+00 3.553889513015747070e+00 3.372009754180908203e+00 1.753539681434631348e+00
1.109000000000000000e+03 3.499338531494140625e+01 -6.595529317855834961e-01 7.730375289916992188e+00 4.841356754302978516e+00 3.771519660949707031e+00 2.464523017406463623e-01
1.110000000000000000e+03 3.496416091918945312e+01 -8.804941773414611816e-01 7.067118644714355469e+00 5.243970870971679688e+00 3.693326950073242188e+00 -7.124308347702026367e-01
1.111000000000000000e+03 3.469367980957031250e+01 -1.516376972198486328e+00 4.651678562164306641e+00 8.281979560852050781e+00 3.880097389221191406e+00 -2.062057495117187500e+00
1.112000000000000000e+03 3.267783737182617188e+01 -2.536073923110961914e+00 4.541369974613189697e-01 5.811655998229980469e+00 1.879737973213195801e+00 2.621871709823608398e+00
1.113000000000000000e+03 3.247270965576171875e+01 -2.638770580291748047e+00 5.350018143653869629e-01 5.082416057586669922e+00 1.685225367546081543e+00 2.474380731582641602e+00
1.114000000000000000e+03 3.066546630859375000e+01 -3.610947370529174805e+00 7.177104353904724121e-01 1.303861856460571289e+00 6.064716577529907227e-01 7.693228721618652344e-01
1.115000000000000000e+03 2.872716903686523438e+01 -3.089012622833251953e+00 5.224074721336364746e-01 3.156971931457519531e-01 2.514314055442810059e-01 -5.199272036552429199e-01
1.116000000000000000e+03 2.940935134887695312e+01 -3.164769172668457031e+00 4.095161259174346924e-01 -1.985929012298583984e-01 6.327696144580841064e-02 -1.088585555553436279e-01
1.117000000000000000e+03 3.063279533386230469e+01 -4.048847198486328125e+00 3.648389279842376709e-01 1.441549897193908691e+00 5.419166684150695801e-01 6.564707159996032715e-01
1.118000000000000000e+03 2.600799751281738281e+01 -1.309019184112548828e+01 -7.507427781820297241e-02 1.406327009201049805e+00 3.993758261203765869e-01 9.728372097015380859e-01
1.119000000000000000e+03 1.749580192565917969e+01 -9.786597251892089844e+00 -1.401444971561431885e-01 5.546434596180915833e-02 -2.540404535830020905e-02 6.038395315408706665e-02
1.120000000000000000e+03 1.733953666687011719e+01 -4.191547870635986328e+00 -8.240955066867172718e-04 2.075867801904678345e-01 6.202880665659904480e-02 5.379643663763999939e-02
1.121000000000000000e+03 1.603820610046386719e+01 -1.733352541923522949e+00 -1.021322682499885559e-01 4.965416714549064636e-02 -1.574343070387840271e-02 -4.433019459247589111e-02
1.122000000000000000e+03 1.920739173889160156e+01 -1.617807984352111816e+00 9.795483201742172241e-03 3.213831782341003418e-02 1.258013956248760223e-02 8.134102821350097656e-02
1.123000000000000000e+03 1.898738861083984375e+01 -4.467001557350158691e-01 -1.914463341236114502e-01 4.359067231416702271e-02 -4.435670003294944763e-02 -1.325356680899858475e-02
1.124000000000000000e+03 1.958825683593750000e+01 -6.184937357902526855e-01 -1.570124328136444092e-01 3.686312213540077209e-02 -3.604479506611824036e-02 1.844605430960655212e-02
1.125000000000000000e+03 1.815150451660156250e+01 -1.157443523406982422e+00 -1.021869629621505737e-01 4.118986427783966064e-02 -1.829913072288036346e-02 9.001615457236766815e-03
1.126000000000000000e+03 1.666033554077148438e+01 -5.882826447486877441e-01 -1.781535446643829346e-01 7.173119485378265381e-02 -3.192670270800590515e-02 -6.965242326259613037e-02
1.127000000000000000e+03 1.363967895507812500e+01 -1.175080180168151855e+00 -1.433316618204116821e-01 -2.889489987865090370e-03 -4.386634752154350281e-02 -7.510121911764144897e-02
1.128000000000000000e+03 1.594107723236083984e+01 -2.597589969635009766e+00 -2.428898960351943970e-02 5.463870614767074585e-02 9.104914963245391846e-03 -5.533441528677940369e-02
1.129000000000000000e+03 1.436160278320312500e+01 -1.038279652595520020e+00 -1.482556760311126709e-01 -3.239221870899200439e-02 -5.419436842203140259e-02 -7.710352540016174316e-02
1.130000000000000000e+03 1.135771751403808594e+01 -1.629423260688781738e+00 -1.013515964150428772e-01 -4.463554173707962036e-02 -4.379614070057868958e-02 -7.719466835260391235e-02
1.131000000000000000e+03 1.058052921295166016e+01 -1.775413155555725098e+00 -8.885536342859268188e-02 -1.808359287679195404e-02 -3.208168596029281616e-02 -7.091148197650909424e-02
1.132000000000000000e+03 5.504057312011718750e+01 -2.329219627380371094e+01 1.777354240417480469e+00 1.003156661987304688e+01 3.542676210403442383e+00 3.217152595520019531e+00
1.133000000000000000e+03 7.344268035888671875e+01 -1.801267623901367188e+01 5.998175740242004395e-01 6.776817321777343750e+00 2.212990522384643555e+00 -1.240794658660888672e+00
1.134000000000000000e+03 6.515153503417968750e+01 -2.311126899719238281e+01 3.368793725967407227e+00 1.202028179168701172e+01 4.616722583770751953e+00 -4.983371734619140625e+00
1.135000000000000000e+03 5.235721588134765625e+01 -7.454453945159912109e+00 2.385069370269775391e+00 8.017933845520019531e+00 3.120901107788085938e+00 -1.992982864379882812e+00
1.136000000000000000e+03 3.987306594848632812e+01 -1.250744247436523438e+01 1.988263279199600220e-01 2.827450990676879883e+00 9.078831672668457031e-01 -1.462628364562988281e+00
1.137000000000000000e+03 3.701038360595703125e+01 -1.037366294860839844e+01 2.475634574890136719e+00 8.285759925842285156e+00 3.228418350219726562e+00 -2.124387025833129883e+00
1.138000000000000000e+03 3.982911682128906250e+01 -3.089534282684326172e+00 -2.295377850532531738e-01 2.264104127883911133e+00 6.103699207305908203e-01 1.452571511268615723e+00
1.139000000000000000e+03 6.432693481445312500e+01 -3.971118545532226562e+01 -1.827709078788757324e+00 1.740071177482604980e+00 -2.629139646887779236e-02 6.872301697731018066e-01
1.140000000000000000e+03 5.622002029418945312e+01 -3.174839782714843750e+01 1.264718651771545410e+00 1.135776233673095703e+01 3.786744356155395508e+00 2.208019018173217773e+00
1.141000000000000000e+03 1.581038093566894531e+01 -1.693238449096679688e+01 6.086856126785278320e-02 3.796070218086242676e-01 1.321426779031753540e-01 -2.076839953660964966e-01
1.142000000000000000e+03 1.391982936859130859e+01 -2.793588638305664062e+01 8.002046942710876465e-01 1.198463797569274902e+00 5.996005535125732422e-01 7.382767200469970703e-01
1.143000000000000000e+03 7.768289089202880859e+00 -1.377626800537109375e+01 -2.059842497110366821e-01 -1.773740202188491821e-01 -1.150074824690818787e-01 -2.026821821928024292e-01
1.144000000000000000e+03 5.492535018920898438e+01 1.445899200439453125e+01 1.183129429817199707e+00 6.712658882141113281e+00 2.368736505508422852e+00 -9.627867341041564941e-01
1.145000000000000000e+03 5.461840820312500000e+01 8.993470191955566406e+00 1.364432334899902344e+00 1.423693943023681641e+01 4.680411338806152344e+00 3.212224245071411133e+00
1.146000000000000000e+03 4.216744995117187500e+01 6.774653911590576172e+00 1.489139795303344727e+00 8.337016105651855469e+00 2.947846889495849609e+00 8.153537511825561523e-01
1.147000000000000000e+03 1.758197593688964844e+01 1.787821006774902344e+01 4.014290124177932739e-02 -1.066284179687500000e-01 -1.994565688073635101e-02 1.328888237476348877e-01
1.148000000000000000e+03 1.957375144958496094e+01 3.961625099182128906e+00 -5.315050482749938965e-01 -6.035417318344116211e-01 -3.405140340328216553e-01 4.636073410511016846e-01
1.149000000000000000e+03 9.376468658447265625e+00 9.841695785522460938e+00 -2.825696766376495361e-01 -2.406321614980697632e-01 -1.569605469703674316e-01 2.697867453098297119e-01
1.150000000000000000e+03 1.006029987335205078e+01 1.557346534729003906e+01 2.823241949081420898e-01 6.227632164955139160e-01 2.715262174606323242e-01 3.598130941390991211e-01
1.151000000000000000e+03 3.890533447265625000e+01 -1.865411567687988281e+01 1.578224301338195801e+00 5.617238521575927734e+00 2.158638954162597656e+00 -2.546421289443969727e+00
1.152000000000000000e+03 3.958275604248046875e+01 -2.105031776428222656e+01 1.161217689514160156e+00 7.392250537872314453e+00 2.566040515899658203e+00 -1.173489332199096680e+00
1.153000000000000000e+03 3.618412017822265625e+01 -2.842182159423828125e+01 -3.690682649612426758e+00 5.727708935737609863e-01 -9.353735446929931641e-01 -4.995991885662078857e-01
1.154000000000000000e+03 3.024010086059570312e+01 -1.736573600769042969e+01 1.821789145469665527e+00 6.267010688781738281e+00 2.426640033721923828e+00 3.099344968795776367e+00
1.155000000000000000e+03 2.423870468139648438e+01 -3.006850624084472656e+01 -1.037294641137123108e-01 3.166886329650878906e+00 9.189470410346984863e-01 -3.159696161746978760e-01
1.156000000000000000e+03 2.501581954956054688e+01 -3.629038619995117188e+01 2.254544943571090698e-01 4.592114925384521484e+00 1.445270895957946777e+00 2.797765433788299561e-01
1.157000000000000000e+03 1.277542591094970703e+01 -3.370560455322265625e+01 1.542679965496063232e-01 1.899725317955017090e+00 6.161980032920837402e-01 2.426765710115432739e-01
1.158000000000000000e+03 1.303820419311523438e+01 -3.237025833129882812e+01 2.536516785621643066e-01 2.185815334320068359e+00 7.318400740623474121e-01 5.682008266448974609e-01
1.159000000000000000e+03 1.599262428283691406e+01 -2.747303581237792969e+01 1.351688742637634277e+00 1.226360201835632324e+00 7.734146714210510254e-01 1.117945909500122070e+00
1.160000000000000000e+03 1.251556873321533203e+01 3.511307525634765625e+01 -3.683009743690490723e-01 2.747016213834285736e-02 -1.022492498159408569e-01 2.530650421977043152e-02
1.161000000000000000e+03 1.398470020294189453e+01 3.483600997924804688e+01 -3.577023744583129883e-01 -2.366448007524013519e-02 -1.144100576639175415e-01 -7.322124671190977097e-03
1.162000000000000000e+03 1.510731792449951172e+01 3.414485549926757812e+01 -2.259711027145385742e-01 5.783290043473243713e-02 -5.044145882129669189e-02 2.845100685954093933e-02
1.163000000000000000e+03 1.993508529663085938e+01 3.187461090087890625e+01 3.152785897254943848e-01 2.595083951950073242e+00 8.731087446212768555e-01 -4.407539069652557373e-01
1.164000000000000000e+03 2.301152420043945312e+01 2.546199607849121094e+01 2.255643010139465332e-01 3.388738155364990234e+00 1.084290742874145508e+00 7.991731166839599609e-01
1.165000000000000000e+03 1.427392768859863281e+01 2.182542610168457031e+01 4.838112294673919678e-01 -6.808789074420928955e-02 1.247170045971870422e-01 -1.251934096217155457e-02
1.166000000000000000e+03 1.300565528869628906e+01 2.271178627014160156e+01 3.184387981891632080e-01 1.738328859210014343e-02 1.007466316223144531e-01 -5.079308990389108658e-03
1.167000000000000000e+03 5.846008777618408203e+00 2.669556427001953125e+01 2.407642006874084473e-01 8.005060553550720215e-01 3.123810589313507080e-01 -3.601720631122589111e-01
1.168000000000000000e+03 7.108957672119140625e+01 1.646551513671875000e+01 1.027369737625122070e+00 6.570617198944091797e+00 2.279396057128906250e+00 -2.410588026046752930e+00
1.169000000000000000e+03 7.288554382324218750e+01 1.130868339538574219e+01 1.746543765068054199e+00 1.201504230499267578e+01 4.128475666046142578e+00 9.872198104858398438e-01
1.170000000000000000e+03 6.458942413330078125e+01 6.202716350555419922e+00 -1.671297073364257812e+00 7.887550592422485352e-01 -2.647626101970672607e-01 -2.822967469692230225e-01
1.171000000000000000e+03 6.078100204467773438e+01 1.480309963226318359e+01 7.555776238441467285e-01 1.264107227325439453e+01 4.018994808197021484e+00 1.679655313491821289e+00
1.172000000000000000e+03 6.207315826416015625e+01 1.859635162353515625e+01 3.675197839736938477e+00 9.159822463989257812e+00 3.850506067276000977e+00 5.095914840698242188e+00
1.173000000000000000e+03 3.180541038513183594e+01 2.052344512939453125e+01 4.578593000769615173e-02 6.116870403289794922e+00 1.848796844482421875e+00 -1.383164972066879272e-01
1.174000000000000000e+03 3.226223754882812500e+01 1.696238327026367188e+01 8.039509654045104980e-01 4.182738304138183594e+00 1.496006846427917480e+00 2.924842238426208496e-01
1.175000000000000000e+03 2.244719886779785156e+01 1.892049217224121094e+01 8.374286293983459473e-01 4.740506649017333984e+00 1.673380613327026367e+00 -1.331456303596496582e+00
1.176000000000000000e+03 2.167445755004882812e+01 2.729440689086914062e+01 8.082152158021926880e-02 3.182686567306518555e+00 9.790524244308471680e-01 -6.175951566547155380e-03
1.177000000000000000e+03 4.795739364624023438e+01 3.030710411071777344e+01 9.555960297584533691e-01 6.606997489929199219e+00 2.268778085708618164e+00 4.044236540794372559e-01
1.178000000000000000e+03 4.610693359375000000e+01 2.624142456054687500e+01 1.188844561576843262e+00 1.149051952362060547e+01 3.803809165954589844e+00 1.600556135177612305e+00
1.179000000000000000e+03 4.351040649414062500e+01 2.236585998535156250e+01 -1.148356437683105469e+00 2.306224822998046875e+00 3.473605215549468994e-01 1.397495269775390625e+00
1.180000000000000000e+03 3.582905197143554688e+01 2.529367637634277344e+01 2.197802543640136719e+00 7.869230747222900391e+00 3.020109891891479492e+00 -3.070939540863037109e+00
1.181000000000000000e+03 6.583911132812500000e+01 2.758536338806152344e+01 2.030538797378540039e+00 5.172183036804199219e+00 2.160816431045532227e+00 1.416503906250000000e+00
1.182000000000000000e+03 5.973886108398437500e+01 2.350302696228027344e+01 -3.873734951019287109e+00 6.540305614471435547e-01 -9.659113287925720215e-01 2.263365834951400757e-01
1.183000000000000000e+03 5.508854293823242188e+01 3.387284088134765625e+01 1.444157481193542480e+00 4.639100551605224609e+00 1.824977397918701172e+00 2.558578014373779297e+00
1.184000000000000000e+03 7.936408996582031250e+01 -9.778918266296386719e+00 1.225509271025657654e-01 8.695372581481933594e+00 2.645377159118652344e+00 -5.186557173728942871e-01
1.185000000000000000e+03 6.536616516113281250e+01 -8.333175659179687500e+00 1.812457323074340820e+00 1.071407794952392578e+01 3.757960557937622070e+00 -2.230756998062133789e+00
1.186000000000000000e+03 6.385761642456054688e+01 -5.600244522094726562e+00 1.857726693153381348e+00 9.594178199768066406e+00 3.435571432113647461e+00 -3.259346187114715576e-01
1.187000000000000000e+03 3.949096298217773438e+01 7.517308712005615234e+00 1.049630045890808105e+00 1.441825294494628906e+01 4.640365123748779297e+00 -1.172800898551940918e+00
1.188000000000000000e+03 2.790230560302734375e+01 1.105411171913146973e+00 -1.868519186973571777e+00 7.542897462844848633e-01 -3.342688381671905518e-01 1.488858610391616821e-01
1.189000000000000000e+03 3.028320312500000000e+01 1.063695049285888672e+01 1.086044907569885254e+00 3.037096023559570312e+00 1.236942291259765625e+00 1.543640255928039551e+00
1.190000000000000000e+03 4.711613845825195312e+01 -3.696872329711914062e+01 -1.048501849174499512e+00 1.376522064208984375e+00 9.840606153011322021e-02 5.290341377258300781e-02
1.191000000000000000e+03 6.040011978149414062e+01 -2.125563859939575195e+00 2.586251735687255859e+00 8.521953582763671875e+00 3.332461595535278320e+00 -3.905960559844970703e+00
1.192000000000000000e+03 5.446537399291992188e+01 -8.919131278991699219e+00 2.276555061340332031e+00 3.240308523178100586e+00 1.655059099197387695e+00 -2.771771669387817383e+00
1.193000000000000000e+03 5.240371322631835938e+01 -4.907030582427978516e+00 6.803221702575683594e-01 1.171493530273437500e+01 3.718577146530151367e+00 -1.201867535710334778e-01
1.194000000000000000e+03 3.283525085449218750e+01 1.022209644317626953e+00 -1.218226075172424316e+00 7.438736915588378906e+00 1.866153240203857422e+00 -7.380680561065673828e+00
1.195000000000000000e+03 3.174083709716796875e+01 3.021575450897216797e+00 4.585900783538818359e+00 5.814417362213134766e+00 3.120095491409301758e+00 -5.035696506500244141e+00
1.196000000000000000e+03 3.134293365478515625e+01 4.887209832668304443e-01 7.727707028388977051e-01 1.836084008216857910e+00 7.826564311981201172e-01 -3.706112146377563477e+00
1.197000000000000000e+03 3.107556533813476562e+01 5.655334591865539551e-01 2.295204699039459229e-01 2.347179889678955078e+00 7.730101346969604492e-01 -3.140362739562988281e+00
1.198000000000000000e+03 3.166343879699707031e+01 6.534395813941955566e-01 1.170315861701965332e+00 2.802936553955078125e+00 1.191975712776184082e+00 -5.105168342590332031e+00
1.199000000000000000e+03 3.012687492370605469e+01 1.188832044601440430e+00 -3.848777413368225098e-01 3.454320669174194336e+00 9.208328723907470703e-01 -2.536028385162353516e+00
1.200000000000000000e+03 3.258563995361328125e+01 1.392379283905029297e+00 -1.334034442901611328e+00 7.074295520782470703e+00 1.722078323364257812e+00 -6.475556373596191406e+00
1.201000000000000000e+03 3.151581954956054688e+01 5.552529096603393555e-01 1.147033333778381348e+00 1.908652186393737793e+00 9.167056679725646973e-01 -4.346150398254394531e+00
1.202000000000000000e+03 3.673945617675781250e+01 -6.872919082641601562e+00 1.655562520027160645e+00 1.064093208312988281e+01 3.688948392868041992e+00 1.369004249572753906e+00
1.203000000000000000e+03 3.424138259887695312e+01 7.948670983314514160e-01 -2.044364213943481445e-01 3.916221857070922852e+00 1.113535642623901367e+00 7.830455899238586426e-01
1.204000000000000000e+03 3.490250015258789062e+01 -1.818603277206420898e+00 3.615615129470825195e+00 8.074254035949707031e+00 3.506960868835449219e+00 -1.480572342872619629e+00
1.205000000000000000e+03 3.439682388305664062e+01 6.841152906417846680e-01 1.998745203018188477e+00 2.992286205291748047e+00 1.497309446334838867e+00 1.648273110389709473e+00
1.206000000000000000e+03 3.315711212158203125e+01 1.407676815986633301e+00 -1.410971760749816895e+00 6.842935085296630859e+00 1.629588961601257324e+00 -6.130760669708251953e+00
1.207000000000000000e+03 3.420553970336914062e+01 1.465910553932189941e+00 -1.101253223419189453e+01 -6.128498911857604980e-02 -3.322145223617553711e+00 5.182521343231201172e-01
1.208000000000000000e+03 3.499515914916992188e+01 -4.394378364086151123e-01 7.666109085083007812e+00 3.821126699447631836e+00 3.446170806884765625e+00 1.010516047477722168e+00
1.209000000000000000e+03 3.311908340454101562e+01 2.003716707229614258e+00 -1.863400220870971680e+00 3.806563138961791992e+00 5.829488635063171387e-01 -2.587393760681152344e+00
1.210000000000000000e+03 3.661879730224609375e+01 -2.285238504409790039e-01 3.154467105865478516e+00 3.831967353820800781e+00 2.095930337905883789e+00 4.367964267730712891e+00
1.211000000000000000e+03 3.482875823974609375e+01 1.846957355737686157e-01 6.308370590209960938e+00 3.342147827148437500e+00 2.895155429840087891e+00 2.990914821624755859e+00
1.212000000000000000e+03 3.917945861816406250e+01 -4.148120880126953125e+00 2.711715996265411377e-01 2.412686586380004883e+00 8.051574826240539551e-01 1.483297228813171387e+00
1.213000000000000000e+03 3.408234786987304688e+01 9.534647464752197266e-01 -5.588162541389465332e-01 4.544785022735595703e+00 1.195790648460388184e+00 -1.015909671783447266e+00
1.214000000000000000e+03 3.461828613281250000e+01 5.778213739395141602e-01 2.659814596176147461e+00 2.764763355255126953e+00 1.627373456954956055e+00 2.960663318634033203e+00
1.215000000000000000e+03 2.975180053710937500e+01 -5.564493656158447266e+00 1.470858454704284668e-01 1.409300088882446289e+00 4.669157564640045166e-01 4.654358625411987305e-01
1.216000000000000000e+03 3.357308578491210938e+01 -2.166422843933105469e+00 1.003241762518882751e-01 1.040408706665039062e+01 3.151323318481445312e+00 1.265643596649169922e+00
1.217000000000000000e+03 3.295583724975585938e+01 -2.748115301132202148e+00 1.362373232841491699e-01 7.039182186126708984e+00 2.152625799179077148e+00 2.267847061157226562e+00
1.218000000000000000e+03 3.223603057861328125e+01 -2.937290668487548828e+00 4.713501930236816406e-01 4.191129684448242188e+00 1.398743867874145508e+00 2.235740184783935547e+00
1.219000000000000000e+03 3.186353874206542969e+01 -2.828189134597778320e+00 6.413266062736511230e-01 2.905217170715332031e+00 1.063963174819946289e+00 1.968602299690246582e+00
1.220000000000000000e+03 3.147117996215820312e+01 -3.043695688247680664e+00 5.854390859603881836e-01 2.048231124877929688e+00 7.901010513305664062e-01 1.503629565238952637e+00
1.221000000000000000e+03 1.293220996856689453e+01 2.573657512664794922e+00 -4.911451041698455811e-01 1.715635508298873901e-02 -1.421966254711151123e-01 2.267588376998901367e-01
1.222000000000000000e+03 1.205722332000732422e+01 3.288936853408813477e+00 -3.635533452033996582e-01 -4.416852071881294250e-02 -1.223165616393089294e-01 2.520214319229125977e-01
1.223000000000000000e+03 1.062092685699462891e+01 2.922922611236572266e+00 -2.673025131225585938e-01 -4.485329613089561462e-02 -9.364674985408782959e-02 1.602405905723571777e-01
1.224000000000000000e+03 9.961670875549316406e+00 2.719381570816040039e+00 -2.335287928581237793e-01 -2.243841066956520081e-02 -7.679016143083572388e-02 1.246535703539848328e-01
1.225000000000000000e+03 1.509759426116943359e+01 -9.125347733497619629e-01 -1.645862311124801636e-01 2.826596423983573914e-02 -4.089608043432235718e-02 -7.051634788513183594e-02
1.226000000000000000e+03 1.289658641815185547e+01 -1.324615359306335449e+00 -1.293131262063980103e-01 -4.143264144659042358e-02 -5.122372880578041077e-02 -8.229474723339080811e-02
1.227000000000000000e+03 1.418040275573730469e+01 -3.300054550170898438e+00 -4.464524984359741211e-02 -3.188879461959004402e-03 -1.435023825615644455e-02 -6.446483731269836426e-02
1.228000000000000000e+03 1.679934501647949219e+01 -2.810271978378295898e+00 -3.535707294940948486e-02 8.909917622804641724e-02 1.612262986600399017e-02 1.932809245772659779e-04
1.229000000000000000e+03 9.302954673767089844e+00 2.615336894989013672e+00 -1.935809850692749023e-01 -2.676658332347869873e-02 -6.610427051782608032e-02 9.843315184116363525e-02
1.230000000000000000e+03 7.899081707000732422e+00 2.628755569458007812e+00 -1.419446170330047607e-01 -2.160872891545295715e-02 -4.906600341200828552e-02 7.242684811353683472e-02
1.231000000000000000e+03 7.158686637878417969e+00 2.652750968933105469e+00 -1.210032105445861816e-01 -1.489190850406885147e-02 -4.076853767037391663e-02 6.164355948567390442e-02
1.232000000000000000e+03 6.406319618225097656e+00 2.669742584228515625e+00 -1.010849401354789734e-01 -1.966825686395168304e-02 -3.622595965862274170e-02 5.453319847583770752e-02
1.233000000000000000e+03 5.649379730224609375e+00 2.681859493255615234e+00 -8.162605017423629761e-02 -1.479415874928236008e-02 -2.892606332898139954e-02 4.461244866251945496e-02
1.234000000000000000e+03 1.643774032592773438e+00 7.619555473327636719e+00 -2.273543737828731537e-02 -1.405771672725677490e-01 -4.899378120899200439e-02 9.633386135101318359e-02
1.235000000000000000e+03 4.903342247009277344e+00 3.481893777847290039e+00 -8.266511559486389160e-02 -2.449272014200687408e-02 -3.214735165238380432e-02 5.529078841209411621e-02
1.236000000000000000e+03 1.242819666862487793e+00 3.173429489135742188e+00 -6.952480413019657135e-03 -6.093887612223625183e-03 -3.913910593837499619e-03 3.440244589000940323e-03
1.237000000000000000e+03 2.641813278198242188e+00 1.964526295661926270e+00 -1.300556492060422897e-02 -7.769621908664703369e-03 -6.232555955648422241e-03 2.029421040788292885e-03
1.238000000000000000e+03 1.918597102165222168e+00 2.925557374954223633e+00 -1.607878319919109344e-02 -1.167386490851640701e-02 -8.325794711709022522e-03 6.846236065030097961e-03
1.239000000000000000e+03 1.897630119323730469e+01 -1.022132515907287598e+00 -7.458144426345825195e-02 7.080207020044326782e-02 -1.133811892941594124e-03 -1.694653555750846863e-02
1.240000000000000000e+03 1.822524261474609375e+01 -4.346203207969665527e-01 -2.086396515369415283e-01 5.488794669508934021e-02 -4.612551257014274597e-02 -3.954654932022094727e-02
1.241000000000000000e+03 1.609107398986816406e+01 3.212873220443725586e+00 -9.194037914276123047e-01 4.166325554251670837e-03 -2.745712399482727051e-01 3.667838871479034424e-01
1.242000000000000000e+03 1.276805019378662109e+01 4.136450290679931641e+00 -3.431060612201690674e-01 -1.072423905134201050e-01 -1.351045370101928711e-01 3.652131557464599609e-01
1.243000000000000000e+03 1.357283592224121094e+01 3.535792589187622070e+00 -4.855175912380218506e-01 -3.387687262147665024e-03 -1.466715782880783081e-01 3.980841934680938721e-01
1.244000000000000000e+03 1.613259124755859375e+01 4.084557533264160156e+00 -6.291135549545288086e-01 9.880646830424666405e-04 -1.884376555681228638e-01 4.753935337066650391e-01
1.245000000000000000e+03 1.131874942779541016e+01 3.142517089843750000e+00 -3.220050036907196045e-01 -3.269864618778228760e-02 -1.064110919833183289e-01 2.156475335359573364e-01
1.246000000000000000e+03 4.973757743835449219e+00 -2.900470972061157227e+00 -1.005420647561550140e-02 -1.469828560948371887e-02 -7.425747811794281006e-03 -1.735828444361686707e-02
1.247000000000000000e+03 7.488356590270996094e+00 -2.678782701492309570e+00 -3.229972347617149353e-02 -3.111130371689796448e-02 -1.902330853044986725e-02 -5.202439427375793457e-02
1.248000000000000000e+03 5.853839874267578125e+00 -1.935883760452270508e+00 -1.893870905041694641e-02 -6.444133352488279343e-03 -7.614852860569953918e-03 -1.896889694035053253e-02
1.249000000000000000e+03 8.222968101501464844e+00 -1.879470705986022949e+00 -5.089972913265228271e-02 -2.595501206815242767e-02 -2.305642142891883850e-02 -5.153619870543479919e-02
1.250000000000000000e+03 9.141207695007324219e+00 -3.426700353622436523e+00 -3.430489078164100647e-02 -3.478539362549781799e-02 -2.072708681225776672e-02 -7.223863154649734497e-02
1.251000000000000000e+03 6.651617527008056641e+00 -1.910767793655395508e+00 -2.800439484417438507e-02 -1.845912262797355652e-02 -1.393905561417341232e-02 -3.252282738685607910e-02
1.252000000000000000e+03 8.275297164916992188e+00 -2.648813962936401367e+00 -4.027645662426948547e-02 -2.140114270150661469e-02 -1.850328035652637482e-02 -5.682340636849403381e-02
1.253000000000000000e+03 2.504437446594238281e+00 -2.554407358169555664e+00 -6.078661885112524033e-03 -7.872790098190307617e-03 -4.185435827821493149e-03 -9.400131530128419399e-04
1.254000000000000000e+03 1.314592242240905762e+00 -2.079133987426757812e+00 -5.305044469423592091e-04 4.374668933451175690e-03 1.153249293565750122e-03 3.395133651793003082e-03
1.255000000000000000e+03 7.038053870201110840e-01 -5.072812080383300781e+00 -7.320614531636238098e-03 6.217041984200477600e-03 -3.310717875137925148e-04 1.244188169948756695e-04
1.256000000000000000e+03 9.867131233215332031e+00 -2.601328134536743164e+00 -5.644624680280685425e-02 -2.612132020294666290e-02 -2.477027103304862976e-02 -7.346229255199432373e-02
1.257000000000000000e+03 2.707233238220214844e+01 1.302580237388610840e+00 -1.890657186508178711e+00 4.985563755035400391e-01 -4.176302254199981689e-01 6.539347171783447266e-01
1.258000000000000000e+03 2.098518562316894531e+01 2.877813816070556641e+00 -1.270567655563354492e+00 -5.192537307739257812e-01 -5.369464159011840820e-01 7.307701706886291504e-01
1.259000000000000000e+03 2.552305984497070312e+01 1.609264016151428223e+00 -1.905571699142456055e+00 -1.738801151514053345e-01 -6.238355040550231934e-01 1.090468883514404297e+00
1.260000000000000000e+03 2.910761833190917969e+01 1.093244075775146484e+00 -1.205633640289306641e+00 1.829962730407714844e+00 1.872987151145935059e-01 -9.925091862678527832e-01
1.261000000000000000e+03 2.991454696655273438e+01 4.286610186100006104e-01 -1.754379630088806152e+00 1.828030467033386230e+00 2.209523133933544159e-02 -1.235057592391967773e+00
1.262000000000000000e+03 2.504420852661132812e+01 2.366840124130249023e+00 -8.593617081642150879e-01 -2.142269909381866455e-01 -3.220766186714172363e-01 1.001322031021118164e+00
1.263000000000000000e+03 2.815140724182128906e+01 1.954101085662841797e+00 -2.618007957935333252e-01 1.974733829498291016e+00 5.138798952102661133e-01 -5.556362271308898926e-01
1.264000000000000000e+03 2.035121154785156250e+01 3.806744575500488281e+00 -5.705543160438537598e-01 -5.838645696640014648e-01 -3.463256657123565674e-01 5.418274402618408203e-01
1.265000000000000000e+03 1.943835258483886719e+01 3.224780797958374023e+00 -1.084768772125244141e+00 -4.851740300655364990e-01 -4.709828197956085205e-01 5.188296437263488770e-01
1.266000000000000000e+03 2.289963340759277344e+01 3.318793058395385742e+00 -3.251810967922210693e-01 -6.561541557312011719e-01 -2.944005727767944336e-01 8.066874146461486816e-01
1.267000000000000000e+03 2.444386672973632812e+01 2.684017181396484375e+00 -5.731256604194641113e-01 -4.703229069709777832e-01 -3.130345642566680908e-01 9.540670514106750488e-01
1.268000000000000000e+03 2.904856491088867188e+01 1.793974041938781738e+00 -4.746946319937705994e-02 2.388600826263427734e+00 7.023394107818603516e-01 -1.310073614120483398e+00
1.269000000000000000e+03 2.636065483093261719e+01 2.191463708877563477e+00 -5.752860903739929199e-01 3.332740664482116699e-01 -7.260360568761825562e-02 5.802378654479980469e-01
1.270000000000000000e+03 2.107024574279785156e+01 5.495571613311767578e+00 6.197051405906677246e-01 -6.033701300621032715e-01 4.900508560240268707e-03 1.800622344017028809e-01
1.271000000000000000e+03 3.101667976379394531e+01 3.691032528877258301e-01 -1.695590279996395111e-02 1.622730731964111328e+00 4.817324578762054443e-01 -2.612863302230834961e+00
1.272000000000000000e+03 3.136675834655761719e+01 1.033867001533508301e+00 7.200374007225036621e-01 3.454618930816650391e+00 1.252396941184997559e+00 -4.851791858673095703e+00
1.273000000000000000e+03 1.792246437072753906e+01 5.085031509399414062e+00 -7.691638916730880737e-02 -2.735702395439147949e-01 -1.051459833979606628e-01 2.856951653957366943e-01
1.274000000000000000e+03 1.444117736816406250e+01 -1.853189110755920410e+00 -1.026569008827209473e-01 1.051578670740127563e-02 -2.764233388006687164e-02 -6.751894950866699219e-02
1.275000000000000000e+03 1.066378116607666016e+01 -2.526821136474609375e+00 -6.298423558473587036e-02 -4.501233249902725220e-02 -3.239897266030311584e-02 -8.230496197938919067e-02
1.276000000000000000e+03 1.297183036804199219e+01 -2.116757392883300781e+00 -8.944538235664367676e-02 -1.409038994461297989e-02 -3.106073103845119476e-02 -7.715949416160583496e-02
1.277000000000000000e+03 1.545178508758544922e+01 -4.737448215484619141e+00 1.472188532352447510e-02 7.645431905984878540e-02 2.735286019742488861e-02 -4.819251596927642822e-03
1.278000000000000000e+03 1.794993400573730469e+01 4.205433845520019531e+00 -5.234600305557250977e-01 -2.741115391254425049e-01 -2.392714768648147583e-01 3.925669193267822266e-01
1.279000000000000000e+03 1.710313987731933594e+01 4.957131862640380859e+00 -3.109352588653564453e-01 2.849329076707363129e-02 -8.473259210586547852e-02 4.106830358505249023e-01
1.280000000000000000e+03 1.744180488586425781e+01 5.753019332885742188e+00 2.320542186498641968e-01 -3.255328163504600525e-02 5.985027924180030823e-02 2.631459832191467285e-01
1.281000000000000000e+03 1.511677265167236328e+01 6.670737266540527344e+00 4.722150564193725586e-01 9.249342232942581177e-02 1.694125384092330933e-01 2.893061339855194092e-01
1.282000000000000000e+03 2.975910186767578125e+01 -4.641349315643310547e+00 -9.506688266992568970e-02 6.316863298416137695e-01 1.609858274459838867e-01 2.979350686073303223e-01
1.283000000000000000e+03 1.815198135375976562e+01 -1.963878750801086426e+00 -1.157593540847301483e-02 1.333435773849487305e-01 3.653029352426528931e-02 1.665102504193782806e-02
1.284000000000000000e+03 1.519223594665527344e+01 -1.777066111564636230e+00 -9.771683067083358765e-02 -9.082134813070297241e-03 -3.203969076275825500e-02 -7.822740823030471802e-02
1.285000000000000000e+03 3.997942352294921875e+01 -2.352411842346191406e+01 1.285464286804199219e+00 9.500537872314453125e+00 3.235800504684448242e+00 1.496653437614440918e+00
1.286000000000000000e+03 4.810684967041015625e+01 -2.607782554626464844e+01 -1.424343228340148926e+00 4.868488311767578125e+00 1.033243536949157715e+00 -3.213625192642211914e+00
1.287000000000000000e+03 4.734415054321289062e+01 2.482787704467773438e+01 2.267043828964233398e+00 6.820524215698242188e+00 2.726270437240600586e+00 1.179600954055786133e+00
1.288000000000000000e+03 5.252238082885742188e+01 2.953674888610839844e+01 1.187304735183715820e+00 8.607722282409667969e+00 2.938508033752441406e+00 1.055573344230651855e+00
1.289000000000000000e+03 4.759967803955078125e+01 2.886192321777343750e+01 1.398978948593139648e+00 7.058635234832763672e+00 2.537284374237060547e+00 5.212088227272033691e-01
1.290000000000000000e+03 1.822464179992675781e+01 -2.235571479797363281e+01 7.440063953399658203e-01 1.231020092964172363e-01 2.601325213909149170e-01 7.622905373573303223e-01
1.291000000000000000e+03 1.465510082244873047e+01 -2.133572959899902344e+01 5.218026041984558105e-01 4.486007690429687500e-01 2.911210358142852783e-01 3.906655013561248779e-01
1.292000000000000000e+03 2.967096328735351562e+01 2.696874046325683594e+01 1.212784647941589355e+00 1.614073991775512695e+00 8.480575680732727051e-01 -1.303836941719055176e+00
1.293000000000000000e+03 3.198545837402343750e+01 3.181443023681640625e+01 7.417801022529602051e-02 4.166593551635742188e+00 1.272231459617614746e+00 -1.180130481719970703e+00
1.294000000000000000e+03 4.661497116088867188e+01 -1.211915206909179688e+01 1.326009154319763184e+00 6.104973316192626953e+00 2.229294776916503906e+00 3.504202127456665039e+00
1.295000000000000000e+03 5.103521728515625000e+01 -9.510890007019042969e+00 2.108591556549072266e+00 6.556371688842773438e+00 2.599488973617553711e+00 -9.189413189888000488e-01
1.296000000000000000e+03 3.306873703002929688e+01 1.603777885437011719e+01 6.778481602668762207e-02 2.563620090484619141e+00 7.894214391708374023e-01 -7.615923285484313965e-01
1.297000000000000000e+03 3.118395805358886719e+01 1.626609992980957031e+01 6.555108428001403809e-01 3.649384975433349609e+00 1.291468739509582520e+00 1.175654888153076172e+00
1.298000000000000000e+03 6.073746109008789062e+01 3.587391662597656250e+01 -1.954048514366149902e+00 8.621968030929565430e-01 -3.275555074214935303e-01 -4.192057624459266663e-02
1.299000000000000000e+03 6.188751220703125000e+01 3.482026672363281250e+01 -1.012196302413940430e+00 9.742934107780456543e-01 -1.137088891118764877e-02 -5.839694738388061523e-01
1.300000000000000000e+03 4.932119750976562500e+01 -3.546048736572265625e+01 6.313665509223937988e-01 6.866376876831054688e+00 2.249322891235351562e+00 1.627694368362426758e+00
1.301000000000000000e+03 4.266448211669921875e+01 -4.103701019287109375e+01 -1.244841217994689941e+00 3.512968122959136963e-01 -2.680633068084716797e-01 -2.079776525497436523e-01
1.302000000000000000e+03 3.684043884277343750e+01 -4.116701126098632812e+01 -1.620167374610900879e+00 2.973429441452026367e+00 4.059786200523376465e-01 6.073321774601936340e-02
1.303000000000000000e+03 3.888679504394531250e+01 -3.423726272583007812e+01 1.149491667747497559e+00 7.438475608825683594e+00 2.576390027999877930e+00 3.877313435077667236e-01
1.304000000000000000e+03 5.333894729614257812e+01 -3.597364044189453125e+01 6.356178522109985352e-01 7.181493282318115234e+00 2.345133304595947266e+00 1.905077844858169556e-01
1.305000000000000000e+03 4.957191848754882812e+01 -2.983586883544921875e+01 2.260555028915405273e+00 6.201720714569091797e+00 2.538682699203491211e+00 -2.108575820922851562e+00
1.306000000000000000e+03 4.761826324462890625e+01 -7.975678920745849609e+00 1.693926215171813965e+00 1.184123802185058594e+01 4.060549259185791016e+00 -2.189064025878906250e+00
1.307000000000000000e+03 5.809473419189453125e+01 4.109190750122070312e+01 -4.434849619865417480e-01 2.164185285568237305e+00 5.162101387977600098e-01 3.015224933624267578e-01
1.308000000000000000e+03 5.896388244628906250e+01 3.616659164428710938e+01 -2.091779947280883789e+00 3.135719299316406250e-01 -5.334624052047729492e-01 3.843237459659576416e-01
1.309000000000000000e+03 1.984210968017578125e+01 2.914282608032226562e+01 1.438109278678894043e-01 4.310746192932128906e+00 1.336367130279541016e+00 -2.651730775833129883e-01
1.310000000000000000e+03 1.600138854980468750e+01 -2.293874168395996094e+01 2.940440475940704346e-01 4.390841424465179443e-01 2.199384570121765137e-01 6.980876922607421875e-01
1.311000000000000000e+03 1.838280296325683594e+01 -2.524947547912597656e+01 1.604029387235641479e-01 1.496333777904510498e-01 9.301089495420455933e-02 1.194282650947570801e+00
1.312000000000000000e+03 4.364907455444335938e+01 -2.756300163269042969e+01 -6.533904075622558594e+00 -4.272445738315582275e-01 -2.088344573974609375e+00 1.108260974287986755e-01
1.313000000000000000e+03 4.106572723388671875e+01 -3.281978368759155273e+00 -1.564802527427673340e+00 1.813331693410873413e-01 -4.150408208370208740e-01 1.045029163360595703e-01
1.314000000000000000e+03 4.340427780151367188e+01 -1.295427799224853516e+00 1.393157005310058594e+00 2.980842351913452148e+00 1.312199831008911133e+00 -2.022115468978881836e+00
1.315000000000000000e+03 4.226797866821289062e+01 -1.535458683967590332e+00 1.343193411827087402e+00 1.909074187278747559e+00 9.756802916526794434e-01 -9.848514795303344727e-01
1.316000000000000000e+03 3.452392959594726562e+01 -1.169630336761474609e+01 1.176165938377380371e+00 3.154982089996337891e+00 1.299344420433044434e+00 1.372032999992370605e+00
1.317000000000000000e+03 3.662714767456054688e+01 -1.162868785858154297e+01 2.090082168579101562e-01 5.337344169616699219e+00 1.663905739784240723e+00 -8.007203340530395508e-01
1.318000000000000000e+03 2.126960754394531250e+01 1.604333496093750000e+01 -2.388628870248794556e-01 3.003487586975097656e+00 8.293873667716979980e-01 -1.153868138790130615e-01
1.319000000000000000e+03 3.189880943298339844e+01 2.294710731506347656e+01 3.498951494693756104e-01 6.971376419067382812e+00 2.196381330490112305e+00 -5.804105997085571289e-01
1.320000000000000000e+03 3.373321914672851562e+01 2.318466377258300781e+01 4.810983240604400635e-01 6.161520004272460938e+00 1.992785573005676270e+00 -6.047021746635437012e-01
1.321000000000000000e+03 4.242490768432617188e+01 -2.771283912658691406e+01 -5.216296195983886719e+00 6.151355430483818054e-02 -1.546434879302978516e+00 -3.104888796806335449e-01
1.322000000000000000e+03 2.138950157165527344e+01 3.148665618896484375e+01 3.182203471660614014e-01 2.454310894012451172e+00 8.317593336105346680e-01 1.411821097135543823e-01
1.323000000000000000e+03 2.832776451110839844e+01 1.505150318145751953e+01 -3.859933614730834961e+00 1.487255096435546875e-01 -1.113362431526184082e+00 1.350903958082199097e-01
1.324000000000000000e+03 3.167872238159179688e+01 1.369398403167724609e+01 -2.460515975952148438e+00 2.095510959625244141e+00 -1.095014438033103943e-01 1.020537376403808594e+00
1.325000000000000000e+03 3.657910156250000000e+01 1.651814460754394531e+01 5.547727942466735840e-01 2.493767023086547852e+00 9.145619273185729980e-01 -2.499381542205810547e+00
1.326000000000000000e+03 3.759931182861328125e+01 -6.086012840270996094e+00 1.871749401092529297e+00 1.048458194732666016e+01 3.706899404525756836e+00 2.906489372253417969e+00
1.327000000000000000e+03 3.565510940551757812e+01 -7.313114643096923828e+00 2.057907819747924805e+00 8.317619323730468750e+00 3.112658262252807617e+00 3.057871460914611816e-01
1.328000000000000000e+03 2.211956405639648438e+01 2.026939392089843750e+01 5.807067751884460449e-01 5.689003467559814453e+00 1.880913138389587402e+00 -6.924486160278320312e-01
1.329000000000000000e+03 1.996652603149414062e+01 1.842820739746093750e+01 3.365786075592041016e-01 2.164047241210937500e+00 7.501878142356872559e-01 -1.766488403081893921e-01
1.330000000000000000e+03 3.681742095947265625e+01 -1.263692951202392578e+01 -1.040804624557495117e+00 4.824578285217285156e+00 1.135132074356079102e+00 -1.405320525169372559e+00
1.331000000000000000e+03 3.684214401245117188e+01 -5.411673069000244141e+00 9.383900761604309082e-01 8.285861015319824219e+00 2.767275333404541016e+00 6.897686719894409180e-01
1.332000000000000000e+03 4.477070999145507812e+01 -1.435399150848388672e+01 -3.407129526138305664e+00 2.730118751525878906e+00 -2.031032145023345947e-01 2.281925678253173828e+00
1.333000000000000000e+03 4.413385391235351562e+01 -1.342440509796142578e+01 -5.669099807739257812e+00 3.922912180423736572e-01 -1.583042621612548828e+00 -3.671307563781738281e-01
1.334000000000000000e+03 3.045480537414550781e+01 2.783370399475097656e+01 1.087188959121704102e+00 2.825152635574340820e+00 1.173702478408813477e+00 -1.474754810333251953e+00
1.335000000000000000e+03 3.742812728881835938e+01 2.306619262695312500e+01 5.731157064437866211e-01 2.576789617538452148e+00 9.449716210365295410e-01 -1.722218751907348633e+00
1.336000000000000000e+03 3.134216117858886719e+01 2.685264205932617188e+01 1.052447557449340820e+00 4.264290332794189453e+00 1.595021367073059082e+00 -1.390440940856933594e+00
1.337000000000000000e+03 4.727866744995117188e+01 -1.389317512512207031e+01 -2.968983411788940430e+00 6.637549877166748047e+00 1.100569844245910645e+00 2.830204486846923828e+00
1.338000000000000000e+03 3.197834396362304688e+01 -2.729931068420410156e+01 -9.377077817916870117e-01 6.425433158874511719e-01 -8.854933083057403564e-02 1.961560994386672974e-01
1.339000000000000000e+03 2.664553070068359375e+01 -3.354378128051757812e+01 3.140108585357666016e-01 3.584301948547363281e+00 1.169493913650512695e+00 -2.279532998800277710e-01
1.340000000000000000e+03 2.059972000122070312e+01 1.297474384307861328e+01 -1.198137998580932617e-01 2.305121898651123047e+00 6.555924415588378906e-01 -5.636181831359863281e-01
1.341000000000000000e+03 4.600545120239257812e+01 -1.382853317260742188e+01 -2.941916704177856445e+00 5.122054576873779297e+00 6.540414094924926758e-01 2.684309959411621094e+00
1.342000000000000000e+03 2.270725822448730469e+01 2.425708770751953125e+01 2.790494561195373535e-01 4.363394737243652344e+00 1.392733335494995117e+00 7.909363508224487305e-01
1.343000000000000000e+03 2.098895454406738281e+01 2.222062301635742188e+01 5.320711731910705566e-01 3.718657970428466797e+00 1.275218725204467773e+00 -7.165622711181640625e-02
1.344000000000000000e+03 1.923457908630371094e+01 2.405483818054199219e+01 -5.504047498106956482e-02 1.964631676673889160e+00 5.728773474693298340e-01 2.357187420129776001e-01
1.345000000000000000e+03 4.665914154052734375e+01 -6.247485160827636719e+00 2.507527351379394531e+00 6.588284969329833984e+00 2.728743553161621094e+00 -3.333035230636596680e+00
1.346000000000000000e+03 4.402437973022460938e+01 -3.021637678146362305e+00 2.381872683763504028e-01 2.314657688140869141e+00 7.658534646034240723e-01 -2.004867792129516602e+00
1.347000000000000000e+03 2.129878807067871094e+01 2.830937767028808594e+01 2.665328979492187500e-01 3.017986774444580078e+00 9.853559136390686035e-01 -7.609254121780395508e-02
1.348000000000000000e+03 2.061835289001464844e+01 1.150094795227050781e+01 -1.067220326513051987e-02 1.259866952896118164e+00 3.747584223747253418e-01 -6.319816112518310547e-01
1.349000000000000000e+03 2.541256141662597656e+01 1.571488285064697266e+01 -1.459753274917602539e+00 5.237014293670654297e-01 -2.808155417442321777e-01 -2.817851305007934570e-01
1.350000000000000000e+03 4.614576339721679688e+01 -4.353052616119384766e+00 1.277081251144409180e+00 4.796411514282226562e+00 1.822047948837280273e+00 -2.592371702194213867e+00
1.351000000000000000e+03 2.151822280883789062e+01 2.330791473388671875e+01 2.355674356222152710e-01 4.178980350494384766e+00 1.324364304542541504e+00 2.254469841718673706e-01
1.352000000000000000e+03 3.678557205200195312e+01 -2.967815971374511719e+01 -1.162425160408020020e+00 2.644318342208862305e+00 4.445679485797882080e-01 1.207331538200378418e+00
1.353000000000000000e+03 3.294571304321289062e+01 2.051169776916503906e+01 5.717700347304344177e-02 5.650735378265380859e+00 1.712373733520507812e+00 -4.608170986175537109e-01
1.354000000000000000e+03 3.185155868530273438e+01 1.927435684204101562e+01 3.965360298752784729e-02 5.946260452270507812e+00 1.795774221420288086e+00 -3.943775594234466553e-02
1.355000000000000000e+03 3.181100082397460938e+01 2.176264190673828125e+01 -2.955492399632930756e-02 6.554575443267822266e+00 1.957506179809570312e+00 -1.509975790977478027e-01
1.356000000000000000e+03 3.309256362915039062e+01 2.241073226928710938e+01 3.481369316577911377e-01 5.990968227386474609e+00 1.901731491088867188e+00 -6.436092257499694824e-01
1.357000000000000000e+03 5.110715866088867188e+01 -1.091753101348876953e+01 1.670086860656738281e+00 5.459144592285156250e+00 2.138769388198852539e+00 -1.380323529243469238e+00
1.358000000000000000e+03 5.174759292602539062e+01 -8.616931915283203125e+00 2.152723550796508789e+00 6.486144065856933594e+00 2.591660261154174805e+00 -1.066255688667297363e+00
1.359000000000000000e+03 4.116035842895507812e+01 -1.974464535713195801e+00 9.549318552017211914e-01 2.012270450592041016e+00 8.901606798171997070e-01 6.207020878791809082e-01
1.360000000000000000e+03 4.511391067504882812e+01 -3.696795940399169922e+00 9.124176502227783203e-01 3.006528615951538086e+00 1.175683856010437012e+00 -2.248036623001098633e+00
1.361000000000000000e+03 3.592727279663085938e+01 -1.338701629638671875e+01 -1.883154153823852539e+00 2.918107032775878906e+00 3.104858696460723877e-01 -1.017701029777526855e+00
1.362000000000000000e+03 3.988720703125000000e+01 -3.990576934814453125e+01 -1.912631630897521973e+00 2.195395708084106445e+00 8.482925593852996826e-02 -1.717388778924942017e-01
1.363000000000000000e+03 4.952973556518554688e+01 -2.703471183776855469e+01 -1.627830624580383301e+00 3.740711450576782227e+00 6.338642835617065430e-01 -2.809711456298828125e+00
1.364000000000000000e+03 3.853099822998046875e+01 -3.795421218872070312e+01 -1.756005644798278809e+00 3.450277566909790039e+00 5.082815885543823242e-01 3.199546635150909424e-01
1.365000000000000000e+03 5.414967346191406250e+01 2.006224632263183594e+01 -1.262484669685363770e+00 4.431597709655761719e+00 9.507339596748352051e-01 -2.512706518173217773e+00
1.366000000000000000e+03 5.868308258056640625e+01 1.984497642517089844e+01 3.438734114170074463e-01 4.619575977325439453e+00 1.489034771919250488e+00 2.607049345970153809e-01
1.367000000000000000e+03 3.677821731567382812e+01 -3.173947715759277344e+01 1.388849139213562012e+00 3.008537054061889648e+00 1.319215893745422363e+00 1.509558320045471191e+00
1.368000000000000000e+03 3.796234893798828125e+01 -3.300510025024414062e+01 1.863576292991638184e+00 6.644840240478515625e+00 2.552525043487548828e+00 1.576439142227172852e+00
1.369000000000000000e+03 5.316381454467773438e+01 -3.287100601196289062e+01 2.684386014938354492e+00 6.975280761718750000e+00 2.897900104522705078e+00 -8.976533263921737671e-02
1.370000000000000000e+03 4.752120971679687500e+01 -2.496134567260742188e+01 -1.027834057807922363e+00 5.068340301513671875e+00 1.212151885032653809e+00 -2.954112529754638672e+00
1.371000000000000000e+03 4.788645172119140625e+01 -2.329030799865722656e+01 2.481112241744995117e+00 4.755291938781738281e+00 2.170921325683593750e+00 -3.441966295242309570e+00
1.372000000000000000e+03 6.686331939697265625e+01 2.907633590698242188e+01 1.470398902893066406e+00 5.337318420410156250e+00 2.042315244674682617e+00 9.258584380149841309e-01
1.373000000000000000e+03 3.950062179565429688e+01 -2.547737121582031250e+01 2.585238456726074219e+00 1.038119411468505859e+01 3.889929771423339844e+00 3.969088077545166016e+00
1.374000000000000000e+03 4.090667343139648438e+01 -2.699534988403320312e+01 -2.408836126327514648e+00 5.363696098327636719e+00 8.864579796791076660e-01 1.525127053260803223e+00
1.375000000000000000e+03 3.506597137451171875e+01 -2.879289436340332031e+01 -4.280235767364501953e+00 -5.754394531250000000e-01 -1.456702470779418945e+00 -2.438375204801559448e-01
1.376000000000000000e+03 3.260208511352539062e+01 -3.063725662231445312e+01 -1.960865259170532227e-01 8.828367590904235840e-01 2.060250639915466309e-01 -7.110809087753295898e-01
1.377000000000000000e+03 2.828457069396972656e+01 -2.347244834899902344e+01 1.181800365447998047e+00 7.232892990112304688e+00 2.524408102035522461e+00 -4.089855551719665527e-01
1.378000000000000000e+03 3.861456680297851562e+01 -2.977560806274414062e+01 -3.993607461452484131e-01 6.661329269409179688e+00 1.878590464591979980e+00 2.004564762115478516e+00
1.379000000000000000e+03 3.588254928588867188e+01 -1.528624057769775391e+01 -5.038542270660400391e+00 6.260958313941955566e-01 -1.323733925819396973e+00 2.936649024486541748e-01
1.380000000000000000e+03 2.757778167724609375e+01 -2.457153701782226562e+01 2.487348020076751709e-01 4.919596672058105469e+00 1.550499439239501953e+00 4.527372419834136963e-01
1.381000000000000000e+03 4.858075714111328125e+01 -1.545584869384765625e+01 -3.753283500671386719e+00 5.124579906463623047e+00 4.113889336585998535e-01 2.554315567016601562e+00
1.382000000000000000e+03 3.425898361206054688e+01 -1.326881885528564453e+01 -1.135550975799560547e+00 1.307361721992492676e+00 5.154323950409889221e-02 9.907246828079223633e-01
1.383000000000000000e+03 3.127596473693847656e+01 -1.470924472808837891e+01 -2.378532409667968750e+00 4.755967140197753906e+00 7.132303118705749512e-01 2.204481124877929688e+00
1.384000000000000000e+03 3.876491928100585938e+01 -2.650775909423828125e+01 1.164835453033447266e+00 6.785323143005371094e+00 2.385047674179077148e+00 3.580440998077392578e+00
1.385000000000000000e+03 3.828681945800781250e+01 -1.255706310272216797e+01 -8.707156181335449219e-01 5.743539810180664062e+00 1.461847186088562012e+00 -2.275528669357299805e+00
1.386000000000000000e+03 3.006546020507812500e+01 -1.480734634399414062e+01 -1.611166000366210938e+00 5.498938083648681641e+00 1.166331648826599121e+00 2.027582406997680664e+00
1.387000000000000000e+03 3.029701042175292969e+01 -1.612779235839843750e+01 -3.953193128108978271e-02 5.447259902954101562e+00 1.622318387031555176e+00 2.139335870742797852e+00
1.388000000000000000e+03 4.337684631347656250e+01 -2.653803825378417969e+01 -6.803495287895202637e-01 -2.254417538642883301e-02 -2.108681052923202515e-01 -4.772441089153289795e-01
1.389000000000000000e+03 2.774935913085937500e+01 -2.061849594116210938e+01 1.783712148666381836e+00 6.864626884460449219e+00 2.594501733779907227e+00 8.758620619773864746e-01
1.390000000000000000e+03 4.005159759521484375e+01 -1.413379764556884766e+01 -3.303158760070800781e+00 3.788691997528076172e+00 1.456599980592727661e-01 -2.402042388916015625e+00
1.391000000000000000e+03 2.888410568237304688e+01 -2.100522232055664062e+01 6.727727651596069336e-01 1.036660289764404297e+01 3.311812639236450195e+00 1.301345705986022949e+00
1.392000000000000000e+03 3.926403045654296875e+01 -1.981649589538574219e+01 9.744082093238830566e-01 6.273771286010742188e+00 2.174453735351562500e+00 -2.401276826858520508e+00
1.393000000000000000e+03 4.029921340942382812e+01 -1.866908454895019531e+01 1.222035765647888184e+00 4.411874294281005859e+00 1.690173029899597168e+00 -1.647085070610046387e+00
1.394000000000000000e+03 2.911712265014648438e+01 -1.720306587219238281e+01 3.304632902145385742e-01 6.231844902038574219e+00 1.968692421913146973e+00 1.686062335968017578e+00
1.395000000000000000e+03 2.866374778747558594e+01 -1.818415641784667969e+01 1.370640754699707031e+00 6.672260284423828125e+00 2.412870407104492188e+00 1.683364033699035645e+00
1.396000000000000000e+03 5.395601272583007812e+01 2.641896820068359375e+01 1.622846007347106934e+00 8.268160820007324219e+00 2.967302083969116211e+00 -2.279791831970214844e+00
1.397000000000000000e+03 5.148241043090820312e+01 2.830480384826660156e+01 1.583239793777465820e+00 7.350402832031250000e+00 2.680092811584472656e+00 6.519107222557067871e-01
1.398000000000000000e+03 4.490807723999023438e+01 -1.757568931579589844e+01 3.952315449714660645e-01 5.170078754425048828e+00 1.669593095779418945e+00 8.988723158836364746e-01
1.399000000000000000e+03 4.733661651611328125e+01 -1.791393089294433594e+01 1.470727205276489258e+00 7.898786067962646484e+00 2.810853958129882812e+00 2.881090402603149414e+00
1.400000000000000000e+03 3.090447998046875000e+01 -2.833858108520507812e+01 -2.115311145782470703e+00 2.559438705444335938e+00 1.332382708787918091e-01 -4.130009710788726807e-01
1.401000000000000000e+03 3.005923652648925781e+01 -2.721237182617187500e+01 -1.121197938919067383e+00 3.145858764648437500e+00 6.073982715606689453e-01 -5.243154168128967285e-01
1.402000000000000000e+03 6.257754898071289062e+01 2.516944122314453125e+01 3.229553937911987305e+00 7.806166172027587891e+00 3.310716152191162109e+00 4.638372421264648438e+00
1.403000000000000000e+03 6.508031463623046875e+01 2.603791618347167969e+01 2.552892208099365234e+00 5.401968002319335938e+00 2.386457920074462891e+00 1.723236203193664551e+00
1.404000000000000000e+03 1.139696025848388672e+01 -1.254827690124511719e+01 -8.018975704908370972e-02 2.968311123549938202e-02 -1.515199337154626846e-02 -4.701173678040504456e-02
1.405000000000000000e+03 9.678138732910156250e+00 -1.151084995269775391e+01 -1.044948548078536987e-01 -1.344016939401626587e-01 -7.166896760463714600e-02 -1.182801425457000732e-01
1.406000000000000000e+03 1.369113254547119141e+01 6.776384830474853516e+00 -2.433201372623443604e-01 -1.726031005382537842e-01 -1.247769743204116821e-01 2.855113446712493896e-01
1.407000000000000000e+03 5.425810241699218750e+01 3.879415690898895264e-01 -1.395857632160186768e-01 3.718188762664794922e+00 1.073580980300903320e+00 2.286765575408935547e+00
1.408000000000000000e+03 6.233892822265625000e+01 2.117724037170410156e+01 -2.317020177841186523e+00 6.340049743652343750e+00 1.206908822059631348e+00 3.667042732238769531e+00
1.409000000000000000e+03 6.108606338500976562e+01 2.114305686950683594e+01 -1.389598369598388672e+00 6.227656841278076172e+00 1.451417565345764160e+00 3.005514144897460938e+00
1.410000000000000000e+03 1.785768890380859375e+01 -1.691686058044433594e+01 3.410917520523071289e-01 1.143147200345993042e-01 1.366219371557235718e-01 -2.537227869033813477e-01
1.411000000000000000e+03 1.605971908569335938e+01 -3.973162078857421875e+01 -1.440083384513854980e+00 -4.126388728618621826e-01 -5.558167099952697754e-01 5.536496043205261230e-01
1.412000000000000000e+03 1.428321743011474609e+01 -3.789450073242187500e+01 -3.747263848781585693e-01 -2.375088818371295929e-02 -1.195431798696517944e-01 5.904588848352432251e-02
1.413000000000000000e+03 6.098504638671875000e+01 2.386624145507812500e+01 -1.631448715925216675e-01 3.509342670440673828e+00 1.003859281539916992e+00 2.512500286102294922e+00
1.414000000000000000e+03 2.454612922668457031e+01 -3.769827270507812500e+01 2.754413187503814697e-01 3.178943395614624023e+00 1.036315441131591797e+00 4.195107519626617432e-01
1.415000000000000000e+03 5.341572189331054688e+01 3.406764221191406250e+01 -1.182169392704963684e-01 6.707026004791259766e+00 1.976642727851867676e+00 7.912261486053466797e-01
1.416000000000000000e+03 4.731972503662109375e+01 3.236729049682617188e+01 -7.855604588985443115e-02 5.358130455017089844e+00 1.583872318267822266e+00 -2.395273149013519287e-01
1.417000000000000000e+03 5.180852127075195312e+01 3.148600196838378906e+01 1.341668725013732910e+00 6.969652652740478516e+00 2.493396520614624023e+00 7.998796701431274414e-01
1.418000000000000000e+03 5.982271957397460938e+01 2.230052947998046875e+01 -2.049539089202880859e+00 3.041174888610839844e+00 2.974906861782073975e-01 2.445161104202270508e+00
1.419000000000000000e+03 5.995824813842773438e+01 6.946309208869934082e-01 -9.255635738372802734e-01 5.341165065765380859e+00 1.324680447578430176e+00 -2.378424167633056641e+00
1.420000000000000000e+03 5.428491210937500000e+01 2.374363327026367188e+01 -1.048479318618774414e+00 5.246748924255371094e+00 1.259480834007263184e+00 -2.037622690200805664e+00
1.421000000000000000e+03 1.203298854827880859e+01 -3.827369689941406250e+01 -4.076998233795166016e-01 6.584524512290954590e-01 7.522579282522201538e-02 3.214531540870666504e-01
1.422000000000000000e+03 6.575687408447265625e+01 -1.696989822387695312e+01 -1.453570961952209473e+00 3.468863725662231445e+00 6.045878529548645020e-01 5.623401999473571777e-01
1.423000000000000000e+03 6.387310028076171875e+01 -1.635015106201171875e+01 -1.689334988594055176e+00 6.128328800201416016e+00 1.331698179244995117e+00 5.981760099530220032e-02
1.424000000000000000e+03 2.538735389709472656e+01 -3.081078720092773438e+01 -1.704976409673690796e-01 4.012364387512207031e+00 1.152559995651245117e+00 -9.290546178817749023e-02
1.425000000000000000e+03 1.547158527374267578e+01 -1.468614959716796875e+01 1.838449239730834961e-01 4.877521991729736328e-01 2.014791369438171387e-01 -2.879161834716796875e-01
1.426000000000000000e+03 2.777497482299804688e+01 -1.191453838348388672e+01 1.666525125503540039e+00 3.579839229583740234e+00 1.573909282684326172e+00 2.731359243392944336e+00
1.427000000000000000e+03 3.424139022827148438e+01 -9.465724945068359375e+00 2.561818122863769531e+00 4.404344558715820312e+00 2.089848756790161133e+00 1.608785033226013184e+00
1.428000000000000000e+03 6.106765365600585938e+01 2.244263839721679688e+01 -2.801323652267456055e+00 5.366586208343505859e+00 7.695787549018859863e-01 3.464900732040405273e+00
1.429000000000000000e+03 5.651883316040039062e+01 3.759417724609375000e+01 -1.026559710502624512e+00 2.520196914672851562e+00 4.480911493301391602e-01 1.486894369125366211e+00
1.430000000000000000e+03 5.424277496337890625e+01 3.488888931274414062e+01 -5.153608918190002441e-01 6.050237655639648438e+00 1.660463094711303711e+00 1.317507982254028320e+00
1.431000000000000000e+03 6.542957305908203125e+01 2.863186073303222656e+01 1.591435194015502930e+00 5.986076831817626953e+00 2.273253679275512695e+00 1.782723069190979004e+00
1.432000000000000000e+03 6.365268707275390625e+01 2.938828468322753906e+01 4.190784692764282227e-02 7.490972995758056641e+00 2.259864330291748047e+00 3.173578381538391113e-01
1.433000000000000000e+03 6.515251922607421875e+01 2.971230697631835938e+01 8.323116898536682129e-01 7.113847255706787109e+00 2.383847713470458984e+00 1.165215969085693359e+00
1.434000000000000000e+03 2.691359519958496094e+01 -3.499956130981445312e+01 2.263320684432983398e-01 3.533028602600097656e+00 1.127808213233947754e+00 -7.174205034971237183e-02
1.435000000000000000e+03 5.592128753662109375e+01 2.316110610961914062e+01 -1.857475042343139648e+00 3.002019405364990234e+00 3.433633148670196533e-01 -1.796194434165954590e+00
1.436000000000000000e+03 1.348414134979248047e+01 -3.105634689331054688e+01 5.464662313461303711e-01 2.153551340103149414e+00 8.100052475929260254e-01 8.694020509719848633e-01
1.437000000000000000e+03 1.049407768249511719e+01 -3.561875534057617188e+01 -9.398628957569599152e-03 8.298073410987854004e-01 2.461226135492324829e-01 5.075717568397521973e-01
1.438000000000000000e+03 2.801034927368164062e+01 -2.598747634887695312e+01 -8.297029137611389160e-01 4.663909912109375000e+00 1.150262117385864258e+00 1.678152084350585938e-01
1.439000000000000000e+03 2.065221786499023438e+01 -4.061356735229492188e+01 -1.637867569923400879e+00 -3.590502962470054626e-02 -5.021317601203918457e-01 -3.564927279949188232e-01
1.440000000000000000e+03 6.267470932006835938e+01 4.200015068054199219e+00 -7.195537686347961426e-01 3.886897087097167969e+00 9.502030014991760254e-01 -1.496241450309753418e+00
1.441000000000000000e+03 6.645156097412109375e+01 3.486084461212158203e+00 3.236832320690155029e-01 2.077071666717529297e+00 7.202265262603759766e-01 1.096066713333129883e+00
1.442000000000000000e+03 6.066705322265625000e+01 1.213253974914550781e+01 5.404902100563049316e-01 9.282238960266113281e+00 2.946818828582763672e+00 -4.391631186008453369e-01
1.443000000000000000e+03 1.315264987945556641e+01 -2.926643943786621094e+01 7.503885030746459961e-01 1.434152603149414062e+00 6.553623080253601074e-01 6.900274157524108887e-01
1.444000000000000000e+03 1.600556564331054688e+01 -1.818586158752441406e+01 1.065630018711090088e-01 2.212779521942138672e-01 9.835229068994522095e-02 -3.213706659153103828e-04
1.445000000000000000e+03 1.564825439453125000e+01 -2.044534301757812500e+01 3.550255894660949707e-01 3.528289794921875000e-01 2.123563736677169800e-01 3.759275972843170166e-01
1.446000000000000000e+03 1.725270652770996094e+01 -1.074756979942321777e+00 -1.539328694343566895e-01 6.386134773492813110e-02 -2.702145650982856750e-02 -4.294720664620399475e-02
1.447000000000000000e+03 7.224528503417968750e+01 -1.233520030975341797e+01 -2.170728445053100586e+00 4.275658428668975830e-01 -5.229488015174865723e-01 -5.672159194946289062e-01
1.448000000000000000e+03 7.211720275878906250e+01 -1.348121547698974609e+01 -6.966809630393981934e-01 1.233308672904968262e+00 1.609883010387420654e-01 -5.152364969253540039e-01
1.449000000000000000e+03 2.134454727172851562e+01 -2.704649734497070312e+01 -1.561255931854248047e+00 -8.521543741226196289e-01 -7.240231037139892578e-01 1.067237019538879395e+00
1.450000000000000000e+03 1.047200679779052734e+01 -3.269288253784179688e+01 4.341685473918914795e-01 9.153535962104797363e-01 4.048566222190856934e-01 4.220393300056457520e-01
1.451000000000000000e+03 1.159338665008544922e+01 -3.320812606811523438e+01 3.170418143272399902e-01 1.286051034927368164e+00 4.809278547763824463e-01 4.474603235721588135e-01
1.452000000000000000e+03 1.487399387359619141e+01 -2.542622184753417969e+01 3.158694803714752197e-01 9.038922190666198730e-01 3.659285008907318115e-01 6.271103620529174805e-01
1.453000000000000000e+03 1.259896659851074219e+01 -2.464956665039062500e+01 2.320083528757095337e-01 5.183797478675842285e-01 2.251164317131042480e-01 3.138496279716491699e-01
1.454000000000000000e+03 2.331303977966308594e+01 -2.510217475891113281e+01 1.682843863964080811e-01 1.372894883155822754e+00 4.623537659645080566e-01 4.582257568836212158e-01
1.455000000000000000e+03 2.509072303771972656e+01 -3.483892822265625000e+01 1.913738250732421875e-01 4.679946899414062500e+00 1.461396217346191406e+00 -3.717221319675445557e-02
1.456000000000000000e+03 2.685366439819335938e+01 -3.123517799377441406e+01 -2.512662112712860107e-01 3.753584623336791992e+00 1.050695538520812988e+00 1.431591659784317017e-01
1.457000000000000000e+03 5.252684783935546875e+01 -6.185111522674560547e+00 1.868307113647460938e+00 1.049777221679687500e+01 3.709823846817016602e+00 -2.064100027084350586e+00
1.458000000000000000e+03 5.241710281372070312e+01 -3.600982189178466797e+00 1.102004528045654297e+00 1.034122657775878906e+01 3.432969331741333008e+00 1.442479729652404785e+00
1.459000000000000000e+03 1.699010467529296875e+01 -6.990104198455810547e+00 -2.559920772910118103e-02 2.393106222152709961e-01 6.411342322826385498e-02 -7.139485678635537624e-04
1.460000000000000000e+03 1.562530899047851562e+01 -9.952535629272460938e+00 -1.266422718763351440e-01 2.109321057796478271e-01 2.528695017099380493e-02 4.347703233361244202e-02
1.461000000000000000e+03 3.033740425109863281e+01 -6.559177398681640625e+00 2.094914466142654419e-01 2.901389122009277344e+00 9.332641959190368652e-01 1.080600380897521973e+00
1.462000000000000000e+03 6.134080886840820312e+01 -6.187593460083007812e+00 5.738987922668457031e-01 1.069968414306640625e+01 3.382074832916259766e+00 2.906652092933654785e-01
1.463000000000000000e+03 2.582326889038085938e+01 -1.718786811828613281e+01 7.932213544845581055e-01 3.156097173690795898e+00 1.184795498847961426e+00 7.151508927345275879e-01
1.464000000000000000e+03 6.450841522216796875e+01 -2.850950241088867188e+01 2.625460147857666016e+00 8.514571189880371094e+00 3.342009544372558594e+00 -4.587366104125976562e+00
1.465000000000000000e+03 2.909763908386230469e+01 -1.629482841491699219e+01 -3.694386184215545654e-01 5.945089340209960938e+00 1.672695159912109375e+00 1.808218598365783691e+00
1.466000000000000000e+03 5.560065841674804688e+01 -9.769661903381347656e+00 1.423619747161865234e+00 2.443458795547485352e+00 1.160123586654663086e+00 -2.055764436721801758e+00
1.467000000000000000e+03 5.631906127929687500e+01 -1.134626579284667969e+01 2.755974531173706055e-01 2.652356147766113281e+00 8.783860802650451660e-01 -2.418127059936523438e+00
1.468000000000000000e+03 2.626191139221191406e+01 -1.443716716766357422e+01 -5.515450835227966309e-01 2.906343698501586914e+00 7.064396142959594727e-01 1.444787621498107910e+00
1.469000000000000000e+03 7.363446044921875000e+01 -2.416718292236328125e+01 1.606604933738708496e+00 1.206897354125976562e+01 4.102673530578613281e+00 2.201346635818481445e+00
1.470000000000000000e+03 7.285891723632812500e+01 -2.521331977844238281e+01 9.511089324951171875e-01 5.985297679901123047e+00 2.080921888351440430e+00 2.492612600326538086e+00
1.471000000000000000e+03 1.476276111602783203e+01 -6.166209697723388672e+00 2.089974842965602875e-02 7.344155758619308472e-02 2.830239199101924896e-02 -2.480792813003063202e-02
1.472000000000000000e+03 5.303491973876953125e+01 2.553551292419433594e+01 1.220328569412231445e+00 5.983270168304443359e+00 2.161079645156860352e+00 -5.562715530395507812e-01
1.473000000000000000e+03 2.068437004089355469e+01 3.361067199707031250e+01 -1.134124100208282471e-01 2.028913021087646484e+00 5.746501684188842773e-01 -9.029907733201980591e-02
1.474000000000000000e+03 1.968361282348632812e+01 3.040303611755371094e+01 5.614482164382934570e-01 3.581274986267089844e+00 1.242816925048828125e+00 -7.008848786354064941e-01
1.475000000000000000e+03 3.011590576171875000e+01 -1.365004825592041016e+01 -1.350376486778259277e+00 5.290633201599121094e+00 1.182076930999755859e+00 2.412785768508911133e+00
1.476000000000000000e+03 1.586001300811767578e+01 -5.804131984710693359e+00 3.226551460102200508e-03 1.397993117570877075e-01 4.290775582194328308e-02 -1.579929492436349392e-03
1.477000000000000000e+03 6.976661682128906250e+01 -1.210140895843505859e+01 -1.056382536888122559e+00 6.448061019182205200e-02 -2.975705862045288086e-01 -8.500211238861083984e-01
1.478000000000000000e+03 6.851874542236328125e+01 -1.179981517791748047e+01 7.310724854469299316e-01 1.181332230567932129e+00 5.737214088439941406e-01 -1.158107757568359375e+00
1.479000000000000000e+03 1.906463050842285156e+01 -1.382359695434570312e+01 -5.433521270751953125e-01 1.269392967224121094e-01 -1.249238550662994385e-01 -8.261598646640777588e-02
1.480000000000000000e+03 1.647155761718750000e+01 -1.201819038391113281e+01 -2.064888179302215576e-01 2.342806160449981689e-01 8.337536826729774475e-03 4.376666992902755737e-02
1.481000000000000000e+03 3.080483818054199219e+01 -8.029371261596679688e+00 1.617281198501586914e+00 4.724078178405761719e+00 1.902407884597778320e+00 2.778977394104003906e+00
1.482000000000000000e+03 3.124957275390625000e+01 -7.290288448333740234e+00 8.506011962890625000e-01 4.467403411865234375e+00 1.595401406288146973e+00 2.270269155502319336e+00
1.483000000000000000e+03 7.480931091308593750e+01 1.344475460052490234e+01 1.219767689704895020e+00 8.560677528381347656e+00 2.934133529663085938e+00 4.147406816482543945e-01
1.484000000000000000e+03 7.807518768310546875e+01 1.157577705383300781e+01 3.604936599731445312e-01 6.208828449249267578e+00 1.970796585083007812e+00 -1.054622679948806763e-01
1.485000000000000000e+03 1.929974937438964844e+01 2.588014602661132812e+01 5.209943279623985291e-02 2.484180927276611328e+00 7.608841061592102051e-01 3.720383048057556152e-01
1.486000000000000000e+03 1.844241142272949219e+01 2.489583206176757812e+01 -1.692070960998535156e-01 5.885527133941650391e-01 1.258036792278289795e-01 7.197538018226623535e-02
1.487000000000000000e+03 6.838378906250000000e+01 -2.611771202087402344e+01 -2.958032608032226562e+00 1.010636329650878906e+00 -5.842188596725463867e-01 -2.347993850708007812e-01
1.488000000000000000e+03 1.177205753326416016e+01 1.986702728271484375e+01 6.509485244750976562e-01 2.442626506090164185e-01 2.685633599758148193e-01 -8.276711218059062958e-03
1.489000000000000000e+03 8.272591590881347656e+00 2.349001121520996094e+01 6.387105584144592285e-01 4.479326903820037842e-01 3.259929716587066650e-01 -4.505410790443420410e-01
1.490000000000000000e+03 6.509487915039062500e+01 -6.234373569488525391e+00 8.913818597793579102e-01 1.174286651611328125e+01 3.790274620056152344e+00 9.693657606840133667e-02
1.491000000000000000e+03 7.827586364746093750e+01 1.560020637512207031e+01 7.277753949165344238e-02 6.595646858215332031e+00 2.000527381896972656e+00 7.031042575836181641e-01
1.492000000000000000e+03 7.588380432128906250e+01 1.366000461578369141e+01 9.800794124603271484e-01 7.692286968231201172e+00 2.601709842681884766e+00 7.022662758827209473e-01
1.493000000000000000e+03 5.890082168579101562e+01 3.016517400741577148e+00 -6.520428657531738281e-01 4.200724124908447266e+00 1.064604401588439941e+00 -2.062739372253417969e+00
1.494000000000000000e+03 6.589720916748046875e+01 6.488353252410888672e+00 -2.323695182800292969e+00 -7.940299063920974731e-02 -7.209294438362121582e-01 4.112888276576995850e-01
1.495000000000000000e+03 4.448878860473632812e+01 6.656080722808837891e+00 5.994566679000854492e-01 5.362650394439697266e+00 1.788632035255432129e+00 -2.937245070934295654e-01
1.496000000000000000e+03 4.088187408447265625e+01 6.421513080596923828e+00 1.882660627365112305e+00 1.174455356597900391e+01 4.088164329528808594e+00 1.186428666114807129e+00
1.497000000000000000e+03 4.623514175415039062e+01 1.781813049316406250e+01 1.566405177116394043e+00 7.155117034912109375e+00 2.616456508636474609e+00 3.650345802307128906e+00
1.498000000000000000e+03 2.919759178161621094e+01 6.243449211120605469e+00 2.810948133468627930e+00 1.185521697998046875e+01 4.399849414825439453e+00 -3.452002048492431641e+00
1.499000000000000000e+03 2.495900154113769531e+01 3.286048650741577148e+00 4.281204342842102051e-01 -3.619568422436714172e-02 1.175774261355400085e-01 6.122585535049438477e-01
1.500000000000000000e+03 6.486779022216796875e+01 -1.003059101104736328e+01 2.185813784599304199e-01 7.819927692413330078e+00 2.411552906036376953e+00 -5.499483942985534668e-01
1.501000000000000000e+03 6.236758422851562500e+01 1.983757400512695312e+01 9.158568382263183594e-01 7.187285423278808594e+00 2.430942773818969727e+00 3.816253423690795898e+00
1.502000000000000000e+03 8.999624252319335938e+00 -2.317723655700683594e+01 -7.614408619701862335e-03 4.403986781835556030e-02 1.092763803899288177e-02 -1.112207770347595215e-01
1.503000000000000000e+03 5.811489224433898926e-01 -2.476288986206054688e+01 -2.355471998453140259e-02 -8.352031111717224121e-01 -2.576273679733276367e-01 1.675381499808281660e-04
1.504000000000000000e+03 5.127082824707031250e+00 -2.063049888610839844e+01 2.201701700687408447e-01 3.705815076828002930e-01 1.772255003452301025e-01 -2.823750972747802734e-01
1.505000000000000000e+03 7.413285827636718750e+01 -1.065195274353027344e+01 -6.283319592475891113e-01 3.953715324401855469e+00 9.976149797439575195e-01 1.196985244750976562e+00
1.506000000000000000e+03 7.499311447143554688e+00 3.570717239379882812e+01 -2.499147206544876099e-01 -1.618565618991851807e-01 -1.235313862562179565e-01 -2.849278599023818970e-02
1.507000000000000000e+03 7.827393341064453125e+01 -2.737773704528808594e+01 -1.864713877439498901e-01 7.607160091400146484e+00 2.226206541061401367e+00 -2.151842266321182251e-01
1.508000000000000000e+03 5.533718872070312500e+01 -3.441682815551757812e+01 2.164931058883666992e+00 9.613242149353027344e+00 3.533452033996582031e+00 -8.635175228118896484e-01
1.509000000000000000e+03 5.725354385375976562e+01 -3.780102157592773438e+01 -1.618929028511047363e+00 5.102157592773437500e+00 1.044968485832214355e+00 -1.936136245727539062e+00
1.510000000000000000e+03 7.043399810791015625e+01 6.756959915161132812e+00 8.540038019418716431e-02 4.748282432556152344e+00 1.450104832649230957e+00 2.013628005981445312e+00
1.511000000000000000e+03 7.114168548583984375e+01 8.215896606445312500e+00 1.638755321502685547e+00 6.442249774932861328e+00 2.424301624298095703e+00 2.628206729888916016e+00
1.512000000000000000e+03 7.309549713134765625e+01 8.563706398010253906e+00 6.719840168952941895e-01 8.459435462951660156e+00 2.739425897598266602e+00 -1.524270027875900269e-01
1.513000000000000000e+03 6.181672286987304688e+01 -2.392302513122558594e+01 1.973230481147766113e+00 3.566219091415405273e+00 1.661834836006164551e+00 -1.349332571029663086e+00
1.514000000000000000e+03 5.349359130859375000e+01 -7.983974456787109375e+00 2.650135755538940430e+00 5.806110858917236328e+00 2.536874055862426758e+00 -3.176708936691284180e+00
1.515000000000000000e+03 3.469988632202148438e+01 1.586339354515075684e+00 -1.129308891296386719e+01 2.830649018287658691e-01 -3.303007125854492188e+00 1.293082952499389648e+00
1.516000000000000000e+03 3.385781478881835938e+01 1.407754778861999512e+00 -6.898937702178955078e+00 1.488934278488159180e+00 -1.623000979423522949e+00 -5.986148715019226074e-01
1.517000000000000000e+03 7.136280059814453125e+01 1.840646934509277344e+01 -1.320216536521911621e+00 5.899969100952148438e+00 1.373925805091857910e+00 -8.063715696334838867e-01
1.518000000000000000e+03 3.102408981323242188e+01 1.163764476776123047e+01 -1.065685391426086426e+00 1.726737380027770996e+00 1.983155757188796997e-01 8.411661386489868164e-01
1.519000000000000000e+03 3.151690864562988281e+01 1.263129806518554688e+01 -2.588274240493774414e+00 1.369777917861938477e+00 -3.655489087104797363e-01 1.158653140068054199e+00
1.520000000000000000e+03 6.107060241699218750e+01 1.612756729125976562e+01 1.737408757209777832e+00 1.332586669921875000e+01 4.518982887268066406e+00 3.540667533874511719e+00
1.521000000000000000e+03 2.008578872680664062e+01 1.566599273681640625e+01 -1.392512489110231400e-02 2.779702901840209961e+00 8.297333121299743652e-01 -5.460154414176940918e-01
1.522000000000000000e+03 5.909659194946289062e+01 -2.714380455017089844e+01 -2.404568672180175781e+00 1.414199352264404297e+00 -2.971107661724090576e-01 8.156055808067321777e-01
1.523000000000000000e+03 6.783930206298828125e+01 4.232821941375732422e+00 1.617874056100845337e-01 1.594639062881469727e+00 5.269279479980468750e-01 1.947222113609313965e+00
1.524000000000000000e+03 7.034152221679687500e+01 5.934737920761108398e-01 3.079462647438049316e-01 1.245994925498962402e+00 4.661823511123657227e-01 1.594839572906494141e+00
1.525000000000000000e+03 5.886996841430664062e+01 -1.011060142517089844e+01 -1.066089749336242676e+00 1.510930776596069336e+00 1.334523111581802368e-01 8.025172352790832520e-01
1.526000000000000000e+03 3.208432912826538086e+00 2.164282608032226562e+01 5.080721527338027954e-02 -6.078460216522216797e-01 -1.671116501092910767e-01 9.504028409719467163e-02
1.527000000000000000e+03 6.530931949615478516e+00 2.551628684997558594e+01 4.659595787525177002e-01 8.161397576332092285e-01 3.846298158168792725e-01 -5.316652655601501465e-01
1.528000000000000000e+03 7.040701293945312500e+01 1.945222663879394531e+01 -2.378816843032836914e+00 4.235282897949218750e+00 5.569398403167724609e-01 -7.406291961669921875e-01
1.529000000000000000e+03 6.818528175354003906e+00 1.321659088134765625e+01 5.368807166814804077e-02 -3.594686463475227356e-02 5.322362761944532394e-03 3.665721714496612549e-01
1.530000000000000000e+03 7.363198089599609375e+01 1.304460048675537109e+01 1.491981744766235352e+00 1.001777267456054688e+01 3.452926397323608398e+00 4.238660037517547607e-01
1.531000000000000000e+03 7.225933074951171875e+01 1.251321601867675781e+01 7.221025228500366211e-01 1.374506855010986328e+01 4.340151309967041016e+00 3.615273535251617432e-01
1.532000000000000000e+03 7.371598815917968750e+01 -2.075094223022460938e+01 5.323756337165832520e-01 1.287464904785156250e+01 4.022107601165771484e+00 -1.221671700477600098e+00
1.533000000000000000e+03 7.931983184814453125e+01 -1.668018341064453125e+01 6.271341443061828613e-02 9.229415893554687500e+00 2.787638902664184570e+00 4.245877265930175781e-01
1.534000000000000000e+03 5.970949172973632812e+01 8.063461303710937500e+00 4.416587352752685547e-01 5.877215385437011719e+00 1.895662188529968262e+00 -6.289933323860168457e-01
1.535000000000000000e+03 6.227790069580078125e+01 9.170831680297851562e+00 5.345332026481628418e-01 2.258801221847534180e+00 8.380003571510314941e-01 -1.331712722778320312e+00
1.536000000000000000e+03 6.222426223754882812e+01 7.464325428009033203e+00 -7.820239663124084473e-01 3.114907979965209961e+00 6.998652219772338867e-01 -1.267335772514343262e+00
1.537000000000000000e+03 6.319277763366699219e+00 3.132635879516601562e+01 -3.789009153842926025e-02 -9.373307228088378906e-02 -3.948694840073585510e-02 -1.084275022149085999e-01
1.538000000000000000e+03 6.002957153320312500e+01 -3.855255889892578125e+01 -2.852107286453247070e+00 9.917837381362915039e-01 -5.580970644950866699e-01 -2.237285077571868896e-01
1.539000000000000000e+03 4.975859451293945312e+01 5.647301197052001953e+00 -1.813272833824157715e+00 -2.601558864116668701e-01 -6.220285892486572266e-01 9.008097648620605469e-01
1.540000000000000000e+03 4.533390426635742188e+01 -2.607989311218261719e+01 -1.387687563896179199e+00 2.712300300598144531e+00 3.973838388919830322e-01 -2.094360351562500000e+00
1.541000000000000000e+03 4.692463302612304688e+01 -1.916540908813476562e+01 1.189209222793579102e+00 1.024056720733642578e+01 3.428932905197143555e+00 2.676227569580078125e+00
1.542000000000000000e+03 6.369294738769531250e+01 1.077317297458648682e-01 1.534989774227142334e-01 5.829374790191650391e+00 1.794862151145935059e+00 4.037933051586151123e-02
1.543000000000000000e+03 6.633586120605468750e+01 -1.520822429656982422e+01 -1.321093678474426270e+00 2.497807741165161133e+00 3.530142307281494141e-01 6.272364258766174316e-01
1.544000000000000000e+03 6.476480102539062500e+01 -1.883990097045898438e+01 4.504777491092681885e-01 7.606011390686035156e+00 2.416946649551391602e+00 5.450848340988159180e-01
1.545000000000000000e+03 2.847109413146972656e+01 1.144593811035156250e+01 -7.123331427574157715e-01 2.763613224029541016e+00 6.153839826583862305e-01 -4.392866790294647217e-01
1.546000000000000000e+03 6.148271560668945312e+01 -2.516523933410644531e+01 6.474744677543640137e-01 1.722915530204772949e+00 7.111170291900634766e-01 -1.151336550712585449e+00
1.547000000000000000e+03 4.728443145751953125e+01 2.208134078979492188e+01 -3.497841954231262207e-01 5.768852233886718750e+00 1.625720381736755371e+00 1.914121150970458984e+00
1.548000000000000000e+03 7.939468383789062500e+01 -2.230133819580078125e+01 1.239437013864517212e-01 6.386378765106201172e+00 1.953096747398376465e+00 8.298027515411376953e-02
1.549000000000000000e+03 4.787892913818359375e+01 -2.617964744567871094e+00 1.075221776962280273e+00 5.632642745971679688e+00 2.012359380722045898e+00 -1.861227035522460938e+00
1.550000000000000000e+03 5.226454162597656250e+01 -2.028744667768478394e-01 -1.133754253387451172e-01 6.259833335876464844e+00 1.843937277793884277e+00 9.249200224876403809e-01
1.551000000000000000e+03 5.112025833129882812e+01 -7.517232894897460938e-01 8.462340235710144043e-01 5.774041652679443359e+00 1.986082792282104492e+00 1.524215936660766602e-01
1.552000000000000000e+03 1.337020015716552734e+01 1.836185646057128906e+01 1.172275185585021973e+00 2.530935406684875488e-01 4.276106357574462891e-01 3.399481177330017090e-01
1.553000000000000000e+03 1.182497596740722656e+01 2.130044937133789062e+01 5.691620111465454102e-01 1.229590401053428650e-01 2.076363116502761841e-01 -1.388897597789764404e-01
1.554000000000000000e+03 5.000451660156250000e+01 -5.296447753906250000e+00 2.009018421173095703e+00 7.739144325256347656e+00 2.924448728561401367e+00 -1.822490245103836060e-01
1.555000000000000000e+03 5.116317367553710938e+01 -5.104051589965820312e+00 2.157282114028930664e+00 8.693316459655761719e+00 3.255179405212402344e+00 -1.741178631782531738e-01
1.556000000000000000e+03 6.685672760009765625e+01 -3.583498764038085938e+01 2.692255675792694092e-01 6.335692405700683594e+00 1.981475353240966797e+00 -6.436553001403808594e-01
1.557000000000000000e+03 6.338410949707031250e+01 -1.903349685668945312e+01 6.221197843551635742e-01 7.135218143463134766e+00 2.327201366424560547e+00 -1.037650704383850098e+00
1.558000000000000000e+03 5.265762710571289062e+01 -9.144329071044921875e+00 1.606469988822937012e+00 5.913549900054931641e+00 2.256006002426147461e+00 -1.837485551834106445e+00
1.559000000000000000e+03 5.628905868530273438e+01 8.966985702514648438e+00 1.997755408287048340e+00 8.972655296325683594e+00 3.291123390197753906e+00 1.540602087974548340e+00
1.560000000000000000e+03 5.190866851806640625e+01 5.587075233459472656e+00 4.887648224830627441e-01 1.580110669136047363e+00 6.206626296043395996e-01 2.151500940322875977e+00
1.561000000000000000e+03 7.784930419921875000e+01 -1.373285484313964844e+01 -6.514762639999389648e-01 9.167319297790527344e+00 2.554752826690673828e+00 3.474860489368438721e-01
1.562000000000000000e+03 1.787228465080261230e+00 -1.081224060058593750e+01 1.004030113108456135e-03 -4.326959326863288879e-02 -1.267966814339160919e-02 -1.549042109400033951e-02
1.563000000000000000e+03 6.069465637207031250e+01 -4.032327270507812500e+01 -1.405200362205505371e+00 -7.450538105331361294e-04 -4.217836260795593262e-01 -7.672791481018066406e-01
1.564000000000000000e+03 2.032191467285156250e+01 2.673359680175781250e+01 1.562239378690719604e-01 3.454433917999267578e+00 1.083197355270385742e+00 -3.978995978832244873e-02
1.565000000000000000e+03 5.990778803825378418e-01 3.176847457885742188e+01 -3.852423280477523804e-03 -7.054700255393981934e-01 -2.127967327833175659e-01 -8.174601197242736816e-02
1.566000000000000000e+03 2.005407142639160156e+01 2.313697624206542969e+01 3.414362668991088867e-01 2.531985998153686523e+00 8.620266914367675781e-01 7.709435303695499897e-04
1.567000000000000000e+03 1.029208087921142578e+01 2.263813781738281250e+01 6.228157281875610352e-01 1.678776144981384277e-01 2.372080087661743164e-01 -2.348108142614364624e-01
1.568000000000000000e+03 7.500976085662841797e+00 2.185250473022460938e+01 2.675431966781616211e-01 3.108908832073211670e-01 1.735302358865737915e-01 -1.585321128368377686e-01
1.569000000000000000e+03 1.845309829711914062e+01 2.323176956176757812e+01 4.104499816894531250e-01 9.684387445449829102e-01 4.136666357517242432e-01 2.545079290866851807e-01
1.570000000000000000e+03 5.139706420898437500e+01 -1.609658813476562500e+01 -6.066221237182617188e+00 -6.194512918591499329e-02 -1.838449954986572266e+00 -1.091527104377746582e+00
1.571000000000000000e+03 5.281282806396484375e+01 -1.389957809448242188e+01 -8.724918961524963379e-01 2.852035760879516602e+00 5.938631892204284668e-01 -3.098179817199707031e+00
1.572000000000000000e+03 1.898470497131347656e+01 3.584879302978515625e+01 -2.854707837104797363e-01 1.495026707649230957e+00 3.628667593002319336e-01 -2.414819449186325073e-01
1.573000000000000000e+03 1.860906982421875000e+01 3.238824081420898438e+01 4.518299102783203125e-01 1.664592504501342773e+00 6.349267363548278809e-01 -7.070510983467102051e-01
1.574000000000000000e+03 6.758999824523925781e+00 3.443748092651367188e+01 -2.773222625255584717e-01 -1.683199703693389893e-01 -1.336926668882369995e-01 -1.269289851188659668e-01
1.575000000000000000e+03 3.467514038085937500e+00 3.703223419189453125e+01 -5.059492960572242737e-02 -2.959848642349243164e-01 -1.039739400148391724e-01 -4.726085066795349121e-02
1.576000000000000000e+03 7.370151519775390625e+01 -1.417346668243408203e+01 -8.083284497261047363e-01 4.275582790374755859e+00 1.040176272392272949e+00 5.769550204277038574e-01
1.577000000000000000e+03 5.387702560424804688e+01 -1.088998794555664062e+01 7.534350752830505371e-01 4.052758693695068359e+00 1.441858172416687012e+00 -3.025689363479614258e+00
1.578000000000000000e+03 2.065619468688964844e+01 7.421755313873291016e+00 8.944635391235351562e-01 -4.418045878410339355e-01 1.357976943254470825e-01 -5.275182053446769714e-02
1.579000000000000000e+03 1.790845870971679688e+01 3.458246994018554688e+01 -1.021010652184486389e-01 1.117647290229797363e+00 3.046638667583465576e-01 -5.115190744400024414e-01
1.580000000000000000e+03 6.683543395996093750e+01 -2.650386238098144531e+01 -1.937334060668945312e+00 6.375432491302490234e+00 1.331429481506347656e+00 -2.769469499588012695e+00
1.581000000000000000e+03 4.596843338012695312e+01 7.167191982269287109e+00 -3.962466120719909668e-02 3.260438203811645508e+00 9.662440419197082520e-01 -8.700895309448242188e-01
1.582000000000000000e+03 4.697377395629882812e+01 6.360806941986083984e+00 -3.970137238502502441e-01 1.482219934463500977e+00 3.255618512630462646e-01 -5.588582158088684082e-01
1.583000000000000000e+03 1.534085464477539062e+01 3.801296615600585938e+01 -1.096073091030120850e-01 4.940814673900604248e-01 1.153422445058822632e-01 -2.153059691190719604e-01
1.584000000000000000e+03 1.627986907958984375e+01 1.834192657470703125e+01 5.952251553535461426e-01 -5.275624617934226990e-02 1.627406626939773560e-01 7.240931689739227295e-02
1.585000000000000000e+03 2.253355598449707031e+01 2.888162231445312500e+01 2.658119201660156250e-01 2.232871532440185547e+00 7.496050000190734863e-01 2.136329114437103271e-01
1.586000000000000000e+03 1.681607246398925781e+01 2.297971725463867188e+01 2.588541209697723389e-01 2.008177805691957474e-03 7.825868576765060425e-02 -6.705871969461441040e-02
1.587000000000000000e+03 1.433236885070800781e+01 2.293131637573242188e+01 2.060057967901229858e-01 -7.056579459458589554e-03 5.968476459383964539e-02 6.601363420486450195e-03
1.588000000000000000e+03 6.385906338691711426e-01 2.899080085754394531e+01 -1.168994884938001633e-02 -1.084684729576110840e+00 -3.289123773574829102e-01 -8.404640853404998779e-02
1.589000000000000000e+03 3.688716411590576172e+00 2.909749794006347656e+01 2.496426180005073547e-02 -3.276672661304473877e-01 -9.081090241670608521e-02 -3.203516900539398193e-01
1.590000000000000000e+03 4.911481380462646484e+00 2.793253135681152344e+01 1.411287784576416016e-01 2.833494544029235840e-01 1.273434609174728394e-01 -2.503880560398101807e-01
1.591000000000000000e+03 7.781201934814453125e+01 -1.519490909576416016e+01 -3.634691238403320312e-01 8.834713935852050781e+00 2.541373491287231445e+00 7.235338091850280762e-01
1.592000000000000000e+03 5.617016315460205078e+00 4.120913982391357422e+00 -1.177261695265769958e-01 -3.312550485134124756e-02 -4.525550082325935364e-02 8.303991705179214478e-02
1.593000000000000000e+03 1.313465785980224609e+01 2.157281684875488281e+01 4.890198707580566406e-01 7.914236187934875488e-02 1.704486757516860962e-01 -1.955987885594367981e-02
1.594000000000000000e+03 6.948081493377685547e+00 2.288027000427246094e+01 2.924237251281738281e-01 3.217049241065979004e-01 1.842385977506637573e-01 -1.797004640102386475e-01
1.595000000000000000e+03 1.518695354461669922e+01 2.056778144836425781e+01 8.398848176002502441e-01 -1.564641110599040985e-02 2.472715228796005249e-01 2.282017916440963745e-01
1.596000000000000000e+03 7.103703308105468750e+01 -1.487327289581298828e+01 -1.393831968307495117e-01 1.231202125549316406e+00 3.275457024574279785e-01 -1.624682307243347168e+00
1.597000000000000000e+03 3.733372879028320312e+01 3.401258850097656250e+01 -7.973672747611999512e-01 1.806197881698608398e+00 3.026491701602935791e-01 5.600608587265014648e-01
1.598000000000000000e+03 3.130053138732910156e+01 2.865876579284667969e+01 1.064193248748779297e+00 3.824169874191284180e+00 1.466508984565734863e+00 -1.454802751541137695e+00
1.599000000000000000e+03 6.304186630249023438e+01 -2.426560211181640625e+01 1.279286265373229980e+00 5.482357025146484375e+00 2.028492927551269531e+00 -2.248634338378906250e+00
1.600000000000000000e+03 6.502677154541015625e+01 -2.727813529968261719e+01 -1.335056066513061523e+00 8.845901489257812500e+00 2.253253698348999023e+00 -2.636484861373901367e+00
1.601000000000000000e+03 3.646480560302734375e+01 2.131939506530761719e+01 -1.238969936966896057e-01 4.080525875091552734e+00 1.186988711357116699e+00 -2.108837127685546875e+00
1.602000000000000000e+03 7.735230255126953125e+01 -2.436812782287597656e+01 3.960267603397369385e-01 7.767866611480712891e+00 2.449167966842651367e+00 -4.741407334804534912e-01
1.603000000000000000e+03 7.551027679443359375e+01 -2.433450698852539062e+01 9.755325913429260254e-01 8.752473831176757812e+00 2.918401956558227539e+00 -1.114936321973800659e-01
1.604000000000000000e+03 5.385776138305664062e+01 -2.486032485961914062e+01 -2.141687154769897461e+00 3.781981229782104492e+00 4.920882284641265869e-01 1.912980556488037109e+00
1.605000000000000000e+03 6.541052246093750000e+01 -4.920616149902343750e+00 1.211971759796142578e+00 1.049916458129882812e+01 3.513340711593627930e+00 1.956425786018371582e+00
1.606000000000000000e+03 4.562017059326171875e+01 9.105960845947265625e+00 8.324523270130157471e-02 4.322203159332275391e+00 1.321634531021118164e+00 -7.573982477188110352e-01
1.607000000000000000e+03 4.466633987426757812e+01 1.109663486480712891e+01 2.115304172039031982e-01 9.960343360900878906e+00 3.051562309265136719e+00 -6.608264446258544922e-01
1.608000000000000000e+03 5.502757644653320312e+01 2.878916025161743164e+00 -3.441540896892547607e-01 4.485146045684814453e+00 1.242297530174255371e+00 1.612879991531372070e+00
1.609000000000000000e+03 7.115191650390625000e+01 -8.510535955429077148e-01 -2.153218984603881836e+00 -3.895711898803710938e-02 -6.576528549194335938e-01 2.485971152782440186e-01
1.610000000000000000e+03 3.631790542602539062e+01 3.574094009399414062e+01 -1.685300350189208984e+00 2.776492357254028320e+00 3.273575603961944580e-01 6.030776500701904297e-01
1.611000000000000000e+03 7.291806793212890625e+01 -3.034198880195617676e-01 -8.995032906532287598e-01 3.275761127471923828e+00 7.128773927688598633e-01 -1.130189776420593262e+00
1.612000000000000000e+03 6.917250823974609375e+01 1.004006981849670410e+00 2.877446711063385010e-01 1.736528038978576660e+00 6.072818040847778320e-01 1.953640818595886230e+00
1.613000000000000000e+03 6.290159988403320312e+01 -3.834800338745117188e+01 -2.766721963882446289e+00 1.301981359720230103e-01 -7.909571528434753418e-01 -5.174220204353332520e-01
1.614000000000000000e+03 5.285924911499023438e+01 2.994014739990234375e+00 -5.857859849929809570e-01 4.854194641113281250e+00 1.280522584915161133e+00 2.432486295700073242e+00
1.615000000000000000e+03 5.440984344482421875e+01 6.734424591064453125e+00 2.637002706527709961e+00 8.521267890930175781e+00 3.347481250762939453e+00 3.100151300430297852e+00
1.616000000000000000e+03 7.798464202880859375e+01 3.181009483337402344e+01 4.394361749291419983e-02 7.152683258056640625e+00 2.158987998962402344e+00 5.043733492493629456e-02
1.617000000000000000e+03 7.927581787109375000e+01 3.625020599365234375e+01 -1.616846770048141479e-02 7.596354484558105469e+00 2.274055957794189453e+00 4.489037394523620605e-02
1.618000000000000000e+03 7.937300109863281250e+01 -2.089727783203125000e+01 1.804927550256252289e-02 6.761524200439453125e+00 2.033872127532958984e+00 2.437106817960739136e-01
1.619000000000000000e+03 7.941094970703125000e+01 -2.772676277160644531e+01 -4.377629607915878296e-02 7.720462799072265625e+00 2.303005933761596680e+00 -1.045296788215637207e-01
1.620000000000000000e+03 7.681971740722656250e+01 -3.791748046875000000e+01 -4.811644926667213440e-02 7.486353397369384766e+00 2.231471061706542969e+00 -2.288523316383361816e-01
1.621000000000000000e+03 7.928309631347656250e+01 -3.464210891723632812e+01 2.423730911687016487e-03 7.726497173309326172e+00 2.318676233291625977e+00 -3.392715752124786377e-02
1.622000000000000000e+03 7.661435699462890625e+01 -2.760094070434570312e+01 -4.018895924091339111e-01 7.639947891235351562e+00 2.171417474746704102e+00 -7.153882086277008057e-02
1.623000000000000000e+03 7.608155822753906250e+01 -2.998717498779296875e+01 -9.178815037012100220e-02 7.055062770843505859e+00 2.088982343673706055e+00 3.075215816497802734e-01
1.624000000000000000e+03 7.926054382324218750e+01 -3.044462013244628906e+01 2.915205806493759155e-02 7.792926788330078125e+00 2.346623659133911133e+00 -9.633502922952175140e-03
1.625000000000000000e+03 7.789984130859375000e+01 -3.423464584350585938e+01 1.045106649398803711e-01 7.415215492248535156e+00 2.255917787551879883e+00 -5.882513150572776794e-02
1.626000000000000000e+03 7.794929504394531250e+01 -3.293552780151367188e+01 4.029763489961624146e-02 7.398456573486328125e+00 2.231626272201538086e+00 -6.715151015669107437e-03
1.627000000000000000e+03 7.441022491455078125e+01 -3.801475524902343750e+01 -1.121625974774360657e-01 6.918832778930664062e+00 2.042001008987426758e+00 -5.276470184326171875e-01
1.628000000000000000e+03 7.604516601562500000e+01 -3.919804382324218750e+01 -7.446287572383880615e-02 7.504127979278564453e+00 2.228899478912353516e+00 -3.421451747417449951e-01
1.629000000000000000e+03 7.822348022460937500e+01 1.431102466583251953e+01 1.691852062940597534e-01 6.374425888061523438e+00 1.963083267211914062e+00 5.394430756568908691e-01
1.630000000000000000e+03 7.942574310302734375e+01 1.542131137847900391e+01 -2.320226281881332397e-03 5.956028461456298828e+00 1.786112427711486816e+00 2.737468481063842773e-01
1.631000000000000000e+03 7.806313323974609375e+01 2.093192672729492188e+01 -1.939433813095092773e-01 7.666365623474121094e+00 2.241726636886596680e+00 2.390656173229217529e-01
1.632000000000000000e+03 7.934912109375000000e+01 2.231114578247070312e+01 -2.350412867963314056e-02 8.134498596191406250e+00 2.433298349380493164e+00 2.178275771439075470e-02
1.633000000000000000e+03 7.815866851806640625e+01 3.048307037353515625e+01 7.355848699808120728e-02 7.187223434448242188e+00 2.178234577178955078e+00 -2.633009850978851318e-02
1.634000000000000000e+03 7.821909332275390625e+01 2.788242340087890625e+01 5.503283813595771790e-02 7.294878005981445312e+00 2.204973220825195312e+00 -1.776075512170791626e-01
1.635000000000000000e+03 7.940357208251953125e+01 2.786890411376953125e+01 -8.527172030881047249e-04 7.600164413452148438e+00 2.279793500900268555e+00 -5.840549618005752563e-02
1.636000000000000000e+03 7.804698944091796875e+01 2.516466140747070312e+01 -1.620992086827754974e-02 7.493092536926269531e+00 2.243064641952514648e+00 -2.041675448417663574e-01
1.637000000000000000e+03 7.803063964843750000e+01 2.374793243408203125e+01 -1.015505567193031311e-01 7.592519760131835938e+00 2.247290611267089844e+00 -1.577066779136657715e-01
1.638000000000000000e+03 7.280599975585937500e+01 1.567724514007568359e+01 7.047064304351806641e-01 9.278832435607910156e+00 2.995061635971069336e+00 1.170461624860763550e-02
1.639000000000000000e+03 7.705432891845703125e+01 1.819159889221191406e+01 -2.772028148174285889e-01 7.458891391754150391e+00 2.154506444931030273e+00 8.176140785217285156e-01
1.640000000000000000e+03 7.827700042724609375e+01 1.689897346496582031e+01 -1.873700693249702454e-02 6.979122161865234375e+00 2.088115692138671875e+00 7.438883781433105469e-01
1.641000000000000000e+03 7.466411590576171875e+01 9.259214401245117188e+00 6.524589657783508301e-01 8.116353034973144531e+00 2.630643606185913086e+00 -6.550284624099731445e-01
1.642000000000000000e+03 7.525275421142578125e+01 1.231523036956787109e+01 1.234276056289672852e+00 8.316259384155273438e+00 2.865160703659057617e+00 2.014455795288085938e-01
1.643000000000000000e+03 7.808224487304687500e+01 8.829218864440917969e+00 1.454650312662124634e-01 6.614852428436279297e+00 2.028095245361328125e+00 -7.152854204177856445e-01
1.644000000000000000e+03 7.937432098388671875e+01 9.905217170715332031e+00 8.397363871335983276e-02 5.473003387451171875e+00 1.667093157768249512e+00 -2.069581896066665649e-01
1.645000000000000000e+03 7.482332611083984375e+01 -1.687360000610351562e+01 -3.821546435356140137e-01 7.379170417785644531e+00 2.099104642868041992e+00 5.148884654045104980e-01
1.646000000000000000e+03 7.929267120361328125e+01 -1.388006973266601562e+01 -9.072575718164443970e-02 1.035803318023681641e+01 3.080192327499389648e+00 5.844436958432197571e-02
1.647000000000000000e+03 7.936120605468750000e+01 -1.949186325073242188e+01 1.115733757615089417e-01 7.434524536132812500e+00 2.263829469680786133e+00 3.836435377597808838e-01
1.648000000000000000e+03 7.704067993164062500e+01 -2.226268768310546875e+01 7.136816382408142090e-01 8.098421096801757812e+00 2.643630743026733398e+00 2.366566658020019531e-01
1.649000000000000000e+03 7.931632995605468750e+01 -6.972232818603515625e+00 2.412018179893493652e-01 7.247568607330322266e+00 2.246631145477294922e+00 -1.432281881570816040e-01
1.650000000000000000e+03 7.932143402099609375e+01 -5.538055419921875000e+00 1.336023062467575073e-01 7.345743179321289062e+00 2.243803739547729492e+00 2.471293210983276367e-01
1.651000000000000000e+03 7.820188903808593750e+01 4.367396235466003418e-01 -2.340659946203231812e-01 8.514637947082519531e+00 2.484171628952026367e+00 -8.344954997301101685e-02
1.652000000000000000e+03 7.941798400878906250e+01 1.519005775451660156e+00 -5.667808279395103455e-02 9.182945251464843750e+00 2.737880229949951172e+00 -1.097143292427062988e-01
1.653000000000000000e+03 7.825727081298828125e+01 2.918014907836914062e+01 4.495192319154739380e-02 7.228871822357177734e+00 2.182147026062011719e+00 -9.266439080238342285e-02
1.654000000000000000e+03 7.561824798583984375e+01 3.554034423828125000e+01 -2.066258713603019714e-02 6.801778316497802734e+00 2.034334659576416016e+00 2.720225453376770020e-01
1.655000000000000000e+03 7.592985534667968750e+01 3.415731048583984375e+01 2.806945703923702240e-02 6.793479442596435547e+00 2.046464681625366211e+00 2.519585788249969482e-01
1.656000000000000000e+03 7.816722106933593750e+01 1.017969703674316406e+01 2.475845515727996826e-01 6.314363956451416016e+00 1.968584537506103516e+00 -4.800403416156768799e-01
1.657000000000000000e+03 7.826914215087890625e+01 1.761917471885681152e+00 -1.801251173019409180e-01 8.422100067138671875e+00 2.472592592239379883e+00 -4.018636941909790039e-01
1.658000000000000000e+03 7.827514648437500000e+01 3.108581542968750000e+00 -1.482620686292648315e-01 8.044960021972656250e+00 2.369009256362915039e+00 -5.869589447975158691e-01
1.659000000000000000e+03 7.517744445800781250e+01 -3.126345157623291016e+00 -1.674529314041137695e-01 8.725622177124023438e+00 2.567450761795043945e+00 -8.040218353271484375e-01
1.660000000000000000e+03 7.552315521240234375e+01 -2.730873525142669678e-01 -9.042673707008361816e-01 7.180790901184082031e+00 1.882956981658935547e+00 -7.585338354110717773e-01
1.661000000000000000e+03 7.480171966552734375e+01 -4.775355815887451172e+00 1.318387031555175781e+00 1.206400871276855469e+01 4.014718532562255859e+00 -2.748920440673828125e+00
1.662000000000000000e+03 7.806349945068359375e+01 -1.235513019561767578e+01 -4.432288706302642822e-01 9.456353187561035156e+00 2.703937292098999023e+00 -5.056030154228210449e-01
1.663000000000000000e+03 7.455530548095703125e+01 -1.519715404510498047e+01 -7.583355903625488281e-01 6.140531539916992188e+00 1.614658832550048828e+00 5.759358406066894531e-01
1.664000000000000000e+03 7.581040191650390625e+01 -1.807452583312988281e+01 5.936785042285919189e-02 8.276675224304199219e+00 2.500812768936157227e+00 1.074101209640502930e+00
1.665000000000000000e+03 7.808660888671875000e+01 -1.946290779113769531e+01 1.164009049534797668e-01 7.992083072662353516e+00 2.432545185089111328e+00 8.821567893028259277e-01
1.666000000000000000e+03 7.790590667724609375e+01 -8.514135360717773438e+00 5.458154678344726562e-01 9.155461311340332031e+00 2.910382986068725586e+00 -1.003594279289245605e+00
1.667000000000000000e+03 7.808412170410156250e+01 -9.906088829040527344e+00 -1.168746799230575562e-01 9.376454353332519531e+00 2.777873992919921875e+00 -1.250205993652343750e+00
1.668000000000000000e+03 1.951002883911132812e+01 7.058389186859130859e+00 8.461851477622985840e-01 -4.978037476539611816e-01 1.045144125819206238e-01 5.107408761978149414e-02
1.669000000000000000e+03 5.408394622802734375e+01 -3.353835678100585938e+01 2.281616687774658203e+00 7.559196949005126953e+00 2.952244043350219727e+00 1.293228268623352051e-01
1.670000000000000000e+03 5.570400619506835938e+01 -2.965075874328613281e+01 8.934664726257324219e-01 7.672406196594238281e+00 2.569761753082275391e+00 1.805651068687438965e+00
1.671000000000000000e+03 5.668949890136718750e+01 -3.042471694946289062e+01 1.712328076362609863e+00 9.856066703796386719e+00 3.470518350601196289e+00 3.437348365783691406e+00
1.672000000000000000e+03 4.509881973266601562e+01 2.176690483093261719e+01 -2.448552846908569336e+00 7.096530437469482422e+00 1.394393324851989746e+00 2.471106529235839844e+00
1.673000000000000000e+03 2.201601600646972656e+01 1.144163990020751953e+01 -1.898656715638935566e-03 1.414519548416137695e+00 4.237862527370452881e-01 -1.341977953910827637e+00
1.674000000000000000e+03 1.651209068298339844e+01 2.041805839538574219e+01 1.036038756370544434e+00 -4.787288978695869446e-02 2.964497506618499756e-01 1.933544576168060303e-01
1.675000000000000000e+03 4.172664642333984375e+01 3.703065490722656250e+01 -8.282360434532165527e-01 1.344770312309265137e+00 1.549603044986724854e-01 -6.475869417190551758e-01
1.676000000000000000e+03 3.768746566772460938e+01 3.710399627685546875e+01 -9.915202260017395020e-01 1.629129767417907715e+00 1.912828832864761353e-01 7.889880537986755371e-01
1.677000000000000000e+03 7.560765838623046875e+01 -5.404713630676269531e+00 1.334972739219665527e+00 1.224702072143554688e+01 4.074597835540771484e+00 -1.393747448921203613e+00
1.678000000000000000e+03 2.118481063842773438e+01 1.733798980712890625e+01 -1.101985499262809753e-01 3.438246726989746094e+00 9.984144568443298340e-01 -2.187151461839675903e-01
1.679000000000000000e+03 5.934926605224609375e+01 1.254366874694824219e+01 1.212981104850769043e+00 8.825950622558593750e+00 3.011679649353027344e+00 1.065068364143371582e+00
1.680000000000000000e+03 7.539688110351562500e+01 -6.656419754028320312e+00 6.787478327751159668e-01 1.425438976287841797e+01 4.479941368103027344e+00 -1.006634593009948730e+00
1.681000000000000000e+03 3.283606719970703125e+01 1.236135768890380859e+01 -3.869615793228149414e+00 2.008733749389648438e-01 -1.100622773170471191e+00 2.369187623262405396e-01
1.682000000000000000e+03 3.406565475463867188e+01 1.231364536285400391e+01 -4.202017784118652344e+00 3.426794707775115967e-02 -1.250324964523315430e+00 -6.562709808349609375e-02
1.683000000000000000e+03 6.342819595336914062e+01 -3.469468116760253906e+00 1.883471488952636719e+00 8.369822502136230469e+00 3.075988292694091797e+00 -9.767314791679382324e-02
1.684000000000000000e+03 5.737970352172851562e+01 -3.628934478759765625e+01 1.555971384048461914e+00 4.416269779205322266e+00 1.791672348976135254e+00 -2.765090942382812500e+00
1.685000000000000000e+03 6.544769287109375000e+01 -1.105085849761962891e+01 -3.878912627696990967e-01 6.310185909271240234e+00 1.776688456535339355e+00 -1.008706450462341309e+00
1.686000000000000000e+03 6.601567840576171875e+01 -9.452398300170898438e+00 1.670515537261962891e+00 6.647302627563476562e+00 2.495345354080200195e+00 -3.007395744323730469e+00
1.687000000000000000e+03 3.522489547729492188e+01 2.095735740661621094e+01 -5.411599203944206238e-02 4.570954799652099609e+00 1.355051517486572266e+00 -1.626497030258178711e+00
1.688000000000000000e+03 8.406239509582519531e+00 1.317340373992919922e+01 1.198218390345573425e-01 1.134451627731323242e-01 6.998009979724884033e-02 3.357927203178405762e-01
1.689000000000000000e+03 8.586329460144042969e+00 1.229230213165283203e+01 -3.363988129422068596e-03 1.039944589138031006e-01 3.018914163112640381e-02 3.405131995677947998e-01
1.690000000000000000e+03 4.548945617675781250e+01 1.661665344238281250e+01 2.722012042999267578e+00 1.089697551727294922e+01 4.085696220397949219e+00 4.467183589935302734e+00
1.691000000000000000e+03 9.019239425659179688e+00 1.660183525085449219e+01 3.366019129753112793e-01 2.883262038230895996e-01 1.874784380197525024e-01 1.992653310298919678e-01
1.692000000000000000e+03 2.192662429809570312e+01 1.362143802642822266e+01 -1.968921162188053131e-02 2.202647209167480469e+00 6.548874378204345703e-01 -1.211204171180725098e+00
1.693000000000000000e+03 5.022474670410156250e+01 2.962988471984863281e+01 1.557662010192871094e+00 6.586291790008544922e+00 2.443186044692993164e+00 8.836523294448852539e-01
1.694000000000000000e+03 1.420157241821289062e+01 4.591597080230712891e+00 -3.477368950843811035e-01 8.906647562980651855e-03 -1.016490757465362549e-01 5.172378420829772949e-01
1.695000000000000000e+03 1.703056526184082031e+01 4.133637905120849609e+00 -6.015374660491943359e-01 -6.982443481683731079e-02 -2.014085650444030762e-01 4.280954301357269287e-01
1.696000000000000000e+03 9.857346534729003906e+00 8.137375831604003906e+00 -3.118218481540679932e-01 -2.151393890380859375e-01 -1.580883711576461792e-01 2.435264289379119873e-01
1.697000000000000000e+03 7.892517566680908203e+00 3.406965017318725586e+00 -1.701156795024871826e-01 -3.001569211483001709e-02 -6.003940850496292114e-02 9.852760285139083862e-02
1.698000000000000000e+03 7.307131195068359375e+01 -1.309841537475585938e+01 -1.044977664947509766e+00 2.222567081451416016e+00 3.532768189907073975e-01 3.411629199981689453e-01
1.699000000000000000e+03 4.461661148071289062e+01 2.312281799316406250e+01 1.475469470024108887e+00 6.406354904174804688e+00 2.364547491073608398e+00 3.346177101135253906e+00
1.700000000000000000e+03 4.415447998046875000e+01 3.198850631713867188e+01 5.447555184364318848e-01 2.239339828491210938e+00 8.352286219596862793e-01 -1.168715953826904297e+00
1.701000000000000000e+03 3.439810562133789062e+01 2.800509643554687500e+01 1.123579621315002441e+00 8.539038658142089844e+00 2.898785591125488281e+00 -8.678728938102722168e-01
1.702000000000000000e+03 5.484209442138671875e+01 1.178912162780761719e+01 3.055737614631652832e-01 1.073661994934082031e+01 3.312658071517944336e+00 -2.280691862106323242e-01
1.703000000000000000e+03 5.554316329956054688e+01 1.568163681030273438e+01 1.073747992515563965e+00 5.781778335571289062e+00 2.056657791137695312e+00 -3.870007097721099854e-01
1.704000000000000000e+03 4.492894744873046875e+01 3.328275299072265625e+01 -5.585139989852905273e-01 3.810440063476562500e+00 9.755777716636657715e-01 -1.230490207672119141e+00
1.705000000000000000e+03 5.660201263427734375e+01 -2.696252632141113281e+01 -2.267212629318237305e+00 7.094965934753417969e+00 1.448325991630554199e+00 1.800686717033386230e+00
1.706000000000000000e+03 4.711126327514648438e+01 2.068169975280761719e+01 -2.628454446792602539e+00 5.389612674713134766e+00 8.283474445343017578e-01 2.867252349853515625e+00
1.707000000000000000e+03 4.547979736328125000e+01 1.967405319213867188e+01 -2.094931840896606445e+00 7.373554229736328125e+00 1.583586692810058594e+00 2.982260704040527344e+00
1.708000000000000000e+03 5.790522003173828125e+01 1.199343013763427734e+01 1.481466293334960938e+00 8.576994895935058594e+00 3.017538547515869141e+00 1.414826154708862305e+00
1.709000000000000000e+03 5.185956954956054688e+01 1.703307914733886719e+01 1.871391944587230682e-02 1.531368851661682129e+00 4.650248587131500244e-01 -9.664949774742126465e-01
1.710000000000000000e+03 5.009107971191406250e+01 -3.093897628784179688e+01 3.163400411605834961e+00 7.168941497802734375e+00 3.099702596664428711e+00 -1.839712381362915039e+00
1.711000000000000000e+03 6.775458526611328125e+01 -3.273092651367187500e+01 1.596963763236999512e+00 7.192845344543457031e+00 2.636942625045776367e+00 -1.929685235023498535e+00
1.712000000000000000e+03 6.708717346191406250e+01 -3.022632408142089844e+01 2.900478601455688477e+00 6.619611740112304688e+00 2.856027126312255859e+00 -2.213054895401000977e+00
1.713000000000000000e+03 6.263396835327148438e+01 -7.621968269348144531e+00 1.788568735122680664e+00 8.883007049560546875e+00 3.201472759246826172e+00 6.926354020833969116e-02
1.714000000000000000e+03 6.448410034179687500e+01 -7.345485687255859375e+00 1.612519741058349609e+00 1.068854331970214844e+01 3.690318822860717773e+00 -8.964720964431762695e-01
1.715000000000000000e+03 4.070574188232421875e+01 1.154151439666748047e+01 1.730223298072814941e-01 7.905684471130371094e+00 2.423611879348754883e+00 5.733309388160705566e-01
1.716000000000000000e+03 3.403881072998046875e+01 3.329066085815429688e+01 -6.937538981437683105e-01 4.483723163604736328e+00 1.136990785598754883e+00 -3.416593372821807861e-01
1.717000000000000000e+03 2.923939895629882812e+01 3.258885192871093750e+01 3.051528930664062500e-01 2.463712453842163086e+00 8.306596279144287109e-01 -1.056968569755554199e+00
1.718000000000000000e+03 1.358598041534423828e+01 -1.315879917144775391e+01 6.512110680341720581e-02 2.572232186794281006e-01 9.670329838991165161e-02 -1.740833520889282227e-01
1.719000000000000000e+03 7.796648406982421875e+01 -3.920933246612548828e+00 4.174715653061866760e-02 8.745431900024414062e+00 2.636153697967529297e+00 7.187680006027221680e-01
1.720000000000000000e+03 4.344532775878906250e+01 1.408394145965576172e+01 1.934093713760375977e+00 1.000912189483642578e+01 3.582964658737182617e+00 1.149951338768005371e+00
1.721000000000000000e+03 3.802722167968750000e+01 1.062661457061767578e+01 6.566804051399230957e-01 4.206010818481445312e+00 1.458807349205017090e+00 -1.532738685607910156e+00
1.722000000000000000e+03 6.672940063476562500e+01 -7.008540034294128418e-01 7.650967836380004883e-01 3.943518877029418945e+00 1.412584662437438965e+00 2.010671377182006836e+00
1.723000000000000000e+03 6.189486694335937500e+01 -2.887512445449829102e+00 2.092084646224975586e+00 8.588549613952636719e+00 3.204190254211425781e+00 -1.332520365715026855e+00
1.724000000000000000e+03 3.524374389648437500e+01 2.804719543457031250e+01 3.284615576267242432e-01 1.060568904876708984e+01 3.280245065689086914e+00 -3.137809038162231445e-02
1.725000000000000000e+03 5.669989013671875000e+01 -3.694980239868164062e+01 -8.284162878990173340e-01 7.086985588073730469e+00 1.877570748329162598e+00 -1.535815954208374023e+00
1.726000000000000000e+03 5.628458023071289062e+01 -2.833072090148925781e+01 -1.132109090685844421e-01 7.612708091735839844e+00 2.249849319458007812e+00 1.980334877967834473e+00
1.727000000000000000e+03 7.798465728759765625e+01 -6.964765548706054688e+00 6.953473687171936035e-01 9.001037597656250000e+00 2.908915519714355469e+00 -1.841451525688171387e-01
1.728000000000000000e+03 7.455754852294921875e+01 -1.838533163070678711e+00 -7.786598205566406250e-01 6.555521011352539062e+00 1.733058333396911621e+00 -1.006814002990722656e+00
1.729000000000000000e+03 7.352650451660156250e+01 -2.367935657501220703e+00 3.798061907291412354e-01 4.142190933227539062e+00 1.356599092483520508e+00 -1.413755297660827637e+00
1.730000000000000000e+03 6.982868957519531250e+01 -3.384815216064453125e+01 1.261858701705932617e+00 5.648750782012939453e+00 2.073182821273803711e+00 -1.565600275993347168e+00
1.731000000000000000e+03 7.148702239990234375e+01 -2.927112388610839844e+01 8.412005901336669922e-01 3.257789850234985352e+00 1.229697108268737793e+00 9.221920371055603027e-01
1.732000000000000000e+03 6.410056304931640625e+01 -2.637462997436523438e+01 -1.566710233688354492e+00 7.819994449615478516e+00 1.875985264778137207e+00 -2.849448919296264648e+00
1.733000000000000000e+03 3.470371246337890625e+01 2.214982604980468750e+01 7.495943456888198853e-02 5.712138175964355469e+00 1.736129283905029297e+00 -1.174186706542968750e+00
1.734000000000000000e+03 3.593771743774414062e+01 2.260063362121582031e+01 -2.578588575124740601e-02 4.987593173980712891e+00 1.488542079925537109e+00 -1.768953442573547363e+00
1.735000000000000000e+03 4.605855178833007812e+01 3.281606674194335938e+01 -5.576866269111633301e-01 5.078472614288330078e+00 1.356235861778259277e+00 -6.536594629287719727e-01
1.736000000000000000e+03 6.720404815673828125e+01 -1.177593994140625000e+01 4.270191192626953125e-01 2.987707376480102539e+00 1.024417996406555176e+00 -1.254410982131958008e+00
1.737000000000000000e+03 7.088318634033203125e+01 -1.352635478973388672e+01 -2.683024108409881592e-01 3.839584887027740479e-01 3.469682112336158752e-02 -1.368580818176269531e+00
1.738000000000000000e+03 3.217771911621093750e+01 2.169431686401367188e+00 1.413375735282897949e+00 5.460124015808105469e+00 2.062049865722656250e+00 -4.544539928436279297e+00
1.739000000000000000e+03 3.294614028930664062e+01 1.309238195419311523e+00 -2.694854497909545898e+00 7.638275623321533203e+00 1.483026385307312012e+00 -6.295794486999511719e+00
1.740000000000000000e+03 4.363906860351562500e+01 1.562034034729003906e+01 1.871213793754577637e+00 9.008528709411621094e+00 3.263922691345214844e+00 1.384644627571105957e+00
1.741000000000000000e+03 5.184806442260742188e+01 1.899067115783691406e+01 -2.123759031295776367e+00 3.037722587585449219e+00 2.741890847682952881e-01 -1.578495621681213379e+00
1.742000000000000000e+03 5.273001861572265625e+01 1.786275291442871094e+01 -8.400797247886657715e-01 3.009210348129272461e+00 6.507391929626464844e-01 -1.364875793457031250e+00
1.743000000000000000e+03 5.361638259887695312e+01 1.693801879882812500e+01 -9.958734735846519470e-03 4.024003505706787109e+00 1.204213500022888184e+00 -1.612444877624511719e+00
1.744000000000000000e+03 3.948049163818359375e+01 1.888059377670288086e+00 1.753553152084350586e+00 8.611736297607421875e+00 3.109586715698242188e+00 1.853168129920959473e+00
1.745000000000000000e+03 3.767383956909179688e+01 2.106855154037475586e+00 4.020871639251708984e+00 4.711714744567871094e+00 2.619776010513305664e+00 4.674039840698242188e+00
1.746000000000000000e+03 5.613129043579101562e+01 1.151968288421630859e+01 1.361328959465026855e+00 9.477690696716308594e+00 3.251706123352050781e+00 1.146834492683410645e+00
1.747000000000000000e+03 5.903218841552734375e+01 1.145268821716308594e+01 1.178141593933105469e+00 8.141530990600585938e+00 2.795901775360107422e+00 9.731798768043518066e-01
1.748000000000000000e+03 3.537652969360351562e+01 -1.139931753277778625e-01 5.678458690643310547e+00 3.040889978408813477e+00 2.615804433822631836e+00 2.732763290405273438e+00
1.749000000000000000e+03 2.864625930786132812e+01 8.856991767883300781e+00 1.008316278457641602e+00 5.881878852844238281e+00 2.067058563232421875e+00 -2.027276158332824707e-01
1.750000000000000000e+03 5.250139713287353516e+00 -1.720163726806640625e+01 -8.626649528741836548e-02 -1.385677754878997803e-01 -6.745028495788574219e-02 -1.233288273215293884e-01
1.751000000000000000e+03 3.402248764038085938e+01 1.330123043060302734e+01 -1.938752889633178711e+00 5.363135933876037598e-01 -4.207317829132080078e-01 -4.528298974037170410e-01
1.752000000000000000e+03 2.983552169799804688e+01 4.973135948181152344e+00 5.911502838134765625e+00 9.744788169860839844e+00 4.696887016296386719e+00 -5.822009563446044922e+00
1.753000000000000000e+03 1.551913928985595703e+01 -1.572671318054199219e+01 2.140696346759796143e-01 5.745193362236022949e-01 2.365766912698745728e-01 -3.008583784103393555e-01
1.754000000000000000e+03 3.995333099365234375e+01 3.562687158584594727e+00 4.294853687286376953e+00 1.201183319091796875e+01 4.892006397247314453e+00 2.718439102172851562e+00
1.755000000000000000e+03 1.770901203155517578e+00 -2.193400001525878906e+01 6.301803141832351685e-02 -5.245385766029357910e-01 -1.384561657905578613e-01 -5.379061028361320496e-02
1.756000000000000000e+03 3.847949981689453125e+01 1.190028190612792969e+01 -5.729787349700927734e-01 5.135850429534912109e+00 1.368861556053161621e+00 -9.833739995956420898e-01
1.757000000000000000e+03 4.054692840576171875e+01 1.022230243682861328e+01 -2.244565039873123169e-01 9.407721519470214844e+00 2.754979610443115234e+00 6.660343408584594727e-01
1.758000000000000000e+03 4.524598312377929688e+01 -1.662940406799316406e+01 -7.533863782882690430e-01 4.789940357208251953e+00 1.210966229438781738e+00 1.413908958435058594e+00
1.759000000000000000e+03 2.784400367736816406e+01 7.346703529357910156e+00 2.477990388870239258e+00 5.682116031646728516e+00 2.448031902313232422e+00 -2.514217138290405273e+00
1.760000000000000000e+03 2.914520263671875000e+01 1.355002975463867188e+01 -2.061972856521606445e+00 1.404238224029541016e+00 -1.973203718662261963e-01 9.039071798324584961e-01
1.761000000000000000e+03 2.871044158935546875e+01 1.249507522583007812e+01 -1.080701947212219238e+00 2.172934532165527344e+00 3.276697695255279541e-01 5.943066254258155823e-02
1.762000000000000000e+03 1.712190437316894531e+01 -1.766830062866210938e+01 3.237622380256652832e-01 2.373770624399185181e-01 1.683417856693267822e-01 -1.628331542015075684e-01
1.763000000000000000e+03 3.110957908630371094e+01 9.164461493492126465e-01 2.907581329345703125e-01 3.334906816482543945e+00 1.087699532508850098e+00 -3.743188858032226562e+00
1.764000000000000000e+03 1.744525146484375000e+01 -1.149196815490722656e+01 -2.828899323940277100e-01 1.216445788741111755e-01 -4.837360233068466187e-02 8.138973265886306763e-02
1.765000000000000000e+03 1.449535179138183594e+01 -1.410252475738525391e+01 1.886475533246994019e-01 4.611289203166961670e-01 1.949329376220703125e-01 -2.885171473026275635e-01
1.766000000000000000e+03 2.815113830566406250e+01 3.718651056289672852e+00 2.487095594406127930e+00 3.473567724227905273e+00 1.788198947906494141e+00 -1.345200300216674805e+00
1.767000000000000000e+03 5.541848373413085938e+01 -1.937411117553710938e+01 1.287783741950988770e+00 1.057502365112304688e+01 3.558842182159423828e+00 -1.873240828514099121e+00
1.768000000000000000e+03 5.655511856079101562e+01 -1.705712509155273438e+01 7.279544472694396973e-01 6.507134437561035156e+00 2.170526742935180664e+00 -5.721254944801330566e-01
1.769000000000000000e+03 5.069593048095703125e+01 -2.540653610229492188e+01 -4.097825527191162109e+00 6.828737854957580566e-01 -1.024485468864440918e+00 -8.450674414634704590e-01
1.770000000000000000e+03 1.014766216278076172e+01 -2.838597869873046875e+01 5.411625504493713379e-01 5.732297301292419434e-01 3.343176841735839844e-01 1.683432459831237793e-01
1.771000000000000000e+03 5.193382263183593750e+01 -2.550599670410156250e+01 -4.826759815216064453e+00 6.387062668800354004e-01 -1.256416082382202148e+00 1.069486960768699646e-01
1.772000000000000000e+03 5.358386611938476562e+01 -1.472577667236328125e+01 -9.404565095901489258e-01 3.791045427322387695e+00 8.551766872406005859e-01 -3.729948759078979492e+00
1.773000000000000000e+03 1.555697822570800781e+01 -2.631966781616210938e+01 6.447067856788635254e-01 1.072447538375854492e+00 5.151463150978088379e-01 7.243167161941528320e-01
1.774000000000000000e+03 6.000961661338806152e-01 -2.616877365112304688e+01 2.333869598805904388e-02 -8.303090333938598633e-01 -2.420910894870758057e-01 4.505199845880270004e-03
1.775000000000000000e+03 6.486070632934570312e+00 -2.312172126770019531e+01 1.615183055400848389e-01 2.676208615303039551e-01 1.287417560815811157e-01 -2.218772023916244507e-01
1.776000000000000000e+03 1.422983741760253906e+01 -2.371862602233886719e+01 1.925317943096160889e-01 6.436591148376464844e-01 2.508572638034820557e-01 5.693677663803100586e-01
1.777000000000000000e+03 1.297454738616943359e+01 -2.317717742919921875e+01 1.135370805859565735e-01 3.310884535312652588e-01 1.333876550197601318e-01 2.733095288276672363e-01
1.778000000000000000e+03 6.452999711036682129e-01 -1.638096809387207031e+01 -1.453774794936180115e-02 -2.562797069549560547e-01 -8.124523609876632690e-02 -6.647994369268417358e-02
1.779000000000000000e+03 1.777879524230957031e+01 -1.853195953369140625e+01 5.001360177993774414e-01 1.458524018526077271e-01 1.937965154647827148e-01 6.296128965914249420e-03
1.780000000000000000e+03 4.084137725830078125e+01 -2.192641830444335938e+01 1.604011178016662598e+00 6.999914646148681641e+00 2.581177711486816406e+00 5.755258798599243164e-01
1.781000000000000000e+03 4.700931167602539062e+01 -2.667831039428710938e+01 -1.294027686119079590e+00 4.368213176727294922e+00 9.222555756568908691e-01 -3.228935718536376953e+00
1.782000000000000000e+03 5.532926940917968750e+01 -2.202992057800292969e+01 1.383484601974487305e+00 1.311291790008544922e+01 4.348920822143554688e+00 1.863096237182617188e+00
1.783000000000000000e+03 5.691746520996093750e+01 -1.990967369079589844e+01 2.091283082962036133e+00 7.594076633453369141e+00 2.905607938766479492e+00 -1.158611550927162170e-01
1.784000000000000000e+03 5.516685867309570312e+01 -2.770187377929687500e+01 -1.408874630928039551e+00 6.870062828063964844e+00 1.638356447219848633e+00 1.542744040489196777e+00
1.785000000000000000e+03 1.349516391754150391e+00 -4.012492370605468750e+01 2.587805688381195068e-02 1.002667620778083801e-01 3.784344717860221863e-02 9.178376942873001099e-02
1.786000000000000000e+03 7.270874977111816406e-01 3.743511199951171875e+01 -1.914994441904127598e-03 -3.374414443969726562e-01 -1.018069311976432800e-01 -1.430179830640554428e-02
1.787000000000000000e+03 6.623077392578125000e-01 3.461157608032226562e+01 -3.707964206114411354e-04 -4.473647475242614746e-01 -1.343206614255905151e-01 -4.158319905400276184e-02
1.788000000000000000e+03 7.622612714767456055e-01 2.755094337463378906e+01 1.957198418676853180e-02 -1.260036349296569824e+00 -3.721393048763275146e-01 -7.819875329732894897e-02
1.789000000000000000e+03 7.893714904785156250e-01 2.607988357543945312e+01 1.078672241419553757e-02 -1.369082450866699219e+00 -4.074887037277221680e-01 -5.201578140258789062e-02
1.790000000000000000e+03 7.818256616592407227e-01 -3.601621246337890625e+01 -2.078482694923877716e-02 -2.978406548500061035e-01 -9.558764845132827759e-02 6.543316692113876343e-02
1.791000000000000000e+03 2.234854936599731445e+00 -3.296432495117187500e+01 4.968426004052162170e-02 -3.334639370441436768e-01 -8.513390272855758667e-02 1.572192311286926270e-01
1.792000000000000000e+03 6.232361197471618652e-01 2.328588867187500000e+01 9.115081280469894409e-03 -1.459128856658935547e+00 -4.350041449069976807e-01 1.753666438162326813e-02
1.793000000000000000e+03 2.753808498382568359e+00 3.128875732421875000e+01 -6.513983756303787231e-02 -4.830233752727508545e-01 -1.644489616155624390e-01 -2.870877087116241455e-01
1.794000000000000000e+03 5.662264823913574219e+00 3.501892089843750000e+01 -1.973647326231002808e-01 -1.835194230079650879e-01 -1.142652481794357300e-01 -9.333612024784088135e-02
1.795000000000000000e+03 1.981899261474609375e+00 3.438643264770507812e+01 -4.601294174790382385e-02 -4.025240540504455566e-01 -1.345610916614532471e-01 -1.143026649951934814e-01
1.796000000000000000e+03 2.306435823440551758e+00 3.843640899658203125e+01 -1.400889176875352859e-02 -3.164942860603332520e-01 -9.915095567703247070e-02 -2.662251889705657959e-02
1.797000000000000000e+03 3.159334182739257812e+00 -2.857131576538085938e+01 7.851883769035339355e-02 -3.376833200454711914e-01 -7.774934172630310059e-02 4.499535635113716125e-02
1.798000000000000000e+03 5.351155281066894531e+00 -2.366138839721679688e+01 7.616559416055679321e-02 1.481563895940780640e-01 6.729659438133239746e-02 -1.324607878923416138e-01
1.799000000000000000e+03 1.725284814834594727e+00 -9.433643341064453125e+00 -1.533351279795169830e-02 -2.796916663646697998e-02 -1.299080345779657364e-02 -4.714797716587781906e-03
1.800000000000000000e+03 5.779158473014831543e-01 -2.336342811584472656e+01 2.961996011435985565e-02 -8.307194709777832031e-01 -2.403298616409301758e-01 -2.749710110947489738e-03
1.801000000000000000e+03 2.314867973327636719e+00 -3.709561920166015625e+01 -2.767923846840858459e-02 -5.971782654523849487e-02 -2.621911838650703430e-02 1.874698698520660400e-01
1.802000000000000000e+03 6.465147733688354492e-01 2.050742340087890625e+01 1.473929383791983128e-03 -1.313661336898803711e+00 -3.936562240123748779e-01 4.100588336586952209e-02
1.803000000000000000e+03 6.849424839019775391e-01 1.907563209533691406e+01 1.105847023427486420e-02 -1.211296916007995605e+00 -3.600715398788452148e-01 5.312879011034965515e-02
1.804000000000000000e+03 6.865936517715454102e-01 1.476786804199218750e+01 1.051829662173986435e-03 -8.322614431381225586e-01 -2.493628859519958496e-01 7.069076597690582275e-02
1.805000000000000000e+03 6.327760219573974609e-01 1.336686706542968750e+01 -3.357346402481198311e-03 -6.798591017723083496e-01 -2.049649357795715332e-01 6.894394010305404663e-02
1.806000000000000000e+03 5.378081202507019043e-01 7.781344413757324219e+00 -5.364951211959123611e-03 -1.295760869979858398e-01 -4.048231244087219238e-02 3.380923718214035034e-02
1.807000000000000000e+03 5.252314805984497070e-01 6.383364677429199219e+00 -3.187491791322827339e-03 -5.334847792983055115e-02 -1.696079038083553314e-02 2.197405323386192322e-02
1.808000000000000000e+03 6.427489519119262695e-01 -1.778949737548828125e+01 7.971124723553657532e-03 -4.120486080646514893e-01 -1.212232410907745361e-01 -7.562579214572906494e-02
1.809000000000000000e+03 3.595665931701660156e+00 -3.926172256469726562e+01 -9.941595047712326050e-02 1.197803989052772522e-01 6.109333597123622894e-03 1.998033225536346436e-01
1.810000000000000000e+03 3.972087621688842773e+00 -3.420312881469726562e+01 6.973606348037719727e-02 -3.221519291400909424e-02 1.125626079738140106e-02 2.804829776287078857e-01
1.811000000000000000e+03 2.334093570709228516e+00 -3.440043640136718750e+01 1.750291674397885799e-03 -2.494808286428451538e-01 -7.431916147470474243e-02 1.830479949712753296e-01
1.812000000000000000e+03 2.122123003005981445e+00 -3.155353927612304688e+01 1.376657467335462570e-02 -4.260215759277343750e-01 -1.236765012145042419e-01 1.178940832614898682e-01
1.813000000000000000e+03 1.799776673316955566e+00 -2.600834274291992188e+01 -1.862646453082561493e-02 -5.823724865913391113e-01 -1.802996844053268433e-01 -8.016404899535700679e-05
1.814000000000000000e+03 1.736657023429870605e+00 -2.462723731994628906e+01 2.818744629621505737e-02 -5.817212462425231934e-01 -1.660601496696472168e-01 -6.879028398543596268e-03
1.815000000000000000e+03 1.842644333839416504e+00 -2.059702491760253906e+01 4.076730459928512573e-02 -4.557869136333465576e-01 -1.245058774948120117e-01 -1.311208158731460571e-01
1.816000000000000000e+03 6.335734128952026367e-01 -1.918762779235839844e+01 -7.475298829376697540e-03 -5.787813663482666016e-01 -1.758769899606704712e-01 -7.410230487585067749e-02
1.817000000000000000e+03 1.924954175949096680e+00 -1.362386608123779297e+01 -1.750016026198863983e-02 -1.010951399803161621e-01 -3.557858988642692566e-02 -7.232185453176498413e-02
1.818000000000000000e+03 6.349427700042724609e+00 -8.468060493469238281e+00 -2.251200191676616669e-02 -9.777644276618957520e-02 -3.608653321862220764e-02 -5.151971802115440369e-02
1.819000000000000000e+03 6.224204301834106445e-01 -1.214605236053466797e+01 7.739393040537834167e-03 -1.480287499725818634e-02 -2.119044540449976921e-03 -1.405203342437744141e-02
1.820000000000000000e+03 3.103212833404541016e+00 -1.221943092346191406e+01 -3.177692368626594543e-02 -9.899502247571945190e-02 -3.923158347606658936e-02 -5.467095971107482910e-02
1.821000000000000000e+03 1.791988492012023926e+00 -6.744729518890380859e+00 -9.458017535507678986e-03 -1.491557061672210693e-02 -7.312076631933450699e-03 -1.141720102168619633e-03
1.822000000000000000e+03 3.895994663238525391e+00 -7.307745456695556641e+00 -6.372774019837379456e-03 -6.023081392049789429e-02 -1.998107507824897766e-02 -2.136635407805442810e-02
1.823000000000000000e+03 2.884762048721313477e+00 -7.042338848114013672e+00 8.560954593122005463e-03 -3.606525808572769165e-02 -8.251290768384933472e-03 -7.893660105764865875e-03
1.824000000000000000e+03 5.219976902008056641e-01 4.943953514099121094e+00 -4.767412785440683365e-03 -6.642781198024749756e-03 -3.423058195039629936e-03 1.127941161394119263e-02
1.825000000000000000e+03 3.530755758285522461e+00 4.614538192749023438e+00 -6.407365202903747559e-02 -5.034049227833747864e-02 -3.432424366474151611e-02 6.918761134147644043e-02
1.826000000000000000e+03 1.689712405204772949e+00 1.032597637176513672e+01 -1.851018890738487244e-02 -3.082802891731262207e-01 -9.803714603185653687e-02 1.525436788797378540e-01
1.827000000000000000e+03 5.601636767387390137e-01 1.056597518920898438e+01 -5.684006959199905396e-03 -3.671794533729553223e-01 -1.118590384721755981e-01 5.683311447501182556e-02
1.828000000000000000e+03 1.902288317680358887e+00 1.303509807586669922e+01 1.603141310624778271e-03 -5.205594301223754883e-01 -1.556869000196456909e-01 1.963776648044586182e-01
1.829000000000000000e+03 1.928926467895507812e+00 2.038521385192871094e+01 1.728082075715065002e-02 -9.552733302116394043e-01 -2.813977301120758057e-01 1.046067401766777039e-01
1.830000000000000000e+03 2.006715297698974609e+00 1.894535636901855469e+01 1.970549114048480988e-02 -8.632670044898986816e-01 -2.530684471130371094e-01 1.271055191755294800e-01
1.831000000000000000e+03 1.975682616233825684e+00 2.428058052062988281e+01 5.670914426445960999e-02 -9.945022463798522949e-01 -2.813379168510437012e-01 7.750016171485185623e-03
1.832000000000000000e+03 4.432899856567382812e+01 -1.975013542175292969e+01 2.737667322158813477e+00 4.577053546905517578e+00 2.194416284561157227e+00 4.027343690395355225e-01
1.833000000000000000e+03 5.659770202636718750e+01 -2.104367828369140625e+01 2.123373985290527344e+00 8.934723854064941406e+00 3.317429304122924805e+00 3.589842319488525391e-01
1.834000000000000000e+03 4.678180694580078125e+01 -2.383369255065917969e+01 4.668751358985900879e-01 5.850432872772216797e+00 1.895192384719848633e+00 -1.908635139465332031e+00
1.835000000000000000e+03 4.340237045288085938e+01 6.895849227905273438e+00 7.683335542678833008e-01 7.384656906127929688e+00 2.445897102355957031e+00 2.695565223693847656e-01
1.836000000000000000e+03 4.168179321289062500e+01 9.007915496826171875e+00 9.061677753925323486e-02 9.865777015686035156e+00 2.986918210983276367e+00 1.324534296989440918e+00
1.837000000000000000e+03 4.191763305664062500e+01 1.724846649169921875e+01 9.133405089378356934e-01 5.028182506561279297e+00 1.782456874847412109e+00 -4.632357954978942871e-01
1.838000000000000000e+03 2.607735633850097656e+01 1.468436908721923828e+01 -2.154673337936401367e+00 4.646128416061401367e-01 -5.070181488990783691e-01 -7.715346217155456543e-01
1.839000000000000000e+03 2.312792778015136719e+01 1.611964797973632812e+01 -5.333739519119262695e-01 2.638317584991455078e+00 6.314830780029296875e-01 -5.746890902519226074e-01
1.840000000000000000e+03 6.010866165161132812e+01 1.638460159301757812e+01 2.199717283248901367e+00 9.960545539855957031e+00 3.648078918457031250e+00 2.472365617752075195e+00
1.841000000000000000e+03 6.634452056884765625e+01 2.649453163146972656e+01 2.437866926193237305e+00 4.827970981597900391e+00 2.179751396179199219e+00 1.004434108734130859e+00
1.842000000000000000e+03 6.769937896728515625e+01 2.072101211547851562e+01 -3.758337497711181641e+00 1.727638691663742065e-01 -1.075672149658203125e+00 -2.827682718634605408e-02
1.843000000000000000e+03 3.301198959350585938e+01 -2.531095027923583984e+00 1.191858276724815369e-01 7.534042835235595703e+00 2.295968532562255859e+00 2.427564859390258789e+00
1.844000000000000000e+03 3.282769393920898438e+01 -2.410459995269775391e+00 4.310294091701507568e-01 6.710655689239501953e+00 2.142505407333374023e+00 2.676453351974487305e+00
1.845000000000000000e+03 3.346055603027343750e+01 -2.504663228988647461e+00 -2.083458751440048218e-02 9.157041549682617188e+00 2.740862131118774414e+00 1.649249434471130371e+00
1.846000000000000000e+03 3.123866081237792969e+01 -3.096401929855346680e+00 7.006014585494995117e-01 1.880648374557495117e+00 7.743749618530273438e-01 1.287408590316772461e+00
1.847000000000000000e+03 3.120771217346191406e+01 -3.549651145935058594e+00 5.037879347801208496e-01 1.984682559967041016e+00 7.465411424636840820e-01 1.163791775703430176e+00
1.848000000000000000e+03 3.205068206787109375e+01 -2.747684717178344727e+00 6.264103651046752930e-01 3.474998950958251953e+00 1.230422735214233398e+00 2.115910053253173828e+00
1.849000000000000000e+03 3.167646789550781250e+01 -2.928066253662109375e+00 6.031723618507385254e-01 2.618008852005004883e+00 9.663543701171875000e-01 1.645117044448852539e+00
1.850000000000000000e+03 3.145729255676269531e+01 -5.118496894836425781e+00 5.511375069618225098e-01 3.587825298309326172e+00 1.241688847541809082e+00 1.490573287010192871e+00
1.851000000000000000e+03 3.188518905639648438e+01 -3.137685537338256836e+00 5.452696084976196289e-01 3.337910652160644531e+00 1.164954066276550293e+00 1.937479019165039062e+00
1.852000000000000000e+03 3.367057037353515625e+01 -2.440047025680541992e+00 1.450507249683141708e-02 9.705788612365722656e+00 2.916088104248046875e+00 1.039442539215087891e+00
1.853000000000000000e+03 3.410803604125976562e+01 -2.321433067321777344e+00 7.071073055267333984e-01 1.019299602508544922e+01 3.270030975341796875e+00 -3.324744105339050293e-01
1.854000000000000000e+03 3.266900634765625000e+01 9.845647215843200684e-01 -5.066094994544982910e-01 7.610054969787597656e+00 2.131033658981323242e+00 -7.758188247680664062e+00
1.855000000000000000e+03 3.437847518920898438e+01 -1.838247895240783691e+00 2.419489622116088867e+00 1.014760303497314453e+01 3.770127534866333008e+00 -1.633992314338684082e+00
1.856000000000000000e+03 3.388505554199218750e+01 -2.379667997360229492e+00 3.024300634860992432e-01 1.006874179840087891e+01 3.111351728439331055e+00 3.983573019504547119e-01
1.857000000000000000e+03 3.322564697265625000e+01 1.130847215652465820e+00 -3.104959964752197266e+00 6.708397865295410156e+00 1.081031322479248047e+00 -6.193010330200195312e+00
1.858000000000000000e+03 3.351630020141601562e+01 1.543446063995361328e+00 -5.418407917022705078e+00 3.420316219329833984e+00 -5.994275808334350586e-01 -2.027603864669799805e+00
1.859000000000000000e+03 3.576609420776367188e+01 -1.223313450813293457e+00 4.815015316009521484e+00 4.910797119140625000e+00 2.917743682861328125e+00 6.970335841178894043e-01
1.860000000000000000e+03 3.396051406860351562e+01 -2.646432638168334961e+00 1.878255605697631836e-01 9.475024223327636719e+00 2.898854970932006836e+00 4.773968160152435303e-01
1.861000000000000000e+03 3.432771301269531250e+01 1.137791872024536133e+00 -4.257330000400543213e-01 7.633505463600158691e-01 1.012852638959884644e-01 1.586996912956237793e+00
1.862000000000000000e+03 3.337531280517578125e+01 -2.232343912124633789e+00 1.661397144198417664e-02 9.498229026794433594e+00 2.854452848434448242e+00 1.843740820884704590e+00
1.863000000000000000e+03 3.375703430175781250e+01 -2.690497159957885742e+00 1.138311810791492462e-02 9.244976043701171875e+00 2.776907682418823242e+00 1.031561017036437988e+00
1.864000000000000000e+03 3.055626487731933594e+01 -4.655161380767822266e+00 2.928417623043060303e-01 2.199087619781494141e+00 7.475787997245788574e-01 7.199946641921997070e-01
1.865000000000000000e+03 2.968689155578613281e+01 -3.898044109344482422e+00 5.681500434875488281e-01 6.070116758346557617e-01 3.525485098361968994e-01 2.732362225651741028e-02
1.866000000000000000e+03 3.124137687683105469e+01 6.928386092185974121e-01 3.303337395191192627e-01 2.470368623733520508e+00 8.402107357978820801e-01 -4.012450218200683594e+00
1.867000000000000000e+03 3.204051971435546875e+01 8.842543959617614746e-01 7.454186677932739258e-01 4.126376152038574219e+00 1.461538434028625488e+00 -6.578223228454589844e+00
1.868000000000000000e+03 3.163021278381347656e+01 1.139603734016418457e+00 4.751071333885192871e-01 4.043842315673828125e+00 1.355684876441955566e+00 -5.493841648101806641e+00
1.869000000000000000e+03 3.050866508483886719e+01 1.529369831085205078e+00 8.415898084640502930e-01 3.114285469055175781e+00 1.186762571334838867e+00 -3.560182094573974609e+00
1.870000000000000000e+03 3.068186759948730469e+01 1.029183149337768555e+00 8.028101921081542969e-02 3.078943967819213867e+00 9.477675557136535645e-01 -3.142612695693969727e+00
1.871000000000000000e+03 1.034135437011718750e+01 3.717331886291503906e+00 -2.641753852367401123e-01 -6.118473410606384277e-02 -9.760803729295730591e-02 1.828122437000274658e-01
1.872000000000000000e+03 9.656222343444824219e+00 5.729063034057617188e+00 -2.573355138301849365e-01 -1.440931558609008789e-01 -1.204285994172096252e-01 2.070619761943817139e-01
1.873000000000000000e+03 1.197552776336669922e+01 4.244479179382324219e+00 -3.144743144512176514e-01 -1.104656532406806946e-01 -1.274819821119308472e-01 3.200735151767730713e-01
1.874000000000000000e+03 1.371378612518310547e+01 -1.962244987487792969e+00 -9.366141259670257568e-02 -3.033016622066497803e-02 -3.719747439026832581e-02 -8.295201510190963745e-02
1.875000000000000000e+03 1.449135112762451172e+01 -2.649827718734741211e+00 -5.176676064729690552e-02 -1.910945749841630459e-03 -1.610331237316131592e-02 -7.239569723606109619e-02
1.876000000000000000e+03 1.281242179870605469e+01 3.379124402999877930e+00 -4.247484207153320312e-01 -3.977745398879051208e-02 -1.393577605485916138e-01 3.328638672828674316e-01
1.877000000000000000e+03 6.395132064819335938e+00 3.448986530303955078e+00 -1.251481920480728149e-01 -2.262840606272220612e-02 -4.433298110961914062e-02 7.432913780212402344e-02
1.878000000000000000e+03 7.151628017425537109e+00 3.434642553329467773e+00 -1.456281393766403198e-01 -3.282141685485839844e-02 -5.353486537933349609e-02 8.545920252799987793e-02
1.879000000000000000e+03 8.615352630615234375e+00 2.607526540756225586e+00 -1.677468866109848022e-01 -1.568670943379402161e-02 -5.503008142113685608e-02 8.349233865737915039e-02
1.880000000000000000e+03 9.229146003723144531e+00 3.288393497467041016e+00 -2.127046138048171997e-01 -3.441904485225677490e-02 -7.413709908723831177e-02 1.236697882413864136e-01
1.881000000000000000e+03 4.161408424377441406e+00 3.585754156112670898e+00 -6.638026237487792969e-02 -3.206492960453033447e-02 -2.953355759382247925e-02 5.155626311898231506e-02
1.882000000000000000e+03 3.377959251403808594e+00 2.836505413055419922e+00 -3.494920954108238220e-02 -1.990166306495666504e-02 -1.645526289939880371e-02 2.104268595576286316e-02
1.883000000000000000e+03 4.135430812835693359e+00 2.767917871475219727e+00 -4.761225730180740356e-02 -1.826474815607070923e-02 -1.976310275495052338e-02 2.858391404151916504e-02
1.884000000000000000e+03 4.892169475555419922e+00 2.712616205215454102e+00 -6.487658619880676270e-02 -2.022377960383892059e-02 -2.553011104464530945e-02 3.869602456688880920e-02
1.885000000000000000e+03 5.641932487487792969e+00 3.436556577682495117e+00 -1.036284342408180237e-01 -2.981358766555786133e-02 -4.003260657191276550e-02 6.687375158071517944e-02
1.886000000000000000e+03 4.538396298885345459e-01 3.518151521682739258e+00 -1.633171457797288895e-03 1.314750127494335175e-02 3.454298945143818855e-03 1.846875762566924095e-03
1.887000000000000000e+03 6.067383766174316406e+00 5.014398097991943359e+00 -1.523667275905609131e-01 -5.051332712173461914e-02 -6.086401641368865967e-02 1.214333847165107727e-01
1.888000000000000000e+03 1.221138572692871094e+01 -2.251326322555541992e+00 -8.102357387542724609e-02 -4.027924686670303345e-02 -3.639084845781326294e-02 -8.423752337694168091e-02
1.889000000000000000e+03 1.479079151153564453e+01 -3.929623603820800781e+00 6.920084357261657715e-03 3.826677426695823669e-02 1.355605665594339371e-02 -5.181777104735374451e-02
1.890000000000000000e+03 1.522992420196533203e+01 3.973337888717651367e+00 -5.902929306030273438e-01 2.552926726639270782e-02 -1.694290935993194580e-01 4.603266119956970215e-01
1.891000000000000000e+03 1.517559242248535156e+01 4.874867439270019531e+00 -3.309729695320129395e-01 5.481715127825737000e-02 -8.284674584865570068e-02 5.264227986335754395e-01
1.892000000000000000e+03 1.308027458190917969e+01 6.036478042602539062e+00 -1.832693815231323242e-01 -2.571052908897399902e-01 -1.321123987436294556e-01 4.042517244815826416e-01
1.893000000000000000e+03 5.977530002593994141e+00 -3.645767450332641602e+00 -1.425853837281465530e-02 -2.770633064210414886e-02 -1.258946117013692856e-02 -3.250367939472198486e-02
1.894000000000000000e+03 4.114428520202636719e+00 -2.824886083602905273e+00 -1.130780391395092010e-02 -1.813371293246746063e-02 -8.832454681396484375e-03 -1.230739988386631012e-02
1.895000000000000000e+03 7.776007175445556641e+00 -5.088334083557128906e+00 -1.010081265121698380e-02 -5.676954984664916992e-02 -2.006110921502113342e-02 -6.527108699083328247e-02
1.896000000000000000e+03 5.872335910797119141e+00 -2.801351308822631836e+00 -1.808986067771911621e-02 -2.538717165589332581e-02 -1.304311025887727737e-02 -3.230645135045051575e-02
1.897000000000000000e+03 8.344053268432617188e+00 -3.439933300018310547e+00 -2.950260788202285767e-02 -4.360355809330940247e-02 -2.193184942007064819e-02 -6.888217478990554810e-02
1.898000000000000000e+03 9.950331687927246094e+00 -3.419090032577514648e+00 -3.733469173312187195e-02 -4.610790684819221497e-02 -2.503277920186519623e-02 -8.427383750677108765e-02
1.899000000000000000e+03 6.695377826690673828e+00 -2.728967189788818359e+00 -2.494681254029273987e-02 -1.699853688478469849e-02 -1.258360501378774643e-02 -3.603592142462730408e-02
1.900000000000000000e+03 6.900629997253417969e+00 -4.381283283233642578e+00 -1.434160023927688599e-02 -4.196504130959510803e-02 -1.689199171960353851e-02 -4.827190935611724854e-02
1.901000000000000000e+03 6.780173301696777344e+00 -3.545739173889160156e+00 -1.899949461221694946e-02 -3.833076357841491699e-02 -1.719907671213150024e-02 -4.917769879102706909e-02
1.902000000000000000e+03 2.012777328491210938e+00 -5.401761531829833984e+00 8.279847912490367889e-03 -1.193077862262725830e-02 -1.095279236324131489e-03 -3.619978670030832291e-03
1.903000000000000000e+03 3.571232318878173828e+00 -3.540574789047241211e+00 -9.981653420254588127e-04 -1.618152298033237457e-02 -5.153906531631946564e-03 -1.286878623068332672e-02
1.904000000000000000e+03 2.150765037536621094e+01 4.850128650665283203e+00 4.167284071445465088e-01 -6.577337980270385742e-01 -7.230162620544433594e-02 2.990163266658782959e-01
1.905000000000000000e+03 2.199697875976562500e+01 3.583158493041992188e+00 -3.678854405879974365e-01 -6.510479450225830078e-01 -3.056800067424774170e-01 6.743339896202087402e-01
1.906000000000000000e+03 2.087582588195800781e+01 6.362504005432128906e+00 8.397416472434997559e-01 -5.834538936614990234e-01 7.688631862401962280e-02 -1.007775682955980301e-02
1.907000000000000000e+03 2.562729454040527344e+01 2.220106363296508789e+00 -8.660668730735778809e-01 -1.702581718564033508e-02 -2.649278044700622559e-01 8.731582164764404297e-01
1.908000000000000000e+03 2.371683692932128906e+01 3.016404151916503906e+00 -4.216030538082122803e-01 -4.920160472393035889e-01 -2.740857303142547607e-01 8.849185109138488770e-01
1.909000000000000000e+03 2.932924461364746094e+01 2.626681804656982422e+00 1.151129364967346191e+00 4.452123165130615234e+00 1.680975675582885742e+00 -2.055672883987426758e+00
1.910000000000000000e+03 2.365387153625488281e+01 6.974063873291015625e+00 1.677628993988037109e+00 2.595852613449096680e-01 5.811642408370971680e-01 -8.700636625289916992e-01
1.911000000000000000e+03 2.634777832031250000e+01 3.688681364059448242e+00 1.557876467704772949e+00 1.126374721527099609e+00 8.052753806114196777e-01 -1.569655537605285645e-02
1.912000000000000000e+03 2.896348953247070312e+01 4.322715759277343750e+00 3.380008459091186523e+00 6.351236343383789062e+00 2.919373512268066406e+00 -2.416750907897949219e+00
1.913000000000000000e+03 2.082667732238769531e+01 4.373812675476074219e+00 -7.975359261035919189e-02 -6.565840840339660645e-01 -2.209012955427169800e-01 4.487526416778564453e-01
1.914000000000000000e+03 2.416680717468261719e+01 3.723376989364624023e+00 6.593471765518188477e-01 -4.003736674785614014e-01 7.769205421209335327e-02 5.565495491027832031e-01
1.915000000000000000e+03 2.026057243347167969e+01 5.119987964630126953e+00 3.189638555049896240e-01 -6.337214708328247070e-01 -9.442728757858276367e-02 2.742457091808319092e-01
1.916000000000000000e+03 1.936157608032226562e+01 4.707159519195556641e+00 -1.186026260256767273e-01 -5.573266148567199707e-01 -2.027787715196609497e-01 3.736617565155029297e-01
1.917000000000000000e+03 1.144401931762695312e+01 -2.389518976211547852e+00 -7.405519485473632812e-02 -2.266935817897319794e-02 -2.901736646890640259e-02 -8.040858805179595947e-02
1.918000000000000000e+03 1.308941841125488281e+01 -2.958944797515869141e+00 -5.678197368979454041e-02 -2.727368660271167755e-02 -2.521669864654541016e-02 -8.118174970149993896e-02
1.919000000000000000e+03 1.156562423706054688e+01 -3.169092893600463867e+00 -4.649102687835693359e-02 -4.271581396460533142e-02 -2.676205150783061981e-02 -8.659486472606658936e-02
1.920000000000000000e+03 1.835677146911621094e+01 6.485302925109863281e+00 5.292314291000366211e-01 -3.087204992771148682e-01 6.615328043699264526e-02 1.246265918016433716e-01
1.921000000000000000e+03 1.621019744873046875e+01 4.989052772521972656e+00 -3.045101761817932129e-01 1.431712135672569275e-02 -8.705791085958480835e-02 4.787775874137878418e-01
1.922000000000000000e+03 3.579686355590820312e+01 1.555255174636840820e+00 -2.192918300628662109e+00 5.130975842475891113e-01 -5.039462447166442871e-01 2.151551246643066406e+00
1.923000000000000000e+03 1.078372383117675781e+01 -3.370891332626342773e+00 -4.381822794675827026e-02 -3.140022233128547668e-02 -2.256553620100021362e-02 -8.235077559947967529e-02
1.924000000000000000e+03 3.152657318115234375e+01 1.498004078865051270e+00 8.695612549781799316e-01 5.014488220214843750e+00 1.765214800834655762e+00 -4.977732658386230469e+00
1.925000000000000000e+03 4.181353378295898438e+01 1.016803169250488281e+01 2.737675309181213379e-01 9.251368522644042969e+00 2.857540845870971680e+00 1.708702802658081055e+00
1.926000000000000000e+03 4.051819992065429688e+01 8.950899124145507812e+00 4.563387632369995117e-01 1.008829689025878906e+01 3.163390874862670898e+00 1.113317728042602539e+00
1.927000000000000000e+03 2.184681701660156250e+01 5.542953014373779297e+00 8.228688240051269531e-01 -6.119342446327209473e-01 6.328038126230239868e-02 1.112951263785362244e-01
1.928000000000000000e+03 3.965521621704101562e+01 -2.902048301696777344e+01 -2.075028419494628906e+00 8.471917152404785156e+00 1.919066667556762695e+00 1.127953171730041504e+00
1.929000000000000000e+03 4.399388504028320312e+01 1.881065750122070312e+01 -7.581139802932739258e-01 6.879375934600830078e+00 1.836378574371337891e+00 1.679934620857238770e+00
1.930000000000000000e+03 3.377838134765625000e+01 2.166324234008789062e+01 1.399804353713989258e-01 5.614276409149169922e+00 1.726277112960815430e+00 -7.233869433403015137e-01
1.931000000000000000e+03 3.235011672973632812e+01 -1.435977554321289062e+01 -2.688302278518676758e+00 2.614555597305297852e+00 -2.212398871779441833e-02 2.903102636337280273e+00
1.932000000000000000e+03 3.340072631835937500e+01 -9.954389572143554688e+00 2.398197412490844727e+00 3.903007507324218750e+00 1.890361428260803223e+00 2.166915655136108398e+00
1.933000000000000000e+03 3.294149780273437500e+01 2.678486442565917969e+01 1.367719411849975586e+00 5.878855228424072266e+00 2.173972368240356445e+00 -8.406217694282531738e-01
1.934000000000000000e+03 1.666837501525878906e+01 -2.415211296081542969e+01 3.359931707382202148e-01 5.901684761047363281e-01 2.778484821319580078e-01 9.002884030342102051e-01
1.935000000000000000e+03 1.120581912994384766e+01 -2.577775573730468750e+01 3.700032234191894531e-01 4.402187168598175049e-01 2.430665791034698486e-01 1.231064498424530029e-01
1.936000000000000000e+03 1.199800109863281250e+01 -3.191861534118652344e+01 5.042497515678405762e-01 1.460646510124206543e+00 5.894688963890075684e-01 4.772486686706542969e-01
1.937000000000000000e+03 4.493074417114257812e+01 7.815899372100830078e+00 -4.392034709453582764e-01 5.749955654144287109e+00 1.593225598335266113e+00 -1.699276268482208252e-01
1.938000000000000000e+03 4.744531250000000000e+01 2.751860427856445312e+01 1.645341753959655762e+00 8.155950546264648438e+00 2.940387725830078125e+00 9.212477207183837891e-01
1.939000000000000000e+03 5.163189697265625000e+01 2.988103103637695312e+01 1.584396481513977051e+00 7.120571136474609375e+00 2.611490249633789062e+00 5.497788190841674805e-01
1.940000000000000000e+03 3.307696914672851562e+01 1.939597702026367188e+01 3.068974614143371582e-01 5.160785675048828125e+00 1.640305042266845703e+00 -3.067509531974792480e-01
1.941000000000000000e+03 3.936784362792968750e+01 1.882983207702636719e+01 4.393103420734405518e-01 2.425366640090942383e+00 8.594030737876892090e-01 -2.209003210067749023e+00
1.942000000000000000e+03 3.318197631835937500e+01 1.455257892608642578e+01 -1.239295005798339844e+00 1.862862825393676758e+00 1.870703548192977905e-01 1.158643290400505066e-01
1.943000000000000000e+03 5.243883132934570312e+01 2.855208587646484375e+01 1.280028462409973145e+00 7.655903339385986328e+00 2.680779695510864258e+00 4.459397867321968079e-02
1.944000000000000000e+03 5.241592407226562500e+01 3.049772834777832031e+01 1.309270977973937988e+00 7.755734443664550781e+00 2.719501733779907227e+00 1.403572320938110352e+00
1.945000000000000000e+03 4.128697204589843750e+01 -2.290986251831054688e+01 1.791611671447753906e+00 5.684615135192871094e+00 2.242867946624755859e+00 1.835235357284545898e+00
1.946000000000000000e+03 2.886922645568847656e+01 -2.902065086364746094e+01 -1.597921013832092285e+00 3.690989494323730469e+00 6.279205679893493652e-01 -2.763347029685974121e-01
1.947000000000000000e+03 3.182248497009277344e+01 -2.939357185363769531e+01 -1.424582362174987793e+00 1.613706231117248535e+00 5.673713237047195435e-02 -1.010406732559204102e+00
1.948000000000000000e+03 3.924995803833007812e+01 -1.494903373718261719e+01 -3.013991832733154297e+00 4.416984081268310547e+00 4.208977520465850830e-01 -2.074059009552001953e+00
1.949000000000000000e+03 4.006187057495117188e+01 -1.923748016357421875e+00 6.062342524528503418e-01 2.626751899719238281e+00 9.698958992958068848e-01 1.882802724838256836e+00
1.950000000000000000e+03 3.321451187133789062e+01 1.833418846130371094e+01 6.285859346389770508e-01 3.880351305007934570e+00 1.352681159973144531e+00 -5.337301492691040039e-01
1.951000000000000000e+03 3.590990829467773438e+01 -8.208639144897460938e+00 2.818878173828125000e+00 7.913143634796142578e+00 3.219606399536132812e+00 -6.509443372488021851e-02
1.952000000000000000e+03 6.823898315429687500e+01 5.270629882812500000e+00 2.658700644969940186e-01 1.639049410820007324e+00 5.714758634567260742e-01 2.062706232070922852e+00
1.953000000000000000e+03 6.748105621337890625e+01 3.394711613655090332e-01 5.859544277191162109e-01 3.007327318191528320e+00 1.077984571456909180e+00 2.033987045288085938e+00
1.954000000000000000e+03 4.440736770629882812e+01 -2.649040985107421875e+01 -1.548527240753173828e+00 1.157819390296936035e+00 -1.172123476862907410e-01 -2.074838876724243164e+00
1.955000000000000000e+03 3.761367797851562500e+01 -3.705300807952880859e+00 1.364928781986236572e-01 6.602619647979736328e+00 2.021733760833740234e+00 1.888589978218078613e+00
1.956000000000000000e+03 3.498467254638671875e+01 -1.433839893341064453e+01 -4.537139892578125000e+00 2.484942078590393066e-01 -1.286593675613403320e+00 1.021874882280826569e-02
1.957000000000000000e+03 7.160225677490234375e+01 2.258052080869674683e-01 3.749152645468711853e-02 1.025600075721740723e+00 3.189274668693542480e-01 -2.654874697327613831e-02
1.958000000000000000e+03 7.045774078369140625e+01 4.412384510040283203e+00 1.666488051414489746e-01 3.672345399856567383e+00 1.151698231697082520e+00 1.616599082946777344e+00
1.959000000000000000e+03 6.497183227539062500e+01 3.206732940673828125e+01 5.253740549087524414e-01 5.529367923736572266e+00 1.816422581672668457e+00 7.364453077316284180e-01
1.960000000000000000e+03 9.187287330627441406e+00 -5.030097007751464844e+00 -1.577176526188850403e-02 -5.027000233530998230e-02 -1.981252990663051605e-02 -7.585406303405761719e-02
1.961000000000000000e+03 1.081858348846435547e+01 -1.120468425750732422e+01 -1.064511761069297791e-01 -5.570095963776111603e-04 -3.210245445370674133e-02 -1.680296957492828369e-01
1.962000000000000000e+03 4.294122314453125000e+01 2.954796314239501953e+00 2.592532396316528320e+00 5.496338367462158203e+00 2.426661252975463867e+00 -1.320315241813659668e+00
1.963000000000000000e+03 1.818199157714843750e+01 -1.260191249847412109e+01 -2.817014753818511963e-01 9.031423926353454590e-02 -5.741616711020469666e-02 9.554449468851089478e-02
1.964000000000000000e+03 6.061259078979492188e+01 2.402241468429565430e+00 -9.275746941566467285e-01 5.019444942474365234e+00 1.227561116218566895e+00 -2.126923799514770508e+00
1.965000000000000000e+03 5.227375793457031250e+01 2.623459053039550781e+01 1.811176896095275879e+00 6.111392498016357422e+00 2.376770734786987305e+00 -4.105574190616607666e-01
1.966000000000000000e+03 5.116281890869140625e+01 2.182742118835449219e+01 -2.641293406486511230e-01 3.734322786331176758e+00 1.041058063507080078e+00 -1.226182460784912109e+00
1.967000000000000000e+03 4.190675354003906250e+01 -2.383675193786621094e+01 2.375184059143066406e+00 4.078571319580078125e+00 1.936126708984375000e+00 1.603225588798522949e+00
1.968000000000000000e+03 3.409911346435546875e+01 2.928084182739257812e+01 8.234130740165710449e-01 6.869389057159423828e+00 2.307840585708618164e+00 -4.441660046577453613e-01
1.969000000000000000e+03 6.267383956909179688e+01 -5.666767120361328125e+00 1.543416023254394531e+00 9.845746040344238281e+00 3.416748523712158203e+00 1.399886161088943481e-01
1.970000000000000000e+03 1.085661029815673828e+01 7.442576408386230469e+00 -3.705570101737976074e-01 -2.723296880722045898e-01 -1.928660124540328979e-01 2.846909165382385254e-01
1.971000000000000000e+03 5.939324951171875000e+01 1.817521333694458008e+00 -7.031317949295043945e-01 4.705735206604003906e+00 1.200780987739562988e+00 -2.454212427139282227e+00
1.972000000000000000e+03 5.575618743896484375e+01 7.215168476104736328e+00 1.565226674079895020e+00 8.489433288574218750e+00 3.016397953033447266e+00 9.260801076889038086e-01
1.973000000000000000e+03 6.606599426269531250e+01 -1.331916713714599609e+01 -8.557309508323669434e-01 3.949929475784301758e+00 9.282595515251159668e-01 -1.826111525297164917e-01
1.974000000000000000e+03 3.009884071350097656e+01 -1.014553546905517578e+01 2.766510248184204102e+00 5.143826007843017578e+00 2.373100757598876953e+00 2.673392057418823242e+00
1.975000000000000000e+03 3.046395111083984375e+01 -9.002254486083984375e+00 2.456535816192626953e+00 4.540541172027587891e+00 2.099123001098632812e+00 3.054063796997070312e+00
1.976000000000000000e+03 6.031611251831054688e+01 1.091379833221435547e+01 1.208078861236572266e+00 7.785696506500244141e+00 2.698132514953613281e+00 -4.796333909034729004e-01
1.977000000000000000e+03 5.628566741943359375e+01 1.415610790252685547e+01 1.295782446861267090e+00 7.780820846557617188e+00 2.722980976104736328e+00 5.782477259635925293e-01
1.978000000000000000e+03 4.761203384399414062e+01 -2.766737937927246094e+01 -8.626292347908020020e-01 4.905118465423583984e+00 1.212746739387512207e+00 -3.332306385040283203e+00
1.979000000000000000e+03 4.841103363037109375e+01 -2.830031394958496094e+01 -1.258514970541000366e-01 4.983043193817138672e+00 1.457157492637634277e+00 -3.046836853027343750e+00
1.980000000000000000e+03 6.944677734375000000e+01 6.529174327850341797e+00 9.391535818576812744e-02 2.970729112625122070e+00 9.193933606147766113e-01 2.171073913574218750e+00
1.981000000000000000e+03 7.215540313720703125e+01 8.366491317749023438e+00 3.778984844684600830e-01 8.922189712524414062e+00 2.790026426315307617e+00 1.079097032546997070e+00
1.982000000000000000e+03 5.129926681518554688e+01 2.036829376220703125e+01 -1.607567071914672852e+00 2.911224603652954102e+00 3.910972177982330322e-01 -1.894526958465576172e+00
1.983000000000000000e+03 4.839074707031250000e+01 2.050375747680664062e+01 -1.167422056198120117e+00 2.906704664230346680e+00 5.217847824096679688e-01 2.126877546310424805e+00
1.984000000000000000e+03 6.475661468505859375e+01 3.728544616699218750e+01 -9.085514545440673828e-01 4.256232738494873047e+00 1.004304409027099609e+00 -2.485351711511611938e-01
1.985000000000000000e+03 6.351880264282226562e+01 -2.168517875671386719e+01 3.133936405181884766e+00 7.777820110321044922e+00 3.273526906967163086e+00 -2.622938394546508789e+00
1.986000000000000000e+03 1.690113639831542969e+01 -2.561314201354980469e+01 3.564521372318267822e-01 8.332720398902893066e-01 3.569172322750091553e-01 9.301843047142028809e-01
1.987000000000000000e+03 2.040838623046875000e+01 1.436956596374511719e+01 2.350860685110092163e-01 3.501310348510742188e+00 1.120918869972229004e+00 -5.697318315505981445e-01
1.988000000000000000e+03 7.601776123046875000e+01 2.454709768295288086e+00 -3.679003119468688965e-01 6.927571296691894531e+00 1.967901229858398438e+00 -8.129059076309204102e-01
1.989000000000000000e+03 4.797309875488281250e+01 5.473996162414550781e+00 -3.703951835632324219e-01 8.896736502647399902e-01 1.557835489511489868e-01 -6.429543495178222656e-01
1.990000000000000000e+03 6.063822937011718750e+01 -4.013356268405914307e-01 -9.406442940235137939e-02 6.506721019744873047e+00 1.923796892166137695e+00 -1.849817395210266113e+00
1.991000000000000000e+03 3.079042243957519531e+01 2.597776174545288086e+00 2.029036283493041992e+00 4.488050937652587891e+00 1.955126047134399414e+00 -4.241733551025390625e+00
1.992000000000000000e+03 2.994245338439941406e+01 3.377425432205200195e+00 3.079464435577392578e+00 6.132896900177001953e+00 2.763708591461181641e+00 -3.868284463882446289e+00
1.993000000000000000e+03 7.304226684570312500e+01 -3.872616577148437500e+01 -3.577447831630706787e-01 6.668647289276123047e+00 1.893270730972290039e+00 -7.331605553627014160e-01
1.994000000000000000e+03 7.463392639160156250e+01 -3.281904602050781250e+01 5.231172442436218262e-01 6.319482803344726562e+00 2.052780151367187500e+00 -1.730801723897457123e-02
1.995000000000000000e+03 7.642102813720703125e+01 -3.490328598022460938e+01 1.888727992773056030e-01 7.084881782531738281e+00 2.182126283645629883e+00 -2.391992658376693726e-01
1.996000000000000000e+03 7.221070098876953125e+01 1.712683486938476562e+01 -7.644574642181396484e-01 8.053966522216796875e+00 2.186852931976318359e+00 -2.936324179172515869e-01
1.997000000000000000e+03 7.381465911865234375e+01 -2.619656753540039062e+01 -1.832522630691528320e+00 8.382327079772949219e+00 1.964941382408142090e+00 8.410658240318298340e-01
1.998000000000000000e+03 7.752909088134765625e+01 3.461623001098632812e+01 -1.962275477126240730e-03 7.184168338775634766e+00 2.154661893844604492e+00 1.219698786735534668e-01
1.999000000000000000e+03 7.667085266113281250e+01 3.145228958129882812e+01 1.708462089300155640e-01 6.831471920013427734e+00 2.100695371627807617e+00 4.938305169343948364e-02
2.000000000000000000e+03 7.829370117187500000e+01 -2.373267745971679688e+01 3.874882757663726807e-01 7.341242790222167969e+00 2.318619251251220703e+00 -2.473558187484741211e-01
2.001000000000000000e+03 7.652323150634765625e+01 -2.543272399902343750e+01 -1.617378443479537964e-01 8.222501754760742188e+00 2.418229103088378906e+00 -6.795816421508789062e-01
2.002000000000000000e+03 7.785521697998046875e+01 -2.856327056884765625e+01 -1.619986742734909058e-01 7.602808952331542969e+00 2.232243061065673828e+00 -9.585600346326828003e-02
2.003000000000000000e+03 7.466590118408203125e+01 -2.524318695068359375e+01 -1.291360855102539062e-01 8.576644897460937500e+00 2.534252405166625977e+00 -3.773133754730224609e-01
2.004000000000000000e+03 7.641031646728515625e+01 -2.337386131286621094e+01 9.329236745834350586e-01 8.655643463134765625e+00 2.876570224761962891e+00 -7.889780402183532715e-02
2.005000000000000000e+03 7.520256042480468750e+01 -3.693322372436523438e+01 -4.495007544755935669e-02 7.091402530670166016e+00 2.113935708999633789e+00 -5.007582306861877441e-01
2.006000000000000000e+03 7.664995574951171875e+01 -3.268381500244140625e+01 2.160000950098037720e-01 7.015834808349609375e+00 2.169550418853759766e+00 3.929531201720237732e-02
2.007000000000000000e+03 7.549996185302734375e+01 -3.402947616577148438e+01 2.616106867790222168e-01 6.675894737243652344e+00 2.081251621246337891e+00 -2.196148186922073364e-01
2.008000000000000000e+03 7.469847106933593750e+01 -4.056668090820312500e+01 -3.059097826480865479e-01 7.226197242736816406e+00 2.076086282730102539e+00 -3.380846083164215088e-01
2.009000000000000000e+03 7.803954315185546875e+01 2.232914543151855469e+01 -1.688929498195648193e-01 7.692117214202880859e+00 2.256967306137084961e+00 1.381331030279397964e-02
2.010000000000000000e+03 7.684631347656250000e+01 1.949395751953125000e+01 -4.426325559616088867e-01 7.537840366363525391e+00 2.128562211990356445e+00 5.637108683586120605e-01
2.011000000000000000e+03 7.546979522705078125e+01 2.230867385864257812e+01 -5.191056728363037109e-01 7.065909385681152344e+00 1.964040994644165039e+00 -2.518244683742523193e-01
2.012000000000000000e+03 7.672203063964843750e+01 2.089113044738769531e+01 -4.853576123714447021e-01 7.505712032318115234e+00 2.106106281280517578e+00 2.378901690244674683e-01
2.013000000000000000e+03 7.704143524169921875e+01 1.458816909790039062e+01 3.430754840373992920e-01 6.974425315856933594e+00 2.195250272750854492e+00 8.256532549858093262e-01
2.014000000000000000e+03 7.412815093994140625e+01 1.189918994903564453e+01 1.467950582504272461e+00 9.259395599365234375e+00 3.218203783035278320e+00 1.535566002130508423e-01
2.015000000000000000e+03 7.812451934814453125e+01 -2.090591430664062500e+01 3.564669191837310791e-01 7.651992321014404297e+00 2.402537822723388672e+00 6.435220241546630859e-01
2.016000000000000000e+03 7.626547241210937500e+01 8.657262802124023438e+00 3.378642201423645020e-01 7.349699974060058594e+00 2.306269168853759766e+00 -9.159079790115356445e-01
2.017000000000000000e+03 7.692375946044921875e+01 1.342411613464355469e+01 6.061183810234069824e-01 7.063840389251708984e+00 2.300987720489501953e+00 4.499712884426116943e-01
2.018000000000000000e+03 7.671140289306640625e+01 2.377414512634277344e+01 -1.722584664821624756e-01 7.203868389129638672e+00 2.109483003616333008e+00 -2.573813498020172119e-01
2.019000000000000000e+03 7.811128997802734375e+01 2.655153083801269531e+01 1.878971466794610023e-03 7.399507999420166016e+00 2.220416069030761719e+00 -2.252794504165649414e-01
2.020000000000000000e+03 7.534216308593750000e+01 2.811951446533203125e+01 2.795231044292449951e-01 6.454884529113769531e+00 2.020322322845458984e+00 -2.537537515163421631e-01
2.021000000000000000e+03 7.802994537353515625e+01 7.412463188171386719e+00 7.441637665033340454e-02 6.944179534912109375e+00 2.105578899383544922e+00 -8.483304977416992188e-01
2.022000000000000000e+03 7.800363159179687500e+01 -1.664805221557617188e+01 -1.768458336591720581e-01 8.681470870971679688e+00 2.551387548446655273e+00 9.948933124542236328e-01
2.023000000000000000e+03 7.587104034423828125e+01 -1.923548126220703125e+01 4.863657355308532715e-01 8.715336799621582031e+00 2.760510683059692383e+00 1.028124809265136719e+00
2.024000000000000000e+03 7.802886962890625000e+01 5.944420337677001953e+00 -5.449209734797477722e-02 7.290580749511718750e+00 2.170826673507690430e+00 -8.271363377571105957e-01
2.025000000000000000e+03 7.405765533447265625e+01 3.609940528869628906e+00 -3.016733527183532715e-01 5.892867088317871094e+00 1.677358031272888184e+00 -6.109830141067504883e-01
2.026000000000000000e+03 7.811821746826171875e+01 3.685822296142578125e+01 -2.022480964660644531e-02 7.380466461181640625e+00 2.208072662353515625e+00 8.301772922277450562e-02
2.027000000000000000e+03 7.800645446777343750e+01 -2.350679636001586914e+00 -3.402833342552185059e-01 8.781022071838378906e+00 2.532221555709838867e+00 5.569654703140258789e-01
2.028000000000000000e+03 7.813184356689453125e+01 -9.120309948921203613e-01 -2.802693843841552734e-01 8.638639450073242188e+00 2.507510900497436523e+00 1.414961218833923340e-01
2.029000000000000000e+03 7.613191223144531250e+01 5.363811969757080078e+00 -1.394412815570831299e-01 7.119035243988037109e+00 2.093878269195556641e+00 -9.652231335639953613e-01
2.030000000000000000e+03 7.560459899902343750e+01 -2.090172576904296875e+01 1.173006415367126465e+00 8.895348548889160156e+00 3.020506381988525391e+00 5.797826647758483887e-01
2.031000000000000000e+03 7.567993927001953125e+01 -1.428567600250244141e+01 -1.087441205978393555e+00 7.340347766876220703e+00 1.875871896743774414e+00 7.965338230133056641e-01
2.032000000000000000e+03 7.631411743164062500e+01 3.277595901489257812e+01 1.069781854748725891e-01 6.767149925231933594e+00 2.062238454818725586e+00 1.691624373197555542e-01
2.033000000000000000e+03 7.543549346923828125e+01 3.091593170166015625e+01 2.404355704784393311e-01 6.469130516052246094e+00 2.012869834899902344e+00 3.270275145769119263e-02
2.034000000000000000e+03 7.696894836425781250e+01 3.020710945129394531e+01 1.184851378202438354e-01 6.894460678100585938e+00 2.103883743286132812e+00 -5.983155220746994019e-02
2.035000000000000000e+03 7.352111816406250000e+01 1.756992530822753906e+01 -8.343452215194702148e-01 7.968662261962890625e+00 2.140295028686523438e+00 3.778328299522399902e-01
2.036000000000000000e+03 7.696496582031250000e+01 9.339994430541992188e+00 3.312617540359497070e-01 6.992020606994628906e+00 2.196984529495239258e+00 -8.525252938270568848e-01
2.037000000000000000e+03 7.598946380615234375e+01 7.112337112426757812e+00 5.998632311820983887e-02 7.354968070983886719e+00 2.224486351013183594e+00 -1.067538857460021973e+00
2.038000000000000000e+03 7.686434936523437500e+01 7.483674526214599609e+00 6.981971114873886108e-02 7.127016067504882812e+00 2.159050703048706055e+00 -1.003842473030090332e+00
2.039000000000000000e+03 7.323464965820312500e+01 3.763635873794555664e+00 -1.310565471649169922e-01 5.131074905395507812e+00 1.500005483627319336e+00 -2.154505625367164612e-02
2.040000000000000000e+03 7.713051605224609375e+01 2.035472154617309570e+00 -3.815395236015319824e-01 7.608953475952148438e+00 2.168224096298217773e+00 -6.845088601112365723e-01
2.041000000000000000e+03 7.639070129394531250e+01 3.587054252624511719e+00 -2.448420226573944092e-01 7.106849670410156250e+00 2.058602333068847656e+00 -8.713860511779785156e-01
2.042000000000000000e+03 7.475612640380859375e+01 -1.328114604949951172e+01 -1.579597234725952148e+00 6.423741340637207031e+00 1.453243255615234375e+00 9.290861487388610840e-01
2.043000000000000000e+03 7.683271026611328125e+01 -1.207429981231689453e+01 -1.214274406433105469e+00 9.191879272460937500e+00 2.393281459808349609e+00 -1.814425736665725708e-01
2.044000000000000000e+03 7.600284576416015625e+01 -1.004019737243652344e+01 -2.920068204402923584e-01 9.852708816528320312e+00 2.868210554122924805e+00 -7.572953701019287109e-01
2.045000000000000000e+03 7.619309997558593750e+01 -2.730950355529785156e+00 -5.051417350769042969e-01 8.507583618164062500e+00 2.400732517242431641e+00 1.375363320112228394e-01
2.046000000000000000e+03 7.653913116455078125e+01 -8.408370971679687500e+00 1.086302518844604492e+00 1.074850845336914062e+01 3.550443410873413086e+00 -7.283476591110229492e-01
2.047000000000000000e+03 2.171349334716796875e+01 2.434714698791503906e+01 9.249919094145298004e-03 3.851338863372802734e+00 1.158176660537719727e+00 2.791390717029571533e-01
2.048000000000000000e+03 2.187483787536621094e+01 2.541661643981933594e+01 -7.164698094129562378e-02 3.494744300842285156e+00 1.026929259300231934e+00 -8.884790353477001190e-03
2.049000000000000000e+03 6.500837707519531250e+01 -2.530387306213378906e+01 -1.038476705551147461e+00 8.563681602478027344e+00 2.257561445236206055e+00 -3.003886938095092773e+00
2.050000000000000000e+03 2.801055335998535156e+01 6.154324531555175781e+00 4.017448902130126953e+00 5.421873092651367188e+00 2.831796646118164062e+00 -2.315796852111816406e+00
2.051000000000000000e+03 4.402012634277343750e+01 3.408552932739257812e+01 -7.490407228469848633e-01 2.555597782135009766e+00 5.419670939445495605e-01 -1.007114529609680176e+00
2.052000000000000000e+03 3.748232269287109375e+01 -3.619016408920288086e-01 2.382709741592407227e+00 4.716567039489746094e+00 2.129782915115356445e+00 3.969714641571044922e+00
2.053000000000000000e+03 6.590756988525390625e+01 -2.768992424011230469e+01 -7.734027504920959473e-01 7.773253917694091797e+00 2.099955320358276367e+00 -2.585442304611206055e+00
2.054000000000000000e+03 6.700266265869140625e+01 -2.767537117004394531e+01 1.433424353599548340e-01 6.427988529205322266e+00 1.971399188041687012e+00 -2.670623302459716797e+00
2.055000000000000000e+03 3.852477645874023438e+01 -1.586102676391601562e+01 -2.121075868606567383e+00 5.001679420471191406e+00 8.641811013221740723e-01 -1.535057306289672852e+00
2.056000000000000000e+03 3.916475296020507812e+01 -1.333857727050781250e+01 -2.835454225540161133e+00 4.399262428283691406e+00 4.691424369812011719e-01 -1.933470487594604492e+00
2.057000000000000000e+03 2.856427192687988281e+01 -2.520170974731445312e+01 -4.279108047485351562e-01 5.345888137817382812e+00 1.475393176078796387e+00 1.928446143865585327e-01
2.058000000000000000e+03 2.893642616271972656e+01 -2.771755027770996094e+01 -1.725460886955261230e+00 4.161219120025634766e+00 7.307274937629699707e-01 -1.050778198987245560e-02
2.059000000000000000e+03 1.749757528305053711e+00 3.152916526794433594e+01 -1.671787723898887634e-02 -5.848443508148193359e-01 -1.804686784744262695e-01 -1.842229366302490234e-01
2.060000000000000000e+03 4.171131610870361328e+00 3.425135421752929688e+01 -1.464947909116744995e-01 -2.355275750160217285e-01 -1.146067082881927490e-01 -1.544047296047210693e-01
2.061000000000000000e+03 2.942005395889282227e+00 2.832379150390625000e+01 7.422053068876266479e-02 -4.352713823318481445e-01 -1.083152592182159424e-01 -2.850974500179290771e-01
2.062000000000000000e+03 4.607076644897460938e+00 2.461695480346679688e+01 2.463539093732833862e-01 -1.022941097617149353e-01 4.321793839335441589e-02 -9.730494767427444458e-02
2.063000000000000000e+03 2.895157814025878906e+00 3.021094131469726562e+01 -1.565317437052726746e-02 -4.400555193424224854e-01 -1.367126107215881348e-01 -2.820987999439239502e-01
2.064000000000000000e+03 2.009352684020996094e+00 3.584719848632812500e+01 -2.737554535269737244e-02 -3.584990799427032471e-01 -1.157623827457427979e-01 -6.351473927497863770e-02
2.065000000000000000e+03 4.842340469360351562e+00 2.613959312438964844e+01 2.980829477310180664e-01 5.789356678724288940e-02 1.067929565906524658e-01 -2.060216814279556274e-01
2.066000000000000000e+03 4.593657016754150391e+00 3.262156677246093750e+01 -1.368694454431533813e-01 -1.922993659973144531e-01 -9.875064343214035034e-02 -2.252803295850753784e-01
2.067000000000000000e+03 6.084064006805419922e+00 3.316604614257812500e+01 -1.714579612016677856e-01 -1.669593751430511475e-01 -1.015252023935317993e-01 -1.738628149032592773e-01
2.068000000000000000e+03 2.949801445007324219e+00 3.947496032714843750e+01 -1.588897593319416046e-02 -3.098073303699493408e-01 -9.770888835191726685e-02 -1.628324575722217560e-02
2.069000000000000000e+03 1.906648874282836914e+00 -2.880619049072265625e+01 4.588786512613296509e-03 -5.431923866271972656e-01 -1.615810692310333252e-01 4.368851333856582642e-02
2.070000000000000000e+03 3.720951318740844727e+00 -3.266475677490234375e+01 6.066645309329032898e-02 -1.594922095537185669e-01 -2.964772656559944153e-02 2.221178859472274780e-01
2.071000000000000000e+03 2.009154796600341797e+00 -3.017463302612304688e+01 4.746536538004875183e-02 -4.971669316291809082e-01 -1.349104642868041992e-01 7.377963513135910034e-02
2.072000000000000000e+03 1.882650256156921387e+00 2.173530387878417969e+01 1.714956946671009064e-02 -1.006108403205871582e+00 -2.966876626014709473e-01 7.711485028266906738e-02
2.073000000000000000e+03 3.206870555877685547e+00 2.382282638549804688e+01 1.014716029167175293e-01 -5.509386658668518066e-01 -1.348401308059692383e-01 3.013294888660311699e-03
2.074000000000000000e+03 3.230102300643920898e+00 -1.366926574707031250e+01 -8.651543408632278442e-02 -1.138908341526985168e-01 -6.012187898159027100e-02 -9.509065747261047363e-02
2.075000000000000000e+03 5.931299686431884766e+00 -1.333925819396972656e+01 -1.328917741775512695e-01 -1.658225655555725098e-01 -8.961430191993713379e-02 -1.220337301492691040e-01
2.076000000000000000e+03 5.282611370086669922e+00 1.694553375244140625e+01 1.124481037259101868e-01 -2.196694165468215942e-01 -3.216639533638954163e-02 2.249021232128143311e-01
2.077000000000000000e+03 3.227035522460937500e+00 2.031315422058105469e+01 4.832222685217857361e-02 -5.932047367095947266e-01 -1.634647548198699951e-01 1.291482150554656982e-01
2.078000000000000000e+03 5.289867401123046875e+00 1.132477855682373047e+01 -6.436829268932342529e-02 -1.572801023721694946e-01 -6.649451702833175659e-02 3.721354603767395020e-01
2.079000000000000000e+03 2.878162860870361328e+00 -2.322842979431152344e+01 4.937292635440826416e-02 -3.258179724216461182e-01 -8.293350785970687866e-02 -5.326914787292480469e-02
2.080000000000000000e+03 4.723231315612792969e+00 -2.264863777160644531e+01 9.037224203348159790e-02 9.174028038978576660e-02 5.463375896215438843e-02 -1.019402146339416504e-01
2.081000000000000000e+03 3.232223033905029297e+00 -1.512718105316162109e+01 -6.874250620603561401e-02 -1.310104280710220337e-01 -5.992588028311729431e-02 -1.432378739118576050e-01
2.082000000000000000e+03 2.826169729232788086e+00 -9.505408287048339844e+00 6.796968518756330013e-04 -5.858042091131210327e-02 -1.737021654844284058e-02 -1.211184170097112656e-02
2.083000000000000000e+03 4.868096351623535156e+00 -5.058909893035888672e+00 3.515684511512517929e-03 -4.401788860559463501e-02 -1.215066108852624893e-02 -2.547741122543811798e-02
2.084000000000000000e+03 2.900141239166259766e+00 8.809951782226562500e+00 -5.368984118103981018e-02 -1.872970610857009888e-01 -7.229607552289962769e-02 1.941335052251815796e-01
2.085000000000000000e+03 1.602314233779907227e+00 6.269893169403076172e+00 -1.934975013136863708e-02 -7.835238426923751831e-02 -2.931063994765281677e-02 6.277032196521759033e-02
2.086000000000000000e+03 2.071264982223510742e+00 1.441231918334960938e+01 1.141030155122280121e-02 -6.010193228721618652e-01 -1.768826991319656372e-01 1.956688314676284790e-01
2.087000000000000000e+03 3.707375764846801758e+00 1.534028434753417969e+01 5.558806657791137695e-02 -4.369847178459167480e-01 -1.144189909100532532e-01 2.695068418979644775e-01
2.088000000000000000e+03 2.815504789352416992e+00 1.015476894378662109e+01 -3.817043453454971313e-02 -2.563423812389373779e-01 -8.835384249687194824e-02 2.254056334495544434e-01
2.089000000000000000e+03 2.639087200164794922e+00 -4.263260841369628906e+00 -8.030477911233901978e-03 -1.419052109122276306e-02 -6.666299887001514435e-03 -1.503359875641763210e-03
2.090000000000000000e+03 4.056710243225097656e+00 -1.076672744750976562e+01 -2.696411870419979095e-02 -1.000189185142517090e-01 -3.809491172432899475e-02 -3.407923132181167603e-02
2.091000000000000000e+03 3.286060333251953125e+00 -1.936369514465332031e+01 7.327377796173095703e-02 -1.608204394578933716e-01 -2.626399882137775421e-02 -2.489583492279052734e-01
2.092000000000000000e+03 4.564010143280029297e+00 -1.528838920593261719e+01 -1.663144975900650024e-01 -1.323801577091217041e-01 -8.960839360952377319e-02 -1.518628895282745361e-01
2.093000000000000000e+03 2.801689386367797852e+00 -8.240564346313476562e+00 -1.164710521697998047e-02 -4.676201194524765015e-02 -1.752273552119731903e-02 -1.054850127547979355e-02
2.094000000000000000e+03 2.351305246353149414e+00 -3.580710220336914062e+01 2.271574735641479492e-02 -1.431676000356674194e-01 -3.613555803894996643e-02 2.139774709939956665e-01
2.095000000000000000e+03 3.998967409133911133e+00 -3.578829193115234375e+01 -4.557557404041290283e-03 1.722825318574905396e-02 3.801208455115556717e-03 2.916066050529479980e-01
2.096000000000000000e+03 5.161883831024169922e+00 -3.229575729370117188e+01 1.622504442930221558e-01 1.174615137279033661e-02 5.219897627830505371e-02 2.512625455856323242e-01
2.097000000000000000e+03 6.568995952606201172e+00 -2.463300895690917969e+01 7.140322774648666382e-02 1.813330352306365967e-01 7.582087814807891846e-02 -1.645620614290237427e-01
2.098000000000000000e+03 3.704336404800415039e+00 1.058067226409912109e+01 -4.829778894782066345e-02 -2.214033752679824829e-01 -8.091034740209579468e-02 2.869385182857513428e-01
2.099000000000000000e+03 3.171334028244018555e+00 1.261662197113037109e+01 -6.891803815960884094e-03 -3.621581196784973145e-01 -1.107149794697761536e-01 2.754006981849670410e-01
2.100000000000000000e+03 3.492609500885009766e+00 1.398345756530761719e+01 2.190473116934299469e-02 -4.106350839138031006e-01 -1.166191026568412781e-01 2.939311861991882324e-01
2.101000000000000000e+03 4.240328788757324219e+00 1.634019088745117188e+01 5.953770875930786133e-02 -3.954178690910339355e-01 -1.007640510797500610e-01 2.430799305438995361e-01
2.102000000000000000e+03 2.661238288879394531e+01 3.002426338195800781e+01 7.365332841873168945e-01 7.666320204734802246e-01 4.509495794773101807e-01 -4.320171177387237549e-01
2.103000000000000000e+03 7.238970184326171875e+01 1.946534156799316406e+01 -1.892367005348205566e+00 6.879484176635742188e+00 1.496135234832763672e+00 -4.653716087341308594e-01
2.104000000000000000e+03 5.785074996948242188e+01 -2.690183067321777344e+01 -2.784285545349121094e+00 6.802323818206787109e+00 1.205411434173583984e+00 1.733861327171325684e+00
2.105000000000000000e+03 5.666131210327148438e+01 -4.128549194335937500e+01 -2.560956001281738281e+00 4.645521640777587891e+00 6.253697276115417480e-01 -3.801288902759552002e-01
2.106000000000000000e+03 2.196819114685058594e+01 2.636867332458496094e+01 2.233829908072948456e-02 3.359174489974975586e+00 1.014453887939453125e+00 -2.216037362813949585e-02
2.107000000000000000e+03 4.214987945556640625e+01 1.511552453041076660e+00 2.152612447738647461e+00 5.258134841918945312e+00 2.223224163055419922e+00 -1.034044146537780762e+00
2.108000000000000000e+03 5.365167617797851562e+01 1.857010078430175781e+01 -1.220364570617675781e+00 4.222506523132324219e+00 9.006425738334655762e-01 -2.059693813323974609e+00
2.109000000000000000e+03 5.424090576171875000e+01 -3.806074142456054688e+01 -1.951452493667602539e+00 6.625161170959472656e+00 1.402112722396850586e+00 -2.850588262081146240e-01
2.110000000000000000e+03 2.176316452026367188e+01 1.007829284667968750e+01 2.348449081182479858e-01 9.598243832588195801e-01 3.584007918834686279e-01 -1.010395169258117676e+00
2.111000000000000000e+03 2.621055984497070312e+01 1.051690387725830078e+01 3.796588778495788574e-01 2.189641237258911133e+00 7.707900404930114746e-01 -1.776380658149719238e+00
2.112000000000000000e+03 3.662682723999023438e+01 1.335388755798339844e+01 -7.213091254234313965e-01 1.872630953788757324e+00 3.453965485095977783e-01 -1.971604585647583008e+00
2.113000000000000000e+03 4.946932601928710938e+01 -9.532431602478027344e+00 2.393286943435668945e+00 8.174278259277343750e+00 3.170269489288330078e+00 -2.144634723663330078e-01
2.114000000000000000e+03 4.995933151245117188e+01 -1.373885726928710938e+01 -1.097182393074035645e+00 4.324547767639160156e+00 9.682096838951110840e-01 1.504178792238235474e-01
2.115000000000000000e+03 2.412933540344238281e+01 -2.805803108215332031e+01 -1.336733460426330566e+00 2.580722570419311523e+00 3.731967508792877197e-01 2.610324919223785400e-01
2.116000000000000000e+03 7.489401245117187500e+01 -2.156314086914062500e+01 1.323828816413879395e+00 1.046905803680419922e+01 3.537865877151489258e+00 1.926534920930862427e-01
2.117000000000000000e+03 7.549721527099609375e+01 -2.247946166992187500e+01 1.233795404434204102e+00 9.521644592285156250e+00 3.226632118225097656e+00 1.868268996477127075e-01
2.118000000000000000e+03 4.214509201049804688e+01 1.572438526153564453e+01 1.717178702354431152e+00 6.424678802490234375e+00 2.442557334899902344e+00 -9.619547426700592041e-02
2.119000000000000000e+03 5.469565200805664062e+01 2.266427421569824219e+01 -1.391078114509582520e+00 4.455035686492919922e+00 9.191873073577880859e-01 -2.556473731994628906e+00
2.120000000000000000e+03 5.370113754272460938e+01 2.469048309326171875e+01 4.868121445178985596e-02 5.810592651367187500e+00 1.757782101631164551e+00 -1.213756918907165527e+00
2.121000000000000000e+03 4.558177185058593750e+01 -2.616264581680297852e+00 8.055801391601562500e-01 4.021752834320068359e+00 1.448199987411499023e+00 -2.678858041763305664e+00
2.122000000000000000e+03 1.442401123046875000e+01 -9.691785812377929688e+00 -1.330222040414810181e-01 1.939520388841629028e-01 1.827895082533359528e-02 3.020779113285243511e-04
2.123000000000000000e+03 5.305237293243408203e+00 1.233465862274169922e+01 -8.888785727322101593e-03 -1.643779426813125610e-01 -5.198001861572265625e-02 3.614371716976165771e-01
2.124000000000000000e+03 5.596405410766601562e+01 1.016390132904052734e+01 1.636395692825317383e+00 1.011333847045898438e+01 3.524920225143432617e+00 1.697145938873291016e+00
2.125000000000000000e+03 4.881345748901367188e+01 -1.220521330833435059e+00 1.216910123825073242e+00 5.118496417999267578e+00 1.900622010231018066e+00 -1.560975432395935059e+00
2.126000000000000000e+03 4.708554840087890625e+01 -4.877354145050048828e+00 1.035547494888305664e+00 6.256118774414062500e+00 2.187500000000000000e+00 -1.945772647857666016e+00
2.127000000000000000e+03 5.303442764282226562e+01 1.958587074279785156e+01 -1.375702023506164551e+00 3.919540643692016602e+00 7.631515264511108398e-01 -2.328950643539428711e+00
2.128000000000000000e+03 4.405846595764160156e+00 2.984934234619140625e+01 -4.096030443906784058e-02 -1.285966783761978149e-01 -5.086709558963775635e-02 -3.284682333469390869e-01
2.129000000000000000e+03 6.376252365112304688e+01 -1.287532043457031250e+01 -1.325251102447509766e+00 6.494042873382568359e+00 1.550637483596801758e+00 6.573650836944580078e-01
2.130000000000000000e+03 6.506127929687500000e+01 -1.344390201568603516e+01 -1.187526464462280273e+00 5.320374011993408203e+00 1.239854216575622559e+00 1.970061212778091431e-01
2.131000000000000000e+03 6.292551040649414062e+00 2.393013763427734375e+01 3.476476371288299561e-01 3.880443871021270752e-01 2.207076102495193481e-01 -2.445056140422821045e-01
2.132000000000000000e+03 5.595359802246093750e+00 2.503948211669921875e+01 2.958344221115112305e-01 3.685051798820495605e-01 1.993018835783004761e-01 -2.074412256479263306e-01
2.133000000000000000e+03 4.746761703491210938e+01 -3.693658828735351562e+00 1.242076754570007324e+00 5.711328029632568359e+00 2.086021423339843750e+00 -1.893925428390502930e+00
2.134000000000000000e+03 4.920957946777343750e+01 2.996925544738769531e+01 1.336271762847900391e+00 6.616032600402832031e+00 2.385691404342651367e+00 6.294381022453308105e-01
2.135000000000000000e+03 1.543151855468750000e+01 2.176715278625488281e+01 7.571892142295837402e-01 -1.254584193229675293e-01 1.895192414522171021e-01 3.143753111362457275e-02
2.136000000000000000e+03 7.594808197021484375e+01 1.594934844970703125e+01 1.664050519466400146e-01 7.658482551574707031e+00 2.347466230392456055e+00 1.057325601577758789e+00
2.137000000000000000e+03 1.630581474304199219e+01 -3.869441747665405273e+00 3.906025364995002747e-02 1.139778718352317810e-01 4.591143876314163208e-02 -1.413375232368707657e-02
2.138000000000000000e+03 1.446491718292236328e+01 -5.270215511322021484e+00 -3.185726469382643700e-03 6.486770510673522949e-02 1.850459352135658264e-02 -4.358476400375366211e-02
2.139000000000000000e+03 1.022241306304931641e+01 -2.444893646240234375e+01 2.275043874979019165e-01 1.425075531005859375e-01 1.110035851597785950e-01 -3.202276676893234253e-02
2.140000000000000000e+03 2.516638946533203125e+01 -1.474707698822021484e+01 -3.364534080028533936e-01 1.489378571510314941e+00 3.458775579929351807e-01 1.051048994064331055e+00
2.141000000000000000e+03 1.167422485351562500e+01 -3.725871276855468750e+01 -3.503294289112091064e-01 7.568193674087524414e-01 1.219469755887985229e-01 4.559777677059173584e-01
2.142000000000000000e+03 1.116309642791748047e+01 -3.440966033935546875e+01 2.517116069793701172e-01 1.067210078239440918e+00 3.956765234470367432e-01 3.971243500709533691e-01
2.143000000000000000e+03 3.037128639221191406e+01 -1.262122058868408203e+01 -1.682977080345153809e-01 4.808186531066894531e+00 1.391966700553894043e+00 2.712486505508422852e+00
2.144000000000000000e+03 2.700892066955566406e+01 -1.887230110168457031e+01 1.496757388114929199e+00 4.838193893432617188e+00 1.900485396385192871e+00 7.596749663352966309e-01
2.145000000000000000e+03 3.221237564086914062e+01 2.589715766906738281e+01 1.156739950180053711e+00 5.462270736694335938e+00 1.985703229904174805e+00 -7.231696844100952148e-01
2.146000000000000000e+03 3.095041465759277344e+01 3.133649826049804688e+01 5.038703680038452148e-01 3.263948678970336914e+00 1.130345702171325684e+00 -1.293164610862731934e+00
2.147000000000000000e+03 8.868174552917480469e+00 8.729701995849609375e+00 -3.101762533187866211e-01 -1.214701682329177856e-01 -1.294939219951629639e-01 2.546576261520385742e-01
2.148000000000000000e+03 8.678911209106445312e+00 4.171987056732177734e+00 -2.148587703704833984e-01 -5.295635387301445007e-02 -8.034453541040420532e-02 1.417420655488967896e-01
2.149000000000000000e+03 6.024651336669921875e+01 -1.905501365661621094e+01 1.930622339248657227e+00 5.786511898040771484e+00 2.315140247344970703e+00 -6.301256418228149414e-01
2.150000000000000000e+03 6.220041656494140625e+01 -1.919870376586914062e+01 1.438528656959533691e+00 6.679528713226318359e+00 2.435417175292968750e+00 -1.442193031311035156e+00
2.151000000000000000e+03 9.168584823608398438e+00 2.114014434814453125e+01 3.495316207408905029e-01 2.861511111259460449e-01 1.907048225402832031e-01 -1.674886196851730347e-01
2.152000000000000000e+03 5.513257598876953125e+01 -1.094241619110107422e+01 2.547179162502288818e-01 3.386505365371704102e+00 1.092367053031921387e+00 -2.815735340118408203e+00
2.153000000000000000e+03 3.832929229736328125e+01 -3.389151096343994141e+00 4.212703704833984375e-01 5.400654792785644531e+00 1.746577501296997070e+00 2.489894151687622070e+00
2.154000000000000000e+03 3.874342727661132812e+01 -2.492855548858642578e+00 9.282473921775817871e-01 4.329438686370849609e+00 1.577305912971496582e+00 2.749463319778442383e+00
2.155000000000000000e+03 1.475448131561279297e+01 -2.246384048461914062e+01 2.326368540525436401e-01 6.076670885086059570e-01 2.520911991596221924e-01 5.164121985435485840e-01
2.156000000000000000e+03 7.259934234619140625e+01 -1.610401535034179688e+01 -2.332930564880371094e-01 4.096073627471923828e+00 1.158834099769592285e+00 -6.996034383773803711e-01
2.157000000000000000e+03 4.155463027954101562e+01 -1.606318092346191406e+01 -9.066483378410339355e-01 2.109140396118164062e+00 3.607476651668548584e-01 -1.219346404075622559e+00
2.158000000000000000e+03 7.140653228759765625e+01 -3.621199035644531250e+01 2.394684553146362305e-01 5.829567909240722656e+00 1.820710897445678711e+00 -1.142773628234863281e+00
2.159000000000000000e+03 6.784387207031250000e+01 -3.738399887084960938e+01 -1.161359786987304688e+00 5.631446361541748047e+00 1.341025948524475098e+00 -1.047528982162475586e+00
2.160000000000000000e+03 5.008252334594726562e+01 2.466765403747558594e+01 1.432676672935485840e+00 5.405999660491943359e+00 2.051603078842163086e+00 2.296835035085678101e-01
2.161000000000000000e+03 5.212654495239257812e+01 2.767558097839355469e+01 1.632530212402343750e+00 6.973399162292480469e+00 2.581778764724731445e+00 8.336849714396521449e-05
2.162000000000000000e+03 2.132794952392578125e+01 -1.569454193115234375e+01 1.862528473138809204e-01 -1.374742537736892700e-01 1.463357638567686081e-02 -2.749836742877960205e-01
2.163000000000000000e+03 1.089269447326660156e+01 -3.145602607727050781e+01 4.898700714111328125e-01 9.742503166198730469e-01 4.392361044883728027e-01 4.243095517158508301e-01
2.164000000000000000e+03 4.333488464355468750e+01 1.262032604217529297e+01 1.273420810699462891e+00 9.947694778442382812e+00 3.366334676742553711e+00 1.367826104164123535e+00
2.165000000000000000e+03 2.566726875305175781e+01 -2.788378524780273438e+01 -1.340214610099792480e+00 3.636237859725952148e+00 6.888070106506347656e-01 4.244735240936279297e-01
2.166000000000000000e+03 2.859942245483398438e+01 -2.664340591430664062e+01 -1.130984663963317871e+00 4.355658531188964844e+00 9.674021601676940918e-01 1.077066212892532349e-01
2.167000000000000000e+03 5.530641174316406250e+01 8.325104713439941406e+00 2.631030559539794922e+00 9.452300071716308594e+00 3.624999284744262695e+00 1.754405140876770020e+00
2.168000000000000000e+03 5.894345855712890625e+01 8.863967895507812500e+00 7.257335782051086426e-01 6.796473979949951172e+00 2.256662368774414062e+00 5.133359506726264954e-02
2.169000000000000000e+03 1.966091537475585938e+01 -1.707229042053222656e+01 6.024999618530273438e-01 1.564882136881351471e-02 1.854446381330490112e-01 -2.554864287376403809e-01
2.170000000000000000e+03 5.072979736328125000e+01 -3.209273910522460938e+01 2.783333063125610352e+00 7.148865222930908203e+00 2.979659557342529297e+00 -9.618272185325622559e-01
2.171000000000000000e+03 5.162919235229492188e+01 -3.347455978393554688e+01 2.214649915695190430e+00 6.986868858337402344e+00 2.760455608367919922e+00 -4.282407164573669434e-01
2.172000000000000000e+03 4.658910369873046875e+01 -1.471735477447509766e+01 -3.609570503234863281e+00 6.022186279296875000e+00 7.237847447395324707e-01 2.829226016998291016e+00
2.173000000000000000e+03 4.363967514038085938e+01 -1.488069915771484375e+01 -2.165338993072509766e+00 1.161100745201110840e+00 -3.012714982032775879e-01 8.700298070907592773e-01
2.174000000000000000e+03 3.840392303466796875e+01 -1.421211528778076172e+01 -3.142192602157592773e+00 5.317208766937255859e+00 6.525048613548278809e-01 -2.476522684097290039e+00
2.175000000000000000e+03 3.942884445190429688e+01 -1.640604591369628906e+01 -8.472026586532592773e-01 4.077493190765380859e+00 9.690871238708496094e-01 -1.589533090591430664e+00
2.176000000000000000e+03 2.816134643554687500e+01 -1.935178565979003906e+01 1.564936757087707520e+00 6.991497039794921875e+00 2.566930294036865234e+00 1.459747314453125000e+00
2.177000000000000000e+03 6.054245376586914062e+01 1.757887840270996094e+01 2.785418748855590820e+00 9.093557357788085938e+00 3.563692808151245117e+00 2.835848569869995117e+00
2.178000000000000000e+03 4.470901107788085938e+01 -1.868335723876953125e+01 1.694409608840942383e+00 5.024013996124267578e+00 2.015527009963989258e+00 2.512651085853576660e-01
2.179000000000000000e+03 2.917231178283691406e+01 -1.233628559112548828e+01 -4.387850686907768250e-02 5.584817409515380859e+00 1.662281632423400879e+00 2.532886505126953125e+00
2.180000000000000000e+03 4.637375259399414062e+01 -2.553989028930664062e+01 -8.784771561622619629e-01 4.389198780059814453e+00 1.053216457366943359e+00 -2.559551000595092773e+00
2.181000000000000000e+03 4.820536804199218750e+01 -4.112723541259765625e+01 -2.085844993591308594e+00 3.222101926803588867e+00 3.408770859241485596e-01 4.660046398639678955e-01
2.182000000000000000e+03 4.776186752319335938e+01 -1.282166290283203125e+01 -1.492049694061279297e+00 7.910239219665527344e+00 1.925456881523132324e+00 1.469624400138854980e+00
2.183000000000000000e+03 7.564817047119140625e+01 -4.278979301452636719e+00 4.534764289855957031e-01 9.554601669311523438e+00 3.002423286437988281e+00 -4.290688037872314453e-01
2.184000000000000000e+03 7.679005432128906250e+01 -1.881357789039611816e+00 -5.855234265327453613e-01 8.466237068176269531e+00 2.364214181900024414e+00 1.252530664205551147e-01
2.185000000000000000e+03 3.777753829956054688e+01 -3.080017852783203125e+01 1.392799854278564453e+00 4.001268863677978516e+00 1.618220567703247070e+00 1.352231025695800781e+00
2.186000000000000000e+03 7.322122955322265625e+01 2.058486557006835938e+01 -1.307071447372436523e+00 6.766343116760253906e+00 1.637781381607055664e+00 -5.437889099121093750e-01
2.187000000000000000e+03 3.851211166381835938e+01 1.303579330444335938e+01 -4.697320759296417236e-01 4.351664066314697266e+00 1.164579629898071289e+00 -1.477588176727294922e+00
2.188000000000000000e+03 6.848928833007812500e+01 -1.311411380767822266e+01 -5.294393301010131836e-01 1.265771269798278809e+00 2.208995670080184937e-01 -1.524646878242492676e+00
2.189000000000000000e+03 6.586273956298828125e+01 -1.213419723510742188e+01 -4.155175983905792236e-01 4.755198955535888672e+00 1.301904439926147461e+00 -6.743562221527099609e-01
2.190000000000000000e+03 5.461735153198242188e+01 -3.222003555297851562e+01 2.606998443603515625e+00 7.810827255249023438e+00 3.125347614288330078e+00 3.137931823730468750e-01
2.191000000000000000e+03 5.510888290405273438e+01 -3.090877723693847656e+01 1.946949839591979980e+00 8.422420501708984375e+00 3.110810995101928711e+00 1.178956627845764160e+00
2.192000000000000000e+03 1.639240264892578125e+01 3.483026504516601562e+01 -1.089326217770576477e-01 4.834325611591339111e-01 1.123499795794487000e-01 -3.182346224784851074e-01
2.193000000000000000e+03 1.757843017578125000e+01 3.740064620971679688e+01 -2.041412889957427979e-01 1.030133366584777832e+00 2.477976232767105103e-01 -2.884877920150756836e-01
2.194000000000000000e+03 2.511955833435058594e+01 1.397640800476074219e+01 -9.690547585487365723e-01 1.438926458358764648e+00 1.409614980220794678e-01 -1.528925776481628418e+00
2.195000000000000000e+03 2.382020568847656250e+01 1.549800968170166016e+01 -9.945347905158996582e-01 2.323202610015869141e+00 3.986003696918487549e-01 -9.661211371421813965e-01
2.196000000000000000e+03 1.643154907226562500e+01 5.956555366516113281e+00 2.000837326049804688e-01 1.542135626077651978e-01 1.062891855835914612e-01 3.721647560596466064e-01
2.197000000000000000e+03 1.767129325866699219e+01 2.148684883117675781e+01 9.382409453392028809e-01 3.991675376892089844e-01 4.012225270271301270e-01 1.379206180572509766e-01
2.198000000000000000e+03 1.897751808166503906e+01 1.863223457336425781e+01 6.018355488777160645e-01 1.208875179290771484e+00 5.432131886482238770e-01 -1.848498582839965820e-01
2.199000000000000000e+03 5.906903076171875000e+01 -2.396760177612304688e+01 8.385756015777587891e-01 3.839657306671142578e+00 1.403469920158386230e+00 6.902917027473449707e-01
2.200000000000000000e+03 6.350317382812500000e+01 -2.026994705200195312e+01 1.743469119071960449e+00 8.243375778198242188e+00 2.996053457260131836e+00 -1.819606542587280273e+00
2.201000000000000000e+03 2.606974411010742188e+01 -2.955533981323242188e+01 -1.021498918533325195e+00 3.715146541595458984e+00 8.080942630767822266e-01 4.977352917194366455e-01
2.202000000000000000e+03 6.434963226318359375e+01 -4.305502891540527344e+00 1.859505295753479004e+00 8.836698532104492188e+00 3.208861112594604492e+00 2.920753657817840576e-01
2.203000000000000000e+03 6.236199951171875000e+01 -4.265870094299316406e+00 1.666823983192443848e+00 9.687371253967285156e+00 3.406258583068847656e+00 -1.148527860641479492e+00
2.204000000000000000e+03 2.881559562683105469e+01 1.049687099456787109e+01 4.024707078933715820e-01 3.675119876861572266e+00 1.223277211189270020e+00 -4.473073482513427734e-01
2.205000000000000000e+03 2.778040504455566406e+01 1.298841476440429688e+01 -1.214553356170654297e+00 1.655947327613830566e+00 1.324181854724884033e-01 -4.706493616104125977e-01
2.206000000000000000e+03 3.493239593505859375e+01 2.487800788879394531e+01 1.313335776329040527e+00 7.192516803741455078e+00 2.551755905151367188e+00 -1.220034956932067871e+00
2.207000000000000000e+03 4.953800678253173828e+00 3.080774116516113281e+01 -8.320774137973785400e-02 -1.994969137012958527e-02 -3.094722889363765717e-02 -2.318323850631713867e-01
2.208000000000000000e+03 6.289137840270996094e+00 2.136258316040039062e+01 1.727354377508163452e-01 1.127960160374641418e-01 8.565943688154220581e-02 -2.986932918429374695e-02
2.209000000000000000e+03 1.338064861297607422e+01 -9.093173980712890625e+00 -9.358641505241394043e-02 1.404751986265182495e-01 1.406663469970226288e-02 -5.556611716747283936e-02
2.210000000000000000e+03 1.573299789428710938e+01 -1.273493576049804688e+01 -1.592702269554138184e-01 3.748404681682586670e-01 6.467107683420181274e-02 -7.332167029380798340e-02
2.211000000000000000e+03 4.584708404541015625e+01 -1.898431205749511719e+01 1.849438309669494629e+00 7.086391925811767578e+00 2.680748939514160156e+00 9.417116045951843262e-01
2.212000000000000000e+03 4.235376358032226562e+01 -1.847717285156250000e+01 1.732502818107604980e+00 2.991856098175048828e+00 1.417307734489440918e+00 -2.578487992286682129e-01
2.213000000000000000e+03 5.866932296752929688e+01 -2.225691986083984375e+01 2.162498474121093750e+00 5.088976383209228516e+00 2.175442457199096680e+00 2.061649262905120850e-01
2.214000000000000000e+03 6.557833099365234375e+01 1.187348127365112305e+00 2.877688109874725342e-01 4.040809154510498047e+00 1.298573493957519531e+00 1.115603566169738770e+00
2.215000000000000000e+03 4.881604385375976562e+01 -7.660528659820556641e+00 2.369573831558227539e+00 9.132485389709472656e+00 3.450617790222167969e+00 1.544153839349746704e-01
2.216000000000000000e+03 2.023439598083496094e+01 -1.482970523834228516e+01 -2.043818831443786621e-01 -1.049619354307651520e-02 -6.446342170238494873e-02 -3.840715289115905762e-01
2.217000000000000000e+03 4.488546752929687500e+01 -2.331652641296386719e+01 2.046383619308471680e+00 4.237334728240966797e+00 1.885115504264831543e+00 -1.454058438539505005e-01
2.218000000000000000e+03 6.286292648315429688e+01 6.561474323272705078e+00 -9.619929790496826172e-01 3.050036191940307617e+00 6.264129281044006348e-01 -1.425556302070617676e+00
2.219000000000000000e+03 5.101939392089843750e+01 -3.952336311340332031e+00 1.650445342063903809e+00 8.204820632934570312e+00 2.956579685211181641e+00 -1.524910777807235718e-01
2.220000000000000000e+03 6.871443939208984375e+01 6.075108051300048828e+00 1.194943040609359741e-01 1.766427516937255859e+00 5.657765269279479980e-01 2.177645683288574219e+00
2.221000000000000000e+03 5.471060562133789062e+01 -2.884386825561523438e+01 3.504681289196014404e-01 7.114785671234130859e+00 2.239576101303100586e+00 1.546517014503479004e+00
2.222000000000000000e+03 1.208217334747314453e+01 -2.872801017761230469e+01 6.415824294090270996e-01 9.799473881721496582e-01 4.864589273929595947e-01 4.211697280406951904e-01
2.223000000000000000e+03 3.662656021118164062e+01 4.097208786010742188e+01 -7.603290081024169922e-01 2.152746677398681641e+00 4.177252650260925293e-01 1.348150521516799927e-01
2.224000000000000000e+03 4.024293422698974609e+00 -2.147072601318359375e+01 1.681725382804870605e-01 -3.995246067643165588e-02 3.846602141857147217e-02 -1.161743849515914917e-01
2.225000000000000000e+03 5.323712539672851562e+01 2.900479137897491455e-01 -3.582999110221862793e-01 6.043254375457763672e+00 1.705486297607421875e+00 2.075489282608032227e+00
2.226000000000000000e+03 4.988503646850585938e+01 -9.908407926559448242e-01 1.084817290306091309e+00 5.709185123443603516e+00 2.038200855255126953e+00 -6.159188747406005859e-01
2.227000000000000000e+03 5.490808486938476562e+00 3.193528938293457031e+01 -1.465297192335128784e-01 -1.318631619215011597e-01 -8.351786434650421143e-02 -1.794226318597793579e-01
2.228000000000000000e+03 6.572113800048828125e+01 4.948554515838623047e+00 2.400202155113220215e-01 1.151017546653747559e+00 4.173113405704498291e-01 4.660558700561523438e-01
2.229000000000000000e+03 6.806639862060546875e+01 1.495297670364379883e+00 5.299239754676818848e-01 2.233206748962402344e+00 8.289391994476318359e-01 2.171787261962890625e+00
2.230000000000000000e+03 8.929354667663574219e+00 -2.449968147277832031e+01 1.876152008771896362e-01 1.537024229764938354e-01 1.023952811956405640e-01 -2.028740197420120239e-01
2.231000000000000000e+03 1.126869678497314453e+01 -2.796667671203613281e+01 5.505442023277282715e-01 7.323669195175170898e-01 3.848733305931091309e-01 2.341185212135314941e-01
2.232000000000000000e+03 2.963088989257812500e+01 -1.128643703460693359e+01 1.517863869667053223e+00 5.330343723297119141e+00 2.054462194442749023e+00 2.514954090118408203e+00
2.233000000000000000e+03 6.086309051513671875e+01 1.875008583068847656e+01 1.600314497947692871e+00 7.908281803131103516e+00 2.852578878402709961e+00 2.347971916198730469e+00
2.234000000000000000e+03 5.852083969116210938e+01 2.213364791870117188e+01 -1.502891898155212402e+00 8.366056084632873535e-01 -1.998858749866485596e-01 3.752430155873298645e-02
2.235000000000000000e+03 2.347431182861328125e+01 3.195368957519531250e+01 3.801275193691253662e-01 1.850804090499877930e+00 6.692794561386108398e-01 1.347734481096267700e-01
2.236000000000000000e+03 2.185580635070800781e+01 2.982405662536621094e+01 3.764255046844482422e-01 2.433308839797973633e+00 8.429203629493713379e-01 2.444037646055221558e-01
2.237000000000000000e+03 4.420656967163085938e+01 1.706584930419921875e+01 1.294123411178588867e+00 8.069225311279296875e+00 2.809004783630371094e+00 1.394278526306152344e+00
2.238000000000000000e+03 3.674052047729492188e+01 -1.431757545471191406e+01 -3.219017982482910156e+00 3.954468488693237305e+00 2.206351757049560547e-01 -2.194045782089233398e+00
2.239000000000000000e+03 3.763652038574218750e+01 -1.512955188751220703e+01 -3.730100154876708984e+00 4.752154827117919922e+00 3.066163361072540283e-01 -1.639919757843017578e+00
2.240000000000000000e+03 4.439820861816406250e+01 -1.587845134735107422e+01 -1.405858159065246582e+00 3.409505367279052734e+00 6.010941863059997559e-01 1.352204561233520508e+00
2.241000000000000000e+03 4.259676742553710938e+01 -1.542973709106445312e+01 -1.721321225166320801e+00 1.174837708473205566e+00 -1.639450639486312866e-01 -4.851409792900085449e-01
2.242000000000000000e+03 2.109467315673828125e+01 1.866137695312500000e+01 4.454383552074432373e-01 3.166971445083618164e+00 1.083722949028015137e+00 -1.408297866582870483e-01
2.243000000000000000e+03 3.319398880004882812e+01 2.497967338562011719e+01 1.160023808479309082e+00 6.135432720184326172e+00 2.188637018203735352e+00 -4.699617624282836914e-01
2.244000000000000000e+03 4.325058364868164062e+01 1.126877117156982422e+01 5.504670143127441406e-01 9.697437286376953125e+00 3.074371099472045898e+00 1.721460103988647461e+00
2.245000000000000000e+03 3.857374954223632812e+01 1.245769619941711426e+00 1.679277062416076660e+00 8.016051292419433594e+00 2.908598661422729492e+00 4.282421112060546875e+00
2.246000000000000000e+03 5.086479949951171875e+01 3.261340332031250000e+01 6.898789405822753906e-01 6.628809928894042969e+00 2.195606708526611328e+00 4.342037439346313477e-01
2.247000000000000000e+03 6.018586349487304688e+01 -1.751513099670410156e+01 8.258503675460815430e-01 6.171338081359863281e+00 2.099156618118286133e+00 -2.805385887622833252e-01
2.248000000000000000e+03 5.871487045288085938e+01 -1.949355506896972656e+01 2.321711540222167969e+00 5.897287368774414062e+00 2.465699672698974609e+00 -2.377579212188720703e-01
2.249000000000000000e+03 6.349353790283203125e+01 2.373881149291992188e+01 -2.491041570901870728e-01 6.750154972076416016e+00 1.950315237045288086e+00 2.921082735061645508e+00
2.250000000000000000e+03 6.360752105712890625e+01 2.126404953002929688e+01 -2.631014108657836914e+00 5.422430992126464844e+00 8.374250531196594238e-01 3.971213579177856445e+00
2.251000000000000000e+03 2.700939941406250000e+01 -2.665154647827148438e+01 -1.287093639373779297e+00 4.240128040313720703e+00 8.859102725982666016e-01 4.530302286148071289e-01
2.252000000000000000e+03 2.818396949768066406e+01 1.389190387725830078e+01 -1.613216638565063477e+00 8.192113041877746582e-01 -2.382015883922576904e-01 2.997264266014099121e-01
2.253000000000000000e+03 2.643138313293457031e+01 1.343834781646728516e+01 -1.201487183570861816e+00 1.046304225921630859e+00 -4.655488580465316772e-02 -1.265000820159912109e+00
2.254000000000000000e+03 5.381618881225585938e+01 2.113072586059570312e+01 -1.378676772117614746e+00 4.425827503204345703e+00 9.141451716423034668e-01 -2.595234870910644531e+00
2.255000000000000000e+03 6.661904144287109375e+01 -3.992971420288085938e+01 -1.814679503440856934e+00 4.776734352111816406e+00 8.886164426803588867e-01 -1.943310163915157318e-02
2.256000000000000000e+03 6.058396530151367188e+01 7.408494472503662109e+00 -3.575153648853302002e-01 5.245107173919677734e+00 1.466277480125427246e+00 -1.144822120666503906e+00
2.257000000000000000e+03 5.962255859375000000e+01 9.822447776794433594e+00 8.716613054275512695e-01 6.618431091308593750e+00 2.247027635574340820e+00 1.837137341499328613e-01
2.258000000000000000e+03 1.680866241455078125e+01 -1.573366928100585938e+01 1.598610877990722656e-01 2.238401174545288086e-01 1.151103600859642029e-01 -2.768220603466033936e-01
2.259000000000000000e+03 5.237386322021484375e+01 2.195727729797363281e+01 -9.260075688362121582e-01 4.297519207000732422e+00 1.011453509330749512e+00 -2.014936685562133789e+00
2.260000000000000000e+03 1.331854057312011719e+01 -2.625868797302246094e+01 5.002272129058837891e-01 8.510086536407470703e-01 4.053707718849182129e-01 4.492963552474975586e-01
2.261000000000000000e+03 5.736619186401367188e+01 -2.352657890319824219e+01 6.791784763336181641e-01 7.082298755645751953e+00 2.328443288803100586e+00 9.735306501388549805e-01
2.262000000000000000e+03 1.002387332916259766e+01 -3.722539138793945312e+01 -1.883290708065032959e-01 7.556741833686828613e-01 1.702035367488861084e-01 4.211514294147491455e-01
2.263000000000000000e+03 3.952273559570312500e+01 1.167041492462158203e+01 -4.137511551380157471e-01 6.422483444213867188e+00 1.802619695663452148e+00 -2.574198842048645020e-01
2.264000000000000000e+03 7.137309265136718750e+01 -1.604022026062011719e+01 -1.228171363472938538e-01 1.724518537521362305e+00 4.805104136466979980e-01 -1.417593598365783691e+00
2.265000000000000000e+03 9.052715301513671875e+00 1.846145629882812500e+01 3.756554424762725830e-01 2.378586381673812866e-01 1.840542256832122803e-01 4.819527268409729004e-02
2.266000000000000000e+03 4.241707801818847656e+00 1.901966285705566406e+01 5.903522297739982605e-02 -3.860545754432678223e-01 -9.810581058263778687e-02 1.650262773036956787e-01
2.267000000000000000e+03 3.806782913208007812e+01 2.019258499145507812e+01 -7.477483153343200684e-01 2.790200233459472656e+00 6.127355694770812988e-01 -2.452668666839599609e+00
2.268000000000000000e+03 4.594638824462890625e+01 -2.258513069152832031e+01 2.537930965423583984e+00 5.952626228332519531e+00 2.547167301177978516e+00 -6.865701675415039062e-01
2.269000000000000000e+03 3.982371139526367188e+01 -2.697487831115722656e+01 -2.608227491378784180e+00 7.824645996093750000e+00 1.564925551414489746e+00 9.898528456687927246e-01
2.270000000000000000e+03 3.954460906982421875e+01 -2.797316551208496094e+01 -2.728296518325805664e+00 8.491216659545898438e+00 1.728875994682312012e+00 1.879589915275573730e+00
2.271000000000000000e+03 4.217243194580078125e+01 1.418433475494384766e+01 1.572814941406250000e+00 7.679214000701904297e+00 2.775608777999877930e+00 5.534552931785583496e-01
2.272000000000000000e+03 4.731039428710937500e+01 2.347824668884277344e+01 7.923941612243652344e-01 6.885686874389648438e+00 2.303424358367919922e+00 1.175294995307922363e+00
2.273000000000000000e+03 1.991821861267089844e+01 -2.508170890808105469e+01 3.096204102039337158e-01 -5.365504622459411621e-01 -6.807900965213775635e-02 1.061875343322753906e+00
2.274000000000000000e+03 5.231827926635742188e+01 -3.873167037963867188e+01 -2.257481813430786133e+00 6.587357521057128906e+00 1.298962712287902832e+00 3.373751342296600342e-01
2.275000000000000000e+03 5.044754791259765625e+01 -3.767071914672851562e+01 -1.732973337173461914e+00 5.673392295837402344e+00 1.182125687599182129e+00 3.547711670398712158e-01
2.276000000000000000e+03 6.732157135009765625e+01 2.203634834289550781e+01 -8.467352986335754395e-01 1.325750470161437988e+00 1.437045484781265259e-01 -4.040502607822418213e-01
2.277000000000000000e+03 1.904793548583984375e+01 2.061582565307617188e+01 9.969444870948791504e-01 1.364773273468017578e+00 7.085153460502624512e-01 2.403709664940834045e-02
2.278000000000000000e+03 7.472151947021484375e+01 -1.937603759765625000e+01 6.865274310111999512e-01 8.845434188842773438e+00 2.859588384628295898e+00 5.092294216156005859e-01
2.279000000000000000e+03 7.693738555908203125e+01 -1.803348922729492188e+01 3.551271557807922363e-02 8.364692687988281250e+00 2.520061731338500977e+00 1.225541353225708008e+00
2.280000000000000000e+03 6.770567321777343750e+01 3.338514709472656250e+01 2.979603707790374756e-01 5.406434535980224609e+00 1.711318492889404297e+00 8.110423088073730469e-01
2.281000000000000000e+03 1.000102043151855469e+01 1.752240753173828125e+01 4.339025318622589111e-01 3.830097913742065430e-01 2.450737059116363525e-01 2.112558633089065552e-01
2.282000000000000000e+03 9.440999031066894531e+00 2.004873466491699219e+01 3.717647790908813477e-01 2.907744944095611572e-01 1.987617760896682739e-01 -1.090655103325843811e-01
2.283000000000000000e+03 4.636087417602539062e+01 5.459908485412597656e+00 4.107205569744110107e-01 2.795455932617187500e+00 9.618529677391052246e-01 -1.407387971878051758e+00
2.284000000000000000e+03 4.400381088256835938e+01 2.113315773010253906e+01 -2.660272359848022461e+00 5.744659423828125000e+00 9.253160357475280762e-01 2.796353101730346680e+00
2.285000000000000000e+03 5.770762252807617188e+01 1.865691947937011719e+01 8.136397600173950195e-01 5.034998893737792969e+00 1.754591584205627441e+00 -2.935770750045776367e-01
2.286000000000000000e+03 3.338872146606445312e+01 -3.199025917053222656e+01 6.558328270912170410e-01 7.483085393905639648e-01 4.212423861026763916e-01 -1.704153269529342651e-01
2.287000000000000000e+03 7.481334686279296875e+01 -2.719068717956542969e+01 -7.745172977447509766e-01 7.594243049621582031e+00 2.045917749404907227e+00 6.982241868972778320e-01
2.288000000000000000e+03 7.299078369140625000e+01 -2.717956352233886719e+01 -1.090526461601257324e+00 6.107767581939697266e+00 1.505172371864318848e+00 2.400850772857666016e+00
2.289000000000000000e+03 6.133973312377929688e+01 -1.582245230674743652e+00 1.218682646751403809e+00 7.980935096740722656e+00 2.759885311126708984e+00 -1.472739219665527344e+00
2.290000000000000000e+03 4.851664733886718750e+01 -1.185988140106201172e+01 7.328994274139404297e-01 7.378216266632080078e+00 2.433334827423095703e+00 2.549605444073677063e-03
2.291000000000000000e+03 5.086406707763671875e+01 -8.271097183227539062e+00 2.399616479873657227e+00 7.481875896453857422e+00 2.964447736740112305e+00 -5.187095999717712402e-01
2.292000000000000000e+03 3.412171554565429688e+01 3.209793472290039062e+01 -3.116268813610076904e-01 4.938984394073486328e+00 1.388207316398620605e+00 -5.646520853042602539e-01
2.293000000000000000e+03 6.197715282440185547e+00 3.640996170043945312e+01 -1.417832523584365845e-01 -2.085149139165878296e-01 -1.050894483923912048e-01 -3.433205932378768921e-02
2.294000000000000000e+03 6.228156280517578125e+01 2.251050758361816406e+01 -2.403109073638916016e+00 6.288827896118164062e+00 1.165715694427490234e+00 3.630312919616699219e+00
2.295000000000000000e+03 6.263370513916015625e+01 -8.638390541076660156e+00 1.035202741622924805e+00 8.600154876708984375e+00 2.890607357025146484e+00 4.395110607147216797e-01
2.296000000000000000e+03 1.215930366516113281e+01 4.112689590454101562e+01 -1.866153255105018616e-02 9.916645288467407227e-02 2.415147610008716583e-02 -1.619295217096805573e-02
2.297000000000000000e+03 5.827935791015625000e+01 1.285038471221923828e+01 1.431203722953796387e+00 8.506224632263183594e+00 2.981228351593017578e+00 1.576429963111877441e+00
2.298000000000000000e+03 5.831526184082031250e+01 1.391989326477050781e+01 1.649390578269958496e+00 8.369236946105957031e+00 3.005588293075561523e+00 1.672149062156677246e+00
2.299000000000000000e+03 7.314788055419921875e+01 9.554244041442871094e+00 1.271360039710998535e+00 8.541039466857910156e+00 2.943719863891601562e+00 -9.149957448244094849e-02
2.300000000000000000e+03 6.325349426269531250e+01 -2.301497459411621094e+01 3.294587135314941406e+00 6.556959629058837891e+00 2.955463886260986328e+00 -2.180343866348266602e+00
2.301000000000000000e+03 6.284044265747070312e+01 -2.561113739013671875e+01 -1.083828687667846680e+00 4.153505325317382812e+00 9.209030270576477051e-01 -2.864202737808227539e+00
2.302000000000000000e+03 7.395082092285156250e+01 -1.232707977294921875e+01 -1.385374546051025391e+00 4.146353721618652344e+00 8.282937407493591309e-01 1.280858993530273438e+00
2.303000000000000000e+03 4.041820526123046875e+01 -1.758672904968261719e+01 6.889892220497131348e-01 3.575569868087768555e+00 1.279367685317993164e+00 -1.560992479324340820e+00
2.304000000000000000e+03 4.381827926635742188e+01 -2.069612312316894531e+01 3.053251743316650391e+00 4.401419639587402344e+00 2.236401319503784180e+00 3.840428888797760010e-01
2.305000000000000000e+03 1.494784355163574219e+01 1.948738098144531250e+01 9.773185253143310547e-01 8.678075671195983887e-02 3.192297816276550293e-01 2.615561783313751221e-01
2.306000000000000000e+03 5.218753433227539062e+01 3.354075241088867188e+01 3.258614242076873779e-01 6.395632743835449219e+00 2.016448259353637695e+00 4.956169724464416504e-01
2.307000000000000000e+03 4.986222839355468750e+01 3.130610084533691406e+01 9.473184347152709961e-01 6.310137748718261719e+00 2.177236795425415039e+00 6.216687560081481934e-01
2.308000000000000000e+03 7.516029357910156250e+01 6.489010334014892578e+00 -8.006745576858520508e-02 7.198614597320556641e+00 2.135564088821411133e+00 -8.471385836601257324e-01
2.309000000000000000e+03 5.525553131103515625e+01 1.722007513046264648e+00 -5.791975855827331543e-01 3.184267282485961914e+00 7.815209031105041504e-01 1.978560447692871094e+00
2.310000000000000000e+03 5.642263412475585938e+01 1.993989944458007812e+00 7.735396176576614380e-02 2.628582000732421875e+00 8.117807507514953613e-01 4.230839908123016357e-01
2.311000000000000000e+03 7.224220275878906250e+01 -2.820919609069824219e+01 2.636517882347106934e-01 4.113622665405273438e+00 1.313182353973388672e+00 1.844529271125793457e+00
2.312000000000000000e+03 7.028324890136718750e+01 -2.842859077453613281e+01 1.060516238212585449e+00 2.066842555999755859e+00 9.382076859474182129e-01 4.801350831985473633e-01
2.313000000000000000e+03 7.403018951416015625e+01 1.613633155822753906e+01 6.451869755983352661e-02 8.602426528930664062e+00 2.600083589553833008e+00 8.236430883407592773e-01
2.314000000000000000e+03 7.353587341308593750e+01 1.895165824890136719e+01 -1.276260137557983398e+00 7.549364089965820312e+00 1.881931185722351074e+00 2.082491070032119751e-01
2.315000000000000000e+03 2.695980072021484375e+01 -2.294032096862792969e+01 1.235806465148925781e+00 5.086608886718750000e+00 1.896724581718444824e+00 7.317875027656555176e-01
2.316000000000000000e+03 2.579118728637695312e+01 -2.239083290100097656e+01 1.499338746070861816e+00 3.662628650665283203e+00 1.548590183258056641e+00 6.923344135284423828e-01
2.317000000000000000e+03 2.691733169555664062e+01 9.473186492919921875e+00 1.080306887626647949e+00 3.346224784851074219e+00 1.327959537506103516e+00 -1.654016137123107910e+00
2.318000000000000000e+03 2.792061424255371094e+01 1.000393962860107422e+01 4.440530836582183838e-01 3.545139789581298828e+00 1.196757912635803223e+00 -9.350619912147521973e-01
2.319000000000000000e+03 2.015252876281738281e+01 2.127454948425292969e+01 8.775024414062500000e-01 2.687142848968505859e+00 1.069393634796142578e+00 -1.545429378747940063e-01
2.320000000000000000e+03 4.381816864013671875e+00 -2.820353889465332031e+01 8.950270712375640869e-02 -1.452827155590057373e-01 -1.673400215804576874e-02 2.930185571312904358e-02
2.321000000000000000e+03 1.182767391204833984e+01 -1.073999595642089844e+01 -1.408216357231140137e-01 7.140053808689117432e-02 -2.082632854580879211e-02 -1.165216118097305298e-01
2.322000000000000000e+03 1.468624973297119141e+01 -1.195005893707275391e+01 -1.357379555702209473e-01 3.223876357078552246e-01 5.599490180611610413e-02 -6.103809177875518799e-02
2.323000000000000000e+03 4.335411071777343750e+01 1.952839088439941406e+01 -1.186038613319396973e+00 5.689778327941894531e+00 1.351121902465820312e+00 1.549817442893981934e+00
2.324000000000000000e+03 8.011973381042480469e+00 1.575677680969238281e+01 2.432295829057693481e-01 1.361273676156997681e-01 1.138070821762084961e-01 2.655099332332611084e-01
2.325000000000000000e+03 2.652685737609863281e+01 -3.238183593750000000e+01 4.411305114626884460e-02 3.532697916030883789e+00 1.073043346405029297e+00 -8.373127132654190063e-02
2.326000000000000000e+03 6.411894226074218750e+01 2.548638153076171875e+01 2.460243463516235352e+00 6.164863109588623047e+00 2.587532043457031250e+00 1.381346940994262695e+00
2.327000000000000000e+03 3.598035430908203125e+01 -9.218237876892089844e+00 3.010994672775268555e+00 7.008585453033447266e+00 3.005873918533325195e+00 3.627723753452301025e-01
2.328000000000000000e+03 3.334246444702148438e+01 -1.386495494842529297e+01 -1.387617588043212891e+00 9.269838929176330566e-01 -1.381901353597640991e-01 2.161626577377319336e+00
2.329000000000000000e+03 2.985540199279785156e+01 1.212702560424804688e+01 -1.514696836471557617e+00 2.768420934677124023e+00 3.761172294616699219e-01 9.041225910186767578e-01
2.330000000000000000e+03 8.452363967895507812e+00 1.129144477844238281e+01 -1.376278400421142578e-01 3.052972489967942238e-03 -4.037245735526084900e-02 3.451261818408966064e-01
2.331000000000000000e+03 6.820763397216796875e+01 -3.404913330078125000e+01 1.216406345367431641e+00 6.178805828094482422e+00 2.218563556671142578e+00 -1.703690171241760254e+00
2.332000000000000000e+03 6.967940521240234375e+01 -2.954559516906738281e+01 1.931625723838806152e+00 3.077368497848510742e+00 1.502698302268981934e+00 -6.316438317298889160e-01
2.333000000000000000e+03 2.150859451293945312e+01 1.481160354614257812e+01 -1.121329665184020996e-01 2.414659976959228516e+00 6.907581090927124023e-01 -5.945845246315002441e-01
2.334000000000000000e+03 2.299328422546386719e+01 1.454450130462646484e+01 -6.753591895103454590e-01 2.269881010055541992e+00 4.783565104007720947e-01 -1.089373469352722168e+00
2.335000000000000000e+03 4.996609115600585938e+01 -6.376079559326171875e+00 2.309222698211669922e+00 8.165891647338867188e+00 3.142534255981445312e+00 5.894822534173727036e-03
2.336000000000000000e+03 2.210455703735351562e+01 3.291001892089843750e+01 1.795852929353713989e-01 2.159960746765136719e+00 7.018638253211975098e-01 6.295735388994216919e-02
2.337000000000000000e+03 9.341941833496093750e+00 -3.471598052978515625e+01 9.639126807451248169e-02 6.878411769866943359e-01 2.352697402238845825e-01 4.663912057876586914e-01
2.338000000000000000e+03 7.181100845336914062e+00 -1.264656448364257812e+01 -1.765196323394775391e-01 -1.664997041225433350e-01 -1.029058024287223816e-01 -1.220857575535774231e-01
2.339000000000000000e+03 4.737612152099609375e+01 2.616276168823242188e+01 2.230804443359375000e+00 7.851302146911621094e+00 3.024631977081298828e+00 1.729261398315429688e+00
2.340000000000000000e+03 4.306914901733398438e+01 9.985073089599609375e+00 -2.165115773677825928e-01 9.429504394531250000e+00 2.763897895812988281e+00 1.391110897064208984e+00
2.341000000000000000e+03 6.587365722656250000e+01 -1.744615197181701660e+00 1.160157561302185059e+00 5.427819252014160156e+00 1.976393103599548340e+00 1.769621610641479492e+00
2.342000000000000000e+03 6.331253814697265625e+01 -1.197494316101074219e+01 -1.106020927429199219e+00 6.760962009429931641e+00 1.696482300758361816e+00 7.047047615051269531e-01
2.343000000000000000e+03 6.091483306884765625e+01 -1.081910610198974609e+01 -1.196777820587158203e+00 6.472507953643798828e+00 1.582718968391418457e+00 1.477272033691406250e+00
2.344000000000000000e+03 3.339382171630859375e+01 3.464492797851562500e+01 -9.897459745407104492e-01 3.804013252258300781e+00 8.442801833152770996e-01 -2.878603339195251465e-01
2.345000000000000000e+03 5.378858947753906250e+01 4.850924015045166016e+00 -5.280594229698181152e-01 6.112236499786376953e+00 1.675253152847290039e+00 2.399631500244140625e+00
2.346000000000000000e+03 6.318754577636718750e+01 -4.144292449951171875e+01 -1.056908488273620605e+00 9.953706860542297363e-01 -1.846132613718509674e-02 1.906770467758178711e-01
2.347000000000000000e+03 7.010110473632812500e+01 2.229475402832031250e+01 -1.113877654075622559e+00 3.941021680831909180e+00 8.481432199478149414e-01 -1.353696465492248535e+00
2.348000000000000000e+03 5.173905563354492188e+01 -3.654832839965820312e+01 -2.854284942150115967e-01 6.775152683258056641e+00 1.946917295455932617e+00 4.429103061556816101e-02
2.349000000000000000e+03 1.508238029479980469e+01 5.793101787567138672e+00 4.145841114223003387e-03 6.996663659811019897e-02 2.223374322056770325e-02 5.046964287757873535e-01
2.350000000000000000e+03 5.118788146972656250e+01 -6.252618312835693359e+00 2.314585208892822266e+00 8.206207275390625000e+00 3.156237602233886719e+00 -1.546341627836227417e-01
2.351000000000000000e+03 5.167647552490234375e+01 -2.714576721191406250e+01 4.431964755058288574e-01 2.403491020202636719e+00 8.540062308311462402e-01 -8.877380937337875366e-02
2.352000000000000000e+03 5.413559722900390625e+01 -2.692559814453125000e+01 -1.226305007934570312e+00 6.260094165802001953e+00 1.510136842727661133e+00 2.549004316329956055e+00
2.353000000000000000e+03 4.043422698974609375e+01 -2.619150924682617188e+01 -1.513639688491821289e-01 6.010613441467285156e+00 1.757774949073791504e+00 1.097223520278930664e+00
2.354000000000000000e+03 3.974268341064453125e+01 1.417502307891845703e+01 4.827744364738464355e-01 4.981776714324951172e+00 1.639365315437316895e+00 -1.172509193420410156e+00
2.355000000000000000e+03 1.862317276000976562e+01 -1.939835739135742188e+01 7.501186728477478027e-01 7.795293629169464111e-02 2.484214901924133301e-01 1.303280591964721680e-01
2.356000000000000000e+03 7.245175170898437500e+01 -1.470237255096435547e+01 -3.947009146213531494e-01 2.584352016448974609e+00 6.568953394889831543e-01 -4.910804033279418945e-01
2.357000000000000000e+03 5.052691650390625000e+01 -2.845808267593383789e+00 1.286988019943237305e+00 7.293829441070556641e+00 2.574245214462280273e+00 -4.184499979019165039e-01
2.358000000000000000e+03 7.111740112304687500e+01 2.301534652709960938e+01 -4.852976500988006592e-01 4.767993927001953125e+00 1.284808874130249023e+00 -1.311023712158203125e+00
2.359000000000000000e+03 4.974033355712890625e+01 -1.446311759948730469e+01 -1.797689914703369141e+00 3.369468688964843750e+00 4.715336561203002930e-01 8.254216909408569336e-01
2.360000000000000000e+03 1.555593776702880859e+01 -1.371650028228759766e+01 -2.702692151069641113e-02 3.387833535671234131e-01 9.352692961692810059e-02 -1.051807254552841187e-01
2.361000000000000000e+03 5.965272140502929688e+01 1.515530204772949219e+01 1.922596693038940430e+00 9.698709487915039062e+00 3.486391782760620117e+00 2.133628845214843750e+00
2.362000000000000000e+03 5.678085708618164062e+01 -1.287129306793212891e+01 -5.973771214485168457e-02 3.883874416351318359e+00 1.147240996360778809e+00 -1.663027882575988770e+00
2.363000000000000000e+03 5.163402175903320312e+01 4.091449356079101562e+01 -1.745653986930847168e+00 4.669358253479003906e+00 8.771113157272338867e-01 9.049853682518005371e-02
2.364000000000000000e+03 2.139539337158203125e+01 -2.463376426696777344e+01 5.832147598266601562e-01 -1.524097770452499390e-01 1.292414963245391846e-01 6.497759819030761719e-01
2.365000000000000000e+03 1.945978736877441406e+01 -2.257064819335937500e+01 1.006697893142700195e+00 -2.362099476158618927e-02 2.949230670928955078e-01 8.468074202537536621e-01
2.366000000000000000e+03 6.512258148193359375e+01 3.335575866699218750e+01 -5.738732591271400452e-02 5.434795856475830078e+00 1.613222599029541016e+00 5.782158374786376953e-01
2.367000000000000000e+03 6.471054077148437500e+01 3.452825546264648438e+01 -7.424464821815490723e-01 4.676655292510986328e+00 1.180262684822082520e+00 5.069726109504699707e-01
2.368000000000000000e+03 5.588812255859375000e+01 -1.231869506835937500e+01 7.552079111337661743e-02 3.598779439926147461e+00 1.102290034294128418e+00 -2.367232084274291992e+00
2.369000000000000000e+03 5.839186096191406250e+01 -1.248367977142333984e+01 -1.958926171064376831e-01 3.728641271591186523e+00 1.059824585914611816e+00 2.791844308376312256e-01
2.370000000000000000e+03 5.144776916503906250e+01 -3.009578132629394531e+01 2.487082719802856445e+00 5.216303825378417969e+00 2.311015844345092773e+00 -4.854545891284942627e-01
2.371000000000000000e+03 3.727320480346679688e+01 -3.519974136352539062e+01 1.206131875514984131e-01 3.945652246475219727e+00 1.219879627227783203e+00 1.976845145225524902e+00
2.372000000000000000e+03 3.589502334594726562e+01 -3.861734390258789062e+01 -1.167862892150878906e+00 3.433435201644897461e+00 6.796717047691345215e-01 7.463411688804626465e-01
2.373000000000000000e+03 6.789212799072265625e+01 -2.711570358276367188e+01 -7.916190624237060547e-01 4.097587108612060547e+00 9.917904734611511230e-01 -2.238351106643676758e+00
2.374000000000000000e+03 3.050261497497558594e+01 2.965945053100585938e+01 8.342927098274230957e-01 2.962293148040771484e+00 1.138975739479064941e+00 -1.508827924728393555e+00
2.375000000000000000e+03 4.897486114501953125e+01 4.610422134399414062e+00 4.905762672424316406e-01 6.522902250289916992e-01 3.428599536418914795e-01 -2.510165274143218994e-01
2.376000000000000000e+03 4.817823028564453125e+01 3.680895566940307617e+00 1.033106446266174316e+00 1.834740281105041504e+00 8.603540062904357910e-01 -8.733832836151123047e-01
2.377000000000000000e+03 6.357554244995117188e+01 -8.171662330627441406e+00 1.776546597480773926e+00 8.596191406250000000e+00 3.111821413040161133e+00 -4.586986824870109558e-02
2.378000000000000000e+03 6.313467025756835938e+01 -9.600199699401855469e+00 4.437538087368011475e-01 8.141491889953613281e+00 2.575573682785034180e+00 3.694588243961334229e-01
2.379000000000000000e+03 7.958491325378417969e+00 2.075672912597656250e+01 2.729016244411468506e-01 2.812229096889495850e-01 1.662373542785644531e-01 -1.055380031466484070e-01
2.380000000000000000e+03 2.094845199584960938e+01 3.032969284057617188e+01 4.988813698291778564e-01 2.629105091094970703e+00 9.383959770202636719e-01 8.713539689779281616e-02
2.381000000000000000e+03 2.358639144897460938e+01 2.965824699401855469e+01 3.524546921253204346e-01 1.735907196998596191e+00 6.265085339546203613e-01 3.825356364250183105e-01
2.382000000000000000e+03 7.843286991119384766e+00 9.243063926696777344e+00 -2.719593346118927002e-01 -8.438973128795623779e-02 -1.069047227501869202e-01 2.847616672515869141e-01
2.383000000000000000e+03 5.854271316528320312e+01 1.042367935180664062e+01 1.445858240127563477e+00 7.819160461425781250e+00 2.779505491256713867e+00 8.058771491050720215e-01
2.384000000000000000e+03 3.927407026290893555e+00 2.723518180847167969e+01 1.863587498664855957e-01 -1.913088858127593994e-01 -1.485038897953927517e-03 -2.839089930057525635e-01
2.385000000000000000e+03 5.851036834716796875e+01 -2.504190254211425781e+01 -3.488487303256988525e-01 4.880102157592773438e+00 1.359376072883605957e+00 1.828661084175109863e+00
2.386000000000000000e+03 5.632108688354492188e+01 -2.454149436950683594e+01 -1.029713988304138184e+00 8.542031288146972656e+00 2.253695249557495117e+00 1.302936911582946777e+00
2.387000000000000000e+03 2.401571655273437500e+01 -2.328256225585937500e+01 1.136097788810729980e+00 1.935443758964538574e+00 9.214624762535095215e-01 5.857104063034057617e-01
2.388000000000000000e+03 2.310222434997558594e+01 -1.583585453033447266e+01 3.743270635604858398e-01 2.137517929077148438e-01 1.764236539602279663e-01 1.294479891657829285e-02
2.389000000000000000e+03 3.392856597900390625e+01 1.667434692382812500e+01 4.600541591644287109e-01 2.815697193145751953e+00 9.827253818511962891e-01 -1.141093492507934570e+00
2.390000000000000000e+03 6.510935211181640625e+01 -1.585554695129394531e+01 -2.116226911544799805e+00 5.092269420623779297e+00 8.928127288818359375e-01 7.015901803970336914e-01
2.391000000000000000e+03 6.188313674926757812e+01 -1.814555549621582031e+01 7.009689211845397949e-01 6.434912204742431641e+00 2.140764236450195312e+00 -7.306737303733825684e-01
2.392000000000000000e+03 5.050689697265625000e+01 -2.989760017395019531e+01 2.096616029739379883e+00 5.888381004333496094e+00 2.395498991012573242e+00 -1.102158069610595703e+00
2.393000000000000000e+03 3.427105712890625000e+01 1.429876708984375000e+01 -9.310722351074218750e-01 8.288870453834533691e-01 -3.065556846559047699e-02 -8.207091689109802246e-01
2.394000000000000000e+03 6.712300872802734375e+01 -2.892988777160644531e+01 1.659611940383911133e+00 6.682740688323974609e+00 2.502705812454223633e+00 -1.922569990158081055e+00
2.395000000000000000e+03 3.078042411804199219e+01 -3.027414321899414062e+01 -8.071778416633605957e-01 2.171967744827270508e+00 4.094369411468505859e-01 -7.112803459167480469e-01
2.396000000000000000e+03 3.546785736083984375e+01 -3.266297912597656250e+01 1.540565133094787598e+00 2.208505153656005859e+00 1.124721050262451172e+00 1.179436445236206055e+00
2.397000000000000000e+03 1.590123748779296875e+01 -8.544636726379394531e+00 -8.275083452463150024e-02 1.548692286014556885e-01 2.163551747798919678e-02 4.805577173829078674e-02
2.398000000000000000e+03 2.553829574584960938e+01 3.138191223144531250e+01 7.441400289535522461e-01 1.258947730064392090e+00 6.009263396263122559e-01 -1.688756793737411499e-01
2.399000000000000000e+03 5.545468902587890625e+01 -2.568262290954589844e+01 -3.395368337631225586e+00 7.574648380279541016e+00 1.253784060478210449e+00 2.021069765090942383e+00
2.400000000000000000e+03 5.539270019531250000e+01 -1.632675170898437500e+01 -1.050251722335815430e+00 6.702324867248535156e+00 1.695621967315673828e+00 -1.189177870750427246e+00
2.401000000000000000e+03 5.626062011718750000e+01 -2.342553901672363281e+01 5.762943029403686523e-01 7.914516925811767578e+00 2.547243356704711914e+00 3.486339449882507324e-01
2.402000000000000000e+03 5.167503833770751953e+00 -4.063946533203125000e+01 -2.141891568899154663e-01 3.261631727218627930e-01 3.359220176935195923e-02 1.322769522666931152e-01
2.403000000000000000e+03 6.969023704528808594e+00 -3.886715316772460938e+01 -3.116267025470733643e-01 5.138037800788879395e-01 6.065312027931213379e-02 3.154568672180175781e-01
2.404000000000000000e+03 8.433047294616699219e+00 -1.197742843627929688e+01 -1.656971275806427002e-01 -1.473186910152435303e-01 -9.390474855899810791e-02 -1.003395766019821167e-01
2.405000000000000000e+03 4.315691471099853516e+00 -1.212973213195800781e+01 -8.195783197879791260e-02 -1.147394329309463501e-01 -5.900917947292327881e-02 -7.149960100650787354e-02
2.406000000000000000e+03 4.107657623291015625e+01 1.298269033432006836e+00 2.000370264053344727e+00 6.426198005676269531e+00 2.527970552444458008e+00 3.595645725727081299e-01
2.407000000000000000e+03 4.137507629394531250e+01 3.923452854156494141e+00 3.015583038330078125e+00 8.380150794982910156e+00 3.418720006942749023e+00 -4.554001614451408386e-02
2.408000000000000000e+03 3.243419265747070312e+01 -3.890369796752929688e+01 -6.768087744712829590e-01 2.925359964370727539e+00 6.745653748512268066e-01 3.477681279182434082e-01
2.409000000000000000e+03 5.609112167358398438e+01 -1.375406360626220703e+01 -4.488042891025543213e-01 4.767369747161865234e+00 1.295569658279418945e+00 -2.204552888870239258e+00
2.410000000000000000e+03 6.348987579345703125e+01 2.111258983612060547e+00 -2.706387639045715332e-01 4.587622642517089844e+00 1.295095205307006836e+00 -4.880943000316619873e-01
2.411000000000000000e+03 5.862275314331054688e+01 2.097111129760742188e+01 -3.552512824535369873e-01 3.338285923004150391e+00 8.949103951454162598e-01 1.728397160768508911e-01
2.412000000000000000e+03 5.865895843505859375e+01 1.766515922546386719e+01 1.511226177215576172e+00 6.704999923706054688e+00 2.464867830276489258e+00 7.915859222412109375e-01
2.413000000000000000e+03 5.613583374023437500e+01 2.180940055847167969e+01 -2.078039646148681641e+00 3.116767883300781250e+00 3.116184175014495850e-01 -2.641736030578613281e+00
2.414000000000000000e+03 6.727662658691406250e+01 -1.328200531005859375e+01 -4.698810875415802002e-01 2.284662723541259766e+00 5.444344282150268555e-01 -6.748930215835571289e-01
2.415000000000000000e+03 7.500093078613281250e+01 -1.138208293914794922e+01 -2.074022054672241211e+00 7.766966342926025391e+00 1.707883358001708984e+00 7.659152746200561523e-01
2.416000000000000000e+03 7.574306488037109375e+01 -1.236774539947509766e+01 -1.471276402473449707e+00 7.944314956665039062e+00 1.941911458969116211e+00 3.064266741275787354e-01
2.417000000000000000e+03 6.877856445312500000e+01 -3.546556091308593750e+01 2.537798583507537842e-01 6.149928092956542969e+00 1.921112418174743652e+00 -1.546215534210205078e+00
2.418000000000000000e+03 7.005867767333984375e+01 -3.276403808593750000e+01 1.782594203948974609e+00 5.068569183349609375e+00 2.055349111557006836e+00 -1.481080532073974609e+00
2.419000000000000000e+03 4.987775421142578125e+01 -1.534672737121582031e+01 -2.520163536071777344e+00 1.820458531379699707e+00 -2.099115103483200073e-01 1.156058788299560547e+00
2.420000000000000000e+03 5.196406936645507812e+01 -1.459387969970703125e+01 -1.599559187889099121e+00 1.829437971115112305e+00 6.896360963582992554e-02 -2.762565851211547852e+00
2.421000000000000000e+03 3.529494476318359375e+01 -6.520895481109619141e+00 1.678460478782653809e+00 7.895093917846679688e+00 2.872066259384155273e+00 6.607341170310974121e-01
2.422000000000000000e+03 3.327019882202148438e+01 -2.814499855041503906e+00 -5.342351272702217102e-02 8.099148750305175781e+00 2.413717746734619141e+00 1.864678502082824707e+00
2.423000000000000000e+03 3.741821670532226562e+01 -4.563877582550048828e+00 1.702422648668289185e-01 7.622548580169677734e+00 2.337837219238281250e+00 1.262167572975158691e+00
2.424000000000000000e+03 3.244656372070312500e+01 -3.061079978942871094e+00 3.409888446331024170e-01 5.106585502624511719e+00 1.634272336959838867e+00 2.259216547012329102e+00
2.425000000000000000e+03 3.396924209594726562e+01 -4.070189476013183594e+00 -9.063491597771644592e-05 7.715995788574218750e+00 2.314771413803100586e+00 1.000687241554260254e+00
2.426000000000000000e+03 3.522710037231445312e+01 -4.071081638336181641e+00 3.596049845218658447e-01 8.145577430725097656e+00 2.551554679870605469e+00 3.680726587772369385e-01
2.427000000000000000e+03 3.432091140747070312e+01 -2.232236862182617188e+00 1.220537662506103516e+00 1.010322093963623047e+01 3.397127628326416016e+00 -7.506689429283142090e-01
2.428000000000000000e+03 3.116159057617187500e+01 -4.054333209991455078e+00 4.643373191356658936e-01 2.671853065490722656e+00 9.408571124076843262e-01 1.187817215919494629e+00
2.429000000000000000e+03 3.533260726928710938e+01 -1.804408550262451172e+00 3.648990154266357422e+00 6.726246833801269531e+00 3.112571001052856445e+00 -6.685498952865600586e-01
2.430000000000000000e+03 3.456465148925781250e+01 -2.180720329284667969e+00 1.868284344673156738e+00 9.403686523437500000e+00 3.381591320037841797e+00 -1.143999695777893066e+00
2.431000000000000000e+03 3.687621307373046875e+01 1.218403339385986328e+00 1.819766879081726074e+00 4.258096218109130859e+00 1.823359012603759766e+00 4.098688125610351562e+00
2.432000000000000000e+03 3.624703979492187500e+01 4.749445915222167969e-01 1.720040321350097656e+00 2.350653648376464844e+00 1.221208214759826660e+00 5.063542842864990234e+00
2.433000000000000000e+03 3.093837356567382812e+01 1.589858770370483398e+00 9.071956276893615723e-01 3.610635280609130859e+00 1.355349302291870117e+00 -3.589625120162963867e+00
2.434000000000000000e+03 3.534227752685546875e+01 1.563977450132369995e-01 5.156237125396728516e+00 2.491572618484497070e+00 2.294342994689941406e+00 3.291277647018432617e+00
2.435000000000000000e+03 3.445843887329101562e+01 9.049710035324096680e-01 -1.608618140220642090e+00 1.975266337394714355e+00 1.099944487214088440e-01 1.674412608146667480e+00
2.436000000000000000e+03 3.024221801757812500e+01 -3.757633209228515625e+00 4.914435744285583496e-01 7.600106000900268555e-01 3.754362463951110840e-01 3.947227895259857178e-01
2.437000000000000000e+03 9.768372535705566406e+00 3.391878128051757812e+00 -2.328457832336425781e-01 -5.605315044522285461e-02 -8.666968345642089844e-02 1.503969579935073853e-01
2.438000000000000000e+03 1.307502937316894531e+01 4.783862113952636719e+00 -2.887579798698425293e-01 -1.682806462049484253e-01 -1.371115893125534058e-01 4.409599602222442627e-01
2.439000000000000000e+03 1.230024623870849609e+01 5.202183246612548828e+00 -2.579160034656524658e-01 -1.888736784458160400e-01 -1.340369135141372681e-01 3.530473709106445312e-01
2.440000000000000000e+03 1.520096015930175781e+01 -2.609767198562622070e+00 -4.470634460449218750e-02 2.068221569061279297e-02 -7.207238581031560898e-03 -5.170278623700141907e-02
2.441000000000000000e+03 1.230170536041259766e+01 -3.052350282669067383e+00 -5.400197580456733704e-02 -1.886787824332714081e-02 -2.186095528304576874e-02 -8.158060163259506226e-02
2.442000000000000000e+03 3.547632598876953125e+01 8.660662770271301270e-01 6.441214680671691895e-01 9.314055442810058594e-01 4.726580977439880371e-01 4.578768730163574219e+00
2.443000000000000000e+03 4.172916889190673828e+00 8.493865013122558594e+00 -9.868606925010681152e-02 -1.273161470890045166e-01 -6.780066341161727905e-02 2.312574833631515503e-01
2.444000000000000000e+03 7.512875556945800781e+00 4.895450592041015625e+00 -1.942945420742034912e-01 -5.709301307797431946e-02 -7.541626691818237305e-02 1.354067176580429077e-01
2.445000000000000000e+03 7.154016494750976562e+00 4.231741905212402344e+00 -1.669378727674484253e-01 -3.730583190917968750e-02 -6.127310916781425476e-02 1.093881353735923767e-01
2.446000000000000000e+03 8.598209381103515625e+00 3.363561868667602539e+00 -1.902970075607299805e-01 -3.717223554849624634e-02 -6.824076920747756958e-02 1.107609272003173828e-01
2.447000000000000000e+03 6.754493713378906250e+00 5.515071392059326172e+00 -1.906737834215164185e-01 -5.371394380927085876e-02 -7.331632077693939209e-02 1.455165445804595947e-01
2.448000000000000000e+03 5.347458839416503906e+00 4.692445278167724609e+00 -1.168503984808921814e-01 -4.327870532870292664e-02 -4.803873226046562195e-02 9.722067415714263916e-02
2.449000000000000000e+03 2.650053501129150391e+00 4.904499053955078125e+00 -4.140011221170425415e-02 -5.084754526615142822e-02 -2.767429687082767487e-02 5.718611553311347961e-02
2.450000000000000000e+03 3.396320819854736328e+00 3.725296735763549805e+00 -4.516882821917533875e-02 -3.303553164005279541e-02 -2.346130833029747009e-02 3.972695022821426392e-02
2.451000000000000000e+03 2.739038228988647461e+00 6.145052433013916016e+00 -5.511532351374626160e-02 -8.160687237977981567e-02 -4.101665690541267395e-02 9.525635093450546265e-02
2.452000000000000000e+03 2.598443031311035156e+00 3.841800689697265625e+00 -3.069568984210491180e-02 -3.020700626075267792e-02 -1.827080920338630676e-02 2.948174066841602325e-02
2.453000000000000000e+03 1.053393745422363281e+01 5.020052909851074219e+00 -2.606437802314758301e-01 -1.333030015230178833e-01 -1.181840375065803528e-01 2.295959144830703735e-01
2.454000000000000000e+03 1.128836154937744141e+01 5.817153453826904297e+00 -2.519336640834808350e-01 -2.317896634340286255e-01 -1.451169997453689575e-01 2.833159565925598145e-01
2.455000000000000000e+03 3.120872116088867188e+01 1.347065448760986328e+00 6.740260720252990723e-01 4.815500259399414062e+00 1.646857976913452148e+00 -4.041353225708007812e+00
2.456000000000000000e+03 3.095985412597656250e+01 1.203954935073852539e+00 8.612475991249084473e-01 2.954193592071533203e+00 1.144632339477539062e+00 -3.772450685501098633e+00
2.457000000000000000e+03 2.231765556335449219e+01 4.431975841522216797e+00 3.546510338783264160e-01 -6.630184650421142578e-01 -9.251023828983306885e-02 4.026599824428558350e-01
2.458000000000000000e+03 1.986381149291992188e+01 6.038302421569824219e+00 5.484996438026428223e-01 -5.377702713012695312e-01 3.218822181224822998e-03 1.266188472509384155e-01
2.459000000000000000e+03 8.490644454956054688e+00 -5.032606124877929688e+00 -1.536617055535316467e-02 -5.632731318473815918e-02 -2.150804549455642700e-02 -7.837190479040145874e-02
2.460000000000000000e+03 7.654687881469726562e+00 -4.290349483489990234e+00 -1.652860268950462341e-02 -5.117805674672126770e-02 -2.031199820339679718e-02 -6.437209248542785645e-02
2.461000000000000000e+03 5.107192039489746094e+00 -3.831067562103271484e+00 -9.359306655824184418e-03 -3.004426322877407074e-02 -1.182107068598270416e-02 -2.875872515141963959e-02
2.462000000000000000e+03 7.358340263366699219e+00 -6.007495403289794922e+00 -9.738603606820106506e-03 -7.239673286676406860e-02 -2.464060112833976746e-02 -6.420313566923141479e-02
2.463000000000000000e+03 4.260691165924072266e+00 -4.293766021728515625e+00 -1.025182474404573441e-02 -2.687125653028488159e-02 -1.113692391663789749e-02 -1.513387542217969894e-02
2.464000000000000000e+03 5.436444759368896484e+00 -4.639705657958984375e+00 -7.595680654048919678e-03 -3.945954144001007080e-02 -1.411656662821769714e-02 -2.711658552289009094e-02
2.465000000000000000e+03 4.008370876312255859e+00 -6.341501235961914062e+00 5.508292000740766525e-03 -4.687989875674247742e-02 -1.241148263216018677e-02 -1.717501319944858551e-02
2.466000000000000000e+03 3.111385822296142578e+00 -5.932588577270507812e+00 -9.022844955325126648e-03 -3.353214263916015625e-02 -1.276649627834558487e-02 -9.961742907762527466e-03
2.467000000000000000e+03 2.328202629089355469e+01 4.110341072082519531e+00 5.350227952003479004e-01 -5.135029554367065430e-01 6.455959752202033997e-03 4.361004829406738281e-01
2.468000000000000000e+03 2.197087097167968750e+01 6.463011741638183594e+00 1.201433777809143066e+00 -4.105944037437438965e-01 2.372518032789230347e-01 -1.965243816375732422e-01
2.469000000000000000e+03 2.550806045532226562e+01 2.796037197113037109e+00 1.309280693531036377e-01 1.064175143837928772e-01 7.120367139577865601e-02 6.528735160827636719e-01
2.470000000000000000e+03 2.468070793151855469e+01 4.272366523742675781e+00 1.280172944068908691e+00 -2.545292302966117859e-02 3.764160275459289551e-01 1.454198509454727173e-01
2.471000000000000000e+03 2.359020233154296875e+01 4.925914287567138672e+00 1.156744480133056641e+00 -3.888393938541412354e-01 2.303715199232101440e-01 8.556351065635681152e-02
2.472000000000000000e+03 2.543360710144042969e+01 3.907146453857421875e+00 1.396541357040405273e+00 2.501218318939208984e-01 4.939989745616912842e-01 2.816869914531707764e-01
2.473000000000000000e+03 2.728584671020507812e+01 2.873636007308959961e+00 8.953437805175781250e-01 1.603178977966308594e+00 7.495568394660949707e-01 -2.630618810653686523e-01
2.474000000000000000e+03 2.728342628479003906e+01 3.589281082153320312e+00 1.650452733039855957e+00 1.856790423393249512e+00 1.052172899246215820e+00 -3.878300487995147705e-01
2.475000000000000000e+03 1.387775802612304688e+01 5.375429630279541016e+00 -1.782630234956741333e-01 -9.006701409816741943e-02 -8.049900829792022705e-02 5.111030936241149902e-01
2.476000000000000000e+03 1.202816963195800781e+01 -3.755117654800415039e+00 -2.893949486315250397e-02 -2.542666718363761902e-02 -1.630984805524349213e-02 -8.581618219614028931e-02
2.477000000000000000e+03 1.382138633728027344e+01 -2.701597690582275391e+00 -6.007752940058708191e-02 3.959955065511167049e-04 -1.790446043014526367e-02 -6.851480156183242798e-02
2.478000000000000000e+03 1.270793342590332031e+01 -4.290874004364013672e+00 -2.040722221136093140e-02 -1.952107623219490051e-02 -1.197848934680223465e-02 -7.108740508556365967e-02
2.479000000000000000e+03 1.398657035827636719e+01 -4.495487213134765625e+00 -2.607284113764762878e-03 1.241068728268146515e-02 2.941020997241139412e-03 -4.471086710691452026e-02
2.480000000000000000e+03 3.826364517211914062e+01 -8.985526561737060547e-01 1.671743392944335938e+00 4.858995437622070312e+00 1.959221720695495605e+00 3.700486183166503906e+00
2.481000000000000000e+03 3.237608718872070312e+01 -8.821468353271484375e+00 2.573271989822387695e+00 4.182276725769042969e+00 2.026664733886718750e+00 2.602077960968017578e+00
2.482000000000000000e+03 9.195479393005371094e+00 -4.248692035675048828e+00 -2.324279770255088806e-02 -5.100282654166221619e-02 -2.227368764579296112e-02 -8.121206611394882202e-02
2.483000000000000000e+03 1.001163196563720703e+01 -4.333350658416748047e+00 -2.381238900125026703e-02 -4.155503585934638977e-02 -1.961022615432739258e-02 -8.057449012994766235e-02
2.484000000000000000e+03 1.112320423126220703e+01 -5.038434028625488281e+00 -1.859267242252826691e-02 -2.997318468987941742e-02 -1.456975657492876053e-02 -8.756937086582183838e-02
2.485000000000000000e+03 1.193644523620605469e+01 6.697230815887451172e+00 -3.223767876625061035e-01 -2.980694770812988281e-01 -1.861338764429092407e-01 2.767869234085083008e-01
2.486000000000000000e+03 1.027907657623291016e+01 6.550153255462646484e+00 -2.911361753940582275e-01 -1.951377540826797485e-01 -1.458821743726730347e-01 2.040383368730545044e-01
2.487000000000000000e+03 4.898093414306640625e+01 -1.333810997009277344e+01 -1.154808282852172852e+00 5.495827198028564453e+00 1.302305698394775391e+00 5.428704619407653809e-01
2.488000000000000000e+03 4.858161544799804688e+01 -1.432690525054931641e+01 -2.587044477462768555e+00 5.619945049285888672e+00 9.098702669143676758e-01 1.523847579956054688e+00
2.489000000000000000e+03 2.655999565124511719e+01 4.474535942077636719e+00 2.679152965545654297e+00 1.674280166625976562e+00 1.306030035018920898e+00 -4.094230532646179199e-01
2.490000000000000000e+03 4.292256164550781250e+01 -2.422535657882690430e+00 3.048863410949707031e-01 1.455745220184326172e+00 5.281894803047180176e-01 -1.736997961997985840e+00
2.491000000000000000e+03 6.298213577270507812e+01 -2.253295660018920898e+00 1.275601267814636230e+00 7.645586490631103516e+00 2.676356315612792969e+00 -3.624992966651916504e-01
2.492000000000000000e+03 4.150578689575195312e+01 -2.069254112243652344e+01 2.192815780639648438e+00 5.276274681091308594e+00 2.240727186203002930e+00 1.630159467458724976e-01
2.493000000000000000e+03 4.233637237548828125e+01 -2.226807403564453125e+01 2.818800210952758789e+00 4.384798049926757812e+00 2.161079406738281250e+00 7.668543457984924316e-01
2.494000000000000000e+03 5.056579589843750000e+01 2.762620925903320312e+01 1.988217592239379883e+00 6.218669891357421875e+00 2.462066173553466797e+00 6.303336024284362793e-01
2.495000000000000000e+03 4.087478256225585938e+01 -1.501265335083007812e+01 -2.427678823471069336e+00 2.592507123947143555e+00 4.944847524166107178e-02 -2.018657207489013672e+00
2.496000000000000000e+03 4.212306213378906250e+01 -2.663847160339355469e+01 -1.477626085281372070e+00 2.382483959197998047e+00 2.714573740959167480e-01 1.438354730606079102e+00
2.497000000000000000e+03 4.461161422729492188e+01 -2.500007820129394531e+01 1.053860068321228027e+00 2.687340736389160156e+00 1.122360229492187500e+00 -9.912283420562744141e-01
2.498000000000000000e+03 1.108990573883056641e+01 4.106625080108642578e+00 -2.795374095439910889e-01 -1.137804910540580750e-01 -1.179953664541244507e-01 2.443945407867431641e-01
2.499000000000000000e+03 3.164471054077148438e+01 -8.498737335205078125e+00 2.201853275299072266e+00 4.143772125244140625e+00 1.903687596321105957e+00 2.710118532180786133e+00
2.500000000000000000e+03 5.721199417114257812e+01 3.712439298629760742e+00 -1.064828336238861084e-01 4.586878299713134766e+00 1.344118595123291016e+00 -3.642492890357971191e-01
2.501000000000000000e+03 4.195652389526367188e+01 1.142833518981933594e+01 2.610552310943603516e-01 9.020349502563476562e+00 2.784421443939208984e+00 1.404449105262756348e+00
2.502000000000000000e+03 6.414956665039062500e+01 -2.392085266113281250e+01 1.839950561523437500e+00 7.931956768035888672e+00 2.931572198867797852e+00 -2.626618146896362305e+00
2.503000000000000000e+03 3.612879562377929688e+01 -6.059719562530517578e+00 1.521634817123413086e+00 8.411199569702148438e+00 2.979850292205810547e+00 7.299974560737609863e-01
2.504000000000000000e+03 3.780172348022460938e+01 -2.167201280593872070e+00 1.339185118675231934e+00 5.378174304962158203e+00 2.015207767486572266e+00 2.404246330261230469e+00
2.505000000000000000e+03 1.886117935180664062e+01 5.546783447265625000e+00 2.701796591281890869e-01 -4.675631523132324219e-01 -5.921504646539688110e-02 2.733740508556365967e-01
2.506000000000000000e+03 2.787161827087402344e+01 5.056798934936523438e+00 3.736516475677490234e+00 4.397490978240966797e+00 2.440202236175537109e+00 -1.516466259956359863e+00
2.507000000000000000e+03 4.982759857177734375e+01 2.030951118469238281e+01 -9.694676995277404785e-01 1.900099277496337891e+00 2.791894972324371338e-01 -5.987846851348876953e-01
2.508000000000000000e+03 5.260844039916992188e+01 2.074401855468750000e+01 -1.369745612144470215e+00 4.223383426666259766e+00 8.560913205146789551e-01 -2.204947948455810547e+00
2.509000000000000000e+03 3.906353759765625000e+01 -1.543707966804504395e+00 8.511532545089721680e-01 4.634597301483154297e+00 1.645725250244140625e+00 2.756270647048950195e+00
2.510000000000000000e+03 4.184909439086914062e+01 1.966696548461914062e+01 -5.709274411201477051e-01 2.232443332672119141e+00 4.984548091888427734e-01 1.494569033384323120e-01
2.511000000000000000e+03 3.909344100952148438e+01 1.656505393981933594e+01 9.406672120094299316e-01 3.324804544448852539e+00 1.279641509056091309e+00 -2.173044919967651367e+00
2.512000000000000000e+03 3.431148147583007812e+01 1.955346298217773438e+01 2.930023074150085449e-01 4.193162918090820312e+00 1.345849514007568359e+00 -1.290488123893737793e+00
2.513000000000000000e+03 2.657898902893066406e+01 -2.022011375427246094e+01 1.894852399826049805e+00 4.387330532073974609e+00 1.884654879570007324e+00 7.265993952751159668e-01
2.514000000000000000e+03 2.470646476745605469e+01 -1.727058029174804688e+01 1.023388028144836426e+00 1.862976074218750000e+00 8.659092783927917480e-01 5.260039567947387695e-01
2.515000000000000000e+03 4.378790664672851562e+01 8.263374328613281250e+00 -1.692994982004165649e-01 7.228744983673095703e+00 2.117833614349365234e+00 6.692471504211425781e-01
2.516000000000000000e+03 3.216412353515625000e+01 1.530107688903808594e+01 -1.484039902687072754e+00 2.585815906524658203e+00 3.305328190326690674e-01 7.009019143879413605e-03
2.517000000000000000e+03 7.578011322021484375e+01 1.482502269744873047e+01 5.657401680946350098e-01 7.864007949829101562e+00 2.528924465179443359e+00 9.023802876472473145e-01
2.518000000000000000e+03 7.714759826660156250e+01 1.695547103881835938e+01 -1.171204745769500732e-01 7.337418079376220703e+00 2.166089296340942383e+00 9.536827802658081055e-01
2.519000000000000000e+03 3.113270568847656250e+01 -1.374413108825683594e+01 -1.550266742706298828e+00 4.416748046875000000e+00 8.599443435668945312e-01 2.908284664154052734e+00
2.520000000000000000e+03 3.194814109802246094e+01 -1.350940704345703125e+01 -9.297539591789245605e-01 3.315717935562133789e+00 7.157891988754272461e-01 2.746866941452026367e+00
2.521000000000000000e+03 9.314536094665527344e+00 7.190012931823730469e+00 -3.140785992145538330e-01 -1.416291594505310059e-01 -1.367123275995254517e-01 2.247115373611450195e-01
2.522000000000000000e+03 2.765417861938476562e+01 -2.882552909851074219e+01 -1.412253022193908691e+00 4.025572776794433594e+00 7.839959859848022461e-01 2.904678881168365479e-01
2.523000000000000000e+03 3.577812576293945312e+01 -1.032834243774414062e+01 1.990958929061889648e+00 5.960253715515136719e+00 2.385363817214965820e+00 4.485735893249511719e-01
2.524000000000000000e+03 3.542792892456054688e+01 1.401001453399658203e+01 -6.248539090156555176e-01 9.321679472923278809e-01 9.219420701265335083e-02 -1.460524797439575195e+00
2.525000000000000000e+03 7.235250854492187500e+01 3.691189289093017578e+00 -4.833804816007614136e-02 4.776623725891113281e+00 1.418485760688781738e+00 3.902796208858489990e-01
2.526000000000000000e+03 4.257019042968750000e+01 4.200829505920410156e+00 2.621926784515380859e+00 6.867220401763916016e+00 2.846744060516357422e+00 -3.649591207504272461e-01
2.527000000000000000e+03 4.545561218261718750e+01 6.172223567962646484e+00 1.322411447763442993e-01 4.192898750305175781e+00 1.297541975975036621e+00 -7.788383960723876953e-01
2.528000000000000000e+03 6.250488281250000000e+01 -9.255227446556091309e-01 5.207748413085937500e-01 6.916083335876464844e+00 2.231057405471801758e+00 -4.055690467357635498e-01
2.529000000000000000e+03 3.931781768798828125e+01 4.379556477069854736e-01 1.498141288757324219e+00 6.036388397216796875e+00 2.260358810424804688e+00 2.299424171447753906e+00
2.530000000000000000e+03 2.270344543457031250e+01 1.273443126678466797e+01 -2.552291452884674072e-01 1.948298811912536621e+00 5.079209208488464355e-01 -1.540724992752075195e+00
2.531000000000000000e+03 2.373126411437988281e+01 1.214282417297363281e+01 -1.676706522703170776e-01 1.725916504859924316e+00 4.674737453460693359e-01 -1.864922523498535156e+00
2.532000000000000000e+03 4.722630310058593750e+01 -1.567892932891845703e+01 -3.154346942901611328e+00 5.823437213897705078e+00 8.007270097732543945e-01 2.522177934646606445e+00
2.533000000000000000e+03 7.685282897949218750e+01 1.156215763092041016e+01 7.117924094200134277e-01 7.088890552520751953e+00 2.340204954147338867e+00 -1.144926398992538452e-01
2.534000000000000000e+03 7.680552673339843750e+01 -1.675324058532714844e+01 -2.495875358581542969e-01 8.314547538757324219e+00 2.419487953186035156e+00 1.133046030998229980e+00
2.535000000000000000e+03 7.692412567138671875e+01 -1.927686500549316406e+01 3.467713594436645508e-01 8.189518928527832031e+00 2.560887098312377930e+00 1.141103029251098633e+00
2.536000000000000000e+03 7.682299804687500000e+01 6.315446853637695312e+00 -2.777716517448425293e-02 7.208609580993652344e+00 2.154249668121337891e+00 -1.034430265426635742e+00
2.537000000000000000e+03 7.564105987548828125e+01 1.155791997909545898e+00 -6.853360533714294434e-01 6.670224666595458984e+00 1.795466661453247070e+00 -8.154217004776000977e-01
2.538000000000000000e+03 7.696594238281250000e+01 7.693341374397277832e-01 -5.380715131759643555e-01 7.953032970428466797e+00 2.224488496780395508e+00 -4.514500498771667480e-01
2.539000000000000000e+03 7.710562896728515625e+01 1.035480403900146484e+01 5.164864659309387207e-01 6.821732044219970703e+00 2.201465606689453125e+00 -5.107386708259582520e-01
2.540000000000000000e+03 7.450804901123046875e+01 7.713266372680664062e+00 2.634528875350952148e-01 7.670331478118896484e+00 2.380135297775268555e+00 -7.833589911460876465e-01
2.541000000000000000e+03 7.645744323730468750e+01 -1.544455242156982422e+01 -6.781212091445922852e-01 8.143603324890136719e+00 2.239644527435302734e+00 8.806981444358825684e-01
2.542000000000000000e+03 7.576220703125000000e+01 -1.695186424255371094e+01 -2.863470315933227539e-01 8.064968109130859375e+00 2.333586215972900391e+00 1.089222908020019531e+00
2.543000000000000000e+03 7.410248565673828125e+01 6.094808101654052734e+00 -1.421039402484893799e-01 6.975555896759033203e+00 2.050035476684570312e+00 -5.596252679824829102e-01
2.544000000000000000e+03 7.703138732910156250e+01 4.336456775665283203e+00 -1.929596364498138428e-01 7.349494934082031250e+00 2.146960496902465820e+00 -9.030210375785827637e-01
2.545000000000000000e+03 7.541986846923828125e+01 4.313347816467285156e+00 -2.994699478149414062e-01 6.886494636535644531e+00 1.976107358932495117e+00 -8.544034957885742188e-01
2.546000000000000000e+03 7.656277465820312500e+01 -1.329065227508544922e+01 -1.031984806060791016e+00 8.394875526428222656e+00 2.208867311477661133e+00 3.074814677238464355e-01
2.547000000000000000e+03 7.546623992919921875e+01 9.747511863708496094e+00 7.926255464553833008e-01 7.626609325408935547e+00 2.525770425796508789e+00 -7.085270285606384277e-01
2.548000000000000000e+03 7.576760101318359375e+01 1.123717784881591797e+01 1.122181296348571777e+00 7.642484664916992188e+00 2.629399776458740234e+00 -1.968535184860229492e-01
2.549000000000000000e+03 7.631649017333984375e+01 1.267425823211669922e+01 8.417327404022216797e-01 7.281459808349609375e+00 2.436957836151123047e+00 2.604214251041412354e-01
2.550000000000000000e+03 7.540016174316406250e+01 -1.602075004577636719e+01 -7.926322221755981445e-01 7.268529891967773438e+00 1.942769289016723633e+00 8.190588355064392090e-01
2.551000000000000000e+03 7.511685180664062500e+01 1.663575744628906250e+01 -1.007164865732192993e-01 7.949039936065673828e+00 2.354496955871582031e+00 1.060867309570312500e+00
2.552000000000000000e+03 7.712261962890625000e+01 1.576224994659423828e+01 1.741136908531188965e-01 7.209523677825927734e+00 2.215091228485107422e+00 9.712324142456054688e-01
2.553000000000000000e+03 7.448562622070312500e+01 1.473081684112548828e+01 9.942804574966430664e-01 8.459241867065429688e+00 2.836056709289550781e+00 8.454523682594299316e-01
2.554000000000000000e+03 7.569624328613281250e+01 -1.619756817817687988e+00 -9.416427612304687500e-01 7.914914608001708984e+00 2.091981410980224609e+00 -3.154517710208892822e-01
2.555000000000000000e+03 7.541246795654296875e+01 2.096523094177246094e+01 -8.858179450035095215e-01 7.320824623107910156e+00 1.930501937866210938e+00 7.433315739035606384e-03
2.556000000000000000e+03 7.470499420166015625e+01 1.887865638732910156e+01 -9.762966036796569824e-01 7.774559497833251953e+00 2.039479017257690430e+00 4.886116981506347656e-01
2.557000000000000000e+03 7.624777984619140625e+01 -2.169364738464355469e+01 1.007461547851562500e+00 8.837169647216796875e+00 2.953389406204223633e+00 4.292437732219696045e-01
2.558000000000000000e+03 7.382743835449218750e+01 3.533522796630859375e+01 -9.014042094349861145e-03 6.337009906768798828e+00 1.898398756980895996e+00 3.898373544216156006e-01
2.559000000000000000e+03 7.418099212646484375e+01 2.684695625305175781e+01 2.837595045566558838e-01 6.053898811340332031e+00 1.901297450065612793e+00 -4.154286086559295654e-01
2.560000000000000000e+03 7.424073028564453125e+01 2.223113059997558594e+01 -8.976235389709472656e-01 6.727820873260498047e+00 1.749059200286865234e+00 -4.793618023395538330e-01
2.561000000000000000e+03 7.679888916015625000e+01 2.670526695251464844e+01 8.824968338012695312e-02 6.952079772949218750e+00 2.112098932266235352e+00 -3.105756342411041260e-01
2.562000000000000000e+03 7.546387481689453125e+01 2.678776931762695312e+01 1.210783198475837708e-01 6.518120288848876953e+00 1.991759538650512695e+00 -3.944611549377441406e-01
2.563000000000000000e+03 7.377968597412109375e+01 -3.594729995727539062e+01 2.578375041484832764e-01 6.313694000244140625e+00 1.971459388732910156e+00 -7.168291211128234863e-01
2.564000000000000000e+03 7.587004089355468750e+01 -3.587426757812500000e+01 7.685440033674240112e-02 7.017448902130126953e+00 2.128290891647338867e+00 -3.797443509101867676e-01
2.565000000000000000e+03 7.117399597167968750e+01 -3.408952713012695312e+01 1.168087482452392578e+00 5.229529380798339844e+00 1.919284939765930176e+00 -9.950019121170043945e-01
2.566000000000000000e+03 7.719374847412109375e+01 2.906911849975585938e+01 1.420725733041763306e-01 6.983927726745605469e+00 2.137799978256225586e+00 -1.395713239908218384e-01
2.567000000000000000e+03 7.658035278320312500e+01 -3.148944282531738281e+01 8.065262436866760254e-02 7.036621093750000000e+00 2.135182142257690430e+00 1.321323513984680176e-01
2.568000000000000000e+03 7.554747009277343750e+01 -2.840149879455566406e+01 -5.962084531784057617e-01 7.399352073669433594e+00 2.040943145751953125e+00 3.780840635299682617e-01
2.569000000000000000e+03 7.462703704833984375e+01 -3.488818359375000000e+01 3.746876418590545654e-01 6.554278850555419922e+00 2.078689813613891602e+00 -4.204294085502624512e-01
2.570000000000000000e+03 7.484234619140625000e+01 2.913688087463378906e+01 3.249210119247436523e-01 6.211625576019287109e+00 1.960963964462280273e+00 -1.735173761844635010e-01
2.571000000000000000e+03 7.293144226074218750e+01 -3.718254852294921875e+01 -1.208378523588180542e-01 6.391105175018310547e+00 1.881080150604248047e+00 -9.044299721717834473e-01
2.572000000000000000e+03 4.567052459716796875e+01 -2.440487861633300781e+01 5.777675509452819824e-01 4.260912895202636719e+00 1.451604127883911133e+00 -1.298915743827819824e+00
2.573000000000000000e+03 2.260377502441406250e+01 3.074971199035644531e+01 4.597060680389404297e-01 2.054170131683349609e+00 7.541629076004028320e-01 2.265054583549499512e-01
2.574000000000000000e+03 4.319636535644531250e+01 -1.917997360229492188e+01 2.045717239379882812e+00 4.070237636566162109e+00 1.834786415100097656e+00 4.923883453011512756e-02
2.575000000000000000e+03 2.776528739929199219e+01 -1.621506118774414062e+01 -1.224354431033134460e-01 5.087528228759765625e+00 1.489527940750122070e+00 1.355893015861511230e+00
2.576000000000000000e+03 2.409460639953613281e+01 -1.517853355407714844e+01 9.243033826351165771e-02 6.176781654357910156e-01 2.130325436592102051e-01 4.685347974300384521e-01
2.577000000000000000e+03 2.218627929687500000e+01 -1.669192123413085938e+01 6.104899048805236816e-01 5.895122513175010681e-02 2.008323520421981812e-01 -7.459085434675216675e-02
2.578000000000000000e+03 4.508149623870849609e+00 2.188736724853515625e+01 1.026702076196670532e-01 -2.267092764377593994e-01 -3.721171990036964417e-02 7.195910066366195679e-02
2.579000000000000000e+03 3.037125110626220703e+00 2.283886337280273438e+01 6.967896968126296997e-02 -6.583861708641052246e-01 -1.766121536493301392e-01 6.170132756233215332e-02
2.580000000000000000e+03 5.103826045989990234e+00 2.350409889221191406e+01 1.951243579387664795e-01 1.220668014138936996e-02 6.219930946826934814e-02 -3.777446970343589783e-02
2.581000000000000000e+03 4.296455383300781250e+00 -1.666326713562011719e+01 -8.858667314052581787e-02 -1.327722072601318359e-01 -6.640766561031341553e-02 -2.009213566780090332e-01
2.582000000000000000e+03 4.593908309936523438e+00 -1.368381309509277344e+01 -9.335251897573471069e-02 -1.367150396108627319e-01 -6.902027130126953125e-02 -1.025416627526283264e-01
2.583000000000000000e+03 4.043404102325439453e+00 2.304207801818847656e+01 1.273492574691772461e-01 -3.211388289928436279e-01 -5.813686922192573547e-02 2.235542982816696167e-02
2.584000000000000000e+03 2.950259447097778320e+00 -2.195836448669433594e+01 6.184081733226776123e-02 -2.860414087772369385e-01 -6.726017594337463379e-02 -7.535002380609512329e-02
2.585000000000000000e+03 3.214450836181640625e+00 1.894555664062500000e+01 2.237592451274394989e-02 -6.030625700950622559e-01 -1.742059886455535889e-01 1.490766853094100952e-01
2.586000000000000000e+03 4.624121665954589844e+00 1.796183013916015625e+01 8.601104468107223511e-02 -3.226228952407836914e-01 -7.098355889320373535e-02 1.973012536764144897e-01
2.587000000000000000e+03 3.512007474899291992e+00 1.752448081970214844e+01 6.032708287239074707e-02 -5.156335234642028809e-01 -1.365919411182403564e-01 2.019121646881103516e-01
2.588000000000000000e+03 6.900578022003173828e+00 1.496999835968017578e+01 1.833492219448089600e-01 1.510444562882184982e-03 5.545790120959281921e-02 3.035971224308013916e-01
2.589000000000000000e+03 3.793156147003173828e+00 -2.372700500488281250e+01 5.313755571842193604e-02 -1.462006866931915283e-01 -2.791893854737281799e-02 -5.444751307368278503e-02
2.590000000000000000e+03 3.025449752807617188e+00 -2.579861068725585938e+01 2.140999026596546173e-02 -3.434087336063385010e-01 -9.659962356090545654e-02 -1.133256312459707260e-02
2.591000000000000000e+03 4.577816486358642578e+00 -2.449914169311523438e+01 3.879259899258613586e-02 -2.462009713053703308e-02 4.251750186085700989e-03 -7.107365131378173828e-02
2.592000000000000000e+03 5.357398509979248047e+00 -2.596220207214355469e+01 7.862720638513565063e-02 5.084805935621261597e-02 3.884257748723030090e-02 -8.648041635751724243e-02
2.593000000000000000e+03 3.032535552978515625e+00 -2.724317550659179688e+01 1.755427755415439606e-02 -3.451742827892303467e-01 -9.828600287437438965e-02 9.812320582568645477e-03
2.594000000000000000e+03 6.065682411193847656e+00 1.596665191650390625e+01 1.348283588886260986e-01 -1.299314498901367188e-01 1.469074632041156292e-03 2.659779787063598633e-01
2.595000000000000000e+03 2.871119976043701172e+00 1.135159397125244141e+01 -2.566991932690143585e-02 -3.318925797939300537e-01 -1.072687506675720215e-01 2.507675886154174805e-01
2.596000000000000000e+03 3.831026554107666016e+00 -8.380224227905273438e+00 2.353209070861339569e-03 -6.521731615066528320e-02 -1.885923370718955994e-02 -1.477512437850236893e-02
2.597000000000000000e+03 2.943122625350952148e+00 -1.083163261413574219e+01 -3.615816682577133179e-02 -7.423500716686248779e-02 -3.311795368790626526e-02 -2.966646663844585419e-02
2.598000000000000000e+03 3.275864362716674805e+00 3.569876098632812500e+01 -7.835038751363754272e-02 -3.112931549549102783e-01 -1.168930605053901672e-01 -9.756249934434890747e-02
2.599000000000000000e+03 4.496113777160644531e+00 3.546159362792968750e+01 -1.251138448715209961e-01 -2.488863766193389893e-01 -1.122000664472579956e-01 -9.868954867124557495e-02
2.600000000000000000e+03 3.369501829147338867e+00 -2.987431716918945312e+01 5.167701840400695801e-02 -2.901744246482849121e-01 -7.154922187328338623e-02 1.004654914140701294e-01
2.601000000000000000e+03 4.781556606292724609e+00 -2.941935157775878906e+01 1.494734585285186768e-01 -9.342489391565322876e-02 1.681456901133060455e-02 9.157758951187133789e-02
2.602000000000000000e+03 6.175541877746582031e+00 1.108455562591552734e+01 -8.834779262542724609e-02 -8.148932456970214844e-02 -5.095113441348075867e-02 3.630513250827789307e-01
2.603000000000000000e+03 5.136006832122802734e+00 -1.056192398071289062e+01 -4.616731405258178711e-02 -1.151031106710433960e-01 -4.838112741708755493e-02 -5.087627097964286804e-02
2.604000000000000000e+03 3.055549860000610352e+00 3.239507293701171875e+01 -7.093878835439682007e-02 -3.758286833763122559e-01 -1.340302377939224243e-01 -2.236127853393554688e-01
2.605000000000000000e+03 4.053195476531982422e+00 3.162012481689453125e+01 -1.113396286964416504e-01 -2.525945901870727539e-01 -1.091802641749382019e-01 -2.925512492656707764e-01
2.606000000000000000e+03 5.142484664916992188e+00 3.374864196777343750e+01 -1.904960721731185913e-01 -1.940998584032058716e-01 -1.153787747025489807e-01 -1.678175479173660278e-01
2.607000000000000000e+03 7.965405941009521484e+00 -3.505255508422851562e+01 1.296590268611907959e-01 4.819496870040893555e-01 1.834826171398162842e-01 4.531118869781494141e-01
2.608000000000000000e+03 3.552218198776245117e+00 -3.123899459838867188e+01 1.005838885903358459e-01 -2.300575822591781616e-01 -3.884210810065269470e-02 1.570535898208618164e-01
2.609000000000000000e+03 4.362894058227539062e+00 -5.645304203033447266e+00 -1.314298063516616821e-02 -4.017024859786033630e-02 -1.599396765232086182e-02 -2.082217484712600708e-02
2.610000000000000000e+03 2.799528121948242188e+00 7.451418876647949219e+00 -5.454320460557937622e-02 -1.243147403001785278e-01 -5.365738272666931152e-02 1.452216058969497681e-01
2.611000000000000000e+03 3.572498798370361328e+00 -5.019552230834960938e+00 7.174012251198291779e-03 -3.118794038891792297e-02 -7.204178255051374435e-03 -1.397318299859762192e-02
2.612000000000000000e+03 3.604925155639648438e+00 -3.718896484375000000e+01 -1.339959166944026947e-02 4.467521607875823975e-02 9.382687509059906006e-03 2.807708084583282471e-01
2.613000000000000000e+03 6.349349975585937500e+00 -3.473721313476562500e+01 5.133588612079620361e-02 2.393643558025360107e-01 8.721007406711578369e-02 4.215041995048522949e-01
2.614000000000000000e+03 5.180451869964599609e+00 3.854469299316406250e+01 -4.835611209273338318e-02 -2.559211254119873047e-01 -9.128317236900329590e-02 -1.287601049989461899e-02
2.615000000000000000e+03 2.888200569152832031e+01 -1.340938091278076172e+01 -7.983003854751586914e-01 5.498188972473144531e+00 1.409966588020324707e+00 2.547899007797241211e+00
2.616000000000000000e+03 2.842724418640136719e+01 -1.557699871063232422e+01 -5.951323509216308594e-01 5.562957763671875000e+00 1.490347504615783691e+00 1.692446827888488770e+00
2.617000000000000000e+03 1.335889148712158203e+01 1.962449264526367188e+01 8.265894651412963867e-01 1.868365705013275146e-01 3.040278255939483643e-01 9.100973606109619141e-02
2.618000000000000000e+03 4.947982025146484375e+01 -2.846941757202148438e+01 8.655515909194946289e-01 5.098297595977783203e+00 1.789154767990112305e+00 -2.117155075073242188e+00
2.619000000000000000e+03 7.325861358642578125e+01 1.429666042327880859e+01 1.208720564842224121e+00 1.038743495941162109e+01 3.478846788406372070e+00 1.153113022446632385e-01
2.620000000000000000e+03 2.653471374511718750e+01 8.039374351501464844e+00 2.185750007629394531e+00 3.154534339904785156e+00 1.602085232734680176e+00 -2.274098873138427734e+00
2.621000000000000000e+03 2.749854469299316406e+01 8.429412841796875000e+00 1.258702158927917480e+00 4.681947231292724609e+00 1.782194852828979492e+00 -1.705083608627319336e+00
2.622000000000000000e+03 2.738400077819824219e+01 1.115016746520996094e+01 -8.788968622684478760e-02 2.643365144729614258e+00 7.666426301002502441e-01 -1.129764914512634277e+00
2.623000000000000000e+03 5.779495239257812500e+00 -3.624320983886718750e+01 -3.049123100936412811e-02 2.691543698310852051e-01 7.159893959760665894e-02 3.665656149387359619e-01
2.624000000000000000e+03 6.816592693328857422e+00 3.801276779174804688e+01 -8.484663069248199463e-02 -2.227756530046463013e-01 -9.228668361902236938e-02 -7.439963519573211670e-03
2.625000000000000000e+03 6.723956298828125000e+01 2.803776931762695312e+01 1.827723979949951172e+00 4.959671974182128906e+00 2.036218643188476562e+00 1.013614535331726074e+00
2.626000000000000000e+03 6.680113983154296875e+01 2.531291580200195312e+01 1.702077150344848633e+00 3.701277971267700195e+00 1.621006488800048828e+00 5.671194195747375488e-01
2.627000000000000000e+03 4.933694458007812500e+01 -1.101620292663574219e+01 2.200289726257324219e+00 7.088658332824707031e+00 2.786684513092041016e+00 -5.284692719578742981e-02
2.628000000000000000e+03 1.105696392059326172e+01 1.855941009521484375e+01 6.155529618263244629e-01 3.136952519416809082e-01 2.787744700908660889e-01 1.460098177194595337e-01
2.629000000000000000e+03 1.788350677490234375e+01 -1.453048419952392578e+01 -7.768724858760833740e-02 1.621369868516921997e-01 2.533492259681224823e-02 -2.680837512016296387e-01
2.630000000000000000e+03 1.573729896545410156e+01 -1.111310577392578125e+01 -2.476409822702407837e-01 2.604601383209228516e-01 3.845745231956243515e-03 3.235566616058349609e-02
2.631000000000000000e+03 5.286704254150390625e+01 1.597770214080810547e+00 -5.423229336738586426e-01 5.143012523651123047e+00 1.380206823348999023e+00 2.159956932067871094e+00
2.632000000000000000e+03 7.418688964843750000e+01 -4.106826782226562500e-01 -1.129416584968566895e+00 5.498109340667724609e+00 1.310607790946960449e+00 -1.035937428474426270e+00
2.633000000000000000e+03 5.985019683837890625e+01 2.108786201477050781e+01 -8.560314774513244629e-01 4.374308109283447266e+00 1.055482983589172363e+00 1.783909678459167480e+00
2.634000000000000000e+03 1.855035018920898438e+01 2.170349693298339844e+01 8.980498909950256348e-01 1.116810917854309082e+00 6.044582128524780273e-01 1.199509054422378540e-01
2.635000000000000000e+03 1.963898468017578125e+01 1.951512336730957031e+01 8.011583685874938965e-01 1.722276210784912109e+00 7.570303678512573242e-01 -2.671670913696289062e-02
2.636000000000000000e+03 6.471041870117187500e+01 3.596728086471557617e+00 -8.028019964694976807e-02 2.805555343627929688e+00 8.175825476646423340e-01 1.070644408464431763e-01
2.637000000000000000e+03 6.675541687011718750e+01 4.700677394866943359e+00 -1.492036390118300915e-03 1.049447298049926758e+00 3.143865764141082764e-01 1.496086239814758301e+00
2.638000000000000000e+03 2.190353584289550781e+01 7.594129085540771484e+00 9.958525896072387695e-01 -1.355147212743759155e-01 2.581013739109039307e-01 -4.366334676742553711e-01
2.639000000000000000e+03 4.493038940429687500e+01 -2.148459434509277344e+01 2.996180772781372070e+00 5.450570583343505859e+00 2.534025430679321289e+00 1.022116094827651978e-01
2.640000000000000000e+03 4.552984619140625000e+01 -2.032955741882324219e+01 2.760900259017944336e+00 6.837258338928222656e+00 2.879447698593139648e+00 2.107629776000976562e-01
2.641000000000000000e+03 6.653147888183593750e+01 9.215226769447326660e-01 4.352111220359802246e-01 3.329317808151245117e+00 1.129358649253845215e+00 1.762892365455627441e+00
2.642000000000000000e+03 4.880532836914062500e+01 -6.511313438415527344e+00 1.937001347541809082e+00 8.533840179443359375e+00 3.141252517700195312e+00 -4.502261281013488770e-01
2.643000000000000000e+03 5.700356292724609375e+01 9.817469596862792969e+00 1.777042031288146973e+00 8.298181533813476562e+00 3.022567033767700195e+00 1.139467358589172363e+00
2.644000000000000000e+03 6.690160369873046875e+01 2.416564750671386719e+01 1.166373610496520996e+00 3.042638778686523438e+00 1.262703657150268555e+00 3.542095124721527100e-01
2.645000000000000000e+03 6.612304687500000000e+01 2.166019248962402344e+01 -8.575568199157714844e-01 4.866101741790771484e-01 -1.112839952111244202e-01 9.695360660552978516e-01
2.646000000000000000e+03 6.023521804809570312e+01 -2.466377258300781250e+01 8.238568902015686035e-01 2.245009899139404297e+00 9.206600785255432129e-01 5.212205648422241211e-01
2.647000000000000000e+03 4.381258773803710938e+01 -2.403411483764648438e+01 2.004420280456542969e+00 3.039084672927856445e+00 1.513051509857177734e+00 3.387228846549987793e-01
2.648000000000000000e+03 6.478845977783203125e+01 -8.774003982543945312e-01 5.217236876487731934e-01 5.787480354309082031e+00 1.892761230468750000e+00 9.809593558311462402e-01
2.649000000000000000e+03 5.556946182250976562e+01 4.386809349060058594e+00 -2.227860838174819946e-01 5.825805664062500000e+00 1.680905818939208984e+00 1.131732106208801270e+00
2.650000000000000000e+03 3.305031967163085938e+01 -3.909320354461669922e+00 1.574559807777404785e-01 6.368439197540283203e+00 1.957768559455871582e+00 1.697902917861938477e+00
2.651000000000000000e+03 9.723223686218261719e+00 -3.110251617431640625e+01 5.074874162673950195e-01 6.649488806724548340e-01 3.517308831214904785e-01 3.352436125278472900e-01
2.652000000000000000e+03 1.672917556762695312e+01 -1.476804637908935547e+01 1.157144233584403992e-01 2.667460441589355469e-01 1.147381365299224854e-01 -1.987480670213699341e-01
2.653000000000000000e+03 8.209290504455566406e+00 1.025424098968505859e+01 -2.142174690961837769e-01 -1.047068275511264801e-02 -6.740644574165344238e-02 3.092865943908691406e-01
2.654000000000000000e+03 7.410092830657958984e+00 1.167620468139648438e+01 -6.167387962341308594e-02 5.175443366169929504e-03 -1.694953069090843201e-02 3.709201514720916748e-01
2.655000000000000000e+03 7.466492462158203125e+01 -1.808042526245117188e+01 4.973668977618217468e-02 8.202640533447265625e+00 2.475713253021240234e+00 5.314167141914367676e-01
2.656000000000000000e+03 7.637725067138671875e+01 -2.017433357238769531e+01 6.039645671844482422e-01 8.548325538635253906e+00 2.745687007904052734e+00 9.616419076919555664e-01
2.657000000000000000e+03 2.272532844543457031e+01 -2.386931037902832031e+01 9.091020226478576660e-01 9.248824715614318848e-01 5.501953363418579102e-01 6.323068141937255859e-01
2.658000000000000000e+03 1.958065795898437500e+01 -2.372173309326171875e+01 8.537452816963195801e-01 -1.527953892946243286e-01 2.102849781513214111e-01 9.642086029052734375e-01
2.659000000000000000e+03 1.368122291564941406e+01 -1.093271255493164062e+01 -1.378095895051956177e-01 2.336922138929367065e-01 2.876478806138038635e-02 -8.136782050132751465e-02
2.660000000000000000e+03 4.430666732788085938e+01 1.988721656799316406e+01 -1.942590117454528809e+00 6.422143936157226562e+00 1.343866109848022461e+00 2.324850320816040039e+00
2.661000000000000000e+03 4.498579025268554688e+01 1.833571434020996094e+01 -8.585227131843566895e-01 7.980955123901367188e+00 2.136729717254638672e+00 2.087351560592651367e+00
2.662000000000000000e+03 7.358036041259765625e+01 7.373584747314453125e+00 7.986743003129959106e-02 7.630806922912597656e+00 2.313202381134033203e+00 -1.736526787281036377e-01
2.663000000000000000e+03 6.453687286376953125e+01 2.472596359252929688e+01 1.252251386642456055e+00 5.499353885650634766e+00 2.025481700897216797e+00 1.926172375679016113e+00
2.664000000000000000e+03 7.422212219238281250e+01 -2.817477226257324219e+01 -5.455548167228698730e-01 6.803957939147949219e+00 1.877520918846130371e+00 8.371559381484985352e-01
2.665000000000000000e+03 3.466544342041015625e+01 -3.115814590454101562e+01 7.202315330505371094e-01 4.965728521347045898e-01 3.650413155555725098e-01 1.521847397089004517e-01
2.666000000000000000e+03 6.745638275146484375e+01 3.100339889526367188e+00 4.278327524662017822e-01 2.017546415328979492e+00 7.336137890815734863e-01 1.950569748878479004e+00
2.667000000000000000e+03 6.914633178710937500e+01 -3.049796676635742188e+01 2.482523202896118164e+00 4.183490276336669922e+00 1.999804019927978516e+00 -1.353516697883605957e+00
2.668000000000000000e+03 5.409327316284179688e+01 1.639302492141723633e+00 -1.103235006332397461e+00 4.573575973510742188e+00 1.041102409362792969e+00 2.478104591369628906e+00
2.669000000000000000e+03 5.401910018920898438e+01 2.874515295028686523e+00 -3.639999032020568848e-01 4.680785655975341797e+00 1.295035719871520996e+00 2.400731086730957031e+00
2.670000000000000000e+03 1.283112716674804688e+01 -2.750510025024414062e+01 6.488360762596130371e-01 9.466924667358398438e-01 4.786585867404937744e-01 4.187355637550354004e-01
2.671000000000000000e+03 3.061641502380371094e+01 1.399616050720214844e+01 -2.141726970672607422e+00 1.997294902801513672e+00 -4.332960024476051331e-02 2.032222270965576172e+00
2.672000000000000000e+03 6.351514434814453125e+01 2.254307746887207031e+01 -1.357525825500488281e+00 5.485899925231933594e+00 1.238512158393859863e+00 3.356722116470336914e+00
2.673000000000000000e+03 6.463754272460937500e+01 2.376745033264160156e+01 4.459191262722015381e-01 4.747056007385253906e+00 1.557892560958862305e+00 1.804231643676757812e+00
2.674000000000000000e+03 3.552103805541992188e+01 1.973887062072753906e+01 6.460841745138168335e-02 4.088103294372558594e+00 1.245813608169555664e+00 -1.943039417266845703e+00
2.675000000000000000e+03 3.443769073486328125e+01 1.845735740661621094e+01 3.767673671245574951e-01 3.785399436950683594e+00 1.248650074005126953e+00 -1.409700155258178711e+00
2.676000000000000000e+03 5.946575546264648438e+01 -1.314432621002197266e+01 -4.281391203403472900e-01 4.945719718933105469e+00 1.355274200439453125e+00 6.761930584907531738e-01
2.677000000000000000e+03 6.008530426025390625e+01 -1.189314746856689453e+01 -7.940285205841064453e-01 5.502201557159423828e+00 1.412451863288879395e+00 1.652203440666198730e+00
2.678000000000000000e+03 5.266936111450195312e+01 4.278195858001708984e+00 1.975197046995162964e-01 4.550289630889892578e+00 1.424342751502990723e+00 3.476266860961914062e+00
2.679000000000000000e+03 5.109634017944335938e+01 -7.329452037811279297e+00 2.336057901382446289e+00 8.116703033447265625e+00 3.135828256607055664e+00 -2.447585463523864746e-01
2.680000000000000000e+03 1.487041568756103516e+01 -7.223769187927246094e+00 -2.863655798137187958e-02 9.955142438411712646e-02 2.127445861697196960e-02 1.482691429555416107e-02
2.681000000000000000e+03 1.254380607604980469e+01 -8.390694618225097656e+00 -5.393497273325920105e-02 5.722595006227493286e-02 9.872927330434322357e-04 -8.168119937181472778e-02
2.682000000000000000e+03 7.074571990966796875e+01 2.129026412963867188e+01 -1.415255069732666016e+00 4.548119068145751953e+00 9.398591518402099609e-01 -1.283692359924316406e+00
2.683000000000000000e+03 7.173147583007812500e+01 2.209524536132812500e+01 -1.209252715110778809e+00 5.488279342651367188e+00 1.283707976341247559e+00 -1.254250764846801758e+00
2.684000000000000000e+03 1.882382202148437500e+01 -2.112044334411621094e+01 1.030856847763061523e+00 1.795566640794277191e-02 3.146437704563140869e-01 4.922024309635162354e-01
2.685000000000000000e+03 1.773546600341796875e+01 -2.039990234375000000e+01 7.352849841117858887e-01 1.183830425143241882e-01 2.561004161834716797e-01 4.346382617950439453e-01
2.686000000000000000e+03 1.117262077331542969e+01 -9.697733879089355469e+00 -5.578956753015518188e-02 5.407482851296663284e-03 -1.511462591588497162e-02 -1.212469935417175293e-01
2.687000000000000000e+03 1.001647949218750000e+01 -2.707784271240234375e+01 3.960736393928527832e-01 4.426830708980560303e-01 2.516269981861114502e-01 6.697271764278411865e-02
2.688000000000000000e+03 5.778734588623046875e+01 1.480681896209716797e+01 1.759239315986633301e+00 7.761792182922363281e+00 2.856309413909912109e+00 1.276682376861572266e+00
2.689000000000000000e+03 5.943657302856445312e+01 1.382334136962890625e+01 1.299163937568664551e+00 9.471880912780761719e+00 3.231313467025756836e+00 1.508652210235595703e+00
2.690000000000000000e+03 5.498166275024414062e+01 5.511588096618652344e+00 5.472531318664550781e-01 6.714770317077636719e+00 2.178606986999511719e+00 1.103485226631164551e+00
2.691000000000000000e+03 2.927758216857910156e+01 -3.349424743652343750e+01 1.909797340631484985e-01 2.499919414520263672e+00 8.072697520256042480e-01 -2.066260576248168945e-01
2.692000000000000000e+03 2.975091361999511719e+01 -3.196897506713867188e+01 -8.418858051300048828e-02 2.581862449645996094e+00 7.493021488189697266e-01 -3.995893597602844238e-01
2.693000000000000000e+03 5.717560195922851562e+01 -1.602523231506347656e+01 -2.075069248676300049e-01 6.350276947021484375e+00 1.842831015586853027e+00 -7.160553336143493652e-01
2.694000000000000000e+03 5.736769485473632812e+01 -1.187964248657226562e+01 5.176495313644409180e-01 2.270502567291259766e+00 8.364456295967102051e-01 -1.001446723937988281e+00
2.695000000000000000e+03 5.267901992797851562e+01 -2.748644065856933594e+01 -2.995223402976989746e-01 3.676399707794189453e+00 1.013063192367553711e+00 1.257215857505798340e+00
2.696000000000000000e+03 4.866019058227539062e+01 2.615464591979980469e+01 2.268261194229125977e+00 6.254387855529785156e+00 2.556794643402099609e+00 8.792524337768554688e-01
2.697000000000000000e+03 1.686830520629882812e+01 -1.388612651824951172e+01 -1.729834079742431641e-01 3.315308094024658203e-01 4.756422340869903564e-02 -1.452334821224212646e-01
2.698000000000000000e+03 4.992509078979492188e+01 1.848926067352294922e+00 9.013868570327758789e-01 3.392561912536621094e+00 1.288184642791748047e+00 8.797907829284667969e-02
2.699000000000000000e+03 4.994480895996093750e+01 3.697458505630493164e+00 7.743796110153198242e-01 1.488272547721862793e+00 6.787956357002258301e-01 7.980022430419921875e-01
2.700000000000000000e+03 4.011316299438476562e+01 9.306924343109130859e-01 1.999061703681945801e+00 6.267130374908447266e+00 2.479857683181762695e+00 1.515846252441406250e+00
2.701000000000000000e+03 6.423938751220703125e+01 -9.041487693786621094e+00 1.020963430404663086e+00 8.192110061645507812e+00 2.763922214508056641e+00 -1.647392511367797852e-01
2.702000000000000000e+03 6.454212188720703125e+01 -1.481853389739990234e+01 -1.693920731544494629e+00 5.305627346038818359e+00 1.083512067794799805e+00 5.704631209373474121e-01
2.703000000000000000e+03 5.803897857666015625e+01 9.352313995361328125e+00 1.260361313819885254e+00 7.510583400726318359e+00 2.631283521652221680e+00 8.273108005523681641e-01
2.704000000000000000e+03 5.598726272583007812e+00 -9.068154335021972656e+00 -8.669961243867874146e-03 -1.037324666976928711e-01 -3.372072800993919373e-02 -4.379390925168991089e-02
2.705000000000000000e+03 5.766386032104492188e+01 -2.565188980102539062e+01 -1.536125540733337402e+00 6.566495895385742188e+00 1.509111046791076660e+00 1.856707096099853516e+00
2.706000000000000000e+03 4.848436737060546875e+01 -2.719334220886230469e+01 -1.271837115287780762e+00 4.681906700134277344e+00 1.023020863533020020e+00 -3.139298677444458008e+00
2.707000000000000000e+03 7.148913574218750000e+01 6.937830924987792969e+00 -1.393404006958007812e-01 6.197320938110351562e+00 1.817394137382507324e+00 1.296205878257751465e+00
2.708000000000000000e+03 6.894753265380859375e+01 3.739781618118286133e+00 3.914914727210998535e-01 2.377458095550537109e+00 8.306849002838134766e-01 2.159318923950195312e+00
2.709000000000000000e+03 5.439137649536132812e+01 1.775678443908691406e+01 -2.996065616607666016e-01 4.481482982635498047e+00 1.254562973976135254e+00 -1.419543623924255371e+00
2.710000000000000000e+03 6.112298202514648438e+01 -1.266251087188720703e+01 -1.126385569572448730e+00 6.261384963989257812e+00 1.540499806404113770e+00 1.100534439086914062e+00
2.711000000000000000e+03 1.439919376373291016e+01 -2.660960769653320312e+01 7.430324554443359375e-01 1.042875409126281738e+00 5.357723832130432129e-01 5.813427567481994629e-01
2.712000000000000000e+03 7.148924255371093750e+01 2.036169242858886719e+01 -1.778407931327819824e+00 5.720674991607666016e+00 1.182680130004882812e+00 -1.269735574722290039e+00
2.713000000000000000e+03 5.207707595825195312e+01 -1.158675098419189453e+01 1.011659145355224609e+00 4.572954177856445312e+00 1.675383925437927246e+00 -2.405657291412353516e+00
2.714000000000000000e+03 5.494466400146484375e+01 -1.211543846130371094e+01 1.309795528650283813e-01 3.722801208496093750e+00 1.156134247779846191e+00 -3.063773632049560547e+00
2.715000000000000000e+03 5.369781112670898438e+01 -2.807868003845214844e+01 -2.954204678535461426e-01 4.869785308837890625e+00 1.372309446334838867e+00 1.443072319030761719e+00
2.716000000000000000e+03 6.467418670654296875e+01 4.849459648132324219e+00 -3.956631124019622803e-01 1.736733555793762207e+00 4.023211300373077393e-01 -4.573400914669036865e-01
2.717000000000000000e+03 6.224644851684570312e+01 5.021281242370605469e+00 -7.814406156539916992e-01 3.975178003311157227e+00 9.581211805343627930e-01 -1.670933127403259277e+00
2.718000000000000000e+03 5.650791549682617188e+01 -2.568975257873535156e+01 -2.285346031188964844e+00 7.624830245971679688e+00 1.601845264434814453e+00 1.747864365577697754e+00
2.719000000000000000e+03 5.097331237792968750e+01 2.909214782714843750e+01 1.776867151260375977e+00 6.601337432861328125e+00 2.513461351394653320e+00 8.688443899154663086e-01
2.720000000000000000e+03 5.058976364135742188e+01 -1.427407264709472656e+01 -1.219786405563354492e+00 2.601424694061279297e+00 4.144915044307708740e-01 -6.407189965248107910e-01
2.721000000000000000e+03 5.123322677612304688e+01 -1.235892486572265625e+01 4.953006207942962646e-01 4.222977638244628906e+00 1.415483474731445312e+00 -1.533430099487304688e+00
2.722000000000000000e+03 4.484152603149414062e+01 3.631102752685546875e+01 -1.200158953666687012e+00 3.320741415023803711e+00 6.361747384071350098e-01 -1.086078405380249023e+00
2.723000000000000000e+03 4.415465164184570312e+01 3.839700698852539062e+01 -1.024153947830200195e+00 2.987564325332641602e+00 5.890231132507324219e-01 -7.731084823608398438e-01
2.724000000000000000e+03 8.372871398925781250e+00 7.777057647705078125e+00 -2.771399915218353271e-01 -1.152488514780998230e-01 -1.177166551351547241e-01 2.281685173511505127e-01
2.725000000000000000e+03 7.697215557098388672e+00 -2.455049705505371094e+01 6.376160681247711182e-02 2.187073230743408203e-01 8.474068343639373779e-02 -2.154537588357925415e-01
2.726000000000000000e+03 1.541010189056396484e+01 -2.420053291320800781e+01 2.279704809188842773e-01 8.195258975028991699e-01 3.142489194869995117e-01 6.613162159919738770e-01
2.727000000000000000e+03 6.764296722412109375e+01 -1.467200565338134766e+01 -7.127946615219116211e-01 8.761506080627441406e-01 4.900679364800453186e-02 -8.377308249473571777e-01
2.728000000000000000e+03 7.634265899658203125e+01 3.937682723999023438e+01 -1.081267893314361572e-01 7.360676765441894531e+00 2.175765037536621094e+00 1.892538219690322876e-01
2.729000000000000000e+03 7.419207763671875000e+01 3.901742935180664062e+01 -1.935529112815856934e-01 6.533580303192138672e+00 1.902008295059204102e+00 2.491754889488220215e-01
2.730000000000000000e+03 3.299739074707031250e+01 2.865331649780273438e+01 1.178420662879943848e+00 5.586264133453369141e+00 2.029405355453491211e+00 -1.130133390426635742e+00
2.731000000000000000e+03 3.002381324768066406e+01 -2.939631080627441406e+01 -1.165221929550170898e+00 2.885740756988525391e+00 5.161556005477905273e-01 -6.624642610549926758e-01
2.732000000000000000e+03 6.177966690063476562e+01 5.900527000427246094e+00 -6.255372166633605957e-01 3.875026464462280273e+00 9.748467206954956055e-01 -1.665153861045837402e+00
2.733000000000000000e+03 5.917733001708984375e+01 6.037163257598876953e+00 1.201864853501319885e-01 5.545345783233642578e+00 1.699659705162048340e+00 -1.351329684257507324e+00
2.734000000000000000e+03 5.693692016601562500e+01 7.818519592285156250e+00 1.561542749404907227e+00 7.452822208404541016e+00 2.704309463500976562e+00 5.112376213073730469e-01
2.735000000000000000e+03 4.473425674438476562e+01 3.539574444293975830e-01 1.740767240524291992e+00 3.776927471160888672e+00 1.655308365821838379e+00 -2.514073610305786133e+00
2.736000000000000000e+03 4.454547119140625000e+01 -1.856882214546203613e+00 1.068572521209716797e+00 3.079863786697387695e+00 1.244530916213989258e+00 -2.605005741119384766e+00
2.737000000000000000e+03 4.303575134277343750e+01 -2.311082077026367188e+01 2.391563892364501953e+00 4.016942977905273438e+00 1.922551989555358887e+00 9.373603463172912598e-01
2.738000000000000000e+03 2.247902679443359375e+01 1.534650230407714844e+01 -5.837993621826171875e-01 2.658088207244873047e+00 6.222866177558898926e-01 -6.919386982917785645e-01
2.739000000000000000e+03 1.932208442687988281e+01 3.415578079223632812e+01 -2.561280727386474609e-01 1.932311892509460449e+00 5.028551220893859863e-01 -2.948715984821319580e-01
2.740000000000000000e+03 5.085216903686523438e+01 3.060823440551757812e+01 1.301296591758728027e+00 6.865221500396728516e+00 2.449955463409423828e+00 8.414302468299865723e-01
2.741000000000000000e+03 5.183327484130859375e+01 3.512703704833984375e+01 -8.194209933280944824e-01 6.174983978271484375e+00 1.606668949127197266e+00 3.618305921554565430e-01
2.742000000000000000e+03 1.386823081970214844e+01 -7.264082431793212891e+00 -2.658422291278839111e-02 8.397685736417770386e-02 1.721779070794582367e-02 -3.733485937118530273e-02
2.743000000000000000e+03 5.279000473022460938e+01 -1.069693565368652344e+01 1.047042846679687500e+00 4.886882305145263672e+00 1.780177474021911621e+00 -2.276800155639648438e+00
2.744000000000000000e+03 5.188048934936523438e+01 -1.008533287048339844e+01 1.928782463073730469e+00 5.464070796966552734e+00 2.217855930328369141e+00 -1.655650258064270020e+00
2.745000000000000000e+03 6.892272186279296875e+01 -1.421093559265136719e+01 -4.158633947372436523e-01 4.439941346645355225e-01 8.439216762781143188e-03 -1.701057434082031250e+00
2.746000000000000000e+03 7.249451446533203125e+01 2.132509231567382812e+01 -1.382437825202941895e+00 6.219905376434326172e+00 1.451240181922912598e+00 -7.571259737014770508e-01
2.747000000000000000e+03 5.514716339111328125e+01 1.710683441162109375e+01 2.150157094001770020e-01 4.976890563964843750e+00 1.557571887969970703e+00 -1.151862859725952148e+00
2.748000000000000000e+03 5.590106582641601562e+01 1.776642417907714844e+01 2.651460170745849609e-01 5.017982482910156250e+00 1.584938526153564453e+00 -1.035178422927856445e+00
2.749000000000000000e+03 3.394739913940429688e+01 1.522652339935302734e+01 -6.094766855239868164e-01 1.826070547103881836e+00 3.649781644344329834e-01 -8.460997343063354492e-01
2.750000000000000000e+03 5.738262176513671875e+01 1.102969741821289062e+01 1.560630798339843750e+00 8.319414138793945312e+00 2.964013338088989258e+00 1.499309897422790527e+00
2.751000000000000000e+03 4.701303482055664062e+01 -2.175317764282226562e+00 1.095449686050415039e+00 4.792486190795898438e+00 1.766380786895751953e+00 -2.413662672042846680e+00
2.752000000000000000e+03 2.405170440673828125e+01 -2.618877983093261719e+01 -6.911800503730773926e-01 2.248987913131713867e+00 4.673423767089843750e-01 3.710150420665740967e-01
2.753000000000000000e+03 2.484030723571777344e+01 -2.711945152282714844e+01 -1.326170206069946289e+00 3.011396169662475586e+00 5.055677294731140137e-01 4.798897504806518555e-01
2.754000000000000000e+03 4.832825088500976562e+01 -4.047188758850097656e+00 1.244594097137451172e+00 6.745099067687988281e+00 2.396907806396484375e+00 -1.533411622047424316e+00
2.755000000000000000e+03 4.997674560546875000e+01 -4.308582305908203125e+00 1.713851690292358398e+00 7.627524852752685547e+00 2.802412986755371094e+00 -6.024523973464965820e-01
2.756000000000000000e+03 6.854765319824218750e+01 3.671630477905273438e+01 -4.472284018993377686e-01 5.485447883605957031e+00 1.511465907096862793e+00 3.691147565841674805e-01
2.757000000000000000e+03 6.259207153320312500e+01 4.114285659790039062e+01 -2.308978289365768433e-01 2.661116361618041992e+00 7.290655374526977539e-01 -2.363312989473342896e-01
2.758000000000000000e+03 1.191771984100341797e+01 -9.116319656372070312e+00 -8.018834888935089111e-02 3.631955385208129883e-02 -1.316063851118087769e-02 -1.030836030840873718e-01
2.759000000000000000e+03 3.817408370971679688e+01 1.884690475463867188e+01 1.796793788671493530e-01 2.488513469696044922e+00 8.004578351974487305e-01 -2.735334396362304688e+00
2.760000000000000000e+03 3.676314544677734375e+01 1.998056602478027344e+01 -1.501817256212234497e-01 3.259974479675292969e+00 9.329378604888916016e-01 -2.310295820236206055e+00
2.761000000000000000e+03 6.855685424804687500e+01 2.851229095458984375e+01 1.545741677284240723e+00 4.467591285705566406e+00 1.803999900817871094e+00 5.687549114227294922e-01
2.762000000000000000e+03 6.939656829833984375e+01 2.942091369628906250e+01 1.260920524597167969e+00 5.003705978393554688e+00 1.879387974739074707e+00 4.812594652175903320e-01
2.763000000000000000e+03 6.824396514892578125e+01 -3.018748474121093750e+01 2.417007923126220703e+00 5.453093051910400391e+00 2.361030340194702148e+00 -1.731423497200012207e+00
2.764000000000000000e+03 6.429701995849609375e+01 -1.151470947265625000e+01 -8.543635010719299316e-01 6.900403022766113281e+00 1.813811898231506348e+00 3.344068229198455811e-01
2.765000000000000000e+03 5.501113414764404297e+00 -1.185583972930908203e+01 -8.796095848083496094e-02 -1.274264901876449585e-01 -6.461623311042785645e-02 -6.516445428133010864e-02
2.766000000000000000e+03 4.149133300781250000e+01 -1.876173591613769531e+01 1.662028312683105469e+00 4.035388469696044922e+00 1.709224939346313477e+00 -6.758990287780761719e-01
2.767000000000000000e+03 2.763836860656738281e+01 -1.769469642639160156e+01 7.317218184471130371e-01 5.199616909027099609e+00 1.779401659965515137e+00 1.041863441467285156e+00
2.768000000000000000e+03 2.834336280822753906e+01 -1.686048126220703125e+01 1.822983324527740479e-01 5.753142356872558594e+00 1.780632138252258301e+00 1.447529435157775879e+00
2.769000000000000000e+03 1.931121253967285156e+01 2.233073806762695312e+01 5.989503860473632812e-01 1.860800027847290039e+00 7.379251122474670410e-01 1.008607670664787292e-01
2.770000000000000000e+03 5.716714382171630859e+00 2.238847351074218750e+01 1.765560656785964966e-01 1.020239517092704773e-01 8.357400447130203247e-02 -5.692418292164802551e-02
2.771000000000000000e+03 2.112304115295410156e+01 3.697061538696289062e+01 -3.241883814334869385e-01 1.879146099090576172e+00 4.664873182773590088e-01 -1.875359863042831421e-01
2.772000000000000000e+03 1.648812675476074219e+01 4.087272262573242188e+01 -1.895633935928344727e-01 8.652444481849670410e-01 2.027043253183364868e-01 -7.544074952602386475e-02
2.773000000000000000e+03 2.785418891906738281e+01 -2.772554016113281250e+01 -1.572069644927978516e+00 4.204948902130126953e+00 7.898637652397155762e-01 2.009771168231964111e-01
2.774000000000000000e+03 4.358598327636718750e+01 4.451555728912353516e+00 2.093291044235229492e+00 5.674292564392089844e+00 2.330275058746337891e+00 -1.130241632461547852e+00
2.775000000000000000e+03 4.177822875976562500e+01 2.714243888854980469e+00 3.150207519531250000e+00 7.212835311889648438e+00 3.108912944793701172e+00 -4.661990702152252197e-01
2.776000000000000000e+03 6.116168594360351562e+01 -2.021594429016113281e+01 2.498494386672973633e+00 5.457545280456542969e+00 2.386811733245849609e+00 -1.203213810920715332e+00
2.777000000000000000e+03 1.226958179473876953e+01 -2.594062423706054688e+01 4.351068735122680664e-01 6.433907747268676758e-01 3.235493004322052002e-01 2.667558789253234863e-01
2.778000000000000000e+03 1.007395744323730469e+01 -2.578134155273437500e+01 3.427415192127227783e-01 3.197109997272491455e-01 1.987357586622238159e-01 -9.301700629293918610e-03
2.779000000000000000e+03 3.848587799072265625e+01 1.426741695404052734e+01 2.161526232957839966e-01 3.930513143539428711e+00 1.243999719619750977e+00 -1.863741517066955566e+00
2.780000000000000000e+03 1.951494407653808594e+01 -1.595503711700439453e+01 1.214558407664299011e-01 4.021260514855384827e-02 4.850053414702415466e-02 -3.042914867401123047e-01
2.781000000000000000e+03 2.284308624267578125e+01 -1.944076347351074219e+01 1.521246194839477539e+00 8.342318534851074219e-01 7.066434025764465332e-01 3.460485339164733887e-01
2.782000000000000000e+03 4.441878890991210938e+01 4.753451824188232422e+00 1.591189146041870117e+00 5.041179180145263672e+00 1.989710450172424316e+00 -1.026915669441223145e+00
2.783000000000000000e+03 6.729353332519531250e+01 -3.147183990478515625e+01 2.684798955917358398e+00 7.405647754669189453e+00 3.027133941650390625e+00 -2.714479923248291016e+00
2.784000000000000000e+03 6.841378021240234375e+01 -3.113529586791992188e+01 2.392331600189208984e+00 5.558160305023193359e+00 2.385147571563720703e+00 -1.582732677459716797e+00
2.785000000000000000e+03 5.327648925781250000e+01 2.324498176574707031e+01 -7.511784434318542480e-01 5.020014286041259766e+00 1.280650854110717773e+00 -1.837915301322937012e+00
2.786000000000000000e+03 4.893213653564453125e+01 2.861942672729492188e+01 1.675444245338439941e+00 6.793712139129638672e+00 2.540746927261352539e+00 9.547322988510131836e-01
2.787000000000000000e+03 2.318981361389160156e+01 1.117269992828369141e+01 1.532827019691467285e-01 1.568596601486206055e+00 5.165637731552124023e-01 -1.696121454238891602e+00
2.788000000000000000e+03 2.301103210449218750e+01 1.005598449707031250e+01 4.911198914051055908e-01 1.095239996910095215e+00 4.759079813957214355e-01 -1.512844204902648926e+00
2.789000000000000000e+03 1.374658870697021484e+01 -2.499763107299804688e+01 3.102558851242065430e-01 7.445395588874816895e-01 3.164386153221130371e-01 4.510486125946044922e-01
2.790000000000000000e+03 1.137409591674804688e+01 -3.006767272949218750e+01 6.233263611793518066e-01 1.009162068367004395e+00 4.897465407848358154e-01 3.798738420009613037e-01
2.791000000000000000e+03 6.471024990081787109e+00 -3.050383377075195312e+01 2.683199644088745117e-01 1.336276829242706299e-01 1.205842941999435425e-01 1.900373399257659912e-01
2.792000000000000000e+03 2.627615928649902344e+01 -2.141498184204101562e+01 1.827333927154541016e+00 4.373043060302734375e+00 1.860113024711608887e+00 8.075178265571594238e-01
2.793000000000000000e+03 5.529945755004882812e+01 -1.461303424835205078e+01 -8.634309172630310059e-01 5.211153507232666016e+00 1.304316759109497070e+00 -2.257004022598266602e+00
2.794000000000000000e+03 5.620606994628906250e+01 -1.534805297851562500e+01 -4.499045908451080322e-01 5.901089191436767578e+00 1.635355353355407715e+00 -1.723457932472229004e+00
2.795000000000000000e+03 6.560337829589843750e+01 -1.425669193267822266e+01 -1.410218238830566406e+00 4.147058010101318359e+00 8.210519552230834961e-01 2.058109939098358154e-01
2.796000000000000000e+03 2.650721740722656250e+01 -1.563548088073730469e+01 -2.296116054058074951e-01 3.430295228958129883e+00 9.602051377296447754e-01 1.205043435096740723e+00
2.797000000000000000e+03 7.737888336181640625e+00 1.256781291961669922e+01 1.713423430919647217e-02 -2.196242287755012512e-02 -1.448456430807709694e-03 3.821575045585632324e-01
2.798000000000000000e+03 4.975706100463867188e+00 1.531213760375976562e+01 9.714474529027938843e-02 -2.406169176101684570e-01 -4.304165393114089966e-02 2.985150218009948730e-01
2.799000000000000000e+03 4.086015701293945312e+01 1.286055564880371094e+01 4.676829576492309570e-01 7.039035320281982422e+00 2.252015590667724609e+00 2.262610644102096558e-01
2.800000000000000000e+03 5.822079849243164062e+01 -2.057395172119140625e+01 2.575209617614746094e+00 6.115454673767089844e+00 2.607199430465698242e+00 1.717700511217117310e-01
2.801000000000000000e+03 2.364704895019531250e+01 1.379951095581054688e+01 -5.245639681816101074e-01 2.003127574920654297e+00 4.435690343379974365e-01 -1.489557147026062012e+00
2.802000000000000000e+03 3.967340469360351562e+01 1.296012687683105469e+01 2.217206805944442749e-01 5.778926849365234375e+00 1.800194263458251953e+00 -7.312678098678588867e-01
2.803000000000000000e+03 5.669029235839843750e+01 1.530629730224609375e+01 1.362010836601257324e+00 6.937523841857910156e+00 2.489860534667968750e+00 4.103603661060333252e-01
2.804000000000000000e+03 3.557254409790039062e+01 -1.152016067504882812e+01 1.082634687423706055e+00 4.398488998413085938e+00 1.644337058067321777e+00 -7.536936551332473755e-02
2.805000000000000000e+03 3.979204177856445312e+01 3.935729980468750000e+01 -4.103107452392578125e-01 1.446130394935607910e+00 3.107458651065826416e-01 9.864270687103271484e-03
2.806000000000000000e+03 4.311864852905273438e+01 3.539057922363281250e+01 -1.338181257247924805e+00 2.128706693649291992e+00 2.371576577425003052e-01 -1.007138967514038086e+00
2.807000000000000000e+03 5.347756958007812500e+01 -3.163642883300781250e+01 2.823893070220947266e+00 6.695759296417236328e+00 2.855895757675170898e+00 2.459588050842285156e-01
2.808000000000000000e+03 5.419577407836914062e+01 -2.992281341552734375e+01 1.563876748085021973e+00 6.323189258575439453e+00 2.366119861602783203e+00 8.453770279884338379e-01
2.809000000000000000e+03 4.960942840576171875e+01 -3.556633710861206055e+00 1.431937813758850098e+00 7.097385883331298828e+00 2.558797121047973633e+00 -9.736734032630920410e-01
2.810000000000000000e+03 2.687504577636718750e+01 1.229972362518310547e+01 -6.476001739501953125e-01 1.640121579170227051e+00 2.977564334869384766e-01 -1.165944457054138184e+00
2.811000000000000000e+03 5.021475601196289062e+01 -1.026121520996093750e+01 2.375107526779174805e+00 6.939033985137939453e+00 2.794242382049560547e+00 -4.922041893005371094e-01
2.812000000000000000e+03 1.811793708801269531e+01 -2.382235908508300781e+01 5.631859898567199707e-01 1.422697454690933228e-01 2.116367220878601074e-01 1.093752622604370117e+00
2.813000000000000000e+03 5.594939422607421875e+01 -3.919831848144531250e+01 -2.674386024475097656e+00 6.362346649169921875e+00 1.106388211250305176e+00 -9.103875160217285156e-01
2.814000000000000000e+03 5.245806884765625000e+01 -2.885503005981445312e+01 1.270609378814697266e+00 4.546048641204833984e+00 1.744997501373291016e+00 1.249816417694091797e-01
2.815000000000000000e+03 7.478639221191406250e+01 1.778546905517578125e+01 -6.560505628585815430e-01 7.994271755218505859e+00 2.201466321945190430e+00 8.302558660507202148e-01
2.816000000000000000e+03 7.401335906982421875e+01 2.009059524536132812e+01 -1.434082746505737305e+00 7.264424324035644531e+00 1.749102473258972168e+00 -1.769852042198181152e-01
2.817000000000000000e+03 4.166056060791015625e+01 1.854354667663574219e+01 4.059292674064636230e-01 3.277595281600952148e+00 1.105057358741760254e+00 -5.346268415451049805e-01
2.818000000000000000e+03 4.913544464111328125e+01 -4.336658477783203125e+00 1.413842916488647461e+00 6.953240394592285156e+00 2.510124921798706055e+00 -8.873727917671203613e-01
2.819000000000000000e+03 6.270124435424804688e+01 -1.109077739715576172e+01 -9.839908480644226074e-01 7.352770805358886719e+00 1.910633921623229980e+00 9.894186258316040039e-01
2.820000000000000000e+03 4.333647537231445312e+01 -1.647166633605957031e+01 -1.781761646270751953e-01 2.686177730560302734e+00 7.524004578590393066e-01 3.237137198448181152e-01
2.821000000000000000e+03 1.388111400604248047e+01 2.081167411804199219e+01 7.334523797035217285e-01 2.988164871931076050e-02 2.290002107620239258e-01 5.800172314047813416e-02
2.822000000000000000e+03 5.974680709838867188e+01 1.880194282531738281e+01 1.276628017425537109e+00 6.911459445953369141e+00 2.456426143646240234e+00 1.448387384414672852e+00
2.823000000000000000e+03 5.983214950561523438e+01 1.991910552978515625e+01 3.108133971691131592e-01 5.721606731414794922e+00 1.809726119041442871e+00 1.352833271026611328e+00
2.824000000000000000e+03 3.765212249755859375e+01 1.586392498016357422e+01 5.575793385505676270e-01 2.851750612258911133e+00 1.022799015045166016e+00 -2.414266109466552734e+00
2.825000000000000000e+03 6.258380889892578125e+00 1.758373641967773438e+01 1.683172434568405151e-01 -7.388031482696533203e-02 2.833107858896255493e-02 1.754316836595535278e-01
2.826000000000000000e+03 8.049335479736328125e+00 1.759064865112304688e+01 2.773917317390441895e-01 1.501292735338211060e-01 1.282563060522079468e-01 1.412899047136306763e-01
2.827000000000000000e+03 3.581972122192382812e+01 -3.037468719482421875e+01 6.216838955879211426e-01 1.072955727577209473e+00 5.083919167518615723e-01 9.255287647247314453e-01
2.828000000000000000e+03 3.221231079101562500e+01 4.104389190673828125e+01 -9.722775816917419434e-01 2.786037445068359375e+00 5.441280007362365723e-01 -5.618824064731597900e-02
2.829000000000000000e+03 1.871113586425781250e+01 -1.765825462341308594e+01 5.622568726539611816e-01 8.655352145433425903e-02 1.946431249380111694e-01 -1.791888326406478882e-01
2.830000000000000000e+03 7.580289840698242188e+00 -2.874232673645019531e+01 3.190976381301879883e-01 2.331055104732513428e-01 1.656609475612640381e-01 7.228638976812362671e-02
2.831000000000000000e+03 9.326292037963867188e+00 -3.231714630126953125e+01 3.637773692607879639e-01 6.150558590888977051e-01 2.936499714851379395e-01 3.999217450618743896e-01
2.832000000000000000e+03 5.844437789916992188e+01 1.580371761322021484e+01 1.882611989974975586e+00 7.731044769287109375e+00 2.884096860885620117e+00 1.349088311195373535e+00
2.833000000000000000e+03 5.736256790161132812e+01 1.392166519165039062e+01 1.415368080139160156e+00 7.898138999938964844e+00 2.794052124023437500e+00 1.156295537948608398e+00
2.834000000000000000e+03 7.094986915588378906e+00 1.833071327209472656e+01 2.064225226640701294e-01 7.330254465341567993e-02 8.391752094030380249e-02 9.206352382898330688e-02
2.835000000000000000e+03 7.477177429199218750e+01 1.081363868713378906e+01 1.562829852104187012e+00 8.659761428833007812e+00 3.066777467727661133e+00 -1.294709295034408569e-01
2.836000000000000000e+03 3.263297653198242188e+01 -3.190664768218994141e+00 2.401358038187026978e-01 5.778934478759765625e+00 1.805721163749694824e+00 2.231112241744995117e+00
2.837000000000000000e+03 3.198023605346679688e+01 -3.896876811981201172e+00 4.374960362911224365e-01 4.152675628662109375e+00 1.377051472663879395e+00 1.736973524093627930e+00
2.838000000000000000e+03 3.531929779052734375e+01 -1.467099070549011230e+00 4.843754768371582031e+00 6.206193923950195312e+00 3.314984560012817383e+00 -6.236667633056640625e-01
2.839000000000000000e+03 3.765971374511718750e+01 -2.970145225524902344e+00 9.584128856658935547e-01 5.743146896362304688e+00 2.010468006134033203e+00 1.903151154518127441e+00
2.840000000000000000e+03 3.577551269531250000e+01 -1.796052217483520508e+00 3.681913137435913086e+00 5.938076972961425781e+00 2.885997056961059570e+00 3.210937082767486572e-01
2.841000000000000000e+03 3.354341506958007812e+01 -2.781847953796386719e+00 -1.662033796310424805e-01 8.765748023986816406e+00 2.579863309860229492e+00 1.427588820457458496e+00
2.842000000000000000e+03 3.543164062500000000e+01 -2.214992046356201172e+00 2.602127790451049805e+00 7.302072048187255859e+00 2.971259832382202148e+00 -4.407002627849578857e-01
2.843000000000000000e+03 3.495334625244140625e+01 -2.231999397277832031e+00 2.188742160797119141e+00 8.194097518920898438e+00 3.114851951599121094e+00 -8.651599884033203125e-01
2.844000000000000000e+03 3.154380035400390625e+01 -3.525568485260009766e+00 5.501585006713867188e-01 2.953524827957153320e+00 1.051105022430419922e+00 1.541424870491027832e+00
2.845000000000000000e+03 3.236788558959960938e+01 -3.256314992904663086e+00 3.846627473831176758e-01 4.852491378784179688e+00 1.571146249771118164e+00 2.203781127929687500e+00
2.846000000000000000e+03 3.187181854248046875e+01 -3.500878810882568359e+00 5.025377869606018066e-01 3.513965606689453125e+00 1.204951047897338867e+00 1.814064621925354004e+00
2.847000000000000000e+03 3.122958374023437500e+01 -4.585331439971923828e+00 4.085758328437805176e-01 3.049821138381958008e+00 1.037519097328186035e+00 1.409666538238525391e+00
2.848000000000000000e+03 3.071956825256347656e+01 -5.374708652496337891e+00 2.472322732210159302e-01 2.947919607162475586e+00 9.585455656051635742e-01 1.199296355247497559e+00
2.849000000000000000e+03 3.132710838317871094e+01 1.950507640838623047e+00 1.570466160774230957e+00 5.353435516357421875e+00 2.077170610427856445e+00 -4.446486473083496094e+00
2.850000000000000000e+03 3.544360351562500000e+01 -6.507062911987304688e-01 6.095015048980712891e+00 3.369215011596679688e+00 2.839269161224365234e+00 1.166734218597412109e+00
2.851000000000000000e+03 3.574398040771484375e+01 8.137894421815872192e-02 4.778092384338378906e+00 1.655995488166809082e+00 1.930226325988769531e+00 3.663925170898437500e+00
2.852000000000000000e+03 3.116772651672363281e+01 -6.082880496978759766e+00 5.839698910713195801e-01 3.548247814178466797e+00 1.239665269851684570e+00 1.607689380645751953e+00
2.853000000000000000e+03 9.042021751403808594e+00 4.968964576721191406e+00 -2.335198223590850830e-01 -9.033362567424774170e-02 -9.715603291988372803e-02 1.676666438579559326e-01
2.854000000000000000e+03 9.829161643981933594e+00 4.413067817687988281e+00 -2.474484592676162720e-01 -9.136962890625000000e-02 -1.016454249620437622e-01 1.895463615655899048e-01
2.855000000000000000e+03 4.096911907196044922e+00 5.127389907836914062e+00 -8.749486505985260010e-02 -5.278846248984336853e-02 -4.208499938249588013e-02 9.050169587135314941e-02
2.856000000000000000e+03 4.963188648223876953e+00 4.203173637390136719e+00 -9.755403548479080200e-02 -3.960485383868217468e-02 -4.114766418933868408e-02 7.805118709802627563e-02
2.857000000000000000e+03 6.361345291137695312e+00 4.256548881530761719e+00 -1.446790695190429688e-01 -4.079487547278404236e-02 -5.564218014478683472e-02 1.007753089070320129e-01
2.858000000000000000e+03 5.520164489746093750e+00 5.636268138885498047e+00 -1.518067717552185059e-01 -5.401600897312164307e-02 -6.174683198332786560e-02 1.385899037122726440e-01
2.859000000000000000e+03 1.344110298156738281e+01 -3.763489007949829102e+00 -1.788871735334396362e-02 1.676605897955596447e-03 -4.863633308559656143e-03 -7.546590268611907959e-02
2.860000000000000000e+03 7.902622699737548828e+00 4.215524673461914062e+00 -1.936072856187820435e-01 -5.571253597736358643e-02 -7.479594647884368896e-02 1.251316815614700317e-01
2.861000000000000000e+03 8.168779373168945312e+00 5.548988819122314453e+00 -2.304318249225616455e-01 -7.886457443237304688e-02 -9.278891980648040771e-02 1.666329801082611084e-01
2.862000000000000000e+03 9.957540512084960938e+00 -9.081784248352050781e+00 -4.232534393668174744e-02 -6.417309492826461792e-02 -3.194953128695487976e-02 -1.162740215659141541e-01
2.863000000000000000e+03 2.582020568847656250e+01 5.355895042419433594e+00 2.584438800811767578e+00 1.080839991569519043e+00 1.099583625793457031e+00 -7.979710698127746582e-01
2.864000000000000000e+03 7.926100730895996094e+00 -5.808575153350830078e+00 -1.167019270360469818e-02 -6.474707275629043579e-02 -2.292517945170402527e-02 -7.272051274776458740e-02
2.865000000000000000e+03 7.055809497833251953e+00 -5.252287387847900391e+00 -5.011804867535829544e-03 -6.377533823251724243e-02 -2.063614316284656525e-02 -5.749321356415748596e-02
2.866000000000000000e+03 6.153438568115234375e+00 -4.492687225341796875e+00 -9.526122361421585083e-03 -4.653934389352798462e-02 -1.681963913142681122e-02 -4.598000273108482361e-02
2.867000000000000000e+03 6.301355838775634766e+00 -5.387457370758056641e+00 -7.481924723833799362e-03 -5.319473892450332642e-02 -1.820299774408340454e-02 -4.131171479821205139e-02
2.868000000000000000e+03 2.268876457214355469e+01 5.263664722442626953e+00 1.021462559700012207e+00 -5.013222098350524902e-01 1.560421139001846313e-01 5.107283219695091248e-02
2.869000000000000000e+03 2.501972007751464844e+01 4.761818885803222656e+00 1.954730391502380371e+00 1.609048545360565186e-01 6.346905827522277832e-01 -1.718864738941192627e-01
2.870000000000000000e+03 2.746538162231445312e+01 4.264366626739501953e+00 2.955541133880615234e+00 3.009331226348876953e+00 1.789461731910705566e+00 -1.046931743621826172e+00
2.871000000000000000e+03 2.570873832702636719e+01 4.613145828247070312e+00 2.335592031478881836e+00 7.873622775077819824e-01 9.368863105773925781e-01 -3.695887923240661621e-01
2.872000000000000000e+03 1.154839324951171875e+01 -4.416675567626953125e+00 -2.360562235116958618e-02 -3.017951734364032745e-02 -1.613554172217845917e-02 -7.856415212154388428e-02
2.873000000000000000e+03 1.321970558166503906e+01 -4.980853080749511719e+00 -1.265718322247266769e-02 2.282383106648921967e-02 3.049994353204965591e-03 -6.441045552492141724e-02
2.874000000000000000e+03 1.082841682434082031e+01 -4.293996810913085938e+00 -2.216072380542755127e-02 -4.325308650732040405e-02 -1.962414197623729706e-02 -8.881393820047378540e-02
2.875000000000000000e+03 1.214277076721191406e+01 -4.871483802795410156e+00 -1.447717752307653427e-02 -1.434040442109107971e-02 -8.645274676382541656e-03 -8.311883360147476196e-02
2.876000000000000000e+03 3.786131668090820312e+01 4.913159310817718506e-01 2.132802963256835938e+00 5.122747898101806641e+00 2.176665306091308594e+00 4.825753688812255859e+00
2.877000000000000000e+03 1.552591609954833984e+01 -3.307840824127197266e+00 -3.119150735437870026e-02 3.396537527441978455e-02 8.321609348058700562e-04 -3.742562979459762573e-02
2.878000000000000000e+03 5.649005889892578125e+01 1.944834709167480469e+01 -1.392263919115066528e-01 4.144263744354248047e+00 1.201511263847351074e+00 -1.638173341751098633e+00
2.879000000000000000e+03 1.192847824096679688e+01 -2.707952880859375000e+01 5.344132184982299805e-01 7.428702712059020996e-01 3.831850588321685791e-01 2.873283028602600098e-01
2.880000000000000000e+03 8.591849327087402344e+00 -5.814413547515869141e+00 -6.008197553455829620e-03 -6.325399130582809448e-02 -2.077865600585937500e-02 -7.297419756650924683e-02
2.881000000000000000e+03 1.477945995330810547e+01 -8.410277366638183594e+00 -6.148230284452438354e-02 1.538174301385879517e-01 2.770053781569004059e-02 7.531220093369483948e-03
2.882000000000000000e+03 1.310667800903320312e+01 -7.635418415069580078e+00 -5.427236482501029968e-02 7.375715672969818115e-02 5.845437292009592056e-03 -5.038556456565856934e-02
2.883000000000000000e+03 7.866196632385253906e+00 6.936693191528320312e+00 -2.600248754024505615e-01 -7.705462723970413208e-02 -1.011238545179367065e-01 1.998918503522872925e-01
2.884000000000000000e+03 4.999563598632812500e+01 -8.296443939208984375e+00 2.500149726867675781e+00 8.019964218139648438e+00 3.156033992767333984e+00 5.171936377882957458e-02
2.885000000000000000e+03 2.457192230224609375e+01 -1.624210548400878906e+01 5.233021378517150879e-01 1.534759521484375000e+00 6.174185276031494141e-01 5.642738938331604004e-01
2.886000000000000000e+03 4.155542373657226562e+01 -1.974968910217285156e+01 1.877518773078918457e+00 4.191611766815185547e+00 1.820739150047302246e+00 -6.666789054870605469e-01
2.887000000000000000e+03 4.296997070312500000e+01 -1.782743263244628906e+01 1.073440074920654297e+00 3.483474016189575195e+00 1.367074251174926758e+00 -5.779622122645378113e-02
2.888000000000000000e+03 3.438782119750976562e+01 1.745627021789550781e+01 5.042150616645812988e-01 2.931932687759399414e+00 1.030844330787658691e+00 -1.404114484786987305e+00
2.889000000000000000e+03 2.125780296325683594e+01 -1.756006813049316406e+01 9.266215562820434570e-01 8.271180838346481323e-02 3.027999997138977051e-01 -1.231229230761528015e-01
2.890000000000000000e+03 2.025343132019042969e+01 -1.910595703125000000e+01 1.085385560989379883e+00 7.666149735450744629e-02 3.486141264438629150e-01 8.852411061525344849e-02
2.891000000000000000e+03 6.881853485107421875e+01 2.454203224182128906e+01 8.208392262458801270e-01 3.137405633926391602e+00 1.187473416328430176e+00 -6.215201020240783691e-01
2.892000000000000000e+03 6.554318237304687500e+01 2.502620697021484375e+01 1.669714927673339844e+00 4.597623825073242188e+00 1.880201697349548340e+00 1.087981343269348145e+00
2.893000000000000000e+03 6.844319152832031250e+01 2.265588188171386719e+01 -6.136990785598754883e-01 2.071269512176513672e+00 4.372711479663848877e-01 -1.013476014137268066e+00
2.894000000000000000e+03 5.152433013916015625e+01 -2.862891769409179688e+01 7.667059898376464844e-01 4.762310028076171875e+00 1.658704876899719238e+00 -4.693552553653717041e-01
2.895000000000000000e+03 3.204324722290039062e+01 -7.796519279479980469e+00 1.996335387229919434e+00 4.435894966125488281e+00 1.929669141769409180e+00 2.560303211212158203e+00
2.896000000000000000e+03 3.136179542541503906e+01 -9.371241569519042969e+00 2.716543436050415039e+00 4.107744216918945312e+00 2.047286272048950195e+00 2.729879140853881836e+00
2.897000000000000000e+03 4.230722045898437500e+01 3.137216567993164062e-01 2.032507658004760742e+00 4.176659107208251953e+00 1.862750053405761719e+00 -9.248594641685485840e-01
2.898000000000000000e+03 5.918003845214843750e+01 -2.137644004821777344e+01 2.869053363800048828e+00 4.752861022949218750e+00 2.286574363708496094e+00 -3.024253845214843750e-01
2.899000000000000000e+03 5.771664047241210938e+01 -2.158090209960937500e+01 2.679800510406494141e+00 6.085653305053710938e+00 2.629636049270629883e+00 4.187909364700317383e-01
2.900000000000000000e+03 5.527011489868164062e+01 -1.304008674621582031e+01 -2.099996954202651978e-01 4.259542465209960938e+00 1.214862942695617676e+00 -2.865695714950561523e+00
2.901000000000000000e+03 7.348249053955078125e+01 -3.373843765258789062e+01 6.826137900352478027e-01 5.818562984466552734e+00 1.950353026390075684e+00 -4.175307452678680420e-01
2.902000000000000000e+03 6.108605575561523438e+01 1.262281775474548340e+00 -7.214096188545227051e-01 5.709918498992919922e+00 1.496552586555480957e+00 -1.847813010215759277e+00
2.903000000000000000e+03 6.228649139404296875e+01 -2.147224807739257812e+01 3.004992008209228516e+00 5.647425174713134766e+00 2.595725059509277344e+00 -1.752613425254821777e+00
2.904000000000000000e+03 6.097941970825195312e+01 -2.235452842712402344e+01 3.022520542144775391e+00 4.042846202850341797e+00 2.119610071182250977e+00 -1.000257492065429688e+00
2.905000000000000000e+03 4.094125366210937500e+01 1.416284847259521484e+01 1.239396572113037109e+00 6.156071186065673828e+00 2.218640327453613281e+00 -2.375208288431167603e-01
2.906000000000000000e+03 6.590190887451171875e+01 2.286323928833007812e+01 1.204889267683029175e-01 2.542208909988403320e+00 7.988093495368957520e-01 1.286803603172302246e+00
2.907000000000000000e+03 6.174459075927734375e+01 2.149932980537414551e-01 -4.148595035076141357e-01 6.461207866668701172e+00 1.813904523849487305e+00 -1.227746129035949707e+00
2.908000000000000000e+03 3.682342147827148438e+01 -3.542583227157592773e+00 5.825825333595275879e-01 7.353957176208496094e+00 2.380961894989013672e+00 9.627153873443603516e-01
2.909000000000000000e+03 5.606204223632812500e+01 3.246268987655639648e+00 -2.444768846035003662e-01 4.324675083160400391e+00 1.224059462547302246e+00 5.905801057815551758e-01
2.910000000000000000e+03 5.452379989624023438e+01 3.803696632385253906e+00 -1.969930827617645264e-01 5.252033233642578125e+00 1.516512036323547363e+00 2.042598962783813477e+00
2.911000000000000000e+03 6.124325561523437500e+01 4.305825233459472656e+00 -7.193175554275512695e-01 4.582110881805419922e+00 1.158837914466857910e+00 -1.955999732017517090e+00
2.912000000000000000e+03 5.622731399536132812e+01 6.072180271148681641e+00 1.076785087585449219e+00 7.014639377593994141e+00 2.427427291870117188e+00 5.299856662750244141e-01
2.913000000000000000e+03 4.055561447143554688e+01 1.866939926147460938e+01 2.614149451255798340e-01 3.050329208374023438e+00 9.935232400894165039e-01 -1.461359620094299316e+00
2.914000000000000000e+03 3.827390289306640625e+01 1.774804878234863281e+01 6.543837785720825195e-01 2.826171636581420898e+00 1.044166564941406250e+00 -2.505379915237426758e+00
2.915000000000000000e+03 2.092359924316406250e+01 -2.331422042846679688e+01 1.086524248123168945e+00 -5.462227016687393188e-02 3.095705807209014893e-01 7.810512185096740723e-01
2.916000000000000000e+03 6.362044143676757812e+01 4.545506477355957031e+00 -6.360158324241638184e-01 2.700876712799072266e+00 6.194582581520080566e-01 -1.056311726570129395e+00
2.917000000000000000e+03 7.357080841064453125e+01 -2.930745887756347656e+01 -1.652445197105407715e-01 5.929756641387939453e+00 1.729353547096252441e+00 1.129383921623229980e+00
2.918000000000000000e+03 6.337570190429687500e+01 -1.520802497863769531e+01 -1.582097649574279785e+00 6.311804771423339844e+00 1.418912053108215332e+00 5.822547078132629395e-01
2.919000000000000000e+03 3.492330551147460938e+01 -8.445052146911621094e+00 2.761015415191650391e+00 5.924556732177734375e+00 2.605671644210815430e+00 1.023735523223876953e+00
2.920000000000000000e+03 3.618949890136718750e+01 -4.877015113830566406e+00 4.274218976497650146e-01 8.177689552307128906e+00 2.581533670425415039e+00 5.980002880096435547e-01
2.921000000000000000e+03 5.520829677581787109e+00 -2.472762489318847656e+01 5.245934426784515381e-02 1.237882003188133240e-01 5.287426337599754333e-02 -1.190027669072151184e-01
2.922000000000000000e+03 6.270371437072753906e+00 -2.749843406677246094e+01 1.835864037275314331e-01 8.413591235876083374e-02 8.031669259071350098e-02 -2.237573824822902679e-02
2.923000000000000000e+03 2.674570274353027344e+01 6.241004943847656250e+00 2.933842658996582031e+00 2.512306213378906250e+00 1.633844733238220215e+00 -1.571974873542785645e+00
2.924000000000000000e+03 3.478521728515625000e+01 -1.007277393341064453e+01 2.454663991928100586e+00 4.680392742156982422e+00 2.140516996383666992e+00 1.102674961090087891e+00
2.925000000000000000e+03 2.674273109436035156e+01 5.306381225585937500e+00 3.360491514205932617e+00 2.220646858215332031e+00 1.674341440200805664e+00 -1.187887668609619141e+00
2.926000000000000000e+03 5.865623474121093750e+01 7.217587471008300781e+00 4.849615395069122314e-01 6.209495067596435547e+00 2.008337020874023438e+00 -5.367829799652099609e-01
2.927000000000000000e+03 5.242054367065429688e+01 -3.017733764648437500e+01 2.227053642272949219e+00 5.752042293548583984e+00 2.393728733062744141e+00 -2.747695893049240112e-02
2.928000000000000000e+03 5.673162078857421875e+01 4.916828632354736328e+00 1.653577238321304321e-01 5.776601791381835938e+00 1.782587885856628418e+00 -2.686476111412048340e-01
2.929000000000000000e+03 5.805781936645507812e+01 8.276412963867187500e+00 1.339328169822692871e+00 6.995550632476806641e+00 2.500463724136352539e+00 2.304135411977767944e-01
2.930000000000000000e+03 3.465998077392578125e+01 -7.643955230712890625e+00 2.498758554458618164e+00 6.137059688568115234e+00 2.590745449066162109e+00 9.863035082817077637e-01
2.931000000000000000e+03 3.408184051513671875e+01 -8.708302497863769531e+00 2.630627870559692383e+00 4.835305213928222656e+00 2.239779949188232422e+00 1.604198813438415527e+00
2.932000000000000000e+03 3.384119033813476562e+01 -3.347484970092773438e+01 1.158162593841552734e+00 1.383798837661743164e+00 7.625884413719177246e-01 5.914306044578552246e-01
2.933000000000000000e+03 3.611475753784179688e+01 -1.145766496658325195e+00 4.108706951141357422e+00 4.356503009796142578e+00 2.539562940597534180e+00 1.770484328269958496e+00
2.934000000000000000e+03 3.362392044067382812e+01 2.758657264709472656e+01 1.421366572380065918e+00 6.551368713378906250e+00 2.391820669174194336e+00 -7.985079288482666016e-01
2.935000000000000000e+03 3.357019042968750000e+01 -1.232322120666503906e+01 5.144470930099487305e-01 2.465039491653442383e+00 8.938459753990173340e-01 2.158445119857788086e+00
2.936000000000000000e+03 3.862569570541381836e+00 6.084325790405273438e+00 -8.753706514835357666e-02 -7.462503015995025635e-02 -4.864862933754920959e-02 1.205558478832244873e-01
2.937000000000000000e+03 6.180536270141601562e+01 -1.174758815765380859e+01 -9.685851335525512695e-01 6.592905998229980469e+00 1.687296152114868164e+00 1.322396874427795410e+00
2.938000000000000000e+03 4.525794601440429688e+01 -9.020764231681823730e-01 1.380840897560119629e+00 3.696224212646484375e+00 1.523119568824768066e+00 -2.653045892715454102e+00
2.939000000000000000e+03 6.408185577392578125e+01 -2.272917270660400391e+00 1.252194762229919434e+00 7.082724571228027344e+00 2.500475883483886719e+00 3.894530832767486572e-01
2.940000000000000000e+03 6.579426574707031250e+01 1.132206246256828308e-01 3.810604214668273926e-01 4.418379306793212891e+00 1.439831852912902832e+00 1.355464100837707520e+00
2.941000000000000000e+03 4.094608306884765625e+01 -9.018579125404357910e-01 1.486453294754028320e+00 3.278964042663574219e+00 1.429625153541564941e+00 5.131132602691650391e-01
2.942000000000000000e+03 7.424584865570068359e+00 8.319202423095703125e+00 -2.545329630374908447e-01 -6.177295744419097900e-02 -9.489177912473678589e-02 2.474005669355392456e-01
2.943000000000000000e+03 7.333110332489013672e+00 6.185428142547607422e+00 -2.186492383480072021e-01 -7.352772355079650879e-02 -8.765308558940887451e-02 1.707888841629028320e-01
2.944000000000000000e+03 1.941350173950195312e+01 -1.856490898132324219e+01 8.100719451904296875e-01 5.181766301393508911e-02 2.585668861865997314e-01 -9.308856911957263947e-03
2.945000000000000000e+03 2.537088394165039062e+01 -1.998016166687011719e+01 1.806197881698608398e+00 2.918765068054199219e+00 1.417488932609558105e+00 5.635187029838562012e-01
2.946000000000000000e+03 4.012628936767578125e+01 -1.022477149963378906e+00 1.326800584793090820e+00 4.051707267761230469e+00 1.613552331924438477e+00 1.612548351287841797e+00
2.947000000000000000e+03 3.941128540039062500e+01 -7.811744809150695801e-01 1.448903799057006836e+00 4.233026027679443359e+00 1.704578876495361328e+00 2.530658483505249023e+00
2.948000000000000000e+03 2.525457382202148438e+01 9.650622367858886719e+00 1.082446098327636719e+00 1.886391162872314453e+00 8.906512260437011719e-01 -2.017702817916870117e+00
2.949000000000000000e+03 2.465510940551757812e+01 -1.840635108947753906e+01 1.344098091125488281e+00 2.080838680267333984e+00 1.027481079101562500e+00 4.436147212982177734e-01
2.950000000000000000e+03 4.235828399658203125e+01 -2.090755271911621094e+01 2.795887470245361328e+00 4.182297706604003906e+00 2.093455553054809570e+00 1.832361370325088501e-01
2.951000000000000000e+03 3.181027030944824219e+01 -6.696667671203613281e+00 8.322567343711853027e-01 4.351653099060058594e+00 1.555173039436340332e+00 1.914677858352661133e+00
2.952000000000000000e+03 1.378898143768310547e+01 -6.395131587982177734e+00 -2.313433401286602020e-02 5.011511594057083130e-02 8.094234392046928406e-03 -2.759698592126369476e-02
2.953000000000000000e+03 3.084493446350097656e+01 -1.159029579162597656e+01 1.160333275794982910e+00 4.429176807403564453e+00 1.676853060722351074e+00 2.483714580535888672e+00
2.954000000000000000e+03 3.983025360107421875e+01 1.528582477569580078e+01 8.486175537109375000e-01 4.558229923248291016e+00 1.622054219245910645e+00 -1.538619875907897949e+00
2.955000000000000000e+03 3.720026397705078125e+01 1.462605476379394531e+01 2.891232445836067200e-02 2.619874715805053711e+00 7.946361303329467773e-01 -2.207324266433715820e+00
2.956000000000000000e+03 7.081920623779296875e+01 1.774880766868591309e+00 4.596837162971496582e-01 2.031289815902709961e+00 7.472920417785644531e-01 1.049378514289855957e+00
2.957000000000000000e+03 7.212329864501953125e+01 1.393823027610778809e+00 8.729173988103866577e-02 3.173830509185791016e+00 9.783366322517395020e-01 -2.490513026714324951e-02
2.958000000000000000e+03 3.988359832763671875e+01 -2.894156873226165771e-01 1.597031116485595703e+00 4.969823837280273438e+00 1.970056414604187012e+00 1.950513720512390137e+00
2.959000000000000000e+03 2.658177375793457031e+01 -2.845985603332519531e+01 -1.521433591842651367e+00 3.976232290267944336e+00 7.364395856857299805e-01 3.699537813663482666e-01
2.960000000000000000e+03 1.027291679382324219e+01 -1.008527660369873047e+01 -7.282194495201110840e-02 -5.903558060526847839e-02 -3.955725952982902527e-02 -1.130850836634635925e-01
2.961000000000000000e+03 2.744514846801757812e+01 -1.434407138824462891e+01 -8.339098095893859863e-01 4.222015380859375000e+00 1.016431570053100586e+00 1.631098151206970215e+00
2.962000000000000000e+03 7.493688964843750000e+01 3.220299530029296875e+01 2.924908697605133057e-01 6.402589321136474609e+00 2.008523941040039062e+00 1.779051870107650757e-01
2.963000000000000000e+03 7.427136993408203125e+01 2.815783309936523438e+01 3.850724399089813232e-01 6.070053577423095703e+00 1.936537742614746094e+00 -2.862982451915740967e-01
2.964000000000000000e+03 2.688854217529296875e+01 -1.679384231567382812e+01 4.694126248359680176e-01 4.179205417633056641e+00 1.394585371017456055e+00 1.019069433212280273e+00
2.965000000000000000e+03 7.472609710693359375e+01 -3.061140632629394531e+01 1.591884493827819824e-01 6.443525791168212891e+00 1.980814218521118164e+00 4.503217935562133789e-01
2.966000000000000000e+03 2.500294494628906250e+01 -2.543489074707031250e+01 -2.011757791042327881e-01 2.934898138046264648e+00 8.201166987419128418e-01 5.977627038955688477e-01
2.967000000000000000e+03 4.230966186523437500e+01 5.452819824218750000e+00 2.105279207229614258e+00 8.084080696105957031e+00 3.056807994842529297e+00 -4.167906939983367920e-02
2.968000000000000000e+03 4.327839660644531250e+01 1.641133308410644531e+00 2.421356201171875000e+00 4.919684886932373047e+00 2.202312469482421875e+00 -1.713805675506591797e+00
2.969000000000000000e+03 2.027146339416503906e+01 -1.808586692810058594e+01 8.817803263664245605e-01 6.632521003484725952e-02 2.844316661357879639e-01 -7.606343924999237061e-02
2.970000000000000000e+03 2.052891540527343750e+01 -1.655404090881347656e+01 3.877030313014984131e-01 7.530737668275833130e-03 1.185701340436935425e-01 -3.070021867752075195e-01
2.971000000000000000e+03 3.546481704711914062e+01 1.712888526916503906e+01 4.775461554527282715e-01 2.682299137115478516e+00 9.479535818099975586e-01 -2.061740159988403320e+00
2.972000000000000000e+03 7.539715576171875000e+01 2.376309967041015625e+01 -3.470346927642822266e-01 6.763555526733398438e+00 1.924956202507019043e+00 -4.395352303981781006e-01
2.973000000000000000e+03 7.327384185791015625e+01 2.321372795104980469e+01 -6.643400192260742188e-01 6.094900608062744141e+00 1.629168152809143066e+00 -7.359229326248168945e-01
2.974000000000000000e+03 7.009899902343750000e+01 2.529166412353515625e+01 8.930967450141906738e-01 4.266418457031250000e+00 1.547854542732238770e+00 -7.427258491516113281e-01
2.975000000000000000e+03 7.537962341308593750e+01 2.529159927368164062e+01 -5.158377345651388168e-03 6.608951091766357422e+00 1.981137871742248535e+00 -4.626998305320739746e-01
2.976000000000000000e+03 7.833807373046875000e+01 -2.496638870239257812e+01 -2.576410397887229919e-02 7.404067039489746094e+00 2.213490962982177734e+00 -5.847907066345214844e-01
2.977000000000000000e+03 7.385575866699218750e+01 1.026385498046875000e+01 1.665896534919738770e+00 8.656797409057617188e+00 3.096807956695556641e+00 7.766065001487731934e-02
2.978000000000000000e+03 7.147022247314453125e+01 3.971985340118408203e+00 3.074664855375885963e-03 4.168007373809814453e+00 1.251324653625488281e+00 9.723771810531616211e-01
2.979000000000000000e+03 7.345326232910156250e+01 2.795156955718994141e+00 -1.744388043880462646e-01 4.872987747192382812e+00 1.409564733505249023e+00 -4.065568149089813232e-01
2.980000000000000000e+03 7.431481933593750000e+01 1.840673208236694336e+00 -4.295243620872497559e-01 5.559874534606933594e+00 1.539105057716369629e+00 -7.485564947128295898e-01
2.981000000000000000e+03 7.592432403564453125e+01 1.802827644348144531e+01 -3.878624439239501953e-01 7.611255168914794922e+00 2.167017936706542969e+00 8.816907405853271484e-01
2.982000000000000000e+03 7.571050262451171875e+01 1.915091514587402344e+01 -7.040271162986755371e-01 7.636919498443603516e+00 2.079867839813232422e+00 6.292822957038879395e-01
2.983000000000000000e+03 7.536775970458984375e+01 8.182747840881347656e+00 3.517750501632690430e-01 7.437766075134277344e+00 2.336862325668334961e+00 -8.443697094917297363e-01
2.984000000000000000e+03 7.347586059570312500e+01 7.664054632186889648e-01 -4.226102530956268311e-01 4.337562084197998047e+00 1.174485445022583008e+00 -8.621876835823059082e-01
2.985000000000000000e+03 6.701983642578125000e+01 1.977368354797363281e+00 3.919763565063476562e-01 2.808871030807495117e+00 9.602541923522949219e-01 1.737441897392272949e+00
2.986000000000000000e+03 7.629291534423828125e+01 2.863513565063476562e+01 1.669409573078155518e-01 6.675908565521240234e+00 2.052854776382446289e+00 -2.401944398880004883e-01
2.987000000000000000e+03 7.421389007568359375e+01 2.107669258117675781e+01 -9.857841134071350098e-01 6.932763576507568359e+00 1.784093856811523438e+00 -2.892749309539794922e-01
2.988000000000000000e+03 7.262681579589843750e+01 -3.031587219238281250e+01 9.403395056724548340e-01 4.911755084991455078e+00 1.755628466606140137e+00 7.870244979858398438e-01
2.989000000000000000e+03 7.559602355957031250e+01 -3.196603393554687500e+01 2.057499736547470093e-01 6.668809413909912109e+00 2.062367916107177734e+00 1.175821051001548767e-01
2.990000000000000000e+03 7.291535949707031250e+01 3.260913085937500000e+01 3.846790790557861328e-01 5.986825466156005859e+00 1.911451339721679688e+00 3.766281604766845703e-01
2.991000000000000000e+03 7.244535064697265625e+01 -3.489962768554687500e+01 7.253656387329101562e-01 5.887677192687988281e+00 1.983912825584411621e+00 -8.139160275459289551e-01
2.992000000000000000e+03 7.274040222167968750e+01 3.060931205749511719e+01 6.564255952835083008e-01 5.734750270843505859e+00 1.917352795600891113e+00 2.118602544069290161e-01
2.993000000000000000e+03 7.586783599853515625e+01 2.974732208251953125e+01 2.882941365242004395e-01 6.563721656799316406e+00 2.055604696273803711e+00 -8.076028525829315186e-02
2.994000000000000000e+03 4.272211837768554688e+01 -2.006271171569824219e+01 2.538773298263549805e+00 4.074182033538818359e+00 1.983886599540710449e+00 3.388307988643646240e-01
2.995000000000000000e+03 6.622354030609130859e+00 -3.199549293518066406e+01 2.220037877559661865e-01 1.991606354713439941e-01 1.263493299484252930e-01 2.928089499473571777e-01
2.996000000000000000e+03 6.224456310272216797e+00 -2.901559829711914062e+01 1.946829706430435181e-01 7.681539654731750488e-02 8.144950866699218750e-02 7.750406116247177124e-02
2.997000000000000000e+03 5.127370357513427734e+00 -2.729627990722656250e+01 9.043148905038833618e-02 -3.532213345170021057e-02 1.653280854225158691e-02 -1.012075692415237427e-02
2.998000000000000000e+03 7.255764007568359375e+01 7.137124061584472656e+00 1.173356920480728149e-01 7.099561691284179688e+00 2.165069103240966797e+00 3.966591358184814453e-01
2.999000000000000000e+03 7.392969512939453125e+01 8.778265953063964844e+00 6.949970722198486328e-01 8.120674133300781250e+00 2.644701480865478516e+00 -2.620058953762054443e-01
3.000000000000000000e+03 3.870443344116210938e+00 -9.524209976196289062e+00 -2.489464357495307922e-02 -8.224620670080184937e-02 -3.214225545525550842e-02 -3.023216873407363892e-02
3.001000000000000000e+03 6.965279388427734375e+01 2.189511537551879883e+00 5.345870852470397949e-01 2.126850605010986328e+00 7.984312772750854492e-01 1.936731696128845215e+00
3.002000000000000000e+03 4.353188037872314453e+00 2.002679634094238281e+01 5.252975225448608398e-02 -3.351908326148986816e-01 -8.479832857847213745e-02 1.241225078701972961e-01
3.003000000000000000e+03 4.765290737152099609e+00 1.332016849517822266e+01 2.453286387026309967e-02 -2.339991480112075806e-01 -6.283988803625106812e-02 3.389876782894134521e-01
3.004000000000000000e+03 4.312304973602294922e+00 1.230548286437988281e+01 -2.262983843684196472e-02 -2.716791927814483643e-01 -8.829271048307418823e-02 3.346835374832153320e-01
3.005000000000000000e+03 6.389335155487060547e+00 1.899833106994628906e+01 1.573833078145980835e-01 -1.398649346083402634e-02 4.301904141902923584e-02 9.675665199756622314e-02
3.006000000000000000e+03 5.145853996276855469e+00 2.081645393371582031e+01 9.545651823282241821e-02 -1.451800316572189331e-01 -1.491705700755119324e-02 6.270991265773773193e-02
3.007000000000000000e+03 4.131293773651123047e+00 -2.710829544067382812e+01 4.333066195249557495e-02 -1.830931603908538818e-01 -4.192874953150749207e-02 -9.748179581947624683e-04
3.008000000000000000e+03 5.411304950714111328e+00 -3.374858856201171875e+01 9.335657209157943726e-02 8.475635945796966553e-02 5.343388020992279053e-02 3.351315259933471680e-01
3.009000000000000000e+03 7.921078205108642578e+00 -3.348514175415039062e+01 1.957994103431701660e-01 4.240730404853820801e-01 1.859617382287979126e-01 4.242184460163116455e-01
3.010000000000000000e+03 5.744434356689453125e+00 1.416593837738037109e+01 7.308524101972579956e-02 -1.838343143463134766e-01 -3.322472423315048218e-02 3.474014997482299805e-01
3.011000000000000000e+03 6.352081775665283203e+00 1.217620468139648438e+01 -2.359187044203281403e-02 -1.044624298810958862e-01 -3.841628879308700562e-02 3.923074305057525635e-01
3.012000000000000000e+03 4.519282341003417969e+00 9.676520347595214844e+00 -1.029045358300209045e-01 -1.569966375827789307e-01 -7.797034829854965210e-02 2.893544733524322510e-01
3.013000000000000000e+03 5.891197681427001953e+00 1.012131023406982422e+01 -1.403670310974121094e-01 -1.082698330283164978e-01 -7.459105551242828369e-02 3.348585963249206543e-01
3.014000000000000000e+03 7.042866516113281250e+01 3.302378082275390625e+01 3.699299693107604980e-01 5.602874279022216797e+00 1.791841268539428711e+00 6.371231675148010254e-01
3.015000000000000000e+03 5.270599365234375000e+00 8.241040229797363281e+00 -1.634215712547302246e-01 -8.927572518587112427e-02 -7.580918818712234497e-02 2.413956224918365479e-01
3.016000000000000000e+03 5.636884212493896484e+00 7.406632423400878906e+00 -1.686377078294754028e-01 -7.950010150671005249e-02 -7.444134354591369629e-02 2.119849324226379395e-01
3.017000000000000000e+03 5.231083297729492188e+01 2.311694717407226562e+01 -1.713178008794784546e-01 4.819117069244384766e+00 1.394339680671691895e+00 -1.299427270889282227e+00
3.018000000000000000e+03 6.949155807495117188e+00 -6.551616668701171875e+00 -2.668674802407622337e-03 -7.309994846582412720e-02 -2.273058705031871796e-02 -5.504442378878593445e-02
3.019000000000000000e+03 4.885849952697753906e+00 -7.479762554168701172e+00 -2.176080364733934402e-03 -6.886323541402816772e-02 -2.131179533898830414e-02 -2.555514127016067505e-02
3.020000000000000000e+03 5.744689941406250000e+01 6.627381324768066406e+00 8.762733936309814453e-01 6.551008224487304688e+00 2.228184461593627930e+00 -3.476304113864898682e-01
3.021000000000000000e+03 4.724683380126953125e+01 4.578768730163574219e+00 8.189718723297119141e-01 1.950922012329101562e+00 8.309681415557861328e-01 -1.284935712814331055e+00
3.022000000000000000e+03 4.158124923706054688e+01 -1.783148002624511719e+01 7.897820472717285156e-01 3.442036390304565430e+00 1.269545555114746094e+00 -1.014742493629455566e+00
3.023000000000000000e+03 3.482979583740234375e+01 1.598325634002685547e+01 3.130308985710144043e-01 1.997275829315185547e+00 6.930919885635375977e-01 -1.682425260543823242e+00
3.024000000000000000e+03 4.141032028198242188e+01 3.092218935489654541e-01 1.877037048339843750e+00 4.649559974670410156e+00 1.957979202270507812e+00 -7.415826618671417236e-02
3.025000000000000000e+03 2.292274665832519531e+01 8.928603172302246094e+00 9.112852215766906738e-01 7.149220108985900879e-01 4.878621697425842285e-01 -1.274298310279846191e+00
3.026000000000000000e+03 6.684846878051757812e+00 -1.137148857116699219e+01 -8.398602902889251709e-02 -1.461645066738128662e-01 -6.904516369104385376e-02 -7.044526934623718262e-02
3.027000000000000000e+03 6.473612213134765625e+01 -1.248567199707031250e+01 -1.197160124778747559e+00 6.078651905059814453e+00 1.464447617530822754e+00 9.597898274660110474e-02
3.028000000000000000e+03 2.980097389221191406e+01 3.090714073181152344e+01 7.004740238189697266e-01 2.547163248062133789e+00 9.742911458015441895e-01 -1.349588155746459961e+00
3.029000000000000000e+03 2.771475791931152344e+01 3.153488349914550781e+01 6.582771539688110352e-01 1.702834010124206543e+00 7.083333134651184082e-01 -8.458847403526306152e-01
3.030000000000000000e+03 6.066415023803710938e+01 -2.349030303955078125e+01 2.285218238830566406e+00 3.288625717163085938e+00 1.672153234481811523e+00 -7.133156657218933105e-01
3.031000000000000000e+03 5.353694534301757812e+01 2.223757362365722656e+01 -1.253643512725830078e+00 4.901871204376220703e+00 1.094468235969543457e+00 -2.204338073730468750e+00
3.032000000000000000e+03 5.744514465332031250e+01 2.080530357360839844e+01 -5.279921293258666992e-01 2.885627508163452148e+00 7.072906494140625000e-01 -1.291952490806579590e+00
3.033000000000000000e+03 5.498827743530273438e+01 2.150650024414062500e+01 -1.543807744979858398e+00 4.255089282989501953e+00 8.133844733238220215e-01 -2.641095399856567383e+00
3.034000000000000000e+03 5.218783569335937500e+01 2.473669052124023438e+01 6.098820567131042480e-01 5.561629772186279297e+00 1.851453542709350586e+00 -6.582014560699462891e-01
3.035000000000000000e+03 2.709929847717285156e+01 -2.564737129211425781e+01 -5.980435609817504883e-01 4.609902858734130859e+00 1.203557848930358887e+00 5.231930613517761230e-01
3.036000000000000000e+03 5.959716415405273438e+01 -2.294007682800292969e+01 2.477614879608154297e+00 3.724633693695068359e+00 1.860674619674682617e+00 2.833171561360359192e-02
3.037000000000000000e+03 6.087352371215820312e+01 -1.846181869506835938e+01 1.379400014877319336e+00 6.108062267303466797e+00 2.246238708496093750e+00 -8.531581759452819824e-01
3.038000000000000000e+03 1.105308341979980469e+01 -2.694259262084960938e+01 4.735483527183532715e-01 5.491518974304199219e-01 3.068100810050964355e-01 1.458941698074340820e-01
3.039000000000000000e+03 8.859115600585937500e+00 -2.586771774291992188e+01 2.406274378299713135e-01 2.559340894222259521e-01 1.489684581756591797e-01 -9.104377031326293945e-02
3.040000000000000000e+03 5.699449157714843750e+01 -1.444673824310302734e+01 -4.538636207580566406e-01 5.239662170410156250e+00 1.435739517211914062e+00 -1.116818308830261230e+00
3.041000000000000000e+03 5.357253646850585938e+01 -1.309417533874511719e+01 -2.097563296556472778e-01 3.781499862670898438e+00 1.071523070335388184e+00 -3.512108325958251953e+00
3.042000000000000000e+03 5.444190216064453125e+01 -1.379647350311279297e+01 -9.702476859092712402e-01 4.704871654510498047e+00 1.120387196540832520e+00 -3.133889913558959961e+00
3.043000000000000000e+03 5.008320236206054688e+01 2.861032295227050781e+01 1.930120229721069336e+00 6.546753406524658203e+00 2.543062210083007812e+00 9.031316041946411133e-01
3.044000000000000000e+03 4.870291137695312500e+01 2.735366630554199219e+01 2.272393941879272461e+00 6.537008762359619141e+00 2.642820835113525391e+00 1.154829859733581543e+00
3.045000000000000000e+03 6.556914520263671875e+01 3.736736536026000977e+00 -1.468226909637451172e-01 2.184678554534912109e+00 6.113567948341369629e-01 7.143294215202331543e-01
3.046000000000000000e+03 6.603752136230468750e+01 2.360946893692016602e+00 1.435276120901107788e-01 3.032126426696777344e+00 9.526962041854858398e-01 1.255968093872070312e+00
3.047000000000000000e+03 4.957987213134765625e+01 -2.031353473663330078e+00 1.197356224060058594e+00 6.228251934051513672e+00 2.227682590484619141e+00 -9.596037864685058594e-01
3.048000000000000000e+03 3.086113166809082031e+01 3.258746337890625000e+01 -1.875068759545683861e-03 3.274287700653076172e+00 9.817237854003906250e-01 -1.112312912940979004e+00
3.049000000000000000e+03 2.636085510253906250e+01 3.275623321533203125e+01 4.631264507770538330e-01 1.650982499122619629e+00 6.342326998710632324e-01 -4.557348191738128662e-01
3.050000000000000000e+03 5.720085144042968750e+01 1.647750854492187500e+01 1.430776596069335938e+00 6.291119575500488281e+00 2.316568851470947266e+00 3.367042839527130127e-01
3.051000000000000000e+03 4.379854965209960938e+01 -1.745809173583984375e+01 6.594595313072204590e-01 3.387340784072875977e+00 1.214040040969848633e+00 4.190501868724822998e-01
3.052000000000000000e+03 4.227432250976562500e+01 -1.704186439514160156e+01 4.806926846504211426e-01 2.476938724517822266e+00 8.872894048690795898e-01 -5.986747741699218750e-01
3.053000000000000000e+03 5.057531738281250000e+01 6.462861299514770508e-01 5.191971063613891602e-01 4.689918994903564453e+00 1.562734842300415039e+00 2.782464921474456787e-01
3.054000000000000000e+03 5.166682052612304688e+01 1.228587627410888672e+00 2.004126757383346558e-01 4.809738636016845703e+00 1.503045320510864258e+00 1.374073982238769531e+00
3.055000000000000000e+03 5.058444976806640625e+01 2.589577865600585938e+01 1.847064375877380371e+00 5.711965084075927734e+00 2.267708778381347656e+00 4.411658048629760742e-01
3.056000000000000000e+03 5.223559188842773438e+01 -3.240145874023437500e+01 3.047925233840942383e+00 6.697921752929687500e+00 2.923753976821899414e+00 -4.455140531063079834e-01
3.057000000000000000e+03 5.341044998168945312e+01 -3.033827972412109375e+01 2.071135520935058594e+00 5.953216075897216797e+00 2.407305479049682617e+00 4.389726221561431885e-01
3.058000000000000000e+03 6.013755416870117188e+01 3.607989549636840820e+00 -7.051405906677246094e-01 5.045550346374511719e+00 1.302122950553894043e+00 -2.194061517715454102e+00
3.059000000000000000e+03 6.072135162353515625e+01 5.321322917938232422e+00 -5.698868632316589355e-01 5.021836757659912109e+00 1.335584878921508789e+00 -1.927256107330322266e+00
3.060000000000000000e+03 6.208504867553710938e+01 -1.546370792388916016e+01 -1.196159720420837402e+00 6.592849254608154297e+00 1.619006872177124023e+00 3.609403073787689209e-01
3.061000000000000000e+03 6.958180999755859375e+01 5.664616107940673828e+00 1.536511331796646118e-01 3.231253623962402344e+00 1.015471458435058594e+00 2.176648855209350586e+00
3.062000000000000000e+03 6.932232666015625000e+01 4.755217075347900391e+00 1.157991364598274231e-01 2.716632843017578125e+00 8.497295975685119629e-01 2.089052677154541016e+00
3.063000000000000000e+03 7.063381958007812500e+01 5.575081348419189453e+00 -1.469619572162628174e-01 4.329916477203369141e+00 1.254886388778686523e+00 1.646614551544189453e+00
3.064000000000000000e+03 3.694327163696289062e+01 1.860367774963378906e+01 1.743920892477035522e-01 3.053945541381835938e+00 9.685013294219970703e-01 -2.592880010604858398e+00
3.065000000000000000e+03 3.605882263183593750e+01 -3.653900909423828125e+01 -2.083731442689895630e-01 3.052049636840820312e+00 8.531029224395751953e-01 1.201939582824707031e+00
3.066000000000000000e+03 6.904794311523437500e+01 -3.206339645385742188e+01 2.421054840087890625e+00 5.141846179962158203e+00 2.268870353698730469e+00 -1.721547603607177734e+00
3.067000000000000000e+03 3.119351387023925781e+01 -1.045474529266357422e+01 2.111347198486328125e+00 3.931700706481933594e+00 1.812914371490478516e+00 2.699644327163696289e+00
3.068000000000000000e+03 6.175807952880859375e+00 -1.014729595184326172e+01 -4.721839725971221924e-02 -1.252734363079071045e-01 -5.174754932522773743e-02 -5.527963861823081970e-02
3.069000000000000000e+03 5.545666503906250000e+01 1.933814048767089844e+01 -3.944503366947174072e-01 4.352989196777343750e+00 1.187561750411987305e+00 -2.039106369018554688e+00
3.070000000000000000e+03 5.205800247192382812e+01 -1.309879779815673828e+01 -3.301167860627174377e-02 3.407720088958740234e+00 1.012412548065185547e+00 -2.614881277084350586e+00
3.071000000000000000e+03 2.776127243041992188e+01 -3.290307617187500000e+01 5.477066710591316223e-02 3.369704723358154297e+00 1.027342677116394043e+00 -7.827564328908920288e-02
3.072000000000000000e+03 2.852244186401367188e+01 -3.034755897521972656e+01 -6.924668550491333008e-01 3.268671512603759766e+00 7.728614211082458496e-01 -1.434570103883743286e-01
3.073000000000000000e+03 4.957770538330078125e+01 3.355440521240234375e+01 -1.987934559583663940e-01 5.853947162628173828e+00 1.696546196937561035e+00 -1.589376106858253479e-02
3.074000000000000000e+03 2.894355773925781250e+01 -3.505968856811523438e+01 3.627792298793792725e-01 2.740845441818237305e+00 9.310874342918395996e-01 -1.863209903240203857e-01
3.075000000000000000e+03 1.001733970642089844e+01 1.922979354858398438e+01 4.296817779541015625e-01 2.864288985729217529e-01 2.148331999778747559e-01 -2.217036485671997070e-02
3.076000000000000000e+03 4.661304092407226562e+01 3.455598831176757812e+01 -9.597966670989990234e-01 4.608818054199218750e+00 1.094706535339355469e+00 -7.439175844192504883e-01
3.077000000000000000e+03 4.809971237182617188e+01 3.416485214233398438e+01 -7.013146281242370605e-01 5.520747661590576172e+00 1.445829868316650391e+00 -4.463650584220886230e-01
3.078000000000000000e+03 4.705825042724609375e+01 9.032849669456481934e-01 1.516920447349548340e+00 3.719507932662963867e+00 1.570928454399108887e+00 -2.068041324615478516e+00
3.079000000000000000e+03 4.612534332275390625e+01 -1.609782814979553223e+00 1.041056036949157715e+00 4.136388301849365234e+00 1.553233265876770020e+00 -2.593234062194824219e+00
3.080000000000000000e+03 4.269844055175781250e+01 8.731144905090332031e+00 2.842776179313659668e-01 8.720388412475585938e+00 2.701399803161621094e+00 1.347581267356872559e+00
3.081000000000000000e+03 4.187062454223632812e+01 7.962791919708251953e+00 5.386192202568054199e-01 9.564142227172851562e+00 3.030828237533569336e+00 1.360056400299072266e+00
3.082000000000000000e+03 2.209608459472656250e+01 3.469177627563476562e+01 -1.714522838592529297e-01 2.052033185958862305e+00 5.641742348670959473e-01 -4.552999883890151978e-02
3.083000000000000000e+03 4.779723739624023438e+01 -1.569750070571899414e+00 1.119621634483337402e+00 4.961012840270996094e+00 1.824190378189086914e+00 -1.957824826240539551e+00
3.084000000000000000e+03 5.349043655395507812e+01 3.715130615234375000e+01 -1.654072046279907227e+00 5.363769054412841797e+00 1.112909078598022461e+00 7.389334440231323242e-01
3.085000000000000000e+03 5.154477310180664062e+01 2.537933349609375000e+01 1.334820628166198730e+00 5.852083206176757812e+00 2.156071186065673828e+00 2.625564485788345337e-02
3.086000000000000000e+03 2.433749771118164062e+01 3.509926986694335938e+01 -5.395825579762458801e-02 2.027574777603149414e+00 5.920849442481994629e-01 -1.470409780740737915e-01
3.087000000000000000e+03 7.134352111816406250e+01 3.921521759033203125e+01 -3.819845020771026611e-01 6.021739959716796875e+00 1.691926717758178711e+00 2.903946638107299805e-01
3.088000000000000000e+03 5.869231414794921875e+01 1.875311279296875000e+01 1.129759430885314941e+00 5.570745944976806641e+00 2.010151624679565430e+00 2.635267674922943115e-01
3.089000000000000000e+03 2.434322166442871094e+01 -1.957099533081054688e+01 1.669965744018554688e+00 1.918928503990173340e+00 1.076668262481689453e+00 4.166048169136047363e-01
3.090000000000000000e+03 2.580068397521972656e+01 -1.854838180541992188e+01 1.375458121299743652e+00 3.194395303726196289e+00 1.370956063270568848e+00 6.045939922332763672e-01
3.091000000000000000e+03 2.443912887573242188e+01 -2.441419029235839844e+01 4.405850172042846680e-01 2.484440088272094727e+00 8.775075078010559082e-01 6.338438391685485840e-01
3.092000000000000000e+03 6.811984252929687500e+01 3.228692245483398438e+01 4.731560945510864258e-01 5.458952903747558594e+00 1.779632687568664551e+00 8.931873440742492676e-01
3.093000000000000000e+03 4.875434112548828125e+01 2.482381057739257812e+01 1.703342795372009277e+00 6.073488712310791016e+00 2.333049535751342773e+00 8.230261206626892090e-01
3.094000000000000000e+03 4.865673065185546875e+01 2.339092254638671875e+01 1.049072980880737305e+00 5.223404884338378906e+00 1.881743311882019043e+00 6.734501719474792480e-01
3.095000000000000000e+03 6.474036407470703125e+01 2.265410804748535156e+01 -6.801308393478393555e-01 4.052628993988037109e+00 1.011749505996704102e+00 2.410484552383422852e+00
3.096000000000000000e+03 6.574701690673828125e+01 2.397216796875000000e+01 8.016876578330993652e-01 3.781701803207397461e+00 1.375016808509826660e+00 1.283727049827575684e+00
3.097000000000000000e+03 4.856077575683593750e+01 2.195162773132324219e+01 -2.611085176467895508e-01 4.524457931518554688e+00 1.279004812240600586e+00 6.301867365837097168e-01
3.098000000000000000e+03 4.085863876342773438e+01 1.542846870422363281e+01 1.138486146926879883e+00 5.081441879272460938e+00 1.865978479385375977e+00 -8.959633708000183105e-01
3.099000000000000000e+03 4.018811416625976562e+01 1.624201011657714844e+01 1.021164178848266602e+00 4.205778598785400391e+00 1.568082690238952637e+00 -1.468523263931274414e+00
3.100000000000000000e+03 3.449750137329101562e+01 -2.494122266769409180e+00 9.724149107933044434e-01 9.224603652954101562e+00 3.059105634689331055e+00 -5.644375681877136230e-01
3.101000000000000000e+03 3.486112594604492188e+01 -2.700386047363281250e+00 1.189956068992614746e+00 8.610718727111816406e+00 2.940202474594116211e+00 -3.615811169147491455e-01
3.102000000000000000e+03 3.606163024902343750e+01 -2.986266613006591797e+00 1.252970933914184570e+00 7.274881362915039062e+00 2.558355569839477539e+00 4.668510556221008301e-01
3.103000000000000000e+03 3.287114334106445312e+01 -3.337077617645263672e+00 1.410659402608871460e-01 6.329347133636474609e+00 1.941123962402343750e+00 2.015375375747680664e+00
3.104000000000000000e+03 3.228440093994140625e+01 -3.778066396713256836e+00 3.173963427543640137e-01 4.698239326477050781e+00 1.504690766334533691e+00 1.953921914100646973e+00
3.105000000000000000e+03 3.330794906616210938e+01 -3.137200832366943359e+00 -7.553471624851226807e-02 7.752642154693603516e+00 2.303132295608520508e+00 1.719981193542480469e+00
3.106000000000000000e+03 3.269855499267578125e+01 -3.530179738998413086e+00 1.651069074869155884e-01 5.871103286743164062e+00 1.810863018035888672e+00 2.028917789459228516e+00
3.107000000000000000e+03 3.238430404663085938e+01 -3.450095176696777344e+00 3.679282963275909424e-01 4.902023315429687500e+00 1.580985546112060547e+00 2.094238996505737305e+00
3.108000000000000000e+03 3.661511230468750000e+01 -4.241020202636718750e+00 5.015563964843750000e-01 7.741055488586425781e+00 2.472783565521240234e+00 7.168983817100524902e-01
3.109000000000000000e+03 3.191054534912109375e+01 -5.641468048095703125e+00 6.100736856460571289e-01 4.384216308593750000e+00 1.498286962509155273e+00 1.634706020355224609e+00
3.110000000000000000e+03 3.761656188964843750e+01 -1.260654330253601074e+00 2.105113267898559570e+00 4.892097949981689453e+00 2.099163293838500977e+00 3.299770355224609375e+00
3.111000000000000000e+03 5.098556041717529297e+00 6.786369800567626953e+00 -1.422831565141677856e-01 -7.192623615264892578e-02 -6.426282227039337158e-02 1.743647754192352295e-01
3.112000000000000000e+03 5.991554260253906250e+00 6.174765586853027344e+00 -1.762801557779312134e-01 -6.240231171250343323e-02 -7.160473614931106567e-02 1.618280857801437378e-01
3.113000000000000000e+03 2.302127647399902344e+01 6.178634643554687500e+00 1.375904321670532227e+00 -2.766568958759307861e-01 3.297742307186126709e-01 -2.875141203403472900e-01
3.114000000000000000e+03 2.387892913818359375e+01 5.716323852539062500e+00 1.686783432960510254e+00 6.828869227319955826e-03 5.080837011337280273e-01 -4.192986190319061279e-01
3.115000000000000000e+03 3.592132186889648438e+01 -6.762358546257019043e-01 5.212356090545654297e+00 3.285795211791992188e+00 2.549445390701293945e+00 2.625190496444702148e+00
3.116000000000000000e+03 3.580715942382812500e+01 -9.692349433898925781e-01 4.870436191558837891e+00 4.146999835968017578e+00 2.705230712890625000e+00 1.539455413818359375e+00
3.117000000000000000e+03 8.756125450134277344e+00 6.344250679016113281e+00 -2.600167095661163330e-01 -1.152641102671623230e-01 -1.125842481851577759e-01 1.827574074268341064e-01
3.118000000000000000e+03 2.465175247192382812e+01 8.765909194946289062e+00 1.403376936912536621e+00 1.313170313835144043e+00 8.149641752243041992e-01 -1.730754971504211426e+00
3.119000000000000000e+03 2.453259277343750000e+01 5.408370018005371094e+00 1.829227447509765625e+00 -4.981563612818717957e-02 5.338235497474670410e-01 -3.803092539310455322e-01
3.120000000000000000e+03 7.580560684204101562e+00 -7.134070873260498047e+00 -1.157122384756803513e-02 -8.991070091724395752e-02 -3.044457733631134033e-02 -7.004528492689132690e-02
3.121000000000000000e+03 5.536445617675781250e+00 -5.407199382781982422e+00 -6.682495120912790298e-03 -5.750950425863265991e-02 -1.925759948790073395e-02 -4.376804828643798828e-02
3.122000000000000000e+03 7.890861034393310547e+00 -6.447500705718994141e+00 -1.073168707080185413e-03 -7.353623956441879272e-02 -2.238282188773155212e-02 -7.000086456537246704e-02
3.123000000000000000e+03 2.523293495178222656e+01 8.168560981750488281e+00 1.919046282768249512e+00 1.562650203704833984e+00 1.044508934020996094e+00 -1.892583131790161133e+00
3.124000000000000000e+03 2.438480949401855469e+01 4.800967216491699219e+00 1.515623807907104492e+00 -5.329683423042297363e-02 4.386980831623077393e-01 -7.504621148109436035e-02
3.125000000000000000e+03 3.340032577514648438e+01 -8.628305435180664062e+00 2.562105417251586914e+00 4.461350917816162109e+00 2.107036828994750977e+00 2.099880456924438477e+00
3.126000000000000000e+03 4.059501266479492188e+01 2.033431828022003174e-02 1.531656384468078613e+00 5.208185195922851562e+00 2.021952390670776367e+00 1.000914692878723145e+00
3.127000000000000000e+03 4.184588241577148438e+01 -5.374698042869567871e-01 1.475952386856079102e+00 3.606936931610107422e+00 1.524866819381713867e+00 -3.870612680912017822e-01
3.128000000000000000e+03 1.363113021850585938e+01 -5.655187129974365234e+00 1.080405339598655701e-02 1.493588462471961975e-02 7.721981499344110489e-03 -4.402837902307510376e-02
3.129000000000000000e+03 3.871618652343750000e+01 -1.860465854406356812e-01 1.247169494628906250e+00 6.182335853576660156e+00 2.228851556777954102e+00 3.444975614547729492e+00
3.130000000000000000e+03 9.456052780151367188e+00 -6.728507995605468750e+00 -1.168755814433097839e-02 -5.925789847970008850e-02 -2.128363773226737976e-02 -7.995118200778961182e-02
3.131000000000000000e+03 9.865953445434570312e+00 -5.269551753997802734e+00 -1.750553771853446960e-02 -5.002358555793762207e-02 -2.025873772799968719e-02 -8.772002160549163818e-02
3.132000000000000000e+03 3.502946090698242188e+01 -9.260302543640136719e+00 2.582167625427246094e+00 5.729936122894287109e+00 2.493631124496459961e+00 8.675920963287353516e-01
3.133000000000000000e+03 2.517918968200683594e+01 6.879872322082519531e+00 2.248470783233642578e+00 1.158803939819335938e+00 1.022182464599609375e+00 -1.385240912437438965e+00
3.134000000000000000e+03 1.152356624603271484e+01 -6.284873962402343750e+00 -1.835991442203521729e-02 -1.475430186837911606e-02 -9.934265166521072388e-03 -8.729425072669982910e-02
3.135000000000000000e+03 2.585486221313476562e+01 7.489570140838623047e+00 2.382518768310546875e+00 1.679286599159240723e+00 1.218541622161865234e+00 -1.677398920059204102e+00
3.136000000000000000e+03 2.598809814453125000e+01 8.848931312561035156e+00 1.469937801361083984e+00 2.395298242568969727e+00 1.159570813179016113e+00 -2.001613140106201172e+00
3.137000000000000000e+03 3.695345306396484375e+01 -2.841128110885620117e+00 1.077030897140502930e+00 6.408497810363769531e+00 2.245658636093139648e+00 1.504790544509887695e+00
3.138000000000000000e+03 3.700101089477539062e+01 -2.135710000991821289e+00 2.212536334991455078e+00 5.512433528900146484e+00 2.317491054534912109e+00 1.937565207481384277e+00
3.139000000000000000e+03 3.395239257812500000e+01 -3.374649047851562500e+00 -9.024962037801742554e-02 8.273355484008789062e+00 2.454931974411010742e+00 9.512959122657775879e-01
3.140000000000000000e+03 3.560583877563476562e+01 -5.402707576751708984e+00 7.085781693458557129e-01 8.097069740295410156e+00 2.641694545745849609e+00 3.961639404296875000e-01
3.141000000000000000e+03 5.160784530639648438e+01 -3.145976448059082031e+01 2.938558340072631836e+00 6.278919696807861328e+00 2.765243291854858398e+00 -7.757136225700378418e-01
3.142000000000000000e+03 3.294027709960937500e+01 -6.651527404785156250e+00 1.319700956344604492e+00 5.199374198913574219e+00 1.955722570419311523e+00 1.766646862030029297e+00
3.143000000000000000e+03 6.202792358398437500e+01 1.785847306251525879e+00 -6.885922551155090332e-01 5.353654861450195312e+00 1.399518728256225586e+00 -1.374332547187805176e+00
3.144000000000000000e+03 3.295108032226562500e+01 -9.236758232116699219e+00 2.419818878173828125e+00 4.056271076202392578e+00 1.942826986312866211e+00 2.269158601760864258e+00
3.145000000000000000e+03 1.125569915771484375e+01 -8.314210891723632812e+00 -3.387884050607681274e-02 -7.625988218933343887e-03 -1.245144847780466080e-02 -9.811396151781082153e-02
3.146000000000000000e+03 1.182485485076904297e+01 -5.507762432098388672e+00 -1.683796383440494537e-02 -1.987144537270069122e-02 -1.101282238960266113e-02 -7.096064090728759766e-02
3.147000000000000000e+03 6.203941726684570312e+01 -1.316249370574951172e+01 -1.325374007225036621e+00 6.582471370697021484e+00 1.577129125595092773e+00 1.143148422241210938e+00
3.148000000000000000e+03 6.374572753906250000e+01 3.360106945037841797e+00 -3.430991172790527344e-01 3.474264383316040039e+00 9.393495917320251465e-01 -5.943435430526733398e-01
3.149000000000000000e+03 6.275533676147460938e+01 1.012009501457214355e+00 -3.421125411987304688e-01 5.560215473175048828e+00 1.565430879592895508e+00 -6.994872093200683594e-01
3.150000000000000000e+03 4.345701217651367188e+01 1.578352302312850952e-01 1.700588822364807129e+00 3.647001266479492188e+00 1.604277014732360840e+00 -2.047627925872802734e+00
3.151000000000000000e+03 2.422438049316406250e+01 1.004150104522705078e+01 6.818905472755432129e-01 1.442096233367919922e+00 6.371960043907165527e-01 -1.890297532081604004e+00
3.152000000000000000e+03 4.950313186645507812e+01 2.068895101547241211e-01 9.949222803115844727e-01 4.542420864105224609e+00 1.661203026771545410e+00 -7.567844986915588379e-01
3.153000000000000000e+03 4.405286407470703125e+01 3.237519741058349609e+00 2.218428850173950195e+00 4.910826683044433594e+00 2.138776540756225586e+00 -1.538476347923278809e+00
3.154000000000000000e+03 4.843036651611328125e+01 -1.056060865521430969e-01 1.250995516777038574e+00 4.471854686737060547e+00 1.716855049133300781e+00 -1.596874952316284180e+00
3.155000000000000000e+03 1.270455169677734375e+01 -1.000513839721679688e+01 -8.884965628385543823e-02 1.221280843019485474e-01 9.983526542782783508e-03 -8.840585500001907349e-02
3.156000000000000000e+03 7.564708709716796875e+01 -2.636424255371093750e+01 -8.660618066787719727e-01 8.352338790893554688e+00 2.245882987976074219e+00 5.460676550865173340e-02
3.157000000000000000e+03 3.249726104736328125e+01 -7.185054302215576172e+00 1.411440610885620117e+00 4.856997013092041016e+00 1.880531311035156250e+00 2.224825859069824219e+00
3.158000000000000000e+03 3.440200042724609375e+01 -6.852922439575195312e+00 1.830487728118896484e+00 6.500746250152587891e+00 2.499370098114013672e+00 1.056190967559814453e+00
3.159000000000000000e+03 2.124556922912597656e+01 -1.963351821899414062e+01 1.333008408546447754e+00 2.023015171289443970e-01 4.605929851531982422e-01 2.113473564386367798e-01
3.160000000000000000e+03 3.192348670959472656e+01 -1.213030433654785156e+01 6.677632927894592285e-01 3.463001489639282227e+00 1.239229440689086914e+00 2.744446039199829102e+00
3.161000000000000000e+03 7.364478302001953125e+01 -3.153234481811523438e+01 5.761775374412536621e-01 5.665896415710449219e+00 1.872622251510620117e+00 3.107924163341522217e-01
3.162000000000000000e+03 7.073313140869140625e+01 -3.026689720153808594e+01 1.938350081443786621e+00 3.551456212997436523e+00 1.646941900253295898e+00 -8.656279742717742920e-02
3.163000000000000000e+03 4.369316101074218750e+01 -1.835045051574707031e+01 1.705708146095275879e+00 3.870815992355346680e+00 1.672957181930541992e+00 3.733909428119659424e-01
3.164000000000000000e+03 7.768045902252197266e+00 -3.002170753479003906e+01 3.274816274642944336e-01 2.847591340541839600e-01 1.836722344160079956e-01 1.800596714019775391e-01
3.165000000000000000e+03 1.011372280120849609e+01 -2.976438522338867188e+01 5.032341480255126953e-01 6.612450480461120605e-01 3.493437469005584717e-01 2.657967805862426758e-01
3.166000000000000000e+03 3.996432065963745117e+00 7.227379798889160156e+00 -1.055522039532661438e-01 -1.020653918385505676e-01 -6.228527799248695374e-02 1.715984046459197998e-01
3.167000000000000000e+03 5.793918609619140625e+01 5.462124824523925781e+00 3.422072529792785645e-01 5.688734054565429688e+00 1.809282422065734863e+00 -7.771984934806823730e-01
3.168000000000000000e+03 7.319820404052734375e+01 2.230305099487304688e+01 -8.390958309173583984e-01 6.292816638946533203e+00 1.636116147041320801e+00 -8.356854319572448730e-01
3.169000000000000000e+03 3.932212066650390625e+01 1.762753868103027344e+01 6.475281715393066406e-01 2.984521865844726562e+00 1.089614987373352051e+00 -2.161359310150146484e+00
3.170000000000000000e+03 3.810416412353515625e+01 1.685216712951660156e+01 6.810903549194335938e-01 2.876315832138061523e+00 1.067221879959106445e+00 -2.391133785247802734e+00
3.171000000000000000e+03 5.728386306762695312e+01 2.199221992492675781e+01 -1.556025862693786621e+00 1.885938882827758789e+00 9.897393733263015747e-02 -2.172479152679443359e+00
3.172000000000000000e+03 4.820922374725341797e+00 -9.458476066589355469e+00 -1.555005554109811783e-02 -1.000250205397605896e-01 -3.467252105474472046e-02 -2.962472662329673767e-02
3.173000000000000000e+03 4.994017791748046875e+01 2.327646446228027344e+01 6.468297243118286133e-01 4.856262683868408203e+00 1.650927782058715820e+00 -1.102443858981132507e-01
3.174000000000000000e+03 4.778196811676025391e+00 -6.425055503845214844e+00 9.081488242372870445e-04 -6.502114981412887573e-02 -1.923390105366706848e-02 -3.427385166287422180e-02
3.175000000000000000e+03 2.433594322204589844e+01 1.124443244934082031e+01 1.441911756992340088e-01 1.533204555511474609e+00 5.032187104225158691e-01 -1.936721086502075195e+00
3.176000000000000000e+03 7.131774902343750000e+01 -3.292536544799804688e+01 1.326329112052917480e+00 5.069992065429687500e+00 1.918896436691284180e+00 -8.009877800941467285e-01
3.177000000000000000e+03 4.001427841186523438e+01 -1.565348720550537109e+01 -2.111231565475463867e+00 3.932106971740722656e+00 5.462626218795776367e-01 -1.867283105850219727e+00
3.178000000000000000e+03 7.235987091064453125e+01 2.596918821334838867e+00 1.040109712630510330e-02 4.038620471954345703e+00 1.214706420898437500e+00 1.428096890449523926e-01
3.179000000000000000e+03 6.994834899902343750e+01 -3.117278480529785156e+01 2.076342105865478516e+00 4.181317329406738281e+00 1.877297878265380859e+00 -8.987886309623718262e-01
3.180000000000000000e+03 7.421482849121093750e+01 2.352658653259277344e+01 -3.198499977588653564e-01 6.398217678070068359e+00 1.823510289192199707e+00 -6.334406137466430664e-01
3.181000000000000000e+03 7.019718933105468750e+01 2.745162963867187500e+01 1.264114260673522949e+00 4.565579891204833984e+00 1.748908281326293945e+00 -1.902679055929183960e-01
3.182000000000000000e+03 7.151451873779296875e+01 2.711050224304199219e+01 8.022379279136657715e-01 4.992545127868652344e+00 1.738434910774230957e+00 -3.191770315170288086e-01
3.183000000000000000e+03 4.752037048339843750e+01 2.689616680145263672e+00 1.338308572769165039e+00 2.794021606445312500e+00 1.239699125289916992e+00 -1.561760902404785156e+00
3.184000000000000000e+03 6.853614044189453125e+01 2.642262220382690430e+00 4.304521381855010986e-01 2.066631793975830078e+00 7.491252422332763672e-01 2.115795850753784180e+00
3.185000000000000000e+03 7.428441619873046875e+01 4.771495342254638672e+00 -2.737468183040618896e-01 6.405325412750244141e+00 1.839473485946655273e+00 -5.209640264511108398e-01
3.186000000000000000e+03 7.293611145019531250e+01 5.932741165161132812e+00 -2.876980006694793701e-01 6.464756011962890625e+00 1.853117346763610840e+00 2.340276539325714111e-01
3.187000000000000000e+03 5.524605178833007812e+01 2.039416122436523438e+01 -1.098573803901672363e+00 3.989861726760864258e+00 8.673864006996154785e-01 -2.615836858749389648e+00
3.188000000000000000e+03 5.794810867309570312e+01 -1.764653587341308594e+01 1.295911192893981934e+00 6.529915809631347656e+00 2.347748041152954102e+00 -3.279157578945159912e-01
3.189000000000000000e+03 6.696917724609375000e+01 2.313906860351562500e+01 2.876797318458557129e-01 2.024418830871582031e+00 6.936295628547668457e-01 3.284762203693389893e-01
3.190000000000000000e+03 6.784048461914062500e+01 2.373153495788574219e+01 8.072224855422973633e-01 2.751085042953491211e+00 1.067492246627807617e+00 -3.915643095970153809e-01
3.191000000000000000e+03 2.225568389892578125e+01 -2.255292320251464844e+01 1.351318955421447754e+00 4.679653644561767578e-01 5.457853078842163086e-01 5.332687497138977051e-01
3.192000000000000000e+03 6.475073814392089844e+00 -2.602995109558105469e+01 1.115446761250495911e-01 1.359694451093673706e-01 7.425423711538314819e-02 -1.247754693031311035e-01
3.193000000000000000e+03 8.053933143615722656e+00 -3.203939819335937500e+01 3.679003715515136719e-01 3.881035149097442627e-01 2.268011718988418579e-01 3.369875252246856689e-01
3.194000000000000000e+03 6.643472194671630859e+00 -3.342129898071289062e+01 2.210745364427566528e-01 2.587327361106872559e-01 1.439421772956848145e-01 3.609960377216339111e-01
3.195000000000000000e+03 7.289683818817138672e+00 1.928559303283691406e+01 2.243389636278152466e-01 1.446173489093780518e-01 1.106868907809257507e-01 2.921422012150287628e-02
3.196000000000000000e+03 4.336912155151367188e+01 5.628859519958496094e+00 1.691276669502258301e+00 6.367115974426269531e+00 2.417517662048339844e+00 -1.246464848518371582e-01
3.197000000000000000e+03 5.858560085296630859e+00 1.988437080383300781e+01 1.316021531820297241e-01 -4.025587439537048340e-02 2.740388363599777222e-02 7.089557498693466187e-02
3.198000000000000000e+03 5.051154136657714844e+00 1.933942222595214844e+01 9.220485389232635498e-02 -1.845251768827438354e-01 -2.769609540700912476e-02 1.365905106067657471e-01
3.199000000000000000e+03 4.911175537109375000e+01 2.833781003952026367e+00 9.562386274337768555e-01 2.411319017410278320e+00 1.010267257690429688e+00 -3.845266103744506836e-01
3.200000000000000000e+03 2.391848373413085938e+01 9.004800796508789062e+00 1.229730963706970215e+00 1.050824522972106934e+00 6.841666102409362793e-01 -1.575264096260070801e+00
3.201000000000000000e+03 5.680141830444335938e+01 1.831652641296386719e+01 6.512501239776611328e-01 5.014724254608154297e+00 1.699792265892028809e+00 -8.302521705627441406e-01
3.202000000000000000e+03 5.757552719116210938e+01 1.968987274169921875e+01 4.196556508541107178e-01 4.216933250427246094e+00 1.390976548194885254e+00 -7.825801372528076172e-01
3.203000000000000000e+03 7.097192287445068359e+00 1.670984268188476562e+01 2.043092101812362671e-01 4.153723269701004028e-02 7.375393807888031006e-02 2.041781842708587646e-01
3.204000000000000000e+03 1.298100090026855469e+01 -6.155369281768798828e+00 -2.559958025813102722e-02 3.772689774632453918e-02 3.638195106759667397e-03 -6.052558124065399170e-02
3.205000000000000000e+03 1.252856349945068359e+01 -5.465660095214843750e+00 -6.851770449429750443e-03 -9.998661465942859650e-03 -5.055129528045654297e-03 -7.241991162300109863e-02
3.206000000000000000e+03 3.595149230957031250e+01 1.526192569732666016e+01 6.684209220111370087e-03 1.863246798515319824e+00 5.609793066978454590e-01 -2.114286899566650391e+00
3.207000000000000000e+03 5.960389709472656250e+01 4.792007446289062500e+00 -3.620162904262542725e-01 4.889843463897705078e+00 1.358348131179809570e+00 -1.846500158309936523e+00
3.208000000000000000e+03 7.428170013427734375e+01 3.362535095214843750e+01 1.546023786067962646e-01 6.294098854064941406e+00 1.934610366821289062e+00 3.381941020488739014e-01
3.209000000000000000e+03 7.099547576904296875e+01 3.200404357910156250e+01 6.655583381652832031e-01 5.548124790191650391e+00 1.864104986190795898e+00 5.324246287345886230e-01
3.210000000000000000e+03 7.372809600830078125e+01 3.142916870117187500e+01 3.786386847496032715e-01 6.022047042846679688e+00 1.920205712318420410e+00 1.927492618560791016e-01
3.211000000000000000e+03 4.967998123168945312e+01 2.672938346862792969e+01 2.068006038665771484e+00 6.269251823425292969e+00 2.501177310943603516e+00 7.963143587112426758e-01
3.212000000000000000e+03 5.521119117736816406e+00 9.200128555297851562e+00 -1.429250091314315796e-01 -8.509004116058349609e-02 -6.840451806783676147e-02 2.906526029109954834e-01
3.213000000000000000e+03 3.875838851928710938e+01 1.549068737030029297e+01 5.820884704589843750e-01 3.595382213592529297e+00 1.253241181373596191e+00 -1.963369131088256836e+00
3.214000000000000000e+03 4.812930107116699219e+00 -8.504441261291503906e+00 -1.693293079733848572e-02 -8.780930936336517334e-02 -3.142267093062400818e-02 -4.088877141475677490e-02
3.215000000000000000e+03 6.494954109191894531e+00 -7.071020126342773438e+00 -1.060299668461084366e-02 -8.169154077768325806e-02 -2.768836170434951782e-02 -5.158498883247375488e-02
3.216000000000000000e+03 8.825549125671386719e+00 -2.722084045410156250e+01 3.708401620388031006e-01 3.240911364555358887e-01 2.084793895483016968e-01 -7.574511226266622543e-03
3.217000000000000000e+03 5.924109268188476562e+01 -1.834367942810058594e+01 1.630956530570983887e+00 5.919933319091796875e+00 2.265266895294189453e+00 -3.596622347831726074e-01
3.218000000000000000e+03 5.774168395996093750e+01 -1.352586650848388672e+01 -6.009658682160079479e-04 4.295887947082519531e+00 1.288586020469665527e+00 -8.140987157821655273e-01
3.219000000000000000e+03 6.816783905029296875e+01 2.574317169189453125e+01 1.731448173522949219e+00 3.718770027160644531e+00 1.635065436363220215e+00 4.195800982415676117e-03
3.220000000000000000e+03 2.301281356811523438e+01 -1.769372749328613281e+01 1.150286912918090820e+00 6.505061984062194824e-01 5.402379631996154785e-01 2.144024521112442017e-01
3.221000000000000000e+03 2.823118209838867188e+01 -3.164059257507324219e+01 -3.223313391208648682e-01 3.088521480560302734e+00 8.298570513725280762e-01 -1.027511060237884521e-01
3.222000000000000000e+03 4.426280593872070312e+01 5.644262313842773438e+00 1.052367091178894043e+00 5.670322418212890625e+00 2.016806840896606445e+00 -7.844945788383483887e-01
3.223000000000000000e+03 7.898479938507080078e+00 -1.074959087371826172e+01 -7.345362752676010132e-02 -1.469544321298599243e-01 -6.612242013216018677e-02 -8.655174821615219116e-02
3.224000000000000000e+03 5.997685241699218750e+01 -2.199767112731933594e+01 2.732593774795532227e+00 4.337618350982666016e+00 2.121063709259033203e+00 -6.143444776535034180e-01
3.225000000000000000e+03 5.817154312133789062e+01 -2.314414787292480469e+01 1.645279884338378906e+00 5.331112384796142578e+00 2.092917680740356445e+00 8.975571990013122559e-01
3.226000000000000000e+03 5.997747039794921875e+01 -2.000179862976074219e+01 2.539166927337646484e+00 5.282391548156738281e+00 2.346467494964599609e+00 -6.788504719734191895e-01
3.227000000000000000e+03 2.520674705505371094e+01 -2.346655654907226562e+01 1.005508661270141602e+00 2.938545465469360352e+00 1.183216214179992676e+00 7.539589405059814453e-01
3.228000000000000000e+03 2.516515541076660156e+01 -2.139407730102539062e+01 1.769111633300781250e+00 2.728908061981201172e+00 1.349405884742736816e+00 5.816540122032165527e-01
3.229000000000000000e+03 4.498666000366210938e+01 3.826182603836059570e+00 1.834869742393493652e+00 4.080147743225097656e+00 1.774505138397216797e+00 -1.717808723449707031e+00
3.230000000000000000e+03 7.252394104003906250e+01 2.280206108093261719e+01 -6.990597844123840332e-01 5.751433372497558594e+00 1.515712022781372070e+00 -1.023042678833007812e+00
3.231000000000000000e+03 2.916010475158691406e+01 -3.688563156127929688e+01 -1.639591455459594727e-01 2.930863380432128906e+00 8.300712704658508301e-01 -2.234549671411514282e-01
3.232000000000000000e+03 2.674255561828613281e+01 3.504325866699218750e+01 2.686304040253162384e-02 2.156700849533081055e+00 6.550691723823547363e-01 -5.120075345039367676e-01
3.233000000000000000e+03 3.287955093383789062e+01 3.265266418457031250e+01 -2.588463425636291504e-01 4.261390686035156250e+00 1.200763225555419922e+00 -8.657018542289733887e-01
3.234000000000000000e+03 3.178610801696777344e+01 3.382487487792968750e+01 -4.470372796058654785e-01 3.622401714324951172e+00 9.526093602180480957e-01 -9.383280873298645020e-01
3.235000000000000000e+03 1.957223701477050781e+01 -2.009531784057617188e+01 1.069949507713317871e+00 6.622418761253356934e-02 3.408521115779876709e-01 3.305821716785430908e-01
3.236000000000000000e+03 1.382055377960205078e+01 -8.164541244506835938e+00 -6.680362671613693237e-02 1.078398153185844421e-01 1.231085415929555893e-02 -2.259913086891174316e-02
3.237000000000000000e+03 5.878590393066406250e+01 -1.432291507720947266e+01 -3.886132538318634033e-01 5.344559669494628906e+00 1.486783981323242188e+00 1.136587932705879211e-01
3.238000000000000000e+03 6.820324707031250000e+01 2.953775215148925781e+01 1.451083064079284668e+00 4.828971862792968750e+00 1.884016513824462891e+00 9.586405158042907715e-01
3.239000000000000000e+03 6.260674667358398438e+01 -1.670372009277343750e+01 -6.424576640129089355e-01 6.628976345062255859e+00 1.795955657958984375e+00 -1.975535899400711060e-01
3.240000000000000000e+03 9.084890365600585938e+00 -3.349963760375976562e+01 3.097727298736572266e-01 5.889096260070800781e-01 2.696047127246856689e-01 4.455642700195312500e-01
3.241000000000000000e+03 8.516553878784179688e+00 -3.080409622192382812e+01 3.758504092693328857e-01 4.102466106414794922e-01 2.358291149139404297e-01 2.801384627819061279e-01
3.242000000000000000e+03 6.062486648559570312e+01 -1.384285545349121094e+01 -9.739717245101928711e-01 6.142747402191162109e+00 1.550632715225219727e+00 9.588087797164916992e-01
3.243000000000000000e+03 4.957323455810546875e+01 -1.248767852783203125e+01 6.806225050240755081e-03 5.937545299530029297e+00 1.783305525779724121e+00 -9.880526363849639893e-02
3.244000000000000000e+03 6.834731101989746094e+00 9.711328506469726562e+00 -1.882509887218475342e-01 -4.083318263292312622e-02 -6.872525066137313843e-02 3.236400187015533447e-01
3.245000000000000000e+03 7.149405956268310547e+00 1.068906116485595703e+01 -1.493010520935058594e-01 -5.810273066163063049e-02 -6.222113594412803650e-02 3.674903512001037598e-01
3.246000000000000000e+03 6.116837692260742188e+01 -1.929452896118164062e+01 2.056237220764160156e+00 5.699213981628417969e+00 2.326635360717773438e+00 -1.132752299308776855e+00
3.247000000000000000e+03 7.567064285278320312e+00 -2.737988281250000000e+01 2.507364153861999512e-01 2.078579366207122803e-01 1.375783085823059082e-01 -3.243881836533546448e-02
3.248000000000000000e+03 4.691096496582031250e+01 3.651808547973632812e+01 -1.279293298721313477e+00 4.595976352691650391e+00 9.950048923492431641e-01 -7.483960986137390137e-01
3.249000000000000000e+03 7.178366851806640625e+01 5.696147918701171875e+00 -1.646919101476669312e-01 5.518367290496826172e+00 1.606102585792541504e+00 1.010556817054748535e+00
3.250000000000000000e+03 6.279555892944335938e+01 3.369093656539916992e+00 -6.516857743263244629e-01 4.271708011627197266e+00 1.086006641387939453e+00 -1.323839068412780762e+00
3.251000000000000000e+03 5.761642456054687500e+01 1.763428878784179688e+01 1.238126635551452637e+00 5.789788722991943359e+00 2.108374595642089844e+00 -2.184995822608470917e-02
3.252000000000000000e+03 5.998481750488281250e+01 -1.502328300476074219e+01 -4.937552809715270996e-01 6.022898197174072266e+00 1.658742785453796387e+00 3.137441277503967285e-01
3.253000000000000000e+03 5.482766342163085938e+01 3.958473587036132812e+01 -1.274349689483642578e+00 3.810956239700317383e+00 7.609819173812866211e-01 7.039754390716552734e-01
3.254000000000000000e+03 5.000666046142578125e+01 3.821921539306640625e+01 -1.624603986740112305e+00 5.174849510192871094e+00 1.065073728561401367e+00 -2.436847612261772156e-02
3.255000000000000000e+03 6.257927703857421875e+01 2.486621618270874023e+00 -5.315955877304077148e-01 4.645478725433349609e+00 1.234164834022521973e+00 -1.256322145462036133e+00
3.256000000000000000e+03 3.567676544189453125e+01 1.843461608886718750e+01 3.586020171642303467e-01 3.097291946411132812e+00 1.036768198013305664e+00 -2.151331663131713867e+00
3.257000000000000000e+03 4.734044265747070312e+01 -3.954141438007354736e-01 1.345456123352050781e+00 4.249817371368408203e+00 1.678582072257995605e+00 -2.214641094207763672e+00
3.258000000000000000e+03 5.119182586669921875e+01 2.320760536193847656e+01 2.039367407560348511e-01 4.764509201049804688e+00 1.490533709526062012e+00 -7.194551229476928711e-01
3.259000000000000000e+03 2.368865013122558594e+01 -1.870185470581054688e+01 1.431207776069641113e+00 1.098714232444763184e+00 7.589766383171081543e-01 3.704549670219421387e-01
3.260000000000000000e+03 3.253526306152343750e+01 -3.354861021041870117e+00 2.753807008266448975e-01 5.570527553558349609e+00 1.753772377967834473e+00 2.125590562820434570e+00
3.261000000000000000e+03 3.348690032958984375e+01 -4.120173454284667969e+00 6.303884834051132202e-02 7.052499771118164062e+00 2.134661436080932617e+00 1.391789436340332031e+00
3.262000000000000000e+03 3.323530960083007812e+01 -3.515863895416259766e+00 -4.203484952449798584e-02 7.153954505920410156e+00 2.133575916290283203e+00 1.675832748413085938e+00
3.263000000000000000e+03 3.532312011718750000e+01 -2.953655004501342773e+00 1.143461465835571289e+00 7.956150054931640625e+00 2.729883432388305664e+00 -1.457699835300445557e-01
3.264000000000000000e+03 3.505316543579101562e+01 -3.397738695144653320e+00 5.407522320747375488e-01 8.360712051391601562e+00 2.670439243316650391e+00 1.138958632946014404e-01
3.265000000000000000e+03 3.619936370849609375e+01 -3.422369956970214844e+00 8.324270248413085938e-01 7.412720680236816406e+00 2.473544359207153320e+00 5.357290506362915039e-01
3.266000000000000000e+03 3.160787391662597656e+01 -3.997376441955566406e+00 4.482611417770385742e-01 3.315606594085693359e+00 1.129160284996032715e+00 1.605831027030944824e+00
3.267000000000000000e+03 3.200473022460937500e+01 -4.833292484283447266e+00 4.566238820552825928e-01 4.406581401824951172e+00 1.458961486816406250e+00 1.631179213523864746e+00
3.268000000000000000e+03 3.461335372924804688e+01 -3.175072193145751953e+00 3.631954789161682129e-01 8.576585769653320312e+00 2.681934356689453125e+00 1.422277390956878662e-01
3.269000000000000000e+03 4.820259571075439453e+00 6.008890151977539062e+00 -1.272183507680892944e-01 -6.909781694412231445e-02 -5.889484658837318420e-02 1.426360011100769043e-01
3.270000000000000000e+03 3.578652954101562500e+01 -1.501419425010681152e+00 4.225228309631347656e+00 5.177228450775146484e+00 2.820737123489379883e+00 4.274873435497283936e-01
3.271000000000000000e+03 2.672652816772460938e+01 7.195094585418701172e+00 2.913191080093383789e+00 2.906486988067626953e+00 1.745903372764587402e+00 -1.980285406112670898e+00
3.272000000000000000e+03 6.491823196411132812e+00 6.781479358673095703e+00 -2.014590948820114136e-01 -6.056254729628562927e-02 -7.860649377107620239e-02 1.831756085157394409e-01
3.273000000000000000e+03 8.991768836975097656e+00 -9.057658195495605469e+00 -2.576624602079391479e-02 -9.464208036661148071e-02 -3.612249717116355896e-02 -8.932576328516006470e-02
3.274000000000000000e+03 3.626721572875976562e+01 -1.515921950340270996e+00 3.661896467208862305e+00 5.111573219299316406e+00 2.632040739059448242e+00 1.397889256477355957e+00
3.275000000000000000e+03 5.552759170532226562e+00 -6.317774295806884766e+00 -5.726346746087074280e-03 -5.653012543916702271e-02 -1.867694221436977386e-02 -2.986085414886474609e-02
3.276000000000000000e+03 6.318784236907958984e+00 -6.267287254333496094e+00 -2.347359113628044724e-04 -7.872723788022994995e-02 -2.368859201669692993e-02 -5.242729932069778442e-02
3.277000000000000000e+03 2.440966987609863281e+01 6.355117797851562500e+00 2.040184259414672852e+00 2.517413794994354248e-01 6.875777244567871094e-01 -7.559953927993774414e-01
3.278000000000000000e+03 8.598258972167968750e+00 -6.653138160705566406e+00 -1.505183521658182144e-02 -7.094052433967590332e-02 -2.579770796000957489e-02 -8.220824599266052246e-02
3.279000000000000000e+03 9.323251724243164062e+00 -5.770981788635253906e+00 -7.309327367693185806e-03 -5.804250389337539673e-02 -1.960554905235767365e-02 -8.690541982650756836e-02
3.280000000000000000e+03 3.244693374633789062e+01 -6.166972160339355469e+00 9.472094178199768066e-01 4.879704952239990234e+00 1.748074293136596680e+00 1.775635480880737305e+00
3.281000000000000000e+03 3.236435699462890625e+01 -1.041646862030029297e+01 2.164491653442382812e+00 3.620827674865722656e+00 1.735595822334289551e+00 2.512527704238891602e+00
3.282000000000000000e+03 3.397127151489257812e+01 -1.079310417175292969e+01 1.960654735565185547e+00 3.486257076263427734e+00 1.634073615074157715e+00 1.809856653213500977e+00
3.283000000000000000e+03 3.385543060302734375e+01 -8.041878700256347656e+00 2.348273992538452148e+00 5.238140583038330078e+00 2.275924205780029297e+00 1.698173046112060547e+00
3.284000000000000000e+03 3.492231369018554688e+01 -5.813363075256347656e+00 1.059185862541198730e+00 7.489511966705322266e+00 2.564609289169311523e+00 6.765642762184143066e-01
3.285000000000000000e+03 3.356708526611328125e+01 -6.929409503936767578e+00 1.675707817077636719e+00 5.666004657745361328e+00 2.202513694763183594e+00 1.541644334793090820e+00
3.286000000000000000e+03 3.276422882080078125e+01 -8.206716537475585938e+00 2.200279951095581055e+00 4.427320957183837891e+00 1.988280296325683594e+00 2.336552143096923828e+00
3.287000000000000000e+03 3.600354003906250000e+01 -3.945191621780395508e+00 5.200476646423339844e-01 7.912414073944091797e+00 2.529738426208496094e+00 4.749513268470764160e-01
3.288000000000000000e+03 6.474330425262451172e+00 8.802113533020019531e+00 -2.169864475727081299e-01 -7.406450808048248291e-02 -8.731528371572494507e-02 2.761567234992980957e-01
3.289000000000000000e+03 1.066402149200439453e+01 -8.830552101135253906e+00 -5.793430283665657043e-02 -3.260532021522521973e-02 -2.716188691556453705e-02 -1.122693717479705811e-01
3.290000000000000000e+03 1.063363838195800781e+01 -5.766854286193847656e+00 -1.237529143691062927e-02 -4.193400964140892029e-02 -1.629278995096683502e-02 -8.178128302097320557e-02
3.291000000000000000e+03 3.639271545410156250e+01 -2.672645330429077148e+00 1.706437349319458008e+00 6.669763565063476562e+00 2.512860298156738281e+00 8.348220586776733398e-01
3.292000000000000000e+03 3.733021163940429688e+01 1.746047973632812500e+01 5.513768196105957031e-01 2.632803201675415039e+00 9.552540183067321777e-01 -2.545257091522216797e+00
3.293000000000000000e+03 1.240568637847900391e+01 -6.896790027618408203e+00 -2.311317250132560730e-02 1.453039050102233887e-02 -2.574834739789366722e-03 -7.067150622606277466e-02
3.294000000000000000e+03 4.904708862304687500e+01 1.264979839324951172e+00 9.806305170059204102e-01 3.728436946868896484e+00 1.412720203399658203e+00 -7.600685954093933105e-01
3.295000000000000000e+03 4.668787002563476562e+01 3.021946430206298828e+00 1.493400573730468750e+00 2.824212551116943359e+00 1.295283913612365723e+00 -1.822939991950988770e+00
3.296000000000000000e+03 5.792387390136718750e+01 -1.522101020812988281e+01 -1.440318822860717773e-01 5.661238670349121094e+00 1.655161976814270020e+00 -6.599057912826538086e-01
3.297000000000000000e+03 7.941587448120117188e+00 -8.636290550231933594e+00 -2.959764935076236725e-02 -1.072961091995239258e-01 -4.106812551617622375e-02 -7.883962988853454590e-02
3.298000000000000000e+03 2.400864219665527344e+01 8.224649429321289062e+00 1.543946146965026855e+00 8.777585029602050781e-01 7.265114188194274902e-01 -1.484197497367858887e+00
3.299000000000000000e+03 2.054385566711425781e+01 -2.071371269226074219e+01 1.320857882499694824e+00 8.761399239301681519e-02 4.225415885448455811e-01 4.207631349563598633e-01
3.300000000000000000e+03 1.981749916076660156e+01 -2.162909507751464844e+01 1.141746163368225098e+00 7.807253301143646240e-02 3.659456074237823486e-01 6.212126612663269043e-01
3.301000000000000000e+03 2.049542045593261719e+01 -2.228909111022949219e+01 1.225717306137084961e+00 6.622067652642726898e-03 3.697018325328826904e-01 6.888867616653442383e-01
3.302000000000000000e+03 2.308160209655761719e+01 7.846893787384033203e+00 1.346282243728637695e+00 3.200618028640747070e-01 4.999032318592071533e-01 -9.070098400115966797e-01
3.303000000000000000e+03 6.949812316894531250e+01 2.339105796813964844e+01 -2.818038687109947205e-03 3.581335306167602539e+00 1.073555231094360352e+00 -1.245722770690917969e+00
3.304000000000000000e+03 6.187235260009765625e+01 -1.421355247497558594e+01 -1.171583533287048340e+00 6.435185432434082031e+00 1.579080581665039062e+00 7.658912539482116699e-01
3.305000000000000000e+03 6.087901306152343750e+01 -1.588577556610107422e+01 -3.763621449470520020e-01 6.353926658630371094e+00 1.793269395828247070e+00 2.343721985816955566e-01
3.306000000000000000e+03 7.638490676879882812e+00 -2.597452545166015625e+01 2.076127827167510986e-01 1.864555329084396362e-01 1.182205006480216980e-01 -1.335083395242691040e-01
3.307000000000000000e+03 2.604063987731933594e+01 -2.530568122863769531e+01 -3.626003265380859375e-01 3.771056175231933594e+00 1.022536754608154297e+00 7.359578013420104980e-01
3.308000000000000000e+03 2.626590156555175781e+01 -2.700442695617675781e+01 -1.314053535461425781e+00 3.870661497116088867e+00 7.669823765754699707e-01 5.144816637039184570e-01
3.309000000000000000e+03 2.450162887573242188e+01 7.557587146759033203e+00 1.856816649436950684e+00 7.985742688179016113e-01 7.966172695159912109e-01 -1.296319365501403809e+00
3.310000000000000000e+03 9.146751403808593750e+00 -1.031998443603515625e+01 -6.806130707263946533e-02 -1.036372780799865723e-01 -5.150957405567169189e-02 -1.157322898507118225e-01
3.311000000000000000e+03 6.767612457275390625e+01 2.693925094604492188e+01 1.850993752479553223e+00 4.124695301055908203e+00 1.792706727981567383e+00 6.561350226402282715e-01
3.312000000000000000e+03 7.115580749511718750e+01 3.014643859863281250e+01 9.251721501350402832e-01 5.335198402404785156e+00 1.878111243247985840e+00 2.862488329410552979e-01
3.313000000000000000e+03 4.445959472656250000e+01 1.857438445091247559e+00 2.099612951278686523e+00 4.028372764587402344e+00 1.838395714759826660e+00 -2.179649829864501953e+00
3.314000000000000000e+03 3.285277175903320312e+01 -1.139785957336425781e+01 1.369560360908508301e+00 3.277922630310058594e+00 1.394244909286499023e+00 2.422837018966674805e+00
3.315000000000000000e+03 3.445798110961914062e+01 -3.529553985595703125e+01 3.275117874145507812e-01 2.447134256362915039e+00 8.323938250541687012e-01 1.163544058799743652e+00
3.316000000000000000e+03 3.128187751770019531e+01 -3.162129974365234375e+01 -1.359092593193054199e-01 1.869425296783447266e+00 5.200548171997070312e-01 -4.818960130214691162e-01
3.317000000000000000e+03 7.116629791259765625e+01 2.894734382629394531e+00 2.888361513614654541e-01 3.243759632110595703e+00 1.059778690338134766e+00 1.012568235397338867e+00
3.318000000000000000e+03 7.427348327636718750e+01 3.019310379028320312e+01 4.702822566032409668e-01 6.118037700653076172e+00 1.976495981216430664e+00 2.281653136014938354e-02
3.319000000000000000e+03 6.514929962158203125e+01 2.755365848541259766e+00 1.639156937599182129e-01 3.117493629455566406e+00 9.844228029251098633e-01 3.856996893882751465e-01
3.320000000000000000e+03 5.633377075195312500e+01 2.061699295043945312e+01 -5.882881283760070801e-01 3.523721218109130859e+00 8.806299567222595215e-01 -2.242849826812744141e+00
3.321000000000000000e+03 7.273896026611328125e+01 2.476243591308593750e+01 2.981567010283470154e-02 5.509838581085205078e+00 1.661896228790283203e+00 -7.577399611473083496e-01
3.322000000000000000e+03 7.058636474609375000e+01 2.407564163208007812e+01 -1.015220768749713898e-02 4.257414817810058594e+00 1.274178743362426758e+00 -1.074760437011718750e+00
3.323000000000000000e+03 4.836395645141601562e+01 2.010091066360473633e+00 1.277128934860229492e+00 2.991252660751342773e+00 1.280514478683471680e+00 -1.124480247497558594e+00
3.324000000000000000e+03 2.375788116455078125e+01 -2.183266067504882812e+01 1.569815754890441895e+00 1.651878237724304199e+00 9.665081501007080078e-01 5.960017442703247070e-01
3.325000000000000000e+03 1.111497783660888672e+01 -7.056830883026123047e+00 -2.119290269911289215e-02 -2.113386057317256927e-02 -1.269802823662757874e-02 -8.727805316448211670e-02
3.326000000000000000e+03 4.255541610717773438e+01 1.886132240295410156e+01 -2.352171093225479126e-01 4.061398983001708984e+00 1.147854566574096680e+00 7.271026372909545898e-01
3.327000000000000000e+03 4.052792358398437500e+01 1.734393501281738281e+01 1.037616014480590820e+00 3.805475473403930664e+00 1.452927470207214355e+00 -1.565879464149475098e+00
3.328000000000000000e+03 4.579092025756835938e+01 3.131687879562377930e+00 1.685930967330932617e+00 3.582397222518920898e+00 1.580498456954956055e+00 -1.930073976516723633e+00
3.329000000000000000e+03 5.833920288085937500e+01 -1.633687210083007812e+01 3.215453028678894043e-01 6.038743495941162109e+00 1.908086538314819336e+00 -1.095977500081062317e-01
3.330000000000000000e+03 8.368496894836425781e+00 -7.593191623687744141e+00 -3.756724763661623001e-03 -8.228161931037902832e-02 -2.581150457262992859e-02 -7.915862649679183960e-02
3.331000000000000000e+03 5.790108680725097656e+00 -7.389801025390625000e+00 2.263310831040143967e-03 -8.948749303817749023e-02 -2.616725489497184753e-02 -4.638756811618804932e-02
3.332000000000000000e+03 7.185635566711425781e+00 -9.533489227294921875e+00 -2.328066527843475342e-02 -1.210538148880004883e-01 -4.330034554004669189e-02 -7.083867490291595459e-02
3.333000000000000000e+03 6.251023483276367188e+01 -1.246133995056152344e+01 -1.318990468978881836e+00 6.824797630310058594e+00 1.651742100715637207e+00 9.563839435577392578e-01
3.334000000000000000e+03 6.139157104492187500e+01 -1.705733871459960938e+01 -1.642791926860809326e-02 6.447327136993408203e+00 1.929269790649414062e+00 -3.513009548187255859e-01
3.335000000000000000e+03 7.292801666259765625e+01 2.398231506347656250e+01 -1.632099300622940063e-01 5.770308494567871094e+00 1.682129621505737305e+00 -9.213927984237670898e-01
3.336000000000000000e+03 7.289749145507812500e+01 2.699500465393066406e+01 4.712348282337188721e-01 5.518848419189453125e+00 1.797024965286254883e+00 -4.960421919822692871e-01
3.337000000000000000e+03 7.169963073730468750e+01 -3.121199035644531250e+01 1.440741658210754395e+00 4.299458980560302734e+00 1.722060203552246094e+00 4.234587028622627258e-02
3.338000000000000000e+03 7.205426025390625000e+01 2.359759521484375000e+01 -5.292361974716186523e-01 5.378840923309326172e+00 1.454881429672241211e+00 -1.019429802894592285e+00
3.339000000000000000e+03 7.077828979492187500e+01 -3.194193267822265625e+01 2.046422719955444336e+00 4.504055976867675781e+00 1.965143680572509766e+00 -7.636738419532775879e-01
3.340000000000000000e+03 2.204727172851562500e+01 -1.857916259765625000e+01 1.259406447410583496e+00 3.684037327766418457e-01 4.883430600166320801e-01 1.038937494158744812e-01
3.341000000000000000e+03 2.151822280883789062e+01 -2.146664237976074219e+01 1.418645977973937988e+00 3.309196829795837402e-01 5.248696804046630859e-01 5.419074892997741699e-01
3.342000000000000000e+03 5.123497390747070312e+01 2.442230224609375000e+01 8.519445657730102539e-01 5.261387825012207031e+00 1.833999752998352051e+00 -2.584912776947021484e-01
3.343000000000000000e+03 5.841576385498046875e+01 4.245257854461669922e+00 -1.313150227069854736e-01 4.836105346679687500e+00 1.411437034606933594e+00 -1.523353695869445801e+00
3.344000000000000000e+03 7.001393127441406250e+01 3.444586563110351562e+01 3.943494707345962524e-02 5.611337661743164062e+00 1.695231676101684570e+00 6.669038534164428711e-01
3.345000000000000000e+03 6.719173431396484375e+01 3.446527099609375000e+01 -2.769200801849365234e-01 5.448737144470214844e+00 1.551545023918151855e+00 7.644947171211242676e-01
3.346000000000000000e+03 3.194568061828613281e+01 -3.644242477416992188e+01 1.569274365901947021e-01 2.426201581954956055e+00 7.749387025833129883e-01 2.478648573160171509e-01
3.347000000000000000e+03 3.145585060119628906e+01 3.028923416137695312e+01 5.939022302627563477e-01 3.655750036239624023e+00 1.274895668029785156e+00 -1.403743743896484375e+00
3.348000000000000000e+03 3.393635940551757812e+01 3.074510383605957031e+01 4.280001223087310791e-01 5.529022693634033203e+00 1.787106871604919434e+00 -6.004189252853393555e-01
3.349000000000000000e+03 7.173056793212890625e+01 3.328590393066406250e+01 2.616860866546630859e-01 5.798065185546875000e+00 1.817925333976745605e+00 4.885764122009277344e-01
3.350000000000000000e+03 3.086001777648925781e+01 3.538010787963867188e+01 -6.057883501052856445e-01 3.154197216033935547e+00 7.645226716995239258e-01 -6.792019009590148926e-01
3.351000000000000000e+03 2.897284317016601562e+01 3.476409149169921875e+01 -1.464374661445617676e-01 2.620579242706298828e+00 7.422425746917724609e-01 -7.666301727294921875e-01
3.352000000000000000e+03 4.813148498535156250e+01 1.025873422622680664e+00 1.287896871566772461e+00 3.657200813293457031e+00 1.483529329299926758e+00 -1.593940615653991699e+00
3.353000000000000000e+03 8.881026268005371094e+00 -2.971311187744140625e+01 4.604013264179229736e-01 4.349333047866821289e-01 2.686004042625427246e-01 1.793938875198364258e-01
3.354000000000000000e+03 4.738212585449218750e+01 4.122713470458984375e+01 -1.604155659675598145e+00 4.366131782531738281e+00 8.285928964614868164e-01 -2.172531932592391968e-01
3.355000000000000000e+03 4.644920349121093750e+01 3.874691247940063477e+00 1.362527012825012207e+00 2.917215347290039062e+00 1.283922672271728516e+00 -1.667312383651733398e+00
3.356000000000000000e+03 3.502980804443359375e+01 3.505719757080078125e+01 -1.369145393371582031e+00 3.365249872207641602e+00 5.988313555717468262e-01 4.178350046277046204e-02
3.357000000000000000e+03 9.817995071411132812e+00 3.627301788330078125e+01 -3.177890777587890625e-01 -1.463811993598937988e-01 -1.392510831356048584e-01 -3.345999494194984436e-02
3.358000000000000000e+03 7.878737449645996094e+00 4.121410751342773438e+01 -5.190045572817325592e-03 -2.201569378376007080e-01 -6.760409474372863770e-02 9.996643289923667908e-03
3.359000000000000000e+03 2.811883163452148438e+01 -4.129570770263671875e+01 -1.124920487403869629e+00 3.276730298995971680e+00 6.455429792404174805e-01 -1.827512085437774658e-01
3.360000000000000000e+03 8.449230194091796875e+00 3.893869400024414062e+01 -6.689146161079406738e-02 -1.795312762260437012e-01 -7.392682135105133057e-02 1.055227126926183701e-02
3.361000000000000000e+03 3.360082244873046875e+01 -4.958780765533447266e+00 3.281662762165069580e-01 6.771347522735595703e+00 2.129854202270507812e+00 1.238726973533630371e+00
3.362000000000000000e+03 3.216873550415039062e+01 -4.238365173339843750e+00 3.327801823616027832e-01 4.608280658721923828e+00 1.482318282127380371e+00 1.788781166076660156e+00
3.363000000000000000e+03 3.573800659179687500e+01 -3.260158300399780273e+00 9.390685558319091797e-01 7.806546688079833984e+00 2.623684644699096680e+00 2.272101342678070068e-01
3.364000000000000000e+03 3.481751632690429688e+01 -4.348702430725097656e+00 2.133274078369140625e-01 8.049765586853027344e+00 2.478927850723266602e+00 5.426627397537231445e-01
3.365000000000000000e+03 3.480202102661132812e+01 -3.864538431167602539e+00 2.239283770322799683e-01 8.150514602661132812e+00 2.512332916259765625e+00 4.202527403831481934e-01
3.366000000000000000e+03 3.243665313720703125e+01 -4.558810234069824219e+00 4.238274991512298584e-01 5.191726684570312500e+00 1.684666275978088379e+00 1.678848266601562500e+00
3.367000000000000000e+03 3.239815139770507812e+01 -5.213596343994140625e+00 6.316692829132080078e-01 4.965519428253173828e+00 1.679156541824340820e+00 1.635025739669799805e+00
3.368000000000000000e+03 3.280265045166015625e+01 -4.266547203063964844e+00 1.648223251104354858e-01 5.844301700592041016e+00 1.802737236022949219e+00 1.759809494018554688e+00
3.369000000000000000e+03 3.324169158935546875e+01 -7.577547073364257812e+00 2.165317773818969727e+00 5.029312133789062500e+00 2.158388853073120117e+00 1.901489973068237305e+00
3.370000000000000000e+03 3.515903854370117188e+01 -4.848830223083496094e+00 3.863172531127929688e-01 7.953659057617187500e+00 2.501992940902709961e+00 5.765856504440307617e-01
3.371000000000000000e+03 3.565072631835937500e+01 -4.435716152191162109e+00 4.364049136638641357e-01 8.049736022949218750e+00 2.545842170715332031e+00 3.513945639133453369e-01
3.372000000000000000e+03 7.076988220214843750e+00 -7.855337619781494141e+00 -3.433419857174158096e-03 -9.454047679901123047e-02 -2.939216792583465576e-02 -6.033825501799583435e-02
3.373000000000000000e+03 3.389362335205078125e+01 -5.504167079925537109e+00 7.077087163925170898e-01 6.812533378601074219e+00 2.256072521209716797e+00 1.096513628959655762e+00
3.374000000000000000e+03 9.257590293884277344e+00 -7.873642921447753906e+00 -2.306962199509143829e-02 -7.078677415847778320e-02 -2.815691754221916199e-02 -9.684867411851882935e-02
3.375000000000000000e+03 3.418358230590820312e+01 -6.121898651123046875e+00 1.137193679809570312e+00 6.794383049011230469e+00 2.379472970962524414e+00 1.021261692047119141e+00
3.376000000000000000e+03 3.456087112426757812e+01 -5.190066337585449219e+00 5.011606812477111816e-01 7.530595302581787109e+00 2.409526824951171875e+00 7.370057106018066406e-01
3.377000000000000000e+03 1.034158992767333984e+01 -6.758761882781982422e+00 -1.073039416223764420e-02 -4.885441809892654419e-02 -1.787544414401054382e-02 -9.317142516374588013e-02
3.378000000000000000e+03 5.967582321166992188e+01 -1.626973724365234375e+01 2.153780907392501831e-01 6.152353286743164062e+00 1.910319328308105469e+00 -1.030879467725753784e-01
3.379000000000000000e+03 6.980900287628173828e+00 7.492102622985839844e+00 -2.280221730470657349e-01 -7.792399823665618896e-02 -9.178385138511657715e-02 2.221876680850982666e-01
3.380000000000000000e+03 1.182565212249755859e+01 -7.670643806457519531e+00 -4.426474869251251221e-02 1.230500172823667526e-02 -9.587924927473068237e-03 -8.801417797803878784e-02
3.381000000000000000e+03 1.008111953735351562e+01 -8.202510833740234375e+00 -1.736501418054103851e-02 -5.731545761227607727e-02 -2.240414172410964966e-02 -9.104071557521820068e-02
3.382000000000000000e+03 1.060673999786376953e+01 -7.607024669647216797e+00 -3.744014725089073181e-02 -3.584325686097145081e-02 -2.198502048850059509e-02 -9.597904980182647705e-02
3.383000000000000000e+03 2.224161338806152344e+01 -2.038164901733398438e+01 1.644443154335021973e+00 5.725787878036499023e-01 6.651065945625305176e-01 3.683337271213531494e-01
3.384000000000000000e+03 2.337425041198730469e+01 -2.044161605834960938e+01 1.716759920120239258e+00 1.194339632987976074e+00 8.733298778533935547e-01 4.575605690479278564e-01
3.385000000000000000e+03 2.569043159484863281e+01 6.135592460632324219e+00 2.694576025009155273e+00 1.247052073478698730e+00 1.182488441467285156e+00 -1.197735309600830078e+00
3.386000000000000000e+03 6.893141937255859375e+01 3.145905494689941406e+01 9.044150114059448242e-01 5.267745494842529297e+00 1.851648092269897461e+00 8.851425051689147949e-01
3.387000000000000000e+03 4.565206146240234375e+01 1.979636788368225098e+00 1.803096652030944824e+00 3.684796333312988281e+00 1.646367907524108887e+00 -2.230435132980346680e+00
3.388000000000000000e+03 4.675210189819335938e+01 2.056374073028564453e+00 1.513498902320861816e+00 3.272244215011596680e+00 1.435722947120666504e+00 -1.992223858833312988e+00
3.389000000000000000e+03 7.253659057617187500e+01 -3.243250274658203125e+01 1.186127781867980957e+00 5.298114299774169922e+00 1.945272684097290039e+00 -1.698467284440994263e-01
3.390000000000000000e+03 7.193827056884765625e+01 3.134253311157226562e+01 5.596127510070800781e-01 5.556694507598876953e+00 1.834892153739929199e+00 3.734278976917266846e-01
3.391000000000000000e+03 7.310409545898437500e+01 2.835117912292480469e+01 6.081816554069519043e-01 5.624062538146972656e+00 1.869673371315002441e+00 -1.982593834400177002e-01
3.392000000000000000e+03 7.168725585937500000e+01 2.456217765808105469e+01 1.998411267995834351e-01 5.052738189697265625e+00 1.575773715972900391e+00 -1.021127223968505859e+00
3.393000000000000000e+03 7.145285034179687500e+01 2.574106025695800781e+01 5.718802213668823242e-01 4.748413085937500000e+00 1.596088051795959473e+00 -6.637188792228698730e-01
3.394000000000000000e+03 6.923791503906250000e+01 3.263939285278320312e+01 4.803586602210998535e-01 5.339981079101562500e+00 1.746101975440979004e+00 7.354100942611694336e-01
3.395000000000000000e+03 7.003840637207031250e+01 3.078409385681152344e+01 8.515363335609436035e-01 5.125265121459960938e+00 1.793040394783020020e+00 5.448519587516784668e-01
3.396000000000000000e+03 6.625674438476562500e+01 3.574682998657226562e+01 -7.779465913772583008e-01 5.208463191986083984e+00 1.329155087471008301e+00 4.019518196582794189e-01
3.397000000000000000e+03 7.055440521240234375e+01 -3.912763595581054688e+01 -9.823465347290039062e-01 6.037168979644775391e+00 1.516446709632873535e+00 -7.859243154525756836e-01
3.398000000000000000e+03 6.975865936279296875e+01 -3.709566116333007812e+01 -2.334911376237869263e-01 6.163311958312988281e+00 1.778946280479431152e+00 -1.123462557792663574e+00
3.399000000000000000e+03 7.165908050537109375e+01 3.505043029785156250e+01 5.538429319858551025e-02 5.907275199890136719e+00 1.788797855377197266e+00 5.036987662315368652e-01
3.400000000000000000e+03 7.131327056884765625e+01 3.710457992553710938e+01 -2.785598039627075195e-01 5.833082675933837891e+00 1.666356921195983887e+00 4.169756472110748291e-01
3.401000000000000000e+03 3.479506683349609375e+01 3.652180480957031250e+01 -1.303137898445129395e+00 2.993128061294555664e+00 5.069970488548278809e-01 4.073843955993652344e-01
3.402000000000000000e+03 6.783663940429687500e+01 3.060041999816894531e+01 9.716086387634277344e-01 5.281257629394531250e+00 1.875859856605529785e+00 8.496283292770385742e-01
3.403000000000000000e+03 6.652979278564453125e+01 3.009386062622070312e+01 1.372205495834350586e+00 5.187288761138916016e+00 1.967848300933837891e+00 1.206425189971923828e+00
3.404000000000000000e+03 5.040238952636718750e+01 3.531876754760742188e+01 -8.756943345069885254e-01 5.844190120697021484e+00 1.490548729896545410e+00 -1.259255260229110718e-01
3.405000000000000000e+03 3.249617385864257812e+01 -4.026301383972167969e+00 3.105620443820953369e-01 5.318446636199951172e+00 1.688702583312988281e+00 1.834456205368041992e+00
3.406000000000000000e+03 3.423316574096679688e+01 -4.595690250396728516e+00 2.159619629383087158e-01 7.573527336120605469e+00 2.336846828460693359e+00 9.089146256446838379e-01
3.407000000000000000e+03 3.347735214233398438e+01 -6.332059860229492188e+00 1.275370121002197266e+00 5.900927543640136719e+00 2.152889251708984375e+00 1.379094958305358887e+00
3.408000000000000000e+03 3.316477966308593750e+01 -5.787826061248779297e+00 8.308982849121093750e-01 5.827872276306152344e+00 1.997631192207336426e+00 1.439962744712829590e+00
3.409000000000000000e+03 3.550480270385742188e+01 -3.660118341445922852e+00 6.267870664596557617e-01 7.960854530334472656e+00 2.576292514801025391e+00 1.736014336347579956e-01
3.410000000000000000e+03 4.881983184814453125e+01 -2.978385448455810547e+00 1.274831295013427734e+00 6.233790874481201172e+00 2.252586603164672852e+00 -1.302959203720092773e+00
3.411000000000000000e+03 6.896884155273437500e+01 2.745933341979980469e+01 1.609092354774475098e+00 4.387632369995117188e+00 1.799017429351806641e+00 3.300277888774871826e-01
3.412000000000000000e+03 6.946334075927734375e+01 2.640286636352539062e+01 1.197458982467651367e+00 4.027140617370605469e+00 1.567379832267761230e+00 -2.031399607658386230e-01
3.413000000000000000e+03 7.056784820556640625e+01 2.883758544921875000e+01 1.039475321769714355e+00 4.861398220062255859e+00 1.770262122154235840e+00 2.198177576065063477e-01
3.414000000000000000e+03 5.298442840576171875e+01 -3.415970993041992188e+01 2.102931261062622070e+00 7.370568275451660156e+00 2.842049837112426758e+00 -1.071962863206863403e-01
3.415000000000000000e+03 3.296416473388671875e+01 -5.274967193603515625e+00 5.938449501991271973e-01 5.694303035736083984e+00 1.886444449424743652e+00 1.520551562309265137e+00
3.416000000000000000e+03 3.322014236450195312e+01 -4.546787738800048828e+00 2.369316071271896362e-01 6.404088497161865234e+00 1.992306113243103027e+00 1.501799464225769043e+00
3.417000000000000000e+03 6.776103973388671875e+01 3.885086059570312500e+01 -6.541844606399536133e-01 4.961946487426757812e+00 1.292328596115112305e+00 9.881632775068283081e-02
3.418000000000000000e+03 6.890110778808593750e+01 3.380948257446289062e+01 1.945721358060836792e-01 5.511665821075439453e+00 1.711871504783630371e+00 7.968555092811584473e-01
3.419000000000000000e+03 8.234497070312500000e+00 -4.167265701293945312e+01 -5.174427032470703125e-01 5.953602194786071777e-01 2.337525971233844757e-02 7.507131993770599365e-02
3.420000000000000000e+03 9.564431190490722656e+00 -4.007013702392578125e+01 -5.580861568450927734e-01 6.503189206123352051e-01 2.766982279717922211e-02 2.902484238147735596e-01
3.421000000000000000e+03 7.196381378173828125e+01 4.138529586791992188e+01 -3.725569248199462891e-01 6.216630935668945312e+00 1.753222227096557617e+00 1.002251580357551575e-01
3.422000000000000000e+03 3.224391555786132812e+01 -3.311354064941406250e+01 5.929725170135498047e-01 1.510808944702148438e+00 6.311344504356384277e-01 -3.530584275722503662e-02
3.423000000000000000e+03 4.845921516418457031e+00 3.685940551757812500e+01 -1.041937246918678284e-01 -2.530082464218139648e-01 -1.071605905890464783e-01 -5.417456477880477905e-02
3.424000000000000000e+03 1.960729408264160156e+01 3.952363967895507812e+01 -3.602434396743774414e-01 1.517842411994934082e+00 3.472796976566314697e-01 -1.337542235851287842e-01
3.425000000000000000e+03 6.204021835327148438e+01 3.834350967407226562e+01 -7.185857295989990234e-01 2.330946445465087891e+00 4.837082326412200928e-01 -6.104463338851928711e-01
3.426000000000000000e+03 7.394435882568359375e+01 3.721858215332031250e+01 -1.271238476037979126e-01 6.557227134704589844e+00 1.929031014442443848e+00 3.650816082954406738e-01
3.427000000000000000e+03 1.110360813140869141e+01 3.856929779052734375e+01 -6.092079728841781616e-02 2.862490946426987648e-03 -1.741749234497547150e-02 -1.627408154308795929e-02
3.428000000000000000e+03 2.720599937438964844e+01 3.794274902343750000e+01 -5.659539103507995605e-01 2.551312208175659180e+00 5.956074595451354980e-01 -3.121820390224456787e-01
3.429000000000000000e+03 2.391642379760742188e+01 3.785203552246093750e+01 -3.822795450687408447e-01 2.118293523788452148e+00 5.208042263984680176e-01 -1.674167960882186890e-01
3.430000000000000000e+03 4.311354446411132812e+01 4.102208328247070312e+01 -8.109503388404846191e-01 2.498827934265136719e+00 5.063633322715759277e-01 -1.832163631916046143e-01
3.431000000000000000e+03 2.684264755249023438e+01 -3.670282363891601562e+01 1.976433098316192627e-01 3.259271621704101562e+00 1.037074446678161621e+00 -2.749112844467163086e-01
3.432000000000000000e+03 2.307108497619628906e+01 4.089913940429687500e+01 -4.994576275348663330e-01 2.024687767028808594e+00 4.575690329074859619e-01 -8.844129741191864014e-02
3.433000000000000000e+03 3.223783874511718750e+01 3.841670989990234375e+01 -1.006492376327514648e+00 2.962316274642944336e+00 5.867471694946289062e-01 -8.248396217823028564e-02
3.434000000000000000e+03 5.013976097106933594e+00 -3.788125991821289062e+01 -8.327298611402511597e-02 2.182109951972961426e-01 4.048140347003936768e-02 2.961343228816986084e-01
3.435000000000000000e+03 4.531866014003753662e-01 -2.188546895980834961e+00 -4.489290993660688400e-03 2.760254312306642532e-03 -5.187109927646815777e-04 -3.413835074752569199e-04
3.436000000000000000e+03 3.084902572631835938e+01 -3.171569347381591797e+00 5.196385383605957031e-01 1.265370726585388184e+00 5.355027914047241211e-01 8.646805882453918457e-01
3.437000000000000000e+03 3.094758224487304688e+01 -3.430779933929443359e+00 6.165925264358520508e-01 1.538790941238403320e+00 6.466150283813476562e-01 1.068963885307312012e+00
3.438000000000000000e+03 3.103711891174316406e+01 -3.115559101104736328e+00 6.026922464370727539e-01 1.376626372337341309e+00 5.937955975532531738e-01 1.070666432380676270e+00
3.439000000000000000e+03 3.224190521240234375e+01 -2.678313493728637695e+00 6.275541186332702637e-01 4.069132328033447266e+00 1.409005999565124512e+00 2.310862302780151367e+00
3.440000000000000000e+03 3.317795562744140625e+01 -2.290431976318359375e+00 1.258809268474578857e-01 8.721611022949218750e+00 2.654247522354125977e+00 2.359096765518188477e+00
3.441000000000000000e+03 3.298758316040039062e+01 -2.336803436279296875e+00 2.835033535957336426e-01 7.628771781921386719e+00 2.373682498931884766e+00 2.702270030975341797e+00
3.442000000000000000e+03 3.377303695678710938e+01 -2.097900390625000000e+00 3.628464043140411377e-01 1.102692890167236328e+01 3.416932344436645508e+00 3.132923841476440430e-01
3.443000000000000000e+03 3.397073364257812500e+01 -2.024884700775146484e+00 8.985547423362731934e-01 1.116546630859375000e+01 3.619206190109252930e+00 -5.350685119628906250e-01
3.444000000000000000e+03 3.416600799560546875e+01 -1.937038898468017578e+00 1.514076828956604004e+00 1.073933219909667969e+01 3.676022529602050781e+00 -1.162596344947814941e+00
3.445000000000000000e+03 3.454198837280273438e+01 -1.686063885688781738e+00 3.409304141998291016e+00 9.313408851623535156e+00 3.816813945770263672e+00 -1.973237752914428711e+00
3.446000000000000000e+03 3.540233993530273438e+01 -9.193940162658691406e-01 6.169668197631835938e+00 4.401076316833496094e+00 3.171223402023315430e+00 5.962933301925659180e-01
3.447000000000000000e+03 3.516128921508789062e+01 4.077602028846740723e-01 4.178965568542480469e+00 2.699536085128784180e+00 2.063550472259521484e+00 3.419336795806884766e+00
3.448000000000000000e+03 3.482741928100585938e+01 9.491908550262451172e-01 2.882808446884155273e-01 1.595691442489624023e+00 5.651916861534118652e-01 2.751290321350097656e+00
3.449000000000000000e+03 3.367583847045898438e+01 1.104000568389892578e+00 -2.485020160675048828e+00 6.412022113800048828e+00 1.178100585937500000e+00 -4.437054634094238281e+00
3.450000000000000000e+03 3.275218582153320312e+01 1.197765111923217773e+00 -9.723646640777587891e-01 7.237881660461425781e+00 1.879655122756958008e+00 -6.951421737670898438e+00
3.451000000000000000e+03 3.184598350524902344e+01 1.330563545227050781e+00 4.543409049510955811e-01 4.360511302947998047e+00 1.444455623626708984e+00 -5.707280635833740234e+00
3.452000000000000000e+03 3.145290184020996094e+01 7.658870220184326172e-01 7.001455426216125488e-01 2.649402618408203125e+00 1.004864454269409180e+00 -4.667878150939941406e+00
3.453000000000000000e+03 3.089467430114746094e+01 7.206046581268310547e-01 -5.731376633048057556e-02 1.995488882064819336e+00 5.814524888992309570e-01 -3.013975143432617188e+00
3.454000000000000000e+03 3.040801239013671875e+01 7.612685561180114746e-01 -4.138132631778717041e-01 1.896121978759765625e+00 4.446926414966583252e-01 -2.384818315505981445e+00
3.455000000000000000e+03 2.925530815124511719e+01 5.527315735816955566e-01 -2.026565313339233398e+00 1.172125101089477539e+00 -2.563320398330688477e-01 -6.769491434097290039e-01
3.456000000000000000e+03 7.797579956054687500e+01 4.168936538696289062e+01 6.008869782090187073e-02 7.597984313964843750e+00 2.297421932220458984e+00 -1.678956486284732819e-02
3.457000000000000000e+03 5.504764938354492188e+01 -2.452170181274414062e+01 -9.140310883522033691e-01 7.389096260070800781e+00 1.942519545555114746e+00 1.957261919975280762e+00
3.458000000000000000e+03 2.096155738830566406e+01 2.932893371582031250e+01 5.256665349006652832e-01 2.911890506744384766e+00 1.031267166137695312e+00 -7.512705773115158081e-02
3.459000000000000000e+03 1.044186115264892578e+01 2.130764007568359375e+01 4.540347158908843994e-01 2.766418159008026123e-01 2.192029654979705811e-01 -2.079216986894607544e-01
3.460000000000000000e+03 8.260802268981933594e+00 3.714516830444335938e+01 -1.366847455501556396e-01 -1.477504819631576538e-01 -8.533056825399398804e-02 5.873736925423145294e-03
3.461000000000000000e+03 3.493851852416992188e+01 1.285588932037353516e+01 -2.848543167114257812e+00 -5.835768207907676697e-02 -8.720702528953552246e-01 -5.890929102897644043e-01
3.462000000000000000e+03 3.761748886108398438e+01 1.252720737457275391e+01 -8.164408802986145020e-01 3.449905872344970703e+00 7.900394797325134277e-01 -1.727838754653930664e+00
3.463000000000000000e+03 2.942092132568359375e+01 1.119622135162353516e+01 -6.745067238807678223e-01 3.398178815841674805e+00 8.171015977859497070e-01 2.772926986217498779e-01
3.464000000000000000e+03 4.901220321655273438e+01 -8.669919013977050781e+00 2.886264324188232422e+00 8.626478195190429688e+00 3.453822851181030273e+00 8.632586151361465454e-02
3.465000000000000000e+03 5.139431762695312500e+01 2.685526657104492188e+01 1.929809451103210449e+00 6.635505199432373047e+00 2.569594383239746094e+00 2.629722058773040771e-01
3.466000000000000000e+03 6.142061996459960938e+01 8.320229530334472656e+00 -8.973499760031700134e-03 4.564823627471923828e+00 1.366755008697509766e+00 -1.212422966957092285e+00
3.467000000000000000e+03 3.286582183837890625e+01 2.155548286437988281e+01 1.630655527114868164e-01 6.092023849487304688e+00 1.876526832580566406e+00 -6.688640117645263672e-01
3.468000000000000000e+03 2.733708953857421875e+01 1.385991001129150391e+01 -1.312001585960388184e+00 5.330526232719421387e-01 -2.336846739053726196e-01 -7.432861924171447754e-01
3.469000000000000000e+03 1.657265281677246094e+01 -4.191099929809570312e+01 -1.416139841079711914e+00 -3.611424267292022705e-01 -5.331847071647644043e-01 4.776116088032722473e-02
3.470000000000000000e+03 1.246853065490722656e+01 -4.198382949829101562e+01 -9.854873418807983398e-01 6.362639665603637695e-01 -1.047670245170593262e-01 2.704371511936187744e-02
3.471000000000000000e+03 1.464988994598388672e+01 -4.001567077636718750e+01 -9.210371971130371094e-01 1.655490994453430176e-01 -2.266464382410049438e-01 1.528255641460418701e-01
3.472000000000000000e+03 1.252000427246093750e+01 -4.090755844116210938e+01 -9.883911013603210449e-01 6.069392561912536621e-01 -1.144355461001396179e-01 8.293031901121139526e-02
3.473000000000000000e+03 5.761402511596679688e+01 -3.903519439697265625e+01 -2.030916929244995117e+00 4.621691703796386719e+00 7.772324681282043457e-01 -7.582383155822753906e-01
3.474000000000000000e+03 1.423891544342041016e+01 -3.914262771606445312e+01 -7.603237032890319824e-01 1.002689301967620850e-01 -1.980164200067520142e-01 2.291224300861358643e-01
3.475000000000000000e+03 3.214823913574218750e+01 -3.192328691482543945e+00 4.578368067741394043e-01 4.139277458190917969e+00 1.379134297370910645e+00 2.024789333343505859e+00
3.476000000000000000e+03 3.262337493896484375e+01 -2.959474802017211914e+00 2.598270475864410400e-01 5.597087860107421875e+00 1.757074475288391113e+00 2.328441619873046875e+00
3.477000000000000000e+03 3.289168930053710938e+01 1.569711804389953613e+00 -7.806318998336791992e-01 7.225912094116210938e+00 1.933584094047546387e+00 -6.429042339324951172e+00
3.478000000000000000e+03 3.204152822494506836e+00 -1.793053627014160156e+01 -2.238952089101076126e-03 -1.087930947542190552e-01 -3.330961242318153381e-02 -2.587156295776367188e-01
3.479000000000000000e+03 1.087068939208984375e+01 -3.890720748901367188e+01 -6.443651318550109863e-01 7.359518408775329590e-01 2.747599594295024872e-02 3.638985455036163330e-01
3.480000000000000000e+03 3.323848342895507812e+01 -2.542884349822998047e+00 -4.079220443964004517e-02 8.354372024536132812e+00 2.494074106216430664e+00 2.039929151535034180e+00
3.481000000000000000e+03 3.535870361328125000e+01 -1.186629414558410645e+00 5.450616359710693359e+00 5.197628974914550781e+00 3.194473505020141602e+00 -1.323687583208084106e-01
3.482000000000000000e+03 3.544475936889648438e+01 -3.755229413509368896e-01 6.340020656585693359e+00 3.441494703292846680e+00 2.934454679489135742e+00 1.984777569770812988e+00
3.483000000000000000e+03 3.464045715332031250e+01 1.278146266937255859e+00 -5.622682094573974609e+00 1.110557436943054199e+00 -1.353637456893920898e+00 1.622830629348754883e+00
3.484000000000000000e+03 3.292501068115234375e+01 -3.027427196502685547e+00 1.007746085524559021e-01 6.656759738922119141e+00 2.027260303497314453e+00 2.170643806457519531e+00
3.485000000000000000e+03 3.216362762451171875e+01 -3.492275476455688477e+00 4.116816520690917969e-01 4.434043884277343750e+00 1.453717708587646484e+00 1.989664196968078613e+00
3.486000000000000000e+03 6.130131530761718750e+01 6.768287658691406250e+00 -6.465734839439392090e-01 4.688602924346923828e+00 1.212608814239501953e+00 -1.707347273826599121e+00
3.487000000000000000e+03 3.409208679199218750e+01 2.065450286865234375e+01 1.165950670838356018e-01 5.272477149963378906e+00 1.616721630096435547e+00 -1.004826545715332031e+00
3.488000000000000000e+03 6.231831741333007812e+01 -2.029344558715820312e+01 2.500355482101440430e+00 6.104907512664794922e+00 2.581578969955444336e+00 -1.925972461700439453e+00
3.489000000000000000e+03 4.692594528198242188e+01 -3.844537353515625000e+01 -2.080553293228149414e+00 1.825111031532287598e+00 -7.663268595933914185e-02 6.299796700477600098e-01
3.490000000000000000e+03 4.554624557495117188e+01 -4.015542984008789062e+01 -1.545848965644836426e+00 4.641725420951843262e-01 -3.245029449462890625e-01 5.845800638198852539e-01
3.491000000000000000e+03 2.973268699645996094e+01 1.589267253875732422e+00 -1.126090437173843384e-01 3.333649158477783203e+00 9.663120508193969727e-01 -1.894675612449645996e+00
3.492000000000000000e+03 7.509686279296875000e+01 4.073377227783203125e+01 -1.391917020082473755e-01 6.880081653594970703e+00 2.022267103195190430e+00 1.728450804948806763e-01
3.493000000000000000e+03 6.805861663818359375e+01 -3.890684509277343750e+01 -1.226230621337890625e+00 5.463392257690429688e+00 1.271148562431335449e+00 -4.175614416599273682e-01
3.494000000000000000e+03 6.545051574707031250e+01 -3.863431930541992188e+01 -2.016619443893432617e+00 3.970721006393432617e+00 5.862305164337158203e-01 3.163737654685974121e-01
3.495000000000000000e+03 5.622731781005859375e+01 -3.780799484252929688e+01 -1.784044265747070312e+00 6.820939540863037109e+00 1.511068582534790039e+00 -9.368417263031005859e-01
3.496000000000000000e+03 4.518107986450195312e+01 3.464038467407226562e+01 -1.223550438880920410e+00 4.044898986816406250e+00 8.464046120643615723e-01 -9.307506084442138672e-01
3.497000000000000000e+03 1.782549667358398438e+01 2.032745933532714844e+01 1.058352589607238770e+00 4.588634967803955078e-01 4.551648199558258057e-01 1.279497891664505005e-01
3.498000000000000000e+03 2.539918327331542969e+01 1.297208309173583984e+01 -8.389236330986022949e-01 1.344713211059570312e+00 1.517368704080581665e-01 -1.750270247459411621e+00
3.499000000000000000e+03 6.846061229705810547e+00 2.034680557250976562e+01 1.744222939014434814e-01 1.234311908483505249e-01 8.935604244470596313e-02 -5.017478018999099731e-03
3.500000000000000000e+03 3.548897552490234375e+01 2.378077697753906250e+01 6.048253178596496582e-01 6.212675571441650391e+00 2.045250177383422852e+00 -1.533030509948730469e+00
3.501000000000000000e+03 5.033897781372070312e+01 -8.960907936096191406e+00 2.496855020523071289e+00 7.342000961303710938e+00 2.951656818389892578e+00 -2.664666473865509033e-01
3.502000000000000000e+03 1.592960262298583984e+01 -7.121649265289306641e+00 2.938937582075595856e-02 1.559576839208602905e-01 5.560411512851715088e-02 1.055196765810251236e-02
3.503000000000000000e+03 5.131356430053710938e+01 -1.375288009643554688e+01 -4.480182230472564697e-01 2.614777088165283203e+00 6.500276923179626465e-01 -1.419461607933044434e+00
3.504000000000000000e+03 3.513257980346679688e+01 -1.253184986114501953e+01 -5.185358524322509766e-01 2.574678421020507812e+00 6.168428063392639160e-01 2.324085980653762817e-01
3.505000000000000000e+03 1.872393012046813965e+00 2.888563919067382812e+01 3.170464560389518738e-02 -8.203387260437011719e-01 -2.365902215242385864e-01 -2.467276602983474731e-01
3.506000000000000000e+03 3.594651794433593750e+01 -2.945701181888580322e-01 4.699131011962890625e+00 1.786192178726196289e+00 1.945597052574157715e+00 3.381544589996337891e+00
3.507000000000000000e+03 3.250233078002929688e+01 -3.643041610717773438e+00 2.546162009239196777e-01 5.297624111175537109e+00 1.665672063827514648e+00 1.955325007438659668e+00
3.508000000000000000e+03 3.271233749389648438e+01 -3.774344205856323242e+00 1.455044150352478027e-01 5.855180740356445312e+00 1.800205588340759277e+00 1.945727109909057617e+00
3.509000000000000000e+03 1.276501369476318359e+01 -3.986385345458984375e+01 -8.195504546165466309e-01 5.323978662490844727e-01 -8.614577353000640869e-02 2.198121398687362671e-01
3.510000000000000000e+03 1.309561634063720703e+01 -3.900649642944335938e+01 -7.728492021560668945e-01 6.692943572998046875e-01 -3.106645680963993073e-02 2.174177765846252441e-01
3.511000000000000000e+03 3.012185859680175781e+01 2.096862554550170898e+00 1.033127665519714355e+00 4.570898056030273438e+00 1.681207656860351562e+00 -3.483276367187500000e+00
3.512000000000000000e+03 5.522960662841796875e+01 -3.707544326782226562e+01 -9.502354860305786133e-01 7.323239803314208984e+00 1.911901235580444336e+00 -6.054212450981140137e-01
3.513000000000000000e+03 5.481858825683593750e+01 -3.580942916870117188e+01 7.520483732223510742e-01 7.397054195404052734e+00 2.444730758666992188e+00 -1.402454823255538940e-01
3.514000000000000000e+03 1.360636711120605469e+01 -3.837770843505859375e+01 -3.763774633407592773e-01 4.166374802589416504e-01 1.207801327109336853e-02 1.609376817941665649e-01
3.515000000000000000e+03 3.585353469848632812e+01 -2.085943460464477539e+00 2.710837841033935547e+00 6.447279930114746094e+00 2.747435331344604492e+00 2.625473439693450928e-01
3.516000000000000000e+03 5.030666732788085938e+01 -1.169763183593750000e+01 1.008247256278991699e+00 5.674071788787841797e+00 2.004695653915405273e+00 -1.109981179237365723e+00
3.517000000000000000e+03 4.054655075073242188e+01 -2.084080696105957031e+01 1.318874835968017578e+00 5.741390705108642578e+00 2.118079662322998047e+00 -9.320768117904663086e-01
3.518000000000000000e+03 4.175676345825195312e+01 -2.150006294250488281e+01 2.271818161010742188e+00 4.815076828002929688e+00 2.126068592071533203e+00 7.351191639900207520e-01
3.519000000000000000e+03 1.793673038482666016e+00 -3.247386693954467773e+00 4.853145946981385350e-05 -3.518950426951050758e-03 -1.041125738993287086e-03 -1.031464431434869766e-03
3.520000000000000000e+03 7.699977874755859375e+01 3.595157623291015625e+01 -1.847239956259727478e-02 7.202320098876953125e+00 2.155154466629028320e+00 1.596650928258895874e-01
3.521000000000000000e+03 5.587541580200195312e+01 -3.623613739013671875e+01 2.063619159162044525e-02 7.958450317382812500e+00 2.393725872039794922e+00 -4.209352731704711914e-01
3.522000000000000000e+03 1.786034202575683594e+01 2.243311691284179688e+01 6.642387509346008301e-01 5.603743195533752441e-01 3.673839271068572998e-01 1.138599812984466553e-01
3.523000000000000000e+03 5.160911560058593750e+01 3.685847854614257812e+01 -1.533148646354675293e+00 5.540175914764404297e+00 1.202108263969421387e+00 2.952478528022766113e-01
3.524000000000000000e+03 3.271162414550781250e+01 -1.294813632965087891e+01 -5.424532890319824219e-01 2.721620321273803711e+00 6.537500619888305664e-01 2.613251447677612305e+00
3.525000000000000000e+03 5.736406707763671875e+01 -2.255076217651367188e+01 1.633052229881286621e+00 6.959508895874023438e+00 2.577768325805664062e+00 1.043164283037185669e-01
3.526000000000000000e+03 3.645296096801757812e+01 -8.550347089767456055e-01 3.730693340301513672e+00 4.121434688568115234e+00 2.355638265609741211e+00 2.915726184844970703e+00
3.527000000000000000e+03 2.638968849182128906e+01 -2.409040069580078125e+01 7.414007186889648438e-01 4.413548946380615234e+00 1.546484827995300293e+00 7.013049721717834473e-01
3.528000000000000000e+03 3.218651962280273438e+01 2.951622962951660156e+01 8.642190694808959961e-01 4.536813735961914062e+00 1.620309829711914062e+00 -1.277298927307128906e+00
3.529000000000000000e+03 3.087189865112304688e+01 -3.446855926513671875e+01 3.404242396354675293e-01 2.185076475143432617e+00 7.576501965522766113e-01 -4.214516654610633850e-02
3.530000000000000000e+03 7.770528411865234375e+01 -3.549159240722656250e+01 2.744235284626483917e-02 7.444643974304199219e+00 2.241626024246215820e+00 -1.634581834077835083e-01
3.531000000000000000e+03 3.164719581604003906e+00 3.437248229980468750e+01 -8.021805435419082642e-02 -3.381557762622833252e-01 -1.255121380090713501e-01 -1.463676393032073975e-01
3.532000000000000000e+03 2.074338674545288086e+00 2.766138648986816406e+01 5.203611031174659729e-02 -8.104346394538879395e-01 -2.275195568799972534e-01 -2.141164690256118774e-01
3.533000000000000000e+03 7.702649688720703125e+01 -2.110463714599609375e+01 6.438634395599365234e-01 8.101502418518066406e+00 2.623609781265258789e+00 6.341494917869567871e-01
3.534000000000000000e+03 3.212223815917968750e+01 2.773269271850585938e+01 1.142628550529479980e+00 4.715779304504394531e+00 1.757522463798522949e+00 -1.119118690490722656e+00
3.535000000000000000e+03 7.801870727539062500e+01 -5.482968807220458984e+00 4.556127786636352539e-01 8.875068664550781250e+00 2.799204349517822266e+00 3.179421424865722656e-01
3.536000000000000000e+03 5.337894058227539062e+01 -2.919284057617187500e+01 1.338243365287780762e+00 5.419978141784667969e+00 2.027466535568237305e+00 8.701418638229370117e-01
3.537000000000000000e+03 3.365927505493164062e+01 -3.719433546066284180e+00 -4.832822084426879883e-02 7.756206035614013672e+00 2.312363386154174805e+00 1.287943720817565918e+00
3.538000000000000000e+03 3.367038345336914062e+01 -3.082205295562744141e+00 -4.450923204421997070e-02 8.479136466979980469e+00 2.530388355255126953e+00 1.268358588218688965e+00
3.539000000000000000e+03 3.278212356567382812e+01 3.631363296508789062e+01 -1.101933479309082031e+00 3.365526914596557617e+00 6.790779829025268555e-01 -2.640691399574279785e-01
3.540000000000000000e+03 6.209355163574218750e+01 -2.268882560729980469e+01 3.113657474517822266e+00 4.973027706146240234e+00 2.426005601882934570e+00 -1.841324925422668457e+00
3.541000000000000000e+03 5.285154724121093750e+01 -1.238384151458740234e+01 2.802371978759765625e-01 3.646842002868652344e+00 1.178123831748962402e+00 -2.930027961730957031e+00
3.542000000000000000e+03 3.632600021362304688e+01 -3.405172348022460938e+01 1.429032802581787109e+00 2.794458389282226562e+00 1.267047286033630371e+00 1.684968113899230957e+00
3.543000000000000000e+03 4.229249000549316406e+00 -2.578338813781738281e+01 3.615548089146614075e-02 -1.328896880149841309e-01 -2.902026101946830750e-02 -2.937350422143936157e-02
3.544000000000000000e+03 4.544612884521484375e+01 -1.524870586395263672e+01 -2.525969505310058594e+00 4.742468833923339844e+00 6.649497151374816895e-01 2.337123155593872070e+00
3.545000000000000000e+03 6.194690704345703125e+01 3.598025083541870117e+00 -7.462766766548156738e-01 4.636445045471191406e+00 1.167050480842590332e+00 -1.833513259887695312e+00
3.546000000000000000e+03 2.562116622924804688e+01 1.171604824066162109e+01 -6.296665966510772705e-02 1.821516156196594238e+00 5.275648832321166992e-01 -1.867217659950256348e+00
3.547000000000000000e+03 6.719052124023437500e+01 3.157518577575683594e+01 8.620936870574951172e-01 5.233072280883789062e+00 1.828549861907958984e+00 1.059310078620910645e+00
3.548000000000000000e+03 6.646657562255859375e+01 3.332616043090820312e+01 1.658193618059158325e-01 5.383896827697753906e+00 1.664914846420288086e+00 8.735424876213073730e-01
3.549000000000000000e+03 5.277824401855468750e+01 2.400908851623535156e+01 -1.032255962491035461e-02 5.357255935668945312e+00 1.604079961776733398e+00 -1.044286608695983887e+00
3.550000000000000000e+03 2.747661018371582031e+01 -1.539708518981933594e+01 -5.141758322715759277e-01 4.479767322540283203e+00 1.189677476882934570e+00 1.410222768783569336e+00
3.551000000000000000e+03 2.559141349792480469e+01 -2.629451370239257812e+01 -9.160201549530029297e-01 3.575777292251586914e+00 7.979271411895751953e-01 4.558998048305511475e-01
3.552000000000000000e+03 5.385009384155273438e+01 -1.208827114105224609e+01 3.676448017358779907e-02 4.298285007476806641e+00 1.300514817237854004e+00 -3.281622886657714844e+00
3.553000000000000000e+03 6.410930633544921875e+01 -1.383463478088378906e+01 -1.494530439376831055e+00 5.951520919799804688e+00 1.337097048759460449e+00 5.580366849899291992e-01
3.554000000000000000e+03 3.568052673339843750e+01 -2.623746633529663086e+00 1.822743058204650879e+00 7.334621906280517578e+00 2.747209548950195312e+00 -8.307880721986293793e-03
3.555000000000000000e+03 6.134790420532226562e+00 7.996358871459960938e+00 -1.991591006517410278e-01 -6.200970336794853210e-02 -7.835064083337783813e-02 2.368086129426956177e-01
3.556000000000000000e+03 7.624945068359375000e+01 1.019456481933593750e+01 8.117207884788513184e-01 7.501535892486572266e+00 2.493977069854736328e+00 -5.953307747840881348e-01
3.557000000000000000e+03 6.112642669677734375e+01 -2.125186920166015625e+01 2.951317310333251953e+00 4.940117359161376953e+00 2.367430448532104492e+00 -1.424908280372619629e+00
3.558000000000000000e+03 3.175251960754394531e+01 -4.426829338073730469e+00 5.120065212249755859e-01 3.880618810653686523e+00 1.317787528038024902e+00 1.544952034950256348e+00
3.559000000000000000e+03 3.390588378906250000e+01 -2.882001876831054688e+00 -1.749814487993717194e-03 8.955814361572265625e+00 2.686219215393066406e+00 7.488284111022949219e-01
3.560000000000000000e+03 4.366983795166015625e+01 -2.565057754516601562e+01 6.268062591552734375e-01 1.392298936843872070e+00 6.057315468788146973e-01 -1.566486656665802002e-01
3.561000000000000000e+03 4.605061721801757812e+01 -1.605965805053710938e+01 -2.432695150375366211e+00 6.157551288604736328e+00 1.117456912994384766e+00 2.039042949676513672e+00
3.562000000000000000e+03 4.315970230102539062e+01 1.784091949462890625e+01 2.815786600112915039e-01 6.433845043182373047e+00 2.014627218246459961e+00 8.091533780097961426e-01
3.563000000000000000e+03 3.133205413818359375e+01 -1.294128799438476562e+01 -5.139283537864685059e-01 4.207284450531005859e+00 1.108006834983825684e+00 2.564805746078491211e+00
3.564000000000000000e+03 3.605956649780273438e+01 -2.394630908966064453e+00 2.396022081375122070e+00 6.578932762145996094e+00 2.692486286163330078e+00 2.502176165580749512e-01
3.565000000000000000e+03 2.474780273437500000e+01 3.287935638427734375e+01 3.526741266250610352e-01 1.806227684020996094e+00 6.476705074310302734e-01 -7.189670205116271973e-02
3.566000000000000000e+03 3.253028869628906250e+01 3.062892150878906250e+01 4.583529233932495117e-01 4.593783855438232422e+00 1.515641093254089355e+00 -1.183925271034240723e+00
3.567000000000000000e+03 1.343129158020019531e+01 4.251405239105224609e+00 -3.690686523914337158e-01 -6.632197648286819458e-02 -1.306171864271163940e-01 4.705389142036437988e-01
3.568000000000000000e+03 6.306193923950195312e+01 -1.413417720794677734e+01 -1.567391872406005859e+00 6.459352016448974609e+00 1.467588067054748535e+00 7.489882707595825195e-01
3.569000000000000000e+03 3.684983825683593750e+01 -1.390080213546752930e+00 2.920480012893676758e+00 4.609099864959716797e+00 2.258873939514160156e+00 2.464639902114868164e+00
3.570000000000000000e+03 6.033810806274414062e+01 6.387242794036865234e+00 -2.113314718008041382e-01 4.982132911682128906e+00 1.431240439414978027e+00 -1.411165475845336914e+00
3.571000000000000000e+03 4.995095729827880859e+00 -3.086280250549316406e+01 1.395358145236968994e-01 -4.559360444545745850e-02 2.818266302347183228e-02 1.763959527015686035e-01
3.572000000000000000e+03 6.622048950195312500e+01 3.108304405212402344e+01 7.563428282737731934e-01 5.861844062805175781e+00 1.985455989837646484e+00 1.196592807769775391e+00
3.573000000000000000e+03 5.958506393432617188e+01 1.774839782714843750e+01 2.003284215927124023e+00 7.529572486877441406e+00 2.859856843948364258e+00 1.415501356124877930e+00
3.574000000000000000e+03 6.001091384887695312e+01 -2.104600524902343750e+01 2.928964853286743164e+00 4.743377685546875000e+00 2.301702737808227539e+00 -5.895386338233947754e-01
3.575000000000000000e+03 6.452294921875000000e+01 1.548350453376770020e+00 -9.564789384603500366e-02 4.294520854949951172e+00 1.259661912918090820e+00 4.631433784961700439e-01
3.576000000000000000e+03 6.288769912719726562e+01 -1.319664764404296875e+01 -1.302766919136047363e+00 6.495766162872314453e+00 1.557899832725524902e+00 8.254216909408569336e-01
3.577000000000000000e+03 3.222694015502929688e+01 -9.509288787841796875e+00 2.498779773712158203e+00 3.850499629974365234e+00 1.904783844947814941e+00 2.526807308197021484e+00
3.578000000000000000e+03 5.911477661132812500e+01 1.682935905456542969e+01 2.356830358505249023e+00 7.591190814971923828e+00 2.984406232833862305e+00 1.522325992584228516e+00
3.579000000000000000e+03 2.831246185302734375e+01 2.857226848602294922e+00 1.339465022087097168e+00 2.933049440383911133e+00 1.281754374504089355e+00 -9.388926029205322266e-01
3.580000000000000000e+03 3.640884876251220703e+00 3.333992004394531250e+01 -1.207850053906440735e-01 -3.053821027278900146e-01 -1.278501302003860474e-01 -2.081594318151473999e-01
3.581000000000000000e+03 7.214182281494140625e+01 4.625373363494873047e+00 -1.830458194017410278e-01 5.072980403900146484e+00 1.466980457305908203e+00 7.102245092391967773e-01
3.582000000000000000e+03 7.317440032958984375e+01 4.795333862304687500e+00 -2.245739549398422241e-01 5.880616664886474609e+00 1.696812748908996582e+00 4.130759462714195251e-02
3.583000000000000000e+03 3.435688400268554688e+01 -3.664751052856445312e+00 1.058988943696022034e-01 8.264554023742675781e+00 2.511135816574096680e+00 6.381734013557434082e-01
3.584000000000000000e+03 6.168885421752929688e+01 2.667035579681396484e+00 -8.258845806121826172e-01 5.105072975158691406e+00 1.283756494522094727e+00 -1.818415641784667969e+00
3.585000000000000000e+03 4.500670623779296875e+01 5.315229415893554688e+00 1.113264560699462891e+00 4.304326534271240234e+00 1.625277280807495117e+00 -1.176919341087341309e+00
3.586000000000000000e+03 4.571522140502929688e+01 4.637219429016113281e+00 1.025700688362121582e+00 3.544406890869140625e+00 1.371032238006591797e+00 -1.443469882011413574e+00
3.587000000000000000e+03 2.494156837463378906e+01 5.841640472412109375e+00 2.144136905670166016e+00 5.037178397178649902e-01 7.943564057350158691e-01 -7.669213414192199707e-01
3.588000000000000000e+03 3.643649673461914062e+01 -2.212518453598022461e+00 2.345159053802490234e+00 5.855436325073242188e+00 2.460178613662719727e+00 1.239928603172302246e+00
3.589000000000000000e+03 3.276220321655273438e+01 -4.878682136535644531e+00 3.819910585880279541e-01 5.613893985748291016e+00 1.798765420913696289e+00 1.602971792221069336e+00
3.590000000000000000e+03 2.694950103759765625e+01 -2.752783393859863281e+01 -1.416359901428222656e+00 4.120384216308593750e+00 8.112072944641113281e-01 4.266641438007354736e-01
3.591000000000000000e+03 2.784217834472656250e+01 -2.677307891845703125e+01 -1.333061695098876953e+00 4.512391090393066406e+00 9.537988901138305664e-01 3.193590342998504639e-01
3.592000000000000000e+03 3.420303726196289062e+01 -3.010159730911254883e+00 2.424024939537048340e-01 8.986219406127929688e+00 2.768586397171020508e+00 4.041581749916076660e-01
3.593000000000000000e+03 3.423281860351562500e+01 -2.641618251800537109e+00 5.092146992683410645e-01 9.399005889892578125e+00 2.972466230392456055e+00 4.741008888231590390e-05
3.594000000000000000e+03 7.607818603515625000e+01 1.695176887512207031e+01 -2.233909964561462402e-01 7.610733985900878906e+00 2.216202974319458008e+00 9.929403066635131836e-01
3.595000000000000000e+03 7.726779937744140625e+01 3.218674898147583008e+00 -1.432416588068008423e-01 7.530313014984130859e+00 2.216121435165405273e+00 -7.789419293403625488e-01
3.596000000000000000e+03 7.658887481689453125e+01 -3.383892440795898438e+01 1.687767207622528076e-01 7.038086891174316406e+00 2.162059068679809570e+00 -1.212114766240119934e-01
3.597000000000000000e+03 5.515985107421875000e+01 1.847843360900878906e+01 -3.030661046504974365e-01 4.559657096862792969e+00 1.276977300643920898e+00 -1.717565536499023438e+00
3.598000000000000000e+03 5.602989196777343750e+01 1.676268196105957031e+01 8.808038234710693359e-01 5.464732170104980469e+00 1.903660893440246582e+00 -5.572779774665832520e-01
3.599000000000000000e+03 7.504038238525390625e+01 1.985516929626464844e+01 -9.272055625915527344e-01 7.508786678314208984e+00 1.974474310874938965e+00 2.948263287544250488e-01
3.600000000000000000e+03 8.859073638916015625e+00 -2.852092552185058594e+01 3.936208486557006836e-01 3.935310542583465576e-01 2.361455708742141724e-01 1.038902625441551208e-01
3.601000000000000000e+03 7.561556339263916016e+00 -3.479275226593017578e+00 -2.495712414383888245e-02 -3.107271529734134674e-02 -1.680895127356052399e-02 -5.339253693819046021e-02
3.602000000000000000e+03 7.496436309814453125e+01 3.056491136550903320e+00 -3.612470924854278564e-01 6.358456611633300781e+00 1.799162864685058594e+00 -6.825928688049316406e-01
3.603000000000000000e+03 4.655325317382812500e+01 -3.227609872817993164e+00 8.634522557258605957e-01 4.796629905700683594e+00 1.698024630546569824e+00 -2.226353883743286133e+00
3.604000000000000000e+03 3.617289352416992188e+01 -1.882280230522155762e+00 3.092593431472778320e+00 5.497109413146972656e+00 2.576910734176635742e+00 1.028711438179016113e+00
3.605000000000000000e+03 4.591237258911132812e+01 6.680018901824951172e-01 1.666316390037536621e+00 3.752009630203247070e+00 1.625497817993164062e+00 -2.464645385742187500e+00
3.606000000000000000e+03 4.624718093872070312e+01 -5.578218698501586914e-01 1.449384331703186035e+00 4.052711009979248047e+00 1.650628685951232910e+00 -2.513507366180419922e+00
3.607000000000000000e+03 2.510891914367675781e+01 5.321835517883300781e+00 2.196808576583862305e+00 5.344297289848327637e-01 8.193714618682861328e-01 -5.384655594825744629e-01
3.608000000000000000e+03 9.371747970581054688e+00 3.869607448577880859e+00 -2.291121929883956909e-01 -6.210047006607055664e-02 -8.736380189657211304e-02 1.486782282590866089e-01
3.609000000000000000e+03 7.279240417480468750e+01 2.576693153381347656e+01 2.642821371555328369e-01 5.581305503845214844e+00 1.753676295280456543e+00 -6.452581286430358887e-01
3.610000000000000000e+03 5.048217296600341797e+00 1.052005386352539062e+01 -8.311692625284194946e-02 -1.392773240804672241e-01 -6.671827286481857300e-02 3.323920965194702148e-01
3.611000000000000000e+03 4.455247402191162109e+00 1.122572517395019531e+01 -4.565891623497009277e-02 -2.198371440172195435e-01 -7.964882254600524902e-02 3.258289396762847900e-01
3.612000000000000000e+03 8.415889739990234375e+00 -4.241220951080322266e+00 -2.057034336030483246e-02 -4.390269517898559570e-02 -1.934191212058067322e-02 -6.806802749633789062e-02
3.613000000000000000e+03 7.316223907470703125e+01 2.964139556884765625e+01 5.509331822395324707e-01 5.761138916015625000e+00 1.893621683120727539e+00 -1.815814711153507233e-02
3.614000000000000000e+03 7.215103149414062500e+01 2.968479347229003906e+01 7.364124059677124023e-01 5.384356021881103516e+00 1.836230635643005371e+00 1.190701946616172791e-01
3.615000000000000000e+03 7.407185363769531250e+01 2.551346588134765625e+01 6.609299778938293457e-02 6.072487354278564453e+00 1.841574192047119141e+00 -5.809165835380554199e-01
3.616000000000000000e+03 4.264212131500244141e+00 4.362366676330566406e+00 -8.287505060434341431e-02 -3.760879114270210266e-02 -3.614515066146850586e-02 7.062135636806488037e-02
3.617000000000000000e+03 7.367272949218750000e+01 2.448170471191406250e+01 -2.023593783378601074e-01 6.121208667755126953e+00 1.775654792785644531e+00 -6.644526720046997070e-01
3.618000000000000000e+03 1.115754413604736328e+01 -1.603091955184936523e-01 -1.783386170864105225e-01 -3.248618915677070618e-02 -6.324744224548339844e-02 -4.889409989118576050e-02
3.619000000000000000e+03 1.126386642456054688e+01 -8.940912485122680664e-01 -1.412693262100219727e-01 -6.996807176619768143e-03 -4.447983950376510620e-02 -6.367719918489456177e-02
3.620000000000000000e+03 1.049932956695556641e+01 -1.051980972290039062e+00 -1.134655028581619263e-01 -4.000093042850494385e-02 -4.603993147611618042e-02 -5.884381011128425598e-02
3.621000000000000000e+03 1.279222297668457031e+01 -5.713624954223632812e-01 -1.785804778337478638e-01 -2.536258194595575333e-03 -5.433502048254013062e-02 -7.479495555162429810e-02
3.622000000000000000e+03 1.264629268646240234e+01 1.541289687156677246e-01 -2.317039817571640015e-01 -4.126568511128425598e-02 -8.189089596271514893e-02 -5.993008241057395935e-02
3.623000000000000000e+03 1.190196800231933594e+01 -3.807745641097426414e-03 -2.040602862834930420e-01 6.011919118463993073e-03 -5.941450968384742737e-02 -5.934583768248558044e-02
3.624000000000000000e+03 1.202809429168701172e+01 -7.334445118904113770e-01 -1.580285280942916870e-01 -4.280513897538185120e-02 -6.025009974837303162e-02 -7.069846987724304199e-02
3.625000000000000000e+03 1.041281127929687500e+01 -3.140535950660705566e-01 -1.587157845497131348e-01 1.722767832688987255e-03 -4.709790647029876709e-02 -4.262633994221687317e-02
3.626000000000000000e+03 8.970457077026367188e+00 -1.137874245643615723e+00 -7.880330830812454224e-02 -2.428225427865982056e-02 -3.092566877603530884e-02 -4.614875093102455139e-02
3.627000000000000000e+03 8.943898200988769531e+00 -3.978742659091949463e-01 -8.530706167221069336e-02 1.053985860198736191e-02 -2.243016101419925690e-02 -1.654515415430068970e-02
3.628000000000000000e+03 9.675095558166503906e+00 -3.934291601181030273e-01 -1.256371140480041504e-01 -2.407873421907424927e-02 -4.491475597023963928e-02 -2.678433060646057129e-02
3.629000000000000000e+03 8.210844039916992188e+00 -3.997015058994293213e-01 -5.740753933787345886e-02 -1.310974825173616409e-02 -2.115518599748611450e-02 -1.340183056890964508e-02
3.630000000000000000e+03 7.471634387969970703e+00 -4.002913832664489746e-01 -3.676648437976837158e-02 8.144930936396121979e-03 -8.586465381085872650e-03 -8.329845964908599854e-03
3.631000000000000000e+03 6.697712898254394531e+00 -3.948567509651184082e-01 -2.079270407557487488e-02 -9.174836799502372742e-03 -8.990262635052204132e-03 -9.029089473187923431e-03
3.632000000000000000e+03 5.996616840362548828e+00 -2.975540459156036377e-01 -7.433001883327960968e-03 8.140680380165576935e-03 2.123034646501764655e-04 -2.057305304333567619e-03
3.633000000000000000e+03 4.704762458801269531e+00 -2.634612619876861572e-01 4.917941987514495850e-03 4.063753876835107803e-03 2.694508759304881096e-03 2.688770764507353306e-04
3.634000000000000000e+03 1.328154802322387695e+00 -5.921700596809387207e-01 -2.463349606841802597e-03 -1.497443998232483864e-03 -1.188238151371479034e-03 1.627571997232735157e-03
3.635000000000000000e+03 2.050547361373901367e+00 -1.302320599555969238e+00 1.939258654601871967e-03 5.251647904515266418e-03 2.157271839678287506e-03 4.274395294487476349e-03
3.636000000000000000e+03 1.100269436836242676e+00 -2.579847574234008789e-01 1.415912411175668240e-03 -1.590500702150166035e-03 -5.237649747868999839e-05 9.728724253363907337e-04
3.637000000000000000e+03 7.313934564590454102e-01 -1.136229634284973145e+00 6.176948547363281250e-03 1.613517873920500278e-03 2.337140031158924103e-03 2.046173438429832458e-03
3.638000000000000000e+03 3.948557078838348389e-01 -5.465090870857238770e-01 3.127034287899732590e-04 1.138651510700583458e-03 4.354064876679331064e-04 4.921443760395050049e-04
3.639000000000000000e+03 9.735026359558105469e+00 -1.133429169654846191e+00 -9.474080801010131836e-02 -7.962455041706562042e-03 -3.081097826361656189e-02 -5.391037091612815857e-02
3.640000000000000000e+03 8.204030990600585938e+00 -1.139701485633850098e+00 -5.829815566539764404e-02 3.226852277293801308e-03 -1.652139052748680115e-02 -3.164530918002128601e-02
3.641000000000000000e+03 7.431449413299560547e+00 -1.140291333198547363e+00 -4.038484767079353333e-02 -1.556137111037969589e-02 -1.678386516869068146e-02 -2.749373763799667358e-02
3.642000000000000000e+03 6.624156475067138672e+00 -1.134856700897216797e+00 -2.584255114197731018e-02 1.985128270462155342e-03 -7.157226558774709702e-03 -1.716179400682449341e-02
3.643000000000000000e+03 5.799453258514404297e+00 -1.182115197181701660e+00 -1.502454280853271484e-02 -9.609418921172618866e-03 -7.390188518911600113e-03 -1.399897132068872452e-02
3.644000000000000000e+03 5.011734962463378906e+00 -1.248350262641906738e+00 -7.225064095109701157e-03 -8.174806134775280952e-04 -2.412763424217700958e-03 -8.014949969947338104e-03
3.645000000000000000e+03 4.251304149627685547e+00 -1.270629644393920898e+00 -6.574843078851699829e-03 -6.800049450248479843e-03 -4.012467805296182632e-03 -6.443276535719633102e-03
3.646000000000000000e+03 3.500344753265380859e+00 -1.290351510047912598e+00 2.377492637606337667e-04 1.520505640655755997e-03 5.274764844216406345e-04 -1.731628086417913437e-03
3.647000000000000000e+03 2.764770030975341797e+00 -1.311714053153991699e+00 -6.067646318115293980e-04 -7.802643347531557083e-03 -2.522822469472885132e-03 1.052914652973413467e-03
3.648000000000000000e+03 2.804219961166381836e+00 -9.161376357078552246e-01 1.045661396346986294e-03 2.170975320041179657e-03 9.649910498410463333e-04 7.391396211460232735e-04
3.649000000000000000e+03 1.783497571945190430e+00 -7.618596553802490234e-01 4.982579033821821213e-03 1.341640832833945751e-03 1.897265901789069176e-03 2.942728344351053238e-03
3.650000000000000000e+03 2.272170543670654297e+00 -9.032281041145324707e-01 -1.193373231217265129e-03 -2.959809266030788422e-03 -1.245954656042158604e-03 3.427128074690699577e-03
3.651000000000000000e+03 4.855762481689453125e+00 -7.518115043640136719e-01 -4.976335447281599045e-03 -4.015940241515636444e-03 -2.697682706639170647e-03 -7.067149039357900620e-03
3.652000000000000000e+03 3.442619800567626953e+00 -8.362870812416076660e-01 2.669985871762037277e-03 -4.613298457115888596e-03 -5.829937872476875782e-04 -1.922296709381043911e-03
3.653000000000000000e+03 2.681409835815429688e+00 -5.107127428054809570e-01 8.871167898178100586e-03 2.045538509264588356e-03 3.275012131780385971e-03 4.924909444525837898e-04
3.654000000000000000e+03 2.254583597183227539e+00 -2.807539403438568115e-01 3.193042706698179245e-03 -4.641693085432052612e-04 8.186619961634278297e-04 3.059863229282200336e-05
3.655000000000000000e+03 1.365055561065673828e+00 -1.241105675697326660e+00 -3.202480031177401543e-03 -2.165188547223806381e-03 -1.610300620086491108e-03 -8.634654222987592220e-04
3.656000000000000000e+03 1.685097575187683105e+00 -2.159404754638671875e-01 3.813349874690175056e-03 1.233308110386133194e-03 1.513997325673699379e-03 -2.228458615718409419e-04
3.657000000000000000e+03 3.307399272918701172e+00 -3.059355318546295166e-01 5.751472432166337967e-03 -1.034647109918296337e-03 1.415047561749815941e-03 1.559887779876589775e-03
3.658000000000000000e+03 4.001618385314941406e+00 -2.834403216838836670e-01 6.463403347879648209e-03 -1.554526505060493946e-03 1.472663134336471558e-03 -1.326836994849145412e-03
3.659000000000000000e+03 5.375914096832275391e+00 -2.288835346698760986e-01 1.353671075776219368e-03 -8.203180506825447083e-03 -2.054852899163961411e-03 -2.821765374392271042e-03
3.660000000000000000e+03 4.139993190765380859e+00 -7.940700054168701172e-01 5.587578052654862404e-04 1.741738873533904552e-03 6.901490269228816032e-04 -6.292944308370351791e-04
3.661000000000000000e+03 5.566827297210693359e+00 -6.509987115859985352e-01 -1.076544728130102158e-02 -5.730333505198359489e-04 -3.401544177904725075e-03 -5.193972028791904449e-03
3.662000000000000000e+03 3.319358444213867188e+01 -5.567219257354736328e-01 1.662013053894042969e+01 1.143369770050048828e+01 8.416148185729980469e+00 1.270049476623535156e+01
3.663000000000000000e+03 3.320389938354492188e+01 -5.732413530349731445e-01 1.123661899566650391e+01 2.373912429809570312e+01 1.049272251129150391e+01 1.515888595581054688e+01
3.664000000000000000e+03 3.321723556518554688e+01 -5.874353647232055664e-01 8.955499649047851562e+00 3.214274978637695312e+01 1.232947540283203125e+01 1.410849475860595703e+01
3.665000000000000000e+03 3.323307800292968750e+01 -5.987604856491088867e-01 7.173843860626220703e+00 3.990682220458984375e+01 1.412419986724853516e+01 1.105323791503906250e+01
3.666000000000000000e+03 3.325082778930664062e+01 -6.067829132080078125e-01 6.698007106781005859e+00 4.549323272705078125e+01 1.565737152099609375e+01 6.862428665161132812e+00
3.667000000000000000e+03 3.326979446411132812e+01 -6.111954450607299805e-01 7.431286334991455078e+00 4.916923904418945312e+01 1.698015785217285156e+01 1.621214151382446289e+00
3.668000000000000000e+03 3.328926086425781250e+01 -6.118290424346923828e-01 9.721684455871582031e+00 5.050859451293945312e+01 1.806908416748046875e+01 -3.622768878936767578e+00
3.669000000000000000e+03 3.330847549438476562e+01 -6.086595058441162109e-01 1.307276916503906250e+01 4.947915649414062500e+01 1.876557731628417969e+01 -8.411397933959960938e+00
3.670000000000000000e+03 3.332670593261718750e+01 -6.018082499504089355e-01 1.794952201843261719e+01 4.689764785766601562e+01 1.945415115356445312e+01 -1.189516258239746094e+01
3.671000000000000000e+03 3.334325408935546875e+01 -5.915375947952270508e-01 2.245838737487792969e+01 4.269356155395507812e+01 1.954558563232421875e+01 -1.394538784027099609e+01
3.672000000000000000e+03 3.335748291015625000e+01 -5.782408714294433594e-01 2.770630264282226562e+01 3.873064041137695312e+01 1.993108177185058594e+01 -1.397943687438964844e+01
3.673000000000000000e+03 3.336885070800781250e+01 -5.624272823333740234e-01 3.118150711059570312e+01 3.422576141357421875e+01 1.962218093872070312e+01 -1.284545803070068359e+01
3.674000000000000000e+03 3.337692260742187500e+01 -5.447025299072265625e-01 3.441433334350585938e+01 3.174520301818847656e+01 1.984786033630371094e+01 -1.015632534027099609e+01
3.675000000000000000e+03 3.338138580322265625e+01 -5.257453322410583496e-01 3.556356811523437500e+01 2.923163604736328125e+01 1.943856048583984375e+01 -7.099843025207519531e+00
3.676000000000000000e+03 3.338207244873046875e+01 -5.062817335128784180e-01 3.591373443603515625e+01 2.926552772521972656e+01 1.955377769470214844e+01 -3.838629722595214844e+00
3.677000000000000000e+03 3.337895584106445312e+01 -4.870571494102478027e-01 3.475130462646484375e+01 3.006647300720214844e+01 1.944533348083496094e+01 -6.417973637580871582e-01
3.678000000000000000e+03 3.337215423583984375e+01 -4.688078761100769043e-01 3.263066864013671875e+01 3.170397567749023438e+01 1.930039405822753906e+01 1.686710834503173828e+00
3.679000000000000000e+03 3.336193084716796875e+01 -4.522328376770019531e-01 3.013531112670898438e+01 3.562385940551757812e+01 1.972775077819824219e+01 2.987882137298583984e+00
3.680000000000000000e+03 3.334867095947265625e+01 -4.379665851593017578e-01 2.604235458374023438e+01 3.815836715698242188e+01 1.926021575927734375e+01 3.553155422210693359e+00
3.681000000000000000e+03 3.333288955688476562e+01 -4.265555441379547119e-01 2.391667556762695312e+01 4.279602050781250000e+01 2.001380920410156250e+01 1.922130942344665527e+00
3.682000000000000000e+03 3.331518936157226562e+01 -4.184366464614868164e-01 1.935763740539550781e+01 4.516127014160156250e+01 1.935567283630371094e+01 -4.536960422992706299e-01
3.683000000000000000e+03 3.329624176025390625e+01 -4.139208495616912842e-01 1.870767021179199219e+01 4.756836318969726562e+01 1.988280868530273438e+01 -4.200242996215820312e+00
3.684000000000000000e+03 3.327678298950195312e+01 -4.131810963153839111e-01 1.692859268188476562e+01 4.740948867797851562e+01 1.930142402648925781e+01 -9.173584938049316406e+00
3.685000000000000000e+03 3.325754928588867188e+01 -4.162456691265106201e-01 1.777172088623046875e+01 4.583964920043945312e+01 1.908341217041015625e+01 -1.349242877960205078e+01
3.686000000000000000e+03 3.323928070068359375e+01 -4.229972362518310547e-01 2.001610946655273438e+01 4.176758956909179688e+01 1.853511047363281250e+01 -1.786243247985839844e+01
3.687000000000000000e+03 3.322267913818359375e+01 -4.331772625446319580e-01 2.265298652648925781e+01 3.613193511962890625e+01 1.763547515869140625e+01 -2.074052429199218750e+01
3.688000000000000000e+03 3.320837402343750000e+01 -4.463958442211151123e-01 2.636127090454101562e+01 2.927987480163574219e+01 1.669234466552734375e+01 -2.190366363525390625e+01
3.689000000000000000e+03 3.319692230224609375e+01 -4.621468186378479004e-01 2.955086517333984375e+01 2.187393379211425781e+01 1.542743968963623047e+01 -2.121322059631347656e+01
3.690000000000000000e+03 3.318875122070312500e+01 -4.798269569873809814e-01 3.172025108337402344e+01 1.439877414703369141e+01 1.383570766448974609e+01 -1.870113182067871094e+01
3.691000000000000000e+03 3.318418502807617188e+01 -4.987591803073883057e-01 3.282148361206054688e+01 8.433320999145507812e+00 1.237644195556640625e+01 -1.432308006286621094e+01
3.692000000000000000e+03 3.318339157104492188e+01 -5.182184576988220215e-01 3.135115623474121094e+01 2.807538270950317383e+00 1.024760818481445312e+01 -8.748522758483886719e+00
3.693000000000000000e+03 3.318640518188476562e+01 -5.374596118927001953e-01 2.732818984985351562e+01 1.659279465675354004e+00 8.696241378784179688e+00 1.916974782943725586e-01
