# el_label, x, y, sXX, sYY, sZZ, sXY
1.000000000000000000e+00 7.640741729736328125e+01 -6.101749420166015625e+00 -1.091361165046691895e+00 -3.362159967422485352e+00 -1.336056351661682129e+00 -2.077578306198120117e+00
2.000000000000000000e+00 7.621287536621093750e+01 -6.143867492675781250e+00 1.008347511291503906e+00 1.570899367332458496e+00 7.737740874290466309e-01 9.631827473640441895e-01
3.000000000000000000e+00 7.601834106445312500e+01 -6.185984611511230469e+00 -4.907540678977966309e-01 -6.281875371932983398e-01 -3.356824815273284912e-01 9.247267991304397583e-02
4.000000000000000000e+00 7.582380676269531250e+01 -6.228102207183837891e+00 -8.175258040428161621e-01 5.058603286743164062e-01 -9.349964559078216553e-02 3.106530057266354561e-03
5.000000000000000000e+00 7.642527008056640625e+01 -6.157292842864990234e+00 1.205224800109863281e+01 -1.249797582626342773e+00 3.240735292434692383e+00 4.426010131835937500e+00
6.000000000000000000e+00 7.624263763427734375e+01 -6.236439228057861328e+00 4.185590744018554688e+00 9.185127019882202148e-01 1.531231045722961426e+00 2.303463220596313477e+00
7.000000000000000000e+00 7.606001281738281250e+01 -6.315585136413574219e+00 3.500432252883911133e+00 1.783998727798461914e+00 1.585329294204711914e+00 2.532136917114257812e+00
8.000000000000000000e+00 7.587738037109375000e+01 -6.394731044769287109e+00 2.198589801788330078e+00 4.892367720603942871e-01 8.063479661941528320e-01 1.529006719589233398e+00
9.000000000000000000e+00 7.645359039306640625e+01 -6.208302497863769531e+00 1.463059043884277344e+01 5.393247127532958984e+00 6.007151126861572266e+00 1.138523101806640625e+01
1.000000000000000000e+01 7.628984069824218750e+01 -6.321455001831054688e+00 8.545139312744140625e+00 3.509867906570434570e+00 3.616502046585083008e+00 6.487948894500732422e+00
1.100000000000000000e+01 7.612608337402343750e+01 -6.434607505798339844e+00 5.245067596435546875e+00 3.474770069122314453e+00 2.615951299667358398e+00 4.730904102325439453e+00
1.200000000000000000e+01 7.596233367919921875e+01 -6.547760009765625000e+00 4.069186210632324219e+00 3.360721349716186523e+00 2.228972196578979492e+00 4.052851676940917969e+00
1.300000000000000000e+01 7.649129486083984375e+01 -6.252830982208251953e+00 1.435973167419433594e+01 1.381174373626708984e+01 8.451442718505859375e+00 1.584017276763916016e+01
1.400000000000000000e+01 7.635266876220703125e+01 -6.395668983459472656e+00 8.710588455200195312e+00 8.746527671813964844e+00 5.237134933471679688e+00 1.010960483551025391e+01
1.500000000000000000e+01 7.621405029296875000e+01 -6.538506984710693359e+00 6.287921428680419922e+00 7.238230228424072266e+00 4.057845592498779297e+00 7.681271076202392578e+00
1.600000000000000000e+01 7.607543182373046875e+01 -6.681344985961914062e+00 4.573176860809326172e+00 6.370344161987304688e+00 3.283056259155273438e+00 6.182067394256591797e+00
1.700000000000000000e+01 7.653692626953125000e+01 -6.289177417755126953e+00 1.135215187072753906e+01 2.303168869018554688e+01 1.031515216827392578e+01 1.756880378723144531e+01
1.800000000000000000e+01 7.642873382568359375e+01 -6.456246852874755859e+00 7.558466911315917969e+00 1.529426956176757812e+01 6.855820655822753906e+00 1.220897197723388672e+01
1.900000000000000000e+01 7.632054138183593750e+01 -6.623316287994384766e+00 5.301076889038085938e+00 1.219865512847900391e+01 5.249919414520263672e+00 9.441139221191406250e+00
2.000000000000000000e+01 7.621234893798828125e+01 -6.790385246276855469e+00 3.905909299850463867e+00 1.065004920959472656e+01 4.366787433624267578e+00 7.829073429107666016e+00
2.100000000000000000e+01 7.658876037597656250e+01 -6.315954685211181641e+00 8.118578910827636719e+00 3.175823593139648438e+01 1.196304416656494141e+01 1.655166244506835938e+01
2.200000000000000000e+01 7.651512145996093750e+01 -6.500875473022460938e+00 5.316130638122558594e+00 2.196382904052734375e+01 8.183988571166992188e+00 1.223357677459716797e+01
2.300000000000000000e+01 7.644149017333984375e+01 -6.685796260833740234e+00 3.603385448455810547e+00 1.780858993530273438e+01 6.423592567443847656e+00 9.832960128784179688e+00
2.400000000000000000e+01 7.636785125732421875e+01 -6.870717048645019531e+00 2.366082191467285156e+00 1.528841209411621094e+01 5.296348571777343750e+00 8.133708000183105469e+00
2.500000000000000000e+01 7.664481353759765625e+01 -6.332139968872070312e+00 5.469787120819091797e+00 3.889273834228515625e+01 1.330875778198242188e+01 1.317064857482910156e+01
2.600000000000000000e+01 7.660854339599609375e+01 -6.527850627899169922e+00 3.344841957092285156e+00 2.796125030517578125e+01 9.391827583312988281e+00 1.047186851501464844e+01
2.700000000000000000e+01 7.657228088378906250e+01 -6.723561286926269531e+00 1.779404282569885254e+00 2.288772773742675781e+01 7.400139808654785156e+00 8.618913650512695312e+00
2.800000000000000000e+01 7.653601074218750000e+01 -6.919272422790527344e+00 7.277488112449645996e-01 2.001256942749023438e+01 6.222095966339111328e+00 7.229401588439941406e+00
2.900000000000000000e+01 7.670294952392578125e+01 -6.337114810943603516e+00 4.486885070800781250e+00 4.373876571655273438e+01 1.446769618988037109e+01 8.361093521118164062e+00
3.000000000000000000e+01 7.670542907714843750e+01 -6.536142349243164062e+00 2.194412708282470703e+00 3.248994064331054688e+01 1.040530681610107422e+01 7.321323871612548828e+00
3.100000000000000000e+01 7.670791625976562500e+01 -6.735169887542724609e+00 6.347845792770385742e-01 2.697315216064453125e+01 8.282381057739257812e+00 6.157681941986083984e+00
3.200000000000000000e+01 7.671040344238281250e+01 -6.934197425842285156e+00 -3.291585743427276611e-01 2.357315254211425781e+01 6.973198413848876953e+00 5.283131122589111328e+00
3.300000000000000000e+01 7.676093292236328125e+01 -6.330689907073974609e+00 5.474517345428466797e+00 4.601892471313476562e+01 1.544803237915039062e+01 3.135471105575561523e+00
3.400000000000000000e+01 7.680207824707031250e+01 -6.525433540344238281e+00 2.312638044357299805e+00 3.521489334106445312e+01 1.125825977325439453e+01 3.482721090316772461e+00
3.500000000000000000e+01 7.684322357177734375e+01 -6.720178127288818359e+00 6.281699538230895996e-01 2.953327751159667969e+01 9.048434257507324219e+00 3.002974271774291992e+00
3.600000000000000000e+01 7.688436889648437500e+01 -6.914922237396240234e+00 -4.969372153282165527e-01 2.576269149780273438e+01 7.579726219177246094e+00 2.475543975830078125e+00
3.700000000000000000e+01 7.681656646728515625e+01 -6.313109874725341797e+00 8.192906379699707031e+00 4.595032882690429688e+01 1.624296951293945312e+01 -1.521683096885681152e+00
3.800000000000000000e+01 7.689479827880859375e+01 -6.496134281158447266e+00 3.898939847946166992e+00 3.605469131469726562e+01 1.198608970642089844e+01 -2.828679978847503662e-01
3.900000000000000000e+01 7.697303009033203125e+01 -6.679158687591552734e+00 1.778413295745849609e+00 3.041550827026367188e+01 9.658176422119140625e+00 -2.488450407981872559e-01
4.000000000000000000e+01 7.705126190185546875e+01 -6.862182617187500000e+00 4.225851595401763916e-01 2.679751968383789062e+01 8.166031837463378906e+00 -4.214470982551574707e-01
4.100000000000000000e+01 7.686771392822265625e+01 -6.285046577453613281e+00 1.206311798095703125e+01 4.413492965698242188e+01 1.685941505432128906e+01 -4.855267524719238281e+00
4.200000000000000000e+01 7.698004913330078125e+01 -6.449362277984619141e+00 6.739415645599365234e+00 3.525813293457031250e+01 1.259926414489746094e+01 -3.326135158538818359e+00
4.300000000000000000e+01 7.709238433837890625e+01 -6.613677501678466797e+00 3.964824676513671875e+00 2.988062095642089844e+01 1.015363311767578125e+01 -2.966798067092895508e+00
4.400000000000000000e+01 7.720471191406250000e+01 -6.777992725372314453e+00 2.349287986755371094e+00 2.631888008117675781e+01 8.600450515747070312e+00 -2.724478960037231445e+00
4.500000000000000000e+01 7.691243743896484375e+01 -6.247571468353271484e+00 1.661301803588867188e+01 4.148542022705078125e+01 1.742953109741210938e+01 -6.449674129486083984e+00
4.600000000000000000e+01 7.705458068847656250e+01 -6.386903762817382812e+00 1.013524723052978516e+01 3.321302795410156250e+01 1.300448226928710938e+01 -5.254145622253417969e+00
4.700000000000000000e+01 7.719672393798828125e+01 -6.526235580444335938e+00 7.025835514068603516e+00 2.835101509094238281e+01 1.061305522918701172e+01 -4.514771461486816406e+00
4.800000000000000000e+01 7.733886718750000000e+01 -6.665567874908447266e+00 4.823450565338134766e+00 2.475267028808593750e+01 8.872836112976074219e+00 -4.342996120452880859e+00
4.900000000000000000e+01 7.694901275634765625e+01 -6.202116012573242188e+00 2.068120765686035156e+01 3.834766769409179688e+01 1.770866203308105469e+01 -6.513742446899414062e+00
5.000000000000000000e+01 7.711553955078125000e+01 -6.311143875122070312e+00 1.384456825256347656e+01 3.095644187927246094e+01 1.344030284881591797e+01 -5.554473400115966797e+00
5.100000000000000000e+01 7.728206634521484375e+01 -6.420171737670898438e+00 1.010462760925292969e+01 2.600186920166015625e+01 1.083194923400878906e+01 -5.035536766052246094e+00
5.200000000000000000e+01 7.744859313964843750e+01 -6.529200077056884766e+00 7.657673358917236328e+00 2.306280326843261719e+01 9.216142654418945312e+00 -4.546810626983642578e+00
5.300000000000000000e+01 7.697604370117187500e+01 -6.150414943695068359e+00 2.403204154968261719e+01 3.609735488891601562e+01 1.803881835937500000e+01 -5.102664947509765625e+00
5.400000000000000000e+01 7.716059112548828125e+01 -6.224975585937500000e+00 1.696445083618164062e+01 2.840512084960937500e+01 1.361087131500244141e+01 -4.608873367309570312e+00
5.500000000000000000e+01 7.734514617919921875e+01 -6.299536705017089844e+00 1.284560585021972656e+01 2.420809555053710938e+01 1.111611080169677734e+01 -4.133607864379882812e+00
5.600000000000000000e+01 7.752969360351562500e+01 -6.374097347259521484e+00 1.012752628326416016e+01 2.083138275146484375e+01 9.287672042846679688e+00 -3.785962581634521484e+00
5.700000000000000000e+01 7.699250793457031250e+01 -6.094442844390869141e+00 2.614842796325683594e+01 3.435821914672851562e+01 1.815199470520019531e+01 -2.687064409255981445e+00
5.800000000000000000e+01 7.718803405761718750e+01 -6.131689548492431641e+00 1.900676536560058594e+01 2.692018890380859375e+01 1.377808570861816406e+01 -2.626145839691162109e+00
5.900000000000000000e+01 7.738356018066406250e+01 -6.168935775756835938e+00 1.475461101531982422e+01 2.259687614440917969e+01 1.120544624328613281e+01 -2.225843667984008789e+00
6.000000000000000000e+01 7.757908630371093750e+01 -6.206182479858398438e+00 1.178984260559082031e+01 1.966396522521972656e+01 9.436141967773437500e+00 -2.197175979614257812e+00
6.100000000000000000e+01 7.699777221679687500e+01 -6.036337852478027344e+00 2.677131271362304688e+01 3.375540542602539062e+01 1.815801620483398438e+01 1.960404217243194580e-02
6.200000000000000000e+01 7.719680786132812500e+01 -6.034847736358642578e+00 1.970001029968261719e+01 2.645538902282714844e+01 1.384661960601806641e+01 9.638146311044692993e-02
6.300000000000000000e+01 7.739585113525390625e+01 -6.033357620239257812e+00 1.537298488616943359e+01 2.198474693298339844e+01 1.120732021331787109e+01 -3.540385514497756958e-03
6.400000000000000000e+01 7.759488677978515625e+01 -6.031867027282714844e+00 1.237333965301513672e+01 1.932346916198730469e+01 9.509042739868164062e+00 1.291714012622833252e-01
6.500000000000000000e+01 7.699163818359375000e+01 -5.978318214416503906e+00 2.596132469177246094e+01 3.452087402343750000e+01 1.814466094970703125e+01 2.794983148574829102e+00
6.600000000000000000e+01 7.718658447265625000e+01 -5.938148021697998047e+00 1.891546440124511719e+01 2.688593864440917969e+01 1.374042034149169922e+01 2.670001983642578125e+00
6.700000000000000000e+01 7.738153076171875000e+01 -5.897978305816650391e+00 1.460522937774658203e+01 2.281256675720214844e+01 1.122533893585205078e+01 2.352141380310058594e+00
6.800000000000000000e+01 7.757647705078125000e+01 -5.857808113098144531e+00 1.165448188781738281e+01 1.946399688720703125e+01 9.335543632507324219e+00 2.271703243255615234e+00
6.900000000000000000e+01 7.697433471679687500e+01 -5.922599315643310547e+00 2.370045661926269531e+01 3.608466339111328125e+01 1.793553543090820312e+01 5.024304866790771484e+00
7.000000000000000000e+01 7.715775299072265625e+01 -5.845283508300781250e+00 1.678647422790527344e+01 2.860981369018554688e+01 1.361888599395751953e+01 4.604859352111816406e+00
7.100000000000000000e+01 7.734116363525390625e+01 -5.767967224121093750e+00 1.269550704956054688e+01 2.420915031433105469e+01 1.107139682769775391e+01 4.216144561767578125e+00
7.200000000000000000e+01 7.752457427978515625e+01 -5.690651416778564453e+00 9.963420867919921875e+00 2.101956176757812500e+01 9.294895172119140625e+00 3.857651948928833008e+00
7.300000000000000000e+01 7.694653320312500000e+01 -5.871309280395507812e+00 2.032453155517578125e+01 3.856191635131835938e+01 1.766593360900878906e+01 6.241841316223144531e+00
7.400000000000000000e+01 7.711140441894531250e+01 -5.759799957275390625e+00 1.365025329589843750e+01 3.086473655700683594e+01 1.335449695587158203e+01 5.441406726837158203e+00
7.500000000000000000e+01 7.727628326416015625e+01 -5.648290157318115234e+00 1.000836086273193359e+01 2.616682815551757812e+01 1.085255622863769531e+01 5.022776603698730469e+00
7.600000000000000000e+01 7.744115447998046875e+01 -5.536780834197998047e+00 7.713515281677246094e+00 2.309570121765136719e+01 9.242764472961425781e+00 4.633304595947265625e+00
7.700000000000000000e+01 7.690927886962890625e+01 -5.826406478881835938e+00 1.619413948059082031e+01 4.132988739013671875e+01 1.725720787048339844e+01 6.053770542144775391e+00
7.800000000000000000e+01 7.704932403564453125e+01 -5.684961318969726562e+00 1.008385562896728516e+01 3.325895309448242188e+01 1.300284194946289062e+01 4.908858776092529297e+00
7.900000000000000000e+01 7.718936157226562500e+01 -5.543516635894775391e+00 7.059484481811523438e+00 2.810229873657226562e+01 1.054853534698486328e+01 4.496011734008789062e+00
8.000000000000000000e+01 7.732939910888671875e+01 -5.402071475982666016e+00 4.969645500183105469e+00 2.490728187561035156e+01 8.963078498840332031e+00 4.267494678497314453e+00
8.100000000000000000e+01 7.686400604248046875e+01 -5.789605140686035156e+00 1.191476631164550781e+01 4.392506408691406250e+01 1.675194931030273438e+01 4.204652786254882812e+00
8.200000000000000000e+01 7.697386932373046875e+01 -5.623625755310058594e+00 6.730284214019775391e+00 3.498302078247070312e+01 1.251399135589599609e+01 2.994045734405517578e+00
8.300000000000000000e+01 7.708372497558593750e+01 -5.457646846771240234e+00 4.274924755096435547e+00 2.964417648315429688e+01 1.017573070526123047e+01 2.668247938156127930e+00
8.400000000000000000e+01 7.719358825683593750e+01 -5.291667461395263672e+00 2.419320344924926758e+00 2.594551467895507812e+01 8.509450912475585938e+00 2.767212390899658203e+00
8.500000000000000000e+01 7.681243896484375000e+01 -5.762310504913330078e+00 8.142404556274414062e+00 4.545075988769531250e+01 1.607794952392578125e+01 7.908011674880981445e-01
8.600000000000000000e+01 7.688792419433593750e+01 -5.578135490417480469e+00 4.221874713897705078e+00 3.558448791503906250e+01 1.194190788269042969e+01 -1.395028531551361084e-01
8.700000000000000000e+01 7.696340942382812500e+01 -5.393960475921630859e+00 2.119363069534301758e+00 3.005159950256347656e+01 9.651288986206054688e+00 -1.448035333305597305e-02
8.800000000000000000e+01 7.703889465332031250e+01 -5.209784984588623047e+00 7.729317545890808105e-01 2.631272506713867188e+01 8.125697135925292969e+00 3.004842996597290039e-01
8.900000000000000000e+01 7.675655364990234375e+01 -5.745565891265869141e+00 5.641062736511230469e+00 4.521113586425781250e+01 1.525566005706787109e+01 -3.837364673614501953e+00
9.000000000000000000e+01 7.679477691650390625e+01 -5.550227642059326172e+00 2.920918226242065430e+00 3.458441162109375000e+01 1.125159835815429688e+01 -3.907109022140502930e+00
9.100000000000000000e+01 7.683300018310546875e+01 -5.354888916015625000e+00 1.085557341575622559e+00 2.899364089965820312e+01 9.023759841918945312e+00 -3.163903474807739258e+00
9.200000000000000000e+01 7.687122344970703125e+01 -5.159550666809082031e+00 1.225121319293975830e-01 2.544196128845214844e+01 7.669342041015625000e+00 -2.538816452026367188e+00
9.300000000000000000e+01 7.669847869873046875e+01 -5.740009784698486328e+00 5.047934532165527344e+00 4.272689437866210938e+01 1.433244800567626953e+01 -8.960426330566406250e+00
9.400000000000000000e+01 7.669798278808593750e+01 -5.540967464447021484e+00 2.849677085876464844e+00 3.175809288024902344e+01 1.038233089447021484e+01 -7.616841316223144531e+00
9.500000000000000000e+01 7.669748687744140625e+01 -5.341925144195556641e+00 1.450091004371643066e+00 2.638022041320800781e+01 8.349093437194824219e+00 -6.240143775939941406e+00
9.600000000000000000e+01 7.669699096679687500e+01 -5.142882347106933594e+00 2.872161865234375000e-01 2.300827980041503906e+01 6.988648891448974609e+00 -5.201533794403076172e+00
9.700000000000000000e+01 7.664042663574218750e+01 -5.745854854583740234e+00 6.143568038940429688e+00 3.773790740966796875e+01 1.316444301605224609e+01 -1.360745811462402344e+01
9.800000000000000000e+01 7.660123443603515625e+01 -5.550709247589111328e+00 4.231278419494628906e+00 2.726974487304687500e+01 9.450306892395019531e+00 -1.055113029479980469e+01
9.900000000000000000e+01 7.656203460693359375e+01 -5.355563163757324219e+00 2.598506450653076172e+00 2.235956764221191406e+01 7.487421989440917969e+00 -8.661801338195800781e+00
1.000000000000000000e+02 7.652284240722656250e+01 -5.160417079925537109e+00 1.601789712905883789e+00 1.934837913513183594e+01 6.285050868988037109e+00 -7.196892738342285156e+00
1.010000000000000000e+02 7.658461761474609375e+01 -5.762877464294433594e+00 8.891368865966796875e+00 3.074691581726074219e+01 1.189148521423339844e+01 -1.666319465637207031e+01
1.020000000000000000e+02 7.650822448730468750e+01 -5.579080104827880859e+00 6.239831924438476562e+00 2.145778083801269531e+01 8.309284210205078125e+00 -1.224764633178710938e+01
1.030000000000000000e+02 7.643182373046875000e+01 -5.395282745361328125e+00 4.489092826843261719e+00 1.737074089050292969e+01 6.557950019836425781e+00 -9.777353286743164062e+00
1.040000000000000000e+02 7.635543060302734375e+01 -5.211485385894775391e+00 3.208206892013549805e+00 1.500467300415039062e+01 5.463863849639892578e+00 -8.196378707885742188e+00
1.050000000000000000e+02 7.653318786621093750e+01 -5.790427684783935547e+00 1.217338562011718750e+01 2.234588813781738281e+01 1.035578250885009766e+01 -1.755748748779296875e+01
1.060000000000000000e+02 7.642250823974609375e+01 -5.624997138977050781e+00 8.416973114013671875e+00 1.513005924224853516e+01 7.064109802246093750e+00 -1.212173080444335938e+01
1.070000000000000000e+02 7.631182861328125000e+01 -5.459567070007324219e+00 6.236235141754150391e+00 1.202781772613525391e+01 5.479215621948242188e+00 -9.549754142761230469e+00
1.080000000000000000e+02 7.620114135742187500e+01 -5.294136524200439453e+00 4.807908535003662109e+00 1.036846828460693359e+01 4.552913188934326172e+00 -7.742092132568359375e+00
1.090000000000000000e+02 7.648810577392578125e+01 -5.827453613281250000e+00 1.480694484710693359e+01 1.397714996337890625e+01 8.635228157043457031e+00 -1.576906776428222656e+01
1.100000000000000000e+02 7.634735870361328125e+01 -5.686707496643066406e+00 9.853390693664550781e+00 8.857866287231445312e+00 5.613377094268798828e+00 -1.040859317779541016e+01
1.110000000000000000e+02 7.620661926269531250e+01 -5.545960903167724609e+00 7.238255500793457031e+00 7.159943103790283203e+00 4.319459438323974609e+00 -7.681448936462402344e+00
1.120000000000000000e+02 7.606587982177734375e+01 -5.405214309692382812e+00 5.578791141510009766e+00 6.205415725708007812e+00 3.535262107849121094e+00 -6.357068061828613281e+00
1.130000000000000000e+02 7.645107269287109375e+01 -5.872541904449462891e+00 1.571203517913818359e+01 6.269177436828613281e+00 6.594363689422607422e+00 -1.174026870727539062e+01
1.140000000000000000e+02 7.628565216064453125e+01 -5.761853694915771484e+00 9.383763313293457031e+00 3.908227682113647461e+00 3.987597227096557617e+00 -7.109280586242675781e+00
1.150000000000000000e+02 7.612022399902343750e+01 -5.651165962219238281e+00 7.002943992614746094e+00 3.257639169692993164e+00 3.078175067901611328e+00 -5.146058559417724609e+00
1.160000000000000000e+02 7.595479583740234375e+01 -5.540478229522705078e+00 5.142812728881835938e+00 3.135263919830322266e+00 2.483422994613647461e+00 -3.900130033493041992e+00
1.170000000000000000e+02 7.642352294921875000e+01 -5.923969745635986328e+00 1.290704917907714844e+01 8.464748263359069824e-01 4.126057147979736328e+00 -6.283873558044433594e+00
1.180000000000000000e+02 7.623973083496093750e+01 -5.847567081451416016e+00 7.019660472869873047e+00 4.416376948356628418e-01 2.238389492034912109e+00 -3.211470842361450195e+00
1.190000000000000000e+02 7.605593872070312500e+01 -5.771164417266845703e+00 4.340363979339599609e+00 1.314862608909606934e+00 1.696567893028259277e+00 -2.303110599517822266e+00
1.200000000000000000e+02 7.587213897705078125e+01 -5.694762229919433594e+00 3.837335586547851562e+00 1.241087794303894043e+00 1.523527026176452637e+00 -2.035863876342773438e+00
1.210000000000000000e+02 7.640650177001953125e+01 -5.979773998260498047e+00 6.319910526275634766e+00 -2.654253482818603516e+00 1.099697113037109375e+00 3.094853647053241730e-02
1.220000000000000000e+02 7.621135711669921875e+01 -5.940574169158935547e+00 6.959884166717529297e-01 9.713594615459442139e-02 2.379373013973236084e-01 -3.530995249748229980e-01
1.230000000000000000e+02 7.601621246337890625e+01 -5.901374340057373047e+00 1.490712285041809082e+00 4.533635973930358887e-01 5.832228064537048340e-01 -1.010294318199157715e+00
1.240000000000000000e+02 7.582106781005859375e+01 -5.862174987792968750e+00 7.345833778381347656e-01 1.877582222223281860e-01 2.767024934291839600e-01 -2.068314254283905029e-01
1.250000000000000000e+02 7.640065765380859375e+01 -6.037823677062988281e+00 -9.618631362915039062e+00 -1.920096516609191895e+00 -3.461618423461914062e+00 2.421845674514770508e+00
1.260000000000000000e+02 7.620161437988281250e+01 -6.037323474884033203e+00 -3.102666854858398438e+00 7.576407194137573242e-01 -7.035078406333923340e-01 -7.445075511932373047e-01
1.270000000000000000e+02 7.600257110595703125e+01 -6.036823272705078125e+00 -3.402867317199707031e+00 -3.308443129062652588e-01 -1.120113492012023926e+00 4.359696432948112488e-02
1.280000000000000000e+02 7.580352783203125000e+01 -6.036323547363281250e+00 -2.783395528793334961e+00 2.449392825365066528e-01 -7.615368366241455078e-01 -5.087919160723686218e-02
1.290000000000000000e+02 7.544653320312500000e+01 -7.354852676391601562e+00 9.435357451438903809e-01 4.387782096862792969e+00 1.599395275115966797e+00 2.953472137451171875e+00
1.300000000000000000e+02 7.486568450927734375e+01 -6.578689575195312500e+00 6.242554634809494019e-02 -5.304724574089050293e-01 -1.404140740633010864e-01 -1.823429167270660400e-01
1.310000000000000000e+02 7.510034179687500000e+01 -6.559982299804687500e+00 2.752887606620788574e-01 8.635448291897773743e-03 8.517726510763168335e-02 -3.312111496925354004e-01
1.320000000000000000e+02 7.749012756347656250e+01 -5.054654598236083984e+00 1.390786528587341309e+00 2.136261940002441406e+01 6.826021671295166016e+00 3.625020742416381836e+00
1.330000000000000000e+02 7.630567932128906250e+01 -4.914587020874023438e+00 1.474089384078979492e+00 1.408201503753662109e+01 4.666831493377685547e+00 -6.419948101043701172e+00
1.340000000000000000e+02 7.444819641113281250e+01 -4.857503414154052734e+00 -3.807356655597686768e-01 -6.181454658508300781e-01 -2.996643483638763428e-01 1.681257933378219604e-01
1.350000000000000000e+02 7.712168884277343750e+01 -7.345258712768554688e+00 -1.749575138092041016e+00 2.105285644531250000e+01 5.790984630584716797e+00 2.048388570547103882e-01
1.360000000000000000e+02 7.672840881347656250e+01 -7.409492015838623047e+00 -1.521185278892517090e+00 1.887195396423339844e+01 5.205230712890625000e+00 3.527782917022705078e+00
1.370000000000000000e+02 7.575954437255859375e+01 -6.935520648956298828e+00 2.723953008651733398e+00 4.852766990661621094e+00 2.273015975952148438e+00 3.986139774322509766e+00
1.380000000000000000e+02 7.609212493896484375e+01 -6.974061965942382812e+00 2.794137477874755859e+00 9.394293785095214844e+00 3.656529188156127930e+00 6.531551361083984375e+00
1.390000000000000000e+02 7.598789215087890625e+01 -7.206934452056884766e+00 1.650001406669616699e+00 8.997378349304199219e+00 3.194214105606079102e+00 5.409405231475830078e+00
1.400000000000000000e+02 7.653420257568359375e+01 -7.457273960113525391e+00 -1.038032531738281250e+00 1.674740409851074219e+01 4.712811946868896484e+00 4.678496360778808594e+00
1.410000000000000000e+02 7.736975097656250000e+01 -6.942062377929687500e+00 1.392009854316711426e+00 2.322020530700683594e+01 7.383664608001708984e+00 -3.011935949325561523e+00
1.420000000000000000e+02 7.750656890869140625e+01 -6.820836067199707031e+00 3.449727058410644531e+00 2.205766105651855469e+01 7.652216434478759766e+00 -4.120528221130371094e+00
1.430000000000000000e+02 7.796437072753906250e+01 -6.030673503875732422e+00 8.577322959899902344e+00 1.498283672332763672e+01 7.068048000335693359e+00 5.335586667060852051e-01
1.440000000000000000e+02 7.775914001464843750e+01 -5.472010612487792969e+00 6.360675811767578125e+00 1.840989303588867188e+01 7.431170940399169922e+00 3.925114154815673828e+00
1.450000000000000000e+02 7.705336761474609375e+01 -4.889108657836914062e+00 -6.333797574043273926e-01 2.240847587585449219e+01 6.532528877258300781e+00 -3.717786073684692383e-01
1.460000000000000000e+02 7.665329742431640625e+01 -4.671294212341308594e+00 -1.125947237014770508e+00 1.804432678222656250e+01 5.075513839721679688e+00 -3.785688161849975586e+00
1.470000000000000000e+02 7.565809631347656250e+01 -4.786774158477783203e+00 2.301018238067626953e+00 5.846257686614990234e+00 2.444182872772216797e+00 -4.263442516326904297e+00
1.480000000000000000e+02 7.566057586669921875e+01 -5.258157730102539062e+00 3.520650863647460938e+00 3.091905355453491211e+00 1.983766913414001465e+00 -3.124590635299682617e+00
1.490000000000000000e+02 7.593469238281250000e+01 -5.268599987030029297e+00 4.517961502075195312e+00 6.031977176666259766e+00 3.164981603622436523e+00 -5.314153671264648438e+00
1.500000000000000000e+02 7.520240783691406250e+01 -5.356864929199218750e+00 1.361157655715942383e+00 1.019686460494995117e+00 7.142532467842102051e-01 -7.278224229812622070e-01
1.510000000000000000e+02 7.522293090820312500e+01 -5.836602210998535156e+00 -1.020860001444816589e-01 2.667175829410552979e-01 4.938947036862373352e-02 5.113440155982971191e-01
1.520000000000000000e+02 7.484812927246093750e+01 -4.832405567169189453e+00 8.525324463844299316e-01 1.113444447517395020e+00 5.897930860519409180e-01 -1.388798832893371582e+00
1.530000000000000000e+02 7.502176666259765625e+01 -6.088365554809570312e+00 -6.015490889549255371e-01 -9.208079427480697632e-03 -1.832271516323089600e-01 2.691980898380279541e-01
1.540000000000000000e+02 7.522033691406250000e+01 -6.065918922424316406e+00 -1.186830282211303711e+00 5.615426227450370789e-02 -3.392027914524078369e-01 2.669787108898162842e-01
1.550000000000000000e+02 7.482130432128906250e+01 -6.117059707641601562e+00 -1.720134615898132324e-01 -1.071109250187873840e-01 -8.373731374740600586e-02 1.349678486585617065e-01
1.560000000000000000e+02 7.560881805419921875e+01 -6.039580821990966797e+00 -2.295053243637084961e+00 -6.821785867214202881e-02 -7.089812755584716797e-01 1.181599199771881104e-01
1.570000000000000000e+02 7.773768615722656250e+01 -5.817724704742431641e+00 1.010680103302001953e+01 1.808054924011230469e+01 8.456204414367675781e+00 2.343618631362915039e+00
1.580000000000000000e+02 7.731756591796875000e+01 -5.003140449523925781e+00 6.240746974945068359e-01 2.234798049926757812e+01 6.891616344451904297e+00 2.287995100021362305e+00
1.590000000000000000e+02 7.715349578857421875e+01 -5.048425197601318359e+00 7.736599445343017578e-02 2.401227188110351562e+01 7.226891517639160156e+00 9.056819677352905273e-01
1.600000000000000000e+02 7.649177551269531250e+01 -4.933392047882080078e+00 5.900741815567016602e-01 1.740671730041503906e+01 5.399037361145019531e+00 -6.022725582122802734e+00
1.610000000000000000e+02 7.626847076416015625e+01 -4.691698551177978516e+00 6.060533523559570312e-01 1.344352817535400391e+01 4.214874267578125000e+00 -5.452725887298583984e+00
1.620000000000000000e+02 7.596189880371093750e+01 -4.983844757080078125e+00 3.001528024673461914e+00 8.182657241821289062e+00 3.355255603790283203e+00 -5.564294338226318359e+00
1.630000000000000000e+02 7.561649322509765625e+01 -6.280232429504394531e+00 -9.169631004333496094e-01 -2.528237700462341309e-01 -3.509360551834106445e-01 -1.053805276751518250e-01
1.640000000000000000e+02 7.541526794433593750e+01 -6.295465469360351562e+00 -9.975945353507995605e-01 1.370436102151870728e-01 -2.581652700901031494e-01 -2.264981716871261597e-02
1.650000000000000000e+02 7.592921447753906250e+01 -6.833364486694335938e+00 3.338367938995361328e+00 6.117074012756347656e+00 2.836632490158081055e+00 5.182960033416748047e+00
1.660000000000000000e+02 7.620851135253906250e+01 -7.263614654541015625e+00 8.204389810562133789e-01 1.281337833404541016e+01 4.090145111083984375e+00 6.185966491699218750e+00
1.670000000000000000e+02 7.670547485351562500e+01 -7.155961036682128906e+00 -9.759618043899536133e-01 2.078330993652343750e+01 5.942204475402832031e+00 4.417119503021240234e+00
1.680000000000000000e+02 7.691042327880859375e+01 -7.132635593414306641e+00 -1.314340710639953613e+00 2.307085227966308594e+01 6.526953697204589844e+00 2.113082647323608398e+00
1.690000000000000000e+02 7.783573913574218750e+01 -6.111419677734375000e+00 9.731330871582031250e+00 1.672528076171875000e+01 7.936983108520507812e+00 -9.817254543304443359e-01
1.700000000000000000e+02 7.484559631347656250e+01 -6.363388538360595703e+00 -1.030956655740737915e-01 -1.815632581710815430e-01 -8.539767563343048096e-02 -1.366938352584838867e-01
1.710000000000000000e+02 7.486483764648437500e+01 -7.665905475616455078e+00 -9.761415719985961914e-01 2.722345829010009766e+00 5.238612890243530273e-01 3.807353675365447998e-01
1.720000000000000000e+02 7.495006561279296875e+01 -7.531025409698486328e+00 -5.055724382400512695e-01 2.135101079940795898e+00 4.888585805892944336e-01 4.135514199733734131e-01
1.730000000000000000e+02 7.497672271728515625e+01 -7.660146713256835938e+00 -3.256548643112182617e-01 2.781986236572265625e+00 7.368993759155273438e-01 1.063219547271728516e+00
1.740000000000000000e+02 7.479527282714843750e+01 -7.650448799133300781e+00 -1.335934519767761230e+00 -3.336755335330963135e-01 -5.008829832077026367e-01 -8.766447901725769043e-01
1.750000000000000000e+02 7.487379455566406250e+01 -6.792611598968505859e+00 7.439326494932174683e-02 -7.614215016365051270e-01 -2.061084657907485962e-01 -6.466639786958694458e-02
1.760000000000000000e+02 7.455780029296875000e+01 -5.177475929260253906e+00 -1.994911134243011475e-01 -1.107417583465576172e+00 -3.920726180076599121e-01 2.307725101709365845e-01
1.770000000000000000e+02 7.464642333984375000e+01 -5.340861797332763672e+00 -6.900714244693517685e-03 -1.245644330978393555e+00 -3.757635056972503662e-01 3.453012108802795410e-01
1.780000000000000000e+02 7.562753295898437500e+01 -5.831127166748046875e+00 5.118959546089172363e-01 3.573531806468963623e-01 2.607747614383697510e-01 -1.086523476988077164e-02
1.790000000000000000e+02 7.531862640380859375e+01 -6.475124359130859375e+00 2.250524312257766724e-01 3.208895027637481689e-01 1.637825816869735718e-01 -2.738028466701507568e-01
1.800000000000000000e+02 7.777135467529296875e+01 -5.982219696044921875e+00 1.031101799011230469e+01 1.729220199584960938e+01 8.280965805053710938e+00 5.389330387115478516e-01
1.810000000000000000e+02 7.770109558105468750e+01 -6.980170249938964844e+00 2.158816576004028320e+00 1.940652084350585938e+01 6.469601154327392578e+00 -4.214303970336914062e+00
1.820000000000000000e+02 7.735259246826171875e+01 -4.817452907562255859e+00 -4.332825243473052979e-01 2.086028099060058594e+01 6.128099441528320312e+00 2.064826726913452148e+00
1.830000000000000000e+02 7.728688812255859375e+01 -5.146774768829345703e+00 1.521429181098937988e+00 2.427491950988769531e+01 7.738904953002929688e+00 2.789491415023803711e+00
1.840000000000000000e+02 7.795975494384765625e+01 -5.456770896911621094e+00 6.001873493194580078e+00 1.672777366638183594e+01 6.818894386291503906e+00 3.682745456695556641e+00
1.850000000000000000e+02 7.579932403564453125e+01 -6.662550449371337891e+00 3.231162548065185547e+00 2.424322605133056641e+00 1.696645498275756836e+00 2.987407207489013672e+00
1.860000000000000000e+02 7.759560394287109375e+01 -5.364468097686767578e+00 5.343708992004394531e+00 2.080874252319335938e+01 7.845735549926757812e+00 4.464363574981689453e+00
1.870000000000000000e+02 7.790904235839843750e+01 -6.313245773315429688e+00 7.932952880859375000e+00 1.595876407623291016e+01 7.167514801025390625e+00 -2.530974626541137695e+00
1.880000000000000000e+02 7.765624237060546875e+01 -6.720356464385986328e+00 4.498452186584472656e+00 2.040993499755859375e+01 7.472516059875488281e+00 -4.521480560302734375e+00
1.890000000000000000e+02 7.801627349853515625e+01 -6.527559757232666016e+00 5.643836498260498047e+00 1.620299720764160156e+01 6.554049968719482422e+00 -2.923808097839355469e+00
1.900000000000000000e+02 7.686933135986328125e+01 -4.931060314178466797e+00 -8.018956780433654785e-01 2.251821899414062500e+01 6.514896869659423828e+00 -2.352669000625610352e+00
1.910000000000000000e+02 7.544478607177734375e+01 -4.801047325134277344e+00 1.900666952133178711e+00 4.333803176879882812e+00 1.870340943336486816e+00 -3.294616937637329102e+00
1.920000000000000000e+02 7.500890350341796875e+01 -5.065983295440673828e+00 1.099723219871520996e+00 1.142207264900207520e+00 6.725791692733764648e-01 -1.246885538101196289e+00
1.930000000000000000e+02 7.567980957031250000e+01 -6.488316535949707031e+00 1.624657034873962402e+00 1.004151582717895508e+00 7.886425852775573730e-01 1.204183340072631836e+00
1.940000000000000000e+02 7.488111114501953125e+01 -7.013648509979248047e+00 2.976083159446716309e-01 -5.720381736755371094e-01 -8.232895284891128540e-02 2.706358730792999268e-01
1.950000000000000000e+02 7.564955902099609375e+01 -6.780792236328125000e+00 2.483932256698608398e+00 2.979168653488159180e+00 1.638930201530456543e+00 2.631489515304565430e+00
1.960000000000000000e+02 7.668191528320312500e+01 -4.921486854553222656e+00 -3.102510273456573486e-01 2.036410331726074219e+01 6.016155719757080078e+00 -4.444180488586425781e+00
1.970000000000000000e+02 7.649183654785156250e+01 -7.129222393035888672e+00 5.435310304164886475e-03 1.773929786682128906e+01 5.323420047760009766e+00 6.255226612091064453e+00
1.980000000000000000e+02 7.761944580078125000e+01 -6.582689285278320312e+00 6.659358024597167969e+00 2.021682929992675781e+01 8.062855720520019531e+00 -4.434871673583984375e+00
1.990000000000000000e+02 7.613397216796875000e+01 -4.910717487335205078e+00 2.082053899765014648e+00 1.080841350555419922e+01 3.867140293121337891e+00 -6.082085609436035156e+00
2.000000000000000000e+02 7.587134552001953125e+01 -4.754943847656250000e+00 2.029348611831665039e+00 7.806525230407714844e+00 2.950762033462524414e+00 -4.968718528747558594e+00
2.010000000000000000e+02 7.646117401123046875e+01 -4.680672645568847656e+00 -2.866479754447937012e-01 1.565631294250488281e+01 4.610899448394775391e+00 -4.714795112609863281e+00
2.020000000000000000e+02 7.777649688720703125e+01 -6.618497371673583984e+00 5.641478061676025391e+00 1.893994331359863281e+01 7.374426364898681641e+00 -3.752522706985473633e+00
2.030000000000000000e+02 7.718138122558593750e+01 -4.735459804534912109e+00 -1.034214854240417480e+00 2.100113677978515625e+01 5.990076541900634766e+00 7.912926077842712402e-01
2.040000000000000000e+02 7.701889801025390625e+01 -4.682939529418945312e+00 -1.589140534400939941e+00 2.023925590515136719e+01 5.595034599304199219e+00 -1.243620753288269043e+00
2.050000000000000000e+02 7.775851440429687500e+01 -5.164327144622802734e+00 2.580494642257690430e+00 1.861447334289550781e+01 6.358490467071533203e+00 4.081181049346923828e+00
2.060000000000000000e+02 7.709488677978515625e+01 -7.088228225708007812e+00 -7.459907531738281250e-01 2.383388710021972656e+01 6.926368713378906250e+00 -1.712892353534698486e-01
2.070000000000000000e+02 7.788207244873046875e+01 -5.302786350250244141e+00 4.362245559692382812e+00 1.768800354003906250e+01 6.615074634552001953e+00 4.143474102020263672e+00
2.080000000000000000e+02 7.785816192626953125e+01 -5.739663124084472656e+00 8.232727050781250000e+00 1.693197631835937500e+01 7.549410820007324219e+00 2.524434328079223633e+00
2.090000000000000000e+02 7.807444000244140625e+01 -6.351792812347412109e+00 7.410137653350830078e+00 1.517464160919189453e+01 6.775433540344238281e+00 -1.672486066818237305e+00
2.100000000000000000e+02 7.810976409912109375e+01 -6.173366069793701172e+00 6.998311042785644531e+00 1.343266963958740234e+01 6.129294395446777344e+00 -1.045422434806823730e+00
2.110000000000000000e+02 7.808551025390625000e+01 -5.817201137542724609e+00 7.513926506042480469e+00 1.386763095855712891e+01 6.414467334747314453e+00 1.888560414314270020e+00
2.120000000000000000e+02 7.764501953125000000e+01 -5.010494232177734375e+00 1.623661875724792480e+00 1.981868743896484375e+01 6.432704925537109375e+00 4.083717346191406250e+00
2.130000000000000000e+02 7.752165985107421875e+01 -4.890720844268798828e+00 4.762327671051025391e-01 2.031690216064453125e+01 6.237940788269042969e+00 3.134415388107299805e+00
2.140000000000000000e+02 7.782751464843750000e+01 -6.844961643218994141e+00 3.577430725097656250e+00 1.862919425964355469e+01 6.661987781524658203e+00 -4.427558898925781250e+00
2.150000000000000000e+02 7.802165222167968750e+01 -5.637706756591796875e+00 6.384536266326904297e+00 1.481603431701660156e+01 6.360171318054199219e+00 2.463690280914306641e+00
2.160000000000000000e+02 7.729338836669921875e+01 -7.303014755249023438e+00 -1.399168372154235840e+00 2.115646362304687500e+01 5.927188873291015625e+00 -1.127931475639343262e+00
2.170000000000000000e+02 7.684178161621093750e+01 -4.674108982086181641e+00 -1.462164640426635742e+00 1.940322875976562500e+01 5.382318973541259766e+00 -2.394026994705200195e+00
2.180000000000000000e+02 7.693476867675781250e+01 -7.383279800415039062e+00 -1.775828003883361816e+00 2.060498237609863281e+01 5.648746490478515625e+00 1.816636085510253906e+00
2.190000000000000000e+02 7.607298278808593750e+01 -4.711644172668457031e+00 1.584789156913757324e+00 1.055239677429199219e+01 3.641155719757080078e+00 -5.449223041534423828e+00
2.200000000000000000e+02 7.616712188720703125e+01 -7.486068725585937500e+00 1.449593156576156616e-01 1.215590095520019531e+01 3.690258026123046875e+00 5.279729366302490234e+00
2.210000000000000000e+02 7.543534088134765625e+01 -5.066927909851074219e+00 2.470490455627441406e+00 3.145011425018310547e+00 1.684650540351867676e+00 -2.767165660858154297e+00
2.220000000000000000e+02 7.504231262207031250e+01 -4.825503349304199219e+00 1.389779806137084961e+00 2.084801673889160156e+00 1.042374372482299805e+00 -2.000130414962768555e+00
2.230000000000000000e+02 7.533857727050781250e+01 -7.598360061645507812e+00 3.097195029258728027e-01 4.672049522399902344e+00 1.494530677795410156e+00 2.989719629287719727e+00
2.240000000000000000e+02 7.515191650390625000e+01 -7.630346298217773438e+00 1.961087435483932495e-02 4.710720062255859375e+00 1.419099330902099609e+00 2.155963659286499023e+00
2.250000000000000000e+02 7.448776245117187500e+01 -5.026752948760986328e+00 1.808966249227523804e-01 -7.699050307273864746e-01 -1.767025142908096313e-01 1.948567926883697510e-01
2.260000000000000000e+02 7.483280944824218750e+01 -7.452742099761962891e+00 5.511350631713867188e-01 4.809291064739227295e-01 3.096192479133605957e-01 3.315692842006683350e-01
2.270000000000000000e+02 7.487449645996093750e+01 -7.240641117095947266e+00 -3.193615972995758057e-01 -1.250407099723815918e-01 -1.333206892013549805e-01 3.051276803016662598e-01
2.280000000000000000e+02 7.511690521240234375e+01 -6.783479213714599609e+00 6.229879260063171387e-01 3.938183188438415527e-01 3.050418794155120850e-01 1.736865043640136719e-01
2.290000000000000000e+02 7.501126861572265625e+01 -5.869505405426025391e+00 -2.901357412338256836e-01 -3.001860715448856354e-02 -9.604630619287490845e-02 6.155396103858947754e-01
2.300000000000000000e+02 7.523633575439453125e+01 -6.303421974182128906e+00 -8.651615977287292480e-01 6.561026722192764282e-02 -2.398653924465179443e-01 -3.094719946384429932e-01
2.310000000000000000e+02 7.476073455810546875e+01 -5.722876071929931641e+00 -1.330327689647674561e-01 -8.498671650886535645e-01 -2.948699891567230225e-01 4.737013876438140869e-01
2.320000000000000000e+02 7.498955535888671875e+01 -5.651658058166503906e+00 1.811818033456802368e-01 2.758391015231609344e-02 6.262971460819244385e-02 4.256609082221984863e-01
2.330000000000000000e+02 7.544859313964843750e+01 -5.323627948760986328e+00 2.509204626083374023e+00 2.027914285659790039e+00 1.361135601997375488e+00 -1.847028732299804688e+00
2.340000000000000000e+02 7.510323333740234375e+01 -7.469585895538330078e+00 -3.639385700225830078e-01 2.461775302886962891e+00 6.293510198593139648e-01 1.470932602882385254e+00
2.350000000000000000e+02 7.547985076904296875e+01 -6.635602474212646484e+00 1.567933082580566406e+00 8.816415667533874512e-01 7.348724007606506348e-01 8.635445237159729004e-01
2.360000000000000000e+02 7.542983245849609375e+01 -5.822025299072265625e+00 1.738110929727554321e-01 2.248253226280212402e-01 1.195909231901168823e-01 3.736092150211334229e-01
2.370000000000000000e+02 7.541638946533203125e+01 -6.049662113189697266e+00 -1.755023360252380371e+00 1.179445087909698486e-01 -4.911236464977264404e-01 1.531622111797332764e-01
2.380000000000000000e+02 7.522000885009765625e+01 -5.602989673614501953e+00 7.941713333129882812e-01 5.283322930335998535e-01 3.967511057853698730e-01 9.589404612779617310e-02
2.390000000000000000e+02 7.511227416992187500e+01 -7.297819614410400391e+00 5.097954273223876953e-01 2.124648332595825195e+00 7.903331518173217773e-01 1.403194785118103027e+00
2.400000000000000000e+02 7.553142547607421875e+01 -7.560371875762939453e+00 5.138128399848937988e-01 6.675218105316162109e+00 2.156709194183349609e+00 3.762618303298950195e+00
2.410000000000000000e+02 7.465553283691406250e+01 -4.840884208679199219e+00 -5.199714750051498413e-02 5.070534944534301758e-01 1.365168988704681396e-01 -7.487411499023437500e-01
2.420000000000000000e+02 7.465075683593750000e+01 -5.033179283142089844e+00 4.205439090728759766e-01 -5.350790619850158691e-01 -3.436055406928062439e-02 -2.888211011886596680e-01
2.430000000000000000e+02 7.482799530029296875e+01 -5.045783519744873047e+00 4.708624184131622314e-01 5.939317345619201660e-01 3.194382488727569580e-01 -7.269067168235778809e-01
2.440000000000000000e+02 7.573834991455078125e+01 -7.510923385620117188e+00 8.348973989486694336e-01 7.365697860717773438e+00 2.460178613662719727e+00 4.362795352935791016e+00
2.450000000000000000e+02 7.521012878417968750e+01 -5.090595722198486328e+00 1.751346826553344727e+00 1.973034381866455078e+00 1.117314338684082031e+00 -1.752717733383178711e+00
2.460000000000000000e+02 7.471136474609375000e+01 -5.530694484710693359e+00 -6.510536372661590576e-02 -1.153251290321350098e+00 -3.655070066452026367e-01 4.586426615715026855e-01
2.470000000000000000e+02 7.495188903808593750e+01 -5.427885532379150391e+00 4.455249309539794922e-01 1.868489235639572144e-01 1.897121518850326538e-01 -3.000510483980178833e-02
2.480000000000000000e+02 7.524026489257812500e+01 -4.817735195159912109e+00 1.671754360198974609e+00 3.076980590820312500e+00 1.424620509147644043e+00 -2.618437290191650391e+00
2.490000000000000000e+02 7.564541625976562500e+01 -5.044524192810058594e+00 2.817492246627807617e+00 4.632837772369384766e+00 2.235099077224731445e+00 -3.832401275634765625e+00
2.500000000000000000e+02 7.581049346923828125e+01 -5.119116306304931641e+00 3.584617376327514648e+00 5.587263107299804688e+00 2.751564264297485352e+00 -4.799502849578857422e+00
2.510000000000000000e+02 7.771667480468750000e+01 -5.657197952270507812e+00 8.468131065368652344e+00 1.862071037292480469e+01 8.126652717590332031e+00 3.659666061401367188e+00
2.520000000000000000e+02 7.792254638671875000e+01 -5.891777515411376953e+00 8.393201828002929688e+00 1.551542186737060547e+01 7.172587394714355469e+00 1.017426252365112305e+00
2.530000000000000000e+02 7.811409759521484375e+01 -5.994729042053222656e+00 7.320467472076416016e+00 1.402832317352294922e+01 6.404637336730957031e+00 5.883761048316955566e-01
2.540000000000000000e+02 7.784767913818359375e+01 -6.472265720367431641e+00 7.328637599945068359e+00 1.691520690917968750e+01 7.273153305053710938e+00 -3.048206090927124023e+00
2.550000000000000000e+02 7.793511962890625000e+01 -6.694997787475585938e+00 4.115429878234863281e+00 1.650799560546875000e+01 6.187027454376220703e+00 -3.956925153732299805e+00
2.560000000000000000e+02 7.756783294677734375e+01 -7.106369018554687500e+00 5.735431313514709473e-01 2.003185272216796875e+01 6.181619167327880859e+00 -3.348531961441040039e+00
2.570000000000000000e+02 7.727975463867187500e+01 -7.103577613830566406e+00 -1.836677491664886475e-01 2.280150222778320312e+01 6.785350322723388672e+00 -1.596524715423583984e+00
2.580000000000000000e+02 7.743812561035156250e+01 -7.224868297576904297e+00 -4.499917626380920410e-01 2.075586509704589844e+01 6.091762065887451172e+00 -2.734569787979125977e+00
2.590000000000000000e+02 7.635858154296875000e+01 -7.491331100463867188e+00 -4.557334184646606445e-01 1.428807735443115234e+01 4.149703025817871094e+00 5.071583271026611328e+00
2.600000000000000000e+02 7.641162109375000000e+01 -7.320571899414062500e+00 -2.713494002819061279e-01 1.578077411651611328e+01 4.652827262878417969e+00 5.524538516998291016e+00
2.610000000000000000e+02 7.479718017578125000e+01 -5.918461322784423828e+00 -1.699604690074920654e-01 -4.222678244113922119e-01 -1.776684820652008057e-01 3.663238286972045898e-01
2.620000000000000000e+02 7.595585632324218750e+01 -7.482281208038330078e+00 5.584707260131835938e-01 9.757958412170410156e+00 3.094928741455078125e+00 4.908992290496826172e+00
2.630000000000000000e+02 7.577067565917968750e+01 -7.142861366271972656e+00 1.940063238143920898e+00 6.510592460632324219e+00 2.535196781158447266e+00 4.666016578674316406e+00
2.640000000000000000e+02 7.567660522460937500e+01 -5.615054130554199219e+00 2.794476032257080078e+00 1.115737676620483398e+00 1.173064112663269043e+00 -1.237756013870239258e+00
2.650000000000000000e+02 7.578605651855468750e+01 -5.422210693359375000e+00 4.118268489837646484e+00 2.905092477798461914e+00 2.107008218765258789e+00 -3.310696840286254883e+00
2.660000000000000000e+02 7.608612823486328125e+01 -5.144860267639160156e+00 3.887083768844604492e+00 9.177072525024414062e+00 3.919247150421142578e+00 -6.756535053253173828e+00
2.670000000000000000e+02 7.504806518554687500e+01 -6.341039180755615234e+00 -4.203431010246276855e-01 -8.344934135675430298e-02 -1.511377245187759399e-01 -3.318502604961395264e-01
2.680000000000000000e+02 7.528276824951171875e+01 -7.017041683197021484e+00 1.025773763656616211e+00 2.061728477478027344e+00 9.262506961822509766e-01 1.528479099273681641e+00
2.690000000000000000e+02 7.624173736572265625e+01 -5.058599948883056641e+00 2.604097843170166016e+00 1.289343357086181641e+01 4.649259090423583984e+00 -6.983359813690185547e+00
2.700000000000000000e+02 7.628732299804687500e+01 -7.061068058013916016e+00 1.413972139358520508e+00 1.367379570007324219e+01 4.526329994201660156e+00 6.917059421539306641e+00
2.710000000000000000e+02 7.744934082031250000e+01 -5.237453460693359375e+00 3.231342792510986328e+00 2.242139816284179688e+01 7.695822238922119141e+00 3.894702196121215820e+00
2.720000000000000000e+02 7.775268554687500000e+01 -6.257851600646972656e+00 9.803061485290527344e+00 1.777310562133789062e+01 8.272850036621093750e+00 -1.847345232963562012e+00
2.730000000000000000e+02 7.795960998535156250e+01 -6.164554119110107422e+00 8.421387672424316406e+00 1.581533908843994141e+01 7.271018028259277344e+00 -9.797620773315429688e-01
2.740000000000000000e+02 7.769429779052734375e+01 -6.428271293640136719e+00 8.327425003051757812e+00 1.928674507141113281e+01 8.284251213073730469e+00 -3.701197147369384766e+00
2.750000000000000000e+02 7.486930847167968750e+01 -5.232952117919921875e+00 5.364481806755065918e-01 2.260479629039764404e-01 2.287488430738449097e-01 -3.467687368392944336e-01
2.760000000000000000e+02 7.535559844970703125e+01 -6.841280460357666016e+00 1.178841948509216309e+00 1.625808238983154297e+00 8.413950800895690918e-01 9.953054189682006836e-01
2.770000000000000000e+02 7.557058715820312500e+01 -7.116879463195800781e+00 1.592686414718627930e+00 3.721257209777832031e+00 1.594183087348937988e+00 2.803121566772460938e+00
2.780000000000000000e+02 7.564913940429687500e+01 -7.294528961181640625e+00 1.306879401206970215e+00 6.414785385131835938e+00 2.316499471664428711e+00 4.100639820098876953e+00
2.790000000000000000e+02 7.538224792480468750e+01 -7.159176349639892578e+00 9.463379383087158203e-01 3.640823125839233398e+00 1.376148343086242676e+00 2.367582559585571289e+00
2.800000000000000000e+02 7.526899719238281250e+01 -7.422180652618408203e+00 2.727296948432922363e-01 4.432149887084960938e+00 1.411463975906372070e+00 2.307663202285766602e+00
2.810000000000000000e+02 7.510259246826171875e+01 -6.995039939880371094e+00 3.204316794872283936e-01 8.376186490058898926e-01 3.474150896072387695e-01 4.085566401481628418e-01
2.820000000000000000e+02 7.545397186279296875e+01 -5.579645156860351562e+00 1.881736993789672852e+00 9.530920982360839844e-01 8.504487276077270508e-01 -6.733440160751342773e-01
2.830000000000000000e+02 7.556872558593750000e+01 -6.930719852447509766e+00 1.949048638343811035e+00 3.347700834274291992e+00 1.589024782180786133e+00 2.762725591659545898e+00
2.840000000000000000e+02 7.519801330566406250e+01 -7.144268989562988281e+00 4.437084794044494629e-01 2.242962121963500977e+00 8.060011863708496094e-01 1.361096858978271484e+00
2.850000000000000000e+02 7.492694854736328125e+01 -7.891059875488281250e+00 -1.768084019422531128e-01 5.968736171722412109e+00 1.737578392028808594e+00 1.407493829727172852e+00
2.860000000000000000e+02 7.657104492187500000e+01 -7.682266235351562500e+00 -1.480516672134399414e+00 1.623886680603027344e+01 4.427505016326904297e+00 3.702533960342407227e+00
2.870000000000000000e+02 7.946639251708984375e+01 -1.092602729797363281e+01 -1.786098033189773560e-01 1.256747817993164062e+01 3.716660499572753906e+00 -6.054378747940063477e-01
2.880000000000000000e+02 7.947091674804687500e+01 -1.239630889892578125e+01 -1.456082016229629517e-01 1.329804420471191406e+01 3.945730686187744141e+00 -1.723770946264266968e-01
2.890000000000000000e+02 7.383672332763671875e+01 -2.209412002563476562e+01 4.440995156764984131e-01 8.895337104797363281e+00 2.801831007003784180e+00 9.362992048263549805e-01
2.900000000000000000e+02 7.924832153320312500e+01 -3.330557632446289062e+01 -7.520840503275394440e-03 6.361354351043701172e+00 1.906150102615356445e+00 8.328747004270553589e-02
2.910000000000000000e+02 7.801473999023437500e+01 -4.168859100341796875e+01 1.699882298707962036e-01 5.473920345306396484e+00 1.693172574043273926e+00 4.766261577606201172e-02
2.920000000000000000e+02 7.748092651367187500e+01 -3.724610519409179688e+01 3.769307164475321770e-03 5.573886394500732422e+00 1.673296689987182617e+00 2.023917585611343384e-01
2.930000000000000000e+02 7.845726776123046875e+01 -1.215738010406494141e+01 -3.335494101047515869e-01 1.160076141357421875e+01 3.380163431167602539e+00 -3.766526877880096436e-01
2.940000000000000000e+02 7.310871124267578125e+01 -1.227877330780029297e+01 -1.359886288642883301e+00 1.196862936019897461e+00 -4.890702292323112488e-02 4.628700315952301025e-01
2.950000000000000000e+02 7.070720672607421875e+01 -1.203368568420410156e+01 -3.679783582687377930e+00 -1.566141545772552490e-01 -1.150919318199157715e+00 -9.762720763683319092e-02
2.960000000000000000e+02 7.194515991210937500e+01 -1.193920230865478516e+01 -2.416062355041503906e+00 -2.057868987321853638e-03 -7.254360914230346680e-01 -1.714562028646469116e-01
2.970000000000000000e+02 7.029372406005859375e+01 -1.634101867675781250e+01 -7.689204216003417969e-01 -6.663999557495117188e-01 -4.305961132049560547e-01 9.917054176330566406e-01
2.980000000000000000e+02 6.940789031982421875e+01 -1.550328445434570312e+01 -1.344465613365173340e-01 -4.171095192432403564e-01 -1.654668152332305908e-01 8.611723184585571289e-01
2.990000000000000000e+02 6.769432067871093750e+01 -1.485243129730224609e+01 -3.964567482471466064e-01 -4.541781917214393616e-02 -1.325623691082000732e-01 5.822187662124633789e-01
3.000000000000000000e+02 7.238286590576171875e+01 -1.780311584472656250e+01 -1.243279695510864258e+00 1.644494570791721344e-02 -3.680504262447357178e-01 9.088686704635620117e-01
3.010000000000000000e+02 7.352621459960937500e+01 -1.958954429626464844e+01 -5.310639739036560059e-01 3.749028921127319336e+00 9.653894901275634766e-01 2.555690407752990723e-01
3.020000000000000000e+02 7.832370758056640625e+01 -1.788392448425292969e+01 -1.391414701938629150e-01 1.025285339355468750e+01 3.034113645553588867e+00 9.892168641090393066e-01
3.030000000000000000e+02 7.935176086425781250e+01 -2.357379722595214844e+01 5.107980594038963318e-02 7.448737621307373047e+00 2.249945163726806641e+00 3.037369251251220703e-01
3.040000000000000000e+02 7.819615936279296875e+01 -2.639668655395507812e+01 1.012908816337585449e-01 6.857243061065673828e+00 2.087560176849365234e+00 1.137256175279617310e-01
3.050000000000000000e+02 7.938957214355468750e+01 -2.643419075012207031e+01 5.369005259126424789e-03 6.823446273803710938e+00 2.048644542694091797e+00 2.212524227797985077e-02
3.060000000000000000e+02 7.182122039794921875e+01 -2.601942443847656250e+01 1.086299538612365723e+00 1.946536183357238770e+00 9.098507165908813477e-01 1.726225256919860840e+00
3.070000000000000000e+02 7.091622161865234375e+01 -2.706565284729003906e+01 3.814309537410736084e-01 1.539842605590820312e+00 5.763820409774780273e-01 1.271706700325012207e+00
3.080000000000000000e+02 6.965989685058593750e+01 -2.639756393432617188e+01 -3.877437412738800049e-01 1.073672249913215637e-01 -8.411294966936111450e-02 4.088656306266784668e-01
3.090000000000000000e+02 6.909895324707031250e+01 -2.742084693908691406e+01 5.458541512489318848e-01 5.590456128120422363e-01 3.314699232578277588e-01 3.856103718280792236e-01
3.100000000000000000e+02 6.590094757080078125e+01 -3.291456604003906250e+01 8.566436916589736938e-02 2.008480787277221680e+00 6.282435655593872070e-01 6.371285766363143921e-02
3.110000000000000000e+02 6.413686370849609375e+01 -3.719050598144531250e+01 5.948829650878906250e-01 5.160762071609497070e-01 3.332877457141876221e-01 6.330435276031494141e-01
3.120000000000000000e+02 6.092181396484375000e+01 -3.886062240600585938e+01 1.429764509201049805e+00 2.937409877777099609e-01 5.170516371726989746e-01 -8.874505013227462769e-02
3.130000000000000000e+02 5.929650115966796875e+01 -3.845079803466796875e+01 1.318349957466125488e+00 3.573216497898101807e-01 5.027015209197998047e-01 -4.140714108943939209e-01
3.140000000000000000e+02 5.805431365966796875e+01 -3.778208160400390625e+01 8.979084491729736328e-01 5.120185613632202148e-01 4.229781329631805420e-01 -5.213833451271057129e-01
3.150000000000000000e+02 5.601240921020507812e+01 -3.555019760131835938e+01 4.433911144733428955e-01 1.014912486076354980e+00 4.374910593032836914e-01 -3.550832867622375488e-01
3.160000000000000000e+02 5.722493362426757812e+01 -3.986723709106445312e+01 9.094441533088684082e-01 4.454770684242248535e-01 4.064763486385345459e-01 -1.653576344251632690e-01
3.170000000000000000e+02 5.591111755371093750e+01 -3.333567810058593750e+01 1.003742888569831848e-01 1.015688896179199219e+00 3.348189294338226318e-01 -1.140501424670219421e-01
3.180000000000000000e+02 5.249962234497070312e+01 -3.032247543334960938e+01 3.085264265537261963e-01 2.934809327125549316e-01 1.806022077798843384e-01 -2.780961990356445312e-01
3.190000000000000000e+02 4.937757492065429688e+01 -3.145044136047363281e+01 1.784963458776473999e-01 3.753590881824493408e-01 1.661566346883773804e-01 -2.947216033935546875e-01
3.200000000000000000e+02 4.966122436523437500e+01 -3.334400177001953125e+01 2.918951772153377533e-02 5.642939824610948563e-03 1.044973731040954590e-02 -1.486619114875793457e-01
3.210000000000000000e+02 4.942848587036132812e+01 -3.444056701660156250e+01 -4.604594036936759949e-02 -1.866226196289062500e-01 -6.980057060718536377e-02 -9.505452215671539307e-02
3.220000000000000000e+02 5.022101211547851562e+01 -3.236871337890625000e+01 1.234646514058113098e-01 2.509039044380187988e-01 1.123105660080909729e-01 -2.545136809349060059e-01
3.230000000000000000e+02 4.850384521484375000e+01 -3.613295364379882812e+01 1.256895512342453003e-01 -1.604088246822357178e-01 -1.041578408330678940e-02 -2.924302965402603149e-02
3.240000000000000000e+02 4.788426971435546875e+01 -3.947489166259765625e+01 8.123733997344970703e-01 -7.599546760320663452e-02 2.209133803844451904e-01 -4.762404412031173706e-02
3.250000000000000000e+02 4.623171997070312500e+01 -3.806426620483398438e+01 7.265343070030212402e-01 1.841848157346248627e-02 2.234858423471450806e-01 4.976629093289375305e-02
3.260000000000000000e+02 4.437666320800781250e+01 -3.864575576782226562e+01 9.888602495193481445e-01 1.554293036460876465e-01 3.432868719100952148e-01 -5.224702134728431702e-02
3.270000000000000000e+02 4.123453903198242188e+01 -3.738381195068359375e+01 6.528204679489135742e-01 2.167564630508422852e-01 2.608730792999267578e-01 -3.389227390289306641e-01
3.280000000000000000e+02 3.854280471801757812e+01 -3.542272186279296875e+01 3.524281382560729980e-01 -2.497057169675827026e-01 3.081672638654708862e-02 -2.898029088973999023e-01
3.290000000000000000e+02 3.625014877319335938e+01 -3.679647445678710938e+01 3.671977519989013672e-01 -1.862749606370925903e-01 5.427683517336845398e-02 -2.640357613563537598e-01
3.300000000000000000e+02 2.638424682617187500e+01 -3.854724502563476562e+01 1.685995161533355713e-01 -2.945693135261535645e-01 -3.779094293713569641e-02 4.315213114023208618e-02
3.310000000000000000e+02 2.355362319946289062e+01 -3.894664382934570312e+01 1.487208157777786255e-01 -1.290519237518310547e-01 5.900667980313301086e-03 -1.151669304817914963e-02
3.320000000000000000e+02 2.455442619323730469e+01 -3.771476745605468750e+01 1.454105321317911148e-02 -3.366601169109344482e-01 -9.663571417331695557e-02 -3.551119938492774963e-02
3.330000000000000000e+02 2.216394424438476562e+01 -3.978670883178710938e+01 2.729711830615997314e-01 -4.145877063274383545e-02 6.945372372865676880e-02 4.712246730923652649e-02
3.340000000000000000e+02 2.255190658569335938e+01 -4.151229476928710938e+01 3.635193705558776855e-01 -8.773080259561538696e-02 8.273656666278839111e-02 -1.458920817822217941e-02
3.350000000000000000e+02 1.760007858276367188e+01 -4.054481124877929688e+01 5.185719132423400879e-01 6.093826144933700562e-02 1.738530546426773071e-01 -8.145243674516677856e-02
3.360000000000000000e+02 1.625080299377441406e+01 -4.004885101318359375e+01 3.905341029167175293e-01 1.565522402524948120e-01 1.641259044408798218e-01 -1.415433585643768311e-01
3.370000000000000000e+02 1.504338264465332031e+01 -3.937193679809570312e+01 1.827456653118133545e-01 5.141591653227806091e-02 7.024847716093063354e-02 -1.597724854946136475e-01
3.380000000000000000e+02 1.319270706176757812e+01 -3.715048217773437500e+01 7.688629627227783203e-02 -4.870087653398513794e-02 8.455625735223293304e-03 -6.513123959302902222e-02
3.390000000000000000e+02 1.210377883911132812e+01 -3.642193603515625000e+01 4.347197338938713074e-02 -1.245261505246162415e-01 -2.431625314056873322e-02 -8.118713647127151489e-02
3.400000000000000000e+02 1.253396320343017578e+01 -3.510234069824218750e+01 1.091242209076881409e-02 -2.041412591934204102e-01 -5.796865373849868774e-02 -5.700247362256050110e-02
3.410000000000000000e+02 4.199880123138427734e+00 -2.349043655395507812e+01 4.582430794835090637e-02 -7.387477159500122070e-02 -8.415138348937034607e-03 -3.622451797127723694e-03
3.420000000000000000e+02 6.317318677902221680e-01 -3.048307037353515625e+01 1.125333365052938461e-03 -1.194656640291213989e-01 -3.550209850072860718e-02 -5.517140030860900879e-03
3.430000000000000000e+02 6.606256961822509766e-01 -3.188130950927734375e+01 -4.630201496183872223e-03 -1.360148191452026367e-01 -4.219350591301918030e-02 -9.392609819769859314e-03
3.440000000000000000e+02 7.879877686500549316e-01 -3.741758346557617188e+01 -2.041239757090806961e-03 -2.405239939689636230e-01 -7.276957482099533081e-02 -1.446080859750509262e-02
3.450000000000000000e+02 8.048221588134765625e+00 -4.136724853515625000e+01 1.121961399912834167e-01 -1.963703632354736328e-01 -2.525226399302482605e-02 -2.243391796946525574e-02
3.460000000000000000e+02 6.810772705078125000e+01 -1.219435119628906250e+01 -3.384322166442871094e+00 -8.061103820800781250e-01 -1.257129788398742676e+00 1.027704238891601562e+00
3.470000000000000000e+02 6.657276153564453125e+01 -1.016106128692626953e+01 -1.485539317131042480e+00 -7.199484109878540039e-01 -6.616463065147399902e-01 1.061293959617614746e+00
3.480000000000000000e+02 6.052527236938476562e+01 -9.208967208862304688e+00 -1.275257587432861328e+00 -5.640691518783569336e-02 -3.994993567466735840e-01 -5.260816812515258789e-01
3.490000000000000000e+02 6.751053619384765625e+01 -1.114210319519042969e+01 -2.876136064529418945e+00 -1.013870596885681152e+00 -1.167001962661743164e+00 1.528790473937988281e+00
3.500000000000000000e+02 6.310102462768554688e+01 -1.794087600708007812e+01 4.321390986442565918e-01 9.419916868209838867e-01 4.122392237186431885e-01 6.254340708255767822e-02
3.510000000000000000e+02 6.575489044189453125e+01 -1.693278694152832031e+01 1.239788889884948730e+00 1.659292101860046387e+00 8.697242736816406250e-01 9.140728712081909180e-01
3.520000000000000000e+02 6.694384765625000000e+01 -1.637464141845703125e+01 1.390295386314392090e+00 4.512031972408294678e-01 5.524495840072631836e-01 5.757782459259033203e-01
3.530000000000000000e+02 6.826465606689453125e+01 -1.606761550903320312e+01 5.844930410385131836e-01 -5.497900769114494324e-03 1.736985296010971069e-01 4.765745103359222412e-01
3.540000000000000000e+02 6.560576629638671875e+01 -4.861315727233886719e+00 2.229969389736652374e-02 4.275339096784591675e-02 1.951592601835727692e-02 -1.474148500710725784e-02
3.550000000000000000e+02 6.568328857421875000e+01 -9.067261695861816406e+00 -8.508803844451904297e-01 -3.548549413681030273e-01 -3.617205917835235596e-01 5.725452899932861328e-01
3.560000000000000000e+02 5.945641326904296875e+01 -1.001799392700195312e+01 -2.574755191802978516e+00 -3.643356859683990479e-01 -8.817272186279296875e-01 -6.277556419372558594e-01
3.570000000000000000e+02 5.506843185424804688e+01 -1.414662170410156250e+01 -6.301687955856323242e-01 5.990866571664810181e-02 -1.710780262947082520e-01 -3.925446867942810059e-01
3.580000000000000000e+02 5.718508911132812500e+01 -1.048941040039062500e+01 -3.380339384078979492e+00 -5.176340937614440918e-01 -1.169392108917236328e+00 3.573912382125854492e-02
3.590000000000000000e+02 5.421655273437500000e+01 -1.620285987854003906e+01 2.683553397655487061e-01 4.391556084156036377e-01 2.122532725334167480e-01 -4.060580134391784668e-01
3.600000000000000000e+02 5.462414932250976562e+01 -1.751551246643066406e+01 5.361307859420776367e-01 5.553371906280517578e-01 3.274403810501098633e-01 -5.178367495536804199e-01
3.610000000000000000e+02 5.715650558471679688e+01 -1.851229286193847656e+01 4.175448715686798096e-01 -2.347184345126152039e-02 1.182219088077545166e-01 -3.930206000804901123e-01
3.620000000000000000e+02 6.477091217041015625e+01 -2.016829872131347656e+01 4.271387681365013123e-02 2.321596145629882812e+00 7.092930078506469727e-01 1.336483210325241089e-01
3.630000000000000000e+02 6.450376892089843750e+01 -1.754596328735351562e+01 7.000140547752380371e-01 1.680948257446289062e+00 7.142887115478515625e-01 4.563528001308441162e-01
3.640000000000000000e+02 6.081977844238281250e+01 -5.618197441101074219e+00 2.287264168262481689e-02 1.013990491628646851e-01 3.728150576353073120e-02 1.129505783319473267e-02
3.650000000000000000e+02 5.656465530395507812e+01 -1.210522460937500000e+01 -1.309723854064941406e+00 -5.092432498931884766e-01 -5.456901192665100098e-01 -3.168862760066986084e-01
3.660000000000000000e+02 5.472562408447265625e+01 -9.129274368286132812e+00 -1.240878224372863770e+00 -4.870205521583557129e-01 -5.183696150779724121e-01 6.535520553588867188e-01
3.670000000000000000e+02 5.027615737915039062e+01 -8.154334068298339844e+00 -3.457614481449127197e-01 5.875445529818534851e-02 -8.610209822654724121e-02 1.318433880805969238e-01
3.680000000000000000e+02 4.784338760375976562e+01 -9.251437187194824219e+00 1.459862012416124344e-02 7.563188672065734863e-01 2.312752455472946167e-01 -4.685682803392410278e-02
3.690000000000000000e+02 4.828254699707031250e+01 -1.037503719329833984e+01 -1.477933973073959351e-01 4.495896399021148682e-01 9.053887426853179932e-02 -2.080548852682113647e-01
3.700000000000000000e+02 4.813909149169921875e+01 -1.326627254486083984e+01 -7.729996442794799805e-01 8.980669081211090088e-02 -2.049578875303268433e-01 -4.320647120475769043e-01
3.710000000000000000e+02 4.731458663940429688e+01 -1.113255500793457031e+01 -1.764377653598785400e-01 3.599756658077239990e-01 5.506137013435363770e-02 -1.307839751243591309e-01
3.720000000000000000e+02 4.982074356079101562e+01 -1.105850028991699219e+01 -5.495215058326721191e-01 1.845039576292037964e-01 -1.095052659511566162e-01 -4.378924965858459473e-01
3.730000000000000000e+02 5.316175079345703125e+01 -1.505019760131835938e+01 -7.226725816726684570e-01 4.001680910587310791e-01 -9.675135463476181030e-02 -6.125347018241882324e-01
3.740000000000000000e+02 5.024064254760742188e+01 -2.441692113876342773e+00 -1.346133649349212646e-01 -1.251641195267438889e-02 -4.413893446326255798e-02 1.004470735788345337e-01
3.750000000000000000e+02 4.691550827026367188e+01 -3.867199659347534180e+00 -3.692015707492828369e-01 1.594633162021636963e-01 -6.292147934436798096e-02 8.067184686660766602e-02
3.760000000000000000e+02 4.781398010253906250e+01 -2.937628030776977539e+00 -2.887592017650604248e-01 7.629133015871047974e-02 -6.374036520719528198e-02 8.683492243289947510e-02
3.770000000000000000e+02 5.110016250610351562e+01 -3.207657814025878906e+00 -1.057367175817489624e-01 -6.669119745492935181e-02 -5.172837525606155396e-02 1.222847402095794678e-01
3.780000000000000000e+02 5.167118072509765625e+01 -2.102607011795043945e+00 -4.252188280224800110e-02 -4.196789115667343140e-02 -2.534693293273448944e-02 3.419981524348258972e-02
3.790000000000000000e+02 5.343977737426757812e+01 -1.961397051811218262e+00 3.595991432666778564e-02 2.924693934619426727e-02 1.956205628812313080e-02 -8.543124422430992126e-04
3.800000000000000000e+02 5.287813568115234375e+01 -1.832969903945922852e+00 -6.909665185958147049e-03 -3.614613041281700134e-02 -1.291673816740512848e-02 -2.017428912222385406e-02
3.810000000000000000e+02 4.697148895263671875e+01 -2.972489356994628906e+00 -3.244595825672149658e-01 6.053818017244338989e-02 -7.917641848325729370e-02 3.493345156311988831e-02
3.820000000000000000e+02 4.523830032348632812e+01 -2.788305759429931641e+00 -3.966471552848815918e-01 5.809624120593070984e-02 -1.015652716159820557e-01 -4.456800967454910278e-02
3.830000000000000000e+02 4.361439514160156250e+01 -2.503225564956665039e+00 -5.367687344551086426e-01 -3.585796803236007690e-02 -1.717880070209503174e-01 -3.303776681423187256e-02
3.840000000000000000e+02 4.063645553588867188e+01 -1.185248613357543945e+00 -1.741597801446914673e-01 -5.953745171427726746e-02 -7.010917365550994873e-02 1.034293621778488159e-01
3.850000000000000000e+02 3.908559417724609375e+01 -2.434281349182128906e+00 -4.498289823532104492e-01 3.808384761214256287e-02 -1.235235407948493958e-01 7.937950640916824341e-02
3.860000000000000000e+02 3.938018798828125000e+01 -7.852412462234497070e-01 -1.430338472127914429e-01 -3.692731633782386780e-02 -5.398834869265556335e-02 1.041932702064514160e-01
3.870000000000000000e+02 3.644592285156250000e+01 -1.335951209068298340e+00 -2.564717233180999756e-01 9.424418956041336060e-02 -4.866826161742210388e-02 6.724951672367751598e-04
3.880000000000000000e+02 3.428855514526367188e+01 -2.161684274673461914e+00 -2.347496896982192993e-01 2.589701907709240913e-03 -6.964799761772155762e-02 -7.731549441814422607e-02
3.890000000000000000e+02 2.993618583679199219e+01 -5.479607582092285156e+00 -2.000948041677474976e-02 -2.393310219049453735e-01 -7.780215144157409668e-02 -9.481157362461090088e-02
3.900000000000000000e+02 2.990972137451171875e+01 -7.455299854278564453e+00 5.706175943487323821e-05 -4.391470253467559814e-01 -1.317269951105117798e-01 -7.524878531694412231e-02
3.910000000000000000e+02 3.057793045043945312e+01 -6.592433452606201172e+00 3.353098034858703613e-02 -2.757801711559295654e-01 -7.267475873231887817e-02 -1.118583679199218750e-01
3.920000000000000000e+02 3.468524551391601562e+01 -8.158949851989746094e+00 9.113766998052597046e-02 6.847124546766281128e-02 4.788267612457275391e-02 -2.079947888851165771e-01
3.930000000000000000e+02 2.852072334289550781e+01 -1.108176708221435547e+01 -2.739854454994201660e-01 -3.690884709358215332e-01 -1.929221749305725098e-01 -2.660837471485137939e-01
3.940000000000000000e+02 2.868162536621093750e+01 -1.584020137786865234e+01 -3.672228455543518066e-01 -2.110152989625930786e-01 -1.734714359045028687e-01 -1.790904551744461060e-01
3.950000000000000000e+02 2.710922813415527344e+01 -1.313255786895751953e+01 -4.249663352966308594e-01 -1.888431012630462646e-01 -1.841428428888320923e-01 -2.121745795011520386e-01
3.960000000000000000e+02 2.479662895202636719e+01 -1.353973865509033203e+01 -5.348020195960998535e-01 -9.185182303190231323e-02 -1.879961490631103516e-01 -1.850297152996063232e-01
3.970000000000000000e+02 2.242050933837890625e+01 -1.485881805419921875e+01 -3.943542242050170898e-01 -8.462109416723251343e-02 -1.436925977468490601e-01 -1.054854765534400940e-01
3.980000000000000000e+02 2.137173461914062500e+01 -1.398987960815429688e+01 -3.494738340377807617e-01 -4.005451127886772156e-02 -1.168585047125816345e-01 -1.375600975006818771e-02
3.990000000000000000e+02 2.036210060119628906e+01 -1.324700927734375000e+01 -1.469156891107559204e-01 -3.280844911932945251e-02 -5.391724407672882080e-02 3.216677904129028320e-02
4.000000000000000000e+02 1.829707145690917969e+01 -1.081801414489746094e+01 -2.038842998445034027e-02 7.960150018334388733e-03 -3.728484269231557846e-03 1.959302835166454315e-02
4.010000000000000000e+02 1.903030586242675781e+01 -1.180821800231933594e+01 -5.105000361800193787e-02 -1.832789555191993713e-02 -2.081337012350559235e-02 2.755058743059635162e-02
4.020000000000000000e+02 1.923634719848632812e+01 -1.408830833435058594e+01 -1.744264066219329834e-01 1.618259586393833160e-02 -4.747314378619194031e-02 -2.213864400982856750e-02
4.030000000000000000e+02 1.760068511962890625e+01 -1.739359474182128906e+01 -7.134309411048889160e-02 -9.521667845547199249e-03 -2.425942756235599518e-02 -2.390644848346710205e-01
4.040000000000000000e+02 2.175945472717285156e+01 -2.614048194885253906e+01 2.841916680335998535e-01 8.659158647060394287e-02 1.112349778413772583e-01 -1.223947256803512573e-01
4.050000000000000000e+02 2.238455581665039062e+01 -2.805356597900390625e+01 2.799588441848754883e-01 1.398978680372238159e-01 1.259570121765136719e-01 -1.981915831565856934e-01
4.060000000000000000e+02 2.295689964294433594e+01 -2.701519393920898438e+01 2.986051738262176514e-01 2.881535701453685760e-02 9.822615981101989746e-02 -1.283721625804901123e-01
4.070000000000000000e+02 2.337863922119140625e+01 -2.901244735717773438e+01 1.801776438951492310e-01 7.829598337411880493e-02 7.754208892583847046e-02 -1.260505020618438721e-01
4.080000000000000000e+02 2.500665473937988281e+01 -2.877339553833007812e+01 2.464291155338287354e-01 -1.196618378162384033e-01 3.803018480539321899e-02 -1.366767138242721558e-01
4.090000000000000000e+02 2.936009788513183594e+01 -3.189246177673339844e+01 5.893374979496002197e-02 -4.017582163214683533e-02 5.627378821372985840e-03 -1.547363549470901489e-01
4.100000000000000000e+02 2.512971115112304688e+01 -3.347004318237304688e+01 1.385421957820653915e-02 -3.603513240814208984e-01 -1.039491295814514160e-01 -3.441959992051124573e-02
4.110000000000000000e+02 2.917290115356445312e+01 -3.939411163330078125e+00 7.452062517404556274e-02 1.106907278299331665e-01 5.556340888142585754e-02 -3.919287398457527161e-02
4.120000000000000000e+02 1.785746574401855469e+01 -1.541220092773437500e+01 -4.869885370135307312e-02 7.978920824825763702e-03 -1.221597939729690552e-02 -1.089041754603385925e-01
4.130000000000000000e+02 1.656920242309570312e+01 -1.011490154266357422e+01 -3.016112931072711945e-02 7.283331453800201416e-02 1.280165463685989380e-02 1.417119335383176804e-02
4.140000000000000000e+02 1.260438823699951172e+01 -1.202809619903564453e+01 -1.294732838869094849e-02 3.511502221226692200e-02 6.650308147072792053e-03 -3.063114918768405914e-02
4.150000000000000000e+02 1.616276550292968750e+01 -8.794419288635253906e+00 -5.008784588426351547e-03 7.458001375198364258e-02 2.087136916816234589e-02 4.960659891366958618e-03
4.160000000000000000e+02 1.712442970275878906e+01 -8.435083389282226562e+00 1.728717982769012451e-02 1.085283905267715454e-01 3.774467110633850098e-02 -4.499834030866622925e-03
4.170000000000000000e+02 1.707328605651855469e+01 -5.583539009094238281e+00 2.136809006333351135e-02 1.025985553860664368e-01 3.718999400734901428e-02 1.151805464178323746e-02
4.180000000000000000e+02 1.504214286804199219e+01 -9.795717000961303711e-01 -6.446857750415802002e-02 4.281595349311828613e-02 -6.495787762105464935e-03 -2.913241088390350342e-02
4.190000000000000000e+02 1.790675735473632812e+01 -2.994357585906982422e+00 3.062415868043899536e-02 6.961740553379058838e-02 3.007247112691402435e-02 2.652186155319213867e-02
4.200000000000000000e+02 1.205404567718505859e+01 -1.459402680397033691e+00 -4.437242448329925537e-02 1.307535357773303986e-02 -9.389121085405349731e-03 -2.105920389294624329e-02
4.210000000000000000e+02 9.709481239318847656e+00 -2.573935508728027344e+00 -1.368520688265562057e-02 -1.920434413477778435e-03 -4.681692458689212799e-03 -2.330590970814228058e-02
4.220000000000000000e+02 1.141202545166015625e+01 -1.253616142272949219e+01 -2.383179217576980591e-02 1.830679178237915039e-02 -1.657499582506716251e-03 -1.841304264962673187e-02
4.230000000000000000e+02 8.937107086181640625e+00 -1.296561145782470703e+01 -1.090254932641983032e-01 -6.519217044115066528e-02 -5.226529762148857117e-02 -6.920804083347320557e-02
4.240000000000000000e+02 1.698389625549316406e+01 -1.945320844650268555e+00 -4.530059639364480972e-03 -1.229166705161333084e-02 -5.046518053859472275e-03 -1.890061981976032257e-02
4.250000000000000000e+02 1.740509414672851562e+01 -4.592737257480621338e-01 -9.760805964469909668e-02 -2.392031811177730560e-02 -3.645851463079452515e-02 -3.057373454794287682e-03
4.260000000000000000e+02 2.011635017395019531e+01 -9.011752605438232422e-01 2.989570051431655884e-02 6.656806170940399170e-02 2.893912978470325470e-02 -3.500168398022651672e-02
4.270000000000000000e+02 9.762996673583984375e+00 -1.848116993904113770e+00 -2.731245197355747223e-02 -2.740589156746864319e-02 -1.641550287604331970e-02 -3.241750970482826233e-02
4.280000000000000000e+02 4.012125968933105469e+00 -1.838383555412292480e+00 -1.038906630128622055e-03 -7.489793468266725540e-03 -2.558609936386346817e-03 -3.055755048990249634e-03
4.290000000000000000e+02 1.857902169227600098e+00 -1.484232997894287109e+01 -6.077394820749759674e-03 -7.615482434630393982e-03 -4.107863176614046097e-03 -6.256458815187215805e-03
4.300000000000000000e+02 3.406261920928955078e+00 -1.578709506988525391e+01 -2.702680416405200958e-02 -6.166445463895797729e-02 -2.660737745463848114e-02 -2.897117473185062408e-02
4.310000000000000000e+02 4.886090278625488281e+00 -1.539081287384033203e+01 -4.646292328834533691e-02 -1.141753196716308594e-01 -4.819147288799285889e-02 -4.573265090584754944e-02
4.320000000000000000e+02 6.719654083251953125e+00 -1.478148078918457031e+01 -7.828360795974731445e-02 -1.255327612161636353e-01 -6.114490702748298645e-02 -8.584141731262207031e-02
4.330000000000000000e+02 1.656530141830444336e+00 -1.053214263916015625e+01 2.936564851552248001e-05 3.475633915513753891e-03 1.051499857567250729e-03 7.712716702371835709e-03
4.340000000000000000e+02 5.553776025772094727e-01 -1.064123249053955078e+01 2.258770655316766351e-05 2.728615142405033112e-02 8.192621171474456787e-03 3.410131437703967094e-03
4.350000000000000000e+02 3.301662206649780273e+00 -1.880032420158386230e+00 9.453144593862816691e-05 2.566037466749548912e-03 7.981706876307725906e-04 3.940952301491051912e-04
4.360000000000000000e+02 2.002691984176635742e+00 -1.888786697387695312e+01 -9.949888102710247040e-03 -5.805267766118049622e-02 -2.040077000856399536e-02 -5.613980069756507874e-02
4.370000000000000000e+02 4.373500823974609375e+00 -1.824420928955078125e+01 -3.743133321404457092e-02 -1.522547602653503418e-01 -5.690582841634750366e-02 -5.999900773167610168e-02
4.380000000000000000e+02 3.550161838531494141e+00 -2.008052444458007812e+01 1.604398339986801147e-02 -8.574671298265457153e-02 -2.091081999242305756e-02 -7.136553525924682617e-02
4.390000000000000000e+02 4.800727844238281250e+00 -1.939243507385253906e+01 -5.010762717574834824e-03 -1.370979398488998413e-01 -4.263260960578918457e-02 -3.897994011640548706e-02
4.400000000000000000e+02 6.230946540832519531e+00 -2.191548919677734375e+01 9.419077634811401367e-02 3.536627441644668579e-02 3.886711597442626953e-02 -5.478808656334877014e-02
4.410000000000000000e+02 8.995273590087890625e+00 -2.322308349609375000e+01 1.428401619195938110e-01 1.133362576365470886e-02 4.625213891267776489e-02 -3.618763759732246399e-02
4.420000000000000000e+02 7.499824523925781250e+00 -2.290508460998535156e+01 1.512277424335479736e-01 4.251750931143760681e-02 5.812357366085052490e-02 -5.388112366199493408e-02
4.430000000000000000e+02 2.570115327835083008e+00 -3.817649459838867188e+01 8.166881278157234192e-03 -2.372384369373321533e-01 -6.872146576642990112e-02 -4.260586574673652649e-02
4.440000000000000000e+02 2.900226211547851562e+01 -3.911145401000976562e+01 2.294933497905731201e-01 -2.377454042434692383e-01 -2.475614426657557487e-03 -1.012184657156467438e-02
4.450000000000000000e+02 4.038611221313476562e+01 -3.626518630981445312e+01 4.038085937500000000e-01 1.646993756294250488e-01 1.705523878335952759e-01 -2.534790337085723877e-01
4.460000000000000000e+02 4.247444534301757812e+01 -3.829738616943359375e+01 1.035585284233093262e+00 2.412236034870147705e-01 3.830426633358001709e-01 -2.052392363548278809e-01
4.470000000000000000e+02 6.860666656494140625e+01 -3.455846405029296875e+01 5.084695219993591309e-01 2.434616565704345703e+00 8.829258680343627930e-01 3.881525397300720215e-01
4.480000000000000000e+02 7.820089721679687500e+01 -3.036660003662109375e+01 -5.329230800271034241e-02 6.364036083221435547e+00 1.893223166465759277e+00 1.525762081146240234e-01
4.490000000000000000e+02 7.476981353759765625e+01 -2.081422996520996094e+01 1.558987051248550415e-01 6.961890697479248047e+00 2.135336637496948242e+00 1.691809296607971191e+00
4.500000000000000000e+02 7.837457275390625000e+01 -6.463026523590087891e+00 4.097579956054687500e+00 1.184300804138183594e+01 4.782176494598388672e+00 -1.779117345809936523e+00
4.510000000000000000e+02 7.963040161132812500e+01 -4.171363830566406250e+00 -1.224727630615234375e-01 6.224703788757324219e+00 1.830669283866882324e+00 1.613635420799255371e+00
4.520000000000000000e+02 7.705023956298828125e+01 -4.108633518218994141e+00 -2.325713872909545898e+00 1.655368804931640625e+01 4.268392562866210938e+00 -6.513444185256958008e-01
4.530000000000000000e+02 7.768215179443359375e+01 -4.561566829681396484e+00 -6.489783525466918945e-01 1.801992988586425781e+01 5.211285591125488281e+00 3.242741346359252930e+00
4.540000000000000000e+02 7.658071136474609375e+01 3.910805130004882812e+01 1.000416092574596405e-02 4.390369892120361328e+00 1.320112109184265137e+00 -7.943367958068847656e-02
4.550000000000000000e+02 7.932784271240234375e+01 3.745550155639648438e+01 -1.223821192979812622e-02 4.655291080474853516e+00 1.392915844917297363e+00 -2.733917534351348877e-02
4.560000000000000000e+02 7.930625915527343750e+01 3.056423759460449219e+01 7.186523638665676117e-03 5.127478122711181641e+00 1.540399312973022461e+00 -5.919679254293441772e-02
4.570000000000000000e+02 7.938009643554687500e+01 2.362154960632324219e+01 -1.611797511577606201e-02 5.755034446716308594e+00 1.721674919128417969e+00 -3.394759818911552429e-02
4.580000000000000000e+02 7.938813781738281250e+01 1.663134956359863281e+01 9.750065393745899200e-03 6.085865020751953125e+00 1.828684449195861816e+00 -7.857089489698410034e-02
4.590000000000000000e+02 7.931009674072265625e+01 9.588785171508789062e+00 -1.057991199195384979e-02 8.923034667968750000e+00 2.673736572265625000e+00 -3.681094646453857422e-01
4.600000000000000000e+02 7.941679382324218750e+01 2.690212965011596680e+00 -8.749785833060741425e-03 1.250857067108154297e+01 3.749946355819702148e+00 -1.991038173437118530e-01
4.610000000000000000e+02 7.460488128662109375e+01 -4.424413204193115234e+00 1.106988430023193359e+00 1.377039551734924316e+00 7.452083826065063477e-01 -1.334462881088256836e+00
4.620000000000000000e+02 7.505458831787109375e+01 -4.495935440063476562e+00 1.391832470893859863e+00 3.075995206832885742e+00 1.340348362922668457e+00 -2.518107175827026367e+00
4.630000000000000000e+02 7.936492156982421875e+01 1.241564369201660156e+01 4.555603116750717163e-02 7.423581600189208984e+00 2.240741252899169922e+00 -3.170559704303741455e-01
4.640000000000000000e+02 7.805880737304687500e+01 1.924509048461914062e+01 3.996113315224647522e-02 5.830922126770019531e+00 1.761265039443969727e+00 -9.139466285705566406e-02
4.650000000000000000e+02 7.572039031982421875e+01 2.472494697570800781e+01 -4.241963848471641541e-02 4.895251274108886719e+00 1.455849528312683105e+00 -3.862934410572052002e-01
4.660000000000000000e+02 7.926123046875000000e+01 3.195361328125000000e+01 -4.706315696239471436e-03 5.008431434631347656e+00 1.501117587089538574e+00 -5.853407829999923706e-02
4.670000000000000000e+02 7.138613128662109375e+01 3.635671234130859375e+01 2.065837383270263672e-01 3.329909086227416992e+00 1.060947895050048828e+00 -2.439970523118972778e-01
4.680000000000000000e+02 6.894564056396484375e+01 3.587376403808593750e+01 3.076381385326385498e-01 2.882132768630981445e+00 9.569312930107116699e-01 -2.864746153354644775e-01
4.690000000000000000e+02 7.157522583007812500e+01 3.000602722167968750e+01 1.856626570224761963e-01 3.507564067840576172e+00 1.107967972755432129e+00 -5.006036162376403809e-01
4.700000000000000000e+02 6.951109313964843750e+01 1.983150100708007812e+01 4.319514632225036621e-01 2.506101131439208984e+00 8.814157843589782715e-01 -1.312609076499938965e+00
4.710000000000000000e+02 6.896856689453125000e+01 1.868915557861328125e+01 9.161146879196166992e-01 1.614328384399414062e+00 7.591329216957092285e-01 -1.193298578262329102e+00
4.720000000000000000e+02 6.789645385742187500e+01 1.952844047546386719e+01 4.847165644168853760e-01 9.210868477821350098e-01 4.217410087585449219e-01 -7.261578440666198730e-01
4.730000000000000000e+02 7.001280975341796875e+01 1.784896469116210938e+01 1.344519257545471191e+00 2.616434097290039062e+00 1.188286066055297852e+00 -1.836875915527343750e+00
4.740000000000000000e+02 7.097227478027343750e+01 1.702208328247070312e+01 1.567324757575988770e+00 4.904045581817626953e+00 1.941411137580871582e+00 -2.300649642944335938e+00
4.750000000000000000e+02 7.195256042480468750e+01 1.502132987976074219e+01 1.267221808433532715e+00 7.676409721374511719e+00 2.683089494705200195e+00 -1.936809659004211426e+00
4.760000000000000000e+02 7.205406951904296875e+01 1.366384029388427734e+01 3.846664130687713623e-01 7.693454265594482422e+00 2.423436164855957031e+00 -9.960227012634277344e-01
4.770000000000000000e+02 7.197639465332031250e+01 1.107656097412109375e+01 -7.522873580455780029e-02 4.798214435577392578e+00 1.416895747184753418e+00 1.760754548013210297e-02
4.780000000000000000e+02 7.121866607666015625e+01 9.116535186767578125e+00 -4.166816771030426025e-01 1.600970387458801270e+00 3.552866280078887939e-01 -1.664583683013916016e-01
4.790000000000000000e+02 7.231467437744140625e+01 9.964570999145507812e+00 -2.955777645111083984e-01 3.925803899765014648e+00 1.089067816734313965e+00 -3.931470513343811035e-01
4.800000000000000000e+02 6.967605590820312500e+01 6.926182270050048828e+00 -3.372400104999542236e-01 -1.864232867956161499e-01 -1.570989936590194702e-01 -4.209544062614440918e-01
4.810000000000000000e+02 6.854105377197265625e+01 7.125677108764648438e+00 -5.553227066993713379e-01 -3.266367316246032715e-01 -2.645878195762634277e-01 -4.595638811588287354e-01
4.820000000000000000e+02 6.730456542968750000e+01 6.913738727569580078e+00 -7.172985374927520752e-02 -1.095433980226516724e-01 -5.438197776675224304e-02 -2.377755045890808105e-01
4.830000000000000000e+02 6.430801391601562500e+01 1.382873654365539551e+00 -1.396587371826171875e+00 4.031940698623657227e-01 -2.980179786682128906e-01 1.080379188060760498e-01
4.840000000000000000e+02 6.441963958740234375e+01 -2.377106547355651855e-01 -1.530944228172302246e+00 3.102818727493286133e-01 -3.661987185478210449e-01 1.156982555985450745e-01
4.850000000000000000e+02 6.333893585205078125e+01 8.248159408569335938e+00 8.948035836219787598e-01 8.070297241210937500e-01 5.105500221252441406e-01 -9.136197566986083984e-01
4.860000000000000000e+02 6.120196533203125000e+01 9.328430175781250000e+00 7.516980171203613281e-01 1.243883848190307617e+00 5.986745357513427734e-01 -5.958601832389831543e-01
4.870000000000000000e+02 6.075022888183593750e+01 1.328371524810791016e+01 4.562557861208915710e-02 2.123607397079467773e+00 6.507698893547058105e-01 -8.267066627740859985e-02
4.880000000000000000e+02 6.120777130126953125e+01 1.729055976867675781e+01 2.287662476301193237e-01 1.372843384742736816e+00 4.804828763008117676e-01 3.908809423446655273e-01
4.890000000000000000e+02 6.092686843872070312e+01 1.601824378967285156e+01 1.253355294466018677e-01 1.797827363014221191e+00 5.769488811492919922e-01 3.023007810115814209e-01
4.900000000000000000e+02 6.088267135620117188e+01 1.983496475219726562e+01 4.185095056891441345e-02 8.322081565856933594e-01 2.622177302837371826e-01 2.194878607988357544e-01
4.910000000000000000e+02 6.351390838623046875e+01 1.967408370971679688e+01 -1.273325234651565552e-01 2.315627485513687134e-01 3.126906603574752808e-02 1.733004301786422729e-01
4.920000000000000000e+02 6.382632064819335938e+01 2.445792388916015625e+01 3.921211659908294678e-01 1.216845154762268066e+00 4.826898872852325439e-01 1.942207813262939453e-01
4.930000000000000000e+02 6.561198425292968750e+01 2.090012168884277344e+01 -1.549566835165023804e-01 2.228459268808364868e-01 2.036677300930023193e-02 -1.616312414407730103e-01
4.940000000000000000e+02 6.467476654052734375e+01 2.014102935791015625e+01 -5.376175045967102051e-01 3.230321779847145081e-02 -1.515942960977554321e-01 4.600498825311660767e-02
4.950000000000000000e+02 6.223118209838867188e+01 2.380649566650390625e+01 5.016359686851501465e-01 7.528660893440246582e-01 3.763506114482879639e-01 4.988326430320739746e-01
4.960000000000000000e+02 5.838927459716796875e+01 2.328783416748046875e+01 3.044341802597045898e-01 9.369073808193206787e-02 1.194374784827232361e-01 1.038020197302103043e-02
4.970000000000000000e+02 5.537472534179687500e+01 2.433796501159667969e+01 3.320152759552001953e-01 3.699946701526641846e-01 2.106029838323593140e-01 -3.112710714340209961e-01
4.980000000000000000e+02 5.453973770141601562e+01 2.526460647583007812e+01 2.900433540344238281e-01 6.257567405700683594e-01 2.747400403022766113e-01 -3.148089647293090820e-01
4.990000000000000000e+02 5.371525192260742188e+01 2.711080741882324219e+01 1.380017697811126709e-01 1.065007925033569336e+00 3.609029352664947510e-01 -1.608745008707046509e-01
5.000000000000000000e+02 5.369488525390625000e+01 2.831546211242675781e+01 1.823005266487598419e-02 1.201326131820678711e+00 3.658668398857116699e-01 -9.525420144200325012e-03
5.010000000000000000e+02 5.371836471557617188e+01 2.959052658081054688e+01 2.765003032982349396e-02 1.244521141052246094e+00 3.816513419151306152e-01 4.791146889328956604e-02
5.020000000000000000e+02 5.441541290283203125e+01 3.279230499267578125e+01 3.750404119491577148e-01 1.098556280136108398e+00 4.420790076255798340e-01 4.910711646080017090e-01
5.030000000000000000e+02 5.032686614990234375e+01 3.753933334350585938e+01 5.392376780509948730e-01 3.642565011978149414e-01 2.710482478141784668e-01 2.522256784141063690e-02
5.040000000000000000e+02 3.854112625122070312e+01 3.837041854858398438e+01 4.940555989742279053e-01 7.611783593893051147e-02 1.710520237684249878e-01 4.510388523340225220e-02
5.050000000000000000e+02 3.828152465820312500e+01 3.617658233642578125e+01 4.814502000808715820e-01 1.462627202272415161e-01 1.883138716220855713e-01 6.874968111515045166e-02
5.060000000000000000e+02 3.598450088500976562e+01 3.355627822875976562e+01 4.470027685165405273e-01 4.359617829322814941e-02 1.471796780824661255e-01 1.628588736057281494e-01
5.070000000000000000e+02 3.860585784912109375e+01 3.443610382080078125e+01 8.507423400878906250e-01 1.532064676284790039e-01 3.011846244335174561e-01 1.879149675369262695e-01
5.080000000000000000e+02 4.084721755981445312e+01 3.451346588134765625e+01 6.877878308296203613e-01 5.468736216425895691e-02 2.227425575256347656e-01 1.410466153174638748e-02
5.090000000000000000e+02 4.319925689697265625e+01 3.524051284790039062e+01 5.840433239936828613e-01 -9.910361468791961670e-02 1.454819142818450928e-01 4.428346455097198486e-02
5.100000000000000000e+02 4.209042739868164062e+01 3.378358840942382812e+01 3.187919259071350098e-01 -3.757571801543235779e-02 8.436486124992370605e-02 -4.905541241168975830e-02
5.110000000000000000e+02 4.540644836425781250e+01 3.317795562744140625e+01 2.771808803081512451e-01 -5.866154283285140991e-02 6.555580347776412964e-02 -3.847583755850791931e-02
5.120000000000000000e+02 4.514628219604492188e+01 3.097240257263183594e+01 -6.029387563467025757e-02 -1.934119015932083130e-01 -7.611173391342163086e-02 1.118663027882575989e-01
5.130000000000000000e+02 4.636082839965820312e+01 3.038215827941894531e+01 -3.381260856986045837e-02 -2.699306793510913849e-02 -1.824170351028442383e-02 8.173816651105880737e-02
5.140000000000000000e+02 4.608741378784179688e+01 2.900766944885253906e+01 -6.917139887809753418e-02 -1.129519790410995483e-01 -5.463701486587524414e-02 1.145100817084312439e-01
5.150000000000000000e+02 4.618451690673828125e+01 2.765934944152832031e+01 1.568202115595340729e-02 5.792963877320289612e-02 2.208349853754043579e-02 9.875856339931488037e-02
5.160000000000000000e+02 5.004735565185546875e+01 2.240005874633789062e+01 3.422092795372009277e-01 2.307696640491485596e-01 1.718936860561370850e-01 1.798498481512069702e-01
5.170000000000000000e+02 4.931474304199218750e+01 2.324328041076660156e+01 3.520739972591400146e-01 2.816425561904907227e-01 1.901149600744247437e-01 2.449892014265060425e-01
5.180000000000000000e+02 6.298667526245117188e+01 3.816059112548828125e+01 6.027593016624450684e-01 1.486215591430664062e+00 6.266924738883972168e-01 -2.894671261310577393e-01
5.190000000000000000e+02 6.187474441528320312e+01 3.699318313598632812e+01 6.772263050079345703e-01 1.046183109283447266e+00 5.170227885246276855e-01 -4.109204113483428955e-01
5.200000000000000000e+02 6.167962265014648438e+01 3.475112533569335938e+01 5.941370129585266113e-01 8.162910342216491699e-01 4.231284260749816895e-01 -6.206294298171997070e-01
5.210000000000000000e+02 6.418174743652343750e+01 3.350295639038085938e+01 5.375232696533203125e-01 2.197102308273315430e+00 8.203876614570617676e-01 -4.968315958976745605e-01
5.220000000000000000e+02 6.360101699829101562e+01 3.194611930847167969e+01 3.894284665584564209e-01 2.509122371673583984e+00 8.695652484893798828e-01 -5.647183060646057129e-01
5.230000000000000000e+02 6.373098754882812500e+01 3.553580856323242188e+01 3.950607478618621826e-01 1.896537423133850098e+00 6.874794363975524902e-01 -4.003163576126098633e-01
5.240000000000000000e+02 6.485423278808593750e+01 3.072678947448730469e+01 3.119436204433441162e-01 2.315498828887939453e+00 7.882326841354370117e-01 -4.931226670742034912e-01
5.250000000000000000e+02 6.373399353027343750e+01 2.819285011291503906e+01 8.887986093759536743e-02 2.004990339279174805e+00 6.281610727310180664e-01 1.644438318908214569e-02
5.260000000000000000e+02 6.334366607666015625e+01 2.613428306579589844e+01 3.959170579910278320e-01 1.704012393951416016e+00 6.299788355827331543e-01 4.184271693229675293e-01
5.270000000000000000e+02 5.828820037841796875e+01 3.613446044921875000e+01 8.593162298202514648e-01 2.223726361989974976e-01 3.245066404342651367e-01 9.180829674005508423e-02
5.280000000000000000e+02 5.751646804809570312e+01 3.829587554931640625e+01 7.882821559906005859e-01 5.773525834083557129e-01 4.096904098987579346e-01 1.061113029718399048e-01
5.290000000000000000e+02 5.696753692626953125e+01 3.566111755371093750e+01 7.847152352333068848e-01 3.537128269672393799e-01 3.415284156799316406e-01 3.244023621082305908e-01
5.300000000000000000e+02 3.502108001708984375e+01 4.003195571899414062e+01 4.460443556308746338e-01 -8.546582609415054321e-02 1.081735566258430481e-01 9.728007018566131592e-03
5.310000000000000000e+02 3.147831535339355469e+01 3.816284942626953125e+01 4.033268690109252930e-01 -2.552525401115417480e-01 4.442229121923446655e-02 7.247611135244369507e-02
5.320000000000000000e+02 2.792300033569335938e+01 2.854929351806640625e+01 -3.373492658138275146e-01 -3.797686994075775146e-01 -2.151353955268859863e-01 4.004046022891998291e-01
5.330000000000000000e+02 2.922922515869140625e+01 2.938609123229980469e+01 -2.152680419385433197e-02 -5.084303617477416992e-01 -1.589871495962142944e-01 3.925335705280303955e-01
5.340000000000000000e+02 2.884316635131835938e+01 2.770705032348632812e+01 -5.394518971443176270e-01 -4.902354478836059570e-01 -3.089061975479125977e-01 5.170904397964477539e-01
5.350000000000000000e+02 2.974481964111328125e+01 2.678077125549316406e+01 -6.538158655166625977e-01 -6.888260245323181152e-01 -4.027925729751586914e-01 6.176004409790039062e-01
5.360000000000000000e+02 3.057275581359863281e+01 2.577039146423339844e+01 -6.085774898529052734e-01 -9.709211587905883789e-01 -4.738495945930480957e-01 7.223595380783081055e-01
5.370000000000000000e+02 3.315405654907226562e+01 2.458411979675292969e+01 -4.056441187858581543e-01 -6.331124305725097656e-01 -3.116269707679748535e-01 3.651803135871887207e-01
5.380000000000000000e+02 3.322145080566406250e+01 2.598792648315429688e+01 -4.179372489452362061e-01 -5.899399518966674805e-01 -3.023631572723388672e-01 3.256475031375885010e-01
5.390000000000000000e+02 3.522070312500000000e+01 2.661793327331542969e+01 -1.612744927406311035e-01 -6.833251118659973145e-01 -2.533798813819885254e-01 2.553252875804901123e-01
5.400000000000000000e+02 3.322460937500000000e+01 2.730765914916992188e+01 -2.415377646684646606e-01 -5.654993057250976562e-01 -2.421111166477203369e-01 2.666845023632049561e-01
5.410000000000000000e+02 3.558674240112304688e+01 3.093024826049804688e+01 2.677072212100028992e-02 -8.457815647125244141e-02 -1.734223030507564545e-02 5.781847611069679260e-02
5.420000000000000000e+02 3.521175384521484375e+01 2.961827087402343750e+01 3.011856786906719208e-02 -2.546152472496032715e-01 -6.734900176525115967e-02 1.928941346704959869e-02
5.430000000000000000e+02 3.605899429321289062e+01 3.212137222290039062e+01 2.974501550197601318e-01 9.295137226581573486e-02 1.171204596757888794e-01 1.763563901185989380e-01
5.440000000000000000e+02 2.254247474670410156e+01 3.832141494750976562e+01 1.859755516052246094e-01 -2.587715089321136475e-01 -2.183878608047962189e-02 5.292114615440368652e-02
5.450000000000000000e+02 2.235178947448730469e+01 4.109068679809570312e+01 2.207280695438385010e-01 -2.648490965366363525e-01 -1.323630660772323608e-02 1.978599652647972107e-02
5.460000000000000000e+02 2.600807571411132812e+01 2.918618583679199219e+01 2.431340217590332031e-01 1.210394427180290222e-01 1.092520430684089661e-01 4.331588745117187500e-01
5.470000000000000000e+02 2.361854553222656250e+01 3.144481086730957031e+01 -5.215957760810852051e-02 9.877356886863708496e-02 1.398419868201017380e-02 1.645207554101943970e-01
5.480000000000000000e+02 2.465996360778808594e+01 2.937277603149414062e+01 2.440623044967651367e-01 3.864932358264923096e-01 1.891666650772094727e-01 3.053847849369049072e-01
5.490000000000000000e+02 2.842452430725097656e+01 3.037482261657714844e+01 3.879394382238388062e-02 -4.390664696693420410e-01 -1.200817599892616272e-01 4.002596139907836914e-01
5.500000000000000000e+02 1.679515266418457031e+01 3.865770721435546875e+01 1.208248138427734375e-01 -1.820634305477142334e-01 -1.837158389389514923e-02 7.610169798135757446e-02
5.510000000000000000e+02 1.203992271423339844e+01 3.477903747558593750e+01 1.898168176412582397e-01 -6.398237496614456177e-02 3.775033354759216309e-02 -2.477777004241943359e-02
5.520000000000000000e+02 1.645010185241699219e+01 3.387819290161132812e+01 -4.375855997204780579e-02 -1.248547956347465515e-01 -5.058400705456733704e-02 1.077608391642570496e-01
5.530000000000000000e+02 1.864333534240722656e+01 3.204315185546875000e+01 -2.039417624473571777e-01 -3.891944885253906250e-01 -1.779408752918243408e-01 2.745045423507690430e-01
5.540000000000000000e+02 2.001062011718750000e+01 2.889201927185058594e+01 -4.185204207897186279e-02 -6.849107146263122559e-01 -2.180288285017013550e-01 1.210478991270065308e-01
5.550000000000000000e+02 2.420370101928710938e+01 2.796314048767089844e+01 5.173392295837402344e-01 5.710940957069396973e-01 3.265300095081329346e-01 4.602080881595611572e-01
5.560000000000000000e+02 2.080651473999023438e+01 2.705423736572265625e+01 2.310725450515747070e-01 -2.824290394783020020e-01 -1.540694758296012878e-02 3.330435454845428467e-01
5.570000000000000000e+02 1.915411567687988281e+01 2.431011390686035156e+01 4.519706368446350098e-01 1.876921765506267548e-02 1.412219554185867310e-01 2.085630595684051514e-01
5.580000000000000000e+02 1.739015960693359375e+01 2.418544387817382812e+01 7.255778908729553223e-01 2.857728898525238037e-01 3.034052252769470215e-01 4.309641718864440918e-01
5.590000000000000000e+02 1.842912864685058594e+01 1.925719833374023438e+01 -2.505217194557189941e-01 -5.976251140236854553e-02 -9.308526664972305298e-02 5.434099584817886353e-02
5.600000000000000000e+02 1.481995487213134766e+01 1.866106033325195312e+01 -2.636634707450866699e-01 1.900201663374900818e-02 -7.339843362569808960e-02 1.653617620468139648e-01
5.610000000000000000e+02 1.755503463745117188e+01 2.042186164855957031e+01 -9.551457315683364868e-02 1.182646770030260086e-02 -2.510643191635608673e-02 1.071035042405128479e-01
5.620000000000000000e+02 2.014624977111816406e+01 1.675555610656738281e+01 -2.321065664291381836e-01 -1.934494972229003906e-01 -1.276668161153793335e-01 1.363452970981597900e-01
5.630000000000000000e+02 2.270692634582519531e+01 1.848123359680175781e+01 -1.934473961591720581e-01 -4.039522707462310791e-01 -1.792199015617370605e-01 1.903000771999359131e-01
5.640000000000000000e+02 2.393154525756835938e+01 1.460270214080810547e+01 -2.274595499038696289e-01 -1.679132133722305298e-01 -1.186118274927139282e-01 7.407045364379882812e-02
5.650000000000000000e+02 2.033840370178222656e+01 1.003372955322265625e+01 8.590979129076004028e-02 -7.650762051343917847e-02 2.820650581270456314e-03 6.446839869022369385e-02
5.660000000000000000e+02 2.030826187133789062e+01 8.715747833251953125e+00 1.805683672428131104e-01 -4.253709688782691956e-02 4.140938073396682739e-02 1.069923415780067444e-01
5.670000000000000000e+02 1.910611343383789062e+01 8.272773742675781250e+00 2.175142914056777954e-01 8.611282706260681152e-02 9.108813852071762085e-02 1.573437303304672241e-01
5.680000000000000000e+02 1.797004890441894531e+01 7.468175888061523438e+00 2.542788386344909668e-01 1.413389444351196289e-01 1.186853349208831787e-01 1.820930689573287964e-01
5.690000000000000000e+02 1.941451072692871094e+01 3.282778263092041016e+00 -3.935396373271942139e-01 -7.068317383527755737e-02 -1.392668485641479492e-01 1.386100649833679199e-01
5.700000000000000000e+02 2.175995445251464844e+01 2.665792465209960938e+00 -4.746797084808349609e-01 -8.436150848865509033e-02 -1.677123606204986572e-01 1.673086434602737427e-01
5.710000000000000000e+02 2.553638839721679688e+01 1.676631808280944824e+00 -5.720562934875488281e-01 -2.952088415622711182e-02 -1.804731637239456177e-01 1.992399990558624268e-01
5.720000000000000000e+02 2.704431533813476562e+01 1.292963504791259766e+00 -6.256515383720397949e-01 4.445959255099296570e-02 -1.743575930595397949e-01 1.446124613285064697e-01
5.730000000000000000e+02 3.110828018188476562e+01 2.544837236404418945e+00 -4.656656086444854736e-01 1.433816403150558472e-01 -9.668519347906112671e-02 6.703498214483261108e-02
5.740000000000000000e+02 3.350152587890625000e+01 1.465018630027770996e+00 -1.680352091789245605e+00 -1.158420518040657043e-01 -5.388582348823547363e-01 -1.072401627898216248e-01
5.750000000000000000e+02 3.288412857055664062e+01 1.226309657096862793e+00 -1.289798974990844727e+00 2.847423404455184937e-02 -3.783974349498748779e-01 -9.147690236568450928e-02
5.760000000000000000e+02 1.083576393127441406e+01 3.502575302124023438e+01 3.160053193569183350e-01 8.756472170352935791e-02 1.210710108280181885e-01 4.323915392160415649e-02
5.770000000000000000e+02 4.879818439483642578e+00 4.059323501586914062e+01 -3.762714564800262451e-02 -2.859253585338592529e-01 -9.706575423479080200e-02 1.283888611942529678e-02
5.780000000000000000e+02 1.179246711730957031e+01 3.619519042968750000e+01 1.971406787633895874e-01 8.438729681074619293e-03 6.167382001876831055e-02 1.221576854586601257e-01
5.790000000000000000e+02 2.016755580902099609e+00 4.165494155883789062e+01 -5.032678693532943726e-02 -5.355715155601501465e-01 -1.757694929838180542e-01 -1.428530644625425339e-02
5.800000000000000000e+02 4.725726127624511719e+00 3.819640350341796875e+01 2.089016512036323547e-02 -2.837655842304229736e-01 -7.886262983083724976e-02 1.300592254847288132e-02
5.810000000000000000e+02 6.075726151466369629e-01 3.315483474731445312e+01 8.079107850790023804e-03 -6.286548376083374023e-01 -1.861727088689804077e-01 2.737107500433921814e-02
5.820000000000000000e+02 1.805312156677246094e+00 3.282501602172851562e+01 3.494603931903839111e-02 -5.056897997856140137e-01 -1.412231177091598511e-01 8.165079355239868164e-02
5.830000000000000000e+02 7.595755577087402344e+00 3.371124649047851562e+01 2.330069988965988159e-01 1.475512236356735229e-01 1.141674667596817017e-01 1.787286847829818726e-01
5.840000000000000000e+02 6.873289108276367188e+00 3.256419754028320312e+01 1.206213980913162231e-01 7.076895236968994141e-02 5.741710588335990906e-02 1.048540025949478149e-01
5.850000000000000000e+02 5.881017208099365234e+00 3.006278038024902344e+01 1.106996089220046997e-02 -3.218344449996948242e-01 -9.322933852672576904e-02 1.448345556855201721e-02
5.860000000000000000e+02 5.565249919891357422e+00 2.885133361816406250e+01 -2.677040547132492065e-02 -5.447389483451843262e-01 -1.714528053998947144e-01 6.681060045957565308e-02
5.870000000000000000e+02 2.879604101181030273e+00 2.650128746032714844e+01 -7.738496363162994385e-02 -3.094740808010101318e-01 -1.160577163100242615e-01 8.271156996488571167e-02
5.880000000000000000e+02 6.316679120063781738e-01 2.465943336486816406e+01 -1.174567267298698425e-02 -1.224423497915267944e-01 -4.025640711188316345e-02 2.641954226419329643e-03
5.890000000000000000e+02 1.760721325874328613e+00 2.304211616516113281e+01 -1.574052870273590088e-02 -2.005500644445419312e-01 -6.488718092441558838e-02 -2.374430000782012939e-02
5.900000000000000000e+02 1.794432282447814941e+00 1.762337875366210938e+01 1.821981370449066162e-02 -2.148637324571609497e-01 -5.899317562580108643e-02 4.762102849781513214e-03
5.910000000000000000e+02 1.632661938667297363e+00 1.174283599853515625e+01 -6.942227482795715332e-03 -7.508561760187149048e-02 -2.460835315287113190e-02 6.299745291471481323e-02
5.920000000000000000e+02 3.239540338516235352e+00 3.927462577819824219e+00 -1.176660042256116867e-02 8.527201600372791290e-03 -9.718195651657879353e-04 -2.267163246870040894e-02
5.930000000000000000e+02 1.019027233123779297e+01 1.964687824249267578e+00 2.553592622280120850e-02 -1.934246532618999481e-02 1.858038129284977913e-03 1.438871119171380997e-02
5.940000000000000000e+02 1.230531597137451172e+01 7.389057159423828125e+00 -4.181962311267852783e-01 -2.626703381538391113e-01 -2.042599767446517944e-01 2.790776491165161133e-01
5.950000000000000000e+02 1.087932014465332031e+01 2.108380079269409180e+00 9.777150116860866547e-03 -2.637836523354053497e-02 -4.980364348739385605e-03 2.836089208722114563e-02
5.960000000000000000e+02 1.157434368133544922e+01 2.241591691970825195e+00 -9.877001866698265076e-03 -1.424990501254796982e-02 -7.238072343170642853e-03 4.445561766624450684e-02
5.970000000000000000e+02 1.363117694854736328e+01 2.782275676727294922e+00 -1.251172423362731934e-01 -1.351750176399946213e-02 -4.159042239189147949e-02 1.291149556636810303e-01
5.980000000000000000e+02 1.691397094726562500e+01 3.206567525863647461e+00 -3.402348756790161133e-01 1.394274365156888962e-02 -9.788763523101806641e-02 1.901585608720779419e-01
5.990000000000000000e+02 1.773425865173339844e+01 3.278766870498657227e+00 -3.648726344108581543e-01 -9.372270666062831879e-03 -1.122734695672988892e-01 1.807183623313903809e-01
6.000000000000000000e+02 3.396561050415039062e+01 1.734594345092773438e+00 -2.577788591384887695e+00 -2.896952033042907715e-01 -8.602451086044311523e-01 5.149547457695007324e-01
6.010000000000000000e+02 2.902352714538574219e+01 6.622736454010009766e+00 1.172822043299674988e-01 7.987244129180908203e-01 2.748019695281982422e-01 -3.322958201169967651e-02
6.020000000000000000e+02 2.870597267150878906e+01 9.040265083312988281e+00 2.499123364686965942e-01 6.661716699600219727e-01 2.748252153396606445e-01 2.440238147974014282e-01
6.030000000000000000e+02 3.034356498718261719e+01 1.072275447845458984e+01 3.292640149593353271e-01 7.472942471504211426e-01 3.229674696922302246e-01 4.840132594108581543e-01
6.040000000000000000e+02 2.864374732971191406e+01 1.241048717498779297e+01 -6.999152153730392456e-02 3.699382841587066650e-01 8.998402953147888184e-02 2.603262364864349365e-01
6.050000000000000000e+02 3.014687156677246094e+01 1.543988704681396484e+01 1.852471828460693359e-01 4.227664172649383545e-01 1.824040859937667847e-01 4.530782103538513184e-01
6.060000000000000000e+02 3.106274604797363281e+01 1.446752166748046875e+01 -2.806592583656311035e-01 6.562771797180175781e-01 1.126853749155998230e-01 4.186428189277648926e-01
6.070000000000000000e+02 2.922304534912109375e+01 1.442387485504150391e+01 -1.655799150466918945e-01 3.022398650646209717e-01 4.099798947572708130e-02 3.039745986461639404e-01
6.080000000000000000e+02 2.684428405761718750e+01 1.524476814270019531e+01 -6.078370213508605957e-01 -1.066975072026252747e-01 -2.143603563308715820e-01 1.360982805490493774e-01
6.090000000000000000e+02 2.447127342224121094e+01 1.651668167114257812e+01 -3.530352711677551270e-01 -2.699961662292480469e-01 -1.869094371795654297e-01 2.492705434560775757e-01
6.100000000000000000e+02 2.275802993774414062e+01 1.667607879638671875e+01 -2.454061061143875122e-01 -2.664622664451599121e-01 -1.535605043172836304e-01 1.716315895318984985e-01
6.110000000000000000e+02 2.354872512817382812e+01 1.752426528930664062e+01 -2.395259141921997070e-01 -2.824375331401824951e-01 -1.565890312194824219e-01 2.628468573093414307e-01
6.120000000000000000e+02 1.891956329345703125e+01 1.723357391357421875e+01 -2.889333367347717285e-01 -1.499286144971847534e-01 -1.316585838794708252e-01 1.652829200029373169e-01
6.130000000000000000e+02 2.206961250305175781e+01 2.044673728942871094e+01 -3.874259814620018005e-02 -4.666447043418884277e-01 -1.516161859035491943e-01 3.707993030548095703e-02
6.140000000000000000e+02 2.315827178955078125e+01 2.560010910034179688e+01 1.739249527454376221e-01 2.104360610246658325e-01 1.153083071112632751e-01 2.275728881359100342e-01
6.150000000000000000e+02 3.295653152465820312e+01 1.241401958465576172e+01 -4.895425140857696533e-01 1.953851617872714996e-02 -1.410011947154998779e-01 1.741154491901397705e-01
6.160000000000000000e+02 3.751776885986328125e+01 1.122997474670410156e+01 -1.222682476043701172e+00 -1.061742663383483887e+00 -6.853275299072265625e-01 9.826202392578125000e-01
6.170000000000000000e+02 3.560111618041992188e+01 1.230167007446289062e+01 -1.412741303443908691e+00 -5.666121244430541992e-01 -5.938060283660888672e-01 6.350931525230407715e-01
6.180000000000000000e+02 3.915861129760742188e+01 8.885476112365722656e+00 -5.845297574996948242e-01 -1.002219200134277344e+00 -4.760246872901916504e-01 7.394499182701110840e-01
6.190000000000000000e+02 3.959294891357421875e+01 7.443788051605224609e+00 -2.662839591503143311e-01 -5.135686397552490234e-01 -2.339557856321334839e-01 3.797034323215484619e-01
6.200000000000000000e+02 3.967234802246093750e+01 5.945140838623046875e+00 9.846974164247512817e-03 4.310117661952972412e-02 1.588444598019123077e-02 2.003096044063568115e-01
6.210000000000000000e+02 4.022080993652343750e+01 3.028330802917480469e+00 -7.359591126441955566e-01 -3.545960485935211182e-01 -3.271665573120117188e-01 -6.397173404693603516e-01
6.220000000000000000e+02 4.327030944824218750e+01 1.848369956016540527e+00 -6.776803731918334961e-01 -6.493073422461748123e-03 -2.052520364522933960e-01 5.491592362523078918e-02
6.230000000000000000e+02 4.612570190429687500e+01 1.028891205787658691e+00 -6.188515424728393555e-01 -6.283589638769626617e-03 -1.875405311584472656e-01 1.188224405050277710e-01
6.240000000000000000e+02 4.756979370117187500e+01 7.181831836700439453e+00 -1.055825829505920410e+00 -7.478889822959899902e-01 -5.411144495010375977e-01 8.899132609367370605e-01
6.250000000000000000e+02 5.115248489379882812e+01 1.727499485015869141e+00 -1.678640961647033691e+00 7.042888551950454712e-02 -4.824636280536651611e-01 6.241091489791870117e-01
6.260000000000000000e+02 4.556145477294921875e+01 1.918053030967712402e+00 -7.202485799789428711e-01 -4.144931584596633911e-02 -2.285093665122985840e-01 1.409622430801391602e-01
6.270000000000000000e+02 4.693637847900390625e+01 9.580562114715576172e-01 -6.762644648551940918e-01 -1.554668229073286057e-02 -2.075433582067489624e-01 1.479094028472900391e-01
6.280000000000000000e+02 4.650785446166992188e+01 8.129694938659667969e+00 -8.986604213714599609e-01 -7.203150987625122070e-01 -4.856926500797271729e-01 7.604822516441345215e-01
6.290000000000000000e+02 4.408324813842773438e+01 5.806795120239257812e+00 -7.825819849967956543e-01 -2.601576447486877441e-01 -3.128218650817871094e-01 3.600120544433593750e-01
6.300000000000000000e+02 4.436618041992187500e+01 9.764466285705566406e+00 -6.034817695617675781e-01 -3.565136790275573730e-01 -2.879986464977264404e-01 5.657437443733215332e-01
6.310000000000000000e+02 3.935639190673828125e+01 1.080575466156005859e+01 -8.725900053977966309e-01 -6.607322096824645996e-01 -4.599966704845428467e-01 6.759362220764160156e-01
6.320000000000000000e+02 4.369434356689453125e+01 8.506175041198730469e+00 -7.905964255332946777e-01 -2.618781030178070068e-01 -3.157423734664916992e-01 6.206296682357788086e-01
6.330000000000000000e+02 3.823846817016601562e+01 3.274657249450683594e+00 1.036462545394897461e+00 9.922012686729431152e-01 6.085991263389587402e-01 9.710655808448791504e-01
6.340000000000000000e+02 6.084980010986328125e+01 1.189347743988037109e+01 2.432079464197158813e-01 2.231908082962036133e+00 7.425348162651062012e-01 -3.869705498218536377e-01
6.350000000000000000e+02 5.491149520874023438e+01 1.166787719726562500e+01 -1.144033484160900116e-02 -2.538175880908966064e-01 -7.957737892866134644e-02 9.765549749135971069e-02
6.360000000000000000e+02 5.545646667480468750e+01 1.293019390106201172e+01 -1.143225282430648804e-02 -8.067267388105392456e-02 -2.763147838413715363e-02 5.501612275838851929e-02
6.370000000000000000e+02 5.648846054077148438e+01 1.605003738403320312e+01 1.482774317264556885e-01 4.512397646903991699e-01 1.798551529645919800e-01 -1.796789318323135376e-01
6.380000000000000000e+02 5.612075042724609375e+01 2.196203041076660156e+01 2.750428617000579834e-01 3.037632703781127930e-01 1.736418455839157104e-01 -2.209034115076065063e-01
6.390000000000000000e+02 5.846437835693359375e+01 1.461955642700195312e+01 2.042497843503952026e-01 1.017964243888854980e+00 3.666642010211944580e-01 -1.158987209200859070e-01
6.400000000000000000e+02 5.282207870483398438e+01 1.603586196899414062e+01 -7.566411793231964111e-02 -1.446010172367095947e-01 -6.607954204082489014e-02 7.961027324199676514e-02
6.410000000000000000e+02 5.374357986450195312e+01 1.497185802459716797e+01 -6.282883137464523315e-02 -2.136691063642501831e-01 -8.294937759637832642e-02 1.174938455224037170e-01
6.420000000000000000e+02 5.765295410156250000e+01 1.655508279800415039e+00 -2.272557973861694336e+00 -5.479412078857421875e-01 -8.461498022079467773e-01 4.002801775932312012e-01
6.430000000000000000e+02 5.850893402099609375e+01 1.678074955940246582e+00 -2.063127040863037109e+00 -4.726698100566864014e-01 -7.607390880584716797e-01 1.638120114803314209e-01
6.440000000000000000e+02 6.361259841918945312e+01 -1.172426462173461914e+00 -1.435481309890747070e+00 2.502833306789398193e-01 -3.555594086647033691e-01 1.919497847557067871e-01
6.450000000000000000e+02 6.791909790039062500e+01 -5.847450494766235352e-01 -1.962596416473388672e+00 -2.111761458218097687e-02 -5.951142311096191406e-01 -9.308571927249431610e-03
6.460000000000000000e+02 6.870767211914062500e+01 -7.419738173484802246e-01 -2.866218805313110352e+00 -5.404896736145019531e-01 -1.022012591361999512e+00 -3.546976149082183838e-01
6.470000000000000000e+02 6.240272521972656250e+01 9.013772964477539062e+00 9.146668314933776855e-01 1.136391520500183105e+00 6.153175234794616699e-01 -8.751692771911621094e-01
6.480000000000000000e+02 6.137671661376953125e+01 -1.513722300529479980e+00 -1.230173826217651367e+00 1.323237717151641846e-01 -3.293550014495849609e-01 4.374650120735168457e-01
6.490000000000000000e+02 5.944291687011718750e+01 -1.013142466545104980e+00 -1.347478508949279785e+00 -6.960907578468322754e-01 -6.130707859992980957e-01 9.750271439552307129e-01
6.500000000000000000e+02 6.018628311157226562e+01 -1.565830826759338379e+00 -8.933088779449462891e-01 -3.105815351009368896e-01 -3.611671328544616699e-01 6.049558520317077637e-01
6.510000000000000000e+02 6.974579620361328125e+01 -8.522116541862487793e-01 -3.657066583633422852e+00 -9.154021739959716797e-02 -1.124582052230834961e+00 -2.278450429439544678e-01
6.520000000000000000e+02 6.902566528320312500e+01 4.297568500041961670e-01 -1.767092347145080566e+00 -2.019227445125579834e-01 -5.907045006752014160e-01 1.794161647558212280e-01
6.530000000000000000e+02 7.258123016357421875e+01 -5.071939155459403992e-02 -1.557652115821838379e+00 1.323657035827636719e+00 -7.019853591918945312e-02 -8.920725584030151367e-01
6.540000000000000000e+02 7.334634399414062500e+01 -1.430302023887634277e+00 -1.605409979820251465e+00 1.687976121902465820e+00 2.476985193789005280e-02 -1.072929427027702332e-01
6.550000000000000000e+02 7.837792968750000000e+01 -6.237793445587158203e+00 6.125618457794189453e+00 1.187826156616210938e+01 5.401164054870605469e+00 -1.113273024559020996e+00
6.560000000000000000e+02 7.824569702148437500e+01 -6.929353237152099609e+00 2.871139764785766602e+00 1.427997398376464844e+01 5.145334243774414062e+00 -4.147927761077880859e+00
6.570000000000000000e+02 7.755114746093750000e+01 -7.475269794464111328e+00 -1.064322829246520996e+00 1.888355255126953125e+01 5.345768928527832031e+00 -2.460797548294067383e+00
6.580000000000000000e+02 7.696646118164062500e+01 -7.684484004974365234e+00 -2.124472141265869141e+00 1.815145111083984375e+01 4.808093547821044922e+00 1.407486557960510254e+00
6.590000000000000000e+02 5.523091506958007812e+01 -1.864706230163574219e+01 2.764613032341003418e-01 2.656435072422027588e-01 1.626314371824264526e-01 -3.413265347480773926e-01
6.600000000000000000e+02 5.555118560791015625e+01 -2.077129173278808594e+01 4.588064551353454590e-02 -1.716562360525131226e-01 -3.773267939686775208e-02 -1.533736437559127808e-01
6.610000000000000000e+02 5.805914688110351562e+01 -2.419270706176757812e+01 1.580706983804702759e-01 2.487119734287261963e-01 1.220348030328750610e-01 1.420468389987945557e-01
6.620000000000000000e+02 5.639008712768554688e+01 -2.238108825683593750e+01 -3.212638571858406067e-02 -1.620511338114738464e-02 -1.449945010244846344e-02 -8.387894183397293091e-02
6.630000000000000000e+02 5.454256439208984375e+01 -2.581965827941894531e+01 2.043656110763549805e-01 -7.902668416500091553e-02 3.760167956352233887e-02 1.434792391955852509e-02
6.640000000000000000e+02 5.526663589477539062e+01 -2.644141960144042969e+01 2.325735539197921753e-01 4.698599129915237427e-02 8.386786282062530518e-02 4.992806911468505859e-02
6.650000000000000000e+02 5.921463012695312500e+01 -2.718508338928222656e+01 4.156077504158020020e-01 3.092659711837768555e-01 2.174621075391769409e-01 3.346897661685943604e-01
6.660000000000000000e+02 5.746537017822265625e+01 -2.911969375610351562e+01 2.426201254129409790e-01 4.207346737384796143e-01 1.990064382553100586e-01 3.164764046669006348e-01
6.670000000000000000e+02 5.305549240112304688e+01 -2.577025794982910156e+01 8.940109610557556152e-02 -7.497412711381912231e-02 4.328090697526931763e-03 -1.352678537368774414e-01
6.680000000000000000e+02 4.661716842651367188e+01 -2.855959129333496094e+01 4.823860526084899902e-01 2.667822539806365967e-01 2.247504889965057373e-01 -3.029331564903259277e-01
6.690000000000000000e+02 4.949766921997070312e+01 -2.543678283691406250e+01 4.257254898548126221e-01 3.677137792110443115e-01 2.380317896604537964e-01 -3.197444677352905273e-01
6.700000000000000000e+02 4.889706802368164062e+01 -2.433062171936035156e+01 5.115348696708679199e-01 4.367917478084564209e-01 2.844979763031005859e-01 -4.064802825450897217e-01
6.710000000000000000e+02 4.298025894165039062e+01 -2.248773193359375000e+01 1.353764533996582031e-01 -1.175357848405838013e-01 5.352200008928775787e-03 -5.676783323287963867e-01
6.720000000000000000e+02 4.717083740234375000e+01 -2.222344779968261719e+01 3.786448240280151367e-01 6.990140080451965332e-01 3.232976496219635010e-01 -4.245786368846893311e-01
6.730000000000000000e+02 4.479111099243164062e+01 -2.705760002136230469e+01 3.652437031269073486e-01 1.192425638437271118e-01 1.453458815813064575e-01 -1.655867844820022583e-01
6.740000000000000000e+02 4.554912948608398438e+01 -2.795176696777343750e+01 4.292460083961486816e-01 1.347548067569732666e-01 1.692002415657043457e-01 -2.211226522922515869e-01
6.750000000000000000e+02 4.774645233154296875e+01 -2.929224967956542969e+01 4.539513289928436279e-01 3.689482510089874268e-01 2.468698769807815552e-01 -3.880809843540191650e-01
6.760000000000000000e+02 4.873628616333007812e+01 -3.029143905639648438e+01 4.084319770336151123e-01 5.225133895874023438e-01 2.792836129665374756e-01 -3.794753849506378174e-01
6.770000000000000000e+02 4.957338714599609375e+01 -2.855339622497558594e+01 3.454605937004089355e-01 3.224650621414184570e-01 2.003776878118515015e-01 -2.966709434986114502e-01
6.780000000000000000e+02 5.072206115722656250e+01 -2.644559860229492188e+01 2.476779669523239136e-01 2.585725784301757812e-01 1.518751680850982666e-01 -3.190634548664093018e-01
6.790000000000000000e+02 4.666983032226562500e+01 -2.103793334960937500e+01 7.522597163915634155e-02 2.132579833269119263e-01 8.654518425464630127e-02 -3.222877979278564453e-01
6.800000000000000000e+02 4.576097869873046875e+01 -1.648523521423339844e+01 -6.787515878677368164e-01 -1.414201110601425171e-01 -2.460515052080154419e-01 -1.552898585796356201e-01
6.810000000000000000e+02 4.020660781860351562e+01 -1.627277946472167969e+01 -2.244546562433242798e-01 3.327675759792327881e-01 3.249387070536613464e-02 -2.121358364820480347e-01
6.820000000000000000e+02 4.733586502075195312e+01 -1.670513725280761719e+01 -1.037009119987487793e+00 -4.490723311901092529e-01 -4.458244442939758301e-01 -3.316992819309234619e-01
6.830000000000000000e+02 4.877955245971679688e+01 -1.664834976196289062e+01 -1.150808930397033691e+00 -3.036257624626159668e-01 -4.363304078578948975e-01 -4.573589265346527100e-01
6.840000000000000000e+02 4.993811416625976562e+01 -1.622909164428710938e+01 -9.660878181457519531e-01 -1.072833761572837830e-01 -3.220113515853881836e-01 -4.178283512592315674e-01
6.850000000000000000e+02 6.840239715576171875e+01 -2.605786323547363281e+01 -9.121245145797729492e-01 7.667408138513565063e-02 -2.506351172924041748e-01 1.092557609081268311e-01
6.860000000000000000e+02 6.724340820312500000e+01 -2.540893554687500000e+01 -2.223618924617767334e-01 3.143221735954284668e-01 2.758808434009552002e-02 -1.527239084243774414e-01
6.870000000000000000e+02 6.357242202758789062e+01 -2.753474044799804688e+01 4.326571226119995117e-01 8.999251127243041992e-01 3.997746706008911133e-01 -6.079238653182983398e-01
6.880000000000000000e+02 6.523913574218750000e+01 -2.717799186706542969e+01 5.079130083322525024e-02 1.287986159324645996e+00 4.016332626342773438e-01 -5.516704320907592773e-01
6.890000000000000000e+02 6.622642517089843750e+01 -2.460822105407714844e+01 1.771223843097686768e-01 1.016309618949890137e+00 3.580296039581298828e-01 -4.431234896183013916e-01
6.900000000000000000e+02 6.458179473876953125e+01 -2.848748588562011719e+01 5.823956727981567383e-01 1.265228152275085449e+00 5.542871356010437012e-01 -8.579769730567932129e-01
6.910000000000000000e+02 6.112345504760742188e+01 -2.642168045043945312e+01 2.995820641517639160e-01 1.733839660882949829e-01 1.418898105621337891e-01 9.382917732000350952e-02
6.920000000000000000e+02 5.989398574829101562e+01 -2.610492324829101562e+01 3.099299371242523193e-01 2.565018236637115479e-01 1.699295341968536377e-01 2.466518282890319824e-01
6.930000000000000000e+02 6.481842803955078125e+01 -2.153283309936523438e+01 2.518905699253082275e-01 2.436292171478271484e+00 8.064547777175903320e-01 -2.300915122032165527e-01
6.940000000000000000e+02 4.543054580688476562e+01 -1.291449928283691406e+01 -8.870941996574401855e-01 -1.743357479572296143e-01 -3.184289932250976562e-01 -3.364101648330688477e-01
6.950000000000000000e+02 4.295754241943359375e+01 -1.384108257293701172e+01 -1.428836464881896973e+00 -1.265478581190109253e-01 -4.666153192520141602e-01 -5.507748946547508240e-02
6.960000000000000000e+02 4.090481185913085938e+01 -1.965153884887695312e+01 2.413176894187927246e-01 3.757057245820760727e-03 7.352242618799209595e-02 -5.089410543441772461e-01
6.970000000000000000e+02 4.185064315795898438e+01 -1.439612960815429688e+01 -1.065351009368896484e+00 -1.864700019359588623e-01 -3.755462765693664551e-01 2.563300356268882751e-02
6.980000000000000000e+02 4.085477828979492188e+01 -1.337127876281738281e+01 -1.106710553169250488e+00 -1.137278005480766296e-01 -3.661315143108367920e-01 1.893302500247955322e-01
6.990000000000000000e+02 3.748112106323242188e+01 -1.189636230468750000e+01 -3.742442429065704346e-01 5.578088760375976562e-01 5.506939440965652466e-02 -5.203436687588691711e-02
7.000000000000000000e+02 3.715143203735351562e+01 -7.823923110961914062e+00 8.011545240879058838e-02 7.682270407676696777e-01 2.545027434825897217e-01 -5.231951177120208740e-02
7.010000000000000000e+02 3.834883499145507812e+01 -5.151762008666992188e+00 -1.574465185403823853e-01 4.090495780110359192e-02 -3.496246784925460815e-02 -5.646918714046478271e-02
7.020000000000000000e+02 3.525886535644531250e+01 -2.591240644454956055e+00 -2.630941271781921387e-01 8.397898823022842407e-02 -5.373454093933105469e-02 -6.743323057889938354e-02
7.030000000000000000e+02 6.570557403564453125e+01 -2.905750083923339844e+01 6.237898468971252441e-01 1.608798384666442871e+00 6.697764396667480469e-01 -6.392746567726135254e-01
7.040000000000000000e+02 6.557829284667968750e+01 -3.036529350280761719e+01 4.763787388801574707e-01 2.032167673110961914e+00 7.525639533996582031e-01 -6.512933373451232910e-01
7.050000000000000000e+02 6.896718597412109375e+01 -2.910180664062500000e+01 7.168908119201660156e-01 1.508816361427307129e+00 6.677121520042419434e-01 3.595220148563385010e-01
7.060000000000000000e+02 6.611086273193359375e+01 -3.418199920654296875e+01 2.214663773775100708e-01 2.269240856170654297e+00 7.472121715545654297e-01 3.569988906383514404e-01
7.070000000000000000e+02 6.512683105468750000e+01 -3.632962799072265625e+01 6.213743686676025391e-01 1.682701826095581055e+00 6.912228465080261230e-01 6.213144063949584961e-01
7.080000000000000000e+02 1.668505477905273438e+01 -1.934000587463378906e+01 -1.591982394456863403e-01 -1.373974233865737915e-01 -8.897870033979415894e-02 -2.423555850982666016e-01
7.090000000000000000e+02 1.614111137390136719e+01 -1.811137771606445312e+01 -3.219425678253173828e-02 -5.412148311734199524e-02 -2.589472196996212006e-02 -1.366409510374069214e-01
7.100000000000000000e+02 1.710526847839355469e+01 -2.239200019836425781e+01 -1.075642481446266174e-01 -1.250553727149963379e-01 -6.978588551282882690e-02 -2.090385556221008301e-01
7.110000000000000000e+02 1.859680366516113281e+01 -2.651079368591308594e+01 3.152996599674224854e-01 1.594971399754285812e-03 9.506838768720626831e-02 -5.176734179258346558e-02
7.120000000000000000e+02 1.488506126403808594e+01 -2.845059204101562500e+01 -1.396261304616928101e-01 -3.140656650066375732e-01 -1.361075341701507568e-01 -2.027718126773834229e-01
7.130000000000000000e+02 1.408102512359619141e+01 -2.972801780700683594e+01 -1.447128206491470337e-01 -3.838507235050201416e-01 -1.585690677165985107e-01 -2.201439291238784790e-01
7.140000000000000000e+02 1.176853561401367188e+01 -2.290242958068847656e+01 -6.849131733179092407e-02 -8.947514742612838745e-02 -4.738993942737579346e-02 -1.018235683441162109e-01
7.150000000000000000e+02 1.044300365447998047e+01 -2.308182716369628906e+01 5.403652787208557129e-02 -1.660994626581668854e-02 1.122797466814517975e-02 -3.454039618372917175e-02
7.160000000000000000e+02 1.172814083099365234e+01 -2.439189529418945312e+01 3.296847222372889519e-03 -1.532700955867767334e-01 -4.499197378754615784e-02 -1.503280699253082275e-01
7.170000000000000000e+02 9.299305915832519531e+00 -3.442200851440429688e+01 -2.156246826052665710e-02 -1.620110720396041870e-01 -5.507206544280052185e-02 -1.375611126422882080e-01
7.180000000000000000e+02 1.236255645751953125e+01 -3.043862915039062500e+01 -1.231829524040222168e-01 -2.886324822902679443e-01 -1.235446333885192871e-01 -1.367278397083282471e-01
7.190000000000000000e+02 4.743760299682617188e+01 1.882736206054687500e+01 4.535736739635467529e-01 2.775186896324157715e-01 2.193277031183242798e-01 2.905448675155639648e-01
7.200000000000000000e+02 5.078722763061523438e+01 1.796319007873535156e+01 -5.272256582975387573e-02 -6.746032088994979858e-02 -3.605486452579498291e-02 3.462708741426467896e-02
7.210000000000000000e+02 5.431108856201171875e+01 7.778124809265136719e+00 6.358353495597839355e-01 8.835939764976501465e-01 4.558288156986236572e-01 6.515427231788635254e-01
7.220000000000000000e+02 5.689340591430664062e+01 1.767796993255615234e+00 -2.366209506988525391e+00 -4.025605320930480957e-01 -8.306310176849365234e-01 4.522050023078918457e-01
7.230000000000000000e+02 5.487297058105468750e+01 1.856460571289062500e+00 -2.344223499298095703e+00 -7.451473921537399292e-02 -7.256215214729309082e-01 3.548034727573394775e-01
7.240000000000000000e+02 5.420566940307617188e+01 1.932228326797485352e+00 -2.164207458496093750e+00 -1.540749520063400269e-01 -6.954847574234008789e-01 4.352822899818420410e-01
7.250000000000000000e+02 5.195272445678710938e+01 1.861522316932678223e+00 -1.818755626678466797e+00 2.685251086950302124e-02 -5.375709533691406250e-01 6.382917165756225586e-01
7.260000000000000000e+02 4.459528732299804688e+01 1.244936847686767578e+01 -2.210159553214907646e-03 2.991176247596740723e-01 8.907224237918853760e-02 1.452640146017074585e-01
7.270000000000000000e+02 4.503481292724609375e+01 1.525895881652832031e+01 1.393926292657852173e-01 7.058504223823547363e-01 2.535729110240936279e-01 2.432610541582107544e-01
7.280000000000000000e+02 4.218581390380859375e+01 2.188984489440917969e+01 8.212355375289916992e-01 1.535037308931350708e-01 2.924217879772186279e-01 2.557124793529510498e-01
7.290000000000000000e+02 4.535801696777343750e+01 2.045382118225097656e+01 3.877871632575988770e-01 3.836255073547363281e-01 2.314237952232360840e-01 2.003192305564880371e-01
7.300000000000000000e+02 4.075935363769531250e+01 2.044183921813964844e+01 3.651011884212493896e-01 -2.814222685992717743e-02 1.010876893997192383e-01 3.275551795959472656e-01
7.310000000000000000e+02 4.263057708740234375e+01 2.094426727294921875e+01 5.143074989318847656e-01 2.430426180362701416e-01 2.272050231695175171e-01 2.108527868986129761e-01
7.320000000000000000e+02 4.622913360595703125e+01 2.206997489929199219e+01 4.393044412136077881e-01 3.425748646259307861e-01 2.345637828111648560e-01 2.635573148727416992e-01
7.330000000000000000e+02 4.586244583129882812e+01 2.352605628967285156e+01 4.285306334495544434e-01 4.691223204135894775e-01 2.692959010601043701e-01 3.381136059761047363e-01
7.340000000000000000e+02 1.661129951477050781e+01 6.900810241699218750e+00 1.390689760446548462e-01 7.405447214841842651e-02 6.393703818321228027e-02 1.360680907964706421e-01
7.350000000000000000e+02 1.036383533477783203e+01 9.451148986816406250e+00 -2.382265329360961914e-01 -3.500165641307830811e-01 -1.764729321002960205e-01 2.409289777278900146e-01
7.360000000000000000e+02 9.641237258911132812e+00 1.056940364837646484e+01 -1.085398942232131958e-01 -2.965748906135559082e-01 -1.215344369411468506e-01 1.691884845495223999e-01
7.370000000000000000e+02 9.364654541015625000e+00 1.269789218902587891e+01 -5.119518376886844635e-03 -8.943764120340347290e-02 -2.836714684963226318e-02 9.002424776554107666e-02
7.380000000000000000e+02 8.128414154052734375e+00 1.341242885589599609e+01 5.408608540892601013e-02 -7.277473062276840210e-02 -5.606594495475292206e-03 1.977105587720870972e-01
7.390000000000000000e+02 5.743768215179443359e+00 1.782866859436035156e+01 1.099043488502502441e-01 -1.970004141330718994e-01 -2.612881921231746674e-02 5.559469759464263916e-02
7.400000000000000000e+02 1.095487022399902344e+01 1.763415718078613281e+01 2.659594714641571045e-01 2.188141793012619019e-01 1.454320847988128662e-01 2.179006934165954590e-01
7.410000000000000000e+02 1.227985191345214844e+01 1.777440071105957031e+01 3.127480149269104004e-01 2.532359659671783447e-01 1.697952002286911011e-01 2.705633044242858887e-01
7.420000000000000000e+02 3.153217315673828125e+01 -1.587118911743164062e+01 -5.219459533691406250e-01 -2.783904373645782471e-01 -2.401009202003479004e-01 -2.948585748672485352e-01
7.430000000000000000e+02 3.266122055053710938e+01 -1.521298599243164062e+01 -7.964855432510375977e-01 -1.771174073219299316e-01 -2.920808792114257812e-01 -2.716964185237884521e-01
7.440000000000000000e+02 2.481311035156250000e+01 -1.627606773376464844e+01 -3.059369921684265137e-01 -1.172227635979652405e-01 -1.269479244947433472e-01 -1.630907803773880005e-01
7.450000000000000000e+02 2.968596839904785156e+01 -1.839185523986816406e+01 -1.450793296098709106e-01 -3.618884980678558350e-01 -1.520903557538986206e-01 -1.957214921712875366e-01
7.460000000000000000e+02 2.358911895751953125e+01 -1.395459365844726562e+01 -5.323374271392822266e-01 -6.457648426294326782e-02 -1.790741682052612305e-01 -1.209815740585327148e-01
7.470000000000000000e+02 3.385806655883789062e+01 -1.481136894226074219e+01 -9.194416999816894531e-01 -1.374201029539108276e-01 -3.170585334300994873e-01 -9.195246547460556030e-02
7.480000000000000000e+02 3.751783370971679688e+01 -1.346786212921142578e+01 -6.585509777069091797e-01 5.958213806152343750e-01 -1.881888136267662048e-02 -1.091462820768356323e-01
7.490000000000000000e+02 3.805942916870117188e+01 -1.079752349853515625e+01 1.246555671095848083e-01 6.683701872825622559e-01 2.379077225923538208e-01 -2.713349461555480957e-01
7.500000000000000000e+02 3.687203216552734375e+01 -1.607231712341308594e+01 5.035337433218955994e-02 4.770609438419342041e-01 1.582242995500564575e-01 -2.873738110065460205e-01
7.510000000000000000e+02 3.777371597290039062e+01 -1.692122268676757812e+01 2.674961090087890625e-01 8.008593916893005371e-01 3.205066323280334473e-01 -4.564691483974456787e-01
7.520000000000000000e+02 4.174654006958007812e+01 -2.398654556274414062e+01 -7.816227525472640991e-02 -2.382099330425262451e-01 -9.491166472434997559e-02 -5.025447010993957520e-01
7.530000000000000000e+02 4.566682434082031250e+01 -1.859018325805664062e+01 -3.970770537853240967e-01 -2.106970697641372681e-01 -1.823322325944900513e-01 -5.189611315727233887e-01
7.540000000000000000e+02 3.888447952270507812e+01 -1.734475517272949219e+01 2.186797410249710083e-01 6.763609647750854492e-01 2.685122191905975342e-01 -4.036704301834106445e-01
7.550000000000000000e+02 3.976625442504882812e+01 -2.244889450073242188e+01 3.460680320858955383e-02 -3.536347746849060059e-01 -9.570839256048202515e-02 -1.873552948236465454e-01
7.560000000000000000e+02 4.390756225585937500e+01 -2.171257209777832031e+01 1.875003129243850708e-01 -1.086439713835716248e-01 2.365690283477306366e-02 -5.830516815185546875e-01
7.570000000000000000e+02 4.229416656494140625e+01 -2.774081611633300781e+01 1.939364671707153320e-01 -4.837888479232788086e-02 4.366727545857429504e-02 -1.225435268133878708e-02
7.580000000000000000e+02 4.049218750000000000e+01 -2.790151023864746094e+01 3.592397272586822510e-02 -5.058174133300781250e-01 -1.409680396318435669e-01 -1.297498643398284912e-01
7.590000000000000000e+02 3.726124191284179688e+01 -2.861575126647949219e+01 -1.163389980792999268e-01 -3.625825345516204834e-01 -1.436764597892761230e-01 -2.316431999206542969e-01
7.600000000000000000e+02 3.359302139282226562e+01 -2.913060760498046875e+01 2.528777420520782471e-01 1.745181232690811157e-01 1.282187551259994507e-01 -1.961300522089004517e-01
7.610000000000000000e+02 3.290731430053710938e+01 -2.811382293701171875e+01 3.804090321063995361e-01 2.111930698156356812e-01 1.774806231260299683e-01 -2.481197118759155273e-01
7.620000000000000000e+02 3.109658241271972656e+01 -2.625617790222167969e+01 2.608025074005126953e-01 1.773665100336074829e-01 1.314506977796554565e-01 -2.171953618526458740e-01
7.630000000000000000e+02 3.593306732177734375e+01 -3.208473587036132812e+01 -2.042038738727569580e-02 -1.321249306201934814e-01 -4.576359316706657410e-02 -3.308482766151428223e-01
7.640000000000000000e+02 2.739848136901855469e+01 -2.992720031738281250e+01 1.663335710763931274e-01 -1.161366626620292664e-01 1.505907345563173294e-02 -1.349838525056838989e-01
7.650000000000000000e+02 3.593774414062500000e+01 -2.981389999389648438e+01 5.097996443510055542e-02 -1.506045609712600708e-01 -2.988738007843494415e-02 -3.269924223423004150e-01
7.660000000000000000e+02 3.899276733398437500e+01 -3.218357849121093750e+01 -7.485114783048629761e-02 -6.428284049034118652e-01 -2.153038680553436279e-01 -2.323045432567596436e-01
7.670000000000000000e+02 3.975133514404296875e+01 -3.519725418090820312e+01 2.541835904121398926e-01 1.505405306816101074e-01 1.214172318577766418e-01 -1.470153629779815674e-01
7.680000000000000000e+02 3.020556068420410156e+01 -2.527891349792480469e+01 2.108571529388427734e-01 1.512436419725418091e-01 1.086302325129508972e-01 -1.726409345865249634e-01
7.690000000000000000e+02 2.939731025695800781e+01 -2.428046989440917969e+01 1.186231374740600586e-01 3.639351576566696167e-02 4.650499671697616577e-02 -1.086295768618583679e-01
7.700000000000000000e+02 2.874379539489746094e+01 -2.226996421813964844e+01 2.157696522772312164e-02 -1.450578868389129639e-01 -3.704427555203437805e-02 -6.191077828407287598e-02
7.710000000000000000e+02 2.917210960388183594e+01 -1.963279724121093750e+01 -7.462011277675628662e-02 -3.332979977130889893e-01 -1.223754286766052246e-01 -1.360010802745819092e-01
7.720000000000000000e+02 1.467041778564453125e+01 -2.120498466491699219e+01 -3.538073301315307617e-01 -3.400600254535675049e-01 -2.081602066755294800e-01 -3.098921179771423340e-01
7.730000000000000000e+02 1.994290542602539062e+01 -2.658124732971191406e+01 5.111815333366394043e-01 1.239116638898849487e-01 1.905279606580734253e-01 -1.766576617956161499e-01
7.740000000000000000e+02 1.573278808593750000e+01 2.311216354370117188e+01 6.062662005424499512e-01 1.793659925460815430e-01 2.356896549463272095e-01 3.038307130336761475e-01
7.750000000000000000e+02 1.034833240509033203e+01 2.266193962097167969e+01 -2.859273552894592285e-01 -6.133126467466354370e-02 -1.041775792837142944e-01 1.254467070102691650e-01
7.760000000000000000e+02 9.059015274047851562e+00 2.227974700927734375e+01 -2.359898090362548828e-01 -1.736989468336105347e-01 -1.229066252708435059e-01 1.417889446020126343e-01
7.770000000000000000e+02 7.358710765838623047e+00 2.435079193115234375e+01 -2.586155831813812256e-01 -3.489495813846588135e-01 -1.822695434093475342e-01 2.736570239067077637e-01
7.780000000000000000e+02 2.159358024597167969e+00 2.552677154541015625e+01 -4.276406392455101013e-02 -2.528889775276184082e-01 -8.869590610265731812e-02 3.840541839599609375e-02
7.790000000000000000e+02 6.674472808837890625e+01 2.015968704223632812e+01 -2.459152787923812866e-01 3.052369058132171631e-01 1.779648847877979279e-02 -3.417879939079284668e-01
7.800000000000000000e+02 3.172987556457519531e+01 2.328122520446777344e+01 -1.303276270627975464e-01 -9.628646373748779297e-01 -3.279576897621154785e-01 2.510553300380706787e-01
7.810000000000000000e+02 3.182399177551269531e+01 2.061654472351074219e+01 2.621987089514732361e-02 -3.636620044708251953e-01 -1.012326404452323914e-01 1.033543422818183899e-01
7.820000000000000000e+02 4.075477600097656250e+01 2.169790458679199219e+01 5.969833135604858398e-01 3.658448159694671631e-02 1.900703310966491699e-01 1.247309148311614990e-01
7.830000000000000000e+02 3.938447570800781250e+01 2.190382766723632812e+01 1.119980961084365845e-01 -2.114330232143402100e-01 -2.983047813177108765e-02 2.120109498500823975e-01
7.840000000000000000e+02 3.946957015991210938e+01 2.051534271240234375e+01 3.653367459774017334e-01 -3.042525649070739746e-01 1.832525618374347687e-02 4.109646379947662354e-01
7.850000000000000000e+02 3.391683578491210938e+01 1.719189071655273438e+01 3.360086083412170410e-01 -4.167046844959259033e-01 -2.420882135629653931e-02 4.892060160636901855e-01
7.860000000000000000e+02 4.470599746704101562e+01 1.385805511474609375e+01 3.953281790018081665e-02 6.053478717803955078e-01 1.934642046689987183e-01 1.668880432844161987e-01
7.870000000000000000e+02 3.804761505126953125e+01 2.186068344116210938e+01 -1.006495021283626556e-02 -4.518980085849761963e-01 -1.385888904333114624e-01 3.466581106185913086e-01
7.880000000000000000e+02 3.669043350219726562e+01 2.412591743469238281e+01 -4.243958890438079834e-01 -5.723374485969543457e-01 -2.990199923515319824e-01 4.930759370326995850e-01
7.890000000000000000e+02 5.290405654907226562e+01 3.396660614013671875e+01 3.758148849010467529e-01 7.150797247886657715e-01 3.272683620452880859e-01 1.797709912061691284e-01
7.900000000000000000e+02 5.338764953613281250e+01 3.231940841674804688e+01 3.301605582237243652e-01 1.118107080459594727e+00 4.344802796840667725e-01 2.949706614017486572e-01
7.910000000000000000e+02 3.947771453857421875e+01 -3.086023902893066406e+01 -1.038562431931495667e-01 -7.284322381019592285e-01 -2.496865391731262207e-01 -2.573128044605255127e-01
7.920000000000000000e+02 3.781045532226562500e+01 -2.745406532287597656e+01 -2.500078082084655762e-01 -4.689785242080688477e-01 -2.156959027051925659e-01 -3.491142988204956055e-01
7.930000000000000000e+02 4.023373794555664062e+01 -2.966131591796875000e+01 -9.062817692756652832e-02 -5.527489185333251953e-01 -1.930131316184997559e-01 -2.121449261903762817e-01
7.940000000000000000e+02 4.117176437377929688e+01 -2.514472579956054688e+01 -2.324805259704589844e-01 -3.589993417263031006e-01 -1.774439662694931030e-01 -3.784181773662567139e-01
7.950000000000000000e+02 4.018228149414062500e+01 -2.455023002624511719e+01 -2.488606721162796021e-01 -8.745893239974975586e-01 -3.370350003242492676e-01 -3.762963414192199707e-01
7.960000000000000000e+02 7.819678497314453125e+01 5.160305023193359375e+00 -3.599291667342185974e-02 9.714837074279785156e+00 2.903653383255004883e+00 -7.496501803398132324e-01
7.970000000000000000e+02 3.894104003906250000e+01 -1.164704132080078125e+01 -9.168399870395660400e-02 2.656416594982147217e-01 5.218729749321937561e-02 -1.352417618036270142e-01
7.980000000000000000e+02 5.255927276611328125e+01 -7.742796421051025391e+00 -5.256359577178955078e-01 -4.665379524230957031e-01 -2.976521551609039307e-01 3.267374932765960693e-01
7.990000000000000000e+02 3.712163162231445312e+01 -9.021692276000976562e+00 1.588029116392135620e-01 9.112299680709838867e-01 3.210098445415496826e-01 -2.427372783422470093e-01
8.000000000000000000e+02 3.031175422668457031e+01 -1.162187099456787109e+01 -2.370599955320358276e-01 -3.431713879108428955e-01 -1.740694195032119751e-01 -1.066876575350761414e-01
8.010000000000000000e+02 6.506665802001953125e+01 -7.870196819305419922e+00 -2.438382357358932495e-01 -3.347649797797203064e-02 -8.319441974163055420e-02 1.864566653966903687e-01
8.020000000000000000e+02 2.835020256042480469e+01 -2.348903846740722656e+01 7.344381511211395264e-02 -8.718098700046539307e-02 -4.121152684092521667e-03 -9.691230952739715576e-02
8.030000000000000000e+02 6.575897216796875000e+01 -3.162363052368164062e+01 1.417082995176315308e-01 2.057793140411376953e+00 6.598504185676574707e-01 -2.058266252279281616e-01
8.040000000000000000e+02 4.969913482666015625e+01 1.878134918212890625e+01 1.943199187517166138e-01 -1.169720944017171860e-02 5.478681251406669617e-02 6.737997382879257202e-02
8.050000000000000000e+02 5.444406509399414062e+01 1.799200439453125000e+01 1.633735746145248413e-01 1.394599080085754395e-01 9.085004776716232300e-02 -1.680115461349487305e-01
8.060000000000000000e+02 2.162339973449707031e+01 8.715752601623535156e+00 1.784588098526000977e-01 -1.774327456951141357e-01 3.078190493397414684e-04 9.380020946264266968e-02
8.070000000000000000e+02 3.202103042602539062e+01 1.806638336181640625e+01 2.308894544839859009e-01 3.373005688190460205e-01 1.704570055007934570e-01 3.559314012527465820e-01
8.080000000000000000e+02 7.810243225097656250e+01 1.782315063476562500e+01 7.091461867094039917e-02 5.963201522827148438e+00 1.810234904289245605e+00 -1.344134509563446045e-01
8.090000000000000000e+02 6.842392730712890625e+01 2.055844497680664062e+01 1.862387359142303467e-01 1.734295606613159180e+00 5.761603116989135742e-01 -1.058233618736267090e+00
8.100000000000000000e+02 6.652088165283203125e+01 3.149497985839843750e+01 3.823695182800292969e-01 2.429421186447143555e+00 8.435372114181518555e-01 -4.026302695274353027e-01
8.110000000000000000e+02 5.372315597534179688e+01 3.087516784667968750e+01 1.432311832904815674e-01 1.373822569847106934e+00 4.551161527633666992e-01 2.315988093614578247e-01
8.120000000000000000e+02 4.588109588623046875e+01 2.492764854431152344e+01 2.886290550231933594e-01 5.355218648910522461e-01 2.472452819347381592e-01 3.252017199993133545e-01
8.130000000000000000e+02 1.189371681213378906e+01 1.987411880493164062e+01 -1.160017214715480804e-02 1.520444601774215698e-01 4.213328659534454346e-02 2.549122869968414307e-01
8.140000000000000000e+02 1.018319892883300781e+01 2.009305953979492188e+01 4.321371670812368393e-03 -6.570935947820544243e-04 1.099283341318368912e-03 1.662639677524566650e-01
8.150000000000000000e+02 2.238314628601074219e+01 2.303440475463867188e+01 2.505618147552013397e-02 -3.606345355510711670e-01 -1.006735116243362427e-01 1.168150454759597778e-02
8.160000000000000000e+02 1.822081565856933594e+00 1.615948295593261719e+01 1.953829079866409302e-02 -1.992662400007247925e-01 -5.391838774085044861e-02 2.889681793749332428e-02
8.170000000000000000e+02 9.667567253112792969e+00 1.396150970458984375e+01 5.733402445912361145e-02 1.127298697829246521e-01 5.101916566491127014e-02 9.711275994777679443e-02
8.180000000000000000e+02 2.029187583923339844e+01 1.965648460388183594e+01 -1.602420061826705933e-01 -1.602920293807983398e-01 -9.616021066904067993e-02 7.327985484153032303e-03
8.190000000000000000e+02 1.671148777008056641e+00 9.036300659179687500e+00 -1.247183512896299362e-02 -6.479448173195123672e-03 -5.685385316610336304e-03 3.820420801639556885e-02
8.200000000000000000e+02 4.424335861206054688e+01 2.372346401214599609e+00 -7.142995595932006836e-01 -4.562347009778022766e-02 -2.279769033193588257e-01 8.877072483301162720e-02
8.210000000000000000e+02 2.661853790283203125e+01 1.076520633697509766e+01 1.662851274013519287e-01 7.953875511884689331e-02 7.374716550111770630e-02 9.424575418233871460e-02
8.220000000000000000e+02 2.509833908081054688e+01 -3.212717437744140625e+01 -8.574290201067924500e-03 -2.810641825199127197e-01 -8.689154684543609619e-02 -3.190490975975990295e-02
8.230000000000000000e+02 6.944116210937500000e+01 -1.200542831420898438e+01 -4.543806552886962891e+00 -9.526051878929138184e-01 -1.648923516273498535e+00 1.088902831077575684e+00
8.240000000000000000e+02 6.413956451416015625e+01 -4.875440120697021484e+00 -1.273438055068254471e-02 -2.921434678137302399e-02 -1.258461829274892807e-02 -4.875880852341651917e-02
8.250000000000000000e+02 6.485575103759765625e+01 -4.795486450195312500e+00 -9.492950513958930969e-03 8.119606412947177887e-03 -4.120032535865902901e-04 -1.672952435910701752e-02
8.260000000000000000e+02 6.268249511718750000e+01 -6.234671115875244141e+00 -9.953074157238006592e-03 -1.063222587108612061e-01 -3.488259762525558472e-02 -2.740659750998020172e-02
8.270000000000000000e+02 6.335195541381835938e+01 -5.088579177856445312e+00 3.738659247756004333e-02 -7.265498489141464233e-02 -1.058051828294992447e-02 -2.635875716805458069e-03
8.280000000000000000e+02 6.147016525268554688e+01 -5.402218341827392578e+00 -9.694529697299003601e-03 1.368791982531547546e-02 1.198017038404941559e-03 3.058295138180255890e-02
8.290000000000000000e+02 5.249296951293945312e+01 -2.521034717559814453e+00 1.395921129733324051e-02 -7.273982465267181396e-02 -1.763418316841125488e-02 3.347771242260932922e-02
8.300000000000000000e+02 5.230922317504882812e+01 -1.903641700744628906e+00 -2.844288386404514313e-02 -1.275112014263868332e-02 -1.235820073634386063e-02 3.193337842822074890e-02
8.310000000000000000e+02 4.863597488403320312e+01 -2.771821498870849609e+00 -2.463972270488739014e-01 3.199066221714019775e-02 -6.432197242975234985e-02 1.237780153751373291e-01
8.320000000000000000e+02 4.944640731811523438e+01 -2.604800701141357422e+00 -1.863802373409271240e-01 2.447622083127498627e-02 -4.857120290398597717e-02 1.215794235467910767e-01
8.330000000000000000e+02 4.611077117919921875e+01 -2.897804498672485352e+00 -3.713908493518829346e-01 7.081284373998641968e-02 -9.017340093851089478e-02 -7.418525870889425278e-03
8.340000000000000000e+02 4.439755630493164062e+01 -2.593310117721557617e+00 -4.079910814762115479e-01 5.920889228582382202e-02 -1.046346575021743774e-01 -2.417937293648719788e-02
8.350000000000000000e+02 4.118653106689453125e+01 -1.447290420532226562e+00 -2.319449186325073242e-01 -9.740500152111053467e-02 -9.880497306585311890e-02 8.688671141862869263e-02
8.360000000000000000e+02 4.179466247558593750e+01 -1.908875584602355957e+00 -3.269013166427612305e-01 -1.297954320907592773e-01 -1.370090246200561523e-01 3.534574806690216064e-02
8.370000000000000000e+02 4.267685317993164062e+01 -2.353423357009887695e+00 -4.859639406204223633e-01 -8.266637474298477173e-02 -1.705890893936157227e-01 -2.298161387443542480e-02
8.380000000000000000e+02 3.911098098754882812e+01 -1.631924629211425781e+00 -3.232550323009490967e-01 2.687235176563262939e-02 -8.891480416059494019e-02 1.357454210519790649e-01
8.390000000000000000e+02 3.873784637451171875e+01 -3.867887258529663086e-01 -1.387412101030349731e-01 -9.322846308350563049e-04 -4.190205037593841553e-02 8.297956734895706177e-02
8.400000000000000000e+02 3.353022384643554688e+01 -2.467545270919799805e+00 -2.013833522796630859e-01 9.016618132591247559e-03 -5.771001800894737244e-02 -1.238618046045303345e-01
8.410000000000000000e+02 3.596379470825195312e+01 -2.331630468368530273e+00 -2.725393772125244141e-01 1.232711970806121826e-01 -4.478045552968978882e-02 -4.667950421571731567e-02
8.420000000000000000e+02 3.500537490844726562e+01 -1.873296141624450684e+00 -2.443475872278213501e-01 6.757292896509170532e-02 -5.303240194916725159e-02 -7.597839832305908203e-02
8.430000000000000000e+02 3.668799209594726562e+01 -2.097348451614379883e+00 -3.123526275157928467e-01 1.117812916636466980e-01 -6.017140299081802368e-02 6.884652655571699142e-03
8.440000000000000000e+02 3.718400192260742188e+01 -1.072323560714721680e+00 -2.601895630359649658e-01 6.328552216291427612e-02 -5.907121673226356506e-02 4.673291742801666260e-02
8.450000000000000000e+02 3.922517776489257812e+01 -4.315082550048828125e+00 -4.247717261314392090e-01 -6.817387044429779053e-02 -1.478836834430694580e-01 -1.704340875148773193e-01
8.460000000000000000e+02 3.187733078002929688e+01 -3.098405599594116211e+00 -1.294679045677185059e-01 -7.304231077432632446e-02 -6.075306236743927002e-02 -1.006186455488204956e-01
8.470000000000000000e+02 3.100343894958496094e+01 -3.373594760894775391e+00 -3.953861445188522339e-02 -1.906982362270355225e-01 -6.907105445861816406e-02 -6.353376060724258423e-02
8.480000000000000000e+02 3.012894821166992188e+01 -3.415234804153442383e+00 5.571765825152397156e-02 -7.454038411378860474e-02 -5.646817851811647415e-03 -6.541740149259567261e-02
8.490000000000000000e+02 2.869701385498046875e+01 -3.056465387344360352e+00 9.740374982357025146e-02 2.244631052017211914e-01 9.656006097793579102e-02 -1.958507150411605835e-01
8.500000000000000000e+02 2.934196472167968750e+01 -3.193861961364746094e+00 6.486023217439651489e-02 -1.590140312910079956e-01 -2.824613824486732483e-02 2.043933421373367310e-02
8.510000000000000000e+02 3.167263984680175781e+01 -6.054593086242675781e+00 -1.476106513291597366e-02 -2.066450119018554688e-01 -6.642182171344757080e-02 -1.870265007019042969e-01
8.520000000000000000e+02 2.596359062194824219e+01 -1.311471271514892578e+01 -4.941240847110748291e-01 -1.331460326910018921e-01 -1.881810277700424194e-01 -2.214838117361068726e-01
8.530000000000000000e+02 1.755312347412109375e+01 -9.719827651977539062e+00 -1.783384755253791809e-02 5.848028883337974548e-02 1.219393126666545868e-02 -1.067588664591312408e-02
8.540000000000000000e+02 1.744017028808593750e+01 -4.207386016845703125e+00 -2.339803380891680717e-03 9.227981418371200562e-02 2.698200382292270660e-02 2.653981745243072510e-02
8.550000000000000000e+02 1.593084144592285156e+01 -1.916358828544616699e+00 -2.631430514156818390e-02 4.833466932177543640e-02 6.606109905987977982e-03 -6.311841774731874466e-03
8.560000000000000000e+02 1.920692062377929688e+01 -1.621971249580383301e+00 -1.652508229017257690e-02 -3.593816235661506653e-02 -1.573897339403629303e-02 6.438702344894409180e-02
8.570000000000000000e+02 1.898625373840332031e+01 -4.492613077163696289e-01 -7.277791202068328857e-02 1.449383143335580826e-02 -1.748522371053695679e-02 -9.290781803429126740e-03
8.580000000000000000e+02 1.958824348449707031e+01 -6.198117136955261230e-01 -1.466472074389457703e-02 4.407560452818870544e-03 -3.077147994190454483e-03 4.097972810268402100e-02
8.590000000000000000e+02 1.814193344116210938e+01 -1.178447127342224121e+00 -7.247687131166458130e-02 7.777980528771877289e-03 -1.940966770052909851e-02 2.140885218977928162e-02
8.600000000000000000e+02 1.664548110961914062e+01 -6.143246293067932129e-01 -6.009143963456153870e-02 7.085271924734115601e-02 3.228383837267756462e-03 -4.073238372802734375e-02
8.610000000000000000e+02 1.356779003143310547e+01 -1.201609969139099121e+00 -5.673893541097640991e-02 2.113600634038448334e-02 -1.068087946623563766e-02 -2.293643355369567871e-02
8.620000000000000000e+02 1.576906299591064453e+01 -2.962575912475585938e+00 -2.852734178304672241e-04 1.218907721340656281e-02 3.571141278371214867e-03 -2.829794771969318390e-02
8.630000000000000000e+02 1.429341793060302734e+01 -1.093340396881103516e+00 -4.953831434249877930e-02 -4.016393423080444336e-02 -2.691067382693290710e-02 -3.668004646897315979e-02
8.640000000000000000e+02 1.129467105865478516e+01 -1.613243103027343750e+00 -3.723699972033500671e-02 -3.561762347817420959e-02 -2.185638807713985443e-02 -3.982114046812057495e-02
8.650000000000000000e+02 1.052454280853271484e+01 -1.763498067855834961e+00 -2.888318151235580444e-02 6.240576971322298050e-03 -6.792781408876180649e-03 -2.103939652442932129e-02
8.660000000000000000e+02 9.022540092468261719e+00 -1.864280223846435547e+00 -1.877390034496784210e-02 4.366679582744836807e-03 -4.322166088968515396e-03 -1.804328151047229767e-02
8.670000000000000000e+02 7.558886528015136719e+00 -1.863389849662780762e+00 -1.139840483665466309e-02 5.189044866710901260e-03 -1.862808014266192913e-03 -1.027059927582740784e-02
8.680000000000000000e+02 8.289217948913574219e+00 -1.866121888160705566e+00 -1.867864653468132019e-02 -1.934967376291751862e-02 -1.140849571675062180e-02 -2.404568903148174286e-02
8.690000000000000000e+02 6.832499504089355469e+00 -1.861711382865905762e+00 -9.811091236770153046e-03 -1.477287989109754562e-02 -7.375191431492567062e-03 -1.531834341585636139e-02
8.700000000000000000e+02 5.414095878601074219e+00 -1.823373317718505859e+00 -3.382251830771565437e-03 -1.206233445554971695e-02 -4.633375909179449081e-03 -8.532654494047164917e-03
8.710000000000000000e+02 4.717911720275878906e+00 -1.809333086013793945e+00 -2.084033563733100891e-03 4.350582137703895569e-03 6.799646071158349514e-04 -3.372791106812655926e-04
8.720000000000000000e+02 3.613331079483032227e+00 -3.339510917663574219e+00 2.231143880635499954e-03 -2.777974586933851242e-03 -1.640491827856749296e-04 -2.094611525535583496e-03
8.730000000000000000e+02 2.587994337081909180e+00 -1.915521860122680664e+00 4.302598827052861452e-04 -4.359614104032516479e-03 -1.178806181997060776e-03 6.927085923962295055e-04
8.740000000000000000e+02 1.871698260307312012e+00 -1.982083559036254883e+00 -2.112697693519294262e-04 2.159968018531799316e-03 5.846094572916626930e-04 1.294952118769288063e-03
8.750000000000000000e+02 2.025459051132202148e+00 -4.165235137939453125e+01 1.087832823395729065e-02 -2.821457684040069580e-01 -8.138023316860198975e-02 -3.113557118922472000e-03
8.760000000000000000e+02 4.775413036346435547e+00 -3.767254638671875000e+01 2.544599771499633789e-02 -2.075223475694656372e-01 -5.462290719151496887e-02 -8.067198097705841064e-02
8.770000000000000000e+02 9.537703394889831543e-01 -3.875801849365234375e+01 3.269007895141839981e-03 -2.632023990154266357e-01 -7.798001915216445923e-02 -1.245689205825328827e-02
8.780000000000000000e+02 7.238289713859558105e-01 -3.467280578613281250e+01 -2.122445264831185341e-03 -1.867650598287582397e-01 -5.666625127196311951e-02 -1.421219948679208755e-02
8.790000000000000000e+02 6.935439705848693848e-01 -3.328141403198242188e+01 1.041505020111799240e-03 -1.594563424587249756e-01 -4.752445220947265625e-02 -1.303874235600233078e-02
8.800000000000000000e+02 6.064125895500183105e-01 -2.909113883972167969e+01 -5.531766451895236969e-03 -1.129986792802810669e-01 -3.555913269519805908e-02 -3.179289633408188820e-04
8.810000000000000000e+02 5.919045805931091309e-01 -2.769933319091796875e+01 2.355595817789435387e-03 -1.161979362368583679e-01 -3.415270149707794189e-02 2.974440343677997589e-03
8.820000000000000000e+02 1.755550384521484375e+00 -2.776733589172363281e+01 -1.006815489381551743e-02 -1.089897751808166504e-01 -3.571737930178642273e-02 5.871931556612253189e-03
8.830000000000000000e+02 1.942347764968872070e+00 -2.358827018737792969e+01 1.630370877683162689e-02 -1.071344390511512756e-01 -2.724921889603137970e-02 -3.117630956694483757e-03
8.840000000000000000e+02 7.136070728302001953e-01 -2.201307678222656250e+01 8.526885882019996643e-03 -1.181362122297286987e-01 -3.288279846310615540e-02 -1.342391502112150192e-02
8.850000000000000000e+02 1.756721735000610352e+00 -1.751761436462402344e+01 -1.389345992356538773e-02 -2.949619293212890625e-02 -1.301689632236957550e-02 -3.704660385847091675e-02
8.860000000000000000e+02 7.219289541244506836e-01 -2.055202484130859375e+01 -1.377300359308719635e-04 -8.506538718938827515e-02 -2.556093595921993256e-02 -2.156770601868629456e-02
8.870000000000000000e+02 1.719472527503967285e+00 -1.625815582275390625e+01 -1.436301227658987045e-02 -1.487996801733970642e-02 -8.772893808782100677e-03 -1.841153763234615326e-02
8.880000000000000000e+02 6.124596595764160156e-01 -1.489343452453613281e+01 -9.216024773195385933e-04 4.020992293953895569e-02 1.178649626672267914e-02 -1.213707379065454006e-03
8.890000000000000000e+02 6.076894402503967285e-01 -1.347023105621337891e+01 -1.302323304116725922e-03 4.056851193308830261e-02 1.177985686808824539e-02 1.335114007815718651e-03
8.900000000000000000e+02 1.738992333412170410e+00 -1.193313312530517578e+01 -1.361791742965579033e-03 3.343618242070078850e-03 5.945479497313499451e-04 6.709055975079536438e-03
8.910000000000000000e+02 5.330292582511901855e-01 -9.241974830627441406e+00 4.320023872423917055e-04 1.871573366224765778e-02 5.744320806115865707e-03 2.826648997142910957e-03
8.920000000000000000e+02 5.193428397178649902e-01 -7.853120326995849609e+00 1.346484204987064004e-04 1.250790152698755264e-02 3.792765084654092789e-03 2.070942195132374763e-03
8.930000000000000000e+02 4.093251228332519531e+00 -2.515487670898437500e+00 2.905637666117399931e-04 -2.009762829402461648e-05 8.113984222291037440e-05 -1.192305935546755791e-03
8.940000000000000000e+02 5.216408371925354004e-01 -6.463657379150390625e+00 4.635734076146036386e-04 7.539406418800354004e-03 2.400893950834870338e-03 1.224248553626239300e-03
8.950000000000000000e+02 7.419952392578125000e+01 -3.897484207153320312e+01 2.019533663988113403e-01 4.395191192626953125e+00 1.379143476486206055e+00 1.462291032075881958e-01
8.960000000000000000e+02 5.015060806274414062e+01 -3.926438522338867188e+01 7.241291403770446777e-01 6.240393593907356262e-02 2.359599322080612183e-01 4.155286774039268494e-02
8.970000000000000000e+02 3.248924255371093750e+01 -3.912466049194335938e+01 3.268418908119201660e-01 -2.011061757802963257e-01 3.772071376442909241e-02 -1.133185327053070068e-01
8.980000000000000000e+02 1.166722011566162109e+01 -3.773841857910156250e+01 1.283990144729614258e-01 -1.173840388655662537e-01 3.304490819573402405e-03 -1.081288978457450867e-01
8.990000000000000000e+02 7.868240356445312500e+01 4.007876968383789062e+01 -2.417632937431335449e-02 4.491642475128173828e+00 1.340239882469177246e+00 -7.497533410787582397e-02
9.000000000000000000e+02 7.906535339355468750e+01 3.870973205566406250e+01 -1.140371151268482208e-02 4.579662799835205078e+00 1.370477795600891113e+00 -4.792495071887969971e-02
9.010000000000000000e+02 7.747253417968750000e+01 3.791079711914062500e+01 -3.385158954188227654e-03 4.436916828155517578e+00 1.330059528350830078e+00 -1.294623762369155884e-01
9.020000000000000000e+02 7.926409912109375000e+01 3.620343399047851562e+01 2.252256684005260468e-02 4.735020637512207031e+00 1.427262902259826660e+00 -3.621354326605796814e-02
9.030000000000000000e+02 7.739002227783203125e+01 3.449659729003906250e+01 2.817041799426078796e-02 4.554788112640380859e+00 1.374887585639953613e+00 -1.330714225769042969e-01
9.040000000000000000e+02 7.920127105712890625e+01 3.335374450683593750e+01 5.009719636291265488e-03 4.899608612060546875e+00 1.471385478973388672e+00 -5.678500235080718994e-02
9.050000000000000000e+02 7.657485961914062500e+01 3.012262153625488281e+01 3.586640208959579468e-02 4.626848220825195312e+00 1.398814439773559570e+00 -2.679362893104553223e-01
9.060000000000000000e+02 7.937361145019531250e+01 2.640207862854003906e+01 -1.127882488071918488e-02 5.529078483581542969e+00 1.655339956283569336e+00 -5.550936609506607056e-02
9.070000000000000000e+02 7.688698577880859375e+01 2.613604164123535156e+01 -1.586774364113807678e-02 5.016164779663085938e+00 1.500089049339294434e+00 -2.789326608180999756e-01
9.080000000000000000e+02 7.937251281738281250e+01 2.222300720214843750e+01 5.953381769359111786e-04 5.823671817779541016e+00 1.747280120849609375e+00 -1.428374554961919785e-02
9.090000000000000000e+02 7.936169433593750000e+01 2.082339859008789062e+01 -6.661104038357734680e-03 5.863508701324462891e+00 1.757054209709167480e+00 -8.890327066183090210e-03
9.100000000000000000e+02 7.812496948242187500e+01 2.210025978088378906e+01 -3.373985737562179565e-02 5.627819538116455078e+00 1.678223967552185059e+00 -8.967929333448410034e-02
9.110000000000000000e+02 7.935705566406250000e+01 1.942293357849121094e+01 4.779254551976919174e-03 5.893176078796386719e+00 1.769386529922485352e+00 -5.005410406738519669e-03
9.120000000000000000e+02 7.939965820312500000e+01 1.523503875732421875e+01 5.056032538414001465e-02 6.346549510955810547e+00 1.919132947921752930e+00 -1.428751349449157715e-01
9.130000000000000000e+02 7.939533996582031250e+01 1.383120727539062500e+01 2.668346650898456573e-02 6.791435241699218750e+00 2.045435428619384766e+00 -2.372483164072036743e-01
9.140000000000000000e+02 7.824598693847656250e+01 1.365711688995361328e+01 1.455980539321899414e-01 6.768862247467041016e+00 2.074337959289550781e+00 -6.137782335281372070e-01
9.150000000000000000e+02 7.931944274902343750e+01 1.099423789978027344e+01 -1.910036226036027074e-04 8.163441658020019531e+00 2.448975324630737305e+00 -3.755131959915161133e-01
9.160000000000000000e+02 7.934307861328125000e+01 8.197658538818359375e+00 -1.255886070430278778e-02 9.692538261413574219e+00 2.903993844985961914e+00 -3.455177843570709229e-01
9.170000000000000000e+02 7.937656402587890625e+01 6.811783313751220703e+00 -3.238757327198982239e-02 1.045358180999755859e+01 3.126358270645141602e+00 -3.025354444980621338e-01
9.180000000000000000e+02 7.814875030517578125e+01 6.495130062103271484e+00 -2.611459419131278992e-02 9.225804328918457031e+00 2.759907007217407227e+00 -7.989766597747802734e-01
9.190000000000000000e+02 7.939778137207031250e+01 5.435945510864257812e+00 1.003663428127765656e-02 1.117152976989746094e+01 3.354470014572143555e+00 -2.678349316120147705e-01
9.200000000000000000e+02 7.825852966308593750e+01 1.149412631988525391e+00 -2.202790379524230957e-01 1.103579807281494141e+01 3.244655609130859375e+00 -3.956363201141357422e-01
9.210000000000000000e+02 7.683895874023437500e+01 -4.398075103759765625e+00 -1.803952693939208984e+00 1.752350616455078125e+01 4.715866088867187500e+00 -2.210169076919555664e+00
9.220000000000000000e+02 7.834288787841796875e+01 -1.932085305452346802e-01 -5.034622550010681152e-01 1.141300964355468750e+01 3.272864103317260742e+00 3.101439028978347778e-02
9.230000000000000000e+02 7.787985992431640625e+01 -4.730728149414062500e+00 2.848698496818542480e-01 1.734049797058105469e+01 5.287610530853271484e+00 3.945339441299438477e+00
9.240000000000000000e+02 7.866677856445312500e+01 -5.627936363220214844e+00 3.194187641143798828e+00 1.046032714843750000e+01 4.096354484558105469e+00 2.965541839599609375e+00
9.250000000000000000e+02 7.745124816894531250e+01 -7.823941707611083984e+00 -1.895218372344970703e+00 1.768036270141601562e+01 4.735543251037597656e+00 -1.216552495956420898e+00
9.260000000000000000e+02 7.939219665527343750e+01 -1.521278858184814453e+01 -7.972633093595504761e-02 1.299568080902099609e+01 3.874786376953125000e+00 1.405424177646636963e-01
9.270000000000000000e+02 7.394754028320312500e+01 -1.702844238281250000e+01 -1.061329483985900879e+00 3.685651540756225586e+00 7.872965931892395020e-01 8.520165085792541504e-01
9.280000000000000000e+02 7.943060302734375000e+01 -1.802940940856933594e+01 -3.559319674968719482e-02 1.155129432678222656e+01 3.454710483551025391e+00 3.786319196224212646e-01
9.290000000000000000e+02 7.830379486083984375e+01 -1.920534133911132812e+01 -1.350049674510955811e-01 9.591684341430664062e+00 2.837003707885742188e+00 1.203172802925109863e+00
9.300000000000000000e+02 7.439632415771484375e+01 -2.328459548950195312e+01 1.324076175689697266e+00 8.629484176635742188e+00 2.986068010330200195e+00 1.655562400817871094e+00
9.310000000000000000e+02 7.805903625488281250e+01 -2.335712432861328125e+01 4.195124804973602295e-01 7.477150440216064453e+00 2.368998765945434570e+00 8.443095088005065918e-01
9.320000000000000000e+02 7.935250091552734375e+01 -2.500503349304199219e+01 1.026975065469741821e-01 6.999746322631835938e+00 2.130733013153076172e+00 1.337018460035324097e-01
9.330000000000000000e+02 7.943107604980468750e+01 -2.920734024047851562e+01 -1.978130452334880829e-02 6.748729228973388672e+00 2.018684387207031250e+00 1.104290131479501724e-02
9.340000000000000000e+02 7.794869232177734375e+01 -3.163117027282714844e+01 -2.203759364783763885e-02 6.138627052307128906e+00 1.834976911544799805e+00 2.122091203927993774e-01
9.350000000000000000e+02 7.931937408447265625e+01 -3.193162727355957031e+01 -9.394361637532711029e-03 6.519639968872070312e+00 1.953073620796203613e+00 6.728076934814453125e-02
9.360000000000000000e+02 7.917797851562500000e+01 -3.610647201538085938e+01 -2.147342823445796967e-02 6.053434371948242188e+00 1.809588313102722168e+00 9.479161351919174194e-02
9.370000000000000000e+02 7.914439392089843750e+01 -3.748796844482421875e+01 4.080244805663824081e-03 5.881385326385498047e+00 1.765639662742614746e+00 1.056173220276832581e-01
9.380000000000000000e+02 7.904939270019531250e+01 -3.884721374511718750e+01 7.051797118037939072e-03 5.718863964080810547e+00 1.717774748802185059e+00 9.615224599838256836e-02
9.390000000000000000e+02 7.875283813476562500e+01 -4.020043182373046875e+01 -5.222346261143684387e-02 5.551301002502441406e+00 1.649723291397094727e+00 1.379491239786148071e-01
9.400000000000000000e+02 2.721399688720703125e+01 4.103282165527343750e+01 3.212444186210632324e-01 -2.767181098461151123e-01 1.335788704454898834e-02 3.295775502920150757e-02
9.410000000000000000e+02 4.936927413940429688e+01 3.988599395751953125e+01 5.885422825813293457e-01 2.639277875423431396e-01 2.557410299777984619e-01 1.221586018800735474e-02
9.420000000000000000e+02 6.838443756103515625e+01 3.828886413574218750e+01 3.160248994827270508e-01 2.742062330245971680e+00 9.174261689186096191e-01 -1.982937753200531006e-01
9.430000000000000000e+02 3.867440521717071533e-01 2.192819595336914062e+00 1.614353852346539497e-03 1.521333772689104080e-02 5.048307590186595917e-03 -4.680271726101636887e-03
9.440000000000000000e+02 2.870816946029663086e+00 3.015275478363037109e+00 5.397751810960471630e-04 6.977332290261983871e-03 2.255132421851158142e-03 -2.361354418098926544e-02
9.450000000000000000e+02 5.425686240196228027e-01 9.190105438232421875e+00 -1.853174995630979538e-03 1.950833387672901154e-02 5.296547431498765945e-03 1.298380270600318909e-02
9.460000000000000000e+02 5.502633452415466309e-01 1.198282146453857422e+01 -2.153230598196387291e-03 -8.336055278778076172e-02 -2.565413527190685272e-02 2.514527551829814911e-02
9.470000000000000000e+02 6.190675497055053711e-01 1.627251243591308594e+01 4.881472792476415634e-03 -2.239722609519958496e-01 -6.572723388671875000e-02 1.090262643992900848e-02
9.480000000000000000e+02 6.016486287117004395e-01 1.770915794372558594e+01 4.811906721442937851e-03 -2.354883551597595215e-01 -6.920293718576431274e-02 -4.364278283901512623e-04
9.490000000000000000e+02 5.691963434219360352e-01 2.192544555664062500e+01 -4.406092688441276550e-03 -1.614750921726226807e-01 -4.976435378193855286e-02 -1.340132206678390503e-02
9.500000000000000000e+02 3.281463384628295898e+00 2.484169006347656250e+01 -6.701050698757171631e-02 -2.948317229747772217e-01 -1.085526719689369202e-01 2.467365935444831848e-02
9.510000000000000000e+02 3.835737466812133789e+00 2.552843284606933594e+01 -1.102742180228233337e-01 -3.539517521858215332e-01 -1.392678022384643555e-01 7.984978705644607544e-02
9.520000000000000000e+02 1.814661383628845215e+00 3.013681983947753906e+01 1.309141051024198532e-02 -3.938167691230773926e-01 -1.142176091670989990e-01 1.388720422983169556e-01
9.530000000000000000e+02 5.966786146163940430e-01 3.035958290100097656e+01 -2.485776785761117935e-03 -4.345351457595825195e-01 -1.311062723398208618e-01 4.795718565583229065e-02
9.540000000000000000e+02 3.496787071228027344e+00 3.075181388854980469e+01 2.818960323929786682e-02 -3.895553946495056152e-01 -1.084097400307655334e-01 1.619382947683334351e-01
9.550000000000000000e+02 6.765960454940795898e-01 3.595220184326171875e+01 8.016063831746578217e-03 -6.748907566070556641e-01 -2.000624090433120728e-01 -3.234877949580550194e-03
9.560000000000000000e+02 2.114991903305053711e+00 3.685734558105468750e+01 1.383640337735414505e-02 -5.365936756134033203e-01 -1.568271815776824951e-01 -1.904831081628799438e-02
9.570000000000000000e+02 9.532596468925476074e-01 3.870001220703125000e+01 4.401332698762416840e-03 -6.063753962516784668e-01 -1.805922091007232666e-01 -2.738379687070846558e-02
9.580000000000000000e+02 1.308236360549926758e+00 4.009426879882812500e+01 1.444586832076311111e-02 -5.571551918983459473e-01 -1.628127992153167725e-01 -4.232774674892425537e-02
9.590000000000000000e+02 9.480914115905761719e+00 1.878636837005615234e+00 3.460951521992683411e-02 -2.464474551379680634e-02 2.989430911839008331e-03 4.773834254592657089e-03
9.600000000000000000e+02 8.738996505737304688e+00 1.864142775535583496e+00 3.545936569571495056e-02 -1.451474614441394806e-02 6.283385679125785828e-03 -6.215892266482114792e-03
9.610000000000000000e+02 7.985988616943359375e+00 1.875998497009277344e+00 3.382988646626472473e-02 -1.306865178048610687e-02 6.228370591998100281e-03 -1.122067309916019440e-02
9.620000000000000000e+02 7.228321075439453125e+00 1.895998239517211914e+00 3.206999227404594421e-02 -5.074559710919857025e-03 8.098629303276538849e-03 -2.058325707912445068e-02
9.630000000000000000e+02 6.466969013214111328e+00 1.901421070098876953e+00 2.911085076630115509e-02 -4.807887598872184753e-03 7.290889043360948563e-03 -2.133309841156005859e-02
9.640000000000000000e+02 5.705931186676025391e+00 1.888340353965759277e+00 2.682467736303806305e-02 -1.000744290649890900e-03 7.747179828584194183e-03 -2.571282535791397095e-02
9.650000000000000000e+02 4.951272487640380859e+00 1.877359032630920410e+00 2.343380264937877655e-02 -1.797094941139221191e-03 6.491012405604124069e-03 -2.472529001533985138e-02
9.660000000000000000e+02 4.200839042663574219e+00 1.893626809120178223e+00 1.930647529661655426e-02 1.826090388931334019e-03 6.339769810438156128e-03 -2.663103491067886353e-02
9.670000000000000000e+02 3.451460599899291992e+00 1.943808197975158691e+00 1.554143894463777542e-02 1.989324577152729034e-03 5.259228870272636414e-03 -2.378790080547332764e-02
9.680000000000000000e+02 1.932401418685913086e+00 2.091022729873657227e+00 6.452952045947313309e-03 9.843800216913223267e-03 4.889025818556547165e-03 -1.840117014944553375e-02
9.690000000000000000e+02 1.160587787628173828e+00 2.153270244598388672e+00 3.945854026824235916e-03 1.253496482968330383e-02 4.944245796650648117e-03 -1.292959507554769516e-02
9.700000000000000000e+02 1.129766273498535156e+01 8.414786338806152344e+00 -2.618152797222137451e-01 -2.697547376155853271e-01 -1.594710052013397217e-01 2.706016898155212402e-01
9.710000000000000000e+02 1.224306011199951172e+01 2.327737331390380859e+00 -3.225852921605110168e-02 -1.489284262061119080e-02 -1.414541155099868774e-02 6.326343864202499390e-02
9.720000000000000000e+02 1.441662311553955078e+01 3.755212545394897461e+00 -1.930838972330093384e-01 -2.685529738664627075e-02 -6.598176062107086182e-02 2.131287008523941040e-01
9.730000000000000000e+02 1.447053241729736328e+01 2.925346612930297852e+00 -1.796046793460845947e-01 7.511434145271778107e-03 -5.162797495722770691e-02 1.590284556150436401e-01
9.740000000000000000e+02 1.526982402801513672e+01 3.069910526275634766e+00 -2.373669594526290894e-01 8.820077404379844666e-03 -6.856406480073928833e-02 1.826992928981781006e-01
9.750000000000000000e+02 1.851856231689453125e+01 4.203526020050048828e+00 -2.533743679523468018e-01 -9.708752855658531189e-03 -7.892493903636932373e-02 1.553061753511428833e-01
9.760000000000000000e+02 1.857424354553222656e+01 3.345378398895263672e+00 -3.793820440769195557e-01 -4.732224345207214355e-02 -1.280112862586975098e-01 1.501191556453704834e-01
9.770000000000000000e+02 2.021440124511718750e+01 3.089452266693115234e+00 -4.209325909614562988e-01 -9.013655781745910645e-02 -1.533207446336746216e-01 1.232331544160842896e-01
9.780000000000000000e+02 2.118095016479492188e+01 3.608138799667358398e+00 -3.223624825477600098e-01 -1.051490455865859985e-01 -1.282534599304199219e-01 1.352991908788681030e-01
9.790000000000000000e+02 2.252097129821777344e+01 2.477651596069335938e+00 -5.003446340560913086e-01 -7.341609150171279907e-02 -1.721282303333282471e-01 1.883809566497802734e-01
9.800000000000000000e+02 2.403457069396972656e+01 2.094340324401855469e+00 -5.324581861495971680e-01 -6.521047651767730713e-02 -1.793006062507629395e-01 2.084194421768188477e-01
9.810000000000000000e+02 2.478687477111816406e+01 1.887796521186828613e+00 -5.595217347145080566e-01 -5.026002228260040283e-02 -1.829345226287841797e-01 2.052865028381347656e-01
9.820000000000000000e+02 2.628708076477050781e+01 1.473299384117126465e+00 -6.044594049453735352e-01 3.024671692401170731e-03 -1.804304271936416626e-01 1.782069355249404907e-01
9.830000000000000000e+02 2.790557289123535156e+01 2.005676746368408203e+00 -5.372486114501953125e-01 1.375613212585449219e-01 -1.199061870574951172e-01 9.969114512205123901e-02
9.840000000000000000e+02 2.788195228576660156e+01 2.899492502212524414e+00 -3.918809592723846436e-01 1.754478514194488525e-01 -6.492993235588073730e-02 1.087981611490249634e-01
9.850000000000000000e+02 2.857980537414550781e+01 9.888468384742736816e-01 -6.599861979484558105e-01 1.273047029972076416e-01 -1.598044484853744507e-01 6.173864752054214478e-02
9.860000000000000000e+02 2.936956787109375000e+01 8.330079913139343262e-01 -6.855024099349975586e-01 1.651364266872406006e-01 -1.561097949743270874e-01 -1.188943069428205490e-02
9.870000000000000000e+02 3.014471435546875000e+01 6.348384022712707520e-01 -6.662173271179199219e-01 1.536801755428314209e-01 -1.537611335515975952e-01 -4.630253091454505920e-02
9.880000000000000000e+02 3.149392700195312500e+01 7.053549289703369141e-01 -7.199498414993286133e-01 9.862171858549118042e-02 -1.863984465599060059e-01 -1.394683718681335449e-01
9.890000000000000000e+02 3.315407562255859375e+01 1.853841423988342285e+00 -1.590310692787170410e+00 -1.152214035391807556e-01 -5.116596221923828125e-01 4.925813078880310059e-01
9.900000000000000000e+02 2.715677833557128906e+01 2.065303087234497070e+00 -5.100004076957702637e-01 8.885725587606430054e-02 -1.263429373502731323e-01 1.382434517145156860e-01
9.910000000000000000e+02 3.882321929931640625e+01 3.462762355804443359e+00 3.454110622406005859e-01 9.781400114297866821e-02 1.329675167798995972e-01 1.064877510070800781e-01
9.920000000000000000e+02 4.100855255126953125e+01 2.777424573898315430e+00 -1.053439378738403320e+00 6.782834418118000031e-03 -3.139969706535339355e-01 -2.892604470252990723e-01
9.930000000000000000e+02 4.182505798339843750e+01 2.460613965988159180e+00 -8.193594813346862793e-01 1.039104536175727844e-02 -2.426905333995819092e-01 -6.468541920185089111e-02
9.940000000000000000e+02 4.258264923095703125e+01 2.141755819320678711e+00 -7.887068390846252441e-01 1.283210818655788898e-03 -2.362270951271057129e-01 -2.872431650757789612e-02
9.950000000000000000e+02 4.393782043457031250e+01 1.574127554893493652e+00 -6.669302582740783691e-01 -9.383268654346466064e-03 -2.028940618038177490e-01 6.200887635350227356e-02
9.960000000000000000e+02 4.459630966186523438e+01 1.327587962150573730e+00 -6.082844138145446777e-01 -5.640729330480098724e-03 -1.841775476932525635e-01 9.191339462995529175e-02
9.970000000000000000e+02 4.700442886352539062e+01 1.850116014480590820e+00 -8.109524250030517578e-01 -5.633697658777236938e-02 -2.601868212223052979e-01 2.229769229888916016e-01
9.980000000000000000e+02 4.776828002929687500e+01 1.019372224807739258e+00 -7.713595032691955566e-01 -2.725319005548954010e-03 -2.322254329919815063e-01 1.876305639743804932e-01
9.990000000000000000e+02 4.951264572143554688e+01 1.418011188507080078e+00 -1.166528344154357910e+00 8.019370026886463165e-03 -3.475526869297027588e-01 3.922570347785949707e-01
1.000000000000000000e+03 5.493941116333007812e+01 2.497768402099609375e+00 -1.931444525718688965e+00 -7.183593511581420898e-02 -6.009840965270996094e-01 4.453822672367095947e-01
1.001000000000000000e+03 5.275320434570312500e+01 1.963445544242858887e+00 -1.965032935142517090e+00 -2.271463163197040558e-02 -5.963242650032043457e-01 5.988733172416687012e-01
1.002000000000000000e+03 5.553151321411132812e+01 1.808141112327575684e+00 -2.463159799575805664e+00 -7.330650836229324341e-02 -7.609398961067199707e-01 4.158652722835540771e-01
1.003000000000000000e+03 5.550167083740234375e+01 2.472986221313476562e+00 -1.940707445144653320e+00 -1.198446154594421387e-01 -6.181656122207641602e-01 4.084410369396209717e-01
1.004000000000000000e+03 5.520773315429687500e+01 3.084525108337402344e+00 -1.544894337654113770e+00 -6.430535763502120972e-02 -4.827598929405212402e-01 4.240723252296447754e-01
1.005000000000000000e+03 5.619928741455078125e+01 1.792503595352172852e+00 -2.381576061248779297e+00 -2.408017814159393311e-01 -7.867133021354675293e-01 4.856306910514831543e-01
1.006000000000000000e+03 6.091616439819335938e+01 -7.630665302276611328e-01 -1.619025230407714844e+00 1.554642170667648315e-01 -4.390683174133300781e-01 5.891057252883911133e-01
1.007000000000000000e+03 6.204181671142578125e+01 -1.418516516685485840e+00 -1.305682063102722168e+00 2.518512308597564697e-01 -3.161492347717285156e-01 3.823635280132293701e-01
1.008000000000000000e+03 6.530651092529296875e+01 -8.986017107963562012e-01 -1.591783404350280762e+00 2.181408107280731201e-01 -4.120927751064300537e-01 -5.074173584580421448e-02
1.009000000000000000e+03 6.445252990722656250e+01 -1.038879156112670898e+00 -1.504974484443664551e+00 2.023422718048095703e-01 -3.907896578311920166e-01 5.387486144900321960e-02
1.010000000000000000e+03 6.617617797851562500e+01 -7.487206459045410156e-01 -1.715014219284057617e+00 2.839088439941406250e-01 -4.293316304683685303e-01 -9.682059288024902344e-02
1.011000000000000000e+03 6.706480407714843750e+01 -6.084974408149719238e-01 -2.041205167770385742e+00 8.976529538631439209e-02 -5.854319930076599121e-01 -5.045993253588676453e-02
1.012000000000000000e+03 7.228630065917968750e+01 -1.191893458366394043e+00 -3.108611345291137695e+00 -4.174045920372009277e-01 -1.057804822921752930e+00 7.786332964897155762e-01
1.013000000000000000e+03 7.587239837646484375e+01 -4.417837142944335938e+00 9.556534290313720703e-01 8.691649436950683594e+00 2.894191026687622070e+00 -4.457257747650146484e+00
1.014000000000000000e+03 7.717225646972656250e+01 -7.648396015167236328e+00 -2.010809421539306641e+00 1.876890563964843750e+01 5.027428627014160156e+00 1.585392504930496216e-01
1.015000000000000000e+03 7.832947540283203125e+01 -6.710864067077636719e+00 2.820286989212036133e+00 1.302768135070800781e+01 4.754390239715576172e+00 -3.341675758361816406e+00
1.016000000000000000e+03 7.833954620361328125e+01 -5.808203697204589844e+00 5.501899719238281250e+00 1.277103519439697266e+01 5.481880664825439453e+00 1.442310094833374023e+00
1.017000000000000000e+03 7.801145935058593750e+01 -4.948228836059570312e+00 1.216175436973571777e+00 1.628751754760742188e+01 5.251108169555664062e+00 4.109485626220703125e+00
1.018000000000000000e+03 7.560643768310546875e+01 -8.277866363525390625e+00 1.259759366512298584e-01 8.514303207397460938e+00 2.592083692550659180e+00 3.377746820449829102e+00
1.019000000000000000e+03 7.535834503173828125e+01 -7.870584011077880859e+00 6.278845071792602539e-01 6.336572647094726562e+00 2.089337110519409180e+00 3.459887266159057617e+00
1.020000000000000000e+03 7.637747192382812500e+01 -7.718537330627441406e+00 -8.199287056922912598e-01 1.397577285766601562e+01 3.946753025054931641e+00 4.510935306549072266e+00
1.021000000000000000e+03 5.498588180541992188e+01 -2.324726104736328125e+01 -1.383203864097595215e-01 -4.231501519680023193e-01 -1.684411615133285522e-01 -1.627911627292633057e-01
1.022000000000000000e+03 7.356123352050781250e+01 -1.831464958190917969e+01 -1.107338547706604004e+00 2.891287565231323242e+00 5.351847410202026367e-01 6.306103467941284180e-01
1.023000000000000000e+03 6.508279418945312500e+01 -2.416599464416503906e+01 1.796270161867141724e-01 1.347211956977844238e+00 4.580516815185546875e-01 -4.585132002830505371e-01
1.024000000000000000e+03 3.986309814453125000e+01 -1.255079460144042969e+01 -4.081712663173675537e-01 1.073126271367073059e-01 -9.025759249925613403e-02 1.375612914562225342e-01
1.025000000000000000e+03 3.700272369384765625e+01 -1.032570266723632812e+01 1.028845310211181641e-01 6.483168601989746094e-01 2.253604233264923096e-01 -2.041520923376083374e-01
1.026000000000000000e+03 6.465243530273437500e+01 -3.937520217895507812e+01 1.006446123123168945e+00 1.036576867103576660e+00 6.129069328308105469e-01 3.209568560123443604e-01
1.027000000000000000e+03 5.563089370727539062e+01 -3.071515846252441406e+01 1.822654604911804199e-01 5.775319337844848633e-01 2.279392182826995850e-01 6.003926321864128113e-02
1.028000000000000000e+03 1.713460350036621094e+01 -1.633993530273437500e+01 6.506661884486675262e-04 2.994168782606720924e-03 1.093450468033552170e-03 -1.319584697484970093e-01
1.029000000000000000e+03 1.375085258483886719e+01 -2.769217109680175781e+01 -6.362619251012802124e-02 -2.849704921245574951e-01 -1.045790016651153564e-01 -1.473687142133712769e-01
1.030000000000000000e+03 7.801296234130859375e+00 -1.382191658020019531e+01 -8.126015961170196533e-02 -8.452995866537094116e-02 -4.973703250288963318e-02 -8.048015087842941284e-02
1.031000000000000000e+03 5.449811935424804688e+01 1.385416889190673828e+01 -6.538560986518859863e-02 -3.005754053592681885e-01 -1.097883060574531555e-01 8.891458809375762939e-02
1.032000000000000000e+03 4.282404708862304688e+01 4.698709011077880859e+00 -6.265783309936523438e-01 -2.328465431928634644e-01 -2.578274607658386230e-01 8.060030639171600342e-02
1.033000000000000000e+03 1.771010780334472656e+01 1.804697418212890625e+01 -4.294526278972625732e-01 -1.115051954984664917e-01 -1.622873544692993164e-01 1.820209175348281860e-01
1.034000000000000000e+03 1.949536705017089844e+01 4.134083271026611328e+00 -2.527917325496673584e-01 -7.096669077873229980e-02 -9.712751954793930054e-02 1.272676140069961548e-01
1.035000000000000000e+03 1.008400344848632812e+01 1.524174880981445312e+01 1.473527699708938599e-01 2.675330936908721924e-01 1.244657635688781738e-01 1.912918835878372192e-01
1.036000000000000000e+03 3.894967651367187500e+01 -1.859300231933593750e+01 2.719443738460540771e-01 7.840079069137573242e-01 3.167856931686401367e-01 -4.845393300056457520e-01
1.037000000000000000e+03 3.970890426635742188e+01 -2.111835289001464844e+01 1.213425546884536743e-01 2.031209468841552734e-01 9.733905643224716187e-02 -3.044562339782714844e-01
1.038000000000000000e+03 3.603477859497070312e+01 -2.844325065612792969e+01 -5.596425756812095642e-02 -1.326044648885726929e-01 -5.657061934471130371e-02 -1.598816961050033569e-01
1.039000000000000000e+03 3.033891868591308594e+01 -1.735007476806640625e+01 -2.691042423248291016e-01 -3.596954047679901123e-01 -1.886398941278457642e-01 -2.751370370388031006e-01
1.040000000000000000e+03 2.423211860656738281e+01 -3.002223014831542969e+01 8.712472021579742432e-02 -1.018336042761802673e-01 -4.412666428834199905e-03 -6.307793408632278442e-02
1.041000000000000000e+03 2.503037071228027344e+01 -3.632036590576171875e+01 -5.266369786113500595e-03 -4.539851844310760498e-01 -1.377754658460617065e-01 -5.473595112562179565e-02
1.042000000000000000e+03 1.917074203491210938e+01 -4.088795852661132812e+01 4.600433111190795898e-01 6.388844549655914307e-02 1.571795344352722168e-01 5.066857114434242249e-02
1.043000000000000000e+03 1.265561580657958984e+01 -3.373834228515625000e+01 -2.956246957182884216e-02 -3.182550966739654541e-01 -1.043452695012092590e-01 -6.780585646629333496e-02
1.044000000000000000e+03 1.293803882598876953e+01 -3.235258483886718750e+01 -6.162158027291297913e-02 -4.068994522094726562e-01 -1.405563205480575562e-01 -1.243055760860443115e-01
1.045000000000000000e+03 1.595860767364501953e+01 -2.739194297790527344e+01 -9.949551522731781006e-02 -2.316308766603469849e-01 -9.933792054653167725e-02 -1.604532301425933838e-01
1.046000000000000000e+03 1.347186088562011719e+01 3.479005813598632812e+01 1.546202003955841064e-01 -1.544072572141885757e-02 4.175384342670440674e-02 4.131789132952690125e-02
1.047000000000000000e+03 1.502962207794189453e+01 3.450441360473632812e+01 5.756315588951110840e-02 -5.569725111126899719e-02 5.597721901722252369e-04 6.315334141254425049e-02
1.048000000000000000e+03 1.946372222900390625e+01 3.104417610168457031e+01 -1.925913691520690918e-01 -6.740397810935974121e-01 -2.599893510341644287e-01 2.352294921875000000e-01
1.049000000000000000e+03 2.271946525573730469e+01 2.433911705017089844e+01 5.778037011623382568e-02 -1.327668279409408569e-01 -2.249593660235404968e-02 8.311387151479721069e-02
1.050000000000000000e+03 1.449480247497558594e+01 2.136878204345703125e+01 1.054064705967903137e-01 1.437890976667404175e-01 7.475867122411727905e-02 3.400416076183319092e-01
1.051000000000000000e+03 1.304563617706298828e+01 2.266572189331054688e+01 1.879531890153884888e-01 4.592027142643928528e-02 7.016204297542572021e-02 1.508566141128540039e-01
1.052000000000000000e+03 6.482155323028564453e+00 2.544036293029785156e+01 -2.426242083311080933e-01 -5.604756474494934082e-01 -2.409299463033676147e-01 3.013387322425842285e-01
1.053000000000000000e+03 7.211727142333984375e+01 1.659970283508300781e+01 1.254878997802734375e+00 6.163394927978515625e+00 2.225482225418090820e+00 -1.632648825645446777e+00
1.054000000000000000e+03 6.468869018554687500e+01 6.536797046661376953e+00 5.949833393096923828e-01 6.131222844123840332e-01 3.624317049980163574e-01 -5.083031654357910156e-01
1.055000000000000000e+03 6.114056396484375000e+01 1.059753131866455078e+01 5.878828167915344238e-01 1.886206507682800293e+00 7.422267794609069824e-01 -7.416437268257141113e-01
1.056000000000000000e+03 6.076944732666015625e+01 1.466588115692138672e+01 1.105812415480613708e-01 2.064515113830566406e+00 6.525288820266723633e-01 1.103958413004875183e-01
1.057000000000000000e+03 6.117784118652343750e+01 1.855394363403320312e+01 1.968017369508743286e-01 1.052165985107421875e+00 3.746903240680694580e-01 2.765761911869049072e-01
1.058000000000000000e+03 3.133043861389160156e+01 2.461588668823242188e+01 -3.714943826198577881e-01 -1.144878149032592773e+00 -4.549117684364318848e-01 5.051929354667663574e-01
1.059000000000000000e+03 3.242113494873046875e+01 1.679629707336425781e+01 4.474888443946838379e-01 2.712540626525878906e-01 2.156228721141815186e-01 4.664707779884338379e-01
1.060000000000000000e+03 2.809729957580566406e+01 1.505833530426025391e+01 -2.932029366493225098e-01 6.402208656072616577e-02 -6.875425577163696289e-02 1.725010573863983154e-01
1.061000000000000000e+03 2.217114257812500000e+01 2.172301101684570312e+01 -1.914590597152709961e-03 -4.565130174160003662e-01 -1.375282853841781616e-01 -7.328835316002368927e-03
1.062000000000000000e+03 2.257475090026855469e+01 2.696707153320312500e+01 3.488887846469879150e-01 7.364871352910995483e-02 1.267612576484680176e-01 3.845682442188262939e-01
1.063000000000000000e+03 4.781068420410156250e+01 3.018736457824707031e+01 3.547177463769912720e-02 2.953664660453796387e-01 9.925147145986557007e-02 6.561731547117233276e-02
1.064000000000000000e+03 4.613758468627929688e+01 2.625772857666015625e+01 5.059715732932090759e-02 3.163555860519409180e-01 1.100858226418495178e-01 1.635047197341918945e-01
1.065000000000000000e+03 4.349406814575195312e+01 2.244318580627441406e+01 7.392042875289916992e-01 3.314460813999176025e-01 3.211950957775115967e-01 4.081677496433258057e-01
1.066000000000000000e+03 3.588444137573242188e+01 2.524929237365722656e+01 -4.002272784709930420e-01 -7.326997518539428711e-01 -3.398781120777130127e-01 4.581815600395202637e-01
1.067000000000000000e+03 6.583585357666015625e+01 2.789050292968750000e+01 3.115338981151580811e-01 2.109512567520141602e+00 7.263139486312866211e-01 -2.714594006538391113e-01
1.068000000000000000e+03 5.970141601562500000e+01 2.350692176818847656e+01 3.539944589138031006e-01 1.224252060055732727e-01 1.429258882999420166e-01 2.020749449729919434e-01
1.069000000000000000e+03 5.510911941528320312e+01 3.367684555053710938e+01 4.762875735759735107e-01 7.345581650733947754e-01 3.632537126541137695e-01 5.833739638328552246e-01
1.070000000000000000e+03 4.748907470703125000e+01 -3.701183700561523438e+01 3.631133735179901123e-01 -5.155717581510543823e-02 9.346686303615570068e-02 3.810622915625572205e-02
1.071000000000000000e+03 4.120202636718750000e+01 -2.864387130737304688e+01 -1.888999156653881073e-02 -2.331851720809936523e-01 -7.562255114316940308e-02 -9.640329331159591675e-02
1.072000000000000000e+03 7.483088684082031250e+01 -7.833164691925048828e+00 -3.397559523582458496e-01 3.049021720886230469e+00 8.127797245979309082e-01 -3.706287443637847900e-01
1.073000000000000000e+03 7.514955902099609375e+01 -7.836739540100097656e+00 2.203056961297988892e-01 4.825608253479003906e+00 1.513774275779724121e+00 2.745444297790527344e+00
1.074000000000000000e+03 7.620028686523437500e+01 -4.092532634735107422e+00 -8.407422900199890137e-01 1.178332901000976562e+01 3.282776117324829102e+00 -3.523633956909179688e+00
1.075000000000000000e+03 7.775399017333984375e+01 -7.426341533660888672e+00 -3.646615147590637207e-01 1.767699813842773438e+01 5.193700790405273438e+00 -3.300077915191650391e+00
1.076000000000000000e+03 7.736656951904296875e+01 -7.553760051727294922e+00 -1.694886445999145508e+00 1.927726173400878906e+01 5.274712562561035156e+00 -1.312633514404296875e+00
1.077000000000000000e+03 7.869857025146484375e+01 -5.315817832946777344e+00 3.728919506072998047e+00 1.061825942993164062e+01 4.304153442382812500e+00 3.140248775482177734e+00
1.078000000000000000e+03 7.834091186523437500e+01 -6.014134407043457031e+00 5.809387683868408203e+00 1.195714473724365234e+01 5.329959869384765625e+00 -1.870490163564682007e-01
1.079000000000000000e+03 7.811724090576171875e+01 -7.133433818817138672e+00 1.660290360450744629e+00 1.502525234222412109e+01 5.005662918090820312e+00 -4.104083061218261719e+00
1.080000000000000000e+03 7.862366485595703125e+01 -6.153963565826416016e+00 5.349637031555175781e+00 1.115929031372070312e+01 4.952678203582763672e+00 -7.098959684371948242e-01
1.081000000000000000e+03 7.904407501220703125e+01 -6.405609607696533203e+00 2.054688930511474609e+00 7.140929698944091797e+00 2.758685588836669922e+00 -1.687095642089843750e+00
1.082000000000000000e+03 7.724609375000000000e+01 -4.444249629974365234e+00 -1.809316635131835938e+00 1.846204948425292969e+01 4.995820045471191406e+00 6.872317194938659668e-01
1.083000000000000000e+03 7.704068756103515625e+01 -4.415742397308349609e+00 -1.952063679695129395e+00 1.829016304016113281e+01 4.901429653167724609e+00 -7.937751412391662598e-01
1.084000000000000000e+03 7.949546051025390625e+01 -1.434287548065185547e+00 -2.219338566064834595e-01 1.275545597076416016e+01 3.760056734085083008e+00 4.892164170742034912e-01
1.085000000000000000e+03 7.831537628173828125e+01 -5.587239742279052734e+00 4.962938308715820312e+00 1.281202602386474609e+01 5.332489490509033203e+00 2.803032159805297852e+00
1.086000000000000000e+03 7.746029663085937500e+01 -4.482633113861083984e+00 -1.219246387481689453e+00 1.810859107971191406e+01 5.066802978515625000e+00 2.116360425949096680e+00
1.087000000000000000e+03 7.847250366210937500e+01 -7.348728179931640625e+00 1.027607321739196777e+00 1.334457111358642578e+01 4.311653614044189453e+00 -4.189688682556152344e+00
1.088000000000000000e+03 7.780892181396484375e+01 -7.790755271911621094e+00 -1.457126021385192871e+00 1.641807365417480469e+01 4.488284587860107422e+00 -2.662929773330688477e+00
1.089000000000000000e+03 7.952283477783203125e+01 -9.432202339172363281e+00 -1.972535550594329834e-01 1.083602905273437500e+01 3.191632509231567383e+00 -1.088604688644409180e+00
1.090000000000000000e+03 7.659996032714843750e+01 -4.161239147186279297e+00 -1.674203038215637207e+00 1.493656158447265625e+01 3.978707551956176758e+00 -2.822643518447875977e+00
1.091000000000000000e+03 7.599546051025390625e+01 -7.774479866027832031e+00 -4.111886024475097656e-02 1.039632701873779297e+01 3.106562376022338867e+00 4.498566150665283203e+00
1.092000000000000000e+03 7.557521057128906250e+01 -7.863205909729003906e+00 5.818964242935180664e-01 7.031550407409667969e+00 2.284034013748168945e+00 3.717668056488037109e+00
1.093000000000000000e+03 7.626531982421875000e+01 -4.399165153503417969e+00 -3.899519741535186768e-01 1.296534824371337891e+01 3.772619009017944336e+00 -4.148202896118164062e+00
1.094000000000000000e+03 7.565073394775390625e+01 -4.053747653961181641e+00 3.794932067394256592e-01 7.442633628845214844e+00 2.346637964248657227e+00 -3.296184539794921875e+00
1.095000000000000000e+03 7.544902801513671875e+01 -4.493421554565429688e+00 1.597262382507324219e+00 5.394641876220703125e+00 2.097571372985839844e+00 -3.529918193817138672e+00
1.096000000000000000e+03 7.525523376464843750e+01 -4.489623546600341797e+00 1.529110670089721680e+00 3.999687910079956055e+00 1.658639550209045410e+00 -2.927121162414550781e+00
1.097000000000000000e+03 7.543863677978515625e+01 -9.704382896423339844e+00 3.975271284580230713e-01 8.587741851806640625e+00 2.695580720901489258e+00 1.554423689842224121e+00
1.098000000000000000e+03 7.611824798583984375e+01 -1.067017841339111328e+01 -8.706530332565307617e-01 8.769580841064453125e+00 2.369678258895874023e+00 1.933713406324386597e-01
1.099000000000000000e+03 7.618190765380859375e+01 -7.737520694732666016e+00 -4.448530972003936768e-01 1.225834846496582031e+01 3.544048547744750977e+00 4.528188705444335938e+00
1.100000000000000000e+03 7.565703582763671875e+01 -4.445738792419433594e+00 1.205829858779907227e+00 7.037117004394531250e+00 2.472883939743041992e+00 -3.999870538711547852e+00
1.101000000000000000e+03 7.421697998046875000e+01 -4.243222713470458984e+00 5.388367772102355957e-01 8.104027509689331055e-01 4.047718644142150879e-01 -6.670315861701965332e-01
1.102000000000000000e+03 7.595592498779296875e+01 -3.981504678726196289e+00 -5.119852423667907715e-01 1.000331974029541016e+01 2.847400426864624023e+00 -3.335439682006835938e+00
1.103000000000000000e+03 7.646221160888671875e+01 -4.390367984771728516e+00 -1.012058258056640625e+00 1.493854427337646484e+01 4.177945613861083984e+00 -3.856269836425781250e+00
1.104000000000000000e+03 6.280530929565429688e+01 -1.001457881927490234e+01 -1.651808500289916992e+00 4.956744313240051270e-01 -3.468402326107025146e-01 2.949625067412853241e-02
1.105000000000000000e+03 5.957963562011718750e+01 2.374434471130371094e-01 -2.262191772460937500e+00 1.252119429409503937e-02 -6.749011278152465820e-01 4.766737222671508789e-01
1.106000000000000000e+03 6.073824691772460938e+01 -1.568458676338195801e+00 -1.058499574661254883e+00 -1.762509904801845551e-02 -3.228374123573303223e-01 5.356054306030273438e-01
1.107000000000000000e+03 4.005295181274414062e+01 -1.014264941215515137e+00 -1.594313979148864746e-01 -3.915041685104370117e-02 -5.957454070448875427e-02 1.058522760868072510e-01
1.108000000000000000e+03 4.229748153686523438e+01 -3.496177434921264648e+00 -1.050376892089843750e+00 -1.251892745494842529e-01 -3.526698350906372070e-01 1.888603270053863525e-01
1.109000000000000000e+03 3.762709045410156250e+01 -2.658158063888549805e+00 -3.774522840976715088e-01 1.341742128133773804e-01 -7.298342138528823853e-02 3.465100377798080444e-02
1.110000000000000000e+03 4.064807510375976562e+01 -1.777618050575256348e+00 -2.728083133697509766e-01 -7.753393054008483887e-02 -1.051026731729507446e-01 9.406279772520065308e-02
1.111000000000000000e+03 6.278792572021484375e+01 -1.301003456115722656e+00 -1.402763605117797852e+00 2.418309152126312256e-01 -3.482798039913177490e-01 2.813782691955566406e-01
1.112000000000000000e+03 6.148686218261718750e+01 -7.833353281021118164e-01 -1.514475584030151367e+00 2.660052776336669922e-01 -3.745410740375518799e-01 4.815079867839813232e-01
1.113000000000000000e+03 5.295781707763671875e+01 6.293260574340820312e+00 7.171761989593505859e-01 6.988785266876220703e-01 4.248164296150207520e-01 6.681929826736450195e-01
1.114000000000000000e+03 5.764682388305664062e+01 2.618576526641845703e+00 -1.587273359298706055e+00 -3.588483631610870361e-01 -5.838364958763122559e-01 1.809326857328414917e-01
1.115000000000000000e+03 5.277854919433593750e+01 2.704605817794799805e+00 -1.666789293289184570e+00 8.113106340169906616e-02 -4.756974875926971436e-01 6.948480010032653809e-01
1.116000000000000000e+03 5.458145141601562500e+01 4.363263607025146484e+00 -9.424128532409667969e-01 1.793553978204727173e-01 -2.289172261953353882e-01 4.301268756389617920e-01
1.117000000000000000e+03 5.357088088989257812e+01 2.701474905014038086e+00 -1.735432505607604980e+00 -2.280628122389316559e-02 -5.274716019630432129e-01 5.871309638023376465e-01
1.118000000000000000e+03 5.351123809814453125e+01 1.991199016571044922e+00 -2.093930721282958984e+00 -8.203890919685363770e-02 -6.527908444404602051e-01 5.171407461166381836e-01
1.119000000000000000e+03 5.098529815673828125e+01 -2.278904914855957031e+00 -6.958440691232681274e-02 -2.038947679102420807e-02 -2.699216641485691071e-02 8.278826624155044556e-02
1.120000000000000000e+03 5.295568466186523438e+01 -3.096026897430419922e+00 -2.280866540968418121e-02 -4.757567495107650757e-02 -2.111530303955078125e-02 2.165650390088558197e-02
1.121000000000000000e+03 4.532247543334960938e+01 1.142397284507751465e+00 -6.079717278480529785e-01 -1.585726812481880188e-02 -1.871487051248550415e-01 9.614431113004684448e-02
1.122000000000000000e+03 4.489154052734375000e+01 2.106380939483642578e+00 -7.384231090545654297e-01 -4.021983593702316284e-02 -2.335928827524185181e-01 1.077391952276229858e-01
1.123000000000000000e+03 4.508945083618164062e+01 4.308217525482177734e+00 -9.145286083221435547e-01 -1.952251046895980835e-01 -3.329261243343353271e-01 2.250113934278488159e-01
1.124000000000000000e+03 1.287932300567626953e+01 2.533776283264160156e+00 -7.060591131448745728e-02 -1.540292333811521530e-02 -2.580264955759048462e-02 9.015382826328277588e-02
1.125000000000000000e+03 1.237080192565917969e+01 2.969860792160034180e+00 -7.935562729835510254e-02 -2.975554578006267548e-02 -3.273335099220275879e-02 8.940058946609497070e-02
1.126000000000000000e+03 1.085864830017089844e+01 2.888930797576904297e+00 -4.048991575837135315e-02 -3.414801135659217834e-02 -2.239137887954711914e-02 3.986028581857681274e-02
1.127000000000000000e+03 1.168116474151611328e+01 4.743227481842041016e+00 -1.531714648008346558e-01 -1.152813136577606201e-01 -8.053582906723022461e-02 1.054307073354721069e-01
1.128000000000000000e+03 1.017392444610595703e+01 2.719316720962524414e+00 -1.951671577990055084e-02 -4.356495663523674011e-02 -1.892450265586376190e-02 2.274581976234912872e-02
1.129000000000000000e+03 1.585381412506103516e+01 -8.466553688049316406e-01 -6.578443199396133423e-02 -4.538242891430854797e-02 -3.335005789995193481e-02 -1.902396418154239655e-02
1.130000000000000000e+03 1.281950473785400391e+01 -1.319689631462097168e+00 -4.545113444328308105e-02 -3.662051633000373840e-02 -2.462149411439895630e-02 -4.213117808103561401e-02
1.131000000000000000e+03 1.457723331451416016e+01 -3.870816469192504883e+00 3.838821139652282000e-04 1.371959876269102097e-02 4.231044091284275055e-03 -2.932146377861499786e-02
1.132000000000000000e+03 1.678346061706542969e+01 -2.981979370117187500e+00 -1.686308067291975021e-03 4.797979071736335754e-02 1.388804521411657333e-02 1.351381745189428329e-02
1.133000000000000000e+03 6.723665714263916016e+00 -2.601749897003173828e+00 -4.994080401957035065e-03 -4.636298690456897020e-04 -1.637313049286603928e-03 -9.356421418488025665e-03
1.134000000000000000e+03 1.565349221229553223e+00 -7.840145587921142578e+00 1.028695609420537949e-03 1.588746672496199608e-03 7.852326962165534496e-04 4.527605604380369186e-03
1.135000000000000000e+03 8.879459381103515625e+00 -3.367166757583618164e+00 -5.576663650572299957e-03 -7.109497673809528351e-03 -3.805848304182291031e-03 -2.388770692050457001e-02
1.136000000000000000e+03 8.945176124572753906e+00 -2.603095293045043945e+00 -1.665834710001945496e-02 -2.431658469140529633e-02 -1.229247916489839554e-02 -3.081095777451992035e-02
1.137000000000000000e+03 8.194142341613769531e+00 -2.601493835449218750e+00 -9.910656139254570007e-03 -7.817650912329554558e-04 -3.207726171240210533e-03 -1.762207224965095520e-02
1.138000000000000000e+03 6.114295959472656250e+00 -1.853786110877990723e+00 -5.027638282626867294e-03 4.903899505734443665e-03 -3.712164834723807871e-05 -4.532202612608671188e-03
1.139000000000000000e+03 7.454121112823486328e+00 -2.595577001571655273e+00 -1.022632420063018799e-02 -1.956284232437610626e-02 -8.936750702559947968e-03 -2.228722907602787018e-02
1.140000000000000000e+03 4.731937885284423828e+00 -2.412644386291503906e+00 -3.051140345633029938e-03 -8.627454750239849091e-03 -3.503578482195734978e-03 -7.024033926427364349e-03
1.141000000000000000e+03 1.572601437568664551e+00 -6.530163764953613281e+00 1.098163658753037453e-03 1.376911532133817673e-03 7.425225339829921722e-04 3.422765294089913368e-03
1.142000000000000000e+03 2.628607273101806641e+00 -7.831805706024169922e+00 4.021260887384414673e-03 -8.704310283064842224e-03 -1.404914772137999535e-03 5.134018138051033020e-03
1.143000000000000000e+03 3.865739703178405762e-01 -2.182116985321044922e+00 -5.909976898692548275e-04 1.638416666537523270e-03 3.142257046420127153e-04 3.428380878176540136e-04
1.144000000000000000e+03 5.011906623840332031e-01 -3.581618547439575195e+00 6.715116905979812145e-04 2.605167450383305550e-03 9.830037597566843033e-04 6.098045269027352333e-04
1.145000000000000000e+03 1.143007040023803711e+00 -2.095848321914672852e+00 8.957575482781976461e-05 -3.150339762214571238e-05 1.742170752550009638e-05 8.401843952015042305e-04
1.146000000000000000e+03 5.596450567245483398e-01 -5.033236026763916016e+00 -2.838226209860295057e-04 4.994098562747240067e-03 1.413082820363342762e-03 1.043065567500889301e-03
1.147000000000000000e+03 7.249796295166015625e+01 2.851825952529907227e+00 4.542186483740806580e-02 2.098312377929687500e+00 6.431202292442321777e-01 -7.868656516075134277e-01
1.148000000000000000e+03 6.712448883056640625e+01 4.172402024269104004e-01 -1.568528652191162109e+00 1.100028231739997864e-01 -4.375577569007873535e-01 1.187634021043777466e-01
1.149000000000000000e+03 9.503693580627441406e+00 2.596276760101318359e+00 -9.298603050410747528e-03 -2.812387607991695404e-02 -1.122674439102411270e-02 4.257227759808301926e-03
1.150000000000000000e+03 8.072109222412109375e+00 2.613684654235839844e+00 -1.376980682834982872e-03 -1.828061416745185852e-02 -5.897278897464275360e-03 -1.378904748708009720e-02
1.151000000000000000e+03 7.312187671661376953e+00 2.689803123474121094e+00 -2.945751650258898735e-03 -1.384767889976501465e-02 -5.038029048591852188e-03 -1.646544411778450012e-02
1.152000000000000000e+03 6.522558212280273438e+00 2.708504199981689453e+00 -8.243010961450636387e-04 -6.089701782912015915e-03 -2.074200892820954323e-03 -2.415642701089382172e-02
1.153000000000000000e+03 5.739653587341308594e+00 2.650736808776855469e+00 1.387728843837976456e-03 -5.228092428296804428e-03 -1.152109005488455296e-03 -2.446980960667133331e-02
1.154000000000000000e+03 1.640997648239135742e+00 7.621839046478271484e+00 -1.363621000200510025e-02 1.573367230594158173e-02 6.292383186519145966e-04 1.925384439527988434e-02
1.155000000000000000e+03 5.019022941589355469e+00 3.222401380538940430e+00 -1.112981606274843216e-02 -1.939132227562367916e-03 -3.920684568583965302e-03 -2.309046126902103424e-02
1.156000000000000000e+03 1.263769745826721191e+00 3.466299295425415039e+00 -6.360963452607393265e-04 2.410354092717170715e-02 7.040233816951513290e-03 -1.631508022546768188e-02
1.157000000000000000e+03 2.696834087371826172e+00 2.015245437622070312e+00 1.173680741339921951e-02 5.989202763885259628e-03 5.317803006619215012e-03 -2.348090708255767822e-02
1.158000000000000000e+03 2.090187311172485352e+00 3.264210224151611328e+00 1.223979284986853600e-03 1.537748798727989197e-02 4.980440251529216766e-03 -2.257608436048030853e-02
1.159000000000000000e+03 1.897469520568847656e+01 -1.028856992721557617e+00 2.039976231753826141e-02 4.660922288894653320e-02 2.010269649326801300e-02 1.736272871494293213e-02
1.160000000000000000e+03 3.572290039062500000e+01 -1.600275516510009766e+00 -2.733042836189270020e-01 6.065972149372100830e-02 -6.379337608814239502e-02 -2.011860720813274384e-02
1.161000000000000000e+03 3.741080474853515625e+01 -3.392391920089721680e+00 -3.484446108341217041e-01 1.748310923576354980e-01 -5.208405107259750366e-02 -2.189102955162525177e-02
1.162000000000000000e+03 3.455944824218750000e+01 -2.913884401321411133e+00 -2.148087769746780396e-01 5.908435210585594177e-02 -4.671732708811759949e-02 -1.213049069046974182e-01
1.163000000000000000e+03 3.979021453857421875e+01 -3.459682941436767578e+00 -6.364029645919799805e-01 -1.408455520868301392e-02 -1.951462477445602417e-01 -8.721777051687240601e-02
1.164000000000000000e+03 3.797393798828125000e+01 -8.031072020530700684e-01 -2.014802396297454834e-01 5.229419469833374023e-02 -4.475581273436546326e-02 7.225582748651504517e-02
1.165000000000000000e+03 3.825606536865234375e+01 -1.655605077743530273e+00 -3.108259141445159912e-01 5.410157144069671631e-02 -7.701730728149414062e-02 8.926388621330261230e-02
1.166000000000000000e+03 3.271781539916992188e+01 -2.787103652954101562e+00 -1.786301136016845703e-01 -7.250770181417465210e-02 -7.534134387969970703e-02 -9.539131820201873779e-02
1.167000000000000000e+03 3.692918395996093750e+01 -6.894448757171630859e+00 -1.100897230207920074e-02 5.334984660148620605e-01 1.567468494176864624e-01 -5.969605222344398499e-02
1.168000000000000000e+03 1.608416175842285156e+01 3.161912441253662109e+00 -2.912483215332031250e-01 2.354114688932895660e-02 -8.031214773654937744e-02 1.860857009887695312e-01
1.169000000000000000e+03 1.274586391448974609e+01 4.687301635742187500e+00 -1.659503877162933350e-01 -9.452150017023086548e-02 -7.814156264066696167e-02 1.449951380491256714e-01
1.170000000000000000e+03 1.352838134765625000e+01 3.668398141860961914e+00 -1.436510533094406128e-01 -4.414821788668632507e-02 -5.633978173136711121e-02 1.612842828035354614e-01
1.171000000000000000e+03 1.613877105712890625e+01 3.963757276535034180e+00 -2.657635807991027832e-01 2.011790499091148376e-02 -7.369370013475418091e-02 2.225357741117477417e-01
1.172000000000000000e+03 1.160003662109375000e+01 3.003921747207641602e+00 -6.337641179561614990e-02 -4.577941820025444031e-02 -3.274675086140632629e-02 6.285834312438964844e-02
1.173000000000000000e+03 2.780694770812988281e+01 1.136783480644226074e+00 -6.352466344833374023e-01 7.942267507314682007e-02 -1.667471826076507568e-01 9.726127237081527710e-02
1.174000000000000000e+03 2.099240303039550781e+01 2.868482828140258789e+00 -4.655548036098480225e-01 -7.568456232547760010e-02 -1.623717993497848511e-01 1.461676955223083496e-01
1.175000000000000000e+03 2.038647079467773438e+01 3.911744356155395508e+00 -2.819344401359558105e-01 -8.766457438468933105e-02 -1.108797043561935425e-01 1.323725283145904541e-01
1.176000000000000000e+03 2.659915733337402344e+01 2.887990474700927734e+00 -3.812846541404724121e-01 5.943514034152030945e-02 -9.655486047267913818e-02 1.694477945566177368e-01
1.177000000000000000e+03 2.498888206481933594e+01 2.687385559082031250e+00 -4.138606488704681396e-01 -3.742872178554534912e-02 -1.353868097066879272e-01 1.941721737384796143e-01
1.178000000000000000e+03 2.879464912414550781e+01 5.316927909851074219e+00 4.482649266719818115e-02 4.925344586372375488e-01 1.612082868814468384e-01 3.416566643863916397e-03
1.179000000000000000e+03 2.194678497314453125e+01 3.419875144958496094e+00 -3.564591705799102783e-01 -9.056282788515090942e-02 -1.341066062450408936e-01 1.590649783611297607e-01
1.180000000000000000e+03 2.270992469787597656e+01 3.270275831222534180e+00 -3.581827878952026367e-01 -9.270176291465759277e-02 -1.352653652429580688e-01 1.711986064910888672e-01
1.181000000000000000e+03 2.327943992614746094e+01 2.290067195892333984e+00 -5.188736319541931152e-01 -7.750829309225082397e-02 -1.789145916700363159e-01 1.972086429595947266e-01
1.182000000000000000e+03 2.423943328857421875e+01 2.920184850692749023e+00 -3.965015113353729248e-01 -6.109505146741867065e-02 -1.372789591550827026e-01 1.884135007858276367e-01
1.183000000000000000e+03 2.347745323181152344e+01 3.112395763397216797e+00 -3.722514212131500244e-01 -7.806403934955596924e-02 -1.350946426391601562e-01 1.887451708316802979e-01
1.184000000000000000e+03 3.083937644958496094e+01 5.353817343711853027e-01 -7.135594487190246582e-01 1.990934461355209351e-01 -1.543398052453994751e-01 -8.688139915466308594e-02
1.185000000000000000e+03 2.989814949035644531e+01 4.867716312408447266e+00 8.588042855262756348e-02 4.280558526515960693e-01 1.541808843612670898e-01 -1.626788079738616943e-01
1.186000000000000000e+03 2.869796371459960938e+01 1.957072615623474121e+00 -5.389961004257202148e-01 1.791752427816390991e-01 -1.079462692141532898e-01 5.221302807331085205e-02
1.187000000000000000e+03 2.074701690673828125e+01 4.577879428863525391e+00 -1.938005983829498291e-01 -1.000372245907783508e-01 -8.815134316682815552e-02 1.207472011446952820e-01
1.188000000000000000e+03 3.188907623291015625e+01 1.499189496040344238e+00 -8.574689626693725586e-01 1.557837873697280884e-01 -2.105055451393127441e-01 1.069735456258058548e-02
1.189000000000000000e+03 3.172475624084472656e+01 3.209393978118896484e+00 -2.115426808595657349e-01 3.222822770476341248e-02 -5.379433557391166687e-02 6.124339997768402100e-02
1.190000000000000000e+03 1.768363761901855469e+01 5.561171054840087891e+00 -1.092668399214744568e-01 8.425819873809814453e-02 -7.502591237425804138e-03 1.603018492460250854e-01
1.191000000000000000e+03 1.420921897888183594e+01 -2.011654853820800781e+00 -3.622967377305030823e-02 2.435777336359024048e-02 -3.561569843441247940e-03 -1.737306825816631317e-02
1.192000000000000000e+03 1.049230670928955078e+01 -2.485219955444335938e+00 -2.373846620321273804e-02 -2.913671918213367462e-02 -1.586255617439746857e-02 -3.916881605982780457e-02
1.193000000000000000e+03 1.272568321228027344e+01 -2.064454555511474609e+00 -3.447648510336875916e-02 1.184509322047233582e-02 -6.789417006075382233e-03 -2.186969667673110962e-02
1.194000000000000000e+03 1.602535247802734375e+01 -5.408496379852294922e+00 -2.794590312987565994e-03 5.013921484351158142e-02 1.420338731259107590e-02 7.426991127431392670e-03
1.195000000000000000e+03 4.090892791748046875e+01 -2.497548580169677734e+00 -5.593864917755126953e-01 -1.746689826250076294e-01 -2.202166467905044556e-01 1.493480652570724487e-01
1.196000000000000000e+03 4.405036544799804688e+01 -3.303448677062988281e+00 -5.671260952949523926e-01 1.467181462794542313e-02 -1.657362729310989380e-01 5.897655710577964783e-02
1.197000000000000000e+03 5.070584487915039062e+01 3.396085262298583984e+00 -1.266364097595214844e+00 -6.524892896413803101e-02 -3.994839191436767578e-01 8.824213743209838867e-01
1.198000000000000000e+03 5.031272125244140625e+01 2.540629148483276367e+00 -1.322806715965270996e+00 -8.970496803522109985e-02 -4.237534999847412109e-01 7.705522179603576660e-01
1.199000000000000000e+03 5.035144424438476562e+01 1.583385109901428223e+00 -1.365884780883789062e+00 1.803617365658283234e-02 -4.043546020984649658e-01 4.927363097667694092e-01
1.200000000000000000e+03 5.110797882080078125e+01 2.641882896423339844e+00 -1.419008731842041016e+00 3.817701339721679688e-02 -4.142495393753051758e-01 8.308686614036560059e-01
1.201000000000000000e+03 4.772439956665039062e+01 -6.916944980621337891e+00 -9.654208272695541382e-02 4.061765670776367188e-01 9.289034456014633179e-02 8.156330138444900513e-02
1.202000000000000000e+03 5.035754394531250000e+01 -4.322784423828125000e+00 -2.036191970109939575e-01 -6.193114072084426880e-02 -7.966510206460952759e-02 2.652370035648345947e-01
1.203000000000000000e+03 5.222760009765625000e+01 -3.861176490783691406e+00 -5.613267049193382263e-02 -1.475538611412048340e-01 -6.110595911741256714e-02 7.462938129901885986e-02
1.204000000000000000e+03 4.949357604980468750e+01 -3.486328601837158203e+00 -2.164611071348190308e-01 3.512666095048189163e-03 -6.388453394174575806e-02 1.947645843029022217e-01
1.205000000000000000e+03 3.080706214904785156e+01 4.059343338012695312e+00 5.719581968151032925e-04 9.693524986505508423e-02 2.925216220319271088e-02 -6.704621016979217529e-02
1.206000000000000000e+03 3.028857231140136719e+01 3.296443939208984375e+00 -3.284475207328796387e-01 2.788795828819274902e-01 -1.487038377672433853e-02 -2.038845978677272797e-02
1.207000000000000000e+03 1.766164207458496094e+01 4.076653003692626953e+00 -2.782790660858154297e-01 2.898201905190944672e-02 -7.478911429643630981e-02 1.843373626470565796e-01
1.208000000000000000e+03 1.719091987609863281e+01 4.653048992156982422e+00 -2.487704902887344360e-01 5.154117569327354431e-02 -5.916879326105117798e-02 2.080738842487335205e-01
1.209000000000000000e+03 1.512551879882812500e+01 6.609724044799804688e+00 -1.870440244674682617e-01 1.030779350548982620e-02 -5.302087217569351196e-02 1.035126149654388428e-01
1.210000000000000000e+03 4.627341842651367188e+01 1.838160634040832520e+00 -7.635855674743652344e-01 -5.275154113769531250e-02 -2.449011355638504028e-01 1.763941049575805664e-01
1.211000000000000000e+03 4.863408660888671875e+01 1.210574865341186523e+00 -9.477766752243041992e-01 -2.231130190193653107e-02 -2.910264134407043457e-01 2.847461700439453125e-01
1.212000000000000000e+03 4.507644271850585938e+01 -3.785042047500610352e+00 -4.708404242992401123e-01 2.047853171825408936e-02 -1.351085603237152100e-01 6.341328471899032593e-02
1.213000000000000000e+03 4.581757354736328125e+01 -5.535139560699462891e+00 -2.416446954011917114e-01 -3.619588911533355713e-02 -8.335217088460922241e-02 1.047473400831222534e-01
1.214000000000000000e+03 4.474071121215820312e+01 -4.744901657104492188e+00 -4.348273277282714844e-01 -8.470884710550308228e-02 -1.558608561754226685e-01 1.891988813877105713e-01
1.215000000000000000e+03 4.800081253051757812e+01 -4.639718532562255859e+00 -3.017625510692596436e-01 1.782978326082229614e-01 -3.703941404819488525e-02 1.487479507923126221e-01
1.216000000000000000e+03 6.516030120849609375e+01 7.121140956878662109e-01 -1.494111180305480957e+00 3.271763324737548828e-01 -3.500804603099822998e-01 1.108535975217819214e-01
1.217000000000000000e+03 5.846297073364257812e+01 2.670757293701171875e+00 -1.536398768424987793e+00 -2.147987335920333862e-01 -5.253592133522033691e-01 7.024090737104415894e-02
1.218000000000000000e+03 6.517227172851562500e+01 2.175152778625488281e+00 -1.064319849014282227e+00 3.014613986015319824e-01 -2.288575470447540283e-01 3.598060831427574158e-02
1.219000000000000000e+03 6.526159667968750000e+01 -6.479007005691528320e-02 -1.560482382774353027e+00 3.325484097003936768e-01 -3.683801889419555664e-01 9.181916713714599609e-03
1.220000000000000000e+03 6.017111968994140625e+01 3.293702900409698486e-01 -2.037831544876098633e+00 1.084985285997390747e-01 -5.787999629974365234e-01 4.216886162757873535e-01
1.221000000000000000e+03 6.212448883056640625e+01 -6.925500035285949707e-01 -1.540620684623718262e+00 3.212516307830810547e-01 -3.658106923103332520e-01 3.723215460777282715e-01
1.222000000000000000e+03 6.528668212890625000e+01 -5.972124576568603516e+00 -3.347955644130706787e-02 5.204278975725173950e-02 5.568970460444688797e-03 1.792939938604831696e-02
1.223000000000000000e+03 6.242711639404296875e+01 -5.273220539093017578e+00 1.462511345744132996e-02 -3.024884499609470367e-03 3.480068640783429146e-03 4.256475716829299927e-02
1.224000000000000000e+03 6.451222229003906250e+01 -5.466767311096191406e+00 -2.291087061166763306e-02 1.428583543747663498e-02 -2.587510505691170692e-03 -3.372829407453536987e-02
1.225000000000000000e+03 3.299466705322265625e+01 -3.614868640899658203e+00 -1.323998868465423584e-01 -3.833959624171257019e-02 -5.122184380888938904e-02 -1.486065089702606201e-01
1.226000000000000000e+03 3.209085083007812500e+01 -3.949286699295043945e+00 -6.920941919088363647e-02 -1.267143338918685913e-01 -5.877712368965148926e-02 -1.238563135266304016e-01
1.227000000000000000e+03 3.108881759643554688e+01 -4.232305526733398438e+00 -2.621626108884811401e-02 -1.524433344602584839e-01 -5.359788239002227783e-02 -1.418074071407318115e-01
1.228000000000000000e+03 1.814307594299316406e+01 -1.994044303894042969e+00 3.675976395606994629e-02 1.108466535806655884e-01 4.428192600607872009e-02 6.298838183283805847e-03
1.229000000000000000e+03 1.501414299011230469e+01 -1.979867339134216309e+00 -2.355504781007766724e-02 -3.065127320587635040e-02 -1.626189611852169037e-02 -4.191827774047851562e-02
1.230000000000000000e+03 5.868687057495117188e+01 7.587779760360717773e-01 -2.811314582824707031e+00 -4.712532460689544678e-01 -9.847703576087951660e-01 2.668480277061462402e-01
1.231000000000000000e+03 5.612913513183593750e+01 2.581270933151245117e+00 -1.888241648674011230e+00 -2.310395687818527222e-01 -6.357843875885009766e-01 3.932395577430725098e-01
1.232000000000000000e+03 5.889688873291015625e+01 -5.610883608460426331e-02 -2.678170204162597656e+00 -6.397602558135986328e-01 -9.953790903091430664e-01 1.076864838600158691e+00
1.233000000000000000e+03 6.361059570312500000e+01 -3.949600160121917725e-01 -1.532872676849365234e+00 3.420302569866180420e-01 -3.572527170181274414e-01 1.763132363557815552e-01
1.234000000000000000e+03 3.984702682495117188e+01 4.664061546325683594e+00 3.959702700376510620e-02 -3.303743526339530945e-02 1.967878546565771103e-03 7.980805635452270508e-02
1.235000000000000000e+03 4.104935073852539062e+01 3.728585481643676758e+00 -3.730306029319763184e-01 -2.498431056737899780e-01 -1.868621110916137695e-01 -2.702974975109100342e-01
1.236000000000000000e+03 4.492378234863281250e+01 3.695079565048217773e+00 -8.148350119590759277e-01 -1.625909060239791870e-01 -2.932277917861938477e-01 1.738649010658264160e-01
1.237000000000000000e+03 4.282942199707031250e+01 3.157318353652954102e+00 -6.905201077461242676e-01 -1.013235002756118774e-01 -2.375530749559402466e-01 -3.078883513808250427e-03
1.238000000000000000e+03 3.891899490356445312e+01 4.089475154876708984e+00 2.504012584686279297e-01 5.504432916641235352e-01 2.402533739805221558e-01 3.522980809211730957e-01
1.239000000000000000e+03 3.951462936401367188e+01 3.374255895614624023e+00 7.284494489431381226e-02 -3.566081225872039795e-01 -8.512894809246063232e-02 -2.638837397098541260e-01
1.240000000000000000e+03 4.867454147338867188e+01 6.350675106048583984e+00 -1.756827592849731445e+00 -8.778558373451232910e-01 -7.904050350189208984e-01 1.026002287864685059e+00
1.241000000000000000e+03 4.945996856689453125e+01 2.430952548980712891e+00 -1.143327951431274414e+00 -1.522245407104492188e-01 -3.886657357215881348e-01 6.046612262725830078e-01
1.242000000000000000e+03 4.857881164550781250e+01 2.154167175292968750e+00 -1.014131665229797363e+00 -9.817249327898025513e-02 -3.336912393569946289e-01 4.156223535537719727e-01
1.243000000000000000e+03 3.973420715332031250e+01 -2.367149734497070312e+01 -7.619871944189071655e-02 -9.502129554748535156e-01 -3.079235255718231201e-01 -2.553499341011047363e-01
1.244000000000000000e+03 6.138974380493164062e+01 -7.276781082153320312e+00 -2.351273447275161743e-01 3.530953824520111084e-02 -5.994534492492675781e-02 -7.428107410669326782e-02
1.245000000000000000e+03 4.835480499267578125e+01 -2.611425018310546875e+01 2.958842515945434570e-01 4.288495779037475586e-01 2.174201458692550659e-01 -2.693378031253814697e-01
1.246000000000000000e+03 1.876132392883300781e+01 -2.431662559509277344e+01 3.490244969725608826e-02 1.203873381018638611e-02 1.408235542476177216e-02 -2.088533788919448853e-01
1.247000000000000000e+03 4.652821350097656250e+01 -1.210179042816162109e+01 -5.459662675857543945e-01 -1.199962794780731201e-01 -1.997887641191482544e-01 -2.640411257743835449e-01
1.248000000000000000e+03 5.305978775024414062e+01 -9.681353569030761719e+00 -1.016699552536010742e+00 -1.411134451627731323e-01 -3.473438918590545654e-01 1.330084800720214844e-01
1.249000000000000000e+03 3.312503051757812500e+01 1.551801776885986328e+01 1.247034668922424316e-01 -7.337169349193572998e-02 1.539953239262104034e-02 4.128052592277526855e-01
1.250000000000000000e+03 3.114863014221191406e+01 1.617412567138671875e+01 5.181143879890441895e-01 6.992387771606445312e-01 3.652059435844421387e-01 5.516496896743774414e-01
1.251000000000000000e+03 6.065775680541992188e+01 3.568518829345703125e+01 7.616490721702575684e-01 5.835077762603759766e-01 4.035470783710479736e-01 -4.311963319778442383e-01
1.252000000000000000e+03 6.270500183105468750e+01 3.392264175415039062e+01 5.950469970703125000e-01 1.637841343879699707e+00 6.698665022850036621e-01 -6.766050457954406738e-01
1.253000000000000000e+03 4.037246704101562500e+01 -4.021393585205078125e+01 6.460167169570922852e-01 7.140772044658660889e-02 2.152273207902908325e-01 -3.004209697246551514e-02
1.254000000000000000e+03 3.694021224975585938e+01 -4.130151748657226562e+01 5.374628901481628418e-01 -1.078747957944869995e-01 1.288764178752899170e-01 -3.441379219293594360e-02
1.255000000000000000e+03 3.919359207153320312e+01 -3.425284194946289062e+01 3.017221763730049133e-02 -2.417834550142288208e-01 -6.348337233066558838e-02 -1.692029088735580444e-01
1.256000000000000000e+03 5.199591827392578125e+01 -3.531848907470703125e+01 3.017598986625671387e-01 3.255648016929626465e-01 1.881974041461944580e-01 -1.006499826908111572e-01
1.257000000000000000e+03 4.979003524780273438e+01 -2.977106285095214844e+01 3.732810020446777344e-01 3.031331002712249756e-01 2.029242366552352905e-01 -3.034990429878234863e-01
1.258000000000000000e+03 4.872313308715820312e+01 -4.382762908935546875e+00 -2.942911684513092041e-01 8.479823172092437744e-02 -6.284787505865097046e-02 2.177999168634414673e-01
1.259000000000000000e+03 4.763278579711914062e+01 -8.084860801696777344e+00 -7.763064466416835785e-03 6.877422928810119629e-01 2.039937674999237061e-01 -4.651295393705368042e-02
1.260000000000000000e+03 5.741771316528320312e+01 4.096857452392578125e+01 7.846028208732604980e-01 6.239243149757385254e-01 4.225581288337707520e-01 5.071454495191574097e-02
1.261000000000000000e+03 5.953247451782226562e+01 3.728098678588867188e+01 8.155316114425659180e-01 6.047123670578002930e-01 4.260731935501098633e-01 -1.156228780746459961e-01
1.262000000000000000e+03 1.536855602264404297e+01 -2.467292594909667969e+01 3.933069854974746704e-02 -2.646487057209014893e-01 -6.759539991617202759e-02 -1.874848306179046631e-01
1.263000000000000000e+03 1.726199340820312500e+01 -2.678419685363769531e+01 5.416787788271903992e-02 -7.924894243478775024e-02 -7.524320855736732483e-03 -8.341785520315170288e-02
1.264000000000000000e+03 1.849169349670410156e+01 -2.545342254638671875e+01 1.522450596094131470e-01 1.423442922532558441e-02 4.994384571909904480e-02 -1.988559961318969727e-01
1.265000000000000000e+03 4.355606842041015625e+01 -2.740083503723144531e+01 3.748289942741394043e-01 9.446896612644195557e-02 1.407893896102905273e-01 -1.090859770774841309e-01
1.266000000000000000e+03 4.098469543457031250e+01 -3.450425624847412109e+00 -1.013471961021423340e+00 -1.780167818069458008e-01 -3.574466407299041748e-01 -8.050999790430068970e-02
1.267000000000000000e+03 3.265174102783203125e+01 -1.234548187255859375e+01 -3.093466162681579590e-01 -1.846307814121246338e-01 -1.481932103633880615e-01 -4.761730507016181946e-02
1.268000000000000000e+03 3.582358169555664062e+01 -9.080733299255371094e+00 1.523906886577606201e-01 2.655375003814697266e-01 1.253784596920013428e-01 -1.448941081762313843e-01
1.269000000000000000e+03 2.160680961608886719e+01 1.919812393188476562e+01 -1.819249838590621948e-01 -3.391263782978057861e-01 -1.563154160976409912e-01 9.054039418697357178e-02
1.270000000000000000e+03 2.128474044799804688e+01 1.651366806030273438e+01 -2.230042219161987305e-01 -1.880122572183609009e-01 -1.233049407601356506e-01 1.128157228231430054e-01
1.271000000000000000e+03 3.289053344726562500e+01 2.319125366210937500e+01 -2.502197921276092529e-01 -6.560545563697814941e-01 -2.718823254108428955e-01 3.440328240394592285e-01
1.272000000000000000e+03 2.731627273559570312e+01 2.955108451843261719e+01 -2.877626940608024597e-02 -2.858124077320098877e-01 -9.437660872936248779e-02 4.212048649787902832e-01
1.273000000000000000e+03 2.122954940795898438e+01 3.171328353881835938e+01 -9.812171757221221924e-02 -2.187263220548629761e-01 -9.505441039800643921e-02 2.963213250041007996e-02
1.274000000000000000e+03 3.207518005371093750e+01 1.396318054199218750e+01 -2.342646420001983643e-01 2.129882127046585083e-01 -6.382929161190986633e-03 3.964296579360961914e-01
1.275000000000000000e+03 2.866542053222656250e+01 1.138234519958496094e+01 3.712030872702598572e-02 3.998283445835113525e-01 1.310846060514450073e-01 1.784770190715789795e-01
1.276000000000000000e+03 2.967886352539062500e+01 9.700013160705566406e+00 2.613205313682556152e-01 8.854503631591796875e-01 3.440312743186950684e-01 3.796188235282897949e-01
1.277000000000000000e+03 3.782094573974609375e+01 1.729294204711914062e+01 3.228846192359924316e-01 -6.159732937812805176e-01 -8.792659640312194824e-02 4.671061038970947266e-01
1.278000000000000000e+03 3.763162231445312500e+01 -6.130235671997070312e+00 -1.226610597223043442e-02 3.456198871135711670e-01 1.000061333179473877e-01 1.775134354829788208e-02
1.279000000000000000e+03 3.627339935302734375e+01 -7.537332057952880859e+00 8.252651989459991455e-02 4.823909103870391846e-01 1.694752275943756104e-01 -2.542541027069091797e-01
1.280000000000000000e+03 1.962961196899414062e+01 1.853211212158203125e+01 -3.022333979606628418e-01 -1.330500841140747070e-01 -1.305850446224212646e-01 7.992802560329437256e-02
1.281000000000000000e+03 3.512398910522460938e+01 -1.237348556518554688e+01 -3.368591368198394775e-01 1.614108234643936157e-01 -5.263449624180793762e-02 -9.404433518648147583e-02
1.282000000000000000e+03 3.679065322875976562e+01 -4.136144638061523438e+00 -3.181193172931671143e-01 2.203460931777954102e-01 -2.933196723461151123e-02 -8.318210393190383911e-02
1.283000000000000000e+03 3.687526702880859375e+01 -5.488126754760742188e+00 -1.803522109985351562e-01 2.967802584171295166e-01 3.492841869592666626e-02 -1.368097066879272461e-01
1.284000000000000000e+03 4.498260879516601562e+01 -1.460726928710937500e+01 -9.327460527420043945e-01 -1.472140401601791382e-01 -3.239880204200744629e-01 -5.746834725141525269e-02
1.285000000000000000e+03 4.418737030029296875e+01 -1.349364662170410156e+01 -1.257754802703857422e+00 -1.522896587848663330e-01 -4.230133593082427979e-01 -2.609820365905761719e-01
1.286000000000000000e+03 3.002486038208007812e+01 2.833875656127929688e+01 -2.525884211063385010e-01 -5.988387465476989746e-01 -2.554281353950500488e-01 3.745470643043518066e-01
1.287000000000000000e+03 3.176361846923828125e+01 2.190631866455078125e+01 -1.620363630354404449e-02 -6.167426705360412598e-01 -1.898838877677917480e-01 8.866705000400543213e-02
1.288000000000000000e+03 3.751096725463867188e+01 2.309011840820312500e+01 -3.036136627197265625e-01 -4.677595198154449463e-01 -2.314119488000869751e-01 3.951461911201477051e-01
1.289000000000000000e+03 3.072854232788085938e+01 2.722998237609863281e+01 -3.891128897666931152e-01 -7.004430294036865234e-01 -3.268667757511138916e-01 4.430826306343078613e-01
1.290000000000000000e+03 3.360735702514648438e+01 3.229353332519531250e+01 2.928889691829681396e-01 -3.107001185417175293e-01 -5.343338940292596817e-03 1.498880386352539062e-01
1.291000000000000000e+03 4.772723770141601562e+01 -1.447845745086669922e+01 -8.379449248313903809e-01 -7.066524773836135864e-02 -2.725830674171447754e-01 -2.573824822902679443e-01
1.292000000000000000e+03 3.199924468994140625e+01 -2.721787071228027344e+01 3.162289857864379883e-01 2.170291095972061157e-01 1.599774211645126343e-01 -2.606472671031951904e-01
1.293000000000000000e+03 2.687712478637695312e+01 -3.368302536010742188e+01 -6.722540128976106644e-03 -1.960443854331970215e-01 -6.083007529377937317e-02 -9.315764158964157104e-02
1.294000000000000000e+03 2.040600585937500000e+01 1.427958202362060547e+01 -3.373011574149131775e-02 -2.141584157943725586e-01 -7.436655461788177490e-02 3.440220281481742859e-02
1.295000000000000000e+03 4.612194442749023438e+01 -1.390514373779296875e+01 -8.796551227569580078e-01 -1.158485785126686096e-01 -2.986510992050170898e-01 -1.598012000322341919e-01
1.296000000000000000e+03 2.072151565551757812e+01 2.078892517089843750e+01 -7.545170933008193970e-02 -2.033193856477737427e-01 -8.363132923841476440e-02 3.660126402974128723e-02
1.297000000000000000e+03 2.363524627685546875e+01 2.681286430358886719e+01 2.745928764343261719e-01 5.401042103767395020e-01 2.444091290235519409e-01 4.064882993698120117e-01
1.298000000000000000e+03 2.002168273925781250e+01 2.565245628356933594e+01 4.180795550346374512e-01 -1.756362468004226685e-01 7.273299247026443481e-02 3.241529166698455811e-01
1.299000000000000000e+03 1.840536880493164062e+01 2.500057983398437500e+01 5.987896323204040527e-01 3.580649495124816895e-01 2.870563864707946777e-01 4.138890802860260010e-01
1.300000000000000000e+03 4.672227859497070312e+01 -6.414292812347412109e+00 -8.746179193258285522e-02 2.480801939964294434e-01 4.818551987409591675e-02 3.591045504435896873e-03
1.301000000000000000e+03 4.650489807128906250e+01 -4.697339057922363281e+00 -3.385855555534362793e-01 1.560696363449096680e-01 -5.475477129220962524e-02 7.395469397306442261e-02
1.302000000000000000e+03 4.779283905029296875e+01 -3.833519935607910156e+00 -3.205849826335906982e-01 9.433163702487945557e-02 -6.787600368261337280e-02 1.289637684822082520e-01
1.303000000000000000e+03 2.063182449340820312e+01 1.142895412445068359e+01 4.760724492371082306e-03 -1.738064587116241455e-01 -5.071372166275978088e-02 5.705670919269323349e-03
1.304000000000000000e+03 2.556629371643066406e+01 1.567759418487548828e+01 -5.218601822853088379e-01 -1.971900016069412231e-01 -2.157150506973266602e-01 2.526793181896209717e-01
1.305000000000000000e+03 4.733892822265625000e+01 -5.358481884002685547e+00 -3.379676938056945801e-01 2.137554883956909180e-01 -3.726365789771080017e-02 1.532923877239227295e-01
1.306000000000000000e+03 2.096760940551757812e+01 2.201032066345214844e+01 5.480282008647918701e-02 -2.423211336135864258e-01 -5.625549331307411194e-02 5.219369381666183472e-02
1.307000000000000000e+03 3.823921966552734375e+01 -3.033932304382324219e+01 -5.533811077475547791e-02 -5.045801401138305664e-01 -1.679754704236984253e-01 -2.037430405616760254e-01
1.308000000000000000e+03 3.331142807006835938e+01 1.965402603149414062e+01 1.188630610704421997e-01 -2.432275116443634033e-01 -3.730933740735054016e-02 4.351617693901062012e-01
1.309000000000000000e+03 3.194088363647460938e+01 1.933815193176269531e+01 9.606154635548591614e-03 -1.051919162273406982e-01 -2.867572940886020660e-02 1.393137127161026001e-01
1.310000000000000000e+03 3.277423477172851562e+01 2.191448020935058594e+01 -4.052226990461349487e-02 -6.161653995513916016e-01 -1.970063000917434692e-01 2.690042257308959961e-01
1.311000000000000000e+03 3.295806884765625000e+01 2.082908630371093750e+01 2.026627026498317719e-02 -4.459657967090606689e-01 -1.277098506689071655e-01 2.646561264991760254e-01
1.312000000000000000e+03 5.233509445190429688e+01 -1.087386608123779297e+01 -1.060715675354003906e+00 6.380871683359146118e-02 -2.990721166133880615e-01 -2.338617146015167236e-01
1.313000000000000000e+03 5.209034729003906250e+01 -9.122002601623535156e+00 -7.122783064842224121e-01 -1.298964470624923706e-01 -2.526524364948272705e-01 1.038973256945610046e-01
1.314000000000000000e+03 3.991184997558593750e+01 -2.567281723022460938e+00 -6.030198335647583008e-01 -2.182595990598201752e-02 -1.874537318944931030e-01 1.221644058823585510e-01
1.315000000000000000e+03 3.743994522094726562e+01 -1.868315815925598145e+00 -3.010573387145996094e-01 1.207087486982345581e-01 -5.410457774996757507e-02 4.554942250251770020e-02
1.316000000000000000e+03 4.355963897705078125e+01 -4.063765525817871094e+00 -6.861745715141296387e-01 -1.130995377898216248e-01 -2.397822290658950806e-01 2.489786148071289062e-01
1.317000000000000000e+03 3.589438247680664062e+01 -1.334411334991455078e+01 -5.061794519424438477e-01 3.373217880725860596e-01 -5.065729096531867981e-02 -1.698487251996994019e-01
1.318000000000000000e+03 3.679424667358398438e+01 -1.263226032257080078e+01 -4.329445958137512207e-01 4.924554228782653809e-01 1.785325072705745697e-02 -1.374797523021697998e-01
1.319000000000000000e+03 3.905621337890625000e+01 -3.844651412963867188e+01 6.274384856224060059e-01 -8.874201774597167969e-02 1.616089493036270142e-01 -1.399433314800262451e-01
1.320000000000000000e+03 4.752312469482421875e+01 -4.137730026245117188e+01 8.353046178817749023e-01 -9.466485120356082916e-03 2.477514445781707764e-01 -2.798290178179740906e-02
1.321000000000000000e+03 4.895246124267578125e+01 -2.707222366333007812e+01 2.967670857906341553e-01 3.715447187423706055e-01 2.004935443401336670e-01 -2.863613367080688477e-01
1.322000000000000000e+03 4.333602142333984375e+01 -4.121213912963867188e+01 6.740807890892028809e-01 2.088234722614288330e-01 2.648712694644927979e-01 -4.739806801080703735e-02
1.323000000000000000e+03 5.724332427978515625e+01 2.219233894348144531e+01 3.032213449478149414e-01 3.075433969497680664e-01 1.832294315099716187e-01 -1.847830265760421753e-01
1.324000000000000000e+03 5.713440322875976562e+01 2.335258674621582031e+01 3.899268209934234619e-01 1.771140694618225098e-01 1.701122671365737915e-01 -2.142858207225799561e-01
1.325000000000000000e+03 3.885383987426757812e+01 -2.808295059204101562e+01 -8.038971573114395142e-03 -6.920276284217834473e-01 -2.100199759006500244e-01 -2.434305846691131592e-01
1.326000000000000000e+03 3.689173889160156250e+01 -3.287967681884765625e+01 -9.544278495013713837e-03 -1.838645637035369873e-01 -5.802265554666519165e-02 -3.558397591114044189e-01
1.327000000000000000e+03 3.818078613281250000e+01 -3.352905654907226562e+01 -9.989795275032520294e-03 -3.650582134723663330e-01 -1.125143989920616150e-01 -2.753994762897491455e-01
1.328000000000000000e+03 5.078015518188476562e+01 -3.378809356689453125e+01 3.316461667418479919e-02 2.935706973075866699e-01 9.802059084177017212e-02 -2.419135421514511108e-01
1.329000000000000000e+03 5.302801132202148438e+01 -3.310314941406250000e+01 2.327820211648941040e-01 4.444808661937713623e-01 2.031788676977157593e-01 -2.511658668518066406e-01
1.330000000000000000e+03 3.106136894226074219e+01 1.173263454437255859e+01 6.257189065217971802e-02 5.393863916397094727e-01 1.805874854326248169e-01 3.410013616085052490e-01
1.331000000000000000e+03 3.166007804870605469e+01 1.280761337280273438e+01 -3.429743647575378418e-01 3.877996206283569336e-01 1.344758365303277969e-02 3.136522769927978516e-01
1.332000000000000000e+03 4.779744720458984375e+01 -2.501970291137695312e+01 3.195175528526306152e-01 4.303053915500640869e-01 2.249468863010406494e-01 -2.977631986141204834e-01
1.333000000000000000e+03 4.799538421630859375e+01 -2.333910369873046875e+01 4.548389911651611328e-01 5.747359991073608398e-01 3.088725209236145020e-01 -5.052796006202697754e-01
1.334000000000000000e+03 4.961591720581054688e+01 -3.736075592041015625e+01 5.270974636077880859e-01 -2.186795324087142944e-02 1.515688598155975342e-01 9.320682287216186523e-02
1.335000000000000000e+03 4.969626235961914062e+01 -3.565748596191406250e+01 1.125027015805244446e-01 -4.554135724902153015e-02 2.008840255439281464e-02 -2.929311990737915039e-02
1.336000000000000000e+03 6.357439041137695312e+01 3.066680717468261719e+01 1.410954594612121582e-01 2.400150060653686523e+00 7.623736262321472168e-01 -2.375613301992416382e-01
1.337000000000000000e+03 6.657976531982421875e+01 2.956205368041992188e+01 3.515888452529907227e-01 2.383101940155029297e+00 8.204072713851928711e-01 -4.370529949665069580e-01
1.338000000000000000e+03 3.945747375488281250e+01 -2.547257041931152344e+01 -3.528100550174713135e-01 -1.173699855804443359e+00 -4.579529762268066406e-01 -5.028899908065795898e-01
1.339000000000000000e+03 3.869527816772460938e+01 -2.652265739440917969e+01 -3.994276523590087891e-01 -8.350341320037841797e-01 -3.703385293483734131e-01 -5.314234495162963867e-01
1.340000000000000000e+03 3.483556365966796875e+01 -2.859717369079589844e+01 2.477388978004455566e-01 5.756430327892303467e-02 9.159096330404281616e-02 -1.519338935613632202e-01
1.341000000000000000e+03 3.237164306640625000e+01 -3.019340133666992188e+01 8.119574189186096191e-02 1.375165730714797974e-01 6.561369448900222778e-02 -1.868183910846710205e-01
1.342000000000000000e+03 2.903805923461914062e+01 7.861753940582275391e+00 1.010242700576782227e-01 8.794728517532348633e-01 2.941491305828094482e-01 1.738790124654769897e-01
1.343000000000000000e+03 2.597583770751953125e+01 3.191713094711303711e+00 -3.233264386653900146e-01 2.777487039566040039e-02 -8.866546303033828735e-02 1.754204332828521729e-01
1.344000000000000000e+03 2.743156623840332031e+01 -2.179918289184570312e+01 -1.630842499434947968e-02 -1.485929936170578003e-01 -4.947042465209960938e-02 -1.295539885759353638e-01
1.345000000000000000e+03 2.863453102111816406e+01 -2.522839927673339844e+01 2.291015535593032837e-01 -6.312526762485504150e-02 4.979288578033447266e-02 -1.291969567537307739e-01
1.346000000000000000e+03 3.848984146118164062e+01 -2.907400131225585938e+01 -1.778364181518554688e-03 -5.972401499748229980e-01 -1.797055453062057495e-01 -2.212698012590408325e-01
1.347000000000000000e+03 3.586336517333984375e+01 -1.528408527374267578e+01 -4.893121421337127686e-01 1.825259327888488770e-01 -9.203585982322692871e-02 -7.927283644676208496e-02
1.348000000000000000e+03 2.769080734252929688e+01 -2.459512519836425781e+01 1.929439902305603027e-01 -8.066722005605697632e-02 3.368303179740905762e-02 -1.501091122627258301e-01
1.349000000000000000e+03 4.825320816040039062e+01 -1.546110916137695312e+01 -7.920101881027221680e-01 -2.980145514011383057e-01 -3.270074129104614258e-01 -3.340563178062438965e-01
1.350000000000000000e+03 5.088695526123046875e+01 -1.538222694396972656e+01 -7.537094950675964355e-01 -1.336235851049423218e-01 -2.661999166011810303e-01 -5.107124447822570801e-01
1.351000000000000000e+03 3.458710479736328125e+01 -1.135164070129394531e+01 -1.513195782899856567e-01 4.134847596287727356e-02 -3.299133107066154480e-02 -7.666795700788497925e-02
1.352000000000000000e+03 3.093005752563476562e+01 -1.462329101562500000e+01 -4.884228408336639404e-01 -2.083732336759567261e-01 -2.090388238430023193e-01 -1.372610032558441162e-01
1.353000000000000000e+03 3.826496505737304688e+01 -1.259623432159423828e+01 -4.579005837440490723e-01 5.704932212829589844e-01 3.377779200673103333e-02 -7.821006327867507935e-02
1.354000000000000000e+03 2.983756256103515625e+01 -1.525931644439697266e+01 -4.260352849960327148e-01 -2.405567318201065063e-01 -1.999776065349578857e-01 -1.737372726202011108e-01
1.355000000000000000e+03 3.040858459472656250e+01 -1.633247566223144531e+01 -3.876108229160308838e-01 -2.899309992790222168e-01 -2.032625526189804077e-01 -2.515015006065368652e-01
1.356000000000000000e+03 4.338018798828125000e+01 -2.618281364440917969e+01 1.060958728194236755e-01 6.859217584133148193e-02 5.240641534328460693e-02 -2.144962847232818604e-01
1.357000000000000000e+03 2.772677230834960938e+01 -2.053534889221191406e+01 -7.581397891044616699e-02 -1.809915751218795776e-01 -7.704167068004608154e-02 -1.300906687974929810e-01
1.358000000000000000e+03 3.999049758911132812e+01 -1.436751365661621094e+01 -7.324210405349731445e-01 3.161745667457580566e-01 -1.248739361763000488e-01 -1.754965484142303467e-01
1.359000000000000000e+03 2.887037467956542969e+01 -2.096593856811523438e+01 -4.169525951147079468e-02 -2.731818258762359619e-01 -9.446312487125396729e-02 -6.403975188732147217e-02
1.360000000000000000e+03 3.015329170227050781e+01 -2.715254592895507812e+01 2.660396099090576172e-01 5.926166474819183350e-02 9.759038686752319336e-02 -1.609559059143066406e-01
1.361000000000000000e+03 3.941455459594726562e+01 -1.980806159973144531e+01 2.467596828937530518e-01 6.001830697059631348e-01 2.540828287601470947e-01 -4.142006635665893555e-01
1.362000000000000000e+03 4.043802642822265625e+01 -1.834810066223144531e+01 1.688536405563354492e-01 1.352041959762573242e-01 9.121734648942947388e-02 -3.796702623367309570e-01
1.363000000000000000e+03 2.860443115234375000e+01 -1.778207206726074219e+01 -2.329326719045639038e-01 -2.491652220487594604e-01 -1.446293741464614868e-01 -1.886387616395950317e-01
1.364000000000000000e+03 5.160464859008789062e+01 2.829741096496582031e+01 1.561594456434249878e-01 7.772989273071289062e-01 2.800375223159790039e-01 1.437961310148239136e-01
1.365000000000000000e+03 4.454341888427734375e+01 -1.762730979919433594e+01 -3.387690186500549316e-01 -1.920431703329086304e-01 -1.592436581850051880e-01 -3.069021999835968018e-01
1.366000000000000000e+03 4.679542541503906250e+01 -1.898033142089843750e+01 -8.998160809278488159e-02 -3.762413263320922852e-01 -1.398668736219406128e-01 -3.012721240520477295e-01
1.367000000000000000e+03 3.046315002441406250e+01 -2.930457878112792969e+01 1.583000272512435913e-01 3.571364656090736389e-02 5.820410326123237610e-02 -1.373616904020309448e-01
1.368000000000000000e+03 2.867734909057617188e+01 -2.666389274597167969e+01 2.743491828441619873e-01 -5.213738605380058289e-02 6.666354089975357056e-02 -1.407602727413177490e-01
1.369000000000000000e+03 2.943323135375976562e+01 -2.607929039001464844e+01 2.445491701364517212e-01 5.867007188498973846e-03 7.512485235929489136e-02 -1.340262889862060547e-01
1.370000000000000000e+03 6.264946365356445312e+01 2.508718109130859375e+01 6.116302013397216797e-01 1.068842768669128418e+00 5.041418671607971191e-01 5.992611646652221680e-01
1.371000000000000000e+03 6.556920623779296875e+01 2.611495399475097656e+01 4.741797745227813721e-01 1.714170932769775391e+00 6.565052270889282227e-01 -1.846857517957687378e-01
1.372000000000000000e+03 2.809204864501953125e+01 1.010892105102539062e+01 2.294056564569473267e-01 3.593354225158691406e-01 1.766223162412643433e-01 1.700014024972915649e-01
1.373000000000000000e+03 9.716712951660156250e+00 -1.151985836029052734e+01 -3.184039145708084106e-02 -4.652891680598258972e-02 -2.351079322397708893e-02 -4.851438477635383606e-02
1.374000000000000000e+03 1.015083217620849609e+01 -1.254761409759521484e+01 -9.205152839422225952e-02 -2.663401141762733459e-02 -3.560566157102584839e-02 -2.234579250216484070e-02
1.375000000000000000e+03 1.359444427490234375e+01 6.672851562500000000e+00 -4.723122119903564453e-01 -1.558475047349929810e-01 -1.884479224681854248e-01 2.055616974830627441e-01
1.376000000000000000e+03 2.896690177917480469e+01 1.054630470275878906e+01 2.412495166063308716e-01 4.783863127231597900e-01 2.158907502889633179e-01 2.153142541646957397e-01
1.377000000000000000e+03 6.201160430908203125e+01 2.110969161987304688e+01 5.117662996053695679e-02 7.313050031661987305e-01 2.347444891929626465e-01 4.559752643108367920e-01
1.378000000000000000e+03 6.201879882812500000e+01 2.007841491699218750e+01 -9.075392782688140869e-02 8.453653454780578613e-01 2.263834178447723389e-01 3.121955692768096924e-01
1.379000000000000000e+03 2.959289932250976562e+01 1.902489662170410156e+00 -5.888009667396545410e-01 2.227428853511810303e-01 -1.098174229264259338e-01 4.245832562446594238e-02
1.380000000000000000e+03 1.887669754028320312e+01 -1.687200927734375000e+01 -9.907552599906921387e-02 -2.079318091273307800e-02 -3.596061468124389648e-02 -1.930485963821411133e-01
1.381000000000000000e+03 2.404665184020996094e+01 -1.697162628173828125e+01 -2.744038403034210205e-01 -1.092470288276672363e-01 -1.150952652096748352e-01 -1.664515435695648193e-01
1.382000000000000000e+03 1.389881134033203125e+01 -3.843137741088867188e+01 1.759443730115890503e-01 4.249345883727073669e-02 6.553135067224502563e-02 -8.728059381246566772e-02
1.383000000000000000e+03 6.094190597534179688e+01 2.383323097229003906e+01 5.604330897331237793e-01 4.473934769630432129e-01 3.023479580879211426e-01 4.400365650653839111e-01
1.384000000000000000e+03 7.467278289794921875e+01 -1.026973438262939453e+01 5.203400850296020508e-01 6.045773983001708984e+00 1.969834208488464355e+00 1.699033141136169434e+00
1.385000000000000000e+03 7.383027648925781250e+01 -1.112041664123535156e+01 -1.055237531661987305e+00 1.855384230613708496e+00 2.400440424680709839e-01 7.157187461853027344e-01
1.386000000000000000e+03 4.702249145507812500e+01 3.168634986877441406e+01 1.292454302310943604e-01 1.593406498432159424e-01 8.657582849264144897e-02 -5.292727611958980560e-03
1.387000000000000000e+03 4.822237014770507812e+01 3.147916221618652344e+01 1.309523135423660278e-01 2.961074709892272949e-01 1.281179338693618774e-01 1.670255511999130249e-02
1.388000000000000000e+03 5.211280059814453125e+01 3.193628501892089844e+01 2.811481356620788574e-01 8.163966536521911621e-01 3.292634487152099609e-01 1.265984922647476196e-01
1.389000000000000000e+03 5.968124389648437500e+01 2.229918098449707031e+01 3.413824141025543213e-01 3.829932510852813721e-01 2.173126935958862305e-01 2.673169076442718506e-01
1.390000000000000000e+03 6.291728973388671875e+01 2.060750198364257812e+01 -1.183336973190307617e-01 6.547788977622985840e-01 1.609335690736770630e-01 4.801539182662963867e-01
1.391000000000000000e+03 5.419942855834960938e+01 2.356828498840332031e+01 2.740550041198730469e-01 4.703409671783447266e-01 2.233187854290008545e-01 -1.899336725473403931e-01
1.392000000000000000e+03 5.335049057006835938e+01 2.604838752746582031e+01 2.483784854412078857e-01 8.078194856643676758e-01 3.168593943119049072e-01 -1.387857049703598022e-01
1.393000000000000000e+03 1.744446563720703125e+01 -4.180088806152343750e+01 3.957799971103668213e-01 1.259086132049560547e-01 1.565065830945968628e-01 -1.556205004453659058e-02
1.394000000000000000e+03 6.385732650756835938e+01 -1.627258300781250000e+01 1.811238676309585571e-01 9.129631519317626953e-01 3.282260894775390625e-01 -6.221672892570495605e-02
1.395000000000000000e+03 5.589656829833984375e+01 3.475925827026367188e+01 6.662506461143493652e-01 5.942922234535217285e-01 3.781628608703613281e-01 5.019122958183288574e-01
1.396000000000000000e+03 2.545025825500488281e+01 -3.076487922668457031e+01 8.690930902957916260e-02 -1.756519973278045654e-01 -2.662280574440956116e-02 -8.733725547790527344e-02
1.397000000000000000e+03 1.446134757995605469e+01 -1.404306411743164062e+01 5.280242487788200378e-02 1.531197279691696167e-01 6.177664548158645630e-02 -8.691680431365966797e-02
1.398000000000000000e+03 2.932130050659179688e+01 -9.949938774108886719e+00 -1.935514807701110840e-01 -5.825933814048767090e-01 -2.328434586524963379e-01 -2.419291883707046509e-01
1.399000000000000000e+03 2.756443405151367188e+01 -1.198089408874511719e+01 -3.991160392761230469e-01 -2.297306507825851440e-01 -1.886540055274963379e-01 -2.524499297142028809e-01
1.400000000000000000e+03 6.091349411010742188e+01 2.237563896179199219e+01 2.140287309885025024e-01 5.883256196975708008e-01 2.407063096761703491e-01 4.180738329887390137e-01
1.401000000000000000e+03 5.417461395263671875e+01 3.407378768920898438e+01 3.958971500396728516e-01 8.671790957450866699e-01 3.789228796958923340e-01 3.592514991760253906e-01
1.402000000000000000e+03 6.441913604736328125e+01 2.710417556762695312e+01 3.587488234043121338e-01 1.896009325981140137e+00 6.764274239540100098e-01 5.836068466305732727e-02
1.403000000000000000e+03 6.526551818847656250e+01 2.883390045166015625e+01 2.671321928501129150e-01 2.188381433486938477e+00 7.366541028022766113e-01 -2.253212332725524902e-01
1.404000000000000000e+03 6.358235549926757812e+01 2.939924430847167969e+01 1.105486508458852768e-02 2.017152309417724609e+00 6.084621548652648926e-01 -9.435179084539413452e-02
1.405000000000000000e+03 6.488478851318359375e+01 2.974609947204589844e+01 1.910717338323593140e-01 2.367868661880493164e+00 7.676821351051330566e-01 -3.376964926719665527e-01
1.406000000000000000e+03 2.696169281005859375e+01 -3.516769409179687500e+01 1.321830507367849350e-02 -2.317399829626083374e-01 -6.555650383234024048e-02 -7.906100898981094360e-02
1.407000000000000000e+03 5.468322753906250000e+01 2.262016105651855469e+01 2.749261558055877686e-01 3.366802930831909180e-01 1.834819316864013672e-01 -2.141171693801879883e-01
1.408000000000000000e+03 5.588717651367187500e+01 2.320289421081542969e+01 3.487670123577117920e-01 3.389906883239746094e-01 2.063273042440414429e-01 -2.552813589572906494e-01
1.409000000000000000e+03 4.724343490600585938e+01 2.483971595764160156e+01 3.328495919704437256e-01 3.009357154369354248e-01 1.901355832815170288e-01 3.123262226581573486e-01
1.410000000000000000e+03 5.263716506958007812e+01 2.963973426818847656e+01 1.145484521985054016e-01 1.063661694526672363e+00 3.534630239009857178e-01 1.672072261571884155e-01
1.411000000000000000e+03 1.342218112945556641e+01 -3.101000785827636719e+01 -1.160477623343467712e-01 -4.304952621459960938e-01 -1.639629006385803223e-01 -1.857886612415313721e-01
1.412000000000000000e+03 1.052264022827148438e+01 -3.610475540161132812e+01 4.811814799904823303e-02 -1.745094507932662964e-01 -3.791739419102668762e-02 -1.336594223976135254e-01
1.413000000000000000e+03 2.717555999755859375e+01 -2.563909721374511719e+01 2.302992343902587891e-01 -1.099294349551200867e-01 3.611093759536743164e-02 -1.196623593568801880e-01
1.414000000000000000e+03 2.065278816223144531e+01 -4.061420440673828125e+01 4.203248620033264160e-01 2.910804376006126404e-02 1.348298788070678711e-01 8.220182359218597412e-02
1.415000000000000000e+03 2.514154624938964844e+01 -4.042779922485351562e+01 3.114014565944671631e-01 -2.835954427719116211e-01 8.341809734702110291e-03 4.335478693246841431e-02
1.416000000000000000e+03 6.420150756835937500e+01 7.437224864959716797e+00 1.033594131469726562e+00 7.342662215232849121e-01 5.303580760955810547e-01 -7.355633378028869629e-01
1.417000000000000000e+03 6.147772216796875000e+01 7.155869960784912109e+00 3.284354805946350098e-01 6.147092580795288086e-01 2.829434275627136230e-01 -2.726283073425292969e-01
1.418000000000000000e+03 5.620537567138671875e+01 1.119010353088378906e+01 1.360734105110168457e-01 2.836453616619110107e-01 1.259156316518783569e-01 2.463985234498977661e-01
1.419000000000000000e+03 1.305320835113525391e+01 -2.909276580810546875e+01 -1.179785802960395813e-01 -2.959826886653900146e-01 -1.241883784532546997e-01 -1.466076970100402832e-01
1.420000000000000000e+03 1.557403945922851562e+01 -2.026257133483886719e+01 -2.483864724636077881e-01 -3.579708635807037354e-01 -1.819072067737579346e-01 -2.680772542953491211e-01
1.421000000000000000e+03 1.363451480865478516e+01 -2.198796272277832031e+01 -2.346892058849334717e-01 -1.804322004318237305e-01 -1.245364248752593994e-01 -2.171176373958587646e-01
1.422000000000000000e+03 1.179000186920166016e+01 -3.935282897949218750e+01 1.741441786289215088e-01 -1.062729731202125549e-01 2.036136202514171600e-02 -6.589416414499282837e-02
1.423000000000000000e+03 1.722987365722656250e+01 -1.116396188735961914e+00 -4.074579849839210510e-02 3.760752826929092407e-02 -9.414820233359932899e-04 -2.898269891738891602e-02
1.424000000000000000e+03 7.190603637695312500e+01 -1.602013397216796875e+01 -2.874590754508972168e-01 -1.568401604890823364e-01 -1.332897692918777466e-01 6.643736958503723145e-01
1.425000000000000000e+03 7.159675598144531250e+01 -1.337993621826171875e+01 -1.006036043167114258e+00 -3.761592134833335876e-02 -3.130955994129180908e-01 7.969697117805480957e-01
1.426000000000000000e+03 2.123845291137695312e+01 -2.716128349304199219e+01 4.125873446464538574e-01 1.704565137624740601e-01 1.749131530523300171e-01 -2.323148250579833984e-01
1.427000000000000000e+03 1.083536911010742188e+01 -3.473282241821289062e+01 -1.509620156139135361e-02 -1.783300638198852539e-01 -5.802787840366363525e-02 -1.341543644666671753e-01
1.428000000000000000e+03 1.120906829833984375e+01 -3.329281234741210938e+01 -6.877051293849945068e-02 -2.092974931001663208e-01 -8.342040330171585083e-02 -1.294637173414230347e-01
1.429000000000000000e+03 1.291511058807373047e+01 -2.455003166198730469e+01 1.176741719245910645e-02 -2.290112376213073730e-01 -6.517314910888671875e-02 -1.639058142900466919e-01
1.430000000000000000e+03 2.357527732849121094e+01 -2.588212203979492188e+01 2.390730679035186768e-01 -4.010593146085739136e-02 5.969014391303062439e-02 -9.135335683822631836e-02
1.431000000000000000e+03 2.512422752380371094e+01 -3.487540435791015625e+01 -2.029142901301383972e-02 -4.108972251415252686e-01 -1.293565928936004639e-01 -3.327641636133193970e-02
1.432000000000000000e+03 2.700489425659179688e+01 -3.113712310791015625e+01 7.702632993459701538e-02 -1.458578258752822876e-01 -2.064944803714752197e-02 -1.334807574748992920e-01
1.433000000000000000e+03 1.697384643554687500e+01 -7.025495052337646484e+00 -1.027162838727235794e-02 1.084865853190422058e-01 2.946448884904384613e-02 -1.858697040006518364e-03
1.434000000000000000e+03 1.549115753173828125e+01 -1.083128643035888672e+01 -3.725834563374519348e-02 9.152150899171829224e-02 1.627894863486289978e-02 5.025748629122972488e-03
1.435000000000000000e+03 2.971233558654785156e+01 -8.657176971435546875e+00 -7.330510765314102173e-02 -6.269662976264953613e-01 -2.100814133882522583e-01 -1.177327856421470642e-01
1.436000000000000000e+03 2.559669494628906250e+01 -1.694710159301757812e+01 -2.922367453575134277e-01 -1.414860188961029053e-01 -1.301168203353881836e-01 -1.545381993055343628e-01
1.437000000000000000e+03 6.506159210205078125e+01 -2.282916641235351562e+01 3.392004966735839844e-01 1.914267420768737793e+00 6.760403513908386230e-01 -5.901772975921630859e-01
1.438000000000000000e+03 6.241153335571289062e+01 -2.670783615112304688e+01 3.178129494190216064e-01 4.989548027515411377e-01 2.450303286314010620e-01 -3.369343876838684082e-01
1.439000000000000000e+03 2.941375541687011719e+01 -1.681893730163574219e+01 -3.066902756690979004e-01 -2.702684998512268066e-01 -1.730876415967941284e-01 -1.821005493402481079e-01
1.440000000000000000e+03 6.143839263916015625e+01 -1.224459934234619141e+01 -1.525198459625244141e+00 4.762605428695678711e-01 -3.146813511848449707e-01 -4.231816157698631287e-02
1.441000000000000000e+03 6.527828979492187500e+01 -1.072308635711669922e+01 -2.030347347259521484e+00 3.531663119792938232e-01 -5.031543374061584473e-01 5.857407450675964355e-01
1.442000000000000000e+03 1.065915393829345703e+01 1.641014671325683594e+01 2.896345257759094238e-01 3.100892603397369385e-01 1.799171417951583862e-01 2.627397775650024414e-01
1.443000000000000000e+03 3.235358047485351562e+01 -4.791481018066406250e+00 -4.917160794138908386e-02 -1.196576878428459167e-01 -5.064878985285758972e-02 -1.878097802400588989e-01
1.444000000000000000e+03 2.618041610717773438e+01 -1.446479129791259766e+01 -4.157132506370544434e-01 -1.498801261186599731e-01 -1.696780174970626831e-01 -1.533299982547760010e-01
1.445000000000000000e+03 7.358357238769531250e+01 -2.412071990966796875e+01 2.009588479995727539e+00 9.771123886108398438e+00 3.534213542938232422e+00 2.633785247802734375e+00
1.446000000000000000e+03 7.283448791503906250e+01 -2.515821075439453125e+01 2.561179637908935547e+00 5.675438404083251953e+00 2.470985412597656250e+00 3.138777017593383789e+00
1.447000000000000000e+03 1.535117530822753906e+01 -6.502476692199707031e+00 2.570798993110656738e-02 7.096391916275024414e-02 2.900157310068607330e-02 -1.127801649272441864e-02
1.448000000000000000e+03 4.860487747192382812e+01 1.973853302001953125e+01 3.885444104671478271e-01 1.751511842012405396e-01 1.691086888313293457e-01 1.856857687234878540e-01
1.449000000000000000e+03 2.033389854431152344e+01 3.225440979003906250e+01 -5.150927975773811340e-02 -3.329017162322998047e-01 -1.153232976794242859e-01 3.355001658201217651e-02
1.450000000000000000e+03 1.922580528259277344e+01 -1.291641998291015625e+01 -7.238426804542541504e-02 -1.273507159203290939e-02 -2.553580142557621002e-02 3.239237144589424133e-02
1.451000000000000000e+03 1.653556632995605469e+01 -1.249639987945556641e+01 -5.465757846832275391e-02 9.050820767879486084e-02 1.075518783181905746e-02 6.954273674637079239e-03
1.452000000000000000e+03 3.110964965820312500e+01 -8.302620887756347656e+00 -8.385493606328964233e-02 -3.056284487247467041e-01 -1.168450117111206055e-01 -1.833901852369308472e-01
1.453000000000000000e+03 3.161807060241699219e+01 -7.546110153198242188e+00 -3.058554790914058685e-02 -3.006314337253570557e-01 -9.936509281396865845e-02 -2.043379694223403931e-01
1.454000000000000000e+03 7.720286560058593750e+01 1.353185367584228516e+01 2.952736318111419678e-01 6.610535621643066406e+00 2.071742773056030273e+00 -9.437510371208190918e-01
1.455000000000000000e+03 1.924971580505371094e+01 2.614973831176757812e+01 2.542895376682281494e-01 4.197523742914199829e-02 8.887942880392074585e-02 2.508380115032196045e-01
1.456000000000000000e+03 6.824827575683593750e+01 -2.798268127441406250e+01 5.474286675453186035e-01 8.733726739883422852e-01 4.262404143810272217e-01 1.909315772354602814e-02
1.457000000000000000e+03 6.442546844482421875e+01 -6.803696632385253906e+00 -1.025848016142845154e-01 4.834160581231117249e-02 -1.627296023070812225e-02 1.273443177342414856e-02
1.458000000000000000e+03 1.100203895568847656e+01 1.977895927429199219e+01 3.085079975426197052e-02 1.019407808780670166e-01 3.983747214078903198e-02 2.208850532770156860e-01
1.459000000000000000e+03 8.318561553955078125e+00 2.339818382263183594e+01 -3.182431459426879883e-01 -2.366795390844345093e-01 -1.664768010377883911e-01 2.185590416193008423e-01
1.460000000000000000e+03 7.607678222656250000e+01 1.457194614410400391e+01 5.591653585433959961e-01 6.189202785491943359e+00 2.024510383605957031e+00 -9.581581950187683105e-01
1.461000000000000000e+03 7.016464233398437500e+01 4.792577922344207764e-01 -1.817973256111145020e+00 -4.183521866798400879e-01 -6.708976626396179199e-01 2.223657518625259399e-01
1.462000000000000000e+03 6.599693298339843750e+01 6.810685634613037109e+00 6.611371040344238281e-01 1.528521776199340820e-01 2.441967874765396118e-01 -3.399922549724578857e-01
1.463000000000000000e+03 7.822917175292968750e+01 -1.648732566833496094e+01 -2.940111756324768066e-01 1.052189254760742188e+01 3.068364620208740234e+00 6.943724155426025391e-01
1.464000000000000000e+03 4.559054946899414062e+01 1.659756469726562500e+01 2.259775698184967041e-01 6.763797998428344727e-01 2.707072198390960693e-01 3.448280990123748779e-01
1.465000000000000000e+03 6.244807434082031250e+01 1.903107261657714844e+01 2.284285575151443481e-01 7.885028123855590820e-01 3.050794005393981934e-01 4.300260245800018311e-01
1.466000000000000000e+03 6.461278533935546875e+01 2.187058258056640625e+01 2.880939245223999023e-01 5.610243082046508789e-01 2.547354698181152344e-01 1.603589653968811035e-01
1.467000000000000000e+03 7.268448638916015625e+01 -1.369635581970214844e+01 -7.569367885589599609e-01 1.232178926467895508e+00 1.425726264715194702e-01 8.737823963165283203e-01
1.468000000000000000e+03 6.685065460205078125e+01 -1.269548892974853516e+01 -1.958720803260803223e+00 6.343087553977966309e-02 -5.685869455337524414e-01 2.894718647003173828e-01
1.469000000000000000e+03 9.216102600097656250e+00 -2.457562828063964844e+01 1.072893198579549789e-02 -2.421665703877806664e-03 2.492179861292243004e-03 -7.155032455921173096e-02
1.470000000000000000e+03 6.258040070533752441e-01 -2.488376045227050781e+01 3.950296901166439056e-03 -1.348711848258972168e-01 -3.927626460790634155e-02 3.387950127944350243e-03
1.471000000000000000e+03 5.288012504577636719e+00 -2.067465591430664062e+01 4.172607511281967163e-02 -2.854537218809127808e-02 3.954210784286260605e-03 -2.988260611891746521e-02
1.472000000000000000e+03 8.490599632263183594e+00 3.469473266601562500e+01 3.500147759914398193e-01 1.237206086516380310e-01 1.421206146478652954e-01 1.456249505281448364e-01
1.473000000000000000e+03 7.827857208251953125e+01 -2.779204940795898438e+01 -2.937237732112407684e-02 6.727210998535156250e+00 2.009351730346679688e+00 5.473890155553817749e-02
1.474000000000000000e+03 5.521723556518554688e+01 -3.454370498657226562e+01 2.883742451667785645e-01 9.518803954124450684e-01 3.720763921737670898e-01 -2.719039618968963623e-01
1.475000000000000000e+03 7.057705688476562500e+01 1.853052139282226562e+00 -3.784539401531219482e-01 -2.066230401396751404e-02 -1.197348758578300476e-01 -1.755625903606414795e-01
1.476000000000000000e+03 7.035817718505859375e+01 8.142460823059082031e+00 -7.718425989151000977e-01 -5.699948966503143311e-02 -2.486526221036911011e-01 -4.363212883472442627e-01
1.477000000000000000e+03 7.053216552734375000e+01 -1.311151790618896484e+01 -1.809749484062194824e+00 -9.935893416404724121e-01 -8.410016298294067383e-01 9.499677419662475586e-01
1.478000000000000000e+03 7.305141448974609375e+01 8.982503890991210938e+00 -5.676816701889038086e-01 4.378643989562988281e+00 1.143288612365722656e+00 -9.486783146858215332e-01
1.479000000000000000e+03 6.151858901977539062e+01 -2.385509872436523438e+01 3.206771314144134521e-01 7.034139037132263184e-01 3.072273135185241699e-01 9.815932251513004303e-03
1.480000000000000000e+03 6.621665191650390625e+01 -1.171831321716308594e+01 -2.324395895004272461e+00 3.760975599288940430e-01 -5.844895243644714355e-01 4.119225740432739258e-01
1.481000000000000000e+03 5.814980030059814453e+00 2.665706253051757812e+01 -1.509638279676437378e-01 -7.259479761123657227e-01 -2.630735337734222412e-01 2.149225920438766479e-01
1.482000000000000000e+03 7.160215759277343750e+01 1.862037086486816406e+01 9.945996850728988647e-02 4.774446487426757812e+00 1.462172031402587891e+00 -1.112773776054382324e+00
1.483000000000000000e+03 1.063409423828125000e+01 3.779489135742187500e+01 4.005474224686622620e-02 3.289477154612541199e-02 2.188485488295555115e-02 7.318000495433807373e-02
1.484000000000000000e+03 5.461915588378906250e+01 1.596142292022705078e+01 8.684457838535308838e-02 1.626236247830092907e-03 2.654124423861503601e-02 -9.942766278982162476e-02
1.485000000000000000e+03 2.009300613403320312e+01 1.551662540435791016e+01 -1.204559504985809326e-01 -2.217765301465988159e-01 -1.026697456836700439e-01 1.215832978487014771e-01
1.486000000000000000e+03 2.118826484680175781e+01 1.561343097686767578e+01 -1.710278093814849854e-01 -1.980417221784591675e-01 -1.107208579778671265e-01 9.504774212837219238e-02
1.487000000000000000e+03 5.655431365966796875e+01 1.227084255218505859e+01 1.252099424600601196e-01 3.739260733127593994e-01 1.497408002614974976e-01 7.228557020425796509e-02
1.488000000000000000e+03 5.481863784790039062e+01 1.036315441131591797e+01 5.472854897379875183e-02 -2.027834579348564148e-02 1.033506076782941818e-02 1.342978924512863159e-01
1.489000000000000000e+03 6.779179382324218750e+01 2.015826702117919922e+00 -8.460104465484619141e-01 -1.382077634334564209e-01 -2.952654659748077393e-01 1.218152642250061035e-01
1.490000000000000000e+03 6.808896636962890625e+01 4.402046203613281250e-01 -1.838711261749267578e+00 -2.193244546651840210e-01 -6.174107193946838379e-01 1.707642227411270142e-01
1.491000000000000000e+03 3.058853626251220703e+00 2.172049331665039062e+01 -1.848708838224411011e-03 -2.495029121637344360e-01 -7.540548592805862427e-02 -2.913269959390163422e-02
1.492000000000000000e+03 7.058403778076171875e+01 1.916383361816406250e+01 3.497592806816101074e-01 3.869538068771362305e+00 1.265789270401000977e+00 -1.576368808746337891e+00
1.493000000000000000e+03 6.451767921447753906e+00 1.343910694122314453e+01 5.322924628853797913e-02 -1.176575422286987305e-01 -1.932848989963531494e-02 1.799853593111038208e-01
1.494000000000000000e+03 7.301414489746093750e+01 1.245463657379150391e+01 4.614216089248657227e-01 6.032297134399414062e+00 1.948115587234497070e+00 -1.143242597579956055e+00
1.495000000000000000e+03 7.202841186523437500e+01 1.232100963592529297e+01 2.963067889213562012e-01 6.725035667419433594e+00 2.106402635574340820e+00 -1.807677000761032104e-01
1.496000000000000000e+03 7.372565460205078125e+01 -2.082816123962402344e+01 1.786362975835800171e-01 6.826160907745361328e+00 2.101439237594604492e+00 1.932239159941673279e-02
1.497000000000000000e+03 7.940335083007812500e+01 -1.662967109680175781e+01 -4.830940812826156616e-02 1.241818714141845703e+01 3.710963249206542969e+00 2.795312106609344482e-01
1.498000000000000000e+03 6.103767395019531250e+01 8.033955574035644531e+00 3.514424562454223633e-01 7.313771247863769531e-01 3.248458802700042725e-01 -2.793055474758148193e-01
1.499000000000000000e+03 6.271588897705078125e+01 7.546417713165283203e+00 7.054765820503234863e-01 7.618966698646545410e-01 4.402119815349578857e-01 -5.957780480384826660e-01
1.500000000000000000e+03 6.323164749145507812e+01 6.927484035491943359e+00 3.733727335929870605e-01 6.024799942970275879e-01 2.927558124065399170e-01 -4.937659204006195068e-01
1.501000000000000000e+03 6.293646812438964844e+00 3.132781028747558594e+01 3.093772009015083313e-02 -1.240090727806091309e-01 -2.792140655219554901e-02 4.082162678241729736e-02
1.502000000000000000e+03 4.981133651733398438e+01 5.729417324066162109e+00 -1.729795455932617188e+00 -4.366992712020874023e-01 -6.499484181404113770e-01 7.731860876083374023e-01
1.503000000000000000e+03 4.584017944335937500e+01 -2.627568435668945312e+01 3.140308558940887451e-01 2.430324405431747437e-01 1.671189963817596436e-01 -2.294481247663497925e-01
1.504000000000000000e+03 4.603180694580078125e+01 -2.007446861267089844e+01 -2.326075546443462372e-02 -8.688469231128692627e-02 -3.304363414645195007e-02 -3.412994742393493652e-01
1.505000000000000000e+03 6.639607238769531250e+01 -1.520296764373779297e+01 -4.078978598117828369e-01 8.384029269218444824e-01 1.291515231132507324e-01 3.328889608383178711e-01
1.506000000000000000e+03 6.480497741699218750e+01 -1.884819602966308594e+01 4.172284007072448730e-01 2.327103137969970703e+00 8.232994675636291504e-01 5.536347031593322754e-01
1.507000000000000000e+03 6.163049697875976562e+01 -2.270199584960937500e+01 4.105322957038879395e-01 7.505577206611633301e-01 3.483269810676574707e-01 6.454934179782867432e-02
1.508000000000000000e+03 2.751218795776367188e+01 8.732478141784667969e+00 2.258758544921875000e-01 3.130457401275634766e-01 1.616764813661575317e-01 1.273931115865707397e-01
1.509000000000000000e+03 6.136205673217773438e+01 -2.510776329040527344e+01 3.853451311588287354e-01 4.601137340068817139e-01 2.536376714706420898e-01 1.616782508790493011e-02
1.510000000000000000e+03 4.742212295532226562e+01 2.231702804565429688e+01 4.061803519725799561e-01 3.323808014392852783e-01 2.215683460235595703e-01 2.568368017673492432e-01
1.511000000000000000e+03 7.937348937988281250e+01 -2.216713905334472656e+01 7.185388356447219849e-02 8.250168800354003906e+00 2.496606826782226562e+00 4.357679188251495361e-01
1.512000000000000000e+03 1.347654056549072266e+01 1.834239578247070312e+01 1.215060129761695862e-01 1.254142820835113525e-01 7.407609373331069946e-02 2.014864534139633179e-01
1.513000000000000000e+03 1.179995822906494141e+01 2.156499099731445312e+01 -4.105897247791290283e-02 4.479910805821418762e-02 1.122041023336350918e-03 2.375501096248626709e-01
1.514000000000000000e+03 6.348346328735351562e+01 -1.910906219482421875e+01 5.214050412178039551e-01 1.265253663063049316e+00 5.359975695610046387e-01 2.402458041906356812e-01
1.515000000000000000e+03 4.761632537841796875e+01 2.892738151550292969e+01 -3.518650308251380920e-03 3.130716979503631592e-01 9.286591410636901855e-02 1.536273658275604248e-01
1.516000000000000000e+03 5.571160125732421875e+01 8.812119483947753906e+00 4.542007744312286377e-01 2.447862923145294189e-01 2.096961289644241333e-01 5.484584569931030273e-01
1.517000000000000000e+03 5.180157470703125000e+01 5.770061016082763672e+00 -2.689262926578521729e-01 2.106139212846755981e-01 -1.749371178448200226e-02 5.241323113441467285e-01
1.518000000000000000e+03 1.975214004516601562e+01 2.749984931945800781e+01 3.805730864405632019e-02 -4.273715913295745850e-01 -1.167942807078361511e-01 9.169384092092514038e-02
1.519000000000000000e+03 5.803115367889404297e-01 3.174839591979980469e+01 4.598265048116445541e-03 -5.462409853935241699e-01 -1.624928116798400879e-01 4.383913800120353699e-02
1.520000000000000000e+03 2.014713478088378906e+01 2.370368766784667969e+01 2.961423397064208984e-01 -1.210713759064674377e-01 5.252128839492797852e-02 1.721677482128143311e-01
1.521000000000000000e+03 7.873188972473144531e+00 2.152267456054687500e+01 -6.295189261436462402e-02 -2.126279026269912720e-01 -8.267393708229064941e-02 8.664604276418685913e-02
1.522000000000000000e+03 1.810182762145996094e+01 2.338411903381347656e+01 3.623905479907989502e-01 1.633817553520202637e-01 1.577316820621490479e-01 2.185236513614654541e-01
1.523000000000000000e+03 5.186339187622070312e+01 -1.602376747131347656e+01 -4.684834182262420654e-01 1.023099571466445923e-02 -1.374757289886474609e-01 -3.929316103458404541e-01
1.524000000000000000e+03 4.961499786376953125e+01 -1.197448539733886719e+01 -7.040739655494689941e-01 1.425928324460983276e-01 -1.684443503618240356e-01 -5.244425535202026367e-01
1.525000000000000000e+03 1.885205459594726562e+01 3.422850418090820312e+01 4.513034969568252563e-02 -3.032761812210083008e-01 -7.744374871253967285e-02 9.841820597648620605e-02
1.526000000000000000e+03 6.859505653381347656e+00 3.550982284545898438e+01 1.575468778610229492e-01 -7.226362079381942749e-02 2.558497525751590729e-02 -4.476725123822689056e-03
1.527000000000000000e+03 7.233036041259765625e+01 -1.491656589508056641e+01 -4.740355312824249268e-01 8.284243941307067871e-01 1.063166558742523193e-01 8.372582197189331055e-01
1.528000000000000000e+03 7.137349700927734375e+01 -1.700574493408203125e+01 -1.617125153541564941e+00 -1.072323560714721680e+00 -8.068345785140991211e-01 1.257211327552795410e+00
1.529000000000000000e+03 2.059795951843261719e+01 7.499881744384765625e+00 1.712142825126647949e-01 -1.097733378410339355e-01 1.843228191137313843e-02 1.003847718238830566e-01
1.530000000000000000e+03 1.764216423034667969e+01 3.302126312255859375e+01 -1.384180039167404175e-01 -2.450349032878875732e-01 -1.150358766317367554e-01 1.822436898946762085e-01
1.531000000000000000e+03 6.685113525390625000e+01 -2.655747985839843750e+01 -1.743325740098953247e-01 9.796452522277832031e-01 2.415937930345535278e-01 -5.017334818840026855e-01
1.532000000000000000e+03 2.063103103637695312e+01 3.515895843505859375e+01 7.638955116271972656e-02 -2.754719257354736328e-01 -5.972471460700035095e-02 4.988776147365570068e-02
1.533000000000000000e+03 4.472251892089843750e+01 6.462373256683349609e+00 -9.076142907142639160e-01 -2.689423263072967529e-01 -3.529669940471649170e-01 4.668981730937957764e-01
1.534000000000000000e+03 4.650291824340820312e+01 3.867109060287475586e+00 -9.706894755363464355e-01 -2.448475956916809082e-01 -3.646611273288726807e-01 3.503915071487426758e-01
1.535000000000000000e+03 1.580483055114746094e+01 3.643171691894531250e+01 9.542349725961685181e-02 -1.342193484306335449e-01 -1.163875591009855270e-02 1.243748813867568970e-01
1.536000000000000000e+03 1.465475177764892578e+01 1.990180587768554688e+01 -8.984180539846420288e-02 7.040192931890487671e-02 -5.831962451338768005e-03 3.252444863319396973e-01
1.537000000000000000e+03 1.630276679992675781e+01 1.858354377746582031e+01 -4.796935915946960449e-01 -7.822735607624053955e-02 -1.673762798309326172e-01 1.678818762302398682e-01
1.538000000000000000e+03 3.413924407958984375e+01 2.272728347778320312e+01 -1.869371384382247925e-01 -5.538704991340637207e-01 -2.222422957420349121e-01 3.747765719890594482e-01
1.539000000000000000e+03 2.141685867309570312e+01 2.850749397277832031e+01 4.451233893632888794e-02 -1.520814001560211182e-01 -3.227071836590766907e-02 2.395782470703125000e-01
1.540000000000000000e+03 2.052769660949707031e+01 3.033830261230468750e+01 -1.455985903739929199e-01 -5.233578681945800781e-01 -2.006869465112686157e-01 1.180643215775489807e-01
1.541000000000000000e+03 1.694791793823242188e+01 2.319515800476074219e+01 5.459198951721191406e-01 2.340436130762100220e-01 2.339890450239181519e-01 3.103367090225219727e-01
1.542000000000000000e+03 1.441352653503417969e+01 2.281806373596191406e+01 4.368904531002044678e-01 8.956587314605712891e-02 1.579369008541107178e-01 2.167532444000244141e-01
1.543000000000000000e+03 6.299104094505310059e-01 2.898725891113281250e+01 8.847879245877265930e-03 -3.187631666660308838e-01 -9.297458827495574951e-02 5.344904959201812744e-02
1.544000000000000000e+03 3.662543058395385742e+00 2.908942985534667969e+01 -2.167634665966033936e-02 -3.709964752197265625e-01 -1.178018525242805481e-01 1.802773177623748779e-01
1.545000000000000000e+03 4.890911579132080078e+00 2.791763114929199219e+01 -9.138084948062896729e-02 -5.580998659133911133e-01 -1.948442161083221436e-01 1.455368697643280029e-01
1.546000000000000000e+03 7.815792083740234375e+01 -1.497345256805419922e+01 -1.827417612075805664e-01 1.075416660308837891e+01 3.171427488327026367e+00 4.414899647235870361e-01
1.547000000000000000e+03 7.290320587158203125e+01 -1.656954002380371094e+01 -8.782356977462768555e-01 1.796784043312072754e+00 2.755644917488098145e-01 4.522957503795623779e-01
1.548000000000000000e+03 5.946106910705566406e+00 5.020749568939208984e+00 -6.451040506362915039e-02 -1.214682776480913162e-02 -2.299716882407665253e-02 -3.401590278372168541e-03
1.549000000000000000e+03 1.308151340484619141e+01 2.141959762573242188e+01 4.362207651138305664e-02 1.135518327355384827e-01 4.715217277407646179e-02 2.980704307556152344e-01
1.550000000000000000e+03 1.167750549316406250e+01 2.264557266235351562e+01 -8.177668601274490356e-02 1.798593252897262573e-02 -1.913722604513168335e-02 9.080414474010467529e-02
1.551000000000000000e+03 7.097032546997070312e+00 2.255151176452636719e+01 -1.223784610629081726e-01 -2.626235485076904297e-01 -1.155005991458892822e-01 9.506553411483764648e-02
1.552000000000000000e+03 1.620626640319824219e+01 2.004007148742675781e+01 -9.576982259750366211e-02 1.198975951410830021e-03 -2.837125584483146667e-02 2.014123797416687012e-01
1.553000000000000000e+03 6.882857513427734375e+01 -1.441094017028808594e+01 -6.758350729942321777e-01 -5.849906206130981445e-01 -3.782477080821990967e-01 8.766710758209228516e-01
1.554000000000000000e+03 6.727625274658203125e+01 -1.373841667175292969e+01 -1.518090605735778809e+00 -2.379468083381652832e-02 -4.625655710697174072e-01 4.542162716388702393e-01
1.555000000000000000e+03 3.736667251586914062e+01 3.394975662231445312e+01 6.109687089920043945e-01 1.436113119125366211e-01 2.263740003108978271e-01 2.373816967010498047e-01
1.556000000000000000e+03 3.123291778564453125e+01 2.884905433654785156e+01 -7.858192920684814453e-02 -5.789384841918945312e-01 -1.972561329603195190e-01 2.987614572048187256e-01
1.557000000000000000e+03 6.478023529052734375e+01 -2.548378753662109375e+01 -6.879139691591262817e-02 1.309678435325622559e+00 3.722661137580871582e-01 -3.503916561603546143e-01
1.558000000000000000e+03 6.265994262695312500e+01 -2.052670097351074219e+01 5.295717120170593262e-01 1.020407319068908691e+00 4.649936854839324951e-01 4.403064027428627014e-02
1.559000000000000000e+03 3.675186920166015625e+01 2.147604560852050781e+01 7.058931887149810791e-02 -5.571771264076232910e-01 -1.459763497114181519e-01 4.100040495395660400e-01
1.560000000000000000e+03 7.805780029296875000e+01 -2.488121986389160156e+01 3.245815336704254150e-01 7.132005691528320312e+00 2.236976146697998047e+00 4.076735079288482666e-01
1.561000000000000000e+03 7.527240753173828125e+01 -2.434062957763671875e+01 1.680613756179809570e+00 7.070855617523193359e+00 2.625440835952758789e+00 1.243694901466369629e+00
1.562000000000000000e+03 5.381750869750976562e+01 -2.477383613586425781e+01 -9.765161573886871338e-02 -1.813338845968246460e-01 -8.369565010070800781e-02 -1.333291232585906982e-01
1.563000000000000000e+03 4.556172943115234375e+01 9.130364418029785156e+00 -6.817248463630676270e-01 -6.400824189186096191e-01 -3.965421617031097412e-01 6.382165551185607910e-01
1.564000000000000000e+03 4.466761779785156250e+01 1.110244369506835938e+01 -2.855183184146881104e-01 -2.206708490848541260e-01 -1.518567502498626709e-01 3.559006452560424805e-01
1.565000000000000000e+03 5.078175354003906250e+01 5.046937942504882812e+00 -1.131267309188842773e+00 -1.001915484666824341e-01 -3.694376647472381592e-01 7.777580022811889648e-01
1.566000000000000000e+03 3.659989929199218750e+01 3.592955017089843750e+01 5.219648480415344238e-01 6.698348093777894974e-03 1.585989594459533691e-01 1.844619959592819214e-02
1.567000000000000000e+03 6.285586929321289062e+01 -3.829705047607421875e+01 1.099802136421203613e+00 4.835620224475860596e-01 4.750092625617980957e-01 2.749238610267639160e-01
1.568000000000000000e+03 5.419180679321289062e+01 6.582553386688232422e+00 5.628001689910888672e-01 6.345477700233459473e-01 3.592043817043304443e-01 5.205305814743041992e-01
1.569000000000000000e+03 7.939991760253906250e+01 -2.078598785400390625e+01 -3.017910197377204895e-02 9.308972358703613281e+00 2.783638000488281250e+00 5.042842030525207520e-01
1.570000000000000000e+03 7.739308929443359375e+01 -3.848116683959960938e+01 -9.048120118677616119e-03 5.461983203887939453e+00 1.635880589485168457e+00 2.645925581455230713e-01
1.571000000000000000e+03 7.920444488525390625e+01 -3.470468139648437500e+01 8.740532211959362030e-03 6.211330413818359375e+00 1.866021275520324707e+00 7.916187494993209839e-02
1.572000000000000000e+03 7.710691070556640625e+01 -2.783790016174316406e+01 -9.328157640993595123e-03 6.601451396942138672e+00 1.977636933326721191e+00 2.739949524402618408e-01
1.573000000000000000e+03 7.942271423339843750e+01 -2.783395767211914062e+01 1.287024468183517456e-02 6.779108047485351562e+00 2.037593603134155273e+00 1.643990253796800971e-04
1.574000000000000000e+03 7.601023101806640625e+01 -2.635124206542968750e+01 2.956526279449462891e-01 6.619179725646972656e+00 2.074449777603149414e+00 5.311203598976135254e-01
1.575000000000000000e+03 7.633963012695312500e+01 -2.934447669982910156e+01 -1.293400228023529053e-01 6.179036140441894531e+00 1.814908742904663086e+00 4.292226731777191162e-01
1.576000000000000000e+03 7.939376831054687500e+01 -3.057236480712890625e+01 -1.007436495274305344e-02 6.657602310180664062e+00 1.994258403778076172e+00 4.629934951663017273e-02
1.577000000000000000e+03 7.773036193847656250e+01 -3.298650741577148438e+01 -3.954869229346513748e-03 5.951120853424072266e+00 1.784149765968322754e+00 2.263474613428115845e-01
1.578000000000000000e+03 7.598051452636718750e+01 -3.849488067626953125e+01 5.305945128202438354e-02 5.186264038085937500e+00 1.571797132492065430e+00 1.037595942616462708e-01
1.579000000000000000e+03 7.681781768798828125e+01 -3.955331802368164062e+01 4.685108363628387451e-02 5.442559719085693359e+00 1.646823167800903320e+00 1.492901146411895752e-01
1.580000000000000000e+03 7.818692016601562500e+01 1.642914199829101562e+01 1.382776051759719849e-01 6.121328830718994141e+00 1.877881884574890137e+00 -2.713934481143951416e-01
1.581000000000000000e+03 7.762118530273437500e+01 3.309152221679687500e+01 1.059679780155420303e-02 4.659394741058349609e+00 1.400997519493103027e+00 -1.499594002962112427e-01
1.582000000000000000e+03 7.802156829833984375e+01 2.899982643127441406e+01 9.446808136999607086e-03 5.012225627899169922e+00 1.506501674652099609e+00 -1.757418513298034668e-01
1.583000000000000000e+03 7.935961151123046875e+01 2.778968048095703125e+01 6.133874412626028061e-03 5.393978118896484375e+00 1.620033621788024902e+00 -5.865919962525367737e-02
1.584000000000000000e+03 7.812553405761718750e+01 2.626226234436035156e+01 -8.649568073451519012e-03 5.271536827087402344e+00 1.578866124153137207e+00 -1.666701287031173706e-01
1.585000000000000000e+03 7.814837646484375000e+01 2.489361572265625000e+01 -2.202650904655456543e-02 5.397215843200683594e+00 1.612556815147399902e+00 -1.487748622894287109e-01
1.586000000000000000e+03 7.938082885742187500e+01 2.501497268676757812e+01 3.900556592270731926e-03 5.652787208557128906e+00 1.697006344795227051e+00 -4.522209987044334412e-02
1.587000000000000000e+03 7.343418121337890625e+01 1.658267784118652344e+01 8.380696177482604980e-01 5.935125350952148438e+00 2.031958341598510742e+00 -7.844389081001281738e-01
1.588000000000000000e+03 7.936885070800781250e+01 1.802578353881835938e+01 2.606035210192203522e-02 5.947672843933105469e+00 1.792119979858398438e+00 -3.609945997595787048e-02
1.589000000000000000e+03 7.672183227539062500e+01 1.906616210937500000e+01 9.869748353958129883e-02 5.726142406463623047e+00 1.747451901435852051e+00 -1.899381130933761597e-01
1.590000000000000000e+03 7.712534332275390625e+01 1.222203826904296875e+01 1.951722055673599243e-01 6.921992778778076172e+00 2.135149478912353516e+00 -1.093006968498229980e+00
1.591000000000000000e+03 7.796060943603515625e+01 1.074811077117919922e+01 1.608885638415813446e-02 7.650957107543945312e+00 2.300113916397094727e+00 -9.808557033538818359e-01
1.592000000000000000e+03 7.431216430664062500e+01 -1.584257984161376953e+01 -7.129434347152709961e-01 4.100260734558105469e+00 1.016195178031921387e+00 7.831410169601440430e-01
1.593000000000000000e+03 7.943167114257812500e+01 -1.380280590057373047e+01 -1.913749612867832184e-02 1.330756187438964844e+01 3.986527442932128906e+00 1.181589439511299133e-02
1.594000000000000000e+03 7.942958068847656250e+01 -1.941195869445800781e+01 -1.931314170360565186e-02 1.048302459716796875e+01 3.139113426208496094e+00 4.429150819778442383e-01
1.595000000000000000e+03 7.692200469970703125e+01 -2.296028518676757812e+01 6.823971271514892578e-01 7.458033084869384766e+00 2.442129135131835938e+00 1.320246458053588867e+00
1.596000000000000000e+03 7.966390991210937500e+01 -6.759953022003173828e+00 4.448788762092590332e-01 1.724679946899414062e+00 6.508676409721374512e-01 -9.104502797126770020e-01
1.597000000000000000e+03 7.945722961425781250e+01 -5.652287602424621582e-02 -9.163335710763931274e-02 1.326890754699707031e+01 3.953182220458984375e+00 7.874499261379241943e-02
1.598000000000000000e+03 7.933829498291015625e+01 2.917733955383300781e+01 -7.054023444652557373e-03 5.258033752441406250e+00 1.575294017791748047e+00 -6.153696775436401367e-02
1.599000000000000000e+03 7.793013763427734375e+01 3.036128234863281250e+01 6.427759770303964615e-03 4.887969017028808594e+00 1.468319058418273926e+00 -1.716456860303878784e-01
1.600000000000000000e+03 7.790870666503906250e+01 9.263459205627441406e+00 -3.619518131017684937e-02 8.099709510803222656e+00 2.419054269790649414e+00 -1.006089329719543457e+00
1.601000000000000000e+03 7.546123504638671875e+01 -2.023459225893020630e-01 -1.209920406341552734e+00 6.873365402221679688e+00 1.699033498764038086e+00 -9.628562927246093750e-01
1.602000000000000000e+03 7.943066406250000000e+01 1.317192554473876953e+00 -6.719753146171569824e-02 1.303238391876220703e+01 3.889555931091308594e+00 -1.179154366254806519e-01
1.603000000000000000e+03 7.797323608398437500e+01 4.164265823364257812e+01 8.642730116844177246e-02 4.456080436706542969e+00 1.362752318382263184e+00 -2.419660240411758423e-02
1.604000000000000000e+03 7.537220001220703125e+01 3.784350967407226562e+01 4.920672997832298279e-02 4.142825603485107422e+00 1.257609724998474121e+00 -7.290288805961608887e-02
1.605000000000000000e+03 7.912607574462890625e+01 3.480064392089843750e+01 -2.287387724209111184e-05 4.805631637573242188e+00 1.441682696342468262e+00 -5.325528606772422791e-02
1.606000000000000000e+03 7.816564941406250000e+01 1.223809242248535156e+01 1.173153519630432129e-01 7.180670261383056641e+00 2.189395666122436523e+00 -8.304426670074462891e-01
1.607000000000000000e+03 7.822617340087890625e+01 2.493224382400512695e+00 -1.500675976276397705e-01 1.061072731018066406e+01 3.138198137283325195e+00 -6.404731273651123047e-01
1.608000000000000000e+03 7.940916442871093750e+01 4.063737392425537109e+00 -3.306230902671813965e-02 1.186193370819091797e+01 3.548661470413208008e+00 -2.518761456012725830e-01
1.609000000000000000e+03 7.821588134765625000e+01 3.832265853881835938e+00 -1.796866394579410553e-02 1.016343879699707031e+01 3.043641090393066406e+00 -7.200306653976440430e-01
1.610000000000000000e+03 7.956116485595703125e+01 -2.807150363922119141e+00 -1.656911522150039673e-01 1.076081085205078125e+01 3.178535938262939453e+00 1.071634650230407715e+00
1.611000000000000000e+03 7.815280914306640625e+01 -5.124308109283447266e+00 2.319940567016601562e+00 1.451887130737304688e+01 5.051643371582031250e+00 3.926593303680419922e+00
1.612000000000000000e+03 7.967193603515625000e+01 -5.487510204315185547e+00 4.151716232299804688e-01 1.046038985252380371e+00 4.383631646633148193e-01 1.009750127792358398e+00
1.613000000000000000e+03 7.887876129150390625e+01 -4.125014781951904297e+00 -4.626348018646240234e-01 1.040100955963134766e+01 2.981512546539306641e+00 3.662294864654541016e+00
1.614000000000000000e+03 7.961582183837890625e+01 -8.048500061035156250e+00 5.830121785402297974e-02 6.909752845764160156e+00 2.090416193008422852e+00 -1.575080871582031250e+00
1.615000000000000000e+03 7.838791656494140625e+01 -1.075314617156982422e+01 -6.272156834602355957e-01 1.167141056060791016e+01 3.313258409500122070e+00 -9.533789157867431641e-01
1.616000000000000000e+03 7.627825927734375000e+01 -1.215065288543701172e+01 -9.852885603904724121e-01 8.485633850097656250e+00 2.250103473663330078e+00 5.286968946456909180e-01
1.617000000000000000e+03 7.544889831542968750e+01 -1.129355907440185547e+01 -1.622601985931396484e+00 7.344101428985595703e+00 1.716449856758117676e+00 4.052960574626922607e-01
1.618000000000000000e+03 7.606730651855468750e+01 -1.873559761047363281e+01 -5.939292907714843750e-01 7.427435874938964844e+00 2.050051927566528320e+00 1.679532647132873535e+00
1.619000000000000000e+03 7.817925262451171875e+01 -2.052764129638671875e+01 -4.560999514069408178e-04 8.837643623352050781e+00 2.651156425476074219e+00 1.292846322059631348e+00
1.620000000000000000e+03 1.955660438537597656e+01 7.144569396972656250e+00 1.564895063638687134e-01 -2.447488158941268921e-02 3.960438817739486694e-02 7.689770311117172241e-02
1.621000000000000000e+03 5.400613403320312500e+01 -3.389678192138671875e+01 2.985670268535614014e-01 5.962209105491638184e-01 2.684363722801208496e-01 -2.514511942863464355e-01
1.622000000000000000e+03 5.602672958374023438e+01 -3.209206008911132812e+01 6.553386151790618896e-02 8.009886741638183594e-01 2.599567472934722900e-01 5.204729363322257996e-02
1.623000000000000000e+03 5.486172103881835938e+01 -2.929434776306152344e+01 2.661983370780944824e-01 2.993455529212951660e-01 1.696631759405136108e-01 -1.283221878111362457e-02
1.624000000000000000e+03 5.668814086914062500e+01 -3.011587333679199219e+01 1.858558505773544312e-01 5.499448180198669434e-01 2.207401990890502930e-01 2.189809530973434448e-01
1.625000000000000000e+03 4.504566955566406250e+01 2.174840164184570312e+01 4.644871950149536133e-01 3.855427205562591553e-01 2.550089657306671143e-01 2.346656322479248047e-01
1.626000000000000000e+03 2.210365676879882812e+01 1.122133922576904297e+01 7.435167580842971802e-02 -1.519980132579803467e-01 -2.329389937222003937e-02 5.332333594560623169e-02
1.627000000000000000e+03 4.073786544799804688e+01 3.752424621582031250e+01 5.016487240791320801e-01 6.886428594589233398e-02 1.711539030075073242e-01 1.180819049477577209e-01
1.628000000000000000e+03 2.080506324768066406e+01 1.799976348876953125e+01 -2.491417378187179565e-01 -1.811520904302597046e-01 -1.290881484746932983e-01 9.327449649572372437e-02
1.629000000000000000e+03 5.981041336059570312e+01 1.056763076782226562e+01 5.905001163482666016e-01 1.067037701606750488e+00 4.972613453865051270e-01 -1.318870633840560913e-01
1.630000000000000000e+03 5.465809631347656250e+01 9.027660369873046875e+00 1.466282308101654053e-01 4.698821306228637695e-01 1.849531084299087524e-01 3.244175314903259277e-01
1.631000000000000000e+03 5.673430633544921875e+01 -3.688225936889648438e+01 6.723178625106811523e-01 7.588326930999755859e-01 4.293451607227325439e-01 -4.525083601474761963e-01
1.632000000000000000e+03 5.906184387207031250e+01 -4.119108963012695312e+01 1.061437606811523438e+00 4.691370427608489990e-01 4.591723978519439697e-01 -6.470161676406860352e-02
1.633000000000000000e+03 3.567583465576171875e+01 2.112565040588378906e+01 9.784059226512908936e-02 -5.792965888977050781e-01 -1.444367915391921997e-01 4.395171105861663818e-01
1.634000000000000000e+03 8.701526641845703125e+00 1.160114192962646484e+01 -6.551136076450347900e-02 -1.650602966547012329e-01 -6.917149573564529419e-02 1.441448926925659180e-01
1.635000000000000000e+03 4.639958953857421875e+01 1.781924247741699219e+01 4.117204546928405762e-01 5.174243450164794922e-01 2.787434458732604980e-01 3.724311292171478271e-01
1.636000000000000000e+03 8.975595474243164062e+00 1.564358711242675781e+01 2.208028584718704224e-01 1.857590489089488983e-02 7.181362807750701904e-02 1.729463934898376465e-01
1.637000000000000000e+03 8.596561431884765625e+00 1.446661472320556641e+01 1.346655935049057007e-01 -3.734347969293594360e-02 2.919663675129413605e-02 1.776669770479202271e-01
1.638000000000000000e+03 2.193991470336914062e+01 1.340415382385253906e+01 -4.599720984697341919e-02 -1.971101015806198120e-01 -7.293219119310379028e-02 2.065794356167316437e-02
1.639000000000000000e+03 2.061355590820312500e+01 1.289390754699707031e+01 -8.697970770299434662e-04 -1.854535788297653198e-01 -5.589701235294342041e-02 2.231774851679801941e-03
1.640000000000000000e+03 5.084585952758789062e+01 2.931015205383300781e+01 1.748008280992507935e-01 6.938359737396240234e-01 2.605910301208496094e-01 1.579708755016326904e-01
1.641000000000000000e+03 1.438080501556396484e+01 4.540225505828857422e+00 -1.994078904390335083e-01 -2.654515951871871948e-02 -6.778591126203536987e-02 2.473095059394836426e-01
1.642000000000000000e+03 1.693319129943847656e+01 3.940548181533813477e+00 -2.866040170192718506e-01 1.576882973313331604e-02 -8.125056326389312744e-02 2.224676460027694702e-01
1.643000000000000000e+03 1.041056632995605469e+01 7.800710201263427734e+00 -2.685328722000122070e-01 -2.185148000717163086e-01 -1.461142897605895996e-01 1.899592280387878418e-01
1.644000000000000000e+03 7.447895526885986328e+00 3.500216007232666016e+00 -3.727287426590919495e-02 -1.806215383112430573e-02 -1.660050824284553528e-02 -1.461803168058395386e-02
1.645000000000000000e+03 4.462339401245117188e+01 2.312846565246582031e+01 5.440028905868530273e-01 4.720133543014526367e-01 3.048048913478851318e-01 4.338659644126892090e-01
1.646000000000000000e+03 4.424790954589843750e+01 3.195643806457519531e+01 9.156394749879837036e-03 -1.400615274906158447e-01 -3.927154093980789185e-02 8.316134661436080933e-02
1.647000000000000000e+03 3.355737686157226562e+01 2.867980957031250000e+01 -6.155610829591751099e-02 -4.869217872619628906e-01 -1.645433753728866577e-01 1.896497309207916260e-01
1.648000000000000000e+03 4.324996185302734375e+01 3.294193267822265625e+01 1.506559550762176514e-01 -9.290853887796401978e-02 1.732422783970832825e-02 2.116818726062774658e-02
1.649000000000000000e+03 5.830357360839843750e+01 -2.809197616577148438e+01 3.906744122505187988e-01 4.511741995811462402e-01 2.525545656681060791e-01 3.675920367240905762e-01
1.650000000000000000e+03 5.630487442016601562e+01 -2.537473106384277344e+01 1.413732618093490601e-01 3.971764817833900452e-02 5.432727187871932983e-02 1.232250183820724487e-01
1.651000000000000000e+03 4.655839157104492188e+01 2.073557281494140625e+01 3.733049035072326660e-01 3.780725896358489990e-01 2.254132479429244995e-01 2.362834960222244263e-01
1.652000000000000000e+03 4.524295043945312500e+01 1.836641883850097656e+01 3.025884628295898438e-01 4.346902370452880859e-01 2.211836129426956177e-01 2.127695828676223755e-01
1.653000000000000000e+03 5.650675201416015625e+01 1.405233001708984375e+01 1.080986782908439636e-01 4.209189713001251221e-01 1.587052941322326660e-01 -9.341511130332946777e-02
1.654000000000000000e+03 5.182491302490234375e+01 1.702902412414550781e+01 -4.378384724259376526e-02 -7.501808553934097290e-02 -3.564058244228363037e-02 7.610411942005157471e-02
1.655000000000000000e+03 6.766009521484375000e+01 -4.154401397705078125e+01 7.560843825340270996e-01 2.159000635147094727e+00 8.745254874229431152e-01 1.119273677468299866e-01
1.656000000000000000e+03 5.031136703491210938e+01 -3.084219741821289062e+01 3.599891662597656250e-01 2.651343941688537598e-01 1.875370740890502930e-01 -3.503856360912322998e-01
1.657000000000000000e+03 5.472091674804687500e+01 -3.207489776611328125e+01 1.870082467794418335e-01 6.649181842803955078e-01 2.555779218673706055e-01 -1.746190488338470459e-01
1.658000000000000000e+03 6.706359863281250000e+01 -3.242970657348632812e+01 3.295354545116424561e-01 2.221636533737182617e+00 7.653515934944152832e-01 9.194300323724746704e-02
1.659000000000000000e+03 6.677658081054687500e+01 -3.040539550781250000e+01 6.061207056045532227e-01 1.613640308380126953e+00 6.659283041954040527e-01 -2.811588943004608154e-01
1.660000000000000000e+03 4.115541076660156250e+01 1.162565994262695312e+01 -5.130842328071594238e-01 -2.963891923427581787e-01 -2.428420335054397583e-01 5.543224215507507324e-01
1.661000000000000000e+03 3.467718887329101562e+01 3.338951110839843750e+01 3.795294761657714844e-01 -1.986287832260131836e-01 5.427021160721778870e-02 1.194578707218170166e-01
1.662000000000000000e+03 2.733299636840820312e+01 3.081204032897949219e+01 1.614381074905395508e-01 -1.973698586225509644e-01 -1.077952515333890915e-02 4.981848299503326416e-01
1.663000000000000000e+03 1.354402160644531250e+01 -1.314402675628662109e+01 2.097812481224536896e-02 7.763582468032836914e-02 2.958418428897857666e-02 -4.855489358305931091e-02
1.664000000000000000e+03 1.545070075988769531e+01 -1.452430438995361328e+01 4.449882358312606812e-02 1.773181259632110596e-01 6.654508411884307861e-02 -7.046008855104446411e-02
1.665000000000000000e+03 6.575692749023437500e+01 -2.595021057128906250e+01 -1.990728080272674561e-01 1.175646662712097168e+00 2.929721474647521973e-01 -4.288897216320037842e-01
1.666000000000000000e+03 4.359164428710937500e+01 1.404070091247558594e+01 8.435273170471191406e-02 1.993978321552276611e-01 8.512517064809799194e-02 2.315326631069183350e-01
1.667000000000000000e+03 3.835256195068359375e+01 1.012390613555908203e+01 -8.907690048217773438e-01 -1.234128713607788086e+00 -6.374692916870117188e-01 9.936434030532836914e-01
1.668000000000000000e+03 4.546849060058593750e+01 3.720241165161132812e+01 5.482721328735351562e-01 3.655946254730224609e-02 1.754494756460189819e-01 2.239232882857322693e-02
1.669000000000000000e+03 3.500978469848632812e+01 2.816123390197753906e+01 -5.406397953629493713e-02 -4.621787369251251221e-01 -1.548728197813034058e-01 8.025175333023071289e-02
1.670000000000000000e+03 5.588378906250000000e+01 -2.884748077392578125e+01 2.527525126934051514e-01 3.272760510444641113e-01 1.740085631608963013e-01 1.162056028842926025e-01
1.671000000000000000e+03 6.772103118896484375e+01 -3.336225128173828125e+01 4.573210179805755615e-01 2.300743341445922852e+00 8.274192810058593750e-01 3.408999741077423096e-01
1.672000000000000000e+03 7.120729827880859375e+01 -2.922126579284667969e+01 5.559175610542297363e-01 2.586093664169311523e+00 9.426033496856689453e-01 1.146463513374328613e+00
1.673000000000000000e+03 6.425577545166015625e+01 -2.648017120361328125e+01 1.973958872258663177e-02 1.191766619682312012e+00 3.634518384933471680e-01 -5.248820185661315918e-01
1.674000000000000000e+03 3.618243408203125000e+01 2.261443710327148438e+01 -1.270415931940078735e-01 -5.556367635726928711e-01 -2.048034965991973877e-01 3.772512078285217285e-01
1.675000000000000000e+03 4.612910842895507812e+01 3.219935989379882812e+01 1.769286245107650757e-01 3.146226331591606140e-02 6.251727044582366943e-02 -4.517715051770210266e-02
1.676000000000000000e+03 4.390309143066406250e+01 1.552140235900878906e+01 1.552435904741287231e-01 3.481925725936889648e-01 1.510308533906936646e-01 2.077591568231582642e-01
1.677000000000000000e+03 5.157579040527343750e+01 1.885154724121093750e+01 1.735880076885223389e-01 1.760479062795639038e-03 5.260454490780830383e-02 -3.994047269225120544e-02
1.678000000000000000e+03 5.260098648071289062e+01 1.795644378662109375e+01 7.523386925458908081e-02 -4.472560714930295944e-03 2.122839353978633881e-02 -4.801044613122940063e-02
1.679000000000000000e+03 5.362387084960937500e+01 1.698455810546875000e+01 8.537766337394714355e-02 -1.293523423373699188e-02 2.173272892832756042e-02 -5.716599896550178528e-02
1.680000000000000000e+03 5.858475112915039062e+01 1.063852596282958984e+01 4.327555894851684570e-01 7.935667037963867188e-01 3.678966760635375977e-01 8.860643208026885986e-02
1.681000000000000000e+03 5.597024154663085938e+01 1.001490879058837891e+01 2.085743248462677002e-01 2.328551560640335083e-01 1.324288398027420044e-01 3.887477517127990723e-01
1.682000000000000000e+03 5.195923805236816406e+00 -1.724486160278320312e+01 -4.230527579784393311e-02 -1.856414526700973511e-01 -6.838402152061462402e-02 -7.472501695156097412e-02
1.683000000000000000e+03 5.839397907257080078e+00 -1.597331714630126953e+01 -6.141686439514160156e-02 -1.623340994119644165e-01 -6.712529063224792480e-02 -8.744039386510848999e-02
1.684000000000000000e+03 1.554164886474609375e+01 -1.563382434844970703e+01 5.340237170457839966e-02 2.369515895843505859e-01 8.710618317127227783e-02 -9.879498183727264404e-02
1.685000000000000000e+03 1.590810585021972656e+01 -1.684268760681152344e+01 2.121700346469879150e-02 1.803263276815414429e-01 6.046300008893013000e-02 -9.420486539602279663e-02
1.686000000000000000e+03 2.133395910263061523e+00 -2.206837081909179688e+01 2.365059778094291687e-02 -9.742110967636108398e-02 -2.213115245103836060e-02 -2.991885133087635040e-02
1.687000000000000000e+03 4.720491027832031250e+01 -1.781666183471679688e+01 -7.001592516899108887e-01 -6.226294040679931641e-01 -3.968366086483001709e-01 -4.929558932781219482e-01
1.688000000000000000e+03 1.765043258666992188e+01 -1.220345211029052734e+01 -5.352431163191795349e-02 5.669639259576797485e-02 9.516251739114522934e-04 2.078597433865070343e-02
1.689000000000000000e+03 5.582207489013671875e+01 -1.678819847106933594e+01 3.224658966064453125e-01 -9.773541986942291260e-02 6.741914153099060059e-02 -2.154855579137802124e-01
1.690000000000000000e+03 5.073030090332031250e+01 -2.522961997985839844e+01 4.293180108070373535e-01 1.558392047882080078e-01 1.755471676588058472e-01 -2.294501066207885742e-01
1.691000000000000000e+03 9.272097587585449219e+00 -2.804035377502441406e+01 -7.828391343355178833e-02 -1.020226255059242249e-01 -5.409196391701698303e-02 -8.553425222635269165e-02
1.692000000000000000e+03 5.194735336303710938e+01 -2.532030868530273438e+01 1.371138095855712891e-01 -5.763988476246595383e-03 3.940494731068611145e-02 -1.170524433255195618e-01
1.693000000000000000e+03 5.232450485229492188e+01 -1.487962627410888672e+01 -4.564246833324432373e-01 2.529094815254211426e-01 -6.105456128716468811e-02 -7.829477787017822266e-01
1.694000000000000000e+03 5.301708602905273438e+01 -1.632622146606445312e+01 3.539693653583526611e-01 4.277961254119873047e-01 2.345296442508697510e-01 -4.620092511177062988e-01
1.695000000000000000e+03 1.609894943237304688e+01 -2.306655120849609375e+01 -6.592164188623428345e-02 -1.906769871711730957e-01 -7.697959244251251221e-02 -1.934436112642288208e-01
1.696000000000000000e+03 1.411948680877685547e+01 -2.617737007141113281e+01 6.902392022311687469e-03 -2.835577130317687988e-01 -8.299659937620162964e-02 -1.535122990608215332e-01
1.697000000000000000e+03 6.002323031425476074e-01 -2.629681777954101562e+01 -3.371045924723148346e-03 -1.257356107234954834e-01 -3.873199969530105591e-02 4.752170760184526443e-03
1.698000000000000000e+03 1.416368675231933594e+01 -2.356862449645996094e+01 -2.924808301031589508e-02 -2.807067930698394775e-01 -9.298646450042724609e-02 -2.198142111301422119e-01
1.699000000000000000e+03 1.303649902343750000e+01 -2.311179924011230469e+01 -8.958573639392852783e-02 -1.808841675519943237e-01 -8.114097267389297485e-02 -1.731976121664047241e-01
1.700000000000000000e+03 5.833835005760192871e-01 -1.630558395385742188e+01 -3.045102814212441444e-03 3.197362273931503296e-02 8.678555488586425781e-03 -5.915045272558927536e-03
1.701000000000000000e+03 1.806308555603027344e+01 -1.859799766540527344e+01 -1.357449293136596680e-01 4.013082012534141541e-03 -3.951955586671829224e-02 -2.613176703453063965e-01
1.702000000000000000e+03 4.098935699462890625e+01 -2.112986183166503906e+01 2.113251984119415283e-01 -9.788154810667037964e-02 3.403309732675552368e-02 -5.573511719703674316e-01
1.703000000000000000e+03 4.643875122070312500e+01 -2.709370803833007812e+01 3.369601070880889893e-01 3.117768168449401855e-01 1.946210712194442749e-01 -2.311929911375045776e-01
1.704000000000000000e+03 5.615628814697265625e+01 -1.956448554992675781e+01 2.022460252046585083e-01 -3.078703396022319794e-02 5.143769830465316772e-02 -3.044331967830657959e-01
1.705000000000000000e+03 5.535004043579101562e+01 -2.204285621643066406e+01 -2.458006329834461212e-02 -4.661830067634582520e-01 -1.472289264202117920e-01 -1.090048551559448242e-01
1.706000000000000000e+03 5.476346206665039062e+01 -2.717836189270019531e+01 2.619934678077697754e-01 8.362596482038497925e-02 1.036858335137367249e-01 4.480384755879640579e-03
1.707000000000000000e+03 1.318246006965637207e+00 -4.011170196533203125e+01 9.292446775361895561e-04 -2.774976491928100586e-01 -8.297052234411239624e-02 -1.019511092454195023e-02
1.708000000000000000e+03 7.483426928520202637e-01 3.733502578735351562e+01 6.822786293923854828e-03 -6.482863426208496094e-01 -1.924390792846679688e-01 -1.832794025540351868e-02
1.709000000000000000e+03 3.156823158264160156e+00 3.601322555541992188e+01 5.267040431499481201e-02 -4.298981428146362305e-01 -1.131683215498924255e-01 1.714370911940932274e-03
1.710000000000000000e+03 6.568404436111450195e-01 3.455744552612304688e+01 6.167544517666101456e-03 -6.694899797439575195e-01 -1.989967226982116699e-01 1.211900822818279266e-02
1.711000000000000000e+03 7.486864328384399414e-01 2.755291557312011719e+01 -1.933911070227622986e-02 -2.102128863334655762e-01 -6.886559724807739258e-02 4.447903856635093689e-02
1.712000000000000000e+03 7.624433040618896484e-01 2.608003616333007812e+01 -6.712771486490964890e-03 -1.522161215543746948e-01 -4.767866805195808411e-02 2.070836536586284637e-02
1.713000000000000000e+03 7.457807064056396484e-01 -3.605177307128906250e+01 2.061860635876655579e-03 -2.136868089437484741e-01 -6.348748505115509033e-02 -1.397616602480411530e-02
1.714000000000000000e+03 2.074136257171630859e+00 -3.319102478027343750e+01 -7.810237351804971695e-03 -1.578673124313354492e-01 -4.970326647162437439e-02 -3.661584109067916870e-02
1.715000000000000000e+03 5.794340968132019043e-01 2.328729438781738281e+01 2.503349911421537399e-03 -1.302457451820373535e-01 -3.832271695137023926e-02 -1.223692577332258224e-02
1.716000000000000000e+03 2.035950899124145508e+00 3.423308944702148438e+01 3.438092023134231567e-02 -5.218808650970458984e-01 -1.462499797344207764e-01 4.349644854664802551e-02
1.717000000000000000e+03 2.635051727294921875e+00 3.800734710693359375e+01 2.290555275976657867e-02 -4.886510670185089111e-01 -1.397236585617065430e-01 -4.181352257728576660e-02
1.718000000000000000e+03 3.416309118270874023e+00 3.925243377685546875e+01 1.101913675665855408e-02 -4.870568215847015381e-01 -1.428113132715225220e-01 -2.389455586671829224e-02
1.719000000000000000e+03 2.858698129653930664e+00 -2.777768325805664062e+01 -1.089323870837688446e-02 -9.842465072870254517e-02 -3.279536589980125427e-02 9.961472824215888977e-04
1.720000000000000000e+03 5.793552875518798828e+00 -2.406187057495117188e+01 5.652529001235961914e-02 -1.918061077594757080e-02 1.120340358465909958e-02 3.918648697435855865e-03
1.721000000000000000e+03 2.230207681655883789e+00 -3.712580108642578125e+01 5.104144569486379623e-03 -2.225118875503540039e-01 -6.522232294082641602e-02 -3.928464651107788086e-02
1.722000000000000000e+03 5.975869894027709961e-01 -1.769808006286621094e+01 -5.421220790594816208e-03 1.980078639462590218e-03 -1.032342668622732162e-03 -1.685345731675624847e-02
1.723000000000000000e+03 1.596372127532958984e+00 -9.168869972229003906e+00 1.592875807546079159e-03 3.929535858333110809e-03 1.656723557971417904e-03 6.697189528495073318e-03
1.724000000000000000e+03 6.633145809173583984e-01 -2.346066474914550781e+01 1.635618507862091064e-03 -1.353842467069625854e-01 -4.012458771467208862e-02 -2.559839980676770210e-03
1.725000000000000000e+03 5.766566991806030273e-01 2.053927612304687500e+01 3.780798055231571198e-03 -1.967941075563430786e-01 -5.790399014949798584e-02 -1.498661562800407410e-02
1.726000000000000000e+03 5.899272561073303223e-01 1.913080024719238281e+01 1.809601089917123318e-03 -2.247301191091537476e-01 -6.687615811824798584e-02 -8.021281100809574127e-03
1.727000000000000000e+03 6.352410912513732910e-01 1.482368278503417969e+01 2.231512451544404030e-03 -1.915677487850189209e-01 -5.680087208747863770e-02 1.919431611895561218e-02
1.728000000000000000e+03 6.034017205238342285e-01 1.338932132720947266e+01 2.206702250987291336e-03 -1.443588286638259888e-01 -4.264564067125320435e-02 2.413392625749111176e-02
1.729000000000000000e+03 5.363823771476745605e-01 7.781977176666259766e+00 -2.814230509102344513e-03 4.647108539938926697e-02 1.309705618768930435e-02 7.119860034435987473e-03
1.730000000000000000e+03 5.182687640190124512e-01 6.374404907226562500e+00 -2.450247295200824738e-03 5.687693506479263306e-02 1.632800698280334473e-02 -5.550616697291843593e-05
1.731000000000000000e+03 3.474716901779174805e+00 -3.919494247436523438e+01 2.267885580658912659e-02 -2.454211264848709106e-01 -6.682268530130386353e-02 -4.555901512503623962e-02
1.732000000000000000e+03 3.643426656723022461e+00 -3.437435913085937500e+01 -4.666560329496860504e-03 -1.721837669610977173e-01 -5.305510014295578003e-02 -6.676799803972244263e-02
1.733000000000000000e+03 2.175292015075683594e+00 -3.454789733886718750e+01 1.101019559428095818e-03 -1.807696521282196045e-01 -5.390058830380439758e-02 -4.262153059244155884e-02
1.734000000000000000e+03 1.973761439323425293e+00 -3.181758499145507812e+01 -5.978503730148077011e-03 -1.369396001100540161e-01 -4.287543147802352905e-02 -2.780692838132381439e-02
1.735000000000000000e+03 1.772715449333190918e+00 -2.640526199340820312e+01 3.054957138374447823e-03 -1.097913235425949097e-01 -3.202091157436370850e-02 1.075810566544532776e-02
1.736000000000000000e+03 4.817024230957031250e+00 -2.455371665954589844e+01 3.598527982831001282e-02 -5.978284403681755066e-02 -7.139270193874835968e-03 8.612553589046001434e-03
1.737000000000000000e+03 1.851184368133544922e+00 -2.500886344909667969e+01 1.781976548954844475e-03 -1.096233278512954712e-01 -3.235240653157234192e-02 6.905739195644855499e-03
1.738000000000000000e+03 2.173643589019775391e+00 -2.046280479431152344e+01 1.537294127047061920e-02 -8.318322151899337769e-02 -2.034308575093746185e-02 -5.112908408045768738e-02
1.739000000000000000e+03 2.651783466339111328e+00 -1.676917648315429688e+01 -2.566478773951530457e-02 -5.805956944823265076e-02 -2.511730790138244629e-02 -3.366546705365180969e-02
1.740000000000000000e+03 6.688814163208007812e-01 -1.910649490356445312e+01 3.874514659401029348e-04 -4.125726968050003052e-02 -1.226094458252191544e-02 -2.174749784171581268e-02
1.741000000000000000e+03 1.818265557289123535e+00 -1.336227607727050781e+01 -5.371417850255966187e-03 -1.861431053839623928e-03 -2.169854706153273582e-03 1.825185725465416908e-03
1.742000000000000000e+03 7.935357093811035156e+00 -1.090749549865722656e+01 -1.429202221333980560e-02 -6.434173136949539185e-02 -2.359012514352798462e-02 -3.456909954547882080e-02
1.743000000000000000e+03 5.826664566993713379e-01 -1.205199909210205078e+01 -1.852510176831856370e-04 3.506247326731681824e-02 1.046316605061292648e-02 3.163766348734498024e-03
1.744000000000000000e+03 2.737561941146850586e+00 -1.039607906341552734e+01 1.688292366452515125e-03 -1.516129076480865479e-02 -4.041899461299180984e-03 6.949926260858774185e-03
1.745000000000000000e+03 5.150859832763671875e+00 -3.612192153930664062e+00 -2.167393220588564873e-03 -1.587613113224506378e-02 -5.413057282567024231e-03 -9.025503881275653839e-03
1.746000000000000000e+03 3.396001577377319336e+00 -2.658671140670776367e+00 -1.482131658121943474e-03 -6.471802014857530594e-03 -2.386180218309164047e-03 -1.138748950324952602e-03
1.747000000000000000e+03 2.700739145278930664e+00 -2.719444036483764648e+00 -4.661099228542298079e-04 1.014594687148928642e-03 1.645454321987926960e-04 7.578699296573176980e-05
1.748000000000000000e+03 1.385315537452697754e+00 -3.286402463912963867e+00 1.210491609526798129e-04 2.333624754101037979e-03 7.364021730609238148e-04 1.276456518098711967e-03
1.749000000000000000e+03 4.794165492057800293e-01 4.975162982940673828e+00 -5.083048017695546150e-04 5.146074667572975159e-02 1.528573222458362579e-02 -4.381195176392793655e-03
1.750000000000000000e+03 3.843741655349731445e+00 4.677400588989257812e+00 -2.719214931130409241e-02 6.010931683704257011e-04 -7.977317087352275848e-03 -1.379094272851943970e-02
1.751000000000000000e+03 1.613363623619079590e+00 1.041764926910400391e+01 -9.065369144082069397e-03 -4.064684733748435974e-02 -1.491366419941186905e-02 5.280970036983489990e-02
1.752000000000000000e+03 5.351873040199279785e-01 1.058896255493164062e+01 -2.575850114226341248e-03 -2.334200963377952576e-02 -7.775357458740472794e-03 1.897098869085311890e-02
1.753000000000000000e+03 1.827471137046813965e+00 1.310608291625976562e+01 4.617936443537473679e-03 -1.211095377802848816e-01 -3.494748100638389587e-02 7.152498513460159302e-02
1.754000000000000000e+03 1.755031466484069824e+00 2.045745086669921875e+01 7.307671476155519485e-03 -2.162920981645584106e-01 -6.269532442092895508e-02 -2.915480360388755798e-02
1.755000000000000000e+03 1.777933597564697266e+00 1.905501747131347656e+01 1.423312351107597351e-02 -2.192144244909286499e-01 -6.149439141154289246e-02 -1.788765192031860352e-02
1.756000000000000000e+03 1.861184716224670410e+00 2.427977371215820312e+01 -1.939082704484462738e-02 -2.091510146856307983e-01 -6.856255233287811279e-02 -6.615319754928350449e-03
1.757000000000000000e+03 4.515405654907226562e+01 -1.938041305541992188e+01 -7.543382048606872559e-02 -2.290093749761581421e-01 -9.133295714855194092e-02 -5.333058238029479980e-01
1.758000000000000000e+03 5.689716720581054688e+01 -2.134122085571289062e+01 1.115458458662033081e-01 -1.041618088493123651e-04 3.343250602483749390e-02 -2.009063661098480225e-01
1.759000000000000000e+03 5.742048645019531250e+01 -2.019816970825195312e+01 2.732639610767364502e-01 7.389232981950044632e-03 8.419595658779144287e-02 -2.691582739353179932e-01
1.760000000000000000e+03 4.709085845947265625e+01 -2.398201942443847656e+01 3.422792851924896240e-01 4.682626426219940186e-01 2.431625872850418091e-01 -3.022858798503875732e-01
1.761000000000000000e+03 3.423363113403320312e+01 1.346567916870117188e+01 -5.617041587829589844e-01 -3.003168106079101562e-01 -2.586062848567962646e-01 5.263366103172302246e-01
1.762000000000000000e+03 5.262041473388671875e+01 -6.317900180816650391e+00 -3.023521602153778076e-01 -6.055527329444885254e-01 -2.723714709281921387e-01 3.189335167407989502e-01
1.763000000000000000e+03 5.247022247314453125e+01 -5.008130073547363281e+00 -7.688869722187519073e-03 -3.272178173065185547e-01 -1.004720106720924377e-01 1.385571509599685669e-01
1.764000000000000000e+03 3.428493118286132812e+01 1.236586570739746094e+01 -9.795594215393066406e-01 -2.403496578335762024e-02 -3.010783195495605469e-01 1.824092715978622437e-01
1.765000000000000000e+03 3.316684341430664062e+01 1.362613010406494141e+01 -4.348282217979431152e-01 1.414310187101364136e-01 -8.801916241645812988e-02 4.047597050666809082e-01
1.766000000000000000e+03 5.852471542358398438e+01 -1.112965965270996094e+01 -2.536914348602294922e+00 -5.182027816772460938e-01 -9.165350794792175293e-01 -1.766294091939926147e-01
1.767000000000000000e+03 6.514839935302734375e+01 -1.378099250793457031e+01 -1.231322288513183594e+00 7.567743659019470215e-01 -1.423643529415130615e-01 5.444025620818138123e-03
1.768000000000000000e+03 4.090457534790039062e+01 7.648188114166259766e+00 -5.294938683509826660e-01 -3.456988632678985596e-01 -2.625578343868255615e-01 6.825806498527526855e-01
1.769000000000000000e+03 5.588452148437500000e+01 -9.996745109558105469e+00 -2.516547679901123047e+00 -5.085341930389404297e-01 -9.075245857238769531e-01 6.742003560066223145e-01
1.770000000000000000e+03 5.369335937500000000e+01 -8.222821235656738281e+00 -7.157008051872253418e-01 -5.149569511413574219e-01 -3.691973388195037842e-01 5.088583827018737793e-01
1.771000000000000000e+03 3.877830123901367188e+01 1.194683837890625000e+01 -7.142695188522338867e-01 -6.903672814369201660e-01 -4.213910400867462158e-01 4.994367361068725586e-01
1.772000000000000000e+03 3.833890151977539062e+01 1.320010471343994141e+01 -3.917580544948577881e-01 -7.513591647148132324e-01 -3.429351747035980225e-01 4.495958387851715088e-01
1.773000000000000000e+03 3.695404434204101562e+01 1.253752326965332031e+01 -9.789576530456542969e-01 -8.561136126518249512e-01 -5.505213737487792969e-01 6.537010073661804199e-01
1.774000000000000000e+03 7.108068084716796875e+01 -8.458423018455505371e-01 -4.479366302490234375e+00 -4.509120583534240723e-01 -1.479083538055419922e+00 3.374885618686676025e-01
1.775000000000000000e+03 6.150847244262695312e+01 -6.258261203765869141e+00 8.518285304307937622e-02 4.683411121368408203e-02 3.960508853197097778e-02 3.537752106785774231e-02
1.776000000000000000e+03 6.187306976318359375e+01 -8.629003524780273438e+00 -8.539721369743347168e-01 1.113860383629798889e-01 -2.227758318185806274e-01 -1.640983670949935913e-01
1.777000000000000000e+03 7.148038482666015625e+01 3.301700651645660400e-01 -1.426185131072998047e+00 -1.863571107387542725e-01 -4.837626814842224121e-01 -2.198969870805740356e-01
1.778000000000000000e+03 5.971289443969726562e+01 -1.216543674468994141e+01 -1.383657574653625488e+00 -2.291755191981792450e-02 -4.219725430011749268e-01 6.903779506683349609e-02
1.779000000000000000e+03 5.185288619995117188e+01 -2.948605775833129883e+00 -3.678064793348312378e-02 -5.423536524176597595e-02 -2.730480395257472992e-02 9.876134991645812988e-02
1.780000000000000000e+03 5.030345153808593750e+01 -3.370461940765380859e+00 -1.367782354354858398e-01 -2.780607528984546661e-02 -4.937529191374778748e-02 1.665430665016174316e-01
1.781000000000000000e+03 5.136093139648437500e+01 -5.261522769927978516e+00 -2.006839066743850708e-01 -2.222615778446197510e-01 -1.268836408853530884e-01 3.174908459186553955e-01
1.782000000000000000e+03 4.954694747924804688e+01 -9.948275566101074219e+00 -3.334347903728485107e-01 1.647091507911682129e-01 -5.061769112944602966e-02 -1.899793446063995361e-01
1.783000000000000000e+03 7.361723327636718750e+01 -2.598999261856079102e+00 -4.144735038280487061e-01 1.171153783798217773e+00 2.270040959119796753e-01 -2.206419855356216431e-01
1.784000000000000000e+03 7.484732818603515625e+01 -4.504722595214843750e+00 1.202671051025390625e+00 2.059065580368041992e+00 9.785210490226745605e-01 -1.828163504600524902e+00
1.785000000000000000e+03 7.422074127197265625e+01 -3.416697978973388672e+00 2.020984888076782227e-01 1.891958117485046387e+00 6.282169818878173828e-01 -1.107209682464599609e+00
1.786000000000000000e+03 7.467985534667968750e+01 -3.862900495529174805e+00 6.581864356994628906e-01 2.853382825851440430e+00 1.053470730781555176e+00 -1.682853817939758301e+00
1.787000000000000000e+03 6.546401214599609375e+01 -3.768776321411132812e+01 5.562345385551452637e-01 1.650792241096496582e+00 6.621080636978149414e-01 5.977084636688232422e-01
1.788000000000000000e+03 6.675284576416015625e+01 -3.559284210205078125e+01 5.263606309890747070e-01 2.252516269683837891e+00 8.336630463600158691e-01 5.047016143798828125e-01
1.789000000000000000e+03 4.078850936889648438e+01 1.751626396179199219e+01 2.626940906047821045e-01 -2.060331851243972778e-01 1.699827425181865692e-02 3.030745685100555420e-01
1.790000000000000000e+03 2.353608894348144531e+01 1.570665264129638672e+01 -2.795141637325286865e-01 -1.848907619714736938e-01 -1.393214762210845947e-01 1.487713754177093506e-01
1.791000000000000000e+03 5.970937347412109375e+01 1.594618511199951172e+01 2.099934518337249756e-01 1.302170634269714355e+00 4.536492228507995605e-01 2.710147062316536903e-03
1.792000000000000000e+03 6.671672058105468750e+01 2.693683242797851562e+01 4.112970829010009766e-01 2.139187812805175781e+00 7.651454806327819824e-01 -3.839277923107147217e-01
1.793000000000000000e+03 7.606820678710937500e+01 -4.425828456878662109e+00 4.635712206363677979e-01 1.030606937408447266e+01 3.230891942977905273e+00 -4.547451496124267578e+00
1.794000000000000000e+03 7.664579010009765625e+01 -4.408442020416259766e+00 -1.456427335739135742e+00 1.657308578491210938e+01 4.534997463226318359e+00 -3.117159605026245117e+00
1.795000000000000000e+03 7.556874847412109375e+01 -3.637655496597290039e+00 -2.909619808197021484e-01 7.153260231018066406e+00 2.058689355850219727e+00 -2.744574546813964844e+00
1.796000000000000000e+03 7.530912017822265625e+01 -8.278650283813476562e+00 5.890325307846069336e-01 6.670651435852050781e+00 2.177905321121215820e+00 2.742326498031616211e+00
1.797000000000000000e+03 7.721909332275390625e+01 -2.634968757629394531e+00 -2.211058378219604492e+00 1.214863491058349609e+01 2.981272935867309570e+00 4.793936610221862793e-01
1.798000000000000000e+03 7.827596282958984375e+01 -5.336552143096923828e+00 3.756697416305541992e+00 1.299639701843261719e+01 5.025928497314453125e+00 3.489911317825317383e+00
1.799000000000000000e+03 7.844622802734375000e+01 -1.559821009635925293e+00 -8.874305486679077148e-01 1.176483249664306641e+01 3.263220787048339844e+00 9.012380242347717285e-01
1.800000000000000000e+03 7.683325958251953125e+01 -4.094954967498779297e+00 -2.101869821548461914e+00 1.578023242950439453e+01 4.103508949279785156e+00 -1.619090437889099121e+00
1.801000000000000000e+03 7.827094268798828125e+01 -4.305138587951660156e+00 -6.672616600990295410e-01 1.419954967498779297e+01 4.059686183929443359e+00 3.943727493286132812e+00
1.802000000000000000e+03 7.797141265869140625e+01 -7.340001583099365234e+00 4.412445127964019775e-01 1.624353981018066406e+01 5.005435466766357422e+00 -3.669687032699584961e+00
1.803000000000000000e+03 7.836150360107421875e+01 -4.810312271118164062e+00 8.030281066894531250e-01 1.343098354339599609e+01 4.270203590393066406e+00 4.002099514007568359e+00
1.804000000000000000e+03 7.876485443115234375e+01 -6.830306053161621094e+00 1.545733451843261719e+00 9.359634399414062500e+00 3.271610260009765625e+00 -2.704433917999267578e+00
1.805000000000000000e+03 1.076070404052734375e+01 3.703502416610717773e+00 -8.176223933696746826e-02 -6.926634907722473145e-02 -4.530857503414154053e-02 5.302362143993377686e-02
1.806000000000000000e+03 4.519213485717773438e+01 5.022871017456054688e+00 -9.107264280319213867e-01 -2.604426443576812744e-01 -3.513507246971130371e-01 3.300140798091888428e-01
1.807000000000000000e+03 3.836516952514648438e+01 -2.505410432815551758e+00 -3.825496137142181396e-01 1.056540459394454956e-01 -8.306867629289627075e-02 7.396043092012405396e-02
1.808000000000000000e+03 5.686384582519531250e+01 2.624996900558471680e+00 -1.737662672996520996e+00 -3.246556818485260010e-01 -6.186954975128173828e-01 3.596360385417938232e-01
1.809000000000000000e+03 5.565105438232421875e+01 4.418301105499267578e+00 -7.991430163383483887e-01 -6.930273957550525665e-03 -2.418219894170761108e-01 2.684286236763000488e-01
1.810000000000000000e+03 5.430579757690429688e+01 2.640770912170410156e+00 -1.859012961387634277e+00 -4.758591577410697937e-02 -5.719796419143676758e-01 4.883030056953430176e-01
1.811000000000000000e+03 5.364332580566406250e+01 3.469404458999633789e+00 -1.400218725204467773e+00 1.356814056634902954e-01 -3.793612122535705566e-01 6.088160276412963867e-01
1.812000000000000000e+03 5.747409820556640625e+01 7.761846065521240234e+00 3.636191487312316895e-01 1.624027490615844727e-01 1.578065603971481323e-01 3.147595822811126709e-01
1.813000000000000000e+03 4.332000350952148438e+01 3.984558582305908203e+00 -7.453743219375610352e-01 -1.351745873689651489e-01 -2.641646862030029297e-01 9.228578209877014160e-02
1.814000000000000000e+03 4.357099533081054688e+01 2.716949939727783203e+00 -7.833748459815979004e-01 -4.190242663025856018e-02 -2.475831806659698486e-01 3.782691806554794312e-02
1.815000000000000000e+03 4.457712936401367188e+01 3.081602573394775391e+00 -8.305327892303466797e-01 -8.268436789512634277e-02 -2.739651501178741455e-01 1.191829517483711243e-01
1.816000000000000000e+03 9.476086616516113281e+00 5.172496795654296875e+00 -1.360323280096054077e-01 -8.409800380468368530e-02 -6.603910028934478760e-02 3.892948478460311890e-02
1.817000000000000000e+03 1.164607715606689453e+01 3.821783065795898438e+00 -1.045954227447509766e-01 -6.523685902357101440e-02 -5.094968155026435852e-02 8.388259261846542358e-02
1.818000000000000000e+03 1.346555900573730469e+01 -2.026725530624389648e+00 -2.757675759494304657e-02 -3.400447964668273926e-02 -1.847437210381031036e-02 -4.471671208739280701e-02
1.819000000000000000e+03 1.485410213470458984e+01 -2.931900739669799805e+00 -9.043458849191665649e-03 1.748567633330821991e-02 2.532665617763996124e-03 -7.290677633136510849e-03
1.820000000000000000e+03 6.660417556762695312e+00 -3.361754655838012695e+00 -5.141248460859060287e-03 -2.029400505125522614e-02 -7.630575913935899734e-03 -1.887149550020694733e-02
1.821000000000000000e+03 2.017727613449096680e+00 -4.146581172943115234e+00 -1.918868510983884335e-04 -2.123596612364053726e-03 -6.946450448594987392e-04 1.584631274454295635e-03
1.822000000000000000e+03 8.115434646606445312e+00 -3.340019464492797852e+00 -7.820692844688892365e-03 -2.425649017095565796e-02 -9.623154997825622559e-03 -2.803384698927402496e-02
1.823000000000000000e+03 1.130126571655273438e+01 -3.094363927841186523e+00 -1.658705621957778931e-02 -3.153770416975021362e-02 -1.443742867559194565e-02 -4.339329153299331665e-02
1.824000000000000000e+03 8.034655570983886719e+00 -4.068137645721435547e+00 -5.675356369465589523e-04 -1.308983191847801208e-02 -4.097210243344306946e-03 -1.972244493663311005e-02
1.825000000000000000e+03 5.978011608123779297e+00 -2.609965085983276367e+00 -6.106608547270298004e-03 -1.353131979703903198e-02 -5.891378503292798996e-03 -1.316989772021770477e-02
1.826000000000000000e+03 5.914845943450927734e+00 -3.425133466720581055e+00 -1.282073935726657510e-04 -5.015660077333450317e-03 -1.543160178698599339e-03 -8.528956212103366852e-03
1.827000000000000000e+03 7.378576278686523438e+00 -3.331985950469970703e+00 -3.499676240608096123e-03 -5.640440620481967926e-03 -2.742035081610083580e-03 -1.480758748948574066e-02
1.828000000000000000e+03 5.316328048706054688e+00 -2.489005327224731445e+00 -2.491065068170428276e-03 -1.961034722626209259e-03 -1.335629960522055626e-03 -2.596726175397634506e-03
1.829000000000000000e+03 2.067232608795166016e+00 -2.862226009368896484e+00 6.378415855579078197e-04 -3.575954819098114967e-03 -8.814339525997638702e-04 1.447968650609254837e-03
1.830000000000000000e+03 4.425577640533447266e+00 -3.842195749282836914e+00 2.644992200657725334e-03 -5.804679822176694870e-03 -9.479062282480299473e-04 -3.060836112126708031e-03
1.831000000000000000e+03 1.660038948059082031e+00 -5.216902256011962891e+00 9.135869331657886505e-04 -4.185449215583503246e-04 1.485126122133806348e-04 1.165304565802216530e-03
1.832000000000000000e+03 1.199436473846435547e+01 -2.176181316375732422e+00 -2.773424983024597168e-02 -3.577113151550292969e-02 -1.905161514878273010e-02 -4.508276656270027161e-02
1.833000000000000000e+03 4.196689605712890625e+01 3.533564329147338867e+00 -6.778410673141479492e-01 -1.226803734898567200e-01 -2.401564419269561768e-01 -1.525211483240127563e-01
1.834000000000000000e+03 1.258402156829833984e+01 3.748629331588745117e+00 -1.262318342924118042e-01 -7.105161249637603760e-02 -5.918503552675247192e-02 1.203400418162345886e-01
1.835000000000000000e+03 5.702004432678222656e+00 3.371923446655273438e+00 -1.853564567863941193e-02 -5.510472692549228668e-03 -7.213835604488849640e-03 -2.435892634093761444e-02
1.836000000000000000e+03 8.802577972412109375e+00 2.567684173583984375e+00 -1.634885324165225029e-03 -2.735266275703907013e-02 -8.696264587342739105e-03 -4.646606394089758396e-04
1.837000000000000000e+03 8.884376525878906250e+00 3.213954925537109375e+00 -3.690930455923080444e-02 -3.224496170878410339e-02 -2.074627950787544250e-02 -3.492023970466107130e-04
1.838000000000000000e+03 3.899816274642944336e+00 3.544517517089843750e+00 -1.026531402021646500e-02 1.157470280304551125e-03 -2.732353052124381065e-03 -2.299721911549568176e-02
1.839000000000000000e+03 3.599764108657836914e+00 2.792189598083496094e+00 2.445595804601907730e-03 5.008529406040906906e-03 2.236237516626715660e-03 -2.742279320955276489e-02
1.840000000000000000e+03 4.298871040344238281e+00 2.638347148895263672e+00 4.632037598639726639e-03 -3.098867891822010279e-04 1.296645263209939003e-03 -2.552077546715736389e-02
1.841000000000000000e+03 5.002629280090332031e+00 2.597621202468872070e+00 4.051818046718835831e-03 1.656493986956775188e-04 1.265240251086652279e-03 -2.834196388721466064e-02
1.842000000000000000e+03 1.482210636138916016e+00 4.812460899353027344e+00 -5.307148676365613937e-03 2.866961434483528137e-02 7.008739747107028961e-03 -1.213843282312154770e-02
1.843000000000000000e+03 4.210526645183563232e-01 3.581748008728027344e+00 -6.679254584014415741e-04 3.469702601432800293e-02 1.020872965455055237e-02 -6.244005169719457626e-03
1.844000000000000000e+03 5.506877899169921875e+00 5.701653957366943359e+00 -6.771861016750335693e-02 -1.734231784939765930e-02 -2.551827766001224518e-02 1.130189839750528336e-02
1.845000000000000000e+03 1.506165313720703125e+01 -5.068021297454833984e+00 1.273723971098661423e-02 4.168095067143440247e-02 1.632545702159404755e-02 -1.361282914876937866e-02
1.846000000000000000e+03 3.619868469238281250e+01 -3.043591499328613281e+00 -3.114702701568603516e-01 1.500635445117950439e-01 -4.842201620340347290e-02 -5.216448381543159485e-02
1.847000000000000000e+03 3.381604766845703125e+01 -3.262763500213623047e+00 -1.855893731117248535e-01 3.429396310821175575e-03 -5.464799329638481140e-02 -1.172114685177803040e-01
1.848000000000000000e+03 3.690073394775390625e+01 -2.845046043395996094e+00 -3.189699947834014893e-01 1.704249531030654907e-01 -4.456351697444915771e-02 -1.961465179920196533e-02
1.849000000000000000e+03 3.555461883544921875e+01 -3.238495349884033203e+00 -2.510899305343627930e-01 1.261082291603088379e-01 -3.749451413750648499e-02 -1.043290868401527405e-01
1.850000000000000000e+03 1.527514171600341797e+01 3.893577814102172852e+00 -2.380771785974502563e-01 2.052602916955947876e-02 -6.526535004377365112e-02 2.260695546865463257e-01
1.851000000000000000e+03 1.527028465270996094e+01 4.761812210083007812e+00 -2.114920169115066528e-01 1.026332844048738480e-02 -6.036860495805740356e-02 2.492779791355133057e-01
1.852000000000000000e+03 1.308988380432128906e+01 5.694349288940429688e+00 -2.481089830398559570e-01 -1.733553856611251831e-01 -1.264393180608749390e-01 1.875410079956054688e-01
1.853000000000000000e+03 2.643266677856445312e+01 2.207768917083740234e+00 -4.787823855876922607e-01 3.994065895676612854e-02 -1.316525191068649292e-01 1.702423393726348877e-01
1.854000000000000000e+03 2.868127441406250000e+01 2.946534156799316406e+00 -4.251005649566650391e-01 2.193511426448822021e-01 -6.172482669353485107e-02 8.786391466856002808e-02
1.855000000000000000e+03 2.136524200439453125e+01 4.262474060058593750e+00 -2.368126958608627319e-01 -1.025451943278312683e-01 -1.018073633313179016e-01 1.362460851669311523e-01
1.856000000000000000e+03 2.365380287170410156e+01 3.984246730804443359e+00 -2.238660603761672974e-01 -8.651625365018844604e-02 -9.311469644308090210e-02 1.685090512037277222e-01
1.857000000000000000e+03 2.525486373901367188e+01 3.515914678573608398e+00 -2.922084927558898926e-01 -1.498569641262292862e-02 -9.215825796127319336e-02 1.832671612501144409e-01
1.858000000000000000e+03 2.284596252441406250e+01 4.089596271514892578e+00 -2.251140475273132324e-01 -1.016785576939582825e-01 -9.803778678178787231e-02 1.594467908143997192e-01
1.859000000000000000e+03 2.446886444091796875e+01 3.797912359237670898e+00 -2.413617670536041260e-01 -5.766275152564048767e-02 -8.970735222101211548e-02 1.869518607854843140e-01
1.860000000000000000e+03 2.571848487854003906e+01 2.435948371887207031e+00 -4.577356278896331787e-01 -5.692882463335990906e-03 -1.390285491943359375e-01 1.860413998365402222e-01
1.861000000000000000e+03 2.758109474182128906e+01 5.600293159484863281e+00 3.777763247489929199e-02 2.770533263683319092e-01 9.444928914308547974e-02 1.404938101768493652e-01
1.862000000000000000e+03 2.953699111938476562e+01 3.855413913726806641e+00 -2.245535701513290405e-01 3.321494162082672119e-01 3.227875381708145142e-02 4.219557344913482666e-02
1.863000000000000000e+03 2.031239318847656250e+01 5.286627292633056641e+00 -9.961357712745666504e-02 -8.435229957103729248e-02 -5.518976226449012756e-02 1.110492423176765442e-01
1.864000000000000000e+03 1.126407146453857422e+01 -2.338834047317504883e+00 -2.228309027850627899e-02 2.738930052146315575e-03 -5.863247904926538467e-03 -2.323362417519092560e-02
1.865000000000000000e+03 1.403172588348388672e+01 -2.877151727676391602e+00 -1.342033315449953079e-02 -1.422713790088891983e-02 -8.294241502881050110e-03 -4.277609288692474365e-02
1.866000000000000000e+03 1.263323402404785156e+01 -2.728293180465698242e+00 -1.654901169240474701e-02 -2.886920608580112457e-02 -1.362546533346176147e-02 -4.387116059660911560e-02
1.867000000000000000e+03 1.417696762084960938e+01 -4.787887096405029297e+00 4.775415640324354172e-03 5.516295786947011948e-03 3.087513381615281105e-03 -1.811889745295047760e-02
1.868000000000000000e+03 5.194005584716796875e+01 2.749973773956298828e+00 -1.544260859489440918e+00 1.030455008149147034e-01 -4.323645830154418945e-01 8.256521224975585938e-01
1.869000000000000000e+03 4.997568130493164062e+01 4.089909076690673828e+00 -1.155507922172546387e+00 -3.654856979846954346e-01 -4.562980830669403076e-01 9.336432814598083496e-01
1.870000000000000000e+03 5.148728561401367188e+01 4.169942855834960938e+00 -1.038301110267639160e+00 9.833349287509918213e-02 -2.819902598857879639e-01 9.902852177619934082e-01
1.871000000000000000e+03 4.866598510742187500e+01 -3.617139816284179688e+00 -2.701171338558197021e-01 9.767808020114898682e-02 -5.173171311616897583e-02 1.625815629959106445e-01
1.872000000000000000e+03 4.817398834228515625e+01 -5.869211673736572266e+00 -2.778826951980590820e-01 2.353951483964920044e-01 -1.274626981467008591e-02 2.205440104007720947e-01
1.873000000000000000e+03 4.939208221435546875e+01 -5.242683887481689453e+00 -2.911917269229888916e-01 9.680955857038497925e-02 -5.831464752554893494e-02 2.699784040451049805e-01
1.874000000000000000e+03 5.126607131958007812e+01 -4.181513786315917969e+00 -7.383257150650024414e-02 -1.433939635753631592e-01 -6.516796350479125977e-02 1.990529596805572510e-01
1.875000000000000000e+03 3.333068847656250000e+01 -4.435789108276367188e+00 -1.051696091890335083e-01 -2.334268391132354736e-02 -3.855368867516517639e-02 -1.719923466444015503e-01
1.876000000000000000e+03 1.849144744873046875e+01 6.509780406951904297e+00 3.697907924652099609e-02 5.954172462224960327e-02 2.895624190568923950e-02 1.125088036060333252e-01
1.877000000000000000e+03 1.627786254882812500e+01 4.835464477539062500e+00 -2.303473800420761108e-01 4.028821736574172974e-02 -5.701775103807449341e-02 2.491402328014373779e-01
1.878000000000000000e+03 4.603062820434570312e+01 6.074804306030273438e+00 -1.034706950187683105e+00 -4.029887914657592773e-01 -4.313087165355682373e-01 5.410531759262084961e-01
1.879000000000000000e+03 6.614532470703125000e+01 1.531666070222854614e-01 -1.653358936309814453e+00 2.214453369379043579e-01 -4.295740723609924316e-01 6.851294636726379395e-02
1.880000000000000000e+03 6.357129287719726562e+01 4.065613448619842529e-01 -1.548071384429931641e+00 4.128506481647491455e-01 -3.405662178993225098e-01 1.761878281831741333e-01
1.881000000000000000e+03 6.159900665283203125e+01 4.131929874420166016e+00 -8.226305246353149414e-01 4.308125674724578857e-01 -1.175453886389732361e-01 -1.249764040112495422e-01
1.882000000000000000e+03 6.283633041381835938e+01 -5.506813526153564453e-01 -1.522625446319580078e+00 3.505610227584838867e-01 -3.516193330287933350e-01 2.943870425224304199e-01
1.883000000000000000e+03 6.155985260009765625e+01 -1.579155176877975464e-01 -1.749813318252563477e+00 3.630413711071014404e-01 -4.160315990447998047e-01 4.015358090400695801e-01
1.884000000000000000e+03 3.313283920288085938e+01 -6.440878868103027344e+00 -1.574932411313056946e-02 -8.113844692707061768e-02 -2.906633168458938599e-02 -2.302313745021820068e-01
1.885000000000000000e+03 3.419376754760742188e+01 -4.050006389617919922e+00 -1.633640527725219727e-01 3.867867961525917053e-02 -3.740561380982398987e-02 -1.658796370029449463e-01
1.886000000000000000e+03 4.842674636840820312e+01 3.074749231338500977e+00 -1.038603186607360840e+00 -2.358107119798660278e-01 -3.823241889476776123e-01 5.132543444633483887e-01
1.887000000000000000e+03 1.048255062103271484e+01 -3.268646001815795898e+00 -6.756275426596403122e-03 -5.313981790095567703e-03 -3.621077165007591248e-03 -2.541686221957206726e-02
1.888000000000000000e+03 6.110946655273437500e+01 -1.260509490966796875e-01 -1.852572798728942871e+00 2.999749183654785156e-01 -4.657793641090393066e-01 4.272497892379760742e-01
1.889000000000000000e+03 4.349017715454101562e+01 5.216689586639404297e+00 -6.911426782608032227e-01 -2.401244938373565674e-01 -2.793801426887512207e-01 2.666975259780883789e-01
1.890000000000000000e+03 4.579436874389648438e+01 4.166435241699218750e+00 -8.822765350341796875e-01 -2.556764781475067139e-01 -3.413859009742736816e-01 2.781998515129089355e-01
1.891000000000000000e+03 5.450444412231445312e+01 3.425765037536621094e+00 -1.398624539375305176e+00 1.154934149235486984e-02 -4.161225557327270508e-01 4.795119166374206543e-01
1.892000000000000000e+03 5.215245056152343750e+01 3.582690477371215820e+00 -1.350175380706787109e+00 2.214345037937164307e-01 -3.386222720146179199e-01 8.338207006454467773e-01
1.893000000000000000e+03 3.052798843383789062e+01 1.655864834785461426e+00 -6.906951069831848145e-01 2.557400166988372803e-01 -1.304865330457687378e-01 -3.398452699184417725e-02
1.894000000000000000e+03 5.553701019287109375e+01 5.497870445251464844e+00 -1.393982172012329102e-01 1.235978603363037109e-01 -4.740105941891670227e-03 2.542629539966583252e-01
1.895000000000000000e+03 1.860293579101562500e+01 5.093542098999023438e+00 -1.593604683876037598e-01 3.620597068220376968e-03 -4.672196134924888611e-02 1.368349939584732056e-01
1.896000000000000000e+03 2.207709503173828125e+01 4.934065818786621094e+00 -1.178491711616516113e-01 -1.203709244728088379e-01 -7.146602869033813477e-02 1.299939602613449097e-01
1.897000000000000000e+03 3.954730224609375000e+01 -2.882176971435546875e+01 3.285494819283485413e-02 -6.801169514656066895e-01 -1.941785961389541626e-01 -1.606523394584655762e-01
1.898000000000000000e+03 3.963474273681640625e+01 -2.717961120605468750e+01 -3.073931112885475159e-02 -7.646261453628540039e-01 -2.386096417903900146e-01 -2.118179500102996826e-01
1.899000000000000000e+03 4.391138076782226562e+01 1.872850036621093750e+01 3.059355616569519043e-01 3.301841616630554199e-01 1.908359229564666748e-01 1.789971441030502319e-01
1.900000000000000000e+03 7.744606781005859375e+01 -1.095960140228271484e+01 -1.126617074012756348e+00 1.087165164947509766e+01 2.923510313034057617e+00 -7.523649930953979492e-01
1.901000000000000000e+03 7.658534240722656250e+01 -8.085214614868164062e+00 -1.586184144020080566e+00 1.438491916656494141e+01 3.839620351791381836e+00 2.531667470932006836e+00
1.902000000000000000e+03 3.370468902587890625e+01 2.155624580383300781e+01 -5.034969002008438110e-02 -4.928929805755615234e-01 -1.629727929830551147e-01 3.828960657119750977e-01
1.903000000000000000e+03 3.207485961914062500e+01 -1.400868988037109375e+01 -5.054152607917785645e-01 -2.254193276166915894e-01 -2.192503809928894043e-01 -3.700324520468711853e-02
1.904000000000000000e+03 3.359169769287109375e+01 -1.177147960662841797e+01 -1.809686124324798584e-01 -6.572797149419784546e-02 -7.400897145271301270e-02 -4.486152529716491699e-02
1.905000000000000000e+03 4.557990646362304688e+01 7.158737659454345703e+00 -9.036645889282226562e-01 -4.386189877986907959e-01 -4.026850759983062744e-01 5.651821494102478027e-01
1.906000000000000000e+03 4.471816253662109375e+01 7.975749969482421875e+00 -8.492791056632995605e-01 -3.317311406135559082e-01 -3.543030619621276855e-01 5.633937716484069824e-01
1.907000000000000000e+03 3.214421081542968750e+01 2.623326683044433594e+01 -4.302840530872344971e-01 -6.581464409828186035e-01 -3.265291452407836914e-01 3.405514359474182129e-01
1.908000000000000000e+03 1.666351509094238281e+01 -2.426616287231445312e+01 2.912669628858566284e-02 -1.739519536495208740e-01 -4.344758018851280212e-02 -2.085467129945755005e-01
1.909000000000000000e+03 1.168470764160156250e+01 -2.571467208862304688e+01 -1.542981993407011032e-02 -1.733297109603881836e-01 -5.662785843014717102e-02 -1.371725499629974365e-01
1.910000000000000000e+03 4.776491928100585938e+01 1.956946611404418945e+00 -9.123090505599975586e-01 -8.861377090215682983e-02 -3.002768456935882568e-01 3.169215023517608643e-01
1.911000000000000000e+03 4.699245071411132812e+01 2.699872970581054688e+00 -9.049770832061767578e-01 -1.356231123208999634e-01 -3.121800720691680908e-01 3.012850284576416016e-01
1.912000000000000000e+03 4.763142776489257812e+01 2.758370971679687500e+01 4.408118501305580139e-02 3.064017593860626221e-01 1.051448881626129150e-01 2.515858709812164307e-01
1.913000000000000000e+03 5.173901748657226562e+01 3.015389633178710938e+01 2.039510160684585571e-01 8.067919611930847168e-01 3.032228946685791016e-01 1.249191910028457642e-01
1.914000000000000000e+03 3.952057647705078125e+01 1.914705085754394531e+01 3.380598127841949463e-01 -3.002107143402099609e-01 1.135473418980836868e-02 3.768573105335235596e-01
1.915000000000000000e+03 3.037785339355468750e+01 1.348288154602050781e+01 -1.908660978078842163e-01 6.238842010498046875e-01 1.299054324626922607e-01 4.494230747222900391e-01
1.916000000000000000e+03 5.257431793212890625e+01 2.853993034362792969e+01 1.311568021774291992e-01 9.539327621459960938e-01 3.255268633365631104e-01 3.966327384114265442e-02
1.917000000000000000e+03 5.259947204589843750e+01 3.071030807495117188e+01 2.407215237617492676e-01 9.800741076469421387e-01 3.662386834621429443e-01 2.125261276960372925e-01
1.918000000000000000e+03 4.084479904174804688e+01 -2.249599838256835938e+01 2.767769247293472290e-02 -2.797009646892547607e-01 -7.560697942972183228e-02 -5.325299501419067383e-01
1.919000000000000000e+03 4.069056320190429688e+01 -2.365657615661621094e+01 -1.062729433178901672e-01 -3.651281595230102539e-01 -1.414203345775604248e-01 -4.616468548774719238e-01
1.920000000000000000e+03 2.998801040649414062e+01 -4.354276657104492188e+00 9.094612672924995422e-03 -1.951433867216110229e-01 -5.581463128328323364e-02 -8.823462575674057007e-02
1.921000000000000000e+03 6.827359008789062500e+01 5.688725471496582031e+00 3.257991969585418701e-01 -3.021106421947479248e-01 7.106565870344638824e-03 -4.524504244327545166e-01
1.922000000000000000e+03 2.908947372436523438e+01 -2.898820877075195312e+01 2.090177237987518311e-01 -4.138050973415374756e-02 5.029116198420524597e-02 -1.320116072893142700e-01
1.923000000000000000e+03 3.170958328247070312e+01 -2.910034370422363281e+01 1.856091618537902832e-01 1.046296432614326477e-01 8.707164227962493896e-02 -1.408507078886032104e-01
1.924000000000000000e+03 5.947311782836914062e+01 1.010211825370788574e+00 -2.254631042480468750e+00 -6.723625212907791138e-02 -6.965602040290832520e-01 2.282065600156784058e-01
1.925000000000000000e+03 5.981196594238281250e+01 6.569425106048583984e+00 -2.292529866099357605e-02 3.443373739719390869e-01 9.642362594604492188e-02 -3.666417673230171204e-02
1.926000000000000000e+03 3.907873535156250000e+01 -1.510247135162353516e+01 -5.087094902992248535e-01 4.930688440799713135e-01 -4.692193586379289627e-03 -1.796363443136215210e-01
1.927000000000000000e+03 3.355865097045898438e+01 1.839244461059570312e+01 3.210746943950653076e-01 -3.481383025646209717e-01 -8.119083009660243988e-03 5.524424314498901367e-01
1.928000000000000000e+03 4.149264144897460938e+01 -2.689642715454101562e+01 2.113579772412776947e-02 -2.631597220897674561e-01 -7.260718196630477905e-02 -1.950221508741378784e-01
1.929000000000000000e+03 4.093653488159179688e+01 6.159549713134765625e+00 -2.102912068367004395e-01 -4.088361263275146484e-01 -1.857382059097290039e-01 3.756086826324462891e-01
1.930000000000000000e+03 4.101673507690429688e+01 4.830456256866455078e+00 -2.067274600267410278e-01 -2.829172015190124512e-01 -1.468933969736099243e-01 4.122878983616828918e-02
1.931000000000000000e+03 3.494571685791015625e+01 -1.425727558135986328e+01 -6.375941038131713867e-01 5.046609044075012207e-02 -1.761384159326553345e-01 -1.273991465568542480e-01
1.932000000000000000e+03 2.187092971801757812e+01 1.743712615966796875e+01 -2.095942944288253784e-01 -2.456901818513870239e-01 -1.365853399038314819e-01 1.245886832475662231e-01
1.933000000000000000e+03 9.391561508178710938e+00 -5.168513298034667969e+00 -9.206703398376703262e-04 -2.175589278340339661e-02 -6.802968680858612061e-03 -3.099608607590198517e-02
1.934000000000000000e+03 1.087191009521484375e+01 -1.117329978942871094e+01 -3.733593970537185669e-02 -1.152054220438003540e-02 -1.465694420039653778e-02 -4.947005212306976318e-02
1.935000000000000000e+03 2.782183647155761719e+01 6.684962749481201172e+00 1.692508608102798462e-01 3.496341407299041748e-01 1.556655019521713257e-01 1.399039328098297119e-01
1.936000000000000000e+03 2.639500427246093750e+01 3.928194522857666016e+00 -2.293151766061782837e-01 6.989382952451705933e-02 -4.782640561461448669e-02 1.759181767702102661e-01
1.937000000000000000e+03 1.720544815063476562e+01 -1.122747611999511719e+01 -4.685493558645248413e-02 6.300865858793258667e-02 4.846116993576288223e-03 1.187642943114042282e-02
1.938000000000000000e+03 5.191305541992187500e+01 2.667004585266113281e+01 1.917865872383117676e-01 6.937274336814880371e-01 2.656542062759399414e-01 1.021888405084609985e-01
1.939000000000000000e+03 5.094844436645507812e+01 2.482117652893066406e+01 2.755855917930603027e-01 4.368274509906768799e-01 2.137239128351211548e-01 1.492871940135955811e-01
1.940000000000000000e+03 1.511655235290527344e+01 -4.092751312255859375e+01 3.273182511329650879e-01 4.661916196346282959e-02 1.121812239289283752e-01 -6.511550396680831909e-02
1.941000000000000000e+03 3.388312149047851562e+01 3.018379783630371094e+01 8.203547447919845581e-02 -3.465622663497924805e-01 -7.935804128646850586e-02 1.512148827314376831e-01
1.942000000000000000e+03 1.126366329193115234e+01 6.785648822784423828e+00 -3.010439574718475342e-01 -1.674979776144027710e-01 -1.405625790357589722e-01 1.521996557712554932e-01
1.943000000000000000e+03 6.612722015380859375e+01 -1.407524776458740234e+01 -1.191667079925537109e+00 7.240349650382995605e-01 -1.402896344661712646e-01 8.116842806339263916e-02
1.944000000000000000e+03 5.739237594604492188e+01 1.082350826263427734e+01 3.220678269863128662e-01 5.209163427352905273e-01 2.528952360153198242e-01 2.048437148332595825e-01
1.945000000000000000e+03 6.346987533569335938e+01 6.110837936401367188e+00 6.382028758525848389e-02 6.778670549392700195e-01 2.225061953067779541e-01 -3.584481775760650635e-01
1.946000000000000000e+03 4.727755355834960938e+01 -2.761546325683593750e+01 3.366218507289886475e-01 3.342465758323669434e-01 2.012605220079421997e-01 -2.798503041267395020e-01
1.947000000000000000e+03 4.838451004028320312e+01 -2.815983200073242188e+01 3.360858857631683350e-01 4.235726296901702881e-01 2.278975546360015869e-01 -3.005926311016082764e-01
1.948000000000000000e+03 6.929369354248046875e+01 5.590337753295898438e+00 3.487652838230133057e-01 -9.977367520332336426e-02 7.469748705625534058e-02 -3.036784529685974121e-01
1.949000000000000000e+03 7.210079956054687500e+01 8.140819549560546875e+00 -7.090697288513183594e-01 3.147306442260742188e+00 7.314710021018981934e-01 -4.133251011371612549e-01
1.950000000000000000e+03 5.060832595825195312e+01 1.972371482849121094e+01 3.062649369239807129e-01 3.432687371969223022e-02 1.021775379776954651e-01 6.153631955385208130e-02
1.951000000000000000e+03 6.384942626953125000e+01 3.693375778198242188e+01 4.814409017562866211e-01 1.676272511482238770e+00 6.473140120506286621e-01 -2.220144122838973999e-01
1.952000000000000000e+03 6.381154251098632812e+01 -2.160312080383300781e+01 3.873127102851867676e-01 1.588968396186828613e+00 5.928843021392822266e-01 -1.321761012077331543e-01
1.953000000000000000e+03 1.983520507812500000e+01 -2.562018203735351562e+01 2.206604629755020142e-01 1.358918398618698120e-01 1.069656908512115479e-01 -1.571949124336242676e-01
1.954000000000000000e+03 2.296175384521484375e+01 1.416868114471435547e+01 -1.327292323112487793e-01 -1.785923987627029419e-01 -9.339648485183715820e-02 6.923968344926834106e-02
1.955000000000000000e+03 4.709977340698242188e+01 5.973620414733886719e+00 -1.275783061981201172e+00 -4.635835289955139160e-01 -5.218099951744079590e-01 5.973839163780212402e-01
1.956000000000000000e+03 7.373522186279296875e+01 -2.595897865295410156e+01 1.856507360935211182e-01 6.741770267486572266e+00 2.078226327896118164e+00 1.131215333938598633e+00
1.957000000000000000e+03 7.459823608398437500e+01 -3.242163467407226562e+01 6.454653292894363403e-02 4.904383182525634766e+00 1.490678906440734863e+00 6.519904136657714844e-01
1.958000000000000000e+03 7.589656066894531250e+01 -3.572662353515625000e+01 7.842170447111129761e-02 5.107312679290771484e+00 1.555720329284667969e+00 3.116009235382080078e-01
1.959000000000000000e+03 7.808420562744140625e+01 2.068025588989257812e+01 -7.484009489417076111e-03 5.722045421600341797e+00 1.714368462562561035e+00 -5.582675337791442871e-02
1.960000000000000000e+03 7.263986206054687500e+01 1.825195884704589844e+01 2.918104827404022217e-01 5.027720928192138672e+00 1.595859408378601074e+00 -8.371887803077697754e-01
1.961000000000000000e+03 7.817382812500000000e+01 3.674620056152343750e+01 7.634553126990795135e-03 4.601820945739746094e+00 1.382836580276489258e+00 -1.036406233906745911e-01
1.962000000000000000e+03 7.573410034179687500e+01 3.400175094604492188e+01 5.081661418080329895e-02 4.243824005126953125e+00 1.288392066955566406e+00 -2.149227857589721680e-01
1.963000000000000000e+03 7.685997009277343750e+01 -2.501156806945800781e+01 6.642528772354125977e-01 6.960748195648193359e+00 2.287500381469726562e+00 5.604699850082397461e-01
1.964000000000000000e+03 7.831493377685546875e+01 -2.909952354431152344e+01 -2.902020327746868134e-02 6.565570831298828125e+00 1.960965156555175781e+00 1.084747612476348877e-01
1.965000000000000000e+03 7.653807067871093750e+01 -3.113401985168457031e+01 -4.588266089558601379e-02 5.792198181152343750e+00 1.723894715309143066e+00 4.013133049011230469e-01
1.966000000000000000e+03 7.447724914550781250e+01 -2.503784751892089844e+01 1.413996458053588867e+00 6.637808322906494141e+00 2.415541410446166992e+00 8.124105930328369141e-01
1.967000000000000000e+03 7.811988830566406250e+01 -2.190969085693359375e+01 1.482654064893722534e-01 8.162885665893554688e+00 2.493345260620117188e+00 1.257766246795654297e+00
1.968000000000000000e+03 7.620552825927734375e+01 -2.377196693420410156e+01 1.080137372016906738e+00 7.314135551452636719e+00 2.518281936645507812e+00 1.178054690361022949e+00
1.969000000000000000e+03 7.761275482177734375e+01 -3.443714523315429688e+01 -2.476981608197093010e-03 5.764203548431396484e+00 1.728517889976501465e+00 2.513900995254516602e-01
1.970000000000000000e+03 7.399054718017578125e+01 -3.725420761108398438e+01 2.262572199106216431e-01 4.381601810455322266e+00 1.382357716560363770e+00 2.731120288372039795e-01
1.971000000000000000e+03 7.603048706054687500e+01 -3.419385910034179688e+01 4.606955125927925110e-02 5.224128246307373047e+00 1.581059336662292480e+00 3.928834199905395508e-01
1.972000000000000000e+03 7.414302825927734375e+01 -3.085100555419921875e+01 3.569899871945381165e-02 4.986739635467529297e+00 1.506731629371643066e+00 8.160802721977233887e-01
1.973000000000000000e+03 7.615377807617187500e+01 -3.257289886474609375e+01 3.501098603010177612e-03 5.473416328430175781e+00 1.643075227737426758e+00 4.450709521770477295e-01
1.974000000000000000e+03 7.524981689453125000e+01 -4.071095657348632812e+01 1.797397434711456299e-01 4.869214534759521484e+00 1.514686226844787598e+00 1.710711978375911713e-02
1.975000000000000000e+03 7.814904022216796875e+01 2.350726127624511719e+01 -2.705076150596141815e-02 5.512567043304443359e+00 1.645654916763305664e+00 -1.201860085129737854e-01
1.976000000000000000e+03 7.691008758544921875e+01 2.203292465209960938e+01 -7.011155039072036743e-02 5.428839683532714844e+00 1.607618451118469238e+00 -1.969298422336578369e-01
1.977000000000000000e+03 7.578353881835937500e+01 2.340012741088867188e+01 -1.028730049729347229e-01 5.052931308746337891e+00 1.485017418861389160e+00 -3.555182218551635742e-01
1.978000000000000000e+03 7.702983856201171875e+01 1.616176033020019531e+01 2.918639481067657471e-01 6.120140552520751953e+00 1.923601388931274414e+00 -4.866530299186706543e-01
1.979000000000000000e+03 7.824167633056640625e+01 1.504729270935058594e+01 1.315814703702926636e-01 6.415497779846191406e+00 1.964123845100402832e+00 -4.475102722644805908e-01
1.980000000000000000e+03 7.429105377197265625e+01 1.333358287811279297e+01 8.679351806640625000e-01 5.885363101959228516e+00 2.025989532470703125e+00 -1.388587594032287598e+00
1.981000000000000000e+03 7.700190734863281250e+01 -2.185197830200195312e+01 3.665226101875305176e-01 7.695952892303466797e+00 2.418742656707763672e+00 1.600533008575439453e+00
1.982000000000000000e+03 7.515078735351562500e+01 1.056151485443115234e+01 -8.292845450341701508e-03 6.383205890655517578e+00 1.912473917007446289e+00 -1.525681257247924805e+00
1.983000000000000000e+03 7.715188598632812500e+01 1.483978652954101562e+01 3.136679828166961670e-01 6.298329353332519531e+00 1.983599185943603516e+00 -6.833103895187377930e-01
1.984000000000000000e+03 7.682115173339843750e+01 2.747489738464355469e+01 -4.051601514220237732e-03 4.883872032165527344e+00 1.463946223258972168e+00 -2.817013859748840332e-01
1.985000000000000000e+03 7.808401489257812500e+01 2.763160896301269531e+01 -5.781116895377635956e-03 5.142577171325683594e+00 1.541038870811462402e+00 -1.769625693559646606e-01
1.986000000000000000e+03 7.779923248291015625e+01 3.172074890136718750e+01 2.041839435696601868e-02 4.766983032226562500e+00 1.436220407485961914e+00 -1.602899134159088135e-01
1.987000000000000000e+03 7.523031616210937500e+01 2.985863876342773438e+01 6.345462799072265625e-02 4.357433795928955078e+00 1.326266527175903320e+00 -3.592095375061035156e-01
1.988000000000000000e+03 7.516192626953125000e+01 -1.373836421966552734e+01 -8.485691547393798828e-01 6.103729248046875000e+00 1.576547980308532715e+00 8.483908176422119141e-01
1.989000000000000000e+03 7.829847717285156250e+01 -1.350939083099365234e+01 -3.320665061473846436e-01 1.128369712829589844e+01 3.285489320755004883e+00 1.112736761569976807e-01
1.990000000000000000e+03 7.600711822509765625e+01 -1.981419944763183594e+01 -2.634313702583312988e-01 7.537269592285156250e+00 2.182151556015014648e+00 1.810686469078063965e+00
1.991000000000000000e+03 7.625904846191406250e+01 3.700398635864257812e+01 1.106773875653743744e-02 4.358402729034423828e+00 1.310841083526611328e+00 -1.231425032019615173e-01
1.992000000000000000e+03 7.570462036132812500e+01 7.004101276397705078e+00 -1.585443466901779175e-01 6.571641921997070312e+00 1.923929333686828613e+00 -1.155165195465087891e+00
1.993000000000000000e+03 7.682629394531250000e+01 2.059164619445800781e+01 -2.283178642392158508e-02 5.594589233398437500e+00 1.671527147293090820e+00 -1.795994341373443604e-01
1.994000000000000000e+03 7.805493927001953125e+01 7.858893871307373047e+00 -7.825668901205062866e-02 8.690468788146972656e+00 2.583663463592529297e+00 -8.873032927513122559e-01
1.995000000000000000e+03 7.682174682617187500e+01 7.455085754394531250e+00 -9.540670365095138550e-02 7.669724464416503906e+00 2.272295236587524414e+00 -1.127733826637268066e+00
1.996000000000000000e+03 7.700099945068359375e+01 9.606374502182006836e-01 -6.151610612869262695e-01 9.069901466369628906e+00 2.536422252655029297e+00 -7.093749046325683594e-01
1.997000000000000000e+03 7.825263214111328125e+01 -8.525753021240234375e+00 -1.615158915519714355e+00 1.305001640319824219e+01 3.430457353591918945e+00 -2.818170785903930664e+00
1.998000000000000000e+03 7.659724426269531250e+01 -7.899314880371093750e+00 -1.691752195358276367e+00 1.535919475555419922e+01 4.100232601165771484e+00 3.013806819915771484e+00
1.999000000000000000e+03 7.613533782958984375e+01 -7.669806480407714844e-01 -1.356574416160583496e+00 8.303928375244140625e+00 2.084206104278564453e+00 -7.462628483772277832e-01
2.000000000000000000e+03 7.436363983154296875e+01 -1.230947971343994141e+00 -1.285710811614990234e+00 4.515379905700683594e+00 9.689007401466369629e-01 -1.088228225708007812e+00
2.001000000000000000e+03 7.570857238769531250e+01 -1.289352512359619141e+01 -8.554632663726806641e-01 7.027896404266357422e+00 1.851729989051818848e+00 5.146428942680358887e-01
2.002000000000000000e+03 7.505741119384765625e+01 -1.737541580200195312e+01 -1.085453748703002930e+00 5.670192718505859375e+00 1.375421643257141113e+00 9.979371428489685059e-01
2.003000000000000000e+03 7.500089263916015625e+01 3.106940078735351562e+01 8.089510351419448853e-02 4.239408493041992188e+00 1.296090960502624512e+00 -3.335425853729248047e-01
2.004000000000000000e+03 7.609610748291015625e+01 3.270944976806640625e+01 5.784752219915390015e-02 4.379513263702392578e+00 1.331208229064941406e+00 -2.267612814903259277e-01
2.005000000000000000e+03 7.376983642578125000e+01 1.802304649353027344e+01 4.495536684989929199e-01 5.634516239166259766e+00 1.825220942497253418e+00 -6.547048687934875488e-01
2.006000000000000000e+03 7.678562927246093750e+01 1.088845825195312500e+01 7.753243297338485718e-02 7.089519500732421875e+00 2.150115489959716797e+00 -1.348013162612915039e+00
2.007000000000000000e+03 7.413597869873046875e+01 9.769867897033691406e+00 -2.794507145881652832e-01 5.668010234832763672e+00 1.616567850112915039e+00 -1.246190071105957031e+00
2.008000000000000000e+03 7.652946472167968750e+01 8.718506813049316406e+00 -1.598388403654098511e-01 7.285935401916503906e+00 2.137829065322875977e+00 -1.276906847953796387e+00
2.009000000000000000e+03 7.690162658691406250e+01 3.584172821044921875e+01 1.295038778334856033e-02 4.421973705291748047e+00 1.330477237701416016e+00 -1.360519230365753174e-01
2.010000000000000000e+03 7.700568389892578125e+01 3.630857706069946289e+00 -9.260512143373489380e-02 8.459723472595214844e+00 2.510135650634765625e+00 -9.969144463539123535e-01
2.011000000000000000e+03 7.701516723632812500e+01 4.911787986755371094e+00 -2.919298410415649414e-02 8.246356964111328125e+00 2.465149164199829102e+00 -1.040602087974548340e+00
2.012000000000000000e+03 7.164878082275390625e+01 3.682299852371215820e+00 1.026158630847930908e-01 1.463865160942077637e+00 4.699442982673645020e-01 -5.207205414772033691e-01
2.013000000000000000e+03 7.629501342773437500e+01 -1.658991050720214844e+01 -8.117994070053100586e-01 7.588343620300292969e+00 2.032963275909423828e+00 1.013442397117614746e+00
2.014000000000000000e+03 4.714781188964843750e+01 -1.568745613098144531e+01 -7.912667393684387207e-01 -2.150560617446899414e-01 -3.018968403339385986e-01 -1.637446880340576172e-01
2.015000000000000000e+03 2.177968406677246094e+01 2.465154647827148438e+01 2.422803491353988647e-01 -1.581316739320755005e-01 2.524460107088088989e-02 2.615755200386047363e-01
2.016000000000000000e+03 2.086421775817871094e+01 2.510416030883789062e+01 3.766188621520996094e-01 -2.153532058000564575e-01 4.837969690561294556e-02 3.223046958446502686e-01
2.017000000000000000e+03 3.071816253662109375e+01 -9.243090629577636719e+00 -1.420928090810775757e-01 -3.633742928504943848e-01 -1.516401320695877075e-01 -1.489732563495635986e-01
2.018000000000000000e+03 6.632163238525390625e+01 -2.777593612670898438e+01 2.338967323303222656e-01 1.080148696899414062e+00 3.942136466503143311e-01 -5.159609913825988770e-01
2.019000000000000000e+03 3.924073410034179688e+01 -1.610262298583984375e+01 -2.985988557338714600e-01 4.221487343311309814e-01 3.706496581435203552e-02 -1.967328637838363647e-01
2.020000000000000000e+03 3.912585830688476562e+01 -1.343353176116943359e+01 -7.607997059822082520e-01 4.561989605426788330e-01 -9.138023108243942261e-02 -6.665919721126556396e-02
2.021000000000000000e+03 9.521406173706054688e+00 8.796461105346679688e+00 -1.944396197795867920e-01 -2.006637603044509888e-01 -1.185310110449790955e-01 1.444961577653884888e-01
2.022000000000000000e+03 2.789753341674804688e+01 -2.679051780700683594e+01 2.607970535755157471e-01 -9.647570550441741943e-02 4.929640889167785645e-02 -1.215189099311828613e-01
2.023000000000000000e+03 1.704458475112915039e+00 3.148180961608886719e+01 1.099029742181301117e-02 -4.651297628879547119e-01 -1.362418383359909058e-01 1.083281487226486206e-01
2.024000000000000000e+03 4.271894454956054688e+00 3.492266464233398438e+01 1.055199429392814636e-01 -3.477150201797485352e-01 -7.265852391719818115e-02 3.178768604993820190e-02
2.025000000000000000e+03 2.917065620422363281e+00 2.831193542480468750e+01 -5.178175494074821472e-02 -3.811139762401580811e-01 -1.298687160015106201e-01 1.561997532844543457e-01
2.026000000000000000e+03 4.296582698822021484e+00 2.451592826843261719e+01 -1.109581440687179565e-01 -3.416486680507659912e-01 -1.357820481061935425e-01 5.069712921977043152e-02
2.027000000000000000e+03 2.855386734008789062e+00 3.019281005859375000e+01 1.944065210409462452e-03 -4.049592316150665283e-01 -1.209045499563217163e-01 1.617404669523239136e-01
2.028000000000000000e+03 2.032148599624633789e+00 3.563602828979492188e+01 4.086475446820259094e-02 -5.353937745094299316e-01 -1.483587026596069336e-01 5.287677049636840820e-03
2.029000000000000000e+03 4.745770931243896484e+00 2.606081199645996094e+01 -1.610845923423767090e-01 -4.285815060138702393e-01 -1.768998205661773682e-01 1.068740859627723694e-01
2.030000000000000000e+03 4.484535217285156250e+00 3.278922653198242188e+01 1.243534535169601440e-01 -3.404034078121185303e-01 -6.481499224901199341e-02 1.190846338868141174e-01
2.031000000000000000e+03 5.263123512268066406e+00 3.387522888183593750e+01 1.687649488449096680e-01 -2.423272728919982910e-01 -2.206869609653949738e-02 7.082301378250122070e-02
2.032000000000000000e+03 1.813014626502990723e+00 -2.910180473327636719e+01 -5.050161853432655334e-03 -1.134596765041351318e-01 -3.555295243859291077e-02 -4.714730195701122284e-03
2.033000000000000000e+03 5.104928016662597656e+00 -2.621051788330078125e+01 -1.204260438680648804e-02 -5.606747418642044067e-02 -2.043302357196807861e-02 -7.623591227456927299e-05
2.034000000000000000e+03 3.407305240631103516e+00 -3.302610015869140625e+01 -1.192777603864669800e-02 -1.486493796110153198e-01 -4.817314818501472473e-02 -6.071394681930541992e-02
2.035000000000000000e+03 1.893549680709838867e+00 -3.044869422912597656e+01 -1.231276057660579681e-02 -1.228099688887596130e-01 -4.053681716322898865e-02 -1.474345568567514420e-02
2.036000000000000000e+03 3.011584281921386719e+00 -2.902705955505371094e+01 -2.226710878312587738e-02 -1.065593361854553223e-01 -3.864793479442596436e-02 -1.083401404321193695e-02
2.037000000000000000e+03 1.753222227096557617e+00 2.179115295410156250e+01 -1.738684804877266288e-04 -2.063122987747192383e-01 -6.194584816694259644e-02 -3.778909519314765930e-02
2.038000000000000000e+03 6.070716381072998047e+00 2.173408317565917969e+01 -3.617995977401733398e-02 -2.887427508831024170e-01 -9.747681766748428345e-02 4.715013131499290466e-02
2.039000000000000000e+03 4.032037734985351562e+00 -1.488208770751953125e+01 -2.969844266772270203e-02 -7.419151067733764648e-02 -3.116698563098907471e-02 -2.170873247087001801e-02
2.040000000000000000e+03 6.046299934387207031e+00 -1.360735034942626953e+01 -4.045441374182701111e-02 -9.981395304203033447e-02 -4.208051040768623352e-02 -4.392715916037559509e-02
2.041000000000000000e+03 3.527116537094116211e+00 -1.752281761169433594e+01 -3.697985410690307617e-02 -8.773453533649444580e-02 -3.741431608796119690e-02 -5.126133188605308533e-02
2.042000000000000000e+03 6.878616333007812500e+00 1.749205589294433594e+01 1.474612206220626831e-01 -1.776445955038070679e-01 -9.055013768374919891e-03 7.855567336082458496e-02
2.043000000000000000e+03 2.945130825042724609e+00 2.039072036743164062e+01 1.640367321670055389e-02 -2.334953099489212036e-01 -6.512749195098876953e-02 -3.127081692218780518e-02
2.044000000000000000e+03 4.931418418884277344e+00 1.079931926727294922e+01 -4.641691595315933228e-02 -6.550467014312744141e-02 -3.357647359371185303e-02 1.390370726585388184e-01
2.045000000000000000e+03 3.143617630004882812e+00 -2.378608131408691406e+01 2.183201722800731659e-02 -8.983871340751647949e-02 -2.040200866758823395e-02 -3.718156134709715843e-03
2.046000000000000000e+03 5.254509449005126953e+00 -2.276392173767089844e+01 8.271852880716323853e-02 -4.046762362122535706e-02 1.267527043819427490e-02 -1.124279759824275970e-02
2.047000000000000000e+03 4.839429378509521484e+00 -1.417339897155761719e+01 -3.306022286415100098e-02 -8.991128951311111450e-02 -3.689145296812057495e-02 -3.138392046093940735e-02
2.048000000000000000e+03 3.063545942306518555e+00 -1.320862579345703125e+01 -9.933296591043472290e-03 -3.439841791987419128e-02 -1.329951453953981400e-02 -2.182165626436471939e-03
2.049000000000000000e+03 2.633663654327392578e+00 7.387980461120605469e+00 -2.657203748822212219e-02 -1.255701645277440548e-03 -8.348321542143821716e-03 2.638094499707221985e-02
2.050000000000000000e+03 1.595945596694946289e+00 6.209642410278320312e+00 -1.076121348887681961e-02 2.779737114906311035e-02 5.110847298055887222e-03 -2.890362520702183247e-04
2.051000000000000000e+03 1.918398380279541016e+00 1.461376762390136719e+01 1.723193004727363586e-02 -1.622967422008514404e-01 -4.351944103837013245e-02 5.935612693428993225e-02
2.052000000000000000e+03 2.941242456436157227e+00 1.611226844787597656e+01 4.591407626867294312e-02 -1.886254400014877319e-01 -4.281340911984443665e-02 5.076617375016212463e-02
2.053000000000000000e+03 5.260971546173095703e+00 -4.417860507965087891e+00 2.889528404921293259e-03 -1.005823072046041489e-02 -2.150610787793993950e-03 -5.772140342742204666e-03
2.054000000000000000e+03 3.146600961685180664e+00 -3.780007839202880859e+00 -1.682801812421530485e-04 -4.741381388157606125e-03 -1.472898526117205620e-03 3.828945627901703119e-04
2.055000000000000000e+03 2.869383811950683594e+00 9.119040489196777344e+00 -3.269043192267417908e-02 -2.525394782423973083e-02 -1.738331466913223267e-02 6.037995591759681702e-02
2.056000000000000000e+03 2.227494001388549805e+00 -3.587930679321289062e+01 9.920300217345356941e-04 -2.047337889671325684e-01 -6.112252920866012573e-02 -4.203129932284355164e-02
2.057000000000000000e+03 3.722720146179199219e+00 -3.579599380493164062e+01 6.072580348700284958e-03 -1.914844065904617310e-01 -5.562354996800422668e-02 -6.900464743375778198e-02
2.058000000000000000e+03 2.656345129013061523e+00 -9.086777687072753906e+00 1.416170620359480381e-03 -1.254878006875514984e-02 -3.339783055707812309e-03 6.246529985219240189e-03
2.059000000000000000e+03 3.243353128433227539e+00 -3.169896125793457031e+01 -2.535366453230381012e-02 -1.285113543272018433e-01 -4.615950584411621094e-02 -4.093606397509574890e-02
2.060000000000000000e+03 4.403737068176269531e+00 -3.159122276306152344e+01 -3.058673813939094543e-02 -1.222150921821594238e-01 -4.584055021405220032e-02 -5.565603077411651611e-02
2.061000000000000000e+03 5.616019725799560547e+00 -2.518812370300292969e+01 2.592283533886075020e-03 -2.822471782565116882e-02 -7.689730264246463776e-03 5.556431598961353302e-03
2.062000000000000000e+03 3.250089168548583984e+00 -1.868919944763183594e+01 -2.426951378583908081e-02 -7.387728989124298096e-02 -2.944404259324073792e-02 -6.037359312176704407e-02
2.063000000000000000e+03 2.647683382034301758e+00 1.152301502227783203e+01 -1.023495197296142578e-02 -7.873128354549407959e-02 -2.668987028300762177e-02 8.763864636421203613e-02
2.064000000000000000e+03 5.233984947204589844e+00 9.774436950683593750e+00 -8.864067494869232178e-02 -4.784922674298286438e-02 -4.094697162508964539e-02 1.109939068555831909e-01
2.065000000000000000e+03 2.928926467895507812e+00 1.253897190093994141e+01 -6.023384048603475094e-04 -1.059466078877449036e-01 -3.196468576788902283e-02 1.013687551021575928e-01
2.066000000000000000e+03 3.754827976226806641e+00 1.327666187286376953e+01 2.468519471585750580e-02 -1.191235408186912537e-01 -2.833150327205657959e-02 1.211666315793991089e-01
2.067000000000000000e+03 4.210005283355712891e+00 1.721186447143554688e+01 7.191973179578781128e-02 -2.032347470521926880e-01 -3.939450532197952271e-02 4.378417506814002991e-02
2.068000000000000000e+03 2.609913063049316406e+01 3.071389389038085938e+01 -6.449842453002929688e-02 5.193350091576576233e-02 -3.769477596506476402e-03 4.920732676982879639e-01
2.069000000000000000e+03 7.204833221435546875e+01 2.001185035705566406e+01 1.080158352851867676e-01 4.392276287078857422e+00 1.350087642669677734e+00 -1.012206912040710449e+00
2.070000000000000000e+03 2.279009056091308594e+01 2.824502563476562500e+01 2.618361711502075195e-01 4.937544837594032288e-02 9.336348623037338257e-02 2.104841470718383789e-01
2.071000000000000000e+03 4.250945663452148438e+01 8.816542625427246094e+00 -7.120600342750549316e-01 -2.329313457012176514e-01 -2.834974229335784912e-01 6.760826110839843750e-01
2.072000000000000000e+03 4.104399871826171875e+01 1.414318561553955078e+01 -7.680985331535339355e-02 -2.988184392452239990e-01 -1.126884818077087402e-01 3.420881032943725586e-01
2.073000000000000000e+03 5.673638153076171875e+01 -2.813701438903808594e+01 3.048731982707977295e-01 3.304614126682281494e-01 1.906003952026367188e-01 2.267884612083435059e-01
2.074000000000000000e+03 5.755667495727539062e+01 -2.731207466125488281e+01 3.134965300559997559e-01 2.696761488914489746e-01 1.749518066644668579e-01 2.353801280260086060e-01
2.075000000000000000e+03 6.122563171386718750e+01 3.851430511474609375e+01 7.369267344474792480e-01 1.028215050697326660e+00 5.295425653457641602e-01 -2.530993819236755371e-01
2.076000000000000000e+03 3.466402053833007812e+01 2.108726882934570312e+01 4.504719004034996033e-02 -5.114049315452575684e-01 -1.399073153734207153e-01 4.452172517776489258e-01
2.077000000000000000e+03 5.501106262207031250e+01 2.153199195861816406e+01 2.811688184738159180e-01 3.299850225448608398e-01 1.833461523056030273e-01 -2.171578705310821533e-01
2.078000000000000000e+03 5.341197204589843750e+01 1.898727035522460938e+01 2.073814421892166138e-01 9.443923830986022949e-02 9.054620563983917236e-02 -1.318908929824829102e-01
2.079000000000000000e+03 5.164873504638671875e+01 -4.117427825927734375e+01 8.207329511642456055e-01 9.169940650463104248e-02 2.737297117710113525e-01 2.607815898954868317e-02
2.080000000000000000e+03 5.296765518188476562e+01 -3.740300369262695312e+01 5.352987647056579590e-01 2.923533320426940918e-01 2.482956349849700928e-01 -1.794990338385105133e-02
2.081000000000000000e+03 2.175725364685058594e+01 9.901323318481445312e+00 1.506025046110153198e-01 -1.651404350996017456e-01 -4.361381288617849350e-03 9.861559420824050903e-02
2.082000000000000000e+03 2.364445495605468750e+01 1.353695011138916016e+01 -9.050129354000091553e-02 -1.834480017423629761e-01 -8.218479156494140625e-02 2.969743870198726654e-02
2.083000000000000000e+03 3.660217285156250000e+01 1.397902107238769531e+01 -2.370776981115341187e-01 -7.432910203933715820e-01 -2.941106259822845459e-01 4.362829923629760742e-01
2.084000000000000000e+03 3.565695190429687500e+01 1.637337112426757812e+01 2.685497999191284180e-01 -6.328747868537902832e-01 -1.092974990606307983e-01 5.062768459320068359e-01
2.085000000000000000e+03 2.402618217468261719e+01 -2.791358947753906250e+01 2.653480768203735352e-01 -6.855194270610809326e-02 5.903884023427963257e-02 -1.080589368939399719e-01
2.086000000000000000e+03 2.484898376464843750e+01 -2.214829826354980469e+01 -2.247457159683108330e-03 -7.093323767185211182e-02 -2.195420861244201660e-02 -1.565995365381240845e-01
2.087000000000000000e+03 7.486386871337890625e+01 -2.178523635864257812e+01 8.652313947677612305e-01 7.351576328277587891e+00 2.465042352676391602e+00 1.609349131584167480e+00
2.088000000000000000e+03 7.539541625976562500e+01 -2.275715065002441406e+01 1.103674888610839844e+00 7.330110549926757812e+00 2.530135631561279297e+00 1.616493701934814453e+00
2.089000000000000000e+03 3.361874008178710938e+01 -7.210818290710449219e+00 3.838252648711204529e-02 -3.723343089222908020e-02 3.447287599556148052e-04 -2.423633486032485962e-01
2.090000000000000000e+03 4.254703903198242188e+01 1.579020118713378906e+01 1.725612878799438477e-01 3.568637743592262268e-02 6.247429922223091125e-02 2.309601902961730957e-01
2.091000000000000000e+03 5.257202529907226562e+01 2.508234214782714844e+01 2.425090968608856201e-01 5.591991543769836426e-01 2.405124753713607788e-01 8.245470002293586731e-03
2.092000000000000000e+03 4.181148910522460938e+01 1.031044578552246094e+01 -6.849613189697265625e-01 -2.411156594753265381e-01 -2.778230905532836914e-01 6.661370992660522461e-01
2.093000000000000000e+03 1.460635852813720703e+01 -9.987161636352539062e+00 -3.333257138729095459e-02 6.727350503206253052e-02 1.018228009343147278e-02 -3.214599331840872765e-03
2.094000000000000000e+03 1.593701934814453125e+01 -7.444170475006103516e+00 6.986930035054683685e-03 5.968383699655532837e-02 2.000123076140880585e-02 -4.326212685555219650e-03
2.095000000000000000e+03 4.571375846862792969e+00 1.201222324371337891e+01 -1.724625751376152039e-02 -8.868671208620071411e-02 -3.177988901734352112e-02 1.395244151353836060e-01
2.096000000000000000e+03 7.473398208618164062e+00 1.248514842987060547e+01 -8.689667098224163055e-03 -6.736931949853897095e-02 -2.281769737601280212e-02 1.895062327384948730e-01
2.097000000000000000e+03 5.843689727783203125e+01 1.330962371826171875e+01 2.243195623159408569e-01 9.908303022384643555e-01 3.645449578762054443e-01 -9.528090804815292358e-02
2.098000000000000000e+03 4.858049392700195312e+01 -5.074249267578125000e+00 -2.983771860599517822e-01 1.737942695617675781e-01 -3.737487271428108215e-02 2.045731395483016968e-01
2.099000000000000000e+03 5.265930938720703125e+01 2.087919235229492188e+01 2.886821627616882324e-01 2.072102427482604980e-01 1.487677097320556641e-01 -7.853673398494720459e-02
2.100000000000000000e+03 6.523557281494140625e+01 -1.229959774017333984e+01 -1.847296118736267090e+00 5.387068390846252441e-01 -3.925767838954925537e-01 2.618606984615325928e-01
2.101000000000000000e+03 4.365105152130126953e+00 2.986292076110839844e+01 9.798754006624221802e-03 -3.867962658405303955e-01 -1.130992472171783447e-01 1.877884417772293091e-01
2.102000000000000000e+03 4.447376251220703125e+01 3.436062240600585938e+01 4.027149677276611328e-01 -7.993286848068237305e-02 9.683462977409362793e-02 -1.520899869501590729e-02
2.103000000000000000e+03 6.179277420043945312e+00 2.359061622619628906e+01 -1.499783396720886230e-01 -3.650065958499908447e-01 -1.544954925775527954e-01 1.252604722976684570e-01
2.104000000000000000e+03 5.405117988586425781e+00 2.480555915832519531e+01 -1.312039792537689209e-01 -4.527658820152282715e-01 -1.751909554004669189e-01 9.878893196582794189e-02
2.105000000000000000e+03 4.907097625732421875e+01 3.002214622497558594e+01 1.111181825399398804e-01 4.523430168628692627e-01 1.690383702516555786e-01 1.238627880811691284e-01
2.106000000000000000e+03 1.589812088012695312e+01 2.157082557678222656e+01 1.254301071166992188e-01 1.491114646196365356e-01 8.236247301101684570e-02 2.653739154338836670e-01
2.107000000000000000e+03 5.104645156860351562e+01 -8.787019729614257812e+00 -4.845287501811981201e-01 -8.775188028812408447e-02 -1.716841906309127808e-01 5.680520087480545044e-02
2.108000000000000000e+03 5.067716979980468750e+01 -9.836136817932128906e+00 -5.057428479194641113e-01 2.968901954591274261e-02 -1.428161561489105225e-01 -1.264098286628723145e-01
2.109000000000000000e+03 2.729708862304687500e+01 1.304881095886230469e+01 -4.486290365457534790e-02 7.893319427967071533e-02 1.022108737379312515e-02 1.832614094018936157e-01
2.110000000000000000e+03 7.335504150390625000e+01 1.510852909088134766e+01 1.227156639099121094e+00 5.888940334320068359e+00 2.134829044342041016e+00 -1.099145770072937012e+00
2.111000000000000000e+03 1.645659828186035156e+01 -4.136548042297363281e+00 2.429671026766300201e-02 5.815501883625984192e-02 2.473551966249942780e-02 -1.256694784387946129e-03
2.112000000000000000e+03 1.449851608276367188e+01 -6.021533012390136719e+00 8.136872784234583378e-04 2.081777155399322510e-02 6.489438004791736603e-03 -1.825434714555740356e-02
2.113000000000000000e+03 1.051607513427734375e+01 -2.439834022521972656e+01 -2.419724827632308006e-03 -6.690650433301925659e-02 -2.079786732792854309e-02 -1.186132654547691345e-01
2.114000000000000000e+03 2.931202507019042969e+01 -1.425521183013916016e+01 -4.049123525619506836e-01 -2.195786386728286743e-01 -1.873472929000854492e-01 -1.345266699790954590e-01
2.115000000000000000e+03 2.521611785888671875e+01 -1.478072929382324219e+01 -4.249667823314666748e-01 -1.206295564770698547e-01 -1.636788994073867798e-01 -1.464972048997879028e-01
2.116000000000000000e+03 2.971129798889160156e+01 -1.291479873657226562e+01 -3.235262334346771240e-01 -2.751791179180145264e-01 -1.796116083860397339e-01 -1.007184833288192749e-01
2.117000000000000000e+03 2.687684059143066406e+01 -1.884003829956054688e+01 -1.817650049924850464e-01 -1.735160797834396362e-01 -1.065843254327774048e-01 -1.646252274513244629e-01
2.118000000000000000e+03 2.654511833190917969e+01 -1.766586685180664062e+01 -2.485398054122924805e-01 -1.545156091451644897e-01 -1.209166198968887329e-01 -1.676568835973739624e-01
2.119000000000000000e+03 3.129011344909667969e+01 2.613599395751953125e+01 -4.800129830837249756e-01 -8.429379463195800781e-01 -3.968852758407592773e-01 4.590471982955932617e-01
2.120000000000000000e+03 3.222919845581054688e+01 3.232711029052734375e+01 2.791091203689575195e-01 -3.988094925880432129e-01 -3.591011092066764832e-02 2.120372205972671509e-01
2.121000000000000000e+03 8.662638664245605469e+00 9.761638641357421875e+00 -1.912696361541748047e-01 -1.357249468564987183e-01 -9.809837490320205688e-02 1.495765894651412964e-01
2.122000000000000000e+03 8.461464881896972656e+00 3.901169776916503906e+00 -6.706801801919937134e-02 -3.197394683957099915e-02 -2.971258945763111115e-02 1.431562821380794048e-03
2.123000000000000000e+03 5.979452133178710938e+01 -1.860493469238281250e+01 3.861378133296966553e-01 1.902365684509277344e-01 1.729123145341873169e-01 -1.998820453882217407e-01
2.124000000000000000e+03 9.556509971618652344e+00 2.100092124938964844e+01 -2.363737486302852631e-02 -8.263427764177322388e-02 -3.188149631023406982e-02 1.295775175094604492e-01
2.125000000000000000e+03 1.326249694824218750e+01 1.947881889343261719e+01 -3.974339365959167480e-02 2.085647732019424438e-01 5.064641311764717102e-02 3.276590704917907715e-01
2.126000000000000000e+03 3.827270126342773438e+01 -3.816255569458007812e+00 -4.177437722682952881e-01 1.351846754550933838e-01 -8.476773649454116821e-02 -3.594929352402687073e-03
2.127000000000000000e+03 3.883042144775390625e+01 -3.104663610458374023e+00 -4.305141866207122803e-01 6.216007843613624573e-02 -1.105062365531921387e-01 2.362971007823944092e-02
2.128000000000000000e+03 1.458282089233398438e+01 -2.273253631591796875e+01 -7.846112549304962158e-02 -3.072520196437835693e-01 -1.157139465212821960e-01 -2.223321199417114258e-01
2.129000000000000000e+03 4.089788818359375000e+01 -1.689325523376464844e+01 -1.375145614147186279e-01 6.739453971385955811e-02 -2.103600651025772095e-02 -3.061277866363525391e-01
2.130000000000000000e+03 6.769390869140625000e+01 -3.734986114501953125e+01 5.627167224884033203e-01 2.308071613311767578e+00 8.612365126609802246e-01 3.707532882690429688e-01
2.131000000000000000e+03 5.038364791870117188e+01 2.564268875122070312e+01 2.596696019172668457e-01 4.806840419769287109e-01 2.221060991287231445e-01 2.085186392068862915e-01
2.132000000000000000e+03 5.243887329101562500e+01 2.756507301330566406e+01 1.792582571506500244e-01 8.070781826972961426e-01 2.959009408950805664e-01 3.858178108930587769e-02
2.133000000000000000e+03 2.146679687500000000e+01 -1.625023841857910156e+01 -2.153512239456176758e-01 -5.388924852013587952e-02 -8.077213913202285767e-02 -1.743481904268264771e-01
2.134000000000000000e+03 1.172225570678710938e+01 -3.183451652526855469e+01 -1.126272827386856079e-01 -2.557713091373443604e-01 -1.105195805430412292e-01 -1.254740655422210693e-01
2.135000000000000000e+03 9.804769515991210938e+00 -3.276087951660156250e+01 -8.292240649461746216e-02 -1.587297320365905762e-01 -7.249563932418823242e-02 -1.294807046651840210e-01
2.136000000000000000e+03 4.343355560302734375e+01 1.260685634613037109e+01 -1.120114102959632874e-01 -3.747557476162910461e-02 -4.484609514474868774e-02 3.944782614707946777e-01
2.137000000000000000e+03 1.329616546630859375e+01 -2.799704790115356445e+00 -1.932521723210811615e-02 6.210415158420801163e-03 -3.934440668672323227e-03 -1.973810046911239624e-02
2.138000000000000000e+03 2.807901573181152344e+01 -2.601701736450195312e+01 2.505205273628234863e-01 -6.952933222055435181e-02 5.429735779762268066e-02 -1.427916735410690308e-01
2.139000000000000000e+03 5.133789443969726562e+01 -3.305465316772460938e+01 1.403341293334960938e-01 2.712734043598175049e-01 1.234822571277618408e-01 -2.944153845310211182e-01
2.140000000000000000e+03 6.333698654174804688e+01 -1.116251182556152344e+01 -1.862835168838500977e+00 7.188631296157836914e-01 -3.431915938854217529e-01 1.915170699357986450e-01
2.141000000000000000e+03 4.381169891357421875e+01 -1.519763851165771484e+01 -7.133822441101074219e-01 -2.098556756973266602e-01 -2.769713699817657471e-01 -5.063918977975845337e-02
2.142000000000000000e+03 3.832691192626953125e+01 -1.427228736877441406e+01 -6.650165319442749023e-01 6.062043309211730957e-01 -1.764365099370479584e-02 -2.048700451850891113e-01
2.143000000000000000e+03 3.836146163940429688e+01 -1.583357238769531250e+01 -3.346705436706542969e-01 6.361301541328430176e-01 9.043787419795989990e-02 -1.491708606481552124e-01
2.144000000000000000e+03 2.803882789611816406e+01 -1.911378669738769531e+01 -1.574029177427291870e-01 -2.366895526647567749e-01 -1.182277426123619080e-01 -1.409528553485870361e-01
2.145000000000000000e+03 5.554927062988281250e+01 1.497992420196533203e+01 1.001038402318954468e-01 1.779162436723709106e-01 8.340602368116378784e-02 -1.415187269449234009e-01
2.146000000000000000e+03 2.845599174499511719e+01 -1.260220432281494141e+01 -3.446556627750396729e-01 -2.698332667350769043e-01 -1.843466758728027344e-01 -1.962956488132476807e-01
2.147000000000000000e+03 4.679923629760742188e+01 -2.562372779846191406e+01 2.727996706962585449e-01 3.885010778903961182e-01 1.983902156352996826e-01 -2.361549139022827148e-01
2.148000000000000000e+03 4.732848739624023438e+01 -2.660346031188964844e+01 3.139117360115051270e-01 3.805860877037048340e-01 2.083493471145629883e-01 -2.724153697490692139e-01
2.149000000000000000e+03 4.740801620483398438e+01 -1.269321346282958984e+01 -6.923004388809204102e-01 1.557635068893432617e-01 -1.609610766172409058e-01 -2.849543690681457520e-01
2.150000000000000000e+03 4.724987792968750000e+01 -1.356299972534179688e+01 -8.236895203590393066e-01 1.868142932653427124e-02 -2.415024191141128540e-01 -2.525210678577423096e-01
2.151000000000000000e+03 3.570011138916015625e+01 -3.104441070556640625e+01 -1.746147684752941132e-02 -8.567202836275100708e-02 -3.094005212187767029e-02 -3.042471706867218018e-01
2.152000000000000000e+03 3.770066070556640625e+01 -3.165166282653808594e+01 -8.659156411886215210e-02 -3.234191536903381348e-01 -1.230032145977020264e-01 -2.682463824748992920e-01
2.153000000000000000e+03 3.558642959594726562e+01 -8.110570907592773438e+00 1.215878501534461975e-01 2.508958578109741211e-01 1.117451116442680359e-01 -2.392912209033966064e-01
2.154000000000000000e+03 5.462378692626953125e+01 -3.298174667358398438e+01 2.043968290090560913e-01 7.045048475265502930e-01 2.726705074310302734e-01 -2.283687442541122437e-01
2.155000000000000000e+03 2.511466598510742188e+01 1.448747539520263672e+01 -2.558360695838928223e-01 -1.780708879232406616e-01 -1.301720887422561646e-01 7.841707020998001099e-02
2.156000000000000000e+03 1.765393638610839844e+01 3.549377441406250000e+01 7.242900878190994263e-02 -2.405644506216049194e-01 -5.044063553214073181e-02 1.108524054288864136e-01
2.157000000000000000e+03 6.461847686767578125e+01 3.989351272583007812e+01 5.074778795242309570e-01 1.925444006919860840e+00 7.298765182495117188e-01 -1.268535405397415161e-01
2.158000000000000000e+03 2.682458114624023438e+01 6.829220294952392578e+00 1.708709895610809326e-01 1.521934270858764648e-01 9.691932052373886108e-02 1.458759456872940063e-01
2.159000000000000000e+03 2.779853057861328125e+01 7.719964981079101562e+00 2.614527940750122070e-01 3.688957393169403076e-01 1.891045570373535156e-01 1.115115210413932800e-01
2.160000000000000000e+03 1.652000236511230469e+01 5.832989692687988281e+00 -1.251893937587738037e-01 9.964145720005035400e-02 -7.664378732442855835e-03 1.929417252540588379e-01
2.161000000000000000e+03 1.862456321716308594e+01 2.098458862304687500e+01 -3.960391879081726074e-02 -2.918984275311231613e-03 -1.275687105953693390e-02 5.629011243581771851e-02
2.162000000000000000e+03 5.922437667846679688e+01 -2.329863929748535156e+01 2.745650112628936768e-01 3.172270059585571289e-01 1.775376051664352417e-01 8.022904396057128906e-02
2.163000000000000000e+03 6.369745254516601562e+01 -2.032482147216796875e+01 3.819903731346130371e-01 1.753377437591552734e+00 6.406103372573852539e-01 1.387865990400314331e-01
2.164000000000000000e+03 2.610367584228515625e+01 -2.946270561218261719e+01 1.830814629793167114e-01 -1.284307539463043213e-01 1.639521121978759766e-02 -1.397486627101898193e-01
2.165000000000000000e+03 2.560387802124023438e+01 -2.771654510498046875e+01 2.580065131187438965e-01 -1.264663934707641602e-01 3.946203365921974182e-02 -1.185662671923637390e-01
2.166000000000000000e+03 3.564011764526367188e+01 2.373901176452636719e+01 -3.005914688110351562e-01 -5.736017227172851562e-01 -2.622579634189605713e-01 3.836753666400909424e-01
2.167000000000000000e+03 3.500265884399414062e+01 2.485219955444335938e+01 -4.099476337432861328e-01 -5.855346918106079102e-01 -2.986446917057037354e-01 3.613342642784118652e-01
2.168000000000000000e+03 4.886645793914794922e+00 3.084809875488281250e+01 5.847580730915069580e-02 -3.646000027656555176e-01 -9.183725714683532715e-02 1.388619542121887207e-01
2.169000000000000000e+03 1.841899871826171875e+01 2.220552825927734375e+01 2.092728167772293091e-01 5.414929240942001343e-02 7.902663201093673706e-02 1.098872646689414978e-01
2.170000000000000000e+03 6.870325565338134766e+00 2.072327423095703125e+01 8.002534508705139160e-03 -2.251490801572799683e-01 -6.514396518468856812e-02 5.021940916776657104e-02
2.171000000000000000e+03 1.551254558563232422e+01 -1.249074745178222656e+01 -4.367705807089805603e-02 1.243079006671905518e-01 2.418925240635871887e-02 -8.592178113758563995e-03
2.172000000000000000e+03 4.219102096557617188e+01 -1.717143058776855469e+01 -2.291628420352935791e-01 -1.282358020544052124e-01 -1.072195917367935181e-01 -2.792491018772125244e-01
2.173000000000000000e+03 5.909029769897460938e+01 -2.443965721130371094e+01 2.499666661024093628e-01 2.944713234901428223e-01 1.633314043283462524e-01 1.838658154010772705e-01
2.174000000000000000e+03 5.817411041259765625e+01 -2.184274291992187500e+01 2.025206387042999268e-01 1.696742027997970581e-01 1.116584539413452148e-01 -8.622278273105621338e-02
2.175000000000000000e+03 4.879542160034179688e+01 -7.905473232269287109e+00 -1.228696331381797791e-01 2.806306779384613037e-01 4.732831567525863647e-02 1.958248764276504517e-01
2.176000000000000000e+03 2.044381332397460938e+01 -1.561006069183349609e+01 -1.941557079553604126e-01 -2.700115926563739777e-02 -6.634706258773803711e-02 -1.601909250020980835e-01
2.177000000000000000e+03 1.972089767456054688e+01 2.230038642883300781e+01 1.266674995422363281e-01 -7.932456582784652710e-02 1.420288253575563431e-02 9.564322233200073242e-02
2.178000000000000000e+03 4.464632415771484375e+01 -2.268419075012207031e+01 2.315386831760406494e-01 2.127440646290779114e-02 7.584393024444580078e-02 -4.734677374362945557e-01
2.179000000000000000e+03 6.255144119262695312e+01 4.831875801086425781e+00 -4.660203456878662109e-01 5.497232079505920410e-01 2.511086128652095795e-02 -2.211146056652069092e-01
2.180000000000000000e+03 6.713965606689453125e+01 5.735064029693603516e+00 1.794045567512512207e-01 -1.619823127985000610e-01 5.226671695709228516e-03 -5.786293745040893555e-01
2.181000000000000000e+03 5.452164077758789062e+01 -2.808071327209472656e+01 3.100972771644592285e-01 1.688683927059173584e-01 1.436897069215774536e-01 -1.389035768806934357e-02
2.182000000000000000e+03 3.407227325439453125e+01 -3.017113685607910156e+01 1.243705209344625473e-02 9.929886460304260254e-02 3.352077677845954895e-02 -2.592739164829254150e-01
2.183000000000000000e+03 3.811865615844726562e+01 4.106761169433593750e+01 4.592077136039733887e-01 1.627686247229576111e-02 1.426453739404678345e-01 1.341439038515090942e-02
2.184000000000000000e+03 4.260622978210449219e+00 -2.145696067810058594e+01 6.277810782194137573e-02 -7.926050573587417603e-02 -4.944719839841127396e-03 -4.502567648887634277e-02
2.185000000000000000e+03 5.409328937530517578e+00 3.197608375549316406e+01 1.142739802598953247e-01 -2.223625630140304565e-01 -3.242657333612442017e-02 1.142270341515541077e-01
2.186000000000000000e+03 6.014235496520996094e+00 3.307350540161132812e+01 1.711063981056213379e-01 -1.251956075429916382e-01 1.377324014902114868e-02 1.028863713145256042e-01
2.187000000000000000e+03 6.597416687011718750e+01 5.753078937530517578e+00 3.172092884778976440e-02 2.927260994911193848e-01 9.733410924673080444e-02 -5.342685580253601074e-01
2.188000000000000000e+03 6.773286437988281250e+01 3.340942859649658203e+00 -3.041450083255767822e-01 -1.853815913200378418e-01 -1.468579769134521484e-01 -1.132443472743034363e-01
2.189000000000000000e+03 3.968528747558593750e+01 1.378459835052490234e+01 -2.242162823677062988e-01 -5.043578743934631348e-01 -2.185722440481185913e-01 3.822857439517974854e-01
2.190000000000000000e+03 9.645237922668457031e+00 -2.578043365478515625e+01 -4.208305850625038147e-02 -7.050669193267822266e-02 -3.377692401409149170e-02 -9.616690874099731445e-02
2.191000000000000000e+03 1.155062770843505859e+01 -2.691662025451660156e+01 -4.951467365026473999e-02 -1.830177009105682373e-01 -6.975971162319183350e-02 -1.250628829002380371e-01
2.192000000000000000e+03 2.927215385437011719e+01 -1.193962574005126953e+01 -2.988615334033966064e-01 -3.474808037281036377e-01 -1.939027011394500732e-01 -1.575435996055603027e-01
2.193000000000000000e+03 5.955006790161132812e+01 2.100205993652343750e+01 1.787720769643783569e-01 5.855231881141662598e-01 2.292885780334472656e-01 1.340391784906387329e-01
2.194000000000000000e+03 2.188206481933593750e+01 2.999764251708984375e+01 -2.861453033983707428e-02 -1.049332320690155029e-01 -4.006432741880416870e-02 1.005333289504051208e-01
2.195000000000000000e+03 4.447014617919921875e+01 1.695959091186523438e+01 2.496872693300247192e-01 4.262934327125549316e-01 2.027942091226577759e-01 2.112396955490112305e-01
2.196000000000000000e+03 4.314282226562500000e+01 1.732496833801269531e+01 2.371597141027450562e-01 1.817780137062072754e-01 1.256813108921051025e-01 1.984164267778396606e-01
2.197000000000000000e+03 3.669775390625000000e+01 -1.432137966156005859e+01 -5.821355581283569336e-01 5.364032387733459473e-01 -1.371969655156135559e-02 -2.710889279842376709e-01
2.198000000000000000e+03 3.755915832519531250e+01 -1.513685512542724609e+01 -5.188473463058471680e-01 6.714484095573425293e-01 4.578031972050666809e-02 -1.867788434028625488e-01
2.199000000000000000e+03 7.370812988281250000e+01 -1.419206714630126953e+01 -6.750663518905639648e-01 2.852179050445556641e+00 6.531338095664978027e-01 9.608801007270812988e-01
2.200000000000000000e+03 4.265280151367187500e+01 -1.565572071075439453e+01 -5.733903646469116211e-01 -1.733040958642959595e-01 -2.240083366632461548e-01 -1.467988789081573486e-01
2.201000000000000000e+03 4.329054260253906250e+01 1.129095554351806641e+01 -4.262777566909790039e-01 -8.429684489965438843e-02 -1.531723886728286743e-01 5.782351493835449219e-01
2.202000000000000000e+03 5.075598526000976562e+01 3.535150146484375000e+01 4.359341859817504883e-01 4.654479920864105225e-01 2.704146504402160645e-01 4.779098555445671082e-02
2.203000000000000000e+03 6.091229629516601562e+01 -1.598735523223876953e+01 -7.133983820676803589e-02 2.781133651733398438e-01 6.203205510973930359e-02 -1.301060765981674194e-01
2.204000000000000000e+03 5.811588287353515625e+01 -1.912750816345214844e+01 3.614545166492462158e-01 -2.010892145335674286e-02 1.024036779999732971e-01 -2.987928390502929688e-01
2.205000000000000000e+03 6.354338455200195312e+01 2.346437072753906250e+01 3.789843618869781494e-01 9.562363624572753906e-01 4.005662202835083008e-01 3.245262503623962402e-01
2.206000000000000000e+03 6.382944107055664062e+01 2.119925117492675781e+01 1.506820023059844971e-01 4.915748238563537598e-01 1.926770359277725220e-01 4.023519158363342285e-01
2.207000000000000000e+03 2.752328300476074219e+01 1.395913600921630859e+01 -1.988123059272766113e-01 4.818021133542060852e-02 -4.518963024020195007e-02 2.469148188829421997e-01
2.208000000000000000e+03 2.638822555541992188e+01 1.417748165130615234e+01 -1.846376508474349976e-01 -1.303266137838363647e-01 -9.448927640914916992e-02 1.437878906726837158e-01
2.209000000000000000e+03 4.550146102905273438e+01 3.471097707748413086e+00 -9.046779870986938477e-01 -1.395261585712432861e-01 -3.132612407207489014e-01 2.168928086757659912e-01
2.210000000000000000e+03 2.768749046325683594e+01 1.111478996276855469e+01 1.334708034992218018e-01 2.392360568046569824e-01 1.118120551109313965e-01 1.616885364055633545e-01
2.211000000000000000e+03 2.705599784851074219e+01 9.742838859558105469e+00 2.542234659194946289e-01 2.104319334030151367e-01 1.393966227769851685e-01 1.329818069934844971e-01
2.212000000000000000e+03 5.582886886596679688e+01 1.957132148742675781e+01 2.542676627635955811e-01 3.411852121353149414e-01 1.786358654499053955e-01 -2.164699733257293701e-01
2.213000000000000000e+03 1.677037811279296875e+01 -1.540749263763427734e+01 2.317534387111663818e-02 6.678441911935806274e-02 2.698792889714241028e-02 -5.036428570747375488e-02
2.214000000000000000e+03 5.093014526367187500e+01 2.326345252990722656e+01 3.270983397960662842e-01 3.011914789676666260e-01 1.884869486093521118e-01 1.212912872433662415e-01
2.215000000000000000e+03 3.405362319946289062e+01 3.799144744873046875e+01 4.403394162654876709e-01 -1.420539766550064087e-01 8.948563039302825928e-02 3.391986712813377380e-02
2.216000000000000000e+03 1.283106327056884766e+01 -2.591789817810058594e+01 -9.774656966328620911e-03 -2.371861636638641357e-01 -7.408824563026428223e-02 -1.531809717416763306e-01
2.217000000000000000e+03 1.554401397705078125e+01 -2.606186485290527344e+01 3.478324040770530701e-02 -2.724242806434631348e-01 -7.129231095314025879e-02 -1.605426222085952759e-01
2.218000000000000000e+03 5.698578643798828125e+01 -2.314876556396484375e+01 5.697735771536827087e-02 7.857734709978103638e-02 4.066641256213188171e-02 2.612791489809751511e-03
2.219000000000000000e+03 2.129569625854492188e+01 2.332510757446289062e+01 1.287067085504531860e-01 -2.323122769594192505e-01 -3.108167089521884918e-02 1.382302045822143555e-01
2.220000000000000000e+03 1.316054344177246094e+01 3.885202789306640625e+01 6.312567740678787231e-02 -2.677012793719768524e-02 1.090666372328996658e-02 8.470340073108673096e-02
2.221000000000000000e+03 9.586939811706542969e+00 1.794995880126953125e+01 1.666460186243057251e-01 3.937505185604095459e-02 6.180632114410400391e-02 1.180582493543624878e-01
2.222000000000000000e+03 4.983737468719482422e+00 1.914925384521484375e+01 6.430262327194213867e-02 -2.325911074876785278e-01 -5.048654600977897644e-02 1.140283793210983276e-02
2.223000000000000000e+03 3.464303970336914062e+01 1.990017890930175781e+01 1.983474045991897583e-01 -5.452650189399719238e-01 -1.040752902626991272e-01 4.806898236274719238e-01
2.224000000000000000e+03 3.825910568237304688e+01 2.048968887329101562e+01 3.229367434978485107e-01 -4.775309860706329346e-01 -4.637827351689338684e-02 3.811082541942596436e-01
2.225000000000000000e+03 4.631378173828125000e+01 -2.289723777770996094e+01 3.462796509265899658e-01 2.413337081670761108e-01 1.762840002775192261e-01 -3.432455956935882568e-01
2.226000000000000000e+03 2.952802276611328125e+01 1.126460075378417969e+01 9.986650198698043823e-02 5.701426863670349121e-01 2.010027617216110229e-01 2.060415893793106079e-01
2.227000000000000000e+03 4.045830917358398438e+01 -2.617922782897949219e+01 -1.853043884038925171e-01 -5.471650362014770508e-01 -2.197408229112625122e-01 -2.214316129684448242e-01
2.228000000000000000e+03 3.995854949951171875e+01 1.248543739318847656e+01 -4.616514444351196289e-01 -4.939515888690948486e-01 -2.866809070110321045e-01 4.586867392063140869e-01
2.229000000000000000e+03 4.720235061645507812e+01 2.358691406250000000e+01 3.854710161685943604e-01 3.221487104892730713e-01 2.122859209775924683e-01 2.736697793006896973e-01
2.230000000000000000e+03 7.346372985839843750e+01 -2.868428826332092285e-01 -1.894029140472412109e+00 2.801829814910888672e+00 2.723402082920074463e-01 -1.134243369102478027e+00
2.231000000000000000e+03 7.447812652587890625e+01 -2.187863588333129883e+00 -1.120415449142456055e+00 4.214254856109619141e+00 9.281518459320068359e-01 -1.058828353881835938e+00
2.232000000000000000e+03 4.618235397338867188e+01 1.957946968078613281e+01 3.421394824981689453e-01 4.013927280902862549e-01 2.230596542358398438e-01 2.056347578763961792e-01
2.233000000000000000e+03 1.987594985961914062e+01 -2.469071388244628906e+01 7.650719583034515381e-02 9.466902911663055420e-02 5.135286599397659302e-02 -1.751182675361633301e-01
2.234000000000000000e+03 6.735002136230468750e+01 2.123854827880859375e+01 2.568163573741912842e-01 1.109763979911804199e+00 4.099740982055664062e-01 -8.743074536323547363e-01
2.235000000000000000e+03 6.896533203125000000e+01 2.167055892944335938e+01 2.367883026599884033e-01 2.269469976425170898e+00 7.518774867057800293e-01 -1.125763773918151855e+00
2.236000000000000000e+03 7.483634948730468750e+01 -1.971678161621093750e+01 -6.281644105911254883e-01 6.568212985992431641e+00 1.782014608383178711e+00 1.652344942092895508e+00
2.237000000000000000e+03 7.617370605468750000e+01 -1.763219070434570312e+01 -7.287984490394592285e-01 7.673049926757812500e+00 2.083275318145751953e+00 1.353804469108581543e+00
2.238000000000000000e+03 6.695420837402343750e+01 3.271206665039062500e+01 4.094811975955963135e-01 2.531350374221801758e+00 8.822494745254516602e-01 -3.706184327602386475e-01
2.239000000000000000e+03 6.517803192138671875e+01 3.185627174377441406e+01 5.052406191825866699e-01 2.179848432540893555e+00 8.055266737937927246e-01 -4.156552553176879883e-01
2.240000000000000000e+03 4.357173919677734375e+01 6.304178237915039062e+00 -7.591506242752075195e-01 -2.470347881317138672e-01 -3.018556237220764160e-01 4.104188084602355957e-01
2.241000000000000000e+03 4.385065841674804688e+01 2.134220123291015625e+01 5.316293239593505859e-01 3.455829322338104248e-01 2.631636857986450195e-01 2.345685511827468872e-01
2.242000000000000000e+03 7.590005493164062500e+01 -2.821158027648925781e+01 -2.426917850971221924e-02 6.262078285217285156e+00 1.871342658996582031e+00 4.594319462776184082e-01
2.243000000000000000e+03 7.304756927490234375e+01 -2.704855918884277344e+01 4.277379065752029419e-02 5.394399166107177734e+00 1.631151795387268066e+00 1.940577626228332520e+00
2.244000000000000000e+03 4.903020858764648438e+01 2.164029312133789062e+01 3.908995985984802246e-01 2.119435071945190430e-01 1.808529347181320190e-01 2.151514142751693726e-01
2.245000000000000000e+03 5.427502822875976562e+01 -1.284341621398925781e+01 -1.056723952293395996e+00 -3.285447135567665100e-02 -3.268735408782958984e-01 -5.336685180664062500e-01
2.246000000000000000e+03 5.406795120239257812e+01 -1.049149703979492188e+01 -1.555110454559326172e+00 -7.629771530628204346e-02 -4.894224405288696289e-01 6.365539133548736572e-02
2.247000000000000000e+03 4.813707351684570312e+01 -1.194286727905273438e+01 -6.326926946640014648e-01 2.404428869485855103e-01 -1.176749467849731445e-01 -4.337673187255859375e-01
2.248000000000000000e+03 3.472814559936523438e+01 3.233199310302734375e+01 3.398010134696960449e-01 -2.020720541477203369e-01 4.131868854165077209e-02 1.758432239294052124e-01
2.249000000000000000e+03 2.795038604736328125e+01 3.501217651367187500e+01 2.247941792011260986e-01 -2.522546648979187012e-01 -8.238144218921661377e-03 2.431147098541259766e-01
2.250000000000000000e+03 5.959019184112548828e+00 3.752972793579101562e+01 4.424982145428657532e-02 -1.596094518899917603e-01 -3.460788726806640625e-02 -1.586784608662128448e-02
2.251000000000000000e+03 7.638348579406738281e+00 3.703345489501953125e+01 5.895849317312240601e-02 6.590160075575113297e-03 1.966459676623344421e-02 2.544608665630221367e-03
2.252000000000000000e+03 6.218614196777343750e+01 2.233092117309570312e+01 2.018959522247314453e-01 7.276682853698730469e-01 2.788692712783813477e-01 4.300112724304199219e-01
2.253000000000000000e+03 1.264445781707763672e+01 4.126890563964843750e+01 1.353496033698320389e-02 -2.017486840486526489e-02 -1.991972792893648148e-03 3.244335576891899109e-02
2.254000000000000000e+03 5.751729965209960938e+01 1.196759510040283203e+01 2.737029492855072021e-01 6.529389619827270508e-01 2.779925763607025146e-01 8.851274102926254272e-02
2.255000000000000000e+03 5.744028091430664062e+01 1.513305282592773438e+01 1.867969930171966553e-01 6.469795107841491699e-01 2.501329481601715088e-01 -1.714005023241043091e-01
2.256000000000000000e+03 7.309972381591796875e+01 1.150494480133056641e+01 2.111475616693496704e-01 5.666381359100341797e+00 1.763258695602416992e+00 -1.237065434455871582e+00
2.257000000000000000e+03 7.354277038574218750e+01 1.065695190429687500e+01 -1.832195669412612915e-01 5.843149662017822266e+00 1.697979092597961426e+00 -1.294354557991027832e+00
2.258000000000000000e+03 6.387727355957031250e+01 -2.285487174987792969e+01 3.453576564788818359e-01 1.426094174385070801e+00 5.314355492591857910e-01 -4.898554831743240356e-02
2.259000000000000000e+03 6.378615188598632812e+01 -2.541977882385253906e+01 1.156772300601005554e-01 1.100862622261047363e+00 3.649619519710540771e-01 -3.637805879116058350e-01
2.260000000000000000e+03 4.007228088378906250e+01 -1.729042816162109375e+01 -2.549160970374941826e-03 2.843519449234008789e-01 8.454082906246185303e-02 -2.545656561851501465e-01
2.261000000000000000e+03 4.418870544433593750e+01 -2.000939178466796875e+01 2.288298914209008217e-03 -1.327468007802963257e-01 -3.913754969835281372e-02 -5.338799953460693359e-01
2.262000000000000000e+03 1.715667915344238281e+01 2.183532524108886719e+01 1.811054795980453491e-01 1.297161430120468140e-01 9.324648231267929077e-02 1.702560484409332275e-01
2.263000000000000000e+03 5.009754562377929688e+01 3.237469482421875000e+01 2.740647196769714355e-01 4.950471818447113037e-01 2.307335734367370605e-01 4.368203878402709961e-02
2.264000000000000000e+03 7.476847839355468750e+01 8.894052505493164062e+00 -3.468504548072814941e-01 5.987134933471679688e+00 1.692085385322570801e+00 -1.311109423637390137e+00
2.265000000000000000e+03 6.082479476928710938e+01 2.108295059204101562e+01 1.177148371934890747e-01 7.115464806556701660e-01 2.487783879041671753e-01 3.188785910606384277e-01
2.266000000000000000e+03 7.221582031250000000e+01 -2.815262031555175781e+01 4.042448699474334717e-01 3.666693449020385742e+00 1.221281528472900391e+00 1.694924473762512207e+00
2.267000000000000000e+03 7.006424713134765625e+01 -2.832245826721191406e+01 6.232886910438537598e-01 1.517068982124328613e+00 6.421073079109191895e-01 8.932102322578430176e-01
2.268000000000000000e+03 7.307479858398437500e+01 1.967233657836914062e+01 2.288165688514709473e-02 5.072585105895996094e+00 1.528640031814575195e+00 -8.159347772598266602e-01
2.269000000000000000e+03 2.707156753540039062e+01 -2.296690177917480469e+01 7.479269802570343018e-02 -1.200721263885498047e-01 -1.358382869511842728e-02 -1.346804499626159668e-01
2.270000000000000000e+03 2.592176628112792969e+01 -2.253280639648437500e+01 2.381433919072151184e-02 -1.038722544908523560e-01 -2.401737496256828308e-02 -1.432335227727890015e-01
2.271000000000000000e+03 3.817523241043090820e+00 -2.667979431152343750e+01 -8.401608094573020935e-03 -8.115464448928833008e-02 -2.686687558889389038e-02 5.323338322341442108e-03
2.272000000000000000e+03 7.039742469787597656e+00 -2.433074760437011719e+01 3.767969831824302673e-02 4.450390581041574478e-03 1.263902708888053894e-02 -1.175508089363574982e-02
2.273000000000000000e+03 1.192247867584228516e+01 -1.070810794830322266e+01 -2.838256210088729858e-02 2.895974554121494293e-02 1.731553347781300545e-04 -3.928278759121894836e-02
2.274000000000000000e+03 1.454087829589843750e+01 -1.193394756317138672e+01 -3.948905691504478455e-02 1.029455512762069702e-01 1.903694868087768555e-02 -2.045706659555435181e-02
2.275000000000000000e+03 4.291660308837890625e+01 2.002087783813476562e+01 3.797751069068908691e-01 2.466040551662445068e-01 1.879137456417083740e-01 1.991798728704452515e-01
2.276000000000000000e+03 7.162065505981445312e+00 1.413436889648437500e+01 8.947034180164337158e-02 -8.994591981172561646e-02 -1.426720264134928584e-04 1.835618615150451660e-01
2.277000000000000000e+03 3.330885314941406250e+01 -9.782454490661621094e+00 -6.915067881345748901e-02 -8.669462800025939941e-02 -4.675358906388282776e-02 -1.131927594542503357e-01
2.278000000000000000e+03 2.682236671447753906e+01 -3.236980819702148438e+01 4.704228043556213379e-02 -1.534857451915740967e-01 -3.193303942680358887e-02 -1.250207871198654175e-01
2.279000000000000000e+03 6.456678771972656250e+01 2.528773689270019531e+01 5.139073729515075684e-01 1.386269927024841309e+00 5.700532197952270508e-01 -6.173282861709594727e-03
2.280000000000000000e+03 3.321964263916015625e+01 -1.353143501281738281e+01 -3.815498352050781250e-01 -1.578877270221710205e-01 -1.618312746286392212e-01 -6.828784942626953125e-02
2.281000000000000000e+03 3.662438583374023438e+01 -1.159672546386718750e+01 -2.567909657955169678e-01 4.485654532909393311e-01 5.753234401345252991e-02 -6.152350082993507385e-02
2.282000000000000000e+03 2.482317924499511719e+01 7.949078083038330078e+00 1.933564841747283936e-01 -7.217711210250854492e-02 3.635381162166595459e-02 1.279478371143341064e-01
2.283000000000000000e+03 7.082229614257812500e+01 -3.058497238159179688e+01 5.969139933586120605e-01 2.623907089233398438e+00 9.662463068962097168e-01 8.551654815673828125e-01
2.284000000000000000e+03 2.149239540100097656e+01 1.457903766632080078e+01 -1.024586185812950134e-01 -1.982465833425521851e-01 -9.021155536174774170e-02 6.993890553712844849e-02
2.285000000000000000e+03 5.032723236083984375e+01 -5.322053909301757812e+00 -2.549609839916229248e-01 9.574269643053412437e-04 -7.620106637477874756e-02 3.046242296695709229e-01
2.286000000000000000e+03 2.226127815246582031e+01 3.145838356018066406e+01 -1.107528582215309143e-01 -1.187540665268898010e-01 -6.885207444429397583e-02 5.097303539514541626e-02
2.287000000000000000e+03 2.087020874023437500e+01 3.347470474243164062e+01 1.437682379037141800e-02 -2.220979779958724976e-01 -6.231634318828582764e-02 3.995807468891143799e-02
2.288000000000000000e+03 5.428119277954101562e+01 -3.584452438354492188e+01 5.377995967864990234e-01 5.182572007179260254e-01 3.168170452117919922e-01 -2.484402954578399658e-01
2.289000000000000000e+03 7.776484012603759766e+00 -3.402416229248046875e+01 -3.824514150619506836e-02 -1.441174000501632690e-01 -5.470876023173332214e-02 -1.228522062301635742e-01
2.290000000000000000e+03 7.248533725738525391e+00 -1.280254077911376953e+01 -5.702140554785728455e-02 -8.110941201448440552e-02 -4.143924638628959656e-02 -5.386788398027420044e-02
2.291000000000000000e+03 4.750614547729492188e+01 2.616285896301269531e+01 1.917725950479507446e-01 3.363037109375000000e-01 1.584228873252868652e-01 3.126226663589477539e-01
2.292000000000000000e+03 4.297959518432617188e+01 1.004641628265380859e+01 -6.656366586685180664e-01 -1.060739010572433472e-01 -2.315131723880767822e-01 6.220547556877136230e-01
2.293000000000000000e+03 3.307178497314453125e+01 3.509341049194335938e+01 4.422739446163177490e-01 -2.744916379451751709e-01 5.033469200134277344e-02 1.319342702627182007e-01
2.294000000000000000e+03 5.334199142456054688e+01 5.225794792175292969e+00 -6.667194366455078125e-01 5.380977392196655273e-01 -3.858650848269462585e-02 4.688445329666137695e-01
2.295000000000000000e+03 5.234569168090820312e+01 4.828557014465332031e+00 -9.010989665985107422e-01 4.893283545970916748e-01 -1.235311776399612427e-01 8.846729397773742676e-01
2.296000000000000000e+03 6.322909927368164062e+01 -4.140645599365234375e+01 1.179751396179199219e+00 7.769223451614379883e-01 5.870020985603332520e-01 5.682801455259323120e-02
2.297000000000000000e+03 6.998904418945312500e+01 2.099263954162597656e+01 3.481869399547576904e-02 3.194880962371826172e+00 9.689098596572875977e-01 -1.274743080139160156e+00
2.298000000000000000e+03 5.062715911865234375e+01 -3.455457305908203125e+01 9.244181960821151733e-02 2.638013660907745361e-01 1.068729609251022339e-01 -1.034812405705451965e-01
2.299000000000000000e+03 5.226668167114257812e+01 -3.383934402465820312e+01 1.981283575296401978e-01 4.043555557727813721e-01 1.807451695203781128e-01 -2.169194519519805908e-01
2.300000000000000000e+03 1.514884376525878906e+01 5.668349742889404297e+00 -2.082638740539550781e-01 2.060069702565670013e-03 -6.186114251613616943e-02 2.429210394620895386e-01
2.301000000000000000e+03 5.168915557861328125e+01 -2.656583023071289062e+01 3.203293085098266602e-01 9.922295808792114258e-02 1.258656829595565796e-01 -3.150071501731872559e-01
2.302000000000000000e+03 5.397521209716796875e+01 -2.660003089904785156e+01 2.618900239467620850e-01 -4.750513657927513123e-02 6.431546807289123535e-02 -6.315415352582931519e-02
2.303000000000000000e+03 1.641665077209472656e+01 -2.128616905212402344e+01 -2.218977212905883789e-01 -1.287156939506530762e-01 -1.051840260624885559e-01 -1.905065476894378662e-01
2.304000000000000000e+03 1.879736137390136719e+01 -1.979631233215332031e+01 -1.822534799575805664e-01 -6.697833072394132614e-03 -5.668539553880691528e-02 -2.632622122764587402e-01
2.305000000000000000e+03 7.098236846923828125e+01 -1.548921489715576172e+01 -1.031066775321960449e-01 -9.215216040611267090e-01 -3.073884844779968262e-01 1.073397517204284668e+00
2.306000000000000000e+03 7.041659545898437500e+01 2.205817031860351562e+01 3.761431574821472168e-02 3.299737215042114258e+00 1.001205444335937500e+00 -1.085173368453979492e+00
2.307000000000000000e+03 1.544400978088378906e+01 -1.350016975402832031e+01 -1.951639354228973389e-02 1.181223541498184204e-01 2.958178706467151642e-02 -1.484912913292646408e-02
2.308000000000000000e+03 5.966258239746093750e+01 1.464208698272705078e+01 1.645804494619369507e-01 1.466122031211853027e+00 4.892107248306274414e-01 -2.050431631505489349e-02
2.309000000000000000e+03 5.973778152465820312e+01 1.717804145812988281e+01 1.726322919130325317e-01 1.122875690460205078e+00 3.886523842811584473e-01 -5.817181896418333054e-03
2.310000000000000000e+03 1.702539062500000000e+01 -2.559217262268066406e+01 8.834290504455566406e-02 -1.564642786979675293e-01 -2.043641172349452972e-02 -1.850877553224563599e-01
2.311000000000000000e+03 6.268858337402343750e+01 -2.403057670593261719e+01 3.139275908470153809e-01 9.542755484580993652e-01 3.804609477519989014e-01 -4.527387022972106934e-02
2.312000000000000000e+03 5.747454452514648438e+01 -1.376409816741943359e+01 -7.626126408576965332e-01 -3.508495688438415527e-01 -3.340386748313903809e-01 -2.586461305618286133e-01
2.313000000000000000e+03 7.417973327636718750e+01 -1.303884506225585938e+01 -7.062004804611206055e-01 3.933254718780517578e+00 9.681162834167480469e-01 1.236093997955322266e+00
2.314000000000000000e+03 5.549142074584960938e+01 3.727348327636718750e+01 6.642337441444396973e-01 5.497925877571105957e-01 3.642078936100006104e-01 2.296035289764404297e-01
2.315000000000000000e+03 6.841518402099609375e+01 -1.333312606811523438e+01 -1.680782437324523926e+00 -6.772401332855224609e-01 -7.074067592620849609e-01 5.313270092010498047e-01
2.316000000000000000e+03 6.988414001464843750e+01 -1.390660095214843750e+01 -7.843837141990661621e-01 -9.044063091278076172e-01 -5.066369771957397461e-01 8.642634153366088867e-01
2.317000000000000000e+03 2.075637245178222656e+01 -2.527427101135253906e+01 1.865584999322891235e-01 1.286628991365432739e-01 9.456641972064971924e-02 -1.287996768951416016e-01
2.318000000000000000e+03 1.865288734436035156e+01 -2.272507476806640625e+01 -8.524996787309646606e-02 -3.100023372098803520e-03 -2.650499716401100159e-02 -2.159393429756164551e-01
2.319000000000000000e+03 6.579043579101562500e+01 3.320848846435546875e+01 4.344083964824676514e-01 2.290033102035522461e+00 8.173324465751647949e-01 -3.321904838085174561e-01
2.320000000000000000e+03 6.534757232666015625e+01 3.541634368896484375e+01 3.596022725105285645e-01 2.193394184112548828e+00 7.658989429473876953e-01 -2.975804507732391357e-01
2.321000000000000000e+03 5.108630371093750000e+01 -3.153830337524414062e+01 2.664727866649627686e-01 2.948505878448486328e-01 1.683970093727111816e-01 -3.591524064540863037e-01
2.322000000000000000e+03 5.157213211059570312e+01 -2.834513092041015625e+01 3.402099013328552246e-01 1.976083368062973022e-01 1.613454669713973999e-01 -2.839353978633880615e-01
2.323000000000000000e+03 3.711552429199218750e+01 -3.502272415161132812e+01 2.247866541147232056e-01 -1.366065144538879395e-01 2.645404264330863953e-02 -3.667590916156768799e-01
2.324000000000000000e+03 3.611265182495117188e+01 -3.893608474731445312e+01 4.563687741756439209e-01 -1.541372239589691162e-01 9.066946059465408325e-02 -1.484486311674118042e-01
2.325000000000000000e+03 6.684319305419921875e+01 -2.935153198242187500e+01 5.789551734924316406e-01 1.393557906150817871e+00 5.917539000511169434e-01 -3.013798594474792480e-01
2.326000000000000000e+03 6.804946136474609375e+01 -2.698383522033691406e+01 5.280537903308868408e-02 3.909458220005035400e-01 1.331253647804260254e-01 -3.083807826042175293e-01
2.327000000000000000e+03 3.032995605468750000e+01 3.010203170776367188e+01 4.259348660707473755e-02 -5.118029117584228516e-01 -1.407628357410430908e-01 3.294262588024139404e-01
2.328000000000000000e+03 7.181409835815429688e+00 1.872192764282226562e+01 1.066229864954948425e-01 -1.760347634553909302e-01 -2.082353271543979645e-02 5.775288119912147522e-02
2.329000000000000000e+03 2.323183059692382812e+01 2.974843788146972656e+01 -1.383081823587417603e-02 1.708232611417770386e-01 4.709773510694503784e-02 1.587010622024536133e-01
2.330000000000000000e+03 7.743424892425537109e+00 1.067579555511474609e+01 -1.190339699387550354e-01 -1.052019968628883362e-01 -6.727079302072525024e-02 1.757027059793472290e-01
2.331000000000000000e+03 4.577681732177734375e+01 -1.759511947631835938e+01 -6.243407726287841797e-01 -8.288545906543731689e-02 -2.121678739786148071e-01 -2.947401106357574463e-01
2.332000000000000000e+03 5.544624710083007812e+01 6.571287631988525391e+00 2.768995463848114014e-01 9.161097556352615356e-02 1.105531603097915649e-01 2.818295657634735107e-01
2.333000000000000000e+03 5.851894760131835938e+01 9.326871871948242188e+00 4.935179948806762695e-01 4.981193244457244873e-01 2.974911928176879883e-01 1.522905677556991577e-01
2.334000000000000000e+03 2.833409118652343750e+01 1.341456317901611328e+01 -1.539737135171890259e-01 2.450224161148071289e-01 2.731460891664028168e-02 2.861839234828948975e-01
2.335000000000000000e+03 3.881782293319702148e+00 2.721157455444335938e+01 -1.172029599547386169e-01 -4.020231664180755615e-01 -1.557678431272506714e-01 1.604708135128021240e-01
2.336000000000000000e+03 5.882936477661132812e+01 -2.553095817565917969e+01 2.336176186800003052e-01 3.439689874649047852e-01 1.732759922742843628e-01 2.581508457660675049e-01
2.337000000000000000e+03 5.609568786621093750e+01 -2.429983329772949219e+01 3.857924789190292358e-02 -6.722718477249145508e-02 -8.594380691647529602e-03 8.290016651153564453e-02
2.338000000000000000e+03 2.408204269409179688e+01 -2.460983467102050781e+01 1.607839316129684448e-01 -5.024076998233795166e-02 3.316295146942138672e-02 -1.206192895770072937e-01
2.339000000000000000e+03 2.324594879150390625e+01 -1.598725891113281250e+01 -3.008911311626434326e-01 -9.309294074773788452e-02 -1.181952133774757385e-01 -1.643388718366622925e-01
2.340000000000000000e+03 6.508736419677734375e+01 -1.568577861785888672e+01 -1.682678461074829102e-01 1.118745088577270508e+00 2.851431965827941895e-01 -8.542752265930175781e-02
2.341000000000000000e+03 6.180470275878906250e+01 -1.839430236816406250e+01 4.168935716152191162e-01 6.170797944068908691e-01 3.101920187473297119e-01 -2.542610652744770050e-02
2.342000000000000000e+03 5.133015823364257812e+01 -6.473758697509765625e+00 -3.375560939311981201e-01 -1.412618458271026611e-01 -1.436453759670257568e-01 3.101657629013061523e-01
2.343000000000000000e+03 3.381859970092773438e+01 1.443874263763427734e+01 -1.399200558662414551e-01 -2.054187655448913574e-01 -1.036016419529914856e-01 4.880681633949279785e-01
2.344000000000000000e+03 3.057220649719238281e+01 -1.279664897918701172e+01 -3.307019472122192383e-01 -2.819924652576446533e-01 -1.838083118200302124e-01 -6.462041288614273071e-02
2.345000000000000000e+03 3.011746788024902344e+01 -3.073939132690429688e+01 1.072253882884979248e-01 1.213426608592271805e-02 3.580789640545845032e-02 -1.538012772798538208e-01
2.346000000000000000e+03 3.323534011840820312e+01 -3.101130867004394531e+01 3.987152129411697388e-02 1.034275218844413757e-01 4.298971220850944519e-02 -2.332359701395034790e-01
2.347000000000000000e+03 5.523639297485351562e+01 -1.144976997375488281e+01 -1.709127068519592285e+00 -1.697067469358444214e-01 -5.636501312255859375e-01 -3.421632945537567139e-01
2.348000000000000000e+03 6.054751586914062500e+01 -1.123480319976806641e+01 -1.796115398406982422e+00 3.457877337932586670e-01 -4.350982904434204102e-01 2.117076814174652100e-01
2.349000000000000000e+03 2.497181510925292969e+01 3.103486824035644531e+01 -1.285907179117202759e-01 8.496113866567611694e-02 -1.308887358754873276e-02 3.312235176563262939e-01
2.350000000000000000e+03 6.153057479858398438e+01 -1.051667118072509766e+01 -2.018987655639648438e+00 5.758877396583557129e-01 -4.329299926757812500e-01 -5.565465241670608521e-02
2.351000000000000000e+03 6.168083190917968750e+01 -1.384981441497802734e+01 -9.316200017929077148e-01 5.263695120811462402e-01 -1.215751320123672485e-01 -6.898081302642822266e-02
2.352000000000000000e+03 8.903789520263671875e+00 -2.628610610961914062e+01 -5.069731175899505615e-02 -4.928178340196609497e-02 -2.999372780323028564e-02 -7.593320310115814209e-02
2.353000000000000000e+03 5.534232330322265625e+01 -2.552932929992675781e+01 1.469341516494750977e-01 -2.149214223027229309e-02 3.763260319828987122e-02 8.855263888835906982e-02
2.354000000000000000e+03 5.402738952636718750e+01 -1.484467887878417969e+01 -6.424675583839416504e-01 2.434432357549667358e-01 -1.197072938084602356e-01 -4.844169020652770996e-01
2.355000000000000000e+03 5.653857421875000000e+01 -1.510637950897216797e+01 -1.401339620351791382e-01 -1.578445285558700562e-01 -8.939354866743087769e-02 -2.961373031139373779e-01
2.356000000000000000e+03 5.605805587768554688e+01 -2.331114196777343750e+01 -6.449419260025024414e-02 -8.354967832565307617e-02 -4.441316053271293640e-02 2.814868278801441193e-02
2.357000000000000000e+03 5.003309726715087891e+00 -4.049095535278320312e+01 4.442005977034568787e-02 -2.293338328599929810e-01 -5.547413229942321777e-02 -4.161110892891883850e-02
2.358000000000000000e+03 6.547144889831542969e+00 -3.836530685424804688e+01 6.458722800016403198e-02 -1.976807415485382080e-01 -3.992805257439613342e-02 -8.370726555585861206e-02
2.359000000000000000e+03 3.639192962646484375e+01 1.784060668945312500e+01 3.517388403415679932e-01 -6.379860043525695801e-01 -8.587414771318435669e-02 4.961378276348114014e-01
2.360000000000000000e+03 8.474397659301757812e+00 -1.205162334442138672e+01 -5.909002572298049927e-02 -6.775853037834167480e-02 -3.805456683039665222e-02 -3.858176618814468384e-02
2.361000000000000000e+03 2.881979942321777344e+00 -1.176771163940429688e+01 -4.576969891786575317e-03 -2.529394626617431641e-02 -8.961275219917297363e-03 4.369250498712062836e-03
2.362000000000000000e+03 3.251250076293945312e+01 -4.142512893676757812e+01 3.755481541156768799e-01 -2.330761104822158813e-01 4.274161905050277710e-02 -3.714327141642570496e-02
2.363000000000000000e+03 7.709135437011718750e+01 -8.211060523986816406e+00 -2.269553184509277344e+00 1.595577144622802734e+01 4.105865478515625000e+00 5.028433799743652344e-01
2.364000000000000000e+03 7.864189147949218750e+01 -2.910754680633544922e+00 -1.221674799919128418e+00 1.173136615753173828e+01 3.152907371520996094e+00 2.264196634292602539e+00
2.365000000000000000e+03 7.784594726562500000e+01 -3.191327810287475586e+00 -2.190866708755493164e+00 1.347379112243652344e+01 3.384877443313598633e+00 1.904155969619750977e+00
2.366000000000000000e+03 7.823554992675781250e+01 -7.939314842224121094e+00 -1.135204434394836426e+00 1.420116806030273438e+01 3.919789075851440430e+00 -3.332671642303466797e+00
2.367000000000000000e+03 7.893213653564453125e+01 -7.534300804138183594e+00 2.008667886257171631e-01 9.313793182373046875e+00 2.854397773742675781e+00 -3.521272182464599609e+00
2.368000000000000000e+03 7.579574584960937500e+01 -7.835237026214599609e+00 1.392166167497634888e-01 9.175889015197753906e+00 2.794531583786010742e+00 4.124622344970703125e+00
2.369000000000000000e+03 7.495441436767578125e+01 -4.154473781585693359e+00 1.071989774703979492e+00 3.379117488861083984e+00 1.335332155227661133e+00 -2.396916627883911133e+00
2.370000000000000000e+03 7.612883758544921875e+01 -9.424072265625000000e+00 -6.260268688201904297e-01 1.000356960296630859e+01 2.813262939453125000e+00 1.449342608451843262e+00
2.371000000000000000e+03 7.723914337158203125e+01 -9.487052917480468750e+00 -1.436437964439392090e+00 1.218011569976806641e+01 3.223103284835815430e+00 -3.470465540885925293e-01
2.372000000000000000e+03 7.692171478271484375e+01 -7.972022533416748047e+00 -2.146878480911254883e+00 1.649641227722167969e+01 4.304860115051269531e+00 1.384403586387634277e+00
2.373000000000000000e+03 7.725655364990234375e+01 -4.089477539062500000e+00 -2.271139383316040039e+00 1.660110664367675781e+01 4.298990249633789062e+00 4.588434398174285889e-01
2.374000000000000000e+03 7.695913696289062500e+01 -3.293248414993286133e+00 -2.455239295959472656e+00 1.351796627044677734e+01 3.318818092346191406e+00 -3.740946948528289795e-01
2.375000000000000000e+03 7.792072296142578125e+01 -3.980612993240356445e+00 -1.574368000030517578e+00 1.483373260498046875e+01 3.977809429168701172e+00 2.955203533172607422e+00
2.376000000000000000e+03 9.502852439880371094e+00 3.216241359710693359e+00 -3.916309773921966553e-02 -3.980898112058639526e-02 -2.369162440299987793e-02 1.326095499098300934e-02
2.377000000000000000e+03 1.006400680541992188e+01 3.416196346282958984e+00 -5.929091200232505798e-02 -5.520080775022506714e-02 -3.434751555323600769e-02 2.164321951568126678e-02
2.378000000000000000e+03 7.882994842529296875e+01 -4.898940563201904297e+00 2.599992752075195312e-01 9.707170486450195312e+00 2.990150690078735352e+00 3.483551979064941406e+00
2.379000000000000000e+03 4.396704864501953125e+01 3.460671186447143555e+00 -7.489458322525024414e-01 -1.221789196133613586e-01 -2.613374292850494385e-01 8.547770977020263672e-02
2.380000000000000000e+03 5.675274658203125000e+01 3.519104719161987305e+00 -1.200876235961914062e+00 -2.077673822641372681e-01 -4.225930571556091309e-01 2.194387763738632202e-01
2.381000000000000000e+03 5.757436752319335938e+01 3.507117271423339844e+00 -1.158943533897399902e+00 -1.879048645496368408e-01 -4.040544927120208740e-01 1.401031315326690674e-01
2.382000000000000000e+03 5.359243392944335938e+01 4.298350334167480469e+00 -9.832562804222106934e-01 2.378993183374404907e-01 -2.236070781946182251e-01 6.008261442184448242e-01
2.383000000000000000e+03 6.426534271240234375e+01 3.275696039199829102e+00 -9.074078798294067383e-01 4.439471662044525146e-01 -1.390382200479507446e-01 -1.161685809493064880e-01
2.384000000000000000e+03 9.667881011962890625e+00 -3.364409685134887695e+00 -1.416930463165044785e-02 -2.618372812867164612e-02 -1.210590917617082596e-02 -3.567507490515708923e-02
2.385000000000000000e+03 6.068611145019531250e+01 1.245055049657821655e-01 -1.969510436058044434e+00 2.867888808250427246e-01 -5.048164725303649902e-01 3.639383912086486816e-01
2.386000000000000000e+03 6.041351699829101562e+01 -6.306849122047424316e-01 -1.885222434997558594e+00 -6.653214804828166962e-03 -5.675626993179321289e-01 7.271406650543212891e-01
2.387000000000000000e+03 8.783308982849121094e+00 -4.154193401336669922e+00 -4.358307458460330963e-03 -2.673831954598426819e-02 -9.328988380730152130e-03 -3.226241096854209900e-02
2.388000000000000000e+03 4.916832923889160156e+00 -2.959615945816040039e+00 6.432100053643807769e-05 -3.194525605067610741e-03 -9.390613995492458344e-04 -5.450114142149686813e-03
2.389000000000000000e+03 5.968000411987304688e+00 -4.227148532867431641e+00 -2.090277848765254021e-03 -2.122271060943603516e-02 -6.993896793574094772e-03 -1.453083753585815430e-02
2.390000000000000000e+03 3.755397319793701172e+00 -3.948826074600219727e+00 -1.832561916671693325e-03 -8.854290470480918884e-03 -3.206055611371994019e-03 -3.502651583403348923e-03
2.391000000000000000e+03 4.261453151702880859e+00 -3.167465448379516602e+00 -3.570042084902524948e-03 -9.362242184579372406e-03 -3.879685420542955399e-03 -3.871224820613861084e-03
2.392000000000000000e+03 3.718920707702636719e+00 -4.691955089569091797e+00 3.283577039837837219e-03 -8.262595161795616150e-03 -1.493705436587333679e-03 -8.875880157575011253e-04
2.393000000000000000e+03 2.532874107360839844e+00 -3.423541307449340820e+00 5.846552667208015919e-04 -2.726586069911718369e-03 -6.425792234949767590e-04 -3.815529053099453449e-04
2.394000000000000000e+03 3.709383249282836914e+00 -6.665937423706054688e+00 5.388663616031408310e-03 -1.515666674822568893e-02 -2.930400893092155457e-03 1.267011626623570919e-03
2.395000000000000000e+03 2.705403327941894531e+00 -5.499033927917480469e+00 2.306891372427344322e-03 -5.786199588328599930e-03 -1.043792464770376682e-03 2.080296399071812630e-03
2.396000000000000000e+03 4.575289916992187500e+01 2.612385034561157227e+00 -8.170824050903320312e-01 -8.695530146360397339e-02 -2.712113261222839355e-01 1.807612031698226929e-01
2.397000000000000000e+03 3.493274688720703125e+01 -3.632684707641601562e+00 -2.177973389625549316e-01 9.866196662187576294e-02 -3.574061021208763123e-02 -1.248212754726409912e-01
2.398000000000000000e+03 6.560976505279541016e+00 3.537934541702270508e+00 -3.277493268251419067e-02 -1.239169482141733170e-02 -1.354998815804719925e-02 -1.547945756465196609e-02
2.399000000000000000e+03 4.281900405883789062e+00 8.363149642944335938e+00 -6.855198740959167480e-02 -2.587170340120792389e-02 -2.832710556685924530e-02 6.855846196413040161e-02
2.400000000000000000e+03 6.374813556671142578e+00 4.322973251342773438e+00 -5.102835595607757568e-02 -1.804078184068202972e-02 -2.072074078023433685e-02 -1.027712784707546234e-02
2.401000000000000000e+03 8.208552360534667969e+00 3.303247213363647461e+00 -3.632960841059684753e-02 -3.240282088518142700e-02 -2.061972767114639282e-02 -4.356798715889453888e-03
2.402000000000000000e+03 7.293287277221679688e+00 4.801101684570312500e+00 -8.213622123003005981e-02 -2.476260252296924591e-02 -3.206964954733848572e-02 2.399001037701964378e-03
2.403000000000000000e+03 6.782216072082519531e+00 5.474909305572509766e+00 -9.163088351488113403e-02 -3.127416595816612244e-02 -3.687151521444320679e-02 1.508439611643552780e-02
2.404000000000000000e+03 4.639990329742431641e+00 5.299396038055419922e+00 -4.747445881366729736e-02 -2.794400788843631744e-03 -1.508065778762102127e-02 -3.794426564127206802e-03
2.405000000000000000e+03 4.462063312530517578e+00 3.267722129821777344e+00 -9.058821946382522583e-03 2.678765216842293739e-03 -1.914017018862068653e-03 -2.687239460647106171e-02
2.406000000000000000e+03 3.148300886154174805e+00 5.309829235076904297e+00 -2.244132198393344879e-02 8.776893839240074158e-03 -4.099328536540269852e-03 -9.153737686574459076e-03
2.407000000000000000e+03 2.665598154067993164e+00 6.253883361816406250e+00 -2.564243413507938385e-02 7.876798510551452637e-03 -5.329690873622894287e-03 4.648042377084493637e-03
2.408000000000000000e+03 2.445064783096313477e+00 4.425443172454833984e+00 -1.179333683103322983e-02 1.343707647174596786e-02 4.931219154968857765e-04 -1.630115695297718048e-02
2.409000000000000000e+03 3.605575561523437500e+01 -3.705826520919799805e+00 -2.657452821731567383e-01 1.751273721456527710e-01 -2.718537300825119019e-02 -9.971960633993148804e-02
2.410000000000000000e+03 1.046628189086914062e+01 5.475786209106445312e+00 -1.839154064655303955e-01 -1.086366251111030579e-01 -8.776561170816421509e-02 7.707615196704864502e-02
2.411000000000000000e+03 1.168793773651123047e+01 5.748506546020507812e+00 -2.348956912755966187e-01 -1.566193699836730957e-01 -1.174545139074325562e-01 1.119991540908813477e-01
2.412000000000000000e+03 2.207559585571289062e+01 4.169517040252685547e+00 -2.236747294664382935e-01 -1.112550944089889526e-01 -1.004789471626281738e-01 1.373667269945144653e-01
2.413000000000000000e+03 1.996399116516113281e+01 6.187330245971679688e+00 8.661212399601936340e-03 -5.640546604990959167e-02 -1.432327646762132645e-02 9.417808055877685547e-02
2.414000000000000000e+03 6.281555175781250000e+01 2.256307899951934814e-01 -1.608045578002929688e+00 4.341997802257537842e-01 -3.521537184715270996e-01 2.203565984964370728e-01
2.415000000000000000e+03 3.611849212646484375e+01 -4.886195182800292969e+00 -2.049442976713180542e-01 2.270432114601135254e-01 6.629675626754760742e-03 -1.770808100700378418e-01
2.416000000000000000e+03 2.086662292480468750e+01 6.483987331390380859e+00 7.320107519626617432e-02 -1.083623319864273071e-01 -1.054837740957736969e-02 8.337651193141937256e-02
2.417000000000000000e+03 2.556574440002441406e+01 6.551201820373535156e+00 1.307944804430007935e-01 -8.819794282317161560e-03 3.659240901470184326e-02 1.567287743091583252e-01
2.418000000000000000e+03 2.607423400878906250e+01 7.252872943878173828e+00 1.907665133476257324e-01 5.882343277335166931e-02 7.487698644399642944e-02 1.435192078351974487e-01
2.419000000000000000e+03 2.135043907165527344e+01 4.880427837371826172e+00 -1.221938803791999817e-01 -1.082524284720420837e-01 -6.913389265537261963e-02 1.160122305154800415e-01
2.420000000000000000e+03 2.561910820007324219e+01 4.364387989044189453e+00 -1.289042234420776367e-01 1.706101931631565094e-02 -3.355296328663825989e-02 1.861019581556320190e-01
2.421000000000000000e+03 2.377723312377929688e+01 4.918500900268554688e+00 -8.212640136480331421e-02 -1.010686755180358887e-01 -5.495852604508399963e-02 1.577474176883697510e-01
2.422000000000000000e+03 2.696771240234375000e+01 3.421924829483032227e+00 -2.831904590129852295e-01 1.253918707370758057e-01 -4.733957722783088684e-02 1.600749343633651733e-01
2.423000000000000000e+03 2.956081771850585938e+01 2.923660039901733398e+00 -3.981185555458068848e-01 2.442979663610458374e-01 -4.614617675542831421e-02 4.109542816877365112e-02
2.424000000000000000e+03 2.719399452209472656e+01 2.796230554580688477e+00 -4.027620255947113037e-01 1.361614614725112915e-01 -7.998016476631164551e-02 1.475744545459747314e-01
2.425000000000000000e+03 2.766261672973632812e+01 3.863243579864501953e+00 -2.280484139919281006e-01 2.101503908634185791e-01 -5.369404796510934830e-03 1.331114768981933594e-01
2.426000000000000000e+03 2.859634208679199219e+01 4.046400070190429688e+00 -1.829407662153244019e-01 2.651938796043395996e-01 2.467593364417552948e-02 8.771722018718719482e-02
2.427000000000000000e+03 1.362841320037841797e+01 4.500574588775634766e+00 -1.754345148801803589e-01 -1.272126883268356323e-01 -9.079416096210479736e-02 1.927478611469268799e-01
2.428000000000000000e+03 1.408077907562255859e+01 5.218190670013427734e+00 -2.228649109601974487e-01 -1.127226725220680237e-01 -1.006762757897377014e-01 2.401039600372314453e-01
2.429000000000000000e+03 1.201289844512939453e+01 -2.849748849868774414e+00 -2.073563821613788605e-02 1.283099781721830368e-02 -2.371392212808132172e-03 -2.503689751029014587e-02
2.430000000000000000e+03 1.337076663970947266e+01 -4.507870197296142578e+00 2.780462615191936493e-03 7.781324908137321472e-03 3.168536350131034851e-03 -3.086559474468231201e-02
2.431000000000000000e+03 1.265384864807128906e+01 -4.204720973968505859e+00 -8.350982097908854485e-04 -1.340604946017265320e-02 -4.272344522178173065e-03 -2.678482048213481903e-02
2.432000000000000000e+03 4.950430679321289062e+01 -4.362559795379638672e+00 -2.520645558834075928e-01 6.724925339221954346e-02 -5.544459074735641479e-02 2.270304113626480103e-01
2.433000000000000000e+03 4.202106475830078125e+01 4.641862869262695312e+00 -4.204519391059875488e-01 -3.112322092056274414e-01 -2.195052504539489746e-01 7.058296352624893188e-02
2.434000000000000000e+03 4.857995605468750000e+01 3.938989162445068359e+00 -1.083869099617004395e+00 -3.524692356586456299e-01 -4.309014976024627686e-01 6.023210287094116211e-01
2.435000000000000000e+03 6.435746002197265625e+01 5.568563938140869141e-01 -1.492827653884887695e+00 4.031413793563842773e-01 -3.269059062004089355e-01 6.969442218542098999e-02
2.436000000000000000e+03 9.632287025451660156e+00 -4.244575500488281250e+00 2.625051187351346016e-03 -1.390193030238151550e-02 -3.383063711225986481e-03 -2.859864942729473114e-02
2.437000000000000000e+03 3.373736572265625000e+01 -5.274040222167968750e+00 -7.508723437786102295e-02 -4.940816666930913925e-03 -2.400841377675533295e-02 -2.151253372430801392e-01
2.438000000000000000e+03 5.865828704833984375e+01 6.779567241668701172e+00 1.124098226428031921e-01 2.120746672153472900e-01 9.734534472227096558e-02 1.128299981355667114e-01
2.439000000000000000e+03 3.270604705810546875e+01 -5.624244689941406250e+00 -1.960865966975688934e-02 -9.239349514245986938e-02 -3.360064700245857239e-02 -2.099476009607315063e-01
2.440000000000000000e+03 5.274887466430664062e+01 4.086297512054443359e+00 -1.130247473716735840e+00 2.598761916160583496e-01 -2.611114084720611572e-01 7.048527598381042480e-01
2.441000000000000000e+03 6.213047027587890625e+01 1.628572493791580200e-02 -1.659473180770874023e+00 4.116735756397247314e-01 -3.743399083614349365e-01 3.264411389827728271e-01
2.442000000000000000e+03 1.160057735443115234e+01 -4.409852504730224609e+00 -6.566671188920736313e-03 -2.141006104648113251e-02 -8.393019437789916992e-03 -3.631174191832542419e-02
2.443000000000000000e+03 5.858013153076171875e+01 7.984398365020751953e+00 3.039581477642059326e-01 3.351933062076568604e-01 1.917454302310943604e-01 1.688898503780364990e-01
2.444000000000000000e+03 4.237635421752929688e+01 5.429207324981689453e+00 -4.547997415065765381e-01 -3.255059719085693359e-01 -2.340917140245437622e-01 2.815452516078948975e-01
2.445000000000000000e+03 7.680124664306640625e+01 -1.144802951812744141e+01 -1.351374626159667969e+00 9.819355010986328125e+00 2.540394067764282227e+00 -9.677968174219131470e-02
2.446000000000000000e+03 4.405393600463867188e+01 7.053759098052978516e+00 -8.178529739379882812e-01 -2.880116999149322510e-01 -3.317593932151794434e-01 5.129131078720092773e-01
2.447000000000000000e+03 4.767743682861328125e+01 2.862625598907470703e+00 -9.603945016860961914e-01 -1.778042763471603394e-01 -3.414596319198608398e-01 3.866940438747406006e-01
2.448000000000000000e+03 4.518081665039062500e+01 2.814199924468994141e+00 -7.795585393905639648e-01 -8.993376046419143677e-02 -2.608476877212524414e-01 1.497953534126281738e-01
2.449000000000000000e+03 4.607402420043945312e+01 3.183668851852416992e+00 -8.736321330070495605e-01 -1.468073576688766479e-01 -3.061318397521972656e-01 2.279053628444671631e-01
2.450000000000000000e+03 3.125698089599609375e+01 -5.143962860107421875e+00 4.252696409821510315e-03 -1.780521571636199951e-01 -5.213983729481697083e-02 -1.500436514616012573e-01
2.451000000000000000e+03 5.939091873168945312e+01 1.894412636756896973e+00 -1.876919984817504883e+00 -6.342615187168121338e-02 -5.821038484573364258e-01 2.663756022229790688e-04
2.452000000000000000e+03 6.598641204833984375e+01 9.645203351974487305e-01 -1.376454591751098633e+00 2.527319490909576416e-01 -3.371167778968811035e-01 6.834556162357330322e-02
2.453000000000000000e+03 1.912935447692871094e+01 5.762615680694580078e+00 -4.786209017038345337e-02 -1.883360929787158966e-02 -2.000870928168296814e-02 1.124765425920486450e-01
2.454000000000000000e+03 1.947531509399414062e+01 5.003708839416503906e+00 -1.548878699541091919e-01 -5.609585717320442200e-02 -6.329511851072311401e-02 1.272723227739334106e-01
2.455000000000000000e+03 1.007776069641113281e+01 6.330318927764892578e+00 -1.946246623992919922e-01 -1.339495629072189331e-01 -9.857226908206939697e-02 8.693405240774154663e-02
2.456000000000000000e+03 6.482551574707031250e+01 5.540837764739990234e+00 -7.488097250461578369e-02 5.016387701034545898e-01 1.280273497104644775e-01 -4.027516841888427734e-01
2.457000000000000000e+03 4.867116165161132812e+01 -1.406712055206298828e+01 -7.204514145851135254e-01 -6.496374309062957764e-02 -2.356245517730712891e-01 -4.123750329017639160e-01
2.458000000000000000e+03 5.164669036865234375e+01 -1.440303802490234375e+01 -5.650618076324462891e-01 7.705084234476089478e-02 -1.464032977819442749e-01 -7.663058638572692871e-01
2.459000000000000000e+03 6.228502273559570312e+01 5.863547325134277344e+00 -1.253187805414199829e-01 5.481370091438293457e-01 1.268454641103744507e-01 -2.663806080818176270e-01
2.460000000000000000e+03 4.772379684448242188e+01 4.386045932769775391e+00 -1.033062696456909180e+00 -4.159236550331115723e-01 -4.346959292888641357e-01 5.171530246734619141e-01
2.461000000000000000e+03 4.196543121337890625e+01 -2.273221778869628906e+01 8.083940297365188599e-02 -1.463364213705062866e-01 -1.964910514652729034e-02 -5.868151187896728516e-01
2.462000000000000000e+03 3.421656417846679688e+01 -1.300179481506347656e+01 -4.190734624862670898e-01 -3.019925951957702637e-02 -1.347818225622177124e-01 -1.092715486884117126e-01
2.463000000000000000e+03 5.078384780883789062e+01 2.746800422668457031e+01 1.832888424396514893e-01 6.297311186790466309e-01 2.439059764146804810e-01 1.674355119466781616e-01
2.464000000000000000e+03 4.015468978881835938e+01 9.728733062744140625e+00 -7.621361613273620605e-01 -5.130698680877685547e-01 -3.825618028640747070e-01 7.061607837677001953e-01
2.465000000000000000e+03 4.125566482543945312e+01 9.073412895202636719e+00 -7.313647866249084473e-01 -2.666070461273193359e-01 -2.993915379047393799e-01 7.017234563827514648e-01
2.466000000000000000e+03 6.908769989013671875e+01 4.552615165710449219e+00 2.550392746925354004e-01 -7.692241668701171875e-02 5.343505740165710449e-02 -3.817449510097503662e-01
2.467000000000000000e+03 7.794296264648437500e+01 -8.836920738220214844e+00 -1.840638518333435059e+00 1.323635959625244141e+01 3.418716192245483398e+00 -2.039494991302490234e+00
2.468000000000000000e+03 4.089081954956054688e+01 -1.530227088928222656e+01 -5.136358737945556641e-01 7.930764555931091309e-02 -1.302984654903411865e-01 -1.472410410642623901e-01
2.469000000000000000e+03 4.226476669311523438e+01 -2.576655578613281250e+01 -4.329882934689521790e-02 -1.023651286959648132e-01 -4.369919002056121826e-02 -2.686238288879394531e-01
2.470000000000000000e+03 4.524411010742187500e+01 -2.533845329284667969e+01 2.412534803152084351e-01 1.994263678789138794e-01 1.322039514780044556e-01 -2.490819096565246582e-01
2.471000000000000000e+03 5.084296417236328125e+01 2.152350234985351562e+01 3.503726124763488770e-01 1.703259795904159546e-01 1.562095731496810913e-01 7.934328168630599976e-02
2.472000000000000000e+03 7.331622314453125000e+01 -1.537532711029052734e+01 -5.086318850517272949e-01 2.288120031356811523e+00 5.338464379310607910e-01 8.338677883148193359e-01
2.473000000000000000e+03 7.607098388671875000e+01 -1.437948703765869141e+01 -7.163072824478149414e-01 7.258645057678222656e+00 1.962701320648193359e+00 7.781331539154052734e-01
2.474000000000000000e+03 4.817797470092773438e+01 5.414699554443359375e+00 -1.249575138092041016e+00 -5.561538338661193848e-01 -5.417187213897705078e-01 5.439886450767517090e-01
2.475000000000000000e+03 4.599501800537109375e+01 5.008337020874023438e+00 -1.067109584808349609e+00 -2.853933572769165039e-01 -4.057509005069732666e-01 3.479781448841094971e-01
2.476000000000000000e+03 6.262095260620117188e+01 -2.539103507995605469e+01 2.177845686674118042e-01 8.400045037269592285e-01 3.173367083072662354e-01 -2.088725417852401733e-01
2.477000000000000000e+03 6.385163879394531250e+01 -2.410390281677246094e+01 1.448560208082199097e-01 1.377020955085754395e+00 4.565631151199340820e-01 -2.094214856624603271e-01
2.478000000000000000e+03 5.972808837890625000e+01 1.189910316467285156e+01 3.757878243923187256e-01 1.420169591903686523e+00 5.387872457504272461e-01 -2.195104807615280151e-01
2.479000000000000000e+03 5.965490341186523438e+01 1.328764057159423828e+01 2.088350653648376465e-01 1.588240742683410645e+00 5.391227602958679199e-01 -1.161152347922325134e-01
2.480000000000000000e+03 5.238827133178710938e+01 1.978697013854980469e+01 2.480620741844177246e-01 8.873137086629867554e-02 1.010380387306213379e-01 -6.193150207400321960e-02
2.481000000000000000e+03 7.332975006103515625e+01 6.874959468841552734e-01 -8.313236236572265625e-01 2.617763757705688477e+00 5.359320640563964844e-01 -1.101134061813354492e+00
2.482000000000000000e+03 7.332963562011718750e+01 3.945470094680786133e+00 1.809423230588436127e-02 3.382574558258056641e+00 1.020200610160827637e+00 -9.400811791419982910e-01
2.483000000000000000e+03 2.112288856506347656e+01 5.604738712310791016e+00 -4.785200580954551697e-02 -1.124825850129127502e-01 -4.810037836432456970e-02 1.081925258040428162e-01
2.484000000000000000e+03 4.912387466430664062e+01 -6.142379283905029297e+00 -2.109242677688598633e-01 1.787406802177429199e-01 -9.655078873038291931e-03 2.644178867340087891e-01
2.485000000000000000e+03 7.535966491699218750e+01 -2.688178539276123047e+00 -1.165302753448486328e+00 6.920114994049072266e+00 1.726443648338317871e+00 -1.630220651626586914e+00
2.486000000000000000e+03 7.715956115722656250e+01 -3.780739009380340576e-01 -9.756761789321899414e-01 9.761067390441894531e+00 2.635617494583129883e+00 -2.789539694786071777e-01
2.487000000000000000e+03 6.865024566650390625e+01 1.334269165992736816e+00 -1.066506624221801758e+00 -2.157025635242462158e-01 -3.846627771854400635e-01 1.593692451715469360e-01
2.488000000000000000e+03 3.562718582153320312e+01 -1.142785835266113281e+01 -1.746828258037567139e-01 3.137552738189697266e-01 4.172173887491226196e-02 -1.031117662787437439e-01
2.489000000000000000e+03 3.201009750366210938e+01 2.519912528991699219e+01 -4.589425027370452881e-01 -8.033120632171630859e-01 -3.786763548851013184e-01 4.076979160308837891e-01
2.490000000000000000e+03 3.218491744995117188e+01 -9.072692871093750000e+00 -6.813563406467437744e-02 -2.336518466472625732e-01 -9.053624421358108521e-02 -1.470151245594024658e-01
2.491000000000000000e+03 4.191904067993164062e+01 2.019944572448730469e+01 4.106416404247283936e-01 1.468143910169601440e-01 1.672368049621582031e-01 2.469343543052673340e-01
2.492000000000000000e+03 2.489143943786621094e+01 -1.786524772644042969e+01 -2.193436175584793091e-01 -1.124141067266464233e-01 -9.952731430530548096e-02 -1.787964552640914917e-01
2.493000000000000000e+03 3.619454956054687500e+01 -6.205816268920898438e+00 -5.586900934576988220e-02 3.104367554187774658e-01 7.637032121419906616e-02 -2.220001965761184692e-01
2.494000000000000000e+03 2.681354331970214844e+01 7.594089984893798828e+00 2.168662697076797485e-01 1.519797593355178833e-01 1.106538102030754089e-01 1.415773332118988037e-01
2.495000000000000000e+03 3.194008636474609375e+01 1.505559730529785156e+01 -1.013596355915069580e-01 3.239533305168151855e-01 6.677811592817306519e-02 2.987365722656250000e-01
2.496000000000000000e+03 7.467044830322265625e+01 1.534293365478515625e+01 8.238560557365417480e-01 6.014099597930908203e+00 2.051386594772338867e+00 -9.372025132179260254e-01
2.497000000000000000e+03 3.024260330200195312e+01 -1.369960689544677734e+01 -4.117412865161895752e-01 -2.488365769386291504e-01 -1.981733590364456177e-01 -8.208597451448440552e-02
2.498000000000000000e+03 4.178622817993164062e+01 1.909739875793457031e+01 3.038319647312164307e-01 1.711331494152545929e-02 9.628358483314514160e-02 2.771450877189636230e-01
2.499000000000000000e+03 9.431217193603515625e+00 7.212096691131591797e+00 -2.142060548067092896e-01 -1.184438541531562805e-01 -9.979496896266937256e-02 8.763211220502853394e-02
2.500000000000000000e+03 2.904746055603027344e+01 -2.770004081726074219e+01 2.557727694511413574e-01 -4.882051050662994385e-02 6.208567693829536438e-02 -1.330996602773666382e-01
2.501000000000000000e+03 2.775317764282226562e+01 -2.878460502624511719e+01 2.148034870624542236e-01 -1.077690422534942627e-01 3.211033344268798828e-02 -1.393861770629882812e-01
2.502000000000000000e+03 4.318694686889648438e+01 7.432321548461914062e+00 -7.306351065635681152e-01 -2.643161416053771973e-01 -2.984853684902191162e-01 5.372235774993896484e-01
2.503000000000000000e+03 3.441026306152343750e+01 1.600048065185546875e+01 2.857311069965362549e-01 -3.978453874588012695e-01 -3.363427519798278809e-02 4.919564127922058105e-01
2.504000000000000000e+03 3.759148788452148438e+01 -4.660561084747314453e+00 -2.890082895755767822e-01 2.166804522275924683e-01 -2.169835194945335388e-02 -8.347731828689575195e-02
2.505000000000000000e+03 2.282575798034667969e+01 1.248868560791015625e+01 7.504844106733798981e-03 -1.732368618249893188e-01 -4.971960559487342834e-02 2.748581022024154663e-02
2.506000000000000000e+03 7.699420166015625000e+01 2.320021867752075195e+00 -2.326837033033370972e-01 8.667308807373046875e+00 2.530387401580810547e+00 -9.431874752044677734e-01
2.507000000000000000e+03 4.944931030273437500e+01 2.497895050048828125e+01 2.880114912986755371e-01 3.698568940162658691e-01 1.973605155944824219e-01 2.709403634071350098e-01
2.508000000000000000e+03 4.213356018066406250e+01 7.589083671569824219e+00 -6.283453106880187988e-01 -2.811639904975891113e-01 -2.728527784347534180e-01 5.831738710403442383e-01
2.509000000000000000e+03 7.719695281982421875e+01 -1.896121978759765625e+01 -2.664597928524017334e-01 8.736867904663085938e+00 2.541122436523437500e+00 1.551451683044433594e+00
2.510000000000000000e+03 7.725733947753906250e+01 -1.778079032897949219e+01 -4.137868285179138184e-01 8.964936256408691406e+00 2.565344810485839844e+00 1.289554715156555176e+00
2.511000000000000000e+03 7.704706573486328125e+01 -2.009386634826660156e+01 -8.943910151720046997e-02 8.196399688720703125e+00 2.432088136672973633e+00 1.782610774040222168e+00
2.512000000000000000e+03 7.324430847167968750e+01 1.369217967987060547e+01 9.835323095321655273e-01 6.459617137908935547e+00 2.232944965362548828e+00 -1.406469941139221191e+00
2.513000000000000000e+03 7.665170288085937500e+01 -1.574911022186279297e+01 -3.564989864826202393e-01 8.328156471252441406e+00 2.391497135162353516e+00 8.042654395103454590e-01
2.514000000000000000e+03 7.622631835937500000e+01 1.229400062561035156e+01 3.309321105480194092e-01 6.609472274780273438e+00 2.082121372222900391e+00 -1.367938756942749023e+00
2.515000000000000000e+03 7.694519805908203125e+01 2.343683052062988281e+01 -5.156735330820083618e-02 5.295352935791015625e+00 1.573135614395141602e+00 -2.315292209386825562e-01
2.516000000000000000e+03 7.492405700683593750e+01 1.778801345825195312e+01 3.905168473720550537e-01 5.660358428955078125e+00 1.815262556076049805e+00 -4.490487575531005859e-01
2.517000000000000000e+03 7.681163787841796875e+01 1.755189132690429688e+01 2.361612915992736816e-01 5.865856170654296875e+00 1.830605149269104004e+00 -3.235233426094055176e-01
2.518000000000000000e+03 7.701831054687500000e+01 -1.476692962646484375e+01 -6.372762918472290039e-01 9.079255104064941406e+00 2.532593727111816406e+00 5.711270570755004883e-01
2.519000000000000000e+03 7.470210266113281250e+01 -1.474035072326660156e+01 -7.093248367309570312e-01 4.927777290344238281e+00 1.265535712242126465e+00 1.025039911270141602e+00
2.520000000000000000e+03 7.450877380371093750e+01 1.144913673400878906e+01 3.031018674373626709e-01 5.994913578033447266e+00 1.889404654502868652e+00 -1.510497927665710449e+00
2.521000000000000000e+03 7.617635345458984375e+01 -2.221577835083007812e+01 7.448667287826538086e-01 7.457441806793212891e+00 2.460692644119262695e+00 1.709152579307556152e+00
2.522000000000000000e+03 7.564572143554687500e+01 1.702705001831054688e+01 4.283390939235687256e-01 5.882565021514892578e+00 1.893271207809448242e+00 -4.788022935390472412e-01
2.523000000000000000e+03 7.575284576416015625e+01 2.203211593627929688e+01 -6.556616723537445068e-02 5.243331432342529297e+00 1.553329586982727051e+00 -3.453731834888458252e-01
2.524000000000000000e+03 7.448293304443359375e+01 2.076493072509765625e+01 -3.985188156366348267e-02 5.200670242309570312e+00 1.548245429992675781e+00 -5.279360413551330566e-01
2.525000000000000000e+03 7.536990356445312500e+01 1.210577583312988281e+01 3.289602100849151611e-01 6.316586971282958984e+00 1.993664145469665527e+00 -1.407110810279846191e+00
2.526000000000000000e+03 7.592732238769531250e+01 9.746339797973632812e+00 -1.114997416734695435e-01 6.795899868011474609e+00 2.005320072174072266e+00 -1.369776964187622070e+00
2.527000000000000000e+03 7.532355499267578125e+01 3.530076599121093750e+01 7.226216793060302734e-02 4.155852317810058594e+00 1.268434286117553711e+00 -1.803821772336959839e-01
2.528000000000000000e+03 7.466941070556640625e+01 3.228118896484375000e+01 9.587725996971130371e-02 4.088780879974365234e+00 1.255397439002990723e+00 -3.198765516281127930e-01
2.529000000000000000e+03 7.702687835693359375e+01 -2.645781326293945312e+01 7.615398615598678589e-02 6.850870609283447266e+00 2.078107357025146484e+00 2.491475641727447510e-01
2.530000000000000000e+03 7.590313720703125000e+01 -2.532589149475097656e+01 6.276574730873107910e-01 6.949683189392089844e+00 2.273202180862426758e+00 4.682813584804534912e-01
2.531000000000000000e+03 7.693056488037109375e+01 2.480049514770507812e+01 -4.709389433264732361e-02 5.151374340057373047e+00 1.531284213066101074e+00 -2.588598728179931641e-01
2.532000000000000000e+03 7.531371307373046875e+01 8.000831604003906250e+00 -2.549931704998016357e-01 6.264113903045654297e+00 1.802736282348632812e+00 -1.200848817825317383e+00
2.533000000000000000e+03 7.373973846435546875e+01 2.328405761718750000e+01 -1.076759621500968933e-01 4.573696613311767578e+00 1.339806199073791504e+00 -6.001992225646972656e-01
2.534000000000000000e+03 7.183998107910156250e+01 1.686455130577087402e+00 -4.631361663341522217e-01 9.364624023437500000e-01 1.419978737831115723e-01 -7.320442199707031250e-01
2.535000000000000000e+03 7.697300720214843750e+01 6.181179046630859375e+00 -7.546848803758621216e-02 7.972938060760498047e+00 2.369240760803222656e+00 -1.071305274963378906e+00
2.536000000000000000e+03 7.587263488769531250e+01 4.751549720764160156e+00 -6.158845871686935425e-02 6.734950542449951172e+00 2.002008676528930664e+00 -1.160920262336730957e+00
2.537000000000000000e+03 7.577811431884765625e+01 3.514756441116333008e+00 -1.120397970080375671e-01 6.735540866851806641e+00 1.987050294876098633e+00 -1.171432971954345703e+00
2.538000000000000000e+03 7.672009277343750000e+01 2.881052017211914062e+01 1.512543391436338425e-02 4.755044937133789062e+00 1.431051135063171387e+00 -2.847483754158020020e-01
2.539000000000000000e+03 7.557581329345703125e+01 2.731769180297851562e+01 9.660364128649234772e-03 4.610179901123046875e+00 1.385951995849609375e+00 -3.994127511978149414e-01
2.540000000000000000e+03 7.213127899169921875e+01 -3.016334915161132812e+01 3.644036054611206055e-01 3.707609653472900391e+00 1.221603989601135254e+00 1.252052783966064453e+00
2.541000000000000000e+03 7.583184051513671875e+01 -3.717333221435546875e+01 6.378317624330520630e-02 5.037079811096191406e+00 1.530258893966674805e+00 2.412492483854293823e-01
2.542000000000000000e+03 7.637464904785156250e+01 3.141619110107421875e+01 3.922112286090850830e-02 4.506928443908691406e+00 1.363844871520996094e+00 -2.533419728279113770e-01
2.543000000000000000e+03 7.543757629394531250e+01 2.861157798767089844e+01 3.485808148980140686e-02 4.469943046569824219e+00 1.351440310478210449e+00 -3.729621469974517822e-01
2.544000000000000000e+03 7.460652923583984375e+01 -2.875503730773925781e+01 -1.404966562986373901e-01 5.686769008636474609e+00 1.663881778717041016e+00 9.132835268974304199e-01
2.545000000000000000e+03 7.451203918457031250e+01 -3.402799987792968750e+01 1.471798419952392578e-01 4.696398735046386719e+00 1.453073501586914062e+00 5.153857469558715820e-01
2.546000000000000000e+03 7.721880340576171875e+01 -1.295166492462158203e+01 -6.298884153366088867e-01 9.689828872680664062e+00 2.717982053756713867e+00 7.524395734071731567e-02
2.547000000000000000e+03 6.569638824462890625e+01 1.667354345321655273e+00 -1.224911332130432129e+00 2.513406276702880859e-01 -2.920712232589721680e-01 7.002301514148712158e-02
2.548000000000000000e+03 6.676893615722656250e+01 4.722232818603515625e+00 -4.846451058983802795e-02 -1.836431026458740234e-02 -2.004864625632762909e-02 -4.030549228191375732e-01
2.549000000000000000e+03 7.446849060058593750e+01 9.182139635086059570e-01 -9.811690449714660645e-01 4.682692050933837891e+00 1.110456943511962891e+00 -1.284846305847167969e+00
2.550000000000000000e+03 7.478264617919921875e+01 -1.206260585784912109e+01 -1.260502219200134277e+00 6.016386032104492188e+00 1.426765203475952148e+00 1.217099666595458984e+00
2.551000000000000000e+03 7.569907379150390625e+01 9.180440902709960938e-01 -8.213462829589843750e-01 6.911223411560058594e+00 1.826963186264038086e+00 -1.051721692085266113e+00
2.552000000000000000e+03 7.631183624267578125e+01 -1.755700826644897461e+00 -1.722125053405761719e+00 9.363866806030273438e+00 2.292522668838500977e+00 -7.097210884094238281e-01
2.553000000000000000e+03 4.674692535400390625e+01 -1.483439636230468750e+01 -8.565408587455749512e-01 -1.299943029880523682e-01 -2.959605455398559570e-01 -1.607809364795684814e-01
2.554000000000000000e+03 2.288138580322265625e+01 4.927664279937744141e+00 -9.426982700824737549e-02 -1.164457574486732483e-01 -6.321467459201812744e-02 1.337345391511917114e-01
2.555000000000000000e+03 3.558457565307617188e+01 -6.857054710388183594e+00 9.327710606157779694e-03 2.198503017425537109e-01 6.875339895486831665e-02 -2.339652329683303833e-01
2.556000000000000000e+03 4.615467453002929688e+01 -2.464684677124023438e+01 2.794849574565887451e-01 2.753809094429016113e-01 1.664597541093826294e-01 -2.566988766193389893e-01
2.557000000000000000e+03 2.668048095703125000e+01 -1.555744075775146484e+01 -3.625278472900390625e-01 -1.559060364961624146e-01 -1.555301547050476074e-01 -1.617440581321716309e-01
2.558000000000000000e+03 2.420666503906250000e+01 -1.523741340637207031e+01 -3.582769334316253662e-01 -1.232619658112525940e-01 -1.444616764783859253e-01 -1.373881697654724121e-01
2.559000000000000000e+03 2.238563919067382812e+01 -1.702840423583984375e+01 -2.456608861684799194e-01 -8.380021899938583374e-02 -9.883833676576614380e-02 -1.809906810522079468e-01
2.560000000000000000e+03 2.989706277847290039e+00 2.391429138183593750e+01 -4.896929115056991577e-02 -2.803307473659515381e-01 -9.879000484943389893e-02 6.199391093105077744e-03
2.561000000000000000e+03 4.326379299163818359e+00 2.147099876403808594e+01 -5.373523104935884476e-03 -2.676977813243865967e-01 -8.192138373851776123e-02 -1.619619876146316528e-02
2.562000000000000000e+03 3.993493556976318359e+00 2.342071723937988281e+01 -6.764267385005950928e-02 -3.067224919795989990e-01 -1.123095527291297913e-01 6.356823258101940155e-03
2.563000000000000000e+03 4.261579513549804688e+00 -1.650499725341796875e+01 -4.348049312829971313e-02 -1.061030253767967224e-01 -4.487505555152893066e-02 -4.975861310958862305e-02
2.564000000000000000e+03 2.988553524017333984e+00 1.898817253112792969e+01 3.335418179631233215e-02 -2.215052992105484009e-01 -5.644533410668373108e-02 -8.280055597424507141e-03
2.565000000000000000e+03 4.656243801116943359e+00 1.825592803955078125e+01 7.068611681461334229e-02 -2.183499634265899658e-01 -4.429915547370910645e-02 2.103271149098873138e-02
2.566000000000000000e+03 2.993358612060546875e+00 1.753679847717285156e+01 3.866710886359214783e-02 -2.091394662857055664e-01 -5.114170536398887634e-02 1.347373891621828079e-02
2.567000000000000000e+03 6.593245506286621094e+00 1.506111145019531250e+01 1.292763948440551758e-01 -1.535998433828353882e-01 -7.297036238014698029e-03 1.416070163249969482e-01
2.568000000000000000e+03 3.079913616180419922e+00 -1.466734600067138672e+01 -1.888834126293659210e-02 -5.149934813380241394e-02 -2.111630700528621674e-02 -1.627699844539165497e-02
2.569000000000000000e+03 3.062397003173828125e+00 -2.516222953796386719e+01 1.538587640970945358e-02 -9.126706421375274658e-02 -2.276435680687427521e-02 8.971871808171272278e-03
2.570000000000000000e+03 2.865293741226196289e+00 -2.651496505737304688e+01 -8.379248902201652527e-03 -9.235063940286636353e-02 -3.021896630525588989e-02 1.135327853262424469e-02
2.571000000000000000e+03 3.122432470321655273e+00 1.465741157531738281e+01 3.098918683826923370e-02 -1.576576828956604004e-01 -3.800054639577865601e-02 8.358825743198394775e-02
2.572000000000000000e+03 4.762733459472656250e+00 1.385938835144042969e+01 4.516739398241043091e-02 -1.398396492004394531e-01 -2.840167656540870667e-02 1.319747120141983032e-01
2.573000000000000000e+03 3.709893226623535156e+00 -9.005585670471191406e+00 6.120236590504646301e-03 -2.490996383130550385e-02 -5.636918358504772186e-03 3.634990658611059189e-03
2.574000000000000000e+03 3.156734466552734375e+00 -3.034691238403320312e+01 -1.753264665603637695e-02 -1.159014552831649780e-01 -4.003022983670234680e-02 -2.553515322506427765e-02
2.575000000000000000e+03 3.834730148315429688e+00 -2.767423629760742188e+01 -2.501908876001834869e-02 -8.593249320983886719e-02 -3.328547254204750061e-02 -1.368373399600386620e-03
2.576000000000000000e+03 4.331970691680908203e+00 -1.286366081237792969e+01 -1.649290509521961212e-02 -6.560181081295013428e-02 -2.462841570377349854e-02 -1.109207980334758759e-02
2.577000000000000000e+03 2.945999383926391602e+00 3.236786651611328125e+01 5.177299305796623230e-02 -4.352333843708038330e-01 -1.150381118059158325e-01 1.208535358309745789e-01
2.578000000000000000e+03 3.951490163803100586e+00 3.168254470825195312e+01 7.866419106721878052e-02 -3.597597479820251465e-01 -8.432867377996444702e-02 1.637476235628128052e-01
2.579000000000000000e+03 3.390971183776855469e+00 3.365050888061523438e+01 8.617485314607620239e-02 -4.106751978397369385e-01 -9.735010564327239990e-02 7.833671569824218750e-02
2.580000000000000000e+03 6.191092967987060547e+00 -1.051901149749755859e+01 -3.266189713031053543e-03 -6.013054400682449341e-02 -1.901902072131633759e-02 -1.698493584990501404e-02
2.581000000000000000e+03 4.014315605163574219e+00 -1.150675964355468750e+01 -4.657665733247995377e-03 -4.119125008583068848e-02 -1.375467423349618912e-02 -1.051373081281781197e-03
2.582000000000000000e+03 6.468173027038574219e+00 -3.300729751586914062e+01 -4.300352931022644043e-02 -1.315655112266540527e-01 -5.237071588635444641e-02 -9.990302473306655884e-02
2.583000000000000000e+03 4.461975097656250000e+00 -3.021030616760253906e+01 -3.975601866841316223e-02 -1.053901836276054382e-01 -4.354386031627655029e-02 -3.849428892135620117e-02
2.584000000000000000e+03 3.713501453399658203e+00 -7.820466995239257812e+00 2.985402243211865425e-03 -2.135904133319854736e-02 -5.512091796845197678e-03 7.178829982876777649e-04
2.585000000000000000e+03 3.831853866577148438e+00 1.050457477569580078e+01 -3.868673741817474365e-02 -5.799900740385055542e-02 -2.900572307407855988e-02 1.067578792572021484e-01
2.586000000000000000e+03 5.437419891357421875e+00 -5.231406688690185547e+00 3.577434923499822617e-03 -2.615098468959331512e-02 -6.772065069526433945e-03 -1.028270460665225983e-02
2.587000000000000000e+03 2.636449813842773438e+00 -6.622127056121826172e+00 1.721938722766935825e-03 -8.472572080790996552e-03 -2.025190042331814766e-03 1.953944331035017967e-03
2.588000000000000000e+03 5.505750179290771484e+00 4.022039890289306641e+00 -3.429391235113143921e-02 -3.064951393753290176e-03 -1.120765879750251770e-02 -1.786634884774684906e-02
2.589000000000000000e+03 2.474762153625488281e+01 1.315620899200439453e+01 -2.630015276372432709e-02 -1.405468136072158813e-01 -5.005409196019172668e-02 5.731750652194023132e-02
2.590000000000000000e+03 2.744317817687988281e+01 1.210828876495361328e+01 3.980899229645729065e-03 1.243930980563163757e-01 3.851220011711120605e-02 1.657277941703796387e-01
2.591000000000000000e+03 5.983877944946289062e+01 9.294021606445312500e+00 4.641923904418945312e-01 9.049782156944274902e-01 4.107511639595031738e-01 -7.394723594188690186e-02
2.592000000000000000e+03 3.460138082504272461e+00 -3.716355895996093750e+01 1.052037067711353302e-02 -2.149621248245239258e-01 -6.133252382278442383e-02 -6.072059273719787598e-02
2.593000000000000000e+03 4.602567195892333984e+00 -3.272717285156250000e+01 -3.504825383424758911e-02 -1.347390711307525635e-01 -5.093619599938392639e-02 -7.232566922903060913e-02
2.594000000000000000e+03 4.879552459716796875e+01 -7.041695117950439453e+00 -1.966312974691390991e-01 3.074509799480438232e-01 3.324590250849723816e-02 2.405943274497985840e-01
2.595000000000000000e+03 4.966821289062500000e+01 -7.364747047424316406e+00 -2.088035345077514648e-01 4.647043347358703613e-02 -4.869993031024932861e-02 2.064891904592514038e-01
2.596000000000000000e+03 5.094308853149414062e+01 -2.953485488891601562e+01 3.468131422996520996e-01 2.555698752403259277e-01 1.807149052619934082e-01 -3.094198107719421387e-01
2.597000000000000000e+03 2.822573852539062500e+01 -1.461169242858886719e+01 -3.854260742664337158e-01 -2.127812355756759644e-01 -1.794621944427490234e-01 -1.589401364326477051e-01
2.598000000000000000e+03 2.713483810424804688e+01 -1.453328418731689453e+01 -4.162676930427551270e-01 -1.610037386417388916e-01 -1.731814295053482056e-01 -1.533027589321136475e-01
2.599000000000000000e+03 3.576521301269531250e+01 -1.022877216339111328e+01 1.210527587682008743e-02 3.323522508144378662e-01 1.033372581005096436e-01 -7.778494060039520264e-02
2.600000000000000000e+03 3.358399581909179688e+01 -8.820773124694824219e+00 2.196871675550937653e-02 -7.694672048091888428e-02 -1.649340055882930756e-02 -1.729822903871536255e-01
2.601000000000000000e+03 5.978925228118896484e+00 3.892789077758789062e+01 -4.837553016841411591e-03 -1.482793688774108887e-01 -4.593507945537567139e-02 -1.052270364016294479e-02
2.602000000000000000e+03 6.701527404785156250e+01 2.858410835266113281e+01 3.501293063163757324e-01 2.400419712066650391e+00 8.251646757125854492e-01 -4.266172051429748535e-01
2.603000000000000000e+03 1.269938278198242188e+01 2.036975097656250000e+01 -2.989721857011318207e-02 1.361086219549179077e-01 3.186342120170593262e-02 3.282698392868041992e-01
2.604000000000000000e+03 1.094916820526123047e+01 1.885432434082031250e+01 9.328801929950714111e-02 1.385545283555984497e-01 6.955276429653167725e-02 1.734226346015930176e-01
2.605000000000000000e+03 1.209920215606689453e+01 1.897493362426757812e+01 3.611666336655616760e-02 2.023427188396453857e-01 7.153781503438949585e-02 2.265686243772506714e-01
2.606000000000000000e+03 1.544060993194580078e+01 -2.205190658569335938e+01 -1.300875693559646606e-01 -2.731367647647857666e-01 -1.209672912955284119e-01 -1.713349521160125732e-01
2.607000000000000000e+03 4.891096496582031250e+01 -1.132227325439453125e+01 -4.834595620632171631e-01 1.591107994318008423e-01 -9.730463474988937378e-02 -4.158718883991241455e-01
2.608000000000000000e+03 4.888351440429687500e+01 -1.268370437622070312e+01 -6.778548955917358398e-01 8.285510540008544922e-02 -1.784999370574951172e-01 -4.560760557651519775e-01
2.609000000000000000e+03 1.793308830261230469e+01 -1.425339794158935547e+01 -7.077330350875854492e-02 3.937106207013130188e-02 -9.420673362910747528e-03 -4.238712787628173828e-02
2.610000000000000000e+03 5.709030532836914062e+01 1.901149749755859375e+01 2.163774520158767700e-01 5.144999027252197266e-01 2.192632108926773071e-01 -1.927952915430068970e-01
2.611000000000000000e+03 1.961207962036132812e+01 2.109036445617675781e+01 -2.826354466378688812e-03 -7.691174000501632690e-02 -2.392142824828624725e-02 2.232772856950759888e-02
2.612000000000000000e+03 2.648412704467773438e+01 8.427254676818847656e+00 2.606686949729919434e-01 1.224255338311195374e-01 1.149282678961753845e-01 1.244611442089080811e-01
2.613000000000000000e+03 4.469768524169921875e+01 -1.860473632812500000e+01 -3.197893798351287842e-01 -9.804566204547882080e-02 -1.253505200147628784e-01 -4.238031208515167236e-01
2.614000000000000000e+03 4.435323715209960938e+01 -1.647401618957519531e+01 -6.072531938552856445e-01 -1.829525679349899292e-01 -2.370617240667343140e-01 -1.922010481357574463e-01
2.615000000000000000e+03 4.559956741333007812e+01 -2.186984062194824219e+01 3.167124092578887939e-01 4.585097730159759521e-02 1.087690144777297974e-01 -4.965285658836364746e-01
2.616000000000000000e+03 4.490776824951171875e+01 -2.094460678100585938e+01 1.647215485572814941e-01 -3.643829748034477234e-02 3.848497942090034485e-02 -5.881631374359130859e-01
2.617000000000000000e+03 7.431549072265625000e+01 -2.752782821655273438e+01 4.490913078188896179e-02 5.780532360076904297e+00 1.747632503509521484e+00 9.543948173522949219e-01
2.618000000000000000e+03 5.441781997680664062e+01 5.426296234130859375e+00 -2.547231614589691162e-01 2.788721621036529541e-01 7.244705222547054291e-03 2.838004827499389648e-01
2.619000000000000000e+03 2.446785926818847656e+01 -2.332859802246093750e+01 6.272500008344650269e-02 -6.444555521011352539e-02 -5.161671433597803116e-04 -1.337405741214752197e-01
2.620000000000000000e+03 6.617477416992187500e+01 2.349158859252929688e+01 4.704282283782958984e-01 1.276939153671264648e+00 5.242102146148681641e-01 -4.084285795688629150e-01
2.621000000000000000e+03 6.630974578857421875e+01 2.191569328308105469e+01 3.725529313087463379e-01 8.125434517860412598e-01 3.555289208889007568e-01 -4.703906476497650146e-01
2.622000000000000000e+03 5.804536437988281250e+01 -2.304755592346191406e+01 1.681067347526550293e-01 1.896208226680755615e-01 1.073182672262191772e-01 3.939206525683403015e-02
2.623000000000000000e+03 6.018720626831054688e+01 -2.479308128356933594e+01 3.072028756141662598e-01 3.722633421421051025e-01 2.038398683071136475e-01 1.640846878290176392e-01
2.624000000000000000e+03 7.038118743896484375e+01 -1.476800155639648438e+01 -4.289786815643310547e-01 -1.010959625244140625e+00 -4.319814741611480713e-01 1.222759962081909180e+00
2.625000000000000000e+03 4.367852020263671875e+01 -2.351021957397460938e+01 1.316364109516143799e-01 -4.186148196458816528e-02 2.693247795104980469e-02 -4.956676661968231201e-01
2.626000000000000000e+03 1.029253005981445312e+01 -2.892367172241210938e+01 -9.735910594463348389e-02 -1.509183496236801147e-01 -7.448323816061019897e-02 -9.909429401159286499e-02
2.627000000000000000e+03 1.670507049560546875e+01 -1.439707565307617188e+01 -1.572068594396114349e-02 9.889575839042663574e-02 2.495252154767513275e-02 -2.548965625464916229e-02
2.628000000000000000e+03 6.644415378570556641e+00 1.157769012451171875e+01 -5.563499033451080322e-02 -9.010884910821914673e-02 -4.372315108776092529e-02 1.704622209072113037e-01
2.629000000000000000e+03 7.487258911132812500e+01 -1.853346824645996094e+01 -9.479883909225463867e-01 6.208789348602294922e+00 1.578240156173706055e+00 1.212489962577819824e+00
2.630000000000000000e+03 7.642912292480468750e+01 -2.080702972412109375e+01 1.477562189102172852e-01 7.792444229125976562e+00 2.382060289382934570e+00 1.822719454765319824e+00
2.631000000000000000e+03 2.238297462463378906e+01 -2.507773017883300781e+01 1.619137078523635864e-01 3.895202651619911194e-02 6.025971844792366028e-02 -1.100031062960624695e-01
2.632000000000000000e+03 1.933117866516113281e+01 -2.335529708862304688e+01 -4.045056179165840149e-02 2.612098120152950287e-02 -4.298874642699956894e-03 -2.036119252443313599e-01
2.633000000000000000e+03 7.372634124755859375e+01 8.107513427734375000e+00 -4.565237164497375488e-01 4.884331703186035156e+00 1.328342318534851074e+00 -9.145183563232421875e-01
2.634000000000000000e+03 1.366321182250976562e+01 -1.101920890808105469e+01 -2.609828114509582520e-02 7.974479347467422485e-02 1.609395444393157959e-02 -3.170012310147285461e-02
2.635000000000000000e+03 4.086817169189453125e+01 1.069423294067382812e+01 -7.495533227920532227e-01 -2.690492868423461914e-01 -3.055807948112487793e-01 6.178717017173767090e-01
2.636000000000000000e+03 4.411642837524414062e+01 2.009749412536621094e+01 3.560384511947631836e-01 3.656388223171234131e-01 2.165031880140304565e-01 1.790755093097686768e-01
2.637000000000000000e+03 6.275119018554687500e+01 -2.281374549865722656e+01 3.354464769363403320e-01 1.112684249877929688e+00 4.344392120838165283e-01 -4.784397035837173462e-02
2.638000000000000000e+03 6.550448608398437500e+01 2.439351081848144531e+01 4.758309125900268555e-01 1.259670734405517578e+00 5.206505060195922852e-01 -2.111970931291580200e-01
2.639000000000000000e+03 2.963214302062988281e+01 3.371419906616210938e+01 2.847313284873962402e-01 -3.550824820995330811e-01 -2.110534347593784332e-02 2.679621577262878418e-01
2.640000000000000000e+03 3.474999237060546875e+01 -3.086660385131835938e+01 1.045968662947416306e-02 -1.141492463648319244e-02 -2.865714195650070906e-04 -3.076821863651275635e-01
2.641000000000000000e+03 3.495517349243164062e+01 -2.980036163330078125e+01 4.902813816443085670e-04 3.296806663274765015e-02 1.003750506788492203e-02 -3.111174702644348145e-01
2.642000000000000000e+03 3.667149353027343750e+01 -3.118212127685546875e+01 -4.271969199180603027e-02 -2.067287415266036987e-01 -7.483453303575515747e-02 -3.254841268062591553e-01
2.643000000000000000e+03 3.702121353149414062e+01 -2.998845291137695312e+01 1.404231041669845581e-02 -3.055943548679351807e-01 -8.746561408042907715e-02 -2.472010552883148193e-01
2.644000000000000000e+03 7.274478149414062500e+01 -3.140568351745605469e+01 2.249181568622589111e-01 4.072048187255859375e+00 1.289089918136596680e+00 9.932746291160583496e-01
2.645000000000000000e+03 5.209861373901367188e+01 -3.221857452392578125e+01 2.254510223865509033e-01 3.458608090877532959e-01 1.713935434818267822e-01 -3.066405355930328369e-01
2.646000000000000000e+03 1.201568031311035156e+01 -2.852240562438964844e+01 -9.169802814722061157e-02 -2.250363826751708984e-01 -9.502032399177551270e-02 -1.170314177870750427e-01
2.647000000000000000e+03 1.255860424041748047e+01 -2.725818634033203125e+01 -3.938962519168853760e-02 -2.383090555667877197e-01 -8.330960571765899658e-02 -1.305506676435470581e-01
2.648000000000000000e+03 6.349617004394531250e+01 2.228202247619628906e+01 2.163889557123184204e-01 7.352773547172546387e-01 2.854999005794525146e-01 3.559093773365020752e-01
2.649000000000000000e+03 6.459103393554687500e+01 2.368303680419921875e+01 4.519259333610534668e-01 9.860636591911315918e-01 4.313968718051910400e-01 5.486274883151054382e-02
2.650000000000000000e+03 3.610229492187500000e+01 1.894487953186035156e+01 3.067567348480224609e-01 -6.076323390007019043e-01 -9.026268124580383301e-02 5.153309106826782227e-01
2.651000000000000000e+03 6.298251342773437500e+01 -7.208515167236328125e+00 -3.224226534366607666e-01 -9.982810169458389282e-02 -1.266752332448959351e-01 -1.711987704038619995e-02
2.652000000000000000e+03 3.033964729309082031e+01 -1.039443588256835938e+01 -1.850128769874572754e-01 -3.869681060314178467e-01 -1.715942919254302979e-01 -9.975884109735488892e-02
2.653000000000000000e+03 1.460803222656250000e+01 -7.255694389343261719e+00 6.602919893339276314e-04 2.617967128753662109e-02 8.051988668739795685e-03 1.728174160234630108e-03
2.654000000000000000e+03 1.307451438903808594e+01 -8.299898147583007812e+00 -1.005501206964254379e-02 1.452937815338373184e-02 1.342309638857841492e-03 -2.314095944166183472e-02
2.655000000000000000e+03 5.321401977539062500e+01 -1.179762935638427734e+01 -1.183065652847290039e+00 8.336433023214340210e-02 -3.299103975296020508e-01 -4.975478351116180420e-01
2.656000000000000000e+03 7.103518676757812500e+01 2.044474029541015625e+01 -1.276961714029312134e-02 3.863997697830200195e+00 1.155368447303771973e+00 -1.066091895103454590e+00
2.657000000000000000e+03 7.139740753173828125e+01 2.165721702575683594e+01 -8.902076631784439087e-03 3.829561948776245117e+00 1.146198034286499023e+00 -1.059410929679870605e+00
2.658000000000000000e+03 5.549473571777343750e+01 7.660653114318847656e+00 5.397284030914306641e-01 8.068060874938964844e-02 1.861227005720138550e-01 4.324625432491302490e-01
2.659000000000000000e+03 1.815292358398437500e+01 -2.168405342102050781e+01 -1.506716907024383545e-01 -2.573350071907043457e-02 -5.292155593633651733e-02 -2.204281240701675415e-01
2.660000000000000000e+03 1.751251602172851562e+01 -2.051385879516601562e+01 -2.227193266153335571e-01 -5.665926635265350342e-02 -8.381357789039611816e-02 -2.583255469799041748e-01
2.661000000000000000e+03 1.137591266632080078e+01 -9.648920059204101562e+00 -1.682386174798011780e-02 -8.942119777202606201e-03 -7.729794364422559738e-03 -4.019729793071746826e-02
2.662000000000000000e+03 6.951370239257812500e+01 -1.303819751739501953e+01 -2.006669044494628906e+00 -1.024267554283142090e+00 -9.092810153961181641e-01 8.149353265762329102e-01
2.663000000000000000e+03 1.061802291870117188e+01 -2.567041206359863281e+01 -2.120728604495525360e-02 -1.057233437895774841e-01 -3.807918727397918701e-02 -1.175695210695266724e-01
2.664000000000000000e+03 5.729369735717773438e+01 1.806771278381347656e+01 2.052799165248870850e-01 5.913305878639221191e-01 2.389831542968750000e-01 -2.054082006216049194e-01
2.665000000000000000e+03 5.604866790771484375e+01 1.869820022583007812e+01 2.005085498094558716e-01 3.495871126651763916e-01 1.650286912918090820e-01 -2.389538288116455078e-01
2.666000000000000000e+03 3.273951339721679688e+01 -3.222361373901367188e+01 1.808250136673450470e-02 6.071740388870239258e-02 2.363997139036655426e-02 -2.472167462110519409e-01
2.667000000000000000e+03 5.261405563354492188e+01 -2.697499084472656250e+01 3.428277373313903809e-01 4.575538262724876404e-02 1.165749356150627136e-01 -2.098059505224227905e-01
2.668000000000000000e+03 4.873040390014648438e+01 2.578632164001464844e+01 2.363926619291305542e-01 3.581448197364807129e-01 1.783612370491027832e-01 2.863540053367614746e-01
2.669000000000000000e+03 1.663151550292968750e+01 -1.340841388702392578e+01 -4.131862148642539978e-02 1.106603220105171204e-01 2.080251090228557587e-02 -9.756872430443763733e-03
2.670000000000000000e+03 6.317732238769531250e+01 -1.506857681274414062e+01 -5.261191725730895996e-01 8.308580517768859863e-01 9.142166376113891602e-02 -1.671750247478485107e-01
2.671000000000000000e+03 5.581511497497558594e+00 -9.486648559570312500e+00 1.696630264632403851e-03 -5.044963583350181580e-02 -1.462590135633945465e-02 -7.558023557066917419e-03
2.672000000000000000e+03 5.830521774291992188e+01 -2.647371864318847656e+01 2.345379889011383057e-01 3.287329971790313721e-01 1.689812988042831421e-01 2.429151833057403564e-01
2.673000000000000000e+03 7.133262634277343750e+01 7.231785297393798828e+00 -2.322083264589309692e-01 1.767570376396179199e+00 4.606086313724517822e-01 -4.970211535692214966e-02
2.674000000000000000e+03 4.976781082153320312e+01 -2.654028511047363281e+01 2.584796845912933350e-01 3.343165218830108643e-01 1.778388619422912598e-01 -2.837524712085723877e-01
2.675000000000000000e+03 5.434135818481445312e+01 1.987874412536621094e+01 2.569810152053833008e-01 2.166720479726791382e-01 1.420959085226058960e-01 -1.859687566757202148e-01
2.676000000000000000e+03 1.412760829925537109e+01 -2.474418449401855469e+01 2.183057367801666260e-02 -2.788283228874206543e-01 -7.709932327270507812e-02 -1.778211444616317749e-01
2.677000000000000000e+03 7.469078063964843750e+01 2.335665130615234375e+01 -7.522848993539810181e-02 4.830538272857666016e+00 1.426592946052551270e+00 -5.175935029983520508e-01
2.678000000000000000e+03 5.132071685791015625e+01 -7.690093994140625000e+00 -4.227594137191772461e-01 -1.458837240934371948e-01 -1.705929487943649292e-01 1.895358562469482422e-01
2.679000000000000000e+03 5.015076065063476562e+01 -6.391880989074707031e+00 -2.746413350105285645e-01 2.461921051144599915e-02 -7.500663399696350098e-02 2.689915001392364502e-01
2.680000000000000000e+03 5.355117797851562500e+01 -2.766992950439453125e+01 2.934356629848480225e-01 7.465855032205581665e-02 1.104282662272453308e-01 -1.266798824071884155e-01
2.681000000000000000e+03 5.716996002197265625e+01 -2.510459899902343750e+01 1.374014616012573242e-01 1.703034788370132446e-01 9.231148660182952881e-02 1.767285466194152832e-01
2.682000000000000000e+03 2.553219795227050781e+01 3.360723876953125000e+01 5.760363489389419556e-02 -1.266038119792938232e-01 -2.070005424320697784e-02 2.570647895336151123e-01
2.683000000000000000e+03 5.011241912841796875e+01 3.035459899902343750e+01 1.712410449981689453e-01 5.485725998878479004e-01 2.159440815448760986e-01 1.119670793414115906e-01
2.684000000000000000e+03 8.626503944396972656e+00 8.107792854309082031e+00 -2.061918973922729492e-01 -1.095906198024749756e-01 -9.473475813865661621e-02 1.156388446688652039e-01
2.685000000000000000e+03 8.149654388427734375e+00 -2.526308822631835938e+01 -8.924748748540878296e-03 -1.156078418716788292e-03 -3.024247940629720688e-03 -4.217864200472831726e-02
2.686000000000000000e+03 5.280545425415039062e+01 3.581082534790039062e+01 4.611316323280334473e-01 6.238418817520141602e-01 3.254920542240142822e-01 1.641316711902618408e-01
2.687000000000000000e+03 4.870807647705078125e+01 3.473405075073242188e+01 4.188280701637268066e-01 2.933420836925506592e-01 2.136510461568832397e-01 -1.659931987524032593e-02
2.688000000000000000e+03 5.787620162963867188e+01 -1.254676437377929688e+01 -1.255461454391479492e+00 -4.680292606353759766e-01 -5.170472264289855957e-01 -1.765037886798381805e-02
2.689000000000000000e+03 6.349882507324218750e+01 -8.317777633666992188e+00 -7.536990046501159668e-01 1.162136644124984741e-01 -1.912456005811691284e-01 1.625449955463409424e-01
2.690000000000000000e+03 6.070437622070312500e+01 -1.309466457366943359e+01 -1.299039363861083984e+00 3.244197368621826172e-01 -2.923858761787414551e-01 1.544173154979944229e-02
2.691000000000000000e+03 7.506584167480468750e+01 4.043508148193359375e+01 9.153166413307189941e-02 4.059346199035644531e+00 1.245263338088989258e+00 -8.567963726818561554e-03
2.692000000000000000e+03 6.932178497314453125e+01 -3.059057426452636719e+01 6.982702016830444336e-01 2.085799932479858398e+00 8.352210521697998047e-01 4.807755053043365479e-01
2.693000000000000000e+03 3.216725158691406250e+01 2.956475067138671875e+01 -2.612119726836681366e-02 -5.033074617385864258e-01 -1.588286012411117554e-01 2.512344121932983398e-01
2.694000000000000000e+03 5.919164276123046875e+01 3.722219228744506836e+00 -1.028645873069763184e+00 1.624285615980625153e-02 -3.037209212779998779e-01 -1.580774597823619843e-02
2.695000000000000000e+03 6.176573944091796875e+01 1.952239036560058594e+00 -1.506819963455200195e+00 4.470853209495544434e-01 -3.179203867912292480e-01 5.526811629533767700e-02
2.696000000000000000e+03 4.220576095581054688e+01 -2.155057525634765625e+01 1.517009437084197998e-01 -1.722669303417205811e-01 -6.169796921312808990e-03 -6.307722330093383789e-01
2.697000000000000000e+03 5.102939987182617188e+01 3.122070884704589844e+01 2.316469401121139526e-01 7.160121798515319824e-01 2.842977344989776611e-01 1.225672736763954163e-01
2.698000000000000000e+03 2.251173019409179688e+01 1.509570121765136719e+01 -1.636960208415985107e-01 -2.039755582809448242e-01 -1.103014722466468811e-01 7.414832711219787598e-02
2.699000000000000000e+03 2.351597404479980469e+01 3.341340637207031250e+01 -3.594165667891502380e-02 -9.960920363664627075e-02 -4.066525772213935852e-02 1.320656239986419678e-01
2.700000000000000000e+03 1.389443778991699219e+01 -7.733561515808105469e+00 -3.307107370346784592e-03 5.067323893308639526e-02 1.420983951538801193e-02 -2.279926650226116180e-02
2.701000000000000000e+03 7.239545440673828125e+01 2.128290748596191406e+01 -1.295108199119567871e-01 4.460631847381591797e+00 1.299336194992065430e+00 -8.630074262619018555e-01
2.702000000000000000e+03 5.546756744384765625e+01 1.698176765441894531e+01 1.610765010118484497e-01 2.321568280458450317e-01 1.179699972271919250e-01 -2.025566995143890381e-01
2.703000000000000000e+03 5.838128662109375000e+01 2.113673210144042969e+01 2.559275031089782715e-01 4.688889682292938232e-01 2.174449414014816284e-01 -1.694838888943195343e-02
2.704000000000000000e+03 5.681615447998046875e+01 8.500703811645507812e+00 4.423835873603820801e-01 1.438276320695877075e-01 1.758633702993392944e-01 3.593461513519287109e-01
2.705000000000000000e+03 5.988276290893554688e+01 7.936409950256347656e+00 3.571134507656097412e-01 6.140781641006469727e-01 2.913574874401092529e-01 -8.299101144075393677e-02
2.706000000000000000e+03 5.858251190185546875e+01 1.194371032714843750e+01 3.512699604034423828e-01 9.298934340476989746e-01 3.843490183353424072e-01 2.307085786014795303e-03
2.707000000000000000e+03 5.720466995239257812e+01 9.589496612548828125e+00 3.988933861255645752e-01 3.552892804145812988e-01 2.262548059225082397e-01 3.740482032299041748e-01
2.708000000000000000e+03 2.467547988891601562e+01 -2.679992103576660156e+01 2.731679379940032959e-01 -8.926055580377578735e-02 5.517221614718437195e-02 -1.211769059300422668e-01
2.709000000000000000e+03 6.176408386230468750e+01 4.101350402832031250e+01 6.900053620338439941e-01 1.312241792678833008e+00 6.006741523742675781e-01 -9.097210317850112915e-02
2.710000000000000000e+03 1.225417137145996094e+01 -9.060792922973632812e+00 -1.118618994951248169e-02 2.643441595137119293e-02 4.574467893689870834e-03 -3.597117215394973755e-02
2.711000000000000000e+03 6.376126480102539062e+01 -1.206800651550292969e+01 -1.726420521736145020e+00 7.424582242965698242e-01 -2.951886951923370361e-01 1.383542418479919434e-01
2.712000000000000000e+03 6.220306015014648438e+01 -1.308477210998535156e+01 -1.381790280342102051e+00 6.236007809638977051e-01 -2.274568527936935425e-01 6.758335232734680176e-02
2.713000000000000000e+03 3.838362884521484375e+01 1.923834037780761719e+01 3.451271951198577881e-01 -5.109189748764038086e-01 -4.973752796649932861e-02 4.610096514225006104e-01
2.714000000000000000e+03 3.706066131591796875e+01 2.030276107788085938e+01 2.338468730449676514e-01 -5.909740924835205078e-01 -1.071381568908691406e-01 4.443071782588958740e-01
2.715000000000000000e+03 6.817181396484375000e+01 2.887892532348632812e+01 3.372981548309326172e-01 2.650192737579345703e+00 8.962472677230834961e-01 -5.435528755187988281e-01
2.716000000000000000e+03 6.950099182128906250e+01 2.905294799804687500e+01 2.780175209045410156e-01 2.979402780532836914e+00 9.772260785102844238e-01 -5.629708170890808105e-01
2.717000000000000000e+03 6.796116638183593750e+01 -3.049201011657714844e+01 6.450704336166381836e-01 1.657110691070556641e+00 6.906543374061584473e-01 4.018008336424827576e-02
2.718000000000000000e+03 1.375484657287597656e+01 -3.705518960952758789e+00 -2.237806562334299088e-03 -5.543926381506025791e-04 -8.376597543247044086e-04 -1.803715899586677551e-02
2.719000000000000000e+03 5.554579257965087891e+00 -1.230787944793701172e+01 -2.281764522194862366e-02 -7.000502198934555054e-02 -2.784680016338825226e-02 -2.254516817629337311e-02
2.720000000000000000e+03 5.131366729736328125e+00 -1.110016345977783203e+01 -7.841893471777439117e-03 -5.953245609998703003e-02 -2.021230384707450867e-02 -5.669908598065376282e-03
2.721000000000000000e+03 3.494465255737304688e+01 1.484686470031738281e+01 -2.751068957149982452e-02 -4.824755489826202393e-01 -1.529958695173263550e-01 4.494723677635192871e-01
2.722000000000000000e+03 4.143342971801757812e+01 -1.776626205444335938e+01 -2.055120840668678284e-02 -4.310688748955726624e-02 -1.909742876887321472e-02 -3.355211615562438965e-01
2.723000000000000000e+03 4.306539154052734375e+01 5.815864562988281250e+00 -6.376442909240722656e-01 -2.830687761306762695e-01 -2.762139141559600830e-01 3.400009572505950928e-01
2.724000000000000000e+03 2.755056953430175781e+01 -1.672513389587402344e+01 -2.985644042491912842e-01 -2.015697509050369263e-01 -1.500402390956878662e-01 -1.508579999208450317e-01
2.725000000000000000e+03 5.042396068572998047e+00 2.263367271423339844e+01 -4.860027879476547241e-02 -3.195200860500335693e-01 -1.104361042380332947e-01 1.589260995388031006e-02
2.726000000000000000e+03 1.743628883361816406e+01 4.117809677124023438e+01 1.422691047191619873e-01 -1.826554685831069946e-01 -1.211591064929962158e-02 2.720630727708339691e-02
2.727000000000000000e+03 2.702711486816406250e+01 -2.662466812133789062e+01 2.771861553192138672e-01 -1.189852431416511536e-01 4.746026918292045593e-02 -1.326040774583816528e-01
2.728000000000000000e+03 8.437763214111328125e+00 -3.108014106750488281e+01 -9.676467627286911011e-02 -1.188455373048782349e-01 -6.468306481838226318e-02 -1.003237962722778320e-01
2.729000000000000000e+03 6.145794677734375000e+01 -1.989313888549804688e+01 4.863648414611816406e-01 6.300198435783386230e-01 3.349153995513916016e-01 -1.451425999402999878e-02
2.730000000000000000e+03 5.386667633056640625e+01 2.102643013000488281e+01 2.637433409690856934e-01 2.350626140832901001e-01 1.496417820453643799e-01 -1.553578972816467285e-01
2.731000000000000000e+03 1.987688636779785156e+01 -1.698958015441894531e+01 -1.564873605966567993e-01 -1.229513064026832581e-02 -5.063474550843238831e-02 -2.012978643178939819e-01
2.732000000000000000e+03 2.415668106079101562e+01 -2.066537284851074219e+01 -9.595022350549697876e-02 -6.545604020357131958e-02 -4.842187836766242981e-02 -1.837435662746429443e-01
2.733000000000000000e+03 4.954816055297851562e+01 -1.346632480621337891e+01 -7.475209832191467285e-01 5.152957979589700699e-03 -2.227104008197784424e-01 -5.805521011352539062e-01
2.734000000000000000e+03 5.155778121948242188e+01 -1.018323135375976562e+01 -7.755878567695617676e-01 -1.120344828814268112e-02 -2.360374033451080322e-01 -1.454541236162185669e-01
2.735000000000000000e+03 6.678803253173828125e+01 -3.147134971618652344e+01 4.280685782432556152e-01 1.906052231788635254e+00 7.002362012863159180e-01 -2.461641579866409302e-01
2.736000000000000000e+03 5.257579421997070312e+01 2.348692893981933594e+01 2.902119457721710205e-01 3.946039080619812012e-01 2.054447531700134277e-01 -1.578758656978607178e-02
2.737000000000000000e+03 4.894210433959960938e+01 2.888784599304199219e+01 7.687291502952575684e-02 4.507183730602264404e-01 1.582773923873901367e-01 1.645738184452056885e-01
2.738000000000000000e+03 4.995099639892578125e+01 2.842741394042968750e+01 1.492830514907836914e-01 5.331853628158569336e-01 2.047405242919921875e-01 1.988648325204849243e-01
2.739000000000000000e+03 2.622972297668457031e+01 -2.689059448242187500e+01 2.643038630485534668e-01 -1.187911257147789001e-01 4.365381971001625061e-02 -1.289176642894744873e-01
2.740000000000000000e+03 4.850199508666992188e+01 2.263274765014648438e+01 3.833950459957122803e-01 2.607380151748657227e-01 1.932399123907089233e-01 2.578600049018859863e-01
2.741000000000000000e+03 4.093746185302734375e+01 1.578986740112304688e+01 1.355408132076263428e-01 -2.796953022480010986e-01 -4.324634745717048645e-02 3.046070635318756104e-01
2.742000000000000000e+03 2.339931869506835938e+01 1.076204204559326172e+01 1.486427485942840576e-01 -1.596980392932891846e-01 -3.316590562462806702e-03 6.315986067056655884e-02
2.743000000000000000e+03 2.301565551757812500e+01 9.629123687744140625e+00 1.689535826444625854e-01 -1.649871319532394409e-01 1.189938629977405071e-03 8.187498897314071655e-02
2.744000000000000000e+03 1.512322711944580078e+01 -2.354764175415039062e+01 -8.954550139605998993e-03 -2.732127308845520020e-01 -8.465018868446350098e-02 -1.860264241695404053e-01
2.745000000000000000e+03 1.130553150177001953e+01 -2.978211593627929688e+01 -1.172983273863792419e-01 -2.073307782411575317e-01 -9.738872945308685303e-02 -1.119207516312599182e-01
2.746000000000000000e+03 5.756593704223632812e+00 -3.040630722045898438e+01 -5.359657108783721924e-02 -9.963050484657287598e-02 -4.596812278032302856e-02 -6.041184067726135254e-02
2.747000000000000000e+03 2.627014350891113281e+01 -2.136088943481445312e+01 -3.679518401622772217e-02 -1.182124838232994080e-01 -4.650229960680007935e-02 -1.527127176523208618e-01
2.748000000000000000e+03 2.597616577148437500e+01 9.345407485961914062e+00 2.257154285907745361e-01 1.659304834902286530e-02 7.269254326820373535e-02 1.002337858080863953e-01
2.749000000000000000e+03 5.345000076293945312e+01 -1.396461296081542969e+01 -6.609829068183898926e-01 1.574957966804504395e-01 -1.510461419820785522e-01 -6.335762143135070801e-01
2.750000000000000000e+03 5.542029571533203125e+01 -1.559919738769531250e+01 -1.456818133592605591e-01 5.347132310271263123e-02 -2.766314521431922913e-02 -2.756927609443664551e-01
2.751000000000000000e+03 4.907450199127197266e+00 1.557018280029296875e+01 9.227547794580459595e-02 -1.754358857870101929e-01 -2.494812570512294769e-02 1.052050963044166565e-01
2.752000000000000000e+03 3.537494277954101562e+01 1.365302276611328125e+01 -3.434486687183380127e-01 -5.998139381408691406e-01 -2.829787731170654297e-01 5.475882291793823242e-01
2.753000000000000000e+03 3.791223907470703125e+01 1.452206039428710938e+01 -1.286802440881729126e-01 -7.571511268615722656e-01 -2.657494246959686279e-01 4.186953008174896240e-01
2.754000000000000000e+03 4.236355972290039062e+01 1.418973255157470703e+01 6.882957182824611664e-03 -1.026033312082290649e-01 -2.871611155569553375e-02 3.220140635967254639e-01
2.755000000000000000e+03 4.112032318115234375e+01 1.276008319854736328e+01 -3.337564170360565186e-01 -2.845429480075836182e-01 -1.854898035526275635e-01 4.329649806022644043e-01
2.756000000000000000e+03 5.858050918579101562e+01 -2.071604156494140625e+01 3.085735738277435303e-01 1.370804756879806519e-01 1.336962133646011353e-01 -1.723966300487518311e-01
2.757000000000000000e+03 5.966302871704101562e+01 -2.113385963439941406e+01 3.627583980560302734e-01 3.173042535781860352e-01 2.040187865495681763e-01 -7.832337915897369385e-02
2.758000000000000000e+03 7.532421112060546875e+01 -1.626179885864257812e+01 -7.506703138351440430e-01 6.104301452636718750e+00 1.606089353561401367e+00 9.941061735153198242e-01
2.759000000000000000e+03 3.587942886352539062e+01 2.005965614318847656e+01 2.047665417194366455e-01 -5.699038505554199219e-01 -1.095411852002143860e-01 4.581513106822967529e-01
2.760000000000000000e+03 6.821023559570312500e+01 4.530685901641845703e+00 1.710971295833587646e-01 -2.294781804084777832e-01 -1.751431450247764587e-02 -3.250551819801330566e-01
2.761000000000000000e+03 6.524944305419921875e+01 3.639368295669555664e+00 -6.324381232261657715e-01 3.001323640346527100e-01 -9.969172626733779907e-02 -2.087712883949279785e-01
2.762000000000000000e+03 6.980248260498046875e+01 -3.607943725585937500e+01 4.875538945198059082e-01 2.922311067581176758e+00 1.022959470748901367e+00 4.128538370132446289e-01
2.763000000000000000e+03 5.690636062622070312e+01 -1.617279243469238281e+01 4.607915878295898438e-02 -1.229016035795211792e-01 -2.304673194885253906e-02 -2.878822982311248779e-01
2.764000000000000000e+03 4.198490524291992188e+01 3.609420394897460938e+01 5.825852751731872559e-01 -1.609679870307445526e-02 1.699465364217758179e-01 1.519755870103836060e-01
2.765000000000000000e+03 4.247682952880859375e+01 4.124106597900390625e+01 5.391017794609069824e-01 5.845408141613006592e-02 1.792667657136917114e-01 3.336290270090103149e-02
2.766000000000000000e+03 1.923132324218750000e+01 2.016057395935058594e+01 -1.339371651411056519e-01 -7.360543310642242432e-02 -6.226277723908424377e-02 5.183868855237960815e-02
2.767000000000000000e+03 5.378816604614257812e+01 -3.240128707885742188e+01 2.412350326776504517e-01 5.098444819450378418e-01 2.253238558769226074e-01 -2.506098747253417969e-01
2.768000000000000000e+03 5.369865798950195312e+01 -2.974368858337402344e+01 2.826663553714752197e-01 3.152078688144683838e-01 1.793622672557830811e-01 -1.490408480167388916e-01
2.769000000000000000e+03 1.778627014160156250e+01 -2.352897262573242188e+01 -2.749510109424591064e-02 -6.072666868567466736e-02 -2.646653167903423309e-02 -2.200513929128646851e-01
2.770000000000000000e+03 3.446519088745117188e+01 2.397041511535644531e+01 -3.329341709613800049e-01 -5.358018875122070312e-01 -2.606208324432373047e-01 3.467355072498321533e-01
2.771000000000000000e+03 5.219825744628906250e+01 -2.787059402465820312e+01 3.074686527252197266e-01 1.486317962408065796e-01 1.368301361799240112e-01 -2.576009035110473633e-01
2.772000000000000000e+03 5.055720138549804688e+01 -3.684353256225585938e+01 4.008932709693908691e-01 1.156234219670295715e-01 1.549550145864486694e-01 5.583424493670463562e-02
2.773000000000000000e+03 7.417938232421875000e+01 1.939983940124511719e+01 1.249158196151256561e-02 5.292974472045898438e+00 1.591639876365661621e+00 -5.206517577171325684e-01
2.774000000000000000e+03 4.069548034667968750e+01 1.906229019165039062e+01 3.327086865901947021e-01 -1.438401937484741211e-01 5.666054412722587585e-02 3.549416959285736084e-01
2.775000000000000000e+03 4.227447128295898438e+01 1.275857734680175781e+01 -2.164409607648849487e-01 -1.342887878417968750e-01 -1.052189245820045471e-01 4.446679353713989258e-01
2.776000000000000000e+03 2.028704261779785156e+01 -2.373982620239257812e+01 8.652800694108009338e-03 7.405073940753936768e-02 2.481106109917163849e-02 -1.792267858982086182e-01
2.777000000000000000e+03 5.136003112792968750e+01 3.345866012573242188e+01 3.520526885986328125e-01 6.504302024841308594e-01 3.007448613643646240e-01 7.743550091981887817e-02
2.778000000000000000e+03 3.027348136901855469e+01 -3.297158432006835938e+01 2.507616020739078522e-02 -1.410971116274595261e-02 3.289934946224093437e-03 -1.707088798284530640e-01
2.779000000000000000e+03 2.099356651306152344e+01 -1.956102371215820312e+01 -1.665712445974349976e-01 -4.558699205517768860e-03 -5.133898556232452393e-02 -2.353057712316513062e-01
2.780000000000000000e+03 4.316601943969726562e+01 -1.680506706237792969e+01 -3.537077307701110840e-01 -1.742384433746337891e-01 -1.583838462829589844e-01 -2.115120440721511841e-01
2.781000000000000000e+03 7.499868774414062500e+01 -3.458636283874511719e+00 -6.288463622331619263e-02 4.751005649566650391e+00 1.406436324119567871e+00 -2.130885839462280273e+00
2.782000000000000000e+03 7.747383880615234375e+01 -8.204618453979492188e+00 -2.091340541839599609e+00 1.582921218872070312e+01 4.121361255645751953e+00 -9.299125671386718750e-01
2.783000000000000000e+03 7.728178405761718750e+01 -7.971579074859619141e+00 -2.325045108795166016e+00 1.717557144165039062e+01 4.455157756805419922e+00 -3.125632405281066895e-01
2.784000000000000000e+03 7.632939910888671875e+01 -8.085129737854003906e+00 -1.091102361679077148e+00 1.307343196868896484e+01 3.594698905944824219e+00 3.620419502258300781e+00
2.785000000000000000e+03 7.473020935058593750e+01 -2.931832790374755859e+00 -3.763576149940490723e-01 4.085499286651611328e+00 1.112742424011230469e+00 -1.340799212455749512e+00
2.786000000000000000e+03 7.752156829833984375e+01 -4.007237434387207031e+00 -2.164364576339721680e+00 1.597544860839843750e+01 4.143325328826904297e+00 1.476088523864746094e+00
2.787000000000000000e+03 7.734832763671875000e+01 -1.635759949684143066e+00 -1.590313673019409180e+00 1.107476043701171875e+01 2.845334053039550781e+00 2.912930250167846680e-01
2.788000000000000000e+03 7.649582672119140625e+01 -3.839124441146850586e+00 -1.749303221702575684e+00 1.324188709259033203e+01 3.447775125503540039e+00 -2.275647640228271484e+00
2.789000000000000000e+03 7.581508636474609375e+01 -2.906681060791015625e+00 -1.430399894714355469e+00 8.609021186828613281e+00 2.153586626052856445e+00 -1.780647754669189453e+00
2.790000000000000000e+03 7.540983581542968750e+01 -3.201216936111450195e+00 -6.194585561752319336e-01 6.540667533874511719e+00 1.776362776756286621e+00 -2.236839532852172852e+00
2.791000000000000000e+03 7.538224029541015625e+01 -4.202656745910644531e+00 9.180301427841186523e-01 5.414339065551757812e+00 1.899710774421691895e+00 -3.221382141113281250e+00
2.792000000000000000e+03 9.633417129516601562e+00 3.777518510818481445e+00 -7.515501230955123901e-02 -5.113887786865234375e-02 -3.788816556334495544e-02 1.936087384819984436e-02
2.793000000000000000e+03 9.705631256103515625e+00 4.438658237457275391e+00 -1.094468906521797180e-01 -6.861241161823272705e-02 -5.341779068112373352e-02 3.584662452340126038e-02
2.794000000000000000e+03 4.400011062622070312e+01 4.623778820037841797e+00 -7.626158595085144043e-01 -2.064767628908157349e-01 -2.907277941703796387e-01 1.888932138681411743e-01
2.795000000000000000e+03 4.446395874023437500e+01 4.073321342468261719e+00 -8.466694355010986328e-01 -1.578415483236312866e-01 -3.013533055782318115e-01 1.885677576065063477e-01
2.796000000000000000e+03 9.195856094360351562e+00 -1.036885452270507812e+01 -1.774316467344760895e-02 -5.000796914100646973e-02 -2.032534033060073853e-02 -3.642650693655014038e-02
2.797000000000000000e+03 8.561142921447753906e+00 -4.958137989044189453e+00 3.821299644187092781e-03 -2.280239202082157135e-02 -5.694327410310506821e-03 -2.601771987974643707e-02
2.798000000000000000e+03 6.108950424194335938e+01 6.771442294120788574e-01 -1.839606642723083496e+00 3.237189650535583496e-01 -4.547663331031799316e-01 2.470555156469345093e-01
2.799000000000000000e+03 7.534978866577148438e+00 -5.347047805786132812e+00 2.375036245211958885e-03 -3.204262256622314453e-02 -8.900276385247707367e-03 -2.373074553906917572e-02
2.800000000000000000e+03 7.336333274841308594e+00 -4.054865837097167969e+00 -3.558286232873797417e-03 -2.453706786036491394e-02 -8.428606204688549042e-03 -2.467582747340202332e-02
2.801000000000000000e+03 7.906217575073242188e+00 -4.761003017425537109e+00 9.507281938567757607e-04 -2.579210512340068817e-02 -7.452413439750671387e-03 -2.857226319611072540e-02
2.802000000000000000e+03 6.657916069030761719e+00 -4.118285179138183594e+00 2.283081645146012306e-03 -1.150857284665107727e-02 -2.767647150903940201e-03 -1.288246084004640579e-02
2.803000000000000000e+03 4.411684989929199219e+00 4.159135341644287109e+00 -2.539290487766265869e-02 1.912672771140933037e-03 -7.044069934636354446e-03 -1.959195919334888458e-02
2.804000000000000000e+03 4.841196060180664062e+00 3.711374282836914062e+00 -2.049709483981132507e-02 -4.039457533508539200e-03 -7.360965944826602936e-03 -2.175374329090118408e-02
2.805000000000000000e+03 4.532509326934814453e+00 6.649273395538330078e+00 -6.496784836053848267e-02 -1.169597450643777847e-02 -2.299914695322513580e-02 2.429008483886718750e-02
2.806000000000000000e+03 7.879552364349365234e+00 4.248967170715332031e+00 -6.988350301980972290e-02 -3.616281226277351379e-02 -3.181389346718788147e-02 1.521392259746789932e-03
2.807000000000000000e+03 8.163585662841796875e+00 5.393507003784179688e+00 -1.186957806348800659e-01 -5.588181689381599426e-02 -5.237327888607978821e-02 2.550405636429786682e-02
2.808000000000000000e+03 8.624155044555664062e+00 4.801624774932861328e+00 -1.089818477630615234e-01 -4.812240228056907654e-02 -4.713127389550209045e-02 1.862704567611217499e-02
2.809000000000000000e+03 1.302565097808837891e+01 -3.519074440002441406e+00 -9.426582604646682739e-03 -5.256654694676399231e-03 -4.404970910400152206e-03 -4.013637453317642212e-02
2.810000000000000000e+03 2.702468490600585938e+01 4.666021823883056641e+00 -6.912001967430114746e-02 1.801308989524841309e-01 3.330326452851295471e-02 1.634955257177352905e-01
2.811000000000000000e+03 2.356165313720703125e+01 6.557344913482666016e+00 1.045525074005126953e-01 -1.343711316585540771e-01 -8.945588022470474243e-03 1.291146129369735718e-01
2.812000000000000000e+03 2.472472572326660156e+01 4.744740009307861328e+00 -8.969548344612121582e-02 -5.321260169148445129e-02 -4.287242516875267029e-02 1.687963306903839111e-01
2.813000000000000000e+03 2.511121749877929688e+01 5.679005622863769531e+00 4.337835311889648438e-02 -3.766525536775588989e-02 1.713929348625242710e-03 1.611191034317016602e-01
2.814000000000000000e+03 2.429713439941406250e+01 6.209642887115478516e+00 6.946497410535812378e-02 -9.996201843023300171e-02 -9.149113669991493225e-03 1.454648971557617188e-01
2.815000000000000000e+03 2.195307159423828125e+01 5.740412712097167969e+00 -8.115392847685143352e-05 -1.268510073423385620e-01 -3.807964920997619629e-02 1.079006940126419067e-01
2.816000000000000000e+03 2.270829582214355469e+01 6.638719081878662109e+00 1.104153618216514587e-01 -1.455541253089904785e-01 -1.054162718355655670e-02 1.093475073575973511e-01
2.817000000000000000e+03 5.669990158081054688e+01 4.489092350006103516e+00 -6.718233823776245117e-01 -9.792631119489669800e-02 -2.309249192476272583e-01 1.918972581624984741e-01
2.818000000000000000e+03 5.837212753295898438e+01 3.546513557434082031e+00 -1.075572848320007324e+00 -1.790400594472885132e-01 -3.763838708400726318e-01 5.115851014852523804e-02
2.819000000000000000e+03 1.236958599090576172e+01 -3.295203447341918945e+00 -8.613049052655696869e-03 -1.964803785085678101e-02 -8.478325791656970978e-03 -2.882230654358863831e-02
2.820000000000000000e+03 1.053608036041259766e+01 -4.117034435272216797e+00 -9.734154678881168365e-03 -2.872741222381591797e-02 -1.153847016394138336e-02 -4.129667207598686218e-02
2.821000000000000000e+03 1.202375316619873047e+01 -3.874698162078857422e+00 -7.874845527112483978e-03 -8.150978945195674896e-03 -4.807747434824705124e-03 -4.270712286233901978e-02
2.822000000000000000e+03 1.287750434875488281e+01 -5.292432785034179688e+00 2.194953849539160728e-03 -7.531684823334217072e-03 -1.601019292138516903e-03 -2.824541367590427399e-02
2.823000000000000000e+03 3.468278121948242188e+01 -4.840695858001708984e+00 -1.358447670936584473e-01 1.059279367327690125e-01 -8.975048549473285675e-03 -2.008081674575805664e-01
2.824000000000000000e+03 4.723346328735351562e+01 3.490314722061157227e+00 -9.769530296325683594e-01 -2.174702286720275879e-01 -3.583269715309143066e-01 3.710210025310516357e-01
2.825000000000000000e+03 4.684227371215820312e+01 4.815717220306396484e+00 -1.002397179603576660e+00 -3.668206334114074707e-01 -4.107653498649597168e-01 3.753755688667297363e-01
2.826000000000000000e+03 6.268555068969726562e+01 1.051539540290832520e+00 -1.574681639671325684e+00 4.769988059997558594e-01 -3.293048441410064697e-01 1.558481156826019287e-01
2.827000000000000000e+03 6.258496475219726562e+01 1.940175533294677734e+00 -1.413774013519287109e+00 5.081477761268615723e-01 -2.716878652572631836e-01 3.043025173246860504e-02
2.828000000000000000e+03 4.916083145141601562e+01 4.799304485321044922e+00 -1.064753174781799316e+00 -6.214389204978942871e-01 -5.058576464653015137e-01 7.359493374824523926e-01
2.829000000000000000e+03 3.484463119506835938e+01 -6.253941059112548828e+00 -2.664410695433616638e-02 1.382799297571182251e-01 3.349074721336364746e-02 -2.536748349666595459e-01
2.830000000000000000e+03 5.756569290161132812e+01 4.360628604888916016e+00 -7.045519948005676270e-01 -1.325773596763610840e-01 -2.511388063430786133e-01 1.192561089992523193e-01
2.831000000000000000e+03 3.538674926757812500e+01 -5.559376716613769531e+00 -1.229408606886863708e-01 1.663732528686523438e-01 1.302971504628658295e-02 -2.174186110496520996e-01
2.832000000000000000e+03 6.350475692749023438e+01 1.248855233192443848e+00 -1.441905260086059570e+00 4.725568294525146484e-01 -2.908045351505279541e-01 7.296276092529296875e-02
2.833000000000000000e+03 6.434718322753906250e+01 2.292091131210327148e+00 -1.121357798576354980e+00 4.057798683643341064e-01 -2.146733850240707397e-01 -2.837564796209335327e-02
2.834000000000000000e+03 1.548471260070800781e+01 -4.018805027008056641e+00 4.930071067065000534e-03 2.336193621158599854e-02 8.487602695822715759e-03 -1.200217171572148800e-03
2.835000000000000000e+03 3.300328063964843750e+01 -7.627652168273925781e+00 -6.269694771617650986e-03 -1.385464370250701904e-01 -4.344483837485313416e-02 -2.243068367242813110e-01
2.836000000000000000e+03 3.175998115539550781e+01 -9.897491455078125000e+00 -1.246998012065887451e-01 -2.413956373929977417e-01 -1.098286285996437073e-01 -1.042374894022941589e-01
2.837000000000000000e+03 2.369762229919433594e+01 7.372141361236572266e+00 1.548211276531219482e-01 -1.345204561948776245e-01 6.090199574828147888e-03 1.235325038433074951e-01
2.838000000000000000e+03 7.681625366210937500e+01 -1.013668346405029297e+01 -8.856742978096008301e-01 1.081899738311767578e+01 2.979996919631958008e+00 -4.539138451218605042e-02
2.839000000000000000e+03 3.499473953247070312e+01 -7.453058242797851562e+00 7.030000537633895874e-02 1.557850986719131470e-01 6.782553344964981079e-02 -2.456434965133666992e-01
2.840000000000000000e+03 7.738917827606201172e+00 7.419637203216552734e+00 -1.588000804185867310e-01 -6.187571585178375244e-02 -6.620273739099502563e-02 6.715478003025054932e-02
2.841000000000000000e+03 7.769953727722167969e+00 8.965730667114257812e+00 -1.562040001153945923e-01 -9.001000970602035522e-02 -7.386420667171478271e-02 1.204786077141761780e-01
2.842000000000000000e+03 5.932502365112304688e+01 2.838211774826049805e+00 -1.412519097328186035e+00 -8.907765150070190430e-02 -4.504790306091308594e-01 -3.875687718391418457e-02
2.843000000000000000e+03 6.022441101074218750e+01 1.135757446289062500e+00 -1.980516910552978516e+00 2.309685945510864258e-01 -5.248644948005676270e-01 1.536140292882919312e-01
2.844000000000000000e+03 5.653922271728515625e+01 7.574405670166015625e+00 3.614784479141235352e-01 6.815622746944427490e-02 1.288903951644897461e-01 3.520336151123046875e-01
2.845000000000000000e+03 5.656296157836914062e+01 6.591437816619873047e+00 2.287641018629074097e-01 8.640437386929988861e-03 7.122135907411575317e-02 3.108608424663543701e-01
2.846000000000000000e+03 1.440626335144042969e+01 -8.469131469726562500e+00 -1.118300668895244598e-02 3.652941808104515076e-02 7.603922858834266663e-03 -5.068821366876363754e-03
2.847000000000000000e+03 4.240445709228515625e+01 -1.938578987121582031e+01 8.412522822618484497e-02 -1.443661898374557495e-01 -1.807229034602642059e-02 -5.119928121566772461e-01
2.848000000000000000e+03 3.230979537963867188e+01 -6.920286178588867188e+00 2.096916176378726959e-02 -1.731631308794021606e-01 -4.565818980336189270e-02 -2.041572332382202148e-01
2.849000000000000000e+03 2.410881042480468750e+01 -1.860455894470214844e+01 -1.925181895494461060e-01 -9.474618732929229736e-02 -8.617931604385375977e-02 -1.785896271467208862e-01
2.850000000000000000e+03 7.252085113525390625e+01 2.494105720520019531e+01 -1.133293192833662033e-02 4.014087200164794922e+00 1.200826287269592285e+00 -7.099772691726684570e-01
2.851000000000000000e+03 6.718872070312500000e+01 2.390679550170898438e+01 4.150479435920715332e-01 1.757905006408691406e+00 6.518859267234802246e-01 -6.396638154983520508e-01
2.852000000000000000e+03 6.794178009033203125e+01 2.234803962707519531e+01 3.186364769935607910e-01 1.724793195724487305e+00 6.130288839340209961e-01 -9.302508234977722168e-01
2.853000000000000000e+03 6.795124816894531250e+01 3.005701065063476562e+01 3.507955074310302734e-01 2.658689975738525391e+00 9.028456211090087891e-01 -4.845729470252990723e-01
2.854000000000000000e+03 6.776345825195312500e+01 2.782475662231445312e+01 3.214070200920104980e-01 2.484298706054687500e+00 8.417116999626159668e-01 -5.189678072929382324e-01
2.855000000000000000e+03 6.689791870117187500e+01 1.366399288177490234e+00 -1.289157271385192871e+00 6.102249398827552795e-02 -3.684404194355010986e-01 1.441113650798797607e-01
2.856000000000000000e+03 6.906046295166015625e+01 2.824142217636108398e+00 -3.550831675529479980e-01 -1.954612135887145996e-01 -1.651633083820343018e-01 -2.715355344116687775e-02
2.857000000000000000e+03 5.130972290039062500e+01 -3.058872985839843750e+01 3.294602036476135254e-01 2.799251973628997803e-01 1.828156113624572754e-01 -3.158913850784301758e-01
2.858000000000000000e+03 1.913512420654296875e+01 -1.545090389251708984e+01 -1.500417441129684448e-01 9.665722027420997620e-03 -4.211280494928359985e-02 -1.324226260185241699e-01
2.859000000000000000e+03 7.659433746337890625e+01 -9.076277732849121094e+00 -1.206205964088439941e+00 1.188431549072265625e+01 3.203432798385620117e+00 1.288838267326354980e+00
2.860000000000000000e+03 1.063222885131835938e+01 4.590565681457519531e+00 -1.329625397920608521e-01 -9.432344883680343628e-02 -6.818579137325286865e-02 5.248247832059860229e-02
2.861000000000000000e+03 5.938466644287109375e+01 -2.218668174743652344e+01 3.289136290550231934e-01 3.060003221035003662e-01 1.904741823673248291e-01 2.884438261389732361e-03
2.862000000000000000e+03 7.000022888183593750e+01 -3.317911529541015625e+01 5.286123752593994141e-01 2.804001092910766602e+00 9.997839927673339844e-01 5.111622214317321777e-01
2.863000000000000000e+03 6.174080276489257812e+01 -2.069158172607421875e+01 4.733247160911560059e-01 7.909701466560363770e-01 3.792884647846221924e-01 2.458435855805873871e-02
2.864000000000000000e+03 6.532361602783203125e+01 2.273675346374511719e+01 3.729106485843658447e-01 7.898955345153808594e-01 3.488418459892272949e-01 -1.098205223679542542e-01
2.865000000000000000e+03 7.307212829589843750e+01 1.834233880043029785e+00 -5.055044889450073242e-01 2.598656415939331055e+00 6.279456019401550293e-01 -1.017392992973327637e+00
2.866000000000000000e+03 3.571141958236694336e+00 1.160238647460937500e+01 -1.210363022983074188e-02 -7.738006114959716797e-02 -2.684510685503482819e-02 1.189428642392158508e-01
2.867000000000000000e+03 5.080890274047851562e+01 -1.085794162750244141e+01 -6.933557391166687012e-01 9.575513005256652832e-02 -1.792801916599273682e-01 -3.541632592678070068e-01
2.868000000000000000e+03 3.834003448486328125e+01 1.810950279235839844e+01 3.229660391807556152e-01 -5.450285077095031738e-01 -6.661873310804367065e-02 4.413020610809326172e-01
2.869000000000000000e+03 2.130225181579589844e+01 -2.431075477600097656e+01 7.856175303459167480e-02 8.419827371835708618e-02 4.882800951600074768e-02 -1.311359107494354248e-01
2.870000000000000000e+03 7.330541992187500000e+01 -2.938658905029296875e+01 3.355068340897560120e-02 4.763742923736572266e+00 1.439188003540039062e+00 1.250548720359802246e+00
2.871000000000000000e+03 5.664862823486328125e+01 5.547455310821533203e+00 -1.916280686855316162e-01 -8.029651641845703125e-02 -8.157737553119659424e-02 2.007574886083602905e-01
2.872000000000000000e+03 4.173343181610107422e+00 -2.556543922424316406e+01 5.817769095301628113e-03 -6.896140426397323608e-02 -1.894309185445308685e-02 1.122749038040637970e-02
2.873000000000000000e+03 4.560969352722167969e+00 -2.715865516662597656e+01 -2.123839035630226135e-02 -7.060643285512924194e-02 -2.755344845354557037e-02 -2.124935621395707130e-03
2.874000000000000000e+03 7.442865753173828125e+01 -1.855957508087158203e-01 -1.324102640151977539e+00 4.565422534942626953e+00 9.723958969116210938e-01 -1.064591288566589355e+00
2.875000000000000000e+03 7.528432464599609375e+01 -1.094630479812622070e+00 -1.512946248054504395e+00 6.522930622100830078e+00 1.502995252609252930e+00 -1.074799299240112305e+00
2.876000000000000000e+03 9.069183349609375000e+00 5.887961387634277344e+00 -1.622829884290695190e-01 -7.463929802179336548e-02 -7.107668370008468628e-02 4.660796374082565308e-02
2.877000000000000000e+03 7.438878631591796875e+01 2.181476831436157227e+00 -2.956548631191253662e-01 4.574795722961425781e+00 1.283742189407348633e+00 -1.222156405448913574e+00
2.878000000000000000e+03 5.148923873901367188e+01 -2.753622055053710938e+01 3.164736330509185791e-01 1.872890740633010864e-01 1.511288136243820190e-01 -2.625084221363067627e-01
2.879000000000000000e+03 2.651486587524414062e+01 6.033234596252441406e+00 9.240465611219406128e-02 1.193985566496849060e-01 6.354096531867980957e-02 1.612399965524673462e-01
2.880000000000000000e+03 5.200434112548828125e+01 -2.922127342224121094e+01 3.290447294712066650e-01 2.412065714597702026e-01 1.710753887891769409e-01 -2.620577514171600342e-01
2.881000000000000000e+03 5.294799423217773438e+01 -2.863028717041015625e+01 3.376769125461578369e-01 1.758068948984146118e-01 1.540451496839523315e-01 -2.017088234424591064e-01
2.882000000000000000e+03 6.153904724121093750e+01 1.180996179580688477e+00 -1.718964815139770508e+00 4.409415125846862793e-01 -3.834069967269897461e-01 1.558152288198471069e-01
2.883000000000000000e+03 3.572785949707031250e+01 -3.417729568481445312e+01 1.022400856018066406e-01 -1.386842876672744751e-01 -1.093325950205326080e-02 -3.591178655624389648e-01
2.884000000000000000e+03 4.976276016235351562e+01 -2.747211074829101562e+01 3.054862916469573975e-01 3.245812952518463135e-01 1.890202760696411133e-01 -3.008926808834075928e-01
2.885000000000000000e+03 2.199785614013671875e+01 3.281238937377929688e+01 -6.085298955440521240e-03 -1.584468632936477661e-01 -4.935964569449424744e-02 4.013193771243095398e-02
2.886000000000000000e+03 4.515402603149414062e+01 5.765930652618408203e+00 -9.166028499603271484e-01 -2.846567630767822266e-01 -3.603778779506683350e-01 3.917996585369110107e-01
2.887000000000000000e+03 4.292449951171875000e+01 6.514252662658691406e+00 -6.728774309158325195e-01 -2.763074338436126709e-01 -2.847554683685302734e-01 4.455465078353881836e-01
2.888000000000000000e+03 3.141806602478027344e+01 -3.162498855590820312e+01 5.845862999558448792e-02 3.492016717791557312e-02 2.801363915205001831e-02 -1.830927282571792603e-01
2.889000000000000000e+03 4.925529861450195312e+01 -1.503304672241210938e+01 -8.310400247573852539e-01 -1.855675578117370605e-01 -3.049822747707366943e-01 -5.100268721580505371e-01
2.890000000000000000e+03 5.123579978942871094e+00 4.634320259094238281e+00 -4.381867125630378723e-02 -7.265723776072263718e-03 -1.532531902194023132e-02 -1.082291640341281891e-02
2.891000000000000000e+03 3.610151529312133789e+00 6.539936542510986328e+00 -4.473169147968292236e-02 -3.625168930739164352e-03 -1.450705807656049728e-02 1.868644542992115021e-02
2.892000000000000000e+03 6.000791168212890625e+01 -1.415290641784667969e+01 -7.107233405113220215e-01 1.134580746293067932e-01 -1.791795790195465088e-01 -2.338073216378688812e-02
2.893000000000000000e+03 6.268972015380859375e+01 -1.397126674652099609e+01 -1.029639959335327148e+00 6.581982970237731934e-01 -1.114325001835823059e-01 -1.206978335976600647e-01
2.894000000000000000e+03 2.179487037658691406e+01 6.629403114318847656e+00 8.857199549674987793e-02 -1.470858156681060791e-01 -1.755414530634880066e-02 1.040948182344436646e-01
2.895000000000000000e+03 4.284596252441406250e+01 -2.454275894165039062e+01 -9.884147904813289642e-03 -2.696865051984786987e-02 -1.105583924800157547e-02 -4.167855978012084961e-01
2.896000000000000000e+03 7.610663414001464844e+00 6.054126739501953125e+00 -1.287044435739517212e-01 -4.085829854011535645e-02 -5.086882039904594421e-02 3.005285561084747314e-02
2.897000000000000000e+03 2.659058189392089844e+01 -2.013821601867675781e+01 -1.150847002863883972e-01 -1.533596664667129517e-01 -8.053331077098846436e-02 -1.535038053989410400e-01
2.898000000000000000e+03 2.440546035766601562e+01 -1.956401443481445312e+01 -1.535532921552658081e-01 -8.560523390769958496e-02 -7.174756377935409546e-02 -1.741924434900283813e-01
2.899000000000000000e+03 2.452075386047363281e+01 1.031342506408691406e+01 1.797917783260345459e-01 -1.193231865763664246e-01 1.814057677984237671e-02 7.871661335229873657e-02
2.900000000000000000e+03 2.606811904907226562e+01 1.298494243621826172e+01 -4.365498945116996765e-02 -6.790686398744583130e-02 -3.346855565905570984e-02 1.107161268591880798e-01
2.901000000000000000e+03 6.369659423828125000e+01 5.204589366912841797e+00 -2.211910188198089600e-01 6.149778962135314941e-01 1.181360557675361633e-01 -2.941859662532806396e-01
2.902000000000000000e+03 2.546036148071289062e+01 -1.975616836547851562e+01 -1.384734809398651123e-01 -1.088922843337059021e-01 -7.420972734689712524e-02 -1.746282279491424561e-01
2.903000000000000000e+03 2.582658958435058594e+01 -1.857522010803222656e+01 -1.982035487890243530e-01 -1.308536678552627563e-01 -9.871716797351837158e-02 -1.567088067531585693e-01
2.904000000000000000e+03 5.604078292846679688e+01 -2.713237571716308594e+01 2.660810053348541260e-01 1.591934412717819214e-01 1.275823414325714111e-01 1.152396798133850098e-01
2.905000000000000000e+03 5.681091690063476562e+01 -2.641886329650878906e+01 2.216917872428894043e-01 1.963287293910980225e-01 1.254061609506607056e-01 1.906483322381973267e-01
2.906000000000000000e+03 4.204251480102539062e+01 6.357229709625244141e+00 -5.268929004669189453e-01 -3.042984604835510254e-01 -2.493574023246765137e-01 4.298419356346130371e-01
2.907000000000000000e+03 6.103992843627929688e+01 6.084378242492675781e+00 -1.654800474643707275e-01 4.833586812019348145e-01 9.536358714103698730e-02 -1.628677099943161011e-01
2.908000000000000000e+03 4.376676940917968750e+01 -2.520666122436523438e+01 9.294871240854263306e-02 5.514761433005332947e-02 4.442889615893363953e-02 -3.186235427856445312e-01
2.909000000000000000e+03 4.541180419921875000e+01 -2.364766693115234375e+01 2.677098214626312256e-01 1.564604938030242920e-01 1.272511035203933716e-01 -3.777968585491180420e-01
2.910000000000000000e+03 5.872293853759765625e+01 5.195981979370117188e+00 -3.759549558162689209e-01 4.380947723984718323e-02 -9.964364767074584961e-02 -1.377636916004121304e-03
2.911000000000000000e+03 2.658799362182617188e+01 -2.837751007080078125e+01 2.505166530609130859e-01 -1.281439810991287231e-01 3.671180084347724915e-02 -1.338012218475341797e-01
2.912000000000000000e+03 1.090432262420654297e+01 -4.889099597930908203e+00 7.107792887836694717e-03 -1.000365335494279861e-02 -8.687580120749771595e-04 -2.907794341444969177e-02
2.913000000000000000e+03 1.037087440490722656e+01 -1.005081844329833984e+01 -1.075299363583326340e-02 -2.018803358078002930e-02 -9.282308630645275116e-03 -4.559480771422386169e-02
2.914000000000000000e+03 2.607608032226562500e+01 5.201679229736328125e+00 -1.071183104068040848e-02 5.827958509325981140e-02 1.427032612264156342e-02 1.714405715465545654e-01
2.915000000000000000e+03 2.569042205810546875e+01 -1.594383144378662109e+01 -3.188539445400238037e-01 -1.571414470672607422e-01 -1.427986174821853638e-01 -1.484498232603073120e-01
2.916000000000000000e+03 5.538066864013671875e+01 2.047318840026855469e+01 2.508899271488189697e-01 3.046804964542388916e-01 1.666711270809173584e-01 -2.195802032947540283e-01
2.917000000000000000e+03 7.588780212402343750e+01 1.578579044342041016e+01 5.315629839897155762e-01 5.931979656219482422e+00 1.939062833786010742e+00 -6.827674508094787598e-01
2.918000000000000000e+03 7.459371948242187500e+01 1.661914253234863281e+01 7.423993349075317383e-01 5.739408016204833984e+00 1.944542169570922852e+00 -7.218053936958312988e-01
2.919000000000000000e+03 7.537586212158203125e+01 -3.012990379333496094e+01 -6.270466744899749756e-02 5.563849925994873047e+00 1.650343537330627441e+00 6.620193123817443848e-01
2.920000000000000000e+03 2.521558570861816406e+01 -2.490806961059570312e+01 1.823372840881347656e-01 -9.216655790805816650e-02 2.705121971666812897e-02 -1.169672533869743347e-01
2.921000000000000000e+03 7.465935516357421875e+01 -2.658931350708007812e+01 3.361302316188812256e-01 6.272365570068359375e+00 1.982548832893371582e+00 1.004912137985229492e+00
2.922000000000000000e+03 3.741326522827148438e+01 1.813243865966796875e+01 3.245114088058471680e-01 -5.966606140136718750e-01 -8.164476603269577026e-02 4.945894479751586914e-01
2.923000000000000000e+03 3.488999176025390625e+01 1.868794441223144531e+01 2.962864041328430176e-01 -5.121594667434692383e-01 -6.476192176342010498e-02 4.813209474086761475e-01
2.924000000000000000e+03 7.329442596435546875e+01 2.714409637451171875e+01 6.012051925063133240e-02 4.066834926605224609e+00 1.238086581230163574e+00 -5.645039677619934082e-01
2.925000000000000000e+03 7.344975280761718750e+01 2.423633575439453125e+01 -2.577619254589080811e-02 4.342299461364746094e+00 1.294956922531127930e+00 -6.448698043823242188e-01
2.926000000000000000e+03 7.564481353759765625e+01 2.601803779602050781e+01 -3.482507541775703430e-02 4.753876209259033203e+00 1.415715336799621582e+00 -3.885794579982757568e-01
2.927000000000000000e+03 7.341233825683593750e+01 2.098406219482421875e+01 -8.275709301233291626e-02 4.772089004516601562e+00 1.406799554824829102e+00 -6.629874110221862793e-01
2.928000000000000000e+03 7.539872741699218750e+01 1.912773704528808594e+01 1.358690112829208374e-01 5.621219635009765625e+00 1.727126598358154297e+00 -3.524906933307647705e-01
2.929000000000000000e+03 7.562199401855468750e+01 2.062045860290527344e+01 -8.059841394424438477e-02 5.396834850311279297e+00 1.594870924949645996e+00 -3.187932968139648438e-01
2.930000000000000000e+03 7.588751983642578125e+01 5.912248134613037109e+00 -3.776149079203605652e-02 6.761068820953369141e+00 2.016992092132568359e+00 -1.130906462669372559e+00
2.931000000000000000e+03 7.157688903808593750e+01 5.460326671600341797e+00 8.065368235111236572e-02 1.716694355010986328e+00 5.392044186592102051e-01 -3.640526831150054932e-01
2.932000000000000000e+03 7.383742523193359375e+01 2.958705711364746094e+01 1.012420281767845154e-01 4.040063381195068359e+00 1.242391586303710938e+00 -4.331902265548706055e-01
2.933000000000000000e+03 7.591912078857421875e+01 1.137274265289306641e+01 1.642169207334518433e-01 6.528448581695556641e+00 2.007799625396728516e+00 -1.419687032699584961e+00
2.934000000000000000e+03 7.620366668701171875e+01 1.339386081695556641e+01 4.197254478931427002e-01 6.392909049987792969e+00 2.043790340423583984e+00 -1.144251585006713867e+00
2.935000000000000000e+03 7.521617126464843750e+01 1.315796375274658203e+01 5.694033503532409668e-01 6.201740264892578125e+00 2.031342983245849609e+00 -1.397950768470764160e+00
2.936000000000000000e+03 7.466336822509765625e+01 2.208400154113769531e+01 -1.379830390214920044e-01 4.986163139343261719e+00 1.454453945159912109e+00 -4.730872511863708496e-01
2.937000000000000000e+03 7.133261871337890625e+01 -3.207207489013671875e+01 4.795538485050201416e-01 3.182196378707885742e+00 1.098525047302246094e+00 7.873185873031616211e-01
2.938000000000000000e+03 7.419004058837890625e+01 3.354461669921875000e+01 1.206778287887573242e-01 3.952314615249633789e+00 1.221897721290588379e+00 -2.711321413516998291e-01
2.939000000000000000e+03 7.275115203857421875e+01 3.297077941894531250e+01 1.695711165666580200e-01 3.690326213836669922e+00 1.157969236373901367e+00 -3.555620610713958740e-01
2.940000000000000000e+03 6.498229217529296875e+01 4.577600002288818359e+00 -3.751001954078674316e-01 4.059310853481292725e-01 9.249269962310791016e-03 -3.443034589290618896e-01
2.941000000000000000e+03 7.254468536376953125e+01 -3.527220535278320312e+01 3.068727850914001465e-01 3.894524812698364258e+00 1.260419249534606934e+00 5.272589921951293945e-01
2.942000000000000000e+03 3.682186508178710938e+01 1.677707099914550781e+01 2.756166160106658936e-01 -6.353994011878967285e-01 -1.079348325729370117e-01 4.919967055320739746e-01
2.943000000000000000e+03 7.432183837890625000e+01 7.312545299530029297e+00 -2.564517855644226074e-01 5.275129795074462891e+00 1.505603313446044922e+00 -1.044628977775573730e+00
2.944000000000000000e+03 7.297393798828125000e+01 5.661837577819824219e+00 -2.515852265059947968e-02 3.344339370727539062e+00 9.957542419433593750e-01 -7.360182404518127441e-01
2.945000000000000000e+03 7.069786071777343750e+01 6.221029281616210938e+00 1.446653455495834351e-01 7.276198863983154297e-01 2.616855502128601074e-01 -1.689800918102264404e-01
2.946000000000000000e+03 7.286628723144531250e+01 7.283340930938720703e+00 -2.678693234920501709e-01 3.640760898590087891e+00 1.011867403984069824e+00 -6.457450985908508301e-01
2.947000000000000000e+03 7.340151214599609375e+01 3.182646369934082031e+01 1.425469964742660522e-01 3.856981754302978516e+00 1.199858665466308594e+00 -3.618495464324951172e-01
2.948000000000000000e+03 4.366912841796875000e+01 -1.898223686218261719e+01 -8.150137960910797119e-02 -1.859366744756698608e-01 -8.023141324520111084e-02 -4.864554107189178467e-01
2.949000000000000000e+03 4.306673812866210938e+01 -2.065381050109863281e+01 1.743486225605010986e-01 -1.612394303083419800e-01 3.932759165763854980e-03 -6.211181282997131348e-01
2.950000000000000000e+03 6.126959323883056641e+00 -2.885276985168457031e+01 -5.886368826031684875e-02 -7.703488320112228394e-02 -4.076956957578659058e-02 -3.886321559548377991e-02
2.951000000000000000e+03 3.790141582489013672e+00 -1.022569084167480469e+01 -1.195310964249074459e-03 -3.386989980936050415e-02 -1.051956228911876678e-02 3.439225256443023682e-03
2.952000000000000000e+03 5.803675842285156250e+01 -1.757658386230468750e+01 3.315204977989196777e-01 -1.507611870765686035e-01 5.422779917716979980e-02 -2.622407376766204834e-01
2.953000000000000000e+03 5.900681686401367188e+01 -1.325095176696777344e+01 -1.147508621215820312e+00 -3.007397055625915527e-01 -4.344744980335235596e-01 -1.024658884853124619e-02
2.954000000000000000e+03 3.389215946197509766e+00 -2.249020195007324219e+01 4.696831852197647095e-02 -9.242673963308334351e-02 -1.363752689212560654e-02 -2.569760009646415710e-02
2.955000000000000000e+03 1.937124443054199219e+01 -2.113924598693847656e+01 -1.622232198715209961e-01 2.585329487919807434e-02 -4.091097787022590637e-02 -2.332533746957778931e-01
2.956000000000000000e+03 1.049890708923339844e+01 -3.117543792724609375e+01 -1.126320362091064453e-01 -1.747083961963653564e-01 -8.620212972164154053e-02 -1.188982352614402771e-01
2.957000000000000000e+03 3.975687503814697266e+00 1.603198051452636719e+01 6.206240504980087280e-02 -1.819224804639816284e-01 -3.595802187919616699e-02 6.401940435171127319e-02
2.958000000000000000e+03 8.671303749084472656e+00 1.941380882263183594e+01 8.532635867595672607e-02 -1.010154336690902710e-01 -4.706720821559429169e-03 9.144260734319686890e-02
2.959000000000000000e+03 4.051895141601562500e+00 2.029200553894042969e+01 3.114702180027961731e-02 -2.433982342481613159e-01 -6.367536634206771851e-02 -1.646179705858230591e-02
2.960000000000000000e+03 5.329980373382568359e+00 2.094975090026855469e+01 1.201892551034688950e-02 -2.715857923030853271e-01 -7.787006348371505737e-02 4.459938500076532364e-03
2.961000000000000000e+03 6.026598930358886719e+00 1.900704765319824219e+01 8.059483766555786133e-02 -2.250872403383255005e-01 -4.334772005677223206e-02 3.386457264423370361e-02
2.962000000000000000e+03 2.555540847778320312e+01 1.033245849609375000e+01 2.047653049230575562e-01 -1.652635633945465088e-02 5.647168681025505066e-02 9.629574418067932129e-02
2.963000000000000000e+03 5.970176696777343750e+01 1.839121437072753906e+01 1.245100125670433044e-01 9.794635176658630371e-01 3.311920464038848877e-01 1.766918040812015533e-02
2.964000000000000000e+03 5.955467224121093750e+01 1.966976928710937500e+01 1.591672599315643311e-01 7.803757190704345703e-01 2.818628847599029541e-01 5.452356487512588501e-02
2.965000000000000000e+03 5.845556640625000000e+01 1.579930973052978516e+01 1.796520799398422241e-01 9.376441836357116699e-01 3.351888656616210938e-01 -1.270071417093276978e-01
2.966000000000000000e+03 5.716311645507812500e+01 1.708790016174316406e+01 1.895798891782760620e-01 5.518674850463867188e-01 2.224342077970504761e-01 -2.040334939956665039e-01
2.967000000000000000e+03 7.426138401031494141e+00 -3.176268768310546875e+01 -6.487764418125152588e-02 -1.150545254349708557e-01 -5.397965013980865479e-02 -9.736247360706329346e-02
2.968000000000000000e+03 4.135491847991943359e+00 1.496862316131591797e+01 6.182971596717834473e-02 -1.545703113079071045e-01 -2.782217785716056824e-02 1.062760204076766968e-01
2.969000000000000000e+03 5.668250560760498047e+00 1.457037544250488281e+01 8.517733216285705566e-02 -1.336246430873870850e-01 -1.453419495373964310e-02 1.429797708988189697e-01
2.970000000000000000e+03 5.729000473022460938e+01 1.305395126342773438e+01 1.432210654020309448e-01 5.926637649536132812e-01 2.207654565572738647e-01 -2.713746763765811920e-02
2.971000000000000000e+03 7.662913513183593750e+01 -1.371275424957275391e+01 -5.173168182373046875e-01 8.724095344543457031e+00 2.462033510208129883e+00 5.372825860977172852e-01
2.972000000000000000e+03 4.117794513702392578e+00 9.372428894042968750e+00 -5.827415362000465393e-02 -3.648026660084724426e-02 -2.842632681131362915e-02 8.934300392866134644e-02
2.973000000000000000e+03 5.998018741607666016e+00 8.934665679931640625e+00 -1.069200113415718079e-01 -4.423428699374198914e-02 -4.534628987312316895e-02 9.953476488590240479e-02
2.974000000000000000e+03 7.369589233398437500e+01 3.494533920288085938e+01 1.184233576059341431e-01 3.813915967941284180e+00 1.179701805114746094e+00 -2.309674918651580811e-01
2.975000000000000000e+03 7.056052398681640625e+01 3.344918823242187500e+01 2.694723606109619141e-01 3.195954561233520508e+00 1.039628028869628906e+00 -3.770022094249725342e-01
2.976000000000000000e+03 4.837891578674316406e+00 -7.832458019256591797e+00 8.840640075504779816e-03 -3.037524595856666565e-02 -6.460382137447595596e-03 -2.805870724841952324e-03
2.977000000000000000e+03 3.492676019668579102e+00 7.337374210357666016e+00 -4.997677728533744812e-02 -5.585462320595979691e-03 -1.666867174208164215e-02 2.938646264374256134e-02
2.978000000000000000e+03 6.899778842926025391e+00 8.173933029174804688e+00 -1.484914869070053101e-01 -5.240199714899063110e-02 -6.026804447174072266e-02 8.769918978214263916e-02
2.979000000000000000e+03 4.038097381591796875e+00 5.900259971618652344e+00 -5.189336091279983521e-02 -4.644677042961120605e-03 -1.696141064167022705e-02 8.062665350735187531e-03
2.980000000000000000e+03 4.431713581085205078e+00 7.513086318969726562e+00 -7.011375576257705688e-02 -1.378386933356523514e-02 -2.516928687691688538e-02 3.803908079862594604e-02
2.981000000000000000e+03 5.177418136596679688e+01 2.416010284423828125e+01 2.755972743034362793e-01 4.293394982814788818e-01 2.114810347557067871e-01 7.248003035783767700e-02
2.982000000000000000e+03 7.572338867187500000e+01 2.227499246597290039e+00 -3.499214947223663330e-01 6.807934761047363281e+00 1.937403917312622070e+00 -1.118935942649841309e+00
2.983000000000000000e+03 4.785441875457763672e+00 -6.618842124938964844e+00 2.439948963001370430e-03 -2.531025558710098267e-02 -6.861091591417789459e-03 -6.795530207455158234e-03
2.984000000000000000e+03 4.668139934539794922e+00 -5.538826942443847656e+00 5.785508546978235245e-03 -1.485965121537446976e-02 -2.722242614254355431e-03 -3.482624888420104980e-03
2.985000000000000000e+03 3.703402996063232422e+00 -5.606693267822265625e+00 1.451609656214714050e-03 -1.449652947485446930e-02 -3.913475666195154190e-03 -2.258921274915337563e-03
2.986000000000000000e+03 7.315924072265625000e+01 -3.384088134765625000e+01 2.411123961210250854e-01 4.188496112823486328e+00 1.328882455825805664e+00 6.324483752250671387e-01
2.987000000000000000e+03 4.230410766601562500e+01 -1.814653015136718750e+01 -3.252999112010002136e-02 -1.411812156438827515e-01 -5.211336165666580200e-02 -3.775354325771331787e-01
2.988000000000000000e+03 4.974820327758789062e+01 2.064881515502929688e+01 3.275989294052124023e-01 1.102106347680091858e-01 1.313428729772567749e-01 1.661781966686248779e-01
2.989000000000000000e+03 2.407779502868652344e+01 1.192056941986083984e+01 6.606364250183105469e-02 -1.366300731897354126e-01 -2.116993255913257599e-02 5.827948078513145447e-02
2.990000000000000000e+03 2.279911041259765625e+01 8.561603546142578125e+00 1.885982155799865723e-01 -1.604930311441421509e-01 8.431553840637207031e-03 1.090920716524124146e-01
2.991000000000000000e+03 4.812827682495117188e+01 3.653304672241210938e+01 5.021362304687500000e-01 2.132183611392974854e-01 2.146063894033432007e-01 -9.295197669416666031e-04
2.992000000000000000e+03 6.735516548156738281e+00 -1.164934730529785156e+01 -2.522943913936614990e-02 -7.675852626562118530e-02 -3.059639036655426025e-02 -2.313352935016155243e-02
2.993000000000000000e+03 6.434123229980468750e+01 -1.451644897460937500e+01 -8.765544891357421875e-01 9.289999604225158691e-01 1.573364250361919403e-02 -6.626983731985092163e-02
2.994000000000000000e+03 6.361178588867187500e+01 -1.350265598297119141e+01 -1.278597950935363770e+00 8.225136399269104004e-01 -1.368252933025360107e-01 -3.322338685393333435e-02
2.995000000000000000e+03 6.229433822631835938e+01 -1.159842872619628906e+01 -1.626843094825744629e+00 5.629578232765197754e-01 -3.191655874252319336e-01 1.586687117815017700e-01
2.996000000000000000e+03 2.944365501403808594e+01 3.134107398986816406e+01 1.771544516086578369e-01 -4.406941235065460205e-01 -7.906190305948257446e-02 3.522073626518249512e-01
2.997000000000000000e+03 6.585527038574218750e+01 -1.315207195281982422e+01 -1.831814885139465332e+00 6.088221073150634766e-01 -3.668978512287139893e-01 1.983561366796493530e-01
2.998000000000000000e+03 3.614578628540039062e+01 1.522133922576904297e+01 8.123914897441864014e-02 -6.656137108802795410e-01 -1.753123700618743896e-01 5.015564560890197754e-01
2.999000000000000000e+03 6.036346435546875000e+01 -2.359701538085937500e+01 3.661790490150451660e-01 4.380276799201965332e-01 2.412620186805725098e-01 8.937030285596847534e-02
3.000000000000000000e+03 3.452993392944335938e+01 -1.015778923034667969e+01 -3.810204332694411278e-03 3.330339118838310242e-02 8.847956545650959015e-03 -1.101537570357322693e-01
3.001000000000000000e+03 5.156097030639648438e+01 2.057753944396972656e+01 2.851411998271942139e-01 1.152921840548515320e-01 1.201300173997879028e-01 2.666329033672809601e-02
3.002000000000000000e+03 5.366536712646484375e+01 2.211179351806640625e+01 2.746414244174957275e-01 3.481501638889312744e-01 1.868374794721603394e-01 -1.336042433977127075e-01
3.003000000000000000e+03 2.073574638366699219e+01 -1.757789993286132812e+01 -1.835940331220626831e-01 -3.023226559162139893e-02 -6.414788961410522461e-02 -2.166154235601425171e-01
3.004000000000000000e+03 6.127427291870117188e+01 -1.722991371154785156e+01 2.261160910129547119e-01 3.513817787170410156e-01 1.732493638992309570e-01 -1.002239435911178589e-01
3.005000000000000000e+03 6.051120376586914062e+01 -2.248778724670410156e+01 3.732437193393707275e-01 5.026746392250061035e-01 2.627755105495452881e-01 2.390508912503719330e-02
3.006000000000000000e+03 1.064120674133300781e+01 -2.690799140930175781e+01 -5.939893797039985657e-02 -1.372840404510498047e-01 -5.900489538908004761e-02 -1.070105135440826416e-01
3.007000000000000000e+03 4.783472824096679688e+01 2.100411415100097656e+01 3.893742561340332031e-01 2.688103914260864258e-01 1.974554061889648438e-01 2.538907527923583984e-01
3.008000000000000000e+03 1.955712127685546875e+01 -2.239539337158203125e+01 -9.280562400817871094e-02 2.663488313555717468e-02 -1.985122263431549072e-02 -2.130398750305175781e-01
3.009000000000000000e+03 4.898800659179687500e+01 2.774355316162109375e+01 1.187553778290748596e-01 4.633148014545440674e-01 1.746210604906082153e-01 2.305434197187423706e-01
3.010000000000000000e+03 5.631169128417968750e+01 -1.371309661865234375e+01 -8.324234485626220703e-01 -2.097650319337844849e-01 -3.126565515995025635e-01 -3.020018935203552246e-01
3.011000000000000000e+03 2.571441459655761719e+01 3.574747467041015625e+01 1.563092768192291260e-01 -2.141639143228530884e-01 -1.735639199614524841e-02 1.640860587358474731e-01
3.012000000000000000e+03 5.826700973510742188e+01 4.303267002105712891e+00 -7.786086201667785645e-01 -8.660309016704559326e-02 -2.595635056495666504e-01 5.440492555499076843e-02
3.013000000000000000e+03 1.917185974121093750e+01 -1.790888595581054688e+01 -1.383515596389770508e-01 -2.042047679424285889e-02 -4.763161018490791321e-02 -2.514220476150512695e-01
3.014000000000000000e+03 2.165850067138671875e+01 -1.822752571105957031e+01 -1.754426807165145874e-01 -3.739150241017341614e-02 -6.385025382041931152e-02 -2.279003709554672241e-01
3.015000000000000000e+03 4.214097595214843750e+01 1.149005222320556641e+01 -4.811445474624633789e-01 -1.632985323667526245e-01 -1.933329254388809204e-01 5.282284021377563477e-01
3.016000000000000000e+03 6.974223327636718750e+01 3.687095642089843750e+00 1.864472031593322754e-01 6.570604443550109863e-02 7.564597576856613159e-02 -3.630596995353698730e-01
3.017000000000000000e+03 6.113442230224609375e+01 -1.485542011260986328e+01 -6.222162842750549316e-01 3.523449301719665527e-01 -8.096142113208770752e-02 -1.308839023113250732e-01
3.018000000000000000e+03 9.443604469299316406e+00 -3.020638656616210938e+01 -1.032222136855125427e-01 -1.304014772176742554e-01 -7.008710503578186035e-02 -1.017117500305175781e-01
3.019000000000000000e+03 7.020018005371093750e+01 5.200826644897460938e+00 2.120141088962554932e-01 3.067832887172698975e-01 1.556392163038253784e-01 -2.924635410308837891e-01
3.020000000000000000e+03 7.217923736572265625e+01 6.402255058288574219e+00 -1.018312647938728333e-01 2.576208829879760742e+00 7.423132658004760742e-01 -4.950406253337860107e-01
3.021000000000000000e+03 7.098005676269531250e+01 4.554275989532470703e+00 2.678108811378479004e-01 9.079145193099975586e-01 3.527176082134246826e-01 -3.176384270191192627e-01
3.022000000000000000e+03 6.886159515380859375e+01 -3.214896011352539062e+01 5.943403244018554688e-01 2.289786577224731445e+00 8.652380704879760742e-01 3.652840852737426758e-01
3.023000000000000000e+03 5.633813858032226562e+01 1.775495910644531250e+01 1.967135965824127197e-01 3.917147517204284668e-01 1.765284985303878784e-01 -2.060080319643020630e-01
3.024000000000000000e+03 2.827283477783203125e+01 -3.239892578125000000e+01 3.048228099942207336e-02 -9.582391381263732910e-02 -1.960249058902263641e-02 -1.369068920612335205e-01
3.025000000000000000e+03 2.875605201721191406e+01 -3.027243041992187500e+01 1.223246604204177856e-01 -5.970656499266624451e-02 1.878543011844158173e-02 -1.449453383684158325e-01
3.026000000000000000e+03 2.900811004638671875e+01 -3.517916870117187500e+01 4.775860160589218140e-02 -1.153751611709594727e-01 -2.028496749699115753e-02 -1.133274510502815247e-01
3.027000000000000000e+03 7.800162792205810547e+00 1.601372718811035156e+01 1.878744512796401978e-01 -1.183713525533676147e-01 2.085093036293983459e-02 1.302977949380874634e-01
3.028000000000000000e+03 6.588386535644531250e+00 1.625895881652832031e+01 1.404225379228591919e-01 -1.486176103353500366e-01 -2.458521863445639610e-03 1.195169389247894287e-01
3.029000000000000000e+03 1.062343311309814453e+01 2.144974327087402344e+01 -5.065595358610153198e-02 -5.273647606372833252e-02 -3.101772814989089966e-02 2.035141438245773315e-01
3.030000000000000000e+03 4.613874816894531250e+01 3.557349395751953125e+01 4.987034201622009277e-01 3.330970928072929382e-02 1.596039384603500366e-01 -3.298980742692947388e-02
3.031000000000000000e+03 5.041077423095703125e+01 -1.265514087677001953e+01 -7.396327257156372070e-01 9.596216678619384766e-02 -1.931011676788330078e-01 -5.903298258781433105e-01
3.032000000000000000e+03 5.308687591552734375e+01 3.807572937011718750e+01 5.986356735229492188e-01 4.834295213222503662e-01 3.246195614337921143e-01 1.112374663352966309e-01
3.033000000000000000e+03 1.785198783874511719e+01 -1.319344139099121094e+01 -7.733979076147079468e-02 4.630044847726821899e-02 -9.311802685260772705e-03 1.007575448602437973e-02
3.034000000000000000e+03 5.146579742431640625e+01 2.568566131591796875e+01 2.507857680320739746e-01 5.645398497581481934e-01 2.445976734161376953e-01 1.176279857754707336e-01
3.035000000000000000e+03 2.641965866088867188e+01 3.822402572631835938e+01 2.658354640007019043e-01 -2.514152824878692627e-01 4.326052032411098480e-03 1.037256717681884766e-01
3.036000000000000000e+03 7.112194824218750000e+01 -3.443208312988281250e+01 4.233886599540710449e-01 3.370691061019897461e+00 1.138223886489868164e+00 5.788769721984863281e-01
3.037000000000000000e+03 7.202046966552734375e+01 4.119745635986328125e+01 1.669352501630783081e-01 3.478964328765869141e+00 1.093769907951354980e+00 -3.308963403105735779e-02
3.038000000000000000e+03 7.345128631591796875e+01 3.657300567626953125e+01 1.441930830478668213e-01 3.757151842117309570e+00 1.170403480529785156e+00 -1.884400695562362671e-01
3.039000000000000000e+03 5.836964035034179688e+01 1.699188995361328125e+01 1.836387217044830322e-01 8.609790205955505371e-01 3.133853375911712646e-01 -1.452182829380035400e-01
3.040000000000000000e+03 2.551549339294433594e+01 -2.599299812316894531e+01 2.548470199108123779e-01 -1.172991916537284851e-01 4.126434773206710815e-02 -1.068155318498611450e-01
3.041000000000000000e+03 6.791295623779296875e+01 3.130942916870117188e+01 3.565404713153839111e-01 2.703143835067749023e+00 9.179052710533142090e-01 -4.307016432285308838e-01
3.042000000000000000e+03 8.486825942993164062e+00 -3.239839935302734375e+01 -7.276161760091781616e-02 -1.342059373855590820e-01 -6.209026649594306946e-02 -1.179245412349700928e-01
3.043000000000000000e+03 4.845248794555664062e+01 2.471053695678710938e+01 3.023352324962615967e-01 3.240748941898345947e-01 1.879230439662933350e-01 2.944839894771575928e-01
3.044000000000000000e+03 4.838440704345703125e+01 2.363591003417968750e+01 3.653233647346496582e-01 2.958611249923706055e-01 1.983553469181060791e-01 2.837872505187988281e-01
3.045000000000000000e+03 7.597466278076171875e+01 -3.465527772903442383e+00 -1.128382086753845215e+00 9.698382377624511719e+00 2.571000099182128906e+00 -2.302737712860107422e+00
3.046000000000000000e+03 7.684538269042968750e+01 -3.753474235534667969e+00 -2.399983406066894531e+00 1.459787940979003906e+01 3.659368753433227539e+00 -1.077903032302856445e+00
3.047000000000000000e+03 7.536474609375000000e+01 -1.957634925842285156e+00 -1.272508740425109863e+00 6.746233940124511719e+00 1.642117619514465332e+00 -1.409051179885864258e+00
3.048000000000000000e+03 7.763957977294921875e+00 -6.639508724212646484e+00 8.112240582704544067e-03 -3.303510695695877075e-02 -7.476860191673040390e-03 -2.375854738056659698e-02
3.049000000000000000e+03 6.817253589630126953e+00 -5.662194252014160156e+00 1.080694980919361115e-02 -2.466099895536899567e-02 -4.156215116381645203e-03 -1.528158038854598999e-02
3.050000000000000000e+03 7.330444335937500000e+00 -4.739514827728271484e+00 4.978270735591650009e-03 -1.812793500721454620e-02 -3.944898955523967743e-03 -1.462603732943534851e-02
3.051000000000000000e+03 6.704422950744628906e+00 -4.874890804290771484e+00 -3.264004131779074669e-03 -2.340899780392646790e-02 -8.001900278031826019e-03 -1.942551694810390472e-02
3.052000000000000000e+03 5.975400447845458984e+00 -5.682093620300292969e+00 2.980375429615378380e-04 -2.430550009012222290e-02 -7.202239241451025009e-03 -1.303978450596332550e-02
3.053000000000000000e+03 6.075953960418701172e+00 7.366714477539062500e+00 -1.074411571025848389e-01 -3.050286322832107544e-02 -4.138320684432983398e-02 5.218034982681274414e-02
3.054000000000000000e+03 6.239357948303222656e+00 6.101252555847167969e+00 -9.748860448598861694e-02 -2.263545989990234375e-02 -3.603722155094146729e-02 2.140475995838642120e-02
3.055000000000000000e+03 9.732365608215332031e+00 -6.352474689483642578e+00 8.801986463367938995e-03 -2.524210326373577118e-02 -4.932035226374864578e-03 -3.028877079486846924e-02
3.056000000000000000e+03 2.279801940917968750e+01 5.767702102661132812e+00 3.359303576871752739e-03 -1.377857178449630737e-01 -4.032792523503303528e-02 1.322235614061355591e-01
3.057000000000000000e+03 2.366076087951660156e+01 5.789904594421386719e+00 3.538502380251884460e-02 -1.115006804466247559e-01 -2.283469773828983307e-02 1.347480267286300659e-01
3.058000000000000000e+03 2.464981651306152344e+01 7.048680305480957031e+00 1.530456840991973877e-01 -8.708691596984863281e-02 1.978763192892074585e-02 1.291559189558029175e-01
3.059000000000000000e+03 5.990459442138671875e+01 -3.331069350242614746e-01 -2.143806695938110352e+00 4.045413807034492493e-02 -6.310057640075683594e-01 6.693606376647949219e-01
3.060000000000000000e+03 6.022103500366210938e+01 2.046624183654785156e+00 -1.703187584877014160e+00 1.766670495271682739e-01 -4.579561650753021240e-01 2.638112381100654602e-02
3.061000000000000000e+03 6.905123138427734375e+01 3.676869153976440430e+00 1.587802916765213013e-01 -2.255331128835678101e-01 -2.002584561705589294e-02 -1.750801503658294678e-01
3.062000000000000000e+03 1.216962242126464844e+01 -4.867639064788818359e+00 4.712332971394062042e-03 -1.516280113719403744e-03 9.588158573023974895e-04 -3.186851367354393005e-02
3.063000000000000000e+03 1.366290569305419922e+01 -5.669978141784667969e+00 1.377142127603292465e-02 2.066464535892009735e-02 1.033082045614719391e-02 -2.126487344503402710e-02
3.064000000000000000e+03 6.344294357299804688e+01 2.127407073974609375e+00 -1.288482546806335449e+00 4.833079874515533447e-01 -2.415523529052734375e-01 3.084067255258560181e-02
3.065000000000000000e+03 1.135369491577148438e+01 -3.827148199081420898e+00 -4.228409088682383299e-04 -4.569416400045156479e-03 -1.497677178122103214e-03 -2.370703965425491333e-02
3.066000000000000000e+03 1.157283020019531250e+01 -5.502525806427001953e+00 1.171219744719564915e-03 -2.049939148128032684e-02 -5.798451136797666550e-03 -3.778653964400291443e-02
3.067000000000000000e+03 8.958933830261230469e+00 -6.044843673706054688e+00 6.054839119315147400e-03 -2.880629152059555054e-02 -6.825435440987348557e-03 -3.188521787524223328e-02
3.068000000000000000e+03 1.235956001281738281e+01 -7.492611408233642578e+00 7.725870702415704727e-03 1.426122337579727173e-02 6.596127990633249283e-03 -3.019558824598789215e-02
3.069000000000000000e+03 6.092030715942382812e+01 1.237076759338378906e+00 -1.793300271034240723e+00 3.185033798217773438e-01 -4.424390792846679688e-01 1.801423281431198120e-01
3.070000000000000000e+03 3.258268737792968750e+01 -8.295892715454101562e+00 -3.088408149778842926e-02 -1.508990526199340820e-01 -5.453493818640708923e-02 -1.768795251846313477e-01
3.071000000000000000e+03 1.166477108001708984e+01 -8.288392066955566406e+00 -7.489166222512722015e-03 -1.000916399061679840e-02 -5.249499343335628510e-03 -3.182638064026832581e-02
3.072000000000000000e+03 1.289120674133300781e+01 -1.001549434661865234e+01 -2.214502170681953430e-02 3.115200065076351166e-02 2.702093683183193207e-03 -2.759351395070552826e-02
3.073000000000000000e+03 7.567906188964843750e+01 -1.526533317565917969e+01 -7.279846072196960449e-01 6.696687221527099609e+00 1.790610790252685547e+00 7.664013504981994629e-01
3.074000000000000000e+03 2.791784286499023438e+01 -2.772124671936035156e+01 2.596090734004974365e-01 -9.837495535612106323e-02 4.837023839354515076e-02 -1.330481022596359253e-01
3.075000000000000000e+03 7.523175048828125000e+01 -2.582799911499023438e+01 3.758773207664489746e-01 6.921749591827392578e+00 2.189288139343261719e+00 7.614585757255554199e-01
3.076000000000000000e+03 4.521026611328125000e+00 -4.622347831726074219e+00 -7.071453146636486053e-04 -1.557617448270320892e-02 -4.884995985776185989e-03 -7.126350887119770050e-03
3.077000000000000000e+03 6.980888366699218750e+01 2.933804750442504883e+00 6.207277998328208923e-02 -2.523973584175109863e-01 -5.709737166762351990e-02 -1.750340014696121216e-01
3.078000000000000000e+03 5.843162536621093750e+01 2.225250434875488281e+01 3.408769369125366211e-01 2.464957386255264282e-01 1.762118041515350342e-01 -1.917219161987304688e-02
3.079000000000000000e+03 5.779549789428710938e+01 2.033936500549316406e+01 2.505967319011688232e-01 5.137417912483215332e-01 2.293015569448471069e-01 -1.007839143276214600e-01
3.080000000000000000e+03 2.563829040527343750e+01 8.014881134033203125e+00 2.129892557859420776e-01 -2.324945107102394104e-02 5.692194402217864990e-02 1.264619231224060059e-01
3.081000000000000000e+03 5.840462493896484375e+01 1.820966339111328125e+01 1.856339275836944580e-01 7.508686780929565430e-01 2.809507846832275391e-01 -1.127610579133033752e-01
3.082000000000000000e+03 8.485260009765625000e+00 6.641950130462646484e+00 -1.667526513338088989e-01 -8.033905923366546631e-02 -7.412751019001007080e-02 6.138949096202850342e-02
3.083000000000000000e+03 4.342164230346679688e+01 -1.790346908569335938e+01 -2.296017408370971680e-01 -1.632100492715835571e-01 -1.178435385227203369e-01 -3.634545803070068359e-01
3.084000000000000000e+03 7.795793056488037109e+00 -3.002780914306640625e+01 -8.675698190927505493e-02 -9.874089062213897705e-02 -5.564936250448226929e-02 -8.192347735166549683e-02
3.085000000000000000e+03 1.308579063415527344e+01 -6.587625980377197266e+00 -1.332010491751134396e-03 5.305690690875053406e-03 1.192103954963386059e-03 -2.443071082234382629e-02
3.086000000000000000e+03 7.364112091064453125e+01 2.219679641723632812e+01 -1.115215942263603210e-01 4.740599155426025391e+00 1.388723373413085938e+00 -6.620927453041076660e-01
3.087000000000000000e+03 3.522640609741210938e+01 1.752290725708007812e+01 3.334477543830871582e-01 -5.351746082305908203e-01 -6.051805987954139709e-02 5.387358665466308594e-01
3.088000000000000000e+03 9.789794921875000000e+00 1.913199806213378906e+01 1.104788929224014282e-01 2.603631652891635895e-02 4.095456376671791077e-02 1.305579543113708496e-01
3.089000000000000000e+03 3.862941741943359375e+01 1.647170639038085938e+01 2.052695900201797485e-01 -5.766560435295104980e-01 -1.114159375429153442e-01 4.007025659084320068e-01
3.090000000000000000e+03 3.938957214355468750e+01 1.769300079345703125e+01 3.004992008209228516e-01 -4.462319910526275635e-01 -4.371983557939529419e-02 3.872473239898681641e-01
3.091000000000000000e+03 7.385029602050781250e+01 1.220795249938964844e+01 3.645214736461639404e-01 6.247632026672363281e+00 1.983646035194396973e+00 -1.498791575431823730e+00
3.092000000000000000e+03 4.773977279663085938e+00 -1.000932884216308594e+01 2.880727406591176987e-03 -4.329394176602363586e-02 -1.212396379560232162e-02 -3.281322540715336800e-03
3.093000000000000000e+03 6.069782257080078125e+01 4.786056041717529297e+00 -5.693959593772888184e-01 3.156457841396331787e-01 -7.612505555152893066e-02 -1.375447213649749756e-01
3.094000000000000000e+03 2.261034393310546875e+01 -1.881478500366210938e+01 -1.795415729284286499e-01 -5.661261826753616333e-02 -7.084625959396362305e-02 -2.036745697259902954e-01
3.095000000000000000e+03 7.478686523437500000e+01 4.762583255767822266e+00 2.105407416820526123e-03 5.386632919311523438e+00 1.616621494293212891e+00 -1.090921640396118164e+00
3.096000000000000000e+03 6.275946807861328125e+01 -2.165667343139648438e+01 4.334408640861511230e-01 1.171637296676635742e+00 4.815234243869781494e-01 8.411963284015655518e-02
3.097000000000000000e+03 2.619355010986328125e+01 1.182016277313232422e+01 9.140876680612564087e-02 -1.757993712089955807e-03 2.689523249864578247e-02 1.028754636645317078e-01
3.098000000000000000e+03 2.419154357910156250e+01 9.275104522705078125e+00 2.090393453836441040e-01 -1.248204708099365234e-01 2.526566386222839355e-02 9.561651200056076050e-02
3.099000000000000000e+03 3.465290069580078125e+01 -9.083665847778320312e+00 2.377531677484512329e-02 8.891484886407852173e-02 3.380705043673515320e-02 -1.615879535675048828e-01
3.100000000000000000e+03 3.379059982299804688e+01 -7.982528209686279297e+00 2.670295163989067078e-02 -9.141000919044017792e-03 5.268585402518510818e-03 -2.026534229516983032e-01
3.101000000000000000e+03 5.641079330444335938e+01 2.089040756225585938e+01 2.827310860157012939e-01 3.623582124710083008e-01 1.935267895460128784e-01 -2.018211036920547485e-01
3.102000000000000000e+03 6.576095581054687500e+01 2.849754095077514648e+00 -8.154140114784240723e-01 2.309085875749588013e-01 -1.753516197204589844e-01 -9.592860937118530273e-02
3.103000000000000000e+03 6.656473541259765625e+01 3.450154781341552734e+00 -4.845171868801116943e-01 7.125953584909439087e-02 -1.239772886037826538e-01 -1.778480857610702515e-01
3.104000000000000000e+03 2.662902641296386719e+01 -2.409572601318359375e+01 1.399997323751449585e-01 -1.105762049555778503e-01 8.827055804431438446e-03 -1.293338686227798462e-01
3.105000000000000000e+03 2.554315567016601562e+01 -2.370061874389648438e+01 1.154231652617454529e-01 -8.947847038507461548e-02 7.783407811075448990e-03 -1.357676237821578979e-01
3.106000000000000000e+03 4.167885971069335938e+01 -1.623388671875000000e+01 -3.587542772293090820e-01 -1.325951665639877319e-01 -1.474048346281051636e-01 -1.908232569694519043e-01
3.107000000000000000e+03 7.214115142822265625e+01 -3.322667312622070312e+01 3.337764441967010498e-01 3.717663288116455078e+00 1.215431928634643555e+00 7.166074514389038086e-01
3.108000000000000000e+03 7.323162841796875000e+01 -3.262608718872070312e+01 2.036182284355163574e-01 4.261117935180664062e+00 1.339420914649963379e+00 7.589748501777648926e-01
3.109000000000000000e+03 5.138782882690429688e+01 -1.179951381683349609e+01 -8.552833199501037598e-01 1.185679435729980469e-01 -2.210146188735961914e-01 -5.554210543632507324e-01
3.110000000000000000e+03 7.448499298095703125e+01 2.461820602416992188e+01 -7.805335521697998047e-02 4.591231822967529297e+00 1.353953480720520020e+00 -5.144958496093750000e-01
3.111000000000000000e+03 7.435091400146484375e+01 2.590542602539062500e+01 -7.598937954753637314e-03 4.437070369720458984e+00 1.328841328620910645e+00 -5.296398401260375977e-01
3.112000000000000000e+03 7.437355041503906250e+01 2.717910957336425781e+01 1.956150494515895844e-02 4.318645954132080078e+00 1.301462292671203613e+00 -4.828083217144012451e-01
3.113000000000000000e+03 7.185688018798828125e+01 2.653973197937011719e+01 9.261949360370635986e-02 3.647066116333007812e+00 1.121905684471130371e+00 -6.639623641967773438e-01
3.114000000000000000e+03 7.290789031982421875e+01 2.345388984680175781e+01 -8.719243109226226807e-02 4.276821136474609375e+00 1.256888628005981445e+00 -7.315695285797119141e-01
3.115000000000000000e+03 6.958114624023437500e+01 2.273610115051269531e+01 1.294978260993957520e-01 2.879261493682861328e+00 9.026278257369995117e-01 -1.032260894775390625e+00
3.116000000000000000e+03 7.239763641357421875e+01 4.684112071990966797e+00 1.499832272529602051e-01 2.388791084289550781e+00 7.616322636604309082e-01 -6.505739092826843262e-01
3.117000000000000000e+03 2.291495513916015625e+01 -2.394868850708007812e+01 8.661209791898727417e-02 -6.228606798686087132e-04 2.579677104949951172e-02 -1.193158179521560669e-01
3.118000000000000000e+03 2.178557014465332031e+01 -2.316096878051757812e+01 -6.456895731389522552e-03 4.530344903469085693e-02 1.165396627038717270e-02 -1.580980420112609863e-01
3.119000000000000000e+03 3.932848739624023438e+01 1.524931812286376953e+01 6.449750065803527832e-02 -5.378084778785705566e-01 -1.419932991266250610e-01 3.540448248386383057e-01
3.120000000000000000e+03 5.244027614593505859e+00 -2.805016708374023438e+01 -4.135121032595634460e-02 -7.486979663372039795e-02 -3.486630320549011230e-02 -2.115139551460742950e-02
3.121000000000000000e+03 5.952039718627929688e+00 -2.688988685607910156e+01 -3.346106782555580139e-02 -5.039447918534278870e-02 -2.515666373074054718e-02 -1.741845160722732544e-02
3.122000000000000000e+03 5.733856964111328125e+01 -1.701602363586425781e+01 2.460323125123977661e-01 -1.425117999315261841e-01 3.105615451931953430e-02 -2.231527864933013916e-01
3.123000000000000000e+03 6.382537841796875000e+00 -8.803058624267578125e+00 9.238517843186855316e-03 -4.593563452363014221e-02 -1.100913435220718384e-02 -1.265989337116479874e-02
3.124000000000000000e+03 5.442719459533691406e+00 -3.190632247924804688e+01 -4.226072877645492554e-02 -1.216804310679435730e-01 -4.918234795331954956e-02 -7.189595699310302734e-02
3.125000000000000000e+03 6.427692413330078125e+01 -9.562065124511718750e+00 -1.297238469123840332e+00 3.284169137477874756e-01 -2.906464934349060059e-01 3.462385237216949463e-01
3.126000000000000000e+03 8.362150192260742188e+00 1.829735565185546875e+01 1.561906635761260986e-01 -1.010106727480888367e-01 1.655399799346923828e-02 9.259420633316040039e-02
3.127000000000000000e+03 5.946159839630126953e+00 2.014436531066894531e+01 4.821309074759483337e-02 -2.448512315750122070e-01 -5.899143964052200317e-02 2.616356313228607178e-02
3.128000000000000000e+03 6.069039916992187500e+01 -2.146825408935546875e+01 4.273141920566558838e-01 5.057394504547119141e-01 2.799160778522491455e-01 5.165792070329189301e-03
3.129000000000000000e+03 6.077036666870117188e+01 -1.914028549194335938e+01 4.592308998107910156e-01 3.873637914657592773e-01 2.539784014225006104e-01 -1.155833303928375244e-01
3.130000000000000000e+03 6.983656311035156250e+01 4.382424831390380859e+00 3.780865669250488281e-01 1.414340883493423462e-01 1.558561921119689941e-01 -3.414651155471801758e-01
3.131000000000000000e+03 2.518533515930175781e+01 -2.098359870910644531e+01 -7.647607475519180298e-02 -9.516587853431701660e-02 -5.149258673191070557e-02 -1.628779321908950806e-01
3.132000000000000000e+03 1.993427085876464844e+01 -1.883550453186035156e+01 -1.556259393692016602e-01 2.331761643290519714e-03 -4.598825424909591675e-02 -2.561568021774291992e-01
3.133000000000000000e+03 7.450241851806640625e+01 3.538767337799072266e+00 -1.039648577570915222e-01 4.807915687561035156e+00 1.411185264587402344e+00 -1.124590635299682617e+00
3.134000000000000000e+03 6.637687683105468750e+01 2.151772260665893555e+00 -9.198943376541137695e-01 1.068691834807395935e-01 -2.439075410366058350e-01 6.310348957777023315e-02
3.135000000000000000e+03 7.149655914306640625e+01 3.210727310180664062e+01 2.129126638174057007e-01 3.444497585296630859e+00 1.097223043441772461e+00 -4.213255643844604492e-01
3.136000000000000000e+03 5.228786945343017578e+00 8.050389289855957031e+00 -9.329241514205932617e-02 -3.160785511136054993e-02 -3.747007995843887329e-02 6.725539267063140869e-02
3.137000000000000000e+03 1.022645950317382812e+01 -5.559242725372314453e+00 2.582672052085399628e-03 -2.681249752640724182e-02 -7.268948014825582504e-03 -3.538937866687774658e-02
3.138000000000000000e+03 4.748008251190185547e+00 -8.982088088989257812e+00 2.556568011641502380e-03 -3.602314367890357971e-02 -1.003997307270765305e-02 -2.095948671922087669e-03
3.139000000000000000e+03 5.913463115692138672e+00 -7.708263397216796875e+00 3.443391062319278717e-03 -3.927516937255859375e-02 -1.074953284114599228e-02 -1.217284798622131348e-02
3.140000000000000000e+03 6.398133468627929688e+01 4.259515285491943359e+00 -5.869027376174926758e-01 5.143608450889587402e-01 -2.176255919039249420e-02 -2.600863277912139893e-01
3.141000000000000000e+03 3.210257720947265625e+01 -1.134205150604248047e+01 -1.754586398601531982e-01 -2.144026458263397217e-01 -1.169583871960639954e-01 -5.381253734230995178e-02
3.142000000000000000e+03 7.578404903411865234e+00 1.494672679901123047e+01 1.505978554487228394e-01 -9.355590492486953735e-02 1.711258664727210999e-02 1.782738417387008667e-01
3.143000000000000000e+03 8.071584701538085938e+00 1.715885162353515625e+01 1.752070933580398560e-01 -8.911488950252532959e-02 2.582766115665435791e-02 1.102875620126724243e-01
3.144000000000000000e+03 5.755685043334960938e+01 -1.476881027221679688e+01 -4.018607437610626221e-01 -2.308261245489120483e-01 -1.898060590028762817e-01 -1.961928457021713257e-01
3.145000000000000000e+03 5.938690567016601562e+01 5.608877182006835938e+00 -3.094735443592071533e-01 1.698729097843170166e-01 -4.188019409775733948e-02 -2.300054579973220825e-02
3.146000000000000000e+03 7.153240680694580078e+00 -8.233730316162109375e+00 2.769457176327705383e-03 -4.721426591277122498e-02 -1.333344262093305588e-02 -2.018311619758605957e-02
3.147000000000000000e+03 2.327544212341308594e+01 -1.781643867492675781e+01 -2.157143503427505493e-01 -7.893352955579757690e-02 -8.839436620473861694e-02 -1.941876709461212158e-01
3.148000000000000000e+03 4.970370101928710938e+01 2.665481376647949219e+01 1.883186101913452148e-01 4.570302367210388184e-01 1.936046481132507324e-01 2.518461048603057861e-01
3.149000000000000000e+03 2.834162521362304688e+01 -3.138047981262207031e+01 9.517478942871093750e-02 -7.461333274841308594e-02 6.168435793370008469e-03 -1.352466642856597900e-01
3.150000000000000000e+03 3.738201141357421875e+01 1.571504783630371094e+01 1.670422703027725220e-01 -7.095149755477905273e-01 -1.627418100833892822e-01 4.479677677154541016e-01
3.151000000000000000e+03 5.212592697143554688e+01 -1.277262401580810547e+01 -8.673096299171447754e-01 1.102585271000862122e-01 -2.271153330802917480e-01 -6.406093239784240723e-01
3.152000000000000000e+03 6.010265350341796875e+01 -2.012588119506835938e+01 4.141048789024353027e-01 3.288419246673583984e-01 2.228840440511703491e-01 -1.155663952231407166e-01
3.153000000000000000e+03 7.165434265136718750e+01 2.280046081542968750e+01 -6.367129832506179810e-02 3.885833740234375000e+00 1.146648764610290527e+00 -8.945587277412414551e-01
3.154000000000000000e+03 2.862072372436523438e+01 -3.360759353637695312e+01 3.346933424472808838e-02 -1.022115945816040039e-01 -2.062267810106277466e-02 -1.502723395824432373e-01
3.155000000000000000e+03 3.079990577697753906e+01 3.507201766967773438e+01 3.664951324462890625e-01 -3.331901133060455322e-01 9.991506114602088928e-03 1.888911873102188110e-01
3.156000000000000000e+03 1.373846244812011719e+01 -9.208808898925781250e+00 -1.500437874346971512e-02 6.005505472421646118e-02 1.351520325988531113e-02 -2.128213457763195038e-02
3.157000000000000000e+03 6.259779357910156250e+01 -1.677318763732910156e+01 2.109526991844177246e-01 7.778139114379882812e-01 2.966299951076507568e-01 -5.743522942066192627e-02
3.158000000000000000e+03 8.557376861572265625e+00 -2.913512420654296875e+01 -8.805751055479049683e-02 -9.887494146823883057e-02 -5.607973784208297729e-02 -8.133856207132339478e-02
3.159000000000000000e+03 8.307723999023437500e+00 -2.723521614074707031e+01 -5.865235626697540283e-02 -5.404434353113174438e-02 -3.380900993943214417e-02 -6.304945051670074463e-02
3.160000000000000000e+03 2.315166854858398438e+01 -2.032427597045898438e+01 -1.224858090281486511e-01 -4.527321457862854004e-02 -5.032770708203315735e-02 -1.857100278139114380e-01
3.161000000000000000e+03 5.835708999633789062e+01 -1.421141433715820312e+01 -5.764324665069580078e-01 -2.685446739196777344e-01 -2.534931600093841553e-01 -1.366208344697952271e-01
3.162000000000000000e+03 4.918825531005859375e+01 -8.844479560852050781e+00 -1.518881469964981079e-01 1.336151957511901855e-01 -5.481883883476257324e-03 -6.266068667173385620e-03
3.163000000000000000e+03 6.887567996978759766e+00 9.794662475585937500e+00 -1.320111304521560669e-01 -7.127080857753753662e-02 -6.098458170890808105e-02 1.347585171461105347e-01
3.164000000000000000e+03 5.992022705078125000e+01 -1.752971076965332031e+01 3.008358478546142578e-01 1.403685361146926880e-01 1.323613077402114868e-01 -1.716310828924179077e-01
3.165000000000000000e+03 5.026059150695800781e+00 2.011086273193359375e+01 4.528522491455078125e-02 -2.507052719593048096e-01 -6.162601336836814880e-02 1.733723911456763744e-03
3.166000000000000000e+03 5.512216186523437500e+01 1.893998336791992188e+01 2.285226285457611084e-01 2.337647825479507446e-01 1.386862248182296753e-01 -2.194458991289138794e-01
3.167000000000000000e+03 6.795460700988769531e+00 -2.757952117919921875e+01 -4.964180290699005127e-02 -5.892732366919517517e-02 -3.257073834538459778e-02 -3.525637090206146240e-02
3.168000000000000000e+03 7.671397209167480469e+00 -2.829269599914550781e+01 -7.046247273683547974e-02 -7.136583328247070312e-02 -4.254849255084991455e-02 -5.507376417517662048e-02
3.169000000000000000e+03 4.870659255981445312e+01 3.296994781494140625e+01 2.879253923892974854e-01 3.370018601417541504e-01 1.874781847000122070e-01 -9.352090768516063690e-03
3.170000000000000000e+03 5.009326171875000000e+01 2.406847763061523438e+01 3.100369274616241455e-01 3.496273458003997803e-01 1.978992819786071777e-01 2.066572010517120361e-01
3.171000000000000000e+03 7.174201202392578125e+01 -3.710384368896484375e+01 3.953811824321746826e-01 3.542092800140380859e+00 1.181242227554321289e+00 4.021576046943664551e-01
3.172000000000000000e+03 6.664756011962890625e+01 2.505915451049804688e+01 4.579465389251708984e-01 1.804896593093872070e+00 6.788529753684997559e-01 -5.009416341781616211e-01
3.173000000000000000e+03 5.824232482910156250e+01 1.938253402709960938e+01 1.814155578613281250e-01 6.304404735565185547e-01 2.435568124055862427e-01 -1.012974604964256287e-01
3.174000000000000000e+03 2.305952835083007812e+01 3.571538543701171875e+01 1.208707615733146667e-01 -2.048316299915313721e-01 -2.518826164305210114e-02 9.993797540664672852e-02
3.175000000000000000e+03 7.421714782714843750e+01 5.967832088470458984e+00 -1.103889495134353638e-01 4.878417968750000000e+00 1.430408716201782227e+00 -9.800958633422851562e-01
3.176000000000000000e+03 7.265946197509765625e+01 2.243872833251953125e+01 -6.360491365194320679e-02 4.264698982238769531e+00 1.260328292846679688e+00 -7.965120077133178711e-01
3.177000000000000000e+03 6.530026912689208984e+00 -2.568455886840820312e+01 -1.649580709636211395e-02 -3.443771600723266602e-02 -1.528005674481391907e-02 -1.470918301492929459e-02
3.178000000000000000e+03 5.957555007934570312e+01 -1.628533172607421875e+01 1.613430678844451904e-02 7.865535095334053040e-03 7.199952378869056702e-03 -1.537373512983322144e-01
3.179000000000000000e+03 4.453090286254882812e+01 -2.441202354431152344e+01 1.514608114957809448e-01 1.222743242979049683e-01 8.212053775787353516e-02 -3.320354521274566650e-01
3.180000000000000000e+03 5.677355957031250000e+01 1.993400382995605469e+01 2.291977852582931519e-01 4.110704362392425537e-01 1.920804679393768311e-01 -1.979703903198242188e-01
3.181000000000000000e+03 8.141814231872558594e+00 -5.767544269561767578e+00 4.190031904727220535e-03 -2.694235183298587799e-02 -6.825696211308240891e-03 -2.480545826256275177e-02
3.182000000000000000e+03 6.053802490234375000e+00 -4.969121456146240234e+00 5.825211759656667709e-03 -1.704215817153453827e-02 -3.365084063261747360e-03 -1.341837923973798752e-02
3.183000000000000000e+03 6.921420574188232422e+00 6.735491275787353516e+00 -1.276882737874984741e-01 -4.083403572440147400e-02 -5.055669322609901428e-02 4.396341368556022644e-02
3.184000000000000000e+03 2.386928176879882812e+01 8.286872863769531250e+00 1.950932145118713379e-01 -1.445523798465728760e-01 1.516225188970565796e-02 1.075716838240623474e-01
3.185000000000000000e+03 7.639582061767578125e+01 -2.622803688049316406e+00 -1.806583285331726074e+00 1.028809165954589844e+01 2.544452667236328125e+00 -1.075479984283447266e+00
3.186000000000000000e+03 1.098751449584960938e+01 -8.800753593444824219e+00 -1.587926060892641544e-03 -6.781150121241807938e-03 -2.510722726583480835e-03 -4.153827205300331116e-02
3.187000000000000000e+03 5.767970657348632812e+01 5.710284233093261719e+00 -1.567565053701400757e-01 1.206778921186923981e-02 -4.340661317110061646e-02 1.658740043640136719e-01
3.188000000000000000e+03 6.302698516845703125e+01 3.914449691772460938e+00 -8.472180962562561035e-01 5.370277166366577148e-01 -9.305711090564727783e-02 -1.408846676349639893e-01
3.189000000000000000e+03 6.099684906005859375e+01 2.074145793914794922e+00 -1.631301522254943848e+00 3.559297025203704834e-01 -3.826115429401397705e-01 1.447208970785140991e-02
3.190000000000000000e+03 1.095464134216308594e+01 -6.132688999176025391e+00 8.001310750842094421e-03 -1.010742317885160446e-02 -6.318335072137415409e-04 -2.904402837157249451e-02
3.191000000000000000e+03 1.162126541137695312e+01 -6.794107913970947266e+00 -1.574805064592510462e-04 -1.758447289466857910e-02 -5.322585813701152802e-03 -3.656522557139396667e-02
3.192000000000000000e+03 8.322733879089355469e+00 -7.843415737152099609e+00 3.073148429393768311e-03 -3.576070815324783325e-02 -9.806268848478794098e-03 -2.930298633873462677e-02
3.193000000000000000e+03 5.887327957153320312e+01 -1.811304283142089844e+01 3.683009147644042969e-01 -6.435000803321599960e-03 1.085597798228263855e-01 -2.400069832801818848e-01
3.194000000000000000e+03 2.071931266784667969e+01 -2.109084701538085938e+01 -1.313836276531219482e-01 2.176825143396854401e-02 -3.288461267948150635e-02 -2.239158600568771362e-01
3.195000000000000000e+03 2.270855140686035156e+01 7.566918373107910156e+00 1.599027961492538452e-01 -1.709250509738922119e-01 -3.306674072518944740e-03 1.101858690381050110e-01
3.196000000000000000e+03 6.782595062255859375e+01 2.590130805969238281e+01 3.609806597232818604e-01 2.244037628173828125e+00 7.815055251121520996e-01 -6.075158715248107910e-01
3.197000000000000000e+03 6.851234436035156250e+01 2.359331512451171875e+01 2.835762798786163330e-01 2.282164096832275391e+00 7.697221040725708008e-01 -8.875853419303894043e-01
3.198000000000000000e+03 2.513859558105468750e+01 8.765179634094238281e+00 2.304648607969284058e-01 -5.381724983453750610e-02 5.299428477883338928e-02 1.095260605216026306e-01
3.199000000000000000e+03 6.693286132812500000e+01 2.285955619812011719e+01 3.746746778488159180e-01 1.430349469184875488e+00 5.415072441101074219e-01 -6.709566116333007812e-01
3.200000000000000000e+03 5.908739471435546875e+01 -1.509046268463134766e+01 -3.780838847160339355e-01 -1.367605030536651611e-01 -1.544533222913742065e-01 -1.090009585022926331e-01
3.201000000000000000e+03 8.525343894958496094e+00 2.047602462768554688e+01 -6.104222498834133148e-03 -1.465870738029479980e-01 -4.580738767981529236e-02 9.410497546195983887e-02
3.202000000000000000e+03 6.835484313964843750e+01 3.640826702117919922e+00 -8.349963277578353882e-02 -1.456040292978286743e-01 -6.873109936714172363e-02 -1.812147051095962524e-01
3.203000000000000000e+03 5.739884185791015625e+01 2.118027877807617188e+01 2.840359210968017578e-01 3.377987146377563477e-01 1.865503937005996704e-01 -1.528925895690917969e-01
3.204000000000000000e+03 6.883585357666015625e+01 2.702490615844726562e+01 3.054508864879608154e-01 2.740739583969116211e+00 9.138571023941040039e-01 -6.523416638374328613e-01
3.205000000000000000e+03 2.620578002929687500e+01 -2.519240379333496094e+01 2.183653861284255981e-01 -1.090965941548347473e-01 3.278063982725143433e-02 -1.375263929367065430e-01
3.206000000000000000e+03 7.069585418701171875e+01 3.047008752822875977e+00 1.475362479686737061e-01 5.151609182357788086e-01 1.988091468811035156e-01 -4.457250237464904785e-01
3.207000000000000000e+03 7.381681060791015625e+01 5.070216655731201172e+00 2.941593714058399200e-02 4.255281448364257812e+00 1.285409212112426758e+00 -9.453529715538024902e-01
3.208000000000000000e+03 6.024466323852539062e+01 3.081066131591796875e+00 -1.287020087242126465e+00 1.858197897672653198e-01 -3.303600847721099854e-01 -9.997143596410751343e-02
3.209000000000000000e+03 2.212249946594238281e+01 -1.995841979980468750e+01 -1.446676105260848999e-01 -1.116322819143533707e-02 -4.674925282597541809e-02 -2.165971249341964722e-01
3.210000000000000000e+03 5.760196304321289062e+01 6.704870700836181641e+00 1.217517331242561340e-01 6.521168351173400879e-02 5.608902499079704285e-02 1.933257728815078735e-01
3.211000000000000000e+03 7.480219268798828125e+01 6.571237087249755859e+00 -1.407577395439147949e-01 5.627854347229003906e+00 1.646129012107849121e+00 -1.088205575942993164e+00
3.212000000000000000e+03 6.113555145263671875e+01 3.077392101287841797e+00 -1.203660249710083008e+00 3.376223742961883545e-01 -2.598113715648651123e-01 -6.468572467565536499e-02
3.213000000000000000e+03 6.919251251220703125e+01 2.491567993164062500e+01 2.650257647037506104e-01 2.701921463012695312e+00 8.900841474533081055e-01 -8.136583566665649414e-01
3.214000000000000000e+03 7.365386962890625000e+01 3.075864982604980469e+01 1.193296685814857483e-01 3.948824405670166016e+00 1.220446228981018066e+00 -4.164318144321441650e-01
3.215000000000000000e+03 6.171685028076171875e+01 -2.164390563964843750e+01 4.505459368228912354e-01 7.700409293174743652e-01 3.661760687828063965e-01 1.445135008543729782e-02
3.216000000000000000e+03 7.304904937744140625e+01 2.604988288879394531e+01 2.823637984693050385e-02 4.054646015167236328e+00 1.224864840507507324e+00 -6.087743043899536133e-01
3.217000000000000000e+03 7.195481109619140625e+01 2.388996887207031250e+01 6.982505321502685547e-03 3.879595518112182617e+00 1.165973424911499023e+00 -8.230042457580566406e-01
3.218000000000000000e+03 2.382669448852539062e+01 -2.176017761230468750e+01 -4.993439838290214539e-02 -4.987103492021560669e-02 -2.994162961840629578e-02 -1.650029718875885010e-01
3.219000000000000000e+03 6.226261901855468750e+01 3.475049734115600586e+00 -9.835055470466613770e-01 4.950964152812957764e-01 -1.465227454900741577e-01 -9.693033248186111450e-02
3.220000000000000000e+03 5.913297271728515625e+01 -1.964902687072753906e+01 4.003323018550872803e-01 1.518731266260147095e-01 1.656616330146789551e-01 -1.892981529235839844e-01
3.221000000000000000e+03 5.956430435180664062e+00 1.059540367126464844e+01 -7.975374907255172729e-02 -6.226325035095214844e-02 -4.260509833693504333e-02 1.485059112310409546e-01
3.222000000000000000e+03 6.803709983825683594e+00 -7.467938423156738281e+00 1.077461149543523788e-02 -3.761599212884902954e-02 -8.052414283156394958e-03 -1.493029948323965073e-02
3.223000000000000000e+03 7.209358692169189453e+00 -9.798616409301757812e+00 -6.256077438592910767e-03 -5.908539146184921265e-02 -1.960244029760360718e-02 -2.185806073248386383e-02
3.224000000000000000e+03 1.008173751831054688e+01 -9.033479690551757812e+00 -6.866823881864547729e-03 -3.126211464405059814e-02 -1.143868081271648407e-02 -3.773552179336547852e-02
3.225000000000000000e+03 1.086558055877685547e+01 -7.277981758117675781e+00 1.009774580597877502e-02 -1.045836787670850754e-02 -1.081866212189197540e-04 -3.278718143701553345e-02
3.226000000000000000e+03 1.229511165618896484e+01 -6.062874317169189453e+00 8.695797994732856750e-03 6.210833787918090820e-03 4.471989348530769348e-03 -2.938128076493740082e-02
3.227000000000000000e+03 6.205527877807617188e+01 -1.563391971588134766e+01 -2.569223940372467041e-01 5.448726415634155273e-01 8.638507127761840820e-02 -1.510625928640365601e-01
3.228000000000000000e+03 5.798144149780273438e+01 -1.567546749114990234e+01 -3.600765392184257507e-02 -1.811648309230804443e-01 -6.515174359083175659e-02 -2.400524616241455078e-01
3.229000000000000000e+03 7.241455078125000000e+01 2.747710037231445312e+01 1.159351095557212830e-01 3.778316020965576172e+00 1.168275356292724609e+00 -5.895109772682189941e-01
3.230000000000000000e+03 7.068816375732421875e+01 2.430446815490722656e+01 9.383235871791839600e-02 3.334451675415039062e+00 1.028485178947448730e+00 -8.773314952850341797e-01
3.231000000000000000e+03 5.176414108276367188e+01 2.250317192077636719e+01 2.946398258209228516e-01 2.882511019706726074e-01 1.748672723770141602e-01 4.455614835023880005e-02
3.232000000000000000e+03 2.063847160339355469e+01 -2.256601333618164062e+01 -7.425997406244277954e-02 4.879106208682060242e-02 -7.640672381967306137e-03 -1.890397816896438599e-01
3.233000000000000000e+03 7.421820831298828125e+01 -3.561013793945312500e+01 1.752842068672180176e-01 4.476719856262207031e+00 1.395601272583007812e+00 4.147495329380035400e-01
3.234000000000000000e+03 2.507818412780761719e+01 1.125441741943359375e+01 1.232874765992164612e-01 -8.537858724594116211e-02 1.137266587466001511e-02 6.423100084066390991e-02
3.235000000000000000e+03 7.251414775848388672e+00 -3.608394622802734375e+01 2.487426437437534332e-02 -1.678792387247085571e-01 -4.290148988366127014e-02 -1.229696348309516907e-01
3.236000000000000000e+03 9.015486717224121094e+00 -3.614427947998046875e+01 2.891238220036029816e-02 -1.592664420604705811e-01 -3.910622000694274902e-02 -1.321390718221664429e-01
3.237000000000000000e+03 6.780854034423828125e+01 3.365144729614257812e+01 3.657064437866210938e-01 2.716294050216674805e+00 9.246001243591308594e-01 -3.391363024711608887e-01
3.238000000000000000e+03 3.115403175354003906e+01 -3.465088653564453125e+01 7.202844321727752686e-02 -5.259027704596519470e-02 5.831449758261442184e-03 -1.945334523916244507e-01
3.239000000000000000e+03 3.133636665344238281e+01 3.067598152160644531e+01 1.464165747165679932e-01 -5.037545561790466309e-01 -1.072013974189758301e-01 2.780340313911437988e-01
3.240000000000000000e+03 3.435150909423828125e+01 3.137323379516601562e+01 2.325705736875534058e-01 -2.285228073596954346e-01 1.214330084621906281e-03 1.827384978532791138e-01
3.241000000000000000e+03 3.311059188842773438e+01 -3.386882781982421875e+01 4.648327082395553589e-02 -2.044359035789966583e-02 7.811903953552246094e-03 -2.602731585502624512e-01
3.242000000000000000e+03 7.195401763916015625e+01 3.443630599975585938e+01 2.039087265729904175e-01 3.472612857818603516e+00 1.102956533432006836e+00 -3.122201561927795410e-01
3.243000000000000000e+03 2.851655960083007812e+01 3.260502243041992188e+01 1.765522658824920654e-01 -3.139039278030395508e-01 -4.120550304651260376e-02 3.658996522426605225e-01
3.244000000000000000e+03 7.069680213928222656e+00 -2.934299659729003906e+01 -6.784354150295257568e-02 -8.818146586418151855e-02 -4.680750146508216858e-02 -6.018470972776412964e-02
3.245000000000000000e+03 7.070217895507812500e+01 2.890368270874023438e+01 2.316901534795761108e-01 3.290553808212280273e+00 1.056673169136047363e+00 -5.705845952033996582e-01
3.246000000000000000e+03 5.107762527465820312e+01 -1.355821704864501953e+01 -7.613942027091979980e-01 6.688345223665237427e-02 -2.083532363176345825e-01 -6.896327137947082520e-01
3.247000000000000000e+03 8.604185104370117188e+00 -6.910268306732177734e+00 8.262353949248790741e-03 -3.515533730387687683e-02 -8.067894726991653442e-03 -2.805849723517894745e-02
3.248000000000000000e+03 9.384471893310546875e+00 -7.158305644989013672e+00 4.134973045438528061e-03 -2.749650552868843079e-02 -7.008459884673357010e-03 -3.409657627344131470e-02
3.249000000000000000e+03 6.255084609985351562e+01 2.790387153625488281e+00 -1.208814382553100586e+00 5.059838294982910156e-01 -2.108491808176040649e-01 -3.693921118974685669e-02
3.250000000000000000e+03 6.332506561279296875e+01 3.024558782577514648e+00 -1.059291243553161621e+00 4.980735480785369873e-01 -1.683653146028518677e-01 -8.636534214019775391e-02
3.251000000000000000e+03 1.092121315002441406e+01 -8.032805442810058594e+00 -4.253727849572896957e-03 -1.457835733890533447e-02 -5.649625789374113083e-03 -3.708140552043914795e-02
3.252000000000000000e+03 5.899713897705078125e+01 4.513814926147460938e+00 -6.835468411445617676e-01 -9.208482690155506134e-03 -2.078265994787216187e-01 1.253629755228757858e-02
3.253000000000000000e+03 6.004708862304687500e+01 4.017238140106201172e+00 -9.502691626548767090e-01 1.579529345035552979e-01 -2.376948744058609009e-01 -6.182134896516799927e-02
3.254000000000000000e+03 2.350212097167968750e+01 -1.933797264099121094e+01 -1.596061289310455322e-01 -5.564156919717788696e-02 -6.457430869340896606e-02 -1.947646588087081909e-01
3.255000000000000000e+03 9.011077880859375000e+00 -9.158505439758300781e+00 -2.633959520608186722e-04 -4.214975610375404358e-02 -1.272394601255655289e-02 -3.662341833114624023e-02
3.256000000000000000e+03 1.004058456420898438e+01 -8.117800712585449219e+00 5.143049638718366623e-03 -2.641506120562553406e-02 -6.381603423506021500e-03 -3.627695515751838684e-02
3.257000000000000000e+03 3.229082489013671875e+01 3.392005157470703125e+01 3.760006427764892578e-01 -3.309641182422637939e-01 1.351095922291278839e-02 1.813226491212844849e-01
3.258000000000000000e+03 7.555152893066406250e+00 -7.527599811553955078e+00 8.643191307783126831e-03 -4.377060011029243469e-02 -1.053822226822376251e-02 -2.374994754791259766e-02
3.259000000000000000e+03 9.164951324462890625e+00 -8.067303657531738281e+00 5.996687803417444229e-03 -3.819217905402183533e-02 -9.658646769821643829e-03 -2.978654578328132629e-02
3.260000000000000000e+03 4.209886169433593750e+01 1.802541351318359375e+01 2.623843848705291748e-01 2.790212444961071014e-02 8.708594739437103271e-02 2.483156025409698486e-01
3.261000000000000000e+03 2.340624427795410156e+01 -2.284258651733398438e+01 1.888975687325000763e-02 -1.734068803489208221e-02 4.647209425456821918e-04 -1.488185673952102661e-01
3.262000000000000000e+03 5.269276046752929688e+01 2.201166152954101562e+01 2.990068495273590088e-01 2.521417438983917236e-01 1.653445810079574585e-01 -4.319455102086067200e-02
3.263000000000000000e+03 5.832760238647460938e+01 -1.662396621704101562e+01 1.425170898437500000e-01 -1.251470297574996948e-01 5.211020354181528091e-03 -2.442766875028610229e-01
3.264000000000000000e+03 7.053080749511718750e+01 2.311792373657226562e+01 7.508161664009094238e-02 3.279340505599975586e+00 1.006326675415039062e+00 -9.920527935028076172e-01
3.265000000000000000e+03 7.248474884033203125e+01 3.107189559936523438e+01 1.796636432409286499e-01 3.685448169708251953e+00 1.159533619880676270e+00 -4.410916566848754883e-01
3.266000000000000000e+03 7.161311340332031250e+01 2.816748046875000000e+01 1.450168341398239136e-01 3.540487527847290039e+00 1.105651378631591797e+00 -5.747992992401123047e-01
3.267000000000000000e+03 5.181239128112792969e+00 -3.403593063354492188e+01 -1.104888785630464554e-02 -1.533088386058807373e-01 -4.930732026696205139e-02 -9.351449459791183472e-02
3.268000000000000000e+03 6.999102020263671875e+01 2.613796806335449219e+01 1.993430405855178833e-01 3.058265447616577148e+00 9.772825837135314941e-01 -7.162545919418334961e-01
3.269000000000000000e+03 6.936392974853515625e+01 3.143725585937500000e+01 3.031577169895172119e-01 2.974021911621093750e+00 9.831538796424865723e-01 -4.655123054981231689e-01
3.270000000000000000e+03 7.050694274902343750e+01 3.097642135620117188e+01 2.643075883388519287e-01 3.206055402755737305e+00 1.041108846664428711e+00 -4.771693646907806396e-01
3.271000000000000000e+03 6.694251251220703125e+01 3.477801895141601562e+01 3.778816461563110352e-01 2.551774263381958008e+00 8.788967728614807129e-01 -3.125120997428894043e-01
3.272000000000000000e+03 3.397385025024414062e+01 -3.181589508056640625e+01 -3.205084241926670074e-03 9.467026218771934509e-03 1.878582756035029888e-03 -2.963978946208953857e-01
3.273000000000000000e+03 5.597464084625244141e+00 1.265205287933349609e+01 1.066742092370986938e-02 -9.277299791574478149e-02 -2.463167347013950348e-02 1.697330027818679810e-01
3.274000000000000000e+03 3.214809799194335938e+01 3.618991088867187500e+01 4.147804081439971924e-01 -2.661844193935394287e-01 4.457879438996315002e-02 1.119526624679565430e-01
3.275000000000000000e+03 7.139771270751953125e+01 3.867572402954101562e+01 2.138113826513290405e-01 3.331564426422119141e+00 1.063612699508666992e+00 -1.491913795471191406e-01
3.276000000000000000e+03 3.199275016784667969e+01 -3.677851867675781250e+01 1.923709362745285034e-01 -1.242640689015388489e-01 2.043206058442592621e-02 -1.736075729131698608e-01
3.277000000000000000e+03 1.012034893035888672e+01 -7.343672752380371094e+00 6.357417441904544830e-03 -2.967856638133525848e-02 -6.996344774961471558e-03 -3.334061801433563232e-02
3.278000000000000000e+03 2.190470123291015625e+01 -2.119227409362792969e+01 -1.082547158002853394e-01 1.241555251181125641e-02 -2.875174954533576965e-02 -1.963856667280197144e-01
3.279000000000000000e+03 6.986685180664062500e+01 2.797862434387207031e+01 2.266722768545150757e-01 3.036965608596801758e+00 9.790913462638854980e-01 -6.045715212821960449e-01
3.280000000000000000e+03 7.080161285400390625e+01 2.719595718383789062e+01 2.019206136465072632e-01 3.280198335647583008e+00 1.044635653495788574e+00 -6.575756072998046875e-01
3.281000000000000000e+03 6.938474273681640625e+01 3.025832557678222656e+01 2.933075428009033203e-01 2.982450246810913086e+00 9.827272891998291016e-01 -5.102288722991943359e-01
3.282000000000000000e+03 9.322237014770507812e+00 1.680740165710449219e+01 2.299662530422210693e-01 7.463164161890745163e-03 7.122882455587387085e-02 1.262645274400711060e-01
3.283000000000000000e+03 7.037641143798828125e+01 3.908858299255371094e+00 2.419759035110473633e-01 4.392887651920318604e-01 2.043794095516204834e-01 -3.503347337245941162e-01
3.284000000000000000e+03 6.926741027832031250e+01 3.410133361816406250e+01 3.076539635658264160e-01 2.976945161819458008e+00 9.853796958923339844e-01 -3.581667244434356689e-01
3.285000000000000000e+03 7.124977874755859375e+01 2.547744369506835938e+01 1.232708394527435303e-01 3.455965042114257812e+00 1.073770761489868164e+00 -7.582391500473022461e-01
3.286000000000000000e+03 2.917988014221191406e+01 3.692753219604492188e+01 3.260614871978759766e-01 -2.739439606666564941e-01 1.563525944948196411e-02 1.409863084554672241e-01
3.287000000000000000e+03 1.041128444671630859e+01 -6.721802234649658203e+00 1.010946114547550678e-03 -2.310842834413051605e-02 -6.629244424402713776e-03 -3.689953312277793884e-02
3.288000000000000000e+03 6.786064147949218750e+01 4.108132934570312500e+01 3.674719929695129395e-01 2.560215234756469727e+00 8.783061504364013672e-01 -6.940295547246932983e-02
3.289000000000000000e+03 3.181586074829101562e+01 4.094422912597656250e+01 4.082651138305664062e-01 -1.903245151042938232e-01 6.538218259811401367e-02 2.414994314312934875e-02
3.290000000000000000e+03 3.379034805297851562e+01 3.625879669189453125e+01 4.646784067153930664e-01 -2.031240761280059814e-01 7.846629619598388672e-02 6.137420609593391418e-02
3.291000000000000000e+03 3.612190628051757812e+01 3.800621795654296875e+01 4.671910703182220459e-01 -3.204244375228881836e-02 1.305445879697799683e-01 2.480056136846542358e-02
3.292000000000000000e+03 6.566418457031250000e+01 3.757988739013671875e+01 4.240875840187072754e-01 2.264089584350585938e+00 8.064531683921813965e-01 -2.693395316600799561e-01
3.293000000000000000e+03 9.436551094055175781e+00 3.601594924926757812e+01 2.393347471952438354e-01 9.037213772535324097e-02 9.891206771135330200e-02 5.877799540758132935e-02
3.294000000000000000e+03 8.072615623474121094e+00 4.124253082275390625e+01 -4.475873336195945740e-02 -4.930003359913825989e-02 -2.821763046085834503e-02 1.492700073868036270e-03
3.295000000000000000e+03 4.667823028564453125e+01 4.124487686157226562e+01 5.998467206954956055e-01 1.440745294094085693e-01 2.231763750314712524e-01 -1.711629796773195267e-03
3.296000000000000000e+03 2.812478828430175781e+01 -4.133869552612304688e+01 3.105176091194152832e-01 -3.054166138172149658e-01 1.530299545265734196e-03 5.906347185373306274e-03
3.297000000000000000e+03 8.333960533142089844e+00 3.892471313476562500e+01 -5.508920643478631973e-03 -8.468289859592914581e-03 -4.193163011223077774e-03 9.899841621518135071e-03
3.298000000000000000e+03 5.309748077392578125e+01 -3.485512161254882812e+01 3.592616617679595947e-01 4.271996021270751953e-01 2.359383851289749146e-01 -1.754174977540969849e-01
3.299000000000000000e+03 2.688042640686035156e+01 -3.680128097534179688e+01 3.748693689703941345e-02 -2.338389009237289429e-01 -5.890559032559394836e-02 -1.356898527592420578e-02
3.300000000000000000e+03 4.285698699951171875e+01 3.887348175048828125e+01 5.650535225868225098e-01 4.132911190390586853e-02 1.819147914648056030e-01 6.801934540271759033e-02
3.301000000000000000e+03 8.989767074584960938e+00 -3.912685775756835938e+01 1.220999807119369507e-01 -1.712632477283477783e-01 -1.474897935986518860e-02 -9.091094881296157837e-02
3.302000000000000000e+03 3.470557403564453125e+01 -3.297529602050781250e+01 3.358801826834678650e-02 -3.860820457339286804e-02 -1.506055938079953194e-03 -3.279300630092620850e-01
3.303000000000000000e+03 3.412966918945312500e+01 3.434241104125976562e+01 4.399797022342681885e-01 -2.268900722265243530e-01 6.392689049243927002e-02 1.237642988562583923e-01
3.304000000000000000e+03 5.283761978149414062e+00 3.619005584716796875e+01 9.324527531862258911e-02 -2.090776711702346802e-01 -3.474972024559974670e-02 8.808807469904422760e-03
3.305000000000000000e+03 5.290931320190429688e+01 4.092252731323242188e+01 6.505362391471862793e-01 4.103818535804748535e-01 3.182754218578338623e-01 3.357458487153053284e-02
3.306000000000000000e+03 7.146041107177734375e+01 -3.927160644531250000e+01 4.174294173717498779e-01 3.479356050491333008e+00 1.169035673141479492e+00 2.387512326240539551e-01
3.307000000000000000e+03 7.205650329589843750e+01 -4.145431137084960938e+01 3.401285707950592041e-01 3.725502729415893555e+00 1.219689369201660156e+00 5.161476880311965942e-02
3.308000000000000000e+03 6.796203613281250000e+01 -3.945661163330078125e+01 6.268490552902221680e-01 2.364837646484375000e+00 8.975059986114501953e-01 2.859314680099487305e-01
3.309000000000000000e+03 4.351490020751953125e+01 3.687051773071289062e+01 5.354703068733215332e-01 -6.117087323218584061e-03 1.588059663772583008e-01 6.576896458864212036e-02
3.310000000000000000e+03 5.372464656829833984e+00 -3.580615234375000000e+01 6.970756687223911285e-03 -1.768493503332138062e-01 -5.096357688307762146e-02 -9.420344233512878418e-02
3.311000000000000000e+03 7.381112670898437500e+01 3.842141342163085938e+01 1.051358357071876526e-01 3.769676685333251953e+00 1.162443757057189941e+00 -9.223478287458419800e-02
3.312000000000000000e+03 2.921770286560058594e+01 -3.705012512207031250e+01 1.410300731658935547e-01 -1.787213385105133057e-01 -1.130738109350204468e-02 -6.284384429454803467e-02
3.313000000000000000e+03 1.944923210144042969e+01 3.723726272583007812e+01 1.512062102556228638e-01 -2.459953278303146362e-01 -2.843673527240753174e-02 7.033655047416687012e-02
3.314000000000000000e+03 4.554748916625976562e+01 3.903786087036132812e+01 5.657790899276733398e-01 8.690874278545379639e-02 1.958063542842864990e-01 1.931040734052658081e-02
3.315000000000000000e+03 4.726314163208007812e+01 3.816224670410156250e+01 5.546417832374572754e-01 1.337580382823944092e-01 2.065199464559555054e-01 -1.264696847647428513e-02
3.316000000000000000e+03 3.725381851196289062e+01 1.916453170776367188e+01 3.379277884960174561e-01 -5.941177010536193848e-01 -7.685697078704833984e-02 4.697869420051574707e-01
3.317000000000000000e+03 7.487142944335937500e+01 -7.796028614044189453e+00 -7.702192664146423340e-01 1.488228321075439453e+00 2.154027074575424194e-01 6.050767898559570312e-01
3.318000000000000000e+03 7.497245788574218750e+01 -7.797578334808349609e+00 -7.527332901954650879e-01 4.977579593658447266e+00 1.267453908920288086e+00 1.432642936706542969e+00
3.319000000000000000e+03 3.262338256835937500e+01 2.419521331787109375e+00 -5.162232518196105957e-01 -1.516264677047729492e-01 -2.003549188375473022e-01 3.187893629074096680e-01
3.320000000000000000e+03 3.219851303100585938e+01 9.802535176277160645e-01 -8.861265182495117188e-01 1.872466653585433960e-01 -2.096639573574066162e-01 -2.612113654613494873e-01
3.321000000000000000e+03 3.253709793090820312e+01 1.646663069725036621e+00 -9.530243873596191406e-01 1.711961179971694946e-01 -2.345484793186187744e-01 -1.112970616668462753e-02
3.322000000000000000e+03 3.119880294799804688e+01 1.197513699531555176e+00 -6.973737478256225586e-01 1.887386143207550049e-01 -1.525905281305313110e-01 -1.085369959473609924e-01
3.323000000000000000e+03 1.822188949584960938e+01 -4.407938420772552490e-01 -3.473339974880218506e-02 2.174624614417552948e-02 -3.896146314218640327e-03 -1.230922061949968338e-02
3.324000000000000000e+03 7.865642547607421875e+01 -5.873074531555175781e+00 2.968367815017700195e+00 1.050432300567626953e+01 4.041807174682617188e+00 5.972884893417358398e-01
3.325000000000000000e+03 7.897238922119140625e+01 -5.845894336700439453e+00 1.076223373413085938e+00 7.404013156890869141e+00 2.544070959091186523e+00 9.596043229103088379e-01
3.326000000000000000e+03 7.676490020751953125e+01 -7.671578407287597656e+00 -1.897520780563354492e+00 1.736945152282714844e+01 4.641579151153564453e+00 2.708886861801147461e+00
3.327000000000000000e+03 7.644906616210937500e+01 -7.945278167724609375e+00 -1.242893695831298828e+00 1.372212600708007812e+01 3.743769645690917969e+00 3.458933830261230469e+00
3.328000000000000000e+03 7.675888824462890625e+01 -7.904637336730957031e+00 -1.954213023185729980e+00 1.636394500732421875e+01 4.322919845581054688e+00 2.419635057449340820e+00
3.329000000000000000e+03 7.585127258300781250e+01 -8.204259872436523438e+00 2.486745268106460571e-02 9.487266540527343750e+00 2.853640317916870117e+00 3.691355466842651367e+00
3.330000000000000000e+03 7.613871002197265625e+01 -7.972448825836181641e+00 -5.497947931289672852e-01 1.156056880950927734e+01 3.303231954574584961e+00 4.032380104064941406e+00
3.331000000000000000e+03 7.607578277587890625e+01 -8.229769706726074219e+00 -6.157783269882202148e-01 1.128213882446289062e+01 3.199908256530761719e+00 3.465400695800781250e+00
3.332000000000000000e+03 4.014105224609375000e+01 3.723046064376831055e+00 -1.413693130016326904e-01 -2.808966040611267090e-01 -1.266797780990600586e-01 -1.486703455448150635e-01
3.333000000000000000e+03 3.199641799926757812e+01 2.033303260803222656e+00 -8.393343687057495117e-01 1.756453514099121094e-01 -1.991067081689834595e-01 6.148624420166015625e-02
3.334000000000000000e+03 2.987222671508789062e+01 1.232379245758056641e+01 -1.754494011402130127e-01 5.642185211181640625e-01 1.166307404637336731e-01 2.930551171302795410e-01
3.335000000000000000e+03 5.017533493041992188e+01 -1.437602233886718750e+01 -7.219468355178833008e-01 -3.594776988029479980e-02 -2.273683696985244751e-01 -5.875467061996459961e-01
3.336000000000000000e+03 5.638273620605468750e+01 -1.774914360046386719e+01 4.803509116172790527e-01 -1.227349489927291870e-01 1.072847843170166016e-01 -4.116404652595520020e-01
3.337000000000000000e+03 5.495317459106445312e+01 -2.440249633789062500e+01 -6.710929423570632935e-02 -2.055425345897674561e-01 -8.179555088281631470e-02 -7.233117520809173584e-02
3.338000000000000000e+03 1.960836219787597656e+01 3.303940963745117188e+01 1.029154751449823380e-02 -4.281833171844482422e-01 -1.253675371408462524e-01 7.980377972126007080e-02
3.339000000000000000e+03 6.403252124786376953e+00 3.420284652709960938e+01 2.062331289052963257e-01 -9.277502447366714478e-02 3.403742983937263489e-02 6.234851852059364319e-02
3.340000000000000000e+03 6.272395706176757812e+01 3.605430984497070312e+01 5.752563476562500000e-01 1.473086237907409668e+00 6.145027875900268555e-01 -5.694528818130493164e-01
3.341000000000000000e+03 6.194575881958007812e+01 7.983024120330810547e+00 4.448198378086090088e-01 9.740799069404602051e-01 4.256699383258819580e-01 -5.046689510345458984e-01
3.342000000000000000e+03 1.222311210632324219e+01 -4.140165710449218750e+01 2.318543642759323120e-01 -8.860492706298828125e-02 4.297483339905738831e-02 -2.550138905644416809e-02
3.343000000000000000e+03 9.876551628112792969e+00 -3.739868164062500000e+01 8.908732235431671143e-02 -1.620312333106994629e-01 -2.188317291438579559e-02 -1.091839894652366638e-01
3.344000000000000000e+03 3.966477203369140625e+01 3.552994537353515625e+01 7.036637067794799805e-01 1.596399098634719849e-01 2.589910924434661865e-01 1.206340566277503967e-01
3.345000000000000000e+03 5.469383621215820312e+01 -3.933578109741210938e+01 7.548831701278686523e-01 3.921114504337310791e-01 3.440983891487121582e-01 -9.188897162675857544e-02
3.346000000000000000e+03 7.483904266357421875e+01 -8.327676773071289062e+00 5.937826037406921387e-01 6.403847694396972656e+00 2.099289178848266602e+00 1.231086015701293945e+00
3.347000000000000000e+03 4.876055908203125000e+01 -3.821934127807617188e+01 6.374861001968383789e-01 -1.108163446187973022e-01 1.580009162425994873e-01 5.084250494837760925e-02
3.348000000000000000e+03 5.108340454101562500e+01 -3.805275344848632812e+01 6.118718385696411133e-01 1.079126149415969849e-01 2.159353345632553101e-01 3.914420306682586670e-02
3.349000000000000000e+03 3.853384399414062500e+01 -3.684954071044921875e+01 4.808452725410461426e-01 -9.739574790000915527e-02 1.150348559021949768e-01 -2.399091720581054688e-01
3.350000000000000000e+03 7.519445037841796875e+01 -8.827184677124023438e+00 5.523504614830017090e-01 8.051513671875000000e+00 2.581159114837646484e+00 2.188164949417114258e+00
3.351000000000000000e+03 5.457560729980468750e+01 3.555904769897460938e+01 5.200586915016174316e-01 5.963187217712402344e-01 3.349132239818572998e-01 2.806296050548553467e-01
3.352000000000000000e+03 4.598963546752929688e+01 -1.546691989898681641e+01 -8.485474586486816406e-01 -2.176555842161178589e-01 -3.198609054088592529e-01 -6.472256779670715332e-02
3.353000000000000000e+03 6.235515975952148438e+01 -1.945291900634765625e+01 4.953381717205047607e-01 9.073967337608337402e-01 4.208204746246337891e-01 -8.170200511813163757e-03
3.354000000000000000e+03 4.686664199829101562e+01 3.413668823242187500e+01 3.639124035835266113e-01 1.009607687592506409e-01 1.394619494676589966e-01 -4.836736992001533508e-02
3.355000000000000000e+03 3.515098190307617188e+01 3.519721221923828125e+01 5.023321509361267090e-01 -1.274500787258148193e-01 1.124646291136741638e-01 8.905655145645141602e-02
3.356000000000000000e+03 3.099487304687500000e+01 -2.812563705444335938e+01 2.931072413921356201e-01 6.299501657485961914e-02 1.068306788802146912e-01 -1.587481647729873657e-01
3.357000000000000000e+03 5.249916839599609375e+01 -1.382912731170654297e+01 -8.586546778678894043e-01 2.072474509477615356e-01 -1.954221725463867188e-01 -6.486984491348266602e-01
3.358000000000000000e+03 4.436267852783203125e+01 -2.597697067260742188e+01 2.158935070037841797e-01 1.650873720645904541e-01 1.142942607402801514e-01 -1.848986148834228516e-01
3.359000000000000000e+03 2.812961387634277344e+01 -1.344342327117919922e+01 -3.989570438861846924e-01 -2.136168032884597778e-01 -1.837721616029739380e-01 -1.707710623741149902e-01
3.360000000000000000e+03 5.285950851440429688e+01 3.427955389022827148e+00 -1.382461667060852051e+00 1.276809722185134888e-01 -3.764342069625854492e-01 7.305483818054199219e-01
3.361000000000000000e+03 5.431550598144531250e+01 -3.099704742431640625e+01 2.146982848644256592e-01 4.973417222499847412e-01 2.136120051145553589e-01 -1.448795050382614136e-01
3.362000000000000000e+03 5.170774078369140625e+01 -3.628896331787109375e+01 3.207522034645080566e-01 2.475681155920028687e-01 1.704960912466049194e-01 -7.118830922991037369e-03
3.363000000000000000e+03 5.067852020263671875e+01 -2.851097297668457031e+01 3.406227529048919678e-01 2.539911866188049316e-01 1.783841848373413086e-01 -2.902748584747314453e-01
3.364000000000000000e+03 5.349803543090820312e+01 2.436318588256835938e+01 2.327761054039001465e-01 5.586172938346862793e-01 2.374180108308792114e-01 -9.072094410657882690e-02
3.365000000000000000e+03 7.134468841552734375e+01 -1.456426048278808594e+01 -5.101090669631958008e-01 -4.482373595237731934e-01 -2.875039279460906982e-01 9.774599671363830566e-01
3.366000000000000000e+03 5.090818405151367188e+01 -3.545165252685546875e+01 1.766835898160934448e-01 1.883704215288162231e-01 1.095162034034729004e-01 -1.004775054752826691e-02
3.367000000000000000e+03 1.358124828338623047e+01 3.667247009277343750e+01 1.004239916801452637e-01 -4.899308085441589355e-02 1.542927324771881104e-02 9.015793353319168091e-02
3.368000000000000000e+03 6.731342315673828125e+01 -2.847289466857910156e+01 5.939654111862182617e-01 1.205406546592712402e+00 5.398116111755371094e-01 -2.631904780864715576e-01
3.369000000000000000e+03 7.505084991455078125e+01 -8.090590476989746094e+00 1.029862284660339355e+00 6.030705451965332031e+00 2.118170261383056641e+00 2.376751661300659180e+00
3.370000000000000000e+03 2.166855239868164062e+01 7.620618343353271484e+00 1.719898134469985962e-01 -1.426747590303421021e-01 8.794515393674373627e-03 9.555211663246154785e-02
3.371000000000000000e+03 6.593109130859375000e+01 4.824657440185546875e+00 -1.728627830743789673e-01 1.783920377492904663e-01 1.658777706325054169e-03 -4.311518967151641846e-01
3.372000000000000000e+03 1.852673768997192383e+00 2.887624931335449219e+01 -1.887675374746322632e-02 -3.307458162307739258e-01 -1.048867702484130859e-01 1.339486688375473022e-01
3.373000000000000000e+03 5.795284652709960938e+01 -2.514172744750976562e+01 1.880408972501754761e-01 2.343401610851287842e-01 1.267143189907073975e-01 1.862645894289016724e-01
3.374000000000000000e+03 2.201091003417968750e+01 1.596888065338134766e+01 -2.096797227859497070e-01 -1.885549426078796387e-01 -1.194703951478004456e-01 9.377724677324295044e-02
3.375000000000000000e+03 6.784329986572265625e+01 -2.939605903625488281e+01 6.825236678123474121e-01 1.423244357109069824e+00 6.317304372787475586e-01 -4.687142744660377502e-02
3.376000000000000000e+03 3.359505462646484375e+01 3.345327758789062500e+01 3.655575215816497803e-01 -3.083514571189880371e-01 1.716181822121143341e-02 1.544494926929473877e-01
3.377000000000000000e+03 3.991956710815429688e+01 -1.772870421409606934e+00 -3.020470738410949707e-01 -9.884254634380340576e-02 -1.202668845653533936e-01 1.575987935066223145e-01
3.378000000000000000e+03 1.618738174438476562e+01 -1.169602584838867188e+01 -5.211882293224334717e-02 8.986341208219528198e-02 1.132337749004364014e-02 9.892164729535579681e-03
3.379000000000000000e+03 6.374702453613281250e+01 -5.946665763854980469e+00 -8.535572886466979980e-02 -6.781614571809768677e-02 -4.595156386494636536e-02 -5.240546166896820068e-02
3.380000000000000000e+03 3.160989952087402344e+01 -1.274638366699218750e+01 -3.066303133964538574e-01 -2.447565644979476929e-01 -1.654160618782043457e-01 -6.524402648210525513e-02
3.381000000000000000e+03 5.310522842407226562e+01 -3.146519470214843750e+01 2.638968825340270996e-01 3.966094851493835449e-01 1.981519162654876709e-01 -2.753502130508422852e-01
3.382000000000000000e+03 5.534880447387695312e+01 -2.782586479187011719e+01 2.990633249282836914e-01 1.881132870912551880e-01 1.461529880762100220e-01 6.693251430988311768e-02
3.383000000000000000e+03 4.605582427978515625e+01 -3.871554851531982422e+00 -4.011335968971252441e-01 6.545823812484741211e-02 -1.007026135921478271e-01 1.900420710444450378e-02
3.384000000000000000e+03 2.047512292861938477e+00 2.765953254699707031e+01 -3.932541981339454651e-02 -3.003615140914916992e-01 -1.019060835242271423e-01 1.094826906919479370e-01
3.385000000000000000e+03 5.326518249511718750e+01 2.287110900878906250e+01 2.580962181091308594e-01 3.868004977703094482e-01 1.934690028429031372e-01 -7.057151198387145996e-02
3.386000000000000000e+03 5.150477981567382812e+01 -3.437863540649414062e+01 2.230361104011535645e-01 2.834978401660919189e-01 1.519601941108703613e-01 -1.702241599559783936e-01
3.387000000000000000e+03 2.881663322448730469e+00 -4.546816349029541016e+00 7.827128865756094456e-04 -6.021119188517332077e-03 -1.571521977894008160e-03 -4.706188628915697336e-04
3.388000000000000000e+03 6.776743316650390625e+01 -3.160113906860351562e+01 6.211518645286560059e-01 1.924342036247253418e+00 7.636482119560241699e-01 1.482548713684082031e-01
3.389000000000000000e+03 7.633415222167968750e+01 -8.635732650756835938e+00 -1.020434617996215820e+00 1.162168121337890625e+01 3.180373907089233398e+00 2.330966472625732422e+00
3.390000000000000000e+03 7.866330718994140625e+01 -7.943194389343261719e+00 -7.247508168220520020e-01 1.094027042388916016e+01 3.064656019210815430e+00 -3.383148193359375000e+00
3.391000000000000000e+03 7.712242889404296875e+01 -3.843002080917358398e+00 -2.504593133926391602e+00 1.547095870971679688e+01 3.889909505844116211e+00 -2.363736480474472046e-01
3.392000000000000000e+03 7.522096252441406250e+01 -3.880671977996826172e+00 5.776166319847106934e-01 5.002470016479492188e+00 1.674026012420654297e+00 -2.672134399414062500e+00
3.393000000000000000e+03 7.912360382080078125e+01 -5.385426998138427734e+00 1.712068319320678711e+00 6.881137847900390625e+00 2.577961921691894531e+00 2.193083763122558594e+00
3.394000000000000000e+03 7.736377716064453125e+01 -3.555150032043457031e+00 -2.569653511047363281e+00 1.475881195068359375e+01 3.656747579574584961e+00 6.725148558616638184e-01
3.395000000000000000e+03 7.601907348632812500e+01 -8.533035278320312500e+00 -4.841339886188507080e-01 1.030772972106933594e+01 2.947078704833984375e+00 2.851375102996826172e+00
3.396000000000000000e+03 7.812406158447265625e+01 -9.542268753051757812e+00 -1.185456156730651855e+00 1.197562885284423828e+01 3.237051725387573242e+00 -1.572495102882385254e+00
3.397000000000000000e+03 7.629508209228515625e+01 -8.307250976562500000e+00 -9.898286461830139160e-01 1.208779239654541016e+01 3.329389095306396484e+00 3.221456289291381836e+00
3.398000000000000000e+03 7.761207580566406250e+01 -7.766173839569091797e+00 -1.555414676666259766e+00 1.759147071838378906e+01 4.810816764831542969e+00 -2.148878335952758789e+00
3.399000000000000000e+03 7.731887054443359375e+01 -8.473880767822265625e+00 -2.244396686553955078e+00 1.511870956420898438e+01 3.862293720245361328e+00 -2.543662488460540771e-01
3.400000000000000000e+03 7.726590728759765625e+01 -8.861083030700683594e+00 -1.979084253311157227e+00 1.382884693145751953e+01 3.554928779602050781e+00 -3.074291944503784180e-01
3.401000000000000000e+03 7.753923797607421875e+01 -3.588119125366210938e+01 8.449655957520008087e-03 5.624359130859375000e+00 1.689842581748962402e+00 2.327414155006408691e-01
3.402000000000000000e+03 7.561106872558593750e+01 -2.131006622314453125e+01 3.902867138385772705e-01 7.160731792449951172e+00 2.265305519104003906e+00 1.959825873374938965e+00
3.403000000000000000e+03 7.754694366455078125e+01 -1.193867492675781250e+01 -6.266193389892578125e-01 1.053929996490478516e+01 2.973803997039794922e+00 -2.058557420969009399e-01
3.404000000000000000e+03 7.435656547546386719e+00 -2.639977264404296875e+01 -3.746309876441955566e-02 -3.259358927607536316e-02 -2.101700566709041595e-02 -3.251990675926208496e-02
3.405000000000000000e+03 5.065829849243164062e+01 -2.750382041931152344e+01 3.265350461006164551e-01 2.309718579053878784e-01 1.672520637512207031e-01 -2.963923811912536621e-01
3.406000000000000000e+03 3.434667587280273438e+01 -6.856923580169677734e+00 1.067762728780508041e-02 5.306514725089073181e-02 1.912283152341842651e-02 -2.504993975162506104e-01
3.407000000000000000e+03 4.723574829101562500e+01 3.285459136962890625e+01 2.716703414916992188e-01 1.452022343873977661e-01 1.250617653131484985e-01 -2.509484998881816864e-02
3.408000000000000000e+03 4.934849548339843750e+01 3.112653160095214844e+01 1.537994593381881714e-01 4.670231938362121582e-01 1.862467974424362183e-01 6.580500304698944092e-02
3.409000000000000000e+03 3.131814575195312500e+01 -1.162953186035156250e+01 -2.482833415269851685e-01 -2.757057845592498779e-01 -1.571967452764511108e-01 -4.208568483591079712e-02
3.410000000000000000e+03 3.248557281494140625e+01 3.074297904968261719e+01 1.588882654905319214e-01 -4.368002414703369141e-01 -8.337359875440597534e-02 2.273204326629638672e-01
3.411000000000000000e+03 2.231940460205078125e+01 2.585587882995605469e+01 3.123222589492797852e-01 2.692042151466012001e-03 9.450428932905197144e-02 3.573239147663116455e-01
3.412000000000000000e+03 2.161294364929199219e+01 2.638522529602050781e+01 3.525496125221252441e-01 -1.718602329492568970e-01 5.420681461691856384e-02 3.950860202312469482e-01
3.413000000000000000e+03 3.424209594726562500e+01 2.619937896728515625e+01 -3.324263989925384521e-01 -5.450003743171691895e-01 -2.632280290126800537e-01 2.978942692279815674e-01
3.414000000000000000e+03 1.515919017791748047e+01 -8.914354324340820312e+00 -8.684451691806316376e-03 6.981904804706573486e-02 1.834037899971008301e-02 -1.892768428660929203e-03
3.415000000000000000e+03 2.728872680664062500e+01 3.211556625366210938e+01 5.753726512193679810e-02 -2.152748703956604004e-01 -4.732128232717514038e-02 3.940276205539703369e-01
3.416000000000000000e+03 3.516331481933593750e+01 2.203251457214355469e+01 -9.440618753433227539e-02 -5.392773151397705078e-01 -1.901050508022308350e-01 3.996601104736328125e-01
3.417000000000000000e+03 6.236400222778320312e+01 6.812361717224121094e+00 8.266054838895797729e-02 7.360860705375671387e-01 2.456239908933639526e-01 -3.641725182533264160e-01
3.418000000000000000e+03 9.712398529052734375e+00 -2.688889503479003906e+01 -5.389086157083511353e-02 -1.003640964627265930e-01 -4.627648741006851196e-02 -9.347980469465255737e-02
3.419000000000000000e+03 5.708491516113281250e+01 -2.417876052856445312e+01 9.950829297304153442e-02 1.221047565340995789e-01 6.648391485214233398e-02 1.177820116281509399e-01
3.420000000000000000e+03 6.296141815185546875e+01 -1.255455780029296875e+01 -1.576978921890258789e+00 7.329692840576171875e-01 -2.532028853893280029e-01 -1.413044799119234085e-02
3.421000000000000000e+03 6.440644836425781250e+01 -1.143201065063476562e+01 -1.879035949707031250e+00 7.439901828765869141e-01 -3.405137658119201660e-01 1.929778158664703369e-01
3.422000000000000000e+03 1.180582332611083984e+01 2.064577865600585938e+01 2.917276229709386826e-03 7.729861140251159668e-02 2.406476624310016632e-02 2.809324860572814941e-01
3.423000000000000000e+03 1.090555953979492188e+01 2.054371833801269531e+01 -1.465531717985868454e-02 3.145950660109519958e-02 5.041256546974182129e-03 2.040830552577972412e-01
3.424000000000000000e+03 3.401488876342773438e+01 -6.105644702911376953e+00 -3.185319527983665466e-02 1.762873493134975433e-02 -4.267338197678327560e-03 -2.442059814929962158e-01
3.425000000000000000e+03 7.356060791015625000e+01 6.543975830078125000e+00 -1.773410141468048096e-01 4.266989707946777344e+00 1.226894617080688477e+00 -8.546730279922485352e-01
3.426000000000000000e+03 6.805447387695312500e+01 3.254927825927734375e+01 3.456293642520904541e-01 2.760329961776733398e+00 9.317877888679504395e-01 -4.056182205677032471e-01
3.427000000000000000e+03 7.502993774414062500e+01 3.658656311035156250e+01 6.984271854162216187e-02 4.042830944061279297e+00 1.233802199363708496e+00 -1.203376576304435730e-01
3.428000000000000000e+03 6.734420013427734375e+01 4.109408378601074219e+00 -8.897802978754043579e-02 -7.691158354282379150e-02 -4.976688697934150696e-02 -2.850077748298645020e-01
3.429000000000000000e+03 3.426622772216796875e+01 -3.567627716064453125e+01 2.091455459594726562e-01 -1.153714358806610107e-01 2.813223376870155334e-02 -2.733384072780609131e-01
3.430000000000000000e+03 3.071954536437988281e+01 3.213559341430664062e+01 2.373877167701721191e-01 -4.266023635864257812e-01 -5.676439777016639709e-02 2.769036293029785156e-01
3.431000000000000000e+03 2.729451942443847656e+01 3.345750045776367188e+01 1.581486910581588745e-01 -2.315648049116134644e-01 -2.202483266592025757e-02 3.026689887046813965e-01
3.432000000000000000e+03 2.586417198181152344e+01 3.198991584777832031e+01 3.497765585780143738e-02 -3.962600231170654297e-02 -1.394504215568304062e-03 3.131307065486907959e-01
3.433000000000000000e+03 5.979338073730468750e+01 4.861502170562744141e+00 -4.883981347084045410e-01 2.181437164545059204e-01 -8.107632398605346680e-02 -6.291553378105163574e-02
3.434000000000000000e+03 1.392659950256347656e+01 -6.902115345001220703e+00 1.310856547206640244e-02 3.166279941797256470e-02 1.343140937387943268e-02 -1.580469682812690735e-02
3.435000000000000000e+03 1.506074142456054688e+01 -7.952336788177490234e+00 -4.627372603863477707e-03 6.865663826465606689e-02 1.920877955853939056e-02 -6.798668298870325089e-03
3.436000000000000000e+03 7.776166534423828125e+01 -8.054163932800292969e+00 -1.804184317588806152e+00 1.596037387847900391e+01 4.246856689453125000e+00 -2.049879312515258789e+00
3.437000000000000000e+03 7.796330261230468750e+01 -8.018258094787597656e+00 -1.458332180976867676e+00 1.541811943054199219e+01 4.187936305999755859e+00 -2.674932479858398438e+00
3.438000000000000000e+03 7.758084869384765625e+01 -7.983971595764160156e+00 -2.110212802886962891e+00 1.649011230468750000e+01 4.313970088958740234e+00 -1.688438892364501953e+00
3.439000000000000000e+03 6.611415100097656250e+01 4.097356319427490234e+00 -3.476368486881256104e-01 1.404687464237213135e-01 -6.215042993426322937e-02 -2.721435725688934326e-01
3.440000000000000000e+03 4.275377655029296875e+01 1.898639297485351562e+01 3.064680397510528564e-01 2.282201647758483887e-01 1.604064553976058960e-01 1.870051920413970947e-01
3.441000000000000000e+03 7.644861602783203125e+01 -3.315417528152465820e+00 -1.978242874145507812e+00 1.188296985626220703e+01 2.971418142318725586e+00 -1.582711338996887207e+00
3.442000000000000000e+03 3.544866180419921875e+01 -4.287426471710205078e+00 -2.253578752279281616e-01 1.514917016029357910e-01 -2.215985395014286041e-02 -1.494575440883636475e-01
3.443000000000000000e+03 7.661090087890625000e+01 -8.492552757263183594e+00 -1.514265060424804688e+00 1.314156723022460938e+01 3.488190650939941406e+00 1.866991758346557617e+00
3.444000000000000000e+03 7.676596069335937500e+01 -8.111386299133300781e+00 -1.924057364463806152e+00 1.517358398437500000e+01 3.974857807159423828e+00 1.896283984184265137e+00
3.445000000000000000e+03 7.647798919677734375e+01 -8.245972633361816406e+00 -1.365880131721496582e+00 1.321583271026611328e+01 3.554986000061035156e+00 2.609608888626098633e+00
3.446000000000000000e+03 3.966088771820068359e+00 3.709266281127929688e+01 5.487693101167678833e-02 -4.023754894733428955e-01 -1.042495667934417725e-01 -1.003280561417341232e-02
3.447000000000000000e+03 4.027500915527343750e+01 1.141309261322021484e+01 -6.471076607704162598e-01 -3.998109698295593262e-01 -3.140755891799926758e-01 5.098763108253479004e-01
3.448000000000000000e+03 3.188085174560546875e+01 2.751595115661621094e+01 -2.724883556365966797e-01 -6.121539473533630371e-01 -2.653926908969879150e-01 3.018892705440521240e-01
3.449000000000000000e+03 2.894744110107421875e+01 -1.332776927947998047e+01 -3.550959825515747070e-01 -2.722235620021820068e-01 -1.881958693265914917e-01 -1.335452795028686523e-01
3.450000000000000000e+03 7.670055389404296875e+00 1.981557846069335938e+01 5.747355520725250244e-02 -1.843668818473815918e-01 -3.806800022721290588e-02 5.870219320058822632e-02
3.451000000000000000e+03 4.634202957153320312e+01 2.624351501464843750e+00 -8.389500379562377930e-01 -1.085562705993652344e-01 -2.842518985271453857e-01 2.367928177118301392e-01
3.452000000000000000e+03 6.590412902832031250e+01 3.039934539794921875e+01 4.160943925380706787e-01 2.306393861770629883e+00 8.167464137077331543e-01 -3.889149725437164307e-01
3.453000000000000000e+03 2.995037317276000977e+00 2.290604209899902344e+01 -2.815786376595497131e-02 -2.587181031703948975e-01 -8.606278896331787109e-02 -2.893236465752124786e-02
3.454000000000000000e+03 7.498995971679687500e+01 1.419813537597656250e+01 7.798948884010314941e-01 6.006005764007568359e+00 2.035770177841186523e+00 -1.095672607421875000e+00
3.455000000000000000e+03 7.574362945556640625e+01 -8.771051406860351562e+00 1.264185607433319092e-01 9.350485801696777344e+00 2.843071222305297852e+00 2.778802156448364258e+00
3.456000000000000000e+03 7.495521545410156250e+01 5.762553691864013672e+00 -5.920265242457389832e-02 5.690977096557617188e+00 1.689532399177551270e+00 -1.072694897651672363e+00
3.457000000000000000e+03 4.921071624755859375e+01 3.364361286163330078e+00 -1.110650539398193359e+00 -2.664097249507904053e-01 -4.131180644035339355e-01 6.559479832649230957e-01
3.458000000000000000e+03 4.456494140625000000e+01 5.266340255737304688e+00 -8.591703176498413086e-01 -2.294029593467712402e-01 -3.265720009803771973e-01 3.291738033294677734e-01
3.459000000000000000e+03 3.279289245605468750e+01 -1.068567180633544922e+01 -1.272652000188827515e-01 -1.652732938528060913e-01 -8.776154369115829468e-02 -9.275420755147933960e-02
3.460000000000000000e+03 3.135528373718261719e+01 -1.072757720947265625e+01 -1.683087795972824097e-01 -2.784334421157836914e-01 -1.340226680040359497e-01 -9.388086944818496704e-02
3.461000000000000000e+03 7.872530364990234375e+01 -8.870708465576171875e+00 -7.943793535232543945e-01 1.125286483764648438e+01 3.137545585632324219e+00 -2.448739767074584961e+00
3.462000000000000000e+03 7.770764923095703125e+01 -8.355802536010742188e+00 -2.023815631866455078e+00 1.503956317901611328e+01 3.904724359512329102e+00 -1.763850331306457520e+00
3.463000000000000000e+03 5.755436325073242188e+01 -2.584513282775878906e+01 2.175589799880981445e-01 2.074303030967712402e-01 1.274967789649963379e-01 2.231758534908294678e-01
3.464000000000000000e+03 5.588090896606445312e+01 3.434208869934082031e+00 -1.332280516624450684e+00 -1.135023012757301331e-01 -4.337348341941833496e-01 3.581031858921051025e-01
3.465000000000000000e+03 6.093683242797851562e+01 -2.056252288818359375e+01 4.598205089569091797e-01 5.070995688438415527e-01 2.900760173797607422e-01 -4.103505611419677734e-02
3.466000000000000000e+03 7.685634613037109375e+01 -8.379217147827148438e+00 -1.952247142791748047e+00 1.450220108032226562e+01 3.764986038208007812e+00 1.127732515335083008e+00
3.467000000000000000e+03 7.685079193115234375e+01 -8.724797248840332031e+00 -1.767929434776306152e+00 1.344610977172851562e+01 3.503454208374023438e+00 8.844111561775207520e-01
3.468000000000000000e+03 7.796549224853515625e+01 -8.418442726135253906e+00 -1.978916287422180176e+00 1.468943119049072266e+01 3.813154458999633789e+00 -2.330866575241088867e+00
3.469000000000000000e+03 7.720475769042968750e+01 -1.658113098144531250e+01 -5.077433586120605469e-01 9.236764907836914062e+00 2.618706464767456055e+00 1.036245584487915039e+00
3.470000000000000000e+03 6.830988311767578125e+01 2.839632987976074219e+00 -3.524140417575836182e-01 -1.609583497047424316e-01 -1.540117263793945312e-01 -3.221789002418518066e-02
3.471000000000000000e+03 2.695061111450195312e+01 -2.748460960388183594e+01 2.542140781879425049e-01 -1.203985810279846191e-01 4.014464840292930603e-02 -1.244584396481513977e-01
3.472000000000000000e+03 5.797840118408203125e+01 4.938078403472900391e+00 -5.134552717208862305e-01 -6.114748120307922363e-02 -1.723808199167251587e-01 9.814197570085525513e-02
3.473000000000000000e+03 5.859076309204101562e+01 5.868590831756591797e+00 -1.671074479818344116e-01 1.297220438718795776e-01 -1.121561974287033081e-02 9.066209942102432251e-02
3.474000000000000000e+03 6.187748718261718750e+01 2.813511610031127930e+00 -1.250420570373535156e+00 4.867280125617980957e-01 -2.291077524423599243e-01 -4.432690516114234924e-02
3.475000000000000000e+03 2.691229343414306641e+00 3.125857162475585938e+01 4.748260974884033203e-02 -4.128320515155792236e-01 -1.096048280596733093e-01 1.566201746463775635e-01
3.476000000000000000e+03 4.056530475616455078e+00 1.910584259033203125e+01 4.795346409082412720e-02 -2.307863235473632812e-01 -5.484985932707786560e-02 -1.986764837056398392e-03
3.477000000000000000e+03 7.710470581054687500e+01 -3.005112075805664062e+01 -8.289713412523269653e-02 6.149322509765625000e+00 1.819927692413330078e+00 3.281056582927703857e-01
3.478000000000000000e+03 6.442716979980468750e+01 -1.291874694824218750e+01 -1.618976116180419922e+00 9.116659760475158691e-01 -2.121930420398712158e-01 3.520575910806655884e-02
3.479000000000000000e+03 4.224705696105957031e+00 -2.879620742797851562e+01 -3.004364483058452606e-02 -9.132222086191177368e-02 -3.640975803136825562e-02 -1.947153545916080475e-02
3.480000000000000000e+03 7.758263397216796875e+01 -8.718013763427734375e+00 -1.940092206001281738e+00 1.394410800933837891e+01 3.601204872131347656e+00 -1.131989598274230957e+00
3.481000000000000000e+03 2.717000246047973633e+00 1.036845970153808594e+01 -2.017205394804477692e-02 -4.773034900426864624e-02 -2.037072181701660156e-02 8.084021508693695068e-02
3.482000000000000000e+03 6.895173072814941406e+00 -3.053678894042968750e+01 -7.500430941581726074e-02 -1.016184538602828979e-01 -5.298683047294616699e-02 -7.706365734338760376e-02
3.483000000000000000e+03 6.143358993530273438e+01 3.121077418327331543e-01 -1.831661581993103027e+00 3.779258131980895996e-01 -4.361207187175750732e-01 3.128969967365264893e-01
3.484000000000000000e+03 2.238144111633300781e+01 -2.219818115234375000e+01 -5.122317373752593994e-02 4.137072246521711349e-03 -1.412582956254482269e-02 -1.704048216342926025e-01
3.485000000000000000e+03 2.286612701416015625e+01 -2.134591865539550781e+01 -7.808288931846618652e-02 -2.024882659316062927e-02 -2.949951589107513428e-02 -1.906201839447021484e-01
3.486000000000000000e+03 3.210025548934936523e+00 8.110537528991699219e+00 -3.839921578764915466e-02 -1.050741411745548248e-02 -1.467198971658945084e-02 4.666893556714057922e-02
3.487000000000000000e+03 5.835262775421142578e+00 -6.581005573272705078e+00 1.008561253547668457e-02 -2.793933637440204620e-02 -5.356117151677608490e-03 -7.902983576059341431e-03
3.488000000000000000e+03 7.541194152832031250e+01 -2.721475410461425781e+01 -2.678264863789081573e-02 6.516797542572021484e+00 1.947004437446594238e+00 6.116250753402709961e-01
3.489000000000000000e+03 7.727204132080078125e+01 -2.903387832641601562e+01 -7.027707993984222412e-02 6.398047924041748047e+00 1.898331284523010254e+00 2.145481705665588379e-01
3.490000000000000000e+03 6.948628997802734375e+01 2.117208242416381836e+00 -6.129605174064636230e-01 -2.865536510944366455e-01 -2.698542475700378418e-01 8.512762188911437988e-02
3.491000000000000000e+03 5.489232540130615234e+00 6.502019882202148438e+00 -8.774887025356292725e-02 -1.811877638101577759e-02 -3.176029399037361145e-02 2.767628245055675507e-02
3.492000000000000000e+03 6.710352325439453125e+01 2.743865728378295898e+00 -6.198335886001586914e-01 1.283970940858125687e-02 -1.820981651544570923e-01 -5.763271450996398926e-02
3.493000000000000000e+03 6.936152648925781250e+01 3.271892547607421875e+01 3.118373453617095947e-01 2.974709510803222656e+00 9.859640598297119141e-01 -4.205847084522247314e-01
3.494000000000000000e+03 5.396133899688720703e+00 1.663581657409667969e+01 1.078073009848594666e-01 -1.860959678888320923e-01 -2.348659932613372803e-02 7.788904011249542236e-02
3.495000000000000000e+03 9.002285003662109375e+00 3.783736467361450195e+00 -6.841983646154403687e-02 -4.854365065693855286e-02 -3.508904576301574707e-02 9.041564539074897766e-03
3.496000000000000000e+03 8.954336166381835938e+00 4.285438537597656250e+00 -8.654391765594482422e-02 -5.440160259604454041e-02 -4.228365793824195862e-02 1.400070358067750931e-02
3.497000000000000000e+03 7.954089164733886719e+00 -8.873325347900390625e+00 6.902370601892471313e-03 -5.037489905953407288e-02 -1.304175890982151031e-02 -2.642188966274261475e-02
3.498000000000000000e+03 6.196844100952148438e+01 7.073097229003906250e-01 -1.696674466133117676e+00 4.505648314952850342e-01 -3.738328814506530762e-01 1.962722986936569214e-01
3.499000000000000000e+03 1.106382560729980469e+01 -2.788456916809082031e+01 -6.912013143301010132e-02 -1.726238876581192017e-01 -7.252320647239685059e-02 -1.066113263368606567e-01
3.500000000000000000e+03 7.420742034912109375e+01 2.839079666137695312e+01 7.345435023307800293e-02 4.194443702697753906e+00 1.280369400978088379e+00 -4.720514118671417236e-01
3.501000000000000000e+03 6.835302352905273438e+00 -6.547509670257568359e+00 3.153794212266802788e-03 -3.572187572717666626e-02 -9.770424105226993561e-03 -2.038960903882980347e-02
3.502000000000000000e+03 7.256608581542968750e+01 2.905052375793457031e+01 1.497428417205810547e-01 3.780570983886718750e+00 1.179094195365905762e+00 -5.207056403160095215e-01
3.503000000000000000e+03 7.314788055419921875e+01 2.808803176879882812e+01 7.919958233833312988e-02 3.974491596221923828e+00 1.216107368469238281e+00 -5.171573162078857422e-01
3.504000000000000000e+03 6.504807281494140625e+01 1.442312717437744141e+00 -1.320910334587097168e+00 3.675676286220550537e-01 -2.860028147697448730e-01 3.251074627041816711e-02
3.505000000000000000e+03 6.288716506958007812e+01 -2.479186773300170898e+00 -1.128628253936767578e+00 9.382209926843643188e-02 -3.104418516159057617e-01 1.277273446321487427e-01
3.506000000000000000e+03 6.429445648193359375e+01 -2.579883813858032227e+00 -1.449156045913696289e+00 1.125983614474534988e-02 -4.313688576221466064e-01 -1.091913729906082153e-01
3.507000000000000000e+03 6.755558776855468750e+01 -1.480085492134094238e+00 -2.491387367248535156e+00 -4.691996145993471146e-03 -7.488237619400024414e-01 -2.361050844192504883e-01
3.508000000000000000e+03 6.356108093261718750e+01 -2.764406681060791016e+00 -1.282639026641845703e+00 -2.681116387248039246e-02 -3.928350508213043213e-01 -6.297965347766876221e-02
3.509000000000000000e+03 6.379335784912109375e+01 -1.896486163139343262e+00 -1.379865765571594238e+00 9.786862879991531372e-02 -3.845991492271423340e-01 9.617029875516891479e-02
3.510000000000000000e+03 6.624859619140625000e+01 -1.484453201293945312e+00 -1.787567138671875000e+00 1.727712750434875488e-01 -4.844387471675872803e-01 -3.314052820205688477e-01
3.511000000000000000e+03 6.550477600097656250e+01 -1.652683138847351074e+00 -1.564321160316467285e+00 1.327981650829315186e-01 -4.294568896293640137e-01 -1.713794469833374023e-01
3.512000000000000000e+03 6.718916320800781250e+01 -2.239982604980468750e+00 -1.038867473602294922e+00 -4.404880478978157043e-02 -3.248748779296875000e-01 -7.040604948997497559e-01
3.513000000000000000e+03 6.799145507812500000e+01 -1.787576317787170410e+00 -2.151149272918701172e+00 -6.193881630897521973e-01 -8.311612606048583984e-01 -7.861634492874145508e-01
3.514000000000000000e+03 6.284909820556640625e+01 -1.965977311134338379e+00 -1.236178517341613770e+00 1.691104471683502197e-01 -3.201204538345336914e-01 2.188719511032104492e-01
3.515000000000000000e+03 6.467863464355468750e+01 -1.778856396675109863e+00 -1.472001552581787109e+00 8.326787501573562622e-02 -4.166201055049896240e-01 -4.497381299734115601e-02
3.516000000000000000e+03 6.692911529541015625e+01 -1.407641768455505371e+00 -1.894522070884704590e+00 2.567769289016723633e-01 -4.913235306739807129e-01 -2.400846481323242188e-01
3.517000000000000000e+03 6.289216995239257812e+01 -2.919634342193603516e+00 -9.435001015663146973e-01 2.438298426568508148e-02 -2.757351398468017578e-01 -5.983280390501022339e-02
3.518000000000000000e+03 6.516467285156250000e+01 -2.465906858444213867e+00 -1.609610080718994141e+00 -9.661698713898658752e-03 -4.857815206050872803e-01 -1.313797086477279663e-01
3.519000000000000000e+03 6.597575378417968750e+01 -2.343386411666870117e+00 -1.534293293952941895e+00 3.841072693467140198e-02 -4.487647712230682373e-01 -2.564149796962738037e-01
3.520000000000000000e+03 6.660062408447265625e+01 -1.995841383934020996e+00 -1.437319993972778320e+00 2.738251984119415283e-01 -3.490484356880187988e-01 -3.286466896533966064e-01
3.521000000000000000e+03 6.038996505737304688e+01 -2.631503820419311523e+00 -2.105614095926284790e-01 -1.806877553462982178e-01 -1.173747554421424866e-01 1.616266518831253052e-01
3.522000000000000000e+03 6.105006408691406250e+01 -3.072386980056762695e+00 -1.598339676856994629e-01 3.778478596359491348e-03 -4.681664705276489258e-02 9.883280098438262939e-02
3.523000000000000000e+03 6.141640853881835938e+01 -2.203370571136474609e+00 -8.797925710678100586e-01 1.135703772306442261e-01 -2.298666536808013916e-01 3.518750369548797607e-01
3.524000000000000000e+03 6.163306045532226562e+01 -2.791494607925415039e+00 -5.565752387046813965e-01 5.251831561326980591e-02 -1.512170881032943726e-01 1.655614078044891357e-01
3.525000000000000000e+03 6.203751754760742188e+01 -2.044043779373168945e+00 -1.081864118576049805e+00 1.443983018398284912e-01 -2.812397480010986328e-01 3.171546459197998047e-01
3.526000000000000000e+03 6.213309860229492188e+01 -3.013516426086425781e+00 -6.036654114723205566e-01 1.934873685240745544e-02 -1.752949953079223633e-01 2.508666925132274628e-02
3.527000000000000000e+03 6.214412689208984375e+01 -2.525852441787719727e+00 -9.455527067184448242e-01 1.192463263869285583e-01 -2.478919178247451782e-01 2.120732963085174561e-01
3.528000000000000000e+03 6.083060836791992188e+01 -2.359160661697387695e+00 -7.061961889266967773e-01 -1.176369041204452515e-01 -2.471499294042587280e-01 3.689332008361816406e-01
3.529000000000000000e+03 6.302363204956054688e+01 -3.542903423309326172e+00 3.985253721475601196e-02 -1.696477644145488739e-02 6.866327952593564987e-03 5.397305358201265335e-03
3.530000000000000000e+03 6.622603607177734375e+01 -3.005898952484130859e+00 -4.436052695382386446e-04 -1.828949339687824249e-02 -5.619929637759923935e-03 9.607409010641276836e-04
3.531000000000000000e+03 6.314354324340820312e+01 -4.274259090423583984e+00 1.528645586222410202e-02 5.592574365437030792e-03 6.263709161430597305e-03 1.724659278988838196e-02
3.532000000000000000e+03 6.564778137207031250e+01 -3.904194831848144531e+00 -1.706850714981555939e-02 1.894364319741725922e-02 5.625407793559134007e-04 -5.603767465800046921e-03
3.533000000000000000e+03 6.634530639648437500e+01 -3.542178630828857422e+00 -2.275534439831972122e-03 -1.502766646444797516e-02 -5.190960597246885300e-03 5.857443902641534805e-03
3.534000000000000000e+03 6.467778778076171875e+01 -3.307701349258422852e+00 1.730017922818660736e-02 -1.765431836247444153e-02 -1.062419032678008080e-04 -2.098434139043092728e-03
3.535000000000000000e+03 6.686113739013671875e+01 -2.928894042968750000e+00 9.291073074564337730e-04 1.036027539521455765e-02 3.386814845725893974e-03 -1.718209241516888142e-03
3.536000000000000000e+03 6.547821807861328125e+01 -3.174623489379882812e+00 8.016549050807952881e-03 2.023845538496971130e-02 8.476501330733299255e-03 -4.655152093619108200e-03
3.537000000000000000e+03 6.483080291748046875e+01 -4.037868499755859375e+00 1.715261675417423248e-02 1.173165161162614822e-02 8.665280416607856750e-03 -3.535308316349983215e-02
3.538000000000000000e+03 6.385350418090820312e+01 -3.428688049316406250e+00 3.440089896321296692e-02 1.339624729007482529e-02 1.433914341032505035e-02 -3.506112378090620041e-03
3.539000000000000000e+03 6.398996734619140625e+01 -4.159451007843017578e+00 3.338829055428504944e-02 -4.042360559105873108e-02 -2.110594650730490685e-03 -8.969135582447052002e-03
3.540000000000000000e+03 1.777486610412597656e+01 1.073900461196899414e+00 -1.605444103479385376e-01 9.367313981056213379e-02 -2.006138116121292114e-02 -9.874633513391017914e-03
3.541000000000000000e+03 1.792778015136718750e+01 4.714254438877105713e-01 -1.206850707530975342e-01 -6.174952909350395203e-02 -5.473037809133529663e-02 -2.844664966687560081e-03
3.542000000000000000e+03 1.644459342956542969e+01 1.723731011152267456e-01 -1.102476641535758972e-01 -4.822558537125587463e-02 -4.754197597503662109e-02 -1.865541562438011169e-02
3.543000000000000000e+03 1.848871994018554688e+01 6.747622489929199219e-01 -1.151790022850036621e-01 7.427031546831130981e-02 -1.227260474115610123e-02 4.474022891372442245e-03
3.544000000000000000e+03 1.726383209228515625e+01 2.464335858821868896e-01 -9.506028145551681519e-02 6.382763385772705078e-02 -9.369793348014354706e-03 -2.115707658231258392e-02
3.545000000000000000e+03 1.847787094116210938e+01 1.163098692893981934e+00 -1.586194932460784912e-01 -1.043677926063537598e-01 -7.889618724584579468e-02 -9.527324698865413666e-03
3.546000000000000000e+03 1.630637359619140625e+01 9.048026204109191895e-01 -1.310435086488723755e-01 4.713157936930656433e-02 -2.517357654869556427e-02 -2.704575099050998688e-02
3.547000000000000000e+03 1.839068794250488281e+01 1.810296177864074707e-01 -1.616221815347671509e-01 1.939938217401504517e-02 -4.266684129834175110e-02 -1.925407163798809052e-02
3.548000000000000000e+03 1.705963325500488281e+01 9.744657874107360840e-01 -1.571482270956039429e-01 -6.213669851422309875e-02 -6.578547507524490356e-02 -1.409040298312902451e-02
3.549000000000000000e+03 2.069370651245117188e+01 3.904900848865509033e-01 -2.095704972743988037e-01 1.540022790431976318e-01 -1.667046546936035156e-02 1.245612874627113342e-01
3.550000000000000000e+03 2.311314582824707031e+01 -1.502791643142700195e-01 -4.708929955959320068e-01 6.127022206783294678e-02 -1.228868290781974792e-01 1.859625452198088169e-03
3.551000000000000000e+03 2.569888687133789062e+01 -5.156913399696350098e-01 -8.212404251098632812e-01 1.036170646548271179e-01 -2.152870148420333862e-01 1.993607729673385620e-01
3.552000000000000000e+03 2.401404762268066406e+01 3.338841721415519714e-02 -2.945141494274139404e-01 2.087289094924926758e-01 -2.573556639254093170e-02 -8.342131972312927246e-02
3.553000000000000000e+03 2.763137626647949219e+01 -1.746285796165466309e+00 2.847233116626739502e-01 3.613833189010620117e-01 1.938319951295852661e-01 -2.022559046745300293e-01
3.554000000000000000e+03 2.771944427490234375e+01 -1.175511240959167480e+00 -6.387445926666259766e-01 -1.699617952108383179e-01 -2.426119148731231689e-01 2.781932055950164795e-01
3.555000000000000000e+03 2.848646163940429688e+01 -2.198873519897460938e+00 5.008876696228981018e-02 -1.473135352134704590e-01 -2.916743047535419464e-02 -3.101323964074254036e-03
3.556000000000000000e+03 2.930397224426269531e+01 -2.423318624496459961e+00 -1.270120143890380859e-01 3.549665585160255432e-02 -2.745460718870162964e-02 2.980274707078933716e-02
3.557000000000000000e+03 1.982421684265136719e+01 3.275624811649322510e-01 -1.597100943326950073e-01 4.008383676409721375e-02 -3.588787466287612915e-02 -2.680519782006740570e-02
3.558000000000000000e+03 1.909939575195312500e+01 1.000163033604621887e-01 -8.525083214044570923e-02 2.235637791454792023e-02 -1.886833645403385162e-02 -2.198402024805545807e-02
3.559000000000000000e+03 1.978351783752441406e+01 -9.413920342922210693e-02 -1.711979694664478302e-02 -4.064785316586494446e-02 -1.733029447495937347e-02 -5.991898942738771439e-03
3.560000000000000000e+03 2.930961036682128906e+01 -1.660121440887451172e+00 -3.396253883838653564e-01 -1.018375307321548462e-01 -1.324388682842254639e-01 1.168462857604026794e-01
3.561000000000000000e+03 3.012296295166015625e+01 -2.638345956802368164e+00 -1.175164654850959778e-01 -1.853875666856765747e-01 -9.087120741605758667e-02 1.711308211088180542e-02
3.562000000000000000e+03 3.009844779968261719e+01 -1.867299437522888184e+00 -3.506920635700225830e-01 -9.537453763186931610e-03 -1.080688610672950745e-01 5.058130249381065369e-02
3.563000000000000000e+03 2.688036918640136719e+01 -8.299868702888488770e-01 -9.918230175971984863e-01 -4.880941286683082581e-02 -3.121897280216217041e-01 3.883161246776580811e-01
3.564000000000000000e+03 2.669494247436523438e+01 -1.065739393234252930e+00 5.757434964179992676e-01 1.556680649518966675e-01 2.194234728813171387e-01 -4.296337366104125977e-01
3.565000000000000000e+03 2.604942893981933594e+01 -5.149537920951843262e-01 -1.493180751800537109e+00 -2.044084817171096802e-01 -5.092767477035522461e-01 3.318642675876617432e-01
3.566000000000000000e+03 2.534797477722167969e+01 -2.902369797229766846e-01 -9.350009560585021973e-01 3.090249896049499512e-01 -1.877927780151367188e-01 2.489244788885116577e-01
3.567000000000000000e+03 2.502335357666015625e+01 -2.417187690734863281e-01 -3.238863706588745117e+00 -4.143043458461761475e-01 -1.095950365066528320e+00 1.208756566047668457e+00
3.568000000000000000e+03 2.246835899353027344e+01 1.378261744976043701e-01 -2.429004758596420288e-01 3.549694418907165527e-01 3.362069278955459595e-02 -9.780859202146530151e-02
3.569000000000000000e+03 1.996188163757324219e+01 8.227458000183105469e-01 -2.471124827861785889e-01 -1.250378638505935669e-01 -1.116451025009155273e-01 5.799077916890382767e-03
3.570000000000000000e+03 1.914756202697753906e+01 5.841042995452880859e-01 -1.911170482635498047e-01 -2.448715269565582275e-02 -6.468126177787780762e-02 -7.974307052791118622e-03
3.571000000000000000e+03 1.921282958984375000e+01 1.082078099250793457e+00 -1.550918966531753540e-01 1.110026389360427856e-01 -1.322677824646234512e-02 3.823034837841987610e-02
3.572000000000000000e+03 2.035116004943847656e+01 -1.736120879650115967e-01 -1.159243937581777573e-02 2.468722164630889893e-01 7.058393210172653198e-02 -7.658785581588745117e-02
3.573000000000000000e+03 2.161278152465820312e+01 8.425430953502655029e-02 -1.817143112421035767e-01 -2.276696860790252686e-01 -1.228151991963386536e-01 4.657106846570968628e-02
3.574000000000000000e+03 2.852224922180175781e+01 -1.443525433540344238e+00 -4.431946873664855957e-01 -4.369280487298965454e-02 -1.460662484169006348e-01 1.893899440765380859e-01
3.575000000000000000e+03 2.421053886413574219e+01 -1.071830093860626221e-01 -2.214761734008789062e+00 -8.403877913951873779e-02 -6.896401643753051758e-01 1.803496330976486206e-01
3.576000000000000000e+03 2.475981521606445312e+01 -1.221572384238243103e-01 -2.487010240554809570e+00 -6.178222894668579102e-01 -9.314497709274291992e-01 7.400718331336975098e-01
3.577000000000000000e+03 2.316209220886230469e+01 1.658043712377548218e-01 -3.438843488693237305e-01 -2.653848528861999512e-01 -1.827807575464248657e-01 2.233087569475173950e-01
3.578000000000000000e+03 3.171501731872558594e+01 -2.317536830902099609e+00 -2.152239084243774414e-01 -1.152820736169815063e-01 -9.915179759263992310e-02 -5.935822054743766785e-02
3.579000000000000000e+03 3.159167480468750000e+01 -1.573781251907348633e+00 -2.489200681447982788e-01 1.241561025381088257e-02 -7.095133513212203979e-02 -1.042876541614532471e-01
3.580000000000000000e+03 3.092625236511230469e+01 -2.603541374206542969e+00 -1.546121239662170410e-01 -5.813359841704368591e-02 -6.382371485233306885e-02 -2.158951573073863983e-02
3.581000000000000000e+03 3.329127502441406250e+01 -1.721204519271850586e+00 -2.333157658576965332e-01 -6.505297124385833740e-02 -8.951061964035034180e-02 -8.590126037597656250e-02
3.582000000000000000e+03 3.305626296997070312e+01 -1.019069790840148926e+00 -2.638771533966064453e-01 4.954233299940824509e-03 -7.767686992883682251e-02 -1.200867444276809692e-01
3.583000000000000000e+03 3.232479095458984375e+01 -1.299670934677124023e+00 -2.563927769660949707e-01 -8.895851671695709229e-02 -1.036053895950317383e-01 -9.001295268535614014e-02
3.584000000000000000e+03 3.250396728515625000e+01 -2.022616147994995117e+00 -2.142572849988937378e-01 -1.629615435376763344e-03 -6.476607173681259155e-02 -1.206975206732749939e-01
3.585000000000000000e+03 3.085874366760253906e+01 -1.838975429534912109e+00 -3.158952295780181885e-01 -1.220136806368827820e-01 -1.313726752996444702e-01 -4.023613408207893372e-02
3.586000000000000000e+03 3.381026458740234375e+01 -7.248246073722839355e-01 -2.745552062988281250e-01 -7.172705978155136108e-02 -1.038846746087074280e-01 -8.647394180297851562e-02
3.587000000000000000e+03 3.458703231811523438e+01 -4.199312925338745117e-01 -2.492922246456146240e-01 1.425840519368648529e-02 -7.051014900207519531e-02 -9.650345146656036377e-02
3.588000000000000000e+03 3.405215835571289062e+01 -1.424708485603332520e+00 -2.391082346439361572e-01 2.337223477661609650e-02 -6.472080200910568237e-02 -1.009999066591262817e-01
3.589000000000000000e+03 3.536509704589843750e+01 -1.194015666842460632e-01 -2.200368046760559082e-01 -4.079069569706916809e-02 -7.824824750423431396e-02 -5.022283270955085754e-02
3.590000000000000000e+03 3.614285659790039062e+01 1.828823834657669067e-01 -1.588142663240432739e-01 3.059325926005840302e-02 -3.846630081534385681e-02 -3.693513572216033936e-02
3.591000000000000000e+03 3.691955184936523438e+01 4.870322942733764648e-01 -9.893236309289932251e-02 -2.231293730437755585e-02 -3.637358918786048889e-02 -4.911137279123067856e-03
3.592000000000000000e+03 3.769688415527343750e+01 7.879440784454345703e-01 -3.857874870300292969e-02 4.333852604031562805e-02 1.427932991646230221e-03 1.107366476207971573e-02
3.593000000000000000e+03 3.846224212646484375e+01 2.872591614723205566e-01 -6.889453530311584473e-02 3.056417778134346008e-02 -1.149910688400268555e-02 3.901707753539085388e-02
3.594000000000000000e+03 3.847284317016601562e+01 1.084994435310363770e+00 6.331451004371047020e-04 -3.523258864879608154e-02 -1.037983316928148270e-02 1.086618565022945404e-02
3.595000000000000000e+03 3.478684234619140625e+01 -1.136123776435852051e+00 -2.541035115718841553e-01 -1.167135965079069138e-02 -7.973245531320571899e-02 -5.064823105931282043e-02
3.596000000000000000e+03 3.552282333374023438e+01 -8.519025444984436035e-01 -2.351042032241821289e-01 5.667317286133766174e-02 -5.352930724620819092e-02 -4.264768585562705994e-02
3.597000000000000000e+03 3.625850296020507812e+01 -5.659272074699401855e-01 -2.236297428607940674e-01 1.874693855643272400e-02 -6.146484240889549255e-02 2.718656091019511223e-03
3.598000000000000000e+03 3.699311447143554688e+01 -2.780858278274536133e-01 -1.717424541711807251e-01 6.184194982051849365e-02 -3.297014907002449036e-02 2.155890315771102905e-02
3.599000000000000000e+03 3.772836685180664062e+01 6.517409812659025192e-03 -1.271378248929977417e-01 2.398298820480704308e-03 -3.742185607552528381e-02 2.818173542618751526e-02
3.600000000000000000e+03 4.027894592285156250e+01 -2.541387975215911865e-01 -6.907289382070302963e-03 -4.609636589884757996e-02 -1.590109616518020630e-02 5.335658788681030273e-02
3.601000000000000000e+03 4.047003936767578125e+01 4.750773012638092041e-01 8.491338044404983521e-02 2.610310353338718414e-02 3.330494463443756104e-02 -1.004749163985252380e-02
3.602000000000000000e+03 3.969956207275390625e+01 2.476016059517860413e-02 -8.808826096355915070e-03 -4.769691266119480133e-03 -4.073555115610361099e-03 4.212885722517967224e-02
3.603000000000000000e+03 4.085557556152343750e+01 -5.415500402450561523e-01 -2.857857197523117065e-02 -3.349754214286804199e-02 -1.862283423542976379e-02 6.954159587621688843e-02
3.604000000000000000e+03 4.111045455932617188e+01 1.569967120885848999e-01 1.357934772968292236e-01 -1.644524186849594116e-02 3.580446913838386536e-02 -3.668903186917304993e-02
3.605000000000000000e+03 3.982687759399414062e+01 7.846456766128540039e-01 4.470991715788841248e-02 -3.283396363258361816e-02 3.562785917893052101e-03 -8.545505814254283905e-03
3.606000000000000000e+03 3.911914825439453125e+01 2.937080264091491699e-01 -1.986916735768318176e-02 -5.368950590491294861e-02 -2.206760272383689880e-02 4.336264356970787048e-02
3.607000000000000000e+03 3.918268203735351562e+01 1.084262847900390625e+00 2.104560099542140961e-02 3.187507390975952148e-02 1.587620191276073456e-02 3.426200244575738907e-03
3.608000000000000000e+03 4.250700378417968750e+01 -3.963981866836547852e-01 1.568176001310348511e-01 3.482143394649028778e-03 4.808992519974708557e-02 -7.556062191724777222e-02
3.609000000000000000e+03 4.151531600952148438e+01 -8.242236971855163574e-01 -5.724403634667396545e-02 -7.787775993347167969e-02 -4.053653776645660400e-02 4.194161295890808105e-02
3.610000000000000000e+03 4.375409698486328125e+01 -1.632939934730529785e+00 -2.165352404117584229e-01 6.603096262551844120e-04 -6.476248055696487427e-02 -1.075277179479598999e-01
3.611000000000000000e+03 4.300669479370117188e+01 -1.363770723342895508e+00 -8.893831819295883179e-02 7.396805565804243088e-03 -2.446245402097702026e-02 -2.244171313941478729e-02
3.612000000000000000e+03 4.394734954833984375e+01 -9.159503579139709473e-01 4.085568338632583618e-02 2.585287764668464661e-02 2.001256868243217468e-02 -5.415071547031402588e-02
3.613000000000000000e+03 4.178872680664062500e+01 -1.361862868070602417e-01 1.718089282512664795e-01 2.222851105034351349e-02 5.821122974157333374e-02 -4.867919534444808960e-02
3.614000000000000000e+03 4.322666549682617188e+01 -6.564318537712097168e-01 1.062059700489044189e-01 4.106434807181358337e-02 4.418109357357025146e-02 -7.084357738494873047e-02
3.615000000000000000e+03 4.226031494140625000e+01 -1.094086289405822754e+00 -9.085685759782791138e-02 -3.659694269299507141e-02 -3.823614120483398438e-02 -9.794563986361026764e-03
3.616000000000000000e+03 4.469203567504882812e+01 -1.104038357734680176e+00 -7.197923958301544189e-02 2.196706598624587059e-03 -2.093476057052612305e-02 -6.041469797492027283e-02
3.617000000000000000e+03 4.700760269165039062e+01 -2.182412624359130859e+00 -3.015176653861999512e-01 2.113943733274936676e-02 -8.411346375942230225e-02 5.787235684692859650e-03
3.618000000000000000e+03 4.453843307495117188e+01 -1.829608321189880371e+00 -3.202295005321502686e-01 5.491387844085693359e-02 -7.959469407796859741e-02 -8.568724989891052246e-02
3.619000000000000000e+03 4.618450164794921875e+01 -2.070826292037963867e+00 -3.105166852474212646e-01 3.269491717219352722e-02 -8.334653079509735107e-02 -4.205957427620887756e-02
3.620000000000000000e+03 4.700347900390625000e+01 -1.434312224388122559e+00 -3.310690820217132568e-01 -1.232454436831176281e-03 -9.969045966863632202e-02 1.065596658736467361e-02
3.621000000000000000e+03 4.546185302734375000e+01 -1.219994664192199707e+00 -1.887468695640563965e-01 3.885370865464210510e-02 -4.496794566512107849e-02 -2.563702687621116638e-02
3.622000000000000000e+03 4.536082458496093750e+01 -1.953074812889099121e+00 -2.944880723953247070e-01 5.679332464933395386e-02 -7.130842655897140503e-02 -4.328546673059463501e-02
3.623000000000000000e+03 4.623295593261718750e+01 -1.330235958099365234e+00 -2.655144631862640381e-01 1.649889163672924042e-03 -7.915937155485153198e-02 7.935576140880584717e-03
3.624000000000000000e+03 4.851011657714843750e+01 -1.236653327941894531e+00 -2.007202655076980591e-01 1.712070219218730927e-02 -5.507986992597579956e-02 -4.116126801818609238e-03
3.625000000000000000e+03 4.858726501464843750e+01 -1.977923154830932617e+00 -2.341342121362686157e-01 2.627770975232124329e-02 -6.235695257782936096e-02 6.896532326936721802e-02
3.626000000000000000e+03 4.780811309814453125e+01 -2.150522232055664062e+00 -2.759165763854980469e-01 1.438383478671312332e-02 -7.845982164144515991e-02 6.074671074748039246e-02
3.627000000000000000e+03 4.925864410400390625e+01 -1.067628383636474609e+00 -1.242935955524444580e-01 -4.926656372845172882e-03 -3.876607492566108704e-02 9.572376497089862823e-03
3.628000000000000000e+03 5.000643920898437500e+01 -8.943891525268554688e-01 -6.558441370725631714e-02 1.051479764282703400e-02 -1.652088388800621033e-02 8.160847239196300507e-03
3.629000000000000000e+03 5.014590454101562500e+01 -1.621544718742370605e+00 -1.009482368826866150e-01 4.932712763547897339e-03 -2.880465611815452576e-02 5.437786504626274109e-02
3.630000000000000000e+03 4.936695098876953125e+01 -1.801841139793395996e+00 -1.673706024885177612e-01 1.626290008425712585e-02 -4.533230885863304138e-02 6.072893738746643066e-02
3.631000000000000000e+03 4.776212310791015625e+01 -1.402195334434509277e+00 -3.024476766586303711e-01 -1.646765135228633881e-02 -9.567460417747497559e-02 -3.467518370598554611e-03
3.632000000000000000e+03 5.157225418090820312e+01 -1.315138578414916992e+00 -3.279368951916694641e-02 -3.318781265988945961e-03 -1.083374116569757462e-02 2.771025151014328003e-02
3.633000000000000000e+03 5.295627212524414062e+01 -1.038722634315490723e+00 -5.003745667636394501e-03 2.743967808783054352e-02 6.730780005455017090e-03 -8.793138898909091949e-03
3.634000000000000000e+03 5.290069961547851562e+01 -2.949934005737304688e-01 5.148502532392740250e-03 3.571696113795042038e-03 2.616059500724077225e-03 3.552952548488974571e-03
3.635000000000000000e+03 5.145984268188476562e+01 -5.828963518142700195e-01 1.300797332078218460e-03 -4.456826485693454742e-03 -9.468086645938456059e-04 3.980443812906742096e-03
3.636000000000000000e+03 5.088082885742187500e+01 -1.458093881607055664e+00 -6.342731416225433350e-02 -6.960277445614337921e-03 -2.111627906560897827e-02 2.739090472459793091e-02
3.637000000000000000e+03 5.073999786376953125e+01 -7.315950989723205566e-01 -2.278858795762062073e-02 -2.293700352311134338e-03 -7.524686399847269058e-03 1.471526455134153366e-02
3.638000000000000000e+03 5.226421737670898438e+01 -1.175352215766906738e+00 -2.296322723850607872e-03 -2.715115621685981750e-02 -8.834243752062320709e-03 2.346656518056988716e-03
3.639000000000000000e+03 5.218022537231445312e+01 -4.373664855957031250e-01 5.473791155964136124e-03 1.451544580049812794e-03 2.077600685879588127e-03 -2.547420735936611891e-04
3.640000000000000000e+03 5.362383270263671875e+01 -2.363446354866027832e-01 1.916974782943725586e-02 2.277591964229941368e-03 6.434201728552579880e-03 9.758479893207550049e-03
3.641000000000000000e+03 5.509365844726562500e+01 -7.023676484823226929e-02 6.245641782879829407e-02 3.941405937075614929e-02 3.056114353239536285e-02 1.150158792734146118e-02
3.642000000000000000e+03 5.574055862426757812e+01 -1.146264672279357910e-01 2.417550981044769287e-02 -2.838281355798244476e-02 -1.262190984562039375e-03 -1.613649539649486542e-02
3.643000000000000000e+03 5.454681777954101562e+01 -6.096401214599609375e-01 -2.811991982161998749e-02 8.414171636104583740e-03 -5.911724641919136047e-03 7.195517886430025101e-03
3.644000000000000000e+03 5.366928863525390625e+01 -9.844164252281188965e-01 -4.832195863127708435e-02 -1.907933503389358521e-02 -2.022038772702217102e-02 -8.777827955782413483e-03
3.645000000000000000e+03 5.524822998046875000e+01 -1.898349970579147339e-01 7.736855000257492065e-02 3.426697105169296265e-02 3.349065780639648438e-02 -4.406839981675148010e-02
3.646000000000000000e+03 5.438975906372070312e+01 -1.598483771085739136e-01 2.849810197949409485e-02 -1.796244457364082336e-02 3.160697640851140022e-03 -5.382002796977758408e-03
3.647000000000000000e+03 5.569242858886718750e+01 -1.540369391441345215e-01 -7.934131659567356110e-03 9.446527808904647827e-03 4.537186759989708662e-04 -1.896513439714908600e-02
3.648000000000000000e+03 5.577302932739257812e+01 -8.065423369407653809e-02 -7.665014360100030899e-03 -3.328348696231842041e-02 -1.228455081582069397e-02 -2.576447650790214539e-02
3.649000000000000000e+03 5.630217361450195312e+01 -1.307823061943054199e-01 -1.367027778178453445e-02 2.098138257861137390e-02 2.193331252783536911e-03 1.494037080556154251e-02
3.650000000000000000e+03 5.551834869384765625e+01 -1.509499549865722656e-01 -5.139527469873428345e-02 -9.863620996475219727e-02 -4.500944539904594421e-02 2.385365031659603119e-02
3.651000000000000000e+03 5.550067520141601562e+01 -8.569282293319702148e-02 -9.205151349306106567e-02 -5.235430598258972168e-02 -4.332174733281135559e-02 -1.719732210040092468e-02
3.652000000000000000e+03 5.613978195190429688e+01 -1.772572547197341919e-01 -3.579868003726005554e-02 3.074612468481063843e-02 -1.515767071396112442e-03 -1.301541225984692574e-03
3.653000000000000000e+03 5.569453811645507812e+01 -2.217940688133239746e-01 -1.029860228300094604e-03 -2.486438304185867310e-02 -7.768272887915372849e-03 -2.305716462433338165e-02
3.654000000000000000e+03 5.589992523193359375e+01 -1.446481943130493164e-01 8.862045069690793753e-05 -7.655379921197891235e-02 -2.293955534696578979e-02 -1.949067600071430206e-02
3.655000000000000000e+03 5.586287307739257812e+01 -1.706803888082504272e-01 1.916143298149108887e-02 -6.894077360630035400e-02 -1.493380125612020493e-02 -1.595478132367134094e-02
3.656000000000000000e+03 5.595853424072265625e+01 -1.690124869346618652e-01 1.484213210642337799e-02 -1.914913579821586609e-02 -1.292100874707102776e-03 -4.443149641156196594e-02
3.657000000000000000e+03 5.604990386962890625e+01 -1.501243412494659424e-01 -3.352888301014900208e-02 2.015788666903972626e-02 -4.011299461126327515e-03 -8.005768060684204102e-03
3.658000000000000000e+03 5.566451263427734375e+01 -1.948225051164627075e-01 1.338870357722043991e-02 -4.356482625007629395e-02 -9.052837267518043518e-03 7.853185757994651794e-03
3.659000000000000000e+03 5.615749359130859375e+01 -1.953846663236618042e-01 -1.481958013027906418e-02 1.772498339414596558e-02 8.716211304999887943e-04 2.357874624431133270e-02
3.660000000000000000e+03 5.595515441894531250e+01 -1.942978352308273315e-01 -9.890303015708923340e-03 -8.378350175917148590e-03 -5.480595864355564117e-03 -2.576061896979808807e-02
3.661000000000000000e+03 5.421028137207031250e+01 1.210087537765502930e+00 -2.793239593505859375e+00 -1.099442914128303528e-01 -8.709551692008972168e-01 2.852180898189544678e-01
3.662000000000000000e+03 5.500279617309570312e+01 3.912179172039031982e-01 -3.371632575988769531e+00 -2.974294871091842651e-02 -1.020412683486938477e+00 3.408549427986145020e-01
3.663000000000000000e+03 5.722127151489257812e+01 1.402611732482910156e-01 -5.042364597320556641e+00 -4.357595741748809814e-01 -1.643437147140502930e+00 4.110554456710815430e-01
3.664000000000000000e+03 5.794345855712890625e+01 5.567647218704223633e-01 -3.015656471252441406e+00 -9.610272645950317383e-01 -1.193005084991455078e+00 4.931499660015106201e-01
3.665000000000000000e+03 5.804219436645507812e+01 -2.509897947311401367e-02 -4.196804046630859375e+00 -1.145443201065063477e+00 -1.602674126625061035e+00 1.588708519935607910e+00
3.666000000000000000e+03 5.357317352294921875e+01 5.265326499938964844e-01 -3.437309503555297852e+00 -1.480595767498016357e-01 -1.075610756874084473e+00 1.978773623704910278e-01
3.667000000000000000e+03 5.574547576904296875e+01 3.283102214336395264e-01 -3.446509122848510742e+00 -7.595289498567581177e-02 -1.056738615036010742e+00 3.818072378635406494e-01
3.668000000000000000e+03 5.352043914794921875e+01 1.275469660758972168e+00 -2.469915151596069336e+00 -2.089560627937316895e-01 -8.036614060401916504e-01 3.259112536907196045e-01
3.669000000000000000e+03 5.562464141845703125e+01 1.088724851608276367e+00 -2.862832546234130859e+00 -3.562008589506149292e-02 -8.695357441902160645e-01 3.434658348560333252e-01
3.670000000000000000e+03 5.627251815795898438e+01 1.124233365058898926e+00 -3.139415502548217773e+00 -1.842224225401878357e-02 -9.473513364791870117e-01 4.973678886890411377e-01
3.671000000000000000e+03 5.490466308593750000e+01 1.147806644439697266e+00 -2.856746196746826172e+00 -8.336118608713150024e-02 -8.820322155952453613e-01 3.798786103725433350e-01
3.672000000000000000e+03 5.650026321411132812e+01 2.100781798362731934e-01 -3.355943679809570312e+00 2.504494488239288330e-01 -9.316482543945312500e-01 1.680832803249359131e-01
3.673000000000000000e+03 5.428571701049804688e+01 4.573245644569396973e-01 -3.337222337722778320e+00 -4.677982255816459656e-02 -1.015200614929199219e+00 3.306778073310852051e-01
3.674000000000000000e+03 5.684514236450195312e+01 1.138028025627136230e+00 -2.788103103637695312e+00 -5.553384423255920410e-01 -1.003032445907592773e+00 7.732056379318237305e-01
3.675000000000000000e+03 5.747990417480468750e+01 9.627215266227722168e-01 -2.842572450637817383e+00 -6.608859896659851074e-01 -1.051037549972534180e+00 5.208037495613098145e-01
3.676000000000000000e+03 5.729281616210937500e+01 5.642969012260437012e-01 -3.525567770004272461e+00 -9.395235776901245117e-01 -1.339527368545532227e+00 1.009920001029968262e+00
3.677000000000000000e+03 5.666289138793945312e+01 7.308177947998046875e-01 -3.639577150344848633e+00 -1.142169237136840820e-01 -1.126138210296630859e+00 7.584470510482788086e-01
3.678000000000000000e+03 5.045067596435546875e+01 7.608052492141723633e-01 -1.407634377479553223e+00 5.878544971346855164e-02 -4.046546816825866699e-01 2.286240011453628540e-01
3.679000000000000000e+03 5.059151077270507812e+01 3.430651128292083740e-02 -1.274029016494750977e+00 -1.880191266536712646e-02 -3.878492712974548340e-01 -7.780355960130691528e-02
3.680000000000000000e+03 5.284211730957031250e+01 4.887914061546325684e-01 -3.005847930908203125e+00 -1.391498595476150513e-01 -9.434993267059326172e-01 -5.330944433808326721e-02
3.681000000000000000e+03 5.209175872802734375e+01 3.407791554927825928e-01 -2.183217763900756836e+00 1.366537908324971795e-04 -6.549243330955505371e-01 -1.605629920959472656e-01
3.682000000000000000e+03 5.200776672363281250e+01 1.078764796257019043e+00 -2.170317649841308594e+00 4.401084035634994507e-02 -6.378920078277587891e-01 3.876129984855651855e-01
3.683000000000000000e+03 5.278653335571289062e+01 1.232732176780700684e+00 -2.300492525100708008e+00 -1.184747815132141113e-01 -7.256901860237121582e-01 4.499351680278778076e-01
3.684000000000000000e+03 5.122899246215820312e+01 9.213988184928894043e-01 -1.721645236015319824e+00 6.740739196538925171e-02 -4.962713420391082764e-01 2.463527619838714600e-01
3.685000000000000000e+03 5.134140396118164062e+01 1.891566067934036255e-01 -1.683079481124877930e+00 4.549134057015180588e-03 -5.035591125488281250e-01 -1.037212833762168884e-01
3.686000000000000000e+03 4.773153305053710938e+01 2.793712317943572998e-01 -6.360884904861450195e-01 1.559508312493562698e-02 -1.861480325460433960e-01 9.800926595926284790e-02
3.687000000000000000e+03 4.898356246948242188e+01 2.312663495540618896e-01 -8.347120285034179688e-01 2.431679889559745789e-02 -2.431185543537139893e-01 9.404926747083663940e-02
3.688000000000000000e+03 4.772686386108398438e+01 -7.346830368041992188e-01 -2.754125893115997314e-01 -3.882748307660222054e-03 -8.378859609365463257e-02 -1.759946532547473907e-02
3.689000000000000000e+03 4.850590896606445312e+01 4.470436275005340576e-01 -8.092561364173889160e-01 3.364262729883193970e-02 -2.326840609312057495e-01 1.431699693202972412e-01
3.690000000000000000e+03 4.965979766845703125e+01 5.728724002838134766e-01 -1.088302850723266602e+00 3.059685230255126953e-02 -3.173117935657501221e-01 1.790989339351654053e-01
3.691000000000000000e+03 4.985495758056640625e+01 -1.416693180799484253e-01 -9.450174570083618164e-01 4.597889259457588196e-03 -2.821258604526519775e-01 -6.596678495407104492e-02
3.692000000000000000e+03 4.771175384521484375e+01 -2.315331995487213135e-01 -4.694042205810546875e-01 2.555456943809986115e-02 -1.331548988819122314e-01 3.300435096025466919e-02
3.693000000000000000e+03 4.844728851318359375e+01 -5.625565052032470703e-01 -4.335261285305023193e-01 3.543284023180603981e-03 -1.289948523044586182e-01 -3.416236862540245056e-02
3.694000000000000000e+03 4.914781570434570312e+01 -3.561015129089355469e-01 -6.689453125000000000e-01 -1.286926213651895523e-02 -2.045443803071975708e-01 -4.423430934548377991e-02
3.695000000000000000e+03 4.839570236206054688e+01 -7.538548856973648071e-02 -5.958925485610961914e-01 1.616657711565494537e-02 -1.739177852869033813e-01 2.934248372912406921e-02
3.696000000000000000e+03 4.487638854980468750e+01 -3.404561579227447510e-01 -2.786009311676025391e-01 -9.555150754749774933e-04 -8.386693149805068970e-02 4.609559848904609680e-02
3.697000000000000000e+03 4.561632156372070312e+01 -4.665780663490295410e-01 -2.825360596179962158e-01 1.061629372998140752e-04 -8.472897112369537354e-02 3.513882681727409363e-02
3.698000000000000000e+03 4.631862258911132812e+01 -6.191682815551757812e-01 -2.709910869598388672e-01 -1.211007870733737946e-02 -8.493035286664962769e-02 3.404727950692176819e-02
3.699000000000000000e+03 4.701073455810546875e+01 -7.599012255668640137e-01 -2.393690794706344604e-01 2.060890384018421173e-02 -6.562805175781250000e-02 1.560819707810878754e-02
3.700000000000000000e+03 4.698373413085937500e+01 2.279398143291473389e-01 -5.217335224151611328e-01 1.637688279151916504e-02 -1.516069918870925903e-01 7.078367471694946289e-02
3.701000000000000000e+03 4.508298492431640625e+01 3.775442838668823242e-01 -4.575312733650207520e-01 6.713896989822387695e-03 -1.352452188730239868e-01 8.225905895233154297e-02
3.702000000000000000e+03 4.587632369995117188e+01 2.437933832406997681e-01 -4.622631072998046875e-01 -6.470785941928625107e-03 -1.406201720237731934e-01 7.181024551391601562e-02
3.703000000000000000e+03 4.651185607910156250e+01 -2.970636822283267975e-02 -4.400651752948760986e-01 1.732935383915901184e-02 -1.268207430839538574e-01 5.137783661484718323e-02
3.704000000000000000e+03 4.705047988891601562e+01 -2.730993330478668213e-01 -3.945176303386688232e-01 1.910443603992462158e-02 -1.126239597797393799e-01 2.538575232028961182e-02
3.705000000000000000e+03 4.301383972167968750e+01 1.033388495445251465e+00 -6.134783029556274414e-01 -5.464528221637010574e-03 -1.856828480958938599e-01 6.381429731845855713e-02
3.706000000000000000e+03 4.345863342285156250e+01 8.591742068529129028e-02 -3.815385103225708008e-01 -3.083699382841587067e-02 -1.237126514315605164e-01 8.881687372922897339e-02
3.707000000000000000e+03 4.207683563232421875e+01 5.882251858711242676e-01 -5.537765622138977051e-01 -6.210671365261077881e-02 -1.847649812698364258e-01 1.331065744161605835e-01
3.708000000000000000e+03 4.434420394897460938e+01 5.560463070869445801e-01 -4.894183874130249023e-01 -7.457593455910682678e-04 -1.470492482185363770e-01 6.881947070360183716e-02
3.709000000000000000e+03 4.415095138549804688e+01 -1.609432697296142578e-01 -3.006182312965393066e-01 -4.127141088247299194e-03 -9.142361581325531006e-02 7.297008484601974487e-02
3.710000000000000000e+03 4.235024261474609375e+01 1.276262640953063965e+00 -6.718632578849792480e-01 2.559357881546020508e-02 -1.938809156417846680e-01 1.182345226407051086e-01
3.711000000000000000e+03 4.367860412597656250e+01 7.932562828063964844e-01 -5.176556706428527832e-01 7.081063929945230484e-03 -1.531723737716674805e-01 8.426058292388916016e-02
3.712000000000000000e+03 4.276715087890625000e+01 3.357003033161163330e-01 -4.514397084712982178e-01 -1.334189809858798981e-02 -1.394344866275787354e-01 1.307338476181030273e-01
3.713000000000000000e+03 4.008607864379882812e+01 2.347794055938720703e+00 -1.740580081939697266e+00 -2.148806676268577576e-02 -5.286204218864440918e-01 -3.731810748577117920e-01
3.714000000000000000e+03 3.924859237670898438e+01 1.918622970581054688e+00 -3.016252756118774414e+00 -5.780981779098510742e-01 -1.078305363655090332e+00 1.222875993698835373e-02
3.715000000000000000e+03 4.066986846923828125e+01 1.245835542678833008e+00 -1.023388624191284180e+00 -1.512040942907333374e-01 -3.523778319358825684e-01 2.312361150979995728e-01
3.716000000000000000e+03 4.163364028930664062e+01 1.592744350433349609e+00 -9.139167070388793945e-01 8.068531751632690430e-03 -2.717544436454772949e-01 4.015197232365608215e-02
3.717000000000000000e+03 4.137876510620117188e+01 8.941976428031921387e-01 -6.906136870384216309e-01 -1.898905076086521149e-02 -2.128808200359344482e-01 2.261162996292114258e-01
3.718000000000000000e+03 3.931212234497070312e+01 2.709177732467651367e+00 -9.141393303871154785e-01 -5.146061182022094727e-01 -4.286236464977264404e-01 -7.496736049652099609e-01
3.719000000000000000e+03 4.086096572875976562e+01 1.975051641464233398e+00 -1.076320767402648926e+00 5.689204111695289612e-02 -3.058286011219024658e-01 6.736331433057785034e-02
3.720000000000000000e+03 3.995876693725585938e+01 1.587908506393432617e+00 -1.497051835060119629e+00 3.284698119387030602e-03 -4.481301605701446533e-01 3.955363333225250244e-01
3.721000000000000000e+03 3.316690444946289062e+01 7.908318638801574707e-01 -1.220045208930969238e+00 -1.158751547336578369e-02 -3.694898188114166260e-01 -4.857445657253265381e-01
3.722000000000000000e+03 3.399934387207031250e+01 6.623410582542419434e-01 -1.401130557060241699e+00 -2.385516911745071411e-01 -4.919046759605407715e-01 -7.620390653610229492e-01
3.723000000000000000e+03 3.436914443969726562e+01 1.189764857292175293e+00 -2.581025600433349609e+00 -4.132598340511322021e-01 -8.982856273651123047e-01 -7.799803465604782104e-02
3.724000000000000000e+03 3.783919525146484375e+01 2.484255313873291016e+00 -3.631870448589324951e-01 9.263721704483032227e-01 1.689555346965789795e-01 5.167504549026489258e-01
3.725000000000000000e+03 3.703740692138671875e+01 1.373660683631896973e+00 -2.476003646850585938e+00 2.317880988121032715e-01 -6.732646822929382324e-01 -2.454058825969696045e-01
3.726000000000000000e+03 3.334777450561523438e+01 3.404574692249298096e-01 -3.593333363533020020e-01 -9.650268405675888062e-02 -1.367508023977279663e-01 -4.512945413589477539e-01
3.727000000000000000e+03 3.353592681884765625e+01 -1.197979226708412170e-01 -3.081589937210083008e-01 -5.505919829010963440e-02 -1.089654564857482910e-01 -2.030269503593444824e-01
3.728000000000000000e+03 3.501575469970703125e+01 1.059977054595947266e+00 -2.714240074157714844e+00 -4.480417370796203613e-01 -9.486845135688781738e-01 -5.303838849067687988e-01
3.729000000000000000e+03 3.555833053588867188e+01 6.905598640441894531e-01 -1.173544526100158691e-01 3.443835973739624023e-01 6.810873746871948242e-02 2.097512781620025635e-01
3.730000000000000000e+03 3.575750350952148438e+01 1.575511693954467773e+00 -3.724727153778076172e+00 -2.557603716850280762e-01 -1.194146275520324707e+00 -5.499383807182312012e-01
3.731000000000000000e+03 3.622613906860351562e+01 1.030777692794799805e+00 -1.237244248390197754e+00 4.551124945282936096e-02 -3.575198948383331299e-01 1.640910506248474121e-01
3.732000000000000000e+03 3.782004547119140625e+01 1.683207035064697266e+00 -3.244004726409912109e+00 1.964710503816604614e-01 -9.142600893974304199e-01 -1.025784492492675781e+00
3.733000000000000000e+03 3.853881835937500000e+01 1.949121356010437012e+00 -3.851471662521362305e+00 -1.016685366630554199e+00 -1.460447072982788086e+00 -1.021693110466003418e+00
3.734000000000000000e+03 3.856629180908203125e+01 2.753397226333618164e+00 -9.343888610601425171e-02 -4.742920696735382080e-01 -1.703192889690399170e-01 1.414460092782974243e-01
3.735000000000000000e+03 3.379653930664062500e+01 1.053609251976013184e+00 -1.615529179573059082e+00 -4.959242045879364014e-02 -4.995364844799041748e-01 -7.412943989038467407e-02
3.736000000000000000e+03 3.424254989624023438e+01 2.046553343534469604e-01 2.990711331367492676e-01 -8.833263069391250610e-02 6.322155147790908813e-02 -2.225769013166427612e-01
3.737000000000000000e+03 3.494199752807617188e+01 4.520132541656494141e-01 4.623502194881439209e-01 -3.116697967052459717e-01 4.520412161946296692e-02 2.592218518257141113e-01
3.738000000000000000e+03 3.690625000000000000e+01 2.049182176589965820e+00 -1.414839744567871094e+00 1.866296678781509399e-01 -3.684630095958709717e-01 -2.623150944709777832e-01
3.739000000000000000e+03 3.083432960510253906e+01 -2.170480340719223022e-01 -6.247711777687072754e-01 9.223896265029907227e-02 -1.597596555948257446e-01 -9.142547100782394409e-02
3.740000000000000000e+03 3.085270309448242188e+01 -9.999262094497680664e-01 -4.334241449832916260e-01 4.368457570672035217e-02 -1.169218719005584717e-01 -7.523395121097564697e-02
3.741000000000000000e+03 3.216926574707031250e+01 -6.736713051795959473e-01 -5.509862899780273438e-01 -6.795747578144073486e-02 -1.856831312179565430e-01 -2.386357188224792480e-01
3.742000000000000000e+03 3.193232536315917969e+01 -3.087860345840454102e-01 -5.455170869827270508e-01 -1.055125333368778229e-02 -1.668205112218856812e-01 -2.008043974637985229e-01
3.743000000000000000e+03 3.283817291259765625e+01 -3.977768719196319580e-01 -4.724196195602416992e-01 -1.096344441175460815e-01 -1.746162176132202148e-01 -2.004149407148361206e-01
3.744000000000000000e+03 3.245020675659179688e+01 5.051715970039367676e-01 -6.713078618049621582e-01 -8.662238717079162598e-03 -2.039910256862640381e-01 -3.238085508346557617e-01
3.745000000000000000e+03 3.264751434326171875e+01 4.808262735605239868e-02 -6.273606419563293457e-01 -1.064612790942192078e-01 -2.201465666294097900e-01 -2.775769531726837158e-01
3.746000000000000000e+03 3.166022682189941406e+01 1.470156908035278320e-01 -6.828131675720214844e-01 8.705963194370269775e-02 -1.787260621786117554e-01 -1.655104607343673706e-01
3.747000000000000000e+03 3.155240631103515625e+01 -8.315400481224060059e-01 -5.507851243019104004e-01 -4.062532633543014526e-02 -1.774231195449829102e-01 -1.677632480859756470e-01
3.748000000000000000e+03 1.934750747680664062e+01 2.503316402435302734e+00 -5.409336686134338379e-01 -8.858095109462738037e-02 -1.888543963432312012e-01 1.139364168047904968e-01
3.749000000000000000e+03 2.005070304870605469e+01 1.556338667869567871e+00 -7.264961600303649902e-01 -5.280391499400138855e-02 -2.337900102138519287e-01 1.850096285343170166e-01
3.750000000000000000e+03 1.928076362609863281e+01 1.756027221679687500e+00 -7.889211773872375488e-01 -6.618999689817428589e-02 -2.565333545207977295e-01 1.516605168581008911e-01
3.751000000000000000e+03 2.158648109436035156e+01 1.168682336807250977e+00 -7.364642620086669922e-01 -5.886250361800193787e-02 -2.385980337858200073e-01 2.003984451293945312e-01
3.752000000000000000e+03 2.367008972167968750e+01 1.447997570037841797e+00 -6.652920842170715332e-01 -6.880085170269012451e-02 -2.202278822660446167e-01 2.192564606666564941e-01
3.753000000000000000e+03 2.398398971557617188e+01 4.397454857826232910e-01 -8.416093587875366211e-01 -5.345140397548675537e-02 -2.685182392597198486e-01 2.353368997573852539e-01
3.754000000000000000e+03 2.469887161254882812e+01 3.147436380386352539e-01 -8.673666715621948242e-01 -6.612518429756164551e-02 -2.800475656986236572e-01 2.307875007390975952e-01
3.755000000000000000e+03 2.544874572753906250e+01 1.382237821817398071e-01 -8.785434961318969727e-01 -5.960106104612350464e-02 -2.814433872699737549e-01 2.356040775775909424e-01
3.756000000000000000e+03 2.621586036682128906e+01 -5.536601319909095764e-02 -8.846508860588073730e-01 -5.596015602350234985e-02 -2.821833193302154541e-01 2.295220792293548584e-01
3.757000000000000000e+03 2.698533821105957031e+01 -2.535507977008819580e-01 -8.698108196258544922e-01 -4.483337700366973877e-02 -2.743932604789733887e-01 2.143374830484390259e-01
3.758000000000000000e+03 2.775543594360351562e+01 -4.530771672725677490e-01 -8.246767520904541016e-01 -2.846918813884258270e-02 -2.559437751770019531e-01 1.830607950687408447e-01
3.759000000000000000e+03 2.852570533752441406e+01 -6.533444523811340332e-01 -7.455940246582031250e-01 -2.599806338548660278e-02 -2.314776182174682617e-01 1.502134352922439575e-01
3.760000000000000000e+03 2.929591369628906250e+01 -8.534791469573974609e-01 -6.291834115982055664e-01 1.619295775890350342e-02 -1.838971376419067383e-01 9.422466158866882324e-02
3.761000000000000000e+03 2.926732444763183594e+01 -8.137164264917373657e-02 -6.686720848083496094e-01 7.332456111907958984e-02 -1.786042600870132446e-01 2.297370508313179016e-02
3.762000000000000000e+03 3.006589889526367188e+01 -1.052599668502807617e+00 -4.566844105720520020e-01 2.544490620493888855e-02 -1.293718516826629639e-01 2.161122672259807587e-02
3.763000000000000000e+03 3.002997589111328125e+01 -2.785830497741699219e-01 -6.504034996032714844e-01 1.309051960706710815e-01 -1.558494865894317627e-01 -3.563000261783599854e-02
3.764000000000000000e+03 2.011011505126953125e+01 2.305536985397338867e+00 -6.087386608123779297e-01 -6.174479052424430847e-02 -2.011450380086898804e-01 1.385231763124465942e-01
3.765000000000000000e+03 2.087202262878417969e+01 2.111250400543212891e+00 -5.994033217430114746e-01 -6.321994215250015259e-02 -1.987869739532470703e-01 1.693592667579650879e-01
3.766000000000000000e+03 2.163122558593750000e+01 1.921698689460754395e+00 -6.105446815490722656e-01 -6.630212813615798950e-02 -2.030540555715560913e-01 1.881676763296127319e-01
3.767000000000000000e+03 2.237293434143066406e+01 1.747608900070190430e+00 -6.130691766738891602e-01 -7.223626971244812012e-02 -2.055916339159011841e-01 1.969179362058639526e-01
3.768000000000000000e+03 2.307785034179687500e+01 1.625204563140869141e+00 -6.304684877395629883e-01 -6.436985731124877930e-02 -2.084515094757080078e-01 2.092080861330032349e-01
3.769000000000000000e+03 2.305267715454101562e+01 1.058224320411682129e+00 -7.412363886833190918e-01 -5.869361758232116699e-02 -2.399789988994598389e-01 2.194083482027053833e-01
3.770000000000000000e+03 2.399843406677246094e+01 1.009448885917663574e+00 -7.074615359306335449e-01 -6.126733124256134033e-02 -2.306186556816101074e-01 2.185356914997100830e-01
3.771000000000000000e+03 2.545682334899902344e+01 9.007857441902160645e-01 -7.188723087310791016e-01 -4.836407303810119629e-02 -2.301709204912185669e-01 2.127389162778854370e-01
3.772000000000000000e+03 2.621660423278808594e+01 7.091050744056701660e-01 -7.317320704460144043e-01 -3.025980852544307709e-02 -2.285975664854049683e-01 1.963065415620803833e-01
3.773000000000000000e+03 2.774151420593261719e+01 3.152121007442474365e-01 -7.378334999084472656e-01 2.195185050368309021e-02 -2.147644907236099243e-01 1.319894641637802124e-01
3.774000000000000000e+03 2.850444984436035156e+01 1.168539151549339294e-01 -7.130122184753417969e-01 5.597909912467002869e-02 -1.971099227666854858e-01 6.692241132259368896e-02
3.775000000000000000e+03 2.081994628906250000e+01 1.360142946243286133e+00 -7.247487902641296387e-01 -5.215806514024734497e-02 -2.330720573663711548e-01 1.921089440584182739e-01
3.776000000000000000e+03 2.697874832153320312e+01 5.128293633460998535e-01 -7.383618354797363281e-01 -4.401836544275283813e-03 -2.228291034698486328e-01 1.659830957651138306e-01
3.777000000000000000e+03 2.471428298950195312e+01 1.075396537780761719e+00 -6.923885345458984375e-01 -6.315679848194122314e-02 -2.266635894775390625e-01 2.243279665708541870e-01
3.778000000000000000e+03 2.338191413879394531e+01 6.188696026802062988e-01 -8.047813177108764648e-01 -6.838336586952209473e-02 -2.619494199752807617e-01 2.195186764001846313e-01
3.779000000000000000e+03 2.233552169799804688e+01 9.926834106445312500e-01 -7.589816451072692871e-01 -6.186403706669807434e-02 -2.462536990642547607e-01 2.131060659885406494e-01
3.780000000000000000e+03 1.611225318908691406e+01 2.416136503219604492e+00 -3.043349981307983398e-01 5.036443471908569336e-03 -8.978956192731857300e-02 1.286951899528503418e-01
3.781000000000000000e+03 1.692862129211425781e+01 2.473628282546997070e+00 -3.954939544200897217e-01 2.105931378901004791e-02 -1.123303920030593872e-01 1.194274500012397766e-01
3.782000000000000000e+03 1.619552993774414062e+01 1.680045008659362793e+00 -3.305895924568176270e-01 1.006290595978498459e-02 -9.615800529718399048e-02 2.818191424012184143e-02
3.783000000000000000e+03 1.774459457397460938e+01 2.528052330017089844e+00 -4.861447215080261230e-01 -1.534056849777698517e-02 -1.504455804824829102e-01 1.399859786033630371e-01
3.784000000000000000e+03 1.851055526733398438e+01 1.834378838539123535e+00 -7.352118492126464844e-01 -5.241838097572326660e-02 -2.362890690565109253e-01 6.798432022333145142e-02
3.785000000000000000e+03 1.855901145935058594e+01 2.579250097274780273e+00 -4.965811073780059814e-01 -6.578309834003448486e-02 -1.687092632055282593e-01 1.498375684022903442e-01
3.786000000000000000e+03 1.696798706054687500e+01 1.734610080718994141e+00 -4.388324320316314697e-01 -5.885738879442214966e-03 -1.334154456853866577e-01 2.907962352037429810e-02
3.787000000000000000e+03 1.774004745483398438e+01 1.786107659339904785e+00 -5.593385100364685059e-01 1.294677332043647766e-02 -1.639175266027450562e-01 2.542878314852714539e-02
3.788000000000000000e+03 1.307423973083496094e+01 1.803115367889404297e+00 -2.615599520504474640e-02 -1.696757506579160690e-03 -8.355825208127498627e-03 6.565473228693008423e-02
3.789000000000000000e+03 1.322374725341796875e+01 1.078295350074768066e+00 5.408497527241706848e-02 1.185537688434123993e-02 1.978210546076297760e-02 3.453822433948516846e-02
3.790000000000000000e+03 1.396254444122314453e+01 1.243136167526245117e+00 -5.612000357359647751e-03 4.303603898733854294e-03 -3.925189084839075804e-04 3.540768846869468689e-02
3.791000000000000000e+03 1.470126342773437500e+01 1.407449364662170410e+00 -8.596620708703994751e-02 1.627949438989162445e-02 -2.090601436793804169e-02 2.636567130684852600e-02
3.792000000000000000e+03 1.544029712677001953e+01 1.569983482360839844e+00 -2.053251117467880249e-01 -3.296135691925883293e-03 -6.258637458086013794e-02 2.876759506762027740e-02
3.793000000000000000e+03 1.532874107360839844e+01 2.303210496902465820e+00 -2.265383303165435791e-01 2.135223895311355591e-02 -6.155582517385482788e-02 1.184571683406829834e-01
3.794000000000000000e+03 1.382568740844726562e+01 1.970758438110351562e+00 -7.914241403341293335e-02 1.947988383471965790e-02 -1.789875887334346771e-02 7.718715816736221313e-02
3.795000000000000000e+03 1.457705688476562500e+01 2.137874126434326172e+00 -1.542838662862777710e-01 1.119117625057697296e-02 -4.292780533432960510e-02 1.023582294583320618e-01
3.796000000000000000e+03 1.104393005371093750e+01 6.161050796508789062e-01 1.218834593892097473e-01 -8.621094748377799988e-04 3.630640357732772827e-02 2.730526961386203766e-02
3.797000000000000000e+03 1.093760776519775391e+01 1.349887132644653320e+00 6.324365735054016113e-02 -5.412115715444087982e-03 1.734946295619010925e-02 2.023319900035858154e-02
3.798000000000000000e+03 1.032133674621582031e+01 4.645727574825286865e-01 1.177435591816902161e-01 6.632629665546119213e-04 3.552204743027687073e-02 1.740986853837966919e-02
3.799000000000000000e+03 1.176770782470703125e+01 7.675349712371826172e-01 1.143634095788002014e-01 9.009097702801227570e-03 3.701175376772880554e-02 2.929536439478397369e-02
3.800000000000000000e+03 1.234649181365966797e+01 1.644436478614807129e+00 1.691657491028308868e-02 2.233242848888039589e-03 5.744945257902145386e-03 4.506716877222061157e-02
3.801000000000000000e+03 1.249242305755615234e+01 9.189449548721313477e-01 9.242100268602371216e-02 7.273618830367922783e-04 2.794450893998146057e-02 3.463399037718772888e-02
3.802000000000000000e+03 1.023481845855712891e+01 1.202500104904174805e+00 7.806830853223800659e-02 -1.716267876327037811e-02 1.827168837189674377e-02 1.245204452425241470e-02
3.803000000000000000e+03 1.164158153533935547e+01 1.497171759605407715e+00 4.351699352264404297e-02 -5.158240906894207001e-03 1.150762569159269333e-02 3.466420993208885193e-02
3.804000000000000000e+03 8.738976478576660156e+00 3.806764781475067139e-01 1.245294436812400818e-01 1.491859555244445801e-03 3.780639171600341797e-02 -1.850249827839434147e-03
3.805000000000000000e+03 8.719267845153808594e+00 1.120676517486572266e+00 7.571097463369369507e-02 -1.068193558603525162e-02 1.950871199369430542e-02 -2.329244045540690422e-03
3.806000000000000000e+03 7.164478778839111328e+00 1.118019104003906250e+00 6.846328824758529663e-02 -4.136457573622465134e-03 1.929805055260658264e-02 -1.389576774090528488e-02
3.807000000000000000e+03 6.292463302612304688e+00 3.770545125007629395e-01 9.150161594152450562e-02 -1.555779832415282726e-03 2.698375098407268524e-02 -6.297395564615726471e-03
3.808000000000000000e+03 5.476712703704833984e+00 3.768434822559356689e-01 7.572749257087707520e-02 7.077015470713376999e-04 2.293055877089500427e-02 -7.126009557396173477e-03
3.809000000000000000e+03 4.661345481872558594e+00 3.765997588634490967e-01 5.945592373609542847e-02 -4.485760582610964775e-04 1.770220510661602020e-02 -6.879402790218591690e-03
3.810000000000000000e+03 3.032949686050415039e+00 3.775092065334320068e-01 2.749153226613998413e-02 7.023807265795767307e-04 8.458173833787441254e-03 -6.055894307792186737e-03
3.811000000000000000e+03 2.221997976303100586e+00 3.784423470497131348e-01 1.424150168895721436e-02 1.022850119625218213e-04 4.303135909140110016e-03 -5.514170508831739426e-03
3.812000000000000000e+03 2.505794763565063477e+00 1.118442296981811523e+00 1.622794941067695618e-02 2.429755870252847672e-03 5.597311537712812424e-03 -1.471583545207977295e-02
3.813000000000000000e+03 6.944742202758789062e-01 4.059952497482299805e-01 2.094710245728492737e-03 1.287418883293867111e-03 1.014638692140579224e-03 -5.474088829942047596e-04
3.814000000000000000e+03 1.054147362709045410e+00 1.145995259284973145e+00 3.454917110502719879e-03 6.308163050562143326e-03 2.928924048319458961e-03 -7.406748365610837936e-03
3.815000000000000000e+03 3.682450950145721436e-01 9.625023007392883301e-01 -2.116710093105211854e-04 2.230424666777253151e-03 6.056260899640619755e-04 -2.094854833558201790e-03
3.816000000000000000e+03 3.278808116912841797e+00 1.117509245872497559e+00 2.443409338593482971e-02 1.973105128854513168e-03 7.922159507870674133e-03 -1.817668974399566650e-02
3.817000000000000000e+03 3.846553564071655273e+00 3.765962719917297363e-01 4.273682832717895508e-02 9.297530777985230088e-05 1.284894067794084549e-02 -7.342131808400154114e-03
3.818000000000000000e+03 5.608756542205810547e+00 1.116843461990356445e+00 5.240957811474800110e-02 -1.812644070014357567e-03 1.517908088862895966e-02 -1.790067367255687714e-02
3.819000000000000000e+03 6.386569023132324219e+00 1.117054462432861328e+00 6.126532703638076782e-02 6.367823516484349966e-05 1.839870214462280273e-02 -1.807631552219390869e-02
3.820000000000000000e+03 7.108311176300048828e+00 3.780190646648406982e-01 1.059619188308715820e-01 1.535059418529272079e-03 3.224909305572509766e-02 -6.130498833954334259e-03
3.821000000000000000e+03 7.924066066741943359e+00 3.789985179901123047e-01 1.178098395466804504e-01 -3.458274994045495987e-03 3.430546820163726807e-02 -3.989551682025194168e-03
3.822000000000000000e+03 7.942295551300048828e+00 1.118998527526855469e+00 7.367414236068725586e-02 -2.083861269056797028e-03 2.147708460688591003e-02 -1.187154930084943771e-02
3.823000000000000000e+03 9.552846908569335938e+00 3.859910368919372559e-01 1.189218536019325256e-01 -8.089887909591197968e-03 3.324959054589271545e-02 6.370441988110542297e-03
3.824000000000000000e+03 9.495200157165527344e+00 1.125990986824035645e+00 8.105763792991638184e-02 -1.020311377942562103e-02 2.125635556876659393e-02 4.974067676812410355e-03
3.825000000000000000e+03 4.831327438354492188e+00 1.116599798202514648e+00 4.272697865962982178e-02 6.118838791735470295e-04 1.300165895372629166e-02 -1.966541074216365814e-02
3.826000000000000000e+03 4.054473876953125000e+00 1.116596221923828125e+00 3.379581123590469360e-02 -3.210035793017596006e-04 1.004244294017553329e-02 -1.834852620959281921e-02
3.827000000000000000e+03 1.745976328849792480e+00 1.122917532920837402e+00 1.008798833936452866e-02 3.952660597860813141e-03 4.212194588035345078e-03 -1.128900051116943359e-02
3.828000000000000000e+03 1.424241423606872559e+00 3.829175233840942383e-01 4.969209432601928711e-03 1.253495807759463787e-03 1.866811653599143028e-03 -3.280786797404289246e-03
3.829000000000000000e+03 1.338139057159423828e+01 3.142086565494537354e-01 -1.024116650223731995e-01 3.883479163050651550e-02 -1.907306164503097534e-02 -3.596962615847587585e-02
3.830000000000000000e+03 1.410687160491943359e+01 4.760258793830871582e-01 -1.136610284447669983e-01 -5.494719743728637695e-02 -5.058246850967407227e-02 -1.948689110577106476e-02
3.831000000000000000e+03 1.353089809417724609e+01 -4.106113612651824951e-01 -7.307951897382736206e-02 -5.247020721435546875e-02 -3.766491636633872986e-02 -2.703208662569522858e-02
3.832000000000000000e+03 1.483218193054199219e+01 6.374483108520507812e-01 -1.175213828682899475e-01 4.098926857113838196e-02 -2.295963466167449951e-02 -3.952357172966003418e-02
3.833000000000000000e+03 1.495638942718505859e+01 -9.297639876604080200e-02 -9.191060811281204224e-02 -5.564707145094871521e-02 -4.426730424165725708e-02 -1.647870615124702454e-02
3.834000000000000000e+03 1.566942024230957031e+01 6.387124955654144287e-02 -9.405627846717834473e-02 5.779466778039932251e-02 -1.087848283350467682e-02 -3.844501823186874390e-02
3.835000000000000000e+03 1.555786418914794922e+01 7.970982789993286133e-01 -1.247566714882850647e-01 -4.771054163575172424e-02 -5.174016579985618591e-02 -1.725706271827220917e-02
3.836000000000000000e+03 1.424372863769531250e+01 -2.515964508056640625e-01 -8.574979752302169800e-02 4.147798940539360046e-02 -1.328154187649488449e-02 -3.945993632078170776e-02
3.837000000000000000e+03 6.136804580688476562e+01 -4.539994716644287109e+00 3.245550673454999924e-03 3.798956796526908875e-02 1.237053610384464264e-02 3.327321633696556091e-02
3.838000000000000000e+03 6.225080490112304688e+01 -4.404558181762695312e+00 1.606526225805282593e-02 -1.796554774045944214e-02 -5.700856563635170460e-04 9.303619153797626495e-03
3.839000000000000000e+03 6.214079284667968750e+01 -3.672630310058593750e+00 2.380902133882045746e-02 7.025927305221557617e-03 9.250484406948089600e-03 1.706534624099731445e-02
3.840000000000000000e+03 6.126127624511718750e+01 -3.807512998580932617e+00 1.876351051032543182e-02 9.451694786548614502e-03 8.464561775326728821e-03 -4.179589916020631790e-03
3.841000000000000000e+03 6.078542709350585938e+01 -4.458079338073730469e+00 -1.889573968946933746e-02 -9.371914900839328766e-03 -8.480295538902282715e-03 3.538322634994983673e-03
3.842000000000000000e+03 1.115754413604736328e+01 -1.603091955184936523e-01 -6.854493170976638794e-02 -3.527641668915748596e-02 -3.114640340209007263e-02 -1.737998798489570618e-02
3.843000000000000000e+03 1.126386642456054688e+01 -8.940912485122680664e-01 -5.336322635412216187e-02 1.874796859920024872e-02 -1.038457732647657394e-02 -2.487745881080627441e-02
3.844000000000000000e+03 1.049932956695556641e+01 -1.051980972290039062e+00 -4.174943640828132629e-02 -3.419441729784011841e-02 -2.278315648436546326e-02 -2.434634789824485779e-02
3.845000000000000000e+03 1.279222297668457031e+01 -5.713624954223632812e-01 -7.093052566051483154e-02 2.714267559349536896e-02 -1.313635520637035370e-02 -3.182507678866386414e-02
3.846000000000000000e+03 1.264629268646240234e+01 1.541289687156677246e-01 -9.188447147607803345e-02 -4.679063707590103149e-02 -4.160253331065177917e-02 -1.998325064778327942e-02
3.847000000000000000e+03 1.190196800231933594e+01 -3.807745641097426414e-03 -7.979445904493331909e-02 2.824880927801132202e-02 -1.546369493007659912e-02 -2.660886384546756744e-02
3.848000000000000000e+03 1.202809429168701172e+01 -7.334445118904113770e-01 -5.833557993173599243e-02 -4.314061626791954041e-02 -3.044285811483860016e-02 -2.902910299599170685e-02
3.849000000000000000e+03 1.041281127929687500e+01 -3.140535950660705566e-01 -5.951677635312080383e-02 2.017816156148910522e-02 -1.180158369243144989e-02 -1.832022145390510559e-02
3.850000000000000000e+03 9.660583496093750000e+00 -3.871031999588012695e-01 -4.609332606196403503e-02 -2.671673148870468140e-02 -2.184301801025867462e-02 -8.387899957597255707e-03
3.851000000000000000e+03 8.901437759399414062e+00 -3.833611309528350830e-01 -2.891108021140098572e-02 1.945472136139869690e-02 -2.836907748132944107e-03 -7.884714752435684204e-03
3.852000000000000000e+03 8.142838478088378906e+00 -3.822377920150756836e-01 -1.918782293796539307e-02 -1.812719926238059998e-02 -1.119450572878122330e-02 -2.192920073866844177e-03
3.853000000000000000e+03 7.384317874908447266e+00 -3.816416263580322266e-01 -1.030855905264616013e-02 1.446448266506195068e-02 1.246777246706187725e-03 -5.522901657968759537e-03
3.854000000000000000e+03 6.625857353210449219e+00 -3.809241652488708496e-01 -5.611817818135023117e-03 -1.300055906176567078e-02 -5.583712831139564514e-03 -5.816409611725248396e-05
3.855000000000000000e+03 5.867558479309082031e+00 -3.799938857555389404e-01 -6.222093361429870129e-04 1.012622751295566559e-02 2.851205412298440933e-03 -3.726284950971603394e-03
3.856000000000000000e+03 5.109274387359619141e+00 -3.788675963878631592e-01 7.440000190399587154e-04 -8.832134306430816650e-03 -2.426440129056572914e-03 1.138570951297879219e-03
3.857000000000000000e+03 4.350872039794921875e+00 -3.776756227016448975e-01 2.766435733065009117e-03 6.523123476654291153e-03 2.786867786198854446e-03 -2.066204557195305824e-03
3.858000000000000000e+03 3.592402935028076172e+00 -3.764508068561553955e-01 2.232380677014589310e-03 -5.222471430897712708e-03 -8.970272610895335674e-04 1.425476744771003723e-03
3.859000000000000000e+03 2.834043025970458984e+00 -3.751347661018371582e-01 2.468666294589638710e-03 3.517360193654894829e-03 1.795807853341102600e-03 -8.417608914896845818e-04
3.860000000000000000e+03 2.077167272567749023e+00 -3.747134804725646973e-01 1.083704293705523014e-03 -2.486125100404024124e-03 -4.207262536510825157e-04 1.300878473557531834e-03
3.861000000000000000e+03 1.334073781967163086e+00 -3.800741434097290039e-01 7.986792479641735554e-04 1.595858018845319748e-03 7.183611742220818996e-04 -3.517764562275260687e-04
3.862000000000000000e+03 3.531542122364044189e-01 -9.606399536132812500e-01 7.755152764730155468e-04 5.384657415561378002e-04 3.941942995879799128e-04 -1.076496919267810881e-04
3.863000000000000000e+03 6.561777591705322266e-01 -4.032240808010101318e-01 -6.299418746493756771e-04 -8.917449158616364002e-04 -4.565060371533036232e-04 1.011996646411716938e-03
3.864000000000000000e+03 9.748202323913574219e+00 -1.127103209495544434e+00 -3.381714224815368652e-02 1.199726760387420654e-02 -6.545962300151586533e-03 -2.122373133897781372e-02
3.865000000000000000e+03 9.011062622070312500e+00 -1.123361110687255859e+00 -2.931411564350128174e-02 -2.281607501208782196e-02 -1.563905738294124603e-02 -1.717085950076580048e-02
3.866000000000000000e+03 8.274469375610351562e+00 -1.122237801551818848e+00 -1.977075077593326569e-02 1.293479371815919876e-02 -2.050787210464477539e-03 -1.341362670063972473e-02
3.867000000000000000e+03 7.537953376770019531e+00 -1.121641635894775391e+00 -1.410349272191524506e-02 -1.637111604213714600e-02 -9.142383001744747162e-03 -8.929754607379436493e-03
3.868000000000000000e+03 6.801498889923095703e+00 -1.120924115180969238e+00 -8.463683538138866425e-03 1.004613190889358521e-02 4.747346101794391870e-04 -8.200334385037422180e-03
3.869000000000000000e+03 6.065205574035644531e+00 -1.119993925094604492e+00 -5.098206922411918640e-03 -1.200128346681594849e-02 -5.129847209900617599e-03 -3.992363344877958298e-03
3.870000000000000000e+03 5.328927040100097656e+00 -1.118867635726928711e+00 -2.262469148263335228e-03 6.922181230038404465e-03 1.397913671098649502e-03 -4.076305776834487915e-03
3.871000000000000000e+03 4.592530727386474609e+00 -1.117675662040710449e+00 -3.336501540616154671e-04 -7.934537716209888458e-03 -2.480456372722983360e-03 -7.977081113494932652e-04
3.872000000000000000e+03 3.856066942214965820e+00 -1.116450786590576172e+00 4.128022992517799139e-04 4.397484473884105682e-03 1.443086075596511364e-03 -1.130631659179925919e-03
3.873000000000000000e+03 3.119712829589843750e+00 -1.115134716033935547e+00 7.573668262921273708e-04 -4.585273563861846924e-03 -1.148371957242488861e-03 1.130568562075495720e-03
3.874000000000000000e+03 2.384842634201049805e+00 -1.114713430404663086e+00 9.051756933331489563e-04 2.658654702827334404e-03 1.069149118848145008e-03 6.739938544342294335e-05
3.875000000000000000e+03 1.663754701614379883e+00 -1.120074152946472168e+00 6.101497565396130085e-04 -2.034436678513884544e-03 -4.272860533092170954e-04 1.644800649955868721e-03
3.876000000000000000e+03 1.007864356040954590e+00 -1.143224120140075684e+00 5.590348155237734318e-04 1.691124401986598969e-03 6.750477477908134460e-04 2.214235864812508225e-04
3.877000000000000000e+03 7.660195159912109375e+01 -6.059632301330566406e+00 3.643873596191406250e+01 9.797266006469726562e+00 1.387080097198486328e+01 1.600843048095703125e+01
3.878000000000000000e+03 7.660790252685546875e+01 -6.078146457672119141e+00 3.086592674255371094e+01 2.401600837707519531e+01 1.646458053588867188e+01 2.571610641479492188e+01
3.879000000000000000e+03 7.661734771728515625e+01 -6.095149993896484375e+00 2.710411834716796875e+01 3.708122253417968750e+01 1.925560188293457031e+01 2.832006645202636719e+01
3.880000000000000000e+03 7.662991333007812500e+01 -6.109992504119873047e+00 2.214608192443847656e+01 4.952141952514648438e+01 2.150024986267089844e+01 2.791166687011718750e+01
3.881000000000000000e+03 7.664512634277343750e+01 -6.122107982635498047e+00 1.826850509643554688e+01 6.027291870117187500e+01 2.356242752075195312e+01 2.453610610961914062e+01
3.882000000000000000e+03 7.666239929199218750e+01 -6.131033897399902344e+00 1.525009822845458984e+01 6.865456390380859375e+01 2.517139816284179688e+01 1.888441467285156250e+01
3.883000000000000000e+03 7.668108367919921875e+01 -6.136428833007812500e+00 1.417352008819580078e+01 7.399870300292968750e+01 2.645166587829589844e+01 1.183413028717041016e+01
3.884000000000000000e+03 7.670046234130859375e+01 -6.138087272644042969e+00 1.511705684661865234e+01 7.602749633789062500e+01 2.734336662292480469e+01 4.347817420959472656e+00
3.885000000000000000e+03 7.671979522705078125e+01 -6.135945796966552734e+00 1.804844856262207031e+01 7.493641662597656250e+01 2.789546012878417969e+01 -2.480910301208496094e+00
3.886000000000000000e+03 7.673833465576171875e+01 -6.130085945129394531e+00 2.258081626892089844e+01 7.138922882080078125e+01 2.819101333618164062e+01 -7.781951904296875000e+00
3.887000000000000000e+03 7.675538635253906250e+01 -6.120731353759765625e+00 2.807028961181640625e+01 6.626245117187500000e+01 2.829982185363769531e+01 -1.103554630279541016e+01
3.888000000000000000e+03 7.677029418945312500e+01 -6.108239650726318359e+00 3.345148849487304688e+01 6.042843627929687500e+01 2.816397666931152344e+01 -1.210724544525146484e+01
3.889000000000000000e+03 7.678248596191406250e+01 -6.093087673187255859e+00 3.849652099609375000e+01 5.524494934082031250e+01 2.812244224548339844e+01 -1.101080131530761719e+01
3.890000000000000000e+03 7.679149627685546875e+01 -6.075853824615478516e+00 4.225713729858398438e+01 5.067366409301757812e+01 2.787924003601074219e+01 -8.316329002380371094e+00
3.891000000000000000e+03 7.679698181152343750e+01 -6.057196617126464844e+00 4.457670211791992188e+01 4.800584793090820312e+01 2.777476501464843750e+01 -4.579988956451416016e+00
3.892000000000000000e+03 7.679873657226562500e+01 -6.037828445434570312e+00 4.534930038452148438e+01 4.708436965942382812e+01 2.773010063171386719e+01 -1.316486299037933350e-01
3.893000000000000000e+03 7.679669189453125000e+01 -6.018488407135009766e+00 4.436275482177734375e+01 4.783335113525390625e+01 2.765883255004882812e+01 4.167260169982910156e+00
3.894000000000000000e+03 7.679092407226562500e+01 -5.999915599822998047e+00 4.188581466674804688e+01 5.059637832641601562e+01 2.774465751647949219e+01 7.883811473846435547e+00
3.895000000000000000e+03 7.678165435791015625e+01 -5.982819080352783203e+00 3.795891571044921875e+01 5.474024200439453125e+01 2.780974769592285156e+01 1.046616172790527344e+01
3.896000000000000000e+03 7.676924133300781250e+01 -5.967851161956787109e+00 3.298036956787109375e+01 5.995670700073242188e+01 2.788112258911132812e+01 1.138760280609130859e+01
3.897000000000000000e+03 7.675415039062500000e+01 -5.955584049224853516e+00 2.746171188354492188e+01 6.536226654052734375e+01 2.784719467163085938e+01 1.029476928710937500e+01
3.898000000000000000e+03 7.673696136474609375e+01 -5.946485996246337891e+00 2.214876747131347656e+01 7.020727539062500000e+01 2.770681381225585938e+01 7.006042480468750000e+00
3.899000000000000000e+03 7.671833038330078125e+01 -5.940904140472412109e+00 1.771472740173339844e+01 7.345890808105468750e+01 2.735209083557128906e+01 1.726369857788085938e+00
3.900000000000000000e+03 7.669897460937500000e+01 -5.939052104949951172e+00 1.468393611907958984e+01 7.416336059570312500e+01 2.665419006347656250e+01 -4.940021991729736328e+00
3.901000000000000000e+03 7.667961883544921875e+01 -5.941000461578369141e+00 1.374782466888427734e+01 7.190863037109375000e+01 2.569693756103515625e+01 -1.210736560821533203e+01
3.902000000000000000e+03 7.666101837158203125e+01 -5.946674823760986328e+00 1.455227470397949219e+01 6.637083435058593750e+01 2.427693367004394531e+01 -1.885403251647949219e+01
3.903000000000000000e+03 7.664387512207031250e+01 -5.955858230590820312e+00 1.692067909240722656e+01 5.817035675048828125e+01 2.252731132507324219e+01 -2.404162406921386719e+01
3.904000000000000000e+03 7.662884521484375000e+01 -5.968200206756591797e+00 2.011330986022949219e+01 4.767923736572265625e+01 2.033776473999023438e+01 -2.715524291992187500e+01
3.905000000000000000e+03 7.661650848388671875e+01 -5.983229637145996094e+00 2.311918449401855469e+01 3.638925933837890625e+01 1.785253334045410156e+01 -2.771363258361816406e+01
3.906000000000000000e+03 7.660732269287109375e+01 -6.000372409820556641e+00 2.587907409667968750e+01 2.450448036193847656e+01 1.511506652832031250e+01 -2.542856597900390625e+01
3.907000000000000000e+03 7.660164642333984375e+01 -6.018973827362060547e+00 2.687657165527343750e+01 1.376710700988769531e+01 1.219310283660888672e+01 -2.080740547180175781e+01
3.908000000000000000e+03 7.659970092773437500e+01 -6.038323402404785156e+00 2.703890800476074219e+01 3.958405971527099609e+00 9.299194335937500000e+00 -9.120600700378417969e+00
