# el_label, x, y, sXX, sYY, sZZ, sXY
1.000000000000000000e+00 1.773523330688476562e+01 1.003352880477905273e+00 -1.047764047980308533e-01 -4.377169907093048096e-02 -4.456443339586257935e-02 -1.994074136018753052e-02
2.000000000000000000e+00 1.773068809509277344e+01 2.614082992076873779e-01 -4.988271370530128479e-02 3.016717731952667236e-02 -5.914661101996898651e-03 9.106116369366645813e-03
3.000000000000000000e+00 1.636662292480468750e+01 1.679809987545013428e-01 -5.045749992132186890e-02 1.389135979115962982e-02 -1.096984185278415680e-02 -1.297180447727441788e-02
4.000000000000000000e+00 1.841096687316894531e+01 3.041590750217437744e-01 -1.082467958331108093e-01 -1.367701496928930283e-02 -3.657714277505874634e-02 -4.655145853757858276e-02
5.000000000000000000e+00 1.700955200195312500e+01 9.550619721412658691e-01 -9.000875055789947510e-02 2.691360749304294586e-02 -1.892854273319244385e-02 -7.201172877103090286e-03
6.000000000000000000e+00 1.845942306518554688e+01 1.049030303955078125e+00 -8.725656569004058838e-02 8.164572715759277344e-02 -1.683250418864190578e-03 2.222639322280883789e-02
7.000000000000000000e+00 1.704891777038574219e+01 2.160438895225524902e-01 -6.444453448057174683e-02 -1.615690067410469055e-02 -2.418043091893196106e-02 -3.123660571873188019e-02
8.000000000000000000e+00 1.628334617614746094e+01 9.040724635124206543e-01 -7.868699729442596436e-02 -1.679867319762706757e-02 -2.864569984376430511e-02 -1.497794035822153091e-02
9.000000000000000000e+00 1.987107276916503906e+01 4.345702007412910461e-02 -1.501541137695312500e-01 1.274325847625732422e-01 -6.816457025706768036e-03 -3.625474870204925537e-02
1.000000000000000000e+01 2.072495651245117188e+01 6.014696359634399414e-01 -1.339233964681625366e-01 -3.367714881896972656e-01 -1.412084698677062988e-01 -9.878055751323699951e-02
1.100000000000000000e+01 2.293786239624023438e+01 -3.050775229930877686e-01 2.338646054267883301e-01 2.463213540613651276e-02 7.754901796579360962e-02 7.222907245159149170e-02
1.200000000000000000e+01 2.312017631530761719e+01 1.445127129554748535e-01 -4.919924437999725342e-01 8.246050775051116943e-02 -1.228595823049545288e-01 5.961855873465538025e-03
1.300000000000000000e+01 2.395331382751464844e+01 3.362258896231651306e-02 -6.429767608642578125e-01 -1.090260669589042664e-01 -2.256008386611938477e-01 2.524973750114440918e-01
1.400000000000000000e+01 2.684564208984375000e+01 -9.302700757980346680e-01 -1.860457509756088257e-01 -9.278805553913116455e-02 -8.365014195442199707e-02 8.127097040414810181e-03
1.500000000000000000e+01 2.751040458679199219e+01 -1.280374765396118164e+00 -6.410444527864456177e-02 7.040635496377944946e-02 1.890573301352560520e-03 8.669722825288772583e-02
1.600000000000000000e+01 2.803494644165039062e+01 -1.810520648956298828e+00 -6.491500884294509888e-02 -4.988495633006095886e-02 -3.443998843431472778e-02 -4.748037084937095642e-02
1.700000000000000000e+01 2.932235717773437500e+01 -2.434976577758789062e+00 -5.386459827423095703e-02 -1.030915379524230957e-01 -4.708684235811233521e-02 6.281170994043350220e-03
1.800000000000000000e+01 1.912479972839355469e+01 2.294156253337860107e-01 -1.556488964706659317e-02 1.137678604573011398e-02 -1.256430987268686295e-03 4.114230349659919739e-02
1.900000000000000000e+01 2.147913932800292969e+01 4.466063976287841797e-01 -2.986712455749511719e-01 3.336359858512878418e-01 1.048942469060420990e-02 4.030607640743255615e-02
2.000000000000000000e+01 2.857819366455078125e+01 -2.246380090713500977e+00 2.050458267331123352e-02 8.064528554677963257e-02 3.034496121108531952e-02 2.119141817092895508e-02
2.100000000000000000e+01 2.932799530029296875e+01 -1.671779394149780273e+00 -9.905222058296203613e-02 2.764392830431461334e-02 -2.142248861491680145e-02 3.381644934415817261e-02
2.200000000000000000e+01 3.012563133239746094e+01 -2.641122102737426758e+00 -8.416645973920822144e-02 -1.119502708315849304e-01 -5.883501842617988586e-02 -1.091218814253807068e-01
2.300000000000000000e+01 3.010111618041992188e+01 -1.870075702667236328e+00 -1.522150784730911255e-01 -9.140121191740036011e-02 -7.308489084243774414e-02 -2.405237033963203430e-02
2.400000000000000000e+01 2.615677833557128906e+01 -6.120481491088867188e-01 -2.733069956302642822e-01 6.665771454572677612e-02 -6.199478358030319214e-02 1.477767825126647949e-01
2.500000000000000000e+01 2.543780899047851562e+01 -3.434176146984100342e-01 -6.309915184974670410e-01 -2.532552480697631836e-01 -2.652740180492401123e-01 2.233702093362808228e-01
2.600000000000000000e+01 2.470047950744628906e+01 -1.143367812037467957e-01 -1.307729721069335938e+00 1.363476514816284180e-01 -3.514146208763122559e-01 2.713976204395294189e-01
2.700000000000000000e+01 2.226067733764648438e+01 2.969752848148345947e-01 -3.162777423858642578e-01 -2.030995041131973267e-01 -1.558131724596023560e-01 1.023154929280281067e-01
2.800000000000000000e+01 2.209705162048339844e+01 -1.917648315429687500e-01 1.008049994707107544e-01 -1.134906783699989319e-01 -3.805703483521938324e-03 -1.361280977725982666e-01
2.900000000000000000e+01 2.060986137390136719e+01 -1.332322061061859131e-01 -2.216552048921585083e-01 -2.852109968662261963e-01 -1.520598679780960083e-01 -3.327219514176249504e-03
3.000000000000000000e+01 1.996829414367675781e+01 7.828119397163391113e-01 -6.983596086502075195e-02 1.981683522462844849e-01 3.849971666932106018e-02 1.280988454818725586e-01
3.100000000000000000e+01 1.920414733886718750e+01 9.734236001968383789e-01 -1.352414935827255249e-01 -1.055621951818466187e-01 -7.224110513925552368e-02 -3.249587118625640869e-02
3.200000000000000000e+01 2.861398124694824219e+01 -1.491032123565673828e+00 -1.428772211074829102e-01 -8.642899990081787109e-02 -6.879186630249023438e-02 7.062087208032608032e-02
3.300000000000000000e+01 2.133948898315429688e+01 -1.719620227813720703e-01 1.563413441181182861e-01 3.275009393692016602e-01 1.451526880264282227e-01 1.546268314123153687e-01
3.400000000000000000e+01 3.171501731872558594e+01 -2.317536830902099609e+00 -2.415781319141387939e-01 -1.243535727262496948e-01 -1.097795143723487854e-01 -2.512210607528686523e-01
3.500000000000000000e+01 3.159167480468750000e+01 -1.573781251907348633e+00 -3.182221651077270508e-01 -1.126916185021400452e-01 -1.292741298675537109e-01 -1.708825379610061646e-01
3.600000000000000000e+01 3.092625236511230469e+01 -2.603541374206542969e+00 -1.372981667518615723e-01 -2.030186206102371216e-01 -1.020950376987457275e-01 -1.760701686143875122e-01
3.700000000000000000e+01 3.329127502441406250e+01 -1.721204519271850586e+00 -4.075782597064971924e-01 -4.999359324574470520e-02 -1.372715532779693604e-01 -2.470548599958419800e-01
3.800000000000000000e+01 3.305626296997070312e+01 -1.019069790840148926e+00 -4.882401227951049805e-01 -9.846280515193939209e-02 -1.760108768939971924e-01 -2.061542868614196777e-01
3.900000000000000000e+01 3.232479095458984375e+01 -1.299670934677124023e+00 -4.097773432731628418e-01 -6.318414956331253052e-02 -1.418884545564651489e-01 -2.105974704027175903e-01
4.000000000000000000e+01 3.250396728515625000e+01 -2.022616147994995117e+00 -3.294882774353027344e-01 -1.258424967527389526e-01 -1.365992426872253418e-01 -2.513577044010162354e-01
4.100000000000000000e+01 3.085874366760253906e+01 -1.838975429534912109e+00 -2.432231456041336060e-01 -5.404792726039886475e-02 -8.918131887912750244e-02 -1.281795203685760498e-01
4.200000000000000000e+01 3.381026458740234375e+01 -7.248246073722839355e-01 -5.180537700653076172e-01 -4.840665683150291443e-02 -1.699381321668624878e-01 -2.084451615810394287e-01
4.300000000000000000e+01 3.458703231811523438e+01 -4.199312925338745117e-01 -5.024858117103576660e-01 -5.797328427433967590e-02 -1.681377291679382324e-01 -1.623913198709487915e-01
4.400000000000000000e+01 3.405215835571289062e+01 -1.424708485603332520e+00 -4.763117432594299316e-01 -2.644110843539237976e-02 -1.508258581161499023e-01 -1.877324581146240234e-01
4.500000000000000000e+01 3.536509704589843750e+01 -1.194015666842460632e-01 -4.248131215572357178e-01 -3.944706171751022339e-03 -1.286273449659347534e-01 -1.210492625832557678e-01
4.600000000000000000e+01 3.691955184936523438e+01 4.870322942733764648e-01 -1.800792217254638672e-01 3.125416487455368042e-02 -4.464751854538917542e-02 -5.735437385737895966e-03
4.700000000000000000e+01 3.769688415527343750e+01 7.879440784454345703e-01 -5.998038873076438904e-02 9.498157538473606110e-03 -1.514466945081949234e-02 2.907738089561462402e-02
4.800000000000000000e+01 3.846224212646484375e+01 2.872591614723205566e-01 -1.288141310214996338e-01 -7.925792597234249115e-03 -4.102197661995887756e-02 7.373545318841934204e-02
4.900000000000000000e+01 3.847284317016601562e+01 1.084994435310363770e+00 1.180789712816476822e-02 1.757351215928792953e-03 4.069574177265167236e-03 2.091130055487155914e-02
5.000000000000000000e+01 3.699311447143554688e+01 -2.780858278274536133e-01 -3.770005106925964355e-01 7.621460407972335815e-02 -9.023576974868774414e-02 4.106262326240539551e-02
5.100000000000000000e+01 3.614285659790039062e+01 1.828823834657669067e-01 -3.165399432182312012e-01 -4.743719007819890976e-03 -9.638509899377822876e-02 -5.588235706090927124e-02
5.200000000000000000e+01 3.478684234619140625e+01 -1.136123776435852051e+00 -4.958113431930541992e-01 3.955319523811340332e-02 -1.368774473667144775e-01 -1.412015557289123535e-01
5.300000000000000000e+01 3.552282333374023438e+01 -8.519025444984436035e-01 -4.967790246009826660e-01 5.653269961476325989e-02 -1.320738941431045532e-01 -6.667988002300262451e-02
5.400000000000000000e+01 3.625850296020507812e+01 -5.659272074699401855e-01 -4.456802904605865479e-01 9.414818137884140015e-02 -1.054596304893493652e-01 -1.365057751536369324e-02
5.500000000000000000e+01 3.772836685180664062e+01 6.517409812659025192e-03 -2.659741044044494629e-01 5.306589230895042419e-02 -6.387246400117874146e-02 6.516579538583755493e-02
5.600000000000000000e+01 4.027894592285156250e+01 -2.541387975215911865e-01 -7.347207516431808472e-02 -8.653335273265838623e-02 -4.800162836909294128e-02 1.266703754663467407e-01
5.700000000000000000e+01 4.047003936767578125e+01 4.750773012638092041e-01 1.838012635707855225e-01 1.080131344497203827e-02 5.838077142834663391e-02 -4.264158010482788086e-02
5.800000000000000000e+01 3.969956207275390625e+01 2.476016059517860413e-02 -7.426699995994567871e-02 -5.916051194071769714e-02 -4.002825170755386353e-02 1.086208373308181763e-01
5.900000000000000000e+01 4.085557556152343750e+01 -5.415500402450561523e-01 -1.184734255075454712e-01 -1.297094970941543579e-01 -7.445487380027770996e-02 1.118414998054504395e-01
6.000000000000000000e+01 4.111045455932617188e+01 1.569967120885848999e-01 2.511909008026123047e-01 8.182666264474391937e-03 7.781206816434860229e-02 -8.427198976278305054e-02
6.100000000000000000e+01 3.982687759399414062e+01 7.846456766128540039e-01 1.127735078334808350e-01 -1.072951871901750565e-02 3.061319701373577118e-02 -1.897723414003849030e-02
6.200000000000000000e+01 3.911914825439453125e+01 2.937080264091491699e-01 -6.269870698451995850e-02 -2.543690055608749390e-02 -2.644068188965320587e-02 7.052364200353622437e-02
6.300000000000000000e+01 3.918268203735351562e+01 1.084262847900390625e+00 5.421200394630432129e-02 -1.189015991985797882e-02 1.269655302166938782e-02 6.575677543878555298e-03
6.400000000000000000e+01 4.250700378417968750e+01 -3.963981866836547852e-01 1.923367083072662354e-01 3.621959313750267029e-02 6.856688857078552246e-02 -1.182364672422409058e-01
6.500000000000000000e+01 4.151531600952148438e+01 -8.242236971855163574e-01 -1.684463620185852051e-01 -1.008038520812988281e-01 -8.077505975961685181e-02 4.678007960319519043e-02
6.600000000000000000e+01 4.375409698486328125e+01 -1.632939934730529785e+00 -7.631078362464904785e-01 1.066163107752799988e-01 -1.969474554061889648e-01 -1.856981813907623291e-01
6.700000000000000000e+01 4.300669479370117188e+01 -1.363770723342895508e+00 -5.956588983535766602e-01 3.181841224431991577e-02 -1.691521406173706055e-01 -1.512693315744400024e-01
6.800000000000000000e+01 4.394734954833984375e+01 -9.159503579139709473e-01 -3.249245882034301758e-01 8.054203540086746216e-02 -7.331476360559463501e-02 -8.892022073268890381e-02
6.900000000000000000e+01 4.178872680664062500e+01 -1.361862868070602417e-01 2.604492902755737305e-01 3.540896996855735779e-02 8.875747770071029663e-02 -1.087779477238655090e-01
7.000000000000000000e+01 4.322666549682617188e+01 -6.564318537712097168e-01 -1.468120142817497253e-03 3.700811788439750671e-02 1.066199969500303268e-02 -1.372933983802795410e-01
7.100000000000000000e+01 4.226031494140625000e+01 -1.094086289405822754e+00 -3.443731963634490967e-01 -5.463013425469398499e-02 -1.197009980678558350e-01 -1.004080548882484436e-01
7.200000000000000000e+01 4.469203567504882812e+01 -1.104038357734680176e+00 -6.476709246635437012e-01 2.281603217124938965e-02 -1.874564737081527710e-01 -3.829091787338256836e-02
7.300000000000000000e+01 4.700760269165039062e+01 -2.182412624359130859e+00 -9.174617528915405273e-01 1.630447246134281158e-02 -2.703471779823303223e-01 5.750718712806701660e-02
7.400000000000000000e+01 4.453843307495117188e+01 -1.829608321189880371e+00 -8.697968721389770508e-01 1.192429512739181519e-01 -2.251661717891693115e-01 -1.737757772207260132e-01
7.500000000000000000e+01 4.618450164794921875e+01 -2.070826292037963867e+00 -1.016162991523742676e+00 7.789616286754608154e-02 -2.814800441265106201e-01 -5.833967402577400208e-02
7.600000000000000000e+01 4.700347900390625000e+01 -1.434312224388122559e+00 -1.240186572074890137e+00 -3.949981555342674255e-02 -3.839059174060821533e-01 6.324134021997451782e-02
7.700000000000000000e+01 4.546185302734375000e+01 -1.219994664192199707e+00 -8.759822845458984375e-01 3.268607705831527710e-02 -2.529888451099395752e-01 1.556652598083019257e-02
7.800000000000000000e+01 4.536082458496093750e+01 -1.953074812889099121e+00 -9.377173185348510742e-01 9.562551975250244141e-02 -2.526275217533111572e-01 -9.940206259489059448e-02
7.900000000000000000e+01 4.623295593261718750e+01 -1.330235958099365234e+00 -1.053743839263916016e+00 1.379423215985298157e-02 -3.119848966598510742e-01 7.089810818433761597e-02
8.000000000000000000e+01 4.851011657714843750e+01 -1.236653327941894531e+00 -7.288241982460021973e-01 2.682834863662719727e-02 -2.105987519025802612e-01 -1.998821459710597992e-02
8.100000000000000000e+01 4.858726501464843750e+01 -1.977923154830932617e+00 -7.806496620178222656e-01 7.554850727319717407e-02 -2.115303575992584229e-01 2.438952624797821045e-01
8.200000000000000000e+01 4.780811309814453125e+01 -2.150522232055664062e+00 -8.497251868247985840e-01 3.729883581399917603e-02 -2.437279075384140015e-01 2.166406959295272827e-01
8.300000000000000000e+01 4.925864410400390625e+01 -1.067628383636474609e+00 -4.658786654472351074e-01 1.821662858128547668e-02 -1.342986077070236206e-01 2.382453531026840210e-02
8.400000000000000000e+01 5.000643920898437500e+01 -8.943891525268554688e-01 -2.506720423698425293e-01 1.680601970292627811e-03 -7.469742745161056519e-02 3.353956341743469238e-02
8.500000000000000000e+01 5.014590454101562500e+01 -1.621544718742370605e+00 -3.665683567523956299e-01 1.618678867816925049e-02 -1.051144748926162720e-01 1.914322674274444580e-01
8.600000000000000000e+01 4.936695098876953125e+01 -1.801841139793395996e+00 -5.538641810417175293e-01 7.136876136064529419e-02 -1.447486281394958496e-01 2.024790644645690918e-01
8.700000000000000000e+01 4.776212310791015625e+01 -1.402195334434509277e+00 -1.108958005905151367e+00 -4.158174246549606323e-02 -3.451619148254394531e-01 -6.138718686997890472e-03
8.800000000000000000e+01 5.210131835937500000e+01 -1.211642384529113770e+00 -5.540101230144500732e-02 -3.820396959781646729e-02 -2.808149531483650208e-02 3.574903309345245361e-02
8.900000000000000000e+01 5.229686355590820312e+01 -4.171653985977172852e-01 1.923290826380252838e-02 5.382428411394357681e-03 7.384601049125194550e-03 -3.938788548111915588e-03
9.000000000000000000e+01 5.292963409423828125e+01 -2.996635138988494873e-01 1.028173137456178665e-02 -3.385322168469429016e-03 2.068922622129321098e-03 -2.780079608783125877e-03
9.100000000000000000e+01 5.289202499389648438e+01 -1.062223196029663086e+00 -1.117677986621856689e-02 -8.300421759486198425e-03 -5.843160208314657211e-03 -4.720967728644609451e-03
9.200000000000000000e+01 5.174563217163085938e+01 -4.540196359157562256e-01 2.648184634745121002e-02 -2.602556720376014709e-02 1.368833909509703517e-04 6.850199773907661438e-03
9.300000000000000000e+01 5.123892593383789062e+01 -5.528637766838073730e-01 -3.108521364629268646e-02 8.103964850306510925e-03 -6.894374731928110123e-03 3.723459690809249878e-02
9.400000000000000000e+01 5.068088912963867188e+01 -7.317399382591247559e-01 -1.147581562399864197e-01 1.220150850713253021e-02 -3.076699376106262207e-02 2.995829656720161438e-02
9.500000000000000000e+01 5.091490173339843750e+01 -1.439408183097839355e+00 -1.904263645410537720e-01 -1.461045723408460617e-02 -6.151104718446731567e-02 1.272340863943099976e-01
9.600000000000000000e+01 5.150735855102539062e+01 -1.054463028907775879e+00 -8.782772719860076904e-02 -2.954191900789737701e-02 -3.521089628338813782e-02 5.328381434082984924e-02
9.700000000000000000e+01 5.375558853149414062e+01 -2.739388346672058105e-01 3.851054934784770012e-03 2.555131446570158005e-03 1.921855960972607136e-03 -2.978797070682048798e-03
9.800000000000000000e+01 5.449021530151367188e+01 -2.173187285661697388e-01 -4.589365853462368250e-04 -7.913279696367681026e-04 -3.750793694052845240e-04 6.865828763693571091e-04
9.900000000000000000e+01 5.503413009643554688e+01 -1.123937517404556274e-01 4.903231747448444366e-04 4.335679986979812384e-04 2.771673607639968395e-04 -4.194524954073131084e-04
1.000000000000000000e+02 5.623500823974609375e+01 -1.787128448486328125e-01 -4.404817445902153850e-05 -9.893047536024823785e-05 -4.289359640097245574e-05 4.842631096835248172e-05
1.010000000000000000e+02 5.380104446411132812e+01 -1.022010684013366699e+00 -2.413050271570682526e-03 6.941237021237611771e-03 1.358455978333950043e-03 -2.884550020098686218e-03
1.020000000000000000e+02 5.568458557128906250e+01 -1.279204636812210083e-01 -5.009298547520302236e-05 -8.957090904004871845e-05 -4.189916944596916437e-05 9.318046795669943094e-05
1.030000000000000000e+02 5.561457443237304688e+01 -2.342342436313629150e-01 1.567368890391662717e-04 3.024622856173664331e-04 1.377597509417682886e-04 -1.837532036006450653e-04
1.040000000000000000e+02 5.495091629028320312e+01 -3.635899424552917480e-01 -3.546718799043446779e-04 -4.770394007209688425e-04 -2.495133958291262388e-04 8.411986345890909433e-05
1.050000000000000000e+02 5.436174774169921875e+01 1.211666822433471680e+00 -1.308020114898681641e+00 1.178352907299995422e-01 -3.570554256439208984e-01 -3.053384125232696533e-01
1.060000000000000000e+02 5.682249069213867188e+01 1.027407169342041016e+00 4.511826634407043457e-01 1.376674056053161621e+00 5.483570098876953125e-01 -1.928291320800781250e+00
1.070000000000000000e+02 5.808748626708984375e+01 5.298826694488525391e-01 1.573910593986511230e+00 4.441961288452148438e+00 1.804761528968811035e+00 -3.291839122772216797e+00
1.080000000000000000e+02 5.762040328979492188e+01 4.887842535972595215e-01 1.855273962020874023e+00 2.488574743270874023e+00 1.303154587745666504e+00 -2.961346387863159180e+00
1.090000000000000000e+02 5.827404785156250000e+01 -1.084958016872406006e-01 4.706300735473632812e+00 4.666397094726562500e+00 2.811809301376342773e+00 -4.156385898590087891e+00
1.100000000000000000e+02 5.358965682983398438e+01 5.319548249244689941e-01 -2.338821172714233398e+00 -1.008730083703994751e-01 -7.319082617759704590e-01 -1.232327427715063095e-02
1.110000000000000000e+02 5.587029647827148438e+01 3.167645037174224854e-01 -1.216896772384643555e+00 3.180769085884094238e-02 -3.555267453193664551e-01 -1.550214737653732300e-01
1.120000000000000000e+02 5.515859603881835938e+01 1.138647437095642090e+00 -9.814915060997009277e-01 3.132743537425994873e-01 -2.004651427268981934e-01 -4.430534541606903076e-01
1.130000000000000000e+02 5.700000381469726562e+01 4.761929512023925781e-01 7.355700135231018066e-01 6.637212634086608887e-01 4.197873771190643311e-01 -1.493859648704528809e+00
1.140000000000000000e+02 5.357075881958007812e+01 1.277881860733032227e+00 -1.354088187217712402e+00 -9.810925275087356567e-02 -4.356592297554016113e-01 -1.787178218364715576e-01
1.150000000000000000e+02 5.598633575439453125e+01 1.056108474731445312e+00 -3.326254189014434814e-01 4.638536572456359863e-01 3.936847671866416931e-02 -9.314910173416137695e-01
1.160000000000000000e+02 5.717692947387695312e+01 9.019386768341064453e-02 8.647528886795043945e-01 1.511818021535873413e-01 3.047803938388824463e-01 -4.650817513465881348e-01
1.170000000000000000e+02 5.776129913330078125e+01 6.850140541791915894e-02 4.108956813812255859e+00 1.621083021163940430e+00 1.719011902809143066e+00 -2.451517820358276367e+00
1.180000000000000000e+02 5.433566284179687500e+01 4.679341912269592285e-01 -1.981585621833801270e+00 2.200508117675781250e-02 -5.878741741180419922e-01 5.851946026086807251e-02
1.190000000000000000e+02 5.508753585815429688e+01 3.971091210842132568e-01 -1.663357734680175781e+00 9.148843586444854736e-02 -4.715607762336730957e-01 -4.442822560667991638e-02
1.200000000000000000e+02 5.757351684570312500e+01 9.375115633010864258e-01 8.377115130424499512e-01 2.920695781707763672e+00 1.127522110939025879e+00 -2.984734773635864258e+00
1.210000000000000000e+02 5.656960678100585938e+01 1.539985835552215576e-01 -7.159758806228637695e-01 -4.811093583703041077e-02 -2.292260527610778809e-01 -1.417659968137741089e-01
1.220000000000000000e+02 5.045067596435546875e+01 7.608052492141723633e-01 -1.474118351936340332e+00 -3.531955927610397339e-02 -4.528313577175140381e-01 -1.677287369966506958e-01
1.230000000000000000e+02 5.059151077270507812e+01 3.430651128292083740e-02 -1.697333335876464844e+00 -4.967674240469932556e-02 -5.241030454635620117e-01 -2.935861647129058838e-01
1.240000000000000000e+02 5.284211730957031250e+01 4.887914061546325684e-01 -2.313846826553344727e+00 -1.377062946557998657e-01 -7.354659438133239746e-01 -2.051411867141723633e-01
1.250000000000000000e+02 5.209175872802734375e+01 3.407791554927825928e-01 -1.967304825782775879e+00 -4.765890166163444519e-02 -6.044890880584716797e-01 -2.968656420707702637e-01
1.260000000000000000e+02 5.200776672363281250e+01 1.078764796257019043e+00 -1.622869849205017090e+00 -7.944165170192718506e-02 -5.106934309005737305e-01 -7.361651211977005005e-02
1.270000000000000000e+02 5.278653335571289062e+01 1.232732176780700684e+00 -1.460213065147399902e+00 -1.459582895040512085e-01 -4.818513989448547363e-01 -3.168763220310211182e-02
1.280000000000000000e+02 5.122899246215820312e+01 9.213988184928894043e-01 -1.529791355133056641e+00 -3.496626392006874084e-02 -4.694272577762603760e-01 -1.568202227354049683e-01
1.290000000000000000e+02 5.134140396118164062e+01 1.891566067934036255e-01 -1.808387994766235352e+00 -6.616051495075225830e-02 -5.623645782470703125e-01 -2.918226122856140137e-01
1.300000000000000000e+02 4.822485733032226562e+01 -5.801191926002502441e-01 -1.235320210456848145e+00 7.453250233083963394e-03 -3.683600723743438721e-01 -2.009843736886978149e-01
1.310000000000000000e+02 4.765818786621093750e+01 -6.387049555778503418e-01 -1.056288242340087891e+00 4.606377705931663513e-02 -3.030673563480377197e-01 -9.963288903236389160e-02
1.320000000000000000e+02 4.770442199707031250e+01 1.305098831653594971e-01 -1.289059162139892578e+00 1.746520847082138062e-01 -3.343221247196197510e-01 -1.620195433497428894e-02
1.330000000000000000e+02 4.872921752929687500e+01 -4.645013809204101562e-01 -1.390845656394958496e+00 -5.687337741255760193e-02 -4.343157112598419189e-01 -2.542309165000915527e-01
1.340000000000000000e+02 4.926444625854492188e+01 -2.671499550342559814e-01 -1.489077925682067871e+00 -4.574650526046752930e-02 -4.604473412036895752e-01 -2.734230160713195801e-01
1.350000000000000000e+02 4.988841629028320312e+01 -1.116906702518463135e-01 -1.594271302223205566e+00 -6.113861501216888428e-02 -4.966229796409606934e-01 -2.813695371150970459e-01
1.360000000000000000e+02 4.965673065185546875e+01 5.945770144462585449e-01 -1.406431913375854492e+00 1.046255789697170258e-02 -4.187907874584197998e-01 -1.517794430255889893e-01
1.370000000000000000e+02 4.835419845581054688e+01 4.095978103578090668e-03 -1.297663211822509766e+00 5.980032682418823242e-02 -3.713588714599609375e-01 -9.387739747762680054e-02
1.380000000000000000e+02 4.887946701049804688e+01 4.043990671634674072e-01 -1.337295889854431152e+00 5.408700183033943176e-02 -3.849626481533050537e-01 -1.024094820022583008e-01
1.390000000000000000e+02 4.604219436645507812e+01 2.554396986961364746e-01 -1.210917115211486816e+00 1.217078790068626404e-01 -3.267627954483032227e-01 1.212643980979919434e-01
1.400000000000000000e+02 4.480234527587890625e+01 -4.746525585651397705e-01 -1.210044980049133301e+00 -3.764975070953369141e-02 -3.743084371089935303e-01 2.411894649267196655e-01
1.410000000000000000e+02 4.496949386596679688e+01 -5.796610936522483826e-02 -1.210252285003662109e+00 2.996245771646499634e-02 -3.540869355201721191e-01 2.777634263038635254e-01
1.420000000000000000e+02 4.690711975097656250e+01 1.273740828037261963e-01 -1.261355757713317871e+00 1.355823576450347900e-01 -3.377320170402526855e-01 -1.552888425067067146e-03
1.430000000000000000e+02 4.696422958374023438e+01 -6.282959580421447754e-01 -1.074303388595581055e+00 8.028244227170944214e-02 -2.982062697410583496e-01 3.672909364104270935e-02
1.440000000000000000e+02 4.515171432495117188e+01 4.377203583717346191e-01 -1.265038967132568359e+00 5.817376077175140381e-02 -3.620595633983612061e-01 2.026595622301101685e-01
1.450000000000000000e+02 4.543532943725585938e+01 -4.982649981975555420e-01 -1.301911711692810059e+00 1.125212851911783218e-02 -3.871978521347045898e-01 1.762191653251647949e-01
1.460000000000000000e+02 4.615271377563476562e+01 -5.078593492507934570e-01 -1.237819075584411621e+00 -9.157467633485794067e-03 -3.740929663181304932e-01 1.399814337491989136e-01
1.470000000000000000e+02 4.215386199951171875e+01 5.665354728698730469e-01 -1.493716001510620117e+00 -2.094381749629974365e-01 -5.109462738037109375e-01 4.847427606582641602e-01
1.480000000000000000e+02 4.248154067993164062e+01 1.234971404075622559e+00 -1.435613751411437988e+00 -3.321547433733940125e-02 -4.406487643718719482e-01 4.621073901653289795e-01
1.490000000000000000e+02 4.342110824584960938e+01 -6.086104363203048706e-02 -1.352960586547851562e+00 -1.803782284259796143e-01 -4.600016474723815918e-01 4.303025603294372559e-01
1.500000000000000000e+02 4.411052322387695312e+01 -2.798376083374023438e-01 -1.176759958267211914e+00 -4.494103789329528809e-02 -3.665102720260620117e-01 3.635910153388977051e-01
1.510000000000000000e+02 4.420140457153320312e+01 2.044474780559539795e-01 -1.324656128883361816e+00 1.208817958831787109e-02 -3.937703669071197510e-01 3.012803792953491211e-01
1.520000000000000000e+02 4.428497695922851562e+01 7.040962576866149902e-01 -1.276121497154235840e+00 8.508606255054473877e-02 -3.573106229305267334e-01 3.050689101219177246e-01
1.530000000000000000e+02 4.340343475341796875e+01 9.601488709449768066e-01 -1.369077444076538086e+00 -4.969773069024085999e-02 -4.256325662136077881e-01 3.114651143550872803e-01
1.540000000000000000e+02 4.283208847045898438e+01 2.259752005338668823e-01 -1.403315544128417969e+00 -1.337934136390686035e-01 -4.611327052116394043e-01 5.266310572624206543e-01
1.550000000000000000e+02 4.341694641113281250e+01 3.954064249992370605e-01 -1.351323485374450684e+00 -6.332942098379135132e-02 -4.243958890438079834e-01 3.954775333404541016e-01
1.560000000000000000e+02 4.008607864379882812e+01 2.347794055938720703e+00 -3.034195661544799805e+00 -2.597358524799346924e-01 -9.881795048713684082e-01 -4.788022041320800781e-01
1.570000000000000000e+02 3.924859237670898438e+01 1.918622970581054688e+00 -5.270720958709716797e+00 -1.225774884223937988e+00 -1.948948740959167480e+00 4.839284345507621765e-02
1.580000000000000000e+02 4.066986846923828125e+01 1.245835542678833008e+00 -2.073904514312744141e+00 -4.248411655426025391e-01 -7.496237158775329590e-01 6.162994503974914551e-01
1.590000000000000000e+02 4.163364028930664062e+01 1.592744350433349609e+00 -1.787614583969116211e+00 -1.440835893154144287e-01 -5.795094966888427734e-01 3.150343298912048340e-01
1.600000000000000000e+02 4.137876510620117188e+01 8.941976428031921387e-01 -1.603116869926452637e+00 -1.396601349115371704e-01 -5.228331089019775391e-01 6.567466259002685547e-01
1.610000000000000000e+02 3.931212234497070312e+01 2.709177732467651367e+00 -1.443609952926635742e+00 -1.156323075294494629e+00 -7.799799442291259766e-01 -1.099785566329956055e+00
1.620000000000000000e+02 4.086096572875976562e+01 1.975051641464233398e+00 -1.893828749656677246e+00 -4.200245067477226257e-02 -5.807493329048156738e-01 3.880443871021270752e-01
1.630000000000000000e+02 3.995876693725585938e+01 1.587908506393432617e+00 -2.726335287094116211e+00 -7.208477705717086792e-02 -8.395259976387023926e-01 8.876972198486328125e-01
1.640000000000000000e+02 3.318261718750000000e+01 7.811875939369201660e-01 -1.562864661216735840e+00 6.326630711555480957e-02 -4.498794972896575928e-01 -6.101728081703186035e-01
1.650000000000000000e+02 3.406509399414062500e+01 5.168127417564392090e-01 -9.641391038894653320e-01 -6.830777525901794434e-01 -4.941650629043579102e-01 -7.286469340324401855e-01
1.660000000000000000e+02 3.456334686279296875e+01 1.281935572624206543e+00 -5.332724094390869141e+00 -4.618362784385681152e-01 -1.738368153572082520e+00 -5.901065468788146973e-01
1.670000000000000000e+02 3.788114929199218750e+01 2.492715597152709961e+00 -6.192106008529663086e-01 1.421967267990112305e+00 2.408269941806793213e-01 9.246541261672973633e-01
1.680000000000000000e+02 3.661830520629882812e+01 1.925509929656982422e+00 -3.340205907821655273e+00 -4.291258156299591064e-01 -1.130799531936645508e+00 -9.319411516189575195e-01
1.690000000000000000e+02 3.353151702880859375e+01 -1.363087892532348633e-01 -3.106187582015991211e-01 -2.450886964797973633e-01 -1.667122393846511841e-01 -3.768467009067535400e-01
1.700000000000000000e+02 3.472558593750000000e+01 3.938025832176208496e-01 -8.573403209447860718e-02 7.478595525026321411e-02 -3.284424310550093651e-03 -1.477689892053604126e-01
1.710000000000000000e+02 3.577708053588867188e+01 7.632904648780822754e-01 -5.178690552711486816e-01 3.049454987049102783e-01 -6.387706845998764038e-02 1.793054677546024323e-02
1.720000000000000000e+02 3.592239379882812500e+01 1.621054768562316895e+00 -6.031054019927978516e+00 -3.078763186931610107e-01 -1.901679158210754395e+00 -1.041646957397460938e+00
1.730000000000000000e+02 3.786200332641601562e+01 1.691667318344116211e+00 -5.684574604034423828e+00 -1.109445914626121521e-01 -1.738655686378479004e+00 -1.902927398681640625e+00
1.740000000000000000e+02 3.854475402832031250e+01 1.946171998977661133e+00 -6.692046165466308594e+00 -1.570485353469848633e+00 -2.478759527206420898e+00 -1.743820905685424805e+00
1.750000000000000000e+02 3.857223129272460938e+01 2.750447750091552734e+00 -3.181435912847518921e-02 -8.644029498100280762e-01 -2.688651978969573975e-01 2.504849135875701904e-01
1.760000000000000000e+02 3.724591064453125000e+01 2.222234725952148438e+00 -1.163821697235107422e+00 1.082408785820007324e+00 -2.442387305200099945e-02 1.246221140027046204e-01
1.770000000000000000e+02 3.519757843017578125e+01 1.456056714057922363e+00 -7.369006156921386719e+00 -3.851662874221801758e-01 -2.326251745223999023e+00 -6.270682811737060547e-01
1.780000000000000000e+02 3.390794372558593750e+01 1.009933352470397949e+00 -2.814985990524291992e+00 -6.148014068603515625e-01 -1.028936147689819336e+00 -6.616751551628112793e-01
1.790000000000000000e+02 3.335908126831054688e+01 3.143023252487182617e-01 -1.329847812652587891e+00 -2.487498223781585693e-01 -4.735793173313140869e-01 -6.860113739967346191e-01
1.800000000000000000e+02 3.509892272949218750e+01 8.875037431716918945e-01 -1.324065446853637695e+00 -3.030879497528076172e-01 -4.881460368633270264e-01 -2.393441945314407349e-01
1.810000000000000000e+02 3.727110671997070312e+01 1.605347871780395508e+00 -4.198967933654785156e+00 9.331937432289123535e-01 -9.797322154045104980e-01 -7.153474688529968262e-01
1.820000000000000000e+02 3.696109390258789062e+01 1.159478187561035156e+00 -4.653339385986328125e+00 -2.047080360352993011e-02 -1.402143120765686035e+00 -5.102233290672302246e-01
1.830000000000000000e+02 3.673530960083007812e+01 1.520705103874206543e+00 -3.796648502349853516e+00 3.370853960514068604e-01 -1.037868976593017578e+00 2.236181050539016724e-01
1.840000000000000000e+02 3.419689559936523438e+01 1.028028503060340881e-01 -2.412000447511672974e-01 -1.565967947244644165e-01 -1.193390488624572754e-01 1.362907420843839645e-02
1.850000000000000000e+02 3.636455917358398438e+01 9.085562825202941895e-01 -1.525620818138122559e+00 -2.229257375001907349e-01 -5.245639681816101074e-01 -2.627887725830078125e-01
1.860000000000000000e+02 3.614214706420898438e+01 1.236272931098937988e+00 -3.988369464874267578e+00 2.331864833831787109e-01 -1.126554846763610840e+00 3.795930445194244385e-01
1.870000000000000000e+02 3.083432960510253906e+01 -2.170480340719223022e-01 -1.100003242492675781e+00 1.395955383777618408e-01 -2.881223261356353760e-01 -1.386746168136596680e-01
1.880000000000000000e+02 3.085270309448242188e+01 -9.999262094497680664e-01 -7.277669310569763184e-01 5.639262869954109192e-02 -2.014122903347015381e-01 -1.259370297193527222e-01
1.890000000000000000e+02 3.216926574707031250e+01 -6.736713051795959473e-01 -9.836266636848449707e-01 -2.280652970075607300e-01 -3.635075986385345459e-01 -3.222678303718566895e-01
1.900000000000000000e+02 3.193232536315917969e+01 -3.087860345840454102e-01 -1.029212474822998047e+00 -1.046546772122383118e-01 -3.401601612567901611e-01 -2.690701186656951904e-01
1.910000000000000000e+02 3.283817291259765625e+01 -3.977768719196319580e-01 -8.412642478942871094e-01 -3.264453262090682983e-02 -2.621726393699645996e-01 -4.192391335964202881e-01
1.920000000000000000e+02 3.245020675659179688e+01 5.051715970039367676e-01 -1.355845212936401367e+00 -2.061517164111137390e-02 -4.129381179809570312e-01 -4.445418715476989746e-01
1.930000000000000000e+02 3.264751434326171875e+01 4.808262735605239868e-02 -9.280030131340026855e-01 -1.320842932909727097e-02 -2.823634445667266846e-01 -5.537101626396179199e-01
1.940000000000000000e+02 3.166022682189941406e+01 1.470156908035278320e-01 -1.057981133460998535e+00 1.626210659742355347e-01 -2.686080038547515869e-01 -3.076608777046203613e-01
1.950000000000000000e+02 3.155240631103515625e+01 -8.315400481224060059e-01 -8.885183334350585938e-01 4.665448330342769623e-03 -2.651558518409729004e-01 -3.209849298000335693e-01
1.960000000000000000e+02 1.934751129150390625e+01 2.503270149230957031e+00 -1.052091956138610840e+00 -1.469913274049758911e-01 -3.597249984741210938e-01 1.905809938907623291e-01
1.970000000000000000e+02 2.005071449279785156e+01 1.556203603744506836e+00 -1.392688274383544922e+00 -8.454476296901702881e-02 -4.431699216365814209e-01 3.431985974311828613e-01
1.980000000000000000e+02 1.928076744079589844e+01 1.755981087684631348e+00 -1.538732528686523438e+00 -1.325786113739013672e-01 -5.013933181762695312e-01 2.841158807277679443e-01
1.990000000000000000e+02 2.158644676208496094e+01 1.168239593505859375e+00 -1.356228351593017578e+00 -9.727063030004501343e-02 -4.360496997833251953e-01 3.579961359500885010e-01
2.000000000000000000e+02 2.307723426818847656e+01 1.624484539031982422e+00 -1.136360764503479004e+00 -1.050932183861732483e-01 -3.724361658096313477e-01 3.363357782363891602e-01
2.010000000000000000e+02 2.233542251586914062e+01 9.922933578491210938e-01 -1.371342062950134277e+00 -1.055728197097778320e-01 -4.430744647979736328e-01 3.703790307044982910e-01
2.020000000000000000e+02 2.398313713073730469e+01 4.381691217422485352e-01 -1.462167382240295410e+00 -8.993982523679733276e-02 -4.656321704387664795e-01 4.036165475845336914e-01
2.030000000000000000e+02 2.469855880737304688e+01 3.134082555770874023e-01 -1.493701338768005371e+00 -1.124360412359237671e-01 -4.818412065505981445e-01 3.928678035736083984e-01
2.040000000000000000e+02 2.544886207580566406e+01 1.369469165802001953e-01 -1.500615000724792480e+00 -9.701588004827499390e-02 -4.792892634868621826e-01 3.970136642456054688e-01
2.050000000000000000e+02 2.621602630615234375e+01 -5.633327364921569824e-02 -1.498883366584777832e+00 -9.539519995450973511e-02 -4.782835543155670166e-01 3.844034373760223389e-01
2.060000000000000000e+02 2.698558807373046875e+01 -2.541643083095550537e-01 -1.466578245162963867e+00 -7.602128386497497559e-02 -4.627798497676849365e-01 3.606901764869689941e-01
2.070000000000000000e+02 2.852584266662597656e+01 -6.537437438964843750e-01 -1.263410091400146484e+00 -3.242017701268196106e-02 -3.887490630149841309e-01 2.543312907218933105e-01
2.080000000000000000e+02 2.929613304138183594e+01 -8.536532521247863770e-01 -1.064947962760925293e+00 1.559068914502859116e-02 -3.148071765899658203e-01 1.599843949079513550e-01
2.090000000000000000e+02 2.926754379272460938e+01 -8.154577016830444336e-02 -1.141226291656494141e+00 1.371239423751831055e-01 -3.012306988239288330e-01 3.824575617909431458e-02
2.100000000000000000e+02 3.006602287292480469e+01 -1.052662253379821777e+00 -7.700241804122924805e-01 5.755932629108428955e-02 -2.137394547462463379e-01 3.394872695207595825e-02
2.110000000000000000e+02 3.003009986877441406e+01 -2.786456644535064697e-01 -1.105552911758422852e+00 2.194353640079498291e-01 -2.658352553844451904e-01 -6.526435911655426025e-02
2.120000000000000000e+02 2.011012649536132812e+01 2.305401802062988281e+00 -1.166043043136596680e+00 -1.042555794119834900e-01 -3.810895979404449463e-01 2.294063866138458252e-01
2.130000000000000000e+02 2.087202072143554688e+01 2.110936641693115234e+00 -1.134782910346984863e+00 -9.681330621242523193e-02 -3.694788515567779541e-01 2.884432673454284668e-01
2.140000000000000000e+02 2.163119125366210938e+01 1.921256065368652344e+00 -1.138502717018127441e+00 -1.073871403932571411e-01 -3.737669289112091064e-01 3.101973235607147217e-01
2.150000000000000000e+02 2.237283515930175781e+01 1.747218847274780273e+00 -1.126706480979919434e+00 -1.089188978075981140e-01 -3.706876337528228760e-01 3.286013603210449219e-01
2.160000000000000000e+02 2.399707603454589844e+01 1.007387638092041016e+00 -1.251802682876586914e+00 -9.564696997404098511e-02 -4.042348861694335938e-01 3.631154596805572510e-01
2.170000000000000000e+02 2.471397018432617188e+01 1.074061155319213867e+00 -1.211417078971862793e+00 -9.851585328578948975e-02 -3.929798901081085205e-01 3.646489083766937256e-01
2.180000000000000000e+02 2.545693969726562500e+01 8.995088934898376465e-01 -1.237523555755615234e+00 -7.843955606222152710e-02 -3.947889506816864014e-01 3.468824625015258789e-01
2.190000000000000000e+02 2.697899818420410156e+01 5.122158527374267578e-01 -1.256466150283813477e+00 -8.650103583931922913e-03 -3.795348703861236572e-01 2.745830416679382324e-01
2.200000000000000000e+02 2.775563621520996094e+01 -4.536604583263397217e-01 -1.393675804138183594e+00 -5.674789100885391235e-02 -4.351271092891693115e-01 3.152860701084136963e-01
2.210000000000000000e+02 2.081994247436523438e+01 1.359829425811767578e+00 -1.361698150634765625e+00 -9.857521206140518188e-02 -4.380820095539093018e-01 3.458898365497589111e-01
2.220000000000000000e+02 2.621677017211914062e+01 7.081378102302551270e-01 -1.252048492431640625e+00 -5.177746340632438660e-02 -3.911477625370025635e-01 3.249742686748504639e-01
2.230000000000000000e+02 2.366904449462890625e+01 1.446964621543884277e+00 -1.173254251480102539e+00 -1.083649396896362305e-01 -3.844857513904571533e-01 3.570031821727752686e-01
2.240000000000000000e+02 2.850458717346191406e+01 1.164546683430671692e-01 -1.202244162559509277e+00 9.413304179906845093e-02 -3.324333429336547852e-01 1.287449002265930176e-01
2.250000000000000000e+02 2.774171447753906250e+01 3.146288096904754639e-01 -1.237856030464172363e+00 2.417832612991333008e-02 -3.641032874584197998e-01 2.191244810819625854e-01
2.260000000000000000e+02 2.338090705871582031e+01 6.175161004066467285e-01 -1.419991374015808105e+00 -1.176225915551185608e-01 -4.612841904163360596e-01 3.802302777767181396e-01
2.270000000000000000e+02 2.305155563354492188e+01 1.057019233703613281e+00 -1.330435276031494141e+00 -1.006434187293052673e-01 -4.293236136436462402e-01 3.757377862930297852e-01
2.280000000000000000e+02 1.611225318908691406e+01 2.416136503219604492e+00 -6.243706941604614258e-01 2.003428898751735687e-02 -1.813009232282638550e-01 2.356711328029632568e-01
2.290000000000000000e+02 1.692862129211425781e+01 2.473628282546997070e+00 -7.888296842575073242e-01 2.727169357240200043e-02 -2.284673899412155151e-01 2.167006134986877441e-01
2.300000000000000000e+02 1.619552993774414062e+01 1.680045008659362793e+00 -6.955949664115905762e-01 7.988772355020046234e-03 -2.062818557024002075e-01 4.730317369103431702e-02
2.310000000000000000e+02 1.774459457397460938e+01 2.528052330017089844e+00 -9.599820971488952637e-01 -2.203265205025672913e-02 -2.946044206619262695e-01 2.625578343868255615e-01
2.320000000000000000e+02 1.851055526733398438e+01 1.834378838539123535e+00 -1.453470468521118164e+00 -9.386265277862548828e-02 -4.641999304294586182e-01 1.243758723139762878e-01
2.330000000000000000e+02 1.855901145935058594e+01 2.579250097274780273e+00 -9.763909578323364258e-01 -1.277996599674224854e-01 -3.312571644783020020e-01 2.728379070758819580e-01
2.340000000000000000e+02 1.696798706054687500e+01 1.734610080718994141e+00 -8.981147408485412598e-01 -3.141852561384439468e-03 -2.703769803047180176e-01 4.958561435341835022e-02
2.350000000000000000e+02 1.774004745483398438e+01 1.786107659339904785e+00 -1.123070478439331055e+00 1.687013916671276093e-02 -3.318601250648498535e-01 4.191002994775772095e-02
2.360000000000000000e+02 1.307423973083496094e+01 1.803115367889404297e+00 -7.275661081075668335e-02 3.265190636739134789e-03 -2.084742672741413116e-02 1.242508739233016968e-01
2.370000000000000000e+02 1.322374725341796875e+01 1.078295350074768066e+00 7.002111524343490601e-02 1.850350573658943176e-02 2.655738592147827148e-02 6.131511926651000977e-02
2.380000000000000000e+02 1.396254444122314453e+01 1.243136167526245117e+00 -4.909402504563331604e-02 9.896073490381240845e-03 -1.175938546657562256e-02 6.172961369156837463e-02
2.390000000000000000e+02 1.470126342773437500e+01 1.407449364662170410e+00 -2.148943543434143066e-01 2.541017346084117889e-02 -5.684525519609451294e-02 4.819706827402114868e-02
2.400000000000000000e+02 1.544029712677001953e+01 1.569983482360839844e+00 -4.544312655925750732e-01 2.072847681120038033e-03 -1.357075273990631104e-01 4.498865827918052673e-02
2.410000000000000000e+02 1.532874107360839844e+01 2.303210496902465820e+00 -4.735818207263946533e-01 4.332390055060386658e-02 -1.290773749351501465e-01 2.324560582637786865e-01
2.420000000000000000e+02 1.382568740844726562e+01 1.970758438110351562e+00 -1.854279041290283203e-01 2.674746885895729065e-02 -4.760412871837615967e-02 1.558259129524230957e-01
2.430000000000000000e+02 1.457705688476562500e+01 2.137874126434326172e+00 -3.331875801086425781e-01 3.068975545465946198e-02 -9.074934571981430054e-02 1.991517692804336548e-01
2.440000000000000000e+02 1.104393005371093750e+01 6.161050796508789062e-01 2.123124599456787109e-01 2.525679068639874458e-03 6.445144116878509521e-02 4.792380332946777344e-02
2.450000000000000000e+02 1.093760776519775391e+01 1.349887132644653320e+00 9.945028275251388550e-02 -1.439730729907751083e-02 2.551589161157608032e-02 3.789886087179183960e-02
2.460000000000000000e+02 1.032133674621582031e+01 4.645727574825286865e-01 2.060765027999877930e-01 -3.670573467388749123e-03 6.072178110480308533e-02 3.110472112894058228e-02
2.470000000000000000e+02 1.176770782470703125e+01 7.675349712371826172e-01 1.942788809537887573e-01 1.132242754101753235e-02 6.168039143085479736e-02 5.407123267650604248e-02
2.480000000000000000e+02 1.234649181365966797e+01 1.644436478614807129e+00 9.758507832884788513e-03 2.510602353140711784e-03 3.680733032524585724e-03 8.748456090688705444e-02
2.490000000000000000e+02 1.249242305755615234e+01 9.189449548721313477e-01 1.477449089288711548e-01 6.096458528190851212e-03 4.615240916609764099e-02 6.189658865332603455e-02
2.500000000000000000e+02 1.023481845855712891e+01 1.202500104904174805e+00 1.303827613592147827e-01 -2.582490816712379456e-02 3.136735409498214722e-02 2.276610024273395538e-02
2.510000000000000000e+02 1.164158153533935547e+01 1.497171759605407715e+00 6.081623956561088562e-02 -8.664058521389961243e-03 1.564565487205982208e-02 6.540343165397644043e-02
2.520000000000000000e+02 7.887229919433593750e+00 3.867234289646148682e-01 2.081179320812225342e-01 -2.354167867451906204e-03 6.172912940382957458e-02 -7.394549436867237091e-03
2.530000000000000000e+02 8.716233253479003906e+00 3.873925805091857910e-01 2.190257757902145386e-01 -1.765819033607840538e-03 6.517798453569412231e-02 -2.684895414859056473e-03
2.540000000000000000e+02 7.056899547576904297e+00 3.878324329853057861e-01 1.879695355892181396e-01 -4.752937820740044117e-04 5.624827370047569275e-02 -1.067982707172632217e-02
2.550000000000000000e+02 6.178035259246826172e+00 1.128378868103027344e+00 1.037343516945838928e-01 -1.950074220076203346e-03 3.053528256714344025e-02 -3.141147270798683167e-02
2.560000000000000000e+02 4.565147399902343750e+00 3.867084681987762451e-01 1.047194674611091614e-01 -9.390618652105331421e-05 3.138766810297966003e-02 -1.302035711705684662e-02
2.570000000000000000e+02 3.734298944473266602e+00 3.859201967716217041e-01 7.575685530900955200e-02 5.006558494642376900e-04 2.287725359201431274e-02 -1.252979226410388947e-02
2.580000000000000000e+02 2.903336763381958008e+00 3.870553672313690186e-01 4.849761724472045898e-02 5.725957453250885010e-04 1.472106389701366425e-02 -1.138448249548673630e-02
2.590000000000000000e+02 2.880990266799926758e+00 1.127055406570434570e+00 3.715423867106437683e-02 3.531096968799829483e-03 1.220560073852539062e-02 -2.972058020532131195e-02
2.600000000000000000e+02 2.073071718215942383e+00 3.892002105712890625e-01 2.534623071551322937e-02 1.428943942300975323e-03 8.032552897930145264e-03 -9.094996377825737000e-03
2.610000000000000000e+02 2.057110071182250977e+00 1.129200220108032227e+00 2.257948182523250580e-02 5.865270271897315979e-03 8.533425629138946533e-03 -2.418085001409053802e-02
2.620000000000000000e+02 1.234333992004394531e+00 1.129331231117248535e+00 1.055198349058628082e-02 8.974825032055377960e-03 5.858042743057012558e-03 -1.533911377191543579e-02
2.630000000000000000e+02 4.116423428058624268e-01 1.129539847373962402e+00 2.539423992857336998e-03 7.081334479153156281e-03 2.886227564886212349e-03 -5.125106312334537506e-03
2.640000000000000000e+02 4.148346781730651855e-01 3.895398080348968506e-01 1.589086605235934258e-03 1.276792143471539021e-03 8.597636478953063488e-04 -1.404354348778724670e-03
2.650000000000000000e+02 4.530031204223632812e+00 1.126708507537841797e+00 7.096958160400390625e-02 5.213062977418303490e-04 2.144726738333702087e-02 -3.401471674442291260e-02
2.660000000000000000e+02 5.353859424591064453e+00 1.127378344535827637e+00 8.790718764066696167e-02 -1.158971223048865795e-03 2.602446451783180237e-02 -3.346115350723266602e-02
2.670000000000000000e+02 6.225920200347900391e+00 3.883788883686065674e-01 1.624025404453277588e-01 -8.018064545467495918e-04 4.848021641373634338e-02 -1.217764429748058319e-02
2.680000000000000000e+02 7.002630233764648438e+00 1.127832412719726562e+00 1.169249340891838074e-01 -5.236273631453514099e-03 3.350659832358360291e-02 -2.617163397371768951e-02
2.690000000000000000e+02 7.826575756072998047e+00 1.126723408699035645e+00 1.266907155513763428e-01 -6.624197121709585190e-03 3.601995483040809631e-02 -1.890055648982524872e-02
2.700000000000000000e+02 9.544963836669921875e+00 3.890661597251892090e-01 2.085144519805908203e-01 -9.559864178299903870e-03 5.968637764453887939e-02 1.078533288091421127e-02
2.710000000000000000e+02 9.471539497375488281e+00 1.129066109657287598e+00 1.380925327539443970e-01 -2.130368165671825409e-02 3.503665328025817871e-02 1.054527424275875092e-02
2.720000000000000000e+02 3.705567836761474609e+00 1.125920176506042480e+00 5.353151634335517883e-02 1.460730913095176220e-03 1.649767346680164337e-02 -3.287708759307861328e-02
2.730000000000000000e+02 1.243910908699035645e+00 3.893312513828277588e-01 9.106878191232681274e-03 2.061644801869988441e-03 3.350556828081607819e-03 -5.242692306637763977e-03
2.740000000000000000e+02 5.395359992980957031e+00 3.873783648014068604e-01 1.341133117675781250e-01 1.042658914229832590e-04 4.026527330279350281e-02 -1.296506822109222412e-02
2.750000000000000000e+02 8.649193763732910156e+00 1.127392530441284180e+00 1.288123428821563721e-01 -1.425907947123050690e-02 3.436598181724548340e-02 -4.516132641583681107e-03
2.760000000000000000e+02 1.338139057159423828e+01 3.142086565494537354e-01 -4.135588556528091431e-02 -1.231492869555950165e-02 -1.610124483704566956e-02 -1.363091263920068741e-02
2.770000000000000000e+02 1.410687160491943359e+01 4.760258793830871582e-01 -5.171883851289749146e-02 3.646657569333910942e-03 -1.442165486514568329e-02 -1.870294474065303802e-02
2.780000000000000000e+02 1.353089809417724609e+01 -4.106113612651824951e-01 -2.441478520631790161e-02 2.780637587420642376e-04 -7.241016719490289688e-03 -2.383706159889698029e-02
2.790000000000000000e+02 1.483218193054199219e+01 6.374483108520507812e-01 -6.266213953495025635e-02 -1.262341625988483429e-02 -2.258566580712795258e-02 -1.655716635286808014e-02
2.800000000000000000e+02 1.495638942718505859e+01 -9.297639876604080200e-02 -3.880650922656059265e-02 5.883887875825166702e-03 -9.876786731183528900e-03 -2.183090709149837494e-02
2.810000000000000000e+02 1.566942024230957031e+01 6.387124955654144287e-02 -5.433035641908645630e-02 -1.060166116803884506e-02 -1.947960443794727325e-02 -2.159198559820652008e-02
2.820000000000000000e+02 1.555786418914794922e+01 7.970982789993286133e-01 -6.642489135265350342e-02 9.597285650670528412e-03 -1.704828068614006042e-02 -1.629162579774856567e-02
2.830000000000000000e+02 1.424372863769531250e+01 -2.515964508056640625e-01 -3.432468697428703308e-02 -1.402761973440647125e-02 -1.450569182634353638e-02 -2.069717831909656525e-02
2.840000000000000000e+02 3.494360208511352539e+00 -1.889807581901550293e+00 1.395991817116737366e-02 1.616270048543810844e-03 4.672856535762548447e-03 1.413440145552158356e-02
2.850000000000000000e+02 5.066069602966308594e+00 -1.892749428749084473e+00 2.117716148495674133e-02 -1.789545523934066296e-03 5.816285032778978348e-03 1.193209365010261536e-02
2.860000000000000000e+02 9.069025039672851562e+00 -2.507354974746704102e+00 1.734052784740924835e-02 -1.091932225972414017e-02 1.926361932419240475e-03 -1.521929446607828140e-02
2.870000000000000000e+02 1.748564529418945312e+01 -4.603526115417480469e+00 3.223431482911109924e-02 8.603273332118988037e-02 3.548011556267738342e-02 1.589751057326793671e-02
2.880000000000000000e+02 1.663616371154785156e+01 -1.729625940322875977e+00 3.455353900790214539e-03 4.407264757901430130e-03 2.358785597607493401e-03 8.444333449006080627e-03
2.890000000000000000e+02 1.965331840515136719e+01 -5.695285797119140625e-01 -1.175406202673912048e-01 -8.572635054588317871e-02 -6.098009273409843445e-02 -1.375720947980880737e-01
2.900000000000000000e+02 1.810731697082519531e+01 -9.097852110862731934e-01 8.471658453345298767e-03 4.583801701664924622e-02 1.629290357232093811e-02 3.620366752147674561e-02
2.910000000000000000e+02 3.480075597763061523e-01 -9.095625877380371094e+00 -1.321776537224650383e-03 1.149737015366554260e-01 3.409557789564132690e-02 7.403306663036346436e-03
2.920000000000000000e+02 7.395151615142822266e+00 -1.444419097900390625e+01 -2.111469805240631104e-01 -2.522471249103546143e-01 -1.390182375907897949e-01 -2.212557941675186157e-01
2.930000000000000000e+02 8.566896438598632812e+00 -1.340826892852783203e+01 -1.923687607049942017e-01 -1.332455575466156006e-01 -9.768429398536682129e-02 -1.840286701917648315e-01
2.940000000000000000e+02 1.029455661773681641e+01 -1.248337364196777344e+01 -3.390537798404693604e-01 -5.083662644028663635e-02 -1.169671192765235901e-01 -5.730278789997100830e-02
2.950000000000000000e+02 7.471782207489013672e+00 -1.344181156158447266e+01 -1.544188410043716431e-01 -1.973968595266342163e-01 -1.055447086691856384e-01 -1.518089175224304199e-01
2.960000000000000000e+02 1.239033508300781250e+01 -1.318994998931884766e+01 -4.271367192268371582e-02 2.147604525089263916e-02 -6.371288094669580460e-03 -1.684254221618175507e-02
2.970000000000000000e+02 1.471265983581542969e+01 -1.404657936096191406e+01 4.564217478036880493e-02 3.331369757652282715e-01 1.136337444186210632e-01 -1.275702863931655884e-01
2.980000000000000000e+02 1.143895816802978516e+01 -1.206175804138183594e+01 -1.953524351119995117e-01 2.662701532244682312e-02 -5.061762779951095581e-02 -6.739120185375213623e-02
2.990000000000000000e+02 1.727925491333007812e+01 -8.759199142456054688e+00 -2.175356633961200714e-02 6.427455693483352661e-02 1.275629829615354538e-02 1.647350378334522247e-02
3.000000000000000000e+02 1.718974113464355469e+01 -6.227600097656250000e+00 1.689538359642028809e-02 1.101536601781845093e-01 3.811471536755561829e-02 6.287237163633108139e-03
3.010000000000000000e+02 5.234783172607421875e+00 -2.023526954650878906e+01 8.104060590267181396e-02 -3.508590394631028175e-03 2.325960434973239899e-02 -9.450358897447586060e-02
3.020000000000000000e+02 3.569615781307220459e-01 -2.682902908325195312e+01 -7.153693877626210451e-05 -2.278294563293457031e-01 -6.837029755115509033e-02 6.201094482094049454e-03
3.030000000000000000e+02 8.425035476684570312e+00 -2.284975051879882812e+01 4.453319311141967773e-01 4.302394017577171326e-02 1.465067714452743530e-01 -9.673168510198593140e-02
3.040000000000000000e+02 7.689311504364013672e+00 -2.273109436035156250e+01 4.265537858009338379e-01 1.278046071529388428e-01 1.663075238466262817e-01 -1.655667424201965332e-01
3.050000000000000000e+02 5.875265598297119141e+00 -2.243004798889160156e+01 2.158815115690231323e-01 2.712508896365761757e-03 6.557820737361907959e-02 -7.143563777208328247e-02
3.060000000000000000e+02 3.676728010177612305e-01 -3.004315757751464844e+01 -4.087573615834116936e-04 -2.125118970870971680e-01 -6.387619674205780029e-02 -3.929877653717994690e-03
3.070000000000000000e+02 1.296055889129638672e+01 -3.442563629150390625e+01 -1.205854490399360657e-02 -5.082141160964965820e-01 -1.560817956924438477e-01 -7.194226235151290894e-02
3.080000000000000000e+02 1.401727771759033203e+01 -3.754996871948242188e+01 2.274221628904342651e-01 1.535525768995285034e-01 1.142924278974533081e-01 -1.743519157171249390e-01
3.090000000000000000e+02 1.242498874664306641e+01 -3.632916641235351562e+01 1.150735542178153992e-01 -2.227614670991897583e-01 -3.230637684464454651e-02 -1.727042943239212036e-01
3.100000000000000000e+02 1.315076351165771484e+01 -3.277415847778320312e+01 -7.102698087692260742e-02 -8.193452358245849609e-01 -2.671116590499877930e-01 -1.856573820114135742e-01
3.110000000000000000e+02 1.363582611083984375e+01 -3.121911811828613281e+01 -2.067927271127700806e-01 -9.117665290832519531e-01 -3.355677723884582520e-01 -3.916058242321014404e-01
3.120000000000000000e+02 1.591042232513427734e+01 -2.787972068786621094e+01 -2.590602934360504150e-01 -4.218224287033081055e-01 -2.042648196220397949e-01 -3.386385440826416016e-01
3.130000000000000000e+02 1.532127094268798828e+01 -2.642439651489257812e+01 9.388227015733718872e-02 -5.376998186111450195e-01 -1.331452727317810059e-01 -3.165195286273956299e-01
3.140000000000000000e+02 1.149372482299804688e+01 -2.252560424804687500e+01 -1.357312500476837158e-01 -6.641030311584472656e-02 -6.064246594905853271e-02 -1.149138212203979492e-01
3.150000000000000000e+02 1.074265766143798828e+01 -2.267487907409667969e+01 3.710109740495681763e-02 -2.524441108107566833e-02 3.557005431503057480e-03 -5.480053275823593140e-02
3.160000000000000000e+02 9.980042457580566406e+00 -2.279339981079101562e+01 1.929726451635360718e-01 -9.733929298818111420e-03 5.497161671519279480e-02 -2.930316329002380371e-02
3.170000000000000000e+02 7.424359321594238281e+00 -3.914796066284179688e+01 1.552928239107131958e-01 -3.792726993560791016e-01 -6.719396263360977173e-02 -1.527002602815628052e-01
3.180000000000000000e+02 1.186459159851074219e+01 -3.233529663085937500e+01 -1.820248067378997803e-01 -5.045192837715148926e-01 -2.059632241725921631e-01 -2.585292458534240723e-01
3.190000000000000000e+02 1.200676679611206055e+00 -3.485471725463867188e+01 -4.202232230454683304e-03 -3.681070208549499512e-01 -1.116927787661552429e-01 -5.807484686374664307e-02
3.200000000000000000e+02 4.222114086151123047e-01 -3.646519470214843750e+01 3.474961733445525169e-03 -4.625309109687805176e-01 -1.377167850732803345e-01 -2.194486372172832489e-02
3.210000000000000000e+02 1.354380321502685547e+01 -3.687127685546875000e+01 1.095428243279457092e-01 3.646849468350410461e-02 4.380339756608009338e-02 -1.205007508397102356e-01
3.220000000000000000e+02 1.729077458381652832e+00 -4.018860626220703125e+01 2.584603615105152130e-02 -5.426700115203857422e-01 -1.550471931695938110e-01 -3.196709603071212769e-02
3.230000000000000000e+02 2.059376907348632812e+01 -3.990596771240234375e+01 9.177390933036804199e-01 9.520524740219116211e-02 3.038833141326904297e-01 2.980818450450897217e-01
3.240000000000000000e+02 2.286830329895019531e+01 -3.895545578002929688e+01 3.764064013957977295e-01 -9.792839409783482552e-05 1.128925457596778870e-01 1.177332103252410889e-01
3.250000000000000000e+02 2.558425712585449219e+01 -3.902495193481445312e+01 3.906285762786865234e-01 -3.271065056324005127e-01 1.905662007629871368e-02 1.264767795801162720e-01
3.260000000000000000e+02 2.799869346618652344e+01 -3.657867431640625000e+01 1.588208079338073730e-01 -1.127036362886428833e-01 1.383515261113643646e-02 8.791000396013259888e-02
3.270000000000000000e+02 3.874336242675781250e+01 -3.644025802612304688e+01 2.462977916002273560e-01 8.349396586418151855e-01 3.243712484836578369e-01 -1.930791139602661133e-01
3.280000000000000000e+02 3.957287979125976562e+01 -3.479676818847656250e+01 3.584440946578979492e-01 1.166733264923095703e+00 4.575532078742980957e-01 -4.864534437656402588e-01
3.290000000000000000e+02 3.938728713989257812e+01 -3.207324218750000000e+01 1.511072516441345215e-01 1.610410571098327637e+00 5.284553170204162598e-01 3.671378493309020996e-01
3.300000000000000000e+02 3.919862365722656250e+01 -3.278057861328125000e+01 1.587012112140655518e-01 1.687860131263732910e+00 5.539684295654296875e-01 1.261174678802490234e-01
3.310000000000000000e+02 3.205254745483398438e+01 -2.683703804016113281e+01 3.793962597846984863e-01 3.105681836605072021e-01 2.069893330335617065e-01 -3.451226949691772461e-01
3.320000000000000000e+02 3.091175460815429688e+01 -2.570983505249023438e+01 3.220221996307373047e-01 2.457355409860610962e-01 1.703273206949234009e-01 -2.819852530956268311e-01
3.330000000000000000e+02 2.983549499511718750e+01 -2.448716926574707031e+01 1.986414492130279541e-01 1.781152933835983276e-01 1.130270212888717651e-01 -1.860672831535339355e-01
3.340000000000000000e+02 2.843448066711425781e+01 -2.308551597595214844e+01 9.518822282552719116e-02 -8.530714362859725952e-02 2.964322688058018684e-03 -1.113766878843307495e-01
3.350000000000000000e+02 2.195831680297851562e+01 -2.793519020080566406e+01 5.545569062232971191e-01 2.951727211475372314e-01 2.549188733100891113e-01 -3.816625475883483887e-01
3.360000000000000000e+02 2.214849281311035156e+01 -2.698916053771972656e+01 6.463089585304260254e-01 1.172917038202285767e-01 2.290802001953125000e-01 -2.846103310585021973e-01
3.370000000000000000e+02 2.252486038208007812e+01 -2.848799324035644531e+01 4.152424335479736328e-01 2.588486969470977783e-01 2.022273391485214233e-01 -3.292134702205657959e-01
3.380000000000000000e+02 2.547580528259277344e+01 -3.287799072265625000e+01 3.543793922290205956e-03 -4.293267130851745605e-01 -1.277348846197128296e-01 -3.776223212480545044e-02
3.390000000000000000e+02 2.462811279296875000e+01 -3.441492843627929688e+01 -8.853436447679996490e-03 -6.513657569885253906e-01 -1.980657577514648438e-01 -4.341419786214828491e-03
3.400000000000000000e+02 2.457852745056152344e+01 -3.708606338500976562e+01 2.399533428251743317e-02 -5.539659857749938965e-01 -1.589912027120590210e-01 -4.486586898565292358e-02
3.410000000000000000e+02 2.407798385620117188e+01 -3.781021881103515625e+01 2.646426483988761902e-02 -3.032869100570678711e-01 -8.304679393768310547e-02 1.022244337946176529e-03
3.420000000000000000e+02 4.220236206054687500e+01 -3.753802490234375000e+01 4.939818978309631348e-01 2.986257970333099365e-01 2.377823144197463989e-01 -2.931809425354003906e-01
3.430000000000000000e+02 4.066899871826171875e+01 -3.583974456787109375e+01 3.495240211486816406e-01 4.216753840446472168e-01 2.313598245382308960e-01 -4.177446067333221436e-01
3.440000000000000000e+02 4.579600143432617188e+01 -3.779029464721679688e+01 6.839376091957092285e-01 5.267848968505859375e-01 3.632167577743530273e-01 4.562541842460632324e-01
3.450000000000000000e+02 4.738785171508789062e+01 -3.789302062988281250e+01 4.806865751743316650e-01 1.788303256034851074e+00 6.806969642639160156e-01 1.064491033554077148e+00
3.460000000000000000e+02 4.778246688842773438e+01 -3.609959793090820312e+01 1.401460886001586914e+00 1.735633254051208496e+00 9.411281943321228027e-01 1.441961288452148438e+00
3.470000000000000000e+02 5.739848709106445312e+01 -3.612731552124023438e+01 9.926373362541198730e-01 2.183901786804199219e+00 9.529617428779602051e-01 -1.102217078208923340e+00
3.480000000000000000e+02 5.825009155273437500e+01 -4.009603118896484375e+01 -8.420528769493103027e-01 1.455787777900695801e+00 1.841204911470413208e-01 -7.806660532951354980e-01
3.490000000000000000e+02 5.898957061767578125e+01 -3.804925918579101562e+01 -1.283917069435119629e+00 3.816037178039550781e-01 -2.706939876079559326e-01 -2.444182336330413818e-01
3.500000000000000000e+02 5.992115020751953125e+01 -3.844010543823242188e+01 -1.942006945610046387e+00 2.899258732795715332e-01 -4.956243336200714111e-01 -2.022034488618373871e-02
3.510000000000000000e+02 6.426598358154296875e+01 -3.715406799316406250e+01 -6.609054803848266602e-01 1.378385663032531738e+00 2.152440398931503296e-01 2.390172779560089111e-01
3.520000000000000000e+02 6.093382644653320312e+01 -3.842151641845703125e+01 -2.324070692062377930e+00 -2.386266589164733887e-01 -7.688091993331909180e-01 -5.970901623368263245e-02
3.530000000000000000e+02 6.751593780517578125e+01 -3.557050704956054688e+01 2.159071713685989380e-01 5.234219074249267578e+00 1.635037899017333984e+00 -9.942465424537658691e-01
3.540000000000000000e+02 7.882463073730468750e+01 -3.784839630126953125e+01 2.081639505922794342e-02 7.844340324401855469e+00 2.359547138214111328e+00 -2.824987657368183136e-02
3.550000000000000000e+02 7.887456512451171875e+01 -3.069208145141601562e+01 -3.505074605345726013e-02 8.221697807312011719e+00 2.455993890762329102e+00 9.573803842067718506e-02
3.560000000000000000e+02 7.344806671142578125e+01 -2.036102867126464844e+01 1.221542716026306152e+00 1.480915451049804688e+01 4.809209346771240234e+00 -2.311198234558105469e+00
3.570000000000000000e+02 7.889654541015625000e+01 -1.785042762756347656e+01 1.192269567400217056e-02 7.974879741668701172e+00 2.396040678024291992e+00 6.758884191513061523e-01
3.580000000000000000e+02 7.809547424316406250e+01 -1.434541416168212891e+01 -3.766975104808807373e-01 8.806154251098632812e+00 2.528837203979492188e+00 4.205335378646850586e-01
3.590000000000000000e+02 7.963251495361328125e+01 -1.311843585968017578e+01 -2.701898850500583649e-02 9.990565299987792969e+00 2.989063978195190430e+00 -4.456455633044242859e-02
3.600000000000000000e+02 7.560655212402343750e+01 -1.041055774688720703e+01 -1.249941110610961914e+00 9.043708801269531250e+00 2.338130474090576172e+00 -8.171807527542114258e-01
3.610000000000000000e+02 7.416587066650390625e+01 -1.122430706024169922e+01 -1.424830555915832520e+00 3.779255867004394531e+00 7.063275575637817383e-01 9.060690999031066895e-01
3.620000000000000000e+02 7.341050720214843750e+01 -1.113478183746337891e+01 -1.959057450294494629e+00 1.085035204887390137e+00 -2.622066736221313477e-01 2.960922010242938995e-02
3.630000000000000000e+02 6.949411773681640625e+01 -1.187810897827148438e+01 2.187530279159545898e+00 8.170801401138305664e-01 9.013831615447998047e-01 -1.577671170234680176e+00
3.640000000000000000e+02 6.784468078613281250e+01 -1.471356296539306641e+01 -1.207097053527832031e+00 1.249018073081970215e+00 1.257632765918970108e-02 -1.119989395141601562e+00
3.650000000000000000e+02 6.817849731445312500e+01 -1.638545799255371094e+01 -4.877004623413085938e+00 4.774654284119606018e-02 -1.448777437210083008e+00 -9.126059412956237793e-01
3.660000000000000000e+02 7.076621246337890625e+01 -1.666598701477050781e+01 1.204971410334110260e-02 1.105415582656860352e+00 3.352395892143249512e-01 -1.058357954025268555e+00
3.670000000000000000e+02 7.108612823486328125e+01 -1.366585540771484375e+01 8.319743722677230835e-02 7.159982323646545410e-01 2.397587150335311890e-01 -2.192587852478027344e+00
3.680000000000000000e+02 7.039626312255859375e+01 -1.607022666931152344e+01 -1.024058461189270020e+00 9.296694993972778320e-01 -2.831668965518474579e-02 -1.398619174957275391e+00
3.690000000000000000e+02 7.282788848876953125e+01 -1.890098190307617188e+01 2.302786350250244141e+00 7.519544601440429688e+00 2.946699380874633789e+00 -3.733908891677856445e+00
3.700000000000000000e+02 7.894217681884765625e+01 -1.948106765747070312e+01 9.507929533720016479e-02 7.297997474670410156e+00 2.217923164367675781e+00 5.084276199340820312e-01
3.710000000000000000e+02 7.821839904785156250e+01 -8.182302474975585938e+00 3.760039210319519043e-01 8.408392906188964844e+00 2.635319232940673828e+00 -7.729116678237915039e-01
3.720000000000000000e+02 7.715363311767578125e+01 -1.015447330474853516e+01 -2.843030095100402832e-01 9.058987617492675781e+00 2.632405281066894531e+00 -1.293055653572082520e+00
3.730000000000000000e+02 7.510420227050781250e+01 -7.840195178985595703e+00 1.098171323537826538e-01 1.425392627716064453e+01 4.309123039245605469e+00 -8.855246123857796192e-04
3.740000000000000000e+02 7.824876403808593750e+01 -6.514572620391845703e+00 4.552756845951080322e-01 8.103592872619628906e+00 2.567660570144653320e+00 -1.048678755760192871e-01
3.750000000000000000e+02 7.829244995117187500e+01 -2.557040929794311523e+00 -1.651884615421295166e-01 8.104286193847656250e+00 2.381729364395141602e+00 5.490342974662780762e-01
3.760000000000000000e+02 7.963984680175781250e+01 1.239003419876098633e+00 -4.943386185914278030e-03 8.699462890625000000e+00 2.608355998992919922e+00 -1.868986338376998901e-02
3.770000000000000000e+02 6.761672210693359375e+01 5.572418212890625000e+00 -1.911079883575439453e+00 1.019400954246520996e+00 -2.675036787986755371e-01 2.028169870376586914e+00
3.780000000000000000e+02 6.873388671875000000e+01 7.564967155456542969e+00 -1.622782588005065918e+00 5.990019440650939941e-01 -3.071341812610626221e-01 2.657153904438018799e-01
3.790000000000000000e+02 6.541912841796875000e+01 6.927870750427246094e+00 -7.559205055236816406e+00 -7.160977721214294434e-01 -2.482590913772583008e+00 9.023178815841674805e-01
3.800000000000000000e+02 5.894569015502929688e+01 -6.369251012802124023e-02 3.319223403930664062e+00 6.248353004455566406e+00 2.870272874832153320e+00 -4.097844123840332031e+00
3.810000000000000000e+02 5.962419509887695312e+01 -1.382057547569274902e+00 4.556627273559570312e+00 8.026290893554687500e+00 3.774875402450561523e+00 -6.009703636169433594e+00
3.820000000000000000e+02 5.918357086181640625e+01 -7.738409638404846191e-01 4.155329704284667969e+00 6.641818046569824219e+00 3.239144325256347656e+00 -5.088912010192871094e+00
3.830000000000000000e+02 7.894062042236328125e+01 4.480013370513916016e+00 -4.911420121788978577e-02 7.739166736602783203e+00 2.307015895843505859e+00 -3.508261442184448242e-01
3.840000000000000000e+02 7.963835144042968750e+01 8.429766654968261719e+00 1.946616335771977901e-03 6.084159374237060547e+00 1.825831890106201172e+00 -1.777651458978652954e-01
3.850000000000000000e+02 7.188819122314453125e+01 1.204081535339355469e+01 4.959255158901214600e-01 1.569062614440917969e+01 4.855965614318847656e+00 7.645590305328369141e-01
3.860000000000000000e+02 7.180623626708984375e+01 1.123610115051269531e+01 1.464845180511474609e+00 1.655184173583984375e+01 5.405005931854248047e+00 2.411386966705322266e+00
3.870000000000000000e+02 7.156951141357421875e+01 1.045115947723388672e+01 2.177057027816772461e+00 1.420816993713378906e+01 4.915567874908447266e+00 4.126845359802246094e+00
3.880000000000000000e+02 7.122038269042968750e+01 9.708395004272460938e+00 2.506057977676391602e+00 1.032479763031005859e+01 3.849256515502929688e+00 4.438907623291015625e+00
3.890000000000000000e+02 7.020291900634765625e+01 8.349164009094238281e+00 1.861953735351562500e+00 4.462727546691894531e+00 1.897404313087463379e+00 2.639469146728515625e+00
3.900000000000000000e+02 7.962091827392578125e+01 1.163890838623046875e+01 2.763525955379009247e-02 5.039306640625000000e+00 1.520082592964172363e+00 -2.688745595514774323e-02
3.910000000000000000e+02 7.964273071289062500e+01 1.564682674407958984e+01 1.116778235882520676e-02 6.134738445281982422e+00 1.843771815299987793e+00 2.105635702610015869e-01
3.920000000000000000e+02 7.009603881835937500e+01 1.720879745483398438e+01 8.957453966140747070e-01 2.571002244949340820e+00 1.040024280548095703e+00 -1.541654229164123535e+00
3.930000000000000000e+02 7.155825805664062500e+01 1.529766368865966797e+01 1.771040678024291992e+00 1.205761146545410156e+01 4.148595809936523438e+00 -3.052887678146362305e+00
3.940000000000000000e+02 7.181015014648437500e+01 1.448836612701416016e+01 1.255760312080383301e+00 1.443391418457031250e+01 4.706902503967285156e+00 -1.903557538986206055e+00
3.950000000000000000e+02 7.893424987792968750e+01 1.885005760192871094e+01 -6.005628407001495361e-02 7.835976600646972656e+00 2.332776069641113281e+00 4.785914123058319092e-01
3.960000000000000000e+02 7.963587951660156250e+01 2.205493354797363281e+01 -1.707795076072216034e-02 8.830006599426269531e+00 2.643878459930419922e+00 5.307234078645706177e-02
3.970000000000000000e+02 6.784003448486328125e+01 2.979912376403808594e+01 9.548512101173400879e-01 4.253833770751953125e+00 1.562605500221252441e+00 3.430562615394592285e-01
3.980000000000000000e+02 6.338752365112304688e+01 3.152007484436035156e+01 4.322735965251922607e-01 5.548653125762939453e+00 1.794278025627136230e+00 -4.765265285968780518e-01
3.990000000000000000e+02 6.330981063842773438e+01 3.078949546813964844e+01 6.122211739420890808e-02 5.393014907836914062e+00 1.636271119117736816e+00 -1.425656769424676895e-02
4.000000000000000000e+02 6.323455047607421875e+01 3.004201507568359375e+01 2.434311248362064362e-02 5.210946559906005859e+00 1.570586919784545898e+00 8.065892755985260010e-02
4.010000000000000000e+02 6.319933700561523438e+01 2.776915550231933594e+01 2.932879924774169922e-01 7.295972824096679688e+00 2.276778221130371094e+00 6.142212152481079102e-01
4.020000000000000000e+02 6.303604507446289062e+01 2.626464653015136719e+01 2.140647649765014648e+00 8.296389579772949219e+00 3.131111145019531250e+00 3.097223281860351562e+00
4.030000000000000000e+02 6.308625793457031250e+01 2.546297073364257812e+01 2.291835069656372070e+00 6.358795166015625000e+00 2.595189094543457031e+00 2.621841907501220703e+00
4.040000000000000000e+02 6.177991485595703125e+01 2.476141548156738281e+01 2.497353553771972656e+00 3.206037759780883789e+00 1.711017370223999023e+00 2.873673677444458008e+00
4.050000000000000000e+02 6.040522766113281250e+01 2.405205535888671875e+01 -1.496467828750610352e+00 5.029585361480712891e-01 -2.980527877807617188e-01 2.906842827796936035e-01
4.060000000000000000e+02 5.726739883422851562e+01 2.345435333251953125e+01 -4.860503673553466797e+00 -3.154415786266326904e-01 -1.552783608436584473e+00 1.340418606996536255e-01
4.070000000000000000e+02 5.653696823120117188e+01 2.389241981506347656e+01 -1.485735177993774414e+00 7.896664738655090332e-01 -2.088206261396408081e-01 4.919874668121337891e-02
4.080000000000000000e+02 5.535432815551757812e+01 2.493765258789062500e+01 1.107191562652587891e+00 2.574389696121215820e+00 1.104474425315856934e+00 -1.636291742324829102e+00
4.090000000000000000e+02 4.585430526733398438e+01 2.440761566162109375e+01 5.296841263771057129e-01 1.623230576515197754e+00 6.458744406700134277e-01 5.295530557632446289e-01
4.100000000000000000e+02 4.583539962768554688e+01 2.601782989501953125e+01 1.504183858633041382e-01 2.151507377624511719e+00 6.905777454376220703e-01 2.033238857984542847e-01
4.110000000000000000e+02 5.115008544921875000e+01 2.000051689147949219e+01 -2.123557925224304199e-01 2.732777595520019531e+00 7.561265230178833008e-01 -1.590985894203186035e+00
4.120000000000000000e+02 4.517376327514648438e+01 2.408820343017578125e+01 6.041455268859863281e-01 1.308972597122192383e+00 5.739354491233825684e-01 7.343381643295288086e-01
4.130000000000000000e+02 4.463242721557617188e+01 2.358181571960449219e+01 7.060092687606811523e-01 8.938138484954833984e-01 4.799469411373138428e-01 7.455981969833374023e-01
4.140000000000000000e+02 4.265735244750976562e+01 2.223090171813964844e+01 7.362118363380432129e-01 2.554574310779571533e-01 2.975007891654968262e-01 3.649349212646484375e-01
4.150000000000000000e+02 4.211584091186523438e+01 2.124781417846679688e+01 4.342961609363555908e-01 2.979330122470855713e-01 2.196687608957290649e-01 2.715982198715209961e-01
4.160000000000000000e+02 4.100527954101562500e+01 2.184354209899902344e+01 4.723568260669708252e-01 5.482234060764312744e-02 1.581537574529647827e-01 7.059645652770996094e-02
4.170000000000000000e+02 3.848642730712890625e+01 2.265470695495605469e+01 5.525843426585197449e-02 -2.095887623727321625e-02 1.028986740857362747e-02 1.200151909142732620e-02
4.180000000000000000e+02 3.813997650146484375e+01 2.035311126708984375e+01 2.974550724029541016e-01 -7.095700502395629883e-02 6.794942170381546021e-02 9.990207105875015259e-02
4.190000000000000000e+02 3.489056015014648438e+01 1.218730068206787109e+01 -1.335386872291564941e+00 -1.261246204376220703e-01 -4.384534358978271484e-01 2.296022027730941772e-01
4.200000000000000000e+02 3.562216949462890625e+01 1.210643577575683594e+01 -1.444584488868713379e+00 -4.269276857376098633e-01 -5.614536404609680176e-01 5.581667423248291016e-01
4.210000000000000000e+02 3.631184768676757812e+01 1.225067329406738281e+01 -1.071344017982482910e+00 -6.904225945472717285e-01 -5.285300016403198242e-01 5.841712355613708496e-01
4.220000000000000000e+02 3.778548812866210938e+01 1.040432929992675781e+01 -1.011673927307128906e+00 -1.346994400024414062e+00 -7.076005339622497559e-01 1.069933056831359863e+00
4.230000000000000000e+02 4.483562469482421875e+01 1.245423030853271484e+01 1.306084990501403809e-01 2.467499732971191406e+00 7.794324755668640137e-01 -2.226204127073287964e-01
4.240000000000000000e+02 3.933245468139648438e+01 7.443411827087402344e+00 -1.560883224010467529e-01 -1.662343859672546387e+00 -5.455296635627746582e-01 4.208151698112487793e-01
4.250000000000000000e+02 3.933368301391601562e+01 5.073286533355712891e+00 2.448260597884654999e-02 -2.867608666419982910e-01 -7.868347316980361938e-02 2.068984359502792358e-01
4.260000000000000000e+02 4.044528579711914062e+01 4.438739299774169922e+00 6.662496179342269897e-02 -7.334982752799987793e-01 -2.000620067119598389e-01 2.180832624435424805e-01
4.270000000000000000e+02 4.355182647705078125e+01 1.630097866058349609e+00 -1.279532194137573242e+00 6.867456436157226562e-02 -3.632572889328002930e-01 3.071981370449066162e-01
4.280000000000000000e+02 4.521939849853515625e+01 1.132041096687316895e+00 -1.218138217926025391e+00 1.690753698348999023e-01 -3.147188425064086914e-01 1.944966912269592285e-01
4.290000000000000000e+02 4.942530059814453125e+01 1.331292748451232910e+00 -1.238360762596130371e+00 5.252537503838539124e-02 -3.557506203651428223e-01 -8.574169129133224487e-02
4.300000000000000000e+02 4.958386993408203125e+01 5.900136470794677734e+00 1.512169092893600464e-02 2.085344046354293823e-01 6.709682941436767578e-02 -1.840438395738601685e-01
4.310000000000000000e+02 5.100683975219726562e+01 2.464953184127807617e+00 -8.808733224868774414e-01 -8.234690874814987183e-02 -2.889660596847534180e-01 -9.057424962520599365e-02
4.320000000000000000e+02 4.603806686401367188e+01 1.008643507957458496e+00 -1.241281628608703613e+00 1.769301146268844604e-01 -3.193054497241973877e-01 9.669745713472366333e-02
4.330000000000000000e+02 4.528714370727539062e+01 1.893035054206848145e+00 -1.209007620811462402e+00 2.100845575332641602e-01 -2.996768951416015625e-01 1.324735283851623535e-01
4.340000000000000000e+02 4.803367614746093750e+01 7.046506881713867188e+00 3.571658730506896973e-01 5.578210353851318359e-01 2.744960784912109375e-01 -4.397561848163604736e-01
4.350000000000000000e+02 4.635787582397460938e+01 7.856950283050537109e+00 2.266736626625061035e-01 8.398925065994262695e-01 3.199698328971862793e-01 -4.737274348735809326e-01
4.360000000000000000e+02 4.091862487792968750e+01 6.639033794403076172e+00 -2.369548976421356201e-01 -5.903986692428588867e-01 -2.482060641050338745e-01 5.883456468582153320e-01
4.370000000000000000e+02 4.545983886718750000e+01 1.007153415679931641e+01 5.847277045249938965e-01 2.118286371231079102e+00 8.109042048454284668e-01 -9.391906857490539551e-01
4.380000000000000000e+02 4.452437210083007812e+01 1.064602279663085938e+01 3.685297966003417969e-01 1.708068132400512695e+00 6.229794025421142578e-01 -4.121915996074676514e-01
4.390000000000000000e+02 3.884722518920898438e+01 9.125267028808593750e+00 -7.164090275764465332e-01 -1.887036442756652832e+00 -7.810336351394653320e-01 9.685868024826049805e-01
4.400000000000000000e+02 7.888740539550781250e+01 2.606761741638183594e+01 -1.361763477325439453e-02 8.266531944274902344e+00 2.475874423980712891e+00 -1.384336948394775391e-01
4.410000000000000000e+02 7.961827087402343750e+01 2.927260589599609375e+01 2.652137074619531631e-03 8.140727043151855469e+00 2.443013668060302734e+00 -3.828357160091400146e-02
4.420000000000000000e+02 7.324160003662109375e+01 3.758530807495117188e+01 -8.505444042384624481e-03 5.986475944519042969e+00 1.793391108512878418e+00 9.417001903057098389e-02
4.430000000000000000e+02 6.089211273193359375e+01 3.502746963500976562e+01 -5.364022850990295410e-01 2.883241176605224609e-01 -7.442346215248107910e-02 5.796680971980094910e-02
4.440000000000000000e+02 5.832106018066406250e+01 3.733000564575195312e+01 -8.257477730512619019e-02 4.328469932079315186e-01 1.050816625356674194e-01 4.441510438919067383e-01
4.450000000000000000e+02 5.828015899658203125e+01 3.580150604248046875e+01 -9.173547625541687012e-01 2.966102659702301025e-01 -1.862233430147171021e-01 1.459137201309204102e-01
4.460000000000000000e+02 5.636240386962890625e+01 3.603046417236328125e+01 -3.195405006408691406e-01 9.252046346664428711e-01 1.816992312669754028e-01 5.483143925666809082e-01
4.470000000000000000e+02 5.629003143310546875e+01 3.509736251831054688e+01 -2.728647291660308838e-01 9.578453302383422852e-01 2.054941803216934204e-01 5.181909203529357910e-01
4.480000000000000000e+02 6.030778503417968750e+01 3.548494338989257812e+01 -1.181649208068847656e+00 2.555994503200054169e-02 -3.468267917633056641e-01 7.747719436883926392e-02
4.490000000000000000e+02 6.097463607788085938e+01 3.649813461303710938e+01 -3.025231361389160156e-01 8.865097165107727051e-01 1.751959621906280518e-01 -4.574560225009918213e-01
4.500000000000000000e+02 6.245903778076171875e+01 3.329882812500000000e+01 3.511329889297485352e-01 1.892118096351623535e+00 6.729753017425537109e-01 -9.804593324661254883e-01
4.510000000000000000e+02 6.377263641357421875e+01 3.229317092895507812e+01 6.727352142333984375e-01 4.693120956420898438e+00 1.609756827354431152e+00 -3.844641149044036865e-01
4.520000000000000000e+02 7.879461669921875000e+01 3.253190994262695312e+01 1.900288276374340057e-02 7.644001960754394531e+00 2.298901557922363281e+00 -4.416589811444282532e-02
4.530000000000000000e+02 7.961212158203125000e+01 3.644580841064453125e+01 8.719003759324550629e-03 7.798335075378417969e+00 2.342116355895996094e+00 -4.585106798913329840e-04
4.540000000000000000e+02 7.484450531005859375e+01 3.721623229980468750e+01 1.708577387034893036e-02 6.465309619903564453e+00 1.944718599319458008e+00 6.691819429397583008e-02
4.550000000000000000e+02 7.845371246337890625e+01 3.790153121948242188e+01 8.006385527551174164e-03 7.511769771575927734e+00 2.255932807922363281e+00 1.295164972543716431e-02
4.560000000000000000e+02 5.443547439575195312e+01 3.859439849853515625e+01 -2.787200808525085449e-01 2.004488945007324219e+00 5.177306532859802246e-01 4.654474258422851562e-01
4.570000000000000000e+02 5.199341964721679688e+01 3.920259475708007812e+01 -3.370975553989410400e-01 2.236351251602172852e+00 5.697761178016662598e-01 1.655217409133911133e-01
4.580000000000000000e+02 5.401353836059570312e+01 3.107098770141601562e+01 4.657980203628540039e-01 6.496073246002197266e+00 2.088561296463012695e+00 9.445713758468627930e-01
4.590000000000000000e+02 5.325891113281250000e+01 3.036683082580566406e+01 5.362139344215393066e-01 5.522090911865234375e+00 1.817491531372070312e+00 2.550755441188812256e-01
4.600000000000000000e+02 5.390580368041992188e+01 2.873177528381347656e+01 9.582427889108657837e-02 6.419667720794677734e+00 1.954647541046142578e+00 -1.706456094980239868e-01
4.610000000000000000e+02 5.317496871948242188e+01 2.805911827087402344e+01 7.308743596076965332e-01 6.110253810882568359e+00 2.052338361740112305e+00 -1.086839675903320312e+00
4.620000000000000000e+02 5.306619644165039062e+01 2.735176086425781250e+01 1.269461393356323242e+00 5.355959892272949219e+00 1.987626433372497559e+00 -1.069709420204162598e+00
4.630000000000000000e+02 4.244944000244140625e+01 3.642467117309570312e+01 5.084086656570434570e-01 9.509693384170532227e-01 4.378134012222290039e-01 -4.178240597248077393e-01
4.640000000000000000e+02 4.354201889038085938e+01 3.469688034057617188e+01 5.304693579673767090e-01 1.150764346122741699e+00 5.043700933456420898e-01 -6.189790368080139160e-01
4.650000000000000000e+02 4.186451721191406250e+01 3.349179077148437500e+01 7.075966596603393555e-01 4.034928977489471436e-01 3.333268761634826660e-01 -5.163736939430236816e-01
4.660000000000000000e+02 4.122677230834960938e+01 3.396563339233398438e+01 7.086810469627380371e-01 3.233680725097656250e-01 3.096147179603576660e-01 -3.850018084049224854e-01
4.670000000000000000e+02 4.250137710571289062e+01 3.300127410888671875e+01 8.368896842002868652e-01 6.311993598937988281e-01 4.404267072677612305e-01 -6.375576257705688477e-01
4.680000000000000000e+02 4.426529693603515625e+01 3.131575965881347656e+01 8.319807648658752441e-01 1.273370265960693359e+00 6.316053271293640137e-01 -9.969833493232727051e-01
4.690000000000000000e+02 4.712750244140625000e+01 3.155540466308593750e+01 6.629927754402160645e-01 2.254884481430053711e+00 8.753631711006164551e-01 -7.377331256866455078e-01
4.700000000000000000e+02 4.555044555664062500e+01 2.923452568054199219e+01 5.178918838500976562e-01 2.619248867034912109e+00 9.411422014236450195e-01 -8.877930045127868652e-01
4.710000000000000000e+02 4.580871200561523438e+01 2.762371444702148438e+01 8.406935632228851318e-02 2.156487703323364258e+00 6.721671223640441895e-01 -1.573929339647293091e-01
4.720000000000000000e+02 4.034923934936523438e+01 3.924089813232421875e+01 4.335720539093017578e-01 8.250969052314758301e-01 3.776006996631622314e-01 -1.536850631237030029e-01
4.730000000000000000e+02 3.768561172485351562e+01 3.581450271606445312e+01 5.262745022773742676e-01 3.655847609043121338e-01 2.675577700138092041e-01 7.329920679330825806e-02
4.740000000000000000e+02 3.755455780029296875e+01 3.346997451782226562e+01 4.602405726909637451e-01 3.101836740970611572e-01 2.311272770166397095e-01 3.002064526081085205e-01
4.750000000000000000e+02 3.833352279663085938e+01 3.395568084716796875e+01 5.396442413330078125e-01 1.973862349987030029e-01 2.211091518402099609e-01 2.192819863557815552e-01
4.760000000000000000e+02 4.001433181762695312e+01 3.533324813842773438e+01 6.577323675155639648e-01 4.206416904926300049e-01 3.235122263431549072e-01 -1.560295373201370239e-01
4.770000000000000000e+02 3.257394790649414062e+01 3.738826751708984375e+01 3.749106824398040771e-01 2.443888932466506958e-01 1.857898831367492676e-01 8.485613763332366943e-02
4.780000000000000000e+02 3.063965797424316406e+01 3.682864379882812500e+01 3.514614105224609375e-01 1.687239259481430054e-01 1.560555994510650635e-01 1.110528185963630676e-01
4.790000000000000000e+02 2.886010742187500000e+01 2.951322174072265625e+01 1.987252533435821533e-01 -2.523023188114166260e-01 -1.607311517000198364e-02 2.602492272853851318e-01
4.800000000000000000e+02 2.897979354858398438e+01 2.825622558593750000e+01 -1.309185624122619629e-01 -3.112063705921173096e-01 -1.326374709606170654e-01 2.635629475116729736e-01
4.810000000000000000e+02 2.911110687255859375e+01 2.716705131530761719e+01 -4.578951299190521240e-01 -3.748247921466827393e-01 -2.498159706592559814e-01 3.991996943950653076e-01
4.820000000000000000e+02 2.848186683654785156e+01 2.765608787536621094e+01 -3.476888537406921387e-01 -2.944505214691162109e-01 -1.926418095827102661e-01 3.462071120738983154e-01
4.830000000000000000e+02 3.077508354187011719e+01 2.539589500427246094e+01 -3.862754404544830322e-01 -7.029559016227722168e-01 -3.267693817615509033e-01 4.800998270511627197e-01
4.840000000000000000e+02 3.115752410888671875e+01 2.467647171020507812e+01 -2.513030767440795898e-01 -7.051189541816711426e-01 -2.869265973567962646e-01 3.722989857196807861e-01
4.850000000000000000e+02 3.170715713500976562e+01 2.489590454101562500e+01 -2.968013286590576172e-01 -3.140105009078979492e-01 -1.832435429096221924e-01 2.934719026088714600e-01
4.860000000000000000e+02 3.276308059692382812e+01 2.682445335388183594e+01 -8.140205591917037964e-02 1.307166516780853271e-01 1.479437854140996933e-02 9.372910112142562866e-02
4.870000000000000000e+02 3.529232406616210938e+01 2.730468750000000000e+01 4.775663465261459351e-02 1.073472142219543457e+00 3.363686203956604004e-01 -7.215454429388046265e-02
4.880000000000000000e+02 3.524752807617187500e+01 2.815095901489257812e+01 3.456005826592445374e-02 1.031396985054016113e+00 3.197871148586273193e-01 8.468584157526493073e-03
4.890000000000000000e+02 3.544718933105468750e+01 2.983773231506347656e+01 7.690209895372390747e-02 8.512141108512878418e-01 2.784348428249359131e-01 1.638693064451217651e-01
4.900000000000000000e+02 3.594840240478515625e+01 3.146654129028320312e+01 1.832397133111953735e-01 7.078260779380798340e-01 2.673197388648986816e-01 2.876153588294982910e-01
4.910000000000000000e+02 3.691108703613281250e+01 3.285402297973632812e+01 3.787223398685455322e-01 4.542639553546905518e-01 2.498958855867385864e-01 3.604222238063812256e-01
4.920000000000000000e+02 2.207603454589843750e+01 3.797422409057617188e+01 1.950692683458328247e-01 -1.131980866193771362e-01 2.456135675311088562e-02 2.506961487233638763e-02
4.930000000000000000e+02 2.059197425842285156e+01 3.639400100708007812e+01 1.625706851482391357e-01 -1.789213418960571289e-01 -4.905196838080883026e-03 2.809305302798748016e-02
4.940000000000000000e+02 2.619049835205078125e+01 2.898648834228515625e+01 6.002647876739501953e-01 2.027170509099960327e-01 2.408945560455322266e-01 4.057636857032775879e-01
4.950000000000000000e+02 2.049799156188964844e+01 3.255257797241210938e+01 -4.978724196553230286e-02 -2.985883951187133789e-01 -1.045126914978027344e-01 1.474913954734802246e-02
4.960000000000000000e+02 2.699694633483886719e+01 2.912189483642578125e+01 2.706406414508819580e-01 -9.107834845781326294e-02 5.386868864297866821e-02 3.595330417156219482e-01
4.970000000000000000e+02 1.615439033508300781e+01 3.586584091186523438e+01 1.164926066994667053e-01 -1.617788672447204590e-01 -1.358587574213743210e-02 1.391686946153640747e-01
4.980000000000000000e+02 1.108930206298828125e+01 3.480901718139648438e+01 3.734862506389617920e-01 8.266225457191467285e-03 1.145257502794265747e-01 2.738268673419952393e-02
4.990000000000000000e+02 1.518074798583984375e+01 3.407510375976562500e+01 1.761045306921005249e-02 -3.392437472939491272e-02 -4.894176498055458069e-03 7.129716873168945312e-02
5.000000000000000000e+02 1.607387161254882812e+01 3.458745956420898438e+01 4.133796691894531250e-02 -1.564517468214035034e-01 -3.453413397073745728e-02 1.367130279541015625e-01
5.010000000000000000e+02 1.728145599365234375e+01 3.297798919677734375e+01 -2.174010276794433594e-01 -2.191385477781295776e-01 -1.309618800878524780e-01 2.108347862958908081e-01
5.020000000000000000e+02 1.905750656127929688e+01 3.124490928649902344e+01 -2.821301221847534180e-01 -7.191377282142639160e-01 -3.003803491592407227e-01 3.705331683158874512e-01
5.030000000000000000e+02 1.962382125854492188e+01 2.972819709777832031e+01 -1.174413487315177917e-01 -1.048167347908020020e+00 -3.496825993061065674e-01 1.762022227048873901e-01
5.040000000000000000e+02 1.962405014038085938e+01 2.890635681152343750e+01 -9.297803975641727448e-03 -8.400464057922363281e-01 -2.548032701015472412e-01 8.323954790830612183e-02
5.050000000000000000e+02 1.960775375366210938e+01 2.809829139709472656e+01 1.530600152909755707e-02 -6.269642114639282227e-01 -1.834974586963653564e-01 9.292988479137420654e-02
5.060000000000000000e+02 2.270294952392578125e+01 2.361561393737792969e+01 5.275071039795875549e-02 -2.001631259918212891e-01 -4.422372207045555115e-02 4.625636339187622070e-02
5.070000000000000000e+02 1.759696197509765625e+01 2.452004051208496094e+01 1.135803103446960449e+00 5.406689643859863281e-01 5.029416084289550781e-01 7.271324992179870605e-01
5.080000000000000000e+02 1.692522811889648438e+01 2.413634872436523438e+01 1.264841437339782715e+00 4.226024150848388672e-01 5.062331557273864746e-01 6.794887185096740723e-01
5.090000000000000000e+02 1.375582504272460938e+01 2.156451988220214844e+01 2.099530249834060669e-01 1.991079002618789673e-01 1.227182745933532715e-01 4.904549121856689453e-01
5.100000000000000000e+02 1.453032016754150391e+01 1.915444564819335938e+01 4.221568815410137177e-03 1.381923407316207886e-01 4.272417351603507996e-02 4.890091717243194580e-01
5.110000000000000000e+02 1.722717094421386719e+01 1.981131935119628906e+01 -1.463266313076019287e-01 -5.305326730012893677e-02 -5.981397256255149841e-02 2.125669270753860474e-01
5.120000000000000000e+02 1.682908439636230469e+01 1.862362098693847656e+01 -5.791593790054321289e-01 -1.540275365114212036e-01 -2.199560850858688354e-01 2.482364624738693237e-01
5.130000000000000000e+02 2.257664871215820312e+01 1.956754684448242188e+01 -4.303255677223205566e-02 -2.780338823795318604e-01 -9.631992876529693604e-02 5.230968073010444641e-02
5.140000000000000000e+02 2.508793830871582031e+01 1.635079574584960938e+01 -3.616600930690765381e-01 -2.203269004821777344e-01 -1.745961010456085205e-01 2.666655480861663818e-01
5.150000000000000000e+02 2.654539108276367188e+01 1.467385387420654297e+01 -3.193330466747283936e-01 -1.102121546864509583e-01 -1.288635581731796265e-01 1.507302820682525635e-01
5.160000000000000000e+02 2.103994750976562500e+01 1.540935039520263672e+01 -2.341514080762863159e-01 -2.226131856441497803e-01 -1.370293796062469482e-01 1.550071388483047485e-01
5.170000000000000000e+02 2.000226020812988281e+01 1.019513702392578125e+01 9.357926994562149048e-02 8.121943473815917969e-02 5.243961140513420105e-02 1.216036006808280945e-01
5.180000000000000000e+02 1.967858123779296875e+01 9.425618171691894531e+00 2.449939250946044922e-01 2.731088101863861084e-01 1.554308235645294189e-01 2.529449164867401123e-01
5.190000000000000000e+02 1.716504287719726562e+01 7.289788722991943359e+00 5.749129056930541992e-01 2.055710405111312866e-01 2.341451793909072876e-01 3.329836130142211914e-01
5.200000000000000000e+02 2.036384391784667969e+01 3.066947221755981445e+00 -8.321008682250976562e-01 -1.431162804365158081e-01 -2.925651371479034424e-01 1.991281658411026001e-01
5.210000000000000000e+02 2.183181571960449219e+01 2.634068727493286133e+00 -9.068479537963867188e-01 -1.218273639678955078e-01 -3.086026012897491455e-01 2.642145156860351562e-01
5.220000000000000000e+02 2.633290672302246094e+01 1.394170522689819336e+00 -1.061056852340698242e+00 -5.612429231405258179e-04 -3.184854388236999512e-01 2.757837176322937012e-01
5.230000000000000000e+02 2.783595657348632812e+01 1.038865923881530762e+00 -1.103874325752258301e+00 1.206060424447059631e-01 -2.949804663658142090e-01 1.532546728849411011e-01
5.240000000000000000e+02 2.970309257507324219e+01 2.155869960784912109e+00 -9.469786882400512695e-01 4.119589328765869141e-01 -1.605059355497360229e-01 3.378133475780487061e-02
5.250000000000000000e+02 3.307933425903320312e+01 1.698249220848083496e+00 -2.323540687561035156e+00 -6.320461630821228027e-02 -7.160235643386840820e-01 2.779476940631866455e-01
5.260000000000000000e+02 3.259092712402343750e+01 1.362152099609375000e+00 -1.844591498374938965e+00 2.280224710702896118e-01 -4.849707186222076416e-01 -1.469215452671051025e-01
5.270000000000000000e+02 1.009874343872070312e+01 3.637317276000976562e+01 1.905705183744430542e-01 1.284291148185729980e-01 9.569988399744033813e-02 1.471395045518875122e-01
5.280000000000000000e+02 8.672331809997558594e+00 3.509053802490234375e+01 4.358476400375366211e-01 1.595041006803512573e-01 1.786055266857147217e-01 1.240846365690231323e-01
5.290000000000000000e+02 1.291274261474609375e+01 3.626039123535156250e+01 2.027245908975601196e-01 -3.503675013780593872e-02 5.030634999275207520e-02 1.190409511327743530e-01
5.300000000000000000e+02 1.272403836250305176e+00 3.725792694091796875e+01 6.946210749447345734e-03 -1.035650968551635742e+00 -3.086114227771759033e-01 -1.435085665434598923e-02
5.310000000000000000e+02 1.240767002105712891e+00 3.804755401611328125e+01 5.647942889481782913e-03 -1.038837790489196777e+00 -3.099569678306579590e-01 -2.364741079509258270e-02
5.320000000000000000e+02 3.970094025135040283e-01 3.403830718994140625e+01 6.777959875762462616e-03 -1.153697609901428223e+00 -3.440758883953094482e-01 1.770568266510963440e-02
5.330000000000000000e+02 1.149746179580688477e+00 3.235358047485351562e+01 1.535902544856071472e-02 -9.294461607933044434e-01 -2.742261290550231934e-01 9.627248346805572510e-02
5.340000000000000000e+02 7.960872650146484375e+00 3.384048843383789062e+01 4.944911599159240723e-01 2.798922955989837646e-01 2.323150336742401123e-01 3.042953312397003174e-01
5.350000000000000000e+02 6.367465972900390625e+00 3.100918388366699219e+01 3.161156550049781799e-02 -2.369869351387023926e-01 -6.161260977387428284e-02 1.330819819122552872e-02
5.360000000000000000e+02 3.679735064506530762e-01 3.161838150024414062e+01 6.242012022994458675e-05 -9.672985672950744629e-01 -2.901708483695983887e-01 3.943453356623649597e-02
5.370000000000000000e+02 3.489376306533813477e-01 2.683292770385742188e+01 -6.211324129253625870e-03 -4.101666212081909180e-01 -1.249133870005607605e-01 2.310812659561634064e-02
5.380000000000000000e+02 5.896882057189941406e+00 2.711756134033203125e+01 -1.583006232976913452e-01 -1.208875775337219238e+00 -4.101529121398925781e-01 2.637991905212402344e-01
5.390000000000000000e+02 5.042293548583984375e+00 2.656446266174316406e+01 -2.367717772722244263e-01 -7.963350415229797363e-01 -3.099320530891418457e-01 1.877341866493225098e-01
5.400000000000000000e+02 3.658187985420227051e-01 2.037563705444335938e+01 2.750302897766232491e-03 -4.847994744777679443e-01 -1.446147561073303223e-01 -1.256919652223587036e-02
5.410000000000000000e+02 1.099514007568359375e+00 1.552073001861572266e+01 1.113329641520977020e-02 -4.013311564922332764e-01 -1.170593574643135071e-01 5.883134528994560242e-02
5.420000000000000000e+02 1.109722137451171875e+00 8.263452529907226562e+00 -1.231753267347812653e-02 2.726450748741626740e-02 4.484092351049184799e-03 3.892181441187858582e-02
5.430000000000000000e+02 1.133665680885314941e+00 5.856040477752685547e+00 -9.781874716281890869e-03 6.552891433238983154e-02 1.672411337494850159e-02 -4.093961324542760849e-03
5.440000000000000000e+02 1.078434181213378906e+01 2.069278955459594727e+00 7.726492360234260559e-03 -4.264054074883460999e-02 -1.047421433031558990e-02 5.240282043814659119e-02
5.450000000000000000e+02 1.275979900360107422e+01 3.097511053085327148e+00 -2.063081711530685425e-01 -7.079754024744033813e-02 -8.313171565532684326e-02 2.125860154628753662e-01
5.460000000000000000e+02 1.131172180175781250e+01 2.890870094299316406e+00 -1.091671884059906006e-01 -7.352783530950546265e-02 -5.480850860476493835e-02 1.075013801455497742e-01
5.470000000000000000e+02 1.219120693206787109e+01 2.341231584548950195e+00 -9.007068723440170288e-02 -3.025946021080017090e-02 -3.609904274344444275e-02 1.253738850355148315e-01
5.480000000000000000e+02 1.366487312316894531e+01 2.643175125122070312e+00 -2.504061758518218994e-01 -1.426373049616813660e-02 -7.940097153186798096e-02 2.424635738134384155e-01
5.490000000000000000e+02 1.442152595520019531e+01 2.830733299255371094e+00 -3.539580702781677246e-01 1.596134901046752930e-02 -1.013990119099617004e-01 2.996621131896972656e-01
5.500000000000000000e+02 1.600486183166503906e+01 3.129638910293579102e+00 -5.633175969123840332e-01 5.262432619929313660e-02 -1.532079875469207764e-01 3.548426628112792969e-01
5.510000000000000000e+02 1.849070739746093750e+01 6.362430095672607422e+00 5.947504565119743347e-02 1.609181910753250122e-01 6.611797213554382324e-02 2.335968464612960815e-01
5.520000000000000000e+02 3.348066711425781250e+01 1.941639184951782227e+00 -2.558815479278564453e+00 -5.418631434440612793e-01 -9.302036166191101074e-01 1.108940601348876953e+00
5.530000000000000000e+02 2.925327491760253906e+01 6.664208412170410156e+00 9.606967866420745850e-02 1.414355993270874023e+00 4.531276822090148926e-01 -6.920681148767471313e-02
5.540000000000000000e+02 2.935038375854492188e+01 8.568709373474121094e+00 2.174738347530364990e-01 1.357640504837036133e+00 4.725342988967895508e-01 3.557799160480499268e-01
5.550000000000000000e+02 3.052425003051757812e+01 1.064317512512207031e+01 4.373939931392669678e-01 1.048759818077087402e+00 4.458461701869964600e-01 6.765094995498657227e-01
5.560000000000000000e+02 3.095716667175292969e+01 1.119444656372070312e+01 5.207106471061706543e-01 8.866598010063171387e-01 4.222111403942108154e-01 6.242727041244506836e-01
5.570000000000000000e+02 2.970614624023437500e+01 1.563119792938232422e+01 4.919655323028564453e-01 2.843518555164337158e-01 2.328952103853225708e-01 4.322863519191741943e-01
5.580000000000000000e+02 2.998729705810546875e+01 1.350765705108642578e+01 -1.782660484313964844e-01 7.600917816162109375e-01 1.745477169752120972e-01 5.252921581268310547e-01
5.590000000000000000e+02 3.116324806213378906e+01 1.603423309326171875e+01 6.757802367210388184e-01 1.124693632125854492e+00 5.401421189308166504e-01 6.598470807075500488e-01
5.600000000000000000e+02 2.815123748779296875e+01 1.535857677459716797e+01 -4.052819013595581055e-01 -1.337454002350568771e-02 -1.255969256162643433e-01 1.018394455313682556e-01
5.610000000000000000e+02 2.734638786315917969e+01 1.537077426910400391e+01 -6.046369075775146484e-01 -6.036889273673295975e-03 -1.832021325826644897e-01 1.125857010483741760e-01
5.620000000000000000e+02 2.650968551635742188e+01 1.545478057861328125e+01 -6.754247546195983887e-01 -1.240404918789863586e-01 -2.398395836353302002e-01 1.856690943241119385e-01
5.630000000000000000e+02 2.022429847717285156e+01 1.259195995330810547e+01 -1.992265926674008369e-03 -2.057281881570816040e-01 -6.231613829731941223e-02 1.190097071230411530e-02
5.640000000000000000e+02 2.397941780090332031e+01 1.747636032104492188e+01 -2.039027810096740723e-01 -1.595979481935501099e-01 -1.090502142906188965e-01 1.805949509143829346e-01
5.650000000000000000e+02 2.337070655822753906e+01 1.804857826232910156e+01 -1.647250205278396606e-01 -1.792718619108200073e-01 -1.031990647315979004e-01 1.505445390939712524e-01
5.660000000000000000e+02 2.243184089660644531e+01 2.038369178771972656e+01 -1.696955785155296326e-02 -3.312780857086181641e-01 -1.044742912054061890e-01 2.760933246463537216e-03
5.670000000000000000e+02 1.958122825622558594e+01 2.730058097839355469e+01 5.285341292619705200e-02 -3.093922436237335205e-01 -7.696165144443511963e-02 1.536456495523452759e-01
5.680000000000000000e+02 2.280146789550781250e+01 2.607464218139648438e+01 4.223389327526092529e-01 3.521935343742370605e-01 2.323597520589828491e-01 5.218989849090576172e-01
5.690000000000000000e+02 2.492483329772949219e+01 2.970680427551269531e+01 1.916350275278091431e-01 5.668902397155761719e-01 2.275575846433639526e-01 3.606000244617462158e-01
5.700000000000000000e+02 1.945928764343261719e+01 3.053060340881347656e+01 -2.321657091379165649e-01 -9.960596561431884766e-01 -3.684675991535186768e-01 3.204841315746307373e-01
5.710000000000000000e+02 3.256010818481445312e+01 1.219303894042968750e+01 -5.048552751541137695e-01 7.596118748188018799e-02 -1.286682188510894775e-01 1.944721192121505737e-01
5.720000000000000000e+02 3.963044738769531250e+01 3.348625898361206055e+00 1.062218174338340759e-01 -8.869009017944335938e-01 -2.342037260532379150e-01 -2.684925198554992676e-01
5.730000000000000000e+02 3.917618560791015625e+01 3.702258110046386719e+00 4.552588760852813721e-01 -4.479438662528991699e-01 2.194496337324380875e-03 1.650498956441879272e-01
5.740000000000000000e+02 3.845632553100585938e+01 3.507505178451538086e+00 1.049788355827331543e+00 1.423478960990905762e+00 7.419801354408264160e-01 1.442918777465820312e+00
5.750000000000000000e+02 6.090142440795898438e+01 1.188439273834228516e+01 1.030765652656555176e+00 1.209228897094726562e+01 3.936916351318359375e+00 -2.060800075531005859e+00
5.760000000000000000e+02 6.063566207885742188e+01 1.122712230682373047e+01 2.080687522888183594e+00 1.070687294006347656e+01 3.836267948150634766e+00 -2.407179594039916992e+00
5.770000000000000000e+02 5.460353851318359375e+01 1.187382411956787109e+01 3.247717022895812988e-01 5.255297660827636719e+00 1.674020767211914062e+00 -5.886546969413757324e-01
5.780000000000000000e+02 6.093436431884765625e+01 1.334994792938232422e+01 3.311043679714202881e-01 1.129428005218505859e+01 3.487615346908569336e+00 -5.043545961380004883e-01
5.790000000000000000e+02 6.110241699218750000e+01 1.567133426666259766e+01 7.634829282760620117e-01 1.041280078887939453e+01 3.352885246276855469e+00 1.844127774238586426e+00
5.800000000000000000e+02 5.387305831909179688e+01 1.429092407226562500e+01 1.827309370040893555e+00 5.091664314270019531e+00 2.075691938400268555e+00 -2.640566349029541016e+00
5.810000000000000000e+02 5.172360992431640625e+01 1.678206825256347656e+01 2.069995641708374023e+00 2.466496229171752930e+00 1.360947608947753906e+00 -2.231368303298950195e+00
5.820000000000000000e+02 5.285651397705078125e+01 1.561229991912841797e+01 2.348772048950195312e+00 3.371139526367187500e+00 1.715973496437072754e+00 -2.710829019546508789e+00
5.830000000000000000e+02 5.685985183715820312e+01 1.724228978157043457e+00 -1.259457916021347046e-01 2.193370342254638672e+00 6.202273964881896973e-01 -2.174073219299316406e+00
5.840000000000000000e+02 5.862721252441406250e+01 1.522180914878845215e+00 -3.495397791266441345e-02 5.532803058624267578e+00 1.649354815483093262e+00 -3.206880092620849609e+00
5.850000000000000000e+02 6.631369018554687500e+01 -1.674185752868652344e+01 -4.565288066864013672e+00 9.352672696113586426e-01 -1.089006304740905762e+00 -1.633957177400588989e-01
5.860000000000000000e+02 6.465898132324218750e+01 -1.830616760253906250e+01 3.570235371589660645e-01 8.995933532714843750e+00 2.805887222290039062e+00 6.866623759269714355e-01
5.870000000000000000e+02 6.506007385253906250e+01 -2.205129241943359375e+01 1.710909247398376465e+00 1.495582389831542969e+01 5.000020027160644531e+00 -3.159006834030151367e+00
5.880000000000000000e+02 6.495721435546875000e+01 -1.901069641113281250e+01 5.194194912910461426e-01 1.047625064849853516e+01 3.298701047897338867e+00 1.216727137565612793e+00
5.890000000000000000e+02 6.530310058593750000e+01 -8.764912605285644531e+00 2.681004762649536133e+00 1.099367046356201172e+01 4.102402687072753906e+00 -2.697553396224975586e+00
5.900000000000000000e+02 5.988391494750976562e+01 -9.085559844970703125e+00 5.645475864410400391e+00 7.490797519683837891e+00 3.940881967544555664e+00 6.032251834869384766e+00
5.910000000000000000e+02 5.861133193969726562e+01 -9.908259391784667969e+00 1.255522370338439941e+00 1.338398933410644531e+00 7.781764268875122070e-01 2.009836196899414062e+00
5.920000000000000000e+02 5.740984344482421875e+01 -1.016756248474121094e+01 -1.518551468849182129e+00 1.970214545726776123e-01 -3.964590132236480713e-01 9.946731925010681152e-01
5.930000000000000000e+02 5.600569152832031250e+01 -1.184480667114257812e+01 -4.963337630033493042e-02 -8.719146996736526489e-02 -4.104745388031005859e-02 1.025533556938171387e+00
5.940000000000000000e+02 5.578848266601562500e+01 -9.671895027160644531e+00 -2.657276391983032227e+00 -1.263179779052734375e+00 -1.176136851310729980e+00 1.452260494232177734e+00
5.950000000000000000e+02 5.390455245971679688e+01 -7.904742717742919922e+00 -1.447626352310180664e+00 -1.648897886276245117e+00 -9.289572834968566895e-01 1.458655595779418945e+00
5.960000000000000000e+02 5.295101928710937500e+01 -6.506772518157958984e+00 -8.799946308135986328e-01 -2.420310497283935547e+00 -9.900915622711181641e-01 1.188861608505249023e+00
5.970000000000000000e+02 4.807109069824218750e+01 -8.138472557067871094e+00 1.504639238119125366e-01 1.521307229995727539e+00 5.015313625335693359e-01 6.572277098894119263e-02
5.980000000000000000e+02 5.273021697998046875e+01 -5.688166618347167969e+00 -3.207487165927886963e-01 -1.964630961418151855e+00 -6.856139302253723145e-01 6.189047694206237793e-01
5.990000000000000000e+02 5.279530334472656250e+01 -4.024980068206787109e+00 -1.942149735987186432e-02 -5.226435661315917969e-01 -1.626195162534713745e-01 9.973060339689254761e-02
6.000000000000000000e+02 5.057475662231445312e+01 -3.883408546447753906e+00 -4.104789197444915771e-01 -1.543825119733810425e-01 -1.694584339857101440e-01 6.461618542671203613e-01
6.010000000000000000e+02 4.675745391845703125e+01 -6.906525611877441406e+00 1.618549674749374390e-01 9.661432504653930664e-01 3.383994698524475098e-01 -3.931699395179748535e-01
6.020000000000000000e+02 4.623645401000976562e+01 -6.260500907897949219e+00 -3.018286079168319702e-02 4.228931665420532227e-01 1.178130879998207092e-01 -1.536601036787033081e-01
6.030000000000000000e+02 4.512910461425781250e+01 -3.385752201080322266e+00 -1.005198597908020020e+00 1.734566539525985718e-01 -2.495225965976715088e-01 -1.880166120827198029e-02
6.040000000000000000e+02 4.439849090576171875e+01 -2.490033388137817383e+00 -1.038982868194580078e+00 1.385214328765869141e-01 -2.701384127140045166e-01 -1.692568212747573853e-01
6.050000000000000000e+02 4.254656219482421875e+01 -3.058359861373901367e+00 -1.700842380523681641e+00 -1.675194799900054932e-01 -5.605085492134094238e-01 -1.347976028919219971e-01
6.060000000000000000e+02 4.206748580932617188e+01 -1.847173213958740234e+00 -8.887398242950439453e-01 -2.362619638442993164e-01 -3.375005424022674561e-01 -3.465193510055541992e-02
6.070000000000000000e+02 4.004072189331054688e+01 -9.144911766052246094e-01 -4.021194279193878174e-01 -1.117412894964218140e-01 -1.541582196950912476e-01 1.990512013435363770e-01
6.080000000000000000e+02 4.093794250488281250e+01 -2.381507873535156250e+00 -1.087347149848937988e+00 -3.657159805297851562e-01 -4.359189271926879883e-01 1.279248744249343872e-01
6.090000000000000000e+02 6.087562561035156250e+01 -7.725251197814941406e+00 3.236101388931274414e+00 1.978086853027343750e+01 6.905090808868408203e+00 4.437465190887451172e+00
6.100000000000000000e+02 6.554901885986328125e+01 -7.693406581878662109e+00 1.298632860183715820e+00 1.429200649261474609e+01 4.677191734313964844e+00 -2.648598909378051758e+00
6.110000000000000000e+02 5.194772720336914062e+01 -1.918151736259460449e+00 -7.341325283050537109e-02 -9.885694086551666260e-02 -5.168105661869049072e-02 9.633619338274002075e-02
6.120000000000000000e+02 5.258957672119140625e+01 -2.479141473770141602e+00 -2.533034235239028931e-02 -1.150983050465583801e-01 -4.212859272956848145e-02 6.391111761331558228e-02
6.130000000000000000e+02 5.352722167968750000e+01 -1.736262083053588867e+00 -4.970551002770662308e-03 1.857747323811054230e-02 4.082076717168092728e-03 5.142166279256343842e-03
6.140000000000000000e+02 3.957347488403320312e+01 -6.452129483222961426e-01 -2.806359827518463135e-01 -4.924943670630455017e-02 -9.896562993526458740e-02 1.918239295482635498e-01
6.150000000000000000e+02 3.780190277099609375e+01 -7.368738651275634766e-01 -4.490972757339477539e-01 8.526875078678131104e-02 -1.091485545039176941e-01 1.172095835208892822e-01
6.160000000000000000e+02 3.790526199340820312e+01 -4.032331943511962891e+00 -8.980717062950134277e-01 2.906057238578796387e-01 -1.822398006916046143e-01 -1.958150714635848999e-01
6.170000000000000000e+02 3.499627304077148438e+01 -1.824856877326965332e+00 -5.348098874092102051e-01 1.012843176722526550e-01 -1.300576627254486084e-01 -1.440902203321456909e-01
6.180000000000000000e+02 2.944851493835449219e+01 -4.981473922729492188e+00 -1.801914535462856293e-03 -5.037111043930053711e-01 -1.516539007425308228e-01 -3.681195527315139771e-02
6.190000000000000000e+02 2.958673477172851562e+01 -5.793798923492431641e+00 -1.461672782897949219e-02 -7.906814813613891602e-01 -2.415894716978073120e-01 -7.073263078927993774e-02
6.200000000000000000e+02 2.964882278442382812e+01 -7.478747844696044922e+00 -1.411208137869834900e-02 -1.319638133049011230e+00 -4.001250863075256348e-01 -1.621365249156951904e-01
6.210000000000000000e+02 2.945384979248046875e+01 -9.168005943298339844e+00 -4.399294257164001465e-01 -2.255051851272583008e+00 -8.084943294525146484e-01 -6.872084736824035645e-01
6.220000000000000000e+02 2.910000991821289062e+01 -9.940165519714355469e+00 -8.364342451095581055e-01 -1.956057429313659668e+00 -8.377475142478942871e-01 -1.060437560081481934e+00
6.230000000000000000e+02 2.739484214782714844e+01 -1.178176021575927734e+01 -1.476364254951477051e+00 -9.514483213424682617e-01 -7.283437848091125488e-01 -1.099060177803039551e+00
6.240000000000000000e+02 3.098212814331054688e+01 -1.594855785369873047e+01 -3.180509507656097412e-01 -7.552476972341537476e-02 -1.180727183818817139e-01 -1.155828759074211121e-01
6.250000000000000000e+02 2.671361732482910156e+01 -1.225807476043701172e+01 -1.638403654098510742e+00 -7.249894738197326660e-01 -7.090179324150085449e-01 -9.974007606506347656e-01
6.260000000000000000e+02 2.454921913146972656e+01 -1.332269287109375000e+01 -1.692211270332336426e+00 -2.601366341114044189e-01 -5.857043862342834473e-01 -6.107646226882934570e-01
6.270000000000000000e+02 2.338348579406738281e+01 -1.413051605224609375e+01 -1.413524985313415527e+00 -2.689569890499114990e-01 -5.047445893287658691e-01 -3.189312517642974854e-01
6.280000000000000000e+02 2.183599281311035156e+01 -1.354080867767333984e+01 -1.221820592880249023e+00 -1.459810882806777954e-01 -4.103405177593231201e-01 1.998840719461441040e-01
6.290000000000000000e+02 2.508576011657714844e+01 -1.471713447570800781e+01 -1.000192165374755859e+00 -4.727212190628051758e-01 -4.418740272521972656e-01 -4.719626903533935547e-01
6.300000000000000000e+02 2.109059906005859375e+01 -1.318737125396728516e+01 -6.990235447883605957e-01 -1.778802275657653809e-01 -2.630711197853088379e-01 2.787995338439941406e-01
6.310000000000000000e+02 1.376267910003662109e+01 -1.391845417022705078e+01 1.493216902017593384e-01 1.981528103351593018e-01 1.042423471808433533e-01 -1.598545312881469727e-01
6.320000000000000000e+02 1.483658123016357422e+01 -1.066354656219482422e+01 -1.547316759824752808e-01 1.507309228181838989e-01 -1.200222643092274666e-03 1.082249078899621964e-02
6.330000000000000000e+02 1.530128479003906250e+01 -1.577532577514648438e+01 1.587207019329071045e-01 6.113011837005615234e-01 2.310065627098083496e-01 -2.650517523288726807e-01
6.340000000000000000e+02 1.573023891448974609e+01 -1.818775749206542969e+01 -1.656447164714336395e-02 -5.091842263936996460e-02 -2.024486847221851349e-02 -1.636684983968734741e-01
6.350000000000000000e+02 2.143115806579589844e+01 -2.580633735656738281e+01 4.740477502346038818e-01 1.487263441085815430e-01 1.868322342634201050e-01 -1.688784956932067871e-01
6.360000000000000000e+02 2.135779953002929688e+01 -1.489660835266113281e+01 -7.284870743751525879e-01 -1.979435831308364868e-01 -2.779291868209838867e-01 -2.718031704425811768e-01
6.370000000000000000e+02 2.260606956481933594e+01 -1.373966407775878906e+01 -1.596590399742126465e+00 -1.756246834993362427e-01 -5.316645503044128418e-01 -1.129379794001579285e-01
6.380000000000000000e+02 2.938276290893554688e+01 -1.969944381713867188e+01 -6.376918405294418335e-03 -1.375482082366943359e-01 -4.317754134535789490e-02 -2.234373427927494049e-02
6.390000000000000000e+02 2.915559959411621094e+01 -2.296026802062988281e+01 2.859430201351642609e-02 -6.370973587036132812e-02 -1.053462922573089600e-02 -4.317399114370346069e-02
6.400000000000000000e+02 2.906060791015625000e+01 -2.213248443603515625e+01 4.912792239338159561e-03 -1.550538688898086548e-01 -4.504232481122016907e-02 -1.750149205327033997e-02
6.410000000000000000e+02 3.007765007019042969e+01 -4.804128170013427734e+00 6.226156838238239288e-03 -4.756787717342376709e-01 -1.408357918262481689e-01 -1.951095461845397949e-01
6.420000000000000000e+02 1.523194026947021484e+01 -1.478428959846496582e+00 -5.535537376999855042e-03 6.678264122456312180e-03 3.428180643822997808e-04 -2.495212294161319733e-02
6.430000000000000000e+02 1.215166568756103516e+01 -1.420886158943176270e+00 -1.139234009315259755e-04 -1.644877344369888306e-02 -4.968808963894844055e-03 -2.665446884930133820e-02
6.440000000000000000e+02 4.585592651367187500e+01 -2.840255355834960938e+01 6.553416252136230469e-01 3.042398989200592041e-01 2.878744602203369141e-01 -4.264335632324218750e-01
6.450000000000000000e+02 4.719472503662109375e+01 -2.923911476135253906e+01 8.882141709327697754e-01 5.881865620613098145e-01 4.429202377796173096e-01 -6.986465454101562500e-01
6.460000000000000000e+02 5.108290481567382812e+01 -2.506241607666015625e+01 -1.536918282508850098e+00 -7.732707541435956955e-03 -4.633952975273132324e-01 6.291595846414566040e-02
6.470000000000000000e+02 5.261331176757812500e+01 -2.491015625000000000e+01 -5.423055887222290039e-01 5.021122694015502930e-01 -1.205798797309398651e-02 4.615775048732757568e-01
6.480000000000000000e+02 4.779244613647460938e+01 -2.972914314270019531e+01 8.536794781684875488e-01 7.306683659553527832e-01 4.753043651580810547e-01 -7.389038801193237305e-01
6.490000000000000000e+02 4.835199356079101562e+01 -3.023925781250000000e+01 7.853782773017883301e-01 8.942958116531372070e-01 5.039021968841552734e-01 -7.943913936614990234e-01
6.500000000000000000e+02 4.994243621826171875e+01 -2.473662567138671875e+01 -8.252558112144470215e-01 5.460046976804733276e-02 -2.311966121196746826e-01 -3.728283569216728210e-02
6.510000000000000000e+02 4.819155883789062500e+01 -2.321776008605957031e+01 4.133230447769165039e-01 7.142885923385620117e-01 3.382835090160369873e-01 -4.940008223056793213e-01
6.520000000000000000e+02 4.437015914916992188e+01 -2.782092094421386719e+01 3.174516558647155762e-01 1.066588833928108215e-01 1.272331625223159790e-01 -1.570143252611160278e-01
6.530000000000000000e+02 4.645528030395507812e+01 -2.153849220275878906e+01 5.195464491844177246e-01 2.157749652862548828e+00 8.031888604164123535e-01 -1.898528784513473511e-01
6.540000000000000000e+02 4.678593444824218750e+01 -2.083136177062988281e+01 2.398985773324966431e-01 2.651938676834106445e+00 8.675511479377746582e-01 -4.538641870021820068e-02
6.550000000000000000e+02 4.690610885620117188e+01 -2.008248138427734375e+01 8.457147330045700073e-02 2.625150203704833984e+00 8.129165172576904297e-01 3.226706385612487793e-01
6.560000000000000000e+02 4.763778305053710938e+01 -1.775523185729980469e+01 1.110982298851013184e+00 2.435978174209594727e+00 1.064088106155395508e+00 1.347332715988159180e+00
6.570000000000000000e+02 4.398264694213867188e+01 -1.402435493469238281e+01 -1.672583341598510742e+00 -1.709070205688476562e-01 -5.530471205711364746e-01 -2.307799011468887329e-01
6.580000000000000000e+02 4.727532958984375000e+01 -1.853147888183593750e+01 6.106035709381103516e-01 2.965642929077148438e+00 1.072873950004577637e+00 1.104101777076721191e+00
6.590000000000000000e+02 4.977012634277343750e+01 -1.674661827087402344e+01 1.399123966693878174e-01 8.405148237943649292e-02 6.718916445970535278e-02 1.666002422571182251e-01
6.600000000000000000e+02 5.043418884277343750e+01 -1.644609260559082031e+01 -9.796492755413055420e-02 9.438037127256393433e-02 -1.075366046279668808e-03 1.098420396447181702e-01
6.610000000000000000e+02 4.887542343139648438e+01 -3.075029182434082031e+01 6.642142534255981445e-01 1.628786087036132812e+00 6.879001259803771973e-01 -7.788146734237670898e-01
6.620000000000000000e+02 4.961131286621093750e+01 -3.106758117675781250e+01 6.582247614860534668e-01 2.226840257644653320e+00 8.655194640159606934e-01 -3.130608201026916504e-01
6.630000000000000000e+02 4.930019378662109375e+01 -3.329784011840820312e+01 7.955738902091979980e-02 3.743884086608886719e+00 1.147032499313354492e+00 4.276511371135711670e-01
6.640000000000000000e+02 4.891369247436523438e+01 -3.507143783569335938e+01 1.639001846313476562e+00 3.698938846588134766e+00 1.601382136344909668e+00 1.926494240760803223e+00
6.650000000000000000e+02 4.836190032958984375e+01 -3.559214019775390625e+01 1.528668642044067383e+00 2.333848953247070312e+00 1.158755302429199219e+00 1.839007377624511719e+00
6.660000000000000000e+02 4.400893402099609375e+01 -3.802930450439453125e+01 5.697245597839355469e-01 1.184661909937858582e-01 2.064572274684906006e-01 -6.503624841570854187e-03
6.670000000000000000e+02 4.296050262451171875e+01 -3.800165176391601562e+01 6.175893545150756836e-01 2.195460647344589233e-01 2.511406242847442627e-01 -1.705552935600280762e-01
6.680000000000000000e+02 4.222371292114257812e+01 -3.936385345458984375e+01 5.562204718589782715e-01 4.358833134174346924e-01 2.976311445236206055e-01 -1.391737908124923706e-01
6.690000000000000000e+02 4.116112899780273438e+01 -3.641733169555664062e+01 3.323789834976196289e-01 4.127338230609893799e-01 2.235338389873504639e-01 -3.563126027584075928e-01
6.700000000000000000e+02 3.993217086791992188e+01 -3.062757110595703125e+01 4.391516149044036865e-01 1.490922927856445312e+00 5.790224075317382812e-01 7.187843918800354004e-01
6.710000000000000000e+02 3.667913055419921875e+01 -2.781640434265136719e+01 1.674533039331436157e-01 8.554818481206893921e-02 7.590045034885406494e-02 8.419647812843322754e-02
6.720000000000000000e+02 3.809172439575195312e+01 -3.133750534057617188e+01 4.499396681785583496e-01 9.348298907279968262e-01 4.154308736324310303e-01 2.012219429016113281e-01
6.730000000000000000e+02 3.497243118286132812e+01 -2.974580192565917969e+01 4.872047603130340576e-01 2.321552336215972900e-01 2.158079892396926880e-01 -1.592242568731307983e-01
6.740000000000000000e+02 3.387973403930664062e+01 -2.835489082336425781e+01 6.315740942955017090e-01 1.800864636898040771e-01 2.434981614351272583e-01 -2.622188925743103027e-01
6.750000000000000000e+02 3.322610473632812500e+01 -2.794708442687988281e+01 6.768118143081665039e-01 3.141974508762359619e-01 2.973027825355529785e-01 -3.827914893627166748e-01
6.760000000000000000e+02 3.262002944946289062e+01 -2.741261672973632812e+01 4.984544217586517334e-01 3.553371429443359375e-01 2.561374604701995850e-01 -3.958631753921508789e-01
6.770000000000000000e+02 3.737168121337890625e+01 -2.740759086608886719e+01 1.714673191308975220e-01 1.800633221864700317e-01 1.054591983556747437e-01 1.634724885225296021e-01
6.780000000000000000e+02 4.032012176513671875e+01 -2.993785667419433594e+01 5.505289435386657715e-01 1.305815577507019043e+00 5.569033622741699219e-01 7.804594635963439941e-01
6.790000000000000000e+02 4.199637985229492188e+01 -2.816382217407226562e+01 7.255441546440124512e-01 5.723778009414672852e-01 3.893765807151794434e-01 6.120480895042419434e-01
6.800000000000000000e+02 4.185777664184570312e+01 -2.355506515502929688e+01 2.910306155681610107e-01 7.810328602790832520e-01 3.216190338134765625e-01 1.877622157335281372e-01
6.810000000000000000e+02 3.961541748046875000e+01 -2.387865066528320312e+01 4.415533319115638733e-02 7.801221609115600586e-01 2.472832500934600830e-01 1.037165299057960510e-01
6.820000000000000000e+02 3.973536300659179688e+01 -1.977723121643066406e+01 3.234943151473999023e-01 6.648687720298767090e-01 2.965089380741119385e-01 -3.932456374168395996e-01
6.830000000000000000e+02 4.370343017578125000e+01 -1.336570930480957031e+01 -2.734159469604492188e+00 -2.689198851585388184e-01 -9.009237885475158691e-01 -5.700442790985107422e-01
6.840000000000000000e+02 4.109644699096679688e+01 -1.513538265228271484e+01 -7.845404744148254395e-01 1.716141998767852783e-01 -1.838778853416442871e-01 -5.069239735603332520e-01
6.850000000000000000e+02 3.945449829101562500e+01 -1.897712135314941406e+01 3.508340418338775635e-01 6.787835359573364258e-01 3.088852763175964355e-01 -4.870676696300506592e-01
6.860000000000000000e+02 4.066862487792968750e+01 -1.438877773284912109e+01 -9.578812122344970703e-01 3.688549101352691650e-01 -1.767078936100006104e-01 -4.766687750816345215e-01
6.870000000000000000e+02 3.713703918457031250e+01 -1.057553577423095703e+01 1.905097663402557373e-01 1.333267807960510254e+00 4.571332633495330811e-01 -2.655822634696960449e-01
6.880000000000000000e+02 3.697827529907226562e+01 -9.406782150268554688e+00 5.026381015777587891e-01 1.885451912879943848e+00 7.164270281791687012e-01 -5.223181247711181641e-01
6.890000000000000000e+02 3.770264434814453125e+01 -6.217929840087890625e+00 -4.354420304298400879e-02 7.271195054054260254e-01 2.050725817680358887e-01 4.398019611835479736e-02
6.900000000000000000e+02 3.521762847900390625e+01 -2.464151144027709961e+00 -5.579847097396850586e-01 1.925815194845199585e-01 -1.096209660172462463e-01 -2.047665268182754517e-01
6.910000000000000000e+02 6.909667968750000000e+01 5.402082920074462891e+00 -1.047595024108886719e+00 2.758842229843139648e+00 5.133741497993469238e-01 2.851322412490844727e+00
6.920000000000000000e+02 6.799829101562500000e+01 7.302991390228271484e+00 -3.741328001022338867e+00 3.576127439737319946e-02 -1.111670017242431641e+00 -1.965056359767913818e-01
6.930000000000000000e+02 7.230110931396484375e+01 -1.278056144714355469e+00 -4.409319162368774414e-01 9.190859198570251465e-01 1.434461921453475952e-01 -3.054782748222351074e-01
6.940000000000000000e+02 7.283647918701171875e+01 -1.867856621742248535e+00 3.392081856727600098e-01 2.079302072525024414e+00 7.255530953407287598e-01 -9.386913180351257324e-01
6.950000000000000000e+02 7.381315612792968750e+01 -3.189558029174804688e+00 1.364977598190307617e+00 5.417346477508544922e+00 2.034697294235229492e+00 -2.542055606842041016e+00
6.960000000000000000e+02 7.424298095703125000e+01 -3.898978233337402344e+00 1.518417119979858398e+00 8.148962020874023438e+00 2.900213718414306641e+00 -3.049587011337280273e+00
6.970000000000000000e+02 7.117966461181640625e+01 -1.568072891235351562e+01 -3.962427973747253418e-01 2.094902753829956055e+00 5.095980167388916016e-01 -1.959793567657470703e+00
6.980000000000000000e+02 6.865985870361328125e+01 -1.157704639434814453e+01 3.522289991378784180e+00 2.147958040237426758e+00 1.701074361801147461e+00 -2.427839756011962891e+00
6.990000000000000000e+02 6.426700592041015625e+01 -1.231706142425537109e+01 -8.574798107147216797e-01 8.137033462524414062e+00 2.183866024017333984e+00 -5.571233481168746948e-02
7.000000000000000000e+02 6.407260894775390625e+01 -7.201170444488525391e+00 2.616678237915039062e+00 1.255504894256591797e+01 4.551518440246582031e+00 -6.390649080276489258e-01
7.010000000000000000e+02 6.497238159179687500e+01 -7.901694774627685547e+00 2.463740587234497070e+00 1.236271953582763672e+01 4.447937965393066406e+00 -2.060579061508178711e+00
7.020000000000000000e+02 6.101499176025390625e+01 -6.037216186523437500e+00 5.292651057243347168e-01 1.836106681823730469e+01 5.667099475860595703e+00 2.468445003032684326e-01
7.030000000000000000e+02 6.089130020141601562e+01 -3.294762611389160156e+00 3.123948097229003906e+00 2.144307136535644531e+01 7.370105743408203125e+00 -4.747014045715332031e+00
7.040000000000000000e+02 6.628634643554687500e+01 -3.439897537231445312e+00 3.108119964599609375e+00 7.283541202545166016e+00 3.117498397827148438e+00 4.312464237213134766e+00
7.050000000000000000e+02 6.954518890380859375e+01 -1.071635246276855469e+00 2.522943258285522461e+00 4.107049405574798584e-01 8.800944685935974121e-01 1.168676137924194336e+00
7.060000000000000000e+02 6.870902252197265625e+01 -1.189700365066528320e+00 4.611218452453613281e+00 2.099980592727661133e+00 2.013359785079956055e+00 2.557457447052001953e+00
7.070000000000000000e+02 7.109251403808593750e+01 -8.953964710235595703e-01 -1.825299710035324097e-01 8.774700760841369629e-02 -2.843489125370979309e-02 4.789569377899169922e-01
7.080000000000000000e+02 5.421165847778320312e+01 3.184029769897460938e+01 7.942423820495605469e-01 5.485099792480468750e+00 1.883802652359008789e+00 1.527789950370788574e+00
7.090000000000000000e+02 5.451824188232421875e+01 3.256734848022460938e+01 9.415238499641418457e-01 4.030288696289062500e+00 1.491543769836425781e+00 1.670943021774291992e+00
7.100000000000000000e+02 3.291946411132812500e+01 1.914052772521972656e+01 1.791342496871948242e-01 3.853542506694793701e-01 1.693465560674667358e-01 3.854781687259674072e-01
7.110000000000000000e+02 3.673389053344726562e+01 2.438037872314453125e+01 -2.665754582267254591e-04 1.351058334112167358e-01 4.045177623629570007e-02 -4.967352747917175293e-02
7.120000000000000000e+02 3.546450424194335938e+01 2.647773551940917969e+01 7.948047667741775513e-02 1.007932543754577637e+00 3.262238800525665283e-01 -1.715812236070632935e-01
7.130000000000000000e+02 3.158651924133300781e+01 2.231043815612792969e+01 -8.427850902080535889e-03 -4.838428646326065063e-02 -1.704364083707332611e-02 7.206403464078903198e-02
7.140000000000000000e+02 3.041017150878906250e+01 1.590409946441650391e+01 8.436838388442993164e-01 8.821531534194946289e-01 5.177510976791381836e-01 7.663461565971374512e-01
7.150000000000000000e+02 6.576452636718750000e+01 2.112425422668457031e+01 -2.456554889678955078e+00 -8.305086195468902588e-02 -7.618817090988159180e-01 1.123129010200500488e+00
7.160000000000000000e+02 6.368714904785156250e+01 1.967094039916992188e+01 -1.584536552429199219e+00 1.409464120864868164e+00 -5.252173170447349548e-02 1.236944675445556641e+00
7.170000000000000000e+02 6.430213165283203125e+01 2.055903244018554688e+01 -2.932135343551635742e+00 1.443602323532104492e+00 -4.465599060058593750e-01 1.648496866226196289e+00
7.180000000000000000e+02 6.179384613037109375e+01 1.895540046691894531e+01 9.140195846557617188e-01 5.572031974792480469e+00 1.945815443992614746e+00 2.095162630081176758e+00
7.190000000000000000e+02 6.192680740356445312e+01 1.794419097900390625e+01 2.101402521133422852e+00 7.259686470031738281e+00 2.808326721191406250e+00 3.579629421234130859e+00
7.200000000000000000e+02 5.372414398193359375e+01 1.663796615600585938e+01 1.541515827178955078e+00 3.605419397354125977e+00 1.544080615043640137e+00 -2.129743099212646484e+00
7.210000000000000000e+02 6.604521942138671875e+01 2.019589042663574219e+01 -6.943763256072998047e+00 -7.771630287170410156e-01 -2.316277980804443359e+00 4.606065750122070312e-01
7.220000000000000000e+02 6.731214141845703125e+01 1.985806655883789062e+01 -5.813038349151611328e+00 -9.600864648818969727e-01 -2.031937599182128906e+00 1.445355892181396484e+00
7.230000000000000000e+02 6.899430084228515625e+01 1.829014778137207031e+01 -6.470194458961486816e-01 4.532321989536285400e-01 -5.813617259263992310e-02 1.224133670330047607e-01
7.240000000000000000e+02 6.856372070312500000e+01 1.981203842163085938e+01 -3.342802524566650391e+00 1.499951362609863281e+00 -5.528553128242492676e-01 -6.165397167205810547e-02
7.250000000000000000e+02 6.882321929931640625e+01 2.080171775817871094e+01 -2.333731412887573242e+00 2.190104246139526367e+00 -4.308814555406570435e-02 -1.015208005905151367e+00
7.260000000000000000e+02 6.672599792480468750e+01 2.757271194458007812e+01 1.379940986633300781e+00 3.793463706970214844e+00 1.552021384239196777e+00 5.043123960494995117e-01
7.270000000000000000e+02 6.402141571044921875e+01 6.143736362457275391e+00 -3.796680688858032227e+00 2.801541566848754883e+00 -2.985417544841766357e-01 -1.326438426971435547e+00
7.280000000000000000e+02 6.373498153686523438e+01 7.831695079803466797e+00 -2.151766061782836914e+00 1.176401138305664062e+00 -2.926094532012939453e-01 -1.310523301362991333e-01
7.290000000000000000e+02 6.397369384765625000e+01 7.052274703979492188e+00 -3.624375820159912109e+00 1.674645662307739258e+00 -5.849190950393676758e-01 -2.914544939994812012e-01
7.300000000000000000e+02 6.226022720336914062e+01 9.536559104919433594e+00 2.175182819366455078e+00 4.581498146057128906e+00 2.027004241943359375e+00 -3.072420597076416016e+00
7.310000000000000000e+02 1.549144458770751953e+01 2.353176307678222656e+01 1.139816045761108398e+00 1.937698572874069214e-01 4.000757932662963867e-01 4.480889439582824707e-01
7.320000000000000000e+02 1.239017772674560547e+01 2.279049110412597656e+01 7.679000496864318848e-02 2.637540735304355621e-02 3.094962425529956818e-02 1.441179364919662476e-01
7.330000000000000000e+02 9.932008743286132812e+00 2.307042121887207031e+01 -5.372105836868286133e-01 -8.363483101129531860e-02 -1.862536221742630005e-01 1.735604405403137207e-01
7.340000000000000000e+02 9.177234649658203125e+00 2.335241508483886719e+01 -6.245153546333312988e-01 -2.208398431539535522e-01 -2.536065578460693359e-01 3.080377876758575439e-01
7.350000000000000000e+02 7.348823547363281250e+00 2.483268356323242188e+01 -3.911786079406738281e-01 -4.837338030338287354e-01 -2.624737322330474854e-01 4.143957197666168213e-01
7.360000000000000000e+02 1.825609445571899414e+00 2.525049018859863281e+01 -4.984296485781669617e-02 -4.776667356491088867e-01 -1.582529097795486450e-01 3.370294347405433655e-02
7.370000000000000000e+02 1.459086704254150391e+01 -2.103540420532226562e+01 -7.997862100601196289e-01 -6.577849388122558594e-01 -4.372713565826416016e-01 -6.999586820602416992e-01
7.380000000000000000e+02 1.510327816009521484e+01 -2.047408103942871094e+01 -8.465885519981384277e-01 -1.053865313529968262e+00 -5.701361894607543945e-01 -7.959186434745788574e-01
7.390000000000000000e+02 1.490578174591064453e+01 -2.196538925170898438e+01 -3.601406216621398926e-01 -6.266244649887084961e-01 -2.960295379161834717e-01 -4.719723761081695557e-01
7.400000000000000000e+02 1.373304271697998047e+01 -2.228398132324218750e+01 -4.396125376224517822e-01 -4.712272584438323975e-01 -2.732519507408142090e-01 -4.482422471046447754e-01
7.410000000000000000e+02 1.963763236999511719e+01 -2.645561408996582031e+01 1.109884262084960938e+00 2.420556396245956421e-01 4.055819809436798096e-01 -2.353084981441497803e-01
7.420000000000000000e+02 2.051719284057617188e+01 -2.623019599914550781e+01 8.408928513526916504e-01 2.871030569076538086e-01 3.383987843990325928e-01 -2.744085788726806641e-01
7.430000000000000000e+02 1.718411254882812500e+01 -4.056385803222656250e+01 1.037776827812194824e+00 2.324762195348739624e-01 3.810759186744689941e-01 -1.922406107187271118e-01
7.440000000000000000e+02 1.452337074279785156e+01 -3.821940994262695312e+01 2.558549642562866211e-01 1.917792707681655884e-01 1.342902779579162598e-01 -2.388179451227188110e-01
7.450000000000000000e+02 2.802393150329589844e+01 -1.123195648193359375e+01 -1.240178227424621582e+00 -1.182948589324951172e+00 -7.269380092620849609e-01 -1.111800193786621094e+00
7.460000000000000000e+02 3.099136352539062500e+01 -1.686766242980957031e+01 -3.723319247364997864e-02 -1.916235312819480896e-03 -1.174482796341180801e-02 -9.867098182439804077e-03
7.470000000000000000e+02 3.048771667480468750e+01 -1.751027870178222656e+01 1.385007984936237335e-03 -6.614203099161386490e-03 -1.568758627399802208e-03 1.816663541831076145e-03
7.480000000000000000e+02 3.384540939331054688e+01 -1.512210083007812500e+01 -1.417704224586486816e+00 -9.702244400978088379e-02 -4.544180035591125488e-01 3.573834197595715523e-03
7.490000000000000000e+02 3.466217041015625000e+01 -1.513092994689941406e+01 -1.454408288002014160e+00 -1.143311634659767151e-01 -4.706218242645263672e-01 2.110142409801483154e-01
7.500000000000000000e+02 3.541499710083007812e+01 -1.526664352416992188e+01 -1.008434653282165527e+00 3.258103504776954651e-02 -2.927560806274414062e-01 1.621605902910232544e-01
7.510000000000000000e+02 3.863623046875000000e+01 -1.097977066040039062e+01 5.845195055007934570e-01 1.078212499618530273e+00 4.988196194171905518e-01 -7.641358971595764160e-01
7.520000000000000000e+02 3.623086929321289062e+01 -1.516132831573486328e+01 -7.659703493118286133e-01 3.682585358619689941e-01 -1.193135529756546021e-01 -7.617839425802230835e-02
7.530000000000000000e+02 3.803107452392578125e+01 -1.775203704833984375e+01 4.272896945476531982e-01 1.050470948219299316e+00 4.433282017707824707e-01 -6.397004127502441406e-01
7.540000000000000000e+02 4.705104064941406250e+01 -1.930904388427734375e+01 3.274685740470886230e-01 2.921270608901977539e+00 9.746217727661132812e-01 6.041783690452575684e-01
7.550000000000000000e+02 3.844253540039062500e+01 -1.844959449768066406e+01 3.559727668762207031e-01 1.037437081336975098e+00 4.180229604244232178e-01 -5.851891636848449707e-01
7.560000000000000000e+02 3.950790023803710938e+01 -2.150094604492187500e+01 6.489773839712142944e-02 6.593133211135864258e-01 2.172633260488510132e-01 -1.178112924098968506e-01
7.570000000000000000e+02 4.378002929687500000e+01 -2.690250587463378906e+01 4.939118325710296631e-01 3.330425918102264404e-01 2.480863183736801147e-01 8.983780443668365479e-02
7.580000000000000000e+02 4.272266769409179688e+01 -2.772508239746093750e+01 6.920841336250305176e-01 3.404151499271392822e-01 3.097497820854187012e-01 3.652537763118743896e-01
7.590000000000000000e+02 4.005525970458984375e+01 -2.620750617980957031e+01 2.459686696529388428e-01 8.006058931350708008e-01 3.139723837375640869e-01 3.186304867267608643e-01
7.600000000000000000e+02 3.908175659179687500e+01 -2.581236076354980469e+01 2.527212500572204590e-01 7.825723886489868164e-01 3.105880916118621826e-01 3.840539157390594482e-01
7.610000000000000000e+02 1.475639820098876953e+01 6.644851207733154297e+00 -4.581389725208282471e-01 -9.193010628223419189e-03 -1.401996016502380371e-01 1.791709363460540771e-01
7.620000000000000000e+02 1.174885272979736328e+01 8.165041923522949219e+00 -5.369477272033691406e-01 -4.991580247879028320e-01 -3.108317255973815918e-01 5.119448900222778320e-01
7.630000000000000000e+02 9.893390655517578125e+00 1.078971099853515625e+01 -1.629494279623031616e-01 -7.303028106689453125e-01 -2.679756581783294678e-01 2.865948081016540527e-01
7.640000000000000000e+02 9.729094505310058594e+00 1.160125350952148438e+01 -4.087852314114570618e-02 -4.490948319435119629e-01 -1.469920128583908081e-01 1.344954967498779297e-01
7.650000000000000000e+02 9.760242462158203125e+00 1.325320148468017578e+01 1.601441949605941772e-02 4.682216793298721313e-02 1.885097660124301910e-02 1.035464555025100708e-01
7.660000000000000000e+02 9.699685096740722656e+00 1.242882919311523438e+01 8.922615088522434235e-03 -1.705093681812286377e-01 -4.847602546215057373e-02 9.272649139165878296e-02
7.670000000000000000e+02 1.029454040527343750e+01 1.628841590881347656e+01 4.827086925506591797e-01 4.631012082099914551e-01 2.837429642677307129e-01 4.023928046226501465e-01
7.680000000000000000e+02 9.712095260620117188e+00 2.249429130554199219e+01 -3.121944069862365723e-01 -1.627264618873596191e-01 -1.424762606620788574e-01 2.052375972270965576e-01
7.690000000000000000e+02 1.276611614227294922e+01 1.785904121398925781e+01 5.745295882225036621e-01 4.007040560245513916e-01 2.925700843334197998e-01 4.784632921218872070e-01
7.700000000000000000e+02 4.665636062622070312e+01 1.783669662475585938e+01 -3.883208334445953369e-01 1.025758758187294006e-01 -8.572348952293395996e-02 -1.133397519588470459e-01
7.710000000000000000e+02 4.794179534912109375e+01 1.882355117797851562e+01 -1.105112671852111816e+00 -1.581831723451614380e-01 -3.789887726306915283e-01 -3.356364965438842773e-01
7.720000000000000000e+02 4.989440536499023438e+01 1.837246704101562500e+01 9.568617343902587891e-01 1.176139235496520996e+00 6.399002671241760254e-01 -1.066542506217956543e+00
7.730000000000000000e+02 5.433034896850585938e+01 1.601559638977050781e+01 1.730456233024597168e+00 3.981380701065063477e+00 1.713551044464111328e+00 -2.030588865280151367e+00
7.740000000000000000e+02 5.423798370361328125e+01 1.352768135070800781e+01 1.202638864517211914e+00 5.611866950988769531e+00 2.044351816177368164e+00 -2.117923021316528320e+00
7.750000000000000000e+02 5.491218185424804688e+01 1.387061405181884766e+01 1.690603137016296387e+00 4.946919441223144531e+00 1.991256833076477051e+00 -1.787723541259765625e+00
7.760000000000000000e+02 5.457980346679687500e+01 9.326381683349609375e+00 1.641163378953933716e-01 4.324885845184326172e+00 1.346700549125671387e+00 2.497074902057647705e-01
7.770000000000000000e+02 5.404978942871093750e+01 7.740580558776855469e+00 2.419907040894031525e-02 2.023297071456909180e+00 6.142488718032836914e-01 4.265094101428985596e-01
7.780000000000000000e+02 5.439611053466796875e+01 3.334740400314331055e+00 -4.835329651832580566e-01 9.158160090446472168e-01 1.296849101781845093e-01 -6.702988743782043457e-01
7.790000000000000000e+02 5.439426040649414062e+01 1.914253115653991699e+00 -7.969756126403808594e-01 3.199762105941772461e-01 -1.430998146533966064e-01 -5.004377365112304688e-01
7.800000000000000000e+02 5.521463775634765625e+01 1.862742662429809570e+00 -5.555745959281921387e-01 6.465926766395568848e-01 2.730542793869972229e-02 -8.687841892242431641e-01
7.810000000000000000e+02 5.045875549316406250e+01 3.633143186569213867e+00 -6.144744157791137695e-01 -3.069441206753253937e-02 -1.935506463050842285e-01 -1.998805552721023560e-01
7.820000000000000000e+02 4.514577102661132812e+01 1.489856243133544922e+01 6.982780247926712036e-02 1.390334129333496094e+00 4.380485713481903076e-01 2.717955112457275391e-01
7.830000000000000000e+02 4.186301803588867188e+01 2.196619415283203125e+01 6.197502017021179199e-01 1.146240010857582092e-01 2.203122526407241821e-01 2.032978236675262451e-01
7.840000000000000000e+02 4.337671661376953125e+01 2.261917877197265625e+01 8.174203038215637207e-01 4.247516691684722900e-01 3.726516067981719971e-01 5.492006540298461914e-01
7.850000000000000000e+02 1.570907497406005859e+01 -1.737032127380371094e+01 1.873897388577461243e-02 2.730558812618255615e-01 8.753845095634460449e-02 -1.565515846014022827e-01
7.860000000000000000e+02 3.636519908905029297e-01 -2.360992050170898438e+01 2.595420693978667259e-03 -2.666292786598205566e-01 -7.921015471220016479e-02 -1.355398562736809254e-03
7.870000000000000000e+02 5.025579929351806641e+00 -1.941337203979492188e+01 4.371626768261194229e-03 -1.724404245615005493e-01 -5.042063817381858826e-02 -7.408000528812408447e-02
7.880000000000000000e+02 4.845987319946289062e+00 -1.572624015808105469e+01 -1.148672774434089661e-01 -2.151859104633331299e-01 -9.901595860719680786e-02 -1.103503108024597168e-01
7.890000000000000000e+02 1.071708202362060547e+00 -1.706062889099121094e+01 -1.133759319782257080e-02 4.993905127048492432e-02 1.158043742179870605e-02 -5.445246025919914246e-02
7.900000000000000000e+02 5.966230869293212891e+00 -1.633797454833984375e+01 -1.453320533037185669e-01 -3.540648818016052246e-01 -1.498190909624099731e-01 -2.103935182094573975e-01
7.910000000000000000e+02 5.582862377166748047e+00 -1.703776168823242188e+01 -1.167932152748107910e-01 -4.053637981414794922e-01 -1.566471010446548462e-01 -1.948397010564804077e-01
7.920000000000000000e+02 1.059474706649780273e+00 -1.062092113494873047e+01 -5.486235750140622258e-05 1.048878878355026245e-01 3.144990652799606323e-02 1.844218373298645020e-02
7.930000000000000000e+02 6.529730987548828125e+01 -2.283321762084960938e+01 3.118149995803833008e+00 1.306112003326416016e+01 4.853780746459960938e+00 -5.109115123748779297e+00
7.940000000000000000e+02 6.496286773681640625e+01 -2.670167350769042969e+01 -2.443768501281738281e+00 7.201283454895019531e+00 1.427254438400268555e+00 -2.045785427093505859e+00
7.950000000000000000e+02 6.624765777587890625e+01 -2.415804672241210938e+01 2.629156351089477539e+00 5.705829620361328125e+00 2.500495910644531250e+00 -3.970925569534301758e+00
7.960000000000000000e+02 6.736842346191406250e+01 -2.531174659729003906e+01 -1.571937054395675659e-01 2.602229356765747070e+00 7.335107326507568359e-01 -1.239020586013793945e+00
7.970000000000000000e+02 6.637602233886718750e+01 -2.527497673034667969e+01 -6.197115778923034668e-01 5.592791080474853516e+00 1.491923809051513672e+00 -2.318584203720092773e+00
7.980000000000000000e+02 6.496746826171875000e+01 -2.869811058044433594e+01 6.837813258171081543e-01 7.469380378723144531e+00 2.445948600769042969e+00 -3.044779539108276367e+00
7.990000000000000000e+02 6.547892761230468750e+01 -3.036470031738281250e+01 2.349131345748901367e+00 1.157168960571289062e+01 4.176246166229248047e+00 -3.611454725265502930e+00
8.000000000000000000e+02 6.774511718750000000e+01 -3.237651824951171875e+01 1.527738809585571289e+00 5.534898757934570312e+00 2.118791341781616211e+00 -1.378124594688415527e+00
8.010000000000000000e+02 6.665689849853515625e+01 -3.268250274658203125e+01 7.358868122100830078e-01 7.397160530090332031e+00 2.439914226531982422e+00 -1.541193246841430664e+00
8.020000000000000000e+02 6.567234802246093750e+01 -3.403795242309570312e+01 3.354731798171997070e-01 7.179903030395507812e+00 2.254612922668457031e+00 8.668879419565200806e-02
8.030000000000000000e+02 6.532031250000000000e+01 -3.569876098632812500e+01 6.958858370780944824e-01 4.651394844055175781e+00 1.604184150695800781e+00 9.702083468437194824e-01
8.040000000000000000e+02 6.487298583984375000e+01 -3.645784759521484375e+01 -1.731415092945098877e-01 2.218428373336791992e+00 6.135860681533813477e-01 9.189528226852416992e-01
8.050000000000000000e+02 6.618096160888671875e+01 -3.615184783935546875e+01 -2.550878524780273438e-01 4.854121208190917969e+00 1.379709959030151367e+00 -3.606750965118408203e-01
8.060000000000000000e+02 6.574189758300781250e+01 -3.241509628295898438e+01 1.656760424375534058e-01 8.294385910034179688e+00 2.538018703460693359e+00 -5.367040038108825684e-01
8.070000000000000000e+02 6.581711578369140625e+01 -3.165005493164062500e+01 9.460736513137817383e-01 9.906039237976074219e+00 3.255633831024169922e+00 -1.561465263366699219e+00
8.080000000000000000e+02 7.958102416992187500e+01 -3.404986953735351562e+01 1.054742187261581421e-02 8.195551872253417969e+00 2.461829662322998047e+00 2.441921271383762360e-02
8.090000000000000000e+02 5.634285354614257812e+01 -3.496277236938476562e+01 1.006085991859436035e+00 6.767978668212890625e+00 2.332219362258911133e+00 -1.073493123054504395e+00
8.100000000000000000e+02 5.557244110107421875e+01 -3.581026458740234375e+01 1.088427677750587463e-01 4.727241516113281250e+00 1.450825214385986328e+00 5.001926422119140625e-01
8.110000000000000000e+02 5.567873001098632812e+01 -3.439862823486328125e+01 1.045449495315551758e+00 6.794010639190673828e+00 2.351838111877441406e+00 3.417199105024337769e-02
8.120000000000000000e+02 5.348017883300781250e+01 -3.413585281372070312e+01 1.273299098014831543e+00 4.330535411834716797e+00 1.681150317192077637e+00 1.222248435020446777e+00
8.130000000000000000e+02 5.665791320800781250e+01 -3.122417449951171875e+01 1.325283765792846680e+00 9.575041770935058594e+00 3.270097732543945312e+00 2.829844236373901367e+00
8.140000000000000000e+02 5.781966781616210938e+01 -2.905060195922851562e+01 1.757133245468139648e+00 5.059604644775390625e+00 2.045021533966064453e+00 2.974108219146728516e+00
8.150000000000000000e+02 5.775822448730468750e+01 -2.798397827148437500e+01 6.002707481384277344e-01 4.740002632141113281e+00 1.602082014083862305e+00 2.004289627075195312e+00
8.160000000000000000e+02 5.487850189208984375e+01 -2.329417610168457031e+01 2.197169303894042969e+00 7.230252265930175781e+00 2.828226566314697266e+00 3.143981933593750000e+00
8.170000000000000000e+02 6.054583740234375000e+01 -2.630660247802734375e+01 -2.988945484161376953e+00 4.530869424343109131e-01 -7.607575654983520508e-01 9.211232066154479980e-01
8.180000000000000000e+02 6.285847854614257812e+01 -2.575482177734375000e+01 -2.113425493240356445e+00 3.383103847503662109e+00 3.809035122394561768e-01 -1.311467051506042480e+00
8.190000000000000000e+02 5.337768554687500000e+01 -7.244596481323242188e+00 -1.312031626701354980e+00 -2.075832605361938477e+00 -1.016359329223632812e+00 1.468970775604248047e+00
8.200000000000000000e+02 5.344445419311523438e+01 -9.738575935363769531e+00 -1.055375814437866211e+00 -8.074539303779602051e-01 -5.588489174842834473e-01 5.075210928916931152e-01
8.210000000000000000e+02 5.072225952148437500e+01 -1.536733341217041016e+01 -2.316937893629074097e-01 1.235087066888809204e-01 -3.245552629232406616e-02 3.919549584388732910e-01
8.220000000000000000e+02 4.704059219360351562e+01 -1.234975433349609375e+01 -9.412670731544494629e-01 1.248837113380432129e+00 9.227101504802703857e-02 8.847812563180923462e-02
8.230000000000000000e+02 7.900952148437500000e+01 -2.187355232238769531e+01 1.337570548057556152e-01 6.813613891601562500e+00 2.084211349487304688e+00 -2.122819609940052032e-02
8.240000000000000000e+02 7.960953521728515625e+01 -2.678686141967773438e+01 -7.829844951629638672e-03 8.111778259277343750e+00 2.431184291839599609e+00 -1.732017695903778076e-01
8.250000000000000000e+02 7.258985137939453125e+01 -2.515585899353027344e+01 5.266797542572021484e-01 4.378468036651611328e+00 1.471544384956359863e+00 2.091155767440795898e+00
8.260000000000000000e+02 7.332037353515625000e+01 -2.491103172302246094e+01 4.949356615543365479e-01 8.445982933044433594e+00 2.682275772094726562e+00 2.062264919281005859e+00
8.270000000000000000e+02 7.044930267333984375e+01 -2.605319976806640625e+01 -5.872666835784912109e+00 -3.328574299812316895e-01 -1.861657261848449707e+00 -7.613411545753479004e-01
8.280000000000000000e+02 6.803435516357421875e+01 -2.585477066040039062e+01 -3.096068143844604492e+00 8.568843603134155273e-01 -6.717551350593566895e-01 -1.506750732660293579e-01
8.290000000000000000e+02 6.965935516357421875e+01 -2.617165184020996094e+01 -7.029739856719970703e+00 -3.213903307914733887e-01 -2.205339193344116211e+00 -1.358493715524673462e-01
8.300000000000000000e+02 6.409017181396484375e+01 -1.763775634765625000e+01 -9.282250404357910156e-01 7.729220867156982422e+00 2.040298700332641602e+00 -2.990412116050720215e-01
8.310000000000000000e+02 6.552354431152343750e+01 -1.521224880218505859e+01 -2.834787607192993164e+00 5.473682403564453125e+00 7.916684150695800781e-01 9.815420508384704590e-01
8.320000000000000000e+02 6.831386566162109375e+01 -1.559885978698730469e+01 -2.808344602584838867e+00 5.061502102762460709e-03 -8.409849405288696289e-01 -1.407777667045593262e+00
8.330000000000000000e+02 5.246352767944335938e+01 -1.245616817474365234e+01 -1.180405840277671814e-01 -2.846225202083587646e-01 -1.207989305257797241e-01 -1.639505848288536072e-02
8.340000000000000000e+02 4.752035522460937500e+01 -9.205348014831542969e+00 -2.568777650594711304e-03 2.496841907501220703e+00 7.482819557189941406e-01 -5.656320601701736450e-02
8.350000000000000000e+02 5.234543991088867188e+01 -1.632016944885253906e+01 -7.987678647041320801e-01 -2.271039336919784546e-01 -3.077615201473236084e-01 3.544856309890747070e-01
8.360000000000000000e+02 5.362347412109375000e+01 -1.698431015014648438e+01 -9.549321532249450684e-01 -3.904783725738525391e-01 -4.036231637001037598e-01 5.459843277931213379e-01
8.370000000000000000e+02 5.332662963867187500e+01 -1.610817718505859375e+01 -3.813269734382629395e-01 -3.194135725498199463e-01 -2.102221697568893433e-01 2.979609668254852295e-01
8.380000000000000000e+02 5.732107162475585938e+01 -1.097270107269287109e+01 -3.422246277332305908e-01 4.429605901241302490e-01 3.022078797221183777e-02 2.039584875106811523e+00
8.390000000000000000e+02 5.437947845458984375e+01 -1.710158729553222656e+01 -7.064490914344787598e-01 2.747303545475006104e-01 -1.295156180858612061e-01 3.524864912033081055e-01
8.400000000000000000e+02 5.547891235351562500e+01 -1.845943832397460938e+01 -4.353757798671722412e-01 2.415818214416503906e+00 5.941327214241027832e-01 5.843672752380371094e-01
8.410000000000000000e+02 5.478264999389648438e+01 -1.853656196594238281e+01 -9.338463842868804932e-02 1.293185234069824219e+00 3.599401712417602539e-01 2.548337727785110474e-02
8.420000000000000000e+02 5.518067169189453125e+01 -2.091537666320800781e+01 8.377628028392791748e-02 5.175208568572998047e+00 1.577695369720458984e+00 3.179210722446441650e-01
8.430000000000000000e+02 5.898917007446289062e+01 -2.680332946777343750e+01 -1.301372885704040527e+00 3.274918079376220703e+00 5.920635461807250977e-01 1.688233613967895508e+00
8.440000000000000000e+02 5.557151031494140625e+01 -2.418182373046875000e+01 7.859879136085510254e-01 5.715779304504394531e+00 1.950530171394348145e+00 1.654912352561950684e+00
8.450000000000000000e+02 5.830392837524414062e+01 -2.837540817260742188e+01 1.561328053474426270e+00 4.168295860290527344e+00 1.718887209892272949e+00 2.487927675247192383e+00
8.460000000000000000e+02 5.478757095336914062e+01 -2.412585067749023438e+01 1.566419839859008789e+00 5.636336803436279297e+00 2.160826921463012695e+00 2.398995399475097656e+00
8.470000000000000000e+02 9.802087783813476562e+00 -1.814586162567138672e+00 1.609681919217109680e-02 -4.818726796656847000e-03 3.383427858352661133e-03 -1.843872480094432831e-02
8.480000000000000000e+02 3.196873092651367188e+01 -3.084987258911132812e+01 3.622086048126220703e-01 2.084338068962097168e-01 1.711927205324172974e-01 -1.827658265829086304e-01
8.490000000000000000e+02 2.456292152404785156e+01 -3.199549865722656250e+01 -1.697748340666294098e-02 -6.022213101387023926e-01 -1.857596486806869507e-01 2.320297434926033020e-02
8.500000000000000000e+02 7.962715911865234375e+01 -2.517604637145996094e+01 1.277114357799291611e-02 7.368654251098632812e+00 2.214427709579467773e+00 -2.127090692520141602e-01
8.510000000000000000e+02 7.966863250732421875e+01 -2.278480529785156250e+01 1.899966038763523102e-02 6.277851581573486328e+00 1.889055371284484863e+00 -8.517912030220031738e-02
8.520000000000000000e+02 3.808664321899414062e+01 -1.040322971343994141e+01 6.921169161796569824e-01 1.579092621803283691e+00 6.813628673553466797e-01 -9.962443113327026367e-01
8.530000000000000000e+02 3.655029296875000000e+01 -1.024115276336669922e+01 2.853044569492340088e-01 1.082862019538879395e+00 4.104499518871307373e-01 -2.595131397247314453e-01
8.540000000000000000e+02 3.008199119567871094e+01 -9.396630287170410156e+00 -6.423116326332092285e-01 -1.359430074691772461e+00 -6.005225181579589844e-01 -5.302733182907104492e-01
8.550000000000000000e+02 6.533596038818359375e+01 -3.347283840179443359e+00 2.770141601562500000e+00 9.202456474304199219e+00 3.591779470443725586e+00 2.561190128326416016e+00
8.560000000000000000e+02 4.922231292724609375e+01 1.879671669006347656e+01 -2.201907485723495483e-01 5.141320228576660156e-01 8.818238228559494019e-02 -6.978500485420227051e-01
8.570000000000000000e+02 5.366596603393554688e+01 2.639866638183593750e+01 1.438255190849304199e+00 6.500180721282958984e+00 2.381530761718750000e+00 -1.527918934822082520e+00
8.580000000000000000e+02 4.483608627319335938e+01 1.328173351287841797e+01 8.775763958692550659e-02 2.227890729904174805e+00 6.946945190429687500e-01 3.906113654375076294e-02
8.590000000000000000e+02 3.795806121826171875e+01 2.218269729614257812e+01 1.345680654048919678e-01 -1.890984550118446350e-02 3.469746559858322144e-02 2.302329428493976593e-02
8.600000000000000000e+02 2.015367507934570312e+01 1.100563144683837891e+01 2.025833353400230408e-02 -9.754681587219238281e-02 -2.318654581904411316e-02 4.670238494873046875e-02
8.610000000000000000e+02 2.084975433349609375e+01 1.161535644531250000e+01 3.394247591495513916e-02 -1.335145682096481323e-01 -2.987162955105304718e-02 6.712437421083450317e-02
8.620000000000000000e+02 3.147270965576171875e+01 1.755933189392089844e+01 2.614810466766357422e-01 1.492559075355529785e+00 5.262120366096496582e-01 5.032917261123657227e-01
8.630000000000000000e+02 6.621003723144531250e+01 3.314130401611328125e+01 2.817941904067993164e-01 4.288325786590576172e+00 1.371035933494567871e+00 3.287188410758972168e-01
8.640000000000000000e+02 4.522074127197265625e+01 2.999081993103027344e+01 7.683194875717163086e-01 2.184480905532836914e+00 8.858401179313659668e-01 -1.132930517196655273e+00
8.650000000000000000e+02 1.161382579803466797e+01 1.697666168212890625e+01 7.776019573211669922e-01 4.972294270992279053e-01 3.824494183063507080e-01 5.756816864013671875e-01
8.660000000000000000e+02 1.223248100280761719e+01 1.738493728637695312e+01 6.027380824089050293e-01 3.493303358554840088e-01 2.856205105781555176e-01 4.987329542636871338e-01
8.670000000000000000e+02 2.254559516906738281e+01 2.283217620849609375e+01 1.211583800613880157e-02 -3.412894606590270996e-01 -9.875208139419555664e-02 -1.395974587649106979e-02
8.680000000000000000e+02 1.012433910369873047e+01 1.481664085388183594e+01 1.555989384651184082e-01 4.756139218807220459e-01 1.893638521432876587e-01 2.725788652896881104e-01
8.690000000000000000e+02 1.843727493286132812e+01 1.705749893188476562e+01 -5.188598632812500000e-01 -2.870669066905975342e-01 -2.417780309915542603e-01 3.612238764762878418e-01
8.700000000000000000e+02 3.999839019775390625e+01 5.160246849060058594e+00 1.221826076507568359e-01 -6.876545548439025879e-01 -1.696415841579437256e-01 3.998330235481262207e-01
8.710000000000000000e+02 2.885771751403808594e+01 1.071630859375000000e+01 2.263819128274917603e-01 7.089587450027465820e-01 2.806021869182586670e-01 2.958835363388061523e-01
8.720000000000000000e+02 4.463068771362304688e+01 -2.716468048095703125e+01 4.740845561027526855e-01 2.782019078731536865e-01 2.256859540939331055e-01 -2.173397541046142578e-01
8.730000000000000000e+02 4.512537765502929688e+01 -2.809408950805664062e+01 4.354886710643768311e-01 1.688684076070785522e-01 1.813071221113204956e-01 -2.659048140048980713e-01
8.740000000000000000e+02 5.028989791870117188e+01 -3.206663894653320312e+01 6.936784386634826660e-01 2.953945875167846680e+00 1.094287276268005371e+00 4.312129020690917969e-01
8.750000000000000000e+02 3.203786087036132812e+01 -2.788992118835449219e+01 4.980588555335998535e-01 2.263986021280288696e-01 2.173372358083724976e-01 -2.891784310340881348e-01
8.760000000000000000e+02 5.219535064697265625e+01 6.153091430664062500e+00 -8.569898605346679688e-01 -1.880688071250915527e-01 -3.135176002979278564e-01 -3.883751630783081055e-01
8.770000000000000000e+02 6.223350906372070312e+01 -4.176646709442138672e+00 2.762866973876953125e+00 1.468970775604248047e+01 5.235772609710693359e+00 -1.216806054115295410e+00
8.780000000000000000e+02 6.376158142089843750e+01 -2.159260559082031250e+01 2.412876129150390625e+00 8.664224624633789062e+00 3.323130130767822266e+00 -1.335231781005859375e+00
8.790000000000000000e+02 9.009596824645996094e+00 -1.836503744125366211e+00 2.009282819926738739e-02 -1.188821159303188324e-02 2.461384749040007591e-03 -1.287017948925495148e-02
8.800000000000000000e+02 7.433296680450439453e+00 -1.858277320861816406e+00 2.448416687548160553e-02 -1.003639213740825653e-02 4.334332421422004700e-03 -1.848628744482994080e-03
8.810000000000000000e+02 2.711105346679687500e+00 -1.884777188301086426e+00 9.516256861388683319e-03 2.075840020552277565e-03 3.477629041299223900e-03 1.202000770717859268e-02
8.820000000000000000e+02 4.248743534088134766e+00 -2.695900440216064453e+00 1.523544546216726303e-02 -1.787589280866086483e-03 4.034356679767370224e-03 1.710531301796436310e-02
8.830000000000000000e+02 4.279091835021972656e+00 -1.894801974296569824e+00 1.725150831043720245e-02 -2.779740840196609497e-03 4.341530147939920425e-03 1.258545275777578354e-02
8.840000000000000000e+02 3.842481374740600586e-01 -1.896307468414306641e+00 9.927788050845265388e-04 4.855639301240444183e-03 1.754525466822087765e-03 2.399700926616787910e-03
8.850000000000000000e+02 4.429413974285125732e-01 -4.205602645874023438e+01 2.061715582385659218e-03 -6.375626325607299805e-01 -1.906502693891525269e-01 -2.235395135357975960e-03
8.860000000000000000e+02 5.520740151405334473e-01 -4.120918273925781250e+01 7.344821002334356308e-03 -6.304100751876831055e-01 -1.869195848703384399e-01 -8.606143295764923096e-03
8.870000000000000000e+02 5.494779944419860840e-01 -4.041027450561523438e+01 -9.085361845791339874e-03 -6.175268888473510742e-01 -1.879836767911911011e-01 -9.760540910065174103e-03
8.880000000000000000e+02 4.582690596580505371e-01 -3.883987045288085938e+01 -4.060282371938228607e-03 -5.753882527351379395e-01 -1.738345623016357422e-01 -2.151216194033622742e-02
8.890000000000000000e+02 4.949551224708557129e-01 -3.962322616577148438e+01 1.431383006274700165e-02 -6.023016571998596191e-01 -1.763963550329208374e-01 -1.051437389105558395e-02
8.900000000000000000e+02 4.399658143520355225e-01 -3.726628494262695312e+01 -2.040579449385404587e-03 -5.022291541099548340e-01 -1.512809246778488159e-01 -2.070146985352039337e-02
8.910000000000000000e+02 4.077764749526977539e-01 -3.566138076782226562e+01 -3.407740266993641853e-03 -4.193979203701019287e-01 -1.268416941165924072e-01 -2.213542908430099487e-02
8.920000000000000000e+02 4.003397524356842041e-01 -3.486038589477539062e+01 1.348238438367843628e-03 -3.773623406887054443e-01 -1.128042340278625488e-01 -1.996789872646331787e-02
8.930000000000000000e+02 3.961887061595916748e-01 -3.406061172485351562e+01 -2.561746165156364441e-03 -3.380123972892761230e-01 -1.021722480654716492e-01 -1.879054121673107147e-02
8.940000000000000000e+02 3.906989097595214844e-01 -3.325823593139648438e+01 2.689160464797168970e-04 -3.021800518035888672e-01 -9.057334065437316895e-02 -1.641037128865718842e-02
8.950000000000000000e+02 3.832874298095703125e-01 -3.245314407348632812e+01 -2.742755459621548653e-03 -2.705584466457366943e-01 -8.199036121368408203e-02 -1.388007495552301407e-02
8.960000000000000000e+02 1.169374585151672363e+00 -3.326744842529296875e+01 -6.006993353366851807e-03 -3.056383430957794189e-01 -9.349360316991806030e-02 -4.768091812729835510e-02
8.970000000000000000e+02 3.762501776218414307e-01 -3.164910507202148438e+01 -2.040951076196506619e-04 -2.445855140686035156e-01 -7.343688607215881348e-02 -1.068620104342699051e-02
8.980000000000000000e+02 3.642297983169555664e-01 -2.923864364624023438e+01 -2.394920215010643005e-03 -2.070649564266204834e-01 -6.283796578645706177e-02 -9.226059773936867714e-04
8.990000000000000000e+02 3.610758781433105469e-01 -2.843560409545898438e+01 -4.240352136548608541e-04 -2.086286246776580811e-01 -6.271579861640930176e-02 2.280817599967122078e-03
9.000000000000000000e+02 3.587223291397094727e-01 -2.763265800476074219e+01 -1.503963721916079521e-03 -2.159429490566253662e-01 -6.523407250642776489e-02 4.351292736828327179e-03
9.010000000000000000e+02 1.084993362426757812e+00 -2.844989013671875000e+01 -6.706061307340860367e-03 -2.076254040002822876e-01 -6.429944187402725220e-02 3.196728415787220001e-03
9.020000000000000000e+02 1.826716423034667969e+00 -2.365026664733886719e+01 2.642068453133106232e-02 -1.918264925479888916e-01 -4.962174221873283386e-02 -8.789819665253162384e-03
9.030000000000000000e+02 6.221951961517333984e+00 -2.149381446838378906e+01 1.687544286251068115e-01 1.286849975585937500e-01 8.923182636499404907e-02 -1.555411815643310547e-01
9.040000000000000000e+02 6.899376869201660156e+00 -2.278645515441894531e+01 2.971023619174957275e-01 1.175813972949981689e-01 1.244051232933998108e-01 -1.195094585418701172e-01
9.050000000000000000e+02 1.073479413986206055e+00 -2.524168777465820312e+01 2.982820384204387665e-03 -2.233933806419372559e-01 -6.612316519021987915e-02 1.328906416893005371e-02
9.060000000000000000e+02 3.718243241310119629e-01 -2.198510551452636719e+01 3.841223195195198059e-03 -2.315752804279327393e-01 -6.832021474838256836e-02 -1.523764710873365402e-02
9.070000000000000000e+02 1.110503315925598145e+00 -2.196236801147460938e+01 1.643623970448970795e-02 -1.933315247297286987e-01 -5.306858569383621216e-02 -4.163944721221923828e-02
9.080000000000000000e+02 3.727931976318359375e-01 -2.117000389099121094e+01 2.801724476739764214e-03 -1.912868022918701172e-01 -5.654552578926086426e-02 -2.253433503210544586e-02
9.090000000000000000e+02 1.045418739318847656e+00 -1.946196174621582031e+01 1.189072383567690849e-03 -7.639033347368240356e-02 -2.256037853658199310e-02 -7.992566376924514771e-02
9.100000000000000000e+02 5.108757972717285156e+00 -1.856979370117187500e+01 -3.107731230556964874e-02 -3.251414597034454346e-01 -1.068656370043754578e-01 -8.908100426197052002e-02
9.110000000000000000e+02 1.751727581024169922e+00 -1.782021522521972656e+01 -2.305843494832515717e-02 -2.164231799542903900e-02 -1.341022551059722900e-02 -9.714489430189132690e-02
9.120000000000000000e+02 3.559900224208831787e-01 -1.713448715209960938e+01 -2.231991384178400040e-03 1.067627668380737305e-01 3.135923296213150024e-02 -1.918520778417587280e-02
9.130000000000000000e+02 5.414272308349609375e+00 -1.601425933837890625e+01 -1.132625341415405273e-01 -2.853966653347015381e-01 -1.195977628231048584e-01 -1.490885466337203979e-01
9.140000000000000000e+02 3.604301810264587402e-01 -1.472199249267578125e+01 -9.742227266542613506e-04 1.849205195903778076e-01 5.518388748168945312e-02 -3.641016315668821335e-03
9.150000000000000000e+02 3.599916994571685791e-01 -1.391950225830078125e+01 -2.592582954093813896e-03 1.890965104103088379e-01 5.595117807388305664e-02 2.597551501821726561e-04
9.160000000000000000e+02 3.594498634338378906e-01 -1.311706924438476562e+01 9.404175943927839398e-05 1.855182498693466187e-01 5.568368732929229736e-02 3.247700864449143410e-03
9.170000000000000000e+02 3.584947288036346436e-01 -1.231390666961669922e+01 -1.690158620476722717e-03 1.764897853136062622e-01 5.243988707661628723e-02 4.941056482493877411e-03
9.180000000000000000e+02 3.564189970493316650e-01 -1.150894832611083984e+01 5.589384236373007298e-04 1.639961004257202148e-01 4.936651140451431274e-02 6.355758290737867355e-03
9.190000000000000000e+02 1.082827448844909668e+00 -1.223951053619384766e+01 -2.535821869969367981e-03 1.188163086771965027e-01 3.488414734601974487e-02 1.232444588094949722e-02
9.200000000000000000e+02 3.532276451587677002e-01 -1.070305347442626953e+01 -1.338459434919059277e-03 1.487814933061599731e-01 4.423290863633155823e-02 7.115575019270181656e-03
9.210000000000000000e+02 3.469613790512084961e-01 -8.294075012207031250e+00 1.712063094601035118e-03 9.811813384294509888e-02 2.994905784726142883e-02 7.220755331218242645e-03
9.220000000000000000e+02 3.462827503681182861e-01 -7.493610382080078125e+00 -1.462553627789020538e-03 8.187685906887054443e-02 2.412429079413414001e-02 6.671278737485408783e-03
9.230000000000000000e+02 3.469161391258239746e-01 -6.692530632019042969e+00 1.859858399257063866e-03 6.670540571212768555e-02 2.056957781314849854e-02 6.457656621932983398e-03
9.240000000000000000e+02 1.039188742637634277e+00 -7.430498123168945312e+00 2.283807843923568726e-03 6.225840747356414795e-02 1.936266385018825531e-02 1.828126609325408936e-02
9.250000000000000000e+02 5.090456485748291016e+00 -3.495254993438720703e+00 1.624314859509468079e-02 -8.908187970519065857e-03 2.200488001108169556e-03 1.708820834755897522e-02
9.260000000000000000e+02 1.931418061256408691e+00 -1.883789062500000000e+00 6.208273582160472870e-03 5.416971165686845779e-03 3.487573470920324326e-03 1.053040940314531326e-02
9.270000000000000000e+02 7.957895660400390625e+01 -4.205794525146484375e+01 1.220004912465810776e-02 8.209178924560546875e+00 2.466413736343383789e+00 1.418069843202829361e-02
9.280000000000000000e+02 7.950961303710937500e+01 -4.121154022216796875e+01 -4.766154661774635315e-02 8.221663475036621094e+00 2.452200651168823242e+00 -5.027904175221920013e-03
9.290000000000000000e+02 7.195019531250000000e+01 -3.923483657836914062e+01 -2.768795490264892578e-01 5.677289009094238281e+00 1.620122909545898438e+00 -3.399890363216400146e-01
9.300000000000000000e+02 5.206896972656250000e+01 -3.982713317871093750e+01 -6.683077216148376465e-01 3.441287040710449219e+00 8.318938016891479492e-01 4.164339303970336914e-01
9.310000000000000000e+02 3.341874313354492188e+01 -3.785821914672851562e+01 3.098415732383728027e-01 3.108003735542297363e-01 1.861925721168518066e-01 1.893811486661434174e-02
9.320000000000000000e+02 1.375770092010498047e+01 -3.937741470336914062e+01 4.290741980075836182e-01 -5.682824645191431046e-03 1.270174086093902588e-01 -1.841535717248916626e-01
9.330000000000000000e+02 1.534830331802368164e+00 -4.200274276733398438e+01 1.442523300647735596e-02 -5.725795030593872070e-01 -1.674462854862213135e-01 -1.214433647692203522e-02
9.340000000000000000e+02 7.958860778808593750e+01 4.207806396484375000e+01 1.613674312829971313e-02 7.846962928771972656e+00 2.358929872512817383e+00 -1.847038231790065765e-02
9.350000000000000000e+02 7.837108612060546875e+01 3.872971343994140625e+01 3.791991155594587326e-03 7.480383396148681641e+00 2.245252609252929688e+00 5.912690889090299606e-03
9.360000000000000000e+02 7.621206665039062500e+01 3.983765411376953125e+01 -7.940899580717086792e-03 6.936888694763183594e+00 2.078684329986572266e+00 -3.726750612258911133e-03
9.370000000000000000e+02 7.946011352539062500e+01 3.964363479614257812e+01 -1.134028425440192223e-03 7.817425251007080078e+00 2.344887495040893555e+00 1.516044326126575470e-02
9.380000000000000000e+02 7.950386047363281250e+01 3.804149246215820312e+01 5.566501058638095856e-03 7.791334629058837891e+00 2.339070320129394531e+00 3.277793992310762405e-03
9.390000000000000000e+02 7.956349182128906250e+01 3.724317169189453125e+01 -4.956368356943130493e-03 7.792785167694091797e+00 2.336348772048950195e+00 1.992476871237158775e-03
9.400000000000000000e+02 7.967158508300781250e+01 3.487724685668945312e+01 1.212506275624036789e-02 7.817233085632324219e+00 2.348807573318481445e+00 7.874316652305424213e-04
9.410000000000000000e+02 7.964750671386718750e+01 3.410140609741210938e+01 -1.047262642532587051e-02 7.830787658691406250e+00 2.346094369888305664e+00 -6.001308793202042580e-04
9.420000000000000000e+02 7.960663604736328125e+01 3.331077575683593750e+01 9.954761713743209839e-03 7.845452785491943359e+00 2.356622219085693359e+00 -2.083672443404793739e-03
9.430000000000000000e+02 7.960111236572265625e+01 3.168610000610351562e+01 7.246996276080608368e-03 7.913198471069335938e+00 2.376133680343627930e+00 -1.772969961166381836e-02
9.440000000000000000e+02 7.960787200927734375e+01 3.087933921813964844e+01 1.345420721918344498e-03 7.973376750946044922e+00 2.392416477203369141e+00 -2.633658610284328461e-02
9.450000000000000000e+02 7.884689331054687500e+01 3.007224655151367188e+01 1.535631716251373291e-02 7.814931392669677734e+00 2.349086284637451172e+00 -1.043502017855644226e-01
9.460000000000000000e+02 7.962377929687500000e+01 2.767058753967285156e+01 2.243541879579424858e-03 8.361097335815429688e+00 2.509002208709716797e+00 -4.601986706256866455e-02
9.470000000000000000e+02 7.962605285644531250e+01 2.686865234375000000e+01 -2.836681902408599854e-03 8.482403755187988281e+00 2.543870210647583008e+00 -4.547458514571189880e-02
9.480000000000000000e+02 7.962812042236328125e+01 2.606659507751464844e+01 -2.716260496526956558e-04 8.602901458740234375e+00 2.580789089202880859e+00 -4.224469512701034546e-02
9.490000000000000000e+02 7.963011169433593750e+01 2.526463127136230469e+01 -7.812096737325191498e-03 8.713265419006347656e+00 2.611635923385620117e+00 -3.353632241487503052e-02
9.500000000000000000e+02 7.963191223144531250e+01 2.446268463134765625e+01 -4.437005147337913513e-03 8.803182601928710938e+00 2.639623641967773438e+00 -2.025343663990497589e-02
9.510000000000000000e+02 7.889876556396484375e+01 2.446345138549804688e+01 -3.623107075691223145e-02 8.430959701538085938e+00 2.518418550491333008e+00 -8.348384499549865723e-02
9.520000000000000000e+02 7.963481140136718750e+01 2.285774612426757812e+01 -9.621408767998218536e-03 8.874057769775390625e+00 2.659330844879150391e+00 2.341360412538051605e-02
9.530000000000000000e+02 7.963774108886718750e+01 2.045208740234375000e+01 -1.837912388145923615e-02 8.531356811523437500e+00 2.553893327713012695e+00 1.224078610539436340e-01
9.540000000000000000e+02 7.963996124267578125e+01 1.965075111389160156e+01 -1.311336364597082138e-02 8.265149116516113281e+00 2.475610733032226562e+00 1.583263128995895386e-01
9.550000000000000000e+02 7.964245605468750000e+01 1.884938430786132812e+01 -1.385102141648530960e-02 7.922056198120117188e+00 2.372461557388305664e+00 1.894918382167816162e-01
9.560000000000000000e+02 7.964434814453125000e+01 1.804788017272949219e+01 -6.850534118711948395e-03 7.512488365173339844e+00 2.251691341400146484e+00 2.141006588935852051e-01
9.570000000000000000e+02 7.893963623046875000e+01 1.804951095581054688e+01 -3.936445713043212891e-02 7.544302463531494141e+00 2.251481533050537109e+00 5.423388481140136719e-01
9.580000000000000000e+02 7.964451599121093750e+01 1.644633102416992188e+01 2.615357050672173500e-03 6.589937686920166016e+00 1.977765917778015137e+00 2.252445220947265625e-01
9.590000000000000000e+02 7.963507843017578125e+01 1.404710674285888672e+01 2.331654541194438934e-02 5.385260105133056641e+00 1.622573018074035645e+00 1.455875337123870850e-01
9.600000000000000000e+02 7.963030242919921875e+01 1.324431228637695312e+01 2.545612305402755737e-02 5.147793292999267578e+00 1.551974892616271973e+00 9.267576783895492554e-02
9.610000000000000000e+02 7.962495422363281250e+01 1.244152545928955078e+01 2.931330166757106781e-02 5.031296730041503906e+00 1.518183112144470215e+00 3.355143591761589050e-02
9.620000000000000000e+02 7.887314605712890625e+01 1.246496677398681641e+01 1.349092125892639160e-01 5.798547744750976562e+00 1.780037045478820801e+00 9.047538787126541138e-02
9.630000000000000000e+02 7.962034606933593750e+01 1.083643627166748047e+01 2.345135062932968140e-02 5.165516376495361328e+00 1.556690335273742676e+00 -8.092720806598663330e-02
9.640000000000000000e+02 7.962404632568359375e+01 1.003482532501220703e+01 1.887790858745574951e-02 5.393095970153808594e+00 1.623592138290405273e+00 -1.257568001747131348e-01
9.650000000000000000e+02 7.887003326416015625e+01 1.004253673553466797e+01 9.564185887575149536e-02 6.015526771545410156e+00 1.833350539207458496e+00 -3.464027941226959229e-01
9.660000000000000000e+02 7.964508819580078125e+01 6.829655647277832031e+00 -9.864421561360359192e-03 6.905477046966552734e+00 2.068683862686157227e+00 -1.787439733743667603e-01
9.670000000000000000e+02 7.964516448974609375e+01 6.031147003173828125e+00 -1.051363185979425907e-03 7.297096252441406250e+00 2.188813447952270508e+00 -1.667879521846771240e-01
9.680000000000000000e+02 7.964485168457031250e+01 5.232784271240234375e+00 -1.408297382295131683e-02 7.653443813323974609e+00 2.291808366775512695e+00 -1.489258557558059692e-01
9.690000000000000000e+02 7.964472961425781250e+01 4.435016632080078125e+00 -2.615082776173949242e-03 7.970781803131103516e+00 2.390450000762939453e+00 -1.307693272829055786e-01
9.700000000000000000e+02 7.964510345458984375e+01 3.637406349182128906e+00 -1.916251331567764282e-02 8.238354682922363281e+00 2.465757608413696289e+00 -1.049019247293472290e-01
9.710000000000000000e+02 7.894259643554687500e+01 3.691848516464233398e+00 -4.072627052664756775e-02 7.934353828430175781e+00 2.368088245391845703e+00 -2.985121905803680420e-01
9.720000000000000000e+02 7.964306640625000000e+01 2.038998842239379883e+00 -2.521038427948951721e-02 8.612425804138183594e+00 2.576164722442626953e+00 -5.062086135149002075e-02
9.730000000000000000e+02 7.963516235351562500e+01 -3.585922718048095703e-01 -1.030814554542303085e-02 8.619416236877441406e+00 2.582732439041137695e+00 6.668721139430999756e-02
9.740000000000000000e+02 7.963903808593750000e+01 -1.156013011932373047e+00 -3.021485172212123871e-02 8.434631347656250000e+00 2.521324872970581055e+00 1.139447316527366638e-01
9.750000000000000000e+02 7.964696502685546875e+01 -1.952363967895507812e+00 -1.512456405907869339e-02 8.139169692993164062e+00 2.437213659286499023e+00 1.635457873344421387e-01
9.760000000000000000e+02 7.965571594238281250e+01 -2.746849536895751953e+00 -7.389463484287261963e-03 7.751403808593750000e+00 2.323204278945922852e+00 1.885620653629302979e-01
9.770000000000000000e+02 7.965987396240234375e+01 -3.542517185211181641e+00 -1.276179868727922440e-02 7.293254375457763672e+00 2.184147596359252930e+00 2.143533974885940552e-01
9.780000000000000000e+02 7.550472259521484375e+01 -1.232774853706359863e+00 -6.789338588714599609e-01 7.258562088012695312e+00 1.973888516426086426e+00 -4.251458048820495605e-01
9.790000000000000000e+02 7.964981079101562500e+01 -5.138945102691650391e+00 1.257378887385129929e-02 6.489705085754394531e+00 1.950683712959289551e+00 1.397281587123870850e-01
9.800000000000000000e+02 7.964749908447265625e+01 -7.559508323669433594e+00 6.978406012058258057e-02 6.466766357421875000e+00 1.960965037345886230e+00 -1.431298851966857910e-01
9.810000000000000000e+02 7.965016937255859375e+01 -8.370650291442871094e+00 2.220315299928188324e-02 6.908089637756347656e+00 2.079087734222412109e+00 -2.413214594125747681e-01
9.820000000000000000e+02 7.965969085693359375e+01 -9.169785499572753906e+00 1.088264491409063339e-02 7.491830825805664062e+00 2.250813961029052734e+00 -2.770671546459197998e-01
9.830000000000000000e+02 7.967527770996093750e+01 -9.958490371704101562e+00 1.410239748656749725e-02 8.176315307617187500e+00 2.457125186920166016e+00 -3.071511387825012207e-01
9.840000000000000000e+02 7.968184661865234375e+01 -1.074349117279052734e+01 -1.903562434017658234e-02 8.900979042053222656e+00 2.664583206176757812e+00 -2.917819023132324219e-01
9.850000000000000000e+02 7.891523742675781250e+01 -1.208686828613281250e+01 -2.204628735780715942e-01 9.294114112854003906e+00 2.722095489501953125e+00 -4.110543727874755859e-01
9.860000000000000000e+02 7.964413452148437500e+01 -1.231955623626708984e+01 -5.205697193741798401e-02 9.849688529968261719e+00 2.939289569854736328e+00 -1.243654116988182068e-01
9.870000000000000000e+02 7.961961364746093750e+01 -1.472978782653808594e+01 -2.174618281424045563e-02 9.718600273132324219e+00 2.909056425094604492e+00 1.260945647954940796e-01
9.880000000000000000e+02 7.962383270263671875e+01 -1.553885078430175781e+01 -3.660618513822555542e-02 9.362279891967773438e+00 2.797702074050903320e+00 1.921366155147552490e-01
9.890000000000000000e+02 7.888050079345703125e+01 -1.535733509063720703e+01 -1.304456740617752075e-01 8.995580673217773438e+00 2.659540653228759766e+00 4.911579489707946777e-01
9.900000000000000000e+02 7.962899780273437500e+01 -1.635044670104980469e+01 -1.254261285066604614e-02 8.884820938110351562e+00 2.661683559417724609e+00 2.391322255134582520e-01
9.910000000000000000e+02 7.963050079345703125e+01 -1.716357803344726562e+01 -7.354435045272111893e-03 8.340921401977539062e+00 2.500070095062255859e+00 2.598502039909362793e-01
9.920000000000000000e+02 7.963153839111328125e+01 -1.797393417358398438e+01 5.841280333697795868e-03 7.779135704040527344e+00 2.335493087768554688e+00 2.590425312519073486e-01
9.930000000000000000e+02 7.964540100097656250e+01 -1.958391761779785156e+01 2.175816334784030914e-02 6.771495819091796875e+00 2.037976264953613281e+00 1.940270364284515381e-01
9.940000000000000000e+02 7.355059051513671875e+01 -2.194403266906738281e+01 7.718764990568161011e-02 1.359100246429443359e+01 4.100457191467285156e+00 4.021505266427993774e-02
9.950000000000000000e+02 7.354090118408203125e+01 -2.272778701782226562e+01 3.219491541385650635e-01 1.422115421295166016e+01 4.362931251525878906e+00 5.591094493865966797e-01
9.960000000000000000e+02 7.887905120849609375e+01 -2.499779891967773438e+01 -7.090140134096145630e-03 7.556330680847167969e+00 2.264772176742553711e+00 -5.185979604721069336e-01
9.970000000000000000e+02 7.331423187255859375e+01 -2.421100616455078125e+01 1.887124538421630859e+00 1.135556602478027344e+01 3.972807168960571289e+00 3.268104791641235352e+00
9.980000000000000000e+02 7.818398284912109375e+01 -2.903600311279296875e+01 -1.961657106876373291e-01 8.081309318542480469e+00 2.365542888641357422e+00 -3.694939240813255310e-02
9.990000000000000000e+02 7.961103057861328125e+01 -2.598038482666015625e+01 -1.875803247094154358e-02 7.766614437103271484e+00 2.324357032775878906e+00 -1.990833431482315063e-01
1.000000000000000000e+03 7.962500762939453125e+01 -2.840001106262207031e+01 -1.917916163802146912e-02 8.555645942687988281e+00 2.560940027236938477e+00 -7.310027629137039185e-02
1.001000000000000000e+03 7.962712860107421875e+01 -2.920593070983886719e+01 -2.210628055036067963e-02 8.628140449523925781e+00 2.581810235977172852e+00 -2.816517837345600128e-02
1.002000000000000000e+03 7.962537384033203125e+01 -3.000776290893554688e+01 -1.173281762748956680e-02 8.619375228881835938e+00 2.582292795181274414e+00 7.006313186138868332e-03
1.003000000000000000e+03 7.961835479736328125e+01 -3.080916023254394531e+01 -8.942527696490287781e-03 8.554316520690917969e+00 2.563612222671508789e+00 2.826096862554550171e-02
1.004000000000000000e+03 7.960411071777343750e+01 -3.161523246765136719e+01 -4.364510998129844666e-03 8.459873199462890625e+00 2.536652565002441406e+00 4.162558540701866150e-02
1.005000000000000000e+03 7.883341217041015625e+01 -3.149975967407226562e+01 -1.425514090806245804e-02 8.123264312744140625e+00 2.432702779769897461e+00 1.225659400224685669e-01
1.006000000000000000e+03 7.957684326171875000e+01 -3.323902893066406250e+01 2.879881998524069786e-03 8.267342567443847656e+00 2.481066703796386719e+00 3.808663412928581238e-02
1.007000000000000000e+03 7.962183380126953125e+01 -3.564561843872070312e+01 9.148580022156238556e-03 8.104121208190917969e+00 2.433980941772460938e+00 9.176298044621944427e-03
1.008000000000000000e+03 7.963774108886718750e+01 -3.643490600585937500e+01 -2.925060223788022995e-03 8.079775810241699219e+00 2.423055171966552734e+00 4.105481319129467010e-03
1.009000000000000000e+03 7.963501739501953125e+01 -3.722541809082031250e+01 8.821120485663414001e-03 8.070561408996582031e+00 2.423814773559570312e+00 -4.704432096332311630e-03
1.010000000000000000e+03 7.960125732421875000e+01 -3.801851654052734375e+01 -3.726108407136052847e-04 8.081716537475585938e+00 2.424403190612792969e+00 -1.190461590886116028e-02
1.011000000000000000e+03 7.955330657958984375e+01 -3.880823135375976562e+01 1.170366443693637848e-02 8.111457824707031250e+00 2.436948299407958984e+00 -2.496016770601272583e-02
1.012000000000000000e+03 7.952707672119140625e+01 -4.040720367431640625e+01 2.406416274607181549e-02 8.193562507629394531e+00 2.465287923812866211e+00 -3.748076036572456360e-02
1.013000000000000000e+03 4.564200043678283691e-01 4.203076171875000000e+01 -1.063703559339046478e-03 -1.100346326828002930e+00 -3.304229974746704102e-01 -1.010152162052690983e-03
1.014000000000000000e+03 5.470690131187438965e-01 4.116513824462890625e+01 -5.866543855518102646e-03 -1.103597998619079590e+00 -3.328393697738647461e-01 -4.977152682840824127e-03
1.015000000000000000e+03 7.774115562438964844e+00 3.588512420654296875e+01 2.183983325958251953e-01 2.027461491525173187e-02 7.160188257694244385e-02 2.656521089375019073e-02
1.016000000000000000e+03 2.759361457824707031e+01 3.700190734863281250e+01 2.735685706138610840e-01 8.881665021181106567e-02 1.087155714631080627e-01 1.150524616241455078e-01
1.017000000000000000e+03 4.164515304565429688e+01 4.137088394165039062e+01 2.981660068035125732e-01 1.140208482742309570e+00 4.315123558044433594e-01 -5.931281670928001404e-02
1.018000000000000000e+03 6.820022583007812500e+01 3.958060836791992188e+01 -1.179785728454589844e-01 4.450447559356689453e+00 1.299740672111511230e+00 3.511672839522361755e-03
1.019000000000000000e+03 7.830075073242187500e+01 3.955328369140625000e+01 2.319681085646152496e-02 7.444863319396972656e+00 2.240417957305908203e+00 2.269078977406024933e-02
1.020000000000000000e+03 7.951451110839843750e+01 4.125178146362304688e+01 -4.382406175136566162e-02 7.865776062011718750e+00 2.346585512161254883e+00 -2.359658246859908104e-04
1.021000000000000000e+03 4.043478667736053467e-01 1.896589994430541992e+00 1.377699081785976887e-03 2.035740576684474945e-02 6.520531605929136276e-03 -8.757290430366992950e-03
1.022000000000000000e+03 2.843547821044921875e+00 1.878075718879699707e+00 2.219523862004280090e-02 7.760076783597469330e-03 8.986595086753368378e-03 -4.041506722569465637e-02
1.023000000000000000e+03 3.874497413635253906e-01 3.491514682769775391e+00 -5.793391028419137001e-04 6.194479763507843018e-02 1.840963773429393768e-02 -1.056980341672897339e-02
1.024000000000000000e+03 3.822202086448669434e-01 4.292555332183837891e+00 -9.116691653616726398e-04 8.232759684324264526e-02 2.442477829754352570e-02 -9.015872143208980560e-03
1.025000000000000000e+03 1.935333847999572754e+00 4.226213455200195312e+00 -1.251611206680536270e-02 3.451386839151382446e-02 6.599326618015766144e-03 -3.024682216346263885e-02
1.026000000000000000e+03 3.766071796417236328e-01 5.898061275482177734e+00 -1.721243606880307198e-03 1.067805737257003784e-01 3.151779994368553162e-02 -2.236008178442716599e-03
1.027000000000000000e+03 3.711876571178436279e-01 8.309293746948242188e+00 -3.126143012195825577e-03 7.106538116931915283e-02 2.038177102804183960e-02 1.379768736660480499e-02
1.028000000000000000e+03 3.709390461444854736e-01 9.115298271179199219e+00 -1.959321321919560432e-03 3.488750755786895752e-02 9.878456592559814453e-03 1.924713701009750366e-02
1.029000000000000000e+03 3.709256947040557861e-01 9.920981407165527344e+00 -2.562353620305657387e-03 -1.239141821861267090e-02 -4.486131481826305389e-03 2.421734482049942017e-02
1.030000000000000000e+03 3.708070814609527588e-01 1.072584247589111328e+01 -9.403461590409278870e-04 -6.926111876964569092e-02 -2.106044068932533264e-02 2.795422077178955078e-02
1.031000000000000000e+03 3.704153597354888916e-01 1.153006267547607422e+01 -1.507686683908104897e-03 -1.330092698335647583e-01 -4.035509005188941956e-02 3.067925386130809784e-02
1.032000000000000000e+03 1.115943551063537598e+00 1.149442481994628906e+01 -4.187345970422029495e-03 -1.423676311969757080e-01 -4.396649450063705444e-02 8.636403083801269531e-02
1.033000000000000000e+03 3.686521351337432861e-01 1.313712215423583984e+01 -1.083626411855220795e-04 -2.700971364974975586e-01 -8.106165379285812378e-02 3.142988681793212891e-02
1.034000000000000000e+03 3.667786717414855957e-01 1.555109977722167969e+01 3.371726954355835915e-03 -4.465123713016510010e-01 -1.329421997070312500e-01 2.026089653372764587e-02
1.035000000000000000e+03 3.663925528526306152e-01 1.635609626770019531e+01 1.872622640803456306e-03 -4.848708510398864746e-01 -1.448994725942611694e-01 1.458638720214366913e-02
1.036000000000000000e+03 3.657829165458679199e-01 1.716018867492675781e+01 3.795422380790114403e-03 -5.103500485420227051e-01 -1.519663780927658081e-01 8.305039256811141968e-03
1.037000000000000000e+03 3.652851283550262451e-01 1.796379470825195312e+01 1.774238771758973598e-03 -5.221332311630249023e-01 -1.561076939105987549e-01 2.254781778901815414e-03
1.038000000000000000e+03 3.651816546916961670e-01 1.876737403869628906e+01 3.576674964278936386e-03 -5.208728313446044922e-01 -1.551888436079025269e-01 -3.698047250509262085e-03
1.039000000000000000e+03 3.687587976455688477e-01 2.198380851745605469e+01 1.143601373769342899e-03 -4.220257401466369629e-01 -1.262646466493606567e-01 -1.558299176394939423e-02
1.040000000000000000e+03 3.708175718784332275e-01 2.279010200500488281e+01 -2.108872635290026665e-03 -3.897715508937835693e-01 -1.175641268491744995e-01 -1.445615664124488831e-02
1.041000000000000000e+03 1.801649689674377441e+00 2.610913085937500000e+01 -4.801910370588302612e-02 -5.004004836082458496e-01 -1.645258665084838867e-01 6.917148828506469727e-02
1.042000000000000000e+03 1.101208567619323730e+00 2.195384407043457031e+01 -1.245668041519820690e-03 -4.414192140102386475e-01 -1.327994614839553833e-01 -3.836616873741149902e-02
1.043000000000000000e+03 1.083386301994323730e+00 2.605559539794921875e+01 -2.188430726528167725e-02 -4.452463388442993164e-01 -1.401391923427581787e-01 4.370806366205215454e-02
1.044000000000000000e+03 3.622107803821563721e-01 2.602754783630371094e+01 -2.652226481586694717e-03 -3.691878020763397217e-01 -1.115520149469375610e-01 1.314489543437957764e-02
1.045000000000000000e+03 1.041767835617065430e+00 2.686732864379882812e+01 -1.776947081089019775e-02 -4.806376397609710693e-01 -1.495221406221389771e-01 6.613441556692123413e-02
1.046000000000000000e+03 9.663761258125305176e-01 2.920488739013671875e+01 -6.263625808060169220e-03 -6.649067997932434082e-01 -2.013511210680007935e-01 1.168929263949394226e-01
1.047000000000000000e+03 6.162673950195312500e+00 3.024055290222167969e+01 -3.960417583584785461e-03 -4.570745527744293213e-01 -1.383104920387268066e-01 -4.180637653917074203e-03
1.048000000000000000e+03 3.491846323013305664e-01 3.081883621215820312e+01 2.976444549858570099e-03 -8.746475577354431152e-01 -2.615013122558593750e-01 4.255753383040428162e-02
1.049000000000000000e+03 3.827986121177673340e-01 3.242208480834960938e+01 5.339399911463260651e-03 -1.045655846595764160e+00 -3.120949268341064453e-01 3.330788388848304749e-02
1.050000000000000000e+03 3.914621174335479736e-01 3.322967529296875000e+01 1.559605589136481285e-03 -1.107972502708435059e+00 -3.319238722324371338e-01 2.646011114120483398e-02
1.051000000000000000e+03 4.095848202705383301e-01 3.565370559692382812e+01 5.731279030442237854e-03 -1.196222186088562012e+00 -3.571472764015197754e-01 3.312256187200546265e-03
1.052000000000000000e+03 4.161853790283203125e-01 3.646178436279296875e+01 1.531290326965972781e-04 -1.197591423988342285e+00 -3.592314720153808594e-01 -2.310080220922827721e-03
1.053000000000000000e+03 4.156727790832519531e-01 3.726505661010742188e+01 5.649174563586711884e-03 -1.188461184501647949e+00 -3.548436164855957031e-01 -7.921604439616203308e-03
1.054000000000000000e+03 4.033534228801727295e-01 3.805731201171875000e+01 -5.265625659376382828e-03 -1.173211097717285156e+00 -3.535430133342742920e-01 -8.053900673985481262e-03
1.055000000000000000e+03 3.904387056827545166e-01 3.883735656738281250e+01 8.180798962712287903e-03 -1.153106212615966797e+00 -3.434776365756988525e-01 -1.197454705834388733e-02
1.056000000000000000e+03 4.936394095420837402e-01 4.038022232055664062e+01 3.087062621489167213e-03 -1.113181233406066895e+00 -3.330282270908355713e-01 -9.000192396342754364e-03
1.057000000000000000e+03 9.342502593994140625e+00 1.869404196739196777e+00 5.372066050767898560e-02 -3.519271314144134521e-02 5.558384116739034653e-03 7.336563896387815475e-03
1.058000000000000000e+03 8.545665740966796875e+00 1.856174349784851074e+00 5.962789803743362427e-02 -2.592136338353157043e-02 1.011196058243513107e-02 -8.759980089962482452e-03
1.059000000000000000e+03 7.737587928771972656e+00 1.854220509529113770e+00 5.662341788411140442e-02 -1.781368814408779144e-02 1.164291799068450928e-02 -2.238830365240573883e-02
1.060000000000000000e+03 5.293820858001708984e+00 1.869253873825073242e+00 4.484081640839576721e-02 -1.972939120605587959e-03 1.286036334931850433e-02 -4.425943270325660706e-02
1.061000000000000000e+03 1.141432881355285645e+00 5.053505897521972656e+00 -7.501697633415460587e-03 6.289847940206527710e-02 1.661903411149978638e-02 -1.495174504816532135e-02
1.062000000000000000e+03 4.409564971923828125e+00 2.622606039047241211e+00 6.495701149106025696e-03 7.887584506534039974e-04 2.185337943956255913e-03 -4.811692237854003906e-02
1.063000000000000000e+03 3.659165859222412109e+00 1.875005960464477539e+00 3.019479662179946899e-02 3.958189394325017929e-03 1.024589594453573227e-02 -4.408948868513107300e-02
1.064000000000000000e+03 1.215464711189270020e+00 1.887965559959411621e+00 6.731534376740455627e-03 1.899832673370838165e-02 7.718958426266908646e-03 -2.359765395522117615e-02
1.065000000000000000e+03 1.148731231689453125e+01 2.207473754882812500e+00 -3.330793604254722595e-02 -3.486821055412292480e-02 -2.045284397900104523e-02 8.129187673330307007e-02
1.066000000000000000e+03 1.120596504211425781e+01 8.758761405944824219e+00 -5.176966190338134766e-01 -5.339094400405883789e-01 -3.154818117618560791e-01 5.061832666397094727e-01
1.067000000000000000e+03 1.519308662414550781e+01 3.007072687149047852e+00 -4.590300321578979492e-01 2.766533195972442627e-02 -1.294094026088714600e-01 3.443053364753723145e-01
1.068000000000000000e+03 1.582904243469238281e+01 6.161546707153320312e+00 -2.030446380376815796e-01 1.292438954114913940e-01 -2.214022353291511536e-02 3.401194810867309570e-01
1.069000000000000000e+03 1.912029647827148438e+01 3.744530677795410156e+00 -6.507693529129028320e-01 -8.445601165294647217e-02 -2.205676138401031494e-01 2.446998655796051025e-01
1.070000000000000000e+03 2.258395576477050781e+01 2.428476333618164062e+00 -9.338371157646179199e-01 -1.104038059711456299e-01 -3.132722675800323486e-01 2.921070456504821777e-01
1.071000000000000000e+03 2.147329521179199219e+01 3.566818714141845703e+00 -6.326050162315368652e-01 -1.465058773756027222e-01 -2.337332665920257568e-01 2.008278667926788330e-01
1.072000000000000000e+03 2.334058380126953125e+01 2.223703145980834961e+00 -9.570614695549011230e-01 -1.179023608565330505e-01 -3.224891424179077148e-01 3.145221173763275146e-01
1.073000000000000000e+03 2.409777641296386719e+01 2.016402244567871094e+00 -9.722863435745239258e-01 -9.593503922224044800e-02 -3.204663991928100586e-01 3.272868990898132324e-01
1.074000000000000000e+03 2.484923171997070312e+01 1.805286169052124023e+00 -1.000582695007324219e+00 -7.847430557012557983e-02 -3.237171173095703125e-01 3.266479671001434326e-01
1.075000000000000000e+03 2.996867561340332031e+01 4.876013755798339844e+00 1.921143680810928345e-01 6.403552293777465820e-01 2.497408688068389893e-01 -2.914716601371765137e-01
1.076000000000000000e+03 2.951082420349121094e+01 1.440130710601806641e+00 -1.035092711448669434e+00 3.179977238178253174e-01 -2.151284962892532349e-01 3.073066100478172302e-02
1.077000000000000000e+03 2.933930206298828125e+01 6.891527771949768066e-01 -1.154042243957519531e+00 2.657657265663146973e-01 -2.664829492568969727e-01 4.422126803547143936e-03
1.078000000000000000e+03 3.006964492797851562e+01 5.388629436492919922e-01 -1.154101014137268066e+00 2.623264789581298828e-01 -2.675323486328125000e-01 -5.630749464035034180e-02
1.079000000000000000e+03 3.097185134887695312e+01 2.079179763793945312e+00 -1.007827877998352051e+00 3.434208631515502930e-01 -1.993220895528793335e-01 1.548539102077484131e-02
1.080000000000000000e+03 3.285071182250976562e+01 2.374479532241821289e+00 -1.043813705444335938e+00 -3.884910941123962402e-01 -4.296914339065551758e-01 5.862637758255004883e-01
1.081000000000000000e+03 3.411354064941406250e+01 1.641948938369750977e+00 -5.003495216369628906e+00 -4.241796135902404785e-01 -1.628302454948425293e+00 9.853708744049072266e-01
1.082000000000000000e+03 3.190114593505859375e+01 2.428138494491577148e+00 -9.127799868583679199e-01 1.114535406231880188e-01 -2.403979301452636719e-01 1.964619159698486328e-01
1.083000000000000000e+03 2.859294319152832031e+01 8.662949800491333008e-01 -1.112403750419616699e+00 1.843964159488677979e-01 -2.784021794795989990e-01 9.690333157777786255e-02
1.084000000000000000e+03 2.619977378845214844e+01 2.803232431411743164e+00 -6.608288884162902832e-01 5.338966846466064453e-02 -1.822317689657211304e-01 2.615731060504913330e-01
1.085000000000000000e+03 2.923862075805664062e+01 7.386941909790039062e+00 9.055031090974807739e-02 1.376371026039123535e+00 4.400764107704162598e-01 1.215799972414970398e-01
1.086000000000000000e+03 2.966282653808593750e+01 9.261380195617675781e+00 2.864006459712982178e-01 1.303375959396362305e+00 4.769330024719238281e-01 5.281179547309875488e-01
1.087000000000000000e+03 3.333790969848632812e+01 1.215819549560546875e+01 -7.338098883628845215e-01 2.797553874552249908e-02 -2.117502987384796143e-01 7.415210455656051636e-02
1.088000000000000000e+03 3.831898498535156250e+01 9.794992446899414062e+00 -8.678934574127197266e-01 -1.604733943939208984e+00 -7.417882680892944336e-01 1.115319132804870605e+00
1.089000000000000000e+03 3.920522308349609375e+01 8.316970825195312500e+00 -4.773256480693817139e-01 -1.964363455772399902e+00 -7.325067520141601562e-01 7.171674370765686035e-01
1.090000000000000000e+03 3.936280059814453125e+01 6.619522094726562500e+00 -7.465775310993194580e-02 -1.167708516120910645e+00 -3.727098703384399414e-01 2.281311154365539551e-01
1.091000000000000000e+03 4.034495544433593750e+01 2.985187768936157227e+00 -1.225977182388305664e+00 -7.676995396614074707e-01 -5.981030464172363281e-01 -8.480460643768310547e-01
1.092000000000000000e+03 3.802997970581054688e+01 3.066124200820922852e+00 2.679657936096191406e+00 1.817999958992004395e+00 1.349297404289245605e+00 1.960753798484802246e+00
1.093000000000000000e+03 3.856818008422851562e+01 3.295227766036987305e+00 1.111359596252441406e+00 2.776814997196197510e-01 4.167123138904571533e-01 6.629684567451477051e-01
1.094000000000000000e+03 4.189657592773437500e+01 2.266924381256103516e+00 -1.386844158172607422e+00 -9.669449925422668457e-02 -4.450615942478179932e-01 2.235569804906845093e-01
1.095000000000000000e+03 4.439272689819335938e+01 1.341203689575195312e+00 -1.289280652999877930e+00 9.332451969385147095e-02 -3.587868213653564453e-01 2.197415530681610107e-01
1.096000000000000000e+03 4.692125320434570312e+01 5.812524318695068359e+00 -2.889819741249084473e-01 5.249757170677185059e-01 7.079811394214630127e-02 -1.713259816169738770e-01
1.097000000000000000e+03 4.685841751098632812e+01 9.197200536727905273e-01 -1.225278258323669434e+00 2.161637693643569946e-01 -3.027343451976776123e-01 5.687213316559791565e-02
1.098000000000000000e+03 4.851349258422851562e+01 6.479154109954833984e+00 2.415699362754821777e-01 4.498525261878967285e-01 2.074267417192459106e-01 -3.580113649368286133e-01
1.099000000000000000e+03 4.756497192382812500e+01 1.766017079353332520e+00 -1.157855868339538574e+00 2.548560202121734619e-01 -2.708999514579772949e-01 1.845879107713699341e-02
1.100000000000000000e+03 5.091750335693359375e+01 5.371800899505615234e+00 -4.980038106441497803e-01 -1.139493733644485474e-01 -1.835859566926956177e-01 -2.464608848094940186e-01
1.101000000000000000e+03 5.289741897583007812e+01 6.553167819976806641e+00 -7.392048239707946777e-01 -7.502476125955581665e-02 -2.442688792943954468e-01 -3.282975852489471436e-01
1.102000000000000000e+03 5.603438568115234375e+01 1.798622846603393555e+00 -2.355207651853561401e-01 1.329000949859619141e+00 3.280440568923950195e-01 -1.524568080902099609e+00
1.103000000000000000e+03 5.353207778930664062e+01 7.081916332244873047e+00 -3.642909228801727295e-01 5.565680265426635742e-01 5.768314003944396973e-02 -1.733385957777500153e-02
1.104000000000000000e+03 5.526222991943359375e+01 2.591034173965454102e+00 -4.535121321678161621e-01 1.192908048629760742e+00 2.218187600374221802e-01 -1.122978210449218750e+00
1.105000000000000000e+03 6.009795761108398438e+01 -1.994287252426147461e+00 5.450212478637695312e+00 1.133520507812500000e+01 5.035624980926513672e+00 -7.261907100677490234e+00
1.106000000000000000e+03 6.110990905761718750e+01 -4.497395992279052734e+00 9.939327836036682129e-01 1.945981979370117188e+01 6.136126041412353516e+00 -1.077141404151916504e+00
1.107000000000000000e+03 6.103850173950195312e+01 -5.247934818267822266e+00 -1.642112731933593750e-01 1.759098625183105469e+01 5.228032588958740234e+00 9.931026026606559753e-03
1.108000000000000000e+03 6.099000930786132812e+01 -6.855960369110107422e+00 9.678599238395690918e-01 2.003856658935546875e+01 6.301927566528320312e+00 1.736850261688232422e+00
1.109000000000000000e+03 6.049406814575195312e+01 -8.505171775817871094e+00 5.223178863525390625e+00 1.518372344970703125e+01 6.122070789337158203e+00 6.532186985015869141e+00
1.110000000000000000e+03 5.821289443969726562e+01 -1.043931484222412109e+01 6.032393500208854675e-02 1.403371095657348633e+00 4.391084909439086914e-01 1.987304329872131348e+00
1.111000000000000000e+03 5.448901367187500000e+01 -8.508870124816894531e+00 -1.584165453910827637e+00 -1.454053521156311035e+00 -9.114657044410705566e-01 1.434497475624084473e+00
1.112000000000000000e+03 4.758731460571289062e+01 -9.977116584777832031e+00 1.409424543380737305e-01 2.411899089813232422e+00 7.658524513244628906e-01 1.136353015899658203e-01
1.113000000000000000e+03 5.297137832641601562e+01 -3.235389709472656250e+00 3.625924931839108467e-03 -1.584430038928985596e-01 -4.644512385129928589e-02 4.097396507859230042e-02
1.114000000000000000e+03 5.278210830688476562e+01 -1.773123860359191895e+00 -2.513909153640270233e-02 -3.362208604812622070e-02 -1.762835308909416199e-02 1.182084903120994568e-02
1.115000000000000000e+03 5.322210693359375000e+01 -2.472168684005737305e+00 2.616742393001914024e-03 -6.668194197118282318e-03 -1.215435564517974854e-03 2.171551249921321869e-02
1.116000000000000000e+03 5.110513305664062500e+01 -2.118746042251586914e+00 -2.252948880195617676e-01 -9.045583754777908325e-02 -9.472522139549255371e-02 2.373095750808715820e-01
1.117000000000000000e+03 4.876517486572265625e+01 -3.381631851196289062e+00 -7.029381990432739258e-01 2.106798589229583740e-01 -1.476775109767913818e-01 4.667682647705078125e-01
1.118000000000000000e+03 4.613579177856445312e+01 -2.786870002746582031e+00 -9.324722886085510254e-01 1.396337598562240601e-01 -2.378515601158142090e-01 -2.087275497615337372e-02
1.119000000000000000e+03 5.190837478637695312e+01 -2.523454666137695312e+00 -8.052164316177368164e-02 -1.824080646038055420e-01 -7.887890934944152832e-02 1.633843183517456055e-01
1.120000000000000000e+03 4.433185958862304688e+01 -4.640973567962646484e+00 -8.814367651939392090e-01 -1.282911300659179688e-01 -3.029183745384216309e-01 3.525040745735168457e-01
1.121000000000000000e+03 4.359463119506835938e+01 -2.265338897705078125e+00 -1.044614195823669434e+00 6.812585890293121338e-02 -2.929465174674987793e-01 -1.622464060783386230e-01
1.122000000000000000e+03 4.284819030761718750e+01 -3.900491714477539062e+00 -1.708578586578369141e+00 -1.881619095802307129e-01 -5.690221786499023438e-01 6.221657395362854004e-01
1.123000000000000000e+03 4.057000732421875000e+01 -1.265958547592163086e+00 -4.957906007766723633e-01 -1.524866521358489990e-01 -1.944831758737564087e-01 2.017309367656707764e-01
1.124000000000000000e+03 3.889960861206054688e+01 -2.858563184738159180e+00 -1.140651106834411621e+00 1.396162658929824829e-01 -3.003104627132415771e-01 7.708803564310073853e-02
1.125000000000000000e+03 3.905822372436523438e+01 -4.996646344661712646e-01 -2.852357625961303711e-01 -3.228710591793060303e-02 -9.525685757398605347e-02 1.699476838111877441e-01
1.126000000000000000e+03 3.846858215332031250e+01 -5.200258493423461914e-01 -3.378018736839294434e-01 2.694395743310451508e-02 -9.325737506151199341e-02 1.379312425851821899e-01
1.127000000000000000e+03 3.351646423339843750e+01 -2.407220125198364258e+00 -3.870234489440917969e-01 -3.741649910807609558e-02 -1.273319870233535767e-01 -2.810433208942413330e-01
1.128000000000000000e+03 3.571252822875976562e+01 -1.547018170356750488e+00 -5.507993698120117188e-01 1.481277495622634888e-01 -1.208014935255050659e-01 -7.559300214052200317e-02
1.129000000000000000e+03 3.711418151855468750e+01 -9.972856044769287109e-01 -5.121082663536071777e-01 1.387076526880264282e-01 -1.120201870799064636e-01 6.046130508184432983e-02
1.130000000000000000e+03 3.641888809204101562e+01 -1.271315217018127441e+00 -5.618155002593994141e-01 1.486469805240631104e-01 -1.239505484700202942e-01 9.569270536303520203e-03
1.131000000000000000e+03 3.192156600952148438e+01 -3.045130491256713867e+00 -1.928492486476898193e-01 -1.923989355564117432e-01 -1.155744493007659912e-01 -3.052743971347808838e-01
1.132000000000000000e+03 3.042206764221191406e+01 -3.747465133666992188e+00 -2.293375134468078613e-02 -2.931575179100036621e-01 -9.482737630605697632e-02 -1.929811239242553711e-01
1.133000000000000000e+03 2.862609291076660156e+01 -2.873882293701171875e+00 1.817498472519218922e-03 2.763972803950309753e-02 8.837168104946613312e-03 -1.885425671935081482e-02
1.134000000000000000e+03 2.894269371032714844e+01 -3.495824575424194336e+00 1.950338296592235565e-02 -2.175446227192878723e-02 -6.753237685188651085e-04 -2.586412802338600159e-02
1.135000000000000000e+03 2.961358642578125000e+01 -8.330063819885253906e+00 -1.118874475359916687e-01 -1.795040249824523926e+00 -5.720783472061157227e-01 -2.870446741580963135e-01
1.136000000000000000e+03 2.713365173339843750e+01 -1.275938892364501953e+01 -1.309418439865112305e+00 -7.351384162902832031e-01 -6.133670806884765625e-01 -7.850950956344604492e-01
1.137000000000000000e+03 2.599899673461914062e+01 -1.266507244110107422e+01 -1.695861339569091797e+00 -5.249710083007812500e-01 -6.662496924400329590e-01 -8.851755857467651367e-01
1.138000000000000000e+03 2.038348579406738281e+01 -1.273455810546875000e+01 -3.929806947708129883e-01 -1.818910241127014160e-01 -1.724615097045898438e-01 2.309109866619110107e-01
1.139000000000000000e+03 1.917204666137695312e+01 -1.149161243438720703e+01 -1.852429956197738647e-01 -1.413664370775222778e-01 -9.798283129930496216e-02 1.590125560760498047e-01
1.140000000000000000e+03 1.860184097290039062e+01 -1.088118743896484375e+01 -1.589925140142440796e-01 -1.113660857081413269e-01 -8.110757917165756226e-02 1.419035494327545166e-01
1.141000000000000000e+03 1.310189723968505859e+01 -1.348925781250000000e+01 5.460527911782264709e-02 7.222323864698410034e-02 3.804855421185493469e-02 -7.678371667861938477e-02
1.142000000000000000e+03 1.406559276580810547e+01 -1.352583503723144531e+01 1.206549629569053650e-02 2.478286027908325195e-01 7.796823233366012573e-02 -1.164503917098045349e-01
1.143000000000000000e+03 1.712571334838867188e+01 -7.066524982452392578e+00 -1.010620780289173126e-02 1.110169440507888794e-01 3.027322143316268921e-02 1.277835574001073837e-03
1.144000000000000000e+03 1.731103134155273438e+01 -5.406822204589843750e+00 -1.518472470343112946e-02 1.011758521199226379e-01 2.579733915627002716e-02 1.095351669937372208e-02
1.145000000000000000e+03 1.772121620178222656e+01 -3.816229104995727539e+00 -1.866906136274337769e-02 7.573137432336807251e-02 1.711869426071643829e-02 2.821328863501548767e-02
1.146000000000000000e+03 1.728253173828125000e+01 -2.917722702026367188e+00 -8.478264324367046356e-03 3.997186571359634399e-02 9.448080323636531830e-03 -3.939094312954694033e-04
1.147000000000000000e+03 1.713397598266601562e+01 -4.066265523433685303e-01 -1.346581522375345230e-02 2.550381235778331757e-02 3.611399093642830849e-03 9.746576659381389618e-03
1.148000000000000000e+03 1.770283889770507812e+01 -3.261296153068542480e-01 -5.708281323313713074e-02 9.813962504267692566e-03 -1.418065559118986130e-02 -3.512626513838768005e-02
1.149000000000000000e+03 1.776244735717773438e+01 -1.425971388816833496e+00 -4.255302995443344116e-02 1.888055913150310516e-02 -7.101740688085556030e-03 -1.813839189708232880e-02
1.150000000000000000e+03 2.029715919494628906e+01 -7.598031759262084961e-01 4.733745753765106201e-01 7.182580977678298950e-02 1.635601222515106201e-01 7.934162765741348267e-02
1.151000000000000000e+03 1.896553611755371094e+01 -4.161021113395690918e-01 -5.624717101454734802e-02 1.209007725119590759e-01 1.939608156681060791e-02 4.435481876134872437e-02
1.152000000000000000e+03 1.649464225769042969e+01 -5.338149666786193848e-01 -4.645004123449325562e-02 -4.422158468514680862e-03 -1.526166032999753952e-02 -2.496230602264404297e-02
1.153000000000000000e+03 1.366344451904296875e+01 -1.111086010932922363e+00 -1.344357151538133621e-02 -1.481485925614833832e-02 -8.477529510855674744e-03 -2.598093636333942413e-02
1.154000000000000000e+03 1.668141365051269531e+01 -5.294543266296386719e+00 2.555857412517070770e-02 7.337934523820877075e-02 2.968137711286544800e-02 2.553377998992800713e-03
1.155000000000000000e+03 1.137673568725585938e+01 -1.578369975090026855e+00 6.872700992971658707e-03 -4.871176555752754211e-03 6.004572496749460697e-04 -2.616585046052932739e-02
1.156000000000000000e+03 1.059354877471923828e+01 -1.728227734565734863e+00 1.112116780132055283e-02 -1.483029127120971680e-02 -1.112736877985298634e-03 -2.276176586747169495e-02
1.157000000000000000e+03 4.654934692382812500e+01 -2.878838348388671875e+01 8.299176096916198730e-01 4.642446041107177734e-01 3.882486820220947266e-01 -5.955052971839904785e-01
1.158000000000000000e+03 4.940906906127929688e+01 -3.185311126708984375e+01 3.128485977649688721e-01 2.707703113555908203e+00 9.061654806137084961e-01 -2.353755086660385132e-01
1.159000000000000000e+03 4.719807052612304688e+01 -3.663479995727539062e+01 1.056437611579895020e+00 1.214753627777099609e+00 6.813573837280273438e-01 1.193063378334045410e+00
1.160000000000000000e+03 4.658650207519531250e+01 -3.718988037109375000e+01 8.021120429039001465e-01 8.894998431205749512e-01 5.074836015701293945e-01 7.483868598937988281e-01
1.161000000000000000e+03 4.524338531494140625e+01 -4.049502182006835938e+01 5.853171944618225098e-01 9.196130037307739258e-01 4.514790475368499756e-01 1.855799108743667603e-01
1.162000000000000000e+03 4.489411163330078125e+01 -3.801517868041992188e+01 5.907440185546875000e-01 2.811338603496551514e-01 2.615633606910705566e-01 2.498642355203628540e-01
1.163000000000000000e+03 4.011397552490234375e+01 -3.537215805053710938e+01 4.266381561756134033e-01 7.606994509696960449e-01 3.562012910842895508e-01 -4.378886818885803223e-01
1.164000000000000000e+03 3.925363922119140625e+01 -3.404570770263671875e+01 2.841391861438751221e-01 1.634470105171203613e+00 5.755828022956848145e-01 -2.786343097686767578e-01
1.165000000000000000e+03 3.962080764770507812e+01 -3.134334754943847656e+01 3.041384816169738770e-01 1.628128528594970703e+00 5.796800851821899414e-01 5.425788760185241699e-01
1.166000000000000000e+03 4.077126693725585938e+01 -2.925364303588867188e+01 6.369296312332153320e-01 1.103745341300964355e+00 5.222024917602539062e-01 7.755380272865295410e-01
1.167000000000000000e+03 4.134072113037109375e+01 -2.865424346923828125e+01 7.211573719978332520e-01 8.889360427856445312e-01 4.830280244350433350e-01 7.143515348434448242e-01
1.168000000000000000e+03 7.521383666992187500e+01 -4.473166942596435547e+00 7.338230013847351074e-01 1.039355087280273438e+01 3.338212013244628906e+00 -1.479449987411499023e+00
1.169000000000000000e+03 7.687802886962890625e+01 -6.607196807861328125e+00 1.026205897331237793e+00 9.805381774902343750e+00 3.249476194381713867e+00 -3.092270493507385254e-01
1.170000000000000000e+03 7.516782379150390625e+01 -8.584394454956054688e+00 7.191753983497619629e-01 1.382052993774414062e+01 4.361911773681640625e+00 9.119830727577209473e-01
1.171000000000000000e+03 7.575554656982421875e+01 -7.664958477020263672e+00 6.875082850456237793e-01 1.259058284759521484e+01 3.983427286148071289e+00 -6.580285262316465378e-03
1.172000000000000000e+03 7.117958831787109375e+01 -1.173636150360107422e+01 -2.263477325439453125e+00 -2.412708550691604614e-01 -7.514244318008422852e-01 -1.035842299461364746e+00
1.173000000000000000e+03 6.795908355712890625e+01 -1.103943824768066406e+01 3.396355390548706055e+00 3.077238321304321289e+00 1.942078113555908203e+00 -3.044014692306518555e+00
1.174000000000000000e+03 6.677123260498046875e+01 -9.863075256347656250e+00 3.374171495437622070e+00 5.254709243774414062e+00 2.588664293289184570e+00 -4.010099887847900391e+00
1.175000000000000000e+03 6.623912811279296875e+01 -9.218675613403320312e+00 3.623584270477294922e+00 8.266846656799316406e+00 3.567129373550415039e+00 -4.931239604949951172e+00
1.176000000000000000e+03 6.581199645996093750e+01 -8.494153976440429688e+00 2.855815410614013672e+00 1.254986667633056641e+01 4.621704578399658203e+00 -4.622796535491943359e+00
1.177000000000000000e+03 6.198305892944335938e+01 -4.779670238494873047e+00 1.711645245552062988e+00 1.613881683349609375e+01 5.355138778686523438e+00 -1.537615895271301270e+00
1.178000000000000000e+03 6.254193115234375000e+01 -3.584191799163818359e+00 3.448436498641967773e+00 1.384037494659423828e+01 5.186643600463867188e+00 -9.622957706451416016e-01
1.179000000000000000e+03 6.732915496826171875e+01 -2.198137044906616211e+00 4.066595554351806641e+00 4.470080375671386719e+00 2.561002969741821289e+00 4.053389549255371094e+00
1.180000000000000000e+03 7.033507537841796875e+01 -1.010421991348266602e+00 8.713498711585998535e-01 2.188058048486709595e-01 3.270467221736907959e-01 6.426702737808227539e-01
1.181000000000000000e+03 6.191777038574218750e+01 3.384159851074218750e+01 1.401661932468414307e-01 1.056748032569885254e+00 3.590742647647857666e-01 -3.981284797191619873e-01
1.182000000000000000e+03 6.319244384765625000e+01 2.853250885009765625e+01 1.106969080865383148e-02 5.970385074615478516e+00 1.794436454772949219e+00 2.314253747463226318e-01
1.183000000000000000e+03 6.316529083251953125e+01 2.700061035156250000e+01 8.959349393844604492e-01 8.761713981628417969e+00 2.897294759750366211e+00 1.768921256065368652e+00
1.184000000000000000e+03 6.237789535522460938e+01 2.519909477233886719e+01 2.892727613449096680e+00 5.811088085174560547e+00 2.611144781112670898e+00 3.540415287017822266e+00
1.185000000000000000e+03 6.111302185058593750e+01 2.437288093566894531e+01 7.869244813919067383e-01 1.675410866737365723e+00 7.387006282806396484e-01 1.525985956192016602e+00
1.186000000000000000e+03 5.892317199707031250e+01 2.354185485839843750e+01 -5.076716423034667969e+00 -9.416770190000534058e-02 -1.551265239715576172e+00 -7.544145584106445312e-01
1.187000000000000000e+03 5.810949707031250000e+01 2.335064315795898438e+01 -6.061785697937011719e+00 -3.574336171150207520e-01 -1.925765872001647949e+00 -4.245676100254058838e-01
1.188000000000000000e+03 5.480186462402343750e+01 2.547173118591308594e+01 1.576510429382324219e+00 3.908401012420654297e+00 1.645473480224609375e+00 -2.476910352706909180e+00
1.189000000000000000e+03 5.430951690673828125e+01 2.601530456542968750e+01 1.666676640510559082e+00 6.271519184112548828e+00 2.381458759307861328e+00 -2.481076955795288086e+00
1.190000000000000000e+03 5.388056564331054688e+01 2.720554924011230469e+01 1.035903215408325195e+00 7.992592334747314453e+00 2.708548545837402344e+00 -1.502656936645507812e+00
1.191000000000000000e+03 5.392853164672851562e+01 3.028559875488281250e+01 2.571165859699249268e-01 6.559333801269531250e+00 2.044934988021850586e+00 2.674081325531005859e-01
1.192000000000000000e+03 5.378624343872070312e+01 3.275722885131835938e+01 5.329325199127197266e-01 4.080752849578857422e+00 1.384105563163757324e+00 6.450107693672180176e-01
1.193000000000000000e+03 5.490404510498046875e+01 3.324557495117187500e+01 9.371239542961120605e-01 2.778447389602661133e+00 1.114671349525451660e+00 1.441996216773986816e+00
1.194000000000000000e+03 5.533534622192382812e+01 3.389044952392578125e+01 6.518092751502990723e-01 1.898978471755981445e+00 7.652363181114196777e-01 1.124114274978637695e+00
1.195000000000000000e+03 5.742602157592773438e+01 3.589995956420898438e+01 -7.390295267105102539e-01 3.933698236942291260e-01 -1.036979034543037415e-01 4.101170599460601807e-01
1.196000000000000000e+03 5.903886032104492188e+01 3.588681030273437500e+01 -1.077849626541137695e+00 1.277607399970293045e-02 -3.195220530033111572e-01 1.759804785251617432e-02
1.197000000000000000e+03 4.477727127075195312e+01 3.068238258361816406e+01 8.808385729789733887e-01 1.649173140525817871e+00 7.590035200119018555e-01 -1.098259806632995605e+00
1.198000000000000000e+03 4.573700714111328125e+01 2.843300819396972656e+01 2.056574225425720215e-01 2.539351701736450195e+00 8.235027790069580078e-01 -4.582661092281341553e-01
1.199000000000000000e+03 4.583341979980468750e+01 2.682046318054199219e+01 3.359596431255340576e-02 1.994058012962341309e+00 6.082962155342102051e-01 -1.713192090392112732e-02
1.200000000000000000e+03 4.403361892700195312e+01 2.308073425292968750e+01 8.077475428581237793e-01 6.962527632713317871e-01 4.512000977993011475e-01 6.735960841178894043e-01
1.201000000000000000e+03 4.008783721923828125e+01 2.184447860717773438e+01 3.255914151668548584e-01 5.753822159022092819e-03 9.940357506275177002e-02 9.606724604964256287e-03
1.202000000000000000e+03 3.785925674438476562e+01 2.320987892150878906e+01 -1.674319244921207428e-02 -1.147666200995445251e-02 -8.465955965220928192e-03 2.473230101168155670e-02
1.203000000000000000e+03 3.620955657958984375e+01 2.500044631958007812e+01 5.735583230853080750e-02 3.481643497943878174e-01 1.216560602188110352e-01 -1.428570598363876343e-01
1.204000000000000000e+03 3.577159500122070312e+01 2.569954681396484375e+01 9.645356237888336182e-02 7.049526572227478027e-01 2.404218614101409912e-01 -2.115871310234069824e-01
1.205000000000000000e+03 3.508882904052734375e+01 3.196122169494628906e+01 2.423939108848571777e-01 5.304149985313415527e-01 2.318426817655563354e-01 1.763084083795547485e-01
1.206000000000000000e+03 3.637379074096679688e+01 3.219521713256835938e+01 2.934415936470031738e-01 6.108899116516113281e-01 2.712994515895843506e-01 3.417539298534393311e-01
1.207000000000000000e+03 3.917142486572265625e+01 3.424470138549804688e+01 7.183436155319213867e-01 1.480902284383773804e-01 2.599301636219024658e-01 6.814865022897720337e-02
1.208000000000000000e+03 3.993866729736328125e+01 3.427429580688476562e+01 8.204139471054077148e-01 1.684080064296722412e-01 2.966465950012207031e-01 -1.398720443248748779e-01
1.209000000000000000e+03 2.973378181457519531e+01 2.664565849304199219e+01 -5.025258064270019531e-01 -4.949007630348205566e-01 -2.992279529571533203e-01 4.736850857734680176e-01
1.210000000000000000e+03 3.029685783386230469e+01 2.605533218383789062e+01 -4.780896604061126709e-01 -6.108924746513366699e-01 -3.266946375370025635e-01 5.009070634841918945e-01
1.211000000000000000e+03 3.141221618652343750e+01 2.390434455871582031e+01 -1.044557914137840271e-01 -5.161522030830383301e-01 -1.861824095249176025e-01 2.145066112279891968e-01
1.212000000000000000e+03 3.154066848754882812e+01 2.310762786865234375e+01 -3.126234933733940125e-02 -2.516537308692932129e-01 -8.487482368946075439e-02 1.112219393253326416e-01
1.213000000000000000e+03 3.226826477050781250e+01 1.996070480346679688e+01 3.671632707118988037e-02 3.790912032127380371e-01 1.247422620654106140e-01 2.089044153690338135e-01
1.214000000000000000e+03 3.158623695373535156e+01 1.993916320800781250e+01 1.161728426814079285e-02 3.988670706748962402e-01 1.231453120708465576e-01 7.560462504625320435e-02
1.215000000000000000e+03 3.157764053344726562e+01 1.914954757690429688e+01 1.218257285654544830e-02 6.215218901634216309e-01 1.901113390922546387e-01 1.051794886589050293e-01
1.216000000000000000e+03 3.155509757995605469e+01 1.835441589355468750e+01 7.342083007097244263e-02 9.867380857467651367e-01 3.180476725101470947e-01 2.072811275720596313e-01
1.217000000000000000e+03 3.126812362670898438e+01 1.682068443298339844e+01 7.502295970916748047e-01 1.537781238555908203e+00 6.864032149314880371e-01 8.445757031440734863e-01
1.218000000000000000e+03 3.193241500854492188e+01 1.374350833892822266e+01 -2.054125219583511353e-01 5.597781538963317871e-01 1.063096970319747925e-01 4.768406748771667480e-01
1.219000000000000000e+03 2.894301033020019531e+01 1.544048976898193359e+01 -6.913019344210624695e-03 1.376398801803588867e-01 3.921805694699287415e-02 1.981870830059051514e-01
1.220000000000000000e+03 2.572326278686523438e+01 1.578727531433105469e+01 -5.822037458419799805e-01 -2.148294895887374878e-01 -2.391099631786346436e-01 2.662779986858367920e-01
1.221000000000000000e+03 2.453894996643066406e+01 1.692217826843261719e+01 -2.495911717414855957e-01 -1.847277134656906128e-01 -1.302956640720367432e-01 2.093623876571655273e-01
1.222000000000000000e+03 2.286644935607910156e+01 1.875491523742675781e+01 -1.074580475687980652e-01 -2.210306525230407715e-01 -9.854660928249359131e-02 1.125382035970687866e-01
1.223000000000000000e+03 2.238060379028320312e+01 2.120859527587890625e+01 -6.705397274345159531e-03 -3.761520385742187500e-01 -1.148572266101837158e-01 -2.204314619302749634e-02
1.224000000000000000e+03 2.287210273742675781e+01 2.439175605773925781e+01 8.774294704198837280e-02 4.812019690871238708e-02 4.075894504785537720e-02 1.524549871683120728e-01
1.225000000000000000e+03 1.955707740783691406e+01 2.566068840026855469e+01 6.181266903877258301e-01 2.234836071729660034e-01 2.524830996990203857e-01 4.851061105728149414e-01
1.226000000000000000e+03 2.244562721252441406e+01 2.536282348632812500e+01 3.544245660305023193e-01 1.496460288763046265e-01 1.512211859226226807e-01 4.614177942276000977e-01
1.227000000000000000e+03 2.372481918334960938e+01 2.658034324645996094e+01 3.894749879837036133e-01 9.444777369499206543e-01 4.001858234405517578e-01 5.900789499282836914e-01
1.228000000000000000e+03 2.309892845153808594e+01 2.515041351318359375e+01 1.794584691524505615e-01 3.595494925975799561e-01 1.617023795843124390e-01 2.810415327548980713e-01
1.229000000000000000e+03 2.406394958496093750e+01 2.727752113342285156e+01 5.426199436187744141e-01 1.115079164505004883e+00 4.973097443580627441e-01 7.505871057510375977e-01
1.230000000000000000e+03 6.789036560058593750e+01 1.937892150878906250e+01 -3.027022123336791992e+00 -7.002953290939331055e-01 -1.118195295333862305e+00 1.564605951309204102e+00
1.231000000000000000e+03 6.954836273193359375e+01 1.775809860229492188e+01 -7.085897959768772125e-03 1.240663409233093262e+00 3.700732290744781494e-01 -6.555347442626953125e-01
1.232000000000000000e+03 7.062149047851562500e+01 1.662520217895507812e+01 1.547611951828002930e+00 4.768296718597412109e+00 1.894772529602050781e+00 -2.592159986495971680e+00
1.233000000000000000e+03 7.111106109619140625e+01 1.599627494812011719e+01 1.876570105552673340e+00 7.962009906768798828e+00 2.951574087142944336e+00 -3.426883935928344727e+00
1.234000000000000000e+03 6.946644592285156250e+01 7.904017925262451172e+00 3.991178572177886963e-01 1.757604837417602539e+00 6.470168232917785645e-01 1.387905359268188477e+00
1.235000000000000000e+03 6.660253906250000000e+01 6.920901298522949219e+00 -6.858010768890380859e+00 -2.966067790985107422e-01 -2.146385192871093750e+00 6.723179668188095093e-02
1.236000000000000000e+03 6.612390899658203125e+01 6.509342193603515625e+00 -5.883200645446777344e+00 -4.898888468742370605e-01 -1.911926865577697754e+00 6.927552223205566406e-01
1.237000000000000000e+03 6.214468765258789062e+01 8.542880058288574219e+00 -4.941254854202270508e-01 5.206588268280029297e+00 1.413738727569580078e+00 -1.929674029350280762e+00
1.238000000000000000e+03 6.327390289306640625e+01 8.407156944274902344e+00 -8.213137276470661163e-03 2.026364564895629883e+00 6.054454445838928223e-01 -9.876697063446044922e-01
1.239000000000000000e+03 6.174600601196289062e+01 1.010877990722656250e+01 2.914629697799682617e+00 7.717113971710205078e+00 3.189523220062255859e+00 -4.371041774749755859e+00
1.240000000000000000e+03 6.129885864257812500e+01 1.071315193176269531e+01 2.608502864837646484e+00 1.146467113494873047e+01 4.221951961517333984e+00 -3.874207735061645508e+00
1.241000000000000000e+03 6.091903686523437500e+01 1.259999847412109375e+01 2.644775807857513428e-01 1.149520587921142578e+01 3.527904987335205078e+00 -1.036779046058654785e+00
1.242000000000000000e+03 6.095938873291015625e+01 1.411616706848144531e+01 2.261399924755096436e-01 1.105005645751953125e+01 3.382858991622924805e+00 2.132546305656433105e-01
1.243000000000000000e+03 6.100832366943359375e+01 1.489038848876953125e+01 3.931038081645965576e-01 1.082078933715820312e+01 3.364168167114257812e+00 9.262390136718750000e-01
1.244000000000000000e+03 6.293700790405273438e+01 1.927403831481933594e+01 9.361475110054016113e-01 3.584608793258666992e+00 1.356226921081542969e+00 2.508428812026977539e+00
1.245000000000000000e+03 6.529016113281250000e+01 2.002347755432128906e+01 -5.395951747894287109e+00 1.817544847726821899e-01 -1.564259171485900879e+00 -2.617284655570983887e-01
1.246000000000000000e+03 1.136758232116699219e+01 3.618334197998046875e+01 2.482422739267349243e-01 2.558955363929271698e-02 8.214955031871795654e-02 1.396551579236984253e-01
1.247000000000000000e+03 1.190361785888671875e+01 3.459712982177734375e+01 2.743981778621673584e-01 -7.805895293131470680e-04 8.208527415990829468e-02 1.631618849933147430e-02
1.248000000000000000e+03 1.269791221618652344e+01 3.448920440673828125e+01 2.297021597623825073e-01 -6.244347430765628815e-03 6.703734397888183594e-02 1.912070438265800476e-02
1.249000000000000000e+03 1.353068923950195312e+01 3.442708969116210938e+01 1.659054011106491089e-01 -1.618357375264167786e-02 4.491654783487319946e-02 2.987737953662872314e-02
1.250000000000000000e+03 1.657839775085449219e+01 3.340647506713867188e+01 -1.578374952077865601e-01 -1.464245319366455078e-01 -9.127861261367797852e-02 1.498608738183975220e-01
1.251000000000000000e+03 1.792168617248535156e+01 3.246039962768554688e+01 -2.664814591407775879e-01 -3.285584449768066406e-01 -1.785119771957397461e-01 2.711567580699920654e-01
1.252000000000000000e+03 1.851736068725585938e+01 3.187735557556152344e+01 -2.874920070171356201e-01 -4.834255576133728027e-01 -2.312752604484558105e-01 3.329776227474212646e-01
1.253000000000000000e+03 1.948117828369140625e+01 2.653089523315429688e+01 3.277499973773956299e-01 1.741352081298828125e-01 1.505655646324157715e-01 3.738374710083007812e-01
1.254000000000000000e+03 2.058987808227539062e+01 2.494378852844238281e+01 5.728256702423095703e-01 -2.304442040622234344e-02 1.649343669414520264e-01 4.307736158370971680e-01
1.255000000000000000e+03 1.399144840240478516e+01 2.308334922790527344e+01 6.684699058532714844e-01 9.161130338907241821e-02 2.280243635177612305e-01 2.650481164455413818e-01
1.256000000000000000e+03 1.320730400085449219e+01 2.290682983398437500e+01 3.672982156276702881e-01 5.781004205346107483e-02 1.275324821472167969e-01 1.946087330579757690e-01
1.257000000000000000e+03 1.155352210998535156e+01 2.278772926330566406e+01 -1.559300422668457031e-01 1.784473424777388573e-04 -4.672547802329063416e-02 1.203633025288581848e-01
1.258000000000000000e+03 1.072822093963623047e+01 2.289509963989257812e+01 -3.574913740158081055e-01 -1.853596977889537811e-02 -1.128081977367401123e-01 1.201369315385818481e-01
1.259000000000000000e+03 6.796293735504150391e+00 2.537233734130859375e+01 -4.120492637157440186e-01 -7.119489312171936035e-01 -3.371994495391845703e-01 4.964003562927246094e-01
1.260000000000000000e+03 5.732172012329101562e+00 2.634979629516601562e+01 -2.757016718387603760e-01 -1.033971428871154785e+00 -3.929019570350646973e-01 3.003642857074737549e-01
1.261000000000000000e+03 6.016726970672607422e+00 2.945902252197265625e+01 1.379330526106059551e-03 -6.471003293991088867e-01 -1.937163025140762329e-01 -4.425038117915391922e-03
1.262000000000000000e+03 5.831675052642822266e+00 3.127893066406250000e+01 8.360349386930465698e-02 -3.487950265407562256e-01 -7.955745607614517212e-02 1.168337538838386536e-01
1.263000000000000000e+03 6.641074180603027344e+00 3.175558280944824219e+01 6.402261555194854736e-02 -2.387041226029396057e-02 1.204566191881895065e-02 7.794533669948577881e-02
1.264000000000000000e+03 7.411575317382812500e+00 3.316725158691406250e+01 2.756838798522949219e-01 2.474269121885299683e-01 1.569332331418991089e-01 2.580326497554779053e-01
1.265000000000000000e+03 9.349353790283203125e+00 3.470785522460937500e+01 6.788925528526306152e-01 1.576987206935882568e-01 2.509773969650268555e-01 2.229188382625579834e-01
1.266000000000000000e+03 2.306900215148925781e+01 -2.907822036743164062e+01 3.004463613033294678e-01 1.883057653903961182e-01 1.466256380081176758e-01 -2.354790419340133667e-01
1.267000000000000000e+03 2.399655723571777344e+01 -3.042535209655761719e+01 6.726250052452087402e-02 -1.510193943977355957e-01 -2.512706629931926727e-02 -2.350301295518875122e-02
1.268000000000000000e+03 2.434381294250488281e+01 -3.118436050415039062e+01 -2.612258773297071457e-03 -4.110807776451110840e-01 -1.241079121828079224e-01 3.239824622869491577e-02
1.269000000000000000e+03 2.534445381164550781e+01 -3.440769195556640625e+01 4.453207366168498993e-03 -5.163722634315490723e-01 -1.535757184028625488e-01 -1.365086995065212250e-02
1.270000000000000000e+03 2.467023086547851562e+01 -3.523342895507812500e+01 1.191713102161884308e-02 -6.615095734596252441e-01 -1.948777288198471069e-01 -1.567972009070217609e-03
1.271000000000000000e+03 2.205460357666015625e+01 -3.943858718872070312e+01 5.528837442398071289e-01 5.438639223575592041e-02 1.821810454130172729e-01 1.893905401229858398e-01
1.272000000000000000e+03 1.990313148498535156e+01 -4.016326141357421875e+01 9.925066828727722168e-01 1.048037186264991760e-01 3.291931152343750000e-01 2.151852846145629883e-01
1.273000000000000000e+03 1.912968826293945312e+01 -4.036492919921875000e+01 9.893015027046203613e-01 4.821141064167022705e-02 3.112538754940032959e-01 1.422216147184371948e-01
1.274000000000000000e+03 1.512221908569335938e+01 -3.879033660888671875e+01 3.370342254638671875e-01 2.283096462488174438e-01 1.696031540632247925e-01 -2.451474517583847046e-01
1.275000000000000000e+03 1.319749927520751953e+01 -3.610718154907226562e+01 5.371387675404548645e-02 -1.679462790489196777e-01 -3.426972031593322754e-02 -6.102364510297775269e-02
1.276000000000000000e+03 1.302491855621337891e+01 -3.358991241455078125e+01 -3.153255209326744080e-02 -6.570010185241699219e-01 -2.065600752830505371e-01 -1.090580299496650696e-01
1.277000000000000000e+03 1.277521324157714844e+01 -3.178149032592773438e+01 -1.961413621902465820e-01 -6.982522606849670410e-01 -2.683180868625640869e-01 -2.761519551277160645e-01
1.278000000000000000e+03 1.335177040100097656e+01 -3.198174667358398438e+01 -1.374528855085372925e-01 -9.165575504302978516e-01 -3.162031471729278564e-01 -2.946505546569824219e-01
1.279000000000000000e+03 1.439541339874267578e+01 -2.979084014892578125e+01 -3.155950903892517090e-01 -7.767149209976196289e-01 -3.276929855346679688e-01 -4.703578948974609375e-01
1.280000000000000000e+03 1.484976673126220703e+01 -2.911964225769042969e+01 -3.443679213523864746e-01 -6.816927790641784668e-01 -3.078182041645050049e-01 -4.639308750629425049e-01
1.281000000000000000e+03 1.652377510070800781e+01 -2.730640029907226562e+01 -1.360519528388977051e-01 -2.986048758029937744e-01 -1.303970515727996826e-01 -2.247896641492843628e-01
1.282000000000000000e+03 1.888409996032714844e+01 -2.657702636718750000e+01 6.646721363067626953e-01 -4.434569180011749268e-02 1.860979348421096802e-01 -2.832013368606567383e-02
1.283000000000000000e+03 1.807390785217285156e+01 -2.666324996948242188e+01 3.981036841869354248e-01 -2.450721897184848785e-02 1.120789349079132080e-01 -8.150079846382141113e-02
1.284000000000000000e+03 3.654243469238281250e+01 -1.592814731597900391e+01 -4.067394733428955078e-01 3.161247670650482178e-01 -2.718441002070903778e-02 -1.131007969379425049e-01
1.285000000000000000e+03 3.704431152343750000e+01 -1.649770736694335938e+01 1.436348110437393188e-01 5.940554738044738770e-01 2.213070839643478394e-01 -3.568620681762695312e-01
1.286000000000000000e+03 3.909400177001953125e+01 -1.993848228454589844e+01 2.316586226224899292e-01 8.190127015113830566e-01 3.152014017105102539e-01 -4.008234143257141113e-01
1.287000000000000000e+03 3.878310012817382812e+01 -1.918889045715332031e+01 2.724615931510925293e-01 9.077970981597900391e-01 3.540776073932647705e-01 -4.939679503440856934e-01
1.288000000000000000e+03 3.935369491577148438e+01 -2.070661544799804688e+01 1.524096727371215820e-01 7.699837088584899902e-01 2.767180204391479492e-01 -2.724642455577850342e-01
1.289000000000000000e+03 3.956657409667968750e+01 -2.229945373535156250e+01 2.450207993388175964e-02 5.680815577507019043e-01 1.777750998735427856e-01 -2.025462500751018524e-02
1.290000000000000000e+03 3.959262084960937500e+01 -2.309043121337890625e+01 1.662994362413883209e-02 5.958642959594726562e-01 1.837482750415802002e-01 2.837736159563064575e-02
1.291000000000000000e+03 4.096965026855468750e+01 -2.653450775146484375e+01 3.080817759037017822e-01 7.951772212982177734e-01 3.309777081012725830e-01 3.601969778537750244e-01
1.292000000000000000e+03 3.800537109375000000e+01 -2.691842079162597656e+01 2.194268852472305298e-01 3.300177752971649170e-01 1.648333966732025146e-01 2.513329088687896729e-01
1.293000000000000000e+03 3.872202682495117188e+01 -3.170048713684082031e+01 3.495577275753021240e-01 1.289302349090576172e+00 4.916580319404602051e-01 2.853715717792510986e-01
1.294000000000000000e+03 3.594832611083984375e+01 -2.814291381835937500e+01 2.350371330976486206e-01 2.769890800118446350e-02 7.882080972194671631e-02 3.254669904708862305e-02
1.295000000000000000e+03 3.089815330505371094e+01 -2.672588539123535156e+01 3.732526600360870361e-01 1.912608891725540161e-01 1.693540662527084351e-01 -2.844758629798889160e-01
1.296000000000000000e+03 3.034947776794433594e+01 -2.512903213500976562e+01 2.841676473617553711e-01 2.280501127243041992e-01 1.536653339862823486e-01 -2.470189779996871948e-01
1.297000000000000000e+03 2.941624450683593750e+01 -2.375936889648437500e+01 9.768035262823104858e-02 6.698427349328994751e-02 4.939938709139823914e-02 -1.036097407341003418e-01
1.298000000000000000e+03 2.918085479736328125e+01 -2.049466323852539062e+01 -5.287746898829936981e-03 -1.771174371242523193e-01 -5.472155287861824036e-02 -2.244486473500728607e-02
1.299000000000000000e+03 3.005289459228515625e+01 -1.820605659484863281e+01 1.526912441477179527e-03 -3.822790831327438354e-02 -1.101029850542545319e-02 -8.734473376534879208e-04
1.300000000000000000e+03 3.156814575195312500e+01 -1.629347610473632812e+01 -1.341642141342163086e-01 -1.471390295773744583e-02 -4.466343298554420471e-02 -4.884572699666023254e-02
1.301000000000000000e+03 3.220798492431640625e+01 -1.574133968353271484e+01 -4.131390154361724854e-01 -3.577623516321182251e-02 -1.346745789051055908e-01 -9.645454585552215576e-02
1.302000000000000000e+03 1.532124900817871094e+01 1.846396255493164062e+01 -4.878815412521362305e-01 -2.268367819488048553e-02 -1.531695723533630371e-01 1.871319115161895752e-01
1.303000000000000000e+03 1.641371345520019531e+01 2.327435684204101562e+01 8.977088928222656250e-01 3.339813947677612305e-01 3.695070743560791016e-01 4.778318405151367188e-01
1.304000000000000000e+03 1.955778312683105469e+01 1.595327377319335938e+01 -2.941546440124511719e-01 -3.898904025554656982e-01 -2.052135169506072998e-01 3.061742484569549561e-01
1.305000000000000000e+03 1.947194480895996094e+01 1.696883010864257812e+01 -3.900106847286224365e-01 -2.516907751560211182e-01 -1.925104409456253052e-01 2.367872595787048340e-01
1.306000000000000000e+03 1.918896675109863281e+01 8.740281105041503906e+00 4.479427635669708252e-01 3.815371990203857422e-01 2.488439828157424927e-01 3.857930302619934082e-01
1.307000000000000000e+03 1.821322250366210938e+01 4.013192176818847656e+00 -5.434651374816894531e-01 -1.554554793983697891e-02 -1.677031964063644409e-01 3.274269402027130127e-01
1.308000000000000000e+03 1.639303779602050781e+01 7.011581420898437500e+00 3.434683680534362793e-01 1.150885522365570068e-01 1.375670731067657471e-01 2.259705513715744019e-01
1.309000000000000000e+03 1.683853340148925781e+01 3.208921670913696289e+00 -6.753450036048889160e-01 3.361032530665397644e-02 -1.925203949213027954e-01 3.507196903228759766e-01
1.310000000000000000e+03 1.421250724792480469e+01 3.493494272232055664e+00 -3.525761365890502930e-01 -3.857927024364471436e-02 -1.173466220498085022e-01 3.700846433639526367e-01
1.311000000000000000e+03 1.068337249755859375e+01 9.366921424865722656e+00 -4.777830243110656738e-01 -6.407052874565124512e-01 -3.355464935302734375e-01 5.159363746643066406e-01
1.312000000000000000e+03 1.022325515747070312e+01 1.003594970703125000e+01 -3.570652604103088379e-01 -7.791512608528137207e-01 -3.408649563789367676e-01 4.608789682388305664e-01
1.313000000000000000e+03 9.904216766357421875e+00 1.405730533599853516e+01 9.724503755569458008e-02 2.932142317295074463e-01 1.171377822756767273e-01 1.767821162939071655e-01
1.314000000000000000e+03 1.035275268554687500e+01 1.552577877044677734e+01 3.352669179439544678e-01 5.926027297973632812e-01 2.783608734607696533e-01 3.964892923831939697e-01
1.315000000000000000e+03 1.306567382812500000e+01 1.850992584228515625e+01 4.224590063095092773e-01 4.039538204669952393e-01 2.479238510131835938e-01 4.224429428577423096e-01
1.316000000000000000e+03 1.378585147857666016e+01 1.841264152526855469e+01 3.946348428726196289e-01 2.554713487625122070e-01 1.950318515300750732e-01 3.523877561092376709e-01
1.317000000000000000e+03 5.113457489013671875e+01 1.733520889282226562e+01 1.839403986930847168e+00 2.060323715209960938e+00 1.169918298721313477e+00 -1.922391653060913086e+00
1.318000000000000000e+03 5.229616928100585938e+01 1.620757865905761719e+01 2.230298042297363281e+00 2.828209877014160156e+00 1.517552375793457031e+00 -2.479562520980834961e+00
1.319000000000000000e+03 5.339403915405273438e+01 1.498085784912109375e+01 2.262794733047485352e+00 4.207247734069824219e+00 1.941012740135192871e+00 -2.854023933410644531e+00
1.320000000000000000e+03 6.056011581420898438e+01 1.657744216918945312e+01 1.482228279113769531e+00 7.939592838287353516e+00 2.826546430587768555e+00 1.535035967826843262e+00
1.321000000000000000e+03 5.447196578979492188e+01 1.271096038818359375e+01 6.888038516044616699e-01 5.705677986145019531e+00 1.918344497680664062e+00 -1.343897819519042969e+00
1.322000000000000000e+03 5.465891647338867188e+01 1.017109203338623047e+01 1.018904894590377808e-01 4.401577949523925781e+00 1.351040601730346680e+00 2.727401442825794220e-04
1.323000000000000000e+03 5.439939880371093750e+01 8.502353668212890625e+00 2.142427116632461548e-01 3.597597599029541016e+00 1.143552064895629883e+00 5.067446231842041016e-01
1.324000000000000000e+03 5.149089431762695312e+01 5.850767135620117188e+00 -6.929037570953369141e-01 -1.337435543537139893e-01 -2.479941844940185547e-01 -2.723950743675231934e-01
1.325000000000000000e+03 4.877436065673828125e+01 5.831999301910400391e+00 -1.016527041792869568e-02 3.775772750377655029e-01 1.102236062288284302e-01 -2.316351979970932007e-01
1.326000000000000000e+03 4.752735519409179688e+01 7.636047840118408203e+00 4.000560939311981201e-01 5.995877385139465332e-01 2.998931407928466797e-01 -5.207796692848205566e-01
1.327000000000000000e+03 4.643864440917968750e+01 8.779964447021484375e+00 6.482058763504028320e-01 9.730204343795776367e-01 4.863678812980651855e-01 -7.755051851272583008e-01
1.328000000000000000e+03 4.590799713134765625e+01 9.387235641479492188e+00 7.448934912681579590e-01 1.499338984489440918e+00 6.732697486877441406e-01 -9.342602491378784180e-01
1.329000000000000000e+03 4.011093521118164062e+01 7.525554180145263672e+00 -3.604943454265594482e-01 -1.035775899887084961e+00 -4.188810586929321289e-01 6.388531923294067383e-01
1.330000000000000000e+03 4.494065093994140625e+01 1.163288784027099609e+01 1.701323091983795166e-01 2.534957408905029297e+00 8.115269541740417480e-01 -4.795868396759033203e-01
1.331000000000000000e+03 4.539604187011718750e+01 1.568443965911865234e+01 1.076657176017761230e-01 1.088768959045410156e+00 3.589304089546203613e-01 2.683621048927307129e-01
1.332000000000000000e+03 4.615738296508789062e+01 2.050479316711425781e+01 4.230473563075065613e-02 7.728477716445922852e-01 2.445457428693771362e-01 2.699084281921386719e-01
1.333000000000000000e+03 4.727635574340820312e+01 1.839794158935546875e+01 -8.426467180252075195e-01 -9.411542862653732300e-02 -2.810286283493041992e-01 -3.285620808601379395e-01
1.334000000000000000e+03 1.097076320648193359e+01 -1.272270393371582031e+01 -1.633938550949096680e-01 1.088011171668767929e-02 -4.575412347912788391e-02 1.991487294435501099e-02
1.335000000000000000e+03 1.487504196166992188e+01 -1.507217025756835938e+01 1.793990880250930786e-01 4.877631664276123047e-01 2.001486867666244507e-01 -2.756775319576263428e-01
1.336000000000000000e+03 1.566242027282714844e+01 -1.899929237365722656e+01 -6.670479476451873779e-02 -4.962765872478485107e-01 -1.688944101333618164e-01 -2.452776730060577393e-01
1.337000000000000000e+03 1.547957706451416016e+01 -1.978587913513183594e+01 -3.826963007450103760e-01 -1.075609445571899414e+00 -4.374917149543762207e-01 -5.577593445777893066e-01
1.338000000000000000e+03 1.406471252441406250e+01 -2.154314422607421875e+01 -6.586878895759582520e-01 -4.890274107456207275e-01 -3.443145751953125000e-01 -5.536675453186035156e-01
1.339000000000000000e+03 1.294136047363281250e+01 -2.218486785888671875e+01 -5.150693655014038086e-01 -3.211804628372192383e-01 -2.508749663829803467e-01 -3.748775124549865723e-01
1.340000000000000000e+03 9.204483032226562500e+00 -2.285744285583496094e+01 3.316639661788940430e-01 1.271383091807365417e-02 1.033133417367935181e-01 -3.971754014492034912e-02
1.341000000000000000e+03 5.722264289855957031e+00 -2.091242218017578125e+01 1.554469913244247437e-01 1.125098541378974915e-01 8.038705587387084961e-02 -1.249779611825942993e-01
1.342000000000000000e+03 5.290332317352294922e+00 -1.778125762939453125e+01 -7.467220723628997803e-02 -4.045500755310058594e-01 -1.437666863203048706e-01 -1.439062505960464478e-01
1.343000000000000000e+03 6.867448329925537109e+00 -1.503552722930908203e+01 -1.860397309064865112e-01 -2.890996336936950684e-01 -1.425418108701705933e-01 -2.136721909046173096e-01
1.344000000000000000e+03 7.967058658599853516e+00 -1.390146636962890625e+01 -2.537353634834289551e-01 -2.002020031213760376e-01 -1.361812055110931396e-01 -1.947395801544189453e-01
1.345000000000000000e+03 9.126935958862304688e+00 -1.287472820281982422e+01 -3.054030239582061768e-01 -1.641259342432022095e-01 -1.408586800098419189e-01 -1.656960397958755493e-01
1.346000000000000000e+03 6.401286315917968750e+01 -2.854547691345214844e+01 1.810172796249389648e+00 4.097404479980468750e+00 1.772273302078247070e+00 -3.043279886245727539e+00
1.347000000000000000e+03 6.454940032958984375e+01 -2.911720848083496094e+01 3.254596233367919922e+00 6.584687232971191406e+00 2.951785087585449219e+00 -4.335414886474609375e+00
1.348000000000000000e+03 6.617636871337890625e+01 -3.090510177612304688e+01 2.062813520431518555e+00 9.013989448547363281e+00 3.323040962219238281e+00 -2.449707984924316406e+00
1.349000000000000000e+03 6.559233856201171875e+01 -3.488211059570312500e+01 4.253877699375152588e-01 6.802824497222900391e+00 2.168463706970214844e+00 6.989029049873352051e-01
1.350000000000000000e+03 6.350175857543945312e+01 -3.769849777221679688e+01 -1.205831289291381836e+00 5.108686685562133789e-01 -2.084887921810150146e-01 -1.482795327901840210e-01
1.351000000000000000e+03 6.268271255493164062e+01 -3.808904266357421875e+01 -1.749937534332275391e+00 1.131463330239057541e-02 -5.215868949890136719e-01 -4.204253554344177246e-01
1.352000000000000000e+03 5.832148361206054688e+01 -3.731325912475585938e+01 -9.783323854207992554e-02 8.442944288253784180e-01 2.239383608102798462e-01 -3.156348466873168945e-01
1.353000000000000000e+03 5.787479400634765625e+01 -3.664730834960937500e+01 2.148168981075286865e-01 9.715311527252197266e-01 3.559044003486633301e-01 -8.620305657386779785e-01
1.354000000000000000e+03 5.644435882568359375e+01 -3.201000976562500000e+01 7.237033843994140625e-01 9.481653213500976562e+00 3.061606884002685547e+00 1.800175547599792480e+00
1.355000000000000000e+03 6.205412292480468750e+01 -2.662055969238281250e+01 -4.913309097290039062e+00 1.900059357285499573e-02 -1.468292474746704102e+00 5.224700570106506348e-01
1.356000000000000000e+03 4.284277725219726562e+01 -2.017833232879638672e+00 -9.564876556396484375e-01 -1.128976419568061829e-02 -2.903332114219665527e-01 -1.518950015306472778e-01
1.357000000000000000e+03 4.610005950927734375e+01 -3.518806457519531250e+00 -8.966838717460632324e-01 2.369079291820526123e-01 -1.979327946901321411e-01 2.629144489765167236e-02
1.358000000000000000e+03 5.227178192138671875e+01 -6.738914489746093750e+00 -9.851812124252319336e-01 -1.178782582283020020e+00 -6.491891145706176758e-01 8.522697687149047852e-01
1.359000000000000000e+03 4.788185119628906250e+01 -1.071364021301269531e+01 1.217474564909934998e-01 1.812068700790405273e+00 5.801448822021484375e-01 1.122318767011165619e-02
1.360000000000000000e+03 4.595411682128906250e+01 -1.229785728454589844e+01 -1.005295991897583008e+00 3.095493838191032410e-02 -2.923023104667663574e-01 -3.689921498298645020e-01
1.361000000000000000e+03 4.449477005004882812e+01 -1.310326290130615234e+01 -2.313316822052001953e+00 -2.669143974781036377e-01 -7.740693688392639160e-01 -7.177648544311523438e-01
1.362000000000000000e+03 4.290080642700195312e+01 -1.353080463409423828e+01 -2.751443386077880859e+00 -1.399671882390975952e-01 -8.674231767654418945e-01 -3.122428357601165771e-01
1.363000000000000000e+03 4.139214706420898438e+01 -1.388940811157226562e+01 -1.576900243759155273e+00 -4.193685203790664673e-02 -4.856511354446411133e-01 -1.722842603921890259e-01
1.364000000000000000e+03 3.976305389404296875e+01 -1.212073421478271484e+01 3.883919864892959595e-02 4.856964945793151855e-01 1.573607027530670166e-01 -2.676081061363220215e-01
1.365000000000000000e+03 3.920582580566406250e+01 -1.154513454437255859e+01 3.206794857978820801e-01 6.754937767982482910e-01 2.988519966602325439e-01 -5.226401686668395996e-01
1.366000000000000000e+03 3.879105377197265625e+01 -1.420755290985107422e+01 -8.499394655227661133e-01 9.560882449150085449e-01 3.184461966156959534e-02 -3.730722069740295410e-01
1.367000000000000000e+03 3.760921478271484375e+01 -9.817548751831054688e+00 6.027176380157470703e-01 2.210318088531494141e+00 8.439107537269592285e-01 -8.794995546340942383e-01
1.368000000000000000e+03 3.722772216796875000e+01 -8.574704170227050781e+00 3.286039233207702637e-01 2.392715215682983398e+00 8.163957595825195312e-01 -4.475194811820983887e-01
1.369000000000000000e+03 3.593950271606445312e+01 -2.196408510208129883e+00 -6.399204730987548828e-01 2.216440141201019287e-01 -1.254829466342926025e-01 -8.442966639995574951e-02
1.370000000000000000e+03 3.689337158203125000e+01 -2.632119655609130859e+00 -7.780060172080993652e-01 2.936824858188629150e-01 -1.452970653772354126e-01 -2.985217794775962830e-02
1.371000000000000000e+03 7.235430908203125000e+01 -1.827319717407226562e+01 2.123014926910400391e+00 4.559315204620361328e+00 2.004698991775512695e+00 -2.869871616363525391e+00
1.372000000000000000e+03 7.321014404296875000e+01 -1.959914016723632812e+01 2.045850753784179688e+00 1.171405601501464844e+01 4.127972126007080078e+00 -3.790775775909423828e+00
1.373000000000000000e+03 7.414717864990234375e+01 -2.271715927124023438e+01 9.238142967224121094e-01 1.240567111968994141e+01 3.998845577239990234e+00 8.119469881057739258e-01
1.374000000000000000e+03 7.192202758789062500e+01 -2.551458358764648438e+01 -1.581355452537536621e+00 8.220047354698181152e-01 -2.278052121400833130e-01 3.403386175632476807e-01
1.375000000000000000e+03 7.120452880859375000e+01 -2.582213211059570312e+01 -3.788947105407714844e+00 1.372979879379272461e-01 -1.095494747161865234e+00 -6.100867986679077148e-01
1.376000000000000000e+03 6.883198547363281250e+01 -2.615499114990234375e+01 -5.742133617401123047e+00 -9.301100671291351318e-02 -1.750543355941772461e+00 2.677071690559387207e-01
1.377000000000000000e+03 6.680252838134765625e+01 -2.473746490478515625e+01 1.306430697441101074e+00 3.972587347030639648e+00 1.583705425262451172e+00 -2.597304105758666992e+00
1.378000000000000000e+03 6.571196746826171875e+01 -2.354203414916992188e+01 3.613531827926635742e+00 9.256396293640136719e+00 3.860978603363037109e+00 -5.173121929168701172e+00
1.379000000000000000e+03 6.470410919189453125e+01 -2.315309333801269531e+01 2.473737001419067383e+00 9.552277565002441406e+00 3.607804298400878906e+00 -2.360969781875610352e+00
1.380000000000000000e+03 6.496544647216796875e+01 -2.126155662536621094e+01 6.501165032386779785e-01 1.415378475189208984e+01 4.441170692443847656e+00 -9.722170233726501465e-01
1.381000000000000000e+03 6.531772613525390625e+01 -1.781871795654296875e+01 4.066349267959594727e-01 8.111370086669921875e+00 2.555401325225830078e+00 1.481092095375061035e+00
1.382000000000000000e+03 6.611170959472656250e+01 -1.562532997131347656e+01 -2.613702297210693359e+00 3.481372594833374023e+00 2.603011131286621094e-01 1.040551304817199707e+00
1.383000000000000000e+03 6.961662292480468750e+01 -1.629282569885253906e+01 -2.888230800628662109e+00 1.820115298032760620e-01 -8.118657469749450684e-01 -8.609809279441833496e-01
1.384000000000000000e+03 5.449702453613281250e+01 -1.782751846313476562e+01 -5.521558523178100586e-01 3.080871403217315674e-01 -7.322061806917190552e-02 3.082016408443450928e-01
1.385000000000000000e+03 5.518605804443359375e+01 -2.173036193847656250e+01 4.601114988327026367e-01 6.932425022125244141e+00 2.217761039733886719e+00 1.003309011459350586e+00
1.386000000000000000e+03 5.336427688598632812e+01 -2.464278030395507812e+01 7.664837241172790527e-01 1.238916754722595215e+00 6.016201376914978027e-01 1.243984222412109375e+00
1.387000000000000000e+03 4.794860839843750000e+01 -2.548160743713378906e+01 -2.835174649953842163e-02 8.816316127777099609e-01 2.559839487075805664e-01 -6.364030838012695312e-01
1.388000000000000000e+03 4.718446731567382812e+01 -2.318853378295898438e+01 1.931555420160293579e-01 1.449605941772460938e+00 4.928284287452697754e-01 -4.605306386947631836e-01
1.389000000000000000e+03 4.022615051269531250e+01 -3.862811088562011719e+00 -1.713436126708984375e+00 -3.000480532646179199e-01 -6.040452718734741211e-01 -6.918463706970214844e-01
1.390000000000000000e+03 3.939978027343750000e+01 -2.373334646224975586e+00 -9.997252225875854492e-01 -1.917024957947432995e-03 -3.004926741123199463e-01 2.212474942207336426e-01
1.391000000000000000e+03 3.887381362915039062e+01 -4.621685028076171875e+00 -8.212892413139343262e-01 -1.390778720378875732e-01 -2.881101369857788086e-01 -3.798521757125854492e-01
1.392000000000000000e+03 3.966641616821289062e+01 -1.798371672630310059e+00 -7.462521791458129883e-01 -7.539124041795730591e-02 -2.464930415153503418e-01 2.307450324296951294e-01
1.393000000000000000e+03 1.975080680847167969e+01 -1.248897433280944824e+00 -2.704983018338680267e-02 2.067051827907562256e-02 -1.913793617859482765e-03 8.686841279268264771e-02
1.394000000000000000e+03 1.830566024780273438e+01 -3.472223877906799316e-01 1.234544254839420319e-02 -3.103359602391719818e-02 -5.606446415185928345e-03 -1.329854410141706467e-02
1.395000000000000000e+03 1.853884124755859375e+01 -2.334470748901367188e+00 -1.662266813218593597e-02 4.991165176033973694e-02 9.986694902181625366e-03 5.492836982011795044e-02
1.396000000000000000e+03 1.578580474853515625e+01 -6.429509520530700684e-01 -2.201930619776248932e-02 1.117391604930162430e-02 -3.253616858273744583e-03 -2.064341120421886444e-02
1.397000000000000000e+03 1.508602714538574219e+01 -8.002972006797790527e-01 -2.845328114926815033e-02 -1.078014727681875229e-02 -1.177002862095832825e-02 -2.387821488082408905e-02
1.398000000000000000e+03 1.658521652221679688e+01 -1.168383002281188965e+00 1.163305016234517097e-03 4.050455521792173386e-03 1.564128207974135876e-03 -2.080447785556316376e-02
1.399000000000000000e+03 1.291558074951171875e+01 2.478845119476318359e+00 -1.521526873111724854e-01 -2.302237600088119507e-02 -5.255252122879028320e-02 1.683738678693771362e-01
1.400000000000000000e+03 1.301112937927246094e+01 6.993171215057373047e+00 -9.804875254631042480e-01 -4.670393764972686768e-01 -4.342580735683441162e-01 5.430828928947448730e-01
1.401000000000000000e+03 1.110425090789794922e+01 7.787628173828125000e+00 -5.340243577957153320e-01 -4.260366559028625488e-01 -2.880183160305023193e-01 4.304904341697692871e-01
1.402000000000000000e+03 1.041612720489501953e+01 3.382031917572021484e+00 -1.296747773885726929e-01 -9.622929245233535767e-02 -6.777121871709823608e-02 7.228966057300567627e-02
1.403000000000000000e+03 1.008478260040283203e+01 1.940259337425231934e+00 3.919595479965209961e-02 -3.923806920647621155e-02 -1.263437479792628437e-05 2.481967397034168243e-02
1.404000000000000000e+03 1.059326744079589844e+01 2.751638650894165039e+00 -6.465546786785125732e-02 -7.051928341388702393e-02 -4.055242612957954407e-02 6.104481965303421021e-02
1.405000000000000000e+03 1.437857151031494141e+01 -9.586790204048156738e-01 -1.728119514882564545e-02 2.751821652054786682e-03 -4.358812235295772552e-03 -2.668673917651176453e-02
1.406000000000000000e+03 1.464535617828369141e+01 -2.318588495254516602e+00 3.408236661925911903e-04 7.231738884001970291e-03 2.271768869832158089e-03 -2.753202803432941437e-02
1.407000000000000000e+03 1.292108249664306641e+01 -1.263723254203796387e+00 -6.493041757494211197e-03 -2.820481080561876297e-03 -2.794056897982954979e-03 -2.811333350837230682e-02
1.408000000000000000e+03 1.706413650512695312e+01 -3.694761753082275391e+00 3.677962720394134521e-02 5.386133864521980286e-02 2.719228900969028473e-02 1.386663131415843964e-02
1.409000000000000000e+03 1.803559112548828125e+01 -3.037898778915405273e+00 6.224548071622848511e-02 6.418362259864807129e-02 3.792873024940490723e-02 2.457691170275211334e-02
1.410000000000000000e+03 1.193429756164550781e+01 -1.147072601318359375e+01 -1.190371513366699219e-01 3.649215027689933777e-02 -2.476350031793117523e-02 -8.877898752689361572e-02
1.411000000000000000e+03 4.355426025390625000e+01 -2.760326194763183594e+01 5.145395994186401367e-01 1.308500468730926514e-01 1.936168968677520752e-01 6.640858948230743408e-02
1.412000000000000000e+03 6.747113037109375000e+01 -1.638042831420898438e+01 -5.309758186340332031e+00 -9.634691476821899414e-02 -1.621831536293029785e+00 -8.007939457893371582e-01
1.413000000000000000e+03 4.936072921752929688e+01 -3.258155822753906250e+01 1.237177774310112000e-01 3.035572767257690430e+00 9.477871656417846680e-01 1.706640571355819702e-01
1.414000000000000000e+03 4.926152420043945312e+01 -3.397453308105468750e+01 8.268802165985107422e-01 4.731739521026611328e+00 1.667585968971252441e+00 1.331233859062194824e+00
1.415000000000000000e+03 5.439008331298828125e+01 3.571887588500976562e+01 -4.006451666355133057e-01 2.438167095184326172e+00 6.112565994262695312e-01 6.064215302467346191e-01
1.416000000000000000e+03 1.930303573608398438e+01 -1.035397052764892578e+00 1.615074872970581055e-01 2.390083298087120056e-02 5.562249571084976196e-02 1.636893302202224731e-02
1.417000000000000000e+03 5.052011871337890625e+01 -3.129543876647949219e+01 8.276953697204589844e-01 2.725482463836669922e+00 1.065953373908996582e+00 2.475331425666809082e-01
1.418000000000000000e+03 3.870118713378906250e+01 -3.524780273437500000e+01 2.896159589290618896e-01 1.021431088447570801e+00 3.933140933513641357e-01 -1.245786100625991821e-01
1.419000000000000000e+03 4.173666763305664062e+01 -3.695817565917968750e+01 3.475856482982635498e-01 3.736566901206970215e-01 2.163726985454559326e-01 -3.437393605709075928e-01
1.420000000000000000e+03 7.882403564453125000e+01 -2.665009880065917969e+01 -8.793599903583526611e-02 8.015097618103027344e+00 2.378148555755615234e+00 -4.301413297653198242e-01
1.421000000000000000e+03 3.427502822875976562e+01 -2.107733249664306641e+00 -4.614289700984954834e-01 5.774437636137008667e-02 -1.211053803563117981e-01 -2.376992404460906982e-01
1.422000000000000000e+03 3.954300308227539062e+01 -4.236033916473388672e+00 -1.207806348800659180e+00 -2.667762637138366699e-01 -4.423747658729553223e-01 -5.261970162391662598e-01
1.423000000000000000e+03 3.632278442382812500e+01 -3.499271869659423828e+00 -7.158596515655517578e-01 3.731067180633544922e-01 -1.028258800506591797e-01 -2.114941030740737915e-01
1.424000000000000000e+03 3.852006530761718750e+01 -1.258994102478027344e+00 -5.871763229370117188e-01 6.282491981983184814e-02 -1.573054194450378418e-01 1.942595839500427246e-01
1.425000000000000000e+03 3.271919631958007812e+01 -2.723809480667114258e+00 -2.856669723987579346e-01 -9.825289249420166016e-02 -1.151759549975395203e-01 -3.291709423065185547e-01
1.426000000000000000e+03 3.746695709228515625e+01 -6.987636566162109375e+00 4.062575474381446838e-02 1.332442522048950195e+00 4.119204878807067871e-01 7.058103382587432861e-02
1.427000000000000000e+03 4.126352310180664062e+01 -3.762543106079101562e+01 4.533821046352386475e-01 4.464595317840576172e-01 2.699524760246276855e-01 -2.988255620002746582e-01
1.428000000000000000e+03 1.878410458564758301e+00 -2.106240463256835938e+01 3.448035195469856262e-02 -1.488521993160247803e-01 -3.431155160069465637e-02 -9.153700619935989380e-02
1.429000000000000000e+03 7.014295959472656250e+01 -1.535794925689697266e+01 -1.249617695808410645e+00 8.269779682159423828e-01 -1.267919093370437622e-01 -2.331289529800415039e+00
1.430000000000000000e+03 3.971398162841796875e+01 -2.543158721923828125e+01 2.467450797557830811e-01 8.641570806503295898e-01 3.332706391811370850e-01 3.171452581882476807e-01
1.431000000000000000e+03 2.728704643249511719e+01 2.853036308288574219e+01 -2.553489059209823608e-02 -1.959494948387145996e-01 -6.644531339406967163e-02 2.334569394588470459e-01
1.432000000000000000e+03 2.787920951843261719e+01 2.814253997802734375e+01 -2.964927554130554199e-01 -2.976861298084259033e-01 -1.782536655664443970e-01 2.930418550968170166e-01
1.433000000000000000e+03 5.764292907714843750e+01 2.221739768981933594e+01 -2.073121070861816406e+00 5.129956603050231934e-01 -4.680376648902893066e-01 -9.869787693023681641e-01
1.434000000000000000e+03 5.836680984497070312e+01 2.263592147827148438e+01 -2.978153944015502930e+00 1.732178591191768646e-02 -8.882496356964111328e-01 1.596747711300849915e-02
1.435000000000000000e+03 4.975142669677734375e+01 -2.578266143798828125e+01 -1.625570207834243774e-01 5.155200362205505371e-01 1.058889180421829224e-01 -6.211055517196655273e-01
1.436000000000000000e+03 6.334097290039062500e+01 -1.957366943359375000e+01 9.264832735061645508e-01 8.085306167602539062e+00 2.703536987304687500e+00 -4.505725502967834473e-01
1.437000000000000000e+03 6.576212310791015625e+01 -1.722499465942382812e+01 -1.104586958885192871e+00 4.219264984130859375e+00 9.344034194946289062e-01 8.388717770576477051e-01
1.438000000000000000e+03 5.110921859741210938e+01 -1.615316200256347656e+01 -5.075826048851013184e-01 -9.282389655709266663e-03 -1.550594866275787354e-01 1.761816740036010742e-01
1.439000000000000000e+03 4.875396347045898438e+01 -1.626352882385253906e+01 1.772944778203964233e-01 9.954414367675781250e-01 3.518207669258117676e-01 8.215053081512451172e-01
1.440000000000000000e+03 6.671029567718505859e+00 -2.206228446960449219e+01 2.692809998989105225e-01 1.543070971965789795e-01 1.270764321088790894e-01 -1.777020841836929321e-01
1.441000000000000000e+03 6.942113876342773438e+00 -2.362904357910156250e+01 1.634534001350402832e-01 5.834009870886802673e-02 6.653805077075958252e-02 -4.171089828014373779e-02
1.442000000000000000e+03 2.084757041931152344e+01 -2.689033508300781250e+01 8.854766488075256348e-01 3.163127303123474121e-01 3.605368137359619141e-01 -4.409601688385009766e-01
1.443000000000000000e+03 3.559981536865234375e+01 -2.917631721496582031e+01 4.989242851734161377e-01 1.613631546497344971e-01 1.980862319469451904e-01 -9.103341400623321533e-02
1.444000000000000000e+03 4.104732131958007812e+01 -2.804557037353515625e+01 4.844411611557006836e-01 8.865139484405517578e-01 4.112865328788757324e-01 5.529939532279968262e-01
1.445000000000000000e+03 4.833905410766601562e+01 -2.419901847839355469e+01 5.919512733817100525e-02 7.705755233764648438e-01 2.489311993122100830e-01 -4.018855988979339600e-01
1.446000000000000000e+03 3.806762313842773438e+01 -3.293190765380859375e+01 3.805277645587921143e-01 1.070638656616210938e+00 4.353499114513397217e-01 6.093014031648635864e-02
1.447000000000000000e+03 3.876485061645507812e+01 -3.341006851196289062e+01 3.048326671123504639e-01 1.489538073539733887e+00 5.383112430572509766e-01 -4.199528321623802185e-02
1.448000000000000000e+03 4.830052185058593750e+01 -3.778622436523437500e+01 3.634591102600097656e-01 2.290491819381713867e+00 7.961852550506591797e-01 1.117830634117126465e+00
1.449000000000000000e+03 3.949941635131835938e+01 -2.850533676147460938e+01 3.667874038219451904e-01 8.861367702484130859e-01 3.758772313594818115e-01 4.323411881923675537e-01
1.450000000000000000e+03 4.419596481323242188e+01 -3.909499359130859375e+01 6.836898326873779297e-01 3.752960264682769775e-01 3.176957666873931885e-01 1.125452667474746704e-01
1.451000000000000000e+03 4.831308364868164062e+01 -3.662558364868164062e+01 8.796667456626892090e-01 2.170163393020629883e+00 9.149490594863891602e-01 1.405485272407531738e+00
1.452000000000000000e+03 4.015155792236328125e+01 -2.883766174316406250e+01 4.912875592708587646e-01 1.000100493431091309e+00 4.474164247512817383e-01 5.568582415580749512e-01
1.453000000000000000e+03 3.769612884521484375e+01 -2.803137016296386719e+01 2.665098011493682861e-01 3.913549482822418213e-01 1.973594278097152710e-01 2.541194558143615723e-01
1.454000000000000000e+03 3.901296615600585938e+01 -3.099099922180175781e+01 4.124405682086944580e-01 1.205260038375854492e+00 4.853101670742034912e-01 4.300241470336914062e-01
1.455000000000000000e+03 3.445785903930664062e+01 -2.895115852355957031e+01 5.141949653625488281e-01 1.689525395631790161e-01 2.049442380666732788e-01 -1.942046731710433960e-01
1.456000000000000000e+03 5.038593673706054688e+01 -2.530525779724121094e+01 -8.367342948913574219e-01 1.359201669692993164e-01 -2.102442383766174316e-01 -1.970031559467315674e-01
1.457000000000000000e+03 4.874006652832031250e+01 -2.970134925842285156e+01 7.912348508834838867e-01 1.215940952301025391e+00 6.021527647972106934e-01 -7.377551794052124023e-01
1.458000000000000000e+03 5.108477783203125000e+01 -2.639915657043457031e+01 2.305026948451995850e-01 6.395899653434753418e-01 2.610278129577636719e-01 2.800873853266239166e-02
1.459000000000000000e+03 4.985746002197265625e+01 -3.332205200195312500e+01 7.251752614974975586e-01 3.615177392959594727e+00 1.302105784416198730e+00 1.176169395446777344e+00
1.460000000000000000e+03 4.711162948608398438e+01 -2.207522392272949219e+01 5.283542275428771973e-01 2.150132656097412109e+00 8.035460114479064941e-01 -6.446390151977539062e-01
1.461000000000000000e+03 4.759051895141601562e+01 -2.873124885559082031e+01 7.556552290916442871e-01 7.112569212913513184e-01 4.400736391544342041e-01 -6.888445019721984863e-01
1.462000000000000000e+03 5.554813385009765625e+01 -3.249858856201171875e+01 1.132992744445800781e+00 7.438113212585449219e+00 2.571331739425659180e+00 1.121936917304992676e+00
1.463000000000000000e+03 4.891385269165039062e+01 -3.623106384277343750e+01 8.617244362831115723e-01 2.998042583465576172e+00 1.157930135726928711e+00 1.392348289489746094e+00
1.464000000000000000e+03 4.875823211669921875e+01 -2.376529502868652344e+01 2.018537074327468872e-01 4.524009823799133301e-01 1.962764114141464233e-01 -3.796400129795074463e-01
1.465000000000000000e+03 4.777552795410156250e+01 -2.369625282287597656e+01 1.617093384265899658e-01 9.349634647369384766e-01 3.290018439292907715e-01 -5.224317908287048340e-01
1.466000000000000000e+03 3.991164779663085938e+01 -3.614878082275390625e+01 2.562639415264129639e-01 8.104987740516662598e-01 3.200288116931915283e-01 -3.946626782417297363e-01
1.467000000000000000e+03 1.532903861999511719e+01 -2.292898368835449219e+01 -1.454406380653381348e-01 -5.498831272125244141e-01 -2.085971236228942871e-01 -4.085293412208557129e-01
1.468000000000000000e+03 1.528756141662597656e+01 -2.135084533691406250e+01 -5.017631053924560547e-01 -7.028189897537231445e-01 -3.613746166229248047e-01 -4.725960195064544678e-01
1.469000000000000000e+03 7.353718566894531250e+01 -2.115285301208496094e+01 4.425574839115142822e-01 1.451182079315185547e+01 4.486313819885253906e+00 -6.181648969650268555e-01
1.470000000000000000e+03 7.891109466552734375e+01 -1.867134094238281250e+01 5.996197462081909180e-02 7.618152141571044922e+00 2.303434133529663086e+00 6.238036751747131348e-01
1.471000000000000000e+03 6.713253784179687500e+01 -2.949156188964843750e+01 1.414813995361328125e+00 5.223599433898925781e+00 1.991524100303649902e+00 -1.677965283393859863e+00
1.472000000000000000e+03 7.063092803955078125e+01 -2.665729713439941406e+01 -3.249085187911987305e+00 2.897152900695800781e-01 -8.878110051155090332e-01 7.280300259590148926e-01
1.473000000000000000e+03 7.966615295410156250e+01 -2.198690795898437500e+01 3.775957226753234863e-02 6.154812812805175781e+00 1.857771754264831543e+00 -2.021225914359092712e-02
1.474000000000000000e+03 7.348112487792968750e+01 -2.350010871887207031e+01 1.156329035758972168e+00 1.501749801635742188e+01 4.852148056030273438e+00 2.157960176467895508e+00
1.475000000000000000e+03 7.355239105224609375e+01 -2.563745117187500000e+01 -1.443027615547180176e+00 7.815300464630126953e+00 1.911681890487670898e+00 9.231810569763183594e-01
1.476000000000000000e+03 6.449597167968750000e+01 -2.224560165405273438e+01 2.727380990982055664e+00 1.069451236724853516e+01 4.026567935943603516e+00 -2.321684360504150391e+00
1.477000000000000000e+03 6.495616912841796875e+01 -1.973409271240234375e+01 1.899506896734237671e-01 1.140686130523681641e+01 3.479043483734130859e+00 7.809128761291503906e-01
1.478000000000000000e+03 7.130390167236328125e+01 -1.715600204467773438e+01 1.445568919181823730e+00 1.893445372581481934e+00 1.001704335212707520e+00 -1.508748531341552734e+00
1.479000000000000000e+03 7.046871948242187500e+01 -1.255204105377197266e+01 2.543576955795288086e-01 -1.439124718308448792e-02 7.198993861675262451e-02 -2.106582403182983398e+00
1.480000000000000000e+03 7.816462707519531250e+01 -1.521479797363281250e+01 -2.949027717113494873e-01 8.680434226989746094e+00 2.515659570693969727e+00 6.428731679916381836e-01
1.481000000000000000e+03 6.282330322265625000e+01 -2.663550376892089844e+01 -2.991819858551025391e+00 1.960991740226745605e+00 -3.092484772205352783e-01 -5.064380764961242676e-01
1.482000000000000000e+03 3.644315600395202637e-01 -2.035717582702636719e+01 1.977200387045741081e-03 -1.373682767152786255e-01 -4.061732068657875061e-02 -2.765660360455513000e-02
1.483000000000000000e+03 7.783993721008300781e+00 3.512075424194335938e+01 3.101807236671447754e-01 5.590553209185600281e-02 1.098258793354034424e-01 7.845051586627960205e-02
1.484000000000000000e+03 1.017030429840087891e+01 3.495249557495117188e+01 5.686930418014526367e-01 9.954719245433807373e-02 2.004720717668533325e-01 1.045043170452117920e-01
1.485000000000000000e+03 7.140735626220703125e+01 -2.642666816711425781e+01 -2.615430355072021484e+00 1.220178365707397461e+00 -4.185756444931030273e-01 1.083775877952575684e+00
1.486000000000000000e+03 7.183805847167968750e+01 -1.769729232788085938e+01 1.670836806297302246e+00 2.877220153808593750e+00 1.364417076110839844e+00 -2.144274711608886719e+00
1.487000000000000000e+03 6.697743225097656250e+01 -2.587294960021972656e+01 -2.063884973526000977e+00 4.603425502777099609e+00 7.618621587753295898e-01 -1.700728178024291992e+00
1.488000000000000000e+03 6.767171478271484375e+01 -1.546825408935546875e+01 -2.009271621704101562e+00 6.194105744361877441e-01 -4.169583022594451904e-01 -9.561462998390197754e-01
1.489000000000000000e+03 6.889839935302734375e+01 -1.632999229431152344e+01 -4.772960186004638672e+00 -3.457659184932708740e-01 -1.535617828369140625e+00 -9.995422363281250000e-01
1.490000000000000000e+03 6.495076751708984375e+01 -2.048884963989257812e+01 3.870187699794769287e-01 1.253931427001953125e+01 3.877899885177612305e+00 2.970784008502960205e-01
1.491000000000000000e+03 6.438362884521484375e+01 -2.142171287536621094e+01 1.883484840393066406e+00 1.117633628845214844e+01 3.917946338653564453e+00 -1.534486651420593262e+00
1.492000000000000000e+03 7.151395416259765625e+01 -1.626703071594238281e+01 -1.710619181394577026e-01 2.729650020599365234e+00 7.675764560699462891e-01 -1.651481747627258301e+00
1.493000000000000000e+03 7.214894104003906250e+01 -2.615400505065917969e+01 -1.826284527778625488e+00 3.376908302307128906e+00 4.651871621608734131e-01 1.934446334838867188e+00
1.494000000000000000e+03 6.406723022460937500e+01 -1.928164100646972656e+01 6.616301536560058594e-01 8.825277328491210938e+00 2.846072435379028320e+00 -3.423237055540084839e-02
1.495000000000000000e+03 6.517635345458984375e+01 3.087211227416992188e+01 5.659746527671813965e-01 4.685461521148681641e+00 1.575430870056152344e+00 3.174302875995635986e-01
1.496000000000000000e+03 6.466313934326171875e+01 3.188533210754394531e+01 5.329009890556335449e-01 4.440330982208251953e+00 1.491969585418701172e+00 1.587988287210464478e-01
1.497000000000000000e+03 1.132527256011962891e+01 -2.452041244506835938e+01 -7.651497609913349152e-03 -2.506195902824401855e-01 -7.748132944107055664e-02 -2.917131781578063965e-01
1.498000000000000000e+03 1.666328430175781250e+01 -8.949009895324707031e+00 -5.199950560927391052e-02 6.670636683702468872e-02 4.412056878209114075e-03 5.481069907546043396e-02
1.499000000000000000e+03 1.557398986816406250e+01 -1.655748558044433594e+01 8.179882168769836426e-02 5.456395745277404785e-01 1.882315129041671753e-01 -2.046295851469039917e-01
1.500000000000000000e+03 1.913043403625488281e+01 -1.267197990417480469e+01 -3.022953569889068604e-01 -8.106971532106399536e-02 -1.150095239281654358e-01 1.357469707727432251e-01
1.501000000000000000e+03 7.837559509277343750e+01 -2.254949760437011719e+01 3.055680990219116211e-01 7.337097644805908203e+00 2.292799711227416992e+00 -2.272931039333343506e-01
1.502000000000000000e+03 1.434987545013427734e+01 -1.445630168914794922e+01 1.752542555332183838e-01 3.463040888309478760e-01 1.564675122499465942e-01 -2.318031638860702515e-01
1.503000000000000000e+03 1.758273506164550781e+01 -9.551821708679199219e+00 -6.501839309930801392e-02 -2.633156999945640564e-02 -2.740498818457126617e-02 6.522852927446365356e-02
1.504000000000000000e+03 1.619830131530761719e+01 -1.635316848754882812e+01 9.606767445802688599e-02 2.329211831092834473e-01 9.869665652513504028e-02 -2.274374812841415405e-01
1.505000000000000000e+03 7.289293670654296875e+01 -1.796679687500000000e+01 9.023038148880004883e-01 6.208381652832031250e+00 2.133205652236938477e+00 -2.099891185760498047e+00
1.506000000000000000e+03 7.240525054931640625e+01 -1.736739730834960938e+01 9.587001204490661621e-01 4.408973217010498047e+00 1.610301971435546875e+00 -1.862671494483947754e+00
1.507000000000000000e+03 6.703444671630859375e+01 -1.525785350799560547e+01 -1.974899768829345703e+00 1.589823961257934570e+00 -1.155227720737457275e-01 -1.876508742570877075e-01
1.508000000000000000e+03 6.677334594726562500e+01 -1.610046386718750000e+01 -4.136980056762695312e+00 7.023476958274841309e-01 -1.030389666557312012e+00 -1.111762225627899170e-01
1.509000000000000000e+03 1.207091140747070312e+01 -1.238561534881591797e+01 -1.067372933030128479e-01 4.469112679362297058e-02 -1.861384883522987366e-02 -3.810552880167961121e-02
1.510000000000000000e+03 1.167150211334228516e+01 -1.297315406799316406e+01 -1.056889668107032776e-01 2.801650771289132535e-05 -3.169828653335571289e-02 -5.268297158181667328e-03
1.511000000000000000e+03 7.193033599853515625e+01 -1.681149291992187500e+01 3.540752232074737549e-01 3.240435600280761719e+00 1.078353285789489746e+00 -1.487184643745422363e+00
1.512000000000000000e+03 7.964839935302734375e+01 -2.437574195861816406e+01 6.023536901921033859e-03 6.942895412445068359e+00 2.084675788879394531e+00 -1.911264806985855103e-01
1.513000000000000000e+03 6.430722808837890625e+01 -2.066073036193847656e+01 1.076369643211364746e+00 1.076882648468017578e+01 3.553558826446533203e+00 -7.418411374092102051e-01
1.514000000000000000e+03 6.356414794921875000e+01 -2.648822402954101562e+01 -2.281328439712524414e+00 4.865317344665527344e+00 7.751966714859008789e-01 -1.788552284240722656e+00
1.515000000000000000e+03 6.374922180175781250e+01 -2.710504341125488281e+01 -2.229236125946044922e+00 5.083508491516113281e+00 8.562817573547363281e-01 -1.589695096015930176e+00
1.516000000000000000e+03 1.083629798889160156e+01 -1.171633529663085938e+01 -1.524197161197662354e-01 -3.137379884719848633e-02 -5.513805523514747620e-02 -1.082274764776229858e-01
1.517000000000000000e+03 9.682609558105468750e+00 -1.213349723815917969e+01 -2.782047390937805176e-01 -1.578954011201858521e-01 -1.308300346136093140e-01 -1.077580228447914124e-01
1.518000000000000000e+03 3.502992093563079834e-01 -1.793649864196777344e+01 -2.402923069894313812e-03 5.632914602756500244e-02 1.617786660790443420e-02 -2.461103722453117371e-02
1.519000000000000000e+03 1.223455429077148438e+01 -2.236439132690429688e+01 -3.355183303356170654e-01 -1.342313736677169800e-01 -1.409249156713485718e-01 -2.192417681217193604e-01
1.520000000000000000e+03 6.140979003906250000e+01 3.442822265625000000e+01 -1.690100282430648804e-01 4.853559732437133789e-01 9.490378201007843018e-02 -1.915704756975173950e-01
1.521000000000000000e+03 6.300043487548828125e+01 3.276531219482421875e+01 7.173955440521240234e-01 3.995175361633300781e+00 1.413771271705627441e+00 -9.681152701377868652e-01
1.522000000000000000e+03 3.607602119445800781e-01 -1.552573680877685547e+01 -3.183056833222508430e-03 1.709201931953430176e-01 5.032113939523696899e-02 -8.431029506027698517e-03
1.523000000000000000e+03 1.087476968765258789e+00 -1.544506835937500000e+01 -1.088058482855558395e-02 9.910355508327484131e-02 2.646689116954803467e-02 -2.478726394474506378e-02
1.524000000000000000e+03 8.559473991394042969e+00 -1.231647682189941406e+01 -2.160328030586242676e-01 -1.216830611228942871e-01 -1.013147607445716858e-01 -9.285133332014083862e-02
1.525000000000000000e+03 5.251316452026367188e+01 2.817525482177734375e+01 9.292834401130676270e-01 5.039200782775878906e+00 1.790545225143432617e+00 -7.414468526840209961e-01
1.526000000000000000e+03 1.272050762176513672e+01 -1.270667362213134766e+01 -7.335009425878524780e-02 7.594677060842514038e-02 7.790028466843068600e-04 -6.977298110723495483e-02
1.527000000000000000e+03 1.831484556198120117e+00 -2.195864868164062500e+01 4.046929255127906799e-02 -1.725764125585556030e-01 -3.963213413953781128e-02 -5.767482519149780273e-02
1.528000000000000000e+03 3.590947091579437256e-01 -2.441582489013671875e+01 1.279258634895086288e-03 -2.650461494922637939e-01 -7.913006842136383057e-02 2.865526825189590454e-03
1.529000000000000000e+03 1.805278015136718750e+01 -1.025240516662597656e+01 -1.361285299062728882e-01 -9.177763760089874268e-02 -6.837184727191925049e-02 1.041475757956504822e-01
1.530000000000000000e+03 1.207543373107910156e+01 -2.385377502441406250e+01 -3.498899564146995544e-02 -3.247152566909790039e-01 -1.079112738370895386e-01 -3.304214775562286377e-01
1.531000000000000000e+03 9.977908134460449219e+00 -2.338999748229980469e+01 1.154067143797874451e-01 -2.782260626554489136e-02 2.627523243427276611e-02 -1.282155066728591919e-01
1.532000000000000000e+03 9.208362579345703125e+00 -2.346735191345214844e+01 1.913471668958663940e-01 1.461613364517688751e-02 6.178899109363555908e-02 -1.199849843978881836e-01
1.533000000000000000e+03 1.072866058349609375e+01 -2.329233932495117188e+01 1.813334040343761444e-02 -8.372472226619720459e-02 -1.967741362750530243e-02 -1.640858203172683716e-01
1.534000000000000000e+03 1.685500144958496094e+01 -1.611237335205078125e+01 3.227733075618743896e-02 9.156481176614761353e-02 3.715264424681663513e-02 -2.374381273984909058e-01
1.535000000000000000e+03 1.628931236267089844e+01 -1.910213279724121094e+01 -2.577025890350341797e-01 -3.520815074443817139e-01 -1.829352229833602905e-01 -5.254690051078796387e-01
1.536000000000000000e+03 1.696275901794433594e+01 -1.927852439880371094e+01 -3.626646697521209717e-01 -1.876922845840454102e-01 -1.651070863008499146e-01 -5.796599388122558594e-01
1.537000000000000000e+03 1.643686866760253906e+01 -1.726226043701171875e+01 1.477878447622060776e-02 6.339875608682632446e-02 2.345326356589794159e-02 -3.388486206531524658e-01
1.538000000000000000e+03 1.146280860900878906e+01 -2.319709968566894531e+01 -8.361477404832839966e-02 -1.453371495008468628e-01 -6.868557631969451904e-02 -2.285348474979400635e-01
1.539000000000000000e+03 6.393568038940429688e+00 -1.566843223571777344e+01 -1.558317840099334717e-01 -3.140216171741485596e-01 -1.409560143947601318e-01 -2.148540467023849487e-01
1.540000000000000000e+03 1.842970371246337891e+00 -1.297210216522216797e+01 -1.168366428464651108e-02 6.332521140575408936e-02 1.549246348440647125e-02 5.934463813900947571e-03
1.541000000000000000e+03 1.713556289672851562e+01 -2.553598213195800781e+01 1.968499720096588135e-01 -2.601009905338287354e-01 -1.897530443966388702e-02 -3.261853456497192383e-01
1.542000000000000000e+03 6.305754661560058594e+00 -1.458691120147705078e+01 -1.428247243165969849e-01 -2.371739298105239868e-01 -1.139995977282524109e-01 -1.566514521837234497e-01
1.543000000000000000e+03 1.817096114158630371e+00 -1.619684982299804688e+01 -2.895335666835308075e-02 2.184436097741127014e-02 -2.132698893547058105e-03 -5.915393307805061340e-02
1.544000000000000000e+03 1.287244987487792969e+01 -2.310896301269531250e+01 -1.299456059932708740e-01 -4.154839813709259033e-01 -1.636288762092590332e-01 -3.854358792304992676e-01
1.545000000000000000e+03 1.646773719787597656e+01 -1.819944953918457031e+01 -8.144593238830566406e-02 -1.231377273797988892e-01 -6.137509644031524658e-02 -4.154312908649444580e-01
1.546000000000000000e+03 1.218350028991699219e+01 -2.312886238098144531e+01 -1.660597771406173706e-01 -2.742831707000732422e-01 -1.321028769016265869e-01 -3.343066871166229248e-01
1.547000000000000000e+03 6.390064239501953125e+01 2.554560279846191406e+01 1.650964736938476562e+00 5.077197074890136719e+00 2.018448591232299805e+00 1.370941877365112305e+00
1.548000000000000000e+03 6.384948348999023438e+01 2.775510787963867188e+01 8.114362359046936035e-01 6.266574382781982422e+00 2.123403072357177734e+00 1.384324193000793457e+00
1.549000000000000000e+03 8.505269050598144531e+00 2.378150939941406250e+01 -5.093498826026916504e-01 -3.675674796104431152e-01 -2.630752027034759521e-01 3.807253837585449219e-01
1.550000000000000000e+03 1.176075363159179688e+01 1.788625335693359375e+01 4.938288629055023193e-01 4.094215631484985352e-01 2.709751427173614502e-01 4.751342535018920898e-01
1.551000000000000000e+03 5.967563247680664062e+01 2.378105163574218750e+01 -3.560053825378417969e+00 7.450110465288162231e-02 -1.045665860176086426e+00 -4.114484786987304688e-01
1.552000000000000000e+03 2.416347122192382812e+01 3.050035858154296875e+01 9.406242519617080688e-02 4.519392848014831543e-01 1.638005077838897705e-01 2.715006768703460693e-01
1.553000000000000000e+03 1.988008880615234375e+01 3.180605888366699219e+01 -1.093733608722686768e-01 -4.723907113075256348e-01 -1.745292246341705322e-01 9.328117221593856812e-02
1.554000000000000000e+03 6.406124114990234375e+01 2.478096008300781250e+01 1.131466865539550781e+00 4.472472190856933594e+00 1.681181669235229492e+00 1.313656806945800781e+00
1.555000000000000000e+03 5.385058975219726562e+01 2.521955871582031250e+01 1.987421959638595581e-01 4.942811012268066406e+00 1.542465925216674805e+00 -9.662140607833862305e-01
1.556000000000000000e+03 5.576375579833984375e+01 3.454726028442382812e+01 2.399597465991973877e-01 1.334983229637145996e+00 4.724828898906707764e-01 7.770819664001464844e-01
1.557000000000000000e+03 6.333973693847656250e+01 2.461147308349609375e+01 7.315583229064941406e-01 4.696532249450683594e+00 1.628427267074584961e+00 1.607679486274719238e+00
1.558000000000000000e+03 3.196455192565917969e+01 1.600612068176269531e+01 4.169568717479705811e-01 7.466205358505249023e-01 3.490732312202453613e-01 4.029522538185119629e-01
1.559000000000000000e+03 1.882729721069335938e+01 2.538189506530761719e+01 7.276657819747924805e-01 5.454961657524108887e-01 3.819485902786254883e-01 5.957181453704833984e-01
1.560000000000000000e+03 1.326328182220458984e+01 3.773637771606445312e+00 -2.897759974002838135e-01 -1.027320325374603271e-01 -1.177524104714393616e-01 3.009127080440521240e-01
1.561000000000000000e+03 1.347477149963378906e+01 3.242522239685058594e+00 -2.683319747447967529e-01 -6.423998624086380005e-02 -9.977158904075622559e-02 2.791869044303894043e-01
1.562000000000000000e+03 1.559769725799560547e+01 6.815727710723876953e+00 4.535322543233633041e-03 4.596102237701416016e-02 1.514890324324369431e-02 1.497229188680648804e-01
1.563000000000000000e+03 1.123322391510009766e+01 5.646597862243652344e+00 -4.115840792655944824e-01 -2.513783276081085205e-01 -1.988887190818786621e-01 1.963129788637161255e-01
1.564000000000000000e+03 5.623019027709960938e+01 2.334483146667480469e+01 -2.616321086883544922e+00 1.975221276283264160e+00 -1.923299580812454224e-01 -1.140051364898681641e+00
1.565000000000000000e+03 4.701500701904296875e+01 2.862243652343750000e+01 6.296715736389160156e-01 2.393051624298095703e+00 9.068169593811035156e-01 -5.759869217872619629e-01
1.566000000000000000e+03 5.322222137451171875e+01 2.957464599609375000e+01 3.283902108669281006e-01 5.851403713226318359e+00 1.853938102722167969e+00 -7.655560970306396484e-02
1.567000000000000000e+03 6.347120666503906250e+01 2.040180206298828125e+01 -2.139157056808471680e+00 2.867662429809570312e+00 2.185515910387039185e-01 2.468266248703002930e+00
1.568000000000000000e+03 5.353958511352539062e+01 3.198150825500488281e+01 6.881809830665588379e-01 4.721472263336181641e+00 1.622896075248718262e+00 5.405794978141784668e-01
1.569000000000000000e+03 3.722404837608337402e-01 2.359862899780273438e+01 -1.739962142892181873e-03 -3.635621666908264160e-01 -1.095906421542167664e-01 -1.026607770472764969e-02
1.570000000000000000e+03 6.317758083343505859e+00 2.593477439880371094e+01 -3.373154699802398682e-01 -1.042602062225341797e+00 -4.139752686023712158e-01 4.601943194866180420e-01
1.571000000000000000e+03 6.258865737915039062e+01 2.043719291687011719e+01 -1.971757292747497559e+00 4.409908294677734375e+00 7.314452528953552246e-01 2.542225837707519531e+00
1.572000000000000000e+03 5.441247558593750000e+01 2.480967330932617188e+01 4.760103300213813782e-02 4.632783889770507812e+00 1.404115557670593262e+00 -1.479522347450256348e+00
1.573000000000000000e+03 5.407487487792968750e+01 3.349918365478515625e+01 2.818484306335449219e-01 3.394506454467773438e+00 1.102906465530395508e+00 6.854689121246337891e-01
1.574000000000000000e+03 2.338872718811035156e+01 2.742301177978515625e+01 6.317430138587951660e-01 5.904407501220703125e-01 3.666551411151885986e-01 6.160978674888610840e-01
1.575000000000000000e+03 2.460020828247070312e+01 2.881967353820800781e+01 7.399932742118835449e-01 7.330971956253051758e-01 4.419271349906921387e-01 5.282610654830932617e-01
1.576000000000000000e+03 6.316695404052734375e+01 3.553117752075195312e+01 -5.217652320861816406e-01 2.850303173065185547e+00 6.985613703727722168e-01 -4.963009655475616455e-01
1.577000000000000000e+03 1.221640968322753906e+01 3.563352584838867188e+01 2.353207617998123169e-01 -1.477188523858785629e-02 6.616466492414474487e-02 7.763984799385070801e-02
1.578000000000000000e+03 6.302906799316406250e+01 3.391839599609375000e+01 -2.015696614980697632e-01 3.294843912124633789e+00 9.279822707176208496e-01 -6.155443787574768066e-01
1.579000000000000000e+03 6.221284866333007812e+01 3.507372665405273438e+01 -4.542041718959808350e-01 1.996343612670898438e+00 4.626418650150299072e-01 -4.263574779033660889e-01
1.580000000000000000e+03 6.451835632324218750e+01 1.983260917663574219e+01 -3.583180904388427734e+00 2.432953119277954102e-01 -1.001965641975402832e+00 1.753341108560562134e-01
1.581000000000000000e+03 6.295660781860351562e+01 2.240364837646484375e+01 -2.056358814239501953e+00 3.964430570602416992e+00 5.724215507507324219e-01 2.576414108276367188e+00
1.582000000000000000e+03 5.438554763793945312e+01 3.421471405029296875e+01 3.614203259348869324e-02 2.807283639907836914e+00 8.530277013778686523e-01 6.433417201042175293e-01
1.583000000000000000e+03 1.823616600036621094e+01 2.494017982482910156e+01 9.598735570907592773e-01 5.954684615135192871e-01 4.666025936603546143e-01 7.155419588088989258e-01
1.584000000000000000e+03 2.166963768005371094e+01 2.212897109985351562e+01 4.056395217776298523e-02 -1.934306621551513672e-01 -4.586001485586166382e-02 1.306539773941040039e-02
1.585000000000000000e+03 6.057540893554687500e+01 2.351567268371582031e+01 -1.967522621154785156e+00 1.921038866043090820e+00 -1.394513249397277832e-02 1.600173234939575195e+00
1.586000000000000000e+03 5.466450881958007812e+01 3.491748428344726562e+01 -2.698190212249755859e-01 2.493390321731567383e+00 6.670714020729064941e-01 6.196091175079345703e-01
1.587000000000000000e+03 5.871356964111328125e+00 2.788205909729003906e+01 -3.460385277867317200e-02 -1.061084747314453125e+00 -3.287065923213958740e-01 9.519849717617034912e-02
1.588000000000000000e+03 6.384226989746093750e+01 2.848577308654785156e+01 3.289404511451721191e-01 5.997959136962890625e+00 1.898069858551025391e+00 8.399364948272705078e-01
1.589000000000000000e+03 5.987470626831054688e+01 2.323832130432128906e+01 -2.878705501556396484e+00 1.042220950126647949e+00 -5.509454011917114258e-01 8.312052488327026367e-01
1.590000000000000000e+03 5.915504455566406250e+01 2.293528556823730469e+01 -3.587464570999145508e+00 5.282450914382934570e-01 -9.177658557891845703e-01 5.903493762016296387e-01
1.591000000000000000e+03 6.393877792358398438e+01 2.987307548522949219e+01 1.695856004953384399e-01 5.352748394012451172e+00 1.656700134277343750e+00 2.590660452842712402e-01
1.592000000000000000e+03 6.320002746582031250e+01 2.928866004943847656e+01 4.523624479770660400e-02 5.475234985351562500e+00 1.656141400337219238e+00 1.564604490995407104e-01
1.593000000000000000e+03 5.528699493408203125e+01 3.603256607055664062e+01 -2.567803561687469482e-01 2.015773773193359375e+00 5.276980400085449219e-01 7.166043519973754883e-01
1.594000000000000000e+03 5.499448776245117188e+01 2.434533882141113281e+01 -3.466608226299285889e-01 3.379571437835693359e+00 9.098731875419616699e-01 -1.493567228317260742e+00
1.595000000000000000e+03 5.592937850952148438e+01 2.441106796264648438e+01 1.473146378993988037e-01 1.397593379020690918e+00 4.634724259376525879e-01 -9.759302735328674316e-01
1.596000000000000000e+03 6.411914825439453125e+01 3.054437255859375000e+01 3.241646587848663330e-01 5.169349193572998047e+00 1.648054242134094238e+00 -9.499523043632507324e-02
1.597000000000000000e+03 5.559157943725585938e+01 2.385293960571289062e+01 -1.032901287078857422e+00 2.699376821517944336e+00 4.999426603317260742e-01 -1.058535814285278320e+00
1.598000000000000000e+03 6.447270202636718750e+01 2.911236572265625000e+01 4.539349377155303955e-01 5.376531124114990234e+00 1.749139904975891113e+00 7.157931923866271973e-01
1.599000000000000000e+03 6.385087203979492188e+01 2.918938255310058594e+01 1.718334704637527466e-01 5.525248527526855469e+00 1.709124565124511719e+00 4.419893324375152588e-01
1.600000000000000000e+03 5.391261672973632812e+01 2.950494194030761719e+01 1.884428039193153381e-02 6.240992069244384766e+00 1.877950906753540039e+00 -3.261375799775123596e-02
1.601000000000000000e+03 6.256891250610351562e+01 3.438877487182617188e+01 -2.554009556770324707e-01 2.194102048873901367e+00 5.816103219985961914e-01 -7.429159283638000488e-01
1.602000000000000000e+03 8.648707389831542969e+00 3.431436157226562500e+01 6.074625253677368164e-01 2.065513432025909424e-01 2.442041635513305664e-01 3.316282033920288086e-01
1.603000000000000000e+03 6.984622001647949219e+00 3.247548294067382812e+01 1.595146209001541138e-01 1.453241109848022461e-01 9.145162254571914673e-02 1.547394841909408569e-01
1.604000000000000000e+03 2.541951751708984375e+01 2.879325485229492188e+01 9.365565776824951172e-01 5.759466290473937988e-01 4.537509679794311523e-01 6.362577080726623535e-01
1.605000000000000000e+03 2.053207588195800781e+01 3.337886428833007812e+01 1.546238921582698822e-02 -2.426989525556564331e-01 -6.817097216844558716e-02 8.391111157834529877e-03
1.606000000000000000e+03 7.915519237518310547e+00 2.430120086669921875e+01 -3.858035504817962646e-01 -3.947117328643798828e-01 -2.341545820236206055e-01 3.821727037429809570e-01
1.607000000000000000e+03 8.210623741149902344e+00 2.328638458251953125e+01 -4.027909934520721436e-01 -3.221078515052795410e-01 -2.174696624279022217e-01 2.532856166362762451e-01
1.608000000000000000e+03 6.017756652832031250e+01 1.063754272460937500e+01 1.835162162780761719e+00 8.193813323974609375e+00 3.008692502975463867e+00 -1.460005283355712891e+00
1.609000000000000000e+03 6.474375152587890625e+01 7.125757694244384766e+00 -5.349555015563964844e+00 1.116998121142387390e-01 -1.571356534957885742e+00 9.894148707389831543e-01
1.610000000000000000e+03 6.135250854492187500e+01 6.638685703277587891e+00 -2.750870704650878906e+00 6.518259048461914062e+00 1.130216479301452637e+00 -1.882092595100402832e+00
1.611000000000000000e+03 6.727630615234375000e+01 7.094857215881347656e+00 -5.360611915588378906e+00 7.325900718569755554e-03 -1.605985760688781738e+00 -3.914116024971008301e-01
1.612000000000000000e+03 1.921653366088867188e+01 3.247094726562500000e+01 -1.014770790934562683e-01 -4.609491825103759766e-01 -1.687278747558593750e-01 1.531819999217987061e-01
1.613000000000000000e+03 5.917216300964355469e+00 2.867059707641601562e+01 -2.185628749430179596e-02 -8.432279229164123535e-01 -2.595252692699432373e-01 2.803157456219196320e-02
1.614000000000000000e+03 1.622008705139160156e+01 2.380742073059082031e+01 1.268641233444213867e+00 3.001024723052978516e-01 4.706231057643890381e-01 5.693836212158203125e-01
1.615000000000000000e+03 2.188378715515136719e+01 2.298389816284179688e+01 9.896362572908401489e-02 -1.713430285453796387e-01 -2.171382308006286621e-02 9.819430112838745117e-02
1.616000000000000000e+03 2.056216001510620117e+00 3.557954025268554688e+01 4.087453335523605347e-02 -8.947265744209289551e-01 -2.561556100845336914e-01 1.854657009243965149e-02
1.617000000000000000e+03 1.860537719726562500e+01 3.315904617309570312e+01 -6.971916556358337402e-02 -3.708958923816680908e-01 -1.321845054626464844e-01 1.622256785631179810e-01
1.618000000000000000e+03 1.796004295349121094e+01 3.382867050170898438e+01 -2.016112208366394043e-02 -2.975906133651733398e-01 -9.532552212476730347e-02 1.546669453382492065e-01
1.619000000000000000e+03 1.187031984329223633e+00 3.399525070190429688e+01 1.756787672638893127e-02 -1.006727337837219238e+00 -2.967478334903717041e-01 5.154826119542121887e-02
1.620000000000000000e+03 1.474894618988037109e+01 2.329380607604980469e+01 9.313148260116577148e-01 1.328098326921463013e-01 3.192374110221862793e-01 3.484082221984863281e-01
1.621000000000000000e+03 1.713101005554199219e+01 3.436997985839843750e+01 1.457437407225370407e-02 -2.330921441316604614e-01 -6.555533409118652344e-02 1.458667665719985962e-01
1.622000000000000000e+03 1.711840629577636719e+01 2.357770347595214844e+01 9.172599911689758301e-01 3.996669054031372070e-01 3.950780630111694336e-01 4.922479689121246338e-01
1.623000000000000000e+03 1.779945945739746094e+01 2.390304756164550781e+01 8.844002485275268555e-01 4.101205468177795410e-01 3.883562386035919189e-01 4.869153797626495361e-01
1.624000000000000000e+03 1.569466400146484375e+01 2.299894714355468750e+01 8.124037384986877441e-01 2.698560059070587158e-01 3.246779441833496094e-01 4.586059749126434326e-01
1.625000000000000000e+03 1.293433952331542969e+01 3.541190338134765625e+01 1.900591105222702026e-01 -2.175861969590187073e-02 5.049014464020729065e-02 7.339459657669067383e-02
1.626000000000000000e+03 1.583341312408447266e+01 3.370685577392578125e+01 -9.591770172119140625e-02 -8.740695565938949585e-02 -5.499739572405815125e-02 9.457764774560928345e-02
1.627000000000000000e+03 1.443159770965576172e+01 3.436291885375976562e+01 8.649858087301254272e-02 -3.714256361126899719e-02 1.480680424720048904e-02 4.779412224888801575e-02
1.628000000000000000e+03 1.743978261947631836e+00 3.063430213928222656e+01 1.941225863993167877e-02 -7.598984241485595703e-01 -2.221458554267883301e-01 1.756985634565353394e-01
1.629000000000000000e+03 1.376973915100097656e+01 3.538923645019531250e+01 1.625966578722000122e-01 -3.427153080701828003e-02 3.849754109978675842e-02 8.328486233949661255e-02
1.630000000000000000e+03 1.757145881652832031e+01 1.910428047180175781e+01 -2.950848639011383057e-01 -1.266801357269287109e-01 -1.265294998884201050e-01 1.657259017229080200e-01
1.631000000000000000e+03 1.149930953979492188e+01 2.195007514953613281e+01 -3.984639421105384827e-02 3.764482960104942322e-02 -6.604690570384263992e-04 2.807533740997314453e-01
1.632000000000000000e+03 7.568105697631835938e+00 2.377198791503906250e+01 -3.639146089553833008e-01 -4.107465744018554688e-01 -2.323983609676361084e-01 3.182875812053680420e-01
1.633000000000000000e+03 1.528045082092285156e+01 1.915260124206542969e+01 -1.839211434125900269e-01 -5.180853605270385742e-02 -7.071890681982040405e-02 3.895348906517028809e-01
1.634000000000000000e+03 3.250142633914947510e-01 2.843267631530761719e+01 -5.264955572783946991e-03 -5.608062744140625000e-01 -1.698213666677474976e-01 3.838814049959182739e-02
1.635000000000000000e+03 3.243933320045471191e-01 2.922720527648925781e+01 1.582778175361454487e-03 -6.630285382270812988e-01 -1.984337270259857178e-01 4.293985664844512939e-02
1.636000000000000000e+03 6.976861476898193359e+00 2.427387237548828125e+01 -2.927206158638000488e-01 -5.421652197837829590e-01 -2.504657506942749023e-01 3.432253599166870117e-01
1.637000000000000000e+03 2.032856369018554688e+01 2.905127906799316406e+01 -3.812728077173233032e-02 -5.093681216239929199e-01 -1.642486155033111572e-01 2.299176901578903198e-01
1.638000000000000000e+03 2.442423820495605469e+01 2.795103073120117188e+01 8.944001793861389160e-01 1.038821220397949219e+00 5.799664258956909180e-01 8.190888166427612305e-01
1.639000000000000000e+03 6.685935211181640625e+01 2.052841186523437500e+01 -5.046290397644042969e+00 -7.984946966171264648e-01 -1.753435492515563965e+00 3.949924409389495850e-01
1.640000000000000000e+03 6.265162658691406250e+01 2.439395904541015625e+01 1.321202367544174194e-01 4.991836071014404297e+00 1.537186861038208008e+00 1.990646839141845703e+00
1.641000000000000000e+03 2.120675086975097656e+01 1.375775432586669922e+01 -7.112316042184829712e-02 -2.127127051353454590e-01 -8.515075594186782837e-02 9.314962476491928101e-02
1.642000000000000000e+03 7.885578155517578125e+01 1.084738254547119141e+01 1.135384738445281982e-01 5.874063014984130859e+00 1.796280384063720703e+00 -2.196083813905715942e-01
1.643000000000000000e+03 7.188210296630859375e+01 1.284043216705322266e+01 2.417984753847122192e-01 1.470695304870605469e+01 4.484625339508056641e+00 -3.065841738134622574e-03
1.644000000000000000e+03 6.504706573486328125e+01 2.079250526428222656e+01 -3.671658277511596680e+00 6.350135207176208496e-01 -9.109934568405151367e-01 1.617357254028320312e+00
1.645000000000000000e+03 6.114141464233398438e+01 8.728511810302734375e+00 -8.373888731002807617e-01 7.280042171478271484e+00 1.932796001434326172e+00 -1.551938891410827637e+00
1.646000000000000000e+03 7.161574554443359375e+01 1.640548896789550781e+01 3.586907088756561279e-01 8.866704940795898438e+00 2.767618656158447266e+00 -1.678438782691955566e+00
1.647000000000000000e+03 7.217549896240234375e+01 1.579696273803710938e+01 8.184857964515686035e-01 1.028857326507568359e+01 3.332117557525634766e+00 -6.874513030052185059e-01
1.648000000000000000e+03 6.809242248535156250e+01 2.038848114013671875e+01 -3.205485582351684570e+00 1.214697360992431641e+00 -5.972365140914916992e-01 -8.152832984924316406e-01
1.649000000000000000e+03 6.844568634033203125e+01 1.883219337463378906e+01 -1.635366320610046387e+00 -1.854861974716186523e-01 -5.462557673454284668e-01 7.235286235809326172e-01
1.650000000000000000e+03 7.224717712402343750e+01 1.030779266357421875e+01 1.922665596008300781e+00 1.200123119354248047e+01 4.177169322967529297e+00 1.510559439659118652e+00
1.651000000000000000e+03 3.122080993652343750e+01 1.520053482055664062e+01 1.078880280256271362e-01 8.421712517738342285e-01 2.850177884101867676e-01 4.608958661556243896e-01
1.652000000000000000e+03 7.186245727539062500e+01 1.364482975006103516e+01 3.965838551521301270e-01 1.497374725341796875e+01 4.611099243164062500e+00 -6.493858695030212402e-01
1.653000000000000000e+03 7.259659576416015625e+01 1.454134368896484375e+01 1.543159484863281250e+00 1.153061580657958984e+01 3.922132492065429688e+00 -5.968638062477111816e-01
1.654000000000000000e+03 7.468321800231933594e+00 -2.565671205520629883e+00 2.088893391191959381e-02 -1.002123299986124039e-02 3.260310273617506027e-03 -1.271717133931815624e-03
1.655000000000000000e+03 5.856277465820312500e+00 -1.882134437561035156e+00 2.297482825815677643e-02 -7.004780694842338562e-03 4.791014362126588821e-03 7.436372339725494385e-03
1.656000000000000000e+03 8.220340728759765625e+00 -1.848625421524047852e+00 2.334065549075603485e-02 -4.452659748494625092e-03 5.666398908942937851e-03 -6.081684492528438568e-03
1.657000000000000000e+03 8.319635391235351562e+00 -3.219600915908813477e+00 1.748120225965976715e-02 -1.771514490246772766e-02 -7.018299947958439589e-05 -9.744919836521148682e-03
1.658000000000000000e+03 8.263890266418457031e+00 -2.538740873336791992e+00 1.934501901268959045e-02 -1.598707959055900574e-02 1.007381710223853588e-03 -9.534107521176338196e-03
1.659000000000000000e+03 6.645991802215576172e+00 -1.869187831878662109e+00 2.496905066072940826e-02 -3.903976874426007271e-03 6.319522392004728317e-03 4.629840143024921417e-03
1.660000000000000000e+03 6.672962188720703125e+00 -2.596198081970214844e+00 2.042481675744056702e-02 -1.338418759405612946e-02 2.112188842147588730e-03 3.116142237558960915e-03
1.661000000000000000e+03 5.057138919830322266e+00 -2.683887958526611328e+00 1.687338016927242279e-02 -7.626348175108432770e-03 2.774109365418553352e-03 1.328712794929742813e-02
1.662000000000000000e+03 3.491479456424713135e-01 -5.890027046203613281e+00 -1.400016364641487598e-03 5.249725282192230225e-02 1.532917097210884094e-02 5.701511166989803314e-03
1.663000000000000000e+03 3.525683283805847168e-01 -5.087293624877929688e+00 1.790670678019523621e-03 3.977925702929496765e-02 1.247097831219434738e-02 5.469524301588535309e-03
1.664000000000000000e+03 1.155561327934265137e+00 -1.887607216835021973e+00 2.194985747337341309e-03 5.776994861662387848e-03 2.391594229266047478e-03 6.130019202828407288e-03
1.665000000000000000e+03 1.041418552398681641e+00 -6.636538982391357422e+00 -4.506076511461287737e-04 5.136180296540260315e-02 1.527335867285728455e-02 1.719211786985397339e-02
1.666000000000000000e+03 3.730739355087280273e-01 -2.690773963928222656e+00 -3.878373245242983103e-04 1.052951999008655548e-02 3.042504657059907913e-03 3.051377367228269577e-03
1.667000000000000000e+03 3.574815988540649414e-01 -4.286644935607910156e+00 -1.089144032448530197e-03 2.829335443675518036e-02 8.161263540387153625e-03 4.497782327234745026e-03
1.668000000000000000e+03 9.883440017700195312e+00 -2.458966016769409180e+00 1.481035258620977402e-02 -1.697868108749389648e-02 -6.504984339699149132e-04 -2.236952073872089386e-02
1.669000000000000000e+03 6.835505676269531250e+01 6.718501091003417969e+00 -2.509784698486328125e+00 1.139652132987976074e+00 -4.110397994518280029e-01 1.433880805969238281e+00
1.670000000000000000e+03 7.080072021484375000e+01 8.974707603454589844e+00 2.304955720901489258e+00 7.024770736694335938e+00 2.798918008804321289e+00 3.713103532791137695e+00
1.671000000000000000e+03 7.191099548339843750e+01 9.516603469848632812e+00 1.396261930465698242e+00 1.059165096282958984e+01 3.596373796463012695e+00 2.157736301422119141e+00
1.672000000000000000e+03 1.783358573913574219e+01 1.754630470275878906e+01 -6.292319297790527344e-01 -2.530458271503448486e-01 -2.646833360195159912e-01 3.684380352497100830e-01
1.673000000000000000e+03 1.901987838745117188e+01 1.652963447570800781e+01 -4.079589247703552246e-01 -3.328689932823181152e-01 -2.222483754158020020e-01 3.375862836837768555e-01
1.674000000000000000e+03 3.223680496215820312e+01 1.916068077087402344e+01 9.267242252826690674e-02 5.420934557914733887e-01 1.904297620058059692e-01 2.927475273609161377e-01
1.675000000000000000e+03 6.154537582397460938e+01 1.721620559692382812e+01 1.758087992668151855e+00 8.522624015808105469e+00 3.084213495254516602e+00 3.271477699279785156e+00
1.676000000000000000e+03 6.238046646118164062e+01 1.863091278076171875e+01 2.519469976425170898e+00 5.777024269104003906e+00 2.488948345184326172e+00 3.439970731735229492e+00
1.677000000000000000e+03 7.108345031738281250e+01 1.699102783203125000e+01 2.319799512624740601e-01 6.357521533966064453e+00 1.976850390434265137e+00 -1.831551194190979004e+00
1.678000000000000000e+03 7.180760955810546875e+01 -6.043184399604797363e-01 -4.294091090559959412e-02 6.941744089126586914e-01 1.953700482845306396e-01 2.744968421757221222e-02
1.679000000000000000e+03 1.723885345458984375e+01 -2.682716751098632812e+01 2.324595749378204346e-01 -1.177007779479026794e-01 3.442763909697532654e-02 -1.427302211523056030e-01
1.680000000000000000e+03 6.673238372802734375e+01 5.884458065032958984e+00 -2.643346786499023438e+00 1.595850884914398193e-01 -7.451285123825073242e-01 1.311856508255004883e+00
1.681000000000000000e+03 6.042343902587890625e+01 1.495910167694091797e+01 9.085111021995544434e-01 9.505830764770507812e+00 3.124302387237548828e+00 6.823385953903198242e-01
1.682000000000000000e+03 6.126924896240234375e+01 1.645212745666503906e+01 1.211618423461914062e+00 9.598596572875976562e+00 3.243064641952514648e+00 2.690979003906250000e+00
1.683000000000000000e+03 5.466395568847656250e+01 1.102422809600830078e+01 1.006586924195289612e-01 4.635068416595458984e+00 1.420718193054199219e+00 -1.913633644580841064e-01
1.684000000000000000e+03 5.313070297241210938e+01 1.724777030944824219e+01 1.324306130409240723e+00 3.290497541427612305e+00 1.384441137313842773e+00 -2.117171525955200195e+00
1.685000000000000000e+03 7.056830596923828125e+01 1.756575775146484375e+01 -2.253391593694686890e-01 4.481045722961425781e+00 1.276712059974670410e+00 -1.484959840774536133e+00
1.686000000000000000e+03 6.131766891479492188e+01 1.822828674316406250e+01 1.558740496635437012e+00 6.321714401245117188e+00 2.364136457443237305e+00 2.275682210922241211e+00
1.687000000000000000e+03 7.259909057617187500e+01 1.369944095611572266e+01 1.201043367385864258e+00 1.279993915557861328e+01 4.200294971466064453e+00 -6.317885518074035645e-01
1.688000000000000000e+03 6.084704208374023438e+01 1.743743705749511719e+01 1.544951677322387695e+00 7.148629188537597656e+00 2.608074188232421875e+00 1.866823315620422363e+00
1.689000000000000000e+03 6.858842468261718750e+01 -3.965292572975158691e-01 2.550580263137817383e+00 2.913371086120605469e+00 1.639185428619384766e+00 2.893111467361450195e+00
1.690000000000000000e+03 3.199284553527832031e+01 2.406831932067871094e+01 -2.056040763854980469e-01 -2.100616991519927979e-01 -1.246997341513633728e-01 2.833503782749176025e-01
1.691000000000000000e+03 6.287399291992187500e+01 7.346971035003662109e+00 -2.767367601394653320e+00 4.523211002349853516e+00 5.267530679702758789e-01 -1.481015563011169434e+00
1.692000000000000000e+03 6.716348266601562500e+01 6.201344490051269531e+00 -3.014891624450683594e+00 3.468819260597229004e-01 -8.004029393196105957e-01 1.630620837211608887e+00
1.693000000000000000e+03 6.780558013916015625e+01 -2.329933345317840576e-01 2.506422281265258789e+00 3.690492153167724609e+00 1.859074354171752930e+00 2.769497632980346680e+00
1.694000000000000000e+03 7.007081604003906250e+01 1.813004112243652344e+01 -6.154718399047851562e-01 3.098206996917724609e+00 7.448205351829528809e-01 -9.885446429252624512e-01
1.695000000000000000e+03 6.037011337280273438e+01 1.421803569793701172e+01 7.659022212028503418e-01 9.865750312805175781e+00 3.189495801925659180e+00 -1.965232938528060913e-02
1.696000000000000000e+03 2.255550384521484375e+01 1.542155456542968750e+01 -2.681038975715637207e-01 -1.246235519647598267e-01 -1.178182363510131836e-01 1.236369535326957703e-01
1.697000000000000000e+03 6.029146194458007812e+01 1.350050258636474609e+01 7.358808517456054688e-01 9.940398216247558594e+00 3.202883720397949219e+00 -5.222325921058654785e-01
1.698000000000000000e+03 7.727185821533203125e+01 1.080076217651367188e+01 5.065166950225830078e-01 7.025724411010742188e+00 2.259672403335571289e+00 -3.761046528816223145e-01
1.699000000000000000e+03 7.264598846435546875e+01 1.288828659057617188e+01 7.717778086662292480e-01 1.327156257629394531e+01 4.213002204895019531e+00 1.843514740467071533e-01
1.700000000000000000e+03 6.907620239257812500e+01 1.923901557922363281e+01 -1.969994664192199707e+00 1.710860490798950195e+00 -7.774025201797485352e-02 -4.827966168522834778e-02
1.701000000000000000e+03 6.958001708984375000e+01 1.868251419067382812e+01 -1.339461803436279297e+00 2.267501115798950195e+00 2.784117758274078369e-01 -5.062544345855712891e-01
1.702000000000000000e+03 5.531406784057617188e+01 1.202007198333740234e+01 8.569186925888061523e-01 5.191606521606445312e+00 1.814557552337646484e+00 -1.007050514221191406e+00
1.703000000000000000e+03 6.277902603149414062e+01 8.977062225341796875e+00 9.525519609451293945e-01 2.902470588684082031e+00 1.156506776809692383e+00 -2.007867813110351562e+00
1.704000000000000000e+03 6.253707122802734375e+01 7.952225685119628906e+00 -1.871287107467651367e+00 4.430810928344726562e+00 7.678571939468383789e-01 -1.379157185554504395e+00
1.705000000000000000e+03 3.004869651794433594e+01 1.281440639495849609e+01 -1.727393269538879395e-01 7.801678776741027832e-01 1.822285503149032593e-01 4.554993510246276855e-01
1.706000000000000000e+03 3.506797409057617188e+01 2.311109924316406250e+01 -1.162207722663879395e-01 2.842317819595336914e-01 5.040330812335014343e-02 1.627504974603652954e-01
1.707000000000000000e+03 3.051102828979492188e+01 1.510222530364990234e+01 1.162670925259590149e-02 9.004239439964294434e-01 2.736151814460754395e-01 5.728891491889953613e-01
1.708000000000000000e+03 2.364410209655761719e+01 1.696195983886718750e+01 -2.538597881793975830e-01 -1.445585787296295166e-01 -1.195255070924758911e-01 1.785637140274047852e-01
1.709000000000000000e+03 3.004949378967285156e+01 1.000185203552246094e+01 4.148651957511901855e-01 1.176417946815490723e+00 4.773849248886108398e-01 6.072602272033691406e-01
1.710000000000000000e+03 2.708860778808593750e+01 3.004216003417968750e+01 3.923731148242950439e-01 -2.848598547279834747e-02 1.091661378741264343e-01 4.946016669273376465e-01
1.711000000000000000e+03 2.241938400268554688e+01 2.203005981445312500e+01 -1.823241938836872578e-03 -3.947081863880157471e-01 -1.189594268798828125e-01 -2.872759662568569183e-02
1.712000000000000000e+03 2.835242271423339844e+01 2.876360321044921875e+01 4.769729450345039368e-02 -2.753735482692718506e-01 -6.830286979675292969e-02 2.497664391994476318e-01
1.713000000000000000e+03 3.088754844665527344e+01 2.646377563476562500e+01 -2.911849319934844971e-01 -3.915352225303649902e-01 -2.048160433769226074e-01 2.785366475582122803e-01
1.714000000000000000e+03 3.028701972961425781e+01 2.714473724365234375e+01 -2.458378076553344727e-01 -3.813778758049011230e-01 -1.881647109985351562e-01 2.672989666461944580e-01
1.715000000000000000e+03 2.208471298217773438e+01 2.755151748657226562e+01 4.126981496810913086e-01 9.444993734359741211e-02 1.521444320678710938e-01 4.967568516731262207e-01
1.716000000000000000e+03 2.173303031921386719e+01 2.028179740905761719e+01 -4.558664932847023010e-02 -2.415325939655303955e-01 -8.613577485084533691e-02 -2.530610188841819763e-02
1.717000000000000000e+03 2.062583732604980469e+01 1.479543590545654297e+01 -1.416200250387191772e-01 -3.193241357803344727e-01 -1.382832527160644531e-01 1.323654055595397949e-01
1.718000000000000000e+03 3.574414443969726562e+01 2.257797622680664062e+01 -2.422521822154521942e-02 2.000133693218231201e-01 5.273644626140594482e-02 1.211671456694602966e-01
1.719000000000000000e+03 2.339681816101074219e+01 2.587615776062011719e+01 2.571041584014892578e-01 6.774452328681945801e-01 2.803648114204406738e-01 4.387122690677642822e-01
1.720000000000000000e+03 2.738943862915039062e+01 1.470047855377197266e+01 -3.151964843273162842e-01 -3.701850771903991699e-02 -1.056644991040229797e-01 1.955770403146743774e-01
1.721000000000000000e+03 2.223780822753906250e+01 1.401692771911621094e+01 -1.204036697745323181e-01 -1.606790274381637573e-01 -8.432480692863464355e-02 9.233831614255905151e-02
1.722000000000000000e+03 2.182182502746582031e+01 2.573919296264648438e+01 4.729525148868560791e-01 2.827739343047142029e-02 1.503689736127853394e-01 5.368121862411499023e-01
1.723000000000000000e+03 2.312255477905273438e+01 2.674122619628906250e+01 4.787219762802124023e-01 5.256008505821228027e-01 3.012968599796295166e-01 5.797840952873229980e-01
1.724000000000000000e+03 2.961139488220214844e+01 2.771526336669921875e+01 -1.786082386970520020e-01 -3.611975014209747314e-01 -1.619417220354080200e-01 2.796476483345031738e-01
1.725000000000000000e+03 2.161367797851562500e+01 2.119972610473632812e+01 -2.502014860510826111e-03 -2.180024236440658569e-01 -6.615132838487625122e-02 -2.871191129088401794e-02
1.726000000000000000e+03 2.207516098022460938e+01 2.376776313781738281e+01 1.648104339838027954e-01 -1.052409484982490540e-01 1.787084713578224182e-02 1.900634318590164185e-01
1.727000000000000000e+03 2.189374351501464844e+01 1.939948654174804688e+01 -9.214212745428085327e-02 -2.318526059389114380e-01 -9.719841927289962769e-02 2.366327866911888123e-02
1.728000000000000000e+03 2.144448471069335938e+01 1.438811779022216797e+01 -1.385816186666488647e-01 -1.889198124408721924e-01 -9.825042635202407837e-02 1.021650135517120361e-01
1.729000000000000000e+03 3.159643554687500000e+01 2.151676750183105469e+01 -2.262285415781661868e-04 1.030300408601760864e-01 3.084114380180835724e-02 6.200110539793968201e-02
1.730000000000000000e+03 3.227412414550781250e+01 2.239270782470703125e+01 -3.918557241559028625e-02 1.806255429983139038e-02 -6.336905062198638916e-03 1.943829655647277832e-01
1.731000000000000000e+03 1.911658096313476562e+01 2.450204658508300781e+01 7.292116284370422363e-01 1.951547116041183472e-01 2.773098945617675781e-01 3.679589629173278809e-01
1.732000000000000000e+03 3.159447288513183594e+01 2.072660446166992188e+01 1.264857419300824404e-04 2.417359799146652222e-01 7.255873829126358032e-02 6.180357933044433594e-02
1.733000000000000000e+03 3.230083465576171875e+01 2.156826210021972656e+01 -9.678765200078487396e-03 1.317453980445861816e-01 3.661998733878135681e-02 1.701353341341018677e-01
1.734000000000000000e+03 3.229310226440429688e+01 2.075828170776367188e+01 1.798549480736255646e-02 2.477201074361801147e-01 7.971168309450149536e-02 1.788510531187057495e-01
1.735000000000000000e+03 2.656576728820800781e+01 1.991117954254150391e+00 -8.977781534194946289e-01 6.152871623635292053e-02 -2.508748173713684082e-01 2.544490993022918701e-01
1.736000000000000000e+03 2.707962417602539062e+01 1.209214091300964355e+00 -1.078929901123046875e+00 6.348796188831329346e-02 -3.046326041221618652e-01 2.371426224708557129e-01
1.737000000000000000e+03 2.080544090270996094e+01 3.820892572402954102e+00 -5.806506276130676270e-01 -1.275259405374526978e-01 -2.124529778957366943e-01 1.995489895343780518e-01
1.738000000000000000e+03 2.108974075317382812e+01 2.844653129577636719e+00 -9.033643007278442383e-01 -1.111253201961517334e-01 -3.043468892574310303e-01 2.347732037305831909e-01
1.739000000000000000e+03 2.559155273437500000e+01 1.594398856163024902e+00 -1.023563742637634277e+00 -4.084089770913124084e-02 -3.193213939666748047e-01 3.182993829250335693e-01
1.740000000000000000e+03 2.442466163635253906e+01 2.669528245925903320e+00 -7.730590105056762695e-01 -8.399696648120880127e-02 -2.571167945861816406e-01 2.933710217475891113e-01
1.741000000000000000e+03 2.922479820251464844e+01 5.115720748901367188e+00 1.233505830168724060e-01 8.140627145767211914e-01 2.812239825725555420e-01 -1.406125128269195557e-01
1.742000000000000000e+03 2.019564437866210938e+01 4.104493618011474609e+00 -5.018127560615539551e-01 -1.129526272416114807e-01 -1.844296157360076904e-01 1.862974315881729126e-01
1.743000000000000000e+03 1.967238044738769531e+01 3.306528806686401367e+00 -7.505486607551574707e-01 -1.225304827094078064e-01 -2.619237303733825684e-01 2.340960800647735596e-01
1.744000000000000000e+03 2.291309738159179688e+01 3.113373041152954102e+00 -7.114266157150268555e-01 -1.324567049741744995e-01 -2.531650066375732422e-01 2.617150843143463135e-01
1.745000000000000000e+03 2.366493988037109375e+01 2.894288539886474609e+00 -7.357945442199707031e-01 -1.108811199665069580e-01 -2.540026903152465820e-01 2.824966609477996826e-01
1.746000000000000000e+03 3.053582382202148438e+01 4.397669792175292969e+00 7.135342806577682495e-02 2.705902755260467529e-01 1.025831103324890137e-01 -2.081164568662643433e-01
1.747000000000000000e+03 2.972809791564941406e+01 3.176070451736450195e+00 -6.223757266998291016e-01 4.149030148983001709e-01 -6.224181503057479858e-02 6.686376780271530151e-02
1.748000000000000000e+03 2.801395797729492188e+01 1.727762222290039062e+00 -9.636701345443725586e-01 2.046877294778823853e-01 -2.276947051286697388e-01 1.509547978639602661e-01
1.749000000000000000e+03 2.517168617248535156e+01 2.436336994171142578e+00 -8.057891726493835449e-01 -4.985674098134040833e-02 -2.566937804222106934e-01 2.967749238014221191e-01
1.750000000000000000e+03 2.315114402770996094e+01 5.404286384582519531e+00 -8.930263668298721313e-02 -1.721093356609344482e-01 -7.842358946800231934e-02 1.815139055252075195e-01
1.751000000000000000e+03 3.158514976501464844e+01 7.741794586181640625e-01 -1.332939267158508301e+00 2.228187173604965210e-01 -3.330361843109130859e-01 -2.371453195810317993e-01
1.752000000000000000e+03 3.066049385070800781e+01 3.238598346710205078e+00 -4.874617159366607666e-01 2.944906949996948242e-01 -5.789130553603172302e-02 -8.082512766122817993e-03
1.753000000000000000e+03 1.790470123291015625e+01 7.663463592529296875e+00 6.512718200683593750e-01 2.934990227222442627e-01 2.834312617778778076e-01 4.121234714984893799e-01
1.754000000000000000e+03 2.932267379760742188e+01 5.927742481231689453e+00 1.894640177488327026e-01 1.210541605949401855e+00 4.200016856193542480e-01 -2.508990168571472168e-01
1.755000000000000000e+03 2.474736213684082031e+01 3.320926666259765625e+00 -5.714346170425415039e-01 -6.653213500976562500e-02 -1.913900226354598999e-01 2.710039317607879639e-01
1.756000000000000000e+03 3.137203025817871094e+01 1.174680042266845703e+01 1.546483486890792847e-01 5.725193619728088379e-01 2.181503027677536011e-01 4.256960451602935791e-01
1.757000000000000000e+03 4.824702072143554688e+01 -1.714862632751464844e+01 1.346614360809326172e+00 1.491473674774169922e+00 8.514263629913330078e-01 1.148236513137817383e+00
1.758000000000000000e+03 4.902652359008789062e+01 -1.688085937500000000e+01 7.065035700798034668e-01 2.820391356945037842e-01 2.965628206729888916e-01 4.725317656993865967e-01
1.759000000000000000e+03 4.943258285522460938e+01 -1.601240921020507812e+01 8.011131733655929565e-02 4.489305019378662109e-01 1.587125509977340698e-01 5.390275120735168457e-01
1.760000000000000000e+03 4.028509902954101562e+01 -2.300465202331542969e+01 8.547484874725341797e-02 7.339144945144653320e-01 2.458168119192123413e-01 8.471450954675674438e-02
1.761000000000000000e+03 1.386979770660400391e+01 6.667580604553222656e+00 -9.277396202087402344e-01 -2.042903006076812744e-01 -3.396089673042297363e-01 3.622547984123229980e-01
1.762000000000000000e+03 1.453922080993652344e+01 1.847985267639160156e+01 -8.389268815517425537e-02 1.410691346973180771e-02 -2.093573287129402161e-02 1.909300386905670166e-01
1.763000000000000000e+03 1.317337036132812500e+01 1.994902420043945312e+01 6.665166467428207397e-02 2.914505600929260254e-01 1.074306666851043701e-01 5.274823307991027832e-01
1.764000000000000000e+03 4.901984786987304688e+01 1.996165466308593750e+01 4.276896640658378601e-02 1.048214673995971680e+00 3.272950947284698486e-01 -9.886006712913513184e-01
1.765000000000000000e+03 4.852325057983398438e+01 1.932810401916503906e+01 -4.487617313861846924e-01 2.074964642524719238e-01 -7.237958163022994995e-02 -5.726944804191589355e-01
1.766000000000000000e+03 2.562560653686523438e+01 -3.620817565917968750e+01 -2.193283475935459137e-02 -3.999790549278259277e-01 -1.265735626220703125e-01 2.203648723661899567e-02
1.767000000000000000e+03 3.958005523681640625e+01 -2.464441490173339844e+01 1.584277749061584473e-01 9.339414238929748535e-01 3.277107477188110352e-01 2.620915174484252930e-01
1.768000000000000000e+03 1.377860164642333984e+01 -1.783645987510681152e+00 -4.112232942134141922e-03 3.801550192292779684e-04 -1.119623309932649136e-03 -2.995952218770980835e-02
1.769000000000000000e+03 1.069747638702392578e+01 -2.366336584091186523e+00 1.165532693266868591e-02 -9.962999261915683746e-03 5.076982779428362846e-04 -2.654425799846649170e-02
1.770000000000000000e+03 1.227249050140380859e+01 -2.074877500534057617e+00 4.092734307050704956e-03 -6.686072330921888351e-03 -7.780013838782906532e-04 -3.090939112007617950e-02
1.771000000000000000e+03 1.451277256011962891e+01 -1.641156554222106934e+00 -9.130550548434257507e-03 -9.343682788312435150e-03 -5.542269907891750336e-03 -2.600980550050735474e-02
1.772000000000000000e+03 3.314512634277343750e+01 -2.909820938110351562e+01 4.312078058719635010e-01 2.996876537799835205e-01 2.192686349153518677e-01 -2.451977729797363281e-01
1.773000000000000000e+03 3.260187530517578125e+01 1.294912624359130859e+01 -3.213284015655517578e-01 2.648464441299438477e-01 -1.694458909332752228e-02 3.847939968109130859e-01
1.774000000000000000e+03 7.293589782714843750e+01 -8.940460085868835449e-01 -2.462085932493209839e-01 2.987396717071533203e+00 8.223564624786376953e-01 -9.378335475921630859e-01
1.775000000000000000e+03 2.000681114196777344e+01 1.533440685272216797e+01 -1.723125427961349487e-01 -4.172986149787902832e-01 -1.768833547830581665e-01 2.108080834150314331e-01
1.776000000000000000e+03 2.035321807861328125e+01 1.411146259307861328e+01 -4.308329150080680847e-02 -3.209541141986846924e-01 -1.092112213373184204e-01 6.082665175199508667e-02
1.777000000000000000e+03 5.405053329467773438e+01 -2.428600311279296875e+01 1.933417439460754395e+00 3.733387947082519531e+00 1.700041651725769043e+00 2.514284610748291016e+00
1.778000000000000000e+03 6.012538909912109375e+01 -2.689522933959960938e+01 -2.707160711288452148e+00 2.395430803298950195e-01 -7.402852773666381836e-01 1.778253167867660522e-01
1.779000000000000000e+03 3.456048965454101562e+01 -1.441297245025634766e+01 -8.633730411529541016e-01 -1.103466972708702087e-01 -2.921159267425537109e-01 4.699332267045974731e-02
1.780000000000000000e+03 1.923668479919433594e+01 -4.155302810668945312e+01 8.647173643112182617e-01 1.323597431182861328e-01 2.991231381893157959e-01 8.666391670703887939e-02
1.781000000000000000e+03 1.833767318725585938e+01 -4.056226730346679688e+01 9.932876825332641602e-01 7.038833945989608765e-02 3.191027939319610596e-01 3.511405363678932190e-02
1.782000000000000000e+03 4.669564819335937500e+01 1.890598487854003906e+01 -5.993867516517639160e-01 4.316304624080657959e-01 -5.032689496874809265e-02 1.629771143198013306e-01
1.783000000000000000e+03 4.580876159667968750e+01 -1.873532104492187500e+01 6.808287501335144043e-01 1.529964566230773926e+00 6.632379889488220215e-01 4.088161885738372803e-01
1.784000000000000000e+03 2.743680381774902344e+01 -2.385943984985351562e+01 2.163093239068984985e-01 -1.208200529217720032e-01 2.864678204059600830e-02 -1.552533954381942749e-01
1.785000000000000000e+03 2.873659133911132812e+01 -2.400163269042968750e+01 1.928505450487136841e-01 -3.793299570679664612e-02 4.647526517510414124e-02 -1.523529738187789917e-01
1.786000000000000000e+03 3.857556533813476562e+01 -2.636968803405761719e+01 2.581115067005157471e-01 5.273371934890747070e-01 2.356346100568771362e-01 3.475869894027709961e-01
1.787000000000000000e+03 3.948305130004882812e+01 -2.654753684997558594e+01 2.122778892517089844e-01 7.830427885055541992e-01 2.985962033271789551e-01 3.203793168067932129e-01
1.788000000000000000e+03 5.610132598876953125e+01 -1.765363311767578125e+01 -5.220692753791809082e-01 2.769643068313598633e+00 6.742721796035766602e-01 7.123610973358154297e-01
1.789000000000000000e+03 3.521092605590820312e+01 -2.839687538146972656e+01 4.330244660377502441e-01 5.914641544222831726e-02 1.476512700319290161e-01 -7.289800792932510376e-02
1.790000000000000000e+03 3.044852256774902344e+01 -1.657728958129882812e+01 -1.684907823801040649e-01 -1.129950955510139465e-01 -8.444576710462570190e-02 -9.979047626256942749e-02
1.791000000000000000e+03 3.932539367675781250e+01 -1.262900543212890625e+01 -4.108770489692687988e-01 7.499100565910339355e-01 1.017099097371101379e-01 -2.518107891082763672e-01
1.792000000000000000e+03 3.974190139770507812e+01 -2.955934333801269531e+01 4.796834886074066162e-01 1.096257805824279785e+00 4.727823734283447266e-01 5.747513175010681152e-01
1.793000000000000000e+03 2.854102516174316406e+01 6.588272571563720703e+00 2.365537732839584351e-01 8.748349547386169434e-01 3.334166109561920166e-01 5.842442624270915985e-03
1.794000000000000000e+03 2.908525276184082031e+01 -2.597091102600097656e+01 3.545619845390319824e-01 7.137342472560703754e-04 1.065827161073684692e-01 -2.027151286602020264e-01
1.795000000000000000e+03 1.102545166015625000e+01 1.655006599426269531e+01 6.484255790710449219e-01 6.752420067787170410e-01 3.971002995967864990e-01 5.609033703804016113e-01
1.796000000000000000e+03 3.368866729736328125e+01 -2.977657508850097656e+01 4.602293074131011963e-01 2.764177024364471436e-01 2.209940999746322632e-01 -2.438678890466690063e-01
1.797000000000000000e+03 4.100692749023437500e+01 -2.290577125549316406e+01 2.057306617498397827e-01 7.530860304832458496e-01 2.876450121402740479e-01 1.152097135782241821e-01
1.798000000000000000e+03 4.346530914306640625e+01 -2.587709426879882812e+01 4.121288955211639404e-01 5.864063501358032227e-01 2.995605766773223877e-01 1.544175744056701660e-01
1.799000000000000000e+03 3.825208663940429688e+01 -1.150339031219482422e+01 4.196866974234580994e-02 1.161903023719787598e+00 3.611615002155303955e-01 -5.177009105682373047e-01
1.800000000000000000e+03 2.801388549804687500e+01 2.359110593795776367e+00 -7.870637178421020508e-01 2.609155178070068359e-01 -1.578444540500640869e-01 1.424427479505538940e-01
1.801000000000000000e+03 3.980631637573242188e+01 -2.720798492431640625e+01 2.626706659793853760e-01 8.347882032394409180e-01 3.292376697063446045e-01 3.713698089122772217e-01
1.802000000000000000e+03 3.755007171630859375e+01 -1.710636138916015625e+01 3.591982424259185791e-01 8.817891478538513184e-01 3.722962141036987305e-01 -5.730903148651123047e-01
1.803000000000000000e+03 3.734753417968750000e+01 -1.555928325653076172e+01 -6.304074525833129883e-01 8.921281695365905762e-01 7.851620018482208252e-02 -2.943716645240783691e-01
1.804000000000000000e+03 2.681472206115722656e+01 -1.374431800842285156e+01 -1.091019034385681152e+00 -6.118875741958618164e-01 -5.108720064163208008e-01 -5.834287405014038086e-01
1.805000000000000000e+03 2.903406906127929688e+01 -1.874166488647460938e+01 -1.699285395443439484e-02 -2.108861356973648071e-01 -6.836369633674621582e-02 -4.294347763061523438e-02
1.806000000000000000e+03 3.887875366210937500e+01 -2.810649681091308594e+01 2.930231094360351562e-01 7.378411293029785156e-01 3.092592656612396240e-01 3.594463765621185303e-01
1.807000000000000000e+03 2.907519912719726562e+01 -2.130821228027343750e+01 -4.913755692541599274e-03 -1.870800703763961792e-01 -5.759814754128456116e-02 -1.675675995647907257e-02
1.808000000000000000e+03 2.836614990234375000e+01 -2.216143798828125000e+01 2.148185297846794128e-02 -1.317797005176544189e-01 -3.308935463428497314e-02 -5.939254537224769592e-02
1.809000000000000000e+03 1.231150245666503906e+01 7.536578655242919922e+00 -6.877582073211669922e-01 -5.099155306816101074e-01 -3.593021035194396973e-01 5.445655584335327148e-01
1.810000000000000000e+03 2.967910766601562500e+01 -1.893587112426757812e+01 2.429729327559471130e-03 -8.599948883056640625e-02 -2.507092803716659546e-02 -1.392045151442289352e-02
1.811000000000000000e+03 3.813250350952148438e+01 -1.680772781372070312e+01 3.893971443176269531e-02 8.520025610923767090e-01 2.672826945781707764e-01 -3.720057904720306396e-01
1.812000000000000000e+03 3.894242477416992188e+01 -2.698980712890625000e+01 2.089414447546005249e-01 7.129892110824584961e-01 2.765792012214660645e-01 3.415056765079498291e-01
1.813000000000000000e+03 2.749823760986328125e+01 1.401364803314208984e+01 -1.110010966658592224e-01 5.554788187146186829e-02 -1.663596369326114655e-02 2.633801698684692383e-01
1.814000000000000000e+03 3.192172431945800781e+01 -2.896714401245117188e+01 4.224890470504760742e-01 2.172454595565795898e-01 1.919203549623489380e-01 -2.339599281549453735e-01
1.815000000000000000e+03 2.838280487060546875e+01 -2.128233528137207031e+01 -3.338933747727423906e-04 -1.742796599864959717e-01 -5.238406360149383545e-02 -3.516713529825210571e-02
1.816000000000000000e+03 2.886212158203125000e+01 8.014506340026855469e+00 2.162491530179977417e-01 1.149094939231872559e+00 4.096032381057739258e-01 2.087789326906204224e-01
1.817000000000000000e+03 3.147218322753906250e+01 -2.729985046386718750e+01 4.228702783584594727e-01 2.146854251623153687e-01 1.912667155265808105e-01 -3.093658089637756348e-01
1.818000000000000000e+03 3.913451004028320312e+01 -1.816063690185546875e+01 3.426744937896728516e-01 6.991426348686218262e-01 3.125451505184173584e-01 -4.956295192241668701e-01
1.819000000000000000e+03 5.696629714965820312e+01 -3.046167182922363281e+01 1.949651956558227539e+00 8.376530647277832031e+00 3.097854614257812500e+00 3.519838094711303711e+00
1.820000000000000000e+03 1.025050640106201172e+01 2.154883956909179688e+01 -8.539175987243652344e-02 -8.074884861707687378e-02 -4.984218254685401917e-02 2.319677025079727173e-01
1.821000000000000000e+03 2.946595764160156250e+01 -1.797744941711425781e+01 -4.050723463296890259e-02 -1.866217702627182007e-01 -6.813870370388031006e-02 -6.148432567715644836e-02
1.822000000000000000e+03 3.298328399658203125e+01 -1.531106758117675781e+01 -8.444587588310241699e-01 -4.818287119269371033e-02 -2.677924931049346924e-01 -1.240338310599327087e-01
1.823000000000000000e+03 2.906093215942382812e+01 -1.212936878204345703e+01 -9.291967749595642090e-01 -8.896242380142211914e-01 -5.456463098526000977e-01 -5.479987859725952148e-01
1.824000000000000000e+03 4.621567535400390625e+01 -1.976908874511718750e+01 4.454825818538665771e-01 2.150995254516601562e+00 7.789433002471923828e-01 3.546635210514068604e-01
1.825000000000000000e+03 3.996987152099609375e+01 -2.059106254577636719e+01 2.676165997982025146e-01 6.455956101417541504e-01 2.739636600017547607e-01 -2.865641117095947266e-01
1.826000000000000000e+03 5.582140731811523438e+01 -2.174702072143554688e+01 1.025280117988586426e+00 5.587768077850341797e+00 1.983914494514465332e+00 1.845856785774230957e+00
1.827000000000000000e+03 5.509458923339843750e+01 -2.253925514221191406e+01 1.169156193733215332e+00 8.271959304809570312e+00 2.832334756851196289e+00 2.305253982543945312e+00
1.828000000000000000e+03 5.066674041748046875e+01 -2.596083450317382812e+01 -1.888707280158996582e-01 3.746357858180999756e-01 5.572951585054397583e-02 -3.637062907218933105e-01
1.829000000000000000e+03 3.148533439636230469e+01 -2.627017402648925781e+01 3.421689867973327637e-01 2.699699997901916504e-01 1.836417019367218018e-01 -3.075973391532897949e-01
1.830000000000000000e+03 4.022785568237304688e+01 -2.222124290466308594e+01 1.105832606554031372e-01 6.840312480926513672e-01 2.383843511343002319e-01 -4.241596534848213196e-02
1.831000000000000000e+03 5.349007415771484375e+01 -2.547349166870117188e+01 5.858697742223739624e-02 2.862882614135742188e+00 8.764408826828002930e-01 1.944451928138732910e+00
1.832000000000000000e+03 5.183443450927734375e+01 -2.504222679138183594e+01 -1.502318024635314941e+00 2.828704193234443665e-02 -4.422093033790588379e-01 8.706728368997573853e-02
1.833000000000000000e+03 3.031686019897460938e+01 -2.614729499816894531e+01 3.401175141334533691e-01 1.564401090145111084e-01 1.489672809839248657e-01 -2.474868446588516235e-01
1.834000000000000000e+03 1.566603660583496094e+01 -3.932608413696289062e+01 3.341849744319915771e-01 2.680331170558929443e-01 1.806654334068298340e-01 -3.486875295639038086e-01
1.835000000000000000e+03 3.210952758789062500e+01 1.643765687942504883e+00 -1.526505112648010254e+00 2.402384579181671143e-01 -3.858799934387207031e-01 -2.131970971822738647e-02
1.836000000000000000e+03 3.224961471557617188e+01 2.862262487411499023e+00 -4.534109830856323242e-01 -7.543506473302841187e-02 -1.586538106203079224e-01 2.927340269088745117e-01
1.837000000000000000e+03 4.212594223022460938e+01 -1.360569953918457031e+01 -2.309097528457641602e+00 -1.514501124620437622e-01 -7.381642460823059082e-01 -3.200750797986984253e-02
1.838000000000000000e+03 5.522856140136718750e+01 -1.697888565063476562e+01 -5.750150084495544434e-01 1.544407963752746582e+00 2.908179163932800293e-01 2.909844219684600830e-01
1.839000000000000000e+03 4.698825073242187500e+01 -1.746433067321777344e+01 7.103854417800903320e-01 1.784540891647338867e+00 7.484779357910156250e-01 6.470121145248413086e-01
1.840000000000000000e+03 4.565199661254882812e+01 -1.660733795166015625e+01 4.658295214176177979e-02 9.088336825370788574e-01 2.866249978542327881e-01 1.930221468210220337e-01
1.841000000000000000e+03 2.954815673828125000e+01 1.105793666839599609e+01 2.032623142004013062e-01 8.461516499519348145e-01 3.148241937160491943e-01 3.731760680675506592e-01
1.842000000000000000e+03 2.941381645202636719e+01 1.034333610534667969e+01 3.062015473842620850e-01 8.999172449111938477e-01 3.618356287479400635e-01 3.832761049270629883e-01
1.843000000000000000e+03 4.934184265136718750e+01 -2.428653717041015625e+01 -6.146194040775299072e-02 2.899516224861145020e-01 6.854690611362457275e-02 -1.251755803823471069e-01
1.844000000000000000e+03 4.819438171386718750e+01 -2.921803474426269531e+01 8.384311199188232422e-01 8.206652998924255371e-01 4.977289140224456787e-01 -7.267849445343017578e-01
1.845000000000000000e+03 3.110118675231933594e+01 3.882162094116210938e+00 -2.308936417102813721e-02 2.037232220172882080e-01 5.419015884399414062e-02 -5.394870042800903320e-02
1.846000000000000000e+03 3.166767120361328125e+01 3.365488529205322266e+00 -2.229934930801391602e-01 3.585210070013999939e-02 -5.614241957664489746e-02 3.047013469040393829e-02
1.847000000000000000e+03 2.741707611083984375e+01 2.441160440444946289e+00 -7.763540744781494141e-01 1.721967458724975586e-01 -1.812472045421600342e-01 2.073171287775039673e-01
1.848000000000000000e+03 3.014155769348144531e+01 3.736435651779174805e+00 -2.736428380012512207e-01 4.692438542842864990e-01 5.868030712008476257e-02 -7.624405622482299805e-02
1.849000000000000000e+03 8.149203300476074219e+00 1.212769222259521484e+01 -5.206805467605590820e-02 -1.779416948556900024e-01 -6.900292634963989258e-02 3.421669006347656250e-01
1.850000000000000000e+03 9.363725662231445312e+00 1.060842037200927734e+01 -2.757902145385742188e-01 -4.523133337497711182e-01 -2.184310704469680786e-01 3.072194159030914307e-01
1.851000000000000000e+03 4.575365447998046875e+01 2.524432945251464844e+01 3.693162202835083008e-01 2.002385616302490234e+00 7.115105390548706055e-01 5.373685359954833984e-01
1.852000000000000000e+03 4.953585815429687500e+01 2.053210639953613281e+01 -7.850494235754013062e-02 1.723119854927062988e+00 4.933844804763793945e-01 -1.126622438430786133e+00
1.853000000000000000e+03 5.499158859252929688e+01 -1.930871200561523438e+01 -3.945407923310995102e-03 2.603935718536376953e+00 7.799971103668212891e-01 -8.903950452804565430e-02
1.854000000000000000e+03 5.562262725830078125e+01 -1.925104904174804688e+01 -3.812060877680778503e-02 3.120596647262573242e+00 9.247428178787231445e-01 6.111345291137695312e-01
1.855000000000000000e+03 1.187944793701171875e+01 1.905046081542968750e+01 2.377841174602508545e-01 3.170559704303741455e-01 1.664520204067230225e-01 3.992345035076141357e-01
1.856000000000000000e+03 1.015130615234375000e+01 9.087147712707519531e+00 -4.194234311580657959e-01 -5.339617133140563965e-01 -2.860155403614044189e-01 3.733420968055725098e-01
1.857000000000000000e+03 5.289467620849609375e+01 -1.568808269500732422e+01 -2.703794836997985840e-01 -2.865412235260009766e-01 -1.670762151479721069e-01 2.791096270084381104e-01
1.858000000000000000e+03 5.298680496215820312e+01 -1.664842987060546875e+01 -9.893602728843688965e-01 -2.864199578762054443e-01 -3.827340900897979736e-01 5.436528325080871582e-01
1.859000000000000000e+03 3.411464309692382812e+01 1.217236995697021484e+01 -9.711102843284606934e-01 -1.800302974879741669e-02 -2.967340052127838135e-01 6.974216550588607788e-02
1.860000000000000000e+03 3.334550857543945312e+01 1.291855335235595703e+01 -4.998128116130828857e-01 5.316897109150886536e-02 -1.339931488037109375e-01 2.586762011051177979e-01
1.861000000000000000e+03 4.669696426391601562e+01 -1.827363777160644531e+01 8.048093914985656738e-01 2.045007228851318359e+00 8.549450039863586426e-01 7.202649712562561035e-01
1.862000000000000000e+03 3.610532760620117188e+01 1.309455680847167969e+01 -4.804985225200653076e-01 -5.888583064079284668e-01 -3.208070695400238037e-01 3.112075030803680420e-01
1.863000000000000000e+03 3.408671188354492188e+01 1.291621494293212891e+01 -6.535202860832214355e-01 -5.972402170300483704e-02 -2.139732986688613892e-01 2.812281250953674316e-01
1.864000000000000000e+03 2.024979591369628906e+01 9.050080299377441406e+00 3.640906214714050293e-01 2.069675922393798828e-02 1.154362186789512634e-01 2.297151088714599609e-01
1.865000000000000000e+03 5.511723327636718750e+01 -2.010736846923828125e+01 1.092301905155181885e-01 3.844549894332885742e+00 1.186133980751037598e+00 3.957587853074073792e-02
1.866000000000000000e+03 5.716901016235351562e+01 -2.758151435852050781e+01 -8.892954140901565552e-02 5.240879535675048828e+00 1.545584917068481445e+00 1.759970784187316895e+00
1.867000000000000000e+03 8.940505981445312500e+00 1.238227462768554688e+01 -1.354659814387559891e-02 -1.915846019983291626e-01 -6.153935939073562622e-02 2.607443034648895264e-01
1.868000000000000000e+03 2.468070983886718750e+01 1.474055099487304688e+01 -2.563248276710510254e-01 -1.070596650242805481e-01 -1.090153455734252930e-01 7.773746550083160400e-02
1.869000000000000000e+03 2.027463150024414062e+01 1.336481094360351562e+01 4.182050935924053192e-03 -2.313587814569473267e-01 -6.815301626920700073e-02 7.964132353663444519e-03
1.870000000000000000e+03 2.417057609558105469e+01 1.643045234680175781e+01 -3.115286231040954590e-01 -1.330986768007278442e-01 -1.333881914615631104e-01 2.009282410144805908e-01
1.871000000000000000e+03 1.300510406494140625e+01 -3.527541732788085938e+01 -7.983173243701457977e-03 -3.635374009609222412e-01 -1.114561706781387329e-01 -4.897666350007057190e-02
1.872000000000000000e+03 1.244010353088378906e+01 -3.915261459350585938e+01 3.649348616600036621e-01 -1.560096591711044312e-01 6.267755478620529175e-02 -1.378220021724700928e-01
1.873000000000000000e+03 4.692344284057617188e+01 -2.825535011291503906e+01 6.215436458587646484e-01 6.129169464111328125e-01 3.703381717205047607e-01 -6.177853345870971680e-01
1.874000000000000000e+03 4.762171936035156250e+01 -2.266333007812500000e+01 5.110583305358886719e-01 1.109895586967468262e+00 4.862861633300781250e-01 -7.503587603569030762e-01
1.875000000000000000e+03 2.528380966186523438e+01 -3.193156242370605469e+01 1.342717651277780533e-02 -3.818025887012481689e-01 -1.105126217007637024e-01 -8.225193619728088379e-02
1.876000000000000000e+03 2.464134025573730469e+01 -3.282502365112304688e+01 -1.073313597589731216e-02 -6.405517458915710449e-01 -1.953854560852050781e-01 -3.414132632315158844e-03
1.877000000000000000e+03 1.607334518432617188e+01 1.839676856994628906e+01 -7.084016799926757812e-01 -1.452664434909820557e-01 -2.561004161834716797e-01 2.694344520568847656e-01
1.878000000000000000e+03 2.096894264221191406e+01 1.733978462219238281e+01 -2.857207655906677246e-01 -1.688546538352966309e-01 -1.363726258277893066e-01 1.116460263729095459e-01
1.879000000000000000e+03 1.858876419067382812e+01 8.146441459655761719e+00 6.065509915351867676e-01 3.693856596946716309e-01 2.927809953689575195e-01 4.387562274932861328e-01
1.880000000000000000e+03 1.965997505187988281e+01 8.311953544616699219e+00 4.324362576007843018e-01 1.174834370613098145e-01 1.649759113788604736e-01 2.427389770746231079e-01
1.881000000000000000e+03 4.660696029663085938e+01 -2.717858695983886719e+01 3.543251156806945801e-01 6.910673975944519043e-01 3.136177361011505127e-01 -5.888816714286804199e-01
1.882000000000000000e+03 5.573866271972656250e+01 -2.006628227233886719e+01 1.394211947917938232e-01 3.984216213226318359e+00 1.237091183662414551e+00 7.897546887397766113e-01
1.883000000000000000e+03 2.568491363525390625e+01 -3.745282745361328125e+01 1.272776573896408081e-01 -3.005637228488922119e-01 -5.198581889271736145e-02 1.267044991254806519e-01
1.884000000000000000e+03 1.843888092041015625e+01 3.337097883224487305e+00 -7.288677692413330078e-01 -6.795857846736907959e-02 -2.390479147434234619e-01 2.774148285388946533e-01
1.885000000000000000e+03 5.246724319458007812e+01 -1.516942310333251953e+01 -1.357787847518920898e-01 -2.550696134567260742e-01 -1.172545179724693298e-01 2.625687718391418457e-01
1.886000000000000000e+03 5.181310272216796875e+01 -1.575768756866455078e+01 -4.840786755084991455e-01 -1.982897371053695679e-01 -2.047105282545089722e-01 2.882953882217407227e-01
1.887000000000000000e+03 4.593619155883789062e+01 -2.220103645324707031e+01 4.698964059352874756e-01 1.471504688262939453e+00 5.824203491210937500e-01 7.392819970846176147e-04
1.888000000000000000e+03 4.577629089355468750e+01 -2.676172828674316406e+01 3.596672117710113525e-01 6.204571723937988281e-01 2.940373122692108154e-01 -4.550488591194152832e-01
1.889000000000000000e+03 5.580830001831054688e+01 -2.089705848693847656e+01 4.647860527038574219e-01 4.906462192535400391e+00 1.611374497413635254e+00 1.239408731460571289e+00
1.890000000000000000e+03 3.670042800903320312e+01 1.152393150329589844e+01 -1.291446447372436523e+00 -8.596994876861572266e-01 -6.453437805175781250e-01 8.790245652198791504e-01
1.891000000000000000e+03 3.695744323730468750e+01 1.265682697296142578e+01 -5.316755175590515137e-01 -7.647529244422912598e-01 -3.889285326004028320e-01 3.803322315216064453e-01
1.892000000000000000e+03 2.356503295898437500e+01 -2.972321319580078125e+01 1.551401168107986450e-01 4.977322742342948914e-02 6.147400289773941040e-02 -1.305126100778579712e-01
1.893000000000000000e+03 1.381180381774902344e+01 1.917540359497070312e+01 2.726390585303306580e-02 2.961339354515075684e-01 9.701935201883316040e-02 5.156059861183166504e-01
1.894000000000000000e+03 1.250464534759521484e+01 2.196233749389648438e+01 9.600295871496200562e-02 1.057100072503089905e-01 6.051388755440711975e-02 3.511556684970855713e-01
1.895000000000000000e+03 1.723821830749511719e+01 1.799396896362304688e+01 -7.189093828201293945e-01 -2.077445983886718750e-01 -2.779962122440338135e-01 3.374420106410980225e-01
1.896000000000000000e+03 1.891929244995117188e+01 1.976469421386718750e+01 -1.391208916902542114e-01 -6.031355261802673340e-02 -5.983033031225204468e-02 5.927950888872146606e-02
1.897000000000000000e+03 1.901444816589355469e+01 7.617280483245849609e+00 3.989789485931396484e-01 1.967913508415222168e-01 1.787310987710952759e-01 2.454136013984680176e-01
1.898000000000000000e+03 4.586972427368164062e+01 3.022320175170898438e+01 7.399796843528747559e-01 2.172153472900390625e+00 8.736399412155151367e-01 -8.232179880142211914e-01
1.899000000000000000e+03 4.111147689819335938e+01 2.625129461288452148e+00 -1.921167492866516113e+00 -5.158931389451026917e-02 -5.918270349502563477e-01 -1.152764260768890381e-01
1.900000000000000000e+03 1.601743125915527344e+01 1.980932426452636719e+01 -7.932491600513458252e-02 -2.059383317828178406e-02 -2.997562661767005920e-02 3.506651520729064941e-01
1.901000000000000000e+03 2.103111648559570312e+01 1.308796596527099609e+01 -1.001272350549697876e-02 -2.271529734134674072e-01 -7.114970684051513672e-02 5.352500453591346741e-02
1.902000000000000000e+03 2.020302391052246094e+01 1.180681610107421875e+01 8.593509905040264130e-03 -1.802231967449188232e-01 -5.148890614509582520e-02 1.752505637705326080e-02
1.903000000000000000e+03 1.882251358032226562e+01 -2.575460815429687500e+01 5.254148840904235840e-01 5.412752553820610046e-02 1.738627105951309204e-01 -3.374893367290496826e-01
1.904000000000000000e+03 1.765669059753417969e+01 3.266674995422363281e+00 -7.110919952392578125e-01 -2.807272784411907196e-02 -2.217494249343872070e-01 3.355145156383514404e-01
1.905000000000000000e+03 1.768398284912109375e+01 6.027365684509277344e+00 -6.632769852876663208e-02 2.023044228553771973e-01 4.079301655292510986e-02 2.958553731441497803e-01
1.906000000000000000e+03 2.548145484924316406e+01 -3.522040176391601562e+01 2.740653231739997864e-03 -4.992633163928985596e-01 -1.489567905664443970e-01 -1.615005359053611755e-02
1.907000000000000000e+03 2.470699691772460938e+01 -3.611087799072265625e+01 -3.978464752435684204e-02 -6.799426078796386719e-01 -2.159181833267211914e-01 -2.129442058503627777e-02
1.908000000000000000e+03 3.681343841552734375e+01 2.242090606689453125e+01 5.281219631433486938e-02 8.480533212423324585e-02 4.128525778651237488e-02 4.989589378237724304e-02
1.909000000000000000e+03 1.825344276428222656e+01 7.064110279083251953e+00 3.113266229629516602e-01 2.304079085588455200e-01 1.625203639268875122e-01 2.704965770244598389e-01
1.910000000000000000e+03 3.133714866638183594e+01 2.569133186340332031e+01 -3.277069926261901855e-01 -3.811243772506713867e-01 -2.126494050025939941e-01 2.946734130382537842e-01
1.911000000000000000e+03 9.482714653015136719e+00 1.555023956298828125e+01 3.850193917751312256e-01 1.494638025760650635e-01 1.603449583053588867e-01 3.284388780593872070e-01
1.912000000000000000e+03 1.794499206542968750e+01 1.851925277709960938e+01 -4.309026896953582764e-01 -1.290544867515563965e-01 -1.679871529340744019e-01 1.528182774782180786e-01
1.913000000000000000e+03 3.218069839477539062e+01 2.322768592834472656e+01 -1.033493801951408386e-01 -9.981042891740798950e-02 -6.094794347882270813e-02 2.384958416223526001e-01
1.914000000000000000e+03 4.649806976318359375e+01 2.689223861694335938e+01 2.194641679525375366e-01 2.288856267929077148e+00 7.524961233139038086e-01 -6.807856261730194092e-02
1.915000000000000000e+03 1.840764999389648438e+01 1.800511741638183594e+01 -5.052227973937988281e-01 -1.600289046764373779e-01 -1.995755136013031006e-01 2.103418856859207153e-01
1.916000000000000000e+03 1.893483352661132812e+01 1.749517440795898438e+01 -4.548004865646362305e-01 -2.093384414911270142e-01 -1.992416828870773315e-01 2.348199784755706787e-01
1.917000000000000000e+03 1.308219623565673828e+01 -3.100167465209960938e+01 -2.323143482208251953e-01 -7.312121391296386719e-01 -2.890579402446746826e-01 -3.147557675838470459e-01
1.918000000000000000e+03 1.381957054138183594e+01 5.027052402496337891e+00 -3.822096884250640869e-01 -2.294690161943435669e-01 -1.835036128759384155e-01 4.220685064792633057e-01
1.919000000000000000e+03 1.585852909088134766e+01 3.832595109939575195e+00 -4.994178116321563721e-01 5.598061531782150269e-02 -1.330311596393585205e-01 4.354965984821319580e-01
1.920000000000000000e+03 1.213617515563964844e+01 -3.536919784545898438e+01 2.416742965579032898e-02 -3.314386904239654541e-01 -9.218137711286544800e-02 -1.886059343814849854e-01
1.921000000000000000e+03 4.467050170898437500e+01 1.768408012390136719e+01 -2.399504929780960083e-01 8.161675333976745605e-01 1.728651076555252075e-01 4.196782037615776062e-02
1.922000000000000000e+03 4.476089096069335938e+01 1.583698272705078125e+01 5.732938298024237156e-04 1.037748336791992188e+00 3.114964962005615234e-01 6.307407468557357788e-02
1.923000000000000000e+03 2.139137840270996094e+01 -2.740246772766113281e+01 6.265578866004943848e-01 3.058368563652038574e-01 2.797184288501739502e-01 -4.413782060146331787e-01
1.924000000000000000e+03 2.253304672241210938e+01 -2.604212379455566406e+01 4.764475822448730469e-01 5.167968198657035828e-02 1.584381759166717529e-01 -1.745045781135559082e-01
1.925000000000000000e+03 4.018610763549804688e+01 9.396487236022949219e+00 -4.857895970344543457e-01 -7.895742058753967285e-01 -3.826091289520263672e-01 4.212365150451660156e-01
1.926000000000000000e+03 2.091588401794433594e+01 1.236963939666748047e+01 1.643057540059089661e-02 -1.776585727930068970e-01 -4.836839810013771057e-02 3.652809932827949524e-02
1.927000000000000000e+03 2.125172805786132812e+01 -3.968320465087890625e+01 7.479579448699951172e-01 9.556910395622253418e-02 2.530581057071685791e-01 2.501412928104400635e-01
1.928000000000000000e+03 9.012052536010742188e+00 1.330742359161376953e+01 8.373481780290603638e-02 -4.751560091972351074e-02 1.086576469242572784e-02 2.679359614849090576e-01
1.929000000000000000e+03 3.624919891357421875e+01 3.344126129150390625e+01 3.457723557949066162e-01 4.555557966232299805e-01 2.403984516859054565e-01 2.439410537481307983e-01
1.930000000000000000e+03 1.064394664764404297e+01 1.728884506225585938e+01 4.589264094829559326e-01 3.315474092960357666e-01 2.371421456336975098e-01 2.730614840984344482e-01
1.931000000000000000e+03 2.362186813354492188e+01 -3.981322097778320312e+01 5.240790843963623047e-01 -1.294181793928146362e-01 1.183982715010643005e-01 6.092032790184020996e-02
1.932000000000000000e+03 9.889834403991699219e+00 2.646090269088745117e+00 -3.920912370085716248e-02 -5.982986092567443848e-02 -2.971169538795948029e-02 3.198310732841491699e-02
1.933000000000000000e+03 1.743103790283203125e+01 6.697196006774902344e+00 1.950628906488418579e-01 2.400358170270919800e-01 1.305296123027801514e-01 2.965517044067382812e-01
1.934000000000000000e+03 2.042584991455078125e+01 -4.078437423706054688e+01 8.069332838058471680e-01 7.319077104330062866e-02 2.640372216701507568e-01 1.392658352851867676e-01
1.935000000000000000e+03 2.228858375549316406e+01 -4.044597244262695312e+01 6.484794020652770996e-01 -5.089584738016128540e-02 1.792750656604766846e-01 4.680395126342773438e-02
1.936000000000000000e+03 7.630470752716064453e+00 2.562401533126831055e+00 -1.722922548651695251e-03 -2.826040238142013550e-02 -8.994997479021549225e-03 -2.372208051383495331e-02
1.937000000000000000e+03 1.398891258239746094e+01 -3.049003028869628906e+01 -2.675890624523162842e-01 -8.534807562828063965e-01 -3.363209366798400879e-01 -4.464885592460632324e-01
1.938000000000000000e+03 1.343860626220703125e+01 -3.025232887268066406e+01 -2.527867555618286133e-01 -7.204883694648742676e-01 -2.919825315475463867e-01 -3.534860014915466309e-01
1.939000000000000000e+03 2.459443283081054688e+01 -3.022010993957519531e+01 1.855174750089645386e-01 -2.380129545927047729e-01 -1.574864052236080170e-02 -1.372770667076110840e-01
1.940000000000000000e+03 5.463428115844726562e+01 7.363800048828125000e+00 -5.338788032531738281e-01 2.912685155868530273e+00 7.136419415473937988e-01 -1.386684179306030273e-01
1.941000000000000000e+03 2.347185325622558594e+01 -3.833661651611328125e+01 1.995237618684768677e-01 -4.345273599028587341e-03 5.855354666709899902e-02 2.456219494342803955e-02
1.942000000000000000e+03 1.968362236022949219e+01 -4.102819061279296875e+01 9.028131365776062012e-01 1.229163333773612976e-01 3.077188432216644287e-01 1.186809092760086060e-01
1.943000000000000000e+03 1.535469245910644531e+01 -2.848238372802734375e+01 -3.361822068691253662e-01 -5.529652237892150879e-01 -2.667442262172698975e-01 -4.152396321296691895e-01
1.944000000000000000e+03 4.679489517211914062e+01 1.720840215682983398e+00 -1.185472846031188965e+00 2.453806400299072266e-01 -2.820276618003845215e-01 3.935718536376953125e-02
1.945000000000000000e+03 1.477557563781738281e+01 -2.814039802551269531e+01 -1.879844665527343750e-01 -5.872577428817749023e-01 -2.325726598501205444e-01 -3.306281864643096924e-01
1.946000000000000000e+03 6.032938003540039062e+01 9.731361389160156250e+00 6.115726232528686523e-01 7.855853557586669922e+00 2.540227890014648438e+00 -1.216272950172424316e+00
1.947000000000000000e+03 2.675040054321289062e+01 -2.216029167175292969e+01 8.233959972858428955e-02 -1.667013466358184814e-01 -2.530852518975734711e-02 -1.229036226868629456e-01
1.948000000000000000e+03 4.311712646484375000e+01 3.246925354003906250e+01 8.122058510780334473e-01 8.420049548149108887e-01 4.962632358074188232e-01 -7.916712760925292969e-01
1.949000000000000000e+03 4.213744354248046875e+01 3.482080841064453125e+01 6.603695750236511230e-01 7.091407179832458496e-01 4.108530879020690918e-01 -5.068210363388061523e-01
1.950000000000000000e+03 3.904711914062500000e+01 3.538301086425781250e+01 6.367556452751159668e-01 3.547469973564147949e-01 2.974508106708526611e-01 -4.487729445099830627e-02
1.951000000000000000e+03 1.384110164642333984e+01 -2.953067970275878906e+01 -2.652257084846496582e-01 -6.862622499465942383e-01 -2.854464054107666016e-01 -3.653666973114013672e-01
1.952000000000000000e+03 5.193100738525390625e+01 1.784602999687194824e+00 -1.123175382614135742e+00 -1.220555007457733154e-01 -3.735692799091339111e-01 -3.683131560683250427e-02
1.953000000000000000e+03 5.027829360961914062e+01 5.745334148406982422e+00 -3.606702089309692383e-01 -2.430522441864013672e-02 -1.154926344752311707e-01 -1.354844868183135986e-01
1.954000000000000000e+03 1.208909320831298828e+01 -3.436706542968750000e+01 -4.652649164199829102e-02 -4.330155253410339355e-01 -1.438626050949096680e-01 -1.875303685665130615e-01
1.955000000000000000e+03 2.540879631042480469e+01 -3.370365142822265625e+01 6.415788549929857254e-03 -4.796695411205291748e-01 -1.419761329889297485e-01 -2.761127799749374390e-02
1.956000000000000000e+03 1.251620864868164062e+01 -3.259029388427734375e+01 -1.519287824630737305e-01 -6.310166716575622559e-01 -2.348836362361907959e-01 -2.375728785991668701e-01
1.957000000000000000e+03 1.229268360137939453e+01 -3.343749618530273438e+01 -8.836475759744644165e-02 -5.438804626464843750e-01 -1.896735727787017822e-01 -2.100351303815841675e-01
1.958000000000000000e+03 1.614510154724121094e+01 -4.005699157714843750e+01 7.742069363594055176e-01 3.032167255878448486e-01 3.232271075248718262e-01 -2.961761653423309326e-01
1.959000000000000000e+03 3.921546936035156250e+01 2.213240432739257812e+01 2.052498161792755127e-01 -6.120735313743352890e-03 5.973872542381286621e-02 3.126819850876927376e-03
1.960000000000000000e+03 2.173969268798828125e+01 -2.641661262512207031e+01 6.038876175880432129e-01 9.293864667415618896e-02 2.090478837490081787e-01 -1.859058886766433716e-01
1.961000000000000000e+03 1.334628295898437500e+01 -3.786917495727539062e+01 2.367821335792541504e-01 -3.617146052420139313e-03 6.994949281215667725e-02 -1.645940095186233521e-01
1.962000000000000000e+03 1.370098304748535156e+01 -3.853745269775390625e+01 3.330871164798736572e-01 5.372892692685127258e-02 1.160448119044303894e-01 -1.947126686573028564e-01
1.963000000000000000e+03 3.728760910034179688e+01 2.379347419738769531e+01 -2.459798753261566162e-02 3.674511611461639404e-02 3.644138341769576073e-03 6.869449280202388763e-03
1.964000000000000000e+03 3.724242019653320312e+01 1.098092555999755859e+01 -1.065750122070312500e+00 -1.073621153831481934e+00 -6.418113708496093750e-01 1.035326361656188965e+00
1.965000000000000000e+03 1.317958927154541016e+01 -2.471735763549804688e+01 1.966090127825737000e-02 -4.875884652137756348e-01 -1.403782665729522705e-01 -3.556948602199554443e-01
1.966000000000000000e+03 2.463158798217773438e+01 -3.362611007690429688e+01 9.795413352549076080e-03 -6.426897048950195312e-01 -1.898682862520217896e-01 -5.500788334757089615e-03
1.967000000000000000e+03 4.448555755615234375e+01 2.010651588439941406e+01 -4.731944762170314789e-03 7.577859163284301758e-01 2.259161919355392456e-01 3.276755809783935547e-01
1.968000000000000000e+03 4.514147567749023438e+01 1.083097267150878906e+01 3.536082208156585693e-01 2.455498456954956055e+00 8.427319526672363281e-01 -7.196258902549743652e-01
1.969000000000000000e+03 4.486378097534179688e+01 9.833290100097656250e+00 4.210249781608581543e-01 1.574685931205749512e+00 5.987132787704467773e-01 -4.132045805454254150e-01
1.970000000000000000e+03 4.369081115722656250e+01 2.207802200317382812e+01 5.613740086555480957e-01 5.845202803611755371e-01 3.437682986259460449e-01 4.835902750492095947e-01
1.971000000000000000e+03 3.727967453002929688e+01 3.495627212524414062e+01 4.905339777469635010e-01 3.438747227191925049e-01 2.503226101398468018e-01 1.780316084623336792e-01
1.972000000000000000e+03 4.545880508422851562e+01 1.750599861145019531e+01 -2.841780185699462891e-01 7.164448499679565430e-01 1.296800374984741211e-01 4.661174863576889038e-02
1.973000000000000000e+03 4.613202285766601562e+01 1.717833137512207031e+01 -6.934414803981781006e-02 4.018847048282623291e-01 9.976216405630111694e-02 7.949952781200408936e-02
1.974000000000000000e+03 4.365255355834960938e+01 1.137618350982666016e+01 2.823810875415802002e-01 1.189339756965637207e+00 4.415162503719329834e-01 -2.420834302902221680e-01
1.975000000000000000e+03 3.565029525756835938e+01 3.067112731933593750e+01 1.179349794983863831e-01 7.621899843215942383e-01 2.640374898910522461e-01 2.244711369276046753e-01
1.976000000000000000e+03 4.617798614501953125e+01 2.353942298889160156e+01 5.052613615989685059e-01 1.368413686752319336e+00 5.621024966239929199e-01 3.484099507331848145e-01
1.977000000000000000e+03 3.809684371948242188e+01 3.496672439575195312e+01 5.668231248855590820e-01 3.104358017444610596e-01 2.631776928901672363e-01 1.312398761510848999e-01
1.978000000000000000e+03 3.443167877197265625e+01 2.815194702148437500e+01 8.332303911447525024e-02 6.750290989875793457e-01 2.275056391954421997e-01 -1.052986457943916321e-02
1.979000000000000000e+03 3.734978866577148438e+01 2.280532264709472656e+01 2.657005563378334045e-02 4.414550215005874634e-02 2.121466770768165588e-02 1.552799064666032791e-02
1.980000000000000000e+03 4.555630111694335938e+01 2.325181770324707031e+01 5.179600715637207031e-01 1.197792172431945801e+00 5.147256851196289062e-01 4.812808334827423096e-01
1.981000000000000000e+03 4.496199798583984375e+01 2.291084671020507812e+01 5.872964859008789062e-01 9.780671000480651855e-01 4.696090817451477051e-01 5.809566974639892578e-01
1.982000000000000000e+03 3.825848388671875000e+01 1.089398574829101562e+01 -6.921060085296630859e-01 -1.143594384193420410e+00 -5.507101416587829590e-01 7.278597950935363770e-01
1.983000000000000000e+03 4.370714187622070312e+01 3.190671157836914062e+01 8.246687054634094238e-01 1.040639162063598633e+00 5.595923662185668945e-01 -8.705601692199707031e-01
1.984000000000000000e+03 4.319908523559570312e+01 3.353322219848632812e+01 6.275173425674438477e-01 9.621326923370361328e-01 4.768950045108795166e-01 -6.762734651565551758e-01
1.985000000000000000e+03 6.304722213745117188e+01 -2.738251113891601562e+01 -1.699991226196289062e+00 1.508775472640991211e+00 -5.736473575234413147e-02 -4.200518727302551270e-01
1.986000000000000000e+03 5.356974029541015625e+01 1.947578668594360352e+00 -9.314275979995727539e-01 6.380283087491989136e-02 -2.602874338626861572e-01 -2.323082238435745239e-01
1.987000000000000000e+03 5.152187347412109375e+01 3.869354963302612305e+00 -4.437414705753326416e-01 -1.360095590353012085e-01 -1.739253103733062744e-01 -2.080352306365966797e-01
1.988000000000000000e+03 5.441649627685546875e+01 2.607237815856933594e+00 -5.675176382064819336e-01 5.993582606315612793e-01 9.552194736897945404e-03 -6.031557321548461914e-01
1.989000000000000000e+03 4.440472793579101562e+01 3.239074325561523438e+01 6.921159029006958008e-01 1.370488286018371582e+00 6.187812685966491699e-01 -8.813316226005554199e-01
1.990000000000000000e+03 4.547522354125976562e+01 3.102126693725585938e+01 6.954917907714843750e-01 1.924699544906616211e+00 7.860573530197143555e-01 -8.980255126953125000e-01
1.991000000000000000e+03 3.530823135375976562e+01 2.899752807617187500e+01 5.725554376840591431e-02 9.647154211997985840e-01 3.065913021564483643e-01 8.837338536977767944e-02
1.992000000000000000e+03 3.775230026245117188e+01 1.145380496978759766e+01 -8.175147175788879395e-01 -9.772362112998962402e-01 -5.384252667427062988e-01 6.680315732955932617e-01
1.993000000000000000e+03 4.644588088989257812e+01 2.770241737365722656e+01 2.658890783786773682e-01 2.352348089218139648e+00 7.854711413383483887e-01 -3.487965464591979980e-01
1.994000000000000000e+03 3.481752395629882812e+01 1.293216419219970703e+01 -6.927189230918884277e-01 -3.035968840122222900e-01 -2.988947331905364990e-01 3.840062320232391357e-01
1.995000000000000000e+03 4.151241302490234375e+01 3.552869033813476562e+01 6.308534741401672363e-01 6.269813179969787598e-01 3.773504495620727539e-01 -3.485757708549499512e-01
1.996000000000000000e+03 4.068717193603515625e+01 3.464845657348632812e+01 7.473897933959960938e-01 3.538992404937744141e-01 3.303866982460021973e-01 -2.846536338329315186e-01
1.997000000000000000e+03 4.634454727172851562e+01 2.853614616394042969e+01 4.992031157016754150e-01 2.361543893814086914e+00 8.582240939140319824e-01 -5.899254083633422852e-01
1.998000000000000000e+03 4.006203079223632812e+01 5.871311664581298828e+00 -5.370853468775749207e-02 -7.347053885459899902e-01 -2.365241795778274536e-01 4.360079169273376465e-01
1.999000000000000000e+03 3.935345840454101562e+01 5.824725151062011719e+00 1.227569300681352615e-02 -7.447524666786193848e-01 -2.197430431842803955e-01 1.703340113162994385e-01
2.000000000000000000e+03 3.676708984375000000e+01 2.340616989135742188e+01 -3.613652661442756653e-02 1.376699656248092651e-01 3.046002984046936035e-02 5.431529134511947632e-03
2.001000000000000000e+03 3.475508117675781250e+01 3.102259445190429688e+01 1.710429489612579346e-01 5.829981565475463867e-01 2.262123376131057739e-01 1.339842528104782104e-01
2.002000000000000000e+03 4.267387008666992188e+01 3.416681289672851562e+01 6.433767676353454590e-01 8.392735123634338379e-01 4.447951018810272217e-01 -5.910815000534057617e-01
2.003000000000000000e+03 3.303443527221679688e+01 2.159591865539550781e+01 -9.972629137337207794e-03 1.681998968124389648e-01 4.746818169951438904e-02 2.461111992597579956e-01
2.004000000000000000e+03 3.569340896606445312e+01 2.468178367614746094e+01 -8.667882531881332397e-02 4.511433839797973633e-01 1.093393713235855103e-01 -1.537830848246812820e-02
2.005000000000000000e+03 4.571646118164062500e+01 1.645170593261718750e+01 5.901792645454406738e-02 7.614232897758483887e-01 2.461323589086532593e-01 2.294168174266815186e-01
2.006000000000000000e+03 4.377563095092773438e+01 3.295046997070312500e+01 7.126905918121337891e-01 1.135845065116882324e+00 5.545607209205627441e-01 -7.657667398452758789e-01
2.007000000000000000e+03 4.584667587280273438e+01 8.455231666564941406e+00 2.975520193576812744e-01 1.100411653518676758e+00 4.193890988826751709e-01 -4.885742962360382080e-01
2.008000000000000000e+03 4.494899368286132812e+01 1.409968662261962891e+01 1.003257930278778076e-01 1.805484056472778320e+00 5.717429518699645996e-01 2.150096595287322998e-01
2.009000000000000000e+03 4.171062469482421875e+01 1.156069755554199219e+01 6.508235633373260498e-02 1.527404189109802246e-01 6.534683704376220703e-02 -9.601543843746185303e-02
2.010000000000000000e+03 5.447556304931640625e+01 1.473723602294921875e+01 1.907379508018493652e+00 4.581148147583007812e+00 1.946558356285095215e+00 -2.055151700973510742e+00
2.011000000000000000e+03 4.601549148559570312e+01 1.827828598022460938e+01 -4.571874141693115234e-01 5.899803638458251953e-01 3.983789309859275818e-02 6.526717543601989746e-02
2.012000000000000000e+03 5.574094772338867188e+01 1.501875877380371094e+01 1.912319064140319824e+00 4.572749614715576172e+00 1.945520520210266113e+00 -1.567366003990173340e+00
2.013000000000000000e+03 5.745065307617187500e+01 1.105029487609863281e+01 1.119507074356079102e+00 5.855558872222900391e+00 2.092519760131835938e+00 -7.938318252563476562e-01
2.014000000000000000e+03 5.528628540039062500e+01 9.115887641906738281e+00 2.064263522624969482e-01 4.249063491821289062e+00 1.336647033691406250e+00 -2.354627661406993866e-02
2.015000000000000000e+03 4.507944488525390625e+01 1.666393661499023438e+01 -6.043414026498794556e-02 8.483707904815673828e-01 2.363809943199157715e-01 4.314103350043296814e-02
2.016000000000000000e+03 4.418669509887695312e+01 1.327902889251708984e+01 2.179579734802246094e-01 1.621625304222106934e+00 5.518749952316284180e-01 -1.865862756967544556e-01
2.017000000000000000e+03 4.431838226318359375e+01 1.150680732727050781e+01 2.963116765022277832e-01 1.770974278450012207e+00 6.201857924461364746e-01 -3.503539860248565674e-01
2.018000000000000000e+03 5.271476364135742188e+01 1.672063636779785156e+01 1.745825529098510742e+00 3.098356008529663086e+00 1.453254461288452148e+00 -2.280797481536865234e+00
2.019000000000000000e+03 4.430220794677734375e+01 1.415887641906738281e+01 9.611129015684127808e-02 1.463516473770141602e+00 4.678883254528045654e-01 -8.816116303205490112e-02
2.020000000000000000e+03 5.052593994140625000e+01 1.786548423767089844e+01 1.429111361503601074e+00 1.610207915306091309e+00 9.117957949638366699e-01 -1.552268266677856445e+00
2.021000000000000000e+03 5.027980422973632812e+01 1.892360305786132812e+01 1.383091062307357788e-01 1.865998387336730957e+00 6.012922525405883789e-01 -1.316055774688720703e+00
2.022000000000000000e+03 4.298196029663085938e+01 1.127147006988525391e+01 2.581788599491119385e-01 8.074924349784851074e-01 3.197014033794403076e-01 -1.544974297285079956e-01
2.023000000000000000e+03 4.450109100341796875e+01 1.500648498535156250e+01 6.381022185087203979e-02 1.264473080635070801e+00 3.984849750995635986e-01 1.410856004804372787e-02
2.024000000000000000e+03 4.698999023437500000e+01 8.209403038024902344e+00 5.389224290847778320e-01 7.181791067123413086e-01 3.771304786205291748e-01 -6.054229736328125000e-01
2.025000000000000000e+03 4.728834152221679688e+01 6.689546585083007812e+00 7.183106988668441772e-02 5.409136414527893066e-01 1.838234215974807739e-01 -3.094024062156677246e-01
2.026000000000000000e+03 5.152345275878906250e+01 1.786335182189941406e+01 1.149942755699157715e+00 2.467993021011352539e+00 1.085380673408508301e+00 -1.833856225013732910e+00
2.027000000000000000e+03 4.684549713134765625e+01 7.273472309112548828e+00 1.894090175628662109e-01 6.691681146621704102e-01 2.575731575489044189e-01 -3.928939998149871826e-01
2.028000000000000000e+03 5.090850067138671875e+01 1.840166854858398438e+01 8.240659236907958984e-01 2.159185886383056641e+00 8.949755430221557617e-01 -1.550970315933227539e+00
2.029000000000000000e+03 5.212533950805664062e+01 1.730422210693359375e+01 1.530069589614868164e+00 2.747587680816650391e+00 1.283297181129455566e+00 -2.068114519119262695e+00
2.030000000000000000e+03 5.549229431152343750e+01 1.106111431121826172e+01 4.751625061035156250e-01 5.093230247497558594e+00 1.670517802238464355e+00 -5.245392322540283203e-01
2.031000000000000000e+03 5.548641586303710938e+01 1.006414318084716797e+01 2.967869043350219727e-01 4.808195114135742188e+00 1.531494617462158203e+00 -1.561236232519149780e-01
2.032000000000000000e+03 5.976892471313476562e+01 1.159271621704101562e+01 1.644644141197204590e+00 8.257930755615234375e+00 2.970772504806518555e+00 -1.332084059715270996e+00
2.033000000000000000e+03 5.329651641845703125e+01 1.610745239257812500e+01 1.887060403823852539e+00 3.572055816650390625e+00 1.637734889984130859e+00 -2.374376058578491211e+00
2.034000000000000000e+03 5.658058929443359375e+01 -1.005595779418945312e+01 -2.913897514343261719e+00 -7.431014776229858398e-01 -1.097099661827087402e+00 1.108545541763305664e+00
2.035000000000000000e+03 6.585237121582031250e+01 -4.055103302001953125e+00 2.469587802886962891e+00 9.903293609619140625e+00 3.711864471435546875e+00 3.811241149902343750e+00
2.036000000000000000e+03 6.170867538452148438e+01 -8.859593391418457031e+00 2.689812421798706055e+00 1.298088359832763672e+01 4.701209068298339844e+00 1.302799344062805176e+00
2.037000000000000000e+03 7.947296142578125000e+01 3.884186172485351562e+01 5.974287632852792740e-03 7.799779415130615234e+00 2.341726064682006836e+00 1.234620250761508942e-02
2.038000000000000000e+03 7.869919586181640625e+01 3.710242462158203125e+01 8.075417950749397278e-03 7.567897319793701172e+00 2.272791862487792969e+00 -1.778566977009177208e-03
2.039000000000000000e+03 7.964949035644531250e+01 3.565804290771484375e+01 -1.136970985680818558e-02 7.808158397674560547e+00 2.339036703109741211e+00 7.452870486304163933e-04
2.040000000000000000e+03 7.893542480468750000e+01 3.419083786010742188e+01 8.841142058372497559e-03 7.632170200347900391e+00 2.292303323745727539e+00 -8.071939460933208466e-03
2.041000000000000000e+03 7.807130432128906250e+01 3.084872436523437500e+01 4.088795185089111328e-02 7.508062839508056641e+00 2.264685392379760742e+00 -1.324990987777709961e-01
2.042000000000000000e+03 7.959632873535156250e+01 3.249853897094726562e+01 -5.160294822417199612e-04 7.871498107910156250e+00 2.361294746398925781e+00 -1.062100473791360855e-02
2.043000000000000000e+03 7.885823822021484375e+01 2.926991653442382812e+01 1.365657616406679153e-02 7.891196727752685547e+00 2.371455907821655273e+00 -1.202115193009376526e-01
2.044000000000000000e+03 7.890964508056640625e+01 1.407393741607666016e+01 9.928640723228454590e-02 6.044554233551025391e+00 1.843152284622192383e+00 3.814817965030670166e-01
2.045000000000000000e+03 7.963931274414062500e+01 1.484772396087646484e+01 1.255080383270978928e-02 5.723268032073974609e+00 1.720745563507080078e+00 1.850916594266891479e-01
2.046000000000000000e+03 7.892555236816406250e+01 1.964988517761230469e+01 -7.378194481134414673e-02 8.079269409179687500e+00 2.401646375656127930e+00 3.898670375347137451e-01
2.047000000000000000e+03 7.963661193847656250e+01 2.125312805175781250e+01 -1.314141973853111267e-02 8.718191146850585938e+00 2.611514806747436523e+00 8.695066720247268677e-02
2.048000000000000000e+03 7.887402343750000000e+01 2.767115402221679688e+01 3.466770751401782036e-03 8.071044921875000000e+00 2.422353506088256836e+00 -1.447893381118774414e-01
2.049000000000000000e+03 7.962139892578125000e+01 2.847154998779296875e+01 1.091045676730573177e-03 8.245348930358886719e+00 2.473931789398193359e+00 -4.236905276775360107e-02
2.050000000000000000e+03 7.961373138427734375e+01 3.007527732849121094e+01 3.652775194495916367e-03 8.049300193786621094e+00 2.415885686874389648e+00 -3.164192661643028259e-02
2.051000000000000000e+03 7.883221435546875000e+01 3.087825584411621094e+01 1.726326905190944672e-02 7.749112606048583984e+00 2.329912662506103516e+00 -8.231469988822937012e-02
2.052000000000000000e+03 7.886669158935546875e+01 2.847069168090820312e+01 1.113777887076139450e-02 7.977957725524902344e+00 2.396728515625000000e+00 -1.372023671865463257e-01
2.053000000000000000e+03 7.888096618652343750e+01 2.686987304687500000e+01 -6.775774527341127396e-04 8.169631004333496094e+00 2.450685977935791016e+00 -1.479005068540573120e-01
2.054000000000000000e+03 7.748502349853515625e+01 2.278426742553710938e+01 -2.429099380970001221e-01 7.940756797790527344e+00 2.309354066848754883e+00 9.630300104618072510e-03
2.055000000000000000e+03 7.890859985351562500e+01 2.285613250732421875e+01 -6.024530902504920959e-02 8.497396469116210938e+00 2.531145334243774414e+00 3.043341450393199921e-02
2.056000000000000000e+03 7.890395355224609375e+01 2.365986442565917969e+01 -4.268168658018112183e-02 8.480920791625976562e+00 2.531471729278564453e+00 -3.379853814840316772e-02
2.057000000000000000e+03 7.963348388671875000e+01 2.366034126281738281e+01 -1.279371790587902069e-02 8.860962867736816406e+00 2.654450893402099609e+00 -1.351272920146584511e-03
2.058000000000000000e+03 7.891176605224609375e+01 2.205249595642089844e+01 -6.463938206434249878e-02 8.471045494079589844e+00 2.521921634674072266e+00 1.106589883565902710e-01
2.059000000000000000e+03 7.749410247802734375e+01 2.118296051025390625e+01 -3.192989230155944824e-01 7.989735603332519531e+00 2.301131010055541992e+00 3.025907278060913086e-01
2.060000000000000000e+03 7.891780853271484375e+01 2.044949150085449219e+01 -7.445654273033142090e-02 8.264281272888183594e+00 2.456947565078735352e+00 2.966074347496032715e-01
2.061000000000000000e+03 7.207944488525390625e+01 1.690942573547363281e+01 -3.567450344562530518e-01 8.585225105285644531e+00 2.468544244766235352e+00 -5.112727880477905273e-01
2.062000000000000000e+03 7.893681335449218750e+01 1.645532798767089844e+01 1.641205884516239166e-02 6.883719444274902344e+00 2.070039510726928711e+00 5.792291760444641113e-01
2.063000000000000000e+03 7.894033813476562500e+01 1.725050354003906250e+01 -1.142186019569635391e-02 7.217230796813964844e+00 2.161742687225341797e+00 5.813724398612976074e-01
2.064000000000000000e+03 7.964505767822265625e+01 1.724662590026855469e+01 -1.695587998256087303e-03 7.059269428253173828e+00 2.117272138595581055e+00 2.248975634574890137e-01
2.065000000000000000e+03 7.892107391357421875e+01 1.487091350555419922e+01 7.005764544010162354e-02 6.278950691223144531e+00 1.904702544212341309e+00 4.844104647636413574e-01
2.066000000000000000e+03 7.889317321777343750e+01 1.327057647705078125e+01 1.224401071667671204e-01 5.880753517150878906e+00 1.800958037376403809e+00 2.475692033767700195e-01
2.067000000000000000e+03 7.885810089111328125e+01 1.165683555603027344e+01 1.319133788347244263e-01 5.802607059478759766e+00 1.780356168746948242e+00 -7.068213075399398804e-02
2.068000000000000000e+03 7.333024597167968750e+01 9.240601539611816406e+00 7.770715355873107910e-01 9.375382423400878906e+00 3.045736074447631836e+00 1.350738946348428726e-02
2.069000000000000000e+03 7.731052398681640625e+01 1.168635940551757812e+01 5.869095921516418457e-01 6.994437217712402344e+00 2.274404048919677734e+00 -7.331439852714538574e-02
2.070000000000000000e+03 7.889636993408203125e+01 9.238925933837890625e+00 5.444783717393875122e-02 6.207590579986572266e+00 1.878611445426940918e+00 -4.294547438621520996e-01
2.071000000000000000e+03 7.887104034423828125e+01 -1.370258045196533203e+01 -1.753644496202468872e-01 9.340974807739257812e+00 2.749683141708374023e+00 1.127424165606498718e-01
2.072000000000000000e+03 7.962332153320312500e+01 -1.392281818389892578e+01 -5.583608895540237427e-02 9.938201904296875000e+00 2.964709758758544922e+00 5.406919494271278381e-02
2.073000000000000000e+03 7.966223144531250000e+01 -2.118717765808105469e+01 2.542441524565219879e-02 6.196762084960937500e+00 1.866655945777893066e+00 5.776845663785934448e-02
2.074000000000000000e+03 7.965558624267578125e+01 -2.038626861572265625e+01 3.437716886401176453e-02 6.410953521728515625e+00 1.933599233627319336e+00 1.270548105239868164e-01
2.075000000000000000e+03 7.964421081542968750e+01 -6.747520446777343750e+00 2.874868176877498627e-02 6.261560916900634766e+00 1.887092828750610352e+00 -2.350773662328720093e-02
2.076000000000000000e+03 7.964373016357421875e+01 -5.941601753234863281e+00 5.012435466051101685e-02 6.285120964050292969e+00 1.900573611259460449e+00 6.072349846363067627e-02
2.077000000000000000e+03 7.832087707519531250e+01 -3.298494338989257812e+00 -6.227606907486915588e-03 8.043114662170410156e+00 2.411066055297851562e+00 6.309095025062561035e-01
2.078000000000000000e+03 7.963640594482421875e+01 4.397974014282226562e-01 -3.067572414875030518e-02 8.704713821411132812e+00 2.602211475372314453e+00 2.350881509482860565e-02
2.079000000000000000e+03 7.894118499755859375e+01 7.637210845947265625e+00 -6.731009110808372498e-03 6.722050666809082031e+00 2.014595985412597656e+00 -4.899582564830780029e-01
2.080000000000000000e+03 7.964344787597656250e+01 7.628492832183837891e+00 4.573446698486804962e-03 6.493985176086425781e+00 1.949567556381225586e+00 -1.852803081274032593e-01
2.081000000000000000e+03 7.893520355224609375e+01 3.556863784790039062e+01 1.171617419458925724e-03 7.648478984832763672e+00 2.294895172119140625e+00 -6.172556895762681961e-03
2.082000000000000000e+03 7.823948669433593750e+01 -3.635783386230468750e+01 3.018947504460811615e-02 7.669309616088867188e+00 2.309849739074707031e+00 1.134406682103872299e-02
2.083000000000000000e+03 7.959926605224609375e+01 -3.485292816162109375e+01 -2.331856638193130493e-03 8.143530845642089844e+00 2.442359685897827148e+00 1.748324185609817505e-02
2.084000000000000000e+03 7.888933563232421875e+01 -2.829076957702636719e+01 -1.136125773191452026e-01 8.278574943542480469e+00 2.449488878250122070e+00 -1.636973768472671509e-01
2.085000000000000000e+03 7.961770629882812500e+01 -2.759329795837402344e+01 -3.246404230594635010e-02 8.382983207702636719e+00 2.505155801773071289e+00 -1.263941973447799683e-01
2.086000000000000000e+03 7.966349792480468750e+01 -2.357988929748535156e+01 3.347381576895713806e-02 6.557565212249755859e+00 1.977311611175537109e+00 -1.515813916921615601e-01
2.087000000000000000e+03 7.947348785400390625e+01 4.044476699829101562e+01 1.626821979880332947e-02 7.847346305847167969e+00 2.359084367752075195e+00 2.801597304642200470e-02
2.088000000000000000e+03 7.883396148681640625e+01 3.632715606689453125e+01 -1.466626068577170372e-03 7.617393970489501953e+00 2.284778356552124023e+00 -1.861881348304450512e-03
2.089000000000000000e+03 7.805628204345703125e+01 3.615390396118164062e+01 9.227528236806392670e-03 7.405763149261474609e+00 2.224497318267822266e+00 -1.149388379417359829e-03
2.090000000000000000e+03 7.728947448730468750e+01 3.160722160339355469e+01 7.213733345270156860e-02 7.214061737060546875e+00 2.185859680175781250e+00 -1.312863975763320923e-01
2.091000000000000000e+03 7.963077545166015625e+01 9.232744216918945312e+00 1.368503831326961517e-02 5.708644866943359375e+00 1.716698884963989258e+00 -1.609093844890594482e-01
2.092000000000000000e+03 7.892321014404296875e+01 8.435284614562988281e+00 3.389963507652282715e-02 6.452066898345947266e+00 1.945789933204650879e+00 -4.822049438953399658e-01
2.093000000000000000e+03 7.825998687744140625e+01 6.073997497558593750e+00 -6.288833916187286377e-02 7.286718368530273438e+00 2.167149066925048828e+00 -6.371644139289855957e-01
2.094000000000000000e+03 7.894340515136718750e+01 6.058588027954101562e+00 -3.711844235658645630e-02 7.269003868103027344e+00 2.169565677642822266e+00 -4.496372938156127930e-01
2.095000000000000000e+03 7.756752014160156250e+01 5.319015502929687500e+00 -1.494680196046829224e-01 7.393891811370849609e+00 2.173327207565307617e+00 -6.733421683311462402e-01
2.096000000000000000e+03 7.893799591064453125e+01 2.109158515930175781e+00 -5.099568143486976624e-02 8.208458900451660156e+00 2.447239160537719727e+00 -1.596103161573410034e-01
2.097000000000000000e+03 7.964514923095703125e+01 2.838903427124023438e+00 -1.500312588177621365e-03 8.455799102783203125e+00 2.536289691925048828e+00 -8.301292359828948975e-02
2.098000000000000000e+03 7.892445373535156250e+01 1.314827561378479004e+00 -8.349327743053436279e-02 8.285300254821777344e+00 2.460541963577270508e+00 -7.387976348400115967e-02
2.099000000000000000e+03 7.891076660156250000e+01 5.209773778915405273e-01 -7.721292227506637573e-02 8.316640853881835938e+00 2.471828222274780273e+00 2.482407540082931519e-02
2.100000000000000000e+03 7.891269683837890625e+01 -1.067948698997497559e+00 -9.266817569732666016e-02 8.229785919189453125e+00 2.441135406494140625e+00 2.618853449821472168e-01
2.101000000000000000e+03 7.896905517578125000e+01 -2.637372732162475586e+00 -5.035023763775825500e-02 7.926161289215087891e+00 2.362743377685546875e+00 4.756779074668884277e-01
2.102000000000000000e+03 7.485642242431640625e+01 -5.447181224822998047e+00 1.244356393814086914e+00 1.360677719116210938e+01 4.455340385437011719e+00 -2.876817226409912109e+00
2.103000000000000000e+03 7.458696746826171875e+01 -4.658248424530029297e+00 1.223468780517578125e+00 1.051206016540527344e+01 3.520658731460571289e+00 -3.229821681976318359e+00
2.104000000000000000e+03 7.500968933105468750e+01 -6.254734039306640625e+00 7.882787585258483887e-01 1.539701843261718750e+01 4.855589389801025391e+00 -1.616998314857482910e+00
2.105000000000000000e+03 7.965702056884765625e+01 -4.340090751647949219e+00 3.027580119669437408e-02 6.844032287597656250e+00 2.062292337417602539e+00 1.852625459432601929e-01
2.106000000000000000e+03 7.894013214111328125e+01 -6.616632938385009766e+00 2.119181603193283081e-01 7.274013519287109375e+00 2.245779514312744141e+00 -6.946582347154617310e-02
2.107000000000000000e+03 7.897275543212890625e+01 -4.198263168334960938e+00 4.840004444122314453e-02 7.511193752288818359e+00 2.267878055572509766e+00 4.841195940971374512e-01
2.108000000000000000e+03 7.551048278808593750e+01 -9.286290168762207031e+00 1.117108106613159180e+00 1.155152988433837891e+01 3.800591468811035156e+00 5.858972668647766113e-01
2.109000000000000000e+03 7.898681640625000000e+01 -1.131522083282470703e+01 -1.499441713094711304e-01 9.082124710083007812e+00 2.679654121398925781e+00 -6.044523119926452637e-01
2.110000000000000000e+03 7.905171966552734375e+01 -1.058197212219238281e+01 -6.639363616704940796e-02 8.769875526428222656e+00 2.611044406890869141e+00 -7.392577528953552246e-01
2.111000000000000000e+03 7.901874542236328125e+01 -9.842577934265136719e+00 4.309372976422309875e-02 8.382495880126953125e+00 2.527676820755004883e+00 -7.969201803207397461e-01
2.112000000000000000e+03 7.522565460205078125e+01 -1.095559120178222656e+01 -1.904841661453247070e+00 8.929759979248046875e+00 2.107475519180297852e+00 4.106197953224182129e-01
2.113000000000000000e+03 7.966577148437500000e+01 -1.152931118011474609e+01 -2.994330227375030518e-02 9.501976966857910156e+00 2.841610193252563477e+00 -2.264742404222488403e-01
2.114000000000000000e+03 7.886025238037109375e+01 -1.452689933776855469e+01 -1.652153283357620239e-01 9.216478347778320312e+00 2.715378761291503906e+00 3.095293939113616943e-01
2.115000000000000000e+03 7.889945983886718750e+01 -1.289306163787841797e+01 -2.142771333456039429e-01 9.402054786682128906e+00 2.756333112716674805e+00 -1.206695437431335449e-01
2.116000000000000000e+03 7.815951538085937500e+01 -1.775051498413085938e+01 3.235396742820739746e-02 8.083477973937988281e+00 2.434749603271484375e+00 9.393376111984252930e-01
2.117000000000000000e+03 7.335710906982421875e+01 -1.864372634887695312e+01 1.081502676010131836e+00 8.474354743957519531e+00 2.866757154464721680e+00 -1.954502344131469727e+00
2.118000000000000000e+03 7.889892578125000000e+01 -1.618770980834960938e+01 -8.454552292823791504e-02 8.698184013366699219e+00 2.584091424942016602e+00 6.072335839271545410e-01
2.119000000000000000e+03 7.374897003173828125e+01 -1.940250205993652344e+01 1.456546425819396973e+00 1.055290603637695312e+01 3.602835655212402344e+00 -1.409986972808837891e+00
2.120000000000000000e+03 7.411152648925781250e+01 -2.107604217529296875e+01 1.102544307708740234e+00 1.239563655853271484e+01 4.049454212188720703e+00 -8.722111582756042480e-01
2.121000000000000000e+03 7.963639068603515625e+01 -1.878044700622558594e+01 1.428605057299137115e-02 7.244786739349365234e+00 2.177721977233886719e+00 2.355858534574508667e-01
2.122000000000000000e+03 7.745137786865234375e+01 -1.860156250000000000e+01 2.480288892984390259e-01 8.057957649230957031e+00 2.491796016693115234e+00 1.003925561904907227e+00
2.123000000000000000e+03 7.415251922607421875e+01 -2.190850257873535156e+01 5.546752810478210449e-01 1.271394062042236328e+01 3.980584621429443359e+00 -7.905040681362152100e-02
2.124000000000000000e+03 7.812915039062500000e+01 -2.477929687500000000e+01 5.356538668274879456e-02 7.807435989379882812e+00 2.358300447463989258e+00 -7.097522020339965820e-01
2.125000000000000000e+03 7.882025909423828125e+01 -2.581752204895019531e+01 -3.453668951988220215e-02 7.801924228668212891e+00 2.330216169357299805e+00 -5.058961510658264160e-01
2.126000000000000000e+03 7.814499664306640625e+01 -2.742477798461914062e+01 -2.541142404079437256e-01 8.111275672912597656e+00 2.357148647308349609e+00 -3.740713298320770264e-01
2.127000000000000000e+03 7.889411163330078125e+01 -2.910020065307617188e+01 -7.700997591018676758e-02 8.306123733520507812e+00 2.468734025955200195e+00 -4.256602749228477478e-02
2.128000000000000000e+03 7.755587005615234375e+01 -3.057320976257324219e+01 -1.095107644796371460e-01 7.697772026062011719e+00 2.276478290557861328e+00 2.308579832315444946e-01
2.129000000000000000e+03 7.873194122314453125e+01 -3.317149734497070312e+01 2.115458622574806213e-02 7.949483394622802734e+00 2.391191244125366211e+00 1.073065251111984253e-01
2.130000000000000000e+03 7.958720397949218750e+01 -3.242656707763671875e+01 2.050899667665362358e-03 8.358259201049804688e+00 2.508092880249023438e+00 4.264158755540847778e-02
2.131000000000000000e+03 7.873391723632812500e+01 -3.401490402221679688e+01 2.312995493412017822e-02 7.900751590728759766e+00 2.377164602279663086e+00 8.993741124868392944e-02
2.132000000000000000e+03 7.886443328857421875e+01 -3.560551834106445312e+01 8.028442040085792542e-03 7.880552291870117188e+00 2.366574287414550781e+00 3.427339345216751099e-02
2.133000000000000000e+03 7.860797119140625000e+01 -3.862545013427734375e+01 1.096571423113346100e-02 7.782171249389648438e+00 2.337941169738769531e+00 -3.655596077442169189e-02
2.134000000000000000e+03 7.892958068847656250e+01 -3.710401916503906250e+01 1.348177157342433929e-02 7.878492832183837891e+00 2.367592334747314453e+00 -3.295970382168889046e-03
2.135000000000000000e+03 7.777355194091796875e+01 -3.971866226196289062e+01 9.610951878130435944e-03 7.529969215393066406e+00 2.261874198913574219e+00 -4.645058512687683105e-02
2.136000000000000000e+03 7.858504486083984375e+01 -3.944214630126953125e+01 2.486802265048027039e-02 7.779738903045654297e+00 2.341382026672363281e+00 -6.430444866418838501e-02
2.137000000000000000e+03 7.953788757324218750e+01 -3.960392379760742188e+01 -1.205912698060274124e-02 8.144555091857910156e+00 2.439748764038085938e+00 -1.982752233743667603e-02
2.138000000000000000e+03 7.858814239501953125e+01 -4.021183776855468750e+01 -3.083312418311834335e-03 7.770287513732910156e+00 2.330161333084106445e+00 -5.795069038867950439e-02
2.139000000000000000e+03 7.855144500732421875e+01 -4.197511672973632812e+01 -2.028707414865493774e-02 7.920737266540527344e+00 2.370135068893432617e+00 -5.093772336840629578e-02
2.140000000000000000e+03 7.526532745361328125e+01 -2.098413085937500000e+01 1.369629144668579102e+00 9.999694824218750000e+00 3.410797119140625000e+00 -6.619284301996231079e-02
2.141000000000000000e+03 5.909048843383789062e+01 -2.551457595825195312e+01 -5.564908981323242188e-01 3.154853105545043945e+00 7.795086503028869629e-01 2.259642839431762695e+00
2.142000000000000000e+03 6.132104110717773438e+01 -2.654051971435546875e+01 -5.386929512023925781e+00 -3.999965190887451172e-01 -1.736077904701232910e+00 2.862662076950073242e-01
2.143000000000000000e+03 4.717110061645507812e+01 -1.121609973907470703e+01 6.009838730096817017e-02 1.703619599342346191e+00 5.291154384613037109e-01 2.886030077934265137e-01
2.144000000000000000e+03 4.660989761352539062e+01 -1.178741550445556641e+01 -4.015353918075561523e-01 4.793657660484313965e-01 2.334910444915294647e-02 9.418613463640213013e-02
2.145000000000000000e+03 6.570899200439453125e+01 -5.616657733917236328e-01 2.281596660614013672e+00 5.989393234252929688e+00 2.481297016143798828e+00 2.231538772583007812e+00
2.146000000000000000e+03 6.054711151123046875e+01 -2.635174751281738281e+00 4.917316436767578125e+00 1.755776596069335938e+01 6.742524623870849609e+00 -7.770298480987548828e+00
2.147000000000000000e+03 6.540762329101562500e+01 -6.040709018707275391e+00 5.174069404602050781e-01 1.321146965026855469e+01 4.118662834167480469e+00 6.505882143974304199e-01
2.148000000000000000e+03 5.923682403564453125e+01 -9.540310859680175781e+00 4.173127174377441406e+00 3.426510810852050781e+00 2.279891252517700195e+00 3.380483388900756836e+00
2.149000000000000000e+03 6.579560852050781250e+01 -1.069825363159179688e+01 1.450671672821044922e+00 7.376733779907226562e+00 2.648221731185913086e+00 -2.360255241394042969e+00
2.150000000000000000e+03 5.511374282836914062e+01 -9.087245941162109375e+00 -1.860607147216796875e+00 -1.375140428543090820e+00 -9.707242846488952637e-01 1.518820047378540039e+00
2.151000000000000000e+03 5.527226257324218750e+01 -1.028600978851318359e+01 -1.569893121719360352e+00 -8.387327790260314941e-01 -7.225877642631530762e-01 6.322554945945739746e-01
2.152000000000000000e+03 1.967790961265563965e+00 3.394818496704101562e+01 4.630523547530174255e-02 -8.844947218894958496e-01 -2.514568567276000977e-01 7.353263348340988159e-02
2.153000000000000000e+03 4.025057256221771240e-01 3.484582519531250000e+01 1.003954908810555935e-03 -1.182136893272399902e+00 -3.543398678302764893e-01 1.012616883963346481e-02
2.154000000000000000e+03 3.325431942939758301e-01 3.002199745178222656e+01 -2.117078285664319992e-03 -7.711487412452697754e-01 -2.319797426462173462e-01 4.383618384599685669e-02
2.155000000000000000e+03 3.339343965053558350e-01 2.763470077514648438e+01 -5.536122480407357216e-04 -4.746659100055694580e-01 -1.425658613443374634e-01 3.122095391154289246e-02
2.156000000000000000e+03 1.589852929115295410e+00 2.845461845397949219e+01 -2.379710599780082703e-02 -6.135360598564147949e-01 -1.911999434232711792e-01 1.560374051332473755e-01
2.157000000000000000e+03 3.697873055934906006e-01 2.521880340576171875e+01 -4.866625647991895676e-03 -3.491093516349792480e-01 -1.061927974224090576e-01 4.928537644445896149e-03
2.158000000000000000e+03 3.723175823688507080e-01 2.440867996215820312e+01 -3.715909318998456001e-03 -3.481983840465545654e-01 -1.055742874741554260e-01 -4.405846353620290756e-03
2.159000000000000000e+03 4.521531462669372559e-01 -3.805630874633789062e+01 2.795904409140348434e-03 -5.388032793998718262e-01 -1.608022153377532959e-01 -1.989327557384967804e-02
2.160000000000000000e+03 1.344268679618835449e+00 -3.724029159545898438e+01 8.659807965159416199e-03 -4.679898917675018311e-01 -1.377990245819091797e-01 -6.261128187179565430e-02
2.161000000000000000e+03 3.668132722377777100e-01 2.117957305908203125e+01 -5.520561826415359974e-04 -4.549134969711303711e-01 -1.366396695375442505e-01 -1.488621812313795090e-02
2.162000000000000000e+03 2.533380985260009766e+00 2.111369514465332031e+01 1.277252938598394394e-02 -4.644948542118072510e-01 -1.355167031288146973e-01 -4.209371283650398254e-02
2.163000000000000000e+03 1.108762621879577637e+00 2.358165359497070312e+01 -1.085184328258037567e-02 -4.177908301353454590e-01 -1.285928040742874146e-01 -2.487359382212162018e-02
2.164000000000000000e+03 3.878735780715942383e+00 2.524137878417968750e+01 -1.522264927625656128e-01 -5.999168753623962402e-01 -2.256430089473724365e-01 7.406692206859588623e-02
2.165000000000000000e+03 9.933102130889892578e-01 2.766167640686035156e+01 -1.863903552293777466e-02 -5.278081297874450684e-01 -1.639341562986373901e-01 8.902446925640106201e-02
2.166000000000000000e+03 1.591895103454589844e+00 2.916849136352539062e+01 -1.123727671802043915e-02 -6.616001129150390625e-01 -2.018512040376663208e-01 1.687323153018951416e-01
2.167000000000000000e+03 1.171376109123229980e+00 3.317501449584960938e+01 2.172416634857654572e-02 -9.747018218040466309e-01 -2.858932912349700928e-01 7.383408397436141968e-02
2.168000000000000000e+03 1.205685734748840332e+00 3.480879592895507812e+01 1.983103528618812561e-02 -1.027430891990661621e+00 -3.022799491882324219e-01 2.984652668237686157e-02
2.169000000000000000e+03 2.176180124282836914e+00 3.726552581787109375e+01 2.169015631079673767e-02 -8.700186610221862793e-01 -2.544985413551330566e-01 -1.729629375040531158e-02
2.170000000000000000e+03 1.858306407928466797e+00 3.893902969360351562e+01 3.194536839146167040e-04 -9.180797338485717773e-01 -2.753280997276306152e-01 -2.500366605818271637e-02
2.171000000000000000e+03 1.222272038459777832e+00 3.940330886840820312e+01 1.010445121210068464e-04 -1.020470142364501953e+00 -3.061107397079467773e-01 -2.381626516580581665e-02
2.172000000000000000e+03 4.206192791461944580e-01 3.960824584960937500e+01 -7.286356762051582336e-03 -1.129914164543151855e+00 -3.411601483821868896e-01 -1.065228879451751709e-02
2.173000000000000000e+03 1.793763756752014160e+00 4.084739303588867188e+01 -6.130945868790149689e-03 -9.274488091468811035e-01 -2.800739407539367676e-01 -2.305876091122627258e-02
2.174000000000000000e+03 1.628526926040649414e+00 4.188226318359375000e+01 -1.254046149551868439e-02 -9.465819001197814941e-01 -2.877367138862609863e-01 -1.510887034237384796e-02
2.175000000000000000e+03 2.724271774291992188e+00 2.938469314575195312e+01 -1.455925218760967255e-02 -6.686515808105468750e-01 -2.049632370471954346e-01 2.307861894369125366e-01
2.176000000000000000e+03 9.932166934013366699e-01 2.997278022766113281e+01 3.750462783500552177e-03 -7.408053874969482422e-01 -2.211164832115173340e-01 1.218065917491912842e-01
2.177000000000000000e+03 1.042794942855834961e+00 -9.016704559326171875e+00 1.715776044875383377e-03 8.439521491527557373e-02 2.583329752087593079e-02 1.953652873635292053e-02
2.178000000000000000e+03 3.567177951335906982e-01 -2.522129058837890625e+01 1.080490532331168652e-03 -2.556387782096862793e-01 -7.636748254299163818e-02 5.633113440126180649e-03
2.179000000000000000e+03 1.103071928024291992e+00 -3.005692863464355469e+01 -8.170359767973423004e-03 -2.201213687658309937e-01 -6.848751753568649292e-02 -1.364372111856937408e-02
2.180000000000000000e+03 1.268864631652832031e+00 -3.644028854370117188e+01 -1.127705094404518604e-03 -4.330522119998931885e-01 -1.302539855241775513e-01 -6.388156861066818237e-02
2.181000000000000000e+03 3.654421269893646240e-01 1.957130241394042969e+01 8.812004234641790390e-04 -5.076232552528381348e-01 -1.520226299762725830e-01 -8.511927910149097443e-03
2.182000000000000000e+03 1.105608820915222168e+00 2.276440429687500000e+01 -4.826974123716354370e-03 -4.281149506568908691e-01 -1.298825740814208984e-01 -3.374020382761955261e-02
2.183000000000000000e+03 3.671062886714935303e-01 1.474589347839355469e+01 1.234447467140853405e-03 -3.961857259273529053e-01 -1.184853911399841309e-01 2.537980116903781891e-02
2.184000000000000000e+03 3.677293956279754639e-01 1.394121551513671875e+01 2.199955750256776810e-03 -3.364789485931396484e-01 -1.002837046980857849e-01 2.906132116913795471e-02
2.185000000000000000e+03 3.721542060375213623e-01 7.504757404327392578e+00 -2.271245932206511497e-03 9.474338591098785400e-02 2.774164266884326935e-02 7.872428745031356812e-03
2.186000000000000000e+03 3.743224442005157471e-01 6.701589107513427734e+00 -2.688559703528881073e-03 1.063197031617164612e-01 3.108934313058853149e-02 2.557821338996291161e-03
2.187000000000000000e+03 3.678990900516510010e-01 -2.279990768432617188e+01 3.144791815429925919e-03 -2.564826309680938721e-01 -7.600134611129760742e-02 -7.763002067804336548e-03
2.188000000000000000e+03 3.475356400012969971e-01 -1.873908233642578125e+01 -1.024544821120798588e-03 -5.368636921048164368e-03 -1.917954534292221069e-03 -2.829549834132194519e-02
2.189000000000000000e+03 3.597905635833740234e-01 -1.633053588867187500e+01 -2.150156302377581596e-03 1.448830813169479370e-01 4.281987622380256653e-02 -1.437160931527614594e-02
2.190000000000000000e+03 1.472945570945739746e+00 -3.944355392456054688e+01 1.765422523021697998e-02 -5.337569713592529297e-01 -1.548308134078979492e-01 -5.044893547892570496e-02
2.191000000000000000e+03 2.271519660949707031e+00 -3.716393280029296875e+01 7.827624678611755371e-03 -4.283393025398254395e-01 -1.261534988880157471e-01 -1.010212525725364685e-01
2.192000000000000000e+03 1.371770739555358887e+00 -3.876113510131835938e+01 9.410038590431213379e-03 -5.135257244110107422e-01 -1.512347012758255005e-01 -5.043335258960723877e-02
2.193000000000000000e+03 1.220970988273620605e+00 -3.564248657226562500e+01 -1.991168683161959052e-04 -4.008366763591766357e-01 -1.203107386827468872e-01 -5.945946648716926575e-02
2.194000000000000000e+03 1.851890087127685547e+00 -3.088557815551757812e+01 -1.803477108478546143e-02 -2.349877953529357910e-01 -7.590676844120025635e-02 -3.872269764542579651e-02
2.195000000000000000e+03 1.144332289695739746e+00 -3.245930099487304688e+01 -5.068232771009206772e-03 -2.773516476154327393e-01 -8.472596108913421631e-02 -3.990419954061508179e-02
2.196000000000000000e+03 3.712271749973297119e-01 -3.084697151184082031e+01 -2.811921061947941780e-03 -2.248566150665283203e-01 -6.830056011676788330e-02 -7.493205834180116653e-03
2.197000000000000000e+03 1.093448042869567871e+00 -2.925154113769531250e+01 -5.794075317680835724e-03 -2.117057889699935913e-01 -6.524995714426040649e-02 -4.128862172365188599e-03
2.198000000000000000e+03 1.112663269042968750e+00 -3.085941886901855469e+01 -6.101423408836126328e-03 -2.344654053449630737e-01 -7.217004895210266113e-02 -2.222801186144351959e-02
2.199000000000000000e+03 1.073651671409606934e+00 -2.684676742553710938e+01 -3.140921471640467644e-03 -2.123351693153381348e-01 -6.464282423257827759e-02 1.399268396198749542e-02
2.200000000000000000e+03 3.562449216842651367e-01 -2.602567481994628906e+01 -2.629813970997929573e-04 -2.420222014188766479e-01 -7.268555462360382080e-02 6.476156413555145264e-03
2.201000000000000000e+03 4.740345954895019531e+00 -2.343464660644531250e+01 1.081348359584808350e-01 -7.450486719608306885e-02 1.008898951113224030e-02 -1.158725097775459290e-02
2.202000000000000000e+03 1.071445703506469727e+00 -2.604509735107421875e+01 7.670445484109222889e-04 -2.179002314805984497e-01 -6.513995677232742310e-02 1.603942364454269409e-02
2.203000000000000000e+03 1.809718608856201172e+00 -2.447057342529296875e+01 1.593428105115890503e-02 -1.945932060480117798e-01 -5.359767749905586243e-02 7.246551103889942169e-03
2.204000000000000000e+03 1.080803751945495605e+00 -2.443395423889160156e+01 7.848887704312801361e-03 -2.261195331811904907e-01 -6.548119336366653442e-02 6.621459033340215683e-03
2.205000000000000000e+03 1.705796241760253906e+00 -1.860084152221679688e+01 -1.370510552078485489e-02 -5.110355466604232788e-02 -1.944259926676750183e-02 -1.070832908153533936e-01
2.206000000000000000e+03 4.016466617584228516e+00 -2.003016662597656250e+01 5.990566313266754150e-02 -1.284063309431076050e-01 -2.055020071566104889e-02 -1.504383683204650879e-01
2.207000000000000000e+03 3.525051176548004150e-01 -1.954616165161132812e+01 -3.082224575337022543e-04 -7.282188534736633301e-02 -2.193903177976608276e-02 -2.988035604357719421e-02
2.208000000000000000e+03 2.447505474090576172e+00 -1.991374206542968750e+01 2.350814640522003174e-02 -1.188736110925674438e-01 -2.860963903367519379e-02 -1.366381496191024780e-01
2.209000000000000000e+03 4.707248687744140625e+00 -1.753609657287597656e+01 -9.938201308250427246e-02 -2.601833939552307129e-01 -1.078696176409721375e-01 -1.345077008008956909e-01
2.210000000000000000e+03 1.083918094635009766e+00 -1.625366020202636719e+01 -1.236082892864942551e-02 7.858756184577941895e-02 1.986801996827125549e-02 -3.834610432386398315e-02
2.211000000000000000e+03 1.088416337966918945e+00 -1.464037036895751953e+01 -9.977304376661777496e-03 1.130973324179649353e-01 3.093600831925868988e-02 -1.059859525412321091e-02
2.212000000000000000e+03 1.072655439376831055e+00 -1.143157768249511719e+01 -3.347338875755667686e-03 1.127981022000312805e-01 3.283523023128509521e-02 1.646446809172630310e-02
2.213000000000000000e+03 3.500434458255767822e-01 -9.898658752441406250e+00 1.204562606289982796e-03 1.322013884782791138e-01 4.002178460359573364e-02 7.481953129172325134e-03
2.214000000000000000e+03 1.048928499221801758e+00 -9.815666198730468750e+00 -1.624262891709804535e-03 9.504279494285583496e-02 2.802556008100509644e-02 1.995106041431427002e-02
2.215000000000000000e+03 1.736540794372558594e+00 -8.165589332580566406e+00 2.687864238396286964e-03 4.923767223954200745e-02 1.557766180485486984e-02 2.679378911852836609e-02
2.216000000000000000e+03 3.451142311096191406e+00 -2.675436973571777344e+00 1.144631300121545792e-02 4.005095252068713307e-05 3.445909125730395317e-03 1.667078398168087006e-02
2.217000000000000000e+03 2.664758920669555664e+00 -2.659079551696777344e+00 8.596542291343212128e-03 5.614825524389743805e-03 4.263410344719886780e-03 1.681110449135303497e-02
2.218000000000000000e+03 1.079798936843872070e+00 -4.242794990539550781e+00 2.478125970810651779e-03 2.364817820489406586e-02 7.837891578674316406e-03 1.316184643656015396e-02
2.219000000000000000e+03 1.049310922622680664e+00 -5.837517738342285156e+00 2.470092149451375008e-03 4.124070331454277039e-02 1.311323884874582291e-02 1.600018143653869629e-02
2.220000000000000000e+03 1.101865172386169434e+00 -3.454457044601440430e+00 8.428732398897409439e-04 1.628314331173896790e-02 5.137804895639419556e-03 1.072512567043304443e-02
2.221000000000000000e+03 3.643383383750915527e-01 -3.488024711608886719e+00 1.431677257642149925e-03 1.866727881133556366e-02 6.029686890542507172e-03 4.230666439980268478e-03
2.222000000000000000e+03 3.944891691207885742e-01 2.692240715026855469e+00 5.260314210318028927e-04 3.996914997696876526e-02 1.214855536818504333e-02 -1.067763287574052811e-02
2.223000000000000000e+03 4.476002693176269531e+00 1.872402071952819824e+00 3.759210929274559021e-02 3.520931350067257881e-04 1.138326060026884079e-02 -4.526111856102943420e-02
2.224000000000000000e+03 6.035540103912353516e+00 2.596821784973144531e+00 3.296077949926257133e-03 -9.739235974848270416e-03 -1.932947430759668350e-03 -4.185317829251289368e-02
2.225000000000000000e+03 3.787612318992614746e-01 5.094739913940429688e+00 -1.857556053437292576e-03 9.821200370788574219e-02 2.890633419156074524e-02 -6.022377405315637589e-03
2.226000000000000000e+03 1.124484181404113770e+00 6.658730983734130859e+00 -1.090133097022771835e-02 6.112889572978019714e-02 1.506826933473348618e-02 8.455782197415828705e-03
2.227000000000000000e+03 7.001294136047363281e+00 1.244344139099121094e+01 -1.782765798270702362e-02 -1.738246381282806396e-01 -5.749568715691566467e-02 3.538375794887542725e-01
2.228000000000000000e+03 1.110394835472106934e+00 9.073196411132812500e+00 -1.201552245765924454e-02 -3.692175028845667839e-03 -4.712309222668409348e-03 5.452031269669532776e-02
2.229000000000000000e+03 1.874223232269287109e+00 1.146343040466308594e+01 -1.202775724232196808e-02 -1.469723731279373169e-01 -4.770004004240036011e-02 1.334971487522125244e-01
2.230000000000000000e+03 1.113221526145935059e+00 1.229760074615478516e+01 -1.659652334637939930e-03 -1.972022503614425659e-01 -5.965856835246086121e-02 9.008784592151641846e-02
2.231000000000000000e+03 3.696858584880828857e-01 1.233363914489746094e+01 4.644300788640975952e-04 -2.011454105377197266e-01 -6.020429357886314392e-02 3.174836933612823486e-02
2.232000000000000000e+03 1.108178377151489258e+00 1.310021877288818359e+01 3.203769214451313019e-03 -2.536236345767974854e-01 -7.512595504522323608e-02 8.867686241865158081e-02
2.233000000000000000e+03 1.854179143905639648e+00 1.307197284698486328e+01 5.682683549821376801e-03 -2.411318719387054443e-01 -7.063475251197814941e-02 1.373221874237060547e-01
2.234000000000000000e+03 1.827741980552673340e+00 1.550179672241210938e+01 2.890638820827007294e-02 -3.719790577888488770e-01 -1.029217988252639771e-01 9.252879023551940918e-02
2.235000000000000000e+03 1.098734498023986816e+00 1.632874298095703125e+01 1.366280764341354370e-02 -4.361176490783691406e-01 -1.267364621162414551e-01 4.298320785164833069e-02
2.236000000000000000e+03 1.097064733505249023e+00 1.713332557678222656e+01 1.276148110628128052e-02 -4.607947766780853271e-01 -1.344099938869476318e-01 2.631556056439876556e-02
2.237000000000000000e+03 1.095284819602966309e+00 1.793599891662597656e+01 1.368704438209533691e-02 -4.762447178363800049e-01 -1.387673020362854004e-01 9.485027752816677094e-03
2.238000000000000000e+03 1.094362974166870117e+00 1.873854064941406250e+01 1.110678911209106445e-02 -4.819430708885192871e-01 -1.412508785724639893e-01 -6.027191411703824997e-03
2.239000000000000000e+03 1.819046020507812500e+00 1.872224426269531250e+01 2.852377109229564667e-02 -4.566039443016052246e-01 -1.284240484237670898e-01 -1.766730449162423611e-03
2.240000000000000000e+03 4.127305221557617188e+01 -1.605957388877868652e+00 -7.258904576301574707e-01 -2.769214510917663574e-01 -3.008435964584350586e-01 8.994806557893753052e-02
2.241000000000000000e+03 4.213640594482421875e+01 -3.574515581130981445e+00 -2.685607433319091797e+00 -3.168416917324066162e-01 -9.007347226142883301e-01 3.984518647193908691e-01
2.242000000000000000e+03 4.960955810546875000e+01 -3.240896224975585938e+00 -5.575681924819946289e-01 7.363615930080413818e-02 -1.451796144247055054e-01 5.411025285720825195e-01
2.243000000000000000e+03 3.036508941650390625e+01 -8.462509155273437500e+00 -3.213490247726440430e-01 -1.230352163314819336e+00 -4.655103683471679688e-01 -5.360935330390930176e-01
2.244000000000000000e+03 5.896341705322265625e+01 -1.089153861999511719e+01 4.752264618873596191e-01 4.298161029815673828e+00 1.432016253471374512e+00 3.613246440887451172e+00
2.245000000000000000e+03 5.924119567871093750e+01 -1.039189815521240234e+01 8.500728011131286621e-01 5.303906917572021484e+00 1.846193909645080566e+00 3.814986944198608398e+00
2.246000000000000000e+03 7.488800811767578125e+01 -9.811822891235351562e+00 1.088685393333435059e+00 1.015523147583007812e+01 3.373174905776977539e+00 1.987341880798339844e+00
2.247000000000000000e+03 7.445884704589843750e+01 -1.042200565338134766e+01 -3.772788643836975098e-01 5.097687244415283203e+00 1.416122436523437500e+00 1.683805584907531738e+00
2.248000000000000000e+03 6.477796173095703125e+01 -7.015738487243652344e+00 1.758122444152832031e+00 1.306223106384277344e+01 4.446105957031250000e+00 -1.082278490066528320e+00
2.249000000000000000e+03 5.028884124755859375e+01 -2.334920167922973633e+00 -3.873679637908935547e-01 9.669841965660452843e-04 -1.159202978014945984e-01 3.248574435710906982e-01
2.250000000000000000e+03 5.270731353759765625e+01 -4.845559120178222656e+00 -5.697757750749588013e-02 -1.120920538902282715e+00 -3.533694148063659668e-01 2.324738949537277222e-01
2.251000000000000000e+03 2.206929588317871094e+01 -1.520669460296630859e+01 -7.791495919227600098e-01 -2.751373350620269775e-01 -3.162860870361328125e-01 -3.330116271972656250e-01
2.252000000000000000e+03 6.062820816040039062e+01 -1.673744916915893555e+00 3.080743312835693359e+00 1.269660091400146484e+01 4.733203411102294922e+00 -4.802441596984863281e+00
2.253000000000000000e+03 4.867576980590820312e+01 -2.684763431549072266e+00 -6.978023052215576172e-01 1.177725642919540405e-01 -1.740089207887649536e-01 3.767711818218231201e-01
2.254000000000000000e+03 4.091477966308593750e+01 -3.528934001922607422e+00 -2.647303104400634766e+00 -3.702636361122131348e-01 -9.052700400352478027e-01 -3.501893579959869385e-01
2.255000000000000000e+03 6.527224731445312500e+01 -4.466933250427246094e+00 2.330286026000976562e+00 1.136854076385498047e+01 4.109648227691650391e+00 2.540419340133666992e+00
2.256000000000000000e+03 6.143801498413085938e+01 -3.823276281356811523e+00 2.768198966979980469e+00 1.866846656799316406e+01 6.430999755859375000e+00 -2.421584606170654297e+00
2.257000000000000000e+03 5.460274505615234375e+01 -9.652560234069824219e+00 -1.743650913238525391e+00 -9.317368865013122559e-01 -8.026163578033447266e-01 9.264332056045532227e-01
2.258000000000000000e+03 5.194207000732421875e+01 -1.061580467224121094e+01 -4.114657044410705566e-01 -2.921656668186187744e-01 -2.110894173383712769e-01 1.190953515470027924e-02
2.259000000000000000e+03 5.323805618286132812e+01 -8.391779899597167969e+00 -1.112490415573120117e+00 -1.291198134422302246e+00 -7.211065888404846191e-01 9.272924661636352539e-01
2.260000000000000000e+03 6.543210601806640625e+01 -6.864405632019042969e+00 6.747575998306274414e-01 1.379928970336914062e+01 4.342214107513427734e+00 -7.043652534484863281e-01
2.261000000000000000e+03 6.544483184814453125e+01 -5.251302719116210938e+00 1.240454077720642090e+00 1.254048442840576172e+01 4.134281635284423828e+00 2.077508211135864258e+00
2.262000000000000000e+03 5.961849975585937500e+01 1.641747474670410156e+00 -3.760252296924591064e-01 7.047935009002685547e+00 2.001572847366333008e+00 -2.965491533279418945e+00
2.263000000000000000e+03 5.387817382812500000e+01 -9.077264785766601562e+00 -1.263726115226745605e+00 -1.126433491706848145e+00 -7.170478701591491699e-01 9.628886580467224121e-01
2.264000000000000000e+03 7.033397674560546875e+01 3.510744273662567139e-01 1.846299886703491211e+00 1.299042701721191406e+00 9.436028003692626953e-01 2.081895351409912109e+00
2.265000000000000000e+03 6.506295776367187500e+01 -2.972120666503906250e+01 3.303123235702514648e+00 1.010810852050781250e+01 4.023369312286376953e+00 -5.148254394531250000e+00
2.266000000000000000e+03 5.884786605834960938e+01 -2.774584388732910156e+01 1.015378117561340332e+00 2.924652338027954102e+00 1.182009220123291016e+00 1.809728741645812988e+00
2.267000000000000000e+03 5.948280715942382812e+01 -2.726599693298339844e+01 -2.786866128444671631e-01 1.182711362838745117e+00 2.712074220180511475e-01 6.854848265647888184e-01
2.268000000000000000e+03 3.799650192260742188e+01 -5.519673347473144531e+00 -3.668909370899200439e-01 2.185549437999725342e-01 -4.450079798698425293e-02 -1.656945198774337769e-01
2.269000000000000000e+03 5.783073043823242188e+01 -3.877103424072265625e+01 -1.210309863090515137e+00 1.726433157920837402e+00 1.548370122909545898e-01 -6.865103244781494141e-01
2.270000000000000000e+03 5.614506530761718750e+01 -3.357328033447265625e+01 6.367219686508178711e-01 8.617557525634765625e+00 2.776283740997314453e+00 1.268308162689208984e-01
2.271000000000000000e+03 1.348110771179199219e+01 -1.067277526855468750e+01 -1.448082923889160156e-01 1.190487518906593323e-01 -7.727859076112508774e-03 -4.665305837988853455e-02
2.272000000000000000e+03 5.575839233398437500e+01 -2.259534835815429688e+01 1.834014177322387695e+00 5.639251232147216797e+00 2.241979598999023438e+00 2.112665176391601562e+00
2.273000000000000000e+03 6.117496109008789062e+01 -4.024388504028320312e+01 -6.642871499061584473e-01 4.394451528787612915e-02 -1.861027926206588745e-01 1.371014863252639771e-01
2.274000000000000000e+03 4.090725326538085938e+01 -1.318738555908203125e+01 -1.369689941406250000e+00 -2.198666892945766449e-02 -4.175029695034027100e-01 1.433295011520385742e-01
2.275000000000000000e+03 3.987303924560546875e+01 -1.315645885467529297e+01 -9.538303017616271973e-01 6.979503631591796875e-01 -7.676398009061813354e-02 -1.449598520994186401e-01
2.276000000000000000e+03 4.718342971801757812e+01 -7.624475002288818359e+00 2.552029788494110107e-01 1.988840103149414062e+00 6.732129454612731934e-01 -5.122853517532348633e-01
2.277000000000000000e+03 4.742498397827148438e+01 -8.407392501831054688e+00 2.111492156982421875e-01 2.640384197235107422e+00 8.554600477218627930e-01 -2.189459800720214844e-01
2.278000000000000000e+03 6.686386108398437500e+01 -3.199296188354492188e+01 1.556960105895996094e+00 6.457806587219238281e+00 2.404430150985717773e+00 -2.118170022964477539e+00
2.279000000000000000e+03 6.606191253662109375e+01 -2.972742843627929688e+01 2.112780570983886719e+00 7.280555248260498047e+00 2.818000793457031250e+00 -2.036470890045166016e+00
2.280000000000000000e+03 2.451617240905761719e+01 -1.426033878326416016e+01 -1.213568449020385742e+00 -3.870966434478759766e-01 -4.801995456218719482e-01 -4.566274583339691162e-01
2.281000000000000000e+03 2.387054443359375000e+01 -1.360983085632324219e+01 -1.656116485595703125e+00 -2.091902047395706177e-01 -5.595920085906982422e-01 -4.382906258106231689e-01
2.282000000000000000e+03 6.824699401855468750e+01 -1.210242080688476562e+01 1.959444284439086914e+00 2.589599609375000000e+00 1.364713191986083984e+00 -2.063081264495849609e+00
2.283000000000000000e+03 4.027390289306640625e+01 -1.989510893821716309e+00 -8.789984583854675293e-01 -1.520038396120071411e-01 -3.093006908893585205e-01 2.199260741472244263e-01
2.284000000000000000e+03 4.212758636474609375e+01 -2.580329656600952148e+00 -1.267487764358520508e+00 -2.814030647277832031e-01 -4.646672308444976807e-01 -8.873029053211212158e-02
2.285000000000000000e+03 4.358602905273437500e+01 -4.252734184265136719e+00 -1.270942926406860352e+00 -1.891973614692687988e-01 -4.380420744419097900e-01 4.293764233589172363e-01
2.286000000000000000e+03 5.083184051513671875e+01 -8.603968620300292969e+00 -4.893305301666259766e-01 -4.020502790808677673e-02 -1.588606685400009155e-01 3.267565369606018066e-01
2.287000000000000000e+03 6.199832916259765625e+01 -3.947748565673828125e+01 -9.740610122680664062e-01 3.269871929660439491e-03 -2.912373542785644531e-01 2.639735639095306396e-01
2.288000000000000000e+03 6.184099197387695312e+01 -3.832587814331054688e+01 -2.145172595977783203e+00 -2.569615244865417480e-01 -7.206401824951171875e-01 -3.819831907749176025e-01
2.289000000000000000e+03 2.967236137390136719e+01 -1.025167274475097656e+01 -7.394488453865051270e-01 -1.452720999717712402e+00 -6.576509475708007812e-01 -5.962135791778564453e-01
2.290000000000000000e+03 5.628229522705078125e+01 -3.279851531982421875e+01 3.670306503772735596e-01 9.014491081237792969e+00 2.814456462860107422e+00 1.088776230812072754e+00
2.291000000000000000e+03 5.482402420043945312e+01 -3.394739151000976562e+01 1.209385633468627930e+00 5.625117778778076172e+00 2.050350904464721680e+00 9.947849512100219727e-01
2.292000000000000000e+03 3.531772232055664062e+01 -1.437806510925292969e+01 -8.535614013671875000e-01 1.873673349618911743e-01 -1.998582184314727783e-01 -1.191172525286674500e-01
2.293000000000000000e+03 5.112636184692382812e+01 -3.240193939208984375e+01 1.038438796997070312e+00 3.262476921081542969e+00 1.290274739265441895e+00 8.274456262588500977e-01
2.294000000000000000e+03 7.895682525634765625e+01 -7.449107170104980469e+00 2.147847861051559448e-01 7.426538467407226562e+00 2.292397022247314453e+00 -3.526375591754913330e-01
2.295000000000000000e+03 6.678405761718750000e+01 -2.813881874084472656e+00 3.687787294387817383e+00 5.660970687866210938e+00 2.804627418518066406e+00 4.137035369873046875e+00
2.296000000000000000e+03 6.794477844238281250e+01 -1.591588735580444336e+00 4.815617084503173828e+00 3.630681037902832031e+00 2.533889532089233398e+00 3.567224979400634766e+00
2.297000000000000000e+03 7.015870666503906250e+01 -2.655657827854156494e-01 1.683478474617004395e+00 7.704572677612304688e-01 7.361807227134704590e-01 1.924852252006530762e+00
2.298000000000000000e+03 6.468460083007812500e+01 -6.152476787567138672e+00 1.698125123977661133e+00 1.301421928405761719e+01 4.413703441619873047e+00 2.288794368505477905e-01
2.299000000000000000e+03 6.406487274169921875e+01 -3.892409133911132812e+01 -8.753440976142883301e-01 1.921224355697631836e+00 3.137640953063964844e-01 2.864480316638946533e-01
2.300000000000000000e+03 1.974574089050292969e+01 -1.214531993865966797e+01 -2.582834959030151367e-01 -1.633956432342529297e-01 -1.265037357807159424e-01 1.901246756315231323e-01
2.301000000000000000e+03 2.009586524963378906e+01 -1.354698085784912109e+01 -5.257170200347900391e-01 -8.479322493076324463e-02 -1.831530630588531494e-01 8.632822334766387939e-02
2.302000000000000000e+03 6.095446777343750000e+01 -9.126367568969726562e+00 2.464981555938720703e+00 1.312927818298339844e+01 4.678277969360351562e+00 2.755945205688476562e+00
2.303000000000000000e+03 1.724478149414062500e+01 -1.192225575447082520e+00 -1.177726406604051590e-02 2.818270958960056305e-02 4.921633750200271606e-03 1.131052430719137192e-02
2.304000000000000000e+03 4.769084930419921875e+01 -1.185325622558593750e+01 -6.880682706832885742e-01 1.411648511886596680e+00 2.170740664005279541e-01 -1.977224349975585938e-01
2.305000000000000000e+03 5.274853897094726562e+01 1.899048566818237305e+00 -1.039426803588867188e+00 -9.270261228084564209e-02 -3.396388292312622070e-01 -1.024354919791221619e-01
2.306000000000000000e+03 5.027782440185546875e+01 1.526527762413024902e+00 -1.227598071098327637e+00 -2.172698499634861946e-03 -3.689312338829040527e-01 -9.487500786781311035e-02
2.307000000000000000e+03 5.110567092895507812e+01 1.672865986824035645e+00 -1.235108852386474609e+00 -6.069641932845115662e-02 -3.887415826320648193e-01 -6.972602009773254395e-02
2.308000000000000000e+03 3.729916000366210938e+01 -7.783314704895019531e+00 6.468867510557174683e-02 1.945880651473999023e+00 6.031708121299743652e-01 -4.533312842249870300e-02
2.309000000000000000e+03 3.617369461059570312e+01 -9.192705154418945312e+00 3.828847408294677734e-01 9.971700906753540039e-01 4.140164554119110107e-01 -3.338766992092132568e-01
2.310000000000000000e+03 5.189785766601562500e+01 2.449074745178222656e+00 -8.501408696174621582e-01 -1.237075328826904297e-01 -2.921545207500457764e-01 -9.553761780261993408e-02
2.311000000000000000e+03 5.736540985107421875e+01 -2.973969650268554688e+01 2.073995828628540039e+00 6.504468917846679688e+00 2.573539495468139648e+00 3.462476015090942383e+00
2.312000000000000000e+03 5.639295959472656250e+01 -3.018700027465820312e+01 1.536990880966186523e+00 7.145132064819335938e+00 2.604636907577514648e+00 2.202793121337890625e+00
2.313000000000000000e+03 6.734533691406250000e+01 -1.046535873413085938e+01 3.252458095550537109e+00 3.912887573242187500e+00 2.149603605270385742e+00 -3.385834217071533203e+00
2.314000000000000000e+03 6.350756072998046875e+01 -2.796629524230957031e+01 8.679896593093872070e-01 2.838953971862792969e+00 1.112083077430725098e+00 -1.624932527542114258e+00
2.315000000000000000e+03 6.355061721801757812e+01 -2.579297637939453125e+01 -2.044645071029663086e+00 4.822353839874267578e+00 8.333125710487365723e-01 -1.597855806350708008e+00
2.316000000000000000e+03 7.270325469970703125e+01 -1.133480453491210938e+01 -3.173842668533325195e+00 -1.946677714586257935e-01 -1.010553121566772461e+00 -9.738209247589111328e-01
2.317000000000000000e+03 7.036579132080078125e+01 -1.187589168548583984e+01 -6.114888787269592285e-01 -2.303256839513778687e-01 -2.525443732738494873e-01 -9.022946357727050781e-01
2.318000000000000000e+03 7.898408508300781250e+01 -3.415813684463500977e+00 -1.387813314795494080e-02 7.714718341827392578e+00 2.310252189636230469e+00 4.892598092555999756e-01
2.319000000000000000e+03 7.337188720703125000e+01 -1.208535480499267578e+01 -1.361614942550659180e+00 2.405624866485595703e+00 3.132029473781585693e-01 6.890643239021301270e-01
2.320000000000000000e+03 6.592409515380859375e+01 -3.713399505615234375e+01 -6.563546657562255859e-01 3.857893943786621094e+00 9.604617953300476074e-01 1.032756874337792397e-03
2.321000000000000000e+03 4.015707397460937500e+01 -1.880678939819335938e+01 3.899129033088684082e-01 5.113911628723144531e-01 2.703912258148193359e-01 -4.370321333408355713e-01
2.322000000000000000e+03 7.332819366455078125e+01 -2.525537967681884766e+00 7.695230841636657715e-01 3.257117986679077148e+00 1.207992315292358398e+00 -1.676184177398681641e+00
2.323000000000000000e+03 6.569381713867187500e+01 -3.321387863159179688e+01 1.110882610082626343e-01 7.410762310028076172e+00 2.256555080413818359e+00 -2.704577744007110596e-01
2.324000000000000000e+03 6.655827331542968750e+01 -3.343834304809570312e+01 5.068137645721435547e-01 6.903300285339355469e+00 2.223034143447875977e+00 -6.491395235061645508e-01
2.325000000000000000e+03 1.916603088378906250e+01 -1.764248847961425781e+00 1.182322725653648376e-01 4.845118150115013123e-02 5.000503733754158020e-02 5.075422581285238266e-03
2.326000000000000000e+03 1.750126457214355469e+01 -7.374218702316284180e-01 -2.619129978120326996e-02 -1.601076498627662659e-02 -1.266061980277299881e-02 -3.987992182374000549e-02
2.327000000000000000e+03 7.195598602294921875e+01 -1.153486537933349609e+01 -3.282585859298706055e+00 -3.745871186256408691e-01 -1.097151875495910645e+00 -1.130609750747680664e+00
2.328000000000000000e+03 6.405579376220703125e+01 -2.766371154785156250e+01 -1.200573086738586426e+00 4.858710289001464844e+00 1.097441196441650391e+00 -1.748940825462341309e+00
2.329000000000000000e+03 5.679098129272460938e+01 -2.942918777465820312e+01 1.192634820938110352e+00 6.496136188507080078e+00 2.306631326675415039e+00 2.349182605743408203e+00
2.330000000000000000e+03 6.420815277099609375e+01 1.565603166818618774e-02 1.430286407470703125e+00 7.141281127929687500e+00 2.571470260620117188e+00 9.503620862960815430e-01
2.331000000000000000e+03 6.525622558593750000e+01 -3.826417541503906250e+01 -1.054933547973632812e+00 2.887062549591064453e+00 5.496386885643005371e-01 5.408566594123840332e-01
2.332000000000000000e+03 5.279386520385742188e+01 -3.254134368896484375e+01 1.486513495445251465e+00 3.866094112396240234e+00 1.605782270431518555e+00 1.125545501708984375e+00
2.333000000000000000e+03 5.526412582397460938e+01 -3.321957778930664062e+01 1.322706699371337891e+00 6.308777809143066406e+00 2.289445400238037109e+00 8.253663778305053711e-01
2.334000000000000000e+03 7.269815063476562500e+01 -1.204501533508300781e+01 -1.295359373092651367e+00 5.776131749153137207e-01 -2.153238654136657715e-01 -1.561580300331115723e-01
2.335000000000000000e+03 6.183773422241210938e+01 -5.442914485931396484e+00 1.005282759666442871e+00 1.761353492736816406e+01 5.585645198822021484e+00 -3.425506949424743652e-01
2.336000000000000000e+03 7.341369628906250000e+01 -1.545276403427124023e+00 -2.858644425868988037e-01 3.814342498779296875e+00 1.058543443679809570e+00 -1.092497587203979492e+00
2.337000000000000000e+03 5.681877899169921875e+01 -3.560834884643554688e+01 9.005128741264343262e-01 4.052666187286376953e+00 1.485953688621520996e+00 -1.698670983314514160e+00
2.338000000000000000e+03 5.627557754516601562e+01 -3.642755126953125000e+01 -2.453011423349380493e-01 4.492075920104980469e+00 1.274032354354858398e+00 -3.493499755859375000e-01
2.339000000000000000e+03 5.724571990966796875e+01 -2.869719505310058594e+01 9.439081549644470215e-01 5.610028743743896484e+00 1.966181039810180664e+00 2.364213705062866211e+00
2.340000000000000000e+03 5.711637496948242188e+01 -3.679236984252929688e+01 -1.175986677408218384e-01 2.692674636840820312e+00 7.725228071212768555e-01 -8.921976089477539062e-01
2.341000000000000000e+03 3.031438446044921875e+01 -1.565131950378417969e+01 -4.360071122646331787e-01 -1.805948019027709961e-01 -1.849805712699890137e-01 -1.491854190826416016e-01
2.342000000000000000e+03 6.940988159179687500e+01 -2.922151386737823486e-01 2.421749353408813477e+00 1.577617645263671875e+00 1.199810147285461426e+00 2.642054319381713867e+00
2.343000000000000000e+03 5.979347610473632812e+01 -2.584395027160644531e+01 -7.757984399795532227e-01 1.871126890182495117e+00 3.285985291004180908e-01 2.204522609710693359e+00
2.344000000000000000e+03 6.647600555419921875e+01 -3.522877883911132812e+01 5.512872934341430664e-01 5.221225261688232422e+00 1.731753826141357422e+00 -3.459414839744567871e-01
2.345000000000000000e+03 6.456885528564453125e+01 -2.740805053710937500e+01 -1.826495170593261719e+00 6.649391651153564453e+00 1.446868896484375000e+00 -2.152777671813964844e+00
2.346000000000000000e+03 6.743166351318359375e+01 -3.296487808227539062e+01 1.324414134025573730e+00 5.741950035095214844e+00 2.119909286499023438e+00 -1.413679480552673340e+00
2.347000000000000000e+03 6.654655456542968750e+01 -3.428278732299804688e+01 6.227168440818786621e-01 6.213736057281494141e+00 2.050935745239257812e+00 -3.876142501831054688e-01
2.348000000000000000e+03 3.032349967956542969e+01 -5.640687942504882812e+00 -2.956552989780902863e-02 -6.560050249099731445e-01 -2.056711614131927490e-01 -2.907837033271789551e-01
2.349000000000000000e+03 2.994582366943359375e+01 -3.223136663436889648e+00 -2.151414938271045685e-02 -2.560874819755554199e-01 -8.328048884868621826e-02 -1.206644624471664429e-01
2.350000000000000000e+03 6.753816986083984375e+01 -1.151960659027099609e+01 2.640501976013183594e+00 3.420903444290161133e+00 1.818421602249145508e+00 -2.413118362426757812e+00
2.351000000000000000e+03 6.436391448974609375e+01 -2.690074348449707031e+01 -2.074285984039306641e+00 6.057175636291503906e+00 1.194866776466369629e+00 -2.039804220199584961e+00
2.352000000000000000e+03 2.978745269775390625e+01 -4.060098171234130859e+00 3.193669393658638000e-02 -3.294391930103302002e-01 -8.925075083971023560e-02 -1.317584812641143799e-01
2.353000000000000000e+03 2.922812461853027344e+01 -4.206862926483154297e+00 3.270803717896342278e-03 -2.082334905862808228e-01 -6.148880720138549805e-02 -1.980089768767356873e-02
2.354000000000000000e+03 6.630387115478515625e+01 -2.257696866989135742e+00 3.359626293182373047e+00 6.161014556884765625e+00 2.856192350387573242e+00 3.568490266799926758e+00
2.355000000000000000e+03 6.315495300292968750e+01 -5.579894065856933594e+00 2.293442964553833008e+00 1.428221702575683594e+01 4.972698211669921875e+00 1.431344896554946899e-01
2.356000000000000000e+03 6.273159790039062500e+01 -5.065878391265869141e+00 2.288834095001220703e+00 1.457319450378417969e+01 5.058608531951904297e+00 -7.338871061801910400e-02
2.357000000000000000e+03 7.438903045654296875e+01 -2.913612365722656250e+00 2.069431245326995850e-01 6.907385349273681641e+00 2.134298563003540039e+00 -1.539507389068603516e+00
2.358000000000000000e+03 7.390170288085937500e+01 -2.219163656234741211e+00 3.830954432487487793e-02 5.196098804473876953e+00 1.570322513580322266e+00 -1.491057872772216797e+00
2.359000000000000000e+03 1.747867393493652344e+01 -1.061626625061035156e+01 -1.561897546052932739e-01 9.146582335233688354e-03 -4.411295428872108459e-02 8.944171667098999023e-02
2.360000000000000000e+03 6.682920074462890625e+01 -1.632570624351501465e+00 3.825842380523681641e+00 4.939037799835205078e+00 2.629463911056518555e+00 3.370398283004760742e+00
2.361000000000000000e+03 7.894702911376953125e+01 -8.277020454406738281e+00 1.624992936849594116e-01 7.656644821166992188e+00 2.345743179321289062e+00 -5.762262940406799316e-01
2.362000000000000000e+03 7.505686187744140625e+01 -7.057787418365478516e+00 2.518449723720550537e-01 1.460569667816162109e+01 4.457262516021728516e+00 -4.454891979694366455e-01
2.363000000000000000e+03 1.474926853179931641e+01 -2.988447904586791992e+00 6.030781660228967667e-03 5.351534578949213028e-03 3.414694918319582939e-03 -2.655030786991119385e-02
2.364000000000000000e+03 3.108087158203125000e+01 -1.385902690887451172e+01 -7.202637195587158203e-01 -2.350133061408996582e-01 -2.865830957889556885e-01 -3.985792025923728943e-02
2.365000000000000000e+03 2.859680557250976562e+01 -1.061981391906738281e+01 -1.018944740295410156e+00 -1.426434278488159180e+00 -7.336137294769287109e-01 -1.127381563186645508e+00
2.366000000000000000e+03 6.689243316650390625e+01 -1.091397857666015625e+01 2.459400415420532227e+00 4.765292644500732422e+00 2.167407751083374023e+00 -2.965314865112304688e+00
2.367000000000000000e+03 2.640147018432617188e+01 -1.319042778015136719e+01 -1.387381076812744141e+00 -6.029793024063110352e-01 -5.971081256866455078e-01 -7.240752577781677246e-01
2.368000000000000000e+03 2.964128112792968750e+01 -6.629872798919677734e+00 -2.780735678970813751e-02 -1.032758712768554688e+00 -3.181698322296142578e-01 -1.205723211169242859e-01
2.369000000000000000e+03 3.119323730468750000e+01 -7.368890285491943359e+00 -1.470064073801040649e-01 -7.793163061141967773e-01 -2.778968214988708496e-01 -5.125355124473571777e-01
2.370000000000000000e+03 7.668025207519531250e+01 -4.314670085906982422e+00 3.702749013900756836e-01 9.144814491271972656e+00 2.854526758193969727e+00 2.572951316833496094e-01
2.371000000000000000e+03 1.650937843322753906e+01 -6.133378028869628906e+00 -1.262276526540517807e-02 7.975540310144424438e-02 2.013979107141494751e-02 -5.857655312865972519e-03
2.372000000000000000e+03 7.132210540771484375e+01 -1.240963649749755859e+01 -7.099696397781372070e-01 -1.735375374555587769e-01 -2.650521397590637207e-01 -1.488467454910278320e+00
2.373000000000000000e+03 7.205369567871093750e+01 -1.212122726440429688e+01 -1.436708569526672363e+00 -2.431117445230484009e-01 -5.039461255073547363e-01 -9.927455186843872070e-01
2.374000000000000000e+03 6.575411987304687500e+01 -9.560808181762695312e+00 2.288845539093017578e+00 9.094717979431152344e+00 3.415068864822387695e+00 -3.189704656600952148e+00
2.375000000000000000e+03 6.629508209228515625e+01 -1.027040767669677734e+01 2.389761686325073242e+00 6.675195217132568359e+00 2.719486951828002930e+00 -3.377792835235595703e+00
2.376000000000000000e+03 4.516884613037109375e+01 -1.441815567016601562e+01 -1.116301536560058594e+00 3.780357837677001953e-01 -2.214797139167785645e-01 1.054131612181663513e-01
2.377000000000000000e+03 2.527148056030273438e+01 -1.301464176177978516e+01 -1.745967268943786621e+00 -3.983851373195648193e-01 -6.433057188987731934e-01 -7.356933951377868652e-01
2.378000000000000000e+03 1.634576034545898438e+01 -7.045492172241210938e+00 8.630870841443538666e-03 7.683316618204116821e-02 2.563921175897121429e-02 6.405105348676443100e-03
2.379000000000000000e+03 4.524848175048828125e+01 -1.274267959594726562e+01 -1.700149178504943848e+00 -2.721275091171264648e-01 -5.916829705238342285e-01 -6.088793277740478516e-01
2.380000000000000000e+03 4.697113418579101562e+01 -1.513247013092041016e+01 -7.058618068695068359e-01 1.243986010551452637e+00 1.614372581243515015e-01 3.830080926418304443e-01
2.381000000000000000e+03 3.656370544433593750e+01 -7.623119831085205078e+00 1.521787345409393311e-01 1.284715533256530762e+00 4.310683012008666992e-01 -5.160015821456909180e-01
2.382000000000000000e+03 2.412002944946289062e+01 -1.473057556152343750e+01 -1.055761098861694336e+00 -3.924983441829681396e-01 -4.344778060913085938e-01 -4.224791526794433594e-01
2.383000000000000000e+03 3.715321731567382812e+01 -4.091073036193847656e+00 -7.889937758445739746e-01 4.054905474185943604e-01 -1.150509640574455261e-01 -2.066556662321090698e-01
2.384000000000000000e+03 3.678492355346679688e+01 -6.844235420227050781e+00 -6.187993660569190979e-02 1.051819205284118652e+00 2.969817817211151123e-01 -3.454538583755493164e-01
2.385000000000000000e+03 2.913420295715332031e+01 -1.100391006469726562e+01 -8.828072547912597656e-01 -1.286293983459472656e+00 -6.507303714752197266e-01 -7.674242854118347168e-01
2.386000000000000000e+03 3.711247634887695312e+01 -1.481380081176757812e+01 -7.717675566673278809e-01 8.446899652481079102e-01 2.187671884894371033e-02 -3.113130331039428711e-01
2.387000000000000000e+03 1.714538955688476562e+01 -7.915995597839355469e+00 6.333431694656610489e-03 1.033288538455963135e-01 3.289868310093879700e-02 5.438053980469703674e-03
2.388000000000000000e+03 3.045187187194824219e+01 -7.502657413482666016e+00 -1.063991934061050415e-01 -1.078559637069702148e+00 -3.554876744747161865e-01 -4.147411584854125977e-01
2.389000000000000000e+03 1.859304809570312500e+01 -1.198761367797851562e+01 -2.138829976320266724e-01 -6.185066699981689453e-02 -8.272010087966918945e-02 1.418922543525695801e-01
2.390000000000000000e+03 1.638834762573242188e+01 -8.014822006225585938e+00 -2.604256942868232727e-02 7.180679589509963989e-02 1.372926682233810425e-02 1.494860183447599411e-02
2.391000000000000000e+03 3.042680549621582031e+01 -6.551016807556152344e+00 -3.740672022104263306e-02 -8.464147448539733887e-01 -2.651464343070983887e-01 -3.220864832401275635e-01
2.392000000000000000e+03 1.652470588684082031e+01 -1.431595611572265625e+01 -7.089838385581970215e-02 1.989673674106597900e-01 3.842069581151008606e-02 -3.835147619247436523e-02
2.393000000000000000e+03 3.906505203247070312e+01 -1.210941910743713379e+00 -5.521550774574279785e-01 1.043561287224292755e-02 -1.625158488750457764e-01 2.098827064037322998e-01
2.394000000000000000e+03 3.664002990722656250e+01 -1.934214591979980469e+00 -6.408535838127136230e-01 2.169474661350250244e-01 -1.271718293428421021e-01 -6.405370309948921204e-03
2.395000000000000000e+03 3.807518005371093750e+01 -4.791564464569091797e+00 -6.838027834892272949e-01 1.612203866243362427e-01 -1.567747145891189575e-01 -2.304207533597946167e-01
2.396000000000000000e+03 4.561071014404296875e+01 -1.333738517761230469e+01 -1.468699574470520020e+00 3.316883742809295654e-01 -3.411033749580383301e-01 -7.828155159950256348e-02
2.397000000000000000e+03 4.502989959716796875e+01 -5.117835044860839844e+00 -5.549321770668029785e-01 -6.460925936698913574e-02 -1.858624219894409180e-01 2.045491933822631836e-01
2.398000000000000000e+03 4.395532989501953125e+01 -3.683522462844848633e+00 -1.254585027694702148e+00 3.331251069903373718e-02 -3.663817644119262695e-01 1.826051324605941772e-01
2.399000000000000000e+03 4.566006469726562500e+01 -5.667357921600341797e+00 -2.255106568336486816e-01 1.198444366455078125e-01 -3.169986605644226074e-02 5.893320590257644653e-02
2.400000000000000000e+03 4.525862121582031250e+01 -2.662696599960327148e+00 -1.028742432594299316e+00 1.702249646186828613e-01 -2.575552463531494141e-01 -1.314358562231063843e-01
2.401000000000000000e+03 4.846614456176757812e+01 -9.654888153076171875e+00 1.016944721341133118e-01 1.279856801033020020e+00 4.144653975963592529e-01 -1.345442049205303192e-02
2.402000000000000000e+03 4.634821319580078125e+01 -1.285945796966552734e+01 -1.193810582160949707e+00 6.131702661514282227e-01 -1.741920709609985352e-01 4.697339609265327454e-02
2.403000000000000000e+03 4.701230621337890625e+01 -2.865164041519165039e+00 -8.734668493270874023e-01 1.577704846858978271e-01 -2.147089093923568726e-01 1.278970092535018921e-01
2.404000000000000000e+03 3.768992233276367188e+01 -1.100415134429931641e+01 1.164652705192565918e-01 1.470899105072021484e+00 4.762093126773834229e-01 -4.714988470077514648e-01
2.405000000000000000e+03 5.092813873291015625e+01 -6.548235893249511719e+00 -7.366232872009277344e-01 -2.334199994802474976e-01 -2.910129725933074951e-01 7.820844054222106934e-01
2.406000000000000000e+03 4.703775024414062500e+01 -3.516677618026733398e+00 -8.283115029335021973e-01 2.815377116203308105e-01 -1.640321314334869385e-01 1.769556254148483276e-01
2.407000000000000000e+03 3.879855346679687500e+01 -1.204045391082763672e+01 -1.348938047885894775e-01 9.634795784950256348e-01 2.485757321119308472e-01 -4.107411205768585205e-01
2.408000000000000000e+03 4.422930908203125000e+01 -3.094080209732055664e+00 -1.241138339042663574e+00 1.327765583992004395e-01 -3.325085639953613281e-01 -6.951921433210372925e-02
2.409000000000000000e+03 4.319303894042968750e+01 -3.363654613494873047e+00 -1.739637255668640137e+00 2.532319724559783936e-02 -5.142942070960998535e-01 1.092306673526763916e-01
2.410000000000000000e+03 3.860144424438476562e+01 -3.854952812194824219e+00 -1.041256904602050781e+00 1.515003889799118042e-01 -2.669269740581512451e-01 -1.465521901845932007e-01
2.411000000000000000e+03 3.730264663696289062e+01 -1.658603787422180176e+00 -6.483290195465087891e-01 1.859631389379501343e-01 -1.387097686529159546e-01 7.376900315284729004e-02
2.412000000000000000e+03 4.785915756225585938e+01 -2.832421064376831055e+00 -7.984512448310852051e-01 1.479424536228179932e-01 -1.951526403427124023e-01 2.758620381355285645e-01
2.413000000000000000e+03 5.216371154785156250e+01 -3.998580932617187500e+00 -7.389760762453079224e-02 -5.683295130729675293e-01 -1.926681399345397949e-01 3.599697053432464600e-01
2.414000000000000000e+03 4.948554229736328125e+01 -2.519587039947509766e+00 -5.800294876098632812e-01 6.898176670074462891e-02 -1.533143222332000732e-01 3.899625539779663086e-01
2.415000000000000000e+03 4.880275344848632812e+01 -7.816967487335205078e+00 -1.179469004273414612e-01 9.576442241668701172e-01 2.519091963768005371e-01 3.801859915256500244e-01
2.416000000000000000e+03 5.615727615356445312e+01 3.294365167617797852e+00 -5.874367356300354004e-01 2.503790140151977539e+00 5.749060511589050293e-01 -1.676047801971435547e+00
2.417000000000000000e+03 5.521288299560546875e+01 4.788832664489746094e+00 -7.929607033729553223e-01 2.447032213211059570e+00 4.962214529514312744e-01 -8.195078372955322266e-01
2.418000000000000000e+03 5.610124969482421875e+01 2.541023731231689453e+00 -4.516542255878448486e-01 1.955503702163696289e+00 4.511548280715942383e-01 -1.631520390510559082e+00
2.419000000000000000e+03 5.769445800781250000e+01 1.573076009750366211e+00 1.320313364267349243e-01 3.708312749862670898e+00 1.152103185653686523e+00 -2.962487936019897461e+00
2.420000000000000000e+03 5.404920196533203125e+01 6.632719516754150391e+00 -6.635127663612365723e-01 1.654573082923889160e+00 2.973181009292602539e-01 -4.112229682505130768e-03
2.421000000000000000e+03 5.357056808471679688e+01 2.570250749588012695e+00 -6.719602346420288086e-01 2.276782989501953125e-01 -1.332845836877822876e-01 -3.248616158962249756e-01
2.422000000000000000e+03 9.173501968383789062e+00 2.586594581604003906e+00 -1.908031478524208069e-02 -4.971094056963920593e-02 -2.063737623393535614e-02 9.797045961022377014e-03
2.423000000000000000e+03 6.111274719238281250e+00 1.864067912101745605e+00 5.043433606624603271e-02 -6.103456951677799225e-03 1.329926308244466782e-02 -4.042691364884376526e-02
2.424000000000000000e+03 1.916798830032348633e+00 5.022906303405761719e+00 -1.929362118244171143e-02 3.797138482332229614e-02 5.603328347206115723e-03 -1.802772656083106995e-02
2.425000000000000000e+03 1.152686119079589844e+00 4.254854679107666016e+00 -5.291510839015245438e-03 5.522707104682922363e-02 1.498066820204257965e-02 -2.273856289684772491e-02
2.426000000000000000e+03 1.989638209342956543e+00 2.653178930282592773e+00 4.463439341634511948e-03 2.133592031896114349e-02 7.739807944744825363e-03 -3.795902803540229797e-02
2.427000000000000000e+03 3.599331378936767578e+00 2.631037712097167969e+00 6.516922730952501297e-03 6.050804629921913147e-03 3.770318115130066872e-03 -4.748237505555152893e-02
2.428000000000000000e+03 2.029118061065673828e+00 1.882258534431457520e+00 1.437840610742568970e-02 1.342593878507614136e-02 8.341303095221519470e-03 -3.339241072535514832e-02
2.429000000000000000e+03 6.837985038757324219e+00 2.577393770217895508e+00 -5.716713712899945676e-05 -1.766982115805149078e-02 -5.318096373230218887e-03 -3.431622684001922607e-02
2.430000000000000000e+03 6.925995349884033203e+00 1.857958436012268066e+00 5.553490668535232544e-02 -1.023775339126586914e-02 1.358914561569690704e-02 -3.451064601540565491e-02
2.431000000000000000e+03 5.223521232604980469e+00 2.612600564956665039e+00 4.764683544635772705e-03 -4.674063529819250107e-03 2.718592077144421637e-05 -4.606872051954269409e-02
2.432000000000000000e+03 3.234694290161132812e+01 9.546424746513366699e-01 -1.395255923271179199e+00 2.095717489719390869e-01 -3.557052314281463623e-01 -3.801530897617340088e-01
2.433000000000000000e+03 3.161341476440429688e+01 1.917037844657897949e+00 -1.225412726402282715e+00 3.242338299751281738e-01 -2.703536748886108398e-01 1.055506020784378052e-01
2.434000000000000000e+03 3.085885429382324219e+01 1.331027865409851074e+00 -1.246870160102844238e+00 3.473424017429351807e-01 -2.698583304882049561e-01 -5.284151434898376465e-02
2.435000000000000000e+03 1.964109230041503906e+01 4.447577953338623047e+00 -4.195739626884460449e-01 -7.139932364225387573e-02 -1.472919881343841553e-01 2.126024067401885986e-01
2.436000000000000000e+03 1.751922035217285156e+01 4.023708343505859375e+00 -5.495931506156921387e-01 3.774639964103698730e-02 -1.535540223121643066e-01 3.624763190746307373e-01
2.437000000000000000e+03 1.662685394287109375e+01 6.407068252563476562e+00 2.004646882414817810e-02 1.916619241237640381e-01 6.351251900196075439e-02 3.243771493434906006e-01
2.438000000000000000e+03 1.500380802154541016e+01 5.919180870056152344e+00 -4.030321538448333740e-01 -8.523914963006973267e-03 -1.234668195247650146e-01 4.260822534561157227e-01
2.439000000000000000e+03 4.565183639526367188e+01 -2.109555435180664062e+01 5.285778641700744629e-01 1.560664534568786621e+00 6.267727017402648926e-01 1.214609593152999878e-01
2.440000000000000000e+03 4.855067443847656250e+01 1.131136775016784668e+00 -1.251626729965209961e+00 1.523258090019226074e-01 -3.297902941703796387e-01 -4.322107508778572083e-02
2.441000000000000000e+03 4.720816802978515625e+01 5.240621566772460938e+00 -4.200147390365600586e-01 4.757414460182189941e-01 1.671800948679447174e-02 -9.364332258701324463e-02
2.442000000000000000e+03 4.451942825317382812e+01 2.097748041152954102e+00 -1.159387707710266113e+00 1.742335855960845947e-01 -2.955462634563446045e-01 2.027640342712402344e-01
2.443000000000000000e+03 4.344026184082031250e+01 -2.819682598114013672e+00 -1.259254336357116699e+00 3.679862990975379944e-02 -3.667367100715637207e-01 -1.330078393220901489e-01
2.444000000000000000e+03 4.480837249755859375e+01 -4.059842586517333984e+00 -9.972622394561767578e-01 8.543986082077026367e-02 -2.735467255115509033e-01 9.462074190378189087e-02
2.445000000000000000e+03 4.557791900634765625e+01 -4.610453128814697266e+00 -7.252869009971618652e-01 1.947924643754959106e-01 -1.591483354568481445e-01 1.077791750431060791e-01
2.446000000000000000e+03 4.816658020019531250e+01 -5.037285804748535156e+00 -6.691694259643554688e-01 5.786506533622741699e-01 -2.715563401579856873e-02 4.735902547836303711e-01
2.447000000000000000e+03 3.113704872131347656e+01 -3.369465112686157227e+00 -9.818901866674423218e-02 -2.492476254701614380e-01 -1.042309924960136414e-01 -2.857619225978851318e-01
2.448000000000000000e+03 3.720351409912109375e+01 -4.763006210327148438e+00 -6.653363108634948730e-01 5.309615731239318848e-01 -4.031242430210113525e-02 -2.572880983352661133e-01
2.449000000000000000e+03 3.299791336059570312e+01 -3.427959918975830078e+00 -2.730519175529479980e-01 -9.363003820180892944e-02 -1.100045815110206604e-01 -3.865083754062652588e-01
2.450000000000000000e+03 3.223160934448242188e+01 -3.783438920974731445e+00 -1.701187640428543091e-01 -1.935120075941085815e-01 -1.090892255306243896e-01 -4.113901555538177490e-01
2.451000000000000000e+03 5.875534439086914062e+01 7.131761908531188965e-01 1.173886895179748535e+00 5.788401126861572266e+00 2.088686466217041016e+00 -3.314182519912719727e+00
2.452000000000000000e+03 5.694398498535156250e+01 2.468212842941284180e+00 -3.615404367446899414e-01 2.953392505645751953e+00 7.775555849075317383e-01 -2.324267625808715820e+00
2.453000000000000000e+03 5.978725433349609375e+01 1.796848475933074951e-01 1.613435745239257812e+00 7.569947719573974609e+00 2.755015134811401367e+00 -3.627971649169921875e+00
2.454000000000000000e+03 5.995998001098632812e+01 -4.706183671951293945e-01 2.543262720108032227e+00 8.489567756652832031e+00 3.309849023818969727e+00 -4.258058071136474609e+00
2.455000000000000000e+03 4.271023178100585938e+01 1.933913588523864746e+00 -1.471279025077819824e+00 3.397951135411858559e-03 -4.403643310070037842e-01 2.224996536970138550e-01
2.456000000000000000e+03 4.568154907226562500e+01 5.280305862426757812e+00 -5.477777719497680664e-01 4.653152823448181152e-01 -2.473875693976879120e-02 -8.737687952816486359e-03
2.457000000000000000e+03 3.941078186035156250e+01 4.487164497375488281e+00 3.449508547782897949e-01 -1.586070358753204346e-01 5.590314045548439026e-02 4.164842069149017334e-01
2.458000000000000000e+03 4.216186523437500000e+01 2.947493553161621094e+00 -1.320956349372863770e+00 -5.657284334301948547e-02 -4.132587611675262451e-01 5.917741730809211731e-02
2.459000000000000000e+03 3.893011093139648438e+01 4.050716876983642578e+00 8.081056475639343262e-01 6.402570605278015137e-01 4.345088005065917969e-01 6.432580351829528809e-01
2.460000000000000000e+03 4.948461532592773438e+01 5.218979835510253906e+00 -4.260404706001281738e-01 2.731913328170776367e-01 -4.585473984479904175e-02 -2.840553522109985352e-01
2.461000000000000000e+03 5.008353042602539062e+01 2.350880146026611328e+00 -9.825779199600219727e-01 8.262923918664455414e-03 -2.922945022583007812e-01 -9.980163723230361938e-02
2.462000000000000000e+03 4.919981384277343750e+01 2.099402427673339844e+00 -1.078381657600402832e+00 1.295920610427856445e-01 -2.846368849277496338e-01 -6.756860762834548950e-02
2.463000000000000000e+03 5.131917572021484375e+01 -4.798859119415283203e+00 -4.296403527259826660e-01 -4.859739243984222412e-01 -2.746842801570892334e-01 7.853331565856933594e-01
2.464000000000000000e+03 5.047309112548828125e+01 -3.072353839874267578e+00 -3.900047838687896729e-01 -8.747749775648117065e-02 -1.432446837425231934e-01 4.796039760112762451e-01
2.465000000000000000e+03 4.647198486328125000e+01 3.555181026458740234e+00 -8.906130194664001465e-01 3.723769485950469971e-01 -1.554708182811737061e-01 4.991908743977546692e-02
2.466000000000000000e+03 4.293183517456054688e+01 2.643182992935180664e+00 -1.145119786262512207e+00 -1.046227663755416870e-02 -3.466746211051940918e-01 1.795755028724670410e-01
2.467000000000000000e+03 2.947403907775878906e+01 -3.458098888397216797e+00 5.559872835874557495e-03 -1.518574506044387817e-01 -4.388927295804023743e-02 -7.304423302412033081e-02
2.468000000000000000e+03 3.561207771301269531e+00 -4.194401168823242188e+01 4.814681783318519592e-02 -4.852414429187774658e-01 -1.311283856630325317e-01 -4.921957850456237793e-03
2.469000000000000000e+03 3.939360427856445312e+01 -3.765453720092773438e+01 2.886748015880584717e-01 6.802101135253906250e-01 2.906654775142669678e-01 -2.450229674577713013e-01
2.470000000000000000e+03 1.811781692504882812e+01 -1.884866833686828613e+00 6.390419602394104004e-02 2.897870913147926331e-02 2.786487154662609100e-02 1.967627904377877712e-04
2.471000000000000000e+03 1.590804481506347656e+01 -1.298389315605163574e+00 -2.384995296597480774e-02 -1.599299954250454903e-03 -7.634776178747415543e-03 -2.377930469810962677e-02
2.472000000000000000e+03 4.048315048217773438e+01 -2.948109865188598633e+00 -1.605634689331054688e+00 -2.595403194427490234e-01 -5.595524907112121582e-01 1.687492728233337402e-01
2.473000000000000000e+03 3.961575698852539062e+01 -1.197388768196105957e+00 -5.265712141990661621e-01 -7.174714654684066772e-02 -1.794954985380172729e-01 2.176940143108367920e-01
2.474000000000000000e+03 1.138081073760986328e+01 -1.012115192413330078e+01 -9.418521821498870850e-02 -7.710073143243789673e-03 -3.056858666241168976e-02 -8.282899856567382812e-02
2.475000000000000000e+03 1.113502883911132812e+01 3.569636583328247070e+00 -1.666620224714279175e-01 -1.179128512740135193e-01 -8.537246286869049072e-02 1.191470399498939514e-01
2.476000000000000000e+03 1.085980510711669922e+01 4.965433120727539062e+00 -3.028818368911743164e-01 -1.904699802398681641e-01 -1.480055451393127441e-01 1.353676468133926392e-01
2.477000000000000000e+03 1.879950523376464844e+01 -1.432655930519104004e+00 -2.492859214544296265e-02 3.434070572257041931e-02 2.823634073138237000e-03 5.632785335183143616e-02
2.478000000000000000e+03 1.657324981689453125e+01 -2.246841192245483398e+00 -1.660767197608947754e-02 2.128762938082218170e-02 1.403987058438360691e-03 -1.870958693325519562e-02
2.479000000000000000e+03 1.874050903320312500e+01 -9.643171429634094238e-01 1.974481157958507538e-03 -1.882024668157100677e-02 -5.053729750216007233e-03 -6.277769804000854492e-02
2.480000000000000000e+03 3.335542297363281250e+01 1.368222141265869141e+01 -2.445305734872817993e-01 1.211497858166694641e-01 -3.701423853635787964e-02 3.810218274593353271e-01
2.481000000000000000e+03 3.843003845214843750e+01 -2.416661977767944336e+00 -8.653941154479980469e-01 1.491298675537109375e-01 -2.148792743682861328e-01 1.569737941026687622e-01
2.482000000000000000e+03 6.128151321411132812e+01 2.379455375671386719e+01 -9.277710318565368652e-01 2.868069171905517578e+00 5.820894241333007812e-01 2.128464698791503906e+00
2.483000000000000000e+03 1.055154991149902344e+01 2.220892143249511719e+01 -2.059690952301025391e-01 -5.934016406536102295e-02 -7.959277927875518799e-02 2.032496184110641479e-01
2.484000000000000000e+03 1.216515636444091797e+01 1.829095840454101562e+01 3.956555128097534180e-01 3.282513022422790527e-01 2.171720415353775024e-01 4.146607816219329834e-01
2.485000000000000000e+03 6.720449829101562500e+01 -1.451731872558593750e+01 -1.135091543197631836e+00 2.168900728225708008e+00 3.101427257061004639e-01 -7.197026610374450684e-01
2.486000000000000000e+03 1.203926563262939453e+01 3.010544538497924805e+00 -1.497652828693389893e-01 -6.793598085641860962e-02 -6.531038135290145874e-02 1.493730545043945312e-01
2.487000000000000000e+03 1.158597183227539062e+01 7.115165233612060547e+00 -6.150475144386291504e-01 -3.563754856586456299e-01 -2.914268970489501953e-01 3.819622993469238281e-01
2.488000000000000000e+03 7.078975677490234375e+01 -1.509514153003692627e-01 1.369972825050354004e+00 6.793945431709289551e-01 6.148102283477783203e-01 1.321423292160034180e+00
2.489000000000000000e+03 6.770682525634765625e+01 6.461016178131103516e+00 -3.429002046585083008e+00 6.265494823455810547e-01 -8.407357931137084961e-01 1.462612748146057129e+00
2.490000000000000000e+03 3.008477592468261719e+01 2.826043319702148438e+01 -4.080253094434738159e-02 -2.973440289497375488e-01 -1.014439687132835388e-01 1.868613660335540771e-01
2.491000000000000000e+03 3.008924674987792969e+01 2.933908653259277344e+01 1.576498448848724365e-01 -2.277481704950332642e-01 -2.102950029075145721e-02 1.602469831705093384e-01
2.492000000000000000e+03 1.734915161132812500e+01 -2.230265140533447266e+00 2.143792249262332916e-02 2.590724825859069824e-02 1.420355122536420822e-02 2.669092826545238495e-02
2.493000000000000000e+03 1.303356075286865234e+01 -1.924625873565673828e+00 -5.743069923482835293e-04 -1.498660910874605179e-02 -4.668274894356727600e-03 -3.088914416730403900e-02
2.494000000000000000e+03 1.482278442382812500e+01 -3.647483110427856445e+00 5.841394420713186264e-03 1.168023701757192612e-02 5.256489384919404984e-03 -2.515380643308162689e-02
2.495000000000000000e+03 4.603904724121093750e+01 1.767826795578002930e+00 -1.160394787788391113e+00 2.581110000610351562e-01 -2.706851363182067871e-01 1.176252961158752441e-01
2.496000000000000000e+03 4.313956069946289062e+01 3.358658313751220703e+00 -1.061627268791198730e+00 3.516757488250732422e-02 -3.079379200935363770e-01 1.362951248884201050e-01
2.497000000000000000e+03 4.620363616943359375e+01 -2.781104278564453125e+01 4.853344261646270752e-01 5.360485315322875977e-01 3.064149022102355957e-01 -5.423094630241394043e-01
2.498000000000000000e+03 1.003132534027099609e+01 5.210702896118164062e+00 -2.924497723579406738e-01 -1.734004318714141846e-01 -1.397550702095031738e-01 1.119789481163024902e-01
2.499000000000000000e+03 5.006282043457031250e+01 -3.274359893798828125e+01 5.162083506584167480e-01 3.358351945877075195e+00 1.162368059158325195e+00 5.921235680580139160e-01
2.500000000000000000e+03 5.363294601440429688e+01 -3.301213455200195312e+01 1.512091755867004395e+00 4.537755489349365234e+00 1.814954161643981934e+00 1.230595707893371582e+00
2.501000000000000000e+03 5.347371101379394531e+00 2.561074829101562500e+01 -2.611263394355773926e-01 -7.452459335327148438e-01 -3.019116818904876709e-01 1.919337213039398193e-01
2.502000000000000000e+03 7.219033241271972656e+00 2.321060562133789062e+01 -2.578516006469726562e-01 -4.233623147010803223e-01 -2.043641656637191772e-01 2.139669656753540039e-01
2.503000000000000000e+03 6.551862335205078125e+01 2.974901390075683594e+01 7.269421219825744629e-01 4.723838806152343750e+00 1.635234355926513672e+00 5.794897079467773438e-01
2.504000000000000000e+03 6.434782409667968750e+01 3.120753479003906250e+01 5.903555154800415039e-01 4.556182861328125000e+00 1.543961524963378906e+00 -6.677684932947158813e-02
2.505000000000000000e+03 6.578688812255859375e+01 -2.466261672973632812e+01 8.828902244567871094e-02 7.205171108245849609e+00 2.188038110733032227e+00 -2.984144687652587891e+00
2.506000000000000000e+03 6.516274261474609375e+01 -2.398934745788574219e+01 1.150177597999572754e+00 8.556270599365234375e+00 2.911934375762939453e+00 -2.750591754913330078e+00
2.507000000000000000e+03 6.975238800048828125e+01 1.963414382934570312e+01 -2.255671024322509766e+00 3.369474887847900391e+00 3.341411650180816650e-01 -7.855507135391235352e-01
2.508000000000000000e+03 6.171459579467773438e+01 3.584159469604492188e+01 -5.536106228828430176e-01 1.438034415245056152e+00 2.653271257877349854e-01 -4.121800363063812256e-01
2.509000000000000000e+03 6.893465423583984375e+01 -1.570382976531982422e+01 -2.170713901519775391e+00 -1.242394819855690002e-01 -6.884860396385192871e-01 -1.508733630180358887e+00
2.510000000000000000e+03 6.881552124023437500e+01 -1.272649765014648438e+01 9.805133342742919922e-01 1.890020012855529785e+00 8.611599802970886230e-01 -2.205476760864257812e+00
2.511000000000000000e+03 2.527238464355468750e+01 1.519952297210693359e+01 -4.023308455944061279e-01 -1.277762055397033691e-01 -1.590321063995361328e-01 1.048297733068466187e-01
2.512000000000000000e+03 2.468015289306640625e+01 1.584216976165771484e+01 -4.130552411079406738e-01 -1.197888478636741638e-01 -1.598532199859619141e-01 1.820972263813018799e-01
2.513000000000000000e+03 3.044478034973144531e+01 3.033777618408203125e+01 2.641844153404235840e-01 -9.608431160449981689e-02 5.043003335595130920e-02 1.394746005535125732e-01
2.514000000000000000e+03 4.916233062744140625e+01 -2.617115402221679688e+01 -3.902666270732879639e-02 7.361258864402770996e-01 2.091297656297683716e-01 -6.754197478294372559e-01
2.515000000000000000e+03 6.457060241699218750e+01 2.965466308593750000e+01 4.035982787609100342e-01 5.178023338317871094e+00 1.674486398696899414e+00 3.647452294826507568e-01
2.516000000000000000e+03 9.424045562744140625e+00 1.622695350646972656e+01 4.145864844322204590e-01 1.184153631329536438e-01 1.599005460739135742e-01 2.744897902011871338e-01
2.517000000000000000e+03 1.091343784332275391e+01 1.817218780517578125e+01 3.620429635047912598e-01 2.679824829101562500e-01 1.890076249837875366e-01 2.920887172222137451e-01
2.518000000000000000e+03 5.048814010620117188e+01 -3.453255081176757812e+01 1.309214234352111816e+00 3.435644626617431641e+00 1.423457622528076172e+00 1.279197812080383301e+00
2.519000000000000000e+03 4.950984191894531250e+01 -3.460044097900390625e+01 1.431167602539062500e+00 4.047383308410644531e+00 1.643565297126770020e+00 1.486940264701843262e+00
2.520000000000000000e+03 5.563994407653808594e+00 -2.185179710388183594e+01 1.979960352182388306e-01 3.100580722093582153e-02 6.870055198669433594e-02 -1.103064864873886108e-01
2.521000000000000000e+03 5.155329704284667969e+00 -2.125139427185058594e+01 1.521505266427993774e-01 -6.480126641690731049e-03 4.370112344622612000e-02 -9.117390215396881104e-02
2.522000000000000000e+03 1.556383132934570312e+01 -6.804174423217773438e+00 -2.147756889462471008e-02 5.359657853841781616e-02 9.635702706873416901e-03 -2.411747816950082779e-03
2.523000000000000000e+03 3.449573135375976562e+01 -2.756910800933837891e+00 -4.810173809528350830e-01 1.100670471787452698e-01 -1.112850978970527649e-01 -2.767407000064849854e-01
2.524000000000000000e+03 3.755765914916992188e+01 -2.325507402420043945e+00 -7.716924548149108887e-01 2.337476760149002075e-01 -1.613834351301193237e-01 5.658189952373504639e-02
2.525000000000000000e+03 3.793140792846679688e+01 -1.406364440917968750e+00 -6.038160324096679688e-01 1.334934383630752563e-01 -1.410967707633972168e-01 1.305518001317977905e-01
2.526000000000000000e+03 6.181496047973632812e+01 7.572673320770263672e+00 -2.253926753997802734e+00 6.163207054138183594e+00 1.172784209251403809e+00 -1.840983152389526367e+00
2.527000000000000000e+03 7.341945648193359375e+01 1.301279926300048828e+01 1.476503014564514160e+00 1.124850845336914062e+01 3.817503452301025391e+00 3.375626504421234131e-01
2.528000000000000000e+03 7.270646667480468750e+01 1.204580116271972656e+01 1.413627624511718750e+00 1.283539009094238281e+01 4.274705410003662109e+00 9.899323582649230957e-01
2.529000000000000000e+03 9.261932373046875000e+00 1.413754177093505859e+01 1.543849706649780273e-01 1.002923622727394104e-01 7.640320062637329102e-02 2.644541263580322266e-01
2.530000000000000000e+03 8.307616233825683594e+00 1.360214138031005859e+01 1.209717392921447754e-01 -9.921978414058685303e-02 6.525587290525436401e-03 3.232499957084655762e-01
2.531000000000000000e+03 6.525241088867187500e+01 2.855858993530273438e+01 1.015518307685852051e+00 4.751671314239501953e+00 1.730156898498535156e+00 9.542962908744812012e-01
2.532000000000000000e+03 3.805398559570312500e+01 -1.535303592681884766e+01 -6.539452075958251953e-01 9.150043725967407227e-01 7.831775397062301636e-02 -3.361584842205047607e-01
2.533000000000000000e+03 2.979317283630371094e+01 -2.765412330627441406e+01 4.030733704566955566e-01 4.571132361888885498e-02 1.346354037523269653e-01 -2.340319901704788208e-01
2.534000000000000000e+03 6.765963745117187500e+01 -2.649038505554199219e+01 -2.818349599838256836e+00 3.075752258300781250e+00 7.722077518701553345e-02 -1.684698224067687988e+00
2.535000000000000000e+03 6.899258422851562500e+01 -2.691667747497558594e+01 -2.689705371856689453e+00 2.851196825504302979e-01 -7.213757634162902832e-01 -7.500322461128234863e-01
2.536000000000000000e+03 4.765565490722656250e+01 6.117343425750732422e+00 -9.867186099290847778e-02 5.062782764434814453e-01 1.222819238901138306e-01 -1.969389319419860840e-01
2.537000000000000000e+03 4.538862609863281250e+01 2.597129583358764648e+00 -1.061732053756713867e+00 2.651201486587524414e-01 -2.389835864305496216e-01 1.361269801855087280e-01
2.538000000000000000e+03 3.992803955078125000e+01 -3.254648685455322266e+00 -1.726554274559020996e+00 -3.797956928610801697e-02 -5.293601751327514648e-01 -3.867762908339500427e-02
2.539000000000000000e+03 7.611103820800781250e+01 -2.385273551940917969e+01 6.314961314201354980e-01 8.826752662658691406e+00 2.837474584579467773e+00 -6.301295161247253418e-01
2.540000000000000000e+03 7.901435852050781250e+01 -2.265645027160644531e+01 1.298706978559494019e-01 6.865866184234619141e+00 2.098721027374267578e+00 -2.044166475534439087e-01
2.541000000000000000e+03 6.902247428894042969e+00 -1.400360012054443359e+01 -1.816108822822570801e-01 -2.174821048974990845e-01 -1.197278946638107300e-01 -1.484015733003616333e-01
2.542000000000000000e+03 3.301000595092773438e+01 2.075859069824218750e+01 3.923646733164787292e-02 2.308818399906158447e-01 8.103549480438232422e-02 2.585096955299377441e-01
2.543000000000000000e+03 3.219299697875976562e+01 1.835087013244628906e+01 2.063594758510589600e-01 7.220929265022277832e-01 2.785357236862182617e-01 4.307287335395812988e-01
2.544000000000000000e+03 5.388282394409179688e+01 2.795971870422363281e+01 1.603177785873413086e-01 7.380727767944335938e+00 2.262313604354858398e+00 -4.734115004539489746e-01
2.545000000000000000e+03 5.180540847778320312e+01 2.888033485412597656e+01 8.834819793701171875e-01 4.369901180267333984e+00 1.576014995574951172e+00 -5.535659193992614746e-01
2.546000000000000000e+03 1.501631069183349609e+01 3.700093269348144531e+00 -4.268838465213775635e-01 1.302521023899316788e-02 -1.241575926542282104e-01 4.173169732093811035e-01
2.547000000000000000e+03 2.095473480224609375e+01 2.835931968688964844e+01 1.139857172966003418e-01 -1.979912966489791870e-01 -2.520167641341686249e-02 3.664327263832092285e-01
2.548000000000000000e+03 5.524793243408203125e+01 2.327676391601562500e+01 -1.821390032768249512e+00 3.368872165679931641e+00 4.642446339130401611e-01 -1.519070029258728027e+00
2.549000000000000000e+03 1.185803413391113281e+01 6.402641296386718750e+00 -5.791968703269958496e-01 -3.254791498184204102e-01 -2.714028060436248779e-01 2.858059108257293701e-01
2.550000000000000000e+03 5.367672920227050781e+00 -2.328218841552734375e+01 1.435041874647140503e-01 -3.373963385820388794e-02 3.292936459183692932e-02 -3.059328719973564148e-02
2.551000000000000000e+03 6.079395771026611328e+00 -2.306109428405761719e+01 1.707989424467086792e-01 1.650579273700714111e-02 5.619142204523086548e-02 -4.078925028443336487e-02
2.552000000000000000e+03 6.171220397949218750e+01 9.117001533508300781e+00 1.075024604797363281e-01 6.522691726684570312e+00 1.989058256149291992e+00 -2.420673847198486328e+00
2.553000000000000000e+03 6.149435806274414062e+01 8.162658691406250000e+00 -1.712339758872985840e+00 6.509555339813232422e+00 1.439164638519287109e+00 -1.653445601463317871e+00
2.554000000000000000e+03 7.353980541229248047e+00 3.433459091186523438e+01 3.648385405540466309e-01 3.735347464680671692e-02 1.206576079130172729e-01 1.164381802082061768e-01
2.555000000000000000e+03 6.833875179290771484e+00 3.357021713256835938e+01 3.390126526355743408e-01 -2.331175096333026886e-02 9.471026808023452759e-02 1.552948951721191406e-01
2.556000000000000000e+03 1.341896915435791016e+01 2.222895812988281250e+01 2.770841121673583984e-01 1.499174088239669800e-01 1.281004548072814941e-01 3.884919285774230957e-01
2.557000000000000000e+03 1.422279739379882812e+01 2.248279953002929688e+01 4.763829708099365234e-01 1.801292747259140015e-01 1.969536691904067993e-01 4.069319665431976318e-01
2.558000000000000000e+03 3.623768234252929688e+01 2.301004219055175781e+01 -4.490961134433746338e-02 1.920507848262786865e-01 4.414235055446624756e-02 5.580352246761322021e-02
2.559000000000000000e+03 3.621037292480468750e+01 2.401454544067382812e+01 -7.466370612382888794e-02 2.726906239986419678e-01 5.940807610750198364e-02 -1.259881444275379181e-02
2.560000000000000000e+03 3.511023330688476562e+01 2.431312179565429688e+01 -1.459351181983947754e-01 4.254511892795562744e-01 8.385481685400009155e-02 1.034974083304405212e-01
2.561000000000000000e+03 6.177542114257812500e+01 -6.195451736450195312e+00 1.245782494544982910e+00 1.707183265686035156e+01 5.495284557342529297e+00 1.137340903282165527e+00
2.562000000000000000e+03 6.982406616210937500e+01 7.314630508422851562e+00 -6.047989726066589355e-01 3.666469573974609375e+00 9.185011982917785645e-01 2.216594219207763672e+00
2.563000000000000000e+03 7.160208129882812500e+01 8.717726707458496094e+00 8.222218751907348633e-01 8.584462165832519531e+00 2.822005271911621094e+00 2.095083713531494141e+00
2.564000000000000000e+03 5.930417060852050781e+00 -3.368044853210449219e+00 1.691131293773651123e-02 -1.661049947142601013e-02 9.024408791447058320e-05 9.394744411110877991e-03
2.565000000000000000e+03 7.676612854003906250e+00 -4.678744316101074219e+00 1.437457185238599777e-02 -3.464111685752868652e-02 -6.079963408410549164e-03 -6.801948416978120804e-03
2.566000000000000000e+03 9.134700775146484375e+00 -3.176368474960327148e+00 1.564697548747062683e-02 -2.187065035104751587e-02 -1.867102459073066711e-03 -1.900925114750862122e-02
2.567000000000000000e+03 5.869118690490722656e+00 -2.638228178024291992e+00 2.020749077200889587e-02 -7.561844773590564728e-03 3.793693846091628075e-03 1.064152922481298447e-02
2.568000000000000000e+03 7.524753093719482422e+00 -3.259367704391479492e+00 1.771653257310390472e-02 -2.036229707300662994e-02 -7.937292684800922871e-04 -4.069462884217500687e-03
2.569000000000000000e+03 6.732584953308105469e+00 -3.299776077270507812e+00 1.862727105617523193e-02 -1.502813864499330521e-02 1.079739769920706749e-03 4.550215788185596466e-03
2.570000000000000000e+03 4.737653255462646484e+00 -4.682090282440185547e+00 1.278045680373907089e-02 -1.117395795881748199e-02 4.819495952688157558e-04 2.027178555727005005e-02
2.571000000000000000e+03 1.890822410583496094e+00 -2.657172441482543945e+00 4.366103094071149826e-03 7.997144013643264771e-03 3.708974225446581841e-03 1.272849179804325104e-02
2.572000000000000000e+03 1.062110543251037598e+00 -5.036931037902832031e+00 8.325271483045071363e-05 3.172264993190765381e-02 9.541771374642848969e-03 1.424274221062660217e-02
2.573000000000000000e+03 1.149592971801757812e+01 -2.228567361831665039e+00 6.980197038501501083e-03 -1.696421578526496887e-02 -2.995205577462911606e-03 -3.010526672005653381e-02
2.574000000000000000e+03 2.960500144958496094e+01 4.103733539581298828e+00 -2.997172176837921143e-01 5.672428011894226074e-01 8.025768399238586426e-02 -3.132817894220352173e-02
2.575000000000000000e+03 7.890275573730468750e+01 -2.734374701976776123e-01 -1.069007292389869690e-01 8.299340248107910156e+00 2.457731723785400391e+00 1.384875476360321045e-01
2.576000000000000000e+03 7.399852752685546875e+01 -1.230590462684631348e+00 -4.803148508071899414e-01 5.186769008636474609e+00 1.411936283111572266e+00 -1.117569804191589355e+00
2.577000000000000000e+03 4.241112136840820312e+01 3.651690244674682617e+00 -8.170604705810546875e-01 -2.131874561309814453e-01 -3.090743720531463623e-01 1.354304794222116470e-02
2.578000000000000000e+03 4.011495971679687500e+01 6.668009281158447266e+00 -1.467352658510208130e-01 -9.240382313728332520e-01 -3.212320506572723389e-01 5.387603640556335449e-01
2.579000000000000000e+03 3.032729339599609375e+01 -2.718190574645996094e+01 3.902676403522491455e-01 1.102422624826431274e-01 1.501529663801193237e-01 -2.563448548316955566e-01
2.580000000000000000e+03 2.376893615722656250e+01 1.600106048583984375e+01 -3.258303105831146240e-01 -9.999274462461471558e-02 -1.277469247579574585e-01 1.604704409837722778e-01
2.581000000000000000e+03 6.485973358154296875e+01 -3.739680051803588867e+00 2.777127981185913086e+00 1.006854057312011719e+01 3.853700637817382812e+00 1.896257162094116211e+00
2.582000000000000000e+03 3.296759414672851562e+01 1.994678497314453125e+01 9.916011244058609009e-02 3.093980550765991211e-01 1.225674524903297424e-01 3.114480972290039062e-01
2.583000000000000000e+03 4.597196197509765625e+01 -2.045008850097656250e+01 4.868978261947631836e-01 1.805320739746093750e+00 6.876655817031860352e-01 1.215982809662818909e-01
2.584000000000000000e+03 6.000646209716796875e+01 1.219385910034179688e+01 1.570798039436340332e+00 8.936650276184082031e+00 3.152234554290771484e+00 -1.675323963165283203e+00
2.585000000000000000e+03 7.023107910156250000e+01 1.907068443298339844e+01 -1.624350190162658691e+00 3.923206567764282227e+00 6.896569132804870605e-01 -8.797787427902221680e-01
2.586000000000000000e+03 2.896484565734863281e+01 4.305151939392089844e+00 -2.486995905637741089e-01 5.128549337387084961e-01 7.924659550189971924e-02 9.007725119590759277e-02
2.587000000000000000e+03 2.726667976379394531e+01 1.827368497848510742e+00 -9.333599805831909180e-01 1.279149055480957031e-01 -2.416335344314575195e-01 2.016881257295608521e-01
2.588000000000000000e+03 2.121792602539062500e+01 4.545192718505859375e+00 -3.524673879146575928e-01 -1.506352722644805908e-01 -1.509308069944381714e-01 1.704884767532348633e-01
2.589000000000000000e+03 2.217875480651855469e+01 3.334743976593017578e+00 -6.876243352890014648e-01 -1.286336481571197510e-01 -2.448773980140686035e-01 2.373417913913726807e-01
2.590000000000000000e+03 2.878665924072265625e+01 1.610333800315856934e+00 -1.005757451057434082e+00 2.896643280982971191e-01 -2.148279249668121338e-01 6.443566828966140747e-02
2.591000000000000000e+03 2.587647056579589844e+01 2.197322845458984375e+00 -8.542225360870361328e-01 6.662201602011919022e-03 -2.542681097984313965e-01 2.869679927825927734e-01
2.592000000000000000e+03 2.645012474060058594e+01 5.099451541900634766e+00 -5.107383057475090027e-02 1.533333510160446167e-01 3.067785315215587616e-02 2.079761326313018799e-01
2.593000000000000000e+03 2.252039527893066406e+01 4.035125732421875000e+00 -4.560120999813079834e-01 -1.569857299327850342e-01 -1.838993430137634277e-01 2.093656361103057861e-01
2.594000000000000000e+03 2.323373794555664062e+01 3.796899080276489258e+00 -5.006516575813293457e-01 -1.325842738151550293e-01 -1.899707764387130737e-01 2.403035610914230347e-01
2.595000000000000000e+03 2.553888320922851562e+01 3.087668418884277344e+00 -6.224495172500610352e-01 5.974644955131225288e-05 -1.867169290781021118e-01 2.622189819812774658e-01
2.596000000000000000e+03 2.828442573547363281e+01 3.078608989715576172e+00 -5.791643857955932617e-01 3.298586308956146240e-01 -7.479172199964523315e-02 1.500128358602523804e-01
2.597000000000000000e+03 2.746898269653320312e+01 5.333230018615722656e+00 1.496936939656734467e-02 3.506160080432891846e-01 1.096756160259246826e-01 1.587537378072738647e-01
2.598000000000000000e+03 2.062338256835937500e+01 4.820646286010742188e+00 -2.997549772262573242e-01 -1.152577772736549377e-01 -1.245038285851478577e-01 1.761804670095443726e-01
2.599000000000000000e+03 2.622270965576171875e+01 -3.507113647460937500e+01 6.641346495598554611e-03 -3.305443227291107178e-01 -9.717089682817459106e-02 -1.373457908630371094e-02
2.600000000000000000e+03 2.669451713562011719e+01 -3.389682388305664062e+01 3.835384920239448547e-02 -2.662798762321472168e-01 -6.837780773639678955e-02 -5.335024744272232056e-02
2.601000000000000000e+03 2.596023368835449219e+01 -3.418995666503906250e+01 1.456273719668388367e-02 -3.903587758541107178e-01 -1.127388104796409607e-01 -2.573863044381141663e-02
2.602000000000000000e+03 5.190496063232421875e+01 2.811864662170410156e+01 9.508226513862609863e-01 4.531619548797607422e+00 1.644732594490051270e+00 -7.067081928253173828e-01
2.603000000000000000e+03 1.881740570068359375e+01 -2.501582527160644531e+01 1.862102299928665161e-01 7.105787843465805054e-02 7.718043029308319092e-02 -3.428581357002258301e-01
2.604000000000000000e+03 4.277305221557617188e+01 -1.523972702026367188e+01 -6.918131113052368164e-01 -1.354873329401016235e-01 -2.481901198625564575e-01 -3.446449339389801025e-01
2.605000000000000000e+03 4.914792633056640625e+01 -3.843462371826171875e+01 1.316770166158676147e-01 2.666192054748535156e+00 8.393607139587402344e-01 1.003500342369079590e+00
2.606000000000000000e+03 5.012123107910156250e+01 -3.512181472778320312e+01 1.300116896629333496e+00 3.268054246902465820e+00 1.370451331138610840e+00 1.104351162910461426e+00
2.607000000000000000e+03 5.633552551269531250e+01 -3.990828704833984375e+01 -9.791760444641113281e-01 2.377362251281738281e+00 4.194558560848236084e-01 -2.186659425497055054e-01
2.608000000000000000e+03 1.801999473571777344e+01 -1.132985973358154297e+01 -1.773877292871475220e-01 -3.471930697560310364e-02 -6.363210827112197876e-02 1.096049919724464417e-01
2.609000000000000000e+03 1.537004375457763672e+01 -1.465380573272705078e+01 4.297378659248352051e-02 3.783308565616607666e-01 1.263913959264755249e-01 -1.231452375650405884e-01
2.610000000000000000e+03 1.062107276916503906e+01 8.427327156066894531e+00 -4.540837407112121582e-01 -4.837444126605987549e-01 -2.813484668731689453e-01 4.092406034469604492e-01
2.611000000000000000e+03 1.239820098876953125e+01 -2.731619596481323242e+00 5.183824338018894196e-03 -1.531703211367130280e-02 -3.039962379261851311e-03 -3.453337028622627258e-02
2.612000000000000000e+03 1.080871391296386719e+01 -3.044739723205566406e+00 9.991276077926158905e-03 -1.920788362622261047e-02 -2.764982171356678009e-03 -3.037663362920284271e-02
2.613000000000000000e+03 1.388964843750000000e+01 -2.450198173522949219e+00 1.800006022676825523e-03 -8.905686438083648682e-03 -2.131704241037368774e-03 -3.110279701650142670e-02
2.614000000000000000e+03 5.958734130859375000e+01 2.423281669616699219e+00 -1.120167255401611328e+00 6.672541618347167969e+00 1.665712356567382812e+00 -2.846629142761230469e+00
2.615000000000000000e+03 6.312837219238281250e+01 6.664250373840332031e+00 -3.048865795135498047e+00 4.181319713592529297e+00 3.397361338138580322e-01 -1.714542746543884277e+00
2.616000000000000000e+03 2.869996261596679688e+01 -1.955760192871093750e+01 -8.409630507230758667e-03 -2.182052135467529297e-01 -6.798445433378219604e-02 -2.996348403394222260e-02
2.617000000000000000e+03 3.866909790039062500e+01 -1.742989158630371094e+01 2.070570737123489380e-01 7.797461152076721191e-01 2.960409522056579590e-01 -4.528414607048034668e-01
2.618000000000000000e+03 3.278632354736328125e+01 -1.459548950195312500e+01 -8.496853113174438477e-01 -3.959992900490760803e-02 -2.667855620384216309e-01 1.190348044037818909e-01
2.619000000000000000e+03 2.898303222656250000e+01 9.674938201904296875e+00 3.374976515769958496e-01 9.259681701660156250e-01 3.790397346019744873e-01 3.321513831615447998e-01
2.620000000000000000e+03 2.857468986511230469e+01 9.060144424438476562e+00 3.277496099472045898e-01 7.941311001777648926e-01 3.365642130374908447e-01 2.482232004404067993e-01
2.621000000000000000e+03 1.472020912170410156e+01 -4.132420349121093750e+01 6.436654925346374512e-01 3.555693104863166809e-02 2.037667334079742432e-01 -7.706057280302047729e-02
2.622000000000000000e+03 1.505422210693359375e+01 -4.037150955200195312e+01 6.973313689231872559e-01 1.336715221405029297e-01 2.493008673191070557e-01 -1.948562562465667725e-01
2.623000000000000000e+03 1.669816970825195312e+01 3.982340335845947266e+00 -5.234603285789489746e-01 6.837187707424163818e-02 -1.365265399217605591e-01 4.189419150352478027e-01
2.624000000000000000e+03 6.595084381103515625e+01 -2.580795478820800781e+01 -1.993428707122802734e+00 6.795537471771240234e+00 1.440632581710815430e+00 -2.153152227401733398e+00
2.625000000000000000e+03 2.123392868041992188e+01 2.322758865356445312e+01 2.118727266788482666e-01 -8.046564459800720215e-02 3.942212089896202087e-02 1.806333959102630615e-01
2.626000000000000000e+03 2.414521026611328125e+01 -2.947086334228515625e+01 2.925508022308349609e-01 -1.101652383804321289e-01 5.471567064523696899e-02 -1.643889844417572021e-01
2.627000000000000000e+03 2.365020561218261719e+01 -2.878948020935058594e+01 3.688854575157165527e-01 -2.699912060052156448e-03 1.098556667566299438e-01 -2.026923745870590210e-01
2.628000000000000000e+03 4.470780181884765625e+01 8.782128334045410156e+00 1.388454139232635498e-01 1.080808281898498535e+00 3.658961057662963867e-01 -1.309507042169570923e-01
2.629000000000000000e+03 1.763796234130859375e+01 -1.764654159545898438e+01 -1.325574815273284912e-01 -9.097945690155029297e-02 -6.706108152866363525e-02 -4.939703345298767090e-01
2.630000000000000000e+03 6.421350860595703125e+01 -1.994307899475097656e+01 8.734453320503234863e-01 9.970999717712402344e+00 3.253333568572998047e+00 -7.177919149398803711e-03
2.631000000000000000e+03 9.040498733520507812e+00 3.267670869827270508e+00 -8.447313308715820312e-02 -6.500186026096343994e-02 -4.484250023961067200e-02 1.734049059450626373e-02
2.632000000000000000e+03 3.463943862915039062e+01 3.003378105163574219e+01 1.272847056388854980e-01 6.487682461738586426e-01 2.328158766031265259e-01 6.696882843971252441e-02
2.633000000000000000e+03 5.236424636840820312e+01 -3.218439579010009766e+00 -3.060580603778362274e-02 -3.126885592937469482e-01 -1.029883101582527161e-01 1.920181363821029663e-01
2.634000000000000000e+03 5.335842514038085938e+01 3.117640686035156250e+01 7.741397023200988770e-01 5.183080196380615234e+00 1.787165999412536621e+00 3.924030661582946777e-01
2.635000000000000000e+03 4.718711090087890625e+01 2.696876525878906250e+01 4.299720823764801025e-01 2.361901998519897461e+00 8.375622630119323730e-01 -1.725878268480300903e-01
2.636000000000000000e+03 5.420172119140625000e+01 -2.515256690979003906e+01 -2.739243209362030029e-01 4.373831748962402344e+00 1.229972243309020996e+00 1.882299184799194336e+00
2.637000000000000000e+03 5.664540863037109375e+01 -2.833449363708496094e+01 3.561125695705413818e-01 5.671595573425292969e+00 1.808312416076660156e+00 1.793498039245605469e+00
2.638000000000000000e+03 4.107135772705078125e+01 -2.365684890747070312e+01 2.111652940511703491e-01 7.630731463432312012e-01 2.922715246677398682e-01 1.942886710166931152e-01
2.639000000000000000e+03 4.036976623535156250e+01 -2.451626014709472656e+01 2.234794944524765015e-01 7.583219408988952637e-01 2.945404350757598877e-01 2.615294456481933594e-01
2.640000000000000000e+03 7.597714996337890625e+01 -8.292663574218750000e+00 1.019545435905456543e+00 1.101205921173095703e+01 3.609481573104858398e+00 -1.489668935537338257e-01
2.641000000000000000e+03 2.077975273132324219e+01 1.080721569061279297e+01 9.067509323358535767e-02 -8.132338523864746094e-02 2.805512864142656326e-03 1.256458014249801636e-01
2.642000000000000000e+03 2.256193923950195312e+01 1.299307823181152344e+01 -1.972465589642524719e-02 -1.485981345176696777e-01 -5.049683898687362671e-02 8.553484827280044556e-02
2.643000000000000000e+03 1.162601757049560547e+01 -2.641281318664550781e+01 -4.683352261781692505e-02 -3.654150664806365967e-01 -1.236745789647102356e-01 -2.643616795539855957e-01
2.644000000000000000e+03 6.746281433105468750e+01 -3.441656494140625000e+01 8.202721476554870605e-01 5.504896163940429688e+00 1.897550582885742188e+00 -8.932384848594665527e-01
2.645000000000000000e+03 7.192089843750000000e+01 -2.775776481628417969e+01 -1.059655785560607910e+00 3.385598182678222656e+00 6.977827548980712891e-01 1.891546964645385742e+00
2.646000000000000000e+03 5.803917407989501953e+00 -1.526646041870117188e+01 -1.365460604429244995e-01 -2.579303681850433350e-01 -1.183429211378097534e-01 -1.516614407300949097e-01
2.647000000000000000e+03 6.446627044677734375e+01 -2.819236755371093750e+01 3.196093142032623291e-01 5.945392131805419922e+00 1.879500389099121094e+00 -2.662219285964965820e+00
2.648000000000000000e+03 7.848114013671875000e+01 4.118447113037109375e+01 -2.795841358602046967e-02 7.507231712341308594e+00 2.243782043457031250e+00 3.908770531415939331e-02
2.649000000000000000e+03 7.154489898681640625e+01 1.740173149108886719e+01 -7.122384309768676758e-01 7.323354244232177734e+00 1.983334779739379883e+00 -1.108220934867858887e+00
2.650000000000000000e+03 7.756355285644531250e+01 3.750720596313476562e+01 1.256712619215250015e-02 7.261342525482177734e+00 2.182173013687133789e+00 2.415362372994422913e-02
2.651000000000000000e+03 7.718912506103515625e+01 3.680937194824218750e+01 2.195576392114162445e-02 7.155642509460449219e+00 2.153279542922973633e+00 1.149511802941560745e-02
2.652000000000000000e+03 7.810378265380859375e+01 2.924549674987792969e+01 3.489832952618598938e-02 7.628366947174072266e+00 2.298979520797729492e+00 -1.909144669771194458e-01
2.653000000000000000e+03 7.891401672363281250e+01 2.125001907348632812e+01 -7.583727687597274780e-02 8.394555091857910156e+00 2.495615243911743164e+00 1.993188858032226562e-01
2.654000000000000000e+03 7.822193908691406250e+01 1.962613296508789062e+01 -1.743825078010559082e-01 7.973966598510742188e+00 2.339875221252441406e+00 5.510714650154113770e-01
2.655000000000000000e+03 7.812919616699218750e+01 2.764984893798828125e+01 1.423101499676704407e-02 7.779428005218505859e+00 2.338097572326660156e+00 -2.273376733064651489e-01
2.656000000000000000e+03 7.889337921142578125e+01 2.526556777954101562e+01 -1.990326680243015289e-02 8.356631278991699219e+00 2.501018285751342773e+00 -1.184863448143005371e-01
2.657000000000000000e+03 7.746334838867187500e+01 2.440125083923339844e+01 -1.453402489423751831e-01 7.811856746673583984e+00 2.299954891204833984e+00 -1.967613697052001953e-01
2.658000000000000000e+03 7.820048522949218750e+01 2.122635269165039062e+01 -1.745324134826660156e-01 8.160546302795410156e+00 2.395803928375244141e+00 2.755649387836456299e-01
2.659000000000000000e+03 7.820576477050781250e+01 2.042418289184570312e+01 -1.834872066974639893e-01 8.087219238281250000e+00 2.371119499206542969e+00 4.105648398399353027e-01
2.660000000000000000e+03 7.893021392822265625e+01 1.566308021545410156e+01 4.104701057076454163e-02 6.564340114593505859e+00 1.981616139411926270e+00 5.499580502510070801e-01
2.661000000000000000e+03 7.879016113281250000e+01 3.341090393066406250e+01 1.179006323218345642e-02 7.618967533111572266e+00 2.289227247238159180e+00 -2.953846007585525513e-02
2.662000000000000000e+03 7.902966308593750000e+01 3.485575103759765625e+01 -3.041862510144710541e-03 7.671722412109375000e+00 2.300604104995727539e+00 -2.035333774983882904e-03
2.663000000000000000e+03 7.792478942871093750e+01 3.687408447265625000e+01 9.884003549814224243e-03 7.403916358947753906e+00 2.224140167236328125e+00 1.936507411301136017e-02
2.664000000000000000e+03 7.804499816894531250e+01 3.166770362854003906e+01 4.028341174125671387e-02 7.461203098297119141e+00 2.250445842742919922e+00 -9.969639778137207031e-02
2.665000000000000000e+03 7.816661834716796875e+01 1.330017566680908203e+01 2.877152562141418457e-01 6.468497753143310547e+00 2.026863813400268555e+00 3.618609905242919922e-01
2.666000000000000000e+03 7.257735443115234375e+01 1.116059398651123047e+01 2.049489259719848633e+00 1.224718856811523438e+01 4.289003372192382812e+00 1.225492000579833984e+00
2.667000000000000000e+03 7.820781707763671875e+01 1.488660621643066406e+01 1.603150814771652222e-01 6.743820667266845703e+00 2.071240901947021484e+00 6.961508393287658691e-01
2.668000000000000000e+03 7.881377410888671875e+01 3.169395637512207031e+01 1.644369401037693024e-02 7.693765163421630859e+00 2.313062667846679688e+00 -6.640303879976272583e-02
2.669000000000000000e+03 7.819608306884765625e+01 1.409830570220947266e+01 2.304609119892120361e-01 6.576529026031494141e+00 2.042096853256225586e+00 5.566016435623168945e-01
2.670000000000000000e+03 7.749995422363281250e+01 1.411410331726074219e+01 3.942537605762481689e-01 7.030814647674560547e+00 2.227520465850830078e+00 6.779909729957580566e-01
2.671000000000000000e+03 7.811940765380859375e+01 1.249159908294677734e+01 3.120967447757720947e-01 6.429928302764892578e+00 2.022607564926147461e+00 1.481910049915313721e-01
2.672000000000000000e+03 7.773574829101562500e+01 -3.818355941772460938e+01 3.297592699527740479e-02 7.530648708343505859e+00 2.269087553024291992e+00 -4.916564375162124634e-02
2.673000000000000000e+03 7.892375183105468750e+01 -3.635807418823242188e+01 1.743816211819648743e-02 7.882735252380371094e+00 2.370052099227905273e+00 1.739976927638053894e-02
2.674000000000000000e+03 7.830473327636718750e+01 -3.701031494140625000e+01 4.202872514724731445e-02 7.704601287841796875e+00 2.323989152908325195e+00 -1.230155117809772491e-02
2.675000000000000000e+03 7.888980865478515625e+01 -2.989764785766601562e+01 -6.204113736748695374e-02 8.282697677612304688e+00 2.466196775436401367e+00 3.414024040102958679e-02
2.676000000000000000e+03 7.799764251708984375e+01 -3.222158813476562500e+01 2.038519456982612610e-02 7.698410034179687500e+00 2.315638542175292969e+00 1.840377599000930786e-01
2.677000000000000000e+03 7.889871215820312500e+01 -1.702118110656738281e+01 -2.462846413254737854e-02 8.339186668395996094e+00 2.494367361068725586e+00 6.729624271392822266e-01
2.678000000000000000e+03 7.399985504150390625e+01 -2.022776603698730469e+01 1.767544150352478027e+00 1.162685012817382812e+01 4.018318176269531250e+00 -1.112993955612182617e+00
2.679000000000000000e+03 7.899916839599609375e+01 -2.108032608032226562e+01 1.362996399402618408e-01 6.869340419769287109e+00 2.101691961288452148e+00 1.571558862924575806e-01
2.680000000000000000e+03 7.897680664062500000e+01 -2.028293418884277344e+01 1.341428309679031372e-01 7.029247283935546875e+00 2.149017095565795898e+00 3.494150936603546143e-01
2.681000000000000000e+03 7.896332550048828125e+01 -9.076422691345214844e+00 9.236460924148559570e-02 7.978020191192626953e+00 2.421115398406982422e+00 -7.516729235649108887e-01
2.682000000000000000e+03 7.892841339111328125e+01 -5.795757293701171875e+00 1.515835523605346680e-01 7.266222953796386719e+00 2.225342035293579102e+00 1.729571968317031860e-01
2.683000000000000000e+03 7.893856048583984375e+01 -1.858337044715881348e+00 -1.040863692760467529e-01 8.116703987121582031e+00 2.403785228729248047e+00 3.702104687690734863e-01
2.684000000000000000e+03 7.894172668457031250e+01 5.268300533294677734e+00 -3.204496204853057861e-02 7.522560119628906250e+00 2.247154474258422852e+00 -4.059083461761474609e-01
2.685000000000000000e+03 7.826696777343750000e+01 2.961575269699096680e+00 -1.165672168135643005e-01 7.804759979248046875e+00 2.306457757949829102e+00 -3.424422740936279297e-01
2.686000000000000000e+03 7.814232635498046875e+01 2.685027313232421875e+01 -6.964976899325847626e-03 7.863447189331054688e+00 2.356944561004638672e+00 -2.283266633749008179e-01
2.687000000000000000e+03 7.815459442138671875e+01 2.604827308654785156e+01 -2.404230087995529175e-02 7.949470520019531250e+00 2.377628564834594727e+00 -2.184339314699172974e-01
2.688000000000000000e+03 7.795549011230468750e+01 3.341461944580078125e+01 3.518706560134887695e-02 7.383514404296875000e+00 2.225610494613647461e+00 -4.170010983943939209e-02
2.689000000000000000e+03 7.478660583496093750e+01 -2.271106910705566406e+01 1.254840016365051270e+00 1.071783351898193359e+01 3.591802120208740234e+00 1.847668737173080444e-01
2.690000000000000000e+03 7.816469573974609375e+01 2.524643707275390625e+01 -5.479101836681365967e-02 8.031766891479492188e+00 2.393092870712280273e+00 -1.885396838188171387e-01
2.691000000000000000e+03 7.824192810058593750e+01 1.882997512817382812e+01 -1.457708179950714111e-01 7.818291187286376953e+00 2.301756143569946289e+00 6.730043292045593262e-01
2.692000000000000000e+03 7.822949981689453125e+01 8.406545639038085938e+00 4.576488211750984192e-02 6.781138896942138672e+00 2.048071146011352539e+00 -6.710296273231506348e-01
2.693000000000000000e+03 7.818971252441406250e+01 6.142320632934570312e-01 -2.052962332963943481e-01 8.005340576171875000e+00 2.340013265609741211e+00 -2.813218347728252411e-02
2.694000000000000000e+03 7.894522094726562500e+01 2.902094364166259766e+00 -6.188889220356941223e-02 8.090936660766601562e+00 2.408714294433593750e+00 -2.262168079614639282e-01
2.695000000000000000e+03 7.494088745117187500e+01 -1.161586189270019531e+01 -1.713637948036193848e+00 7.088331222534179688e+00 1.612408041954040527e+00 1.129016280174255371e+00
2.696000000000000000e+03 7.346968078613281250e+01 -1.763137054443359375e+01 3.063951730728149414e-01 6.949913024902343750e+00 2.176892518997192383e+00 -1.130483865737915039e+00
2.697000000000000000e+03 7.895321655273437500e+01 -2.420438957214355469e+01 7.286088913679122925e-02 7.278562545776367188e+00 2.205427169799804688e+00 -4.740257263183593750e-01
2.698000000000000000e+03 7.408743286132812500e+01 -2.474701309204101562e+01 -7.929317653179168701e-04 1.010980129241943359e+01 3.032702684402465820e+00 1.894351094961166382e-01
2.699000000000000000e+03 7.878855133056640625e+01 -3.483231353759765625e+01 2.403758093714714050e-02 7.874892234802246094e+00 2.369678974151611328e+00 5.588459223508834839e-02
2.700000000000000000e+03 7.877600097656250000e+01 -3.232933425903320312e+01 1.001471746712923050e-02 8.025259971618652344e+00 2.410582304000854492e+00 1.268078535795211792e-01
2.701000000000000000e+03 7.833481597900390625e+01 4.037573242187500000e+01 -8.304421207867562771e-04 7.437986850738525391e+00 2.231147050857543945e+00 1.768950745463371277e-02
2.702000000000000000e+03 7.735475921630859375e+01 4.080010986328125000e+01 -2.397533738985657692e-03 7.137435913085937500e+00 2.140511512756347656e+00 -9.634704329073429108e-04
2.703000000000000000e+03 7.741340637207031250e+01 -8.350760489702224731e-02 -3.826551437377929688e-01 7.791360855102539062e+00 2.222611665725708008e+00 2.314623259007930756e-02
2.704000000000000000e+03 7.817601776123046875e+01 -2.982535171508789062e+01 -1.288140714168548584e-01 8.023242950439453125e+00 2.368328571319580078e+00 8.588276058435440063e-02
2.705000000000000000e+03 7.886257934570312500e+01 -2.747471809387207031e+01 -1.041648685932159424e-01 8.179894447326660156e+00 2.422718763351440430e+00 -2.992463409900665283e-01
2.706000000000000000e+03 7.825305938720703125e+01 -1.943021202087402344e+01 2.382323592901229858e-01 7.649438381195068359e+00 2.366301298141479492e+00 7.109425067901611328e-01
2.707000000000000000e+03 7.298706817626953125e+01 -1.701877212524414062e+01 7.701032608747482300e-02 5.571722507476806641e+00 1.694619894027709961e+00 -1.253042459487915039e+00
2.708000000000000000e+03 7.843597412109375000e+01 3.463278961181640625e+01 5.500339437276124954e-03 7.503208160400390625e+00 2.252612590789794922e+00 -1.077089831233024597e-02
2.709000000000000000e+03 7.776532745361328125e+01 3.432285308837890625e+01 2.646667137742042542e-02 7.315592288970947266e+00 2.202617645263671875e+00 -2.162663824856281281e-02
2.710000000000000000e+03 7.808979034423828125e+01 3.004392433166503906e+01 4.000511392951011658e-02 7.563050746917724609e+00 2.280916690826416016e+00 -1.598371118307113647e-01
2.711000000000000000e+03 7.811614990234375000e+01 2.844862556457519531e+01 2.497352100908756256e-02 7.699543476104736328e+00 2.317355155944824219e+00 -2.099675536155700684e-01
2.712000000000000000e+03 7.818334960937500000e+01 2.363677406311035156e+01 -1.115386933088302612e-01 8.160487174987792969e+00 2.414684534072875977e+00 -6.622109562158584595e-02
2.713000000000000000e+03 7.284018707275390625e+01 1.534348773956298828e+01 1.094251871109008789e+00 1.028230190277099609e+01 3.412966251373291016e+00 -3.883047029376029968e-02
2.714000000000000000e+03 7.894578552246093750e+01 6.847446441650390625e+00 -1.018476113677024841e-02 6.999952793121337891e+00 2.096930265426635742e+00 -4.798667132854461670e-01
2.715000000000000000e+03 7.811547088623046875e+01 -1.348276615142822266e+01 -4.696174263954162598e-01 8.960278511047363281e+00 2.547198534011840820e+00 1.213856711983680725e-01
2.716000000000000000e+03 7.825115203857421875e+01 5.294333457946777344e+00 -9.824361652135848999e-02 7.437981605529785156e+00 2.201921224594116211e+00 -5.760086178779602051e-01
2.717000000000000000e+03 7.899918365478515625e+01 -2.342917823791503906e+01 9.614925831556320190e-02 7.026585102081298828e+00 2.136820316314697266e+00 -3.510329723358154297e-01
2.718000000000000000e+03 7.826873016357421875e+01 6.848352432250976562e+00 -4.612348228693008423e-02 7.112953662872314453e+00 2.120048999786376953e+00 -6.762777566909790039e-01
2.719000000000000000e+03 7.826284027099609375e+01 7.620728492736816406e+00 1.229331083595752716e-02 6.938674449920654297e+00 2.085290193557739258e+00 -6.876729726791381836e-01
2.720000000000000000e+03 7.825547027587890625e+01 2.183871030807495117e+00 -1.415942758321762085e-01 7.886840820312500000e+00 2.323574066162109375e+00 -2.391081005334854126e-01
2.721000000000000000e+03 7.825775146484375000e+01 3.736732721328735352e+00 -1.126508340239524841e-01 7.693405628204345703e+00 2.274226427078247070e+00 -4.204005599021911621e-01
2.722000000000000000e+03 7.822309875488281250e+01 1.401562333106994629e+00 -1.473484635353088379e-01 7.945072174072265625e+00 2.339317083358764648e+00 -1.471480280160903931e-01
2.723000000000000000e+03 7.816586303710937500e+01 -1.845779418945312500e-01 -2.166725695133209229e-01 8.053356170654296875e+00 2.351005077362060547e+00 1.220095306634902954e-01
2.724000000000000000e+03 7.894789886474609375e+01 -4.987392902374267578e+00 1.394182741641998291e-01 7.343210697174072266e+00 2.244788646697998047e+00 3.557511270046234131e-01
2.725000000000000000e+03 7.562860870361328125e+01 -6.183345317840576172e+00 1.297513604164123535e+00 1.222858047485351562e+01 4.057828426361083984e+00 -9.806685447692871094e-01
2.726000000000000000e+03 7.610597229003906250e+01 -5.142970561981201172e+00 9.420952200889587402e-01 1.034911537170410156e+01 3.387363195419311523e+00 -3.220386505126953125e-01
2.727000000000000000e+03 7.631790924072265625e+01 -8.895440101623535156e+00 7.438845634460449219e-01 1.026736545562744141e+01 3.303374767303466797e+00 -7.357808947563171387e-01
2.728000000000000000e+03 7.673967742919921875e+01 -9.525055885314941406e+00 5.037232637405395508e-01 9.708597183227539062e+00 3.063696146011352539e+00 -9.758453965187072754e-01
2.729000000000000000e+03 7.403553009033203125e+01 -1.291155815124511719e+01 -1.132547616958618164e+00 4.328163623809814453e+00 9.586848020553588867e-01 6.692081689834594727e-01
2.730000000000000000e+03 7.822207641601562500e+01 -1.193319225311279297e+01 -4.372402429580688477e-01 9.060461997985839844e+00 2.586966514587402344e+00 -4.678768515586853027e-01
2.731000000000000000e+03 7.534564208984375000e+01 -2.181274795532226562e+01 1.282225370407104492e+00 1.001245975494384766e+01 3.388405561447143555e+00 -7.259882986545562744e-02
2.732000000000000000e+03 7.395007324218750000e+01 -2.707570266723632812e+01 -1.605386853218078613e+00 7.072465419769287109e+00 1.640123605728149414e+00 1.098517417907714844e+00
2.733000000000000000e+03 7.307088470458984375e+01 -2.657338142395019531e+01 -1.823422789573669434e+00 6.033713340759277344e+00 1.263087153434753418e+00 1.671957373619079590e+00
2.734000000000000000e+03 7.788943481445312500e+01 -3.311452484130859375e+01 4.914336651563644409e-02 7.597735404968261719e+00 2.294063568115234375e+00 1.678568273782730103e-01
2.735000000000000000e+03 7.795155334472656250e+01 -3.490913009643554688e+01 5.423250421881675720e-02 7.575536251068115234e+00 2.288930654525756836e+00 8.035096526145935059e-02
2.736000000000000000e+03 7.843951416015625000e+01 -4.100899505615234375e+01 -3.517702594399452209e-02 7.765191555023193359e+00 2.319004297256469727e+00 -5.743360519409179688e-02
2.737000000000000000e+03 7.835219573974609375e+01 -2.327867698669433594e+01 2.468017786741256714e-01 7.436902523040771484e+00 2.305111169815063477e+00 -4.636585712432861328e-01
2.738000000000000000e+03 7.828217315673828125e+01 -2.400797462463378906e+01 1.530909985303878784e-01 7.584580898284912109e+00 2.321301698684692383e+00 -5.960023403167724609e-01
2.739000000000000000e+03 7.763484954833984375e+01 -2.378751754760742188e+01 3.184229731559753418e-01 7.905258655548095703e+00 2.467104434967041016e+00 -6.483674645423889160e-01
2.740000000000000000e+03 7.821426391601562500e+01 -9.018545150756835938e+00 2.873297631740570068e-01 8.556620597839355469e+00 2.653184890747070312e+00 -9.805645346641540527e-01
2.741000000000000000e+03 7.828536987304687500e+01 -4.043150901794433594e+00 7.507321238517761230e-02 8.021648406982421875e+00 2.429016590118408203e+00 5.711031556129455566e-01
2.742000000000000000e+03 7.719759368896484375e+01 -6.071276664733886719e+00 8.208594322204589844e-01 9.250604629516601562e+00 3.021439075469970703e+00 -8.049534261226654053e-02
2.743000000000000000e+03 7.831393432617187500e+01 -7.353497982025146484e+00 4.346621036529541016e-01 8.121415138244628906e+00 2.566823244094848633e+00 -4.456446468830108643e-01
2.744000000000000000e+03 7.748848724365234375e+01 -4.582878589630126953e+00 2.874296605587005615e-01 8.572971343994140625e+00 2.658120393753051758e+00 4.684497117996215820e-01
2.745000000000000000e+03 3.012158203125000000e+01 2.702131748199462891e+00 -6.788269877433776855e-01 3.930020034313201904e-01 -8.574749529361724854e-02 4.304966703057289124e-02
2.746000000000000000e+03 3.125479507446289062e+01 2.785967350006103516e+00 -6.405315399169921875e-01 2.496949285268783569e-01 -1.172509789466857910e-01 1.328186839818954468e-01
2.747000000000000000e+03 3.183447647094726562e+01 -4.893523216247558594e+00 -9.257437288761138916e-02 -3.328241109848022461e-01 -1.276195496320724487e-01 -4.815216362476348877e-01
2.748000000000000000e+03 1.504392242431640625e+01 -1.355025482177734375e+01 -5.808154493570327759e-02 3.066514134407043457e-01 7.457096129655838013e-02 -6.371583789587020874e-02
2.749000000000000000e+03 1.804168128967285156e+01 -1.243366241455078125e+01 -2.240689098834991455e-01 1.006090454757213593e-02 -6.420240551233291626e-02 1.010840311646461487e-01
2.750000000000000000e+03 6.895474243164062500e+01 -3.216968154907226562e+01 1.716807007789611816e+00 4.365949630737304688e+00 1.824827075004577637e+00 -1.073794960975646973e+00
2.751000000000000000e+03 1.260163426399230957e+00 3.644315719604492188e+01 1.599037460982799530e-02 -1.034573078155517578e+00 -3.055748045444488525e-01 -3.831011243164539337e-03
2.752000000000000000e+03 4.470881462097167969e+00 3.923586654663085938e+01 -1.509583182632923126e-02 -4.918519854545593262e-01 -1.520843356847763062e-01 -4.690164700150489807e-02
2.753000000000000000e+03 2.881634712219238281e+00 4.017661285400390625e+01 -1.571045257151126862e-02 -7.477765679359436035e-01 -2.290461063385009766e-01 -5.134221166372299194e-03
2.754000000000000000e+03 1.154666423797607422e+00 3.876853561401367188e+01 4.696561372838914394e-04 -1.040424346923828125e+00 -3.119864165782928467e-01 -2.349598892033100128e-02
2.755000000000000000e+03 1.107849121093750000e+00 3.154389953613281250e+01 1.442568842321634293e-02 -8.758597373962402344e-01 -2.584302127361297607e-01 1.110066175460815430e-01
2.756000000000000000e+03 6.105390071868896484e+00 3.204969787597656250e+01 1.560687124729156494e-01 -2.120054662227630615e-01 -1.678102463483810425e-02 1.272900849580764771e-01
2.757000000000000000e+03 1.190088748931884766e+00 -3.406728363037109375e+01 -2.750664949417114258e-03 -3.361423909664154053e-01 -1.016679108142852783e-01 -5.270500853657722473e-02
2.758000000000000000e+03 1.886126160621643066e+00 -3.246838760375976562e+01 -1.543464977294206619e-02 -2.755872011184692383e-01 -8.730655908584594727e-02 -6.335720419883728027e-02
2.759000000000000000e+03 1.096991896629333496e+00 2.114945983886718750e+01 4.144150298088788986e-03 -4.571894407272338867e-01 -1.359135806560516357e-01 -3.634142130613327026e-02
2.760000000000000000e+03 5.680388927459716797e+00 2.361223030090332031e+01 -1.476825922727584839e-01 -5.659072399139404297e-01 -2.140769511461257935e-01 1.307310014963150024e-01
2.761000000000000000e+03 1.104076981544494629e+00 2.523081588745117188e+01 -1.933267712593078613e-02 -4.241962134838104248e-01 -1.330586671829223633e-01 1.536659523844718933e-02
2.762000000000000000e+03 5.125233650207519531e+00 2.727720451354980469e+01 -2.032529115676879883e-01 -8.069233298301696777e-01 -3.030528724193572998e-01 2.277715355157852173e-01
2.763000000000000000e+03 4.389000415802001953e+00 2.817794227600097656e+01 -1.090534925460815430e-01 -6.975209712982177734e-01 -2.419723421335220337e-01 2.328286916017532349e-01
2.764000000000000000e+03 4.724225044250488281e+00 2.998937416076660156e+01 2.955134399235248566e-02 -6.241216659545898438e-01 -1.783710867166519165e-01 1.994768828153610229e-01
2.765000000000000000e+03 2.735521554946899414e+00 3.389164352416992188e+01 7.544340193271636963e-02 -7.808375954627990723e-01 -2.116182595491409302e-01 8.840318769216537476e-02
2.766000000000000000e+03 9.661546349525451660e-01 2.843935203552246094e+01 -9.531144984066486359e-03 -5.930748581886291504e-01 -1.807818114757537842e-01 1.066930815577507019e-01
2.767000000000000000e+03 5.137950420379638672e+00 2.805095863342285156e+01 -1.072796657681465149e-01 -8.389750123023986816e-01 -2.838763892650604248e-01 2.248796373605728149e-01
2.768000000000000000e+03 2.121215343475341797e+00 3.641094207763671875e+01 2.723239548504352570e-02 -8.830486536026000977e-01 -2.567448914051055908e-01 -3.996251150965690613e-03
2.769000000000000000e+03 1.231299638748168945e+00 3.562360000610351562e+01 1.220118068158626556e-02 -1.034553170204162598e+00 -3.067055940628051758e-01 1.196377538144588470e-02
2.770000000000000000e+03 1.109264373779296875e+00 2.440464019775390625e+01 -1.685961149632930756e-02 -4.160685837268829346e-01 -1.298784613609313965e-01 -5.771637428551912308e-03
2.771000000000000000e+03 1.821853995323181152e+00 2.193037414550781250e+01 -1.207373221404850483e-03 -4.588285684585571289e-01 -1.380107849836349487e-01 -4.585293307900428772e-02
2.772000000000000000e+03 2.525924444198608398e+00 2.618723297119140625e+01 -9.301978349685668945e-02 -5.425281524658203125e-01 -1.906643807888031006e-01 1.034201756119728088e-01
2.773000000000000000e+03 4.463395118713378906e+00 2.910714912414550781e+01 -3.657583892345428467e-02 -6.899725794792175293e-01 -2.179645150899887085e-01 2.314456552267074585e-01
2.774000000000000000e+03 3.236286163330078125e+00 2.876358795166015625e+01 -5.113373324275016785e-02 -6.519168019294738770e-01 -2.109151631593704224e-01 2.366637587547302246e-01
2.775000000000000000e+03 1.920161604881286621e+00 3.226614761352539062e+01 4.313116148114204407e-02 -8.356558084487915039e-01 -2.377573996782302856e-01 1.426324546337127686e-01
2.776000000000000000e+03 1.482866883277893066e+00 4.006628036499023438e+01 -8.592130616307258606e-03 -9.695677161216735840e-01 -2.934479713439941406e-01 -2.535646967589855194e-02
2.777000000000000000e+03 1.635165095329284668e+00 2.988700675964355469e+01 9.342851117253303528e-04 -7.137781977653503418e-01 -2.138531804084777832e-01 1.777698099613189697e-01
2.778000000000000000e+03 1.047635555267333984e+00 3.075118446350097656e+01 5.915803369134664536e-03 -8.132381439208984375e-01 -2.421967089176177979e-01 1.199926733970642090e-01
2.779000000000000000e+03 2.508295297622680664e+00 -3.805265808105468750e+01 2.250328660011291504e-02 -4.493662118911743164e-01 -1.280588805675506592e-01 -9.386702626943588257e-02
2.780000000000000000e+03 2.019440650939941406e+00 -3.560770034790039062e+01 -4.168498795479536057e-03 -3.829342722892761230e-01 -1.161308288574218750e-01 -9.226978570222854614e-02
2.781000000000000000e+03 1.094371438026428223e+00 1.954225921630859375e+01 1.031848043203353882e-02 -4.796332716941833496e-01 -1.407944411039352417e-01 -1.975734159350395203e-02
2.782000000000000000e+03 1.100311517715454102e+00 1.471149444580078125e+01 1.025039236992597580e-02 -3.584764897823333740e-01 -1.044678315520286560e-01 7.237496972084045410e-02
2.783000000000000000e+03 1.114417791366577148e+00 7.458826065063476562e+00 -1.282741036266088486e-02 4.921438917517662048e-02 1.091609336435794830e-02 2.334369160234928131e-02
2.784000000000000000e+03 1.835656046867370605e+00 8.223636627197265625e+00 -3.064535744488239288e-02 -7.940364303067326546e-04 -9.431817568838596344e-03 6.073930487036705017e-02
2.785000000000000000e+03 1.880295753479003906e+00 6.631777763366699219e+00 -2.740987390279769897e-02 3.023378364741802216e-02 8.471728651784360409e-04 1.672403141856193542e-02
2.786000000000000000e+03 1.051112294197082520e+00 -1.786122703552246094e+01 -9.361514821648597717e-03 1.428779307752847672e-02 1.477883546613156796e-03 -6.553585827350616455e-02
2.787000000000000000e+03 5.027759552001953125e+00 -1.675469589233398438e+01 -1.170532703399658203e-01 -2.840645909309387207e-01 -1.203353554010391235e-01 -1.357019692659378052e-01
2.788000000000000000e+03 1.797535896301269531e+00 -1.135612964630126953e+01 -4.589154850691556931e-03 6.641823798418045044e-02 1.854872517287731171e-02 2.087768539786338806e-02
2.789000000000000000e+03 1.040394544601440430e+00 -8.222650527954101562e+00 -8.568786433897912502e-04 7.326852530241012573e-02 2.172349393367767334e-02 1.937970891594886780e-02
2.790000000000000000e+03 2.542579174041748047e+00 1.792627334594726562e+01 5.497312918305397034e-02 -4.247890412807464600e-01 -1.109447702765464783e-01 3.465304896235466003e-02
2.791000000000000000e+03 1.857595443725585938e+00 9.842506408691406250e+00 -2.427058294415473938e-02 -6.321127712726593018e-02 -2.624455839395523071e-02 1.043742522597312927e-01
2.792000000000000000e+03 1.797801136970520020e+00 -2.528018569946289062e+01 8.380679413676261902e-03 -1.948813199996948242e-01 -5.595019087195396423e-02 1.647138036787509918e-02
2.793000000000000000e+03 6.191374301910400391e+00 -2.378033256530761719e+01 1.386044919490814209e-01 2.505467087030410767e-02 4.909775033593177795e-02 -2.416138723492622375e-02
2.794000000000000000e+03 1.100450038909912109e+00 -2.280065727233886719e+01 1.522818580269813538e-02 -2.133682817220687866e-01 -5.944202840328216553e-02 -2.057890221476554871e-02
2.795000000000000000e+03 4.319274425506591797e+00 -1.924045562744140625e+01 -5.764702218584716320e-04 -1.548712253570556641e-01 -4.663430899381637573e-02 -1.475053578615188599e-01
2.796000000000000000e+03 1.088728189468383789e+00 -2.028266906738281250e+01 8.552241139113903046e-03 -1.237798035144805908e-01 -3.456826880574226379e-02 -7.507932931184768677e-02
2.797000000000000000e+03 4.487976074218750000e+00 -1.836773300170898438e+01 -6.849293410778045654e-02 -2.120524793863296509e-01 -8.416362851858139038e-02 -1.352211087942123413e-01
2.798000000000000000e+03 1.087919592857360840e+00 -1.304132938385009766e+01 -5.596350878477096558e-03 1.210519745945930481e-01 3.463668748736381531e-02 6.980515550822019577e-03
2.799000000000000000e+03 3.505551099777221680e+00 -1.285399246215820312e+01 -3.721800073981285095e-02 -4.515675827860832214e-02 -2.471242658793926239e-02 -8.630982600152492523e-03
2.800000000000000000e+03 5.307153224945068359e+00 -4.232107162475585938e+00 1.302866358309984207e-02 -1.863766089081764221e-02 -1.682699308730661869e-03 1.610788144171237946e-02
2.801000000000000000e+03 3.397297143936157227e+00 -3.468992233276367188e+00 1.043138094246387482e-02 2.038532169535756111e-03 3.740974003449082375e-03 2.149736694991588593e-02
2.802000000000000000e+03 3.121419191360473633e+00 -5.828557968139648438e+00 5.611722823232412338e-03 4.990046378225088120e-03 3.180530853569507599e-03 2.839728444814682007e-02
2.803000000000000000e+03 1.115909457206726074e+00 1.068903255462646484e+01 -7.788457442075014114e-03 -9.019882977008819580e-02 -2.939618565142154694e-02 7.902193814516067505e-02
2.804000000000000000e+03 3.498480558395385742e+00 4.984745502471923828e+00 -5.249452218413352966e-02 5.726642906665802002e-03 -1.403036434203386307e-02 -1.589476875960826874e-02
2.805000000000000000e+03 2.554539442062377930e+00 -4.223044872283935547e+00 6.897429935634136200e-03 1.003777422010898590e-02 5.080561153590679169e-03 2.248045988380908966e-02
2.806000000000000000e+03 1.125307917594909668e+00 -3.165640830993652344e+01 -7.963855750858783722e-03 -2.528248727321624756e-01 -7.823661714792251587e-02 -3.156865015625953674e-02
2.807000000000000000e+03 1.837112069129943848e+00 -3.008425521850585938e+01 -1.636575348675251007e-02 -2.203442305326461792e-01 -7.101299613714218140e-02 -2.487856522202491760e-02
2.808000000000000000e+03 2.291146993637084961e+00 -3.893345642089843750e+01 1.855547353625297546e-02 -4.762018024921417236e-01 -1.372938901185989380e-01 -7.949347048997879028e-02
2.809000000000000000e+03 1.404721021652221680e+00 -3.802420425415039062e+01 2.315401943633332849e-04 -4.963733851909637451e-01 -1.488425433635711670e-01 -5.890960991382598877e-02
2.810000000000000000e+03 1.938797116279602051e+00 -3.327729797363281250e+01 -1.164888124912977219e-02 -3.025609850883483887e-01 -9.426295757293701172e-02 -7.537516206502914429e-02
2.811000000000000000e+03 2.593196153640747070e+00 -3.093335151672363281e+01 -2.907004952430725098e-02 -2.327918857336044312e-01 -7.855857908725738525e-02 -5.588242039084434509e-02
2.812000000000000000e+03 1.822242498397827148e+00 -2.927733802795410156e+01 -1.733949966728687286e-02 -2.078623473644256592e-01 -6.756055355072021484e-02 -1.246795430779457092e-02
2.813000000000000000e+03 1.078646183013916016e+00 -2.764941787719726562e+01 -3.551172325387597084e-03 -2.085476666688919067e-01 -6.362964957952499390e-02 1.042449381202459335e-02
2.814000000000000000e+03 1.810962915420532227e+00 -2.847606086730957031e+01 -1.321915909647941589e-02 -2.006198763847351074e-01 -6.415171176195144653e-02 3.278728399891406298e-04
2.815000000000000000e+03 1.826705932617187500e+00 -2.281596374511718750e+01 3.131494671106338501e-02 -1.844523996114730835e-01 -4.594123736023902893e-02 -3.029179945588111877e-02
2.816000000000000000e+03 3.590139389038085938e+00 -2.068702125549316406e+01 9.329677373170852661e-02 -1.320078521966934204e-01 -1.161332614719867706e-02 -1.270767897367477417e-01
2.817000000000000000e+03 1.092154145240783691e+00 -2.362273216247558594e+01 1.005631219595670700e-02 -2.230372577905654907e-01 -6.389427930116653442e-02 -5.070519633591175079e-03
2.818000000000000000e+03 1.118228435516357422e+00 -2.111765480041503906e+01 1.449983846396207809e-02 -1.623966246843338013e-01 -4.436903446912765503e-02 -6.135468184947967529e-02
2.819000000000000000e+03 4.163865566253662109e+00 -2.109575653076171875e+01 1.163512617349624634e-01 -1.085629686713218689e-01 2.336489036679267883e-03 -1.116218417882919312e-01
2.820000000000000000e+03 1.035620570182800293e+00 -1.865698432922363281e+01 -7.010519504547119141e-03 -2.738214656710624695e-02 -1.031779963523149490e-02 -7.606777548789978027e-02
2.821000000000000000e+03 1.842548251152038574e+00 -1.377086544036865234e+01 -1.685253344476222992e-02 5.823601037263870239e-02 1.241504307836294174e-02 -4.290801938623189926e-03
2.822000000000000000e+03 1.089474439620971680e+00 -1.384075069427490234e+01 -6.184276659041643143e-03 1.193434149026870728e-01 3.394774347543716431e-02 -7.074335590004920959e-04
2.823000000000000000e+03 2.642099857330322266e+00 -1.290890407562255859e+01 -2.447526715695858002e-02 9.776778519153594971e-03 -4.409546498209238052e-03 3.364278003573417664e-03
2.824000000000000000e+03 2.592920064926147461e+00 -1.452386379241943359e+01 -3.645704686641693115e-02 -6.929105147719383240e-03 -1.301584485918283463e-02 -2.742792293429374695e-02
2.825000000000000000e+03 2.606557369232177734e+00 -1.209202766418457031e+01 -1.544399186968803406e-02 1.662572100758552551e-02 3.545187937561422586e-04 1.299476716667413712e-02
2.826000000000000000e+03 1.745892405509948730e+00 -9.736234664916992188e+00 5.167524213902652264e-04 6.074131652712821960e-02 1.837742142379283905e-02 2.632967196404933929e-02
2.827000000000000000e+03 1.765117645263671875e+00 -1.054048061370849609e+01 -4.324538633227348328e-03 6.436868757009506226e-02 1.801324449479579926e-02 2.547421865165233612e-02
2.828000000000000000e+03 1.852389216423034668e+00 -3.437663078308105469e+00 4.788522608578205109e-03 1.273231673985719681e-02 5.256251897662878036e-03 1.667560078203678131e-02
2.829000000000000000e+03 2.686624288558959961e+00 5.818560600280761719e+00 -4.431435093283653259e-02 1.590846478939056396e-02 -8.521765470504760742e-03 3.246252657845616341e-03
2.830000000000000000e+03 1.113613009452819824e+00 9.882012367248535156e+00 -9.490572847425937653e-03 -4.380944743752479553e-02 -1.599000580608844757e-02 6.801342219114303589e-02
2.831000000000000000e+03 1.837173819541931152e+00 1.387573528289794922e+01 1.582282967865467072e-02 -2.889875471591949463e-01 -8.194941282272338867e-02 1.282038539648056030e-01
2.832000000000000000e+03 2.651419878005981445e+00 1.143632984161376953e+01 -2.189137600362300873e-02 -1.497642695903778076e-01 -5.149669572710990906e-02 1.747144013643264771e-01
2.833000000000000000e+03 1.103291988372802734e+00 1.390455436706542969e+01 5.908329971134662628e-03 -3.079066872596740723e-01 -9.059950709342956543e-02 8.292542397975921631e-02
2.834000000000000000e+03 1.827981472015380859e+00 1.468560409545898438e+01 2.266235090792179108e-02 -3.326716125011444092e-01 -9.300277382135391235e-02 1.129675954580307007e-01
2.835000000000000000e+03 1.826434254646301270e+00 1.712070274353027344e+01 3.262551873922348022e-02 -4.280259609222412109e-01 -1.186201348900794983e-01 4.517984390258789062e-02
2.836000000000000000e+03 1.817332625389099121e+00 2.032755470275878906e+01 1.627753116190433502e-02 -4.626813828945159912e-01 -1.339211612939834595e-01 -3.563501685857772827e-02
2.837000000000000000e+03 2.530167818069458008e+00 1.952139282226562500e+01 3.968000411987304688e-02 -4.501100778579711914e-01 -1.231290176510810852e-01 -1.614172197878360748e-02
2.838000000000000000e+03 1.817515730857849121e+00 1.952484703063964844e+01 2.265293709933757782e-02 -4.613753259181976318e-01 -1.316167116165161133e-01 -2.100003324449062347e-02
2.839000000000000000e+03 1.094776630401611328e+00 2.034669685363769531e+01 6.121697369962930679e-03 -4.702077805995941162e-01 -1.392258256673812866e-01 -2.990215271711349487e-02
2.840000000000000000e+03 1.168407082557678223e+00 3.459632873535156250e+00 -1.707400777377188206e-03 4.358888044953346252e-02 1.256444398313760757e-02 -2.743221633136272430e-02
2.841000000000000000e+03 2.792979955673217773e+00 2.640765666961669922e+00 6.264065392315387726e-03 1.311182882636785507e-02 5.812768358737230301e-03 -4.389777779579162598e-02
2.842000000000000000e+03 1.996286749839782715e+00 -3.408207321166992188e+01 -8.601496927440166473e-03 -3.311600089073181152e-01 -1.019284576177597046e-01 -8.438389003276824951e-02
2.843000000000000000e+03 2.005677700042724609e+00 -3.485301589965820312e+01 -5.175232887268066406e-03 -3.564929068088531494e-01 -1.085004433989524841e-01 -8.661270886659622192e-02
2.844000000000000000e+03 2.098998785018920898e+00 -3.637638473510742188e+01 1.843075850047171116e-03 -4.083829522132873535e-01 -1.219619661569595337e-01 -9.326458722352981567e-02
2.845000000000000000e+03 3.110813713073730469e+01 -8.744916915893554688e+00 -3.883428573608398438e-01 -8.366426825523376465e-01 -3.674956560134887695e-01 -4.922618865966796875e-01
2.846000000000000000e+03 7.332818603515625000e+01 1.375827503204345703e+01 1.383946537971496582e+00 1.097329998016357422e+01 3.707174062728881836e+00 1.394457221031188965e-01
2.847000000000000000e+03 4.414128112792968750e+01 -2.621848678588867188e+01 4.354736804962158203e-01 5.222604274749755859e-01 2.873202264308929443e-01 -1.031341403722763062e-02
2.848000000000000000e+03 4.675827407836914062e+01 -2.591695976257324219e+01 1.710935980081558228e-01 8.717212080955505371e-01 3.128444552421569824e-01 -5.422174334526062012e-01
2.849000000000000000e+03 5.211029052734375000e+00 2.887500381469726562e+01 -2.641891688108444214e-02 -7.552378177642822266e-01 -2.344970107078552246e-01 1.604564785957336426e-01
2.850000000000000000e+03 5.372977733612060547e+00 2.969574546813964844e+01 4.987915046513080597e-03 -6.344073414802551270e-01 -1.888258308172225952e-01 1.247056499123573303e-01
2.851000000000000000e+03 6.418952941894531250e+00 -1.353778457641601562e+01 -1.216195002198219299e-01 -1.942526400089263916e-01 -9.476163983345031738e-02 -1.103599146008491516e-01
2.852000000000000000e+03 6.073180007934570312e+01 2.292742729187011719e+01 -2.272387981414794922e+00 2.808695316314697266e+00 1.608921587467193604e-01 2.076983451843261719e+00
2.853000000000000000e+03 7.252374267578125000e+01 -1.649729537963867188e+01 6.118009239435195923e-02 4.390233039855957031e+00 1.335423946380615234e+00 -1.416513442993164062e+00
2.854000000000000000e+03 5.491882324218750000e+01 -3.523978805541992188e+01 8.005635142326354980e-01 4.837712287902832031e+00 1.691482782363891602e+00 8.031305074691772461e-01
2.855000000000000000e+03 4.029716110229492188e+01 -1.369445037841796875e+01 -1.134061694145202637e+00 5.776267051696777344e-01 -1.669305115938186646e-01 -3.713170588016510010e-01
2.856000000000000000e+03 4.032529830932617188e+01 -1.268455410003662109e+01 -3.423977196216583252e-01 2.217508107423782349e-01 -3.619407489895820618e-02 1.409978792071342468e-02
2.857000000000000000e+03 5.146342086791992188e+01 4.827121734619140625e+00 -3.975804746150970459e-01 -1.674577891826629639e-01 -1.695114821195602417e-01 -2.875564098358154297e-01
2.858000000000000000e+03 5.273544692993164062e+01 2.495144367218017578e+00 -7.719160318374633789e-01 -3.127224370837211609e-02 -2.409564852714538574e-01 -1.173887252807617188e-01
2.859000000000000000e+03 5.244869995117187500e+01 4.789233207702636719e+00 -3.367378711700439453e-01 -2.409120835363864899e-02 -1.082487255334854126e-01 -2.027394026517868042e-01
2.860000000000000000e+03 5.046644973754882812e+01 4.721436500549316406e+00 -3.895690143108367920e-01 -4.745545610785484314e-02 -1.311073452234268188e-01 -2.870511114597320557e-01
2.861000000000000000e+03 2.503896522521972656e+01 -1.388932704925537109e+01 -1.371444106101989746e+00 -4.139393270015716553e-01 -5.356150269508361816e-01 -5.480654835700988770e-01
2.862000000000000000e+03 4.923378753662109375e+01 -3.012622642517089844e+01 7.100869417190551758e-01 1.627692818641662598e+00 7.013339400291442871e-01 -5.170686244964599609e-01
2.863000000000000000e+03 3.907876586914062500e+01 2.059615707397460938e+01 3.170888125896453857e-01 -2.757556922733783722e-02 8.685397356748580933e-02 7.843805104494094849e-02
2.864000000000000000e+03 5.274158859252929688e+01 -7.588890552520751953e+00 -1.022030353546142578e+00 -1.406587243080139160e+00 -7.285853028297424316e-01 8.496299982070922852e-01
2.865000000000000000e+03 3.259984970092773438e+01 -2.849333000183105469e+01 4.754668474197387695e-01 2.561594545841217041e-01 2.194878906011581421e-01 -2.356152981519699097e-01
2.866000000000000000e+03 4.543734741210937500e+01 -2.744957351684570312e+01 4.174517989158630371e-01 4.113010764122009277e-01 2.486258596181869507e-01 -4.197807013988494873e-01
2.867000000000000000e+03 2.650944709777832031e+01 -3.606079864501953125e+01 3.969916328787803650e-02 -2.500795722007751465e-01 -6.311412155628204346e-02 6.706301122903823853e-02
2.868000000000000000e+03 6.017107009887695312e+01 1.281946182250976562e+01 1.006573677062988281e+00 1.004514122009277344e+01 3.315514326095581055e+00 -1.306457877159118652e+00
2.869000000000000000e+03 5.205103302001953125e+01 -4.853692531585693359e+00 -2.377115786075592041e-01 -8.639178276062011719e-01 -3.304888308048248291e-01 6.341043710708618164e-01
2.870000000000000000e+03 4.791398620605468750e+01 -3.490910291671752930e+00 -7.667701244354248047e-01 2.559143304824829102e-01 -1.532567292451858521e-01 3.415978848934173584e-01
2.871000000000000000e+03 4.742208862304687500e+01 -5.417864799499511719e+00 -6.177899837493896484e-01 6.936141848564147949e-01 2.274727076292037964e-02 2.557085156440734863e-01
2.872000000000000000e+03 1.496909618377685547e+01 2.273857879638671875e+01 6.621220707893371582e-01 2.139742821455001831e-01 2.628289163112640381e-01 4.278399944305419922e-01
2.873000000000000000e+03 5.124156951904296875e+01 -2.763335227966308594e+00 -2.066197842359542847e-01 -1.797163933515548706e-01 -1.159008592367172241e-01 3.500594198703765869e-01
2.874000000000000000e+03 8.789993286132812500e+00 1.487314128875732422e+01 2.926356494426727295e-01 -6.212413311004638672e-03 8.592697232961654663e-02 3.097046315670013428e-01
2.875000000000000000e+03 5.336241149902343750e+01 6.059653759002685547e+00 -5.586974620819091797e-01 6.399132609367370605e-01 2.436473593115806580e-02 -8.441717922687530518e-02
2.876000000000000000e+03 5.560507583618164062e+01 6.284681797027587891e+00 -9.479677081108093262e-01 3.502743959426879883e+00 7.664328217506408691e-01 -7.221916317939758301e-01
2.877000000000000000e+03 5.195058059692382812e+01 4.382218360900878906e+00 -3.832196593284606934e-01 -1.022725626826286316e-01 -1.456476598978042603e-01 -2.306087017059326172e-01
2.878000000000000000e+03 1.596361446380615234e+01 -2.685072326660156250e+01 5.611350759863853455e-02 -4.568535685539245605e-01 -1.202220171689987183e-01 -2.639555931091308594e-01
2.879000000000000000e+03 3.195728683471679688e+01 1.447431182861328125e+01 -1.093082353472709656e-01 6.106863617897033691e-01 1.504134386777877808e-01 4.380662739276885986e-01
2.880000000000000000e+03 6.570284271240234375e+01 -2.757657623291015625e+01 -1.792125821113586426e+00 6.919029235839843750e+00 1.538071036338806152e+00 -2.002422809600830078e+00
2.881000000000000000e+03 2.221474647521972656e+01 2.456580352783203125e+01 2.856664359569549561e-01 1.198970363475382328e-03 8.605962246656417847e-02 3.484404683113098145e-01
2.882000000000000000e+03 2.033630752563476562e+01 2.283463287353515625e+01 2.900557219982147217e-01 6.053363438695669174e-03 8.883272856473922729e-02 1.461693495512008667e-01
2.883000000000000000e+03 4.499023437500000000e+01 3.175549507141113281e+01 7.041243314743041992e-01 1.631336808204650879e+00 7.006383538246154785e-01 -9.095927476882934570e-01
2.884000000000000000e+03 4.436431121826171875e+01 3.345916748046875000e+01 5.626304745674133301e-01 1.371231079101562500e+00 5.801584720611572266e-01 -7.723591923713684082e-01
2.885000000000000000e+03 5.387870407104492188e+01 1.545449638366699219e+01 1.932975411415100098e+00 4.084237575531005859e+00 1.805163979530334473e+00 -2.292018651962280273e+00
2.886000000000000000e+03 6.013247299194335938e+01 2.270022773742675781e+01 -2.548755645751953125e+00 2.060013532638549805e+00 -1.466226428747177124e-01 1.658883213996887207e+00
2.887000000000000000e+03 6.069381332397460938e+01 1.854487037658691406e+01 9.325405359268188477e-01 5.660097599029541016e+00 1.977791428565979004e+00 1.326346993446350098e+00
2.888000000000000000e+03 6.380173492431640625e+01 -1.865981292724609375e+01 1.960246860980987549e-01 8.310015678405761719e+00 2.551812171936035156e+00 -1.958887130022048950e-01
2.889000000000000000e+03 6.306531906127929688e+01 -1.899891662597656250e+01 5.194159746170043945e-01 7.646934032440185547e+00 2.449905157089233398e+00 -3.357965946197509766e-01
2.890000000000000000e+03 5.678070449829101562e+01 1.050431823730468750e+01 6.903341412544250488e-01 5.464295387268066406e+00 1.846388936042785645e+00 -5.682843923568725586e-01
2.891000000000000000e+03 1.339466762542724609e+01 -1.307719421386718750e+01 -2.269806899130344391e-02 1.509303152561187744e-01 3.846967220306396484e-02 -8.974485099315643311e-02
2.892000000000000000e+03 1.252936744689941406e+01 -1.183187580108642578e+01 -1.415351033210754395e-01 8.769252151250839233e-02 -1.615277305245399475e-02 -7.874194532632827759e-02
2.893000000000000000e+03 3.769281768798828125e+01 -1.619013023376464844e+01 -3.118260502815246582e-01 8.340543508529663086e-01 1.566684842109680176e-01 -2.708899378776550293e-01
2.894000000000000000e+03 1.510336875915527344e+01 -7.541092395782470703e+00 -2.095625549554824829e-02 5.564989522099494934e-02 1.040809135884046555e-02 -1.792877330444753170e-03
2.895000000000000000e+03 2.647783279418945312e+00 6.636983871459960938e+00 -4.797541350126266479e-02 7.851060479879379272e-03 -1.203730609267950058e-02 2.636090852320194244e-02
2.896000000000000000e+03 4.356712818145751953e+00 3.383366107940673828e+00 -2.328483387827873230e-02 -3.741190448636189103e-05 -6.996673531830310822e-03 -4.346279054880142212e-02
2.897000000000000000e+03 2.726428508758544922e+00 4.203396320343017578e+00 -2.245889231562614441e-02 1.955991052091121674e-02 -8.696946897543966770e-04 -3.270230814814567566e-02
2.898000000000000000e+03 1.959032773971557617e+00 3.435663223266601562e+00 -4.592988174408674240e-03 2.899455279111862183e-02 7.320469710975885391e-03 -3.653424978256225586e-02
2.899000000000000000e+03 5.167531967163085938e+00 3.365806341171264648e+00 -3.122080862522125244e-02 -7.380504161119461060e-03 -1.158039364963769913e-02 -4.083482548594474792e-02
2.900000000000000000e+03 8.414336204528808594e+00 2.562143564224243164e+00 -9.439492598176002502e-03 -3.862013295292854309e-02 -1.441788766533136368e-02 -8.247470483183860779e-03
2.901000000000000000e+03 6.769506931304931641e+00 3.301730394363403320e+00 -4.865729808807373047e-02 -2.477774210274219513e-02 -2.203051187098026276e-02 -2.806998975574970245e-02
2.902000000000000000e+03 8.303138732910156250e+00 3.248483896255493164e+00 -6.829789280891418457e-02 -5.373269692063331604e-02 -3.660917654633522034e-02 -1.938518485985696316e-03
2.903000000000000000e+03 6.642786407470703125e+01 -1.136196517944335938e+01 1.649568080902099609e+00 5.503912448883056641e+00 2.146044015884399414e+00 -2.265854120254516602e+00
2.904000000000000000e+03 5.202959442138671875e+01 -5.794302940368652344e+00 -6.430175304412841797e-01 -1.015798807144165039e+00 -4.976449012756347656e-01 8.856732845306396484e-01
2.905000000000000000e+03 5.262515640258789062e+01 -9.608250617980957031e+00 -7.654262185096740723e-01 -6.781866550445556641e-01 -4.330838620662689209e-01 3.687826395034790039e-01
2.906000000000000000e+03 9.733337402343750000e+00 3.297594785690307617e+00 -9.786142408847808838e-02 -8.058077096939086914e-02 -5.353266000747680664e-02 3.906816616654396057e-02
2.907000000000000000e+03 1.081152057647705078e+01 4.177161216735839844e+00 -2.151280492544174194e-01 -1.464533656835556030e-01 -1.084744259715080261e-01 1.163972392678260803e-01
2.908000000000000000e+03 3.487228012084960938e+01 2.626913833618164062e+01 3.904282674193382263e-02 6.834231615066528320e-01 2.167398035526275635e-01 5.359735805541276932e-03
2.909000000000000000e+03 3.368518829345703125e+01 1.988735198974609375e+01 1.601656377315521240e-01 2.134999334812164307e-01 1.120996698737144470e-01 3.469122648239135742e-01
2.910000000000000000e+03 5.376064682006835938e+01 3.522055053710937500e+01 -2.698876559734344482e-01 2.852815151214599609e+00 7.748782634735107422e-01 4.001890122890472412e-01
2.911000000000000000e+03 1.958645439147949219e+01 1.992856216430664062e+01 -1.199781671166419983e-01 -6.367412209510803223e-02 -5.509568378329277039e-02 3.263711184263229370e-02
2.912000000000000000e+03 5.584461212158203125e+00 3.049550437927246094e+01 4.860490188002586365e-02 -4.929070770740509033e-01 -1.332906484603881836e-01 1.090767532587051392e-01
2.913000000000000000e+03 3.386798858642578125e+00 3.089332389831542969e+01 5.544528365135192871e-02 -6.764748692512512207e-01 -1.863088756799697876e-01 2.319408208131790161e-01
2.914000000000000000e+03 3.747768020629882812e+01 -1.355179595947265625e+01 -7.630544900894165039e-01 9.755152463912963867e-01 6.373824179172515869e-02 -2.847045660018920898e-01
2.915000000000000000e+03 2.253930854797363281e+01 2.689221763610839844e+01 5.280335545539855957e-01 2.583763897418975830e-01 2.359229773283004761e-01 5.600374341011047363e-01
2.916000000000000000e+03 3.744519424438476562e+01 -3.254315185546875000e+01 4.540672898292541504e-01 8.952449560165405273e-01 4.047936797142028809e-01 6.852278858423233032e-02
2.917000000000000000e+03 3.843081283569335938e+01 -3.234336090087890625e+01 3.576135635375976562e-01 1.192828416824340820e+00 4.651325643062591553e-01 1.231461539864540100e-01
2.918000000000000000e+03 2.262863731384277344e+01 -2.756929397583007812e+01 5.185930728912353516e-01 1.168762370944023132e-01 1.906407922506332397e-01 -2.739505767822265625e-01
2.919000000000000000e+03 2.712251663208007812e+01 -2.446511268615722656e+01 2.864641845226287842e-01 -1.361310184001922607e-01 4.509994387626647949e-02 -1.691202819347381592e-01
2.920000000000000000e+03 2.974603462219238281e+01 -2.552714729309082031e+01 3.153196573257446289e-01 1.053068861365318298e-01 1.261879652738571167e-01 -2.081464380025863647e-01
2.921000000000000000e+03 8.928609848022460938e+00 2.284915351867675781e+01 -3.803071975708007812e-01 -2.683497965335845947e-01 -1.945970952510833740e-01 2.124085426330566406e-01
2.922000000000000000e+03 1.121221637725830078e+01 -3.404183578491210938e+01 -7.295353710651397705e-02 -3.715832233428955078e-01 -1.333610266447067261e-01 -2.558246254920959473e-01
2.923000000000000000e+03 7.321461677551269531e+00 3.662395095825195312e+01 1.287176162004470825e-01 -6.095498800277709961e-02 2.032878622412681580e-02 -6.024186033755540848e-03
2.924000000000000000e+03 2.359164047241210938e+01 2.812999725341796875e+01 6.420589685440063477e-01 5.072414875030517578e-01 3.447901308536529541e-01 4.371721446514129639e-01
2.925000000000000000e+03 2.272281265258789062e+01 2.749750137329101562e+01 5.313205718994140625e-01 2.614717781543731689e-01 2.378377020359039307e-01 4.902575910091400146e-01
2.926000000000000000e+03 6.366583251953125000e+01 -2.086512374877929688e+01 1.901063084602355957e+00 8.779860496520996094e+00 3.204277276992797852e+00 -9.054126143455505371e-01
2.927000000000000000e+03 5.192683792114257812e+01 1.839771080017089844e+01 7.018235325813293457e-01 2.805784463882446289e+00 1.052282452583312988e+00 -1.833013772964477539e+00
2.928000000000000000e+03 5.253294754028320312e+01 1.783473396301269531e+01 9.905928373336791992e-01 3.033075094223022461e+00 1.207100391387939453e+00 -1.998785734176635742e+00
2.929000000000000000e+03 6.925791931152343750e+01 2.020908737182617188e+01 -2.317725658416748047e+00 2.780055522918701172e+00 1.386990100145339966e-01 -1.033694624900817871e+00
2.930000000000000000e+03 3.376079940795898438e+01 -3.081317663192749023e+00 -3.695216476917266846e-01 2.620068378746509552e-02 -1.029962897300720215e-01 -3.627893626689910889e-01
2.931000000000000000e+03 3.332524490356445312e+01 -4.122153282165527344e+00 -2.655259072780609131e-01 -3.544921427965164185e-02 -9.029253572225570679e-02 -4.832713007926940918e-01
2.932000000000000000e+03 6.284221649169921875e+01 2.185143470764160156e+01 -2.315344572067260742e+00 3.993440628051757812e+00 5.034288167953491211e-01 2.714202165603637695e+00
2.933000000000000000e+03 1.846206283569335938e+01 2.422459983825683594e+01 7.810418605804443359e-01 3.855939209461212158e-01 3.499907553195953369e-01 4.308148920536041260e-01
2.934000000000000000e+03 5.639450454711914062e+01 -2.001611518859863281e+01 3.509214818477630615e-01 4.031100273132324219e+00 1.314606428146362305e+00 1.330722928047180176e+00
2.935000000000000000e+03 7.484922790527343750e+01 -3.663310050964355469e+00 5.927082896232604980e-01 8.566555023193359375e+00 2.747778892517089844e+00 -1.615853071212768555e+00
2.936000000000000000e+03 2.193796157836914062e+01 1.340363788604736328e+01 -5.762178450822830200e-02 -1.690766662359237671e-01 -6.800953298807144165e-02 7.133702188730239868e-02
2.937000000000000000e+03 1.630017042160034180e+00 2.771917343139648438e+01 -3.795560821890830994e-02 -5.674929618835449219e-01 -1.816345602273941040e-01 1.358467191457748413e-01
2.938000000000000000e+03 3.981689834594726562e+01 -2.785147094726562500e+01 3.223682940006256104e-01 8.736712932586669922e-01 3.588118553161621094e-01 4.247457683086395264e-01
2.939000000000000000e+03 3.383744430541992188e+01 3.111908912658691406e+01 2.249583899974822998e-01 4.203631877899169922e-01 1.935964673757553101e-01 7.659269869327545166e-02
2.940000000000000000e+03 3.452608108520507812e+01 2.910699272155761719e+01 9.818688035011291504e-02 6.751126050949096680e-01 2.319898456335067749e-01 1.842115446925163269e-02
2.941000000000000000e+03 2.223379898071289062e+01 -2.542897796630859375e+01 4.274995923042297363e-01 4.446912556886672974e-02 1.415906101465225220e-01 -1.596218645572662354e-01
2.942000000000000000e+03 4.064822387695312500e+01 1.893502426147460938e+01 2.538451254367828369e-01 1.834483593702316284e-01 1.311880499124526978e-01 5.896155908703804016e-02
2.943000000000000000e+03 4.381253433227539062e+01 1.512091922760009766e+01 5.159959197044372559e-02 1.044273972511291504e+00 3.287620544433593750e-01 -1.568294167518615723e-01
2.944000000000000000e+03 1.428623294830322266e+01 -2.882768058776855469e+01 -2.502990961074829102e-01 -6.349737048149108887e-01 -2.655818462371826172e-01 -3.580708205699920654e-01
2.945000000000000000e+03 1.533307361602783203e+01 -2.748295211791992188e+01 -1.167148053646087646e-01 -5.197753906250000000e-01 -1.909470558166503906e-01 -3.007412850856781006e-01
2.946000000000000000e+03 1.472741127014160156e+01 3.561148834228515625e+01 1.215397268533706665e-01 -7.498268038034439087e-02 1.396711356937885284e-02 1.201146915555000305e-01
2.947000000000000000e+03 2.034992790222167969e+01 2.661980438232421875e+01 4.503838121891021729e-01 -1.556896716356277466e-01 8.840824663639068604e-02 5.429374575614929199e-01
2.948000000000000000e+03 1.069969272613525391e+01 -2.393947029113769531e+01 7.120565976947546005e-03 -1.268936991691589355e-01 -3.593194112181663513e-02 -2.291134148836135864e-01
2.949000000000000000e+03 5.131526947021484375e+01 1.893990516662597656e+01 2.283113300800323486e-01 2.628313302993774414e+00 8.569873571395874023e-01 -1.638196349143981934e+00
2.950000000000000000e+03 9.719486236572265625e+00 9.809597969055175781e+00 -3.691341280937194824e-01 -5.298328399658203125e-01 -2.696900963783264160e-01 3.321854472160339355e-01
2.951000000000000000e+03 1.041336727142333984e+01 7.479286193847656250e+00 -4.716720283031463623e-01 -3.342472314834594727e-01 -2.417757809162139893e-01 3.007366657257080078e-01
2.952000000000000000e+03 2.313744926452636719e+01 -2.816291046142578125e+01 4.729551076889038086e-01 7.322104275226593018e-02 1.638528406620025635e-01 -2.405095398426055908e-01
2.953000000000000000e+03 1.782756614685058594e+01 3.556284713745117188e+01 1.241451874375343323e-01 -2.478278279304504395e-01 -3.710478916764259338e-02 1.138114854693412781e-01
2.954000000000000000e+03 3.926283645629882812e+01 -3.522887468338012695e+00 -1.256491184234619141e+00 1.309597492218017578e-02 -3.730185627937316895e-01 -1.598975509405136108e-01
2.955000000000000000e+03 1.714717674255371094e+01 5.094197273254394531e+00 -3.396542668342590332e-01 1.468088924884796143e-01 -5.785360932350158691e-02 3.911041319370269775e-01
2.956000000000000000e+03 1.824968528747558594e+01 4.568974018096923828e+00 -4.400691092014312744e-01 3.744805604219436646e-02 -1.207863166928291321e-01 2.954185307025909424e-01
2.957000000000000000e+03 1.566850376129150391e+01 4.535807132720947266e+00 -4.295681416988372803e-01 5.664341151714324951e-02 -1.118774190545082092e-01 4.740148186683654785e-01
2.958000000000000000e+03 4.963763809204101562e+01 -1.499811077117919922e+01 -2.943932414054870605e-01 6.093332171440124512e-01 9.448198974132537842e-02 5.143094658851623535e-01
2.959000000000000000e+03 5.006291580200195312e+01 -1.569760894775390625e+01 -1.984255164861679077e-01 3.185205161571502686e-01 3.602849692106246948e-02 4.005283117294311523e-01
2.960000000000000000e+03 6.025613403320312500e+01 -1.074428081512451172e+00 2.975510597229003906e+00 1.016304206848144531e+01 3.941565752029418945e+00 -4.857335090637207031e+00
2.961000000000000000e+03 6.525084686279296875e+01 6.130785465240478516e+00 -2.978044509887695312e+00 1.196929067373275757e-01 -8.575055003166198730e-01 -3.773425817489624023e-01
2.962000000000000000e+03 5.627978515625000000e+01 1.130410861968994141e+01 9.039037227630615234e-01 5.308750152587890625e+00 1.863796114921569824e+00 -7.406126856803894043e-01
2.963000000000000000e+03 3.755052947998046875e+01 -2.975742530822753906e+01 4.735822081565856934e-01 5.863113999366760254e-01 3.179680705070495605e-01 2.000351399183273315e-01
2.964000000000000000e+03 3.935059738159179688e+01 -3.026974487304687500e+01 4.561264216899871826e-01 1.187200784683227539e+00 4.929981827735900879e-01 5.009436011314392090e-01
2.965000000000000000e+03 1.334325885772705078e+01 -2.761823081970214844e+01 -8.095501363277435303e-02 -5.427250266075134277e-01 -1.871040016412734985e-01 -2.672297656536102295e-01
2.966000000000000000e+03 2.095053100585937500e+01 2.242447853088378906e+01 1.515331268310546875e-01 -8.977657556533813477e-02 1.852696388959884644e-02 7.614327222108840942e-02
2.967000000000000000e+03 5.343692398071289062e+01 3.449118041992187500e+01 -1.834742575883865356e-01 3.195836067199707031e+00 9.037085771560668945e-01 2.615661621093750000e-01
2.968000000000000000e+03 4.040234756469726562e+01 -3.698416137695312500e+01 3.132425546646118164e-01 6.115387082099914551e-01 2.774343788623809814e-01 -3.593370914459228516e-01
2.969000000000000000e+03 1.702206420898437500e+01 -9.815946578979492188e+00 -1.208871304988861084e-01 5.000773444771766663e-02 -2.126381918787956238e-02 7.038139551877975464e-02
2.970000000000000000e+03 5.876476287841796875e+00 2.523186683654785156e+01 -2.378595471382141113e-01 -7.582948803901672363e-01 -2.988463342189788818e-01 2.126313894987106323e-01
2.971000000000000000e+03 6.535967254638671875e+01 -2.519945144653320312e+01 -1.192935466766357422e+00 7.373447895050048828e+00 1.854153752326965332e+00 -2.291731357574462891e+00
2.972000000000000000e+03 1.861703300476074219e+01 2.350871658325195312e+01 6.391901373863220215e-01 2.249650508165359497e-01 2.592465579509735107e-01 2.918508350849151611e-01
2.973000000000000000e+03 7.048059844970703125e+01 -1.429061985015869141e+01 -1.783523410558700562e-01 8.908804059028625488e-01 2.137584239244461060e-01 -2.555479049682617188e+00
2.974000000000000000e+03 7.167232513427734375e+01 -1.304021453857421875e+01 -1.329377740621566772e-01 4.556062817573547363e-01 9.680055826902389526e-02 -1.486213326454162598e+00
2.975000000000000000e+03 4.652751159667968750e+01 2.609440612792968750e+01 3.334476649761199951e-01 2.107190608978271484e+00 7.321914434432983398e-01 1.767003238201141357e-01
2.976000000000000000e+03 5.325207519531250000e+01 2.556433105468750000e+01 7.019683122634887695e-01 4.781596183776855469e+00 1.645069360733032227e+00 -7.623551487922668457e-01
2.977000000000000000e+03 1.457944774627685547e+01 -2.263792228698730469e+01 -2.368407547473907471e-01 -5.788418650627136230e-01 -2.447047829627990723e-01 -4.520675539970397949e-01
2.978000000000000000e+03 1.338711261749267578e+01 -2.398641586303710938e+01 -2.893841452896595001e-02 -4.964287877082824707e-01 -1.576101630926132202e-01 -3.919788599014282227e-01
2.979000000000000000e+03 4.616038131713867188e+01 2.938654899597167969e+01 6.693034172058105469e-01 2.320099353790283203e+00 8.968208432197570801e-01 -7.392026782035827637e-01
2.980000000000000000e+03 1.991712951660156250e+01 2.380557823181152344e+01 5.067500472068786621e-01 5.533357709646224976e-02 1.686250865459442139e-01 2.774284183979034424e-01
2.981000000000000000e+03 4.419656753540039062e+01 1.238765525817871094e+01 2.402866631746292114e-01 1.739583730697631836e+00 5.939611196517944336e-01 -2.647752761840820312e-01
2.982000000000000000e+03 7.065764617919921875e+01 1.850043487548828125e+01 -1.343582391738891602e+00 4.755327701568603516e+00 1.023523688316345215e+00 -1.028173804283142090e+00
2.983000000000000000e+03 1.284922599792480469e+01 -3.001425552368164062e+01 -2.408031523227691650e-01 -6.040511131286621094e-01 -2.534562945365905762e-01 -2.875319123268127441e-01
2.984000000000000000e+03 1.324237155914306641e+01 -2.928151130676269531e+01 -2.231747359037399292e-01 -6.006863117218017578e-01 -2.471583187580108643e-01 -3.000185191631317139e-01
2.985000000000000000e+03 3.030442428588867188e+01 1.122417163848876953e+01 2.765869796276092529e-01 8.436944484710693359e-01 3.360844254493713379e-01 4.176651835441589355e-01
2.986000000000000000e+03 2.692613792419433594e+01 1.333302497863769531e+01 -2.365203015506267548e-02 5.198140069842338562e-02 8.498811163008213043e-03 2.041196674108505249e-01
2.987000000000000000e+03 1.983332252502441406e+01 2.469291114807128906e+01 6.709918975830078125e-01 6.503434479236602783e-02 2.208078801631927490e-01 4.092634618282318115e-01
2.988000000000000000e+03 3.299112081527709961e+00 -1.615105247497558594e+01 -7.530236989259719849e-02 -8.561711758375167847e-02 -4.827584698796272278e-02 -8.405564725399017334e-02
2.989000000000000000e+03 6.425381660461425781e+00 3.281215667724609375e+01 2.217568308115005493e-01 -1.010878756642341614e-01 3.620068728923797607e-02 1.488982588052749634e-01
2.990000000000000000e+03 5.407625961303710938e+01 2.413318252563476562e+01 -7.641502022743225098e-01 4.299657821655273438e+00 1.060652375221252441e+00 -1.109503865242004395e+00
2.991000000000000000e+03 3.268357849121093750e+01 2.612904930114746094e+01 -1.704104393720626831e-01 9.024509787559509277e-02 -2.404960244894027710e-02 1.517067253589630127e-01
2.992000000000000000e+03 3.454913330078125000e+01 2.717850875854492188e+01 6.665257364511489868e-02 6.754820346832275391e-01 2.226403802633285522e-01 -2.055984549224376678e-02
2.993000000000000000e+03 1.935742568969726562e+01 3.378162384033203125e+01 3.320663422346115112e-02 -3.469830751419067383e-01 -9.413293749094009399e-02 7.493934780359268188e-02
2.994000000000000000e+03 5.454437255859375000e+01 3.724203872680664062e+01 -4.465740025043487549e-01 2.145720720291137695e+00 5.097440481185913086e-01 5.318213701248168945e-01
2.995000000000000000e+03 4.170635604858398438e+01 3.942213296890258789e+00 -6.112211346626281738e-01 -4.194166064262390137e-01 -3.091913163661956787e-01 7.351405173540115356e-02
2.996000000000000000e+03 4.072148895263671875e+01 3.568663835525512695e+00 -4.902890324592590332e-01 -6.683156490325927734e-01 -3.475814163684844971e-01 -1.711915433406829834e-01
2.997000000000000000e+03 3.872276687622070312e+01 1.142822933197021484e+01 -4.768111407756805420e-01 -9.318346381187438965e-01 -4.225937426090240479e-01 4.098137319087982178e-01
2.998000000000000000e+03 5.579537582397460938e+01 -3.174321746826171875e+01 1.351724147796630859e+00 7.571065425872802734e+00 2.676836729049682617e+00 1.764611005783081055e+00
2.999000000000000000e+03 2.480284309387207031e+01 -1.519382762908935547e+01 -8.926218748092651367e-01 -4.545616805553436279e-01 -4.041550457477569580e-01 -4.270350933074951172e-01
3.000000000000000000e+03 2.888226127624511719e+01 -1.772769355773925781e+01 -1.011945083737373352e-01 -2.887445092201232910e-01 -1.169817075133323669e-01 -1.148626133799552917e-01
3.001000000000000000e+03 2.760438919067382812e+01 -3.900119781494140625e+01 3.476137220859527588e-01 -1.515024304389953613e-01 5.883338302373886108e-02 1.404869109392166138e-01
3.002000000000000000e+03 7.248973846435546875e+01 -2.208526134490966797e-01 3.458220660686492920e-01 2.287203073501586914e+00 7.899075150489807129e-01 -4.776451587677001953e-01
3.003000000000000000e+03 6.813351440429687500e+01 5.821946620941162109e+00 -1.688539266586303711e+00 1.397886872291564941e+00 -8.719570934772491455e-02 2.363006353378295898e+00
3.004000000000000000e+03 7.237012481689453125e+01 -2.681694984436035156e+01 -1.980358362197875977e+00 4.404009819030761719e+00 7.270954251289367676e-01 1.987883210182189941e+00
3.005000000000000000e+03 5.930556869506835938e+01 2.011520576477050781e+01 -4.130846858024597168e-01 3.540166616439819336e+00 9.381245970726013184e-01 4.676024913787841797e-01
3.006000000000000000e+03 2.300907516479492188e+01 1.743987655639648438e+01 -2.153290361166000366e-01 -1.567618250846862793e-01 -1.116272583603858948e-01 1.464249342679977417e-01
3.007000000000000000e+03 1.998877334594726562e+01 1.641778182983398438e+01 -3.147840797901153564e-01 -2.786416113376617432e-01 -1.780277043581008911e-01 2.086538225412368774e-01
3.008000000000000000e+03 6.717467498779296875e+01 -3.130778503417968750e+01 1.995332121849060059e+00 5.724788188934326172e+00 2.316036224365234375e+00 -1.817655324935913086e+00
3.009000000000000000e+03 1.797348213195800781e+01 2.323415756225585938e+01 6.371310353279113770e-01 3.171478211879730225e-01 2.862836718559265137e-01 3.284268677234649658e-01
3.010000000000000000e+03 7.450673675537109375e+01 -1.801815414428710938e+01 3.071400523185729980e-01 8.299967765808105469e+00 2.582132339477539062e+00 5.511157214641571045e-02
3.011000000000000000e+03 1.884944534301757812e+01 3.472115707397460938e+01 8.842907845973968506e-02 -2.918677628040313721e-01 -6.103160232305526733e-02 8.863767236471176147e-02
3.012000000000000000e+03 5.926075363159179688e+01 2.130062866210937500e+01 -1.261128187179565430e+00 2.356052160263061523e+00 3.284772038459777832e-01 7.785388827323913574e-01
3.013000000000000000e+03 6.047747039794921875e+01 1.573720741271972656e+01 1.209970593452453613e+00 8.886424064636230469e+00 3.028918504714965820e+00 1.138680458068847656e+00
3.014000000000000000e+03 5.168666458129882812e+01 -3.150152206420898438e+00 -1.455409824848175049e-01 -2.834547758102416992e-01 -1.286987364292144775e-01 3.352622985839843750e-01
3.015000000000000000e+03 5.505458068847656250e+01 8.199535369873046875e+00 -1.414880305528640747e-01 3.693198919296264648e+00 1.065513253211975098e+00 -1.730837076902389526e-01
3.016000000000000000e+03 5.981660842895507812e+01 1.010367679595947266e+01 9.032270312309265137e-01 7.730918407440185547e+00 2.590243577957153320e+00 -9.806683063507080078e-01
3.017000000000000000e+03 3.152478981018066406e+01 -1.530851554870605469e+01 -5.751765966415405273e-01 -3.347299620509147644e-02 -1.825948804616928101e-01 -7.279746979475021362e-02
3.018000000000000000e+03 1.859919905662536621e+00 3.142878723144531250e+01 2.730768918991088867e-02 -7.991108894348144531e-01 -2.315409630537033081e-01 1.659497767686843872e-01
3.019000000000000000e+03 7.273375701904296875e+01 -1.307014274597167969e+01 -6.163774728775024414e-01 1.860144853591918945e+00 3.731302320957183838e-01 -4.085083901882171631e-01
3.020000000000000000e+03 1.655284118652343750e+01 1.940090560913085938e+01 -1.772675663232803345e-01 -8.376360684633255005e-02 -7.830935716629028320e-02 2.640802562236785889e-01
3.021000000000000000e+03 1.748229408264160156e+01 2.227407646179199219e+01 4.138792455196380615e-01 2.463227659463882446e-01 1.980606019496917725e-01 2.898402214050292969e-01
3.022000000000000000e+03 2.994078636169433594e+01 -1.725317382812500000e+01 -8.050889521837234497e-02 -1.524762958288192749e-01 -6.989555805921554565e-02 -8.218540996313095093e-02
3.023000000000000000e+03 2.936042594909667969e+01 -1.699015808105468750e+01 -1.651472598314285278e-01 -2.627905607223510742e-01 -1.283813416957855225e-01 -1.395580917596817017e-01
3.024000000000000000e+03 6.172964477539062500e+01 -7.016521930694580078e+00 2.766292572021484375e+00 1.660389709472656250e+01 5.811057090759277344e+00 2.072098016738891602e+00
3.025000000000000000e+03 6.396514511108398438e+01 -6.273213863372802734e+00 2.347619771957397461e+00 1.316640853881835938e+01 4.654208660125732422e+00 -3.031412698328495026e-02
3.026000000000000000e+03 5.651001739501953125e+01 -2.174302864074707031e+01 1.376406192779541016e+00 4.584778308868408203e+00 1.788355350494384766e+00 2.025152206420898438e+00
3.027000000000000000e+03 4.673978805541992188e+01 -3.897484970092773438e+01 3.917341232299804688e-01 1.472092866897583008e+00 5.591481328010559082e-01 6.417072415351867676e-01
3.028000000000000000e+03 4.245358276367187500e+01 -1.629055595397949219e+01 -1.217359453439712524e-01 3.526423126459121704e-02 -2.594151534140110016e-02 -3.560301363468170166e-01
3.029000000000000000e+03 4.110722732543945312e+01 -1.949749946594238281e+01 4.556036293506622314e-01 4.583889245986938477e-01 2.741977572441101074e-01 -3.166321516036987305e-01
3.030000000000000000e+03 4.673091506958007812e+01 2.434398651123046875e+00 -1.068851470947265625e+00 3.148705363273620605e-01 -2.261942923069000244e-01 5.929535627365112305e-02
3.031000000000000000e+03 1.582663631439208984e+01 -5.952504158020019531e+00 1.817642524838447571e-02 5.566972121596336365e-02 2.215384505689144135e-02 -6.862859241664409637e-03
3.032000000000000000e+03 3.074619102478027344e+01 2.774930572509765625e+01 -7.617704570293426514e-02 -2.512934207916259766e-01 -9.824113547801971436e-02 1.634643375873565674e-01
3.033000000000000000e+03 4.627027893066406250e+01 -4.236308097839355469e+00 -8.102748394012451172e-01 3.070972859859466553e-01 -1.509532630443572998e-01 8.168859779834747314e-02
3.034000000000000000e+03 4.679547882080078125e+01 -5.866245746612548828e+00 -3.635138273239135742e-01 6.647558212280273438e-01 9.037259221076965332e-02 4.303629696369171143e-02
3.035000000000000000e+03 2.852145385742187500e+01 -1.166343021392822266e+01 -1.080507159233093262e+00 -1.029764413833618164e+00 -6.330814361572265625e-01 -8.195566534996032715e-01
3.036000000000000000e+03 2.784906387329101562e+01 -1.224889755249023438e+01 -1.223944067955017090e+00 -8.820139765739440918e-01 -6.317874193191528320e-01 -8.005015850067138672e-01
3.037000000000000000e+03 1.856869125366210938e+01 1.892111587524414062e+01 -3.009674847126007080e-01 -1.126035079360008240e-01 -1.240713000297546387e-01 1.118683591485023499e-01
3.038000000000000000e+03 2.847469902038574219e+01 5.910003185272216797e+00 2.031673341989517212e-01 6.600667238235473633e-01 2.589702010154724121e-01 5.920286104083061218e-02
3.039000000000000000e+03 2.853811645507812500e+01 7.175529956817626953e+00 2.417372018098831177e-01 9.248467683792114258e-01 3.499751687049865723e-01 7.745824754238128662e-02
3.040000000000000000e+03 1.467998218536376953e+01 -2.708976173400878906e+01 -1.191232539713382721e-02 -5.695310235023498535e-01 -1.744330078363418579e-01 -2.818452715873718262e-01
3.041000000000000000e+03 1.366660213470458984e+01 -2.855929565429687500e+01 -1.835381686687469482e-01 -5.935199856758117676e-01 -2.331174463033676147e-01 -2.944639325141906738e-01
3.042000000000000000e+03 2.037753677368164062e+01 3.096069717407226562e+01 -1.714545637369155884e-01 -4.043030738830566406e-01 -1.727272868156433105e-01 6.533599644899368286e-02
3.043000000000000000e+03 1.984682846069335938e+01 3.303824234008789062e+01 -1.775831542909145355e-02 -3.851311206817626953e-01 -1.208668351173400879e-01 5.569343641400337219e-02
3.044000000000000000e+03 6.124892807006835938e+01 9.675456047058105469e+00 6.958343386650085449e-01 8.367219924926757812e+00 2.718916177749633789e+00 -2.141089200973510742e+00
3.045000000000000000e+03 7.408795928955078125e+01 -2.349262046813964844e+01 1.690182685852050781e+00 1.118752861022949219e+01 3.863313436508178711e+00 9.384707212448120117e-01
3.046000000000000000e+03 5.366461753845214844e+00 3.434859848022460938e+01 2.131076157093048096e-01 -3.839402198791503906e-01 -5.124978348612785339e-02 5.259623378515243530e-02
3.047000000000000000e+03 6.818963623046875000e+01 2.037521362304687500e+00 1.036298394203186035e+00 2.839284420013427734e+00 1.162674903869628906e+00 2.843900918960571289e+00
3.048000000000000000e+03 5.309144210815429688e+01 -1.467253589630126953e+01 2.329713432118296623e-03 -2.093408703804016113e-01 -6.210334599018096924e-02 1.858033835887908936e-01
3.049000000000000000e+03 5.978933334350585938e+01 1.570072460174560547e+01 1.476283311843872070e+00 7.748723983764648438e+00 2.767502307891845703e+00 5.485544800758361816e-01
3.050000000000000000e+03 5.456505966186523438e+01 1.781948280334472656e+01 8.986466526985168457e-01 3.612540245056152344e+00 1.353356122970581055e+00 -1.933740615844726562e+00
3.051000000000000000e+03 6.701017761230468750e+01 -3.683786773681640625e+01 -4.134980738162994385e-01 4.670018196105957031e+00 1.276956081390380859e+00 -6.156451106071472168e-01
3.052000000000000000e+03 7.549376678466796875e+01 -5.328577995300292969e+00 1.121834397315979004e+00 1.155075073242187500e+01 3.801775455474853516e+00 -9.979249238967895508e-01
3.053000000000000000e+03 6.142256546020507812e+01 2.313589286804199219e+01 -1.944483995437622070e+00 3.659310340881347656e+00 5.144479274749755859e-01 2.581869602203369141e+00
3.054000000000000000e+03 2.834621620178222656e+01 -1.850656318664550781e+01 -6.795415282249450684e-02 -2.983262240886688232e-01 -1.098841056227684021e-01 -9.060718864202499390e-02
3.055000000000000000e+03 2.548623085021972656e+01 -1.438996505737304688e+01 -1.071295857429504395e+00 -4.973312318325042725e-01 -4.705881476402282715e-01 -5.085152387619018555e-01
3.056000000000000000e+03 3.108580017089843750e+01 -5.310872554779052734e+00 -4.008568078279495239e-02 -5.011255741119384766e-01 -1.623633652925491333e-01 -3.992268741130828857e-01
3.057000000000000000e+03 1.216705608367919922e+01 -3.154145622253417969e+01 -2.247441858053207397e-01 -5.548431277275085449e-01 -2.338761836290359497e-01 -2.610604166984558105e-01
3.058000000000000000e+03 6.580484008789062500e+01 -2.842629432678222656e+00 3.042713642120361328e+00 7.851037979125976562e+00 3.268125534057617188e+00 3.288153886795043945e+00
3.059000000000000000e+03 6.368377304077148438e+01 -4.092000722885131836e-01 1.627115607261657715e+00 8.203785896301269531e+00 2.949270486831665039e+00 5.865691900253295898e-01
3.060000000000000000e+03 4.041883087158203125e+01 -2.808472633361816406e+01 4.021139144897460938e-01 9.146428704261779785e-01 3.950270414352416992e-01 4.925808906555175781e-01
3.061000000000000000e+03 4.169587326049804688e+01 -2.761630630493164062e+01 5.290271639823913574e-01 7.216727137565612793e-01 3.752099573612213135e-01 5.161210894584655762e-01
3.062000000000000000e+03 3.565325546264648438e+01 3.274378204345703125e+01 2.868773043155670166e-01 5.022650957107543945e-01 2.367427051067352295e-01 2.204225063323974609e-01
3.063000000000000000e+03 3.037208747863769531e+01 3.119692993164062500e+01 2.947207987308502197e-01 -6.007886677980422974e-02 7.039257884025573730e-02 1.563436985015869141e-01
3.064000000000000000e+03 5.696603012084960938e+01 2.282826995849609375e+01 -2.929964303970336914e+00 8.699582815170288086e-01 -6.180018186569213867e-01 -1.436094522476196289e+00
3.065000000000000000e+03 5.951841354370117188e+01 2.231661605834960938e+01 -2.237486124038696289e+00 1.386160850524902344e+00 -2.553975880146026611e-01 1.270294904708862305e+00
3.066000000000000000e+03 3.147237968444824219e+01 2.747076606750488281e+01 -8.962956070899963379e-02 -1.637628525495529175e-01 -7.601772248744964600e-02 1.127335056662559509e-01
3.067000000000000000e+03 2.753462982177734375e+01 -1.488024806976318359e+01 -7.122469544410705566e-01 -5.608684420585632324e-01 -3.819346129894256592e-01 -3.876732587814331055e-01
3.068000000000000000e+03 2.132385063171386719e+01 1.836280250549316406e+01 -2.131995409727096558e-01 -1.663381755352020264e-01 -1.138613149523735046e-01 5.510674417018890381e-02
3.069000000000000000e+03 2.831640052795410156e+01 1.012493228912353516e+01 3.053040206432342529e-01 5.848561525344848633e-01 2.670480608940124512e-01 2.248169928789138794e-01
3.070000000000000000e+03 7.342419433593750000e+01 1.770920372009277344e+01 -8.793562650680541992e-01 8.360125541687011719e+00 2.244230747222900391e+00 4.552176296710968018e-01
3.071000000000000000e+03 2.365625190734863281e+01 1.228092193603515625e+01 7.388094067573547363e-02 -1.251469105482101440e-01 -1.537978928536176682e-02 9.048311412334442139e-02
3.072000000000000000e+03 7.496321868896484375e+01 -2.610719203948974609e+00 -2.194742411375045776e-01 7.454839229583740234e+00 2.170609474182128906e+00 -9.274708032608032227e-01
3.073000000000000000e+03 2.759552955627441406e+01 -2.215933227539062500e+01 5.306482315063476562e-02 -1.471187621355056763e-01 -2.821618132293224335e-02 -9.721837192773818970e-02
3.074000000000000000e+03 2.849008178710937500e+01 -2.041539192199707031e+01 -9.362284094095230103e-03 -2.045558243989944458e-01 -6.417543441057205200e-02 -2.634542807936668396e-02
3.075000000000000000e+03 4.826979827880859375e+01 -8.925676345825195312e+00 1.498929262161254883e-01 1.620290875434875488e+00 5.310551524162292480e-01 4.139207303524017334e-02
3.076000000000000000e+03 5.178762817382812500e+01 -9.766313552856445312e+00 -5.124501585960388184e-01 -3.318786621093750000e-01 -2.532986402511596680e-01 1.144629716873168945e-01
3.077000000000000000e+03 4.731750106811523438e+01 -6.563833713531494141e+00 -2.995312809944152832e-01 1.106276392936706543e+00 2.420235276222229004e-01 3.957606479525566101e-02
3.078000000000000000e+03 3.925500869750976562e+01 1.095479869842529297e+01 -4.026385545730590820e-01 -9.121233820915222168e-01 -3.944285809993743896e-01 3.455024957656860352e-01
3.079000000000000000e+03 3.881361389160156250e+01 1.033450222015380859e+01 -6.309578418731689453e-01 -1.300860047340393066e+00 -5.795453786849975586e-01 6.766923666000366211e-01
3.080000000000000000e+03 3.837208175659179688e+01 -2.754520034790039062e+01 2.297135442495346069e-01 5.461675524711608887e-01 2.327643334865570068e-01 3.125749528408050537e-01
3.081000000000000000e+03 5.969101333618164062e+01 -9.974466323852539062e+00 1.587938904762268066e+00 6.608444213867187500e+00 2.458914995193481445e+00 4.052691459655761719e+00
3.082000000000000000e+03 7.163756561279296875e+01 -2.708611106872558594e+01 -1.653153181076049805e+00 2.503306388854980469e+00 2.550459802150726318e-01 1.938937902450561523e+00
3.083000000000000000e+03 3.524311828613281250e+01 2.543764877319335938e+01 -3.031630255281925201e-02 6.137521862983703613e-01 1.750307679176330566e-01 5.616367794573307037e-03
3.084000000000000000e+03 1.686451148986816406e+01 -4.485877037048339844e+00 -1.227445714175701141e-02 7.005766779184341431e-02 1.733496226370334625e-02 1.512755174189805984e-03
3.085000000000000000e+03 1.488743114471435547e+01 -4.255607604980468750e+00 1.468572579324245453e-02 1.782775111496448517e-02 9.754043072462081909e-03 -1.948081515729427338e-02
3.086000000000000000e+03 4.533183670043945312e+01 9.102543830871582031e+00 3.229534626007080078e-01 1.379690408706665039e+00 5.107931494712829590e-01 -4.619522392749786377e-01
3.087000000000000000e+03 4.064004898071289062e+01 5.087450504302978516e+00 -7.246176898479461670e-02 -6.834465861320495605e-01 -2.267725020647048950e-01 3.175677359104156494e-01
3.088000000000000000e+03 3.236193847656250000e+01 -6.344768524169921875e+00 -1.204779297113418579e-01 -3.363507688045501709e-01 -1.370486170053482056e-01 -5.951198935508728027e-01
3.089000000000000000e+03 3.051112556457519531e+01 1.195193386077880859e+01 -5.004669725894927979e-02 8.924302458763122559e-01 2.527150809764862061e-01 4.199462831020355225e-01
3.090000000000000000e+03 2.901199340820312500e+01 1.481042671203613281e+01 -4.385369643568992615e-02 2.724754810333251953e-01 6.858653575181961060e-02 4.323405027389526367e-01
3.091000000000000000e+03 3.567975997924804688e+01 -5.860937118530273438e+00 -2.952024340629577637e-01 5.652059912681579590e-01 8.100106567144393921e-02 -6.117573380470275879e-01
3.092000000000000000e+03 2.523763465881347656e+01 -3.001148796081542969e+01 2.621438503265380859e-01 -2.480002343654632568e-01 4.243086092174053192e-03 -2.028848826885223389e-01
3.093000000000000000e+03 4.680652618408203125e+01 -4.808161735534667969e+00 -6.724587678909301758e-01 4.756287932395935059e-01 -5.904899537563323975e-02 1.892255097627639771e-01
3.094000000000000000e+03 4.620918655395507812e+01 -5.244208335876464844e+00 -5.194226503372192383e-01 3.819482624530792236e-01 -4.124231263995170593e-02 6.846980750560760498e-02
3.095000000000000000e+03 1.588904380798339844e+01 -1.544668292999267578e+01 8.727623522281646729e-02 3.350571393966674805e-01 1.267000138759613037e-01 -1.383821368217468262e-01
3.096000000000000000e+03 2.634014129638671875e+00 1.061193847656250000e+01 -3.590178862214088440e-02 -1.088762134313583374e-01 -4.343340173363685608e-02 1.586912125349044800e-01
3.097000000000000000e+03 9.107952117919921875e+00 1.146603775024414062e+01 -1.263779252767562866e-01 -3.335410654544830322e-01 -1.379757076501846313e-01 2.850701808929443359e-01
3.098000000000000000e+03 1.612391662597656250e+01 5.483251094818115234e+00 -3.139885067939758301e-01 1.359381824731826782e-01 -5.341509357094764709e-02 4.425514042377471924e-01
3.099000000000000000e+03 8.429479598999023438e+00 -2.351617813110351562e+01 2.081136852502822876e-01 8.190210908651351929e-02 8.700473606586456299e-02 -1.250410377979278564e-01
3.100000000000000000e+03 9.981547355651855469e+00 -2.403118705749511719e+01 4.891675710678100586e-02 -6.271630525588989258e-02 -4.139864351600408554e-03 -1.904877126216888428e-01
3.101000000000000000e+03 3.913766860961914062e+01 -2.917900848388671875e+01 4.227595031261444092e-01 9.003040194511413574e-01 3.969190418720245361e-01 4.281624853610992432e-01
3.102000000000000000e+03 3.626085281372070312e+01 -2.878060340881347656e+01 4.361088573932647705e-01 1.321754157543182373e-01 1.704852879047393799e-01 4.810369014739990234e-02
3.103000000000000000e+03 1.314833736419677734e+01 -2.582523345947265625e+00 3.640625393018126488e-03 -3.695432562381029129e-03 -1.644214353291317821e-05 -3.176039457321166992e-02
3.104000000000000000e+03 6.461963653564453125e+01 -5.360435009002685547e+00 2.083039999008178711e+00 1.242483425140380859e+01 4.352362632751464844e+00 9.771006107330322266e-01
3.105000000000000000e+03 4.647037506103515625e+01 2.277579116821289062e+01 4.319689571857452393e-01 1.254250526428222656e+00 5.058658719062805176e-01 2.462250739336013794e-01
3.106000000000000000e+03 3.837652206420898438e+01 -1.251757335662841797e+01 -4.435418248176574707e-01 1.039424538612365723e+00 1.787648200988769531e-01 -3.060492575168609619e-01
3.107000000000000000e+03 7.564847564697265625e+01 -6.966032505035400391e+00 7.334673404693603516e-01 1.302020263671875000e+01 4.126101016998291016e+00 -8.539533615112304688e-01
3.108000000000000000e+03 7.733048248291015625e+01 -6.993317127227783203e+00 8.449009060859680176e-01 9.254309654235839844e+00 3.029763221740722656e+00 -4.168001115322113037e-01
3.109000000000000000e+03 2.242480278015136719e+01 -4.174744033813476562e+01 7.049245238304138184e-01 -7.114117592573165894e-02 1.901350021362304688e-01 -1.230025081895291805e-03
3.110000000000000000e+03 2.486612129211425781e+01 -4.079005050659179688e+01 5.944398641586303711e-01 -2.635241150856018066e-01 9.927473217248916626e-02 7.515960931777954102e-02
3.111000000000000000e+03 4.970059967041015625e+01 -3.975196123123168945e+00 -5.916861295700073242e-01 1.037319079041481018e-01 -1.463862657546997070e-01 6.426214575767517090e-01
3.112000000000000000e+03 5.867381668090820312e+01 2.360914468765258789e+00 -8.647300004959106445e-01 5.617373466491699219e+00 1.425793051719665527e+00 -2.936657428741455078e+00
3.113000000000000000e+03 7.676987457275390625e+01 -3.003850555419921875e+01 -2.509765625000000000e-01 7.457130432128906250e+00 2.161846160888671875e+00 3.077212572097778320e-01
3.114000000000000000e+03 7.284892272949218750e+01 -2.587969779968261719e+01 -1.916626930236816406e+00 6.159401416778564453e+00 1.272832393646240234e+00 1.823374629020690918e+00
3.115000000000000000e+03 1.835214233398437500e+01 -1.401692199707031250e+01 -2.643264830112457275e-01 1.432593632489442825e-02 -7.500016689300537109e-02 -1.699842885136604309e-02
3.116000000000000000e+03 2.497912216186523438e+01 -3.104365348815917969e+01 9.143966436386108398e-02 -3.387627601623535156e-01 -7.419692724943161011e-02 -1.239954009652137756e-01
3.117000000000000000e+03 5.011381912231445312e+01 -2.639839935302734375e+01 7.672040909528732300e-02 5.075115561485290527e-01 1.752695888280868530e-01 -4.809317290782928467e-01
3.118000000000000000e+03 7.244229125976562500e+01 8.643536567687988281e+00 2.449914962053298950e-01 9.218560218811035156e+00 2.839065313339233398e+00 8.071621656417846680e-01
3.119000000000000000e+03 6.193247222900390625e+01 -3.248735189437866211e+00 3.964294910430908203e+00 1.447583389282226562e+01 5.532038688659667969e+00 -2.061477422714233398e+00
3.120000000000000000e+03 3.301663589477539062e+01 2.247118377685546875e+01 -7.869859039783477783e-02 1.160302013158798218e-01 1.119948271661996841e-02 2.581003010272979736e-01
3.121000000000000000e+03 7.553369140625000000e+01 9.779960632324218750e+00 7.327187657356262207e-01 8.019549369812011719e+00 2.625680446624755859e+00 -6.067668199539184570e-01
3.122000000000000000e+03 4.793302536010742188e+01 5.531280994415283203e+00 -2.848381698131561279e-01 4.795365035533905029e-01 5.840949714183807373e-02 -1.941040903329849243e-01
3.123000000000000000e+03 1.357150745391845703e+01 -2.319183540344238281e+01 -1.293684989213943481e-01 -4.967352747917175293e-01 -1.878311336040496826e-01 -3.829305469989776611e-01
3.124000000000000000e+03 1.273192977905273438e+01 -2.389209365844726562e+01 -5.707227811217308044e-02 -4.127311110496520996e-01 -1.409410238265991211e-01 -3.587881326675415039e-01
3.125000000000000000e+03 3.965091323852539062e+01 1.158425712585449219e+01 -2.506248950958251953e-01 -5.999916195869445801e-01 -2.551849484443664551e-01 1.508706063032150269e-01
3.126000000000000000e+03 5.708931732177734375e+01 -1.993668365478515625e+01 5.320094823837280273e-01 3.981841087341308594e+00 1.354155182838439941e+00 1.566087007522583008e+00
3.127000000000000000e+03 5.628688430786132812e+01 -1.920573997497558594e+01 -5.949814245104789734e-02 3.527497053146362305e+00 1.040399670600891113e+00 1.057300806045532227e+00
3.128000000000000000e+03 1.249166297912597656e+01 -3.076748466491699219e+01 -2.382780760526657104e-01 -5.866976976394653320e-01 -2.474927306175231934e-01 -2.781943082809448242e-01
3.129000000000000000e+03 5.277870559692382812e+01 3.211557388305664062e+01 6.399747133255004883e-01 4.165697574615478516e+00 1.441701769828796387e+00 1.261016540229320526e-02
3.130000000000000000e+03 5.778814697265625000e+01 -2.349981689453125000e+01 1.145158410072326660e+00 3.850837469100952148e+00 1.498798847198486328e+00 2.055075168609619141e+00
3.131000000000000000e+03 4.422376251220703125e+01 3.612556838989257812e+01 3.451487421989440918e-01 1.458512187004089355e+00 5.410982370376586914e-01 -5.387422442436218262e-01
3.132000000000000000e+03 1.815718173980712891e+00 -2.018586158752441406e+01 2.041105367243289948e-02 -1.213181987404823303e-01 -3.027214296162128448e-02 -1.103078499436378479e-01
3.133000000000000000e+03 3.792776489257812500e+01 -1.468373394012451172e+01 -8.066152930259704590e-01 9.749888777732849121e-01 5.051206424832344055e-02 -3.127486705780029297e-01
3.134000000000000000e+03 1.690866851806640625e+01 2.135490417480468750e+01 2.194337695837020874e-01 1.605713665485382080e-01 1.140015423297882080e-01 3.159302771091461182e-01
3.135000000000000000e+03 7.064199829101562500e+01 7.675370216369628906e+00 -1.377657502889633179e-01 5.876549243927001953e+00 1.721634984016418457e+00 2.264274835586547852e+00
3.136000000000000000e+03 6.906676483154296875e+01 6.998303413391113281e+00 -1.560438632965087891e+00 2.003509044647216797e+00 1.329211592674255371e-01 1.805782556533813477e+00
3.137000000000000000e+03 3.784775543212890625e+01 1.244638347625732422e+01 -4.052030146121978760e-01 -8.100413680076599121e-01 -3.645732998847961426e-01 3.267291784286499023e-01
3.138000000000000000e+03 3.730846023559570312e+01 1.202116489410400391e+01 -7.222546935081481934e-01 -8.082621097564697266e-01 -4.591550529003143311e-01 4.881541132926940918e-01
3.139000000000000000e+03 1.669915008544921875e+01 -1.295714569091796875e+01 -1.791092008352279663e-01 1.636126935482025146e-01 -4.648955538868904114e-03 3.935961052775382996e-02
3.140000000000000000e+03 4.298750686645507812e+01 2.158830642700195312e+01 4.942023754119873047e-01 4.317095577716827393e-01 2.777735888957977295e-01 3.783297836780548096e-01
3.141000000000000000e+03 2.757706832885742188e+01 -1.329060268402099609e+01 -1.079988598823547363e+00 -6.963340044021606445e-01 -5.328967571258544922e-01 -5.908707380294799805e-01
3.142000000000000000e+03 1.957559013366699219e+01 7.142947196960449219e+00 2.520504295825958252e-01 5.512238666415214539e-02 9.215184301137924194e-02 1.782353371381759644e-01
3.143000000000000000e+03 4.481210327148437500e+01 -1.373076915740966797e+01 -1.645975589752197266e+00 -1.870382018387317657e-02 -4.994038045406341553e-01 -1.493837833404541016e-01
3.144000000000000000e+03 4.677548217773437500e+01 -1.343480777740478516e+01 -1.199684858322143555e+00 1.082331299781799316e+00 -3.520604968070983887e-02 2.206141799688339233e-01
3.145000000000000000e+03 7.247908782958984375e+01 -1.525333690643310547e+01 -2.768031656742095947e-01 3.382190465927124023e+00 9.316161870956420898e-01 -1.277770400047302246e+00
3.146000000000000000e+03 3.112086868286132812e+01 -6.556702613830566406e+00 -7.827305048704147339e-02 -6.940374374389648438e-01 -2.316931486129760742e-01 -4.707315564155578613e-01
3.147000000000000000e+03 6.450186920166015625e+01 3.311671066284179688e+01 1.993123590946197510e-01 4.014018058776855469e+00 1.263999104499816895e+00 1.620320975780487061e-01
3.148000000000000000e+03 2.127707099914550781e+01 1.680845069885253906e+01 -2.862840592861175537e-01 -1.661386787891387939e-01 -1.357268244028091431e-01 1.286163181066513062e-01
3.149000000000000000e+03 6.674119567871093750e+01 -4.514910280704498291e-01 2.511744976043701172e+00 4.765275478363037109e+00 2.183105945587158203e+00 2.646131277084350586e+00
3.150000000000000000e+03 6.578095245361328125e+01 -1.688025474548339844e+00 3.083931922912597656e+00 6.609546661376953125e+00 2.908043622970581055e+00 2.766424417495727539e+00
3.151000000000000000e+03 4.935411071777343750e+01 -2.522472763061523438e+01 -3.648964762687683105e-01 6.527973413467407227e-01 8.637026697397232056e-02 -5.735179781913757324e-01
3.152000000000000000e+03 3.212229919433593750e+01 1.753882408142089844e+01 5.048496723175048828e-01 7.728980779647827148e-01 3.833243548870086670e-01 5.859298110008239746e-01
3.153000000000000000e+03 3.475021743774414062e+01 1.369317245483398438e+01 -2.554669082164764404e-01 -2.975690364837646484e-01 -1.659107804298400879e-01 3.370209634304046631e-01
3.154000000000000000e+03 2.922482681274414062e+01 -2.482013702392578125e+01 2.752461135387420654e-01 3.728687763214111328e-02 9.375989437103271484e-02 -1.779304444789886475e-01
3.155000000000000000e+03 2.972222328186035156e+01 -2.660582923889160156e+01 3.760472834110260010e-01 6.444157660007476807e-02 1.321466565132141113e-01 -2.294675260782241821e-01
3.156000000000000000e+03 6.468916320800781250e+01 -1.719441413879394531e+01 -2.072167396545410156e+00 7.661200046539306641e+00 1.676709771156311035e+00 -4.209404885768890381e-01
3.157000000000000000e+03 6.241664123535156250e+01 -1.935398292541503906e+01 8.644022345542907715e-01 6.800155639648437500e+00 2.299367427825927734e+00 -3.175587356090545654e-01
3.158000000000000000e+03 4.433412170410156250e+01 2.252276420593261719e+01 6.164209842681884766e-01 7.265133857727050781e-01 4.028803110122680664e-01 5.492343306541442871e-01
3.159000000000000000e+03 4.523942184448242188e+01 2.220054435729980469e+01 4.368493854999542236e-01 9.351391196250915527e-01 4.115965366363525391e-01 4.247927665710449219e-01
3.160000000000000000e+03 2.833697891235351562e+01 -1.274693870544433594e+01 -1.018846392631530762e+00 -7.741927504539489746e-01 -5.379117727279663086e-01 -5.868400931358337402e-01
3.161000000000000000e+03 6.212982940673828125e+01 2.344019317626953125e+01 -1.444168925285339355e+00 4.322951793670654297e+00 8.636348247528076172e-01 2.322832345962524414e+00
3.162000000000000000e+03 6.197958374023437500e+01 2.410559844970703125e+01 -2.237472683191299438e-01 4.397747039794921875e+00 1.252199888229370117e+00 2.548767805099487305e+00
3.163000000000000000e+03 5.318667221069335938e+01 3.371159744262695312e+01 9.038789570331573486e-02 3.518743515014648438e+00 1.082739472389221191e+00 1.381755471229553223e-01
3.164000000000000000e+03 5.297453689575195312e+01 3.292043304443359375e+01 3.571788668632507324e-01 3.852331876754760742e+00 1.262853264808654785e+00 7.340598106384277344e-02
3.165000000000000000e+03 5.606314086914062500e+01 -3.096594238281250000e+01 1.619310259819030762e+00 7.511553764343261719e+00 2.739259243011474609e+00 1.996397376060485840e+00
3.166000000000000000e+03 4.142016220092773438e+01 3.260078191757202148e+00 -9.644617438316345215e-01 -4.194503724575042725e-01 -4.151736497879028320e-01 -2.711920440196990967e-01
3.167000000000000000e+03 4.456156539916992188e+01 6.819774150848388672e+00 -2.715572118759155273e-01 5.552840828895568848e-01 8.511807024478912354e-02 1.088648736476898193e-01
3.168000000000000000e+03 7.338156890869140625e+01 -1.285387992858886719e+01 -9.984241724014282227e-01 2.829079627990722656e+00 5.491966009140014648e-01 2.631234228610992432e-01
3.169000000000000000e+03 3.148534202575683594e+01 -4.143857955932617188e+00 -8.426172286272048950e-02 -3.181950449943542480e-01 -1.207370311021804810e-01 -3.709321320056915283e-01
3.170000000000000000e+03 4.348628997802734375e+01 1.230052757263183594e+01 2.862471640110015869e-01 1.144462466239929199e+00 4.292128682136535645e-01 -2.645097970962524414e-01
3.171000000000000000e+03 3.967872238159179688e+01 4.138475418090820312e+00 5.991950035095214844e-01 -6.367998123168945312e-01 -1.128144189715385437e-02 1.797928363084793091e-01
3.172000000000000000e+03 4.658612442016601562e+01 6.373713016510009766e+00 -1.604909896850585938e-01 6.009683609008789062e-01 1.321432143449783325e-01 -1.803676187992095947e-01
3.173000000000000000e+03 3.943462371826171875e+01 9.769644737243652344e+00 -5.494865775108337402e-01 -1.190201163291931152e+00 -5.219063162803649902e-01 5.306816101074218750e-01
3.174000000000000000e+03 7.807658386230468750e+01 1.083412551879882812e+01 2.932018935680389404e-01 6.471652030944824219e+00 2.029456138610839844e+00 -3.199396431446075439e-01
3.175000000000000000e+03 6.298938369750976562e+01 -2.493443107604980469e+01 -1.257821917533874512e-01 4.001645088195800781e+00 1.162758946418762207e+00 -1.026338458061218262e+00
3.176000000000000000e+03 2.038230133056640625e+01 -2.543374824523925781e+01 4.045861363410949707e-01 2.469295561313629150e-01 1.954547166824340820e-01 -1.894885152578353882e-01
3.177000000000000000e+03 1.958650588989257812e+01 -2.563959121704101562e+01 3.775865435600280762e-01 2.296264767646789551e-01 1.821639090776443481e-01 -3.118936419486999512e-01
3.178000000000000000e+03 5.574589157104492188e+01 -1.105364799499511719e+01 -7.183446288108825684e-01 -6.748914718627929688e-01 -4.179708361625671387e-01 6.767688393592834473e-01
3.179000000000000000e+03 1.045023822784423828e+01 -3.347410583496093750e+01 -1.164502575993537903e-01 -3.425120413303375244e-01 -1.376886814832687378e-01 -2.688896954059600830e-01
3.180000000000000000e+03 7.832363128662109375e+01 -2.022618865966796875e+01 2.811819911003112793e-01 7.477402687072753906e+00 2.327575445175170898e+00 4.890903830528259277e-01
3.181000000000000000e+03 4.850315475463867188e+01 -1.509392642974853516e+01 -5.469290018081665039e-01 1.153198480606079102e+00 1.818808466196060181e-01 5.328325629234313965e-01
3.182000000000000000e+03 3.467479705810546875e+01 -1.130756378173828125e+01 -2.301592379808425903e-01 2.947193682193756104e-01 1.936803758144378662e-02 -2.343978732824325562e-02
3.183000000000000000e+03 5.976096725463867188e+01 1.648280143737792969e+01 1.558921694755554199e+00 6.923628807067871094e+00 2.544765233993530273e+00 6.219037175178527832e-01
3.184000000000000000e+03 1.568732070922851562e+01 -2.069261932373046875e+01 -6.200827360153198242e-01 -6.478048563003540039e-01 -3.803662955760955811e-01 -4.535790085792541504e-01
3.185000000000000000e+03 3.696277236938476562e+01 -2.840742874145507812e+01 3.178116977214813232e-01 2.220836728811264038e-01 1.619686037302017212e-01 1.590525209903717041e-01
3.186000000000000000e+03 2.564128112792968750e+01 -3.088308525085449219e+01 1.452954113483428955e-01 -2.711070477962493896e-01 -3.774349391460418701e-02 -1.829841136932373047e-01
3.187000000000000000e+03 2.153951644897460938e+01 2.458143997192382812e+01 4.163390696048736572e-01 -4.743564501404762268e-02 1.106710284948348999e-01 4.000674486160278320e-01
3.188000000000000000e+03 4.082897567749023438e+01 -2.132463836669921875e+01 2.883870601654052734e-01 6.487292647361755371e-01 2.811349034309387207e-01 -1.429310292005538940e-01
3.189000000000000000e+03 4.013455200195312500e+01 -2.141477012634277344e+01 1.813110262155532837e-01 6.572796106338500977e-01 2.515771985054016113e-01 -1.718229651451110840e-01
3.190000000000000000e+03 6.383814239501953125e+01 2.627789688110351562e+01 2.184888839721679688e+00 5.373557090759277344e+00 2.267533779144287109e+00 1.597231864929199219e+00
3.191000000000000000e+03 6.452707672119140625e+01 2.847458457946777344e+01 7.495270371437072754e-01 5.331807613372802734e+00 1.824400305747985840e+00 1.024843335151672363e+00
3.192000000000000000e+03 4.388440704345703125e+01 3.397304534912109375e+01 5.732501149177551270e-01 1.226137399673461914e+00 5.398162603378295898e-01 -6.994014382362365723e-01
3.193000000000000000e+03 4.114527130126953125e+01 2.107180213928222656e+01 3.909510374069213867e-01 1.461534947156906128e-01 1.611313670873641968e-01 1.449521780014038086e-01
3.194000000000000000e+03 4.360563659667968750e+01 1.423340320587158203e+01 1.554371863603591919e-01 1.105439186096191406e+00 3.782629370689392090e-01 -2.321426123380661011e-01
3.195000000000000000e+03 4.887519454956054688e+01 -2.470968246459960938e+01 -3.266822397708892822e-01 6.466090679168701172e-01 9.597805142402648926e-02 -3.924911618232727051e-01
3.196000000000000000e+03 4.737068939208984375e+01 -2.420761871337890625e+01 3.820704296231269836e-02 1.146937727928161621e+00 3.555434048175811768e-01 -4.568424224853515625e-01
3.197000000000000000e+03 1.823994398117065430e+00 -1.537886905670166016e+01 -2.714284136891365051e-02 3.907368704676628113e-02 3.579253796488046646e-03 -3.615418449044227600e-02
3.198000000000000000e+03 3.608734130859375000e+01 -6.669150829315185547e+00 -1.239624470472335815e-01 7.863169908523559570e-01 1.987063586711883545e-01 -6.170346736907958984e-01
3.199000000000000000e+03 3.699919509887695312e+01 -6.096854209899902344e+00 -2.743230760097503662e-01 7.769651412963867188e-01 1.507926136255264282e-01 -3.692001998424530029e-01
3.200000000000000000e+03 4.603257751464843750e+01 -1.397964668273925781e+01 -1.196143150329589844e+00 6.823032498359680176e-01 -1.541519463062286377e-01 2.067354768514633179e-01
3.201000000000000000e+03 3.605966186523437500e+01 -1.425266551971435547e+01 -8.628248572349548340e-01 5.083391666412353516e-01 -1.063456982374191284e-01 -1.645310521125793457e-01
3.202000000000000000e+03 6.596913146972656250e+01 1.074458837509155273e+00 1.270654201507568359e+00 4.570590019226074219e+00 1.752373337745666504e+00 1.897142887115478516e+00
3.203000000000000000e+03 6.117204284667968750e+01 4.717327281832695007e-02 8.292699456214904785e-01 9.362470626831054688e+00 3.057522296905517578e+00 -2.298667430877685547e+00
3.204000000000000000e+03 7.741886138916015625e+01 -1.315048789978027344e+01 -7.161212563514709473e-01 8.606938362121582031e+00 2.367245197296142578e+00 7.459847629070281982e-02
3.205000000000000000e+03 7.407928466796875000e+01 -1.215153884887695312e+01 -1.721441745758056641e+00 4.213588714599609375e+00 7.476440668106079102e-01 8.704488873481750488e-01
3.206000000000000000e+03 3.858872985839843750e+01 3.675400543212890625e+01 5.461927056312561035e-01 4.695849418640136719e-01 3.047333061695098877e-01 -4.000108316540718079e-02
3.207000000000000000e+03 3.554833984375000000e+01 3.752109527587890625e+01 4.327943623065948486e-01 4.350955784320831299e-01 2.603669762611389160e-01 8.441025018692016602e-02
3.208000000000000000e+03 6.376951980590820312e+01 -4.682950496673583984e+00 2.658400535583496094e+00 1.271535491943359375e+01 4.612126827239990234e+00 5.443453788757324219e-01
3.209000000000000000e+03 5.513675689697265625e+01 1.292951679229736328e+01 1.252058625221252441e+00 5.219765186309814453e+00 1.941547155380249023e+00 -1.396248102188110352e+00
3.210000000000000000e+03 5.536092376708984375e+01 1.616877746582031250e+01 1.690205812454223633e+00 4.127826213836669922e+00 1.745409607887268066e+00 -1.694303393363952637e+00
3.211000000000000000e+03 1.596515464782714844e+01 1.915660476684570312e+01 -2.027152031660079956e-01 -1.198983341455459595e-01 -9.678406268358230591e-02 3.292442560195922852e-01
3.212000000000000000e+03 7.749718475341796875e+01 1.566699790954589844e+01 1.793704628944396973e-01 7.285796165466308594e+00 2.239550113677978516e+00 9.593359827995300293e-01
3.213000000000000000e+03 7.604636383056640625e+01 1.650406646728515625e+01 7.983825355768203735e-02 8.021206855773925781e+00 2.430313348770141602e+00 1.193887591361999512e+00
3.214000000000000000e+03 1.266388130187988281e+01 3.694920301437377930e+00 -2.431884557008743286e-01 -1.246022582054138184e-01 -1.103372126817703247e-01 2.382180541753768921e-01
3.215000000000000000e+03 4.555632400512695312e+01 3.392159271240234375e+01 4.543370604515075684e-01 1.759470224380493164e+00 6.641421914100646973e-01 -7.442335486412048340e-01
3.216000000000000000e+03 4.356357192993164062e+01 2.099501228332519531e+01 2.783660292625427246e-01 6.049775481224060059e-01 2.650030851364135742e-01 3.758837878704071045e-01
3.217000000000000000e+03 4.226965332031250000e+01 2.047609519958496094e+01 2.735427320003509521e-01 3.996523320674896240e-01 2.019585222005844116e-01 2.404014766216278076e-01
3.218000000000000000e+03 5.413035202026367188e+01 -3.349131393432617188e+01 1.384599804878234863e+00 4.977534294128417969e+00 1.908640265464782715e+00 1.079195141792297363e+00
3.219000000000000000e+03 6.252648162841796875e+01 -6.324003219604492188e+00 2.331905364990234375e+00 1.529609870910644531e+01 5.288401126861572266e+00 5.919590592384338379e-01
3.220000000000000000e+03 5.914793395996093750e+01 1.386931324005126953e+01 1.557518601417541504e+00 7.628595829010009766e+00 2.755834341049194336e+00 -6.670854091644287109e-01
3.221000000000000000e+03 5.085428237915039062e+01 -3.058948898315429688e+01 8.999005556106567383e-01 2.570578575134277344e+00 1.041143774986267090e+00 1.831189244985580444e-01
3.222000000000000000e+03 2.978926658630371094e+01 1.494960308074951172e+01 8.033513277769088745e-02 6.449145078659057617e-01 2.175748944282531738e-01 6.307123899459838867e-01
3.223000000000000000e+03 5.285178756713867188e+01 2.663831138610839844e+01 1.206501960754394531e+00 5.088015556335449219e+00 1.888355255126953125e+00 -7.229011058807373047e-01
3.224000000000000000e+03 6.623817920684814453e+00 3.473154449462890625e+01 2.611181139945983887e-01 -1.468759775161743164e-01 3.427264094352722168e-02 4.449774324893951416e-02
3.225000000000000000e+03 3.733631515502929688e+01 -1.163113212585449219e+01 -1.917054802179336548e-01 1.129815816879272461e+00 2.814330756664276123e-01 -2.332002222537994385e-01
3.226000000000000000e+03 2.820627593994140625e+01 1.473115730285644531e+01 -1.825599521398544312e-01 1.073744669556617737e-01 -2.255564369261264801e-02 2.884016036987304688e-01
3.227000000000000000e+03 2.924085426330566406e+01 1.170800781250000000e+01 9.628219157457351685e-02 7.428316473960876465e-01 2.517341673374176025e-01 3.529713749885559082e-01
3.228000000000000000e+03 2.963742256164550781e+01 -1.264687919616699219e+01 -8.180426955223083496e-01 -6.827984452247619629e-01 -4.502523541450500488e-01 -3.174997270107269287e-01
3.229000000000000000e+03 2.996818542480468750e+01 -1.391676044464111328e+01 -6.996579170227050781e-01 -3.954781293869018555e-01 -3.285408020019531250e-01 -1.715967357158660889e-01
3.230000000000000000e+03 2.514348220825195312e+01 -2.492340660095214844e+01 3.367003798484802246e-01 -1.510801762342453003e-01 5.568606406450271606e-02 -1.480565518140792847e-01
3.231000000000000000e+03 1.687889480590820312e+01 5.760539054870605469e+00 -1.950179785490036011e-01 1.874634474515914917e-01 -2.266359748318791389e-03 3.626026511192321777e-01
3.232000000000000000e+03 3.264328002929687500e+01 2.425706100463867188e+01 -2.309968024492263794e-01 1.566354185342788696e-02 -6.459997594356536865e-02 2.765271961688995361e-01
3.233000000000000000e+03 9.426739692687988281e+00 1.487257289886474609e+01 2.774216234683990479e-01 2.073611617088317871e-01 1.454348415136337280e-01 3.248751163482666016e-01
3.234000000000000000e+03 7.729701042175292969e+00 1.293256759643554688e+01 4.750113189220428467e-02 -1.641920208930969238e-01 -3.500726819038391113e-02 3.506554663181304932e-01
3.235000000000000000e+03 1.727123260498046875e+00 2.694095039367675781e+01 -4.814406111836433411e-02 -5.252643227577209473e-01 -1.720225065946578979e-01 1.060303077101707458e-01
3.236000000000000000e+03 5.267942810058593750e+01 -2.569489479064941406e+01 -4.247079417109489441e-02 1.319831132888793945e+00 3.832080960273742676e-01 1.195494294166564941e+00
3.237000000000000000e+03 5.602922058105468750e+01 -2.796242332458496094e+01 2.812791056931018829e-02 5.507788658142089844e+00 1.660775065422058105e+00 1.539463877677917480e+00
3.238000000000000000e+03 6.982437133789062500e+01 -2.681437110900878906e+01 -3.281570672988891602e+00 -3.939908146858215332e-01 -1.102668404579162598e+00 2.343115806579589844e-01
3.239000000000000000e+03 6.934080505371093750e+01 -3.141060066223144531e+01 1.809698581695556641e+00 3.897310972213745117e+00 1.712102890014648438e+00 -8.299139142036437988e-01
3.240000000000000000e+03 5.600587081909179688e+01 1.222688198089599609e+01 1.204078316688537598e+00 5.280422687530517578e+00 1.945350289344787598e+00 -1.071174383163452148e+00
3.241000000000000000e+03 2.084490966796875000e+01 2.102605819702148438e+01 4.440330900251865387e-03 -1.256797015666961670e-01 -3.637181222438812256e-02 -1.518972963094711304e-02
3.242000000000000000e+03 4.318106079101562500e+01 -1.425973320007324219e+01 -1.520011663436889648e+00 -3.136753141880035400e-01 -5.501061081886291504e-01 -2.422832250595092773e-01
3.243000000000000000e+03 1.728074645996093750e+01 -4.183824157714843750e+01 7.936354279518127441e-01 2.611975073814392090e-01 3.164498805999755859e-01 -4.228587821125984192e-02
3.244000000000000000e+03 4.585632705688476562e+01 2.247894477844238281e+01 4.377426505088806152e-01 1.071079015731811523e+00 4.526464939117431641e-01 3.619818985462188721e-01
3.245000000000000000e+03 1.825627899169921875e+01 1.948342704772949219e+01 -2.184940576553344727e-01 -6.070727482438087463e-02 -8.376040309667587280e-02 1.102664247155189514e-01
3.246000000000000000e+03 1.591271114349365234e+01 2.243774223327636719e+01 5.558481812477111816e-01 2.732270956039428711e-01 2.487225830554962158e-01 4.346158504486083984e-01
3.247000000000000000e+03 9.992588043212890625e+00 1.708403778076171875e+01 4.879729151725769043e-01 2.082569897174835205e-01 2.088689655065536499e-01 2.759548723697662354e-01
3.248000000000000000e+03 2.214495658874511719e+01 1.851804351806640625e+01 -1.517034322023391724e-01 -1.966532021760940552e-01 -1.045069843530654907e-01 7.757091522216796875e-02
3.249000000000000000e+03 6.401812744140625000e+01 2.229447937011718750e+01 -1.699228286743164062e+00 3.116078376770019531e+00 4.250550270080566406e-01 2.235335111618041992e+00
3.250000000000000000e+03 1.452183628082275391e+01 1.982819366455078125e+01 -3.881503362208604813e-03 1.745182871818542480e-01 5.119103565812110901e-02 5.435317754745483398e-01
3.251000000000000000e+03 1.474595355987548828e+01 4.958235263824462891e+00 -3.956048488616943359e-01 -4.852749034762382507e-02 -1.332397013902664185e-01 4.848165810108184814e-01
3.252000000000000000e+03 5.134107208251953125e+01 -3.156329536437988281e+01 1.091744065284729004e+00 3.106217861175537109e+00 1.259388566017150879e+00 6.351644396781921387e-01
3.253000000000000000e+03 5.139584350585937500e+01 -1.499796581268310547e+01 -1.544186323881149292e-01 -5.318968743085861206e-02 -6.228249892592430115e-02 2.882238626480102539e-01
3.254000000000000000e+03 4.836325836181640625e+01 1.899206876754760742e+00 -1.132618069648742676e+00 1.797523647546768188e-01 -2.858597338199615479e-01 -3.980231285095214844e-02
3.255000000000000000e+03 4.976451110839843750e+01 3.128326654434204102e+00 -8.144513368606567383e-01 7.370135933160781860e-02 -2.222249805927276611e-01 -1.303212344646453857e-01
3.256000000000000000e+03 4.240612411499023438e+01 -2.712611961364746094e+01 4.932584166526794434e-01 5.463963150978088379e-01 3.118964135646820068e-01 3.849970400333404541e-01
3.257000000000000000e+03 4.046723175048828125e+01 -2.523229598999023438e+01 2.582383155822753906e-01 7.924458980560302734e-01 3.152052760124206543e-01 2.774568796157836914e-01
3.258000000000000000e+03 6.299222183227539062e+01 -3.933193969726562500e+01 -7.234570980072021484e-01 2.054883837699890137e-01 -1.553906202316284180e-01 3.043207526206970215e-01
3.259000000000000000e+03 6.403931427001953125e+01 -4.052836227416992188e+01 -6.356837749481201172e-01 1.324117779731750488e+00 2.065302133560180664e-01 2.527409791946411133e-01
3.260000000000000000e+03 6.076358032226562500e+01 -2.556880187988281250e+01 -9.910365343093872070e-01 6.451728940010070801e-01 -1.037591025233268738e-01 1.810891389846801758e+00
3.261000000000000000e+03 1.282085323333740234e+01 -3.717442321777343750e+01 2.198936939239501953e-01 -1.348335593938827515e-01 2.551804110407829285e-02 -1.672080755233764648e-01
3.262000000000000000e+03 1.222257900238037109e+01 -4.028428268432617188e+01 4.164740145206451416e-01 -1.681575775146484375e-01 7.449492812156677246e-02 -9.601707756519317627e-02
3.263000000000000000e+03 6.734136962890625000e+01 -3.358863830566406250e+01 9.726767539978027344e-01 5.985961914062500000e+00 2.087591648101806641e+00 -1.219773530960083008e+00
3.264000000000000000e+03 4.491580581665039062e+01 -2.649634933471679688e+01 3.993274271488189697e-01 5.236894488334655762e-01 2.769050598144531250e-01 -2.090817391872406006e-01
3.265000000000000000e+03 3.578716659545898438e+01 -7.413620471954345703e+00 1.227083355188369751e-01 6.655737757682800293e-01 2.364846467971801758e-01 -6.050125956535339355e-01
3.266000000000000000e+03 4.313417434692382812e+01 2.032911300659179688e+01 2.019219696521759033e-01 5.547485351562500000e-01 2.270011603832244873e-01 3.009914159774780273e-01
3.267000000000000000e+03 6.328302383422851562e+01 3.462515258789062500e+01 -5.135775208473205566e-01 3.253045797348022461e+00 8.218405246734619141e-01 -3.103030025959014893e-01
3.268000000000000000e+03 5.618416213989257812e+01 -1.842401313781738281e+01 -3.587101697921752930e-01 3.174711704254150391e+00 8.448004126548767090e-01 8.551217317581176758e-01
3.269000000000000000e+03 3.345510482788085938e+01 3.211569595336914062e+01 2.616315186023712158e-01 3.395452499389648438e-01 1.803530305624008179e-01 8.673958480358123779e-02
3.270000000000000000e+03 2.063666534423828125e+01 9.912177085876464844e+00 2.235180437564849854e-01 -4.027817025780677795e-02 5.497195944190025330e-02 2.064407616853713989e-01
3.271000000000000000e+03 2.156508827209472656e+01 1.215209484100341797e+01 3.941614553332328796e-02 -1.607733368873596191e-01 -3.640715405344963074e-02 7.881516218185424805e-02
3.272000000000000000e+03 1.313304615020751953e+01 -1.220392608642578125e+01 -1.019575893878936768e-01 1.304453313350677490e-01 8.546324446797370911e-03 -7.165176421403884888e-02
3.273000000000000000e+03 6.210049819946289062e+01 6.958149909973144531e+00 -2.670027971267700195e+00 5.546619415283203125e+00 8.629773855209350586e-01 -1.853036284446716309e+00
3.274000000000000000e+03 9.986307144165039062e+00 8.129211425781250000e+00 -4.298336505889892578e-01 -3.818503022193908691e-01 -2.435051798820495605e-01 3.067272603511810303e-01
3.275000000000000000e+03 3.356950378417968750e+01 2.832660293579101562e+01 8.558122068643569946e-02 4.089123606681823730e-01 1.483480781316757202e-01 -6.462002173066139221e-03
3.276000000000000000e+03 1.062499713897705078e+01 -3.484595489501953125e+01 -1.685928925871849060e-02 -3.325970172882080078e-01 -1.048368960618972778e-01 -2.619330286979675293e-01
3.277000000000000000e+03 1.126025009155273438e+01 -3.567454528808593750e+01 4.287742078304290771e-02 -3.085005581378936768e-01 -7.968693971633911133e-02 -2.429244071245193481e-01
3.278000000000000000e+03 9.970887184143066406e+00 -3.134170055389404297e+00 1.281168218702077866e-02 -1.658537425100803375e-02 -1.132107689045369625e-03 -2.469864860177040100e-02
3.279000000000000000e+03 6.103617477416992188e+01 -2.266189575195312500e+00 3.433385848999023438e+00 1.495677089691162109e+01 5.517046928405761719e+00 -3.475909471511840820e+00
3.280000000000000000e+03 3.109856033325195312e+01 1.323722076416015625e+01 -2.545628547668457031e-01 7.194395661354064941e-01 1.394630074501037598e-01 5.364088416099548340e-01
3.281000000000000000e+03 4.372648620605468750e+01 2.358067989349365234e+00 -1.259619832038879395e+00 1.134818121790885925e-01 -3.438414335250854492e-01 1.809409856796264648e-01
3.282000000000000000e+03 4.681707382202148438e+01 4.378381729125976562e+00 -6.756833791732788086e-01 4.261044859886169434e-01 -7.487367093563079834e-02 -1.464031450450420380e-02
3.283000000000000000e+03 4.467498016357421875e+01 2.824874401092529297e+00 -1.115092158317565918e+00 2.276905030012130737e-01 -2.662204802036285400e-01 1.399032324552536011e-01
3.284000000000000000e+03 4.605676269531250000e+01 2.471189498901367188e+00 -1.120602726936340332e+00 2.876457571983337402e-01 -2.498870939016342163e-01 7.389283180236816406e-02
3.285000000000000000e+03 3.735224533081054688e+01 2.179510879516601562e+01 1.493627130985260010e-01 7.129889447242021561e-03 4.694778099656105042e-02 6.098005548119544983e-02
3.286000000000000000e+03 6.299977493286132812e+01 -4.496845245361328125e+00 2.524712324142456055e+00 1.391836833953857422e+01 4.932924270629882812e+00 -5.013942122459411621e-01
3.287000000000000000e+03 5.834249877929687500e+01 -2.729052543640136719e+01 -1.854954957962036133e-01 4.045384407043457031e+00 1.157966613769531250e+00 1.693037867546081543e+00
3.288000000000000000e+03 5.486393737792968750e+01 -2.499427795410156250e+01 -7.217738777399063110e-02 4.973931312561035156e+00 1.470526099205017090e+00 1.657327771186828613e+00
3.289000000000000000e+03 6.211137008666992188e+01 -2.567778396606445312e+01 -9.924975633621215820e-01 1.395838618278503418e+00 1.210023090243339539e-01 -7.615590691566467285e-01
3.290000000000000000e+03 6.608437347412109375e+01 -2.695953178405761719e+01 -2.180888891220092773e+00 6.628323554992675781e+00 1.334230422973632812e+00 -2.180919647216796875e+00
3.291000000000000000e+03 7.822842407226562500e+01 -1.794879436492919922e+00 -2.018058896064758301e-01 8.099654197692871094e+00 2.369354486465454102e+00 4.371857643127441406e-01
3.292000000000000000e+03 5.542020797729492188e+01 -2.759799957275390625e+01 -1.173122376203536987e-01 5.213641166687011719e+00 1.528898596763610840e+00 1.442086219787597656e+00
3.293000000000000000e+03 5.617574310302734375e+01 -2.910159111022949219e+01 8.030446767807006836e-01 6.027940273284912109e+00 2.049295425415039062e+00 1.735416531562805176e+00
3.294000000000000000e+03 5.576026535034179688e+01 -2.988033294677734375e+01 1.221375465393066406e+00 6.223370075225830078e+00 2.233423709869384766e+00 1.570981144905090332e+00
3.295000000000000000e+03 2.234526634216308594e+01 -1.450066471099853516e+01 -9.917932152748107910e-01 -2.922442555427551270e-01 -3.852112293243408203e-01 -2.709814310073852539e-01
3.296000000000000000e+03 2.179550361633300781e+01 -1.588258934020996094e+01 -6.041488647460937500e-01 -2.627769708633422852e-01 -2.600777447223663330e-01 -3.988628685474395752e-01
3.297000000000000000e+03 3.675232315063476562e+01 3.628350067138671875e+01 4.817526340484619141e-01 3.944525718688964844e-01 2.628615498542785645e-01 8.830633759498596191e-02
3.298000000000000000e+03 3.687632751464843750e+01 3.413444137573242188e+01 4.013609290122985840e-01 3.817377388477325439e-01 2.349296063184738159e-01 2.413688749074935913e-01
3.299000000000000000e+03 6.317904663085937500e+01 -2.249599075317382812e+01 2.542379379272460938e+00 6.382834434509277344e+00 2.677564144134521484e+00 -7.058842182159423828e-01
3.300000000000000000e+03 6.584156799316406250e+01 5.851562976837158203e+00 -2.968994379043579102e+00 -7.872099429368972778e-02 -9.143146276473999023e-01 6.634544134140014648e-01
3.301000000000000000e+03 5.646914291381835938e+01 -2.085668754577636719e+01 7.548103332519531250e-01 4.423408508300781250e+00 1.553465604782104492e+00 1.694423437118530273e+00
3.302000000000000000e+03 4.244473266601562500e+01 -1.448277187347412109e+01 -1.186656594276428223e+00 -2.335111647844314575e-01 -4.260503351688385010e-01 -3.828235566616058350e-01
3.303000000000000000e+03 4.349136352539062500e+01 -1.497030830383300781e+01 -8.231205344200134277e-01 -1.455158889293670654e-01 -2.905909419059753418e-01 -2.024130374193191528e-01
3.304000000000000000e+03 2.043991851806640625e+01 2.995640945434570312e+01 -1.481428593397140503e-01 -4.300913512706756592e-01 -1.734702587127685547e-01 1.647629141807556152e-01
3.305000000000000000e+03 7.129074096679687500e+00 3.542072296142578125e+01 2.247409373521804810e-01 -7.017697393894195557e-02 4.636918753385543823e-02 2.809960767626762390e-02
3.306000000000000000e+03 5.263050079345703125e+01 5.653498649597167969e+00 -4.533666372299194336e-01 -4.229023307561874390e-02 -1.486970633268356323e-01 -1.919913142919540405e-01
3.307000000000000000e+03 5.200139617919921875e+01 5.272594451904296875e+00 -4.263106584548950195e-01 -1.641401201486587524e-01 -1.771352440118789673e-01 -2.730192840099334717e-01
3.308000000000000000e+03 6.464315795898437500e+01 2.563225173950195312e+01 1.714559793472290039e+00 4.082869052886962891e+00 1.739228725433349609e+00 1.103293180465698242e+00
3.309000000000000000e+03 1.599134349822998047e+01 -9.220557212829589844e+00 -9.119376540184020996e-02 8.384324610233306885e-02 -2.205156022682785988e-03 4.427676647901535034e-02
3.310000000000000000e+03 5.628423690795898438e+01 9.746335983276367188e+00 3.502621948719024658e-01 5.000301361083984375e+00 1.605169057846069336e+00 -3.685415983200073242e-01
3.311000000000000000e+03 6.756555938720703125e+01 -3.058198738098144531e+01 2.229210615158081055e+00 5.180304050445556641e+00 2.222854375839233398e+00 -1.684280395507812500e+00
3.312000000000000000e+03 4.563700866699218750e+01 2.000885009765625000e+01 -1.127332150936126709e-01 7.477460503578186035e-01 1.905038505792617798e-01 3.050667345523834229e-01
3.313000000000000000e+03 7.587143707275390625e+01 -2.041592407226562500e+01 1.123108625411987305e+00 9.035876274108886719e+00 3.047695398330688477e+00 3.664669692516326904e-01
3.314000000000000000e+03 7.818584442138671875e+01 -1.860629844665527344e+01 1.251293569803237915e-01 7.867353916168212891e+00 2.397745132446289062e+00 8.695035576820373535e-01
3.315000000000000000e+03 4.005554580688476562e+01 8.457865715026855469e+00 -5.533130168914794922e-01 -9.816198945045471191e-01 -4.604798853397369385e-01 6.059720516204833984e-01
3.316000000000000000e+03 3.289106750488281250e+01 2.336842155456542969e+01 -1.498458832502365112e-01 7.193867862224578857e-02 -2.337216213345527649e-02 2.802622914314270020e-01
3.317000000000000000e+03 2.094606399536132812e+01 2.909626579284667969e+01 -3.720713779330253601e-02 -2.614602446556091309e-01 -8.960021287202835083e-02 2.619728744029998779e-01
3.318000000000000000e+03 5.870472717285156250e+01 1.125769138336181641e+01 1.469588398933410645e+00 6.796819210052490234e+00 2.479922294616699219e+00 -9.710043072700500488e-01
3.319000000000000000e+03 7.263661193847656250e+01 9.373353004455566406e+00 1.027082443237304688e+00 9.941165924072265625e+00 3.290474414825439453e+00 6.206351518630981445e-01
3.320000000000000000e+03 7.817164611816406250e+01 9.205164909362792969e+00 1.480832844972610474e-01 6.648130416870117188e+00 2.038864135742187500e+00 -6.154076457023620605e-01
3.321000000000000000e+03 5.975044250488281250e+01 -1.071765995025634766e+01 3.448554277420043945e-01 6.608992576599121094e+00 2.086154460906982422e+00 3.756659746170043945e+00
3.322000000000000000e+03 3.425439071655273438e+01 3.268757629394531250e+01 2.752654850482940674e-01 4.058630466461181641e-01 2.043385654687881470e-01 1.295798867940902710e-01
3.323000000000000000e+03 1.716507720947265625e+01 -1.696974182128906250e+01 -4.174728319048881531e-02 -1.708600670099258423e-02 -1.764998771250247955e-02 -3.818415999412536621e-01
3.324000000000000000e+03 5.195155715942382812e+01 3.066380500793457031e+00 -6.293262243270874023e-01 -1.129216775298118591e-01 -2.226743698120117188e-01 -1.184175089001655579e-01
3.325000000000000000e+03 1.721001434326171875e+01 -1.839342880249023438e+01 -1.897138804197311401e-01 -1.337925195693969727e-01 -9.705191850662231445e-02 -5.431765317916870117e-01
3.326000000000000000e+03 2.067591667175292969e+01 7.334089279174804688e+00 2.668595910072326660e-01 -1.090762391686439514e-01 4.733500257134437561e-02 1.461513042449951172e-01
3.327000000000000000e+03 4.093251419067382812e+01 -2.213524246215820312e+01 2.292954474687576294e-01 7.079182863235473633e-01 2.811641097068786621e-01 -2.159607782959938049e-02
3.328000000000000000e+03 6.550908660888671875e+01 -2.921870422363281250e+01 1.346459269523620605e+00 8.407006263732910156e+00 2.926039457321166992e+00 -2.443648815155029297e+00
3.329000000000000000e+03 6.536726379394531250e+01 -2.819322395324707031e+01 -5.721166133880615234e-01 7.298274993896484375e+00 2.017847537994384766e+00 -2.154373407363891602e+00
3.330000000000000000e+03 8.642495155334472656e+00 1.613644599914550781e+01 3.727067410945892334e-01 -3.696841746568679810e-02 1.007215008139610291e-01 2.706985771656036377e-01
3.331000000000000000e+03 8.231244087219238281e+00 1.466891384124755859e+01 2.468360662460327148e-01 -9.625630080699920654e-02 4.517392814159393311e-02 3.090198338031768799e-01
3.332000000000000000e+03 4.041218185424804688e+01 -1.963412666320800781e+01 3.986552059650421143e-01 5.352712869644165039e-01 2.801779508590698242e-01 -3.677569925785064697e-01
3.333000000000000000e+03 4.644530487060546875e+01 -1.903938293457031250e+01 5.774508118629455566e-01 2.089794635772705078e+00 8.001736402511596680e-01 6.167485713958740234e-01
3.334000000000000000e+03 2.760465812683105469e+01 -2.306466484069824219e+01 1.304625123739242554e-01 -1.223367601633071899e-01 2.437725430354475975e-03 -1.287356019020080566e-01
3.335000000000000000e+03 2.333991622924804688e+01 -2.723250389099121094e+01 5.362851619720458984e-01 -2.652616798877716064e-02 1.529276967048645020e-01 -2.052539587020874023e-01
3.336000000000000000e+03 5.074569702148437500e+01 -3.310708236694335938e+01 1.105671882629394531e+00 3.286753654479980469e+00 1.317727684974670410e+00 1.084332108497619629e+00
3.337000000000000000e+03 3.678223037719726562e+01 -1.129302883148193359e+01 -7.017406076192855835e-02 1.054495453834533691e+00 2.952964007854461670e-01 -2.106665223836898804e-01
3.338000000000000000e+03 5.865830230712890625e+01 -1.195757102966308594e+01 -4.090562164783477783e-01 3.927975177764892578e+00 1.055675625801086426e+00 2.920758008956909180e+00
3.339000000000000000e+03 5.533811950683593750e+01 -1.771028137207031250e+01 -6.212774515151977539e-01 2.044675350189208984e+00 4.270193874835968018e-01 4.533611238002777100e-01
3.340000000000000000e+03 4.803036117553710938e+01 -2.819251060485839844e+01 6.386856436729431152e-01 7.895097732543945312e-01 4.284586310386657715e-01 -7.046847939491271973e-01
3.341000000000000000e+03 1.827949881553649902e+00 2.440262413024902344e+01 -3.714780136942863464e-02 -4.635576903820037842e-01 -1.502116471529006958e-01 -4.091185517609119415e-03
3.342000000000000000e+03 6.579204559326171875e+01 -1.464804649353027344e+01 -2.024065256118774414e+00 4.937256336212158203e+00 8.739573955535888672e-01 6.920356154441833496e-01
3.343000000000000000e+03 6.165024566650390625e+01 -7.921503067016601562e+00 3.836935043334960938e+00 1.470799732208251953e+01 5.563479900360107422e+00 2.111424922943115234e+00
3.344000000000000000e+03 4.415663146972656250e+01 9.547130584716796875e+00 1.962633877992630005e-01 1.100445747375488281e+00 3.890127241611480713e-01 -1.042213812470436096e-01
3.345000000000000000e+03 1.823638558387756348e+00 2.274438667297363281e+01 -1.272073853760957718e-02 -4.557695388793945312e-01 -1.405470818281173706e-01 -4.129399731755256653e-02
3.346000000000000000e+03 6.413620471954345703e+00 2.477426147460937500e+01 -2.374881654977798462e-01 -7.163391113281250000e-01 -2.861481904983520508e-01 3.045952022075653076e-01
3.347000000000000000e+03 1.945439720153808594e+01 1.884438323974609375e+01 -2.747278511524200439e-01 -1.120112240314483643e-01 -1.160217151045799255e-01 6.541038304567337036e-02
3.348000000000000000e+03 2.002810478210449219e+01 1.850887107849121094e+01 -2.669158577919006348e-01 -1.370223313570022583e-01 -1.211814507842063904e-01 5.580346658825874329e-02
3.349000000000000000e+03 3.860189437866210938e+01 2.149209594726562500e+01 2.425995022058486938e-01 -4.099214076995849609e-02 6.048220768570899963e-02 5.158142745494842529e-02
3.350000000000000000e+03 3.915607070922851562e+01 1.958637237548828125e+01 3.355301916599273682e-01 -2.712967991828918457e-02 9.252015501260757446e-02 8.759865909814834595e-02
3.351000000000000000e+03 3.406395339965820312e+01 1.367945671081542969e+01 -2.791199982166290283e-01 -1.271779686212539673e-01 -1.218893900513648987e-01 3.576215803623199463e-01
3.352000000000000000e+03 3.548986816406250000e+01 1.296918773651123047e+01 -5.555443763732910156e-01 -5.252265334129333496e-01 -3.242312669754028320e-01 3.701510429382324219e-01
3.353000000000000000e+03 5.187420272827148438e+01 -2.574465942382812500e+01 -1.679923832416534424e-01 4.079868793487548828e-01 7.199835032224655151e-02 5.089421272277832031e-01
3.354000000000000000e+03 5.257100296020507812e+01 -2.652795982360839844e+01 3.176530897617340088e-01 1.871585488319396973e+00 6.567716002464294434e-01 1.177570223808288574e+00
3.355000000000000000e+03 4.428155136108398438e+01 -1.471119689941406250e+01 -9.944103360176086426e-01 -2.345711365342140198e-02 -3.053602576255798340e-01 -5.091373994946479797e-02
3.356000000000000000e+03 3.762272262573242188e+01 -3.349643707275390625e+01 4.332205951213836670e-01 9.493356347084045410e-01 4.147668480873107910e-01 -7.143716793507337570e-03
3.357000000000000000e+03 3.019123458862304688e+01 1.347412109375000000e+00 -1.121339559555053711e+00 3.777429163455963135e-01 -2.230789959430694580e-01 -5.589970201253890991e-02
3.358000000000000000e+03 4.665273284912109375e+01 2.455421829223632812e+01 4.914314746856689453e-01 1.817831277847290039e+00 6.927788257598876953e-01 2.279789745807647705e-01
3.359000000000000000e+03 6.047961807250976562e+01 1.955774497985839844e+01 -2.663041651248931885e-01 4.752002239227294922e+00 1.345709443092346191e+00 1.189680695533752441e+00
3.360000000000000000e+03 4.776301574707031250e+01 -7.333487033843994141e+00 -3.394538909196853638e-02 1.459384202957153320e+00 4.276316165924072266e-01 1.760156452655792236e-01
3.361000000000000000e+03 7.823670196533203125e+01 -4.814500331878662109e+00 2.454111874103546143e-01 8.048354148864746094e+00 2.488129615783691406e+00 4.942080080509185791e-01
3.362000000000000000e+03 4.176071548461914062e+01 -1.476644802093505859e+01 -1.008202672004699707e+00 -2.577099949121475220e-02 -3.101921081542968750e-01 -4.873095750808715820e-01
3.363000000000000000e+03 3.327505493164062500e+01 2.636043739318847656e+01 -8.708417415618896484e-02 2.569489181041717529e-01 5.095942690968513489e-02 1.153217479586601257e-01
3.364000000000000000e+03 3.465453720092773438e+01 2.511993408203125000e+01 -1.152734011411666870e-01 4.878949522972106934e-01 1.117864698171615601e-01 1.194215640425682068e-01
3.365000000000000000e+03 2.146255493164062500e+01 1.065689659118652344e+01 1.622053384780883789e-01 -1.156464442610740662e-01 1.396766956895589828e-02 1.603275239467620850e-01
3.366000000000000000e+03 6.455805206298828125e+01 2.703770065307617188e+01 1.720035910606384277e+00 4.803537845611572266e+00 1.957072138786315918e+00 1.344601631164550781e+00
3.367000000000000000e+03 6.384446716308593750e+01 2.700555610656738281e+01 1.737564921379089355e+00 6.072626113891601562e+00 2.343057394027709961e+00 1.875635266304016113e+00
3.368000000000000000e+03 4.999150466918945312e+01 5.091996669769287109e+00 -3.804958462715148926e-01 1.169777810573577881e-01 -7.905542105436325073e-02 -3.513587713241577148e-01
3.369000000000000000e+03 5.446212768554687500e+01 5.495095729827880859e+00 -7.131623625755310059e-01 1.893784403800964355e+00 3.541866242885589600e-01 -3.367269933223724365e-01
3.370000000000000000e+03 3.427016830444335938e+01 1.820692634582519531e+01 3.894037902355194092e-01 4.948271065950393677e-02 1.316659450531005859e-01 4.078488647937774658e-01
3.371000000000000000e+03 6.520999145507812500e+01 -1.670275115966796875e+01 -3.635536432266235352e+00 7.034915924072265625e+00 1.019813776016235352e+00 5.463806390762329102e-01
3.372000000000000000e+03 3.142714881896972656e+01 -2.834031105041503906e+01 4.267124533653259277e-01 1.774364113807678223e-01 1.812446564435958862e-01 -2.406847029924392700e-01
3.373000000000000000e+03 2.603132820129394531e+01 -3.181023788452148438e+01 8.661776036024093628e-02 -2.811259627342224121e-01 -5.835245922207832336e-02 -1.386061906814575195e-01
3.374000000000000000e+03 5.176842498779296875e+01 -2.652545928955078125e+01 3.513619005680084229e-01 9.959720373153686523e-01 4.042001962661743164e-01 4.696906208992004395e-01
3.375000000000000000e+03 1.188868403434753418e+00 2.669428110122680664e+00 2.125624567270278931e-03 3.108551725745201111e-02 9.963342919945716858e-03 -2.758311294019222260e-02
3.376000000000000000e+03 6.339497756958007812e+01 -1.804328727722167969e+01 -3.011053800582885742e-01 7.904121398925781250e+00 2.280904769897460938e+00 -2.991609573364257812e-01
3.377000000000000000e+03 1.082474708557128906e+01 -1.064546585083007812e+01 -1.180155202746391296e-01 -3.970196843147277832e-02 -4.731524735689163208e-02 -9.469468146562576294e-02
3.378000000000000000e+03 3.033891487121582031e+01 -1.062618541717529297e+01 -7.232882380485534668e-01 -9.712446331977844238e-01 -5.083598494529724121e-01 -3.725670278072357178e-01
3.379000000000000000e+03 3.638293075561523438e+01 -8.401740074157714844e+00 4.008289873600006104e-01 1.084994912147521973e+00 4.457471668720245361e-01 -5.080758333206176758e-01
3.380000000000000000e+03 7.681103229522705078e+00 -2.354812812805175781e+01 1.690748780965805054e-01 1.018629074096679688e-01 8.128133416175842285e-02 -7.589043676853179932e-02
3.381000000000000000e+03 6.452252197265625000e+01 -4.640462875366210938e+00 2.443926811218261719e+00 1.170984745025634766e+01 4.246132373809814453e+00 1.103439092636108398e+00
3.382000000000000000e+03 6.400428009033203125e+01 -3.561799764633178711e+00 2.957928419113159180e+00 1.090037727355957031e+01 4.157491683959960938e+00 7.942675948143005371e-01
3.383000000000000000e+03 8.445753097534179688e+00 1.122357845306396484e+01 -1.864259988069534302e-01 -2.449342161417007446e-01 -1.294080615043640137e-01 3.231575787067413330e-01
3.384000000000000000e+03 1.315093517303466797e+01 1.925891876220703125e+01 9.212297201156616211e-02 3.598144054412841797e-01 1.355812102556228638e-01 4.508396685123443604e-01
3.385000000000000000e+03 6.188180541992187500e+01 -4.159513473510742188e+01 -2.404332458972930908e-01 4.768042266368865967e-01 7.091128826141357422e-02 1.608668863773345947e-01
3.386000000000000000e+03 5.233251953125000000e+01 2.759315872192382812e+01 1.020798325538635254e+00 4.802789211273193359e+00 1.747076153755187988e+00 -7.288965582847595215e-01
3.387000000000000000e+03 4.755153274536132812e+01 2.397995185852050781e+01 4.617870450019836426e-01 1.873237013816833496e+00 7.005072236061096191e-01 1.037989091128110886e-02
3.388000000000000000e+03 5.957311248779296875e+01 -1.114344596862792969e+01 -2.825478315353393555e-01 6.486888885498046875e+00 1.861302256584167480e+00 3.383648633956909180e+00
3.389000000000000000e+03 5.730915069580078125e+01 -3.770268630981445312e+01 -7.304173111915588379e-01 2.358198642730712891e+00 4.883343875408172607e-01 -6.301421523094177246e-01
3.390000000000000000e+03 5.421179580688476562e+01 -3.469805526733398438e+01 1.074534535408020020e+00 4.858509063720703125e+00 1.779913067817687988e+00 9.663489460945129395e-01
3.391000000000000000e+03 1.025903034210205078e+01 -1.131301116943359375e+01 -1.276067942380905151e-01 -7.396055012941360474e-02 -6.047020480036735535e-02 -9.406848996877670288e-02
3.392000000000000000e+03 9.100187301635742188e+00 -1.163224029541015625e+01 -1.522036194801330566e-01 -1.402090340852737427e-01 -8.772379904985427856e-02 -7.091188430786132812e-02
3.393000000000000000e+03 1.195431137084960938e+01 -3.760500335693359375e+01 2.421105504035949707e-01 -2.131875753402709961e-01 8.676894940435886383e-03 -1.947603970766067505e-01
3.394000000000000000e+03 1.280153751373291016e+01 -3.834192657470703125e+01 3.303981721401214600e-01 -1.253986507654190063e-01 6.149985268712043762e-02 -1.721834540367126465e-01
3.395000000000000000e+03 4.613825798034667969e+00 -2.161386680603027344e+01 1.608718633651733398e-01 -8.599984645843505859e-02 2.246160246431827545e-02 -9.120095521211624146e-02
3.396000000000000000e+03 2.130982780456542969e+01 2.524240684509277344e+01 4.801217019557952881e-01 -5.521015450358390808e-02 1.274734735488891602e-01 4.982405602931976318e-01
3.397000000000000000e+03 7.892490863800048828e+00 2.273583793640136719e+01 -2.649402618408203125e-01 -3.449188768863677979e-01 -1.829577386379241943e-01 1.883704960346221924e-01
3.398000000000000000e+03 4.033006668090820312e+01 -2.377451324462890625e+01 1.417626887559890747e-01 7.699139714241027832e-01 2.735030055046081543e-01 2.120510935783386230e-01
3.399000000000000000e+03 4.134333419799804688e+01 -2.707912063598632812e+01 3.601529300212860107e-01 7.858507633209228516e-01 3.438011109828948975e-01 4.191356301307678223e-01
3.400000000000000000e+03 4.186680984497070312e+01 -2.503742599487304688e+01 3.139110207557678223e-01 7.499524354934692383e-01 3.191590309143066406e-01 2.835319042205810547e-01
3.401000000000000000e+03 5.347292709350585938e+01 -1.521985244750976562e+01 -4.779275134205818176e-02 -9.677447378635406494e-02 -4.337016865611076355e-02 2.201953679323196411e-01
3.402000000000000000e+03 3.595244216918945312e+01 1.378121948242187500e+01 -1.987426429986953735e-01 -5.586830377578735352e-01 -2.272277027368545532e-01 3.075654208660125732e-01
3.403000000000000000e+03 6.912638092041015625e+01 -1.339358997344970703e+01 2.715384960174560547e-01 1.145937561988830566e+00 4.252428412437438965e-01 -2.517297744750976562e+00
3.404000000000000000e+03 6.190741348266601562e+01 -9.723843574523925781e+00 1.121129035949707031e+00 1.163282108306884766e+01 3.826184988021850586e+00 9.971478581428527832e-01
3.405000000000000000e+03 9.554889678955078125e+00 8.813188552856445312e+00 -3.973684310913085938e-01 -3.900152742862701416e-01 -2.362151145935058594e-01 2.867315709590911865e-01
3.406000000000000000e+03 5.600334548950195312e+01 8.845181465148925781e+00 -3.847863152623176575e-02 4.602557182312011719e+00 1.369223594665527344e+00 -3.316096961498260498e-01
3.407000000000000000e+03 4.988744735717773438e+01 -1.230335903167724609e+01 -4.089010059833526611e-01 6.477596759796142578e-01 7.165760546922683716e-02 -1.093795597553253174e-01
3.408000000000000000e+03 1.360972595214843750e+01 6.012238502502441406e+00 -5.368658900260925293e-01 -3.308431208133697510e-01 -2.603127062320709229e-01 4.130351841449737549e-01
3.409000000000000000e+03 1.492533779144287109e+01 4.370521545410156250e+00 -4.061919152736663818e-01 -1.550818979740142822e-02 -1.265100389719009399e-01 4.655050635337829590e-01
3.410000000000000000e+03 3.996086120605468750e+01 -2.643915653228759766e+00 -1.129739284515380859e+00 -1.572358012199401855e-01 -3.860925436019897461e-01 1.408236026763916016e-01
3.411000000000000000e+03 4.226909637451171875e+01 1.975239562988281250e+01 1.663067042827606201e-01 4.527480006217956543e-01 1.857164055109024048e-01 1.894902735948562622e-01
3.412000000000000000e+03 3.287867736816406250e+01 -3.048687553405761719e+01 3.965483307838439941e-01 2.546623349189758301e-01 1.953631937503814697e-01 -1.872338950634002686e-01
3.413000000000000000e+03 3.697899627685546875e+01 -3.306135940551757812e+01 4.580925405025482178e-01 7.533740401268005371e-01 3.634399771690368652e-01 2.956789359450340271e-02
3.414000000000000000e+03 6.442311859130859375e+01 2.198288536071777344e+01 -1.767792701721191406e+00 2.475732803344726562e+00 2.123820185661315918e-01 2.034239768981933594e+00
3.415000000000000000e+03 2.802461433410644531e+01 2.996672630310058594e+01 2.797523140907287598e-01 -1.838701665401458740e-01 2.876465022563934326e-02 3.329359889030456543e-01
3.416000000000000000e+03 2.770632934570312500e+01 2.912573432922363281e+01 1.854682862758636475e-01 -2.744470834732055664e-01 -2.669363655149936676e-02 3.321561813354492188e-01
3.417000000000000000e+03 3.089719581604003906e+01 -2.774944877624511719e+01 4.253982007503509521e-01 1.418465077877044678e-01 1.701734066009521484e-01 -2.606793642044067383e-01
3.418000000000000000e+03 2.638094711303710938e+01 -3.283184814453125000e+01 4.234993085265159607e-02 -2.800077497959136963e-01 -7.129734754562377930e-02 -8.963638544082641602e-02
3.419000000000000000e+03 3.536755752563476562e+01 1.442161273956298828e+01 2.427748963236808777e-02 -4.010907709598541260e-01 -1.130439862608909607e-01 3.072517216205596924e-01
3.420000000000000000e+03 2.282351303100585938e+01 1.674582862854003906e+01 -2.792206108570098877e-01 -1.301137506961822510e-01 -1.228003129363059998e-01 1.497207432985305786e-01
3.421000000000000000e+03 3.169292449951171875e+01 1.235245227813720703e+01 -2.327088117599487305e-01 4.729186296463012695e-01 7.206294685602188110e-02 4.124450385570526123e-01
3.422000000000000000e+03 2.084068870544433594e+01 -1.387121486663818359e+01 -7.539178729057312012e-01 -9.513313323259353638e-02 -2.547152936458587646e-01 2.724765613675117493e-02
3.423000000000000000e+03 1.866640472412109375e+01 -1.767183685302734375e+01 -2.305279523134231567e-01 -1.156951934099197388e-01 -1.038669422268867493e-01 -5.264707207679748535e-01
3.424000000000000000e+03 3.615852737426757812e+01 -2.846337318420410156e+00 -6.796910762786865234e-01 3.030327856540679932e-01 -1.129974946379661560e-01 -1.545689702033996582e-01
3.425000000000000000e+03 2.030048561096191406e+01 2.822346878051757812e+01 5.566652864217758179e-02 -3.856174647808074951e-01 -9.898528456687927246e-02 2.423892468214035034e-01
3.426000000000000000e+03 2.032392120361328125e+01 2.741543197631835938e+01 1.988464891910552979e-01 -1.663346588611602783e-01 9.753546677529811859e-03 4.286625981330871582e-01
3.427000000000000000e+03 3.543703842163085938e+01 -3.075711727142333984e+00 -6.051279306411743164e-01 2.702674269676208496e-01 -1.004581600427627563e-01 -2.403697520494461060e-01
3.428000000000000000e+03 8.568664550781250000e+00 -2.492321205139160156e+01 4.790368955582380295e-03 -5.766370799392461777e-03 -2.928005706053227186e-04 -1.365544348955154419e-01
3.429000000000000000e+03 4.050451660156250000e+01 -1.715983009338378906e+01 7.964844256639480591e-02 3.679829239845275879e-01 1.342894136905670166e-01 -4.639592766761779785e-01
3.430000000000000000e+03 7.773172760009765625e+01 -9.889820098876953125e+00 6.425889581441879272e-02 8.973802566528320312e+00 2.711418390274047852e+00 -1.189833998680114746e+00
3.431000000000000000e+03 3.557836151123046875e+01 -8.223136901855468750e+00 2.101847231388092041e-01 6.642802357673645020e-01 2.623395025730133057e-01 -5.226779580116271973e-01
3.432000000000000000e+03 3.097209739685058594e+01 -1.114213466644287109e+01 -6.615914702415466309e-01 -6.714548468589782715e-01 -3.999139070510864258e-01 -2.158931344747543335e-01
3.433000000000000000e+03 7.666582489013671875e+01 -2.426616477966308594e+01 3.257499933242797852e-01 8.398046493530273438e+00 2.617138862609863281e+00 -7.412974238395690918e-01
3.434000000000000000e+03 4.555635452270507812e+01 -1.941811370849609375e+01 6.562705636024475098e-01 1.426217675209045410e+00 6.247465014457702637e-01 3.107825219631195068e-01
3.435000000000000000e+03 5.015887069702148438e+01 2.350320053100585938e+01 8.669222146272659302e-02 2.899143695831298828e+00 8.957507610321044922e-01 -5.798781514167785645e-01
3.436000000000000000e+03 5.351870727539062500e+01 3.228038549423217773e+00 -5.290191769599914551e-01 3.857635855674743652e-01 -4.297667741775512695e-02 -3.194482326507568359e-01
3.437000000000000000e+03 6.804775238037109375e+01 -1.346466064453125000e+01 2.421905249357223511e-01 2.082697868347167969e+00 6.974664926528930664e-01 -1.732066273689270020e+00
3.438000000000000000e+03 4.275883865356445312e+01 -2.585382699966430664e+00 -1.265407204627990723e+00 -9.699810296297073364e-02 -4.087215960025787354e-01 -7.970124483108520508e-02
3.439000000000000000e+03 5.489073181152343750e+01 -2.570054626464843750e+01 -3.219461441040039062e-01 4.966073036193847656e+00 1.393238067626953125e+00 1.810130953788757324e+00
3.440000000000000000e+03 5.814202117919921875e+01 -2.609412956237792969e+01 -7.146161198616027832e-01 4.284679889678955078e+00 1.071019172668457031e+00 2.023923158645629883e+00
3.441000000000000000e+03 6.529085540771484375e+01 -1.118020725250244141e+01 7.550121545791625977e-01 7.572922706604003906e+00 2.498380422592163086e+00 -1.471343278884887695e+00
3.442000000000000000e+03 5.595780181884765625e+01 1.956745338439941406e+01 2.611647546291351318e-02 3.256922006607055664e+00 9.849115610122680664e-01 -1.875424265861511230e+00
3.443000000000000000e+03 2.679713058471679688e+01 2.599943161010742188e+00 -7.318986654281616211e-01 1.309255957603454590e-01 -1.802919209003448486e-01 2.314903140068054199e-01
3.444000000000000000e+03 4.786659240722656250e+01 1.998452949523925781e+01 -2.205569483339786530e-02 4.465045928955078125e-01 1.273346692323684692e-01 -2.614642679691314697e-01
3.445000000000000000e+03 4.672315216064453125e+01 1.998943710327148438e+01 -1.137285307049751282e-01 6.010873913764953613e-01 1.462076604366302490e-01 1.497156023979187012e-01
3.446000000000000000e+03 3.533654785156250000e+01 2.142899322509765625e+01 7.514672726392745972e-02 1.345994323492050171e-01 6.292384862899780273e-02 2.228015065193176270e-01
3.447000000000000000e+03 6.245116424560546875e+01 -7.976454734802246094e+00 3.114397525787353516e+00 1.313865947723388672e+01 4.875916957855224609e+00 5.346791148185729980e-01
3.448000000000000000e+03 4.686174774169921875e+01 2.377287292480468750e+01 4.906595647335052490e-01 1.629489064216613770e+00 6.360446214675903320e-01 1.947472244501113892e-01
3.449000000000000000e+03 5.491531753540039062e+01 -1.472264003753662109e+01 -1.062978431582450867e-02 6.005955338478088379e-01 1.769897192716598511e-01 4.237237572669982910e-01
3.450000000000000000e+03 4.795663452148437500e+01 -1.651393127441406250e+01 1.895488798618316650e-01 1.588905692100524902e+00 5.335363745689392090e-01 7.275765538215637207e-01
3.451000000000000000e+03 4.628451919555664062e+01 -1.589313125610351562e+01 -3.136410415172576904e-01 1.085517168045043945e+00 2.315628379583358765e-01 2.812991142272949219e-01
3.452000000000000000e+03 4.961732101440429688e+01 -2.968587875366210938e+01 8.368699550628662109e-01 1.585270524024963379e+00 7.266421318054199219e-01 -4.225723147392272949e-01
3.453000000000000000e+03 4.980809783935546875e+01 -3.029149627685546875e+01 8.070061206817626953e-01 1.896433472633361816e+00 8.110318779945373535e-01 -2.515271306037902832e-01
3.454000000000000000e+03 5.122147369384765625e+01 -5.725235462188720703e+00 -6.714128255844116211e-01 -4.323226809501647949e-01 -3.311206400394439697e-01 8.649500608444213867e-01
3.455000000000000000e+03 5.050695800781250000e+01 -7.169259071350097656e+00 -6.317425370216369629e-01 1.852254942059516907e-02 -1.839659959077835083e-01 6.240887045860290527e-01
3.456000000000000000e+03 6.416013336181640625e+01 -2.638695716857910156e+01 -2.416482210159301758e+00 6.090358257293701172e+00 1.102162837982177734e+00 -1.771129250526428223e+00
3.457000000000000000e+03 5.167047882080078125e+01 -1.391306972503662109e+01 -8.791970461606979370e-02 -6.049462407827377319e-02 -4.452429711818695068e-02 1.531739532947540283e-01
3.458000000000000000e+03 3.202870559692382812e+01 1.676447296142578125e+01 6.344235539436340332e-01 6.780534982681274414e-01 3.937431275844573975e-01 4.596712291240692139e-01
3.459000000000000000e+03 4.743781661987304688e+01 2.496143341064453125e+00 -1.061585545539855957e+00 2.728984057903289795e-01 -2.366061210632324219e-01 -1.079237833619117737e-02
3.460000000000000000e+03 4.904832458496093750e+01 4.447707176208496094e+00 -5.758700966835021973e-01 2.592276334762573242e-01 -9.499274194240570068e-02 -2.126681059598922729e-01
3.461000000000000000e+03 6.591145324707031250e+01 -2.864686965942382812e+01 1.307758390903472900e-01 6.988767623901367188e+00 2.135863065719604492e+00 -1.888558268547058105e+00
3.462000000000000000e+03 6.672911071777343750e+01 -3.018141555786132812e+01 2.294906139373779297e+00 6.219495773315429688e+00 2.554320573806762695e+00 -2.157460927963256836e+00
3.463000000000000000e+03 1.871298408508300781e+01 4.280179500579833984e+00 -4.728918075561523438e-01 -5.024830345064401627e-03 -1.433749943971633911e-01 2.691370248794555664e-01
3.464000000000000000e+03 2.004578971862792969e+01 5.125868320465087891e+00 -2.427310347557067871e-01 -7.397667318582534790e-02 -9.501231461763381958e-02 1.692828387022018433e-01
3.465000000000000000e+03 1.126524925231933594e+00 -2.667893171310424805e+00 2.673724666237831116e-03 1.086208969354629517e-02 4.060744307935237885e-03 9.431053884327411652e-03
3.466000000000000000e+03 3.405726242065429688e+01 1.444032382965087891e+01 6.343628279864788055e-03 -8.916190266609191895e-02 -2.484548278152942657e-02 3.625057935714721680e-01
3.467000000000000000e+03 5.414500808715820312e+01 -1.018830490112304688e+01 -1.129580974578857422e+00 -8.113778829574584961e-01 -5.822876691818237305e-01 4.414983987808227539e-01
3.468000000000000000e+03 5.505655288696289062e+01 -1.142562675476074219e+01 -4.759447872638702393e-01 -5.428528189659118652e-01 -3.056392967700958252e-01 4.552793800830841064e-01
3.469000000000000000e+03 2.292988777160644531e+01 1.352305126190185547e+01 -8.467465639114379883e-02 -1.251565068960189819e-01 -6.294935196638107300e-02 7.672921568155288696e-02
3.470000000000000000e+03 2.336645698547363281e+01 1.645422935485839844e+01 -2.863442003726959229e-01 -1.231573671102523804e-01 -1.228504702448844910e-01 1.664759814739227295e-01
3.471000000000000000e+03 6.465985107421875000e+01 5.504780292510986328e+00 -2.546956539154052734e+00 2.084534883499145508e+00 -1.387264877557754517e-01 -6.934962272644042969e-01
3.472000000000000000e+03 6.548966979980468750e+01 3.164590835571289062e+01 5.646224617958068848e-01 4.400016784667968750e+00 1.489391803741455078e+00 2.545886635780334473e-01
3.473000000000000000e+03 6.529136657714843750e+01 3.246445465087890625e+01 4.597244560718536377e-01 4.345536231994628906e+00 1.441578149795532227e+00 2.319091111421585083e-01
3.474000000000000000e+03 4.523249435424804688e+01 -2.173134422302246094e+01 5.584324002265930176e-01 1.380973815917968750e+00 5.818218588829040527e-01 8.972826600074768066e-02
3.475000000000000000e+03 6.529364776611328125e+01 -2.232175350189208984e+00 2.928550481796264648e+00 7.787218570709228516e+00 3.214730739593505859e+00 2.458109617233276367e+00
3.476000000000000000e+03 2.972229576110839844e+01 -1.143292999267578125e+01 -8.142644166946411133e-01 -9.912788867950439453e-01 -5.416629910469055176e-01 -4.520976841449737549e-01
3.477000000000000000e+03 3.588539123535156250e+01 -9.991771697998046875e+00 2.847502231597900391e-01 8.642931580543518066e-01 3.447130322456359863e-01 -2.275763005018234253e-01
3.478000000000000000e+03 6.041073608398437500e+01 -2.337583160400390625e+01 1.702079176902770996e+00 2.783287763595581055e+00 1.345610022544860840e+00 1.507724642753601074e+00
3.479000000000000000e+03 3.779867935180664062e+01 -3.503497695922851562e+01 3.469707369804382324e-01 8.741376996040344238e-01 3.663325309753417969e-01 -4.659554734826087952e-02
3.480000000000000000e+03 6.007951736450195312e+01 1.889624786376953125e+01 4.737108349800109863e-01 5.007086753845214844e+00 1.644239306449890137e+00 7.440569400787353516e-01
3.481000000000000000e+03 2.784559249877929688e+01 6.648052692413330078e+00 2.629265785217285156e-01 5.130624771118164062e-01 2.327967137098312378e-01 1.151687800884246826e-01
3.482000000000000000e+03 2.715785789489746094e+01 6.845235824584960938e+00 2.465467154979705811e-01 3.491365909576416016e-01 1.787049919366836548e-01 1.445616036653518677e-01
3.483000000000000000e+03 1.034745025634765625e+01 1.799845314025878906e+01 3.514871895313262939e-01 2.246466428041458130e-01 1.728401482105255127e-01 2.767396569252014160e-01
3.484000000000000000e+03 2.811144590377807617e+00 -1.938510704040527344e+01 3.919487353414297104e-03 -1.104193627834320068e-01 -3.194996342062950134e-02 -1.511237621307373047e-01
3.485000000000000000e+03 2.512167692184448242e+00 -2.198470878601074219e+01 5.889111757278442383e-02 -1.559316068887710571e-01 -2.911214530467987061e-02 -6.704005599021911621e-02
3.486000000000000000e+03 5.851446914672851562e+01 4.096197128295898438e+01 3.146706819534301758e-01 1.143427610397338867e+00 4.374294877052307129e-01 5.344335362315177917e-02
3.487000000000000000e+03 2.306240844726562500e+01 -1.486497879028320312e+01 -9.741014838218688965e-01 -3.513085246086120605e-01 -3.976230025291442871e-01 -3.120797276496887207e-01
3.488000000000000000e+03 1.405442428588867188e+01 3.634445571899414062e+01 1.535823196172714233e-01 -6.639533489942550659e-02 2.615609392523765564e-02 1.417372226715087891e-01
3.489000000000000000e+03 1.304634761810302734e+01 4.149674987792968750e+01 3.856148570775985718e-02 -1.668886654078960419e-02 6.561785470694303513e-03 3.587795794010162354e-02
3.490000000000000000e+03 7.356388092041015625e+01 -5.677947402000427246e-01 -2.520893514156341553e-01 4.224310874938964844e+00 1.191666483879089355e+00 -9.107776880264282227e-01
3.491000000000000000e+03 2.828490066528320312e+01 1.404886627197265625e+01 -1.131017804145812988e-01 2.184326201677322388e-01 3.159924969077110291e-02 3.645781278610229492e-01
3.492000000000000000e+03 1.562159824371337891e+01 -8.313532829284667969e+00 -4.887394234538078308e-02 7.066996395587921143e-02 6.538805551826953888e-03 2.681298926472663879e-02
3.493000000000000000e+03 1.439697170257568359e+01 -1.307313823699951172e+01 -6.727583706378936768e-02 2.573325932025909424e-01 5.701702833175659180e-02 -6.993489712476730347e-02
3.494000000000000000e+03 6.774506378173828125e+01 -1.257706260681152344e+01 1.091689825057983398e+00 2.941780090332031250e+00 1.210041046142578125e+00 -1.805873036384582520e+00
3.495000000000000000e+03 6.830670928955078125e+01 -1.304354572296142578e+01 6.593098044395446777e-01 2.200383186340332031e+00 8.579078316688537598e-01 -2.043265342712402344e+00
3.496000000000000000e+03 2.368433761596679688e+01 2.896047019958496094e+01 3.638701140880584717e-01 5.347089767456054688e-01 2.695737481117248535e-01 2.866534292697906494e-01
3.497000000000000000e+03 1.663562774658203125e+01 -2.622796630859375000e+01 1.898639798164367676e-01 -3.447205722332000732e-01 -4.645697399973869324e-02 -3.105012476444244385e-01
3.498000000000000000e+03 1.587905406951904297e+01 -2.575711822509765625e+01 1.366221457719802856e-01 -4.875077009201049805e-01 -1.052656620740890503e-01 -3.357235789299011230e-01
3.499000000000000000e+03 4.898484039306640625e+01 -8.631228446960449219e+00 2.717147395014762878e-02 8.469116091728210449e-01 2.622249126434326172e-01 1.619317829608917236e-01
3.500000000000000000e+03 7.398500061035156250e+01 -1.357188892364501953e+01 -9.537464976310729980e-01 4.483307361602783203e+00 1.058868288993835449e+00 4.047466218471527100e-01
3.501000000000000000e+03 7.756410217285156250e+01 -1.075083446502685547e+01 -5.146676301956176758e-01 9.083644866943359375e+00 2.570693016052246094e+00 -9.850720167160034180e-01
3.502000000000000000e+03 1.637969207763671875e+01 -2.090475082397460938e+01 -5.274292230606079102e-01 -3.656630516052246094e-01 -2.679276764392852783e-01 -4.423401951789855957e-01
3.503000000000000000e+03 5.779434585571289062e+01 2.387755155563354492e+00 -6.252236962318420410e-01 4.404976844787597656e+00 1.133926033973693848e+00 -2.825447797775268555e+00
3.504000000000000000e+03 5.700626373291015625e+01 3.219902038574218750e+00 -8.401135802268981934e-01 3.617514610290527344e+00 8.332203626632690430e-01 -2.173554897308349609e+00
3.505000000000000000e+03 1.254238796234130859e+01 1.939166450500488281e+01 1.780895888805389404e-01 3.588204681873321533e-01 1.610730141401290894e-01 4.224610328674316406e-01
3.506000000000000000e+03 1.241853618621826172e+01 1.879729652404785156e+01 2.596958279609680176e-01 3.608072102069854736e-01 1.861509233713150024e-01 4.049262404441833496e-01
3.507000000000000000e+03 6.342560195922851562e+01 2.112992668151855469e+01 -2.486419200897216797e+00 3.365976333618164062e+00 2.638671696186065674e-01 2.591252326965332031e+00
3.508000000000000000e+03 6.057904815673828125e+01 2.229773521423339844e+01 -2.221868038177490234e+00 3.037129163742065430e+00 2.445783168077468872e-01 2.229480743408203125e+00
3.509000000000000000e+03 1.144988441467285156e+01 3.880387496948242188e+01 5.425342544913291931e-02 3.573713824152946472e-02 2.699716947972774506e-02 1.065064668655395508e-01
3.510000000000000000e+03 2.287866020202636719e+01 2.882386970520019531e+01 3.166320621967315674e-01 3.013881742954254150e-01 1.854060739278793335e-01 3.140267133712768555e-01
3.511000000000000000e+03 4.708824920654296875e+01 -4.218637943267822266e+00 -7.828406095504760742e-01 4.205554723739624023e-01 -1.086855456233024597e-01 2.154917120933532715e-01
3.512000000000000000e+03 4.880825805664062500e+01 -1.204110240936279297e+01 -5.582596659660339355e-01 1.099463820457458496e+00 1.623612344264984131e-01 -1.804927736520767212e-01
3.513000000000000000e+03 4.874691009521484375e+01 -1.033878707885742188e+01 -2.868761308491230011e-03 1.122985482215881348e+00 3.360350131988525391e-01 -1.825337409973144531e-01
3.514000000000000000e+03 6.570394134521484375e+01 -1.619285202026367188e+01 -3.388678789138793945e+00 5.057530879974365234e+00 5.006555914878845215e-01 1.519118309020996094e+00
3.515000000000000000e+03 1.385545349121093750e+01 4.093002319335937500e+00 -3.320965766906738281e-01 -1.187937706708908081e-01 -1.352671086788177490e-01 3.832463920116424561e-01
3.516000000000000000e+03 4.193011856079101562e+01 -2.660852813720703125e+01 3.861692547798156738e-01 7.046374082565307617e-01 3.272419869899749756e-01 3.790195584297180176e-01
3.517000000000000000e+03 4.412660980224609375e+01 -2.414809226989746094e+01 3.346085250377655029e-01 8.949552178382873535e-01 3.688691258430480957e-01 9.774124622344970703e-02
3.518000000000000000e+03 2.554303169250488281e+01 3.043225479125976562e+01 1.480703949928283691e-01 4.358586966991424561e-01 1.751787215471267700e-01 4.733023345470428467e-01
3.519000000000000000e+03 2.624425697326660156e+01 3.002100563049316406e+01 3.084664642810821533e-01 2.820513546466827393e-01 1.771553456783294678e-01 5.995667576789855957e-01
3.520000000000000000e+03 3.298108673095703125e+01 1.145906329154968262e+00 -2.118466615676879883e+00 2.702731080353260040e-02 -6.274317502975463867e-01 -4.474841058254241943e-01
3.521000000000000000e+03 2.461950302124023438e+00 -1.045815753936767578e+01 -3.391251666471362114e-03 2.869630418717861176e-02 7.591515779495239258e-03 2.644285187125205994e-02
3.522000000000000000e+03 8.024625778198242188e+00 -1.289071083068847656e+01 -2.241610288619995117e-01 -1.644087284803390503e-01 -1.165709272027015686e-01 -1.600643396377563477e-01
3.523000000000000000e+03 2.040688514709472656e+01 2.580008697509765625e+01 5.845072865486145020e-01 -9.483421593904495239e-02 1.469019204378128052e-01 5.043326020240783691e-01
3.524000000000000000e+03 4.841250228881835938e+01 2.056353378295898438e+01 7.620504498481750488e-02 8.865900635719299316e-01 2.888385355472564697e-01 -5.959983468055725098e-01
3.525000000000000000e+03 4.964744567871093750e+01 1.942500305175781250e+01 -7.621042430400848389e-02 1.426290273666381836e+00 4.050239622592926025e-01 -1.313852310180664062e+00
3.526000000000000000e+03 4.851755523681640625e+01 -1.566201877593994141e+01 -2.918340265750885010e-01 1.212954163551330566e+00 2.763360142707824707e-01 6.567640304565429688e-01
3.527000000000000000e+03 6.303218460083007812e+01 -2.105389404296875000e+01 2.183526754379272461e+00 7.096371173858642578e+00 2.783969402313232422e+00 -7.934571504592895508e-01
3.528000000000000000e+03 6.140332031250000000e+01 -2.568239212036132812e+01 -6.430321931838989258e-01 4.157287180423736572e-01 -6.819104403257369995e-02 9.314233064651489258e-01
3.529000000000000000e+03 7.208065032958984375e+01 5.448739528656005859e-01 7.280682325363159180e-01 2.154967784881591797e+00 8.649108409881591797e-01 3.999586999416351318e-01
3.530000000000000000e+03 4.817478561401367188e+01 2.631734848022460938e+00 -1.007604122161865234e+00 2.553571164608001709e-01 -2.256740927696228027e-01 -3.391020745038986206e-02
3.531000000000000000e+03 8.706372261047363281e+00 -3.814072799682617188e+01 1.819618493318557739e-01 -3.384415507316589355e-01 -4.694391414523124695e-02 -2.158178985118865967e-01
3.532000000000000000e+03 1.237801742553710938e+01 3.729438781738281250e+01 1.411371231079101562e-01 1.016694121062755585e-02 4.539122059941291809e-02 1.502784043550491333e-01
3.533000000000000000e+03 5.972827529907226562e+01 3.832139968872070312e+01 2.491404116153717041e-01 7.311056852340698242e-01 2.940738201141357422e-01 -4.570057615637779236e-02
3.534000000000000000e+03 6.168520355224609375e+01 3.791637802124023438e+01 -1.053940132260322571e-01 1.665011525154113770e+00 4.678852558135986328e-01 -3.488903343677520752e-01
3.535000000000000000e+03 1.807656526565551758e+00 -4.105462265014648438e+01 4.967078100889921188e-03 -5.464706420898437500e-01 -1.624510586261749268e-01 -1.690367981791496277e-02
3.536000000000000000e+03 4.051059341430664062e+01 -3.867877197265625000e+01 4.259786605834960938e-01 5.164243578910827637e-01 2.827208936214447021e-01 -2.277570813894271851e-01
3.537000000000000000e+03 4.068306732177734375e+01 3.626519012451171875e+01 6.124059557914733887e-01 5.553060173988342285e-01 3.503135740756988525e-01 -2.335294187068939209e-01
3.538000000000000000e+03 9.442560195922851562e+00 4.882668495178222656e+00 -2.373055517673492432e-01 -1.336944252252578735e-01 -1.112999916076660156e-01 7.727546244859695435e-02
3.539000000000000000e+03 3.860311889648437500e+01 -1.905813574790954590e+00 -7.471862435340881348e-01 1.039866507053375244e-01 -1.929598748683929443e-01 1.621242314577102661e-01
3.540000000000000000e+03 5.250652313232421875e+01 2.887311172485351562e+01 6.857108473777770996e-01 5.245985984802246094e+00 1.779508948326110840e+00 -6.406882405281066895e-01
3.541000000000000000e+03 5.181948852539062500e+01 2.616944694519042969e+01 9.169000983238220215e-01 4.043287754058837891e+00 1.488056421279907227e+00 -4.884044229984283447e-01
3.542000000000000000e+03 2.906296348571777344e+01 2.346497058868408203e+00 -8.278429508209228516e-01 3.380438983440399170e-01 -1.469397246837615967e-01 1.034273728728294373e-01
3.543000000000000000e+03 1.128538799285888672e+01 -2.513199615478515625e+01 -2.231069467961788177e-02 -2.731415033340454102e-01 -8.863566070795059204e-02 -2.901521623134613037e-01
3.544000000000000000e+03 1.259979724884033203e+01 -2.904834365844726562e+01 -1.953180581331253052e-01 -5.216911435127258301e-01 -2.151027619838714600e-01 -2.552943825721740723e-01
3.545000000000000000e+03 1.543483161926269531e+01 -2.166835546493530273e+00 -3.998741507530212402e-03 2.027139533311128616e-03 -5.914806388318538666e-04 -1.859044842422008514e-02
3.546000000000000000e+03 1.642267417907714844e+01 -2.873049497604370117e+00 2.371621504426002502e-02 3.066373616456985474e-02 1.631398499011993408e-02 -2.519211964681744576e-03
3.547000000000000000e+03 1.599964904785156250e+01 -2.315854644775390625e+01 -1.012406274676322937e-01 -4.705656468868255615e-01 -1.715418845415115356e-01 -3.908732831478118896e-01
3.548000000000000000e+03 1.799884796142578125e+01 -2.578200340270996094e+01 3.664029836654663086e-01 -1.226659938693046570e-01 7.312110066413879395e-02 -2.582705318927764893e-01
3.549000000000000000e+03 1.139410686492919922e+01 1.834690284729003906e+01 2.781884074211120605e-01 3.584156632423400879e-01 1.909812241792678833e-01 3.411325514316558838e-01
3.550000000000000000e+03 2.492595863342285156e+01 3.137578010559082031e+01 6.315308809280395508e-02 3.505937457084655762e-01 1.241240501403808594e-01 3.028345406055450439e-01
3.551000000000000000e+03 1.185928058624267578e+01 -1.055836009979248047e+01 -1.129366680979728699e-01 2.580079250037670135e-02 -2.614076249301433563e-02 -8.871346712112426758e-02
3.552000000000000000e+03 6.854091644287109375e+01 -1.487429237365722656e+01 -7.118691802024841309e-01 4.611669480800628662e-01 -7.521066069602966309e-02 -1.835277199745178223e+00
3.553000000000000000e+03 1.192675781250000000e+01 3.715294361114501953e+00 -2.162756770849227905e-01 -1.218290328979492188e-01 -1.014314144849777222e-01 1.828235536813735962e-01
3.554000000000000000e+03 1.079462623596191406e+01 6.846142768859863281e+00 -4.706076383590698242e-01 -3.023693561553955078e-01 -2.318931072950363159e-01 2.648453712463378906e-01
3.555000000000000000e+03 7.541873931884765625e+00 3.261923313140869141e+00 -5.878566205501556396e-02 -3.802024573087692261e-02 -2.904177270829677582e-02 -1.822030916810035706e-02
3.556000000000000000e+03 1.007603549957275391e+01 6.592118263244628906e+00 -3.978034257888793945e-01 -2.461641430854797363e-01 -1.931902617216110229e-01 2.008450031280517578e-01
3.557000000000000000e+03 2.119685173034667969e+01 -2.512102317810058594e+01 3.811555206775665283e-01 1.773609369993209839e-01 1.675549447536468506e-01 -1.756498366594314575e-01
3.558000000000000000e+03 2.023993301391601562e+01 -2.467654800415039062e+01 2.007086575031280518e-01 1.698361784219741821e-01 1.111634522676467896e-01 -2.810243666172027588e-01
3.559000000000000000e+03 2.949348258972167969e+01 2.884645652770996094e+01 7.513310760259628296e-02 -2.854396998882293701e-01 -6.309197843074798584e-02 1.926364451646804810e-01
3.560000000000000000e+03 5.968834686279296875e+01 8.895596861839294434e-01 5.796422958374023438e-01 7.267124176025390625e+00 2.354029893875122070e+00 -3.179235219955444336e+00
3.561000000000000000e+03 1.133659553527832031e+01 5.088394641876220703e+00 -3.309525251388549805e-01 -2.288771271705627441e-01 -1.679488867521286011e-01 1.825127005577087402e-01
3.562000000000000000e+03 6.412119293212890625e+01 2.121935653686523438e+01 -2.567658901214599609e+00 2.369530200958251953e+00 -5.943860858678817749e-02 2.586073160171508789e+00
3.563000000000000000e+03 6.474777984619140625e+01 2.145601463317871094e+01 -1.987180709838867188e+00 1.286230444908142090e+00 -2.102850675582885742e-01 1.966344952583312988e+00
3.564000000000000000e+03 1.552426338195800781e+01 -4.293148517608642578e+00 -1.770938280969858170e-03 3.133336082100868225e-02 8.868725970387458801e-03 -2.002927474677562714e-02
3.565000000000000000e+03 4.618546295166015625e+01 6.939554691314697266e+00 -6.845916807651519775e-02 6.890356540679931641e-01 1.861729472875595093e-01 -2.404354065656661987e-01
3.566000000000000000e+03 4.573260116577148438e+01 7.518446445465087891e+00 1.449917349964380264e-02 8.345511555671691895e-01 2.547150850296020508e-01 -2.418457716703414917e-01
3.567000000000000000e+03 1.162265396118164062e+01 -2.894724369049072266e+00 9.179350920021533966e-03 -1.196199469268321991e-02 -8.347930852323770523e-04 -3.178935125470161438e-02
3.568000000000000000e+03 3.475283050537109375e+01 -3.374133586883544922e+00 -4.783912301063537598e-01 1.927270144224166870e-01 -8.569926023483276367e-02 -3.641368448734283447e-01
3.569000000000000000e+03 6.485723876953125000e+01 3.021396255493164062e+01 5.724318027496337891e-01 4.796765327453613281e+00 1.610759139060974121e+00 3.484376668930053711e-01
3.570000000000000000e+03 6.615988922119140625e+01 2.929052543640136719e+01 9.999195337295532227e-01 4.405425071716308594e+00 1.621603488922119141e+00 6.451215147972106934e-01
3.571000000000000000e+03 7.096659088134765625e+01 1.948383903503417969e+01 -1.911522269248962402e+00 5.344203948974609375e+00 1.029804468154907227e+00 -9.461333155632019043e-01
3.572000000000000000e+03 5.206238174438476562e+01 -1.455647945404052734e+01 -1.041545495390892029e-01 -2.064000368118286133e-01 -9.316638112068176270e-02 2.061099261045455933e-01
3.573000000000000000e+03 6.503984069824218750e+01 2.924580001831054688e+01 7.645146846771240234e-01 4.852470397949218750e+00 1.685095548629760742e+00 6.936252117156982422e-01
3.574000000000000000e+03 3.163956832885742188e+01 -3.003182983398437500e+01 3.805996179580688477e-01 1.859192699193954468e-01 1.699556708335876465e-01 -2.008478194475173950e-01
3.575000000000000000e+03 2.170383453369140625e+01 1.279850101470947266e+01 -9.414180181920528412e-03 -1.649943590164184570e-01 -5.232256278395652771e-02 7.669722288846969604e-02
3.576000000000000000e+03 6.254196166992187500e+01 -5.619241237640380859e+00 2.131251096725463867e+00 1.502852153778076172e+01 5.147931575775146484e+00 -2.016122452914714813e-02
3.577000000000000000e+03 7.138243865966796875e+01 2.219094634056091309e-01 1.220101594924926758e+00 1.250619888305664062e+00 7.412164211273193359e-01 8.945647478103637695e-01
3.578000000000000000e+03 6.084473800659179688e+01 7.845409870147705078e+00 -1.889692187309265137e+00 7.071905612945556641e+00 1.554664015769958496e+00 -1.525074362754821777e+00
3.579000000000000000e+03 6.063758468627929688e+01 -2.624105215072631836e-01 1.461714982986450195e+00 9.568590164184570312e+00 3.309091567993164062e+00 -3.214491128921508789e+00
3.580000000000000000e+03 6.059215927124023438e+01 3.011108636856079102e-01 8.016405701637268066e-01 8.765366554260253906e+00 2.870102167129516602e+00 -2.918946743011474609e+00
3.581000000000000000e+03 4.734099197387695312e+01 -2.771065330505371094e+01 4.773615598678588867e-01 7.482642531394958496e-01 3.676877319812774658e-01 -6.928781270980834961e-01
3.582000000000000000e+03 4.714658355712890625e+01 -2.664124298095703125e+01 2.460785657167434692e-01 8.396839499473571777e-01 3.257287442684173584e-01 -6.500151157379150391e-01
3.583000000000000000e+03 2.934132766723632812e+01 3.508175611495971680e+00 -4.202840030193328857e-01 4.329887628555297852e-01 3.811425063759088516e-03 9.198304265737533569e-02
3.584000000000000000e+03 2.923452949523925781e+01 2.976173639297485352e+00 -6.709306836128234863e-01 4.554374217987060547e-01 -6.464798748493194580e-02 3.803021833300590515e-02
3.585000000000000000e+03 1.259176158905029297e+01 5.664526462554931641e+00 -4.279106557369232178e-01 -3.169184327125549316e-01 -2.234487235546112061e-01 2.950755655765533447e-01
3.586000000000000000e+03 4.626665496826171875e+01 5.532169342041015625e+00 -4.321221709251403809e-01 5.116519331932067871e-01 2.385892346501350403e-02 -4.281372949481010437e-02
3.587000000000000000e+03 5.188694477081298828e+00 -2.270813941955566406e+01 1.486059874296188354e-01 -2.819942496716976166e-02 3.612196817994117737e-02 -4.652688279747962952e-02
3.588000000000000000e+03 4.937872409820556641e+00 -2.216623687744140625e+01 1.693105995655059814e-01 -6.222563236951828003e-02 3.212549164891242981e-02 -5.193313956260681152e-02
3.589000000000000000e+03 6.827226257324218750e+01 -2.719569206237792969e+01 -1.865575790405273438e+00 1.873252511024475098e+00 2.303007058799266815e-03 -1.557641267776489258e+00
3.590000000000000000e+03 7.475531005859375000e+01 -2.186870193481445312e+01 1.047453880310058594e+00 1.119376277923583984e+01 3.672364950180053711e+00 -7.216594368219375610e-02
3.591000000000000000e+03 6.628942871093750000e+01 -2.806219482421875000e+01 -8.043488860130310059e-01 6.412501811981201172e+00 1.682445883750915527e+00 -1.953615307807922363e+00
3.592000000000000000e+03 4.064451980590820312e+01 -2.047882652282714844e+01 3.619332909584045410e-01 5.855511426925659180e-01 2.842453420162200928e-01 -2.637160420417785645e-01
3.593000000000000000e+03 2.184965896606445312e+01 4.283953189849853516e+00 -4.166012704372406006e-01 -1.516205668449401855e-01 -1.704665571451187134e-01 1.955213844776153564e-01
3.594000000000000000e+03 2.039927673339843750e+01 5.778543949127197266e+00 -4.933350160717964172e-02 -8.980167657136917114e-02 -4.174055531620979309e-02 1.489795297384262085e-01
3.595000000000000000e+03 3.286931228637695312e+01 1.833125877380371094e+01 3.393364250659942627e-01 4.199741780757904053e-01 2.277931869029998779e-01 4.915564060211181641e-01
3.596000000000000000e+03 3.640361404418945312e+01 2.064976310729980469e+01 2.159537374973297119e-01 1.112630683928728104e-02 6.812401115894317627e-02 1.853998452425003052e-01
3.597000000000000000e+03 5.869032669067382812e+01 3.886235237121582031e+00 -1.646015405654907227e+00 5.756614685058593750e+00 1.233179807662963867e+00 -2.462835311889648438e+00
3.598000000000000000e+03 8.484988212585449219e+00 -4.624793529510498047e+00 1.464993134140968323e-02 -3.361783549189567566e-02 -5.690370686352252960e-03 -1.503763720393180847e-02
3.599000000000000000e+03 1.493983364105224609e+01 2.124622154235839844e+01 2.172167301177978516e-01 2.099748849868774414e-01 1.281574815511703491e-01 5.091797113418579102e-01
3.600000000000000000e+03 6.820845127105712891e+00 -3.983910560607910156e+00 1.590063236653804779e-02 -2.501090243458747864e-02 -2.733081113547086716e-03 2.901619067415595055e-03
3.601000000000000000e+03 4.225215911865234375e+00 -3.534456491470336914e+00 1.263488177210092545e-02 -5.768323782831430435e-03 2.059967489913105965e-03 1.880694553256034851e-02
3.602000000000000000e+03 6.061071872711181641e+00 -4.055310726165771484e+00 1.672643423080444336e-02 -1.817998290061950684e-02 -4.360647290013730526e-04 1.028847787529230118e-02
3.603000000000000000e+03 3.304661273956298828e+00 -4.262213706970214844e+00 7.764367386698722839e-03 3.181447274982929230e-03 3.283744445070624352e-03 2.274841070175170898e-02
3.604000000000000000e+03 1.733016610145568848e+00 -7.385955333709716797e+00 4.646852321457117796e-04 4.261384531855583191e-02 1.292355824261903763e-02 2.624303102493286133e-02
3.605000000000000000e+03 2.614751338958740234e+00 -3.439572095870971680e+00 6.317826919257640839e-03 7.166639436036348343e-03 4.045339766889810562e-03 1.855536736547946930e-02
3.606000000000000000e+03 1.776954650878906250e+00 -5.010006904602050781e+00 4.109292756766080856e-03 2.290600724518299103e-02 8.104589767754077911e-03 2.096267975866794586e-02
3.607000000000000000e+03 1.741649627685546875e+01 -1.178562545776367188e+01 -1.958686709403991699e-01 5.413949489593505859e-02 -4.251875355839729309e-02 9.322021901607513428e-02
3.608000000000000000e+03 2.590583038330078125e+01 4.234889984130859375e+00 -3.052015900611877441e-01 5.584548041224479675e-02 -7.480683177709579468e-02 2.197564691305160522e-01
3.609000000000000000e+03 2.676683425903320312e+01 3.193716526031494141e+00 -5.912125706672668457e-01 1.394570469856262207e-01 -1.355266422033309937e-01 2.489366531372070312e-01
3.610000000000000000e+03 2.776671218872070312e+01 2.870814800262451172e+00 -7.081985473632812500e-01 2.766376733779907227e-01 -1.294682621955871582e-01 1.658591926097869873e-01
3.611000000000000000e+03 2.503848075866699219e+01 3.956431150436401367e+00 -4.048020243644714355e-01 -4.386227950453758240e-02 -1.345992982387542725e-01 2.478699982166290283e-01
3.612000000000000000e+03 2.398073005676269531e+01 3.563644647598266602e+00 -5.420038104057312012e-01 -1.083332374691963196e-01 -1.951011121273040771e-01 2.544744014739990234e-01
3.613000000000000000e+03 2.751534461975097656e+01 3.439522981643676758e+00 -4.796800911426544189e-01 2.878942787647247314e-01 -5.753574892878532410e-02 1.989817023277282715e-01
3.614000000000000000e+03 2.147960472106933594e+01 8.905312538146972656e+00 3.436276018619537354e-01 -1.517510712146759033e-01 5.756295844912528992e-02 1.903133094310760498e-01
3.615000000000000000e+03 2.098610687255859375e+01 5.507011413574218750e+00 -1.147474423050880432e-01 -1.405391395092010498e-01 -7.658597081899642944e-02 1.495622843503952026e-01
3.616000000000000000e+03 2.536677169799804688e+01 4.449138164520263672e+00 -2.488027513027191162e-01 -1.950332149863243103e-02 -8.049182593822479248e-02 2.514379322528839111e-01
3.617000000000000000e+03 2.296765899658203125e+01 8.983745574951171875e+00 3.255201578140258789e-01 -1.893458664417266846e-01 4.085228964686393738e-02 1.586534231901168823e-01
3.618000000000000000e+03 2.881858825683593750e+01 3.645205736160278320e+00 -4.295968711376190186e-01 4.549362659454345703e-01 7.601821329444646835e-03 6.297440081834793091e-02
3.619000000000000000e+03 2.852627754211425781e+01 2.623106002807617188e+00 -8.181095123291015625e-01 3.245322704315185547e-01 -1.480731815099716187e-01 1.086257025599479675e-01
3.620000000000000000e+03 2.874387741088867188e+01 3.090405702590942383e+00 -6.148552894592285156e-01 3.306792974472045898e-01 -8.525278419256210327e-02 1.442730724811553955e-01
3.621000000000000000e+03 3.787340545654296875e+01 -1.204071807861328125e+01 -3.379634916782379150e-01 1.187225461006164551e+00 2.547785937786102295e-01 -3.266423940658569336e-01
3.622000000000000000e+03 3.406497573852539062e+01 -3.738300800323486328e+00 -3.794288635253906250e-01 8.044977486133575439e-02 -8.969373255968093872e-02 -4.144563674926757812e-01
3.623000000000000000e+03 5.320933914184570312e+01 2.880745124816894531e+01 2.514021396636962891e-01 6.073209285736083984e+00 1.897383451461791992e+00 -4.590529799461364746e-01
3.624000000000000000e+03 5.249956130981445312e+01 2.964421653747558594e+01 5.998793840408325195e-01 5.026304721832275391e+00 1.687855243682861328e+00 -2.678273618221282959e-01
3.625000000000000000e+03 4.110945129394531250e+01 -2.438968658447265625e+01 2.489397972822189331e-01 7.740445137023925781e-01 3.068953156471252441e-01 2.589964866638183594e-01
3.626000000000000000e+03 4.546714401245117188e+01 -2.283833885192871094e+01 3.318590819835662842e-01 1.309058904647827148e+00 4.922753870487213135e-01 3.565595671534538269e-02
3.627000000000000000e+03 1.295264244079589844e+01 4.922646522521972656e+00 -3.531172573566436768e-01 -2.384979128837585449e-01 -1.774845570325851440e-01 3.269464969635009766e-01
3.628000000000000000e+03 5.115208816528320312e+01 3.222393989562988281e+00 -6.802512407302856445e-01 -1.033112108707427979e-01 -2.350687384605407715e-01 -1.580814123153686523e-01
3.629000000000000000e+03 1.453211212158203125e+01 2.187799835205078125e+01 3.356563150882720947e-01 2.227540016174316406e-01 1.675231009721755981e-01 4.822500050067901611e-01
3.630000000000000000e+03 6.860123157501220703e+00 2.263638687133789062e+01 -1.597339063882827759e-01 -4.337135553359985352e-01 -1.780342459678649902e-01 1.422730237245559692e-01
3.631000000000000000e+03 6.607399463653564453e+00 2.369421768188476562e+01 -2.228696495294570923e-01 -5.371083021163940430e-01 -2.279933989048004150e-01 2.282351702451705933e-01
3.632000000000000000e+03 2.218652725219726562e+01 1.135599613189697266e+01 1.270658671855926514e-01 -1.428463906049728394e-01 -4.734156653285026550e-03 1.246339380741119385e-01
3.633000000000000000e+03 7.357623291015625000e+01 1.223641490936279297e+01 1.604553937911987305e+00 1.079766654968261719e+01 3.720666170120239258e+00 4.882182180881500244e-01
3.634000000000000000e+03 2.764541053771972656e+01 -3.491461563110351562e+01 9.542451053857803345e-02 -1.353052854537963867e-01 -1.196423452347517014e-02 3.547913394868373871e-03
3.635000000000000000e+03 2.691371154785156250e+01 -3.485443115234375000e+01 4.438649863004684448e-02 -2.253720760345458984e-01 -5.429567396640777588e-02 -9.890490910038352013e-04
3.636000000000000000e+03 7.160532379150390625e+01 2.126766014099121094e+01 -1.593312859535217285e+00 5.614197731018066406e+00 1.206265449523925781e+00 -1.070528984069824219e+00
3.637000000000000000e+03 7.094825744628906250e+01 2.115616416931152344e+01 -1.635977149009704590e+00 5.055097103118896484e+00 1.025736093521118164e+00 -1.183794856071472168e+00
3.638000000000000000e+03 2.787706756591796875e+01 9.484706878662109375e+00 3.483525514602661133e-01 5.378447771072387695e-01 2.658591866493225098e-01 2.074621021747589111e-01
3.639000000000000000e+03 1.485295295715332031e+01 -6.364654064178466797e+00 -4.397196753416210413e-04 3.955195099115371704e-02 1.173366978764533997e-02 -1.124267373234033585e-02
3.640000000000000000e+03 4.975145339965820312e+01 -4.704807758331298828e+00 -5.996711254119873047e-01 1.486463993787765503e-01 -1.353074163198471069e-01 7.257821559906005859e-01
3.641000000000000000e+03 4.884706115722656250e+01 -4.097435951232910156e+00 -6.757605671882629395e-01 3.018698990345001221e-01 -1.121671944856643677e-01 5.678898096084594727e-01
3.642000000000000000e+03 6.851063537597656250e+01 -3.288368988037109375e+01 1.514967203140258789e+00 4.908383369445800781e+00 1.927005171775817871e+00 -1.340318799018859863e+00
3.643000000000000000e+03 3.179558944702148438e+01 -7.095029830932617188e+00 -1.353232860565185547e-01 -5.158423185348510742e-01 -1.953496783971786499e-01 -5.689252614974975586e-01
3.644000000000000000e+03 2.478801727294921875e+01 -2.921794509887695312e+01 3.453483581542968750e-01 -1.925476193428039551e-01 4.584022611379623413e-02 -1.967955976724624634e-01
3.645000000000000000e+03 5.528772735595703125e+01 5.896665096282958984e+00 -8.488414287567138672e-01 2.944841623306274414e+00 6.288000941276550293e-01 -6.363711953163146973e-01
3.646000000000000000e+03 7.724417114257812500e+01 3.600531387329101562e+01 4.090170376002788544e-03 7.183308601379394531e+00 2.156219482421875000e+00 2.153022214770317078e-02
3.647000000000000000e+03 7.747188568115234375e+01 3.518059158325195312e+01 1.209436636418104172e-02 7.209475517272949219e+00 2.166471004486083984e+00 8.167767897248268127e-03
3.648000000000000000e+03 7.735118103027343750e+01 2.919916915893554688e+01 6.178680062294006348e-02 7.351565361022949219e+00 2.224005699157714844e+00 -2.429785132408142090e-01
3.649000000000000000e+03 7.736792755126953125e+01 2.840354347229003906e+01 4.899032041430473328e-02 7.414001941680908203e+00 2.238897562026977539e+00 -2.769531607627868652e-01
3.650000000000000000e+03 7.817355346679687500e+01 2.444358062744140625e+01 -7.768711447715759277e-02 8.103883743286132812e+00 2.407859086990356445e+00 -1.387088745832443237e-01
3.651000000000000000e+03 7.749047088623046875e+01 1.488629913330078125e+01 2.767889201641082764e-01 7.145590782165527344e+00 2.226713895797729492e+00 8.429609537124633789e-01
3.652000000000000000e+03 7.732159423828125000e+01 3.079282569885253906e+01 7.557936012744903564e-02 7.254032611846923828e+00 2.198883533477783203e+00 -1.686485707759857178e-01
3.653000000000000000e+03 7.810611724853515625e+01 -3.566620635986328125e+01 3.683903813362121582e-02 7.607279777526855469e+00 2.293235540390014648e+00 3.807167336344718933e-02
3.654000000000000000e+03 7.496126556396484375e+01 -3.681062698364257812e+01 1.383809298276901245e-01 6.485443115234375000e+00 1.987147212028503418e+00 -1.784110516309738159e-01
3.655000000000000000e+03 7.761560058593750000e+01 6.837574481964111328e+00 -5.636476352810859680e-02 7.233769416809082031e+00 2.153221368789672852e+00 -7.880985736846923828e-01
3.656000000000000000e+03 7.819233703613281250e+01 -2.823480415344238281e+01 -2.298416346311569214e-01 8.112565040588378906e+00 2.364817142486572266e+00 -1.848013103008270264e-01
3.657000000000000000e+03 7.747957611083984375e+01 -2.900449943542480469e+01 -3.196583092212677002e-01 7.869568347930908203e+00 2.264972925186157227e+00 5.333734676241874695e-02
3.658000000000000000e+03 7.705599212646484375e+01 -3.303948974609375000e+01 1.007148548960685730e-01 7.206674575805664062e+00 2.192216873168945312e+00 2.084789425134658813e-01
3.659000000000000000e+03 7.817846679687500000e+01 -3.060438346862792969e+01 -9.012311697006225586e-02 7.929117679595947266e+00 2.351698398590087891e+00 1.566509604454040527e-01
3.660000000000000000e+03 7.666132354736328125e+01 3.804038238525390625e+01 -7.605898426845669746e-04 7.034145832061767578e+00 2.110015630722045898e+00 1.108009181916713715e-02
3.661000000000000000e+03 7.821009063720703125e+01 3.539362335205078125e+01 -1.939256442710757256e-03 7.442548751831054688e+00 2.232182979583740234e+00 -6.375974975526332855e-03
3.662000000000000000e+03 7.774559783935546875e+01 -2.247805786132812500e+01 4.968203008174896240e-01 7.770166397094726562e+00 2.480096101760864258e+00 -2.487859874963760376e-01
3.663000000000000000e+03 7.837362670898437500e+01 -2.179330062866210938e+01 2.859256565570831299e-01 7.324634552001953125e+00 2.283168077468872070e+00 -1.593099720776081085e-02
3.664000000000000000e+03 7.819143676757812500e+01 -5.649570465087890625e+00 4.126022160053253174e-01 8.082840919494628906e+00 2.548633098602294922e+00 2.196462750434875488e-01
3.665000000000000000e+03 7.760903930664062500e+01 7.579887866973876953e+00 -5.328841973096132278e-03 7.140633106231689453e+00 2.140591382980346680e+00 -8.076189160346984863e-01
3.666000000000000000e+03 7.808647155761718750e+01 1.166818904876708984e+01 3.226899504661560059e-01 6.422318458557128906e+00 2.023502349853515625e+00 -7.799187302589416504e-02
3.667000000000000000e+03 7.768661499023437500e+01 -3.177401065826416016e+00 -8.595105260610580444e-02 8.345433235168457031e+00 2.477844476699829102e+00 6.006569862365722656e-01
3.668000000000000000e+03 7.836709594726562500e+01 -2.101292610168457031e+01 3.279152512550354004e-01 7.353913307189941406e+00 2.304548501968383789e+00 2.407275140285491943e-01
3.669000000000000000e+03 7.773895263671875000e+01 -2.174134826660156250e+01 5.241555571556091309e-01 7.747708320617675781e+00 2.481559038162231445e+00 1.125043374486267567e-03
3.670000000000000000e+03 7.821864318847656250e+01 1.566988849639892578e+01 9.849405288696289062e-02 6.937020778656005859e+00 2.110654354095458984e+00 7.867909073829650879e-01
3.671000000000000000e+03 7.675686645507812500e+01 1.566171073913574219e+01 2.715749144554138184e-01 7.634107112884521484e+00 2.371704578399658203e+00 1.083423972129821777e+00
3.672000000000000000e+03 7.318716430664062500e+01 8.589794158935546875e+00 3.121852576732635498e-01 9.008716583251953125e+00 2.796270608901977539e+00 9.123232960700988770e-02
3.673000000000000000e+03 7.756189727783203125e+01 8.335471153259277344e+00 9.735739231109619141e-02 7.060508251190185547e+00 2.147359609603881836e+00 -7.836706638336181641e-01
3.674000000000000000e+03 7.810581207275390625e+01 1.001217937469482422e+01 2.056342512369155884e-01 6.543280124664306641e+00 2.024674415588378906e+00 -4.897212088108062744e-01
3.675000000000000000e+03 7.293700408935546875e+01 1.012446308135986328e+01 1.671149492263793945e+00 1.045766735076904297e+01 3.638644933700561523e+00 5.721000432968139648e-01
3.676000000000000000e+03 7.663346862792968750e+01 -7.114107131958007812e+00 1.088442802429199219e+00 1.029829692840576172e+01 3.416021823883056641e+00 -6.024051308631896973e-01
3.677000000000000000e+03 7.550904846191406250e+01 -3.395093441009521484e+00 -5.144313443452119827e-03 8.819987297058105469e+00 2.644452810287475586e+00 -5.609729290008544922e-01
3.678000000000000000e+03 7.468229675292968750e+01 1.200055122375488281e+01 1.461503624916076660e+00 9.116018295288085938e+00 3.173256635665893555e+00 2.075293213129043579e-01
3.679000000000000000e+03 7.799209594726562500e+01 -1.050369834899902344e+01 -3.294458985328674316e-01 8.887053489685058594e+00 2.567282199859619141e+00 -1.151090979576110840e+00
3.680000000000000000e+03 7.836159515380859375e+01 -9.789812088012695312e+00 3.700202703475952148e-02 8.627903938293457031e+00 2.599471807479858398e+00 -1.086719632148742676e+00
3.681000000000000000e+03 7.744977569580078125e+01 -9.170192718505859375e+00 3.735263347625732422e-01 9.031741142272949219e+00 2.821580410003662109e+00 -1.131964921951293945e+00
3.682000000000000000e+03 7.824534606933593750e+01 1.723941040039062500e+01 -2.982665039598941803e-02 7.390098094940185547e+00 2.208081483840942383e+00 8.286042213439941406e-01
3.683000000000000000e+03 7.265537261962890625e+01 1.644617080688476562e+01 7.174606435000896454e-03 9.136718750000000000e+00 2.743168115615844727e+00 7.816241122782230377e-03
3.684000000000000000e+03 7.825041198730468750e+01 1.803328514099121094e+01 -9.656933695077896118e-02 7.615674495697021484e+00 2.255731582641601562e+00 7.763238549232482910e-01
3.685000000000000000e+03 7.823262023925781250e+01 1.645225715637207031e+01 3.666871041059494019e-02 7.156434535980224609e+00 2.157930850982666016e+00 8.362970352172851562e-01
3.686000000000000000e+03 7.621065521240234375e+01 1.728839874267578125e+01 -2.066125869750976562e-01 7.990365505218505859e+00 2.335125923156738281e+00 1.140594124794006348e+00
3.687000000000000000e+03 7.817938995361328125e+01 -9.934304356575012207e-01 -2.431385666131973267e-01 8.092980384826660156e+00 2.354952573776245117e+00 2.778521776199340820e-01
3.688000000000000000e+03 7.743949127197265625e+01 -9.380788803100585938e-01 -3.756747841835021973e-01 7.917810916900634766e+00 2.262640953063964844e+00 1.840982586145401001e-01
3.689000000000000000e+03 7.576964569091796875e+01 -2.099137687683105469e+01 1.298606157302856445e+00 9.257300376892089844e+00 3.166772127151489258e+00 1.429385542869567871e-01
3.690000000000000000e+03 7.749622344970703125e+01 2.037152671813964844e+01 -3.190449476242065430e-01 7.968348503112792969e+00 2.294791221618652344e+00 4.857986867427825928e-01
3.691000000000000000e+03 7.756791687011718750e+01 1.878741645812988281e+01 -2.620983421802520752e-01 7.842315673828125000e+00 2.274065256118774414e+00 8.054228425025939941e-01
3.692000000000000000e+03 7.748746490478515625e+01 -1.513622570037841797e+01 -4.542632102966308594e-01 8.413981437683105469e+00 2.387915611267089844e+00 7.553386092185974121e-01
3.693000000000000000e+03 7.758599853515625000e+01 3.765221118927001953e+00 -1.745072752237319946e-01 7.511381626129150391e+00 2.201062440872192383e+00 -4.929166436195373535e-01
3.694000000000000000e+03 7.753419494628906250e+01 1.513163924217224121e+00 -2.424681037664413452e-01 7.652232170104980469e+00 2.222929239273071289e+00 -2.152991294860839844e-01
3.695000000000000000e+03 7.756190490722656250e+01 4.543877124786376953e+00 -1.849736571311950684e-01 7.444569587707519531e+00 2.177878618240356445e+00 -5.868044495582580566e-01
3.696000000000000000e+03 7.345722961425781250e+01 1.077674865722656250e+00 3.546117618680000305e-02 4.413908958435058594e+00 1.334811091423034668e+00 -2.349799573421478271e-01
3.697000000000000000e+03 7.760740661621093750e+01 2.267016887664794922e+00 -2.160672545433044434e-01 7.608525753021240234e+00 2.217737436294555664e+00 -3.173644542694091797e-01
3.698000000000000000e+03 7.446355438232421875e+01 -1.907287359237670898e+00 -4.828214347362518311e-01 6.302650928497314453e+00 1.745948791503906250e+00 -9.998551011085510254e-01
3.699000000000000000e+03 7.220020294189453125e+01 1.838201141357421875e+01 -1.407346844673156738e+00 7.370066165924072266e+00 1.788815855979919434e+00 -3.837390840053558350e-01
3.700000000000000000e+03 7.817510223388671875e+01 -1.266897392272949219e+01 -4.547078609466552734e-01 8.988301277160644531e+00 2.560077905654907227e+00 -2.487394660711288452e-01
3.701000000000000000e+03 7.765295410156250000e+01 -1.162093544006347656e+01 -7.482592463493347168e-01 8.989309310913085938e+00 2.472315073013305664e+00 -7.129949927330017090e-01
3.702000000000000000e+03 7.824932861328125000e+01 4.515615463256835938e+00 -9.500058740377426147e-02 7.581929206848144531e+00 2.246078491210937500e+00 -5.042586326599121094e-01
3.703000000000000000e+03 7.481607055664062500e+01 6.088201329112052917e-02 -5.004072189331054688e-01 6.067791938781738281e+00 1.670215368270874023e+00 -6.096111536026000977e-01
3.704000000000000000e+03 7.747496795654296875e+01 7.342494726181030273e-01 -2.940112054347991943e-01 7.697889328002929688e+00 2.221163511276245117e+00 -1.232009381055831909e-01
3.705000000000000000e+03 7.818093872070312500e+01 -1.689218330383300781e+01 -8.527106791734695435e-02 8.309632301330566406e+00 2.467308282852172852e+00 9.172025918960571289e-01
3.706000000000000000e+03 7.463921356201171875e+01 -2.008665657043457031e+01 1.468460321426391602e+00 1.019994544982910156e+01 3.500521659851074219e+00 -2.664143145084381104e-01
3.707000000000000000e+03 7.562217712402343750e+01 -1.200004768371582031e+01 -1.743998646736145020e+00 8.031366348266601562e+00 1.886210322380065918e+00 1.720491796731948853e-01
3.708000000000000000e+03 7.715591430664062500e+01 -1.106925201416015625e+01 -6.613376140594482422e-01 8.902394294738769531e+00 2.472316980361938477e+00 -8.116954565048217773e-01
3.709000000000000000e+03 7.661444091796875000e+01 -1.320043849945068359e+01 -1.062647700309753418e+00 8.173607826232910156e+00 2.133287906646728516e+00 2.576448619365692139e-01
3.710000000000000000e+03 7.467079162597656250e+01 -1.309536743164062500e+01 -1.331384778022766113e+00 5.642343997955322266e+00 1.293287754058837891e+00 7.809988260269165039e-01
3.711000000000000000e+03 7.615791320800781250e+01 -1.602283096313476562e+01 -4.870935678482055664e-01 7.767957210540771484e+00 2.184258937835693359e+00 9.188716411590576172e-01
3.712000000000000000e+03 7.819813537597656250e+01 -1.604882431030273438e+01 -1.895045191049575806e-01 8.516850471496582031e+00 2.498203754425048828e+00 8.110410571098327637e-01
3.713000000000000000e+03 7.819765472412109375e+01 2.203033065795898438e+01 -1.636581420898437500e-01 8.195986747741699219e+00 2.409698724746704102e+00 1.409121751785278320e-01
3.714000000000000000e+03 7.803047943115234375e+01 -2.657131576538085938e+01 -1.972128152847290039e-01 8.063276290893554688e+00 2.359819173812866211e+00 -5.585097670555114746e-01
3.715000000000000000e+03 7.748701477050781250e+01 -2.747009468078613281e+01 -3.916943669319152832e-01 8.094568252563476562e+00 2.310862302780151367e+00 -3.390913307666778564e-01
3.716000000000000000e+03 7.413229370117187500e+01 -2.782817649841308594e+01 -1.261606335639953613e+00 6.810457229614257812e+00 1.664655327796936035e+00 1.169813394546508789e+00
3.717000000000000000e+03 7.798597717285156250e+01 -2.565296936035156250e+01 -1.103676706552505493e-01 7.979280471801757812e+00 2.360673904418945312e+00 -6.856932640075683594e-01
3.718000000000000000e+03 7.736187744140625000e+01 -1.432468700408935547e+01 -6.191989779472351074e-01 8.457918167114257812e+00 2.351615667343139648e+00 4.938355386257171631e-01
3.719000000000000000e+03 7.354548645019531250e+01 -1.657927703857421875e+01 -2.268396466970443726e-01 6.092978000640869141e+00 1.759841561317443848e+00 -6.884325742721557617e-01
3.720000000000000000e+03 7.819216918945312500e+01 2.283245468139648438e+01 -1.333437412977218628e-01 8.193228721618652344e+00 2.417965650558471680e+00 2.852044999599456787e-02
3.721000000000000000e+03 7.749203491210937500e+01 2.198674774169921875e+01 -2.760153114795684814e-01 7.973362922668457031e+00 2.309204339981079102e+00 1.459130942821502686e-01
3.722000000000000000e+03 7.672850036621093750e+01 2.594475746154785156e+01 -6.379958242177963257e-02 7.360775947570800781e+00 2.189092874526977539e+00 -3.580447733402252197e-01
3.723000000000000000e+03 7.455530548095703125e+01 -2.427956962585449219e+01 7.513507604598999023e-01 9.771613121032714844e+00 3.156889200210571289e+00 -1.284997817128896713e-02
3.724000000000000000e+03 7.704720306396484375e+01 -2.477759742736816406e+01 6.241977959871292114e-02 8.188456535339355469e+00 2.475263118743896484e+00 -7.886840701103210449e-01
3.725000000000000000e+03 7.744927978515625000e+01 2.520788383483886719e+01 -8.539631962776184082e-02 7.729834556579589844e+00 2.293331384658813477e+00 -2.547169923782348633e-01
3.726000000000000000e+03 7.739012908935546875e+01 2.760345649719238281e+01 2.100550755858421326e-02 7.486106395721435547e+00 2.252133607864379883e+00 -2.928870022296905518e-01
3.727000000000000000e+03 7.743341064453125000e+01 2.600823020935058594e+01 -4.934024810791015625e-02 7.649364948272705078e+00 2.280007362365722656e+00 -2.863412797451019287e-01
3.728000000000000000e+03 7.786184692382812500e+01 -3.403579330444335938e+01 6.335392594337463379e-02 7.553882122039794922e+00 2.285170793533325195e+00 1.192048564553260803e-01
3.729000000000000000e+03 7.707145690917968750e+01 -3.515564346313476562e+01 1.073709204792976379e-01 7.203410625457763672e+00 2.193234443664550781e+00 4.989157989621162415e-02
3.730000000000000000e+03 7.725794982910156250e+01 -3.205714416503906250e+01 3.446852043271064758e-02 7.394674301147460938e+00 2.228742837905883789e+00 2.715645134449005127e-01
3.731000000000000000e+03 7.603150177001953125e+01 -3.431110763549804688e+01 2.289382219314575195e-01 6.728594303131103516e+00 2.087259769439697266e+00 1.052314713597297668e-01
3.732000000000000000e+03 7.811540985107421875e+01 -3.138923263549804688e+01 -1.627579331398010254e-02 7.814846515655517578e+00 2.339571237564086914e+00 1.953461766242980957e-01
3.733000000000000000e+03 7.745993041992187500e+01 -3.125194549560546875e+01 -4.642388224601745605e-02 7.561895847320556641e+00 2.254641532897949219e+00 2.519090175628662109e-01
3.734000000000000000e+03 7.695478057861328125e+01 -3.410278320312500000e+01 1.298368424177169800e-01 7.151572227478027344e+00 2.184422731399536133e+00 1.374640166759490967e-01
3.735000000000000000e+03 7.672725677490234375e+01 3.495431518554687500e+01 4.595031216740608215e-02 6.998703002929687500e+00 2.113395929336547852e+00 -5.716560874134302139e-03
3.736000000000000000e+03 7.800801086425781250e+01 3.251524353027343750e+01 3.855864703655242920e-02 7.424500465393066406e+00 2.238917589187622070e+00 -7.641821354627609253e-02
3.737000000000000000e+03 7.674227142333984375e+01 -4.178742599487304688e+01 -7.552165538072586060e-02 7.237164497375488281e+00 2.148492813110351562e+00 5.393242929130792618e-03
3.738000000000000000e+03 7.723136901855468750e+01 3.244300460815429688e+01 6.933797150850296021e-02 7.179769039154052734e+00 2.174732208251953125e+00 -8.785611391067504883e-02
3.739000000000000000e+03 7.715584564208984375e+01 3.329014587402343750e+01 6.150561943650245667e-02 7.143862724304199219e+00 2.161610603332519531e+00 -6.474920362234115601e-02
3.740000000000000000e+03 7.701654052734375000e+01 3.412840652465820312e+01 5.496968328952789307e-02 7.084235191345214844e+00 2.141761541366577148e+00 -3.534684330224990845e-02
3.741000000000000000e+03 3.781671524047851562e+01 2.111103439331054688e+01 2.465016245841979980e-01 -3.744729608297348022e-02 6.271629780530929565e-02 8.160166442394256592e-02
3.742000000000000000e+03 7.776576232910156250e+01 -3.711672973632812500e+01 4.122154414653778076e-02 7.541382789611816406e+00 2.274781227111816406e+00 -2.108711190521717072e-02
3.743000000000000000e+03 7.735816192626953125e+01 -3.591322708129882812e+01 6.796195358037948608e-02 7.334495544433593750e+00 2.220737218856811523e+00 5.745605099946260452e-03
3.744000000000000000e+03 7.532311248779296875e+01 3.858724212646484375e+01 -1.896654069423675537e-02 6.671864986419677734e+00 1.995869517326354980e+00 6.895062327384948730e-02
3.745000000000000000e+03 3.565060806274414062e+01 2.361247634887695312e+01 -1.161933466792106628e-01 3.160325288772583008e-01 5.995175614953041077e-02 7.245106995105743408e-02
3.746000000000000000e+03 3.629751586914062500e+01 2.205108451843261719e+01 5.947675183415412903e-02 1.106542721390724182e-01 5.103930458426475525e-02 1.015997827053070068e-01
3.747000000000000000e+03 1.178164005279541016e+01 -3.574621915817260742e+00 6.092735566198825836e-03 -1.722289435565471649e-02 -3.339047776535153389e-03 -3.586161881685256958e-02
3.748000000000000000e+03 1.399263381958007812e+01 -3.116516828536987305e+00 5.327180959284305573e-03 1.953646540641784668e-03 2.184248296543955803e-03 -2.962044067680835724e-02
3.749000000000000000e+03 2.006767272949218750e+00 3.476248550415039062e+01 3.890276327729225159e-02 -8.927050828933715820e-01 -2.561407089233398438e-01 4.743582010269165039e-02
3.750000000000000000e+03 2.995207309722900391e+00 3.633299636840820312e+01 5.827962979674339294e-02 -7.411822676658630371e-01 -2.048707902431488037e-01 -8.195843547582626343e-03
3.751000000000000000e+03 4.446672439575195312e+00 2.667155456542968750e+01 -2.019649296998977661e-01 -6.985814571380615234e-01 -2.701639235019683838e-01 1.877960264682769775e-01
3.752000000000000000e+03 3.896060943603515625e+00 2.727780914306640625e+01 -1.500779837369918823e-01 -6.499896049499511719e-01 -2.400202751159667969e-01 2.027578055858612061e-01
3.753000000000000000e+03 2.869140386581420898e+00 -3.625851821899414062e+01 -6.400691345334053040e-04 -3.856447637081146240e-01 -1.158854439854621887e-01 -1.162397861480712891e-01
3.754000000000000000e+03 2.782216787338256836e+00 -3.557381820678710938e+01 -1.165749621577560902e-03 -3.743230700492858887e-01 -1.126466393470764160e-01 -1.130369156599044800e-01
3.755000000000000000e+03 2.551401853561401367e+00 1.712541389465332031e+01 5.674949660897254944e-02 -4.052684307098388672e-01 -1.045556813478469849e-01 6.392592936754226685e-02
3.756000000000000000e+03 1.868840575218200684e+00 1.226884460449218750e+01 -2.986725186929106712e-03 -1.940341740846633911e-01 -5.910626798868179321e-02 1.386040002107620239e-01
3.757000000000000000e+03 2.561784267425537109e+00 1.386415481567382812e+01 2.681936137378215790e-02 -2.750703692436218262e-01 -7.447530329227447510e-02 1.684743016958236694e-01
3.758000000000000000e+03 1.869968652725219727e+00 1.065342807769775391e+01 -1.873064972460269928e-02 -1.033536121249198914e-01 -3.662527725100517273e-02 1.211946979165077209e-01
3.759000000000000000e+03 2.608513116836547852e+00 1.306400489807128906e+01 1.037521753460168839e-02 -2.330314069986343384e-01 -6.679685413837432861e-02 1.793837696313858032e-01
3.760000000000000000e+03 2.211487531661987305e+00 2.912394142150878906e+01 -2.116183750331401825e-02 -6.580518484115600586e-01 -2.037641108036041260e-01 2.076846361160278320e-01
3.761000000000000000e+03 1.842294454574584961e+00 9.032905578613281250e+00 -2.808108180761337280e-02 -2.926582098007202148e-02 -1.720407046377658844e-02 8.368720114231109619e-02
3.762000000000000000e+03 3.736914157867431641e+00 7.937129020690917969e+00 -1.004483923316001892e-01 -3.147787228226661682e-02 -3.957787901163101196e-02 9.333215653896331787e-02
3.763000000000000000e+03 2.205863714218139648e+00 2.846963882446289062e+01 -4.059821367263793945e-02 -6.273293495178222656e-01 -2.003782689571380615e-01 1.945455372333526611e-01
3.764000000000000000e+03 5.282718181610107422e+00 3.155788993835449219e+01 1.270534396171569824e-01 -4.468531310558319092e-01 -9.593990445137023926e-02 1.635722965002059937e-01
3.765000000000000000e+03 6.201240539550781250e+00 2.310886001586914062e+01 -1.521154791116714478e-01 -5.035570859909057617e-01 -1.967017799615859985e-01 1.298272311687469482e-01
3.766000000000000000e+03 1.819518446922302246e+00 2.112661552429199219e+01 7.726372685283422470e-03 -4.600165486335754395e-01 -1.356870532035827637e-01 -4.429540410637855530e-02
3.767000000000000000e+03 1.850651264190673828e+00 7.425295352935791016e+00 -2.982749976217746735e-02 1.825369521975517273e-02 -3.472141455858945847e-03 3.732470422983169556e-02
3.768000000000000000e+03 8.768265724182128906e+00 1.036702823638916016e+01 -2.966963648796081543e-01 -3.015091717243194580e-01 -1.794616580009460449e-01 3.055197894573211670e-01
3.769000000000000000e+03 1.702801108360290527e+00 -1.937749290466308594e+01 -2.063921419903635979e-03 -8.299112319946289062e-02 -2.551651373505592346e-02 -1.147671341896057129e-01
3.770000000000000000e+03 2.949499607086181641e+00 -2.035957527160644531e+01 5.042292550206184387e-02 -1.312711089849472046e-01 -2.425445429980754852e-02 -1.371868848800659180e-01
3.771000000000000000e+03 2.533688306808471680e+00 8.192516326904296875e+00 -5.329481884837150574e-02 -2.022415027022361755e-02 -2.205569110810756683e-02 8.010653406381607056e-02
3.772000000000000000e+03 2.561185359954833984e+00 8.986034393310546875e+00 -4.882644489407539368e-02 -4.456023126840591431e-02 -2.801600284874439240e-02 1.074942499399185181e-01
3.773000000000000000e+03 1.822395443916320801e+00 1.792184066772460938e+01 3.096477501094341278e-02 -4.453281164169311523e-01 -1.243090033531188965e-01 2.097994275391101837e-02
3.774000000000000000e+03 2.532694101333618164e+00 2.031949996948242188e+01 2.742310985922813416e-02 -4.567508101463317871e-01 -1.287983059883117676e-01 -3.315690159797668457e-02
3.775000000000000000e+03 7.806910991668701172e+00 1.668957519531250000e+01 3.308383524417877197e-01 -1.650654226541519165e-01 4.973188042640686035e-02 2.159142047166824341e-01
3.776000000000000000e+03 1.833389282226562500e+00 -1.456997489929199219e+01 -2.191990800201892853e-02 4.960617050528526306e-02 8.305879309773445129e-03 -1.935700513422489166e-02
3.777000000000000000e+03 2.444724321365356445e+00 -8.886131286621093750e+00 1.445050118491053581e-03 2.820738218724727631e-02 8.895729668438434601e-03 3.065047413110733032e-02
3.778000000000000000e+03 1.739146709442138672e+00 -8.946042060852050781e+00 -1.059176749549806118e-03 5.551514029502868652e-02 1.633678935468196869e-02 2.769518457353115082e-02
3.779000000000000000e+03 3.295775651931762695e+00 -1.704897499084472656e+01 -7.339268177747726440e-02 -9.681008756160736084e-02 -5.106082931160926819e-02 -1.094846576452255249e-01
3.780000000000000000e+03 6.949784755706787109e+00 -1.299584579467773438e+01 -1.551057547330856323e-01 -1.749170422554016113e-01 -9.900683909654617310e-02 -1.164038032293319702e-01
3.781000000000000000e+03 1.828621149063110352e+00 -1.216918182373046875e+01 -9.985595941543579102e-03 6.569343060255050659e-02 1.671234890818595886e-02 1.548854075372219086e-02
3.782000000000000000e+03 1.795916199684143066e+00 -1.701525306701660156e+01 -2.721649408340454102e-02 1.822068123146891594e-03 -7.618328090757131577e-03 -7.748690247535705566e-02
3.783000000000000000e+03 3.146682262420654297e+00 -1.792613220214843750e+01 -5.758801847696304321e-02 -9.789475798606872559e-02 -4.664483293890953064e-02 -1.373001039028167725e-01
3.784000000000000000e+03 1.828511118888854980e+00 1.631498146057128906e+01 3.083777613937854767e-02 -4.030193388462066650e-01 -1.116544678807258606e-01 6.940656155347824097e-02
3.785000000000000000e+03 2.526569128036499023e+00 2.191682624816894531e+01 -2.481367671862244606e-03 -4.697538912296295166e-01 -1.416705846786499023e-01 -4.431887343525886536e-02
3.786000000000000000e+03 1.825901150703430176e+00 2.356816673278808594e+01 -2.468039095401763916e-02 -4.589209258556365967e-01 -1.450803875923156738e-01 -2.469169907271862030e-02
3.787000000000000000e+03 4.847673416137695312e+00 2.591691589355468750e+01 -2.462907880544662476e-01 -7.584775090217590332e-01 -3.014304935932159424e-01 1.656035482883453369e-01
3.788000000000000000e+03 5.143158435821533203e+00 -1.429581260681152344e+01 -9.951697289943695068e-02 -1.730629652738571167e-01 -8.177398145198822021e-02 -8.935010433197021484e-02
3.789000000000000000e+03 2.542348623275756836e+00 1.549591445922851562e+01 4.979829862713813782e-02 -3.514276146888732910e-01 -9.048879891633987427e-02 1.222763806581497192e-01
3.790000000000000000e+03 2.537631511688232422e+00 1.467224502563476562e+01 4.128041863441467285e-02 -3.169802129268646240e-01 -8.270993828773498535e-02 1.478135734796524048e-01
3.791000000000000000e+03 2.528504371643066406e+00 -1.127157878875732422e+01 -1.203737221658229828e-02 2.366667613387107849e-02 3.488791408017277718e-03 2.271472476422786713e-02
3.792000000000000000e+03 3.432709693908691406e+00 -1.198411655426025391e+01 -2.882071398198604584e-02 -2.905929833650588989e-02 -1.736400276422500610e-02 7.801909465342760086e-03
3.793000000000000000e+03 2.435839414596557617e+00 -9.663022994995117188e+00 -3.658856265246868134e-03 2.972276136279106140e-02 7.819171063601970673e-03 3.003950417041778564e-02
3.794000000000000000e+03 2.555661201477050781e+00 -1.616751098632812500e+01 -4.965064674615859985e-02 -2.962737344205379486e-02 -2.378340624272823334e-02 -7.059572637081146240e-02
3.795000000000000000e+03 2.557336091995239258e+00 -1.533613014221191406e+01 -4.643458500504493713e-02 -1.872055046260356903e-02 -1.954654045403003693e-02 -4.856490343809127808e-02
3.796000000000000000e+03 2.551929950714111328e+00 1.631595230102539062e+01 5.551948770880699158e-02 -3.819097578525543213e-01 -9.791708737611770630e-02 9.399162977933883667e-02
3.797000000000000000e+03 6.053953170776367188e+00 2.417016220092773438e+01 -1.976670622825622559e-01 -6.046837568283081055e-01 -2.407052516937255859e-01 1.915529817342758179e-01
3.798000000000000000e+03 4.608829975128173828e+00 2.423776245117187500e+01 -1.357873231172561646e-01 -5.896410942077636719e-01 -2.176285237073898315e-01 7.183749973773956299e-02
3.799000000000000000e+03 2.584326028823852539e+00 -2.368750381469726562e+01 4.245799034833908081e-02 -1.641394346952438354e-01 -3.650443255901336670e-02 -1.044542994350194931e-02
3.800000000000000000e+03 1.794866442680358887e+00 -2.608050918579101562e+01 -9.998008608818054199e-04 -1.947170943021774292e-01 -5.871507152915000916e-02 1.824990101158618927e-02
3.801000000000000000e+03 4.186993598937988281e+00 -2.337283897399902344e+01 9.786450862884521484e-02 -1.015121638774871826e-01 -1.094295876100659370e-03 -2.269880101084709167e-02
3.802000000000000000e+03 3.853338241577148438e+00 -5.136510372161865234e+00 8.888159878551959991e-03 -4.340083803981542587e-03 1.364422729238867760e-03 2.547362074255943298e-02
3.803000000000000000e+03 5.467607975006103516e+00 -2.393175888061523438e+01 1.005804762244224548e-01 -4.037952423095703125e-02 1.806028559803962708e-02 -7.524386048316955566e-03
3.804000000000000000e+03 1.750320076942443848e+00 -5.809097290039062500e+00 1.638882211409509182e-03 2.907592989504337311e-02 9.214444085955619812e-03 2.271275408565998077e-02
3.805000000000000000e+03 1.735611677169799805e+00 -6.602382183074951172e+00 3.570689586922526360e-03 3.585788235068321228e-02 1.182857155799865723e-02 2.460917830467224121e-02
3.806000000000000000e+03 1.902173161506652832e+00 5.827457904815673828e+00 -2.343511581420898438e-02 3.619921952486038208e-02 3.829231020063161850e-03 -2.235248917713761330e-03
3.807000000000000000e+03 2.574046134948730469e+00 7.420230388641357422e+00 -5.385429784655570984e-02 -1.062087132595479488e-03 -1.647491566836833954e-02 5.084389075636863708e-02
3.808000000000000000e+03 1.797758579254150391e+00 -2.687870979309082031e+01 -5.119595210999250412e-03 -1.945567429065704346e-01 -5.990290269255638123e-02 1.673337630927562714e-02
3.809000000000000000e+03 2.542559146881103516e+00 -2.452612686157226562e+01 2.822946570813655853e-02 -1.671690642833709717e-01 -4.168188199400901794e-02 7.458280771970748901e-03
3.810000000000000000e+03 2.446169376373291016e+00 -8.120820045471191406e+00 4.157885850872844458e-04 2.599828131496906281e-02 7.924221456050872803e-03 3.166557103395462036e-02
3.811000000000000000e+03 4.073724269866943359e+00 -4.367722034454345703e+00 1.140803378075361252e-02 -6.993400398641824722e-03 1.324390061199665070e-03 2.318575792014598846e-02
3.812000000000000000e+03 3.112016439437866211e+00 -6.585400104522705078e+00 6.734149996191263199e-03 6.093456875532865524e-03 3.848282154649496078e-03 3.025732375681400299e-02
3.813000000000000000e+03 2.530064582824707031e+00 -2.692141342163085938e+01 -1.308082137256860733e-02 -1.746854186058044434e-01 -5.632987245917320251e-02 1.302914600819349289e-02
3.814000000000000000e+03 1.803421020507812500e+00 -2.767813682556152344e+01 -1.184557005763053894e-02 -1.958105117082595825e-01 -6.229682639241218567e-02 9.136422537267208099e-03
3.815000000000000000e+03 2.531508207321166992e+00 -2.771696472167968750e+01 -1.880935393273830414e-02 -1.808769553899765015e-01 -5.990589410066604614e-02 5.131943617016077042e-03
3.816000000000000000e+03 2.544158697128295898e+00 -2.931449508666992188e+01 -2.818489633500576019e-02 -2.001703530550003052e-01 -6.850657612085342407e-02 -2.242189645767211914e-02
3.817000000000000000e+03 2.528388261795043945e+00 -2.533326148986816406e+01 1.001823600381612778e-02 -1.697172820568084717e-01 -4.790971428155899048e-02 1.574390381574630737e-02
3.818000000000000000e+03 3.552803277969360352e+00 3.399161100387573242e+00 -1.491752173751592636e-02 8.132800459861755371e-03 -2.035416429862380028e-03 -4.333785176277160645e-02
3.819000000000000000e+03 1.864076256752014160e+00 -3.167420005798339844e+01 -1.529885362833738327e-02 -2.543481588363647461e-01 -8.089410513639450073e-02 -5.073524639010429382e-02
3.820000000000000000e+03 1.939760446548461914e+00 3.311595535278320312e+01 4.783849790692329407e-02 -8.655070066452026367e-01 -2.453005462884902954e-01 1.082669571042060852e-01
3.821000000000000000e+03 3.397840261459350586e+00 3.230583190917968750e+01 1.054128706455230713e-01 -6.878290176391601562e-01 -1.747248321771621704e-01 1.828406900167465210e-01
3.822000000000000000e+03 2.673894882202148438e+00 3.306621551513671875e+01 8.766209334135055542e-02 -7.754987478256225586e-01 -2.063509970903396606e-01 1.289150267839431763e-01
3.823000000000000000e+03 3.346492767333984375e+00 -3.099998092651367188e+01 -4.671170189976692200e-02 -2.251000404357910156e-01 -8.154352009296417236e-02 -7.761416584253311157e-02
3.824000000000000000e+03 2.564458131790161133e+00 -3.012313842773437500e+01 -3.174809366464614868e-02 -2.137908786535263062e-01 -7.366169244050979614e-02 -4.005398973822593689e-02
3.825000000000000000e+03 2.672721862792968750e+00 -3.326243591308593750e+01 -2.087225392460823059e-02 -2.946763932704925537e-01 -9.466458857059478760e-02 -9.897178411483764648e-02
3.826000000000000000e+03 2.835800409317016602e+00 -3.490006637573242188e+01 -7.915167137980461121e-03 -3.440400362014770508e-01 -1.055865585803985596e-01 -1.208571568131446838e-01
3.827000000000000000e+03 2.639500141143798828e+00 3.125927543640136719e+01 4.966675117611885071e-02 -7.297698855400085449e-01 -2.040309458971023560e-01 2.039712667465209961e-01
3.828000000000000000e+03 2.852229595184326172e+00 -3.411610412597656250e+01 -1.646289788186550140e-02 -3.197525143623352051e-01 -1.008646190166473389e-01 -1.131588071584701538e-01
3.829000000000000000e+03 3.231013536453247070e+00 3.921327209472656250e+01 -1.309691462665796280e-02 -6.770983338356018066e-01 -2.070585787296295166e-01 -1.492955815047025681e-02
3.830000000000000000e+03 3.192889213562011719e+00 3.821114730834960938e+01 1.208570133894681931e-02 -6.988492012023925781e-01 -2.060290575027465820e-01 -2.817523479461669922e-02
3.831000000000000000e+03 4.565581321716308594e+00 -3.683339691162109375e+01 2.136458270251750946e-02 -3.698226511478424072e-01 -1.045374199748039246e-01 -1.616780161857604980e-01
3.832000000000000000e+03 4.728983306884765625e+01 3.170701503753662109e+00 -9.371080994606018066e-01 3.430067002773284912e-01 -1.782304197549819946e-01 7.993595674633979797e-03
3.833000000000000000e+03 4.796356964111328125e+01 -4.241270065307617188e+00 -7.506794929504394531e-01 4.208984971046447754e-01 -9.893430024385452271e-02 3.905512988567352295e-01
3.834000000000000000e+03 6.120186614990234375e+01 -1.351829409599304199e+00 2.323589324951171875e+00 1.192140579223632812e+01 4.273498535156250000e+00 -2.583556413650512695e+00
3.835000000000000000e+03 6.347998428344726562e+01 5.101877689361572266e+00 -2.548713922500610352e+00 4.153058528900146484e+00 4.813033342361450195e-01 -1.623612999916076660e+00
3.836000000000000000e+03 5.271820068359375000e+01 3.074275732040405273e+00 -5.797268748283386230e-01 1.240896619856357574e-02 -1.701953709125518799e-01 -1.771583110094070435e-01
3.837000000000000000e+03 5.208487319946289062e+01 3.604371786117553711e+00 -4.991412162780761719e-01 -8.781145513057708740e-02 -1.760857999324798584e-01 -1.807701885700225830e-01
3.838000000000000000e+03 4.117148590087890625e+01 -2.508354187011718750e+01 2.801757454872131348e-01 7.680141925811767578e-01 3.144569694995880127e-01 3.039985597133636475e-01
3.839000000000000000e+03 6.487895202636718750e+01 -2.781476402282714844e+01 -1.405083179473876953e+00 6.868234634399414062e+00 1.638945341110229492e+00 -2.243662595748901367e+00
3.840000000000000000e+03 2.815101242065429688e+01 8.502935409545898438e+00 3.358702957630157471e-01 7.093986272811889648e-01 3.135806918144226074e-01 2.105925083160400391e-01
3.841000000000000000e+03 2.827654647827148438e+01 7.617284297943115234e+00 2.501713037490844727e-01 8.036990165710449219e-01 3.161610960960388184e-01 1.106738895177841187e-01
3.842000000000000000e+03 3.035452270507812500e+01 -1.193936824798583984e+01 -7.681775689125061035e-01 -7.115762233734130859e-01 -4.439261257648468018e-01 -2.376153171062469482e-01
3.843000000000000000e+03 2.476864051818847656e+01 -2.652461051940917969e+01 4.658596217632293701e-01 -1.535244733095169067e-01 9.370054304599761963e-02 -1.701459586620330811e-01
3.844000000000000000e+03 2.381226730346679688e+01 -2.784894561767578125e+01 4.718259871006011963e-01 -6.502728909254074097e-02 1.220396086573600769e-01 -1.993239969015121460e-01
3.845000000000000000e+03 2.772359085083007812e+01 -2.035173988342285156e+01 -1.490010041743516922e-02 -2.288090586662292480e-01 -7.311274856328964233e-02 -5.961041897535324097e-02
3.846000000000000000e+03 4.400940704345703125e+01 3.815513134002685547e+00 -9.288404583930969238e-01 1.764202564954757690e-01 -2.257260680198669434e-01 1.474590599536895752e-01
3.847000000000000000e+03 4.210563659667968750e+01 -1.555157756805419922e+01 -5.101261734962463379e-01 -2.400216087698936462e-02 -1.602384895086288452e-01 -4.223422110080718994e-01
3.848000000000000000e+03 5.326592636108398438e+01 3.824154853820800781e+00 -4.170951247215270996e-01 3.890368044376373291e-01 -8.417502976953983307e-03 -2.847841680049896240e-01
3.849000000000000000e+03 5.529293441772460938e+01 3.332043886184692383e+00 -5.567564964294433594e-01 1.701917529106140137e+00 3.435483276844024658e-01 -1.102553009986877441e+00
3.850000000000000000e+03 4.678256225585937500e+01 -2.374448585510253906e+01 9.757320582866668701e-02 1.253327250480651855e+00 4.052701294422149658e-01 -2.770375609397888184e-01
3.851000000000000000e+03 2.931950378417968750e+01 -2.815919494628906250e+01 3.911348581314086914e-01 -1.282754674321040511e-04 1.173019781708717346e-01 -2.296380996704101562e-01
3.852000000000000000e+03 3.916458511352539062e+01 -1.691775512695312500e+01 6.062634754925966263e-03 6.674861311912536621e-01 2.020646333694458008e-01 -4.027365148067474365e-01
3.853000000000000000e+03 3.945615386962890625e+01 -1.444050025939941406e+01 -8.806859850883483887e-01 8.120620250701904297e-01 -2.058719284832477570e-02 -4.124011695384979248e-01
3.854000000000000000e+03 6.468831634521484375e+01 -2.460694122314453125e+01 -2.675898373126983643e-01 7.596957206726074219e+00 2.198810338973999023e+00 -1.956267833709716797e+00
3.855000000000000000e+03 6.415079498291015625e+01 -2.587609291076660156e+01 -2.131214380264282227e+00 6.350398540496826172e+00 1.265755176544189453e+00 -1.766400694847106934e+00
3.856000000000000000e+03 1.603749656677246094e+01 -1.993955421447753906e+01 -5.587887763977050781e-01 -4.879811406135559082e-01 -3.140309751033782959e-01 -5.441768765449523926e-01
3.857000000000000000e+03 3.456261444091796875e+01 2.057165718078613281e+01 1.323790103197097778e-01 1.349309682846069336e-01 8.019299060106277466e-02 2.976936101913452148e-01
3.858000000000000000e+03 1.189698600769042969e+01 -9.718662261962890625e+00 -9.172276407480239868e-02 1.381946541368961334e-02 -2.337098866701126099e-02 -7.145060598850250244e-02
3.859000000000000000e+03 1.136749553680419922e+01 -1.108824634552001953e+01 -1.341418772935867310e-01 1.811777765396982431e-04 -4.018821194767951965e-02 -8.130586892366409302e-02
3.860000000000000000e+03 5.434000015258789062e+01 2.313910293579101562e+01 -1.486176848411560059e+00 4.020594596862792969e+00 7.603253126144409180e-01 -1.463050603866577148e+00
3.861000000000000000e+03 2.705406188964843750e+00 5.002727508544921875e+00 -3.490393608808517456e-02 1.903643645346164703e-02 -4.760249983519315720e-03 -1.851203478872776031e-02
3.862000000000000000e+03 2.754247426986694336e+00 3.416220426559448242e+00 -9.081883355975151062e-03 1.691421121358871460e-02 2.349698450416326523e-03 -4.169390723109245300e-02
3.863000000000000000e+03 5.976653575897216797e+00 3.340062618255615234e+00 -4.057083651423454285e-02 -1.547863427549600601e-02 -1.681484095752239227e-02 -3.549227491021156311e-02
3.864000000000000000e+03 5.084856510162353516e+00 4.910425186157226562e+00 -9.313014149665832520e-02 -1.500635221600532532e-02 -3.244094550609588623e-02 -7.764387875795364380e-03
3.865000000000000000e+03 6.738237380981445312e+00 4.031516551971435547e+00 -9.432277083396911621e-02 -3.303101658821105957e-02 -3.820613771677017212e-02 -1.571442931890487671e-02
3.866000000000000000e+03 8.792892456054687500e+00 4.615665912628173828e+00 -1.940181255340576172e-01 -9.961082786321640015e-02 -8.808868378400802612e-02 4.185292497277259827e-02
3.867000000000000000e+03 8.220123291015625000e+00 3.897888183593750000e+00 -1.241092383861541748e-01 -6.623956561088562012e-02 -5.710464343428611755e-02 8.845357224345207214e-03
3.868000000000000000e+03 6.717372131347656250e+01 5.326659202575683594e+00 -1.834205746650695801e+00 1.005538702011108398e+00 -2.486000955104827881e-01 1.971745848655700684e+00
3.869000000000000000e+03 2.568905830383300781e+01 -1.355344390869140625e+01 -1.381085634231567383e+00 -4.905621111392974854e-01 -5.614943504333496094e-01 -6.506304144859313965e-01
3.870000000000000000e+03 6.466273498535156250e+01 -1.617350769042968750e+01 -2.983045816421508789e+00 7.214654922485351562e+00 1.269482851028442383e+00 5.735099315643310547e-01
3.871000000000000000e+03 2.674567604064941406e+01 -3.159677314758300781e+01 1.396765708923339844e-01 -2.033368051052093506e-01 -1.909806951880455017e-02 -1.739211678504943848e-01
3.872000000000000000e+03 5.949401092529296875e+01 1.308279991149902344e+01 1.495216369628906250e+00 8.235957145690917969e+00 2.919352054595947266e+00 -1.030840039253234863e+00
3.873000000000000000e+03 5.483391571044921875e+01 -2.723023605346679688e+01 -2.105525583028793335e-01 4.767644882202148438e+00 1.367127656936645508e+00 1.465523719787597656e+00
3.874000000000000000e+03 6.177320480346679688e+01 2.062562942504882812e+01 -1.722569584846496582e+00 4.703940391540527344e+00 8.944112062454223633e-01 2.280735015869140625e+00
3.875000000000000000e+03 6.228680038452148438e+01 1.967793273925781250e+01 -7.341306805610656738e-01 4.866469860076904297e+00 1.239701747894287109e+00 2.196584701538085938e+00
3.876000000000000000e+03 5.324272155761718750e+01 -1.039820098876953125e+01 -6.976155638694763184e-01 -6.401807069778442383e-01 -4.013388752937316895e-01 1.932296901941299438e-01
3.877000000000000000e+03 5.246448898315429688e+01 -8.756764411926269531e+00 -8.436822295188903809e-01 -8.219153285026550293e-01 -4.996792674064636230e-01 5.082827210426330566e-01
3.878000000000000000e+03 7.044691467285156250e+01 2.006395530700683594e+01 -1.928000450134277344e+00 4.540066719055175781e+00 7.836199402809143066e-01 -1.118155121803283691e+00
3.879000000000000000e+03 4.650296211242675781e+00 -2.058913230895996094e+01 1.199672818183898926e-01 -9.359312057495117188e-02 7.912248373031616211e-03 -1.181300207972526550e-01
3.880000000000000000e+03 3.357913017272949219e+00 -1.966888999938964844e+01 2.196661941707134247e-02 -1.294446736574172974e-01 -3.224341571331024170e-02 -1.588247567415237427e-01
3.881000000000000000e+03 6.627310180664062500e+01 -1.089857101440429688e+00 2.933429479598999023e+00 5.464992046356201172e+00 2.519526481628417969e+00 2.676436662673950195e+00
3.882000000000000000e+03 5.105686569213867188e+01 2.643570899963378906e+01 9.076465368270874023e-01 3.677680492401123047e+00 1.375598073005676270e+00 -5.042457580566406250e-01
3.883000000000000000e+03 3.384945297241210938e+01 3.015032768249511719e+01 1.570510566234588623e-01 4.708161652088165283e-01 1.883601695299148560e-01 3.714447841048240662e-02
3.884000000000000000e+03 2.147557449340820312e+01 2.392150115966796875e+01 2.836013138294219971e-01 -6.020960211753845215e-02 6.701751053333282471e-02 2.686429619789123535e-01
3.885000000000000000e+03 4.555656051635742188e+01 6.609811305999755859e+00 -2.314398884773254395e-01 6.479409337043762207e-01 1.249503120779991150e-01 -6.508767604827880859e-02
3.886000000000000000e+03 4.267514038085937500e+01 6.681373119354248047e+00 -3.270242512226104736e-01 1.107492856681346893e-02 -9.478479623794555664e-02 4.332285821437835693e-01
3.887000000000000000e+03 6.325645446777343750e+01 -6.350995540618896484e+00 2.755666494369506836e+00 1.343501949310302734e+01 4.857205867767333984e+00 1.535724848508834839e-01
3.888000000000000000e+03 6.111770629882812500e+01 -2.503052520751953125e+01 3.733125030994415283e-01 1.308972239494323730e+00 5.046854019165039062e-01 8.820173740386962891e-01
3.889000000000000000e+03 4.723155975341796875e+01 2.619020271301269531e+01 4.609688222408294678e-01 2.244582653045654297e+00 8.116654753684997559e-01 -3.321759030222892761e-02
3.890000000000000000e+03 5.420080184936523438e+01 -3.604004287719726562e+01 2.343871146440505981e-01 4.453904628753662109e+00 1.406487464904785156e+00 8.904784321784973145e-01
3.891000000000000000e+03 5.354945755004882812e+01 1.779998016357421875e+01 9.075554609298706055e-01 3.413562774658203125e+00 1.296335458755493164e+00 -2.026080608367919922e+00
3.892000000000000000e+03 2.043298149108886719e+01 -1.538623428344726562e+01 -5.261750221252441406e-01 -1.375568211078643799e-01 -1.991195529699325562e-01 -3.010524809360504150e-01
3.893000000000000000e+03 2.194527244567871094e+01 1.565274524688720703e+01 -2.592993080615997314e-01 -1.466202884912490845e-01 -1.217758804559707642e-01 1.307519674301147461e-01
3.894000000000000000e+03 1.682229995727539062e+01 -1.099588489532470703e+01 -1.750400811433792114e-01 8.545552939176559448e-02 -2.687536738812923431e-02 7.350710034370422363e-02
3.895000000000000000e+03 1.574403762817382812e+01 -1.404424476623535156e+01 -3.909010812640190125e-02 2.886641621589660645e-01 7.487221807241439819e-02 -4.259036853909492493e-02
3.896000000000000000e+03 3.584482955932617188e+01 -1.347643947601318359e+01 -6.783752441406250000e-01 5.005987882614135742e-01 -5.333293974399566650e-02 -1.393670886754989624e-01
3.897000000000000000e+03 4.106257247924804688e+01 1.166657161712646484e+01 -2.199367061257362366e-02 -1.021640151739120483e-01 -3.724730387330055237e-02 -2.856470644474029541e-02
3.898000000000000000e+03 4.935898208618164062e+01 3.808726549148559570e+00 -6.720640659332275391e-01 1.504606157541275024e-01 -1.564810276031494141e-01 -1.846977025270462036e-01
3.899000000000000000e+03 6.941110229492187500e+01 6.359653949737548828e+00 -1.391900062561035156e+00 3.141221761703491211e+00 5.247964859008789062e-01 2.529788255691528320e+00
3.900000000000000000e+03 7.153364562988281250e+01 7.890791416168212891e+00 -1.132553741335868835e-01 7.534869194030761719e+00 2.226484060287475586e+00 1.733512878417968750e+00
3.901000000000000000e+03 5.947172546386718750e+01 1.098509311676025391e+01 1.768341898918151855e+00 7.903014183044433594e+00 2.901406764984130859e+00 -1.203362822532653809e+00
3.902000000000000000e+03 8.957991600036621094e+00 3.946753740310668945e+00 -1.426873207092285156e-01 -8.451179414987564087e-02 -6.815973669290542603e-02 2.999330870807170868e-02
3.903000000000000000e+03 4.334231185913085938e+01 1.613070869445800781e+01 -1.493048015981912613e-02 7.962574958801269531e-01 2.343980967998504639e-01 -1.718929558992385864e-01
3.904000000000000000e+03 4.012768173217773438e+01 2.085891914367675781e+01 3.378864824771881104e-01 4.088008031249046326e-02 1.136299669742584229e-01 9.369356930255889893e-02
3.905000000000000000e+03 4.528135681152343750e+01 -2.006086921691894531e+01 6.131033301353454590e-01 1.404667019844055176e+00 6.053311228752136230e-01 2.626199126243591309e-01
3.906000000000000000e+03 6.999491691589355469e+00 -2.441697502136230469e+01 6.577900797128677368e-02 3.917975723743438721e-02 3.148762881755828857e-02 -4.722506552934646606e-02
3.907000000000000000e+03 7.972048759460449219e+00 -1.184347057342529297e+01 -1.359936445951461792e-01 -1.522519886493682861e-01 -8.647368848323822021e-02 -8.143576979637145996e-02
3.908000000000000000e+03 3.218667221069335938e+01 -5.613015651702880859e+00 -1.047315374016761780e-01 -3.337066769599914551e-01 -1.315314620733261108e-01 -5.530380606651306152e-01
3.909000000000000000e+03 6.917120361328125000e+01 -1.514815235137939453e+01 -1.386554002761840820e+00 3.848850131034851074e-01 -3.005006909370422363e-01 -2.255061864852905273e+00
3.910000000000000000e+03 7.088829803466796875e+01 -1.497951698303222656e+01 -3.866786956787109375e-01 1.332133173942565918e+00 2.836363315582275391e-01 -2.272085666656494141e+00
3.911000000000000000e+03 5.886023044586181641e+00 3.521914291381835938e+01 1.883546113967895508e-01 -2.952814996242523193e-01 -3.207807242870330811e-02 1.117929909378290176e-02
3.912000000000000000e+03 2.834497451782226562e+01 -1.745186233520507812e+01 -1.610838621854782104e-01 -3.477425873279571533e-01 -1.526479274034500122e-01 -1.554908752441406250e-01
3.913000000000000000e+03 2.609983062744140625e+01 -1.411296653747558594e+01 -1.118540883064270020e+00 -5.457312464714050293e-01 -4.992816448211669922e-01 -5.479268431663513184e-01
3.914000000000000000e+03 9.638753890991210938e+00 3.914946794509887695e+00 -1.590242385864257812e-01 -1.020833700895309448e-01 -7.833228260278701782e-02 5.125806480646133423e-02
3.915000000000000000e+03 7.399008941650390625e+01 -2.417489242553710938e+01 1.047970652580261230e+00 1.056486034393310547e+01 3.483849287033081055e+00 2.244143784046173096e-01
3.916000000000000000e+03 7.445027160644531250e+01 -2.615624046325683594e+01 -1.436361074447631836e+00 8.301728248596191406e+00 2.059610128402709961e+00 3.452706336975097656e-01
3.917000000000000000e+03 1.139626026153564453e+01 -2.387281227111816406e+01 -3.896960616111755371e-02 -2.184282839298248291e-01 -7.721936702728271484e-02 -2.883859276771545410e-01
3.918000000000000000e+03 1.411278533935546875e+01 -2.781182289123535156e+01 -1.125164479017257690e-01 -5.774739980697631836e-01 -2.069971263408660889e-01 -2.939036488533020020e-01
3.919000000000000000e+03 1.430078220367431641e+01 5.533991813659667969e+00 -4.405574798583984375e-01 -1.503550261259078979e-01 -1.772737503051757812e-01 4.728951156139373779e-01
3.920000000000000000e+03 1.325635147094726562e+01 5.423974990844726562e+00 -4.017018079757690430e-01 -2.855558693408966064e-01 -2.061772942543029785e-01 3.625455796718597412e-01
3.921000000000000000e+03 4.390583038330078125e+01 3.093645334243774414e+00 -1.000631451606750488e+00 1.239118799567222595e-01 -2.630158960819244385e-01 1.576642394065856934e-01
3.922000000000000000e+03 4.446326065063476562e+01 5.325110912322998047e+00 -5.850207209587097168e-01 3.294652700424194336e-01 -7.666664570569992065e-02 1.329925358295440674e-01
3.923000000000000000e+03 6.271472549438476562e+01 -1.986587905883789062e+01 1.326962947845458984e+00 7.040006637573242188e+00 2.510090827941894531e+00 -4.327646791934967041e-01
3.924000000000000000e+03 3.081154060363769531e+01 1.263451290130615234e+01 -1.907579600811004639e-01 8.316349387168884277e-01 1.922630965709686279e-01 5.056936740875244141e-01
3.925000000000000000e+03 4.152857780456542969e+00 1.048078346252441406e+01 -8.868011087179183960e-02 -1.075865551829338074e-01 -5.887999758124351501e-02 2.170588970184326172e-01
3.926000000000000000e+03 5.350380325317382812e+01 2.447589302062988281e+01 -2.269127517938613892e-01 4.492076396942138672e+00 1.279549121856689453e+00 -9.671016931533813477e-01
3.927000000000000000e+03 5.322187805175781250e+01 2.375151062011718750e+01 -8.389872312545776367e-01 4.357237815856933594e+00 1.055475234985351562e+00 -1.009667038917541504e+00
3.928000000000000000e+03 2.048270034790039062e+01 1.588194656372070312e+01 -2.709014713764190674e-01 -2.532847225666046143e-01 -1.572558581829071045e-01 1.728600859642028809e-01
3.929000000000000000e+03 2.170690155029296875e+01 1.502016925811767578e+01 -2.081682384014129639e-01 -1.835755109786987305e-01 -1.175231263041496277e-01 1.242673248052597046e-01
3.930000000000000000e+03 6.809740447998046875e+01 -3.171124076843261719e+01 1.836490511894226074e+00 4.985797405242919922e+00 2.046686410903930664e+00 -1.562879085540771484e+00
3.931000000000000000e+03 6.798699188232421875e+01 -3.342450332641601562e+01 1.257026672363281250e+00 5.325673103332519531e+00 1.974809885025024414e+00 -1.133512496948242188e+00
3.932000000000000000e+03 1.763178253173828125e+01 4.698524951934814453e+00 -4.003903865814208984e-01 7.977328449487686157e-02 -9.618513286113739014e-02 3.593694865703582764e-01
3.933000000000000000e+03 1.848718643188476562e+01 5.189519405364990234e+00 -2.530037760734558105e-01 7.417310029268264771e-02 -5.364920571446418762e-02 2.681052982807159424e-01
3.934000000000000000e+03 4.958031082153320312e+01 -3.577120208740234375e+01 8.704112768173217773e-01 3.238078594207763672e+00 1.232546925544738770e+00 1.090523838996887207e+00
3.935000000000000000e+03 5.028598403930664062e+01 -3.355175781250000000e+01 9.345685243606567383e-01 3.408396244049072266e+00 1.302889466285705566e+00 1.025299549102783203e+00
3.936000000000000000e+03 4.999973773956298828e+00 3.079005050659179688e+01 7.227176427841186523e-02 -5.406110882759094238e-01 -1.405017971992492676e-01 1.782670766115188599e-01
3.937000000000000000e+03 5.585890960693359375e+01 2.278208923339843750e+01 -2.151864528656005859e+00 2.657805204391479492e+00 1.517821550369262695e-01 -1.879231691360473633e+00
3.938000000000000000e+03 5.648058319091796875e+01 2.225182723999023438e+01 -1.869198560714721680e+00 1.936501502990722656e+00 2.019087225198745728e-02 -1.838243365287780762e+00
3.939000000000000000e+03 3.195392608642578125e+01 1.523113536834716797e+01 2.241281419992446899e-01 7.014377713203430176e-01 2.776697874069213867e-01 4.141176342964172363e-01
3.940000000000000000e+03 3.270821762084960938e+01 1.599290752410888672e+01 4.337836205959320068e-01 3.673272728919982910e-01 2.403332591056823730e-01 3.980889618396759033e-01
3.941000000000000000e+03 1.645362854003906250e+01 4.759168148040771484e+00 -4.062950313091278076e-01 1.047585457563400269e-01 -9.046094864606857300e-02 4.406128227710723877e-01
3.942000000000000000e+03 5.554233169555664062e+01 -2.499039649963378906e+01 1.713917851448059082e-01 5.448643684387207031e+00 1.686010718345642090e+00 1.652081608772277832e+00
3.943000000000000000e+03 2.830177688598632812e+01 5.145106792449951172e+00 -2.255867235362529755e-02 5.538656115531921387e-01 1.593920737504959106e-01 1.329314112663269043e-01
3.944000000000000000e+03 2.769806289672851562e+01 6.025502204895019531e+00 1.466528922319412231e-01 4.675787985324859619e-01 1.842695027589797974e-01 1.485872417688369751e-01
3.945000000000000000e+03 6.291939163208007812e+01 -2.043379592895507812e+01 1.764429807662963867e+00 7.226367473602294922e+00 2.697239160537719727e+00 -6.204610466957092285e-01
3.946000000000000000e+03 4.512581634521484375e+01 3.300614547729492188e+01 5.768129229545593262e-01 1.644832015037536621e+00 6.664934754371643066e-01 -7.969276905059814453e-01
3.947000000000000000e+03 4.462224197387695312e+01 3.412117767333984375e+01 4.977078437805175781e-01 1.471053361892700195e+00 5.906283855438232422e-01 -7.211850285530090332e-01
3.948000000000000000e+03 3.146554565429687500e+01 -5.956007957458496094e+00 -6.883607059717178345e-02 -5.564117431640625000e-01 -1.875743418931961060e-01 -4.945961833000183105e-01
3.949000000000000000e+03 2.047636222839355469e+01 2.175591468811035156e+01 9.322975575923919678e-02 -5.570565909147262573e-02 1.125722844153642654e-02 3.162178024649620056e-02
3.950000000000000000e+03 1.564563655853271484e+01 -2.225386810302734375e+01 -2.681033909320831299e-01 -5.515606403350830078e-01 -2.458992004394531250e-01 -3.973149359226226807e-01
3.951000000000000000e+03 1.600389862060546875e+01 -2.159791183471679688e+01 -4.058386385440826416e-01 -4.833258688449859619e-01 -2.667493522167205811e-01 -3.751215636730194092e-01
3.952000000000000000e+03 6.075694274902343750e+01 9.260526657104492188e+00 -1.084221825003623962e-01 7.555188655853271484e+00 2.234030008316040039e+00 -1.276566743850708008e+00
3.953000000000000000e+03 6.110703659057617188e+01 7.258443355560302734e+00 -2.377268552780151367e+00 6.591181278228759766e+00 1.264173746109008789e+00 -1.675603508949279785e+00
3.954000000000000000e+03 4.659991455078125000e+01 -1.454285526275634766e+01 -9.550689458847045898e-01 1.058225631713867188e+00 3.094702214002609253e-02 3.357827365398406982e-01
3.955000000000000000e+03 4.711412811279296875e+01 -1.664119529724121094e+01 1.963893920183181763e-01 1.566898941993713379e+00 5.289865136146545410e-01 4.867303371429443359e-01
3.956000000000000000e+03 5.295142364501953125e+01 1.838090705871582031e+01 6.087769269943237305e-01 3.246377229690551758e+00 1.156546235084533691e+00 -1.988582134246826172e+00
3.957000000000000000e+03 4.530305099487304688e+01 -2.514102172851562500e+01 2.357713729143142700e-01 8.954421281814575195e-01 3.393640518188476562e-01 -1.800630092620849609e-01
3.958000000000000000e+03 4.658322525024414062e+01 -2.268497467041015625e+01 2.586783170700073242e-01 1.576398611068725586e+00 5.505231022834777832e-01 -1.344907581806182861e-01
3.959000000000000000e+03 7.610759735107421875e+01 -9.932427406311035156e+00 6.927644461393356323e-02 9.194966316223144531e+00 2.779272794723510742e+00 -8.901895284652709961e-01
3.960000000000000000e+03 7.623058319091796875e+01 -1.094366073608398438e+01 -1.026159405708312988e+00 9.026967048645019531e+00 2.400242328643798828e+00 -3.340618908405303955e-01
3.961000000000000000e+03 6.594476318359375000e+01 3.045731925964355469e+01 7.565305829048156738e-01 4.483223915100097656e+00 1.571926355361938477e+00 4.319850802421569824e-01
3.962000000000000000e+03 6.008174514770507812e+01 -1.040345859527587891e+01 5.116485357284545898e-01 8.507297515869140625e+00 2.705683946609497070e+00 3.778631925582885742e+00
3.963000000000000000e+03 6.432920074462890625e+01 -8.170593261718750000e+00 2.717385292053222656e+00 1.160922718048095703e+01 4.297983646392822266e+00 -1.309522867202758789e+00
3.964000000000000000e+03 5.487416458129882812e+01 -1.561479282379150391e+01 -1.987610310316085815e-01 8.296113610267639160e-01 1.892550885677337646e-01 3.290231823921203613e-01
3.965000000000000000e+03 5.652782440185546875e+01 -1.089762306213378906e+01 -6.412724256515502930e-01 -5.615420937538146973e-01 -3.608443439006805420e-01 1.168203592300415039e+00
3.966000000000000000e+03 1.471777629852294922e+01 -2.602255821228027344e+01 8.612870424985885620e-02 -5.673354268074035645e-01 -1.443620175123214722e-01 -3.238994777202606201e-01
3.967000000000000000e+03 7.472902679443359375e+01 -2.352456092834472656e+01 1.119667053222656250e+00 1.023409080505371094e+01 3.406127214431762695e+00 -1.687433570623397827e-02
3.968000000000000000e+03 4.077983856201171875e+01 5.818015098571777344e+00 -9.192919731140136719e-02 -6.709300875663757324e-01 -2.288577854633331299e-01 5.161249637603759766e-01
3.969000000000000000e+03 4.523940277099609375e+01 8.124682426452636719e+00 5.057992413640022278e-02 9.871039390563964844e-01 3.113051652908325195e-01 -2.143650352954864502e-01
3.970000000000000000e+03 6.936712646484375000e+01 -1.406573390960693359e+01 -1.054160669445991516e-01 7.533779740333557129e-01 1.943885684013366699e-01 -2.442845821380615234e+00
3.971000000000000000e+03 6.956652832031250000e+01 -1.255011749267578125e+01 9.129985570907592773e-01 1.024737477302551270e+00 5.813207626342773438e-01 -2.401352882385253906e+00
3.972000000000000000e+03 4.302620697021484375e+01 -2.652166366577148438e+01 4.618946611881256104e-01 5.013996362686157227e-01 2.889882922172546387e-01 2.574407756328582764e-01
3.973000000000000000e+03 6.639421844482421875e+01 -1.496059036254882812e+01 -2.125312089920043945e+00 2.940485715866088867e+00 2.445520907640457153e-01 4.166773855686187744e-01
3.974000000000000000e+03 4.581494140625000000e+01 3.226589965820312500e+01 5.831356644630432129e-01 1.888648152351379395e+00 7.415351271629333496e-01 -8.131747841835021973e-01
3.975000000000000000e+03 2.290221977233886719e+01 -2.663493347167968750e+01 5.117149353027343750e-01 -2.089473651722073555e-03 1.528876423835754395e-01 -1.648251116275787354e-01
3.976000000000000000e+03 4.864830780029296875e+01 -2.867285156250000000e+01 7.240658998489379883e-01 9.985652565956115723e-01 5.167893171310424805e-01 -6.922061443328857422e-01
3.977000000000000000e+03 4.918195724487304688e+01 -2.917874336242675781e+01 7.887898087501525879e-01 1.263317584991455078e+00 6.156321763992309570e-01 -5.571399331092834473e-01
3.978000000000000000e+03 5.234582901000976562e+01 1.894186401367187500e+01 2.204551547765731812e-01 3.116330862045288086e+00 1.001035809516906738e+00 -1.855634093284606934e+00
3.979000000000000000e+03 6.596421051025390625e+01 -1.182599544525146484e+01 6.721237301826477051e-01 6.088420867919921875e+00 2.028163433074951172e+00 -1.466763019561767578e+00
3.980000000000000000e+03 1.629771423339843750e+01 -2.249970436096191406e+01 -2.320114374160766602e-01 -4.179470539093017578e-01 -1.949875503778457642e-01 -3.715864717960357666e-01
3.981000000000000000e+03 1.523335170745849609e+01 2.216650581359863281e+01 4.569623172283172607e-01 2.417412549257278442e-01 2.096110731363296509e-01 4.700322747230529785e-01
3.982000000000000000e+03 7.268931579589843750e+01 -1.574957370758056641e+01 -3.151572942733764648e-01 4.084245204925537109e+00 1.130726337432861328e+00 -1.149753451347351074e+00
3.983000000000000000e+03 7.618775177001953125e+01 -6.932779312133789062e+00 1.211309790611267090e+00 1.132552528381347656e+01 3.761050462722778320e+00 -4.745137095451354980e-01
3.984000000000000000e+03 7.660272216796875000e+01 -7.945051193237304688e+00 8.527342677116394043e-01 1.044189834594726562e+01 3.388389587402343750e+00 -7.350790500640869141e-01
3.985000000000000000e+03 2.297103691101074219e+01 -2.508303642272949219e+01 3.466825783252716064e-01 -1.532103586941957474e-02 9.940846264362335205e-02 -1.386058777570724487e-01
3.986000000000000000e+03 1.447139072418212891e+01 -6.974847316741943359e+00 -3.296950832009315491e-02 3.886521980166435242e-02 1.768713933415710926e-03 -1.380832865834236145e-02
3.987000000000000000e+03 2.150817680358886719e+01 1.144557094573974609e+01 8.482963591814041138e-02 -1.321526318788528442e-01 -1.419690065085887909e-02 1.066970080137252808e-01
3.988000000000000000e+03 3.853803253173828125e+01 -2.878228759765625000e+01 3.546700477600097656e-01 6.986740827560424805e-01 3.160032331943511963e-01 3.507882058620452881e-01
3.989000000000000000e+03 6.189620590209960938e+01 2.131719589233398438e+01 -2.312319755554199219e+00 4.507498264312744141e+00 6.585535407066345215e-01 2.606348514556884766e+00
3.990000000000000000e+03 7.315983581542968750e+01 9.805394709110260010e-02 1.553873997181653976e-02 3.690385341644287109e+00 1.111777186393737793e+00 -5.408008098602294922e-01
3.991000000000000000e+03 1.382741260528564453e+01 1.986723709106445312e+01 5.437313392758369446e-02 2.672157585620880127e-01 9.647666662931442261e-02 5.324352979660034180e-01
3.992000000000000000e+03 2.160347747802734375e+01 -1.419566726684570312e+01 -9.858830571174621582e-01 -1.626972109079360962e-01 -3.445740640163421631e-01 -1.453244686126708984e-01
3.993000000000000000e+03 1.987323188781738281e+01 -1.442132282257080078e+01 -5.140436887741088867e-01 -5.814107134938240051e-02 -1.716554313898086548e-01 -1.137788742780685425e-01
3.994000000000000000e+03 2.286166954040527344e+01 2.814396476745605469e+01 4.231862127780914307e-01 3.298153281211853027e-01 2.259004563093185425e-01 3.945460617542266846e-01
3.995000000000000000e+03 3.257508087158203125e+01 -4.511561393737792969e+00 -1.675980836153030396e-01 -1.942185461521148682e-01 -1.085449904203414917e-01 -4.874113202095031738e-01
3.996000000000000000e+03 1.538533592224121094e+01 5.226135253906250000e+00 -3.682341873645782471e-01 2.908710762858390808e-02 -1.017441228032112122e-01 4.793058335781097412e-01
3.997000000000000000e+03 5.138024330139160156e+00 -1.500046062469482422e+01 -1.031177639961242676e-01 -2.043646872043609619e-01 -9.224473685026168823e-02 -1.057519167661666870e-01
3.998000000000000000e+03 3.369153213500976562e+01 -4.789825916290283203e+00 -2.606966197490692139e-01 2.452008612453937531e-02 -7.085295766592025757e-02 -5.474225282669067383e-01
3.999000000000000000e+03 1.273178482055664062e+01 6.330488681793212891e+00 -6.194592714309692383e-01 -3.966355323791503906e-01 -3.048284351825714111e-01 3.210650980472564697e-01
4.000000000000000000e+03 1.106580638885498047e+01 6.234868049621582031e+00 -4.521778821945190430e-01 -2.760749757289886475e-01 -2.184758633375167847e-01 2.388694137334823608e-01
4.001000000000000000e+03 9.415550231933593750e+00 2.189706802368164062e+01 -1.645216792821884155e-01 -1.889823824167251587e-01 -1.060512214899063110e-01 1.891224384307861328e-01
4.002000000000000000e+03 5.498988723754882812e+01 1.539546108245849609e+01 1.838234066963195801e+00 4.302459716796875000e+00 1.842208147048950195e+00 -1.791204690933227539e+00
4.003000000000000000e+03 5.951781463623046875e+01 1.717572212219238281e+01 1.477650046348571777e+00 6.021791934967041016e+00 2.249832630157470703e+00 4.324487149715423584e-01
4.004000000000000000e+03 2.221701622009277344e+01 2.635854911804199219e+01 4.737119376659393311e-01 1.278187036514282227e-01 1.804592013359069824e-01 5.675526261329650879e-01
4.005000000000000000e+03 7.477062225341796875e+01 -1.236673259735107422e+01 -1.627186417579650879e+00 5.860543727874755859e+00 1.270007252693176270e+00 9.074328541755676270e-01
4.006000000000000000e+03 2.117842483520507812e+01 2.676422691345214844e+01 4.405636489391326904e-01 -6.874381005764007568e-02 1.115459501743316650e-01 5.446984767913818359e-01
4.007000000000000000e+03 4.538728332519531250e+01 -1.776083946228027344e+01 4.885068833827972412e-01 1.046136379241943359e+00 4.603929519653320312e-01 2.025522887706756592e-01
4.008000000000000000e+03 4.407537078857421875e+01 1.598294830322265625e+01 -1.187285594642162323e-02 9.530801177024841309e-01 2.823621928691864014e-01 -8.949890732765197754e-02
4.009000000000000000e+03 5.206089782714843750e+01 -7.928117275238037109e+00 -9.243481755256652832e-01 -8.282663226127624512e-01 -5.257843732833862305e-01 6.108763813972473145e-01
4.010000000000000000e+03 4.950111770629882812e+01 -1.000413513183593750e+01 -1.076166704297065735e-01 7.037827372550964355e-01 1.788498163223266602e-01 -7.028602063655853271e-02
4.011000000000000000e+03 6.521338653564453125e+01 -9.945844650268554688e+00 1.789772033691406250e+00 9.114366531372070312e+00 3.271241664886474609e+00 -2.118587732315063477e+00
4.012000000000000000e+03 6.061556625366210938e+01 -1.015570545196533203e+01 2.983440756797790527e-01 1.046866321563720703e+01 3.230102300643920898e+00 2.833312034606933594e+00
4.013000000000000000e+03 5.832536697387695312e+00 -1.404156112670898438e+01 -1.241273581981658936e-01 -1.942935734987258911e-01 -9.552627801895141602e-02 -1.022620350122451782e-01
4.014000000000000000e+03 7.465086936950683594e+00 -1.243143177032470703e+01 -1.452621519565582275e-01 -1.487606465816497803e-01 -8.820684254169464111e-02 -8.520400524139404297e-02
4.015000000000000000e+03 2.012618446350097656e+01 2.074157714843750000e+01 -2.984236227348446846e-03 -6.079178303480148315e-02 -1.913280598819255829e-02 8.394493721425533295e-03
4.016000000000000000e+03 7.333341217041015625e+01 1.090981197357177734e+01 1.798739671707153320e+00 1.057048892974853516e+01 3.710768461227416992e+00 4.867529571056365967e-01
4.017000000000000000e+03 8.668417930603027344e+00 1.429080677032470703e+01 2.173746377229690552e-01 -1.820431090891361237e-02 5.975109711289405823e-02 3.272030353546142578e-01
4.018000000000000000e+03 7.242178440093994141e+00 1.355509281158447266e+01 1.110167354345321655e-01 -1.698510348796844482e-01 -1.765028946101665497e-02 3.446907997131347656e-01
4.019000000000000000e+03 4.711823654174804688e+01 2.777550888061523438e+01 5.001242160797119141e-01 2.417218208312988281e+00 8.752027750015258789e-01 -4.000068604946136475e-01
4.020000000000000000e+03 5.171538543701171875e+01 3.054249191284179688e+01 7.757506370544433594e-01 4.104795455932617188e+00 1.464163780212402344e+00 -3.518082499504089355e-01
4.021000000000000000e+03 4.594918823242187500e+01 -2.601155471801757812e+01 2.434449493885040283e-01 8.010730743408203125e-01 3.133553862571716309e-01 -3.964665830135345459e-01
4.022000000000000000e+03 4.594510269165039062e+01 -2.531967926025390625e+01 2.032999694347381592e-01 9.157260060310363770e-01 3.357078135013580322e-01 -3.260062932968139648e-01
4.023000000000000000e+03 4.837166595458984375e+01 -1.140103149414062500e+01 -3.155106902122497559e-01 1.193388223648071289e+00 2.633632421493530273e-01 -2.642441987991333008e-01
4.024000000000000000e+03 4.813461303710937500e+01 -1.246108436584472656e+01 -7.614657878875732422e-01 1.232934594154357910e+00 1.414406299591064453e-01 -6.458733975887298584e-02
4.025000000000000000e+03 7.393505096435546875e+01 -1.835481452941894531e+01 5.169997811317443848e-01 8.443911552429199219e+00 2.688273429870605469e+00 -6.707930564880371094e-01
4.026000000000000000e+03 7.233611297607421875e+01 -1.430525016784667969e+01 -2.692171037197113037e-01 2.556207418441772461e+00 6.860971450805664062e-01 -1.120102047920227051e+00
4.027000000000000000e+03 7.041888427734375000e+01 -1.324921989440917969e+01 2.274920195341110229e-01 4.047944247722625732e-01 1.896859258413314819e-01 -2.530191421508789062e+00
4.028000000000000000e+03 4.195962524414062500e+01 4.651303768157958984e+00 -4.084046781063079834e-01 -3.948657214641571045e-01 -2.409811168909072876e-01 1.828486770391464233e-01
4.029000000000000000e+03 5.457461166381835938e+01 -3.285133361816406250e+01 1.439676165580749512e+00 5.621294975280761719e+00 2.118291378021240234e+00 1.221141695976257324e+00
4.030000000000000000e+03 6.657402038574218750e+01 -1.428004646301269531e+01 -1.071114182472229004e+00 3.352263450622558594e+00 6.843447685241699219e-01 -2.277393043041229248e-01
4.031000000000000000e+03 3.428740692138671875e+01 -6.065353870391845703e+00 -1.804481595754623413e-01 1.481490284204483032e-01 -9.689739905297756195e-03 -6.467907428741455078e-01
4.032000000000000000e+03 7.469760894775390625e+01 -2.100480270385742188e+01 1.390954971313476562e+00 1.092921733856201172e+01 3.696051597595214844e+00 -3.887229263782501221e-01
4.033000000000000000e+03 7.704141235351562500e+01 -7.498633861541748047e+00 9.189288020133972168e-01 9.754867553710937500e+00 3.202138900756835938e+00 -5.651859045028686523e-01
4.034000000000000000e+03 1.156264209747314453e+01 -3.315818023681640625e+01 -1.398331820964813232e-01 -4.515079855918884277e-01 -1.774023473262786865e-01 -2.434713840484619141e-01
4.035000000000000000e+03 3.264166641235351562e+01 1.370117664337158203e+01 -2.676910758018493652e-01 3.411496877670288086e-01 2.203758805990219116e-02 4.099305272102355957e-01
4.036000000000000000e+03 1.118743324279785156e+01 -2.701528739929199219e+01 -8.288944512605667114e-02 -3.253636956214904785e-01 -1.224759444594383240e-01 -2.459577471017837524e-01
4.037000000000000000e+03 9.924922943115234375e+00 -3.411671447753906250e+01 -7.566030323505401611e-02 -3.058512210845947266e-01 -1.144534572958946228e-01 -2.769380807876586914e-01
4.038000000000000000e+03 1.114622974395751953e+01 2.117571258544921875e+01 -8.767249062657356262e-03 6.401538848876953125e-02 1.657444238662719727e-02 3.190049529075622559e-01
4.039000000000000000e+03 1.319023609161376953e+01 2.061625289916992188e+01 8.627333492040634155e-02 2.596099674701690674e-01 1.037649884819984436e-01 5.121601223945617676e-01
4.040000000000000000e+03 3.835360717773437500e+01 -3.239145517349243164e+00 -1.036201000213623047e+00 2.175078243017196655e-01 -2.456079721450805664e-01 -5.809888988733291626e-02
4.041000000000000000e+03 2.117355918884277344e+01 2.594190216064453125e+01 5.395133495330810547e-01 -7.081702351570129395e-02 1.406088918447494507e-01 5.625853538513183594e-01
4.042000000000000000e+03 4.920162963867187500e+01 -9.343766212463378906e+00 -1.787823392078280449e-03 8.689451813697814941e-01 2.601472139358520508e-01 -1.981125958263874054e-02
4.043000000000000000e+03 3.079469442367553711e+00 3.005786895751953125e+01 1.091141719371080399e-02 -6.759942173957824707e-01 -1.995248347520828247e-01 2.387339025735855103e-01
4.044000000000000000e+03 1.124798393249511719e+01 4.570492267608642578e+00 -2.633471488952636719e-01 -1.804040819406509399e-01 -1.331253647804260254e-01 1.610995233058929443e-01
4.045000000000000000e+03 6.780540466308593750e+01 2.283230781555175781e+01 -6.394981741905212402e-01 1.726629972457885742e+00 3.261395394802093506e-01 -9.468442797660827637e-01
4.046000000000000000e+03 6.281802749633789062e+01 2.366666412353515625e+01 -8.621038794517517090e-01 4.479581832885742188e+00 1.085243344306945801e+00 2.170703649520874023e+00
4.047000000000000000e+03 5.070547485351562500e+01 1.946760177612304688e+01 1.291912049055099487e-03 2.339366912841796875e+00 7.021976709365844727e-01 -1.583635568618774414e+00
4.048000000000000000e+03 5.239529037475585938e+01 2.332218742370605469e+01 -6.865311861038208008e-01 4.031525135040283203e+00 1.003498077392578125e+00 -1.018593311309814453e+00
4.049000000000000000e+03 1.981214904785156250e+01 2.309172439575195312e+01 3.927448093891143799e-01 5.264434963464736938e-02 1.336167454719543457e-01 1.911671310663223267e-01
4.050000000000000000e+03 3.199886703491210938e+01 3.249529266357421875e+01 3.122922778129577637e-01 1.603860408067703247e-01 1.418034881353378296e-01 9.528888761997222900e-02
4.051000000000000000e+03 9.240702629089355469e+00 -2.412648773193359375e+01 7.437206804752349854e-02 4.160122945904731750e-03 2.355965785682201385e-02 -1.641448289155960083e-01
4.052000000000000000e+03 9.493515014648437500e+00 -2.621031761169433594e+01 -7.906804978847503662e-02 -1.385540515184402466e-01 -6.528662890195846558e-02 -1.941179037094116211e-01
4.053000000000000000e+03 5.378040695190429688e+01 -1.068323898315429688e+01 -6.751552820205688477e-01 -7.004413008689880371e-01 -4.126789867877960205e-01 2.631216347217559814e-01
4.054000000000000000e+03 1.660943412780761719e+01 2.268792152404785156e+01 6.154226660728454590e-01 3.244721591472625732e-01 2.819684445858001709e-01 4.111400544643402100e-01
4.055000000000000000e+03 5.251963806152343750e+01 3.046097183227539062e+01 7.249211072921752930e-01 4.775997161865234375e+00 1.650275468826293945e+00 -9.456966072320938110e-02
4.056000000000000000e+03 5.261125183105468750e+01 3.129259490966796875e+01 7.368707060813903809e-01 4.462645530700683594e+00 1.559854984283447266e+00 1.586557831615209579e-03
4.057000000000000000e+03 5.999849700927734375e+01 2.170824241638183594e+01 -1.792909383773803711e+00 2.789331674575805664e+00 2.989266812801361084e-01 1.606511592864990234e+00
4.058000000000000000e+03 5.882428359985351562e+01 2.194594764709472656e+01 -1.779747009277343750e+00 1.305005550384521484e+00 -1.424224227666854858e-01 4.227334558963775635e-01
4.059000000000000000e+03 1.822650909423828125e+01 -1.714143371582031250e+01 -1.798090189695358276e-01 -8.334764093160629272e-02 -7.894699275493621826e-02 -4.506977200508117676e-01
4.060000000000000000e+03 5.784797668457031250e+01 3.156633853912353516e+00 -1.042206883430480957e+00 4.679502487182617188e+00 1.091188669204711914e+00 -2.555360555648803711e+00
4.061000000000000000e+03 1.222399044036865234e+01 -2.977335357666015625e+01 -2.232711911201477051e-01 -5.016714334487915039e-01 -2.174827754497528076e-01 -2.559774816036224365e-01
4.062000000000000000e+03 4.791101074218750000e+01 -2.465037536621093750e+01 -9.631088376045227051e-02 9.317168593406677246e-01 2.506217956542968750e-01 -5.015645623207092285e-01
4.063000000000000000e+03 1.557692623138427734e+01 -2.465468978881835938e+01 8.200708031654357910e-02 -5.103048682212829590e-01 -1.284893304109573364e-01 -3.761958479881286621e-01
4.064000000000000000e+03 6.859103393554687500e+01 3.546009063720703125e-01 1.950983881950378418e+00 2.797874212265014648e+00 1.424657464027404785e+00 2.931093454360961914e+00
4.065000000000000000e+03 6.386333847045898438e+01 -2.240253067016601562e+01 2.857125759124755859e+00 8.203267097473144531e+00 3.318117856979370117e+00 -1.347706198692321777e+00
4.066000000000000000e+03 3.989940261840820312e+01 -1.797624397277832031e+01 2.713656425476074219e-01 5.150561332702636719e-01 2.359265387058258057e-01 -4.482172727584838867e-01
4.067000000000000000e+03 4.002875137329101562e+01 -1.490488147735595703e+01 -8.111240863800048828e-01 6.218284368515014648e-01 -5.678868666291236877e-02 -4.869696199893951416e-01
4.068000000000000000e+03 6.981687164306640625e+01 8.112304210662841797e-01 1.639616012573242188e+00 2.001546621322631836e+00 1.092348814010620117e+00 2.672425031661987305e+00
4.069000000000000000e+03 6.922470092773437500e+01 5.010028481483459473e-01 1.738372445106506348e+00 2.317372798919677734e+00 1.216723561286926270e+00 2.816750288009643555e+00
4.070000000000000000e+03 6.267538070678710938e+01 2.120527458190917969e+01 -2.356363296508789062e+00 4.013223648071289062e+00 4.970581829547882080e-01 2.741121768951416016e+00
4.071000000000000000e+03 3.683101654052734375e+01 -1.398786830902099609e+01 -8.115717172622680664e-01 7.967085242271423340e-01 -4.458959680050611496e-03 -2.315578758716583252e-01
4.072000000000000000e+03 2.551666641235351562e+01 1.338380908966064453e+01 -4.262693971395492554e-02 -9.475320577621459961e-02 -4.121404513716697693e-02 8.394235372543334961e-02
4.073000000000000000e+03 1.603306579589843750e+01 -5.154470920562744141e+00 -8.568395860493183136e-03 5.514392629265785217e-02 1.397265866398811340e-02 -1.161973923444747925e-02
4.074000000000000000e+03 1.515405750274658203e+01 -5.681604385375976562e+00 -9.408337064087390900e-03 3.560872748494148254e-02 7.860116660594940186e-03 -1.756845600903034210e-02
4.075000000000000000e+03 3.916210937500000000e+01 1.199683856964111328e+01 -2.329088896512985229e-01 -6.970808506011962891e-01 -2.789969146251678467e-01 1.467164903879165649e-01
4.076000000000000000e+03 1.953828239440917969e+01 2.261142349243164062e+01 3.226016461849212646e-01 7.330978661775588989e-02 1.187734305858612061e-01 1.490877568721771240e-01
4.077000000000000000e+03 5.773225402832031250e+01 -2.685722541809082031e+01 -5.992765426635742188e-01 4.722886562347412109e+00 1.237082958221435547e+00 1.751229405403137207e+00
4.078000000000000000e+03 5.436625289916992188e+01 -2.583378601074218750e+01 -1.987560242414474487e-01 4.266221523284912109e+00 1.220239639282226562e+00 1.846729755401611328e+00
4.079000000000000000e+03 6.866213226318359375e+01 -3.543196487426757812e+01 4.279911816120147705e-01 5.123374938964843750e+00 1.665409803390502930e+00 -9.607222676277160645e-01
4.080000000000000000e+03 7.589938354492187500e+01 -4.280832767486572266e+00 5.053519606590270996e-01 9.694284439086914062e+00 3.059890985488891602e+00 -3.001368939876556396e-01
4.081000000000000000e+03 5.553753280639648438e+01 -2.874990653991699219e+01 5.105546712875366211e-01 5.507076740264892578e+00 1.805289387702941895e+00 1.394205331802368164e+00
4.082000000000000000e+03 3.281391906738281250e+01 1.752796745300292969e+01 4.896683096885681152e-01 3.796493709087371826e-01 2.607952952384948730e-01 4.781467318534851074e-01
4.083000000000000000e+03 3.727898406982421875e+01 1.367534351348876953e+01 -1.277431547641754150e-01 -6.630737185478210449e-01 -2.372450679540634155e-01 1.762768328189849854e-01
4.084000000000000000e+03 3.462462615966796875e+01 2.143902206420898438e+01 4.351912066340446472e-02 1.645915359258651733e-01 6.243319809436798096e-02 2.636044323444366455e-01
4.085000000000000000e+03 4.137036132812500000e+01 2.033821487426757812e+01 3.119462728500366211e-01 2.335485666990280151e-01 1.636484414339065552e-01 1.786704659461975098e-01
4.086000000000000000e+03 3.776708984375000000e+01 -3.195643043518066406e+01 4.472426176071166992e-01 9.357820749282836914e-01 4.149074256420135498e-01 1.500468552112579346e-01
4.087000000000000000e+03 9.188603401184082031e+00 -3.836191654205322266e+00 1.423699967563152313e-02 -2.562592551112174988e-02 -3.416677704080939293e-03 -1.897444389760494232e-02
4.088000000000000000e+03 1.004229640960693359e+01 -3.848487615585327148e+00 1.227165665477514267e-02 -2.461262978613376617e-02 -3.702291985973715782e-03 -2.888041734695434570e-02
4.089000000000000000e+03 5.006237792968750000e+01 -3.424143218994140625e+01 1.169911265373229980e+00 3.400031805038452148e+00 1.370982885360717773e+00 1.147935748100280762e+00
4.090000000000000000e+03 3.373725509643554688e+01 2.925144386291503906e+01 1.388994902372360229e-01 4.656996130943298340e-01 1.813797354698181152e-01 8.077282691374421120e-04
4.091000000000000000e+03 6.017994689941406250e+01 1.779646873474121094e+01 1.347711682319641113e+00 6.033176898956298828e+00 2.214266538619995117e+00 1.009226083755493164e+00
4.092000000000000000e+03 2.778800964355468750e+01 -1.805079269409179688e+01 -1.314929425716400146e-01 -3.642824888229370117e-01 -1.487326323986053467e-01 -1.450539976358413696e-01
4.093000000000000000e+03 1.723392105102539062e+01 -1.687151789665222168e+00 1.769692823290824890e-02 2.286018803715705872e-02 1.216713525354862213e-02 -3.564046695828437805e-02
4.094000000000000000e+03 6.438757324218750000e+01 -3.147539138793945312e+00 3.005597114562988281e+00 1.012841796875000000e+01 3.940204381942749023e+00 1.478588223457336426e+00
4.095000000000000000e+03 1.256013488769531250e+01 -2.460146331787109375e+01 6.137750111520290375e-03 -4.247127473354339600e-01 -1.255725026130676270e-01 -3.561647832393646240e-01
4.096000000000000000e+03 2.936511993408203125e+01 1.269783592224121094e+01 -6.802190840244293213e-02 6.695365309715270996e-01 1.804543882608413696e-01 4.281839430332183838e-01
4.097000000000000000e+03 2.856982421875000000e+01 -2.520662498474121094e+01 3.226626217365264893e-01 -4.750864952802658081e-02 8.254619687795639038e-02 -1.839708834886550903e-01
4.098000000000000000e+03 2.917224884033203125e+01 -2.711877250671386719e+01 3.916982710361480713e-01 -5.105439573526382446e-03 1.159778535366058350e-01 -2.253376692533493042e-01
4.099000000000000000e+03 6.796196746826171875e+01 4.926796436309814453e+00 -9.529725909233093262e-01 1.783079385757446289e+00 2.490320354700088501e-01 2.654696464538574219e+00
4.100000000000000000e+03 3.158628463745117188e+01 2.676021385192871094e+01 -1.710142344236373901e-01 -1.681151539087295532e-01 -1.017388179898262024e-01 1.652966588735580444e-01
4.101000000000000000e+03 3.053973579406738281e+01 2.875543403625488281e+01 8.282219618558883667e-02 -2.123229801654815674e-01 -3.885023668408393860e-02 1.225813254714012146e-01
4.102000000000000000e+03 4.796588516235351562e+01 3.332285404205322266e+00 -8.873752951622009277e-01 2.983013093471527100e-01 -1.767221987247467041e-01 -7.491135597229003906e-02
4.103000000000000000e+03 4.894901657104492188e+01 2.835113048553466797e+00 -9.373261928558349609e-01 1.645487546920776367e-01 -2.318332344293594360e-01 -9.339623153209686279e-02
4.104000000000000000e+03 1.897697067260742188e+01 1.842705726623535156e+01 -3.498257994651794434e-01 -1.333038806915283203e-01 -1.449389010667800903e-01 1.086311712861061096e-01
4.105000000000000000e+03 1.947824478149414062e+01 1.795972824096679688e+01 -3.760409057140350342e-01 -1.589055657386779785e-01 -1.604839414358139038e-01 1.338302642107009888e-01
4.106000000000000000e+03 4.104087829589843750e+01 4.210735797882080078e+00 -2.835306525230407715e-01 -6.478714942932128906e-01 -2.794206440448760986e-01 8.432350121438503265e-03
4.107000000000000000e+03 1.678786849975585938e+01 2.204569244384765625e+01 3.985151648521423340e-01 2.513133287429809570e-01 1.949485391378402710e-01 3.519103229045867920e-01
4.108000000000000000e+03 1.815685272216796875e+01 2.253960418701171875e+01 4.440836310386657715e-01 2.047451734542846680e-01 1.946486383676528931e-01 2.333162128925323486e-01
4.109000000000000000e+03 7.132604980468750000e+01 1.884250450134277344e+01 -1.571953058242797852e+00 6.021417617797851562e+00 1.334839344024658203e+00 -8.812983632087707520e-01
4.110000000000000000e+03 4.793520736694335938e+01 -6.185502529144287109e+00 -4.625595211982727051e-01 9.185879230499267578e-01 1.368085145950317383e-01 4.049282968044281006e-01
4.111000000000000000e+03 6.113980102539062500e+01 1.925723075866699219e+01 3.091594902798533440e-03 5.319161415100097656e+00 1.596675992012023926e+00 1.578558921813964844e+00
4.112000000000000000e+03 5.815405273437500000e+01 2.155430412292480469e+01 -1.274274587631225586e+00 1.329981803894042969e+00 1.671215519309043884e-02 -3.556228280067443848e-01
4.113000000000000000e+03 7.677468109130859375e+01 4.187150573730468750e+01 -3.327836096286773682e-02 7.044451236724853516e+00 2.103351831436157227e+00 -1.130050700157880783e-02
4.114000000000000000e+03 3.897273063659667969e+00 1.547336196899414062e+01 1.004248335957527161e-01 -3.226082324981689453e-01 -6.665501743555068970e-02 1.757955849170684814e-01
4.115000000000000000e+03 5.431857109069824219e+00 1.737943458557128906e+01 1.875733584165573120e-01 -3.448998034000396729e-01 -4.719793424010276794e-02 1.271102875471115112e-01
4.116000000000000000e+03 2.417840003967285156e+01 1.538901042938232422e+01 -3.358154892921447754e-01 -9.259799867868423462e-02 -1.285240501165390015e-01 1.084713935852050781e-01
4.117000000000000000e+03 2.326029968261718750e+01 1.589346504211425781e+01 -3.112466335296630859e-01 -1.008033677935600281e-01 -1.236150041222572327e-01 1.377966403961181641e-01
4.118000000000000000e+03 1.619787406921386719e+01 -4.377995491027832031e+00 2.594239637255668640e-02 4.613422974944114685e-02 2.162298746407032013e-02 -2.335240133106708527e-03
4.119000000000000000e+03 1.254357719421386719e+01 -3.388731718063354492e+00 7.675579749047756195e-03 -8.016020059585571289e-03 -1.021321222651749849e-04 -3.275738656520843506e-02
4.120000000000000000e+03 5.474287796020507812e+01 1.665354156494140625e+01 1.476437926292419434e+00 3.872460842132568359e+00 1.604669570922851562e+00 -1.867569088935852051e+00
4.121000000000000000e+03 1.999483680725097656e+01 3.509460830688476562e+01 1.125274300575256348e-01 -2.378307729959487915e-01 -3.759100288152694702e-02 3.510916978120803833e-02
4.122000000000000000e+03 5.526612758636474609e+00 3.232613754272460938e+01 1.776419878005981445e-01 -3.600609600543975830e-01 -5.472568795084953308e-02 1.498733907938003540e-01
4.123000000000000000e+03 5.785444736480712891e+00 3.312646484375000000e+01 2.507057189941406250e-01 -2.948942184448242188e-01 -1.325655169785022736e-02 1.316737532615661621e-01
4.124000000000000000e+03 4.437272262573242188e+01 1.683285522460937500e+01 -1.419250369071960449e-01 8.669006228446960449e-01 2.174926847219467163e-01 -3.971766680479049683e-02
4.125000000000000000e+03 6.234838867187500000e+01 6.296013355255126953e+00 -3.003336191177368164e+00 5.460712432861328125e+00 7.372128367424011230e-01 -1.859643101692199707e+00
4.126000000000000000e+03 5.812656402587890625e+01 -2.022309112548828125e+01 9.612736701965332031e-01 3.972414016723632812e+00 1.480106234550476074e+00 1.668686509132385254e+00
4.127000000000000000e+03 3.815021276473999023e+00 3.165793991088867188e+01 9.937013685703277588e-02 -6.449691653251647949e-01 -1.636797189712524414e-01 2.052451223134994507e-01
4.128000000000000000e+03 4.667467880249023438e+01 3.052523374557495117e+00 -9.915724396705627441e-01 3.251412808895111084e-01 -1.999293416738510132e-01 1.512830518186092377e-02
4.129000000000000000e+03 3.825281906127929688e+01 1.192444133758544922e+01 -4.557780027389526367e-01 -8.561372160911560059e-01 -3.935745656490325928e-01 3.564898967742919922e-01
4.130000000000000000e+03 7.234619140625000000e+01 -1.259755611419677734e+01 -6.363879442214965820e-01 7.845017910003662109e-01 4.443416371941566467e-02 -4.473625719547271729e-01
4.131000000000000000e+03 4.661838150024414062e+01 3.041512298583984375e+01 7.332034707069396973e-01 2.228667020797729492e+00 8.885611891746520996e-01 -7.367239594459533691e-01
4.132000000000000000e+03 3.199498748779296875e+01 2.597010231018066406e+01 -2.536872923374176025e-01 -1.194259077310562134e-01 -1.119339615106582642e-01 1.945678144693374634e-01
4.133000000000000000e+03 3.171917915344238281e+01 2.818892860412597656e+01 3.363946452736854553e-02 -6.483522057533264160e-02 -9.358727373182773590e-03 6.506853550672531128e-02
4.134000000000000000e+03 1.658635520935058594e+01 -1.521906185150146484e+01 2.606401452794671059e-03 1.874430626630783081e-01 5.701483786106109619e-02 -1.200153827667236328e-01
4.135000000000000000e+03 3.076070785522460938e+01 -1.503746700286865234e+01 -5.754612684249877930e-01 -1.612457633018493652e-01 -2.210121154785156250e-01 -8.946096897125244141e-02
4.136000000000000000e+03 2.675469970703125000e+01 1.392971897125244141e+01 -1.102363392710685730e-01 -3.719122707843780518e-02 -4.422827064990997314e-02 1.576641649007797241e-01
4.137000000000000000e+03 2.642878341674804688e+01 1.310431671142578125e+01 2.217581495642662048e-02 -6.623018998652696609e-03 4.665839020162820816e-03 1.414641439914703369e-01
4.138000000000000000e+03 8.483333587646484375e+00 -2.421607780456542969e+01 7.043548673391342163e-02 4.676436260342597961e-02 3.515995666384696960e-02 -1.195859313011169434e-01
4.139000000000000000e+03 1.226270008087158203e+01 -2.814261054992675781e+01 -1.311104744672775269e-01 -4.619386196136474609e-01 -1.779147237539291382e-01 -2.406543642282485962e-01
4.140000000000000000e+03 4.612801742553710938e+01 3.115244150161743164e+00 -9.563295245170593262e-01 3.348793089389801025e-01 -1.864350736141204834e-01 6.966114789247512817e-02
4.141000000000000000e+03 2.713554382324218750e+01 3.105387115478515625e+01 2.398768663406372070e-01 8.725536614656448364e-02 9.813967347145080566e-02 4.461393654346466064e-01
4.142000000000000000e+03 2.734237098693847656e+01 -1.644957923889160156e+01 -3.972277939319610596e-01 -4.699860513210296631e-01 -2.601641416549682617e-01 -2.720636725425720215e-01
4.143000000000000000e+03 4.452027893066406250e+01 3.502295303344726562e+01 4.274913668632507324e-01 1.479603409767150879e+00 5.721284151077270508e-01 -6.523633003234863281e-01
4.144000000000000000e+03 4.345311355590820312e+01 1.327445697784423828e+01 2.223206311464309692e-01 1.118048667907714844e+00 4.021108150482177734e-01 -2.734638154506683350e-01
4.145000000000000000e+03 6.207383728027343750e+01 -1.557366013526916504e+00 2.414508104324340820e+00 1.137816619873046875e+01 4.137802124023437500e+00 -1.047933220863342285e+00
4.146000000000000000e+03 3.817191314697265625e+01 -2.938488006591796875e+01 4.380715191364288330e-01 6.878081560134887695e-01 3.377639055252075195e-01 2.921385169029235840e-01
4.147000000000000000e+03 3.836637496948242188e+01 -3.061683654785156250e+01 4.576148390769958496e-01 9.334616661071777344e-01 4.173229336738586426e-01 2.878981828689575195e-01
4.148000000000000000e+03 1.632542037963867188e+01 -3.615984916687011719e+00 -3.999947570264339447e-03 3.791464865207672119e-02 1.017440948635339737e-02 -1.166233420372009277e-02
4.149000000000000000e+03 1.858559417724609375e+01 2.108873558044433594e+01 9.184344857931137085e-02 4.687132313847541809e-02 4.161443188786506653e-02 1.004869192838668823e-01
4.150000000000000000e+03 7.260341644287109375e+01 -2.747201156616210938e+01 -1.387901663780212402e+00 4.685846328735351562e+00 9.893834590911865234e-01 1.951786875724792480e+00
4.151000000000000000e+03 7.087698364257812500e+01 -2.734985923767089844e+01 -1.423549532890319824e+00 1.063576221466064453e+00 -1.079920083284378052e-01 1.328203916549682617e+00
4.152000000000000000e+03 3.274813842773437500e+01 -1.383976745605468750e+01 -7.404336929321289062e-01 -9.759106487035751343e-02 -2.514074444770812988e-01 1.741077899932861328e-01
4.153000000000000000e+03 7.608589172363281250e+01 -2.955117464065551758e+00 -2.116224467754364014e-01 8.544372558593750000e+00 2.499825000762939453e+00 -1.865231618285179138e-02
4.154000000000000000e+03 5.487085723876953125e+01 -3.217403411865234375e+01 1.595588445663452148e+00 5.820306301116943359e+00 2.224768400192260742e+00 1.275060534477233887e+00
4.155000000000000000e+03 5.512829208374023438e+01 -3.144325256347656250e+01 1.544662952423095703e+00 6.236141204833984375e+00 2.334241390228271484e+00 1.356772303581237793e+00
4.156000000000000000e+03 5.154646682739257812e+01 -3.080934524536132812e+01 1.056939721107482910e+00 2.896302700042724609e+00 1.185972690582275391e+00 4.936373233795166016e-01
4.157000000000000000e+03 3.431776809692382812e+01 1.898823928833007812e+01 3.171103000640869141e-01 8.455931395292282104e-02 1.205008849501609802e-01 3.830936253070831299e-01
4.158000000000000000e+03 1.697334671020507812e+01 -1.235647392272949219e+01 -1.860738843679428101e-01 1.187497004866600037e-01 -2.019725367426872253e-02 6.735740602016448975e-02
4.159000000000000000e+03 5.582768249511718750e+01 1.312414455413818359e+01 1.568772196769714355e+00 5.111731052398681641e+00 2.004150867462158203e+00 -1.372688889503479004e+00
4.160000000000000000e+03 1.407628154754638672e+01 -2.414486694335937500e+01 1.035863347351551056e-02 -5.492172837257385254e-01 -1.616575866937637329e-01 -3.845114111900329590e-01
4.161000000000000000e+03 1.431459140777587891e+01 -2.339346313476562500e+01 -1.099537909030914307e-01 -5.588743090629577637e-01 -2.006484270095825195e-01 -4.072950184345245361e-01
4.162000000000000000e+03 7.228867340087890625e+01 -1.475292205810546875e+01 -2.629026472568511963e-01 2.847141504287719727e+00 7.752716541290283203e-01 -1.252472639083862305e+00
4.163000000000000000e+03 7.214942932128906250e+01 -1.598168087005615234e+01 -1.499866843223571777e-01 3.355389595031738281e+00 9.616208672523498535e-01 -1.500300288200378418e+00
4.164000000000000000e+03 2.101087379455566406e+01 2.014633178710937500e+01 -7.285668700933456421e-02 -1.636586636304855347e-01 -7.095460593700408936e-02 -2.382471971213817596e-02
4.165000000000000000e+03 6.654603576660156250e+01 -2.641394615173339844e+01 -2.475574493408203125e+00 5.719265937805175781e+00 9.731075167655944824e-01 -2.171620845794677734e+00
4.166000000000000000e+03 6.550124359130859375e+01 -2.633729362487792969e+01 -2.424809455871582031e+00 7.048755168914794922e+00 1.387183666229248047e+00 -2.170957803726196289e+00
4.167000000000000000e+03 6.048707199096679688e+01 -2.453365516662597656e+01 8.626795411109924316e-01 1.920277953147888184e+00 8.348872661590576172e-01 1.748429417610168457e+00
4.168000000000000000e+03 2.058241271972656250e+01 1.798180580139160156e+01 -2.801555097103118896e-01 -1.547673046588897705e-01 -1.304768472909927368e-01 7.782506942749023438e-02
4.169000000000000000e+03 4.038241577148437500e+01 -2.692068862915039062e+01 2.757311165332794189e-01 8.358581662178039551e-01 3.334767818450927734e-01 3.799285292625427246e-01
4.170000000000000000e+03 6.178512954711914062e+01 -1.049108624458312988e+00 1.955411314964294434e+00 1.074930477142333984e+01 3.811414957046508789e+00 -1.443471074104309082e+00
4.171000000000000000e+03 6.155178070068359375e+01 -1.886875391006469727e+00 2.952026844024658203e+00 1.248575592041015625e+01 4.631334781646728516e+00 -1.996015071868896484e+00
4.172000000000000000e+03 9.141222953796386719e+00 9.558044433593750000e+00 -3.721157908439636230e-01 -3.604593575000762939e-01 -2.197725474834442139e-01 2.828617990016937256e-01
4.173000000000000000e+03 9.723306655883789062e+00 7.201141834259033203e+00 -3.993508219718933105e-01 -2.684845328330993652e-01 -2.003505975008010864e-01 2.110665589570999146e-01
4.174000000000000000e+03 7.718741607666015625e+01 -4.057116699218750000e+01 -2.105909213423728943e-02 7.324663162231445312e+00 2.191081285476684570e+00 -2.747625671327114105e-02
4.175000000000000000e+03 8.017526626586914062e+00 1.530477905273437500e+01 2.995052933692932129e-01 -1.343169063329696655e-01 4.955651611089706421e-02 3.027306199073791504e-01
4.176000000000000000e+03 8.726615905761718750e+00 1.548105907440185547e+01 3.373438715934753418e-01 1.480841194279491901e-03 1.016474142670631409e-01 2.844158113002777100e-01
4.177000000000000000e+03 3.211879014968872070e+00 2.614284324645996094e+01 -1.349315941333770752e-01 -5.764900445938110352e-01 -2.134265005588531494e-01 1.135696172714233398e-01
4.178000000000000000e+03 4.467152595520019531e+00 2.735638427734375000e+01 -1.684721261262893677e-01 -7.293843030929565430e-01 -2.693569362163543701e-01 2.144207656383514404e-01
4.179000000000000000e+03 2.983251571655273438e+01 -1.629398345947265625e+01 -2.723914384841918945e-01 -2.287451922893524170e-01 -1.503409892320632935e-01 -1.557717025279998779e-01
4.180000000000000000e+03 3.984963607788085938e+01 1.053977584838867188e+01 -3.768717050552368164e-01 -7.086304426193237305e-01 -3.256506323814392090e-01 2.875888049602508545e-01
4.181000000000000000e+03 1.924888420104980469e+01 2.372417259216308594e+01 6.040710210800170898e-01 1.542901396751403809e-01 2.275083512067794800e-01 3.006529808044433594e-01
4.182000000000000000e+03 6.942546081542968750e+01 4.692110061645507812e+00 -6.611349582672119141e-01 3.164399623870849609e+00 7.509793639183044434e-01 2.928052902221679688e+00
4.183000000000000000e+03 1.670754814147949219e+01 -2.012917709350585938e+01 -5.073746442794799805e-01 -2.679055333137512207e-01 -2.325840443372726440e-01 -5.182672142982482910e-01
4.184000000000000000e+03 1.819541740417480469e+01 -1.807451629638671875e+01 -2.338559627532958984e-01 -1.161313652992248535e-01 -1.049961969256401062e-01 -5.549374222755432129e-01
4.185000000000000000e+03 3.107010078430175781e+01 -1.444370841979980469e+01 -6.696143150329589844e-01 -1.679679900407791138e-01 -2.512747049331665039e-01 -5.955904722213745117e-02
4.186000000000000000e+03 6.707752990722656250e+01 -1.200290870666503906e+01 1.406464338302612305e+00 4.069883823394775391e+00 1.642904520034790039e+00 -1.868382096290588379e+00
4.187000000000000000e+03 3.831631469726562500e+01 -1.593743801116943359e+01 -4.245671629905700684e-01 9.080978631973266602e-01 1.450591981410980225e-01 -3.547879457473754883e-01
4.188000000000000000e+03 3.842816925048828125e+01 -1.342174911499023438e+01 -7.511755824089050293e-01 1.035749793052673340e+00 8.537225425243377686e-02 -3.298172652721405029e-01
4.189000000000000000e+03 9.344769477844238281e+00 -3.346910476684570312e+01 -1.073488518595695496e-01 -2.968569099903106689e-01 -1.212617307901382446e-01 -2.689091563224792480e-01
4.190000000000000000e+03 6.383419799804687500e+01 -5.438380241394042969e+00 2.423520803451538086e+00 1.297211837768554688e+01 4.618691444396972656e+00 2.619700729846954346e-01
4.191000000000000000e+03 1.885648345947265625e+01 5.808566093444824219e+00 -1.145304217934608459e-01 7.355374842882156372e-02 -1.229300163686275482e-02 2.221919149160385132e-01
4.192000000000000000e+03 1.375587749481201172e+01 -1.261852455139160156e+01 -9.596552699804306030e-02 1.922043561935424805e-01 2.887164987623691559e-02 -7.998628914356231689e-02
4.193000000000000000e+03 1.489674377441406250e+01 -8.750113487243652344e+00 -8.098534494638442993e-02 7.994586229324340820e-02 -3.118449822068214417e-04 8.717651478946208954e-03
4.194000000000000000e+03 4.326398372650146484e+00 -2.246531295776367188e+01 1.298579871654510498e-01 -9.527900069952011108e-02 1.037369668483734131e-02 -5.378319323062896729e-02
4.195000000000000000e+03 4.675758361816406250e+01 2.210947990417480469e+01 3.462235331535339355e-01 1.127414822578430176e+00 4.420915246009826660e-01 1.505785882472991943e-01
4.196000000000000000e+03 4.065396308898925781e+00 -2.398704147338867188e+01 7.001868635416030884e-02 -1.115820854902267456e-01 -1.246902067214250565e-02 -8.202433818951249123e-04
4.197000000000000000e+03 4.029332160949707031e+00 -2.468870353698730469e+01 4.432297870516777039e-02 -1.096381843090057373e-01 -1.959456130862236023e-02 6.515502464026212692e-03
4.198000000000000000e+03 2.801717567443847656e+01 -1.385142230987548828e+01 -8.811230659484863281e-01 -6.269434690475463867e-01 -4.524199664592742920e-01 -4.489025473594665527e-01
4.199000000000000000e+03 6.330108642578125000e+01 -7.241722583770751953e+00 2.893436431884765625e+00 1.296668052673339844e+01 4.758035182952880859e+00 -1.849144101142883301e-01
4.200000000000000000e+03 1.852088737487792969e+01 -1.305208587646484375e+01 -2.736610174179077148e-01 -5.712434649467468262e-03 -8.381203562021255493e-02 6.902496516704559326e-02
4.201000000000000000e+03 1.941378211975097656e+01 -1.342678928375244141e+01 -3.954809606075286865e-01 -6.082759052515029907e-02 -1.368925720453262329e-01 7.284900546073913574e-02
4.202000000000000000e+03 4.265019226074218750e+01 4.364217281341552734e+00 -6.523118615150451660e-01 -1.578767299652099609e-01 -2.430565804243087769e-01 2.007106542587280273e-01
4.203000000000000000e+03 3.791016387939453125e+01 -2.873654365539550781e+01 3.579078614711761475e-01 5.264525413513183594e-01 2.653081119060516357e-01 2.697249352931976318e-01
4.204000000000000000e+03 3.384452056884765625e+01 2.683187294006347656e+01 2.929633716121315956e-03 4.357969164848327637e-01 1.316179633140563965e-01 5.287966132164001465e-02
4.205000000000000000e+03 3.322436141967773438e+01 2.749386978149414062e+01 2.848714962601661682e-02 2.936267852783203125e-01 9.663417935371398926e-02 3.199659660458564758e-02
4.206000000000000000e+03 4.416677951812744141e+00 -1.643119812011718750e+01 -9.766450524330139160e-02 -1.921655088663101196e-01 -8.694900572299957275e-02 -1.112084090709686279e-01
4.207000000000000000e+03 6.369650268554687500e+01 3.356597518920898438e+01 -2.589149773120880127e-01 3.868089437484741211e+00 1.082752346992492676e+00 -1.088989898562431335e-01
4.208000000000000000e+03 5.926879882812500000e+01 1.250716590881347656e+01 1.542813539505004883e+00 8.000514030456542969e+00 2.862998485565185547e+00 -1.014694929122924805e+00
4.209000000000000000e+03 4.828060531616210938e+01 -2.595096206665039062e+01 -2.450466714799404144e-02 9.177294969558715820e-01 2.679674625396728516e-01 -7.022448778152465820e-01
4.210000000000000000e+03 2.593288803100585938e+01 -2.980780220031738281e+01 2.895236313343048096e-01 -2.288092821836471558e-01 1.821430213749408722e-02 -2.254507839679718018e-01
4.211000000000000000e+03 1.169936466217041016e+01 1.863221359252929688e+01 2.637113034725189209e-01 3.783853054046630859e-01 1.926289796829223633e-01 3.993303775787353516e-01
4.212000000000000000e+03 4.001527404785156250e+01 1.216656112670898438e+01 -6.499346345663070679e-02 -4.244361817836761475e-01 -1.468288898468017578e-01 4.278377629816532135e-03
4.213000000000000000e+03 5.142263031005859375e+01 -3.910755872726440430e+00 -2.274823635816574097e-01 -4.029375016689300537e-01 -1.891259700059890747e-01 5.502923727035522461e-01
4.214000000000000000e+03 7.438740539550781250e+01 -1.917270660400390625e+01 1.139530539512634277e+00 9.495960235595703125e+00 3.190647363662719727e+00 -2.226132750511169434e-01
4.215000000000000000e+03 7.747423553466796875e+01 -1.674495887756347656e+01 -1.734536737203598022e-01 8.229030609130859375e+00 2.416673183441162109e+00 1.015775561332702637e+00
4.216000000000000000e+03 3.206092834472656250e+01 -7.521691799163818359e+00 -1.395593881607055664e-01 -4.810901284217834473e-01 -1.861948519945144653e-01 -5.685160756111145020e-01
4.217000000000000000e+03 3.079310035705566406e+01 -9.700355529785156250e+00 -5.874168872833251953e-01 -9.213900566101074219e-01 -4.526420831680297852e-01 -4.129004180431365967e-01
4.218000000000000000e+03 6.187633514404296875e+01 2.198650169372558594e+01 -2.287653684616088867e+00 4.240850925445556641e+00 5.859591960906982422e-01 2.700928211212158203e+00
4.219000000000000000e+03 7.687657928466796875e+01 5.362051010131835938e+00 -2.481959164142608643e-01 7.349055290222167969e+00 2.130257844924926758e+00 -6.904870271682739258e-01
4.220000000000000000e+03 2.577277755737304688e+01 1.445882701873779297e+01 -2.436804920434951782e-01 -1.326479762792587280e-01 -1.128985434770584106e-01 9.112650156021118164e-02
4.221000000000000000e+03 2.344131851196289062e+01 -2.411632537841796875e+01 2.394984215497970581e-01 -6.618196517229080200e-02 5.199493840336799622e-02 -1.511179506778717041e-01
4.222000000000000000e+03 2.223205184936523438e+01 2.810853385925292969e+01 3.586330711841583252e-01 1.206722855567932129e-01 1.437916010618209839e-01 4.049427211284637451e-01
4.223000000000000000e+03 2.158587837219238281e+01 1.761074447631835938e+01 -2.491331398487091064e-01 -1.604229211807250977e-01 -1.228668168187141418e-01 1.008133366703987122e-01
4.224000000000000000e+03 2.088884544372558594e+01 1.639279365539550781e+01 -2.891412377357482910e-01 -1.989601105451583862e-01 -1.464304029941558838e-01 1.534642726182937622e-01
4.225000000000000000e+03 6.976130676269531250e+01 -3.264851760864257812e+01 1.531179189682006836e+00 4.334029197692871094e+00 1.759562611579895020e+00 -8.290846347808837891e-01
4.226000000000000000e+03 3.826565504074096680e+00 -1.811727142333984375e+01 -6.531438231468200684e-02 -1.412759870290756226e-01 -6.197711080312728882e-02 -1.459147185087203979e-01
4.227000000000000000e+03 2.061656379699707031e+01 -1.463102626800537109e+01 -6.581193208694458008e-01 -1.108444780111312866e-01 -2.306891530752182007e-01 -1.958866566419601440e-01
4.228000000000000000e+03 1.885943603515625000e+01 -1.365603065490722656e+01 -2.961077690124511719e-01 -3.323687240481376648e-02 -9.880338609218597412e-02 2.324238978326320648e-02
4.229000000000000000e+03 2.275161743164062500e+01 -1.556378269195556641e+01 -7.436336874961853027e-01 -3.424433469772338867e-01 -3.258230984210968018e-01 -3.854032754898071289e-01
4.230000000000000000e+03 2.409164810180664062e+01 -1.639194107055664062e+01 -5.848705172538757324e-01 -4.258604049682617188e-01 -3.032192885875701904e-01 -3.887083232402801514e-01
4.231000000000000000e+03 7.654779815673828125e+01 -2.359497308731079102e+00 -4.087261557579040527e-01 8.218317985534667969e+00 2.342877626419067383e+00 2.172523140907287598e-01
4.232000000000000000e+03 7.751332855224609375e+01 -1.793917179107666016e+00 -3.521383702754974365e-01 8.110368728637695312e+00 2.327469110488891602e+00 3.702923655509948730e-01
4.233000000000000000e+03 6.769515228271484375e+01 2.102607345581054688e+01 -2.426215648651123047e+00 7.288547754287719727e-01 -5.092082619667053223e-01 -7.760894894599914551e-01
4.234000000000000000e+03 1.186872577667236328e+01 -3.051104736328125000e+01 -2.367762029170989990e-01 -4.802426695823669434e-01 -2.151056677103042603e-01 -2.480252534151077271e-01
4.235000000000000000e+03 1.153309631347656250e+01 -3.125749397277832031e+01 -2.262718528509140015e-01 -4.460059702396392822e-01 -2.016833424568176270e-01 -2.548812329769134521e-01
4.236000000000000000e+03 5.580419158935546875e+01 7.970364570617675781e+00 -4.198414683341979980e-01 4.170679092407226562e+00 1.125251293182373047e+00 -4.464550316333770752e-01
4.237000000000000000e+03 5.838449478149414062e+01 9.959693908691406250e+00 5.420887470245361328e-01 6.405203342437744141e+00 2.084187507629394531e+00 -6.138353943824768066e-01
4.238000000000000000e+03 7.595346832275390625e+01 -1.357633399963378906e+01 -1.200848817825317383e+00 7.582338333129882812e+00 1.914446949958801270e+00 5.922896862030029297e-01
4.239000000000000000e+03 7.758086395263671875e+01 1.800524520874023438e+01 -1.636701226234436035e-01 7.719323158264160156e+00 2.266695976257324219e+00 9.266424775123596191e-01
4.240000000000000000e+03 6.654430389404296875e+01 2.145851898193359375e+01 -2.112558841705322266e+00 4.543569311499595642e-02 -6.201369166374206543e-01 5.699116270989179611e-03
4.241000000000000000e+03 5.645978927612304688e+01 -2.263487625122070312e+01 1.600301146507263184e+00 4.659697055816650391e+00 1.877999424934387207e+00 1.925886511802673340e+00
4.242000000000000000e+03 5.717275238037109375e+01 -2.077340126037597656e+01 9.991983175277709961e-01 4.110691547393798828e+00 1.532966971397399902e+00 1.853022813796997070e+00
4.243000000000000000e+03 2.139365768432617188e+01 9.769266128540039062e+00 2.762285172939300537e-01 -1.330394446849822998e-01 4.295671731233596802e-02 1.937549710273742676e-01
4.244000000000000000e+03 2.759127807617187500e+01 1.049716567993164062e+01 2.705807387828826904e-01 4.113703072071075439e-01 2.045853137969970703e-01 1.915519535541534424e-01
4.245000000000000000e+03 1.556814384460449219e+01 -2.877714157104492188e+00 3.378194989636540413e-03 1.385332085192203522e-02 5.169454496353864670e-03 -2.149388939142227173e-02
4.246000000000000000e+03 3.213322830200195312e+01 2.719170951843261719e+01 -6.730144470930099487e-02 4.079391248524188995e-03 -1.896661520004272461e-02 9.517874568700790405e-02
4.247000000000000000e+03 3.232858276367187500e+01 2.511722946166992188e+01 -2.681801915168762207e-01 -5.407984182238578796e-02 -9.667801111936569214e-02 2.491985708475112915e-01
4.248000000000000000e+03 3.809620285034179688e+01 -1.999943971633911133e+00 -7.666192650794982910e-01 1.659512519836425781e-01 -1.802003979682922363e-01 1.330868452787399292e-01
4.249000000000000000e+03 5.635626220703125000e+01 -2.345646667480468750e+01 1.313390135765075684e+00 4.952575683593750000e+00 1.879789710044860840e+00 1.808840274810791016e+00
4.250000000000000000e+03 4.544367599487304688e+01 1.886427307128906250e+01 -3.701190650463104248e-01 7.445257306098937988e-01 1.123220100998878479e-01 2.180595546960830688e-01
4.251000000000000000e+03 4.306547927856445312e+01 1.525069141387939453e+01 9.409790486097335815e-02 8.009609580039978027e-01 2.685176432132720947e-01 -2.480885386466979980e-01
4.252000000000000000e+03 4.270040130615234375e+01 1.340996837615966797e+01 2.278827428817749023e-01 7.252051234245300293e-01 2.859263718128204346e-01 -3.035252690315246582e-01
4.253000000000000000e+03 4.042252540588378906e+00 -1.723886489868164062e+01 -9.859696775674819946e-02 -1.618816256523132324e-01 -7.814357429742813110e-02 -1.203606501221656799e-01
4.254000000000000000e+03 9.844467163085937500e+00 -3.552485275268554688e+01 3.045312128961086273e-02 -2.873472869396209717e-01 -7.706825435161590576e-02 -2.721286714076995850e-01
4.255000000000000000e+03 3.490836334228515625e+01 3.342683410644531250e+01 3.100983798503875732e-01 4.292283356189727783e-01 2.217980176210403442e-01 1.638009399175643921e-01
4.256000000000000000e+03 3.198428344726562500e+01 3.120281028747558594e+01 2.703942954540252686e-01 1.264449805021286011e-01 1.190517842769622803e-01 6.608592718839645386e-02
4.257000000000000000e+03 6.328667831420898438e+01 -2.130479097366333008e+00 2.884223699569702148e+00 1.048794746398925781e+01 4.011651515960693359e+00 4.500443041324615479e-01
4.258000000000000000e+03 6.482621765136718750e+01 -2.713739395141601562e+00 3.028460264205932617e+00 8.928013801574707031e+00 3.586942195892333984e+00 2.020717859268188477e+00
4.259000000000000000e+03 4.455148696899414062e+01 -2.126468276977539062e+01 5.742632746696472168e-01 1.087882399559020996e+00 4.986436963081359863e-01 1.313460469245910645e-01
4.260000000000000000e+03 4.555984115600585938e+01 3.643996810913085938e+01 2.289193570613861084e-01 1.773703932762145996e+00 6.007869839668273926e-01 -5.683945417404174805e-01
4.261000000000000000e+03 4.309202575683593750e+01 3.553834533691406250e+01 5.104745030403137207e-01 1.061892509460449219e+00 4.717101156711578369e-01 -4.931375384330749512e-01
4.262000000000000000e+03 6.320158004760742188e+01 -8.067663192749023438e+00 2.958427190780639648e+00 1.220854187011718750e+01 4.550090789794921875e+00 -1.449306160211563110e-01
4.263000000000000000e+03 6.512744140625000000e+01 5.453619956970214844e+00 -2.516876220703125000e+00 1.401857614517211914e+00 -3.345056176185607910e-01 -2.672452628612518311e-01
4.264000000000000000e+03 6.746174621582031250e+01 4.751374244689941406e+00 -9.023759365081787109e-01 1.456410765647888184e+00 1.662104576826095581e-01 2.275259256362915039e+00
4.265000000000000000e+03 3.185028648376464844e+01 -1.459175968170166016e+01 -7.175931334495544434e-01 -5.182822048664093018e-02 -2.308264225721359253e-01 2.081887423992156982e-02
4.266000000000000000e+03 3.361190414428710938e+01 -1.374522590637207031e+01 -6.979700326919555664e-01 -8.638483285903930664e-02 -2.353064566850662231e-01 1.620261371135711670e-01
4.267000000000000000e+03 3.648463439941406250e+01 -1.320018482208251953e+01 -6.630925536155700684e-01 7.449786663055419922e-01 2.456584200263023376e-02 -1.739866137504577637e-01
4.268000000000000000e+03 8.627049446105957031e+00 2.228902244567871094e+01 -2.259012609720230103e-01 -2.760431766510009766e-01 -1.505833268165588379e-01 1.712037473917007446e-01
4.269000000000000000e+03 9.481351852416992188e+00 1.851771354675292969e+01 2.756619155406951904e-01 1.785108447074890137e-02 8.805389702320098877e-02 1.943840831518173218e-01
4.270000000000000000e+03 4.454146194458007812e+01 -1.543010807037353516e+01 -5.326099395751953125e-01 2.291568517684936523e-01 -9.103592485189437866e-02 2.919566631317138672e-02
4.271000000000000000e+03 5.568394851684570312e+01 1.407062530517578125e+01 1.832961678504943848e+00 4.834074974060058594e+00 2.000110864639282227e+00 -1.517364382743835449e+00
4.272000000000000000e+03 5.980704116821289062e+01 1.497958660125732422e+01 1.307210922241210938e+00 8.340076446533203125e+00 2.894186258316040039e+00 1.689859926700592041e-01
4.273000000000000000e+03 6.398200988769531250e+01 -2.332109069824218750e+01 1.925223588943481445e+00 7.518952369689941406e+00 2.833252668380737305e+00 -1.348024725914001465e+00
4.274000000000000000e+03 4.386638641357421875e+01 1.777395820617675781e+01 -1.588636934757232666e-01 7.862948179244995117e-01 1.882293373346328735e-01 2.316366508603096008e-02
4.275000000000000000e+03 4.462252807617187500e+01 2.195111656188964844e+01 4.437202811241149902e-01 7.925476431846618652e-01 3.708803951740264893e-01 4.854000210762023926e-01
4.276000000000000000e+03 4.545948791503906250e+01 2.145249176025390625e+01 2.608730494976043701e-01 8.613967299461364746e-01 3.366809189319610596e-01 3.587496876716613770e-01
4.277000000000000000e+03 5.696644973754882812e+01 -1.915157699584960938e+01 7.773590832948684692e-02 3.829790592193603516e+00 1.172258019447326660e+00 1.277665853500366211e+00
4.278000000000000000e+03 4.297287750244140625e+01 1.042023277282714844e+01 1.201614439487457275e-01 6.742206215858459473e-01 2.383146286010742188e-01 -6.557135842740535736e-03
4.279000000000000000e+03 4.380019760131835938e+01 1.044387912750244141e+01 2.833409011363983154e-01 1.119468092918395996e+00 4.208427071571350098e-01 -1.554574668407440186e-01
4.280000000000000000e+03 7.008645629882812500e+01 -2.754144287109375000e+01 -1.032993912696838379e+00 5.533503890037536621e-01 -1.438930779695510864e-01 6.013388633728027344e-01
4.281000000000000000e+03 5.696018600463867188e+01 1.171264648437500000e+01 1.301427125930786133e+00 5.683119297027587891e+00 2.095363855361938477e+00 -9.013490080833435059e-01
4.282000000000000000e+03 7.653485870361328125e+01 -5.702028274536132812e+00 1.058086752891540527e+00 1.015172863006591797e+01 3.362944841384887695e+00 -2.176795601844787598e-01
4.283000000000000000e+03 7.671062469482421875e+01 -5.116699695587158203e+00 7.519199848175048828e-01 9.495669364929199219e+00 3.074276924133300781e+00 7.101190835237503052e-02
4.284000000000000000e+03 3.630400848388671875e+01 -5.988687038421630859e+00 -3.222841918468475342e-01 7.225555777549743652e-01 1.200814098119735718e-01 -4.950832128524780273e-01
4.285000000000000000e+03 3.508494186401367188e+01 -7.054932117462158203e+00 -2.777809277176856995e-02 4.185114800930023193e-01 1.172200217843055725e-01 -6.362602114677429199e-01
4.286000000000000000e+03 5.332936859130859375e+01 4.644452095031738281e+00 -3.882160782814025879e-01 4.956893622875213623e-01 3.224198147654533386e-02 -1.828894913196563721e-01
4.287000000000000000e+03 5.384277725219726562e+01 4.806669712066650391e+00 -4.832312166690826416e-01 1.054244399070739746e+00 1.713039577007293701e-01 -3.439110219478607178e-01
4.288000000000000000e+03 5.213219833374023438e+01 3.306219482421875000e+01 3.283102810382843018e-01 3.590023040771484375e+00 1.175500035285949707e+00 -2.415945678949356079e-01
4.289000000000000000e+03 5.507882690429687500e+01 -2.954318428039550781e+01 1.004865169525146484e+00 5.377176284790039062e+00 1.914612412452697754e+00 1.262566804885864258e+00
4.290000000000000000e+03 4.845013046264648438e+01 -6.975148677825927734e+00 -3.042602837085723877e-01 9.451642632484436035e-01 1.922711879014968872e-01 4.339650869369506836e-01
4.291000000000000000e+03 3.211320638656616211e+00 2.438792800903320312e+01 -8.834096789360046387e-02 -5.332440733909606934e-01 -1.864755004644393921e-01 1.750640384852886200e-02
4.292000000000000000e+03 1.981355285644531250e+01 6.105028629302978516e+00 1.506777200847864151e-02 -1.694664731621742249e-02 -5.636628484353423119e-04 1.510431766510009766e-01
4.293000000000000000e+03 5.648730850219726562e+01 1.410615062713623047e+01 1.897899746894836426e+00 5.042287826538085938e+00 2.082056283950805664e+00 -1.307301163673400879e+00
4.294000000000000000e+03 5.967975234985351562e+01 1.368002986907958984e+01 1.196927547454833984e+00 8.809048652648925781e+00 3.001792907714843750e+00 -7.218047976493835449e-01
4.295000000000000000e+03 1.556976318359375000e+01 2.158241081237792969e+01 2.962260544300079346e-01 2.084111720323562622e-01 1.513911634683609009e-01 4.620717465877532959e-01
4.296000000000000000e+03 2.883528327941894531e+01 -1.327446651458740234e+01 -8.737436532974243164e-01 -6.526375412940979004e-01 -4.579143524169921875e-01 -4.158088266849517822e-01
4.297000000000000000e+03 3.401611328125000000e+01 2.477372169494628906e+01 -1.822772771120071411e-01 3.550960123538970947e-01 5.184562131762504578e-02 2.000440061092376709e-01
4.298000000000000000e+03 4.265672302246093750e+01 7.268519401550292969e+00 -2.679186463356018066e-01 1.020920425653457642e-01 -4.974797740578651428e-02 4.055453836917877197e-01
4.299000000000000000e+03 1.521988677978515625e+01 2.055498504638671875e+01 8.832366019487380981e-02 1.508330851793289185e-01 7.174701988697052002e-02 4.934079945087432861e-01
4.300000000000000000e+03 1.526356983184814453e+01 1.984583282470703125e+01 2.872624620795249939e-02 6.661863625049591064e-02 2.860346436500549316e-02 4.905312359333038330e-01
4.301000000000000000e+03 1.072574043273925781e+01 1.884183692932128906e+01 2.219143509864807129e-01 2.038032263517379761e-01 1.277152746915817261e-01 2.912575006484985352e-01
4.302000000000000000e+03 1.812941551208496094e+00 -4.219711303710937500e+00 2.545441966503858566e-03 1.725159771740436554e-02 5.939112044870853424e-03 1.819585449993610382e-02
4.303000000000000000e+03 7.628662109375000000e+01 -6.290975093841552734e+00 1.074677586555480957e+00 1.085524082183837891e+01 3.578975439071655273e+00 -4.731371998786926270e-01
4.304000000000000000e+03 4.471983718872070312e+01 1.846246337890625000e+01 -2.842697203159332275e-01 8.047335743904113770e-01 1.561391651630401611e-01 1.252239346504211426e-01
4.305000000000000000e+03 4.613171386718750000e+01 1.943755149841308594e+01 -2.352778315544128418e-01 6.250268220901489258e-01 1.169246956706047058e-01 2.577807605266571045e-01
4.306000000000000000e+03 4.472146224975585938e+01 2.134878158569335938e+01 2.776502370834350586e-01 7.790473103523254395e-01 3.170092701911926270e-01 4.013199210166931152e-01
4.307000000000000000e+03 2.810485458374023438e+01 -2.439517021179199219e+01 2.496701329946517944e-01 -9.069719165563583374e-02 4.769188165664672852e-02 -1.640113890171051025e-01
4.308000000000000000e+03 2.848506355285644531e+01 -2.655028343200683594e+01 3.933530449867248535e-01 -6.657235324382781982e-02 9.803421050310134888e-02 -2.068057060241699219e-01
4.309000000000000000e+03 3.707049179077148438e+01 -3.369208335876464844e+00 -8.249714970588684082e-01 3.666523694992065430e-01 -1.374957412481307983e-01 -1.308770030736923218e-01
4.310000000000000000e+03 3.777244949340820312e+01 -3.347128868103027344e+00 -9.197745323181152344e-01 2.862857580184936523e-01 -1.900466233491897583e-01 -6.251449137926101685e-02
4.311000000000000000e+03 5.298556137084960938e+01 -3.089182281494140625e+01 1.359069347381591797e+00 3.803387165069580078e+00 1.548736929893493652e+00 8.778815865516662598e-01
4.312000000000000000e+03 5.443724441528320312e+01 -3.116716575622558594e+01 1.564954996109008789e+00 5.076052188873291016e+00 1.992302179336547852e+00 1.202206254005432129e+00
4.313000000000000000e+03 3.431366348266601562e+01 -3.053642654418945312e+01 4.709546566009521484e-01 2.733243107795715332e-01 2.232836782932281494e-01 -1.755149215459823608e-01
4.314000000000000000e+03 3.239654541015625000e+01 -2.965102577209472656e+01 4.167939424514770508e-01 2.276711463928222656e-01 1.933395266532897949e-01 -2.198327928781509399e-01
4.315000000000000000e+03 6.359318923950195312e+01 2.305967903137207031e+01 -1.288430213928222656e+00 3.825120687484741211e+00 7.610071897506713867e-01 2.004731416702270508e+00
4.316000000000000000e+03 4.404889297485351562e+01 1.846823501586914062e+01 -1.530008167028427124e-01 7.660920619964599609e-01 1.839273720979690552e-01 1.039595529437065125e-01
4.317000000000000000e+03 5.225446701049804688e+01 3.389599609375000000e+01 4.706666246056556702e-02 3.404759407043457031e+00 1.035547852516174316e+00 -1.594017893075942993e-01
4.318000000000000000e+03 4.668685913085937500e+01 3.376629257202148438e+01 4.132409691810607910e-01 2.050070285797119141e+00 7.389934062957763672e-01 -7.196202874183654785e-01
4.319000000000000000e+03 4.089995956420898438e+01 8.421007156372070312e+00 -3.936312496662139893e-01 -4.519125819206237793e-01 -2.536631524562835693e-01 5.003042221069335938e-01
4.320000000000000000e+03 5.006253814697265625e+01 2.104658889770507812e+01 -1.558424532413482666e-01 2.266634941101074219e+00 6.332377195358276367e-01 -1.186268687248229980e+00
4.321000000000000000e+03 2.908543586730957031e+01 1.411708164215087891e+01 -9.210009127855300903e-02 4.670742154121398926e-01 1.124922409653663635e-01 5.139020681381225586e-01
4.322000000000000000e+03 3.368687057495117188e+01 2.352944374084472656e+01 -1.720801889896392822e-01 2.222366034984588623e-01 1.504692249000072479e-02 2.572964429855346680e-01
4.323000000000000000e+03 2.183519935607910156e+01 3.048209571838378906e+01 -6.647899746894836426e-02 -1.810896908864378929e-03 -2.048696763813495636e-02 8.948681503534317017e-02
4.324000000000000000e+03 7.457341766357421875e+01 -9.149935245513916016e-01 -5.853497982025146484e-01 6.021483421325683594e+00 1.630840063095092773e+00 -8.046205639839172363e-01
4.325000000000000000e+03 2.168853759765625000e+01 2.789252662658691406e+01 3.093402683734893799e-01 -7.152329199016094208e-03 9.065638482570648193e-02 4.314151108264923096e-01
4.326000000000000000e+03 6.151588821411132812e+01 1.994806289672851562e+01 -1.009649157524108887e+00 5.050572395324707031e+00 1.212276935577392578e+00 1.894196271896362305e+00
4.327000000000000000e+03 3.724569702148437500e+01 -2.906362724304199219e+01 4.286970496177673340e-01 3.748948872089385986e-01 2.410775870084762573e-01 1.893964260816574097e-01
4.328000000000000000e+03 3.599740600585937500e+01 -2.978825759887695312e+01 5.046576261520385742e-01 2.646149694919586182e-01 2.307817786931991577e-01 -2.337918616831302643e-02
4.329000000000000000e+03 7.746343994140625000e+01 9.110926628112792969e+00 1.933479905128479004e-01 7.023127079010009766e+00 2.164942502975463867e+00 -7.264294028282165527e-01
4.330000000000000000e+03 5.158513641357421875e+01 -7.131999015808105469e+00 -8.437125086784362793e-01 -5.927804708480834961e-01 -4.309478998184204102e-01 7.112323641777038574e-01
4.331000000000000000e+03 7.526677703857421875e+01 1.555078983306884766e+01 5.151588320732116699e-01 8.413937568664550781e+00 2.678728818893432617e+00 1.116076588630676270e+00
4.332000000000000000e+03 7.752353668212890625e+01 1.644547653198242188e+01 6.183899194002151489e-02 7.429871082305908203e+00 2.247513055801391602e+00 1.013777017593383789e+00
4.333000000000000000e+03 5.978531265258789062e+01 1.431023788452148438e+01 1.177213072776794434e+00 8.657022476196289062e+00 2.950270652770996094e+00 -1.381067633628845215e-01
4.334000000000000000e+03 4.614621734619140625e+01 -2.328779411315917969e+01 2.544410228729248047e-01 1.327438831329345703e+00 4.745639264583587646e-01 -1.326920986175537109e-01
4.335000000000000000e+03 4.222665405273437500e+01 1.914650344848632812e+01 1.027753800153732300e-01 4.697013795375823975e-01 1.717430204153060913e-01 1.168038100004196167e-01
4.336000000000000000e+03 4.341545486450195312e+01 1.869300651550292969e+01 -9.874717891216278076e-02 6.969239115715026855e-01 1.794530153274536133e-01 1.197867840528488159e-01
4.337000000000000000e+03 2.603025913238525391e+00 9.791614532470703125e+00 -4.513690993189811707e-02 -7.377684861421585083e-02 -3.567412868142127991e-02 1.338450312614440918e-01
4.338000000000000000e+03 3.725260925292968750e+01 -3.620911407470703125e+01 3.039517104625701904e-01 7.428531050682067871e-01 3.140414357185363770e-01 -4.154649004340171814e-02
4.339000000000000000e+03 5.378496551513671875e+01 -2.622970199584960938e+01 -1.946750432252883911e-01 3.471579074859619141e+00 9.830712676048278809e-01 1.604677200317382812e+00
4.340000000000000000e+03 6.473237609863281250e+01 -9.094110488891601562e+00 2.245121002197265625e+00 1.051408195495605469e+01 3.827760934829711914e+00 -1.708024263381958008e+00
4.341000000000000000e+03 6.124174499511718750e+01 -9.905579566955566406e+00 8.184209465980529785e-01 1.109782505035400391e+01 3.574873924255371094e+00 1.829145073890686035e+00
4.342000000000000000e+03 1.624365234375000000e+01 -1.210136318206787109e+01 -1.871934980154037476e-01 1.578450649976730347e-01 -8.804531767964363098e-03 4.612630233168601990e-02
4.343000000000000000e+03 5.509311294555664062e+01 -1.625540542602539062e+01 -4.403324425220489502e-01 1.112658858299255371e+00 2.016979157924652100e-01 3.089154660701751709e-01
4.344000000000000000e+03 3.733400344848632812e+01 2.016555595397949219e+01 2.913609445095062256e-01 -6.439517438411712646e-02 6.808973103761672974e-02 1.365022808313369751e-01
4.345000000000000000e+03 3.753395080566406250e+01 1.302806091308593750e+01 -3.022591173648834229e-01 -7.009398937225341797e-01 -3.009597063064575195e-01 2.469194531440734863e-01
4.346000000000000000e+03 4.881054687500000000e+01 -2.561577415466308594e+01 -1.110914647579193115e-01 7.181085944175720215e-01 1.821051239967346191e-01 -6.389693021774291992e-01
4.347000000000000000e+03 1.909387397766113281e+01 4.834367275238037109e+00 -3.527994453907012939e-01 -2.839031815528869629e-02 -1.143569275736808777e-01 2.338023036718368530e-01
4.348000000000000000e+03 3.057220077514648438e+01 1.437167930603027344e+01 -1.154930144548416138e-01 7.986075282096862793e-01 2.049343436956405640e-01 5.670872330665588379e-01
4.349000000000000000e+03 2.986113929748535156e+01 1.423685264587402344e+01 -1.677213609218597412e-01 7.101623415946960449e-01 1.627323031425476074e-01 5.526417493820190430e-01
4.350000000000000000e+03 2.736539459228515625e+01 -3.122807884216308594e+01 1.987973600625991821e-01 -1.492911428213119507e-01 1.485186256468296051e-02 -1.953776329755783081e-01
4.351000000000000000e+03 4.626506805419921875e+01 3.133106994628906250e+01 6.882827281951904297e-01 2.088825225830078125e+00 8.331323862075805664e-01 -7.778581380844116211e-01
4.352000000000000000e+03 4.686414718627929688e+01 2.950756072998046875e+01 7.544347643852233887e-01 2.304882764816284180e+00 9.177952408790588379e-01 -6.823557615280151367e-01
4.353000000000000000e+03 7.568341064453125000e+01 1.182730293273925781e+01 1.127321004867553711e+00 8.123683929443359375e+00 2.775301694869995117e+00 3.286034241318702698e-02
4.354000000000000000e+03 7.394509887695312500e+01 1.156088066101074219e+01 1.728823781013488770e+00 1.001721286773681641e+01 3.523810863494873047e+00 3.337841331958770752e-01
4.355000000000000000e+03 3.709357070922851562e+01 2.084044075012207031e+01 2.269967347383499146e-01 -2.473239600658416748e-02 6.067930161952972412e-02 1.286251544952392578e-01
4.356000000000000000e+03 3.698585510253906250e+01 1.437689495086669922e+01 3.378499299287796021e-02 -5.851468443870544434e-01 -1.654085516929626465e-01 1.679753214120864868e-01
4.357000000000000000e+03 7.757955169677734375e+01 -1.945168876647949219e+01 4.029287993907928467e-01 7.926973819732666016e+00 2.498970746994018555e+00 8.060323596000671387e-01
4.358000000000000000e+03 3.752447509765625000e+01 -3.104752922058105469e+01 4.909868240356445312e-01 7.560651302337646484e-01 3.741155862808227539e-01 1.617466658353805542e-01
4.359000000000000000e+03 6.435494232177734375e+01 -4.013559341430664062e+00 2.819851398468017578e+00 1.131419086456298828e+01 4.240212917327880859e+00 1.400962233543395996e+00
4.360000000000000000e+03 2.605840682983398438e+01 -2.563032531738281250e+01 3.893288969993591309e-01 -1.694236099720001221e-01 6.597158312797546387e-02 -1.707141250371932983e-01
4.361000000000000000e+03 3.553901290893554688e+01 3.409183502197265625e+01 3.407233357429504395e-01 4.179814457893371582e-01 2.276114374399185181e-01 1.805589944124221802e-01
4.362000000000000000e+03 7.607298278808593750e+01 -1.872966575622558594e+01 4.969331026077270508e-01 8.408406257629394531e+00 2.671602010726928711e+00 8.623414039611816406e-01
4.363000000000000000e+03 3.613811111450195312e+01 -1.258575534820556641e+01 -4.994283020496368408e-01 7.070242762565612793e-01 6.227880343794822693e-02 -1.236994862556457520e-01
4.364000000000000000e+03 2.016290473937988281e+01 7.838833332061767578e+00 3.747259974479675293e-01 -1.111042592674493790e-02 1.090846732258796692e-01 1.727917492389678955e-01
4.365000000000000000e+03 2.019482994079589844e+01 6.750399112701416016e+00 1.614401638507843018e-01 -5.474315583705902100e-02 3.200910240411758423e-02 1.467618793249130249e-01
4.366000000000000000e+03 3.648210525512695312e+01 -1.200832557678222656e+01 -3.667221665382385254e-01 8.723722696304321289e-01 1.516950279474258423e-01 -1.137054190039634705e-01
4.367000000000000000e+03 5.489521789550781250e+01 2.271508598327636719e+01 -1.718749403953552246e+00 3.681732654571533203e+00 5.888949632644653320e-01 -1.855796813964843750e+00
4.368000000000000000e+03 6.076282119750976562e+01 1.019486141204833984e+01 1.379669547080993652e+00 8.534714698791503906e+00 2.974315166473388672e+00 -1.472577810287475586e+00
4.369000000000000000e+03 3.298678207397460938e+01 2.533853149414062500e+01 -2.240183204412460327e-01 1.402789056301116943e-01 -2.512182667851448059e-02 2.118631154298782349e-01
4.370000000000000000e+03 3.267970657348632812e+01 1.522853374481201172e+01 1.839873790740966797e-01 3.837278485298156738e-01 1.703145653009414673e-01 3.668707609176635742e-01
4.371000000000000000e+03 6.974036407470703125e+01 -1.321070098876953125e+01 3.416992127895355225e-01 6.971170902252197266e-01 3.116449117660522461e-01 -2.548339128494262695e+00
4.372000000000000000e+03 4.655384826660156250e+01 2.532381820678710938e+01 4.847247600555419922e-01 1.912926197052001953e+00 7.192952632904052734e-01 2.138570845127105713e-01
4.373000000000000000e+03 5.325625610351562500e+01 -2.682687187194824219e+01 1.333089470863342285e-01 2.924453258514404297e+00 9.173287153244018555e-01 1.407846450805664062e+00
4.374000000000000000e+03 2.831471061706542969e+01 1.183536624908447266e+01 1.174803376197814941e-01 4.710919260978698730e-01 1.765716820955276489e-01 2.720581889152526855e-01
4.375000000000000000e+03 2.821801948547363281e+01 1.265877437591552734e+01 1.719454186968505383e-03 3.998181521892547607e-01 1.204612776637077332e-01 3.226327598094940186e-01
4.376000000000000000e+03 4.866991424560546875e+01 3.539142131805419922e+00 -7.916542291641235352e-01 2.440769970417022705e-01 -1.642731726169586182e-01 -1.094045937061309814e-01
4.377000000000000000e+03 2.629247856140136719e+01 -3.070769500732421875e+01 2.038138508796691895e-01 -2.278171777725219727e-01 -7.200998254120349884e-03 -2.114149183034896851e-01
4.378000000000000000e+03 2.820150375366210938e+01 3.644722223281860352e+00 -4.902004003524780273e-01 3.558523654937744141e-01 -4.030441120266914368e-02 1.655787825584411621e-01
4.379000000000000000e+03 5.532025527954101562e+01 4.098615169525146484e+00 -6.562919616699218750e-01 2.116646051406860352e+00 4.381062388420104980e-01 -1.051527619361877441e+00
4.380000000000000000e+03 5.370414352416992188e+01 5.443587303161621094e+00 -5.095283985137939453e-01 9.885116815567016602e-01 1.436949968338012695e-01 -1.715210080146789551e-01
4.381000000000000000e+03 6.636441802978515625e+01 2.240936660766601562e+01 -8.564169406890869141e-01 1.057176589965820312e+00 6.022788956761360168e-02 3.632818460464477539e-01
4.382000000000000000e+03 5.604383087158203125e+01 -1.683888244628906250e+01 -5.389433503150939941e-01 2.427153825759887695e+00 5.664631724357604980e-01 6.708682775497436523e-01
4.383000000000000000e+03 5.301857757568359375e+01 5.144574642181396484e+00 -3.966501653194427490e-01 2.759228050708770752e-01 -3.621821105480194092e-02 -1.379789113998413086e-01
4.384000000000000000e+03 5.264576339721679688e+01 3.589634895324707031e+00 -4.714319705963134766e-01 5.328020453453063965e-02 -1.254455298185348511e-01 -1.806191504001617432e-01
4.385000000000000000e+03 3.542573547363281250e+01 -9.029237747192382812e+00 2.618751823902130127e-01 5.848202705383300781e-01 2.540086209774017334e-01 -4.115791618824005127e-01
4.386000000000000000e+03 4.196401977539062500e+01 9.854544639587402344e+00 -1.185639053583145142e-01 1.296620070934295654e-01 3.329430706799030304e-03 1.880996376276016235e-01
4.387000000000000000e+03 4.349453735351562500e+01 9.082314491271972656e+00 2.733105421066284180e-02 6.995471715927124023e-01 2.180634737014770508e-01 1.218463554978370667e-01
4.388000000000000000e+03 2.980621910095214844e+01 1.220552349090576172e+01 -3.253763914108276367e-02 7.524819970130920410e-01 2.159833163022994995e-01 3.785488903522491455e-01
4.389000000000000000e+03 4.087981033325195312e+01 -1.866025924682617188e+01 4.002780914306640625e-01 3.931449353694915771e-01 2.380269020795822144e-01 -3.784238696098327637e-01
4.390000000000000000e+03 2.111482429504394531e+01 1.923985290527343750e+01 -1.455855518579483032e-01 -1.715700924396514893e-01 -9.514669328927993774e-02 1.006794720888137817e-02
4.391000000000000000e+03 4.364960670471191406e+00 2.603700637817382812e+01 -2.176538705825805664e-01 -6.620572209358215332e-01 -2.639133334159851074e-01 1.408687829971313477e-01
4.392000000000000000e+03 3.277042770385742188e+01 3.306414031982421875e+01 3.117986321449279785e-01 2.523648738861083984e-01 1.692490428686141968e-01 1.043438091874122620e-01
4.393000000000000000e+03 6.047432327270507812e+01 -1.172315216064453125e+01 -1.017160892486572266e+00 8.250158309936523438e+00 2.169899225234985352e+00 2.729757070541381836e+00
4.394000000000000000e+03 2.669290161132812500e+01 -2.366539192199707031e+01 2.049441188573837280e-01 -1.485128849744796753e-01 1.692936941981315613e-02 -1.495776176452636719e-01
4.395000000000000000e+03 2.763092231750488281e+01 -2.483270263671875000e+01 3.070544004440307617e-01 -1.122441366314888000e-01 5.844307690858840942e-02 -1.783828139305114746e-01
4.396000000000000000e+03 6.381052017211914062e+01 -4.049244880676269531e+00 2.831690549850463867e+00 1.204515647888183594e+01 4.463054180145263672e+00 4.157714545726776123e-01
4.397000000000000000e+03 1.637534713745117188e+01 -1.010330295562744141e+01 -1.367857754230499268e-01 9.640540927648544312e-02 -1.211410760879516602e-02 6.632488965988159180e-02
4.398000000000000000e+03 6.262018203735351562e+01 -9.647487640380859375e+00 1.384830474853515625e+00 1.128859233856201172e+01 3.802026987075805664e+00 1.969015151262283325e-01
4.399000000000000000e+03 2.077701377868652344e+01 8.490655899047851562e+00 3.675697743892669678e-01 -1.038819774985313416e-01 7.910633832216262817e-02 1.938898563385009766e-01
4.400000000000000000e+03 3.425892257690429688e+01 2.596812438964843750e+01 -3.908008709549903870e-02 4.965757727622985840e-01 1.372487097978591919e-01 9.756613522768020630e-02
4.401000000000000000e+03 1.421057796478271484e+01 2.098398590087890625e+01 1.235784143209457397e-01 2.225199192762374878e-01 1.038295030593872070e-01 5.341705679893493652e-01
4.402000000000000000e+03 6.531494140625000000e+01 2.184368324279785156e+01 -1.613146662712097168e+00 1.115518808364868164e+00 -1.492883563041687012e-01 1.200854182243347168e+00
4.403000000000000000e+03 6.528192901611328125e+01 2.778590583801269531e+01 1.378133058547973633e+00 4.455513477325439453e+00 1.750093936920166016e+00 1.029901266098022461e+00
4.404000000000000000e+03 6.414031982421875000e+01 -1.661174583435058594e+01 -2.712925195693969727e+00 7.833610057830810547e+00 1.536205530166625977e+00 1.835204362869262695e-01
4.405000000000000000e+03 6.269657897949218750e+01 -1.843233108520507812e+01 7.433227729052305222e-03 7.250360012054443359e+00 2.177337884902954102e+00 -2.786690890789031982e-01
4.406000000000000000e+03 6.369620513916015625e+01 -2.505870246887207031e+01 -1.036401033401489258e+00 5.654575824737548828e+00 1.385452508926391602e+00 -1.533298254013061523e+00
4.407000000000000000e+03 6.392167663574218750e+01 -2.424709320068359375e+01 6.161661148071289062e-01 6.521961212158203125e+00 2.141438245773315430e+00 -1.347386717796325684e+00
4.408000000000000000e+03 2.044805145263671875e+01 1.690540504455566406e+01 -3.206798136234283447e-01 -1.947629898786544800e-01 -1.546328365802764893e-01 1.482939124107360840e-01
4.409000000000000000e+03 3.650941848754882812e+01 3.532240295410156250e+01 4.306207597255706787e-01 3.826483786106109619e-01 2.439807355403900146e-01 1.550276875495910645e-01
4.410000000000000000e+03 3.571035003662109375e+01 3.533703613281250000e+01 3.978918492794036865e-01 3.885559439659118652e-01 2.359343320131301880e-01 1.425442248582839966e-01
4.411000000000000000e+03 3.640631866455078125e+01 -5.358186244964599609e+00 -4.690093100070953369e-01 6.103710532188415527e-01 4.240851476788520813e-02 -4.467887282371520996e-01
4.412000000000000000e+03 3.561820220947265625e+01 -4.785125255584716797e+00 -4.930965006351470947e-01 4.560888707637786865e-01 -1.110229454934597015e-02 -4.810169637203216553e-01
4.413000000000000000e+03 2.095358657836914062e+01 2.425689506530761719e+01 4.588694572448730469e-01 -4.252221807837486267e-02 1.249041780829429626e-01 3.501406610012054443e-01
4.414000000000000000e+03 5.621354675292968750e+01 4.071942329406738281e+00 -8.858908414840698242e-01 3.098469495773315430e+00 6.637735962867736816e-01 -1.498336553573608398e+00
4.415000000000000000e+03 5.467843246459960938e+01 6.208329200744628906e+00 -7.761436104774475098e-01 2.357213258743286133e+00 4.743208885192871094e-01 -2.833595275878906250e-01
4.416000000000000000e+03 3.713497543334960938e+01 -3.160977745056152344e+01 4.796784520149230957e-01 7.079375982284545898e-01 3.562848269939422607e-01 8.007080852985382080e-02
4.417000000000000000e+03 5.291183090209960938e+01 2.479090499877929688e+01 -5.455055460333824158e-02 4.571708679199218750e+00 1.355147480964660645e+00 -7.344598770141601562e-01
4.418000000000000000e+03 5.204581451416015625e+01 2.694710731506347656e+01 1.105080604553222656e+00 4.380620002746582031e+00 1.645710110664367676e+00 -7.318150401115417480e-01
4.419000000000000000e+03 5.097395706176757812e+01 4.267797470092773438e+00 -4.700689613819122314e-01 -1.169383004307746887e-01 -1.761021763086318970e-01 -2.542397081851959229e-01
4.420000000000000000e+03 2.126887321472167969e+01 6.193253993988037109e+00 4.611001908779144287e-02 -1.559151560068130493e-01 -3.294154256582260132e-02 1.452382355928421021e-01
4.421000000000000000e+03 2.120892524719238281e+01 7.835554122924804688e+00 3.290961980819702148e-01 -1.521573364734649658e-01 5.308165773749351501e-02 1.561281830072402954e-01
4.422000000000000000e+03 7.186145019531250000e+01 -1.542171287536621094e+01 -3.336648344993591309e-01 2.752593994140625000e+00 7.256787419319152832e-01 -1.647600412368774414e+00
4.423000000000000000e+03 4.625945281982421875e+01 -1.731409454345703125e+01 4.234201908111572266e-01 1.342035889625549316e+00 5.296368002891540527e-01 3.395524621009826660e-01
4.424000000000000000e+03 4.476367187500000000e+01 -1.619429397583007812e+01 -1.209619045257568359e-01 4.636365771293640137e-01 1.028023958206176758e-01 5.137555673718452454e-02
4.425000000000000000e+03 5.799810409545898438e+01 -1.181699371337890625e+01 -1.681296974420547485e-01 2.443104982376098633e+00 6.824926137924194336e-01 2.580173969268798828e+00
4.426000000000000000e+03 7.735663414001464844e+00 -2.430797767639160156e+01 7.782971113920211792e-02 4.920301586389541626e-02 3.810981661081314087e-02 -8.025296777486801147e-02
4.427000000000000000e+03 9.307213783264160156e+00 -2.481368255615234375e+01 -2.559574553743004799e-03 -3.756204620003700256e-02 -1.203648652881383896e-02 -1.798520833253860474e-01
4.428000000000000000e+03 5.800516891479492188e+01 1.161763000488281250e+01 1.470521569252014160e+00 6.398011207580566406e+00 2.360559701919555664e+00 -9.519811868667602539e-01
4.429000000000000000e+03 7.542230224609375000e+01 -2.360151863098144531e+01 9.514027833938598633e-01 9.414037704467773438e+00 3.109632253646850586e+00 -3.401426374912261963e-01
4.430000000000000000e+03 9.329192161560058594e+00 7.845460414886474609e+00 -3.950098454952239990e-01 -2.759162783622741699e-01 -2.012778371572494507e-01 2.237924337387084961e-01
4.431000000000000000e+03 6.398237228393554688e+01 2.179131507873535156e+01 -1.994506478309631348e+00 2.784230709075927734e+00 2.369172871112823486e-01 2.393783807754516602e+00
4.432000000000000000e+03 4.746597290039062500e+01 -1.292345523834228516e+01 -1.062582254409790039e+00 1.236079216003417969e+00 5.204910412430763245e-02 4.749988019466400146e-02
4.433000000000000000e+03 6.428446197509765625e+01 2.400755119323730469e+01 4.569240380078554153e-03 3.684638977050781250e+00 1.106762528419494629e+00 1.277405977249145508e+00
4.434000000000000000e+03 6.918880462646484375e+01 2.176781082153320312e+01 -1.497502207756042480e+00 2.865061044692993164e+00 4.102676212787628174e-01 -1.376247286796569824e+00
4.435000000000000000e+03 2.797705841064453125e+01 7.190700054168701172e+00 2.865259945392608643e-01 6.439330577850341797e-01 2.791377305984497070e-01 7.718832045793533325e-02
4.436000000000000000e+03 2.522238922119140625e+01 5.503899574279785156e+00 -6.345173809677362442e-03 -3.238051757216453552e-02 -1.161770708858966827e-02 1.948139816522598267e-01
4.437000000000000000e+03 7.375859832763671875e+01 -2.635196876525878906e+01 -1.697927236557006836e+00 7.571752548217773438e+00 1.762147665023803711e+00 1.167507052421569824e+00
4.438000000000000000e+03 7.698220825195312500e+01 -2.822634315490722656e+01 -5.056601166725158691e-01 7.944087505340576172e+00 2.231528282165527344e+00 -6.440886110067367554e-02
4.439000000000000000e+03 2.524169683456420898e+00 2.526359939575195312e+01 -8.240786194801330566e-02 -5.166389346122741699e-01 -1.797140389680862427e-01 4.235382378101348877e-02
4.440000000000000000e+03 4.926685333251953125e+00 2.495711708068847656e+01 -1.765640825033187866e-01 -6.739157438278198242e-01 -2.551439404487609863e-01 1.159992218017578125e-01
4.441000000000000000e+03 5.289078521728515625e+01 -2.742922592163085938e+01 4.271924197673797607e-01 2.600985527038574219e+00 9.084533452987670898e-01 1.050767302513122559e+00
4.442000000000000000e+03 5.518967819213867188e+01 6.836493015289306641e+00 -7.652549147605895996e-01 3.247575521469116211e+00 7.446961998939514160e-01 -4.233714938163757324e-01
4.443000000000000000e+03 5.699425888061523438e+01 9.267252922058105469e+00 1.028930693864822388e-01 5.434566974639892578e+00 1.661238074302673340e+00 -5.123103857040405273e-01
4.444000000000000000e+03 2.197663497924804688e+01 -2.477329444885253906e+01 2.931778132915496826e-01 5.932155624032020569e-02 1.057498157024383545e-01 -1.531905382871627808e-01
4.445000000000000000e+03 1.506223011016845703e+01 -2.364960098266601562e+01 -3.268450498580932617e-02 -5.555683374404907227e-01 -1.764758527278900146e-01 -4.004206061363220215e-01
4.446000000000000000e+03 5.622823333740234375e+01 -2.503533363342285156e+01 3.173583000898361206e-02 5.263873100280761719e+00 1.588682651519775391e+00 1.574513196945190430e+00
4.447000000000000000e+03 5.884651184082031250e+01 -2.621804618835449219e+01 -7.585057616233825684e-01 3.406794071197509766e+00 7.944864630699157715e-01 2.102667570114135742e+00
4.448000000000000000e+03 1.108703422546386719e+01 -3.837855911254882812e+01 2.762999534606933594e-01 -2.540857195854187012e-01 6.664275657385587692e-03 -1.855129301548004150e-01
4.449000000000000000e+03 9.870119094848632812e+00 -3.727680969238281250e+01 1.596721261739730835e-01 -2.836158871650695801e-01 -3.718313202261924744e-02 -2.414693832397460938e-01
4.450000000000000000e+03 5.032115936279296875e+01 -2.815400123596191406e+01 7.424106597900390625e-01 1.287768006324768066e+00 6.090536117553710938e-01 -2.730644047260284424e-01
4.451000000000000000e+03 3.355778121948242188e+01 -3.139575195312500000e+01 4.205358028411865234e-01 2.833346724510192871e-01 2.111611515283584595e-01 -1.603381633758544922e-01
4.452000000000000000e+03 4.288425064086914062e+01 -2.179640769958496094e+01 4.827142059803009033e-01 7.864250540733337402e-01 3.807417750358581543e-01 7.399865239858627319e-02
4.453000000000000000e+03 5.414704895019531250e+01 -1.111804103851318359e+01 -5.478609204292297363e-01 -6.422621607780456543e-01 -3.570369184017181396e-01 2.648161947727203369e-01
4.454000000000000000e+03 5.467811965942382812e+01 -1.075309944152832031e+01 -8.134356737136840820e-01 -7.053557634353637695e-01 -4.556374251842498779e-01 4.157298803329467773e-01
4.455000000000000000e+03 4.654561614990234375e+01 4.963081836700439453e+00 -5.625505447387695312e-01 4.626069664955139160e-01 -2.998307533562183380e-02 -6.085140630602836609e-02
4.456000000000000000e+03 5.137068176269531250e+01 -8.258487701416015625e+00 -7.049828767776489258e-01 -3.294687271118164062e-01 -3.103354871273040771e-01 4.199885129928588867e-01
4.457000000000000000e+03 5.781526565551757812e+01 -1.659127426147460938e+01 -5.669874548912048340e-01 4.031211376190185547e+00 1.039267182350158691e+00 1.116488337516784668e+00
4.458000000000000000e+03 4.893534469604492188e+01 -1.364811897277832031e+01 -6.971417665481567383e-01 9.982579350471496582e-01 9.033484011888504028e-02 2.003684788942337036e-01
4.459000000000000000e+03 5.169452667236328125e+01 -8.975223541259765625e+00 -6.386575698852539062e-01 -4.169526994228363037e-01 -3.166830837726593018e-01 2.958432435989379883e-01
4.460000000000000000e+03 3.157802772521972656e+01 -9.863053321838378906e+00 -4.987979233264923096e-01 -6.061405539512634277e-01 -3.314815461635589600e-01 -3.292258679866790771e-01
4.461000000000000000e+03 8.272008895874023438e+00 2.167904281616210938e+01 -1.041571050882339478e-01 -2.840280830860137939e-01 -1.164555624127388000e-01 1.443992853164672852e-01
4.462000000000000000e+03 5.835626602172851562e+01 1.224024391174316406e+01 1.675324559211730957e+00 6.658361911773681641e+00 2.500106096267700195e+00 -9.602770805358886719e-01
4.463000000000000000e+03 5.901165771484375000e+01 1.191038894653320312e+01 1.644130229949951172e+00 7.539858818054199219e+00 2.755196571350097656e+00 -1.233689785003662109e+00
4.464000000000000000e+03 5.100141143798828125e+01 -2.762824058532714844e+01 6.666661500930786133e-01 1.307527661323547363e+00 5.922581553459167480e-01 2.971939928829669952e-02
4.465000000000000000e+03 5.791169738769531250e+01 1.043644428253173828e+01 9.143399000167846680e-01 6.116967201232910156e+00 2.109392166137695312e+00 -6.577371358871459961e-01
4.466000000000000000e+03 5.920907974243164062e+01 1.037457466125488281e+01 1.117802023887634277e+00 7.130711078643798828e+00 2.474553823471069336e+00 -7.819765806198120117e-01
4.467000000000000000e+03 5.564626312255859375e+01 -2.339496040344238281e+01 1.602593064308166504e+00 5.534966945648193359e+00 2.141268014907836914e+00 1.667635917663574219e+00
4.468000000000000000e+03 3.275622177124023438e+01 1.675226974487304688e+01 4.977295696735382080e-01 4.049922823905944824e-01 2.708165645599365234e-01 4.516459405422210693e-01
4.469000000000000000e+03 5.792406845092773438e+01 5.267646789550781250e+00 -1.684824466705322266e+00 5.400776863098144531e+00 1.114785671234130859e+00 -1.770062923431396484e+00
4.470000000000000000e+03 5.654572677612304688e+01 -2.714474678039550781e+01 -4.370486438274383545e-01 5.400994777679443359e+00 1.489183902740478516e+00 1.623314380645751953e+00
4.471000000000000000e+03 4.146281814575195312e+01 -1.588707256317138672e+01 -3.690798282623291016e-01 1.237957328557968140e-01 -7.358522713184356689e-02 -4.909968674182891846e-01
4.472000000000000000e+03 4.920714378356933594e+00 9.623408317565917969e+00 -1.401383578777313232e-01 -8.341216295957565308e-02 -6.706515699625015259e-02 2.031731456518173218e-01
4.473000000000000000e+03 7.759407043457031250e+00 1.088609790802001953e+01 -2.066073566675186157e-01 -1.757839024066925049e-01 -1.147173792123794556e-01 3.266251087188720703e-01
4.474000000000000000e+03 6.846515655517578125e+01 -3.098549652099609375e+01 1.988084077835083008e+00 4.085545063018798828e+00 1.822088837623596191e+00 -1.281966805458068848e+00
4.475000000000000000e+03 6.681317901611328125e+01 -2.853106498718261719e+01 -2.925022132694721222e-02 5.669657707214355469e+00 1.692122220993041992e+00 -1.672926664352416992e+00
4.476000000000000000e+03 5.147095870971679688e+01 -3.676383590698242188e+01 3.114939033985137939e-01 3.520469665527343750e+00 1.149589061737060547e+00 9.657059311866760254e-01
4.477000000000000000e+03 3.669679641723632812e+01 1.335579967498779297e+01 -3.363304436206817627e-01 -6.769850850105285645e-01 -3.039946556091308594e-01 2.773659229278564453e-01
4.478000000000000000e+03 3.828274536132812500e+01 1.953367424011230469e+01 3.426965475082397461e-01 -9.494766592979431152e-02 7.432466000318527222e-02 1.043641194701194763e-01
4.479000000000000000e+03 1.919452857971191406e+01 6.426831722259521484e+00 1.075166240334510803e-01 8.667748421430587769e-02 5.825823172926902771e-02 1.736534833908081055e-01
4.480000000000000000e+03 3.179840850830078125e+01 -9.059242248535156250e+00 -3.779950737953186035e-01 -5.761958360671997070e-01 -2.862572669982910156e-01 -4.461376368999481201e-01
4.481000000000000000e+03 4.066800689697265625e+01 -2.591831970214843750e+01 2.804982662200927734e-01 8.112398982048034668e-01 3.275214433670043945e-01 3.223723471164703369e-01
4.482000000000000000e+03 4.242078018188476562e+01 -2.602513504028320312e+01 3.805739879608154297e-01 6.731690764427185059e-01 3.161229193210601807e-01 3.173949122428894043e-01
4.483000000000000000e+03 1.447980880737304688e+01 -8.050329208374023438e+00 -5.626808851957321167e-02 5.570546537637710571e-02 -1.687866752035915852e-04 1.955721760168671608e-03
4.484000000000000000e+03 6.374754714965820312e+01 -8.551705360412597656e+00 2.563782691955566406e+00 1.157379913330078125e+01 4.241274356842041016e+00 -7.291417717933654785e-01
4.485000000000000000e+03 4.791099548339843750e+01 2.703059196472167969e+01 6.039604544639587402e-01 2.478490591049194336e+00 9.247353076934814453e-01 -2.889616191387176514e-01
4.486000000000000000e+03 6.193004989624023438e+01 -2.366602897644042969e+00 3.358144044876098633e+00 1.304782485961914062e+01 4.921790599822998047e+00 -1.510503888130187988e+00
4.487000000000000000e+03 5.582422256469726562e+01 -1.601860618591308594e+01 -4.252115786075592041e-01 1.910340309143066406e+00 4.455386102199554443e-01 5.499532818794250488e-01
4.488000000000000000e+03 5.377568435668945312e+01 -1.576942539215087891e+01 -2.441750317811965942e-01 1.000474095344543457e-01 -4.323828592896461487e-02 1.801587194204330444e-01
4.489000000000000000e+03 5.766698074340820312e+01 -2.512506484985351562e+01 -1.022788062691688538e-01 4.388918876647949219e+00 1.285992026329040527e+00 2.001352310180664062e+00
4.490000000000000000e+03 4.960711288452148438e+01 4.688468933105468750e+00 -4.758716225624084473e-01 1.544947177171707153e-01 -9.641306847333908081e-02 -2.386676967144012451e-01
4.491000000000000000e+03 3.168362426757812500e+01 -1.062395286560058594e+01 -5.523996353149414062e-01 -5.383065342903137207e-01 -3.272118270397186279e-01 -2.033291310071945190e-01
4.492000000000000000e+03 3.620635223388671875e+01 -1.099815845489501953e+01 -3.778043761849403381e-02 8.954179883003234863e-01 2.572912573814392090e-01 -1.317831873893737793e-01
4.493000000000000000e+03 3.627752065658569336e+00 -1.893044853210449219e+01 -2.234383299946784973e-02 -1.309116035699844360e-01 -4.597663134336471558e-02 -1.601845175027847290e-01
4.494000000000000000e+03 8.518041610717773438e+00 1.682078361511230469e+01 3.733465075492858887e-01 -8.323327451944351196e-02 8.703397214412689209e-02 2.174737900495529175e-01
4.495000000000000000e+03 9.260018348693847656e+00 1.694252204895019531e+01 4.248314499855041504e-01 7.405481487512588501e-02 1.496658772230148315e-01 2.394181042909622192e-01
4.496000000000000000e+03 8.765725135803222656e+00 3.613257598876953125e+01 1.923142075538635254e-01 1.070117056369781494e-01 8.979777246713638306e-02 7.401508092880249023e-02
4.497000000000000000e+03 2.548887062072753906e+01 -2.084105491638183594e+01 -2.374063245952129364e-02 -2.408586144447326660e-01 -7.937977463006973267e-02 -1.824500709772109985e-01
4.498000000000000000e+03 5.198190689086914062e+01 -3.259762191772460938e+01 1.290693163871765137e+00 3.583431959152221680e+00 1.462237477302551270e+00 1.075815200805664062e+00
4.499000000000000000e+03 5.355414581298828125e+01 -3.175386238098144531e+01 1.560256958007812500e+00 4.313332080841064453e+00 1.762076735496520996e+00 1.077052235603332520e+00
4.500000000000000000e+03 4.727797698974609375e+01 2.544034957885742188e+01 4.882790148258209229e-01 2.116599321365356445e+00 7.814634442329406738e-01 8.009247481822967529e-02
4.501000000000000000e+03 4.736297225952148438e+01 2.230211639404296875e+01 3.562358915805816650e-01 1.335640072822570801e+00 5.075628161430358887e-01 -4.617623612284660339e-02
4.502000000000000000e+03 6.681641387939453125e+01 -1.298904037475585938e+01 2.315464764833450317e-01 3.933720588684082031e+00 1.249580144882202148e+00 -1.118875980377197266e+00
4.503000000000000000e+03 6.232534408569335938e+01 -2.773358106613159180e+00 3.525947332382202148e+00 1.290345668792724609e+01 4.928821086883544922e+00 -8.509157896041870117e-01
4.504000000000000000e+03 6.344206237792968750e+01 -3.216021299362182617e+00 3.270136356353759766e+00 1.151694488525390625e+01 4.436124324798583984e+00 3.232426643371582031e-01
4.505000000000000000e+03 5.882948684692382812e+01 1.675509262084960938e+01 1.602849602699279785e+00 5.628053665161132812e+00 2.169270992279052734e+00 -1.601675599813461304e-01
4.506000000000000000e+03 5.626479339599609375e+01 1.652242851257324219e+01 1.628525614738464355e+00 4.252332687377929688e+00 1.764257550239562988e+00 -1.442431449890136719e+00
4.507000000000000000e+03 6.466080474853515625e+01 6.229656219482421875e+00 -3.727244615554809570e+00 1.321975350379943848e+00 -7.215807437896728516e-01 -1.371894717216491699e+00
4.508000000000000000e+03 6.040220642089843750e+01 7.018297195434570312e+00 -2.326783418655395508e+00 6.943218708038330078e+00 1.384930491447448730e+00 -1.620582938194274902e+00
4.509000000000000000e+03 4.780791854858398438e+01 -1.577834510803222656e+01 -3.429055213928222656e-01 1.366646885871887207e+00 3.071224093437194824e-01 5.569572448730468750e-01
4.510000000000000000e+03 5.649264144897460938e+01 -1.559553623199462891e+01 -4.167071580886840820e-01 2.424888372421264648e+00 6.024543642997741699e-01 8.866174817085266113e-01
4.511000000000000000e+03 5.665819168090820312e+01 -1.172573089599609375e+01 -2.986833639442920685e-02 3.959768414497375488e-01 1.098325476050376892e-01 1.530396580696105957e+00
4.512000000000000000e+03 3.715484237670898438e+01 -5.412114620208740234e+00 -5.408648252487182617e-01 6.536219120025634766e-01 3.382712230086326599e-02 -3.133881986141204834e-01
4.513000000000000000e+03 4.495389175415039062e+01 -2.067143249511718750e+01 5.915018916130065918e-01 1.275342702865600586e+00 5.600533485412597656e-01 1.409263461828231812e-01
4.514000000000000000e+03 4.355262374877929688e+01 -1.909273338317871094e+01 6.276823282241821289e-01 5.876886844635009766e-01 3.646112978458404541e-01 -2.828571386635303497e-02
4.515000000000000000e+03 5.698617172241210938e+01 3.781024169921875000e+01 7.676590979099273682e-02 9.120468497276306152e-01 2.966438233852386475e-01 5.773250460624694824e-01
4.516000000000000000e+03 5.556678009033203125e+01 4.004549789428710938e+01 -4.917100071907043457e-02 1.517011404037475586e+00 4.403521418571472168e-01 3.013832271099090576e-01
4.517000000000000000e+03 3.645219802856445312e+01 -3.796856689453125000e+01 3.096881508827209473e-01 5.787123441696166992e-01 2.665201425552368164e-01 -4.330913722515106201e-02
4.518000000000000000e+03 5.035647583007812500e+01 -7.762636661529541016e+00 -5.291218757629394531e-01 1.388570368289947510e-01 -1.170794591307640076e-01 4.885583221912384033e-01
4.519000000000000000e+03 3.865219879150390625e+01 -1.648913383483886719e+01 -1.847870498895645142e-01 8.179448843002319336e-01 1.899473518133163452e-01 -3.335701525211334229e-01
4.520000000000000000e+03 1.521165847778320312e+01 -1.139583015441894531e+01 -1.716056019067764282e-01 1.824430823326110840e-01 3.251245943829417229e-03 1.617100648581981659e-02
4.521000000000000000e+03 6.614490509033203125e+01 -3.995180130004882812e+01 -9.416251182556152344e-01 3.264877080917358398e+00 6.969755887985229492e-01 7.001930475234985352e-02
4.522000000000000000e+03 3.034766960144042969e+01 -2.818433189392089844e+01 3.988495767116546631e-01 8.696667850017547607e-02 1.457448750734329224e-01 -2.372372597455978394e-01
4.523000000000000000e+03 6.434948730468750000e+01 3.565480041503906250e+01 -4.155291914939880371e-01 3.535487174987792969e+00 9.359873533248901367e-01 -2.678589224815368652e-01
4.524000000000000000e+03 6.417012023925781250e+01 3.449203872680664062e+01 -2.763574719429016113e-01 3.611555099487304688e+00 1.000559210777282715e+00 -1.378197818994522095e-01
4.525000000000000000e+03 3.350510406494140625e+01 -1.297399711608886719e+01 -5.801910161972045898e-01 -3.951190039515495300e-02 -1.859108805656433105e-01 1.305207461118698120e-01
4.526000000000000000e+03 4.975975418090820312e+01 -5.373498916625976562e+00 -6.192621588706970215e-01 1.797774732112884521e-01 -1.318453997373580933e-01 7.517531514167785645e-01
4.527000000000000000e+03 5.054086303710937500e+01 -4.719082355499267578e+00 -5.409722924232482910e-01 -1.464315503835678101e-01 -2.062211483716964722e-01 7.829603552818298340e-01
4.528000000000000000e+03 2.151933479309082031e+01 2.924537467956542969e+01 5.507075786590576172e-02 -3.097480535507202148e-02 7.228786125779151917e-03 2.359668165445327759e-01
4.529000000000000000e+03 4.816154861450195312e+01 4.892121791839599609e+00 -4.590470492839813232e-01 4.189526438713073730e-01 -1.202832441776990891e-02 -1.446189731359481812e-01
4.530000000000000000e+03 2.623415946960449219e+01 3.091449928283691406e+01 1.910166889429092407e-01 2.067357301712036133e-01 1.193257272243499756e-01 4.360733926296234131e-01
4.531000000000000000e+03 2.554320335388183594e+01 3.330654907226562500e+01 1.054784655570983887e-01 1.697750091552734375e-01 8.257604390382766724e-02 2.295752912759780884e-01
4.532000000000000000e+03 4.218517684936523438e+01 -4.134206390380859375e+01 5.702856779098510742e-01 5.705363154411315918e-01 3.422465920448303223e-01 -3.971809893846511841e-02
4.533000000000000000e+03 3.801554107666015625e+01 -4.119810867309570312e+01 3.684110641479492188e-01 4.967536330223083496e-01 2.595494091510772705e-01 -5.471394211053848267e-02
4.534000000000000000e+03 4.252178955078125000e+01 3.853791046142578125e+01 3.968066275119781494e-01 1.080258965492248535e+00 4.431196749210357666e-01 -2.840265631675720215e-01
4.535000000000000000e+03 9.666785240173339844e+00 3.793460845947265625e+01 5.240373685956001282e-02 5.202311277389526367e-02 3.132805600762367249e-02 9.476131200790405273e-02
4.536000000000000000e+03 7.120494365692138672e+00 4.171461105346679688e+01 -7.643195986747741699e-02 -1.798780411481857300e-01 -7.689300179481506348e-02 -1.214250642806291580e-02
4.537000000000000000e+03 2.592027091979980469e+01 3.194504928588867188e+01 1.242782399058341980e-01 2.344040572643280029e-01 1.076046898961067200e-01 3.646357953548431396e-01
4.538000000000000000e+03 2.118729591369628906e+01 2.983011436462402344e+01 -6.161017343401908875e-02 -1.507105380296707153e-01 -6.369621306657791138e-02 1.512976735830307007e-01
4.539000000000000000e+03 1.386848735809326172e+01 3.954600143432617188e+01 9.621232748031616211e-02 -5.337239801883697510e-02 1.285197772085666656e-02 1.038869842886924744e-01
4.540000000000000000e+03 2.695500755310058594e+01 -3.730010223388671875e+01 1.619356423616409302e-01 -2.101603597402572632e-01 -1.446741446852684021e-02 1.348458081483840942e-01
4.541000000000000000e+03 2.932953262329101562e+01 3.113334846496582031e+01 3.133232891559600830e-01 -1.026658043265342712e-01 6.319724023342132568e-02 2.347325235605239868e-01
4.542000000000000000e+03 2.820055580139160156e+01 3.106004142761230469e+01 3.138065934181213379e-01 -8.660633862018585205e-02 6.816007196903228760e-02 3.539263904094696045e-01
4.543000000000000000e+03 4.005366134643554688e+01 3.743312835693359375e+01 5.380105972290039062e-01 6.253290176391601562e-01 3.490018844604492188e-01 -1.519217938184738159e-01
4.544000000000000000e+03 3.491384887695312500e+01 3.872943878173828125e+01 4.355331063270568848e-01 3.683028221130371094e-01 2.411507815122604370e-01 6.954092532396316528e-02
4.545000000000000000e+03 3.683027267456054688e+00 -3.772867584228515625e+01 3.051802702248096466e-02 -4.107266068458557129e-01 -1.140625700354576111e-01 -1.288553178310394287e-01
4.546000000000000000e+03 5.028085327148437500e+01 -3.923867034912109375e+01 -2.289687693119049072e-01 2.935007095336914062e+00 8.118115067481994629e-01 6.306131482124328613e-01
4.547000000000000000e+03 4.779154968261718750e+01 -3.718185043334960938e+01 7.326385974884033203e-01 1.926214814186096191e+00 7.976560592651367188e-01 1.250037074089050293e+00
4.548000000000000000e+03 5.987090587615966797e+00 3.896440505981445312e+01 -2.040571160614490509e-02 -2.964412271976470947e-01 -9.505407512187957764e-02 -3.865528851747512817e-02
4.549000000000000000e+03 3.134425878524780273e+00 3.721885681152343750e+01 2.593812532722949982e-02 -7.135546207427978516e-01 -2.062849551439285278e-01 -2.403610572218894958e-02
4.550000000000000000e+03 4.161834239959716797e+00 3.702554321289062500e+01 5.291109904646873474e-02 -5.499583482742309570e-01 -1.491141766309738159e-01 -2.751673758029937744e-02
4.551000000000000000e+03 4.150355148315429688e+01 3.721932983398437500e+01 4.865088760852813721e-01 8.559659719467163086e-01 4.027424454689025879e-01 -2.866708636283874512e-01
4.552000000000000000e+03 5.396026229858398438e+01 -3.825874710083007812e+01 -6.576709747314453125e-01 3.808020353317260742e+00 9.451048374176025391e-01 4.894612729549407959e-01
4.553000000000000000e+03 6.422747802734375000e+01 3.710843658447265625e+01 -3.015866279602050781e-01 3.164782047271728516e+00 8.589586019515991211e-01 -4.248244166374206543e-01
4.554000000000000000e+03 6.381834411621093750e+01 3.897074127197265625e+01 -1.037180796265602112e-01 2.713698625564575195e+00 7.829941511154174805e-01 -4.009940028190612793e-01
4.555000000000000000e+03 1.233512687683105469e+01 -4.171404647827148438e+01 4.802573621273040771e-01 -1.462692320346832275e-01 1.001964360475540161e-01 -2.437605336308479309e-02
4.556000000000000000e+03 5.624954605102539062e+01 -3.799404907226562500e+01 -9.741899967193603516e-01 3.305273532867431641e+00 6.993250846862792969e-01 -1.733281761407852173e-01
4.557000000000000000e+03 5.515620422363281250e+01 -4.099148178100585938e+01 -1.129746079444885254e+00 3.114756822586059570e+00 5.955032110214233398e-01 1.325086653232574463e-01
4.558000000000000000e+03 4.804330444335937500e+01 -4.147707748413085938e+01 3.420029580593109131e-02 2.074184894561767578e+00 6.325155496597290039e-01 2.306470870971679688e-01
4.559000000000000000e+03 6.837392425537109375e+01 -4.124527740478515625e+01 -7.404468059539794922e-01 4.343051910400390625e+00 1.080781579017639160e+00 -6.012424826622009277e-02
4.560000000000000000e+03 2.774475097656250000e+01 -4.124629592895507812e+01 4.911315739154815674e-01 -2.149490267038345337e-01 8.285476267337799072e-02 5.674998462200164795e-02
4.561000000000000000e+03 1.022403717041015625e+01 3.938611030578613281e+00 -1.739033460617065430e-01 -1.168364807963371277e-01 -8.722195029258728027e-02 7.864144444465637207e-02
4.562000000000000000e+03 4.094308853149414062e+01 7.532703399658203125e+00 -3.913925886154174805e-01 -5.176344513893127441e-01 -2.727081179618835449e-01 6.193712949752807617e-01
4.563000000000000000e+03 6.548082733154296875e+01 2.504385375976562500e+01 1.216876983642578125e+00 3.192373752593994141e+00 1.322775244712829590e+00 6.237695217132568359e-01
4.564000000000000000e+03 6.736788940429687500e+01 2.176823425292968750e+01 -1.846605062484741211e+00 6.250940561294555664e-01 -3.664533197879791260e-01 -6.535176634788513184e-01
4.565000000000000000e+03 2.935741043090820312e+01 -1.370262718200683594e+01 -7.620176672935485840e-01 -5.619398951530456543e-01 -3.971872925758361816e-01 -2.915325164794921875e-01
4.566000000000000000e+03 4.540141296386718750e+01 -1.519033527374267578e+01 -6.818513274192810059e-01 6.043739914894104004e-01 -2.324319444596767426e-02 1.652093678712844849e-01
4.567000000000000000e+03 4.076102828979492188e+01 -2.749659347534179688e+01 3.657483458518981934e-01 8.390205502510070801e-01 3.614306747913360596e-01 4.370105564594268799e-01
4.568000000000000000e+03 6.828359985351562500e+01 -2.826113319396972656e+01 -7.317040860652923584e-02 2.616709470748901367e+00 7.630617618560791016e-01 -1.360982060432434082e+00
4.569000000000000000e+03 6.722995758056640625e+01 -2.812590599060058594e+01 -5.138074159622192383e-01 4.728111267089843750e+00 1.264291167259216309e+00 -1.761742949485778809e+00
4.570000000000000000e+03 2.514802169799804688e+01 -1.614958572387695312e+01 -5.975236892700195312e-01 -4.736862480640411377e-01 -3.213630020618438721e-01 -3.777300417423248291e-01
4.571000000000000000e+03 2.192903518676757812e+01 2.690341377258300781e+01 4.968910515308380127e-01 2.406894229352474213e-02 1.562879979610443115e-01 5.417943596839904785e-01
4.572000000000000000e+03 6.561457824707031250e+01 5.199902057647705078e+00 -1.866384267807006836e+00 1.017880916595458984e+00 -2.545509934425354004e-01 1.073240935802459717e-01
4.573000000000000000e+03 6.262873649597167969e+00 -2.454338264465332031e+01 5.661568045616149902e-02 6.076098070479929447e-04 1.716698706150054932e-02 -1.714159734547138214e-02
4.574000000000000000e+03 1.776031875610351562e+01 -2.424653053283691406e+01 4.636025801301002502e-02 -1.533248871564865112e-01 -3.208938986063003540e-02 -3.966675400733947754e-01
4.575000000000000000e+03 1.189102554321289062e+01 4.425527095794677734e+00 -2.675217390060424805e-01 -1.869824677705764771e-01 -1.363512575626373291e-01 2.051161378622055054e-01
4.576000000000000000e+03 4.303053665161132812e+01 -2.299502372741699219e+01 3.938150405883789062e-01 8.442123532295227051e-01 3.714082241058349609e-01 1.543642282485961914e-01
4.577000000000000000e+03 4.181329345703125000e+01 -2.431767845153808594e+01 2.889989614486694336e-01 7.677150368690490723e-01 3.170142173767089844e-01 2.498889714479446411e-01
4.578000000000000000e+03 6.062339401245117188e+01 9.869331121444702148e-01 9.276838600635528564e-02 8.128028869628906250e+00 2.466239213943481445e+00 -2.637330770492553711e+00
4.579000000000000000e+03 6.081893157958984375e+01 -1.082175731658935547e+01 -3.354415297508239746e-01 9.470957756042480469e+00 2.740654945373535156e+00 2.446446657180786133e+00
4.580000000000000000e+03 5.547304153442382812e+01 -2.578282928466796875e+01 -5.234972238540649414e-01 5.244860649108886719e+00 1.416409015655517578e+00 1.643509984016418457e+00
4.581000000000000000e+03 7.000751495361328125e+01 -1.374979877471923828e+01 1.410176306962966919e-01 5.814469456672668457e-01 2.167393714189529419e-01 -2.616031169891357422e+00
4.582000000000000000e+03 7.589035034179687500e+01 -1.143032169342041016e+01 -1.368800282478332520e+00 8.222480773925781250e+00 2.056104183197021484e+00 -1.977820098400115967e-01
4.583000000000000000e+03 2.213937950134277344e+01 1.628211402893066406e+01 -2.856150865554809570e-01 -1.381571292877197266e-01 -1.271316558122634888e-01 1.380435973405838013e-01
4.584000000000000000e+03 2.317719078063964844e+01 1.528141307830810547e+01 -2.698156237602233887e-01 -1.033907011151313782e-01 -1.119618937373161316e-01 1.101711541414260864e-01
4.585000000000000000e+03 5.448833847045898438e+01 -1.517697238922119141e+01 -9.300701320171356201e-02 4.095323979854583740e-01 9.495761990547180176e-02 2.887611091136932373e-01
4.586000000000000000e+03 7.043560791015625000e+01 5.880600452423095703e+00 -1.116046071052551270e+00 4.768122196197509766e+00 1.095622897148132324e+00 2.459783554077148438e+00
4.587000000000000000e+03 3.375748825073242188e+01 2.070503425598144531e+01 7.870693504810333252e-02 1.964759677648544312e-01 8.255486935377120972e-02 3.042825460433959961e-01
4.588000000000000000e+03 3.361864471435546875e+01 1.908325004577636719e+01 2.650978565216064453e-01 2.228916585445404053e-01 1.463968604803085327e-01 4.179298281669616699e-01
4.589000000000000000e+03 7.716143035888671875e+01 -2.549555587768554688e+01 -1.206278577446937561e-01 8.167777061462402344e+00 2.414144754409790039e+00 -7.676230072975158691e-01
4.590000000000000000e+03 4.514114379882812500e+01 -2.582070922851562500e+01 3.429534435272216797e-01 6.979126334190368652e-01 3.122598230838775635e-01 -2.180173099040985107e-01
4.591000000000000000e+03 4.150148773193359375e+01 -2.617184829711914062e+01 3.322407007217407227e-01 7.589363455772399902e-01 3.273531198501586914e-01 3.453484475612640381e-01
4.592000000000000000e+03 2.657966232299804688e+01 3.787114381790161133e+00 -3.926703333854675293e-01 1.363604217767715454e-01 -7.689297199249267578e-02 2.315974980592727661e-01
4.593000000000000000e+03 1.289934444427490234e+01 4.167289733886718750e+00 -2.902747392654418945e-01 -1.598403751850128174e-01 -1.350345313549041748e-01 2.900579273700714111e-01
4.594000000000000000e+03 3.338672256469726562e+01 1.521216773986816406e+01 2.183101624250411987e-01 1.324617415666580200e-01 1.052315682172775269e-01 3.733432292938232422e-01
4.595000000000000000e+03 6.864941406250000000e+01 -1.417611122131347656e+01 -4.145412445068359375e-01 1.059737324714660645e+00 1.935588121414184570e-01 -2.182576179504394531e+00
4.596000000000000000e+03 5.448246765136718750e+01 2.131269836425781250e+01 -1.052418947219848633e+00 3.566275835037231445e+00 7.541570663452148438e-01 -2.028625249862670898e+00
4.597000000000000000e+03 5.414268112182617188e+01 1.721470832824707031e+01 1.239944696426391602e+00 3.631932497024536133e+00 1.461563110351562500e+00 -2.006583929061889648e+00
4.598000000000000000e+03 1.011082267761230469e+01 -2.532945823669433594e+01 -3.711560368537902832e-02 -1.422660201787948608e-01 -5.381448566913604736e-02 -2.295751720666885376e-01
4.599000000000000000e+03 6.461406707763671875e+01 -1.522546386718750000e+01 -2.841629266738891602e+00 7.045397281646728516e+00 1.261130452156066895e+00 7.796426415443420410e-01
4.600000000000000000e+03 5.100624847412109375e+01 -1.429782199859619141e+01 -2.107157260179519653e-01 1.188973262906074524e-01 -2.754552103579044342e-02 2.491285204887390137e-01
4.601000000000000000e+03 7.418644714355468750e+01 -2.531139552593231201e-01 -4.353830516338348389e-01 5.312129497528076172e+00 1.463023900985717773e+00 -7.956053614616394043e-01
4.602000000000000000e+03 7.696154785156250000e+01 6.110579967498779297e+00 -1.614840328693389893e-01 7.372815608978271484e+00 2.163399457931518555e+00 -7.871486544609069824e-01
4.603000000000000000e+03 6.239127349853515625e+01 -2.116222190856933594e+01 2.273107767105102539e+00 5.883378982543945312e+00 2.446946144104003906e+00 -3.110769689083099365e-01
4.604000000000000000e+03 1.326793575286865234e+01 -3.239643812179565430e+00 6.161979399621486664e-03 -8.677936159074306488e-03 -7.547870627604424953e-04 -3.446401655673980713e-02
4.605000000000000000e+03 4.513616943359375000e+01 7.174994468688964844e+00 -1.727969199419021606e-01 7.309262752532958984e-01 1.674388051033020020e-01 -6.127203255891799927e-02
4.606000000000000000e+03 3.183623695373535156e+01 1.304245948791503906e+01 -3.292102813720703125e-01 5.127971768379211426e-01 5.507608130574226379e-02 4.751601517200469971e-01
4.607000000000000000e+03 1.253814506530761719e+01 4.567738533020019531e+00 -3.030453324317932129e-01 -1.936292350292205811e-01 -1.490023732185363770e-01 2.671314775943756104e-01
4.608000000000000000e+03 1.190108299255371094e+01 5.086130142211914062e+00 -3.409608304500579834e-01 -2.570597827434539795e-01 -1.794061809778213501e-01 2.291819006204605103e-01
4.609000000000000000e+03 5.262909317016601562e+01 2.404235076904296875e+01 -3.792445063591003418e-01 4.161524295806884766e+00 1.134683966636657715e+00 -7.939610481262207031e-01
4.610000000000000000e+03 5.010991668701171875e+01 1.998980522155761719e+01 -9.442837536334991455e-02 1.987443089485168457e+00 5.679044127464294434e-01 -1.358160257339477539e+00
4.611000000000000000e+03 4.731150817871093750e+01 1.944664382934570312e+01 -2.025214284658432007e-01 3.134595453739166260e-01 3.328143060207366943e-02 6.783721596002578735e-02
4.612000000000000000e+03 4.898672103881835938e+01 2.112239456176757812e+01 7.556056976318359375e-02 1.566155552864074707e+00 4.925148487091064453e-01 -8.212551474571228027e-01
4.613000000000000000e+03 3.563381195068359375e+01 -3.638606071472167969e+00 -6.012074351310729980e-01 3.382441401481628418e-01 -7.888899743556976318e-02 -3.112226426601409912e-01
4.614000000000000000e+03 1.300999546051025391e+01 -1.127963447570800781e+01 -1.250737905502319336e-01 1.100181117653846741e-01 -4.516702610999345779e-03 -7.289626449346542358e-02
4.615000000000000000e+03 6.773527526855468750e+01 -2.770979499816894531e+01 -1.086398124694824219e+00 3.556953191757202148e+00 7.411665320396423340e-01 -1.740041851997375488e+00
4.616000000000000000e+03 3.507842254638671875e+01 -3.939997196197509766e+00 -5.069501996040344238e-01 2.944554984569549561e-01 -6.374841928482055664e-02 -4.057031571865081787e-01
4.617000000000000000e+03 4.916405105590820312e+01 -5.462149620056152344e+00 -6.172101497650146484e-01 4.399972558021545410e-01 -5.316386744379997253e-02 6.925565600395202637e-01
4.618000000000000000e+03 2.190509223937988281e+01 6.028823852539062500e+00 2.320750243961811066e-02 -1.837061643600463867e-01 -4.814959689974784851e-02 1.487024724483489990e-01
4.619000000000000000e+03 2.158550262451171875e+01 5.265385627746582031e+00 -1.685904413461685181e-01 -1.604670584201812744e-01 -9.871724992990493774e-02 1.664330810308456421e-01
4.620000000000000000e+03 3.104980468750000000e+01 2.839641571044921875e+01 3.327518329024314880e-02 -1.433392763137817383e-01 -3.301922976970672607e-02 1.018066331744194031e-01
4.621000000000000000e+03 6.664432525634765625e+01 2.991373443603515625e+01 8.842197060585021973e-01 4.377741336822509766e+00 1.578588247299194336e+00 5.182765722274780273e-01
4.622000000000000000e+03 4.357543182373046875e+01 4.766196727752685547e+00 -6.439417600631713867e-01 8.982238918542861938e-02 -1.662358194589614868e-01 2.197207808494567871e-01
4.623000000000000000e+03 4.455547332763671875e+01 4.323525428771972656e+00 -8.205602765083312988e-01 2.578920722007751465e-01 -1.688004583120346069e-01 1.007141768932342529e-01
4.624000000000000000e+03 4.787055587768554688e+01 -1.440919589996337891e+01 -8.469148278236389160e-01 1.250216841697692871e+00 1.209906116127967834e-01 4.018215835094451904e-01
4.625000000000000000e+03 3.118922233581542969e+00 -3.690738296508789062e+01 6.601830478757619858e-03 -3.966704010963439941e-01 -1.170205697417259216e-01 -1.228361204266548157e-01
4.626000000000000000e+03 2.227520942687988281e+01 1.251094055175781250e+01 1.669204980134963989e-02 -1.514519155025482178e-01 -4.042795673012733459e-02 7.899094372987747192e-02
4.627000000000000000e+03 2.307823562622070312e+01 1.249993705749511719e+01 4.174775630235671997e-02 -1.328094750642776489e-01 -2.731851860880851746e-02 8.523430675268173218e-02
4.628000000000000000e+03 5.985794830322265625e+01 6.220353126525878906e+00 -2.353377819061279297e+00 6.717292308807373047e+00 1.309174418449401855e+00 -1.783232092857360840e+00
4.629000000000000000e+03 7.717781829833984375e+01 -3.741509246826171875e+01 5.629224330186843872e-02 7.299468517303466797e+00 2.206728219985961914e+00 -4.257285967469215393e-02
4.630000000000000000e+03 7.602385711669921875e+01 -3.962977600097656250e+01 -2.582289464771747589e-02 7.043315410614013672e+00 2.105247735977172852e+00 -7.869134843349456787e-02
4.631000000000000000e+03 7.090718078613281250e+01 2.058672332763671875e+01 -1.937297821044921875e+00 5.124855995178222656e+00 9.562674760818481445e-01 -1.134427785873413086e+00
4.632000000000000000e+03 2.878004074096679688e+00 3.550969314575195312e+01 6.687863916158676147e-02 -7.609633803367614746e-01 -2.082254141569137573e-01 2.483851648867130280e-02
4.633000000000000000e+03 5.160294532775878906e+00 3.684432601928710938e+01 7.174938917160034180e-02 -4.050866067409515381e-01 -1.000011712312698364e-01 -3.621501475572586060e-02
4.634000000000000000e+03 7.492439270019531250e+00 3.935293912887573242e+00 -1.051099374890327454e-01 -4.948846250772476196e-02 -4.637952148914337158e-02 -5.090699531137943268e-03
4.635000000000000000e+03 1.432229328155517578e+01 -4.428306102752685547e+00 1.265180204063653946e-02 1.137503888458013535e-02 7.208052091300487518e-03 -2.661384083330631256e-02
4.636000000000000000e+03 2.220204925537109375e+01 5.001347541809082031e+00 -2.071615159511566162e-01 -1.741383224725723267e-01 -1.143899559974670410e-01 1.720348298549652100e-01
4.637000000000000000e+03 4.641630172729492188e+01 -2.429053688049316406e+01 1.325478404760360718e-01 1.159784078598022461e+00 3.876995742321014404e-01 -2.805548012256622314e-01
4.638000000000000000e+03 3.371831893920898438e+01 -1.446996307373046875e+01 -9.197102785110473633e-01 -1.283953040838241577e-01 -3.144316673278808594e-01 1.704488545656204224e-01
4.639000000000000000e+03 3.516214752197265625e+01 -1.360253238677978516e+01 -6.890048980712890625e-01 2.280575186014175415e-01 -1.382842212915420532e-01 -4.117017239332199097e-02
4.640000000000000000e+03 1.338682460784912109e+01 4.561841487884521484e+00 -3.344406187534332275e-01 -1.935051828622817993e-01 -1.583837419748306274e-01 3.545802831649780273e-01
4.641000000000000000e+03 8.386608123779296875e+00 -3.903830289840698242e+00 1.428932230919599533e-02 -2.662018127739429474e-02 -3.699257737025618553e-03 -1.312028523534536362e-02
4.642000000000000000e+03 8.143919944763183594e+00 -5.792828083038330078e+00 1.158840768039226532e-02 -4.530950635671615601e-02 -1.011633034795522690e-02 -1.477025914937257767e-02
4.643000000000000000e+03 3.932369613647460938e+01 -2.753917503356933594e+01 2.463810592889785767e-01 7.729735970497131348e-01 3.058063983917236328e-01 3.641136884689331055e-01
4.644000000000000000e+03 5.220456123352050781e+00 -5.113319396972656250e+00 1.350283343344926834e-02 -2.608690224587917328e-02 -3.775220829993486404e-03 1.839098520576953888e-02
4.645000000000000000e+03 2.491243600845336914e+00 -5.013092517852783203e+00 4.289005417376756668e-03 1.355309039354324341e-02 5.352628417313098907e-03 2.437409199774265289e-02
4.646000000000000000e+03 2.444835186004638672e+00 -5.806869983673095703e+00 5.640698131173849106e-03 1.706880331039428711e-02 6.812850479036569595e-03 2.676314115524291992e-02
4.647000000000000000e+03 6.904412746429443359e+00 -4.646659374237060547e+00 1.618889160454273224e-02 -3.058578260242938995e-02 -4.319067578762769699e-03 3.543045837432146072e-03
4.648000000000000000e+03 7.599877357482910156e+00 -3.954597234725952148e+00 1.678388752043247223e-02 -2.467900700867176056e-02 -2.368535846471786499e-03 -4.476808011531829834e-03
4.649000000000000000e+03 5.623030185699462891e+00 -4.820233821868896484e+00 1.567272469401359558e-02 -2.330114506185054779e-02 -2.288526389747858047e-03 1.486826315522193909e-02
4.650000000000000000e+03 2.284321022033691406e+01 4.728572368621826172e+00 -2.629498541355133057e-01 -1.620045155286788940e-01 -1.274863034486770630e-01 1.988680213689804077e-01
4.651000000000000000e+03 4.772654724121093750e+01 2.865603828430175781e+01 7.513110637664794922e-01 2.494472026824951172e+00 9.737349152565002441e-01 -5.684639811515808105e-01
4.652000000000000000e+03 4.870004653930664062e+01 2.707982826232910156e+01 7.314311265945434570e-01 2.677858829498291016e+00 1.022786974906921387e+00 -3.453249037265777588e-01
4.653000000000000000e+03 2.736068344116210938e+01 4.127735614776611328e+00 -3.146770894527435303e-01 2.777493000030517578e-01 -1.107833348214626312e-02 2.158442437648773193e-01
4.654000000000000000e+03 2.817749786376953125e+01 4.345149993896484375e+00 -1.954335868358612061e-01 4.460207223892211914e-01 7.517614215612411499e-02 1.384113430976867676e-01
4.655000000000000000e+03 2.564814186096191406e+01 4.858502388000488281e+00 -1.275748610496520996e-01 4.268628731369972229e-02 -2.546657249331474304e-02 2.228435426950454712e-01
4.656000000000000000e+03 2.172920989990234375e+01 8.218699455261230469e+00 3.320674002170562744e-01 -1.909663379192352295e-01 4.233032092452049255e-02 1.669871807098388672e-01
4.657000000000000000e+03 2.428176879882812500e+01 4.235246181488037109e+00 -3.460752367973327637e-01 -9.834308177232742310e-02 -1.333255022764205933e-01 2.440143376588821411e-01
4.658000000000000000e+03 2.579542732238769531e+01 3.718210220336914062e+00 -4.528986513614654541e-01 2.108877338469028473e-02 -1.295429617166519165e-01 2.664625644683837891e-01
4.659000000000000000e+03 2.353104972839355469e+01 4.470008373260498047e+00 -3.031018078327178955e-01 -1.429553329944610596e-01 -1.338171362876892090e-01 2.159391343593597412e-01
4.660000000000000000e+03 2.584154510498046875e+01 5.356599330902099609e+00 -3.475309535861015320e-02 5.486346408724784851e-02 6.033109966665506363e-03 2.160622477531433105e-01
4.661000000000000000e+03 2.512470054626464844e+01 4.900243759155273438e+00 -1.694182902574539185e-01 -4.694705456495285034e-02 -6.490960717201232910e-02 2.284591495990753174e-01
4.662000000000000000e+03 4.896883010864257812e+01 -4.810814857482910156e+00 -6.635600924491882324e-01 3.739684820175170898e-01 -8.687748014926910400e-02 6.266790628433227539e-01
4.663000000000000000e+03 7.746539306640625000e+01 1.334348964691162109e+01 4.835435450077056885e-01 6.962356567382812500e+00 2.233770132064819336e+00 4.549469947814941406e-01
4.664000000000000000e+03 3.356597900390625000e+01 1.828471946716308594e+01 3.820839226245880127e-01 1.928237080574035645e-01 1.724722981452941895e-01 4.436234235763549805e-01
4.665000000000000000e+03 3.675328826904296875e+01 2.146859931945800781e+01 1.527617871761322021e-01 3.775765746831893921e-02 5.715583637356758118e-02 1.090422570705413818e-01
4.666000000000000000e+03 7.181473541259765625e+01 1.980916976928710938e+01 -1.782199740409851074e+00 6.294913768768310547e+00 1.353814244270324707e+00 -8.083192110061645508e-01
4.667000000000000000e+03 4.333456802368164062e+01 4.065887451171875000e+00 -7.579557895660400391e-01 -2.307388465851545334e-03 -2.280789613723754883e-01 1.196237802505493164e-01
4.668000000000000000e+03 5.706912612915039062e+01 3.957117080688476562e+00 -1.077229738235473633e+00 4.035744667053222656e+00 8.875544071197509766e-01 -1.996009945869445801e+00
4.669000000000000000e+03 7.745783996582031250e+01 -2.981776237487792969e+01 -2.274601161479949951e-01 7.751246929168701172e+00 2.257135868072509766e+00 1.590103805065155029e-01
4.670000000000000000e+03 7.701857757568359375e+01 -3.080174636840820312e+01 -8.758437633514404297e-02 7.409770011901855469e+00 2.196655511856079102e+00 2.861117422580718994e-01
4.671000000000000000e+03 7.587548065185546875e+01 3.142145156860351562e+01 1.599006801843643188e-01 6.727851867675781250e+00 2.066325664520263672e+00 -1.631923168897628784e-01
4.672000000000000000e+03 7.655884552001953125e+01 3.151938819885253906e+01 1.136650815606117249e-01 6.963428497314453125e+00 2.123128175735473633e+00 -1.512904167175292969e-01
4.673000000000000000e+03 7.658918762207031250e+01 2.992770385742187500e+01 1.114252880215644836e-01 7.023103237152099609e+00 2.140358448028564453e+00 -2.442652881145477295e-01
4.674000000000000000e+03 1.879576873779296875e+01 -2.433501243591308594e+01 1.248437017202377319e-01 -3.230627160519361496e-03 3.648392483592033386e-02 -3.725639283657073975e-01
4.675000000000000000e+03 6.732678222656250000e+01 -1.384123229980468750e+01 -3.521242439746856689e-01 2.580954074859619141e+00 6.686489582061767578e-01 -9.848653674125671387e-01
4.676000000000000000e+03 7.527890777587890625e+01 -3.025971221923828125e+01 -1.860226690769195557e-01 6.632410049438476562e+00 1.933916211128234863e+00 6.396871209144592285e-01
4.677000000000000000e+03 3.130903005599975586e+00 -1.036850643157958984e+01 -9.353274479508399963e-03 -6.650681025348603725e-04 -3.005502978339791298e-03 2.638824097812175751e-02
4.678000000000000000e+03 9.638094902038574219e+00 -1.081586456298828125e+01 -1.097354218363761902e-01 -1.262785345315933228e-01 -7.080418616533279419e-02 -8.098685741424560547e-02
4.679000000000000000e+03 8.473400115966796875e+00 -1.120170783996582031e+01 -1.238159760832786560e-01 -1.297614574432373047e-01 -7.607322931289672852e-02 -6.535639613866806030e-02
4.680000000000000000e+03 3.794904708862304688e+01 -1.301432323455810547e+01 -7.056075334548950195e-01 1.113447070121765137e+00 1.223518699407577515e-01 -2.790997326374053955e-01
4.681000000000000000e+03 3.944886684417724609e+00 -2.862515640258789062e+01 -5.675864964723587036e-02 -1.603728383779525757e-01 -6.513944268226623535e-02 -3.326693549752235413e-02
4.682000000000000000e+03 2.586448431015014648e+00 -3.248174285888671875e+01 -2.504532039165496826e-02 -2.712573707103729248e-01 -8.889081329107284546e-02 -8.419065177440643311e-02
4.683000000000000000e+03 2.429877519607543945e+00 3.042762947082519531e+01 1.957865245640277863e-02 -7.125239968299865723e-01 -2.078836113214492798e-01 2.164807021617889404e-01
4.684000000000000000e+03 4.748726844787597656e+00 3.183374977111816406e+01 1.361475437879562378e-01 -5.191373825073242188e-01 -1.148969531059265137e-01 1.804950386285781860e-01
4.685000000000000000e+03 2.697491645812988281e+00 3.217824935913085938e+01 7.076229900121688843e-02 -7.482818961143493652e-01 -2.032558917999267578e-01 1.760505139827728271e-01
4.686000000000000000e+03 7.675496673583984375e+01 2.515038108825683594e+01 -1.392231881618499756e-01 7.455487251281738281e+00 2.194879293441772461e+00 -3.176333010196685791e-01
4.687000000000000000e+03 7.607309722900390625e+01 2.266323471069335938e+01 -5.197891592979431152e-01 7.505867958068847656e+00 2.095823764801025391e+00 -1.121364235877990723e-01
4.688000000000000000e+03 7.749774932861328125e+01 -2.441593742370605469e+01 1.280942559242248535e-01 8.012310981750488281e+00 2.442121505737304688e+00 -7.394887208938598633e-01
4.689000000000000000e+03 7.637210083007812500e+01 -2.592375183105468750e+01 -3.986688852310180664e-01 8.396162986755371094e+00 2.399248123168945312e+00 -6.504759788513183594e-01
4.690000000000000000e+03 7.210354614257812500e+01 1.907046890258789062e+01 -1.686964511871337891e+00 6.952748298645019531e+00 1.579735159873962402e+00 -4.880873560905456543e-01
4.691000000000000000e+03 7.678709411621093750e+01 2.192654609680175781e+01 -4.196549057960510254e-01 7.790138721466064453e+00 2.211145162582397461e+00 1.200141981244087219e-01
4.692000000000000000e+03 7.759775543212890625e+01 6.085566520690917969e+00 -1.268534809350967407e-01 7.314344406127929688e+00 2.156247138977050781e+00 -7.427410483360290527e-01
4.693000000000000000e+03 7.582221984863281250e+01 5.081928253173828125e+00 -3.626514375209808350e-01 7.221073150634765625e+00 2.057526588439941406e+00 -5.516302585601806641e-01
4.694000000000000000e+03 7.753982543945312500e+01 -1.592310428619384766e+01 -3.144070506095886230e-01 8.311566352844238281e+00 2.399147748947143555e+00 8.966484069824218750e-01
4.695000000000000000e+03 7.655966949462890625e+01 -1.371884441375732422e+01 -9.857506155967712402e-01 8.021159172058105469e+00 2.110622644424438477e+00 4.624519050121307373e-01
4.696000000000000000e+03 7.735928344726562500e+01 1.254023838043212891e+01 5.327940583229064941e-01 6.964096069335937500e+00 2.249067068099975586e+00 2.066093534231185913e-01
4.697000000000000000e+03 7.740301513671875000e+01 -1.765954589843750000e+01 1.044858992099761963e-02 8.162723541259765625e+00 2.451951503753662109e+00 1.068922638893127441e+00
4.698000000000000000e+03 7.550612640380859375e+01 -1.827076721191406250e+01 3.571215867996215820e-01 8.407950401306152344e+00 2.629521608352661133e+00 7.156506180763244629e-01
4.699000000000000000e+03 7.683399963378906250e+01 -1.513121795654296875e+01 -6.155368089675903320e-01 8.046441078186035156e+00 2.229271411895751953e+00 7.903640270233154297e-01
4.700000000000000000e+03 7.778224182128906250e+01 -2.098107337951660156e+01 4.916490912437438965e-01 7.746284484863281250e+00 2.471379995346069336e+00 2.821311056613922119e-01
4.701000000000000000e+03 7.616358184814453125e+01 -2.248095703125000000e+01 1.014095187187194824e+00 8.972551345825195312e+00 2.995994091033935547e+00 -2.578665316104888916e-01
4.702000000000000000e+03 7.719289398193359375e+01 -2.272111701965332031e+01 6.313654184341430664e-01 8.143562316894531250e+00 2.632478237152099609e+00 -3.467034101486206055e-01
4.703000000000000000e+03 7.385764312744140625e+01 8.545633316040039062e+00 2.866517603397369385e-01 8.660880088806152344e+00 2.684259653091430664e+00 -3.218292593955993652e-01
4.704000000000000000e+03 7.391568756103515625e+01 1.457985115051269531e+01 1.114369153976440430e+00 9.715393066406250000e+00 3.248928785324096680e+00 6.019858717918395996e-01
4.705000000000000000e+03 7.416658020019531250e+01 1.323145198822021484e+01 1.500129699707031250e+00 9.704491615295410156e+00 3.361386299133300781e+00 5.102544426918029785e-01
4.706000000000000000e+03 7.662123107910156250e+01 2.833296012878417969e+01 7.007023692131042480e-02 7.121197700500488281e+00 2.157380342483520508e+00 -3.286265134811401367e-01
4.707000000000000000e+03 7.733823394775390625e+01 2.999247741699218750e+01 7.251938432455062866e-02 7.301736354827880859e+00 2.212276697158813477e+00 -2.116734385490417480e-01
4.708000000000000000e+03 7.658586120605468750e+01 3.072167396545410156e+01 1.158296540379524231e-01 6.998317718505859375e+00 2.134244203567504883e+00 -2.024323046207427979e-01
4.709000000000000000e+03 7.741348266601562500e+01 2.680576515197753906e+01 -5.076161120086908340e-03 7.565732955932617188e+00 2.268197059631347656e+00 -3.011893033981323242e-01
4.710000000000000000e+03 7.742772674560546875e+01 -5.398221492767333984e+00 6.539843082427978516e-01 8.824626922607421875e+00 2.843583345413208008e+00 2.257069647312164307e-01
4.711000000000000000e+03 7.730954742431640625e+01 9.929100990295410156e+00 3.815671205520629883e-01 7.041706562042236328e+00 2.226982116699218750e+00 -5.918087363243103027e-01
4.712000000000000000e+03 7.756781005859375000e+01 -3.832263231277465820e+00 1.332273781299591064e-01 8.453469276428222656e+00 2.576008796691894531e+00 5.921273231506347656e-01
4.713000000000000000e+03 7.771096801757812500e+01 -2.313265419006347656e+01 4.484492838382720947e-01 7.819023609161376953e+00 2.480241775512695312e+00 -4.793026745319366455e-01
4.714000000000000000e+03 7.547477722167968750e+01 -2.269316482543945312e+01 1.115149974822998047e+00 9.672441482543945312e+00 3.236277341842651367e+00 -2.377626746892929077e-01
4.715000000000000000e+03 7.492311859130859375e+01 1.607276344299316406e+01 2.644010484218597412e-01 8.550950050354003906e+00 2.644605398178100586e+00 1.121682047843933105e+00
4.716000000000000000e+03 7.755856323242187500e+01 1.722344970703125000e+01 -6.089383736252784729e-02 7.575584411621093750e+00 2.254407167434692383e+00 1.001928925514221191e+00
4.717000000000000000e+03 7.306672668457031250e+01 1.708475875854492188e+01 -5.125457048416137695e-01 8.664525985717773438e+00 2.445594072341918945e+00 3.605812191963195801e-01
4.718000000000000000e+03 7.770714569091796875e+01 -2.023083877563476562e+01 4.942600131034851074e-01 7.806800842285156250e+00 2.490318298339843750e+00 5.462045073509216309e-01
4.719000000000000000e+03 7.566910552978515625e+01 -1.938207244873046875e+01 9.305375218391418457e-01 8.859869003295898438e+00 2.937122106552124023e+00 6.081837415695190430e-01
4.720000000000000000e+03 7.442066955566406250e+01 1.992202758789062500e+01 -1.112527012825012207e+00 7.668964862823486328e+00 1.966931343078613281e+00 2.114383578300476074e-01
4.721000000000000000e+03 7.761828613281250000e+01 3.009675025939941406e+00 -1.970218718051910400e-01 7.553280353546142578e+00 2.206877708435058594e+00 -4.031546413898468018e-01
4.722000000000000000e+03 7.381422424316406250e+01 4.092303812503814697e-01 -1.583820134401321411e-01 4.766682147979736328e+00 1.382490038871765137e+00 -5.785686969757080078e-01
4.723000000000000000e+03 7.691481018066406250e+01 3.752681016921997070e+00 -2.637528777122497559e-01 7.302804470062255859e+00 2.111715555191040039e+00 -5.047653317451477051e-01
4.724000000000000000e+03 7.568814849853515625e+01 1.494233489036560059e+00 -4.089457392692565918e-01 6.696111679077148438e+00 1.886149764060974121e+00 -3.759811520576477051e-01
4.725000000000000000e+03 7.754082489013671875e+01 -1.251495647430419922e+01 -7.897478342056274414e-01 8.901760101318359375e+00 2.433603763580322266e+00 -2.334229797124862671e-01
4.726000000000000000e+03 7.681700134277343750e+01 -1.274065589904785156e+01 -1.182220458984375000e+00 8.521864891052246094e+00 2.201893568038940430e+00 1.139940414577722549e-02
4.727000000000000000e+03 7.590919494628906250e+01 -2.168331527709960938e+01 1.224418163299560547e+00 9.240858078002929688e+00 3.139582872390747070e+00 -5.741296708583831787e-02
4.728000000000000000e+03 7.678697204589843750e+01 2.352731132507324219e+01 -2.991588711738586426e-01 7.637859344482421875e+00 2.201610088348388672e+00 -1.671461015939712524e-01
4.729000000000000000e+03 7.747590637207031250e+01 2.358908081054687500e+01 -1.898285150527954102e-01 7.885618686676025391e+00 2.308737039566040039e+00 -1.047540232539176941e-01
4.730000000000000000e+03 7.677595520019531250e+01 2.434284400939941406e+01 -1.976464688777923584e-01 7.540929794311523438e+00 2.202985048294067383e+00 -2.567199766635894775e-01
4.731000000000000000e+03 7.731337738037109375e+01 -2.670911598205566406e+01 -3.787006139755249023e-01 8.150332450866699219e+00 2.331489562988281250e+00 -5.678213834762573242e-01
4.732000000000000000e+03 7.693066406250000000e+01 -2.612599182128906250e+01 -3.520334064960479736e-01 8.254541397094726562e+00 2.370752573013305664e+00 -6.520735621452331543e-01
4.733000000000000000e+03 7.686751556396484375e+01 -2.759887886047363281e+01 -5.862398147583007812e-01 8.051408767700195312e+00 2.239550590515136719e+00 -2.341561764478683472e-01
4.734000000000000000e+03 7.614150238037109375e+01 8.673398971557617188e+00 2.630330026149749756e-01 7.614970207214355469e+00 2.363400936126708984e+00 -8.256353735923767090e-01
4.735000000000000000e+03 7.584503936767578125e+01 7.685332775115966797e+00 1.436770800501108170e-02 7.669167041778564453e+00 2.305060386657714844e+00 -8.280811905860900879e-01
4.736000000000000000e+03 7.682438659667968750e+01 1.409405231475830078e+01 5.738468766212463379e-01 7.442952632904052734e+00 2.405039787292480469e+00 7.520620226860046387e-01
4.737000000000000000e+03 7.603973388671875000e+01 1.130187225341796875e+01 1.037568449974060059e+00 7.860794067382812500e+00 2.669508695602416992e+00 -1.713849753141403198e-01
4.738000000000000000e+03 7.712882232666015625e+01 -2.858215332031250000e+00 -2.197815328836441040e-01 8.361903190612792969e+00 2.442636728286743164e+00 4.377566576004028320e-01
4.739000000000000000e+03 7.763121795654296875e+01 -2.541474342346191406e+00 -2.428409159183502197e-01 8.202582359313964844e+00 2.387922525405883789e+00 5.152922868728637695e-01
4.740000000000000000e+03 7.680430603027343750e+01 -3.512547254562377930e+00 -1.718565239571034908e-03 8.741820335388183594e+00 2.622030496597290039e+00 3.627760410308837891e-01
4.741000000000000000e+03 7.674576568603515625e+01 1.484625625610351562e+01 4.482264220714569092e-01 7.549374103546142578e+00 2.399280309677124023e+00 9.283392429351806641e-01
4.742000000000000000e+03 7.437808990478515625e+01 1.258853721618652344e+01 1.535576224327087402e+00 9.474325180053710938e+00 3.302970409393310547e+00 3.510748147964477539e-01
4.743000000000000000e+03 7.752497100830078125e+01 1.957098007202148438e+01 -3.047152161598205566e-01 7.922928810119628906e+00 2.285464048385620117e+00 6.417998075485229492e-01
4.744000000000000000e+03 7.677388000488281250e+01 2.029296112060546875e+01 -4.997750222682952881e-01 7.892459869384765625e+00 2.217805385589599609e+00 4.933919012546539307e-01
4.745000000000000000e+03 7.548971557617187500e+01 3.616076111793518066e-01 -5.419648289680480957e-01 6.671030998229980469e+00 1.838719844818115234e+00 -4.313195347785949707e-01
4.746000000000000000e+03 7.665757751464843750e+01 1.533454656600952148e-01 -4.622272849082946777e-01 7.462955474853515625e+00 2.100218534469604492e+00 -1.441826969385147095e-01
4.747000000000000000e+03 7.664865875244140625e+01 -1.051701354980468750e+01 -8.783047199249267578e-01 9.398411750793457031e+00 2.556031942367553711e+00 -9.899773001670837402e-01
4.748000000000000000e+03 7.679420471191406250e+01 -1.144185161590576172e+01 -1.109502792358398438e+00 8.857398033142089844e+00 2.324368476867675781e+00 -7.158465981483459473e-01
4.749000000000000000e+03 7.731574249267578125e+01 -1.194284152984619141e+01 -7.977999448776245117e-01 8.823584556579589844e+00 2.407735347747802734e+00 -4.289398491382598877e-01
4.750000000000000000e+03 7.619529724121093750e+01 3.693378829956054688e+01 2.504973672330379486e-03 6.888441085815429688e+00 2.067283868789672852e+00 3.750778734683990479e-02
4.751000000000000000e+03 7.686293029785156250e+01 4.569384574890136719e+00 -2.535735964775085449e-01 7.327903747558593750e+00 2.122298955917358398e+00 -6.010680794715881348e-01
4.752000000000000000e+03 7.495391082763671875e+01 4.066586494445800781e+00 -4.276350438594818115e-01 6.711399078369140625e+00 1.885129213333129883e+00 -2.256973087787628174e-01
4.753000000000000000e+03 7.679689788818359375e+01 2.112913322448730469e+01 -4.660932421684265137e-01 7.840316295623779297e+00 2.212266921997070312e+00 2.927814126014709473e-01
4.754000000000000000e+03 7.664776611328125000e+01 -1.440703678131103516e+01 -8.557441234588623047e-01 8.025228500366210938e+00 2.150845289230346680e+00 6.568086147308349609e-01
4.755000000000000000e+03 3.248723030090332031e+00 -2.936104965209960938e+01 -4.455330967903137207e-02 -1.891596764326095581e-01 -7.011389732360839844e-02 -3.627435863018035889e-02
4.756000000000000000e+03 7.611205291748046875e+01 -3.543999862670898438e+01 1.526971906423568726e-01 6.857949256896972656e+00 2.103193759918212891e+00 -1.220476999878883362e-02
4.757000000000000000e+03 7.600883483886718750e+01 -3.215238952636718750e+01 1.112549826502799988e-01 6.766874313354492188e+00 2.063438653945922852e+00 3.691318333148956299e-01
4.758000000000000000e+03 7.755022430419921875e+01 -2.822162628173828125e+01 -3.935262560844421387e-01 8.024280548095703125e+00 2.289226293563842773e+00 -1.586691886186599731e-01
4.759000000000000000e+03 7.085752487182617188e+00 -2.518852806091308594e+01 -8.004331612028181553e-04 -2.625999914016574621e-04 -3.189099370501935482e-04 -5.648379772901535034e-02
4.760000000000000000e+03 2.534806251525878906e+00 -2.851418495178222656e+01 -2.672949247062206268e-02 -1.883304864168167114e-01 -6.451799720525741577e-02 -8.300799876451492310e-03
4.761000000000000000e+03 7.665753173828125000e+01 2.752855491638183594e+01 3.922668099403381348e-02 7.192042827606201172e+00 2.169380903244018555e+00 -3.566731512546539307e-01
4.762000000000000000e+03 3.278648138046264648e+00 7.494946479797363281e+00 -7.985271513462066650e-02 -1.820625178515911102e-02 -2.941769175231456757e-02 6.694084405899047852e-02
4.763000000000000000e+03 8.123348236083984375e+00 1.006859016418457031e+01 -2.969553172588348389e-01 -2.124624699354171753e-01 -1.528253406286239624e-01 2.862806618213653564e-01
4.764000000000000000e+03 2.528129100799560547e+00 -2.612835311889648438e+01 -1.021593707264401019e-04 -1.712385118007659912e-01 -5.140220001339912415e-02 1.825355365872383118e-02
4.765000000000000000e+03 3.347450017929077148e+00 -2.382000350952148438e+01 6.253316998481750488e-02 -1.381695419549942017e-01 -2.269091270864009857e-02 -9.648812003433704376e-03
4.766000000000000000e+03 2.554785490036010742e+00 -2.282857322692871094e+01 5.857311561703681946e-02 -1.628486961126327515e-01 -3.128267452120780945e-02 -3.566801920533180237e-02
4.767000000000000000e+03 3.127409458160400391e+00 -2.201933288574218750e+01 8.897621184587478638e-02 -1.463221609592437744e-01 -1.720378175377845764e-02 -6.966041773557662964e-02
4.768000000000000000e+03 4.131794929504394531e+00 -2.193789291381835938e+01 1.325298845767974854e-01 -1.121156886219978333e-01 6.124258041381835938e-03 -6.970840692520141602e-02
4.769000000000000000e+03 3.199686050415039062e+00 2.524986457824707031e+01 -1.164921894669532776e-01 -5.554685592651367188e-01 -2.015882283449172974e-01 6.116183847188949585e-02
4.770000000000000000e+03 2.525062561035156250e+00 2.439808845520019531e+01 -6.210037693381309509e-02 -5.036965608596801758e-01 -1.697390824556350708e-01 9.160929359495639801e-03
4.771000000000000000e+03 7.751727581024169922e+00 1.413923549652099609e+01 1.890613585710525513e-01 -1.466545909643173218e-01 1.272202935069799423e-02 3.436845242977142334e-01
4.772000000000000000e+03 2.532217502593994141e+00 -1.701093101501464844e+01 -4.903005063533782959e-02 -4.266923666000366211e-02 -2.750978618860244751e-02 -9.786085039377212524e-02
4.773000000000000000e+03 3.227226018905639648e+00 1.952818679809570312e+01 5.937978625297546387e-02 -4.400729238986968994e-01 -1.142079383134841919e-01 -6.775556597858667374e-03
4.774000000000000000e+03 2.452418804168701172e+00 -1.783498001098632812e+01 -3.979384526610374451e-02 -5.862092226743698120e-02 -2.952442876994609833e-02 -1.182430163025856018e-01
4.775000000000000000e+03 2.990702629089355469e+00 -1.870569419860839844e+01 -2.438486739993095398e-02 -1.040662154555320740e-01 -3.853532671928405762e-02 -1.491256207227706909e-01
4.776000000000000000e+03 2.356900930404663086e+00 -1.860072135925292969e+01 -2.148058451712131500e-02 -7.566741853952407837e-02 -2.914440259337425232e-02 -1.334047019481658936e-01
4.777000000000000000e+03 2.292775154113769531e+00 -1.929620742797851562e+01 -2.293329685926437378e-03 -9.596933424472808838e-02 -2.947879955172538757e-02 -1.326922327280044556e-01
4.778000000000000000e+03 6.113084316253662109e+00 2.152343940734863281e+01 -2.193643338978290558e-02 -4.290248453617095947e-01 -1.352883875370025635e-01 5.711669847369194031e-02
4.779000000000000000e+03 2.426110744476318359e+00 -6.588036060333251953e+00 2.917976817116141319e-03 2.026256173849105835e-02 6.954161915928125381e-03 2.881828881800174713e-02
4.780000000000000000e+03 2.430249929428100586e+00 -7.355695247650146484e+00 4.229540470987558365e-03 2.314834669232368469e-02 8.213366381824016571e-03 3.033122979104518890e-02
4.781000000000000000e+03 2.630729913711547852e+00 -1.372040557861328125e+01 -3.043056838214397430e-02 1.778123783878982067e-03 -8.595732972025871277e-03 -1.355337537825107574e-02
4.782000000000000000e+03 3.174782276153564453e+00 8.163128852844238281e+00 -7.540646940469741821e-02 -3.098464012145996094e-02 -3.191733360290527344e-02 9.464382380247116089e-02
4.783000000000000000e+03 3.449789524078369141e+00 1.140857124328613281e+01 -3.504512831568717957e-02 -1.486674994230270386e-01 -5.511378869414329529e-02 2.146507799625396729e-01
4.784000000000000000e+03 2.704913616180419922e+00 2.817185020446777344e+01 -6.434338539838790894e-02 -6.291793584823608398e-01 -2.080568224191665649e-01 2.067088633775711060e-01
4.785000000000000000e+03 2.217295646667480469e+00 2.782313537597656250e+01 -5.797305330634117126e-02 -5.896019935607910156e-01 -1.942725181579589844e-01 1.679303199052810669e-01
4.786000000000000000e+03 3.373204231262207031e+00 1.310197544097900391e+01 1.596986874938011169e-02 -2.272507101297378540e-01 -6.338425725698471069e-02 2.174734324216842651e-01
4.787000000000000000e+03 2.617052793502807617e+00 -2.113536834716796875e+01 6.430840492248535156e-02 -1.463093608617782593e-01 -2.460028976202011108e-02 -1.026657894253730774e-01
4.788000000000000000e+03 2.418793201446533203e+00 2.708677291870117188e+01 -7.672189921140670776e-02 -5.743777155876159668e-01 -1.953298896551132202e-01 1.447501480579376221e-01
4.789000000000000000e+03 4.300846576690673828e+00 1.229417705535888672e+01 -1.314121764153242111e-02 -1.829475462436676025e-01 -5.882662907242774963e-02 2.642932832241058350e-01
4.790000000000000000e+03 2.644839763641357422e+00 1.225391674041748047e+01 -6.355093326419591904e-03 -1.903592795133590698e-01 -5.901430919766426086e-02 1.819569468498229980e-01
4.791000000000000000e+03 6.311101913452148438e+00 1.377303409576416016e+01 1.134589239954948425e-01 -2.089329659938812256e-01 -2.864221297204494476e-02 3.255118131637573242e-01
4.792000000000000000e+03 3.096931695938110352e+00 -9.613134384155273438e+00 -2.746010664850473404e-03 2.774849534034729004e-03 8.651656571601051837e-06 2.923318371176719666e-02
4.793000000000000000e+03 3.927369832992553711e+00 1.877663993835449219e+01 9.619903564453125000e-02 -4.131108224391937256e-01 -9.507353603839874268e-02 2.981136180460453033e-02
4.794000000000000000e+03 2.533568620681762695e+00 1.872268486022949219e+01 4.929313436150550842e-02 -4.391130208969116211e-01 -1.169459670782089233e-01 7.200002204626798630e-03
4.795000000000000000e+03 3.255057573318481445e+00 1.795202636718750000e+01 8.111798018217086792e-02 -4.090505838394165039e-01 -9.837978333234786987e-02 4.792742431163787842e-02
4.796000000000000000e+03 3.247001171112060547e+00 -1.115337562561035156e+01 -1.322873216122388840e-02 -1.077947206795215607e-02 -7.202461361885070801e-03 1.882782019674777985e-02
4.797000000000000000e+03 2.521946191787719727e+00 2.355739784240722656e+01 -4.179912805557250977e-02 -4.874603450298309326e-01 -1.587778329849243164e-01 -2.173008024692535400e-02
4.798000000000000000e+03 2.521274805068969727e+00 2.273165321350097656e+01 -2.151546068489551544e-02 -4.807299077510833740e-01 -1.506736129522323608e-01 -3.649777919054031372e-02
4.799000000000000000e+03 2.231270790100097656e+00 2.974883842468261719e+01 1.820828532800078392e-03 -6.907078027725219727e-01 -2.066660821437835693e-01 2.102653086185455322e-01
4.800000000000000000e+03 3.281062126159667969e+00 -2.460893440246582031e+01 3.316092863678932190e-02 -1.425054073333740234e-01 -3.280334547162055969e-02 8.104926906526088715e-03
4.801000000000000000e+03 3.482026815414428711e+00 5.822635650634765625e+00 -7.044305652379989624e-02 4.944498650729656219e-04 -2.098458074033260345e-02 8.331302553415298462e-03
4.802000000000000000e+03 4.287552833557128906e+00 4.953809738159179688e+00 -7.239057868719100952e-02 -5.585869308561086655e-03 -2.339293435215950012e-02 -1.265180483460426331e-02
4.803000000000000000e+03 3.274939298629760742e+00 -2.618130874633789062e+01 -6.390475668013095856e-03 -1.475258767604827881e-01 -4.617490619421005249e-02 1.342821866273880005e-02
4.804000000000000000e+03 3.520950317382812500e+00 4.181939125061035156e+00 -3.506601229310035706e-02 7.579124998301267624e-03 -8.246066980063915253e-03 -3.310187533497810364e-02
4.805000000000000000e+03 4.317487716674804688e+00 4.158030986785888672e+00 -4.881218820810317993e-02 -1.158928498625755310e-03 -1.499133463948965073e-02 -3.098888136446475983e-02
4.806000000000000000e+03 3.259980916976928711e+00 -2.776610565185546875e+01 -3.307872638106346130e-02 -1.625815480947494507e-01 -5.869808048009872437e-02 -4.661300219595432281e-03
4.807000000000000000e+03 3.832249164581298828e+00 -1.533324241638183594e+01 -7.222115993499755859e-02 -1.029023155570030212e-01 -5.253704264760017395e-02 -6.805781275033950806e-02
4.808000000000000000e+03 3.357476949691772461e+00 -1.453703594207763672e+01 -5.527533590793609619e-02 -6.126975268125534058e-02 -3.496352583169937134e-02 -4.242640733718872070e-02
4.809000000000000000e+03 2.593463659286499023e+00 -3.171873855590820312e+01 -2.866251394152641296e-02 -2.493055760860443115e-01 -8.339042216539382935e-02 -7.001800090074539185e-02
4.810000000000000000e+03 3.262622117996215820e+00 -3.015984535217285156e+01 -4.540966078639030457e-02 -2.049584537744522095e-01 -7.511043548583984375e-02 -5.385697260499000549e-02
4.811000000000000000e+03 3.232757091522216797e+00 1.549528026580810547e+01 7.431241869926452637e-02 -3.388116955757141113e-01 -7.934978604316711426e-02 1.482992172241210938e-01
4.812000000000000000e+03 3.243643045425415039e+00 2.111217117309570312e+01 1.832130551338195801e-02 -4.637498855590820312e-01 -1.336285769939422607e-01 -3.407154232263565063e-02
4.813000000000000000e+03 3.215349912643432617e+00 2.191563796997070312e+01 -6.792711559683084488e-03 -4.800301492214202881e-01 -1.460468620061874390e-01 -3.355579823255538940e-02
4.814000000000000000e+03 3.759378671646118164e+00 -5.864531993865966797e+00 8.983876556158065796e-03 -5.508766043931245804e-03 1.042532967403531075e-03 2.773335017263889313e-02
4.815000000000000000e+03 3.197792053222656250e+00 2.272541618347167969e+01 -3.031567111611366272e-02 -4.944576621055603027e-01 -1.574320048093795776e-01 -2.583105117082595825e-02
4.816000000000000000e+03 3.207343339920043945e+00 1.467264080047607422e+01 6.200992688536643982e-02 -3.049475550651550293e-01 -7.288128882646560669e-02 1.780024170875549316e-01
4.817000000000000000e+03 3.345703363418579102e+00 3.302997970581054688e+01 1.138536706566810608e-01 -6.952388882637023926e-01 -1.744155585765838623e-01 1.389425247907638550e-01
4.818000000000000000e+03 4.335902214050292969e+00 3.227903366088867188e+01 1.551188975572586060e-01 -5.731449127197265625e-01 -1.254078149795532227e-01 1.775753647089004517e-01
4.819000000000000000e+03 3.814499139785766602e+00 -6.584244728088378906e+00 5.848580040037631989e-03 -9.481628425419330597e-03 -1.089914469048380852e-03 2.906042337417602539e-02
4.820000000000000000e+03 6.460627746582031250e+01 -2.616506767272949219e+01 -2.281846761703491211e+00 6.676029205322265625e+00 1.318254709243774414e+00 -2.000850200653076172e+00
4.821000000000000000e+03 3.249887466430664062e+00 -2.856355667114257812e+01 -3.841249644756317139e-02 -1.760439723730087280e-01 -6.433694064617156982e-02 -1.891022548079490662e-02
4.822000000000000000e+03 3.173296689987182617e+00 -8.855380058288574219e+00 -1.815459458157420158e-03 1.608730060979723930e-03 -6.201882933964952826e-05 3.217560052871704102e-02
4.823000000000000000e+03 3.191288709640502930e+00 -8.081553459167480469e+00 3.462636144831776619e-03 2.059936523437500000e-03 1.656771753914654255e-03 3.142527490854263306e-02
4.824000000000000000e+03 1.093477916717529297e+01 -3.777451753616333008e+00 1.024775113910436630e-02 -1.861775852739810944e-02 -2.511002123355865479e-03 -3.184480592608451843e-02
4.825000000000000000e+03 1.321366024017333984e+01 -4.522294521331787109e+00 1.200932823121547699e-02 3.709741286002099514e-04 3.714090678840875626e-03 -2.988091483712196350e-02
4.826000000000000000e+03 7.699137878417968750e+01 -3.654340362548828125e+01 8.201058954000473022e-02 7.224485874176025391e+00 2.191948890686035156e+00 -8.873199112713336945e-03
4.827000000000000000e+03 3.740392208099365234e+00 -3.282549285888671875e+01 -3.857412189245223999e-02 -2.735027074813842773e-01 -9.362304955720901489e-02 -1.216829046607017517e-01
4.828000000000000000e+03 3.531263732910156250e+01 -1.148262119293212891e+01 -2.097365856170654297e-01 5.135119557380676270e-01 9.113261848688125610e-02 -4.243158549070358276e-02
4.829000000000000000e+03 7.644523620605468750e+01 -3.115888214111328125e+01 -4.926811158657073975e-02 7.150117874145507812e+00 2.130254983901977539e+00 3.642072379589080811e-01
4.830000000000000000e+03 2.808054924011230469e+00 3.469890213012695312e+01 7.137200981378555298e-02 -7.751142978668212891e-01 -2.111226916313171387e-01 5.344364047050476074e-02
4.831000000000000000e+03 5.174113750457763672e+00 2.270077323913574219e+01 -7.465545833110809326e-02 -5.147743821144104004e-01 -1.768289506435394287e-01 4.832345619797706604e-02
4.832000000000000000e+03 1.755920410156250000e+01 -1.289564323425292969e+01 -2.128052264451980591e-01 6.893455237150192261e-02 -4.316120222210884094e-02 6.101242825388908386e-02
4.833000000000000000e+03 3.505046606063842773e+00 -3.539812469482421875e+01 -2.020159037783741951e-03 -3.525629639625549316e-01 -1.063749343156814575e-01 -1.397254317998886108e-01
4.834000000000000000e+03 3.300087213516235352e+00 -3.316472244262695312e+01 -2.917411737143993378e-02 -2.848351299762725830e-01 -9.420277178287506104e-02 -1.144695132970809937e-01
4.835000000000000000e+03 4.707771301269531250e+01 3.790531635284423828e+00 -8.208581805229187012e-01 3.791887760162353516e-01 -1.325008273124694824e-01 -3.832696378231048584e-02
4.836000000000000000e+03 7.630475616455078125e+01 3.585061264038085938e+01 2.738182432949542999e-02 6.859117984771728516e+00 2.065949916839599609e+00 3.247249871492385864e-02
4.837000000000000000e+03 7.608719635009765625e+01 3.462782669067382812e+01 7.297282665967941284e-02 6.824684619903564453e+00 2.069297313690185547e+00 -5.464251618832349777e-03
4.838000000000000000e+03 7.645449829101562500e+01 3.234888076782226562e+01 1.084633842110633850e-01 6.914341449737548828e+00 2.106841325759887695e+00 -1.079241260886192322e-01
4.839000000000000000e+03 2.268545341491699219e+01 1.608245468139648438e+01 -2.834104299545288086e-01 -1.187713444232940674e-01 -1.206545308232307434e-01 1.366678625345230103e-01
4.840000000000000000e+03 2.137745285034179688e+01 1.597111320495605469e+01 -2.706543207168579102e-01 -1.785652339458465576e-01 -1.347658634185791016e-01 1.408984363079071045e-01
4.841000000000000000e+03 3.997880935668945312e+01 1.934989356994628906e+01 3.025600910186767578e-01 5.604631826281547546e-02 1.075819283723831177e-01 7.284672558307647705e-02
4.842000000000000000e+03 6.738919830322265625e+01 -9.711831212043762207e-01 3.442168712615966797e+00 4.032370090484619141e+00 2.242361783981323242e+00 2.881443738937377930e+00
4.843000000000000000e+03 1.386032581329345703e+01 -6.495291709899902344e+00 -7.402406074106693268e-03 2.247578464448451996e-02 4.522013477981090546e-03 -2.314482629299163818e-02
4.844000000000000000e+03 6.761596679687500000e+01 4.131875991821289062e+00 -3.660306632518768311e-01 2.031757354736328125e+00 4.997180104255676270e-01 2.546412706375122070e+00
4.845000000000000000e+03 6.937194824218750000e+01 2.077912330627441406e+00 9.765120744705200195e-01 2.680931568145751953e+00 1.097233057022094727e+00 2.884538173675537109e+00
4.846000000000000000e+03 5.448906707763671875e+01 4.782184123992919922e+00 -5.634455680847167969e-01 1.543368220329284668e+00 2.939767837524414062e-01 -5.337769985198974609e-01
4.847000000000000000e+03 2.429932975769042969e+01 -2.850276756286621094e+01 4.363607466220855713e-01 -1.249515861272811890e-01 9.342274814844131470e-02 -1.983893662691116333e-01
4.848000000000000000e+03 2.677532386779785156e+01 -2.735834884643554688e+01 4.278782904148101807e-01 -1.765439808368682861e-01 7.540030032396316528e-02 -2.108652740716934204e-01
4.849000000000000000e+03 5.937899589538574219e+00 4.099704265594482422e+00 -8.119355887174606323e-02 -2.176838181912899017e-02 -3.088858164846897125e-02 -2.249609120190143585e-02
4.850000000000000000e+03 7.365056991577148438e+00 6.908012866973876953e+00 -2.647313773632049561e-01 -1.016023308038711548e-01 -1.099001169204711914e-01 1.001742780208587646e-01
4.851000000000000000e+03 8.137757301330566406e+00 4.480470657348632812e+00 -1.607241928577423096e-01 -7.404597103595733643e-02 -7.043105363845825195e-02 2.152840793132781982e-02
4.852000000000000000e+03 5.123658657073974609e+00 4.131957054138183594e+00 -6.584580242633819580e-02 -1.133395452052354813e-02 -2.315392717719078064e-02 -2.814847789704799652e-02
4.853000000000000000e+03 6.783141136169433594e+00 4.783676147460937500e+00 -1.408547759056091309e-01 -4.505979642271995544e-02 -5.577437207102775574e-02 7.149004843086004257e-03
4.854000000000000000e+03 5.918412208557128906e+00 4.884723186492919922e+00 -1.196446418762207031e-01 -2.990793809294700623e-02 -4.486577585339546204e-02 -1.429577358067035675e-03
4.855000000000000000e+03 6.638694763183593750e+01 3.126270484924316406e+01 6.445200443267822266e-01 4.426421165466308594e+00 1.521282315254211426e+00 4.085375964641571045e-01
4.856000000000000000e+03 3.156342315673828125e+01 -8.012706756591796875e+00 -2.422141283750534058e-01 -6.852204203605651855e-01 -2.782303690910339355e-01 -5.425202250480651855e-01
4.857000000000000000e+03 3.336830139160156250e+01 -5.823094844818115234e+00 -1.641992777585983276e-01 -8.529840409755706787e-02 -7.484930753707885742e-02 -6.142528057098388672e-01
4.858000000000000000e+03 6.056375122070312500e+01 8.402488708496093750e+00 -1.311938285827636719e+00 7.149542808532714844e+00 1.751281261444091797e+00 -1.200564980506896973e+00
4.859000000000000000e+03 2.610388374328613281e+01 1.371649837493896484e+01 -9.987877309322357178e-02 -5.991673469543457031e-02 -4.793865233659744263e-02 1.177340075373649597e-01
4.860000000000000000e+03 1.789620590209960938e+01 -1.870834732055664062e+01 -2.909768223762512207e-01 -1.101670265197753906e-01 -1.203431561589241028e-01 -5.807240605354309082e-01
4.861000000000000000e+03 4.148766326904296875e+01 5.636300086975097656e+00 -2.314288765192031860e-01 -4.832063913345336914e-01 -2.143905758857727051e-01 4.246357083320617676e-01
4.862000000000000000e+03 2.592403602600097656e+01 1.274993991851806641e+01 5.011593177914619446e-02 -1.654370687901973724e-02 1.007166784256696701e-02 1.210700795054435730e-01
4.863000000000000000e+03 1.160432815551757812e+01 1.972714614868164062e+01 1.361255049705505371e-01 2.375278174877166748e-01 1.120959967374801636e-01 3.716895282268524170e-01
4.864000000000000000e+03 1.199255657196044922e+01 1.999934768676757812e+01 1.093451082706451416e-01 2.632039487361907959e-01 1.117647141218185425e-01 4.017780423164367676e-01
4.865000000000000000e+03 3.495487213134765625e+01 1.658800506591796875e+01 4.110131561756134033e-01 -2.010695934295654297e-01 6.298306584358215332e-02 3.303219974040985107e-01
4.866000000000000000e+03 3.472637939453125000e+01 1.443286705017089844e+01 -1.192080602049827576e-02 -2.712727189064025879e-01 -8.495806157588958740e-02 3.324624001979827881e-01
4.867000000000000000e+03 4.131900024414062500e+01 1.685204887390136719e+01 1.512814760208129883e-01 3.018163442611694336e-01 1.359293460845947266e-01 -1.434670239686965942e-01
4.868000000000000000e+03 6.497259521484375000e+01 -2.573582267761230469e+01 -2.051088333129882812e+00 7.402594089508056641e+00 1.605451822280883789e+00 -1.935272097587585449e+00
4.869000000000000000e+03 4.316513061523437500e+01 5.777592182159423828e+00 -4.321352243423461914e-01 4.581639543175697327e-02 -1.158956512808799744e-01 3.287023007869720459e-01
4.870000000000000000e+03 2.772262191772460938e+01 7.971051692962646484e+00 3.239818811416625977e-01 5.959981083869934082e-01 2.759940028190612793e-01 1.453607529401779175e-01
4.871000000000000000e+03 2.779014587402343750e+01 1.115665721893310547e+01 2.173146158456802368e-01 3.998044133186340332e-01 1.851357072591781616e-01 2.203270792961120605e-01
4.872000000000000000e+03 6.670096588134765625e+01 -2.753064537048339844e+01 -1.629898071289062500e+00 5.561929702758789062e+00 1.179609537124633789e+00 -1.978017687797546387e+00
4.873000000000000000e+03 4.134342956542968750e+01 -2.036073875427246094e+01 4.520550668239593506e-01 5.456448793411254883e-01 2.993099689483642578e-01 -2.049620896577835083e-01
4.874000000000000000e+03 1.081457710266113281e+01 1.950929450988769531e+01 1.582219302654266357e-01 1.514907181262969971e-01 9.291379898786544800e-02 2.807604074478149414e-01
4.875000000000000000e+03 1.126461791992187500e+01 1.880590438842773438e+01 2.641468048095703125e-01 2.561408877372741699e-01 1.560863107442855835e-01 3.246264159679412842e-01
4.876000000000000000e+03 7.091538238525390625e+01 6.885380744934082031e+00 -9.197065830230712891e-01 5.974833488464355469e+00 1.516538143157958984e+00 2.015903472900390625e+00
4.877000000000000000e+03 7.315670013427734375e+01 7.953170299530029297e+00 -1.576600074768066406e-01 8.528934478759765625e+00 2.511382341384887695e+00 1.781271398067474365e-01
4.878000000000000000e+03 6.974221038818359375e+01 -1.471137237548828125e+01 -4.330515861511230469e-01 4.899139702320098877e-01 1.705870963633060455e-02 -2.539952278137207031e+00
4.879000000000000000e+03 4.554114913940429688e+01 3.259869575500488281e+00 -1.019566655158996582e+00 3.199901282787322998e-01 -2.098729461431503296e-01 7.955573499202728271e-02
4.880000000000000000e+03 4.503153228759765625e+01 4.769346714019775391e+00 -6.984755396842956543e-01 3.680818676948547363e-01 -9.911809861660003662e-02 9.195002913475036621e-02
4.881000000000000000e+03 5.485256671905517578e+00 -1.350262546539306641e+01 -8.867047727108001709e-02 -1.588523536920547485e-01 -7.425685226917266846e-02 -6.986506283283233643e-02
4.882000000000000000e+03 6.668148803710937500e+01 2.876793479919433594e+01 1.162787556648254395e+00 4.134600162506103516e+00 1.589216232299804688e+00 5.732412934303283691e-01
4.883000000000000000e+03 3.468634033203125000e+01 2.236248207092285156e+01 -6.149962916970252991e-02 2.240745872259140015e-01 4.877248778939247131e-02 2.186930626630783081e-01
4.884000000000000000e+03 4.183610534667968750e+01 -2.569245910644531250e+01 3.341549634933471680e-01 7.328295111656188965e-01 3.200953602790832520e-01 3.235979974269866943e-01
4.885000000000000000e+03 9.265191078186035156e+00 1.914318084716796875e+01 2.047476023435592651e-01 -4.311190173029899597e-02 4.849071055650711060e-02 1.739318668842315674e-01
4.886000000000000000e+03 2.409530639648437500e+01 1.432106208801269531e+01 -1.994238048791885376e-01 -1.015341281890869141e-01 -9.028737992048263550e-02 7.219940423965454102e-02
4.887000000000000000e+03 2.498699760437011719e+01 -2.821253776550292969e+01 4.426486194133758545e-01 -1.845431923866271973e-01 7.743162661790847778e-02 -2.000997960567474365e-01
4.888000000000000000e+03 4.021831512451171875e+01 -1.659223937988281250e+01 -1.337974071502685547e-01 4.731099903583526611e-01 1.017937734723091125e-01 -4.645848572254180908e-01
4.889000000000000000e+03 6.615039062500000000e+01 4.110622033476829529e-02 2.038567066192626953e+00 5.110398769378662109e+00 2.144689798355102539e+00 2.274873971939086914e+00
4.890000000000000000e+03 6.638243865966796875e+01 5.455207347869873047e+00 -2.405922412872314453e+00 2.393367141485214233e-01 -6.499757170677185059e-01 1.162201523780822754e+00
4.891000000000000000e+03 3.445891189575195312e+01 -4.379033565521240234e+00 -3.789335787296295166e-01 1.828782558441162109e-01 -5.881659314036369324e-02 -4.998743832111358643e-01
4.892000000000000000e+03 3.517654418945312500e+01 -5.580997943878173828e+00 -2.997516989707946777e-01 3.958799540996551514e-01 2.883847989141941071e-02 -6.175451874732971191e-01
4.893000000000000000e+03 2.761339378356933594e+01 -2.126292610168457031e+01 1.148623693734407425e-02 -1.882727891206741333e-01 -5.303596705198287964e-02 -6.837513297796249390e-02
4.894000000000000000e+03 5.508529186248779297e+00 2.458974456787109375e+01 -1.851929575204849243e-01 -6.583505868911743164e-01 -2.530630826950073242e-01 1.624182760715484619e-01
4.895000000000000000e+03 5.803899383544921875e+01 -2.208479690551757812e+01 1.539238214492797852e+00 3.717412948608398438e+00 1.576995372772216797e+00 2.022004127502441406e+00
4.896000000000000000e+03 6.932069396972656250e+01 -2.767347145080566406e+01 -7.545654773712158203e-01 9.987744092941284180e-01 7.326269149780273438e-02 -4.055245220661163330e-01
4.897000000000000000e+03 1.924722671508789062e+01 -1.414211368560791016e+01 -4.146151244640350342e-01 -3.703919053077697754e-02 -1.354962885379791260e-01 -5.310050770640373230e-02
4.898000000000000000e+03 6.106789398193359375e+01 2.080621528625488281e+01 -1.603533983230590820e+00 4.456907272338867188e+00 8.560119271278381348e-01 1.935071349143981934e+00
4.899000000000000000e+03 4.066473770141601562e+01 -1.786805152893066406e+01 2.471359968185424805e-01 3.712075650691986084e-01 1.855030655860900879e-01 -4.319165050983428955e-01
4.900000000000000000e+03 1.567943191528320312e+01 -1.240007591247558594e+01 -1.697832792997360229e-01 2.069341093301773071e-01 1.114524807780981064e-02 2.038909681141376495e-02
4.901000000000000000e+03 3.004651260375976562e+01 -1.326694774627685547e+01 -7.720272541046142578e-01 -4.908988773822784424e-01 -3.788778483867645264e-01 -1.978169083595275879e-01
4.902000000000000000e+03 3.188686180114746094e+01 -1.386048889160156250e+01 -7.640478014945983887e-01 -1.618552505970001221e-01 -2.777709066867828369e-01 9.405910968780517578e-02
4.903000000000000000e+03 2.706707572937011719e+01 -1.937915229797363281e+01 -7.055222243070602417e-02 -3.125399649143218994e-01 -1.149276569485664368e-01 -1.221758201718330383e-01
4.904000000000000000e+03 2.377178192138671875e+01 -1.531678771972656250e+01 -8.935338258743286133e-01 -4.003325700759887695e-01 -3.881599307060241699e-01 -3.875676989555358887e-01
4.905000000000000000e+03 2.446623802185058594e+01 -1.576190853118896484e+01 -7.247640490531921387e-01 -4.491303861141204834e-01 -3.521683216094970703e-01 -4.041029214859008789e-01
4.906000000000000000e+03 5.940473175048828125e+01 -2.477643394470214844e+01 3.308091461658477783e-01 2.726512908935546875e+00 9.171966314315795898e-01 2.356430292129516602e+00
4.907000000000000000e+03 6.010612106323242188e+01 -2.517817115783691406e+01 -2.729059755802154541e-01 1.661386251449584961e+00 4.165440797805786133e-01 2.042816638946533203e+00
4.908000000000000000e+03 2.793240165710449219e+01 -1.939931106567382812e+01 -3.772917017340660095e-02 -2.756138443946838379e-01 -9.400290250778198242e-02 -7.234575599431991577e-02
4.909000000000000000e+03 1.360100746154785156e+01 -1.167889976501464844e+01 -1.433870643377304077e-01 1.576759964227676392e-01 4.286677110940217972e-03 -6.259441375732421875e-02
4.910000000000000000e+03 1.226549911499023438e+01 -1.009018421173095703e+01 -1.148540228605270386e-01 4.307426512241363525e-02 -2.153392694890499115e-02 -7.009563595056533813e-02
4.911000000000000000e+03 5.599203109741210938e+01 1.584102630615234375e+01 1.764474868774414062e+00 4.377542495727539062e+00 1.842605233192443848e+00 -1.497171044349670410e+00
4.912000000000000000e+03 5.917721557617187500e+01 1.490181255340576172e+01 1.567537546157836914e+00 7.366474628448486328e+00 2.680203676223754883e+00 -1.845688223838806152e-01
4.913000000000000000e+03 2.959474372863769531e+01 3.009690093994140625e+01 2.462445944547653198e-01 -1.824468523263931274e-01 1.913931965827941895e-02 2.043140530586242676e-01
4.914000000000000000e+03 3.288845062255859375e+01 -7.165213108062744141e+00 -1.062085777521133423e-01 -2.404093742370605469e-01 -1.039853841066360474e-01 -6.098440289497375488e-01
4.915000000000000000e+03 2.106150245666503906e+01 2.759395790100097656e+01 3.068960011005401611e-01 -1.488510221242904663e-01 4.741349443793296814e-02 4.702090620994567871e-01
4.916000000000000000e+03 7.327384948730468750e+01 1.604928779602050781e+01 3.510278761386871338e-01 9.376121520996093750e+00 2.918144941329956055e+00 5.047137141227722168e-01
4.917000000000000000e+03 7.402869415283203125e+01 1.390470695495605469e+01 1.304754257202148438e+00 9.820068359375000000e+00 3.337446689605712891e+00 6.078213453292846680e-01
4.918000000000000000e+03 6.250062179565429688e+01 -7.135345935821533203e+00 3.187481641769409180e+00 1.401352596282958984e+01 5.160302162170410156e+00 9.454284906387329102e-01
4.919000000000000000e+03 7.531616973876953125e+01 -2.014104843139648438e+01 1.288345813751220703e+00 9.434771537780761719e+00 3.216935157775878906e+00 1.904439181089401245e-01
4.920000000000000000e+03 4.476417160034179688e+01 -2.235837745666503906e+01 4.646721780300140381e-01 1.133487343788146973e+00 4.794478416442871094e-01 1.322833895683288574e-01
4.921000000000000000e+03 6.150795936584472656e+00 3.395228958129882812e+01 2.826435267925262451e-01 -2.244756966829299927e-01 1.745035126805305481e-02 7.894937694072723389e-02
4.922000000000000000e+03 6.355022430419921875e+01 2.381105804443359375e+01 -4.243369996547698975e-01 4.296236038208007812e+00 1.161569714546203613e+00 1.756471753120422363e+00
4.923000000000000000e+03 5.397962570190429688e+01 1.837851333618164062e+01 5.773534178733825684e-01 3.494736909866333008e+00 1.221627116203308105e+00 -2.020288944244384766e+00
4.924000000000000000e+03 3.964124298095703125e+01 -1.376243305206298828e+01 -9.007487893104553223e-01 7.729691267013549805e-01 -3.833389654755592346e-02 -3.905913233757019043e-01
4.925000000000000000e+03 6.291504669189453125e+01 -1.743745422363281250e+01 -1.144497990608215332e+00 7.544904232025146484e+00 1.920121908187866211e+00 -2.586085200309753418e-01
4.926000000000000000e+03 6.355760192871093750e+01 -1.702763175964355469e+01 -1.879371523857116699e+00 7.960554599761962891e+00 1.824355006217956543e+00 -2.275362461805343628e-01
4.927000000000000000e+03 1.534782695770263672e+01 -1.298520183563232422e+01 -1.207137927412986755e-01 2.606420516967773438e-01 4.197847470641136169e-02 -1.052886433899402618e-02
4.928000000000000000e+03 5.405870056152343750e+01 2.261070251464843750e+01 -1.401005983352661133e+00 4.020450115203857422e+00 7.858332395553588867e-01 -1.707218885421752930e+00
4.929000000000000000e+03 4.121728897094726562e+01 1.002917766571044922e+01 -2.342139333486557007e-01 -1.982197463512420654e-01 -1.297301054000854492e-01 1.944413185119628906e-01
4.930000000000000000e+03 4.050621032714843750e+01 1.023423385620117188e+01 -3.207926154136657715e-01 -5.081191658973693848e-01 -2.486735433340072632e-01 2.587422132492065430e-01
4.931000000000000000e+03 5.956256866455078125e+01 9.623237609863281250e+00 3.258129358291625977e-01 7.222009181976318359e+00 2.264346599578857422e+00 -7.646303176879882812e-01
4.932000000000000000e+03 6.310028076171875000e+01 -2.173704719543457031e+01 2.640333890914916992e+00 6.849478721618652344e+00 2.846943855285644531e+00 -7.734211683273315430e-01
4.933000000000000000e+03 3.266354751586914062e+01 1.446310615539550781e+01 -1.584065891802310944e-02 3.909619748592376709e-01 1.125363931059837341e-01 3.984231054782867432e-01
4.934000000000000000e+03 5.401072692871093750e+01 -1.480128765106201172e+01 -2.669817476999014616e-04 1.620642244815826416e-01 4.853917285799980164e-02 2.184945046901702881e-01
4.935000000000000000e+03 5.043843841552734375e+01 -5.513013362884521484e+00 -6.218913197517395020e-01 -2.547329664230346680e-02 -1.942093819379806519e-01 8.153929710388183594e-01
4.936000000000000000e+03 7.171678924560546875e+01 7.067504882812500000e+00 -7.692378163337707520e-01 7.019630908966064453e+00 1.875117897987365723e+00 1.499438405036926270e+00
4.937000000000000000e+03 7.014031982421875000e+01 6.633765220642089844e+00 -1.171945810317993164e+00 4.592351436614990234e+00 1.026121735572814941e+00 2.479815721511840820e+00
4.938000000000000000e+03 2.032068443298339844e+01 1.923024749755859375e+01 -1.877910941839218140e-01 -1.248558759689331055e-01 -9.379409253597259521e-02 1.684006862342357635e-02
4.939000000000000000e+03 5.272473907470703125e+01 -1.409240722656250000e+01 2.747815847396850586e-02 -2.247445434331893921e-01 -5.917991325259208679e-02 1.353465169668197632e-01
4.940000000000000000e+03 3.067858886718750000e+01 1.369012165069580078e+01 -2.443361282348632812e-01 8.139381408691406250e-01 1.708806157112121582e-01 5.541784763336181641e-01
4.941000000000000000e+03 4.802870178222656250e+01 2.484975433349609375e+01 5.123742222785949707e-01 2.200001001358032227e+00 8.137125372886657715e-01 -5.505572631955146790e-02
4.942000000000000000e+03 5.256408691406250000e+01 2.587203979492187500e+01 9.425617456436157227e-01 4.709189891815185547e+00 1.695525407791137695e+00 -6.308981776237487793e-01
4.943000000000000000e+03 9.055591583251953125e+00 2.126529502868652344e+01 -5.164559558033943176e-02 -2.010867148637771606e-01 -7.581969350576400757e-02 1.665534079074859619e-01
4.944000000000000000e+03 3.706338119506835938e+01 -1.291044712066650391e+01 -6.462550759315490723e-01 9.541057944297790527e-01 9.235522896051406860e-02 -2.073832899332046509e-01
4.945000000000000000e+03 9.720261573791503906e+00 5.756903648376464844e+00 -3.176713883876800537e-01 -1.817430853843688965e-01 -1.498243510723114014e-01 1.283333301544189453e-01
4.946000000000000000e+03 6.532327270507812500e+01 2.570919036865234375e+01 1.530681014060974121e+00 3.593991279602050781e+00 1.537401676177978516e+00 7.710744738578796387e-01
4.947000000000000000e+03 6.477675628662109375e+01 2.493163490295410156e+01 1.126199722290039062e+00 3.642864227294921875e+00 1.430719137191772461e+00 9.067088365554809570e-01
4.948000000000000000e+03 7.525186157226562500e+01 -2.672552299499511719e+01 -1.187577962875366211e+00 8.198819160461425781e+00 2.103372335433959961e+00 9.646953642368316650e-02
4.949000000000000000e+03 5.042043685913085938e+01 -3.636973953247070312e+01 6.506408452987670898e-01 3.319028377532958984e+00 1.190900802612304688e+00 1.042451024055480957e+00
4.950000000000000000e+03 5.203830718994140625e+01 -3.362704849243164062e+01 1.363489866256713867e+00 3.582832336425781250e+00 1.483896613121032715e+00 1.202475428581237793e+00
4.951000000000000000e+03 2.059021568298339844e+01 2.359296607971191406e+01 3.903891444206237793e-01 -2.558140642940998077e-02 1.094423234462738037e-01 2.539017498493194580e-01
4.952000000000000000e+03 5.380468750000000000e+01 -2.738024520874023438e+01 1.203799769282341003e-01 3.793663978576660156e+00 1.174213171005249023e+00 1.307037472724914551e+00
4.953000000000000000e+03 4.939729690551757812e+01 2.616456604003906250e+01 7.174372076988220215e-01 2.820654392242431641e+00 1.061427474021911621e+00 -2.943631410598754883e-01
4.954000000000000000e+03 2.164611434936523438e+01 1.647752761840820312e+01 -2.808859944343566895e-01 -1.538921892642974854e-01 -1.304334551095962524e-01 1.386076509952545166e-01
4.955000000000000000e+03 3.558539962768554688e+01 -1.075648880004882812e+01 -1.711291819810867310e-02 6.242529749870300293e-01 1.821420192718505859e-01 -9.807499498128890991e-02
4.956000000000000000e+03 4.988127136230468750e+01 -1.064500236511230469e+01 -1.822285801172256470e-01 5.207516551017761230e-01 1.015569269657135010e-01 -1.767174601554870605e-01
4.957000000000000000e+03 6.424449920654296875e+01 2.283806037902832031e+01 -1.093401432037353516e+00 3.224039316177368164e+00 6.391913890838623047e-01 1.786844611167907715e+00
4.958000000000000000e+03 5.238674163818359375e+01 4.002411365509033203e+00 -3.555994629859924316e-01 -1.009218581020832062e-02 -1.097074896097183228e-01 -2.089542448520660400e-01
4.959000000000000000e+03 5.338457107543945312e+01 1.894939422607421875e+01 1.951395720243453979e-01 3.407674551010131836e+00 1.080844283103942871e+00 -1.981487035751342773e+00
4.960000000000000000e+03 3.823428153991699219e+00 2.603676223754882812e+01 -1.827615201473236084e-01 -6.264854669570922852e-01 -2.427740991115570068e-01 1.336469352245330811e-01
4.961000000000000000e+03 5.920064926147460938e+01 -1.186503601074218750e+01 -4.870546460151672363e-01 5.349761486053466797e+00 1.458812117576599121e+00 3.236190557479858398e+00
4.962000000000000000e+03 4.860678100585937500e+01 -2.643698501586914062e+01 1.525257080793380737e-01 8.112296462059020996e-01 2.891266047954559326e-01 -7.362214922904968262e-01
4.963000000000000000e+03 4.874739837646484375e+01 -2.699014663696289062e+01 3.134686946868896484e-01 8.194651007652282715e-01 3.398801386356353760e-01 -7.088009715080261230e-01
4.964000000000000000e+03 4.113621139526367188e+01 -1.692661094665527344e+01 4.298487305641174316e-02 2.543438971042633057e-01 8.919862657785415649e-02 -4.448365569114685059e-01
4.965000000000000000e+03 4.449810791015625000e+01 -1.811544609069824219e+01 5.195615887641906738e-01 7.138698697090148926e-01 3.700294494628906250e-01 7.514515519142150879e-02
4.966000000000000000e+03 1.745151329040527344e+01 -2.483317565917968750e+01 1.872173994779586792e-01 -2.331258952617645264e-01 -1.377254910767078400e-02 -3.723373115062713623e-01
4.967000000000000000e+03 1.581537723541259766e+01 -2.389135360717773438e+01 1.461976300925016403e-02 -4.908323884010314941e-01 -1.428637802600860596e-01 -3.872512876987457275e-01
4.968000000000000000e+03 4.378199005126953125e+01 -1.566830825805664062e+01 -4.221800267696380615e-01 4.382930323481559753e-02 -1.135052219033241272e-01 -1.371636092662811279e-01
4.969000000000000000e+03 4.605346679687500000e+01 -1.802792930603027344e+01 6.980834603309631348e-01 1.396061182022094727e+00 6.282433867454528809e-01 4.029155373573303223e-01
4.970000000000000000e+03 2.738823509216308594e+01 7.423213481903076172e+00 3.084383010864257812e-01 4.258163869380950928e-01 2.202764004468917847e-01 1.308436989784240723e-01
4.971000000000000000e+03 5.948598480224609375e+01 1.925529098510742188e+01 2.084872871637344360e-01 4.296183586120605469e+00 1.351401209831237793e+00 3.730486333370208740e-01
4.972000000000000000e+03 7.542582511901855469e+00 2.215355491638183594e+01 -1.459492892026901245e-01 -3.557004928588867188e-01 -1.504949331283569336e-01 1.325183063745498657e-01
4.973000000000000000e+03 3.641448593139648438e+01 -4.756001949310302734e+00 -6.125602722167968750e-01 5.293657183647155762e-01 -2.495835162699222565e-02 -3.813274502754211426e-01
4.974000000000000000e+03 5.800478744506835938e+01 -1.245648479461669922e+01 -2.699091136455535889e-01 2.806817531585693359e+00 7.610725760459899902e-01 2.373104810714721680e+00
4.975000000000000000e+03 5.874123001098632812e+01 -1.141385269165039062e+01 -1.120983660221099854e-01 3.890769720077514648e+00 1.133601427078247070e+00 3.124818801879882812e+00
4.976000000000000000e+03 5.858291244506835938e+01 1.467471981048583984e+01 1.765129327774047852e+00 6.653874874114990234e+00 2.525701284408569336e+00 -6.106626987457275391e-01
4.977000000000000000e+03 5.654485321044921875e+01 1.326901054382324219e+01 1.726474881172180176e+00 5.263830661773681641e+00 2.097091674804687500e+00 -1.218695163726806641e+00
4.978000000000000000e+03 5.888399887084960938e+01 1.338606357574462891e+01 1.583046555519104004e+00 7.473253726959228516e+00 2.716890096664428711e+00 -8.134108185768127441e-01
4.979000000000000000e+03 6.857380676269531250e+01 -1.354484081268310547e+01 3.090127706527709961e-01 1.610050439834594727e+00 5.757189393043518066e-01 -2.128190994262695312e+00
4.980000000000000000e+03 2.244306945800781250e+01 1.471253395080566406e+01 -1.931335180997848511e-01 -1.321947276592254639e-01 -9.759847819805145264e-02 9.915983676910400391e-02
4.981000000000000000e+03 5.109473800659179688e+01 -2.994366264343261719e+01 9.976403117179870605e-01 2.360853195190429688e+00 1.007548093795776367e+00 2.252737432718276978e-01
4.982000000000000000e+03 5.046340560913085938e+01 -3.004730033874511719e+01 8.890603780746459961e-01 2.131496906280517578e+00 9.061672091484069824e-01 -6.450224667787551880e-02
4.983000000000000000e+03 4.168462753295898438e+01 -2.207668495178222656e+01 3.499805629253387451e-01 7.202989459037780762e-01 3.210838437080383301e-01 2.817139402031898499e-02
4.984000000000000000e+03 4.160396194458007812e+01 -2.125006866455078125e+01 3.923626542091369629e-01 6.557021737098693848e-01 3.144194483757019043e-01 -7.942356914281845093e-02
4.985000000000000000e+03 4.906680297851562500e+01 -1.538674068450927734e+01 -3.231038153171539307e-01 9.195481538772583008e-01 1.789332926273345947e-01 6.270908713340759277e-01
4.986000000000000000e+03 5.032911300659179688e+01 -1.465144348144531250e+01 -2.740454971790313721e-01 3.436878323554992676e-01 2.089270204305648804e-02 3.385174572467803955e-01
4.987000000000000000e+03 6.186189651489257812e+01 -1.977396965026855469e+01 1.301944613456726074e+00 6.015334606170654297e+00 2.195183753967285156e+00 -1.221408322453498840e-01
4.988000000000000000e+03 5.683266448974609375e+01 -1.766518974304199219e+01 -4.423163831233978271e-01 3.374500989913940430e+00 8.796553611755371094e-01 9.541474580764770508e-01
4.989000000000000000e+03 5.650648880004882812e+01 7.174180984497070312e+00 -8.735753297805786133e-01 4.614809036254882812e+00 1.122370123863220215e+00 -7.715956568717956543e-01
4.990000000000000000e+03 2.098861503601074219e+01 -2.439250373840332031e+01 1.761248260736465454e-01 1.500543504953384399e-01 9.785375744104385376e-02 -2.097106724977493286e-01
4.991000000000000000e+03 4.727195739746093750e+01 -1.399741744995117188e+01 -1.053326845169067383e+00 1.173375487327575684e+00 3.601457551121711731e-02 2.898728251457214355e-01
4.992000000000000000e+03 4.996729278564453125e+01 4.191585063934326172e+00 -5.846154689788818359e-01 9.473043680191040039e-02 -1.469655036926269531e-01 -2.478289306163787842e-01
4.993000000000000000e+03 1.191739463806152344e+01 -2.882195281982421875e+01 -1.751288026571273804e-01 -4.392004311084747314e-01 -1.842987686395645142e-01 -2.386635392904281616e-01
4.994000000000000000e+03 3.455744171142578125e+01 -6.596505641937255859e+00 -1.069641038775444031e-01 2.324834316968917847e-01 3.765579685568809509e-02 -6.749492883682250977e-01
4.995000000000000000e+03 3.206721496582031250e+01 2.983466339111328125e+01 2.053690105676651001e-01 9.106794744729995728e-02 8.893109112977981567e-02 4.588726907968521118e-02
4.996000000000000000e+03 3.264415359497070312e+01 3.169389915466308594e+01 2.700770795345306396e-01 2.430029809474945068e-01 1.539240181446075439e-01 6.458798795938491821e-02
4.997000000000000000e+03 1.194880867004394531e+01 -2.452086067199707031e+01 -2.142500132322311401e-02 -3.367782831192016602e-01 -1.074609830975532532e-01 -3.235569596290588379e-01
4.998000000000000000e+03 1.068262386322021484e+01 -2.458239364624023438e+01 -1.131593436002731323e-02 -1.748506277799606323e-01 -5.584996938705444336e-02 -2.608880996704101562e-01
4.999000000000000000e+03 3.733637809753417969e+00 2.952478790283203125e+01 -1.530142966657876968e-02 -6.640923619270324707e-01 -2.038181424140930176e-01 2.502485811710357666e-01
5.000000000000000000e+03 4.236412429809570312e+01 -2.239978790283203125e+01 3.849941194057464600e-01 7.615612149238586426e-01 3.439666032791137695e-01 9.942883253097534180e-02
5.001000000000000000e+03 5.277645492553710938e+01 1.950500488281250000e+01 -7.413962483406066895e-02 3.333229303359985352e+00 9.777268767356872559e-01 -1.940494298934936523e+00
5.002000000000000000e+03 3.480418777465820312e+01 1.585944366455078125e+01 3.065495491027832031e-01 -2.127220928668975830e-01 2.814823575317859650e-02 3.237270116806030273e-01
5.003000000000000000e+03 3.538581848144531250e+01 1.372474575042724609e+01 -2.648069858551025391e-01 -4.404133558273315430e-01 -2.115661054849624634e-01 3.179844021797180176e-01
5.004000000000000000e+03 3.125626182556152344e+01 1.445976924896240234e+01 -1.036042273044586182e-01 7.846692800521850586e-01 2.043195217847824097e-01 5.331892371177673340e-01
5.005000000000000000e+03 5.108945465087890625e+01 -1.094923019409179688e+01 -2.816416621208190918e-01 1.892751455307006836e-02 -7.881424576044082642e-02 -1.173321232199668884e-01
5.006000000000000000e+03 6.150262832641601562e+01 -5.067698955535888672e-01 1.361529469490051270e+00 1.019114017486572266e+01 3.465800762176513672e+00 -1.786843776702880859e+00
5.007000000000000000e+03 6.517059326171875000e+01 -4.297933727502822876e-02 1.776339173316955566e+00 6.167389869689941406e+00 2.383118867874145508e+00 1.680653572082519531e+00
5.008000000000000000e+03 4.912202072143554688e+01 -1.100421905517578125e+01 -1.239516586065292358e-01 9.667494893074035645e-01 2.528393566608428955e-01 -2.331938147544860840e-01
5.009000000000000000e+03 4.921041107177734375e+01 -1.266774082183837891e+01 -5.829575061798095703e-01 9.023206233978271484e-01 9.580893814563751221e-02 -6.719476729631423950e-02
5.010000000000000000e+03 1.026288032531738281e+01 -1.009862041473388672e+01 -7.695884257555007935e-02 -6.463234126567840576e-02 -4.247735440731048584e-02 -8.268446475267410278e-02
5.011000000000000000e+03 7.196602630615234375e+01 1.783992004394531250e+01 -1.062394380569458008e+00 7.541309833526611328e+00 1.943674564361572266e+00 -4.922649264335632324e-01
5.012000000000000000e+03 5.428333282470703125e+01 -2.679464912414550781e+01 -1.284969449043273926e-01 4.262047767639160156e+00 1.240065336227416992e+00 1.568920016288757324e+00
5.013000000000000000e+03 4.697514343261718750e+01 -2.476528739929199219e+01 1.412673108279705048e-02 1.058477282524108887e+00 3.217811882495880127e-01 -4.171422421932220459e-01
5.014000000000000000e+03 3.831332397460937500e+01 1.282797241210937500e+01 -2.166621983051300049e-01 -6.925441622734069824e-01 -2.727619111537933350e-01 1.607996374368667603e-01
5.015000000000000000e+03 7.394924163818359375e+00 1.169542884826660156e+01 -1.032751873135566711e-01 -1.741179823875427246e-01 -8.321794867515563965e-02 3.495290577411651611e-01
5.016000000000000000e+03 4.673891067504882812e+01 3.498772048950195312e+01 2.819997966289520264e-01 2.025070905685424805e+00 6.921212077140808105e-01 -6.573482155799865723e-01
5.017000000000000000e+03 6.256039428710937500e+01 5.569887638092041016e+00 -2.894901514053344727e+00 5.355865001678466797e+00 7.382890582084655762e-01 -2.022015094757080078e+00
5.018000000000000000e+03 9.724247932434082031e+00 1.782061386108398438e+01 3.476752340793609619e-01 1.117679700255393982e-01 1.378329694271087646e-01 2.090817987918853760e-01
5.019000000000000000e+03 1.011114692687988281e+01 1.872737884521484375e+01 2.495314180850982666e-01 1.058004200458526611e-01 1.065995469689369202e-01 2.243959307670593262e-01
5.020000000000000000e+03 2.115781211853027344e+01 6.809348106384277344e+00 1.771411001682281494e-01 -1.555709093809127808e-01 6.471056025475263596e-03 1.439806669950485229e-01
5.021000000000000000e+03 6.330884933471679688e+01 5.891218185424804688e+00 -3.135692358016967773e+00 3.947033405303955078e+00 2.434023469686508179e-01 -1.707391142845153809e+00
5.022000000000000000e+03 5.685149765014648438e+01 -1.688192367553710938e+01 -5.229758620262145996e-01 3.169256925582885742e+00 7.938843369483947754e-01 8.905940055847167969e-01
5.023000000000000000e+03 3.352074432373046875e+01 1.749458694458007812e+01 4.481953680515289307e-01 1.798406243324279785e-01 1.884108036756515503e-01 4.533557891845703125e-01
5.024000000000000000e+03 6.480953216552734375e+01 -1.177357959747314453e+01 -1.420206874608993530e-01 7.785840034484863281e+00 2.293145656585693359e+00 -6.798921823501586914e-01
5.025000000000000000e+03 2.326424598693847656e+01 -2.569930458068847656e+01 4.345663189888000488e-01 -5.678234249353408813e-02 1.133351922035217285e-01 -1.410086899995803833e-01
5.026000000000000000e+03 2.362473297119140625e+01 -2.629531097412109375e+01 4.753472506999969482e-01 -6.530944257974624634e-02 1.230113431811332703e-01 -1.664827615022659302e-01
5.027000000000000000e+03 3.406116867065429688e+01 -5.432281494140625000e+00 -2.337052524089813232e-01 9.813535213470458984e-02 -4.067097231745719910e-02 -6.162089109420776367e-01
5.028000000000000000e+03 3.482320404052734375e+01 -5.035017013549804688e+00 -3.578938245773315430e-01 2.842274904251098633e-01 -2.209989540278911591e-02 -5.614125728607177734e-01
5.029000000000000000e+03 1.201981639862060547e+01 -4.273114204406738281e+00 6.981729064136743546e-03 -1.205977890640497208e-02 -1.523414975963532925e-03 -3.598888218402862549e-02
5.030000000000000000e+03 4.382483673095703125e+01 -2.529431343078613281e+01 3.744783997535705566e-01 7.040711641311645508e-01 3.235648572444915771e-01 8.578858524560928345e-02
5.031000000000000000e+03 6.383946990966796875e+01 -1.445098304748535156e+01 -2.453066825866699219e+00 7.893307209014892578e+00 1.632072091102600098e+00 6.703650951385498047e-01
5.032000000000000000e+03 6.248821640014648438e+01 -8.817062377929687500e+00 2.574523687362670898e+00 1.219267082214355469e+01 4.430158138275146484e+00 3.927617967128753662e-01
5.033000000000000000e+03 5.838818740844726562e+01 -2.528353309631347656e+01 -1.561351567506790161e-01 3.767468690872192383e+00 1.083400130271911621e+00 2.216369390487670898e+00
5.034000000000000000e+03 5.710446929931640625e+01 -2.647274971008300781e+01 -5.738193988800048828e-01 5.157679557800292969e+00 1.375157952308654785e+00 1.781771898269653320e+00
5.035000000000000000e+03 6.648020935058593750e+01 -2.910431671142578125e+01 8.894544243812561035e-01 6.394684791564941406e+00 2.185241937637329102e+00 -1.860553860664367676e+00
5.036000000000000000e+03 6.794272613525390625e+01 -2.982410049438476562e+01 1.731298446655273438e+00 4.022665977478027344e+00 1.726189255714416504e+00 -1.334465503692626953e+00
5.037000000000000000e+03 4.466802597045898438e+01 7.766541481018066406e+00 -7.562446594238281250e-02 7.871161103248596191e-01 2.134474962949752808e-01 2.684047678485512733e-03
5.038000000000000000e+03 6.622830200195312500e+01 -1.279523372650146484e+01 -9.435749799013137817e-02 4.979557037353515625e+00 1.465559840202331543e+00 -8.762728571891784668e-01
5.039000000000000000e+03 6.670439147949218750e+01 -1.362690258026123047e+01 -5.372081398963928223e-01 3.607863426208496094e+00 9.211965799331665039e-01 -7.107318043708801270e-01
5.040000000000000000e+03 4.712181091308593750e+01 2.302699089050292969e+01 4.138249456882476807e-01 1.488120198249816895e+00 5.705835819244384766e-01 6.720418483018875122e-02
5.041000000000000000e+03 4.633429336547851562e+01 -1.660590934753417969e+01 1.068438813090324402e-01 1.240887284278869629e+00 4.043193757534027100e-01 3.173781633377075195e-01
5.042000000000000000e+03 2.342457771301269531e+01 -1.596985721588134766e+01 -6.709367036819458008e-01 -3.958885967731475830e-01 -3.200475871562957764e-01 -3.948020339012145996e-01
5.043000000000000000e+03 4.491925811767578125e+01 -1.907330322265625000e+01 6.682587862014770508e-01 1.064290881156921387e+00 5.197649002075195312e-01 2.289582043886184692e-01
5.044000000000000000e+03 6.846401977539062500e+01 2.143510818481445312e+01 -2.031708478927612305e+00 2.027163743972778320e+00 -1.363380695693194866e-03 -1.176821827888488770e+00
5.045000000000000000e+03 6.989891815185546875e+01 2.059220695495605469e+01 -2.117395877838134766e+00 3.692994117736816406e+00 4.726794660091400146e-01 -1.138931989669799805e+00
5.046000000000000000e+03 3.484481811523437500e+01 -8.223518371582031250e+00 1.403069794178009033e-01 3.241907060146331787e-01 1.393493115901947021e-01 -5.389575958251953125e-01
5.047000000000000000e+03 3.452918243408203125e+01 -7.579316616058349609e+00 3.404963389039039612e-02 2.501300871372222900e-01 8.525391668081283569e-02 -6.359624266624450684e-01
5.048000000000000000e+03 3.253060531616210938e+01 -7.798255920410156250e+00 -1.453456878662109375e-01 -3.731051087379455566e-01 -1.555352360010147095e-01 -5.865380167961120605e-01
5.049000000000000000e+03 4.782353210449218750e+01 2.782330131530761719e+01 6.586995720863342285e-01 2.513487100601196289e+00 9.516559839248657227e-01 -4.120902717113494873e-01
5.050000000000000000e+03 5.537284851074218750e+01 -1.212020492553710938e+01 -7.117263227701187134e-02 -2.579771280288696289e-01 -9.874493628740310669e-02 6.046994328498840332e-01
5.051000000000000000e+03 7.499859619140625000e+01 -1.577745676040649414e+00 -5.998892188072204590e-01 6.856877803802490234e+00 1.877096533775329590e+00 -7.314929366111755371e-01
5.052000000000000000e+03 7.549207305908203125e+01 -2.249123096466064453e+00 -5.345296859741210938e-01 7.823266983032226562e+00 2.186621189117431641e+00 -4.522976577281951904e-01
5.053000000000000000e+03 6.474606323242187500e+01 -1.634322881698608398e+00 2.729988574981689453e+00 7.940417766571044922e+00 3.201122045516967773e+00 1.838579058647155762e+00
5.054000000000000000e+03 1.382181358337402344e+01 -8.419105529785156250e+00 -7.229699194431304932e-02 5.962612107396125793e-02 -3.801261773332953453e-03 -1.833117753267288208e-02
5.055000000000000000e+03 1.475664520263671875e+01 -1.257134342193603516e+01 -1.361187398433685303e-01 2.475572079420089722e-01 3.343154117465019226e-02 -3.444357216358184814e-02
5.056000000000000000e+03 5.017753982543945312e+01 -6.230298042297363281e+00 -6.278328895568847656e-01 1.318832486867904663e-01 -1.487848907709121704e-01 7.775737047195434570e-01
5.057000000000000000e+03 3.171214103698730469e+01 -6.502827167510986328e+00 -1.024063155055046082e-01 -5.454177856445312500e-01 -1.943472176790237427e-01 -5.577593445777893066e-01
5.058000000000000000e+03 3.231668853759765625e+01 -7.012824535369873047e+00 -1.128292977809906006e-01 -3.968799710273742676e-01 -1.529127806425094604e-01 -6.005809307098388672e-01
5.059000000000000000e+03 4.067722797393798828e+00 3.039004516601562500e+01 4.522762820124626160e-02 -6.392432451248168945e-01 -1.782046854496002197e-01 2.338468134403228760e-01
5.060000000000000000e+03 4.570556163787841797e+00 -2.296208000183105469e+01 1.305255293846130371e-01 -9.164477884769439697e-02 1.166422665119171143e-02 -2.875180728733539581e-02
5.061000000000000000e+03 4.761276721954345703e+00 -2.402014350891113281e+01 8.641208708286285400e-02 -7.019285112619400024e-02 4.865770693868398666e-03 -6.326553411781787872e-03
5.062000000000000000e+03 1.948436927795410156e+01 2.175346374511718750e+01 1.573300510644912720e-01 3.362777456641197205e-02 5.728734657168388367e-02 7.871139794588088989e-02
5.063000000000000000e+03 4.966982269287109375e+01 -8.428334236145019531e+00 -1.998610645532608032e-01 5.587595105171203613e-01 1.076695248484611511e-01 2.681736946105957031e-01
5.064000000000000000e+03 4.840127563476562500e+01 4.222006320953369141e+00 -6.616840958595275879e-01 3.204712271690368652e-01 -1.023638546466827393e-01 -1.536026895046234131e-01
5.065000000000000000e+03 7.323416900634765625e+01 -1.567068481445312500e+01 -3.927118778228759766e-01 4.864494323730468750e+00 1.341534733772277832e+00 -7.508997321128845215e-01
5.066000000000000000e+03 7.406425476074218750e+01 -1.723565864562988281e+01 -1.451285630464553833e-01 7.196767807006835938e+00 2.115491867065429688e+00 -2.959465980529785156e-01
5.067000000000000000e+03 3.213712310791015625e+01 -8.388621330261230469e+00 -2.628915309906005859e-01 -4.912741482257843018e-01 -2.262497097253799438e-01 -5.094913244247436523e-01
5.068000000000000000e+03 5.861685562133789062e+01 1.283775138854980469e+01 1.702453732490539551e+00 7.095190048217773438e+00 2.639293193817138672e+00 -1.090253233909606934e+00
5.069000000000000000e+03 3.380664062500000000e+01 2.156396293640136719e+01 4.761628806591033936e-03 1.814927458763122559e-01 5.587631091475486755e-02 2.716631591320037842e-01
5.070000000000000000e+03 1.001261043548583984e+01 -2.468806266784667969e+01 4.724219033960253000e-04 -9.827427566051483154e-02 -2.934055589139461517e-02 -2.189047485589981079e-01
5.071000000000000000e+03 6.478607177734375000e+01 2.236944770812988281e+01 -1.251337289810180664e+00 2.225957393646240234e+00 2.923860549926757812e-01 1.680774092674255371e+00
5.072000000000000000e+03 6.523799133300781250e+01 2.363227653503417969e+01 8.275439962744712830e-03 2.625119924545288086e+00 7.900186181068420410e-01 8.041880130767822266e-01
5.073000000000000000e+03 4.885760879516601562e+01 5.108966827392578125e+00 -4.208652675151824951e-01 3.350789248943328857e-01 -2.573590166866779327e-02 -1.972311139106750488e-01
5.074000000000000000e+03 4.747436523437500000e+01 4.638350963592529297e+00 -5.904210209846496582e-01 4.277386665344238281e-01 -4.880471527576446533e-02 -1.005028411746025085e-01
5.075000000000000000e+03 1.304961585998535156e+01 -9.769054412841796875e+00 -1.135864779353141785e-01 6.816391646862030029e-02 -1.362677011638879776e-02 -4.952520504593849182e-02
5.076000000000000000e+03 5.018778228759765625e+01 -2.931271171569824219e+01 8.456628322601318359e-01 1.695626497268676758e+00 7.623867988586425781e-01 -2.217991650104522705e-01
5.077000000000000000e+03 1.450591087341308594e+01 -2.505746269226074219e+01 7.965455949306488037e-02 -5.637817382812500000e-01 -1.452381461858749390e-01 -3.614414036273956299e-01
5.078000000000000000e+03 1.612387084960937500e+01 2.187003898620605469e+01 3.766516149044036865e-01 2.558729648590087891e-01 1.897573769092559814e-01 4.117648899555206299e-01
5.079000000000000000e+03 2.725529670715332031e+01 -3.565960311889648438e+01 8.116791397333145142e-02 -1.809512227773666382e-01 -2.993499301373958588e-02 4.999847710132598877e-02
5.080000000000000000e+03 2.920096778869628906e+01 -3.043089485168457031e+01 3.093709051609039307e-01 2.852765144780278206e-03 9.366709738969802856e-02 -1.999269127845764160e-01
5.081000000000000000e+03 5.485914993286132812e+01 -3.662815856933593750e+01 -1.681795120239257812e-01 4.430339336395263672e+00 1.278648018836975098e+00 5.419675111770629883e-01
5.082000000000000000e+03 5.688962173461914062e+01 -1.840735054016113281e+01 -2.219682782888412476e-01 3.570053100585937500e+00 1.004425406455993652e+00 1.087655425071716309e+00
5.083000000000000000e+03 6.012648773193359375e+01 2.052343368530273438e+01 -1.033259153366088867e+00 3.731398344039916992e+00 8.094417452812194824e-01 1.269484758377075195e+00
5.084000000000000000e+03 1.085621833801269531e+01 -3.275494003295898438e+01 -1.630464643239974976e-01 -3.659150600433349609e-01 -1.586884558200836182e-01 -2.650462090969085693e-01
5.085000000000000000e+03 8.919350624084472656e+00 8.532912254333496094e+00 -3.788411617279052734e-01 -2.750042378902435303e-01 -1.961536258459091187e-01 2.328756898641586304e-01
5.086000000000000000e+03 9.102217674255371094e+00 5.475738525390625000e+00 -2.693183422088623047e-01 -1.418332159519195557e-01 -1.233454719185829163e-01 8.430763334035873413e-02
5.087000000000000000e+03 6.594428253173828125e+01 3.696151733398437500e+01 -2.186262309551239014e-01 3.763794422149658203e+00 1.063550472259521484e+00 -6.776553392410278320e-02
5.088000000000000000e+03 4.504285335540771484e+00 -1.490156269073486328e+01 -9.030178189277648926e-02 -1.565389335155487061e-01 -7.405221462249755859e-02 -7.594604045152664185e-02
5.089000000000000000e+03 1.289299488067626953e+01 2.124203300476074219e+01 8.020897954702377319e-02 1.930404007434844971e-01 8.197481185197830200e-02 4.674966335296630859e-01
5.090000000000000000e+03 5.775764083862304688e+01 -1.972630119323730469e+01 6.456454396247863770e-01 4.031938552856445312e+00 1.403275251388549805e+00 1.526297807693481445e+00
5.091000000000000000e+03 4.560840606689453125e+01 3.509272384643554688e+01 3.376129567623138428e-01 1.781835436820983887e+00 6.358345150947570801e-01 -6.610770225524902344e-01
5.092000000000000000e+03 4.260366058349609375e+01 1.630175781250000000e+01 4.536173120141029358e-02 6.241645216941833496e-01 2.008578777313232422e-01 -1.920773535966873169e-01
5.093000000000000000e+03 4.361965179443359375e+01 1.698098564147949219e+01 -9.127911180257797241e-02 7.963510155677795410e-01 2.115215659141540527e-01 -7.865040749311447144e-02
5.094000000000000000e+03 4.944847488403320312e+01 -2.683073616027832031e+01 2.913049757480621338e-01 8.036650419235229492e-01 3.284910023212432861e-01 -6.708406805992126465e-01
5.095000000000000000e+03 4.849756622314453125e+01 -2.760785865783691406e+01 4.831510782241821289e-01 8.757668733596801758e-01 4.076753854751586914e-01 -7.239536643028259277e-01
5.096000000000000000e+03 5.985573959350585938e+01 1.985622215270996094e+01 -3.327400088310241699e-01 4.117268085479736328e+00 1.135358452796936035e+00 7.561631798744201660e-01
5.097000000000000000e+03 7.273697662353515625e+01 -1.460586357116699219e+01 -3.768875896930694580e-01 3.331993341445922852e+00 8.865317702293395996e-01 -8.533045649528503418e-01
5.098000000000000000e+03 7.174253082275390625e+01 -1.408639907836914062e+01 -1.543239951133728027e-01 1.543740391731262207e+00 4.168249070644378662e-01 -1.718600749969482422e+00
5.099000000000000000e+03 1.518390464782714844e+01 -2.536701774597167969e+01 1.144726499915122986e-01 -5.479388833045959473e-01 -1.300398707389831543e-01 -3.575245738029479980e-01
5.100000000000000000e+03 5.788442611694335938e+01 3.889922857284545898e+00 -1.373008847236633301e+00 4.962890625000000000e+00 1.076964497566223145e+00 -2.300659656524658203e+00
5.101000000000000000e+03 1.602272415161132812e+01 -1.127758216857910156e+01 -1.725862622261047363e-01 1.455068886280059814e-01 -8.123813197016716003e-03 5.261793360114097595e-02
5.102000000000000000e+03 1.616389656066894531e+01 -1.273660755157470703e+01 -1.601205617189407349e-01 1.854974031448364258e-01 7.613052614033222198e-03 3.776622563600540161e-02
5.103000000000000000e+03 5.091051101684570312e+01 3.174199104309082031e+01 6.590821146965026855e-01 3.452746152877807617e+00 1.233548521995544434e+00 -4.944359958171844482e-01
5.104000000000000000e+03 1.766888618469238281e+01 -1.948630142211914062e+01 -3.772929906845092773e-01 -1.159277781844139099e-01 -1.479662358760833740e-01 -5.757097601890563965e-01
5.105000000000000000e+03 2.093888092041015625e+01 -1.622401809692382812e+01 -4.853609502315521240e-01 -2.001968175172805786e-01 -2.056673318147659302e-01 -4.111888408660888672e-01
5.106000000000000000e+03 4.224020767211914062e+01 1.540858268737792969e+01 1.147108227014541626e-01 5.275369286537170410e-01 1.926743239164352417e-01 -2.656969726085662842e-01
5.107000000000000000e+03 5.740174865722656250e+01 9.910351753234863281e+00 5.134732127189636230e-01 5.685402870178222656e+00 1.859662890434265137e+00 -5.456312894821166992e-01
5.108000000000000000e+03 5.671899032592773438e+01 8.530545234680175781e+00 -3.255698382854461670e-01 5.041887283325195312e+00 1.414895176887512207e+00 -5.676336288452148438e-01
5.109000000000000000e+03 5.374538803100585938e+01 4.246731758117675781e+00 -4.639941751956939697e-01 7.771313786506652832e-01 9.394115954637527466e-02 -3.988812863826751709e-01
5.110000000000000000e+03 5.444330215454101562e+01 4.074526786804199219e+00 -5.203751921653747559e-01 1.238931655883789062e+00 2.155669480562210083e-01 -5.774298906326293945e-01
5.111000000000000000e+03 6.237165069580078125e+01 -2.063059043884277344e+01 1.901309013366699219e+00 6.316853523254394531e+00 2.465448856353759766e+00 -3.846540749073028564e-01
5.112000000000000000e+03 7.249106597900390625e+01 1.747785758972167969e+01 -8.810585737228393555e-01 8.187636375427246094e+00 2.191973447799682617e+00 -1.473657190799713135e-01
5.113000000000000000e+03 4.405118942260742188e+00 3.116135787963867188e+01 9.371760487556457520e-02 -5.821415781974792480e-01 -1.465271860361099243e-01 2.108153551816940308e-01
5.114000000000000000e+03 5.960294723510742188e+01 1.826277351379394531e+01 9.832306504249572754e-01 5.073115348815917969e+00 1.816903710365295410e+00 3.793243467807769775e-01
5.115000000000000000e+03 2.873943138122558594e+01 -1.673767471313476562e+01 -2.473223060369491577e-01 -3.447090983390808105e-01 -1.776094138622283936e-01 -1.810830384492874146e-01
5.116000000000000000e+03 6.500494956970214844e+00 2.206432342529296875e+01 -8.331735432147979736e-02 -4.303366541862487793e-01 -1.540962010622024536e-01 8.890967816114425659e-02
5.117000000000000000e+03 5.214002132415771484e+00 2.399565315246582031e+01 -1.434137672185897827e-01 -6.094791293144226074e-01 -2.258678674697875977e-01 1.048194095492362976e-01
5.118000000000000000e+03 3.672600507736206055e+00 2.799035453796386719e+01 -1.055187359452247620e-01 -6.657080054283142090e-01 -2.313680201768875122e-01 2.294651269912719727e-01
5.119000000000000000e+03 2.297726440429687500e+01 3.038446998596191406e+01 1.707811839878559113e-02 2.724692225456237793e-01 8.686420321464538574e-02 1.578619927167892456e-01
5.120000000000000000e+03 2.346379852294921875e+01 2.980157852172851562e+01 1.815174072980880737e-01 4.575685560703277588e-01 1.917257905006408691e-01 2.432829737663269043e-01
5.121000000000000000e+03 2.332494354248046875e+01 3.187430763244628906e+01 -1.556074898689985275e-02 2.390217781066894531e-01 6.703831255435943604e-02 1.208534762263298035e-01
5.122000000000000000e+03 5.356832122802734375e+01 2.281886863708496094e+01 -1.271898508071899414e+00 4.143610000610351562e+00 8.615134954452514648e-01 -1.440326213836669922e+00
5.123000000000000000e+03 4.774212265014648438e+01 -2.626996421813964844e+01 1.617616564035415649e-01 8.536881208419799805e-01 3.046349287033081055e-01 -6.890638470649719238e-01
5.124000000000000000e+03 4.743352127075195312e+01 -2.570232200622558594e+01 2.273863926529884338e-02 9.877493381500244141e-01 3.031463921070098877e-01 -6.108166575431823730e-01
5.125000000000000000e+03 6.436978149414062500e+01 -2.530113983154296875e+01 -1.479604721069335938e+00 6.552649974822998047e+00 1.521913528442382812e+00 -1.820356488227844238e+00
5.126000000000000000e+03 1.538689804077148438e+01 -4.988971710205078125e+00 1.924002170562744141e-02 3.576652333140373230e-02 1.650196313858032227e-02 -1.224611792713403702e-02
5.127000000000000000e+03 1.324515247344970703e+01 -6.081986904144287109e+00 -1.949256286025047302e-02 7.653383072465658188e-03 -3.551753936335444450e-03 -3.275309130549430847e-02
5.128000000000000000e+03 7.015876770019531250e+01 -3.181395149230957031e+01 1.594609737396240234e+00 3.905268430709838867e+00 1.649963498115539551e+00 -4.736137986183166504e-01
5.129000000000000000e+03 7.734236907958984375e+01 3.903073501586914062e+01 2.530618570744991302e-02 7.175875663757324219e+00 2.160354614257812500e+00 2.190657705068588257e-02
5.130000000000000000e+03 1.779866218566894531e+01 5.329773426055908203e+00 -2.506581842899322510e-01 1.480523645877838135e-01 -3.078174218535423279e-02 3.056100904941558838e-01
5.131000000000000000e+03 1.730246925354003906e+01 2.295269966125488281e+01 6.473806500434875488e-01 3.241010010242462158e-01 2.914445102214813232e-01 3.713144361972808838e-01
5.132000000000000000e+03 1.873267936706542969e+01 2.038113594055175781e+01 -5.128829926252365112e-02 -1.119604613631963730e-02 -1.874530315399169922e-02 8.233524858951568604e-02
5.133000000000000000e+03 1.943422698974609375e+01 2.055616378784179688e+01 -1.567240245640277863e-02 -3.033061511814594269e-02 -1.380090508610010147e-02 2.927714213728904724e-02
5.134000000000000000e+03 7.611961364746093750e+01 7.457808852195739746e-01 -4.753644466400146484e-01 7.071976184844970703e+00 1.978983521461486816e+00 -3.180536031723022461e-01
5.135000000000000000e+03 7.700408935546875000e+01 3.016459226608276367e+00 -2.481957674026489258e-01 7.344084262847900391e+00 2.128766536712646484e+00 -4.332935214042663574e-01
5.136000000000000000e+03 6.349832153320312500e+01 2.239535713195800781e+01 -1.773516654968261719e+00 3.601006269454956055e+00 5.482468605041503906e-01 2.358257055282592773e+00
5.137000000000000000e+03 6.343531036376953125e+01 2.177725219726562500e+01 -2.278947830200195312e+00 3.419939279556274414e+00 3.422974348068237305e-01 2.704720258712768555e+00
5.138000000000000000e+03 3.911385726928710938e+01 1.297174358367919922e+01 -5.080885440111160278e-02 -5.334509611129760742e-01 -1.752779483795166016e-01 3.243168350309133530e-03
5.139000000000000000e+03 9.227723121643066406e+00 -4.454171657562255859e+00 1.018560864031314850e-02 -2.998505160212516785e-02 -5.939832888543605804e-03 -2.263653092086315155e-02
5.140000000000000000e+03 9.916483879089355469e+00 -4.516637802124023438e+00 6.335583981126546860e-03 -3.099630959331989288e-02 -7.398217450827360153e-03 -2.846424281597137451e-02
5.141000000000000000e+03 1.120347309112548828e+01 -3.200773620605468750e+01 -2.042259275913238525e-01 -4.162515699863433838e-01 -1.861432492733001709e-01 -2.515383660793304443e-01
5.142000000000000000e+03 5.116417312622070312e+01 -3.378247070312500000e+01 1.155831217765808105e+00 3.456397533416748047e+00 1.383668661117553711e+00 1.193452954292297363e+00
5.143000000000000000e+03 1.996422004699707031e+01 2.223781394958496094e+01 2.279499173164367676e-01 1.225039269775152206e-02 7.206009328365325928e-02 9.677708148956298828e-02
5.144000000000000000e+03 2.757779312133789062e+01 1.336734771728515625e+01 -3.174194321036338806e-02 1.491684466600418091e-01 3.522795066237449646e-02 2.592929303646087646e-01
5.145000000000000000e+03 2.690638923645019531e+01 1.282612323760986328e+01 3.846405819058418274e-02 1.081258580088615417e-01 4.397697374224662781e-02 1.825268417596817017e-01
5.146000000000000000e+03 2.270008468627929688e+01 1.208569622039794922e+01 7.589937001466751099e-02 -1.439702510833740234e-01 -2.042126283049583435e-02 1.020342260599136353e-01
5.147000000000000000e+03 2.219125175476074219e+01 1.059356212615966797e+01 2.103358358144760132e-01 -1.561861485242843628e-01 1.624490693211555481e-02 1.538018882274627686e-01
5.148000000000000000e+03 5.602133178710937500e+01 1.851148605346679688e+01 6.736249923706054688e-01 3.562113285064697266e+00 1.270721435546875000e+00 -1.714494347572326660e+00
5.149000000000000000e+03 1.153561305999755859e+01 -2.792503547668457031e+01 -1.220457181334495544e-01 -3.832976818084716797e-01 -1.516030132770538330e-01 -2.375989109277725220e-01
5.150000000000000000e+03 4.577652359008789062e+01 -2.387895011901855469e+01 1.776419132947921753e-01 1.191675901412963867e+00 4.107953310012817383e-01 -1.066732108592987061e-01
5.151000000000000000e+03 4.549385833740234375e+01 -2.448711585998535156e+01 2.253953516483306885e-01 1.030900239944458008e+00 3.768886625766754150e-01 -1.351780295372009277e-01
5.152000000000000000e+03 4.157996749877929688e+01 1.968514823913574219e+01 2.299866825342178345e-01 3.111317753791809082e-01 1.623355448246002197e-01 1.408008933067321777e-01
5.153000000000000000e+03 4.098375320434570312e+01 1.943258476257324219e+01 2.509922087192535400e-01 2.208644002676010132e-01 1.415569782257080078e-01 1.113393902778625488e-01
5.154000000000000000e+03 3.292427444458007812e+01 2.948134422302246094e+01 1.610033363103866577e-01 2.641803622245788574e-01 1.275551021099090576e-01 5.293377675116062164e-03
5.155000000000000000e+03 5.514606094360351562e+01 1.730122756958007812e+01 1.226469278335571289e+00 3.794380187988281250e+00 1.506254792213439941e+00 -1.810356497764587402e+00
5.156000000000000000e+03 5.904638290405273438e+01 1.769882202148437500e+01 1.315516829490661621e+00 5.076055526733398438e+00 1.917471647262573242e+00 4.298420622944831848e-02
5.157000000000000000e+03 3.943993330001831055e+00 -1.594878005981445312e+01 -9.268500655889511108e-02 -1.323092728853225708e-01 -6.749828159809112549e-02 -8.855653554201126099e-02
5.158000000000000000e+03 5.407939529418945312e+01 -1.307366752624511719e+01 5.737081170082092285e-02 -2.021145969629287720e-01 -4.342313855886459351e-02 2.108867317438125610e-01
5.159000000000000000e+03 5.372237777709960938e+01 -1.426490688323974609e+01 9.375536441802978516e-02 -8.260212093591690063e-02 3.345972159877419472e-03 1.945400834083557129e-01
5.160000000000000000e+03 1.409216022491455078e+01 -3.811188697814941406e+00 5.453564226627349854e-03 3.968647215515375137e-03 2.826663432642817497e-03 -2.989496104419231415e-02
5.161000000000000000e+03 6.523204040527343750e+01 -1.118168115615844727e+00 2.507923126220703125e+00 6.882859706878662109e+00 2.817234754562377930e+00 2.032093048095703125e+00
5.162000000000000000e+03 6.299574851989746094e+00 -3.025659751892089844e+01 -1.242044195532798767e-01 -1.769410371780395508e-01 -9.034363925457000732e-02 -1.341026425361633301e-01
5.163000000000000000e+03 2.342728805541992188e+01 1.293067264556884766e+01 -6.562157534062862396e-03 -1.283733397722244263e-01 -4.048064723610877991e-02 7.307749986648559570e-02
5.164000000000000000e+03 1.911579513549804688e+01 1.923526000976562500e+01 -2.338377535343170166e-01 -7.963794469833374023e-02 -9.404271095991134644e-02 6.119160354137420654e-02
5.165000000000000000e+03 2.152454948425292969e+01 3.252417373657226562e+01 -4.097077995538711548e-02 -1.116466522216796875e-01 -4.578522965312004089e-02 1.092798821628093719e-02
5.166000000000000000e+03 4.904222488403320312e+00 3.251795959472656250e+01 1.798049509525299072e-01 -4.807749688625335693e-01 -9.029100835323333740e-02 1.590693891048431396e-01
5.167000000000000000e+03 2.915847396850585938e+01 -1.600498580932617188e+01 -3.805379271507263184e-01 -3.342115581035614014e-01 -2.144248485565185547e-01 -2.093683779239654541e-01
5.168000000000000000e+03 2.719332313537597656e+01 -1.431064319610595703e+01 -8.845176696777343750e-01 -5.846388936042785645e-01 -4.407469630241394043e-01 -4.694131314754486084e-01
5.169000000000000000e+03 4.020010757446289062e+01 1.123728370666503906e+01 -2.009814977645874023e-01 -4.860692024230957031e-01 -2.061152160167694092e-01 1.314472705125808716e-01
5.170000000000000000e+03 4.184297943115234375e+01 1.288280677795410156e+01 1.886444985866546631e-01 3.320135474205017090e-01 1.561974138021469116e-01 -2.489203959703445435e-01
5.171000000000000000e+03 6.923495483398437500e+01 -3.355444717407226562e+01 1.230633258819580078e+00 4.762619972229003906e+00 1.797976016998291016e+00 -1.028752088546752930e+00
5.172000000000000000e+03 7.679211425781250000e+01 -1.643835258483886719e+01 -3.065138161182403564e-01 8.094614982604980469e+00 2.336430311203002930e+00 1.001986265182495117e+00
5.173000000000000000e+03 5.790164184570312500e+01 -2.145221710205078125e+01 1.393511533737182617e+00 3.830182075500488281e+00 1.567108154296875000e+00 1.957728862762451172e+00
5.174000000000000000e+03 1.965540885925292969e+01 1.933609962463378906e+01 -1.895945221185684204e-01 -9.419317543506622314e-02 -8.513630926609039307e-02 2.792585082352161407e-02
5.175000000000000000e+03 1.412700557708740234e+01 -2.660926246643066406e+01 2.272811718285083771e-02 -5.621116757392883301e-01 -1.618150621652603149e-01 -3.012729585170745850e-01
5.176000000000000000e+03 1.295393848419189453e+01 -2.543262481689453125e+01 3.069413639605045319e-02 -4.822610914707183838e-01 -1.354700922966003418e-01 -3.395869135856628418e-01
5.177000000000000000e+03 4.410807037353515625e+01 8.379055023193359375e+00 -2.499541640281677246e-02 8.031072616577148438e-01 2.334335595369338989e-01 6.891071796417236328e-02
5.178000000000000000e+03 4.219430923461914062e+01 5.365910053253173828e+00 -3.680188655853271484e-01 -2.685372233390808105e-01 -1.909668296575546265e-01 3.829537034034729004e-01
5.179000000000000000e+03 6.276796340942382812e+00 1.203669738769531250e+01 -4.979230090975761414e-02 -1.683198362588882446e-01 -6.543364375829696655e-02 3.345453739166259766e-01
5.180000000000000000e+03 9.859190940856933594e+00 2.089968490600585938e+01 8.030187338590621948e-03 -7.851678878068923950e-02 -2.114598080515861511e-02 2.243072986602783203e-01
5.181000000000000000e+03 2.642618370056152344e+01 -1.472458553314208984e+01 -8.514125943183898926e-01 -5.561298131942749023e-01 -4.222627282142639160e-01 -4.536771774291992188e-01
5.182000000000000000e+03 3.622776794433593750e+01 -3.044352912902832031e+01 5.126969814300537109e-01 4.037803113460540771e-01 2.749432027339935303e-01 -9.992913110181689262e-04
5.183000000000000000e+03 3.384124755859375000e+01 2.252077293395996094e+01 -8.687508106231689453e-02 2.015488594770431519e-01 3.440213575959205627e-02 2.579027116298675537e-01
5.184000000000000000e+03 1.932109260559082031e+01 2.307617759704589844e+01 4.394477903842926025e-01 1.062472686171531677e-01 1.637085229158401489e-01 1.990960389375686646e-01
5.185000000000000000e+03 3.052082061767578125e+01 -1.417669105529785156e+01 -6.756567955017089844e-01 -2.867652177810668945e-01 -2.887265980243682861e-01 -1.035782918334007263e-01
5.186000000000000000e+03 6.883274841308593750e+01 4.405616283416748047e+00 -4.364129006862640381e-01 2.639146089553833008e+00 6.608199477195739746e-01 2.982720851898193359e+00
5.187000000000000000e+03 2.852360343933105469e+01 -1.515090942382812500e+01 -5.753344297409057617e-01 -4.545218348503112793e-01 -3.089568912982940674e-01 -2.876390516757965088e-01
5.188000000000000000e+03 2.963293075561523438e+01 -1.448184680938720703e+01 -6.425927877426147461e-01 -3.852105140686035156e-01 -3.083409965038299561e-01 -1.961251348257064819e-01
5.189000000000000000e+03 5.421841430664062500e+01 -3.190408897399902344e+01 1.559500336647033691e+00 5.103445529937744141e+00 1.998883724212646484e+00 1.187536597251892090e+00
5.190000000000000000e+03 5.453049468994140625e+01 2.220622444152832031e+01 -1.462111115455627441e+00 3.715383768081665039e+00 6.759818196296691895e-01 -1.853900432586669922e+00
5.191000000000000000e+03 4.794354629516601562e+01 2.626240348815917969e+01 5.702251791954040527e-01 2.401437044143676758e+00 8.914986848831176758e-01 -1.388770788908004761e-01
5.192000000000000000e+03 4.796435546875000000e+01 2.553542327880859375e+01 5.547666549682617188e-01 2.291490793228149414e+00 8.538772463798522949e-01 -8.047761768102645874e-02
5.193000000000000000e+03 6.165591812133789062e+01 2.254483985900878906e+01 -2.223324775695800781e+00 3.890126466751098633e+00 5.000404715538024902e-01 2.563037157058715820e+00
5.194000000000000000e+03 6.121104049682617188e+01 2.204332733154296875e+01 -2.312835454940795898e+00 3.881110668182373047e+00 4.704825878143310547e-01 2.463065147399902344e+00
5.195000000000000000e+03 1.595409965515136719e+01 -1.334484386444091797e+01 -1.324983835220336914e-01 2.263801544904708862e-01 2.816453017294406891e-02 1.903821015730500221e-03
5.196000000000000000e+03 1.657737159729003906e+01 -1.355164146423339844e+01 -1.380016654729843140e-01 1.848708540201187134e-01 1.406075619161128998e-02 1.585744507610797882e-02
5.197000000000000000e+03 3.808716964721679688e+01 1.332775306701660156e+01 -1.114553660154342651e-01 -6.608804464340209961e-01 -2.317007482051849365e-01 1.201657652854919434e-01
5.198000000000000000e+03 5.178144073486328125e+01 3.142963218688964844e+01 7.268719673156738281e-01 3.919923543930053711e+00 1.394038677215576172e+00 -3.321389555931091309e-01
5.199000000000000000e+03 5.197950363159179688e+01 3.225888442993164062e+01 5.470345616340637207e-01 3.754560470581054688e+00 1.290478467941284180e+00 -2.689388096332550049e-01
5.200000000000000000e+03 5.014548110961914062e+01 -9.679999351501464844e+00 -1.725843399763107300e-01 3.546631336212158203e-01 5.462364479899406433e-02 -1.721845753490924835e-02
5.201000000000000000e+03 3.771228408813476562e+01 -3.044579315185546875e+01 4.883639812469482422e-01 7.026318907737731934e-01 3.572987616062164307e-01 2.100794166326522827e-01
5.202000000000000000e+03 7.685738372802734375e+01 -1.721119761466979980e+00 -4.330144226551055908e-01 8.026717185974121094e+00 2.278110980987548828e+00 2.370887696743011475e-01
5.203000000000000000e+03 3.355717086791992188e+01 3.355554962158203125e+01 3.110873699188232422e-01 3.070488274097442627e-01 1.854408681392669678e-01 1.072689667344093323e-01
5.204000000000000000e+03 3.144589233398437500e+01 3.529647064208984375e+01 3.488596677780151367e-01 1.829383820295333862e-01 1.595394164323806763e-01 1.168948635458946228e-01
5.205000000000000000e+03 6.461576843261718750e+01 -1.039844894409179688e+01 1.034001469612121582e+00 9.271912574768066406e+00 3.091774225234985352e+00 -1.222049832344055176e+00
5.206000000000000000e+03 6.144731521606445312e+01 -1.065240859985351562e+01 -2.593110799789428711e-01 1.040719985961914062e+01 3.044366598129272461e+00 1.707566618919372559e+00
5.207000000000000000e+03 9.250187873840332031e+00 -3.465589141845703125e+01 -3.553389757871627808e-02 -3.037823736667633057e-01 -1.017948761582374573e-01 -2.809449136257171631e-01
5.208000000000000000e+03 5.825726318359375000e+01 -1.928752136230468750e+01 4.848506748676300049e-01 4.176498889923095703e+00 1.398404955863952637e+00 1.379207372665405273e+00
5.209000000000000000e+03 5.058920669555664062e+01 2.051618194580078125e+01 -2.339593619108200073e-01 2.494360446929931641e+00 6.781203746795654297e-01 -1.439583778381347656e+00
5.210000000000000000e+03 5.174045562744140625e+01 1.947935676574707031e+01 -1.553693413734436035e-02 2.945287227630615234e+00 8.789250850677490234e-01 -1.779197335243225098e+00
5.211000000000000000e+03 4.128579330444335938e+01 4.903939723968505859e+00 -1.997756808996200562e-01 -5.737872123718261719e-01 -2.320688813924789429e-01 3.337603211402893066e-01
5.212000000000000000e+03 6.612146759033203125e+01 4.918736457824707031e+00 -1.395931601524353027e+00 1.031378865242004395e+00 -1.093658208847045898e-01 9.590198397636413574e-01
5.213000000000000000e+03 6.158094787597656250e+01 5.976800918579101562e+00 -2.812138319015502930e+00 6.212930202484130859e+00 1.020237445831298828e+00 -2.084575891494750977e+00
5.214000000000000000e+03 5.393685150146484375e+01 -3.006446075439453125e+01 1.208290696144104004e+00 4.355734825134277344e+00 1.669207572937011719e+00 1.006015419960021973e+00
5.215000000000000000e+03 7.328041076660156250e+01 -2.726301765441894531e+01 -1.660418748855590820e+00 6.127899646759033203e+00 1.340244293212890625e+00 1.681982278823852539e+00
5.216000000000000000e+03 6.714407348632812500e+01 2.122970819473266602e-01 2.127022027969360352e+00 4.136432170867919922e+00 1.879036307334899902e+00 2.674432039260864258e+00
5.217000000000000000e+03 6.832019042968750000e+01 2.762247323989868164e+00 5.056431293487548828e-01 2.687731027603149414e+00 9.580122232437133789e-01 2.882678508758544922e+00
5.218000000000000000e+03 7.691675567626953125e+01 1.871474075317382812e+01 -3.669216334819793701e-01 7.887733459472656250e+00 2.256243467330932617e+00 8.683893084526062012e-01
5.219000000000000000e+03 1.556974983215332031e+01 -3.590896368026733398e+00 1.807945780456066132e-02 2.479733712971210480e-02 1.286303810775279999e-02 -1.213334500789642334e-02
5.220000000000000000e+03 6.020227432250976562e+01 7.605170249938964844e+00 -1.897137284278869629e+00 6.890071868896484375e+00 1.497880339622497559e+00 -1.321310520172119141e+00
5.221000000000000000e+03 5.955400848388671875e+01 9.169217109680175781e+00 -1.685067266225814819e-01 7.176939010620117188e+00 2.102529764175415039e+00 -8.708527684211730957e-01
5.222000000000000000e+03 4.278069305419921875e+01 1.201361465454101562e+01 2.318404912948608398e-01 7.232819795608520508e-01 2.865367531776428223e-01 -2.383743375539779663e-01
5.223000000000000000e+03 1.156370735168457031e+01 -2.952103424072265625e+01 -2.091326117515563965e-01 -4.183465242385864258e-01 -1.882437467575073242e-01 -2.291557043790817261e-01
5.224000000000000000e+03 1.087507820129394531e+01 -3.093213844299316406e+01 -2.233417928218841553e-01 -3.703953623771667480e-01 -1.781211495399475098e-01 -2.358983010053634644e-01
5.225000000000000000e+03 4.202700805664062500e+01 1.447225570678710938e+01 1.825222074985504150e-01 4.493813812732696533e-01 1.895710825920104980e-01 -2.979168891906738281e-01
5.226000000000000000e+03 4.285982131958007812e+01 1.434857749938964844e+01 1.553120464086532593e-01 7.888905405998229980e-01 2.832607924938201904e-01 -2.916546165943145752e-01
5.227000000000000000e+03 6.867479324340820312e+00 1.405968952178955078e+01 1.545388996601104736e-01 -1.986071914434432983e-01 -1.322048809379339218e-02 3.324161171913146973e-01
5.228000000000000000e+03 2.731179046630859375e+01 -3.262495040893554688e+01 1.098957285284996033e-01 -1.547592431306838989e-01 -1.345905661582946777e-02 -1.269882619380950928e-01
5.229000000000000000e+03 2.766652488708496094e+01 -3.381925582885742188e+01 9.502159804105758667e-02 -1.237466558814048767e-01 -8.617517538368701935e-03 -6.077398359775543213e-02
5.230000000000000000e+03 3.245607376098632812e+01 2.789982223510742188e+01 1.994730345904827118e-02 1.063294112682342529e-01 3.788301721215248108e-02 4.133472964167594910e-02
5.231000000000000000e+03 7.395381164550781250e+01 1.052111244201660156e+01 1.480109095573425293e+00 9.392522811889648438e+00 3.261789560317993164e+00 -4.060886055231094360e-02
5.232000000000000000e+03 7.498204803466796875e+01 1.001197528839111328e+01 8.941560387611389160e-01 8.388531684875488281e+00 2.784806489944458008e+00 -4.835618734359741211e-01
5.233000000000000000e+03 7.164762878417968750e+01 -1.477243232727050781e+01 -2.044590860605239868e-01 2.028682231903076172e+00 5.472669601440429688e-01 -1.848835110664367676e+00
5.234000000000000000e+03 2.790044784545898438e+01 -2.541712379455566406e+01 3.454977869987487793e-01 -1.058945953845977783e-01 7.188095152378082275e-02 -1.842069774866104126e-01
5.235000000000000000e+03 2.869461441040039062e+01 -2.768710327148437500e+01 4.054786860942840576e-01 -5.883708596229553223e-02 1.039924845099449158e-01 -2.235791087150573730e-01
5.236000000000000000e+03 1.256470012664794922e+01 -2.749807357788085938e+01 -7.895535230636596680e-02 -4.753553867340087891e-01 -1.662932187318801880e-01 -2.632172703742980957e-01
5.237000000000000000e+03 1.343692493438720703e+01 -2.695350074768066406e+01 -1.705672033131122589e-02 -5.457119941711425781e-01 -1.688306033611297607e-01 -2.820178866386413574e-01
5.238000000000000000e+03 5.898517227172851562e+01 1.621625328063964844e+01 1.636874198913574219e+00 6.154688358306884766e+00 2.337468862533569336e+00 -1.266036778688430786e-01
5.239000000000000000e+03 9.795692443847656250e+00 -3.292479705810546875e+01 -1.425728052854537964e-01 -2.977496981620788574e-01 -1.320967525243759155e-01 -2.657831311225891113e-01
5.240000000000000000e+03 5.470743179321289062e+01 -3.036105346679687500e+01 1.325667142868041992e+00 5.309442996978759766e+00 1.990533113479614258e+00 1.175725460052490234e+00
5.241000000000000000e+03 4.839745712280273438e+01 -2.511094665527343750e+01 -1.345807313919067383e-01 8.770770430564880371e-01 2.227488905191421509e-01 -6.088858246803283691e-01
5.242000000000000000e+03 4.751041793823242188e+01 -2.513853073120117188e+01 3.718623658642172813e-03 1.008823394775390625e+00 3.037626147270202637e-01 -5.760336518287658691e-01
5.243000000000000000e+03 4.465826416015625000e+01 -1.968628501892089844e+01 6.674687862396240234e-01 1.019055843353271484e+00 5.059573650360107422e-01 1.517872363328933716e-01
5.244000000000000000e+03 5.780129241943359375e+01 1.255563163757324219e+01 1.682400703430175781e+00 6.195113658905029297e+00 2.363254308700561523e+00 -1.091815114021301270e+00
5.245000000000000000e+03 5.667206192016601562e+01 1.246282672882080078e+01 1.489710450172424316e+00 5.436811447143554688e+00 2.077956438064575195e+00 -1.107023119926452637e+00
5.246000000000000000e+03 3.445546340942382812e+01 2.386464309692382812e+01 -1.653172820806503296e-01 3.348857462406158447e-01 5.087054148316383362e-02 1.976822465658187866e-01
5.247000000000000000e+03 1.753798866271972656e+01 -1.585087013244628906e+01 -7.556650787591934204e-02 1.146742422133684158e-02 -1.922972500324249268e-02 -2.447632998228073120e-01
5.248000000000000000e+03 1.783046722412109375e+01 -1.655364799499511719e+01 -1.208614706993103027e-01 -4.529814049601554871e-02 -4.984788224101066589e-02 -3.645005524158477783e-01
5.249000000000000000e+03 3.111452674865722656e+01 -3.089084434509277344e+01 3.349337875843048096e-01 1.414159983396530151e-01 1.429049372673034668e-01 -1.777758747339248657e-01
5.250000000000000000e+03 3.591630935668945312e+01 -1.169487476348876953e+01 -2.555325031280517578e-01 6.768378019332885742e-01 1.263915896415710449e-01 -7.486445456743240356e-02
5.251000000000000000e+03 4.122149276733398438e+01 1.230428886413574219e+01 1.045035868883132935e-01 1.270780432969331741e-02 3.516341745853424072e-02 -1.403980702161788940e-01
5.252000000000000000e+03 4.235214614868164062e+01 1.259886455535888672e+01 2.168834656476974487e-01 5.337556004524230957e-01 2.251917272806167603e-01 -2.424069643020629883e-01
5.253000000000000000e+03 3.860958480834960938e+01 -1.474073505401611328e+01 -8.307171463966369629e-01 9.747847914695739746e-01 4.322030395269393921e-02 -3.850787281990051270e-01
5.254000000000000000e+03 4.623743057250976562e+01 -1.515893840789794922e+01 -7.273041605949401855e-01 9.657681584358215332e-01 7.153920084238052368e-02 3.293991684913635254e-01
5.255000000000000000e+03 3.563610076904296875e+01 1.872588157653808594e+01 3.648608326911926270e-01 -9.293074905872344971e-02 8.157902956008911133e-02 2.951232790946960449e-01
5.256000000000000000e+03 3.619829559326171875e+01 2.118928527832031250e+01 1.287994682788848877e-01 6.975793093442916870e-02 5.956721678376197815e-02 1.558000296354293823e-01
5.257000000000000000e+03 7.229207611083984375e+01 -2.835608673095703125e+01 -5.684733390808105469e-01 3.967579364776611328e+00 1.019731760025024414e+00 1.797576189041137695e+00
5.258000000000000000e+03 7.119564056396484375e+01 -2.813254547119140625e+01 -3.123368024826049805e-01 2.234606742858886719e+00 5.766809582710266113e-01 1.513855934143066406e+00
5.259000000000000000e+03 2.965711212158203125e+01 -1.534703922271728516e+01 -4.989269971847534180e-01 -3.185280561447143555e-01 -2.452365159988403320e-01 -1.883651018142700195e-01
5.260000000000000000e+03 3.014163589477539062e+01 -1.476599311828613281e+01 -6.151491999626159668e-01 -2.914083003997802734e-01 -2.719672620296478271e-01 -1.579332649707794189e-01
5.261000000000000000e+03 3.860543441772460938e+01 1.328883075714111328e+01 -6.230438873171806335e-02 -5.966331362724304199e-01 -1.976812481880187988e-01 7.090622931718826294e-02
5.262000000000000000e+03 6.603640747070312500e+01 2.777200317382812500e+01 1.385083913803100586e+00 4.065951824188232422e+00 1.635310769081115723e+00 7.931959033012390137e-01
5.263000000000000000e+03 6.527256774902343750e+01 2.637158775329589844e+01 1.740605115890502930e+00 3.864909410476684570e+00 1.681654334068298340e+00 9.564180374145507812e-01
5.264000000000000000e+03 5.854538726806640625e+01 1.816547393798828125e+01 1.017883300781250000e+00 4.458830356597900391e+00 1.643014073371887207e+00 -3.532112538814544678e-01
5.265000000000000000e+03 5.340069961547851562e+01 3.673959350585937500e+01 -3.826789259910583496e-01 2.517151117324829102e+00 6.403416395187377930e-01 3.520823717117309570e-01
5.266000000000000000e+03 5.243730163574218750e+01 3.478615951538085938e+01 -1.421902328729629517e-01 3.183716535568237305e+00 9.124578833580017090e-01 -3.804380819201469421e-02
5.267000000000000000e+03 4.286559677124023438e+01 1.715617752075195312e+01 -3.092551417648792267e-02 6.580845117568969727e-01 1.881476938724517822e-01 -9.447918832302093506e-02
5.268000000000000000e+03 3.598584365844726562e+01 -3.196624374389648438e+01 4.990605413913726807e-01 5.171701908111572266e-01 3.048692345619201660e-01 -1.551440730690956116e-02
5.269000000000000000e+03 4.099817657470703125e+01 9.251765251159667969e+00 -3.572966456413269043e-01 -3.622294962406158447e-01 -2.158578336238861084e-01 3.813007473945617676e-01
5.270000000000000000e+03 4.045904541015625000e+01 -1.555493927001953125e+01 -5.530654788017272949e-01 4.323289394378662109e-01 -3.622095659375190735e-02 -5.385041236877441406e-01
5.271000000000000000e+03 3.919685745239257812e+01 -1.627799415588378906e+01 -2.900126874446868896e-01 7.290107011795043945e-01 1.316994130611419678e-01 -4.221743345260620117e-01
5.272000000000000000e+03 7.661958312988281250e+01 -2.322706794738769531e+01 7.775121331214904785e-01 8.518418312072753906e+00 2.788779258728027344e+00 -5.171607136726379395e-01
5.273000000000000000e+03 6.565137863159179688e+00 3.594572067260742188e+01 1.719722151756286621e-01 -1.824065148830413818e-01 -3.130288561806082726e-03 -7.706111762672662735e-03
5.274000000000000000e+03 3.739054870605468750e+01 -3.423813247680664062e+01 4.076561927795410156e-01 8.260891437530517578e-01 3.701235949993133545e-01 3.432051977142691612e-03
5.275000000000000000e+03 4.987504196166992188e+01 -3.739547729492187500e+01 3.058905899524688721e-01 2.988939285278320312e+00 9.884489774703979492e-01 9.891192317008972168e-01
5.276000000000000000e+03 1.711186981201171875e+01 -1.337047004699707031e+01 -1.648557931184768677e-01 1.269461810588836670e-01 -1.137288194149732590e-02 2.987153269350528717e-02
5.277000000000000000e+03 1.732476615905761719e+01 -1.511054611206054688e+01 -9.074707329273223877e-02 6.825751811265945435e-02 -6.746865808963775635e-03 -1.348291784524917603e-01
5.278000000000000000e+03 4.721436691284179688e+01 2.164702224731445312e+01 2.558664977550506592e-01 1.127952218055725098e+00 4.151456058025360107e-01 -1.786589063704013824e-02
5.279000000000000000e+03 2.879442787170410156e+01 1.227346229553222656e+01 8.948822505772113800e-03 5.455998182296752930e-01 1.663645952939987183e-01 3.250297904014587402e-01
5.280000000000000000e+03 2.272226905822753906e+01 -2.443240356445312500e+01 2.703410685062408447e-01 -4.717316012829542160e-03 7.968711853027343750e-02 -1.611701846122741699e-01
5.281000000000000000e+03 5.904907608032226562e+01 1.554885101318359375e+01 1.681949734687805176e+00 6.736916542053222656e+00 2.525660037994384766e+00 -1.566581726074218750e-01
5.282000000000000000e+03 2.688582801818847656e+01 -2.496730804443359375e+01 3.347241878509521484e-01 -1.475859135389328003e-01 5.614148080348968506e-02 -1.764487922191619873e-01
5.283000000000000000e+03 4.591519927978515625e+01 4.708977699279785156e+00 -6.408810615539550781e-01 4.336211383342742920e-01 -6.217797473073005676e-02 3.875061869621276855e-02
5.284000000000000000e+03 3.123450088500976562e+01 -2.936255836486816406e+01 3.960056006908416748e-01 1.542101800441741943e-01 1.650647222995758057e-01 -2.147973477840423584e-01
5.285000000000000000e+03 2.927832984924316406e+01 -2.970123863220214844e+01 3.403893113136291504e-01 -1.952969934791326523e-03 1.015309020876884460e-01 -2.164198905229568481e-01
5.286000000000000000e+03 3.975951910018920898e+00 1.719486808776855469e+01 1.186122074723243713e-01 -3.768681883811950684e-01 -7.747679203748703003e-02 9.793636947870254517e-02
5.287000000000000000e+03 7.239783763885498047e+00 1.452146148681640625e+01 2.051631957292556763e-01 -1.898495554924011230e-01 4.594091791659593582e-03 3.151605725288391113e-01
5.288000000000000000e+03 1.800199317932128906e+01 2.012764549255371094e+01 -7.096476852893829346e-02 -1.222457457333803177e-02 -2.495680376887321472e-02 1.260730922222137451e-01
5.289000000000000000e+03 4.493917465209960938e+01 1.955793190002441406e+01 -1.152111291885375977e-01 7.537415623664855957e-01 1.915591210126876831e-01 2.860822677612304688e-01
5.290000000000000000e+03 4.279043960571289062e+01 1.894338798522949219e+01 3.000785782933235168e-02 5.873310565948486328e-01 1.852016746997833252e-01 1.285886913537979126e-01
5.291000000000000000e+03 4.681962966918945312e+01 3.261113739013671875e+01 5.493397712707519531e-01 2.119323015213012695e+00 8.005988597869873047e-01 -7.471731901168823242e-01
5.292000000000000000e+03 4.744917297363281250e+01 3.054734420776367188e+01 7.759868502616882324e-01 2.360202789306640625e+00 9.408568739891052246e-01 -6.912139654159545898e-01
5.293000000000000000e+03 6.154944610595703125e+01 -2.449239540100097656e+01 7.740604877471923828e-01 2.333729505538940430e+00 9.323369860649108887e-01 5.945258140563964844e-01
5.294000000000000000e+03 5.571045398712158203e+00 -1.056697368621826172e+01 -3.345744311809539795e-02 -9.582684189081192017e-02 -3.878528624773025513e-02 -2.486749086529016495e-03
5.295000000000000000e+03 5.798278427124023438e+01 1.319070053100585938e+01 1.777683258056640625e+00 6.291152954101562500e+00 2.420650959014892578e+00 -9.402708411216735840e-01
5.296000000000000000e+03 6.291231918334960938e+01 2.300211143493652344e+01 -1.582157135009765625e+00 4.300040245056152344e+00 8.153648972511291504e-01 2.327495574951171875e+00
5.297000000000000000e+03 6.245092010498046875e+01 2.221855354309082031e+01 -2.259193658828735352e+00 4.216505050659179688e+00 5.871934890747070312e-01 2.689523935317993164e+00
5.298000000000000000e+03 4.412529754638671875e+01 2.053139877319335938e+01 1.709252297878265381e-01 7.076890468597412109e-01 2.635842859745025635e-01 3.625081777572631836e-01
5.299000000000000000e+03 1.431658267974853516e+01 4.551942348480224609e+00 -3.838878571987152100e-01 -9.255733340978622437e-02 -1.429335623979568481e-01 4.549419283866882324e-01
5.300000000000000000e+03 4.778082275390625000e+01 -2.719296455383300781e+01 3.566492497920989990e-01 7.840169072151184082e-01 3.421998620033264160e-01 -7.163877487182617188e-01
5.301000000000000000e+03 7.634124755859375000e+01 7.467010498046875000e+00 -4.047847166657447815e-02 7.489097118377685547e+00 2.234585523605346680e+00 -8.616682291030883789e-01
5.302000000000000000e+03 2.834543228149414062e+01 1.332796955108642578e+01 -3.421422466635704041e-02 3.409667015075683594e-01 9.202574938535690308e-02 3.827305138111114502e-01
5.303000000000000000e+03 5.621100997924804688e+01 -1.252441024780273438e+01 5.306658148765563965e-02 6.284571290016174316e-01 2.044571042060852051e-01 1.234831929206848145e+00
5.304000000000000000e+03 5.064083099365234375e+01 -9.355682373046875000e+00 -3.175618052482604980e-01 1.614557951688766479e-01 -4.683180525898933411e-02 1.121803745627403259e-01
5.305000000000000000e+03 1.610245513916015625e+01 2.054868507385253906e+01 9.164040535688400269e-02 8.669523149728775024e-02 5.350069329142570496e-02 3.989179730415344238e-01
5.306000000000000000e+03 1.699865341186523438e+01 2.059666252136230469e+01 6.004250049591064453e-02 3.869413584470748901e-02 2.962099015712738037e-02 2.578605711460113525e-01
5.307000000000000000e+03 2.028490257263183594e+01 2.002304077148437500e+01 -8.840398490428924561e-02 -1.018095836043357849e-01 -5.706407129764556885e-02 -8.122049272060394287e-03
5.308000000000000000e+03 7.693875122070312500e+01 1.797916603088378906e+01 -2.663907408714294434e-01 7.845760345458984375e+00 2.273810863494873047e+00 1.015765309333801270e+00
5.309000000000000000e+03 5.766277694702148438e+01 -1.908057594299316406e+01 2.201109379529953003e-01 4.042038440704345703e+00 1.278644800186157227e+00 1.352524876594543457e+00
5.310000000000000000e+03 2.675229454040527344e+01 -2.296002578735351562e+01 1.441213935613632202e-01 -1.548145860433578491e-01 -3.207959933206439018e-03 -1.393658667802810669e-01
5.311000000000000000e+03 7.440167999267578125e+01 -1.446412086486816406e+01 -8.197614550590515137e-01 5.585276126861572266e+00 1.429654359817504883e+00 3.512396216392517090e-01
5.312000000000000000e+03 7.776597595214843750e+01 -7.254691600799560547e+00 5.786142349243164062e-01 8.677560806274414062e+00 2.776852607727050781e+00 -4.792613685131072998e-01
5.313000000000000000e+03 5.294969177246093750e+01 -3.340660858154296875e+01 1.375887036323547363e+00 4.098472118377685547e+00 1.642307758331298828e+00 1.190053939819335938e+00
5.314000000000000000e+03 5.176539993286132812e+01 2.967652320861816406e+01 8.216014504432678223e-01 4.377413749694824219e+00 1.559704542160034180e+00 -4.679045975208282471e-01
5.315000000000000000e+03 2.699189758300781250e+01 -1.851348686218261719e+01 -1.339621096849441528e-01 -3.628337979316711426e-01 -1.490387618541717529e-01 -1.651069074869155884e-01
5.316000000000000000e+03 4.172691726684570312e+01 1.912130928039550781e+01 1.546239703893661499e-01 3.832634091377258301e-01 1.613662242889404297e-01 1.013333052396774292e-01
5.317000000000000000e+03 3.913885354995727539e+00 2.670430564880371094e+01 -1.730045974254608154e-01 -6.438606381416320801e-01 -2.450595647096633911e-01 1.648640185594558716e-01
5.318000000000000000e+03 7.500992584228515625e+01 -1.878216552734375000e+01 7.129279971122741699e-01 8.834958076477050781e+00 2.864366054534912109e+00 3.538273870944976807e-01
5.319000000000000000e+03 7.672891998291015625e+01 -1.756271171569824219e+01 -2.777620963752269745e-02 8.140881538391113281e+00 2.433931589126586914e+00 1.079774260520935059e+00
5.320000000000000000e+03 2.093741989135742188e+01 3.460385131835937500e+01 8.535096794366836548e-02 -1.602211147546768188e-01 -2.246104739606380463e-02 7.914278656244277954e-03
5.321000000000000000e+03 2.338131904602050781e+01 3.350398254394531250e+01 2.914250083267688751e-02 9.262771904468536377e-02 3.653106838464736938e-02 8.352170884609222412e-02
5.322000000000000000e+03 2.113165855407714844e+01 -1.558970832824707031e+01 -6.003537774085998535e-01 -1.969307214021682739e-01 -2.391853481531143188e-01 -3.545421063899993896e-01
5.323000000000000000e+03 1.970411109924316406e+01 -1.527342796325683594e+01 -4.434536695480346680e-01 -8.761094510555267334e-02 -1.593193858861923218e-01 -2.555123865604400635e-01
5.324000000000000000e+03 3.809204101562500000e+01 -1.399806404113769531e+01 -8.607774972915649414e-01 1.049766063690185547e+00 5.669656395912170410e-02 -3.160242140293121338e-01
5.325000000000000000e+03 1.416949272155761719e+01 -1.213023567199707031e+01 -1.292097866535186768e-01 2.023470103740692139e-01 2.194116637110710144e-02 -4.467410966753959656e-02
5.326000000000000000e+03 6.381967544555664062e+01 -2.638236284255981445e+00 3.105275392532348633e+00 1.012870216369628906e+01 3.970193147659301758e+00 8.289050459861755371e-01
5.327000000000000000e+03 6.427960205078125000e+01 -2.132178306579589844e+00 2.797392129898071289e+00 9.016709327697753906e+00 3.544230461120605469e+00 1.434017896652221680e+00
5.328000000000000000e+03 4.083044052124023438e+01 -1.622635841369628906e+01 -2.877533137798309326e-01 2.943534553050994873e-01 1.980042085051536560e-03 -4.871628582477569580e-01
5.329000000000000000e+03 2.219181060791015625e+01 9.782313346862792969e+00 2.871455252170562744e-01 -1.738451421260833740e-01 3.399012237787246704e-02 1.706042736768722534e-01
5.330000000000000000e+03 7.824942111968994141e+00 -2.504323577880859375e+01 -3.627527970820665359e-03 1.584745571017265320e-02 3.665978554636240005e-03 -9.436420351266860962e-02
5.331000000000000000e+03 9.431342124938964844e+00 -2.551943397521972656e+01 -4.082126542925834656e-02 -9.686631709337234497e-02 -4.130627587437629700e-02 -1.936895549297332764e-01
5.332000000000000000e+03 8.511034965515136719e+00 9.276316642761230469e+00 -3.503035008907318115e-01 -2.436322271823883057e-01 -1.781807094812393188e-01 2.542324662208557129e-01
5.333000000000000000e+03 9.052483558654785156e+00 6.924301147460937500e+00 -3.514044582843780518e-01 -1.992860883474349976e-01 -1.652071624994277954e-01 1.576951891183853149e-01
5.334000000000000000e+03 5.762926864624023438e+01 -1.839110183715820312e+01 -6.961586326360702515e-02 4.016356468200683594e+00 1.184022188186645508e+00 1.222584605216979980e+00
5.335000000000000000e+03 3.543794631958007812e+01 -6.422368049621582031e+00 -1.406597346067428589e-01 5.169381499290466309e-01 1.128835305571556091e-01 -6.421964168548583984e-01
5.336000000000000000e+03 3.401221466064453125e+01 -7.002989292144775391e+00 -7.855498790740966797e-02 7.211217284202575684e-02 -1.932843937538564205e-03 -6.452784538269042969e-01
5.337000000000000000e+03 4.174339294433593750e+01 7.653770923614501953e+00 -2.995379567146301270e-01 -1.982490271329879761e-01 -1.493360996246337891e-01 4.982826411724090576e-01
5.338000000000000000e+03 1.401917266845703125e+01 -7.468523979187011719e+00 -3.070015087723731995e-02 3.861065581440925598e-02 2.373151248320937157e-03 -2.011409215629100800e-02
5.339000000000000000e+03 5.748884201049804688e+01 -2.587227630615234375e+01 -4.217451810836791992e-01 4.730378150939941406e+00 1.292589902877807617e+00 1.891777157783508301e+00
5.340000000000000000e+03 3.347283172607421875e+01 1.672858428955078125e+01 4.787935614585876465e-01 1.267012506723403931e-01 1.816484481096267700e-01 4.165165722370147705e-01
5.341000000000000000e+03 6.524571990966796875e+01 3.406813430786132812e+01 -1.176535859704017639e-01 4.126188278198242188e+00 1.202560424804687500e+00 1.079806685447692871e-01
5.342000000000000000e+03 1.924103546142578125e+01 -2.356456375122070312e+01 -1.426961831748485565e-02 3.532911837100982666e-02 6.317850667983293533e-03 -3.577174842357635498e-01
5.343000000000000000e+03 5.078993606567382812e+01 -2.880113983154296875e+01 8.700358271598815918e-01 1.750399589538574219e+00 7.861306071281433105e-01 -1.875420473515987396e-02
5.344000000000000000e+03 4.170365524291992188e+01 6.399590015411376953e+00 -2.710704207420349121e-01 -3.491555154323577881e-01 -1.860677897930145264e-01 5.430349111557006836e-01
5.345000000000000000e+03 8.977697372436523438e+00 -3.615430450439453125e+01 7.025027275085449219e-02 -3.151575922966003418e-01 -7.347219437360763550e-02 -2.675336599349975586e-01
5.346000000000000000e+03 1.061302566528320312e+01 -3.637923049926757812e+01 1.195681616663932800e-01 -3.025725781917572021e-01 -5.490132048726081848e-02 -2.506867945194244385e-01
5.347000000000000000e+03 7.704243469238281250e+01 -8.491526603698730469e+00 7.079364061355590820e-01 9.629280090332031250e+00 3.101164817810058594e+00 -8.074468374252319336e-01
5.348000000000000000e+03 5.021463012695312500e+01 3.384153747558593750e+01 2.304044216871261597e-01 2.967682361602783203e+00 9.594260454177856445e-01 -5.198233127593994141e-01
5.349000000000000000e+03 4.907521057128906250e+01 3.372181320190429688e+01 3.170755207538604736e-01 2.675206661224365234e+00 8.976846933364868164e-01 -6.119248270988464355e-01
5.350000000000000000e+03 4.737202072143554688e+01 2.470757484436035156e+01 5.290395617485046387e-01 1.960824489593505859e+00 7.469592094421386719e-01 7.540535181760787964e-02
5.351000000000000000e+03 6.654251098632812500e+01 7.162849307060241699e-01 1.603400588035583496e+00 4.449428558349609375e+00 1.815848827362060547e+00 2.314877986907958984e+00
5.352000000000000000e+03 6.226039505004882812e+01 2.007500410079956055e+00 -7.147992253303527832e-01 7.281311511993408203e+00 1.969953775405883789e+00 -1.355158686637878418e+00
5.353000000000000000e+03 7.606694030761718750e+01 1.030275726318359375e+01 7.491149306297302246e-01 7.743882656097412109e+00 2.547899246215820312e+00 -5.083806514739990234e-01
5.354000000000000000e+03 4.308979415893554688e+01 -1.592220020294189453e+01 -2.641569674015045166e-01 -2.482169540598988533e-03 -7.999173551797866821e-02 -2.483111470937728882e-01
5.355000000000000000e+03 4.560956954956054688e+01 -1.716526031494140625e+01 3.567046821117401123e-01 9.934113621711730957e-01 4.050348103046417236e-01 2.199467867612838745e-01
5.356000000000000000e+03 6.319450759887695312e+01 -3.849958658218383789e+00 3.074918270111083984e+00 1.251318359375000000e+01 4.676430702209472656e+00 -2.069100290536880493e-01
5.357000000000000000e+03 7.581304931640625000e+01 -2.978433609008789062e+01 -3.647440969944000244e-01 7.074137687683105469e+00 2.012818098068237305e+00 5.243529677391052246e-01
5.358000000000000000e+03 6.322512817382812500e+01 -2.331150627136230469e+01 1.971801996231079102e+00 5.715528488159179688e+00 2.306199073791503906e+00 -6.468543410301208496e-01
5.359000000000000000e+03 6.315441513061523438e+01 -2.413278388977050781e+01 9.511178731918334961e-01 5.080779075622558594e+00 1.809569120407104492e+00 -6.910424828529357910e-01
5.360000000000000000e+03 3.966351270675659180e+00 1.800294113159179688e+01 1.099546849727630615e-01 -3.975691199302673340e-01 -8.628433197736740112e-02 6.191955134272575378e-02
5.361000000000000000e+03 5.656640243530273438e+01 7.805474281311035156e+00 -6.687352061271667480e-01 4.823856830596923828e+00 1.246536493301391602e+00 -6.696673035621643066e-01
5.362000000000000000e+03 5.999150848388671875e+01 8.160943031311035156e+00 -1.372229337692260742e+00 7.143663406372070312e+00 1.731430172920227051e+00 -1.180130839347839355e+00
5.363000000000000000e+03 1.448672008514404297e+01 2.044576835632324219e+01 1.119742095470428467e-01 1.974649876356124878e-01 9.283176064491271973e-02 5.522346496582031250e-01
5.364000000000000000e+03 4.382928085327148438e+01 -1.787019538879394531e+01 4.714217782020568848e-01 4.509073495864868164e-01 2.766987383365631104e-01 -5.318044871091842651e-02
5.365000000000000000e+03 4.515473175048828125e+01 -1.842057228088378906e+01 6.594577431678771973e-01 9.833763837814331055e-01 4.928502440452575684e-01 2.167770415544509888e-01
5.366000000000000000e+03 5.375188827514648438e+01 -2.859886550903320312e+01 6.255537271499633789e-01 3.933553695678710938e+00 1.367732286453247070e+00 1.036293029785156250e+00
5.367000000000000000e+03 2.996809387207031250e+01 -3.478681564331054688e+01 2.154746502637863159e-01 8.680716156959533691e-02 9.068454056978225708e-02 -8.797818794846534729e-03
5.368000000000000000e+03 2.956130027770996094e+01 -2.909394645690917969e+01 3.689743876457214355e-01 1.941944658756256104e-02 1.165181472897529602e-01 -2.200543731451034546e-01
5.369000000000000000e+03 1.234119129180908203e+01 -2.525848960876464844e+01 4.038817249238491058e-03 -4.098480939865112305e-01 -1.217427775263786316e-01 -3.191530406475067139e-01
5.370000000000000000e+03 3.413483810424804688e+01 3.423323440551757812e+01 3.293209671974182129e-01 3.449170887470245361e-01 2.022714167833328247e-01 1.245460212230682373e-01
5.371000000000000000e+03 3.050957870483398438e+01 3.228952407836914062e+01 3.264772593975067139e-01 3.476489335298538208e-02 1.083726435899734497e-01 1.540588736534118652e-01
5.372000000000000000e+03 7.035617065429687500e+01 -2.919215583801269531e+01 8.378076553344726562e-01 2.338261365890502930e+00 9.528207182884216309e-01 5.208579301834106445e-01
5.373000000000000000e+03 7.082048797607421875e+01 8.870828747749328613e-01 1.261595368385314941e+00 1.877316117286682129e+00 9.416734576225280762e-01 1.834656357765197754e+00
5.374000000000000000e+03 7.280108642578125000e+01 7.879088521003723145e-01 3.203112185001373291e-01 3.520066499710083008e+00 1.152113318443298340e+00 -9.987980127334594727e-02
5.375000000000000000e+03 1.874727630615234375e+01 3.717017364501953125e+01 1.692310720682144165e-01 -2.058320939540863037e-01 -1.098030619323253632e-02 6.901183724403381348e-02
5.376000000000000000e+03 1.647215843200683594e+01 3.766550445556640625e+01 1.621538251638412476e-01 -1.538340002298355103e-01 2.495947759598493576e-03 1.237533763051033020e-01
5.377000000000000000e+03 2.604566383361816406e+01 -2.365030670166015625e+01 2.167526334524154663e-01 -1.557564735412597656e-01 1.829884946346282959e-02 -1.545148789882659912e-01
5.378000000000000000e+03 4.502601146697998047e+00 3.456663131713867188e+01 1.675924658775329590e-01 -5.170291662216186523e-01 -1.048310101032257080e-01 4.846209660172462463e-02
5.379000000000000000e+03 3.922419309616088867e+00 3.280063247680664062e+01 1.452270746231079102e-01 -6.162902116775512695e-01 -1.413189470767974854e-01 1.544031798839569092e-01
5.380000000000000000e+03 2.153665542602539062e+00 3.815124893188476562e+01 6.161515135318040848e-03 -8.781485557556152344e-01 -2.615961134433746338e-01 -2.291637472808361053e-02
5.381000000000000000e+03 3.654500961303710938e+01 -3.113581275939941406e+01 5.190407633781433105e-01 5.114282369613647461e-01 3.091407120227813721e-01 4.182174056768417358e-02
5.382000000000000000e+03 3.558471679687500000e+01 3.632960891723632812e+01 4.217784106731414795e-01 3.946409821510314941e-01 2.449258118867874146e-01 1.036043837666511536e-01
5.383000000000000000e+03 3.718245315551757812e+01 3.760073471069335938e+01 4.889154732227325439e-01 4.738131761550903320e-01 2.888185977935791016e-01 -3.716274804901331663e-04
5.384000000000000000e+03 3.317771911621093750e+01 3.450929641723632812e+01 3.472633957862854004e-01 2.779051363468170166e-01 1.875505596399307251e-01 1.186649948358535767e-01
5.385000000000000000e+03 3.481891250610351562e+01 3.493730545043945312e+01 3.657540977001190186e-01 3.642922341823577881e-01 2.190138995647430420e-01 1.347739547491073608e-01
5.386000000000000000e+03 5.869441223144531250e+01 3.143148422241210938e+00 -1.334922075271606445e+00 5.710423946380615234e+00 1.312650561332702637e+00 -2.715609550476074219e+00
5.387000000000000000e+03 6.178818511962890625e+01 5.264712333679199219e+00 -2.720284938812255859e+00 6.101408958435058594e+00 1.014337182044982910e+00 -2.096231460571289062e+00
5.388000000000000000e+03 2.157285881042480469e+01 2.854170036315917969e+01 1.817901879549026489e-01 -3.825053572654724121e-02 4.306189715862274170e-02 3.638054132461547852e-01
5.389000000000000000e+03 6.572298431396484375e+01 3.537757492065429688e+01 -1.836414933204650879e-01 3.993005990982055664e+00 1.142809271812438965e+00 2.826320938766002655e-02
5.390000000000000000e+03 3.467930984497070312e+01 -3.424325561523437500e+01 3.993403911590576172e-01 4.366847276687622070e-01 2.508075237274169922e-01 -1.385839935392141342e-02
5.391000000000000000e+03 2.988937759399414062e+01 -3.016686058044433594e+01 3.349591791629791260e-01 5.279253795742988586e-02 1.163255125284194946e-01 -1.966739147901535034e-01
5.392000000000000000e+03 3.020183944702148438e+01 -3.137667465209960938e+01 2.953291535377502441e-01 7.768238335847854614e-02 1.119034588336944580e-01 -1.734192669391632080e-01
5.393000000000000000e+03 4.914415359497070312e+01 3.904620742797851562e+01 -1.806071996688842773e-01 2.213812828063964844e+00 6.099616885185241699e-01 -2.355873137712478638e-01
5.394000000000000000e+03 3.678742599487304688e+01 -3.233721160888671875e+01 4.906311333179473877e-01 6.936817169189453125e-01 3.552938699722290039e-01 4.939941689372062683e-02
5.395000000000000000e+03 1.000703239440917969e+01 4.063546752929687500e+01 -3.544945269823074341e-02 -8.169413544237613678e-03 -1.308565959334373474e-02 4.564779251813888550e-02
5.396000000000000000e+03 3.725706100463867188e+01 3.938939666748046875e+01 4.621754288673400879e-01 5.287660360336303711e-01 2.972824573516845703e-01 -4.111547954380512238e-03
5.397000000000000000e+03 5.102450561523437500e+01 -3.793657302856445312e+01 -5.889969319105148315e-02 3.390034437179565430e+00 9.993404746055603027e-01 7.833337187767028809e-01
5.398000000000000000e+03 5.242553329467773438e+01 -3.828324508666992188e+01 -3.832743167877197266e-01 3.718470335006713867e+00 1.000558853149414062e+00 7.325547933578491211e-01
5.399000000000000000e+03 3.749238014221191406e+00 4.183106613159179688e+01 -3.423810005187988281e-02 -6.645298004150390625e-01 -2.096303701400756836e-01 8.114901138469576836e-04
5.400000000000000000e+03 2.934837913513183594e+01 3.240760803222656250e+01 3.222483098506927490e-01 -1.289657200686633587e-03 9.628759324550628662e-02 2.330839931964874268e-01
5.401000000000000000e+03 6.702860260009765625e+01 3.202526092529296875e+01 5.882658958435058594e-01 4.417823314666748047e+00 1.501826763153076172e+00 3.503794670104980469e-01
5.402000000000000000e+03 4.588745117187500000e+00 -3.884833145141601562e+01 6.395901739597320557e-02 -4.126292169094085693e-01 -1.046010628342628479e-01 -1.219552010297775269e-01
5.403000000000000000e+03 8.308182716369628906e+00 3.726865768432617188e+01 7.896951586008071899e-02 1.231823954731225967e-02 2.738632634282112122e-02 4.061023145914077759e-02
5.404000000000000000e+03 7.700666046142578125e+01 -3.885093307495117188e+01 2.706647291779518127e-02 7.286431312561035156e+00 2.194049358367919922e+00 -6.442904472351074219e-02
5.405000000000000000e+03 3.865233612060546875e+01 -3.896648406982421875e+01 3.341124057769775391e-01 6.106093525886535645e-01 2.834165394306182861e-01 -1.512194126844406128e-01
5.406000000000000000e+03 2.262997436523437500e+01 3.248661804199218750e+01 -2.169615589082241058e-02 9.982229024171829224e-02 2.343784086406230927e-02 5.926247686147689819e-02
5.407000000000000000e+03 6.561345577239990234e+00 3.732917785644531250e+01 6.582873314619064331e-02 -1.943586021661758423e-01 -3.855895996093750000e-02 -2.603032067418098450e-02
5.408000000000000000e+03 2.700858116149902344e+01 3.219342041015625000e+01 2.087276577949523926e-01 9.069587290287017822e-02 8.982706069946289062e-02 3.436688184738159180e-01
5.409000000000000000e+03 5.794341278076171875e+01 -4.168021011352539062e+01 -8.107497692108154297e-01 1.528087496757507324e+00 2.152013331651687622e-01 -3.437499105930328369e-01
5.410000000000000000e+03 2.018150901794433594e+01 3.416529846191406250e+01 6.283737719058990479e-02 -2.663075029850006104e-01 -6.104103848338127136e-02 2.595423348248004913e-02
5.411000000000000000e+03 3.728525543212890625e+01 4.145652770996093750e+01 4.613120257854461670e-01 5.367293953895568848e-01 2.994124293327331543e-01 4.864042624831199646e-03
5.412000000000000000e+03 1.027723121643066406e+01 -3.949798965454101562e+01 3.116399049758911133e-01 -2.546428740024566650e-01 1.709911227226257324e-02 -1.574748605489730835e-01
5.413000000000000000e+03 1.691703033447265625e+01 3.964759826660156250e+01 1.750644892454147339e-01 -1.376396566629409790e-01 1.122744940221309662e-02 7.262448966503143311e-02
5.414000000000000000e+03 6.920056915283203125e+01 -3.653784179687500000e+01 1.093870773911476135e-01 5.164700508117675781e+00 1.582226276397705078e+00 -8.052234649658203125e-01
5.415000000000000000e+03 1.988753509521484375e+01 2.134592819213867188e+01 7.135185599327087402e-02 -3.287923708558082581e-02 1.154178567230701447e-02 3.359827399253845215e-02
5.416000000000000000e+03 1.929091262817382812e+01 2.119530868530273438e+01 8.328018337488174438e-02 2.007053606212139130e-02 3.100521489977836609e-02 6.387021392583847046e-02
5.417000000000000000e+03 6.513307952880859375e+01 2.278445243835449219e+01 -8.780831098556518555e-01 2.068072319030761719e+00 3.569967746734619141e-01 1.296443819999694824e+00
5.418000000000000000e+03 6.153891372680664062e+01 1.113049030303955078e+00 -1.280999183654785156e-01 8.270978927612304688e+00 2.442863702774047852e+00 -1.827224612236022949e+00
5.419000000000000000e+03 4.908773422241210938e+01 -6.478085041046142578e+00 -4.907170832157135010e-01 6.276761293411254883e-01 4.108771681785583496e-02 6.289597749710083008e-01
5.420000000000000000e+03 6.744857025146484375e+01 -1.316753578186035156e+01 3.183356523513793945e-01 2.961214542388916016e+00 9.838650822639465332e-01 -1.458829164505004883e+00
5.421000000000000000e+03 5.800680541992187500e+01 9.405009269714355469e+00 1.252494454383850098e-01 6.166585922241210938e+00 1.887550592422485352e+00 -6.007377505302429199e-01
5.422000000000000000e+03 2.673416519165039062e+01 -2.126726913452148438e+01 1.855032704770565033e-02 -2.016133517026901245e-01 -5.491890385746955872e-02 -1.148056387901306152e-01
5.423000000000000000e+03 2.623305702209472656e+01 -1.883932495117187500e+01 -1.491684466600418091e-01 -3.660410046577453613e-01 -1.545628309249877930e-01 -1.983489841222763062e-01
5.424000000000000000e+03 4.261930084228515625e+01 -2.366759109497070312e+01 3.405657410621643066e-01 7.894961237907409668e-01 3.390185534954071045e-01 1.918208301067352295e-01
5.425000000000000000e+03 5.816540527343750000e+01 -2.267090797424316406e+01 1.476554036140441895e+00 3.712686300277709961e+00 1.556772112846374512e+00 2.027350664138793945e+00
5.426000000000000000e+03 5.709432220458984375e+01 -2.277552795410156250e+01 1.496308565139770508e+00 4.198061466217041016e+00 1.708310961723327637e+00 2.026324033737182617e+00
5.427000000000000000e+03 4.126038742065429688e+01 -2.569524002075195312e+01 3.028206229209899902e-01 7.701328992843627930e-01 3.218860626220703125e-01 3.153310418128967285e-01
5.428000000000000000e+03 4.287783432006835938e+01 -2.544888877868652344e+01 3.795556724071502686e-01 6.717091202735900879e-01 3.153794407844543457e-01 2.444280236959457397e-01
5.429000000000000000e+03 6.212015533447265625e+01 -2.261399775743484497e-01 1.140114188194274902e+00 9.522165298461914062e+00 3.198683738708496094e+00 -1.042916655540466309e+00
5.430000000000000000e+03 4.477243900299072266e+00 2.543332099914550781e+01 -1.955642700195312500e-01 -6.544222235679626465e-01 -2.549959421157836914e-01 1.109088137745857239e-01
5.431000000000000000e+03 6.795898437500000000e+01 -1.404888057708740234e+01 -2.508383989334106445e-01 1.746619582176208496e+00 4.487343728542327881e-01 -1.577791690826416016e+00
5.432000000000000000e+03 6.245856857299804688e+01 -2.403625869750976562e+01 1.311354637145996094e+00 3.857818603515625000e+00 1.550752043724060059e+00 -2.056826353073120117e-01
5.433000000000000000e+03 2.562934684753417969e+01 -1.915997505187988281e+01 -1.431343257427215576e-01 -3.304288983345031738e-01 -1.420689672231674194e-01 -2.280302196741104126e-01
5.434000000000000000e+03 8.347353935241699219e+00 1.751633644104003906e+01 3.421375453472137451e-01 -1.102667823433876038e-01 6.956122815608978271e-02 1.767095774412155151e-01
5.435000000000000000e+03 9.789383888244628906e+00 1.935973167419433594e+01 1.706196665763854980e-01 3.347457200288772583e-02 6.122827157378196716e-02 2.130523473024368286e-01
5.436000000000000000e+03 7.147456169128417969e+00 2.156796073913574219e+01 -5.428459122776985168e-02 -3.715907931327819824e-01 -1.277626156806945801e-01 9.869123250246047974e-02
5.437000000000000000e+03 2.780944061279296875e+01 1.170350646972656250e+01 1.578928232192993164e-01 3.820486962795257568e-01 1.619824618101119995e-01 2.236310541629791260e-01
5.438000000000000000e+03 6.477416229248046875e+01 -1.434513378143310547e+01 -2.279373884201049805e+00 6.917269229888916016e+00 1.391368627548217773e+00 6.793112158775329590e-01
5.439000000000000000e+03 5.921462631225585938e+01 -1.279179096221923828e+01 -8.563970327377319336e-01 5.315726280212402344e+00 1.337798714637756348e+00 2.759709596633911133e+00
5.440000000000000000e+03 2.168269920349121094e+01 7.239462852478027344e+00 2.297996133565902710e-01 -1.847701370716094971e-01 1.350883953273296356e-02 1.413775533437728882e-01
5.441000000000000000e+03 3.333463287353515625e+01 2.447848510742187500e+01 -2.121890336275100708e-01 2.024958282709121704e-01 -2.907959744334220886e-03 2.514941990375518799e-01
5.442000000000000000e+03 4.665083312988281250e+01 2.109008216857910156e+01 1.796420514583587646e-01 8.681406974792480469e-01 3.143348097801208496e-01 1.481207311153411865e-01
5.443000000000000000e+03 3.404256820678710938e+00 1.055528640747070312e+01 -5.986801162362098694e-02 -1.104078963398933411e-01 -5.108277127146720886e-02 1.906520426273345947e-01
5.444000000000000000e+03 6.974198150634765625e+01 5.652916908264160156e+00 -1.176540970802307129e+00 3.768688440322875977e+00 7.776442766189575195e-01 2.777496099472045898e+00
5.445000000000000000e+03 7.117266845703125000e+01 6.090866088867187500e+00 -1.046770334243774414e+00 5.730964183807373047e+00 1.405258178710937500e+00 2.016809701919555664e+00
5.446000000000000000e+03 5.173354721069335938e+01 -2.729203987121582031e+01 5.771554708480834961e-01 1.598523020744323730e+00 6.527035832405090332e-01 4.940456748008728027e-01
5.447000000000000000e+03 4.381106948852539062e+01 -1.987540245056152344e+01 6.438001990318298340e-01 7.740982174873352051e-01 4.253695309162139893e-01 4.929053038358688354e-02
5.448000000000000000e+03 5.470762634277343750e+01 -2.626554489135742188e+01 -4.726299047470092773e-01 4.632238864898681641e+00 1.247882723808288574e+00 1.652526497840881348e+00
5.449000000000000000e+03 9.402727127075195312e+00 6.326752185821533203e+00 -3.385536372661590576e-01 -1.938230991363525391e-01 -1.597130149602890015e-01 1.380050033330917358e-01
5.450000000000000000e+03 9.869091033935546875e+00 4.386225223541259766e+00 -2.101068198680877686e-01 -1.271816641092300415e-01 -1.011865437030792236e-01 7.316252589225769043e-02
5.451000000000000000e+03 1.564171218872070312e+01 -1.038224697113037109e+01 -1.516926586627960205e-01 1.243961304426193237e-01 -8.188961073756217957e-03 4.024982452392578125e-02
5.452000000000000000e+03 5.755070495605468750e+01 -1.708037376403808594e+01 -4.905316531658172607e-01 3.806388139724731445e+00 9.947569370269775391e-01 1.116007566452026367e+00
5.453000000000000000e+03 3.749834823608398438e+01 1.943256568908691406e+01 3.371617496013641357e-01 -1.111948043107986450e-01 6.779008358716964722e-02 1.439416855573654175e-01
5.454000000000000000e+03 6.162477111816406250e+01 -1.139364624023437500e+01 -8.851306438446044922e-01 9.580399513244628906e+00 2.608580589294433594e+00 1.594688773155212402e+00
5.455000000000000000e+03 6.713111114501953125e+01 2.254870414733886719e+01 -7.072467803955078125e-01 1.176117897033691406e+00 1.406613439321517944e-01 -4.677168130874633789e-01
5.456000000000000000e+03 3.518508148193359375e+01 -9.800706863403320312e+00 1.676783561706542969e-01 4.732426106929779053e-01 1.922762840986251831e-01 -2.383563518524169922e-01
5.457000000000000000e+03 3.303740310668945312e+01 -8.086736679077148438e+00 -1.360628902912139893e-01 -2.266191840171813965e-01 -1.088046208024024963e-01 -5.377326607704162598e-01
5.458000000000000000e+03 5.824210643768310547e+00 -1.216634845733642578e+01 -7.730016857385635376e-02 -1.309307515621185303e-01 -6.246927753090858459e-02 -4.375931620597839355e-02
5.459000000000000000e+03 4.955301666259765625e+01 -5.929160118103027344e+00 -6.118133068084716797e-01 3.226163983345031738e-01 -8.675907552242279053e-02 7.304580807685852051e-01
5.460000000000000000e+03 4.914681243896484375e+01 2.393581771850585938e+01 3.278672695159912109e-01 2.449871540069580078e+00 8.333216309547424316e-01 -3.274222910404205322e-01
5.461000000000000000e+03 5.056373596191406250e+01 -2.699135971069335938e+01 4.527539908885955811e-01 8.477662205696105957e-01 3.901560604572296143e-01 -2.374992370605468750e-01
5.462000000000000000e+03 6.335305023193359375e+01 -1.050946044921875000e+01 4.431989789009094238e-01 1.015198040008544922e+01 3.178553819656372070e+00 -2.367215752601623535e-01
5.463000000000000000e+03 6.023683547973632812e+01 -1.087482166290283203e+01 -5.620456933975219727e-01 8.793044090270996094e+00 2.469299554824829102e+00 3.071247577667236328e+00
5.464000000000000000e+03 5.099486541748046875e+01 -7.607922077178955078e+00 -6.735352277755737305e-01 -1.888594776391983032e-01 -2.587184011936187744e-01 5.693724155426025391e-01
5.465000000000000000e+03 5.514266967773437500e+01 5.362729549407958984e+00 -8.503738045692443848e-01 2.611403226852416992e+00 5.283088684082031250e-01 -6.020470261573791504e-01
5.466000000000000000e+03 5.638574981689453125e+01 4.847751140594482422e+00 -1.050990700721740723e+00 3.643093109130859375e+00 7.776307463645935059e-01 -1.403939723968505859e+00
5.467000000000000000e+03 5.680820846557617188e+01 6.046921253204345703e+00 -1.256228327751159668e+00 4.552484035491943359e+00 9.888767004013061523e-01 -1.186310410499572754e+00
5.468000000000000000e+03 5.609486007690429688e+01 6.495549201965332031e+00 -1.032655358314514160e+00 3.921391963958740234e+00 8.666209578514099121e-01 -8.246457576751708984e-01
5.469000000000000000e+03 4.854849243164062500e+01 -1.304880237579345703e+01 -8.175011277198791504e-01 1.135466814041137695e+00 9.538969397544860840e-02 3.702154383063316345e-02
5.470000000000000000e+03 5.693413162231445312e+01 -2.506417655944824219e+01 7.932808250188827515e-02 4.884709835052490234e+00 1.489211320877075195e+00 1.768111467361450195e+00
5.471000000000000000e+03 6.653392314910888672e+00 8.114550590515136719e+00 -2.512948513031005859e-01 -9.329355508089065552e-02 -1.033765226602554321e-01 1.606976091861724854e-01
5.472000000000000000e+03 1.247405147552490234e+01 5.086100578308105469e+00 -3.532221615314483643e-01 -2.512194812297821045e-01 -1.813324838876724243e-01 2.745014727115631104e-01
5.473000000000000000e+03 4.397568893432617188e+01 6.480981349945068359e+00 -3.759479522705078125e-01 3.905169069766998291e-01 4.370682407170534134e-03 2.148370146751403809e-01
5.474000000000000000e+03 5.749625778198242188e+01 -1.312014579772949219e+01 -2.320404648780822754e-01 2.477194547653198242e+00 6.735461950302124023e-01 1.890581607818603516e+00
5.475000000000000000e+03 5.678439712524414062e+01 -1.247629547119140625e+01 1.775219663977622986e-02 1.035584807395935059e+00 3.160010874271392822e-01 1.572872042655944824e+00
5.476000000000000000e+03 5.687138748168945312e+01 -1.323816108703613281e+01 -6.790675222873687744e-02 1.732283592224121094e+00 4.993130564689636230e-01 1.509239435195922852e+00
5.477000000000000000e+03 3.598867797851562500e+01 1.438028335571289062e+01 6.923972163349390030e-03 -5.042384266853332520e-01 -1.491943299770355225e-01 2.451686859130859375e-01
5.478000000000000000e+03 3.644008636474609375e+01 1.402567005157470703e+01 -6.215546652674674988e-02 -5.798471570014953613e-01 -1.926007866859436035e-01 2.322498261928558350e-01
5.479000000000000000e+03 6.883898925781250000e+01 -3.023407745361328125e+01 1.845482945442199707e+00 3.419279336929321289e+00 1.579428672790527344e+00 -8.916905522346496582e-01
5.480000000000000000e+03 6.738674163818359375e+01 -2.879435920715332031e+01 4.626262784004211426e-01 4.514176845550537109e+00 1.493040919303894043e+00 -1.611227273941040039e+00
5.481000000000000000e+03 3.289016342163085938e+01 -1.001774978637695312e+01 -2.778883576393127441e-01 -2.405186742544174194e-01 -1.555221080780029297e-01 -2.418816387653350830e-01
5.482000000000000000e+03 4.959567642211914062e+01 -7.682675361633300781e+00 -3.234864473342895508e-01 4.952088296413421631e-01 5.151671543717384338e-02 4.485333859920501709e-01
5.483000000000000000e+03 5.038739776611328125e+01 -8.873548507690429688e+00 -2.929578125476837158e-01 2.263309508562088013e-01 -1.998805813491344452e-02 1.744750887155532837e-01
5.484000000000000000e+03 4.494288253784179688e+01 6.241370677947998047e+00 -3.756906390190124512e-01 5.315068960189819336e-01 4.674488306045532227e-02 4.987537488341331482e-02
5.485000000000000000e+03 6.282746124267578125e+01 -3.000718832015991211e+00 3.491438865661621094e+00 1.198567295074462891e+01 4.643133640289306641e+00 -3.212057352066040039e-01
5.486000000000000000e+03 5.833224105834960938e+01 1.377740287780761719e+01 1.788367509841918945e+00 6.567048072814941406e+00 2.506624698638916016e+00 -9.245131015777587891e-01
5.487000000000000000e+03 3.111164855957031250e+01 -1.234920883178710938e+01 -6.960014700889587402e-01 -4.571586549282073975e-01 -3.459480404853820801e-01 -6.538952142000198364e-02
5.488000000000000000e+03 3.256122970581054688e+01 -1.249092197418212891e+01 -5.833653211593627930e-01 -1.790787428617477417e-01 -2.287332117557525635e-01 9.408394247293472290e-02
5.489000000000000000e+03 5.435553741455078125e+01 -2.916050720214843750e+01 8.077319264411926270e-01 4.628653526306152344e+00 1.630915522575378418e+00 1.089490056037902832e+00
5.490000000000000000e+03 1.526723289489746094e+01 -9.546134948730468750e+00 -1.121401116251945496e-01 1.052624285221099854e-01 -2.063305117189884186e-03 3.180019930005073547e-02
5.491000000000000000e+03 4.618318939208984375e+01 4.091536521911621094e+00 -7.997940778732299805e-01 3.901586830615997314e-01 -1.228906214237213135e-01 8.979214355349540710e-03
5.492000000000000000e+03 4.772971725463867188e+01 4.001935958862304688e+00 -7.298267483711242676e-01 3.774363994598388672e-01 -1.057171002030372620e-01 -6.267680227756500244e-02
5.493000000000000000e+03 2.289379310607910156e+01 1.140568161010742188e+01 1.414732635021209717e-01 -1.468188464641571045e-01 -1.603671233169734478e-03 1.173319816589355469e-01
5.494000000000000000e+03 3.474333953857421875e+01 1.514605331420898438e+01 2.012983113527297974e-01 -2.404551059007644653e-01 -1.174703519791364670e-02 3.320796191692352295e-01
5.495000000000000000e+03 3.539239501953125000e+01 1.509075355529785156e+01 1.679335683584213257e-01 -3.573053479194641113e-01 -5.681153014302253723e-02 2.817723453044891357e-01
5.496000000000000000e+03 1.699077224731445312e+01 -2.354700279235839844e+01 -4.128731414675712585e-02 -2.819592356681823730e-01 -9.697397053241729736e-02 -3.962967991828918457e-01
5.497000000000000000e+03 1.951525115966796875e+01 -2.488977241516113281e+01 2.605402767658233643e-01 1.303037256002426147e-01 1.172531992197036743e-01 -2.936739623546600342e-01
5.498000000000000000e+03 1.338659381866455078e+01 -3.907933712005615234e+00 3.706226358190178871e-03 -1.510391128249466419e-03 6.587505922652781010e-04 -3.167458251118659973e-02
5.499000000000000000e+03 2.985738754272460938e+01 -2.859735488891601562e+01 3.928768038749694824e-01 4.455251619219779968e-02 1.312287896871566772e-01 -2.262795269489288330e-01
5.500000000000000000e+03 6.724596405029296875e+01 2.928360176086425781e+01 1.082567095756530762e+00 4.147711753845214844e+00 1.569083690643310547e+00 4.383102059364318848e-01
5.501000000000000000e+03 3.865620040893554688e+01 -1.521749591827392578e+01 -6.801360845565795898e-01 9.216176867485046387e-01 7.244446873664855957e-02 -3.817696273326873779e-01
5.502000000000000000e+03 4.443734741210937500e+01 -2.557552528381347656e+01 3.510816991329193115e-01 6.961398124694824219e-01 3.141664564609527588e-01 -4.265260696411132812e-02
5.503000000000000000e+03 1.649839782714843750e+01 -2.389525794982910156e+01 2.682888694107532501e-02 -3.943419158458709717e-01 -1.102539077401161194e-01 -3.927029669284820557e-01
5.504000000000000000e+03 5.285676574707031250e+01 4.321055412292480469e+00 -3.911852538585662842e-01 2.266939729452133179e-01 -4.934738576412200928e-02 -1.866344064474105835e-01
5.505000000000000000e+03 1.666878700256347656e+01 -2.185113906860351562e+01 -3.476087749004364014e-01 -3.280535936355590820e-01 -2.026987075805664062e-01 -3.942713141441345215e-01
5.506000000000000000e+03 1.712759590148925781e+01 -2.116819763183593750e+01 -4.182864129543304443e-01 -2.124437540769577026e-01 -1.892190426588058472e-01 -4.405279159545898438e-01
5.507000000000000000e+03 2.368459129333496094e+01 1.494262504577636719e+01 -2.482937872409820557e-01 -1.017360240221023560e-01 -1.050089448690414429e-01 9.459826350212097168e-02
5.508000000000000000e+03 2.314710235595703125e+01 1.464354705810546875e+01 -2.047623246908187866e-01 -1.130725070834159851e-01 -9.535045176744461060e-02 9.391287714242935181e-02
5.509000000000000000e+03 4.773268127441406250e+01 -1.505826282501220703e+01 -6.682755947113037109e-01 1.275665760040283203e+00 1.822170466184616089e-01 4.580173194408416748e-01
5.510000000000000000e+03 2.451787948608398438e+01 1.365386581420898438e+01 -9.505282342433929443e-02 -1.059591695666313171e-01 -6.030359864234924316e-02 6.579659134149551392e-02
5.511000000000000000e+03 2.431165504455566406e+01 1.255500984191894531e+01 6.300956755876541138e-02 -1.087956428527832031e-01 -1.373582333326339722e-02 7.696820795536041260e-02
5.512000000000000000e+03 2.254505729675292969e+01 5.721543312072753906e+00 -3.820327669382095337e-02 -1.845835745334625244e-01 -6.683605909347534180e-02 1.705326139926910400e-01
5.513000000000000000e+03 3.865081787109375000e+00 3.614333724975585938e+01 8.771063387393951416e-02 -5.953956246376037598e-01 -1.523054987192153931e-01 -9.837440215051174164e-03
5.514000000000000000e+03 3.632061481475830078e+00 3.462151718139648438e+01 1.070378422737121582e-01 -6.636940240859985352e-01 -1.669968515634536743e-01 5.536491423845291138e-02
5.515000000000000000e+03 3.270636320114135742e+00 -2.539409065246582031e+01 1.549411565065383911e-02 -1.428908258676528931e-01 -3.821901232004165649e-02 1.457604672759771347e-02
5.516000000000000000e+03 2.032378387451171875e+01 -1.609012794494628906e+01 -4.507753551006317139e-01 -1.542489230632781982e-01 -1.815072894096374512e-01 -3.864920139312744141e-01
5.517000000000000000e+03 2.152092361450195312e+01 -1.650369071960449219e+01 -4.976188838481903076e-01 -2.441060394048690796e-01 -2.225174754858016968e-01 -4.312682151794433594e-01
5.518000000000000000e+03 6.848498535156250000e+01 3.028571319580078125e+01 8.667616248130798340e-01 4.371695041656494141e+00 1.571537017822265625e+00 2.445295304059982300e-01
5.519000000000000000e+03 6.719108581542968750e+01 3.053778839111328125e+01 8.388354182243347168e-01 4.347350597381591797e+00 1.555855751037597656e+00 4.043318629264831543e-01
5.520000000000000000e+03 3.760233163833618164e+00 -1.025027465820312500e+01 -9.745310992002487183e-03 -2.414160780608654022e-02 -1.016607508063316345e-02 2.369942329823970795e-02
5.521000000000000000e+03 1.094596862792968750e+01 -9.582904815673828125e+00 -7.664076983928680420e-02 -3.294735401868820190e-02 -3.287643939256668091e-02 -7.615668326616287231e-02
5.522000000000000000e+03 7.042294311523437500e+01 2.095322418212890625e+01 -1.831679344177246094e+00 4.406440734863281250e+00 7.724283337593078613e-01 -1.341472387313842773e+00
5.523000000000000000e+03 6.662782287597656250e+01 2.692863273620605469e+01 1.433091163635253906e+00 3.546333551406860352e+00 1.493827462196350098e+00 4.610919356346130371e-01
5.524000000000000000e+03 4.309515953063964844e+00 -5.901870727539062500e+00 8.233523927628993988e-03 -1.276331394910812378e-02 -1.358937122859060764e-03 2.576932683587074280e-02
5.525000000000000000e+03 2.448035621643066406e+01 4.928168296813964844e+00 -1.617038995027542114e-01 -9.431274980306625366e-02 -7.680499553680419922e-02 2.167156785726547241e-01
5.526000000000000000e+03 2.227785682678222656e+01 6.779116630554199219e+00 1.650604903697967529e-01 -1.952581256628036499e-01 -9.059289470314979553e-03 1.533759385347366333e-01
5.527000000000000000e+03 4.726392745971679688e+01 2.055741882324218750e+01 7.786363363265991211e-02 7.266262769699096680e-01 2.413469702005386353e-01 -1.830090302973985672e-03
5.528000000000000000e+03 7.565186500549316406e+00 -5.341917037963867188e+00 1.033838745206594467e-02 -4.217854887247085571e-02 -9.552048519253730774e-03 -6.328306160867214203e-03
5.529000000000000000e+03 6.948921203613281250e+00 -5.256338596343994141e+00 1.145053654909133911e-02 -3.608463332056999207e-02 -7.390229031443595886e-03 1.294911606237292290e-03
5.530000000000000000e+03 6.219032287597656250e+00 -4.707161903381347656e+00 1.262760907411575317e-02 -2.618880756199359894e-02 -4.068359732627868652e-03 9.239070117473602295e-03
5.531000000000000000e+03 6.331016540527343750e+00 -5.376308917999267578e+00 1.551113277673721313e-02 -3.574997931718826294e-02 -6.071654614061117172e-03 9.354554116725921631e-03
5.532000000000000000e+03 7.518869781494140625e+01 -3.169764137268066406e+01 1.565129309892654419e-01 6.350468635559082031e+00 1.952094435691833496e+00 5.003457665443420410e-01
5.533000000000000000e+03 2.611866569519042969e+01 4.647724628448486328e+00 -1.682300716638565063e-01 8.351320773363113403e-02 -2.541505917906761169e-02 2.447245270013809204e-01
5.534000000000000000e+03 2.482711219787597656e+01 6.924868583679199219e+00 2.114378660917282104e-01 -7.981411367654800415e-02 3.948712721467018127e-02 1.776911467313766479e-01
5.535000000000000000e+03 2.459854698181152344e+01 5.608455657958984375e+00 -1.588332280516624451e-02 -9.279742091894149780e-02 -3.260422497987747192e-02 2.061900347471237183e-01
5.536000000000000000e+03 2.378412437438964844e+01 5.126064777374267578e+00 -1.424833089113235474e-01 -1.424321085214614868e-01 -8.547462522983551025e-02 2.062532007694244385e-01
5.537000000000000000e+03 7.587035369873046875e+01 3.066042137145996094e+01 1.626460105180740356e-01 6.721790313720703125e+00 2.065330982208251953e+00 -2.161191105842590332e-01
5.538000000000000000e+03 7.575600433349609375e+01 1.326690673828125000e+01 1.072061896324157715e+00 8.157418251037597656e+00 2.768843889236450195e+00 5.421521663665771484e-01
5.539000000000000000e+03 4.289667892456054688e+01 5.073276519775390625e+00 -4.831987917423248291e-01 -8.740506321191787720e-02 -1.711811572313308716e-01 2.283052653074264526e-01
5.540000000000000000e+03 7.637496948242187500e+01 3.320079803466796875e+01 9.363102167844772339e-02 6.888603687286376953e+00 2.094670295715332031e+00 -6.405182182788848877e-02
5.541000000000000000e+03 7.483786773681640625e+01 3.355903244018554688e+01 1.617169529199600220e-01 6.350138187408447266e+00 1.953556537628173828e+00 -2.258082479238510132e-02
5.542000000000000000e+03 3.573245239257812500e+01 -5.350354194641113281e+00 -4.254585206508636475e-01 5.165922641754150391e-01 2.734012901782989502e-02 -5.309060215950012207e-01
5.543000000000000000e+03 7.583732604980468750e+01 2.905250740051269531e+01 1.404501497745513916e-01 6.766489982604980469e+00 2.072082042694091797e+00 -3.286084532737731934e-01
5.544000000000000000e+03 7.479043579101562500e+01 -2.764168167114257812e+01 -1.239617109298706055e+00 7.397274494171142578e+00 1.847297310829162598e+00 6.956154704093933105e-01
5.545000000000000000e+03 7.640349578857421875e+01 -2.935078620910644531e+01 -4.228383898735046387e-01 7.439376831054687500e+00 2.104961633682250977e+00 3.147431612014770508e-01
5.546000000000000000e+03 7.404118347167968750e+01 3.284411239624023438e+01 2.322527319192886353e-01 6.095154285430908203e+00 1.898222088813781738e+00 -5.607768520712852478e-02
5.547000000000000000e+03 1.799546432495117188e+01 -1.344694232940673828e+01 -2.146261036396026611e-01 3.120919875800609589e-02 -5.502507090568542480e-02 3.715605288743972778e-02
5.548000000000000000e+03 3.442580032348632812e+01 -1.366458034515380859e+01 -6.755764484405517578e-01 3.069224581122398376e-02 -1.934652626514434814e-01 6.156195700168609619e-02
5.549000000000000000e+03 3.568328094482421875e+01 -1.229382705688476562e+01 -4.014462530612945557e-01 5.824041366577148438e-01 5.428736656904220581e-02 -4.910356551408767700e-02
5.550000000000000000e+03 1.273599338531494141e+01 -4.046704292297363281e+00 1.879471354186534882e-03 -1.138018351048231125e-02 -2.850213553756475449e-03 -3.745740279555320740e-02
5.551000000000000000e+03 1.478489589691162109e+01 -4.793029785156250000e+00 -4.676486365497112274e-03 2.161189354956150055e-02 5.080622155219316483e-03 -2.627017162740230560e-02
5.552000000000000000e+03 7.547949981689453125e+01 3.530901718139648438e+01 6.665021181106567383e-02 6.627319335937500000e+00 2.008190870285034180e+00 1.907471939921379089e-02
5.553000000000000000e+03 4.035471439361572266e+00 -2.544832992553710938e+01 1.191723812371492386e-02 -1.159442365169525146e-01 -3.120809979736804962e-02 1.087379176169633865e-02
5.554000000000000000e+03 3.294269943237304688e+01 -5.231628894805908203e+00 -1.659487634897232056e-01 -1.460862755775451660e-01 -9.361051768064498901e-02 -5.768391489982604980e-01
5.555000000000000000e+03 7.574945068359375000e+01 -3.332312393188476562e+01 2.357192486524581909e-01 6.651741504669189453e+00 2.066238164901733398e+00 2.460993975400924683e-01
5.556000000000000000e+03 3.903684234619140625e+01 1.869249725341796875e+01 3.316271007061004639e-01 -6.302202492952346802e-02 8.058152347803115845e-02 5.866982415318489075e-02
5.557000000000000000e+03 6.060535430908203125e+01 6.391976356506347656e+00 -2.539036989212036133e+00 6.662280082702636719e+00 1.236972928047180176e+00 -1.865753293037414551e+00
5.558000000000000000e+03 5.950418472290039062e+01 3.949928522109985352e+00 -1.925904870033264160e+00 6.378054141998291016e+00 1.335644721984863281e+00 -2.475579738616943359e+00
5.559000000000000000e+03 7.546494293212890625e+01 2.419103050231933594e+01 -3.501251935958862305e-01 7.060422897338867188e+00 2.013089418411254883e+00 -4.104867279529571533e-01
5.560000000000000000e+03 7.543757629394531250e+01 2.275154876708984375e+01 -5.894007682800292969e-01 7.306439399719238281e+00 2.015111684799194336e+00 -2.222800403833389282e-01
5.561000000000000000e+03 7.643001556396484375e+01 -2.536910247802734375e+01 -1.868148893117904663e-01 8.519450187683105469e+00 2.499790668487548828e+00 -7.633872032165527344e-01
5.562000000000000000e+03 7.576780700683593750e+01 -2.594211578369140625e+01 -6.232341527938842773e-01 8.611802101135253906e+00 2.396570444107055664e+00 -5.237511396408081055e-01
5.563000000000000000e+03 7.612182617187500000e+01 2.108119773864746094e+01 -6.154857277870178223e-01 7.736602306365966797e+00 2.136334896087646484e+00 2.427691221237182617e-01
5.564000000000000000e+03 7.611479187011718750e+01 2.427635192871093750e+01 -2.813645303249359131e-01 7.308108329772949219e+00 2.108023166656494141e+00 -3.193587362766265869e-01
5.565000000000000000e+03 7.546403503417968750e+01 2.099585914611816406e+01 -7.754353880882263184e-01 7.620470046997070312e+00 2.053510427474975586e+00 1.877967417240142822e-01
5.566000000000000000e+03 7.669566345214843750e+01 2.673328590393066406e+01 -1.308859791606664658e-02 7.273066997528076172e+00 2.177993535995483398e+00 -3.637447655200958252e-01
5.567000000000000000e+03 7.612804412841796875e+01 2.347496795654296875e+01 -3.673121929168701172e-01 7.396137237548828125e+00 2.108647584915161133e+00 -2.362020462751388550e-01
5.568000000000000000e+03 7.643670654296875000e+01 -1.817876434326171875e+01 1.937295049428939819e-01 8.201888084411621094e+00 2.518685340881347656e+00 9.974646568298339844e-01
5.569000000000000000e+03 7.578185272216796875e+01 -1.702213668823242188e+01 -2.068965882062911987e-01 7.887346267700195312e+00 2.304134845733642578e+00 8.825451731681823730e-01
5.570000000000000000e+03 7.623554229736328125e+01 4.476077079772949219e+00 -3.269468545913696289e-01 7.201914787292480469e+00 2.062490463256835938e+00 -5.489156246185302734e-01
5.571000000000000000e+03 7.708079528808593750e+01 -2.386295890808105469e+01 3.711752891540527344e-01 8.217399597167968750e+00 2.576572656631469727e+00 -6.992926597595214844e-01
5.572000000000000000e+03 7.678242492675781250e+01 2.271965026855468750e+01 -3.598244786262512207e-01 7.725073337554931641e+00 2.209574699401855469e+00 -2.628711424767971039e-02
5.573000000000000000e+03 7.641826629638671875e+01 -2.143442726135253906e+01 1.059480667114257812e+00 8.674264907836914062e+00 2.920123577117919922e+00 1.270723938941955566e-01
5.574000000000000000e+03 7.619260406494140625e+01 -2.084329414367675781e+01 1.094953179359436035e+00 8.790101051330566406e+00 2.965516328811645508e+00 2.852955758571624756e-01
5.575000000000000000e+03 7.659966278076171875e+01 1.160970878601074219e+01 7.875254154205322266e-01 7.415663719177246094e+00 2.460956573486328125e+00 -6.230815127491950989e-02
5.576000000000000000e+03 7.668072509765625000e+01 -2.697602844238281250e+01 -6.264181733131408691e-01 8.208477973937988281e+00 2.274618148803710938e+00 -3.742985129356384277e-01
5.577000000000000000e+03 7.587306213378906250e+01 -2.657394409179687500e+01 -8.599724173545837402e-01 8.353213310241699219e+00 2.247972488403320312e+00 -2.754698991775512695e-01
5.578000000000000000e+03 7.693199920654296875e+01 -1.577779006958007812e+01 -3.989587724208831787e-01 8.137851715087890625e+00 2.321667909622192383e+00 9.291867017745971680e-01
5.579000000000000000e+03 7.530369567871093750e+01 -1.689067459106445312e+01 -2.710812985897064209e-01 7.689368247985839844e+00 2.225486040115356445e+00 6.619952917098999023e-01
5.580000000000000000e+03 7.697571563720703125e+01 6.822953701019287109e+00 -1.027343273162841797e-01 7.343277931213378906e+00 2.172163009643554688e+00 -8.342128992080688477e-01
5.581000000000000000e+03 7.636997985839843750e+01 6.152847290039062500e+00 -2.288883775472640991e-01 7.416383266448974609e+00 2.156248569488525391e+00 -7.661179900169372559e-01
5.582000000000000000e+03 7.713248443603515625e+01 -2.032279586791992188e+01 6.893216967582702637e-01 8.132438659667968750e+00 2.646528244018554688e+00 5.251678824424743652e-01
5.583000000000000000e+03 7.677068328857421875e+01 -2.206540107727050781e+01 8.714714646339416504e-01 8.375864028930664062e+00 2.774200677871704102e+00 -1.418246924877166748e-01
5.584000000000000000e+03 7.531314849853515625e+01 -1.334115409851074219e+01 -1.303299188613891602e+00 6.750057220458984375e+00 1.634027361869812012e+00 6.985721588134765625e-01
5.585000000000000000e+03 7.453951263427734375e+01 9.014857292175292969e+00 5.392354726791381836e-01 8.437279701232910156e+00 2.692954540252685547e+00 -5.535141825675964355e-01
5.586000000000000000e+03 7.653897857666015625e+01 1.091054534912109375e+01 7.331660389900207520e-01 7.443444728851318359e+00 2.452983140945434570e+00 -3.624895215034484863e-01
5.587000000000000000e+03 7.680044555664062500e+01 1.645376968383789062e+01 7.216772437095642090e-02 7.713472843170166016e+00 2.335692167282104492e+00 1.129851341247558594e+00
5.588000000000000000e+03 7.629069519042968750e+01 1.376048564910888672e+01 7.703973054885864258e-01 7.741637706756591797e+00 2.553610563278198242e+00 6.987913250923156738e-01
5.589000000000000000e+03 7.689240264892578125e+01 -1.957932281494140625e+01 6.503517031669616699e-01 8.246469497680664062e+00 2.669046401977539062e+00 7.935432195663452148e-01
5.590000000000000000e+03 7.687924957275390625e+01 1.722601699829101562e+01 -9.063086658716201782e-02 7.779590129852294922e+00 2.306687831878662109e+00 1.109642863273620605e+00
5.591000000000000000e+03 7.583399200439453125e+01 1.816041946411132812e+01 -4.933852553367614746e-01 8.039258003234863281e+00 2.263761758804321289e+00 9.746607542037963867e-01
5.592000000000000000e+03 7.536134338378906250e+01 1.236831760406494141e+01 1.264747858047485352e+00 8.477904319763183594e+00 2.922795534133911133e+00 2.754451334476470947e-01
5.593000000000000000e+03 7.682354736328125000e+01 1.680233716964721680e+00 -3.252147734165191650e-01 7.340858459472656250e+00 2.104693174362182617e+00 -3.014409542083740234e-01
5.594000000000000000e+03 7.701545715332031250e+01 2.375845193862915039e+00 -2.811900079250335693e-01 7.361825466156005859e+00 2.124190568923950195e+00 -3.662326633930206299e-01
5.595000000000000000e+03 7.445475769042968750e+01 7.313489317893981934e-01 -3.394626975059509277e-01 5.610680103302001953e+00 1.581365227699279785e+00 -5.001659393310546875e-01
5.596000000000000000e+03 7.600475311279296875e+01 1.485540771484375000e+01 6.231159567832946777e-01 7.983967304229736328e+00 2.582124948501586914e+00 9.979203939437866211e-01
5.597000000000000000e+03 7.584834289550781250e+01 1.417263412475585938e+01 8.338195085525512695e-01 8.069711685180664062e+00 2.671059370040893555e+00 8.332564234733581543e-01
5.598000000000000000e+03 7.508042907714843750e+01 1.080888748168945312e+00 -3.926105201244354248e-01 6.230570316314697266e+00 1.751387953758239746e+00 -4.185543358325958252e-01
5.599000000000000000e+03 7.659703063964843750e+01 2.913324737548828125e+01 1.018337905406951904e-01 7.064751625061035156e+00 2.149975538253784180e+00 -2.960390448570251465e-01
5.600000000000000000e+03 7.697254943847656250e+01 7.520106315612792969e+00 -6.842302158474922180e-03 7.327356338500976562e+00 2.196154117584228516e+00 -8.613098263740539551e-01
5.601000000000000000e+03 7.624817657470703125e+01 5.563880443572998047e+00 -2.981187403202056885e-01 7.346796989440917969e+00 2.114603519439697266e+00 -6.700256466865539551e-01
5.602000000000000000e+03 7.645456695556640625e+01 -2.642531394958496094e+01 -5.831350684165954590e-01 8.312675476074218750e+00 2.318861961364746094e+00 -5.208107233047485352e-01
5.603000000000000000e+03 7.520510101318359375e+01 -1.404204654693603516e+01 -1.063292980194091797e+00 6.557452201843261719e+00 1.648247718811035156e+00 6.656316518783569336e-01
5.604000000000000000e+03 7.678591918945312500e+01 8.927639007568359375e+00 2.525967657566070557e-01 7.332407474517822266e+00 2.275501251220703125e+00 -7.889328002929687500e-01
5.605000000000000000e+03 7.655235290527343750e+01 9.667318344116210938e+00 4.614448547363281250e-01 7.429083824157714844e+00 2.367158651351928711e+00 -6.802558898925781250e-01
5.606000000000000000e+03 7.691958618164062500e+01 8.219180107116699219e+00 1.122715324163436890e-01 7.310388565063476562e+00 2.226798057556152344e+00 -8.507032990455627441e-01
5.607000000000000000e+03 7.573513793945312500e+01 -3.389283418655395508e-01 -5.633679032325744629e-01 7.058528900146484375e+00 1.948548316955566406e+00 -3.472024500370025635e-01
5.608000000000000000e+03 7.543410491943359375e+01 -1.265191650390625000e+01 -1.607873916625976562e+00 7.327909469604492188e+00 1.716010570526123047e+00 6.874974370002746582e-01
5.609000000000000000e+03 7.550602722167968750e+01 1.086398029327392578e+01 1.099914550781250000e+00 8.170380592346191406e+00 2.781088352203369141e+00 -3.021633327007293701e-01
5.610000000000000000e+03 7.629885864257812500e+01 1.218006038665771484e+01 9.089592695236206055e-01 7.645514488220214844e+00 2.566342115402221680e+00 1.273737847805023193e-01
5.611000000000000000e+03 7.679762268066406250e+01 1.342159843444824219e+01 6.590925455093383789e-01 7.389347076416015625e+00 2.414531946182250977e+00 5.349103212356567383e-01
5.612000000000000000e+03 7.596386718750000000e+01 -1.826386213302612305e+00 -5.835925340652465820e-01 7.843120098114013672e+00 2.177858352661132812e+00 -1.730319410562515259e-01
5.613000000000000000e+03 7.680778503417968750e+01 -1.036545157432556152e+00 -4.965870678424835205e-01 7.791734218597412109e+00 2.188544034957885742e+00 7.828252017498016357e-02
5.614000000000000000e+03 7.681473541259765625e+01 1.946902465820312500e+01 -4.688853323459625244e-01 7.910636901855468750e+00 2.232525587081909180e+00 7.084546089172363281e-01
5.615000000000000000e+03 7.267477416992187500e+01 2.004666709899902344e+01 -1.625166416168212891e+00 6.925629138946533203e+00 1.590138792991638184e+00 -4.419910311698913574e-01
5.616000000000000000e+03 7.701618194580078125e+01 -1.227825260162353516e+01 -9.954273700714111328e-01 8.557453155517578125e+00 2.268607616424560547e+00 -2.643478810787200928e-01
5.617000000000000000e+03 7.530856323242187500e+01 5.677489757537841797e+00 -4.081932902336120605e-01 7.317262649536132812e+00 2.072720766067504883e+00 -5.033860206604003906e-01
5.618000000000000000e+03 7.617364501953125000e+01 2.068867683410644531e+00 -3.716563880443572998e-01 6.985496997833251953e+00 1.984152197837829590e+00 -3.694820404052734375e-01
5.619000000000000000e+03 3.341599464416503906e+00 -3.182999992370605469e+01 -4.128614813089370728e-02 -2.478799223899841309e-01 -8.674982190132141113e-02 -9.325884282588958740e-02
5.620000000000000000e+03 3.903505086898803711e+00 -3.018737792968750000e+01 -6.089057773351669312e-02 -1.960369050502777100e-01 -7.707824558019638062e-02 -6.847061961889266968e-02
5.621000000000000000e+03 7.608306884765625000e+01 2.031737518310546875e+01 -6.662658452987670898e-01 7.816270828247070312e+00 2.145001649856567383e+00 4.422037005424499512e-01
5.622000000000000000e+03 7.390188598632812500e+01 -1.591022205352783203e+01 -5.175789594650268555e-01 5.949137210845947266e+00 1.629467487335205078e+00 -2.237895876169204712e-01
5.623000000000000000e+03 7.516078948974609375e+01 -3.458496856689453125e+01 3.259859085083007812e-01 6.393357753753662109e+00 2.015803098678588867e+00 7.474023103713989258e-02
5.624000000000000000e+03 7.637380218505859375e+01 -3.275026702880859375e+01 1.581498086452484131e-01 6.925131797790527344e+00 2.124984502792358398e+00 2.789594829082489014e-01
5.625000000000000000e+03 7.560901641845703125e+01 -3.076584815979003906e+01 -8.491124212741851807e-02 6.781953811645507812e+00 2.009112834930419922e+00 5.018869042396545410e-01
5.626000000000000000e+03 7.590917205810546875e+01 -1.430099105834960938e+01 -9.696840047836303711e-01 7.414175033569335938e+00 1.933347344398498535e+00 6.813986301422119141e-01
5.627000000000000000e+03 7.414165496826171875e+01 -1.514887905120849609e+01 -6.203945875167846680e-01 5.693981647491455078e+00 1.522076129913330078e+00 1.644653454422950745e-02
5.628000000000000000e+03 3.450453758239746094e+00 6.712664127349853516e+00 -7.822945713996887207e-02 -8.969820104539394379e-03 -2.615978382527828217e-02 4.183948412537574768e-02
5.629000000000000000e+03 4.600798130035400391e+00 8.371900558471679688e+00 -1.372067928314208984e-01 -5.496960133314132690e-02 -5.765291675925254822e-02 1.388659775257110596e-01
5.630000000000000000e+03 3.792488813400268555e+00 -2.156888961791992188e+01 1.220921501517295837e-01 -1.270806342363357544e-01 -1.496547018177807331e-03 -9.369843453168869019e-02
5.631000000000000000e+03 3.183921098709106445e+00 -2.270768547058105469e+01 7.569397240877151489e-02 -1.433381885290145874e-01 -2.029326558113098145e-02 -4.291246458888053894e-02
5.632000000000000000e+03 6.682806968688964844e+00 1.128987789154052734e+01 -1.276697516441345215e-01 -1.476055830717086792e-01 -8.258260041475296021e-02 3.247347474098205566e-01
5.633000000000000000e+03 3.275065183639526367e+00 8.901926040649414062e+00 -7.557269185781478882e-02 -5.199822038412094116e-02 -3.827127441763877869e-02 1.253542900085449219e-01
5.634000000000000000e+03 3.264775514602661133e+00 -2.133847427368164062e+01 8.845010399818420410e-02 -1.354360729455947876e-01 -1.409579068422317505e-02 -1.032562181353569031e-01
5.635000000000000000e+03 3.732254981994628906e+00 -2.259849357604980469e+01 1.132572963833808899e-01 -1.277492046356201172e-01 -4.347573965787887573e-03 -4.878180474042892456e-02
5.636000000000000000e+03 3.271619796752929688e+00 -2.697172355651855469e+01 -1.885275356471538544e-02 -1.539773941040039062e-01 -5.184904113411903381e-02 7.790010422468185425e-03
5.637000000000000000e+03 3.268529653549194336e+00 1.714963150024414062e+01 8.663692325353622437e-02 -3.905415236949920654e-01 -9.117137640714645386e-02 8.215290307998657227e-02
5.638000000000000000e+03 3.264351606369018555e+00 1.632901191711425781e+01 8.327221870422363281e-02 -3.649902045726776123e-01 -8.451540023088455200e-02 1.170860379934310913e-01
5.639000000000000000e+03 3.591162681579589844e+00 -2.315269279479980469e+01 8.174894750118255615e-02 -1.304355263710021973e-01 -1.460597198456525803e-02 -2.362514846026897430e-02
5.640000000000000000e+03 3.460620164871215820e+00 -1.371935558319091797e+01 -4.893265292048454285e-02 -5.596854165196418762e-02 -3.147035837173461914e-02 -2.232691273093223572e-02
5.641000000000000000e+03 3.200797319412231445e+00 2.354559516906738281e+01 -5.959339067339897156e-02 -5.198547244071960449e-01 -1.738344430923461914e-01 -7.036501541733741760e-03
5.642000000000000000e+03 6.880208492279052734e+00 -1.200997543334960938e+01 -1.053925305604934692e-01 -1.498638540506362915e-01 -7.657691836357116699e-02 -6.717652827501296997e-02
5.643000000000000000e+03 7.587651062011718750e+01 2.823434066772460938e+01 1.090203002095222473e-01 6.815427303314208984e+00 2.077334403991699219e+00 -3.828479945659637451e-01
5.644000000000000000e+03 7.593029785156250000e+01 2.742185783386230469e+01 4.786860942840576172e-02 6.894765853881835938e+00 2.082790374755859375e+00 -4.147480428218841553e-01
5.645000000000000000e+03 3.897933959960937500e+00 1.953270721435546875e+01 7.751961052417755127e-02 -4.279226958751678467e-01 -1.051209196448326111e-01 5.941713228821754456e-03
5.646000000000000000e+03 3.235035657882690430e+00 1.873991966247558594e+01 7.229745388031005859e-02 -4.257771968841552734e-01 -1.060439273715019226e-01 1.928091421723365784e-02
5.647000000000000000e+03 3.751168441772460938e+01 -1.255783271789550781e+01 -5.189700126647949219e-01 1.055807828903198242e+00 1.610513329505920410e-01 -2.342715710401535034e-01
5.648000000000000000e+03 3.357493638992309570e+00 9.711843490600585938e+00 -7.215960323810577393e-02 -7.741580903530120850e-02 -4.487262666225433350e-02 1.590690016746520996e-01
5.649000000000000000e+03 4.271894931793212891e+00 1.136153125762939453e+01 -5.491299182176589966e-02 -1.462947577238082886e-01 -6.036232411861419678e-02 2.496850937604904175e-01
5.650000000000000000e+03 3.450515508651733398e+00 1.226156139373779297e+01 -8.438817225396633148e-03 -1.891791969537734985e-01 -5.928540602326393127e-02 2.217047810554504395e-01
5.651000000000000000e+03 3.990533113479614258e+00 8.726303100585937500e+00 -1.111416369676589966e-01 -5.609162896871566772e-02 -5.016998201608657837e-02 1.407144218683242798e-01
5.652000000000000000e+03 5.857644081115722656e+00 2.249135780334472656e+01 -9.105671942234039307e-02 -4.816197752952575684e-01 -1.718029379844665527e-01 8.033107966184616089e-02
5.653000000000000000e+03 3.243015527725219727e+00 2.031974601745605469e+01 3.852359950542449951e-02 -4.538542926311492920e-01 -1.245992109179496765e-01 -2.485986985266208649e-02
5.654000000000000000e+03 4.700752735137939453e+00 1.808563995361328125e+01 1.423086822032928467e-01 -3.815005421638488770e-01 -7.175756245851516724e-02 7.416451722383499146e-02
5.655000000000000000e+03 3.262591361999511719e+00 1.389192008972167969e+01 4.130459576845169067e-02 -2.675185501575469971e-01 -6.786418706178665161e-02 2.032972127199172974e-01
5.656000000000000000e+03 4.026582241058349609e+00 -2.703516578674316406e+01 -3.347480297088623047e-02 -1.317879706621170044e-01 -4.957883059978485107e-02 -3.786239540204405785e-03
5.657000000000000000e+03 3.129563808441162109e+00 -7.322812557220458984e+00 2.721858909353613853e-03 5.414312239736318588e-03 2.440851414576172829e-03 3.144559264183044434e-02
5.658000000000000000e+03 4.429570198059082031e+00 -1.435824012756347656e+01 -7.579796761274337769e-02 -1.311461925506591797e-01 -6.208324804902076721e-02 -5.689958110451698303e-02
5.659000000000000000e+03 4.513503551483154297e+00 2.345539474487304688e+01 -8.854716271162033081e-02 -5.495508909225463867e-01 -1.914294213056564331e-01 3.737509623169898987e-02
5.660000000000000000e+03 3.246242523193359375e+00 -1.532447910308837891e+01 -5.967209115624427795e-02 -6.681017577648162842e-02 -3.794468194246292114e-02 -5.592204630374908447e-02
5.661000000000000000e+03 6.982368469238281250e+00 1.718607711791992188e+01 2.774950265884399414e-01 -2.534666061401367188e-01 7.208527065813541412e-03 1.700507849454879761e-01
5.662000000000000000e+03 3.817551136016845703e+00 -9.007122993469238281e+00 -3.708180738613009453e-03 -2.066688425838947296e-02 -7.312519475817680359e-03 2.885464951395988464e-02
5.663000000000000000e+03 3.213693618774414062e+00 -3.252819824218750000e+01 -3.366775065660476685e-02 -2.667919099330902100e-01 -9.013789892196655273e-02 -1.021593287587165833e-01
5.664000000000000000e+03 4.565083026885986328e+00 -2.943502998352050781e+01 -7.586368918418884277e-02 -1.705420762300491333e-01 -7.392173260450363159e-02 -6.840734928846359253e-02
5.665000000000000000e+03 4.795917510986328125e+00 -1.130450916290283203e+01 -4.022405669093132019e-02 -8.101180195808410645e-02 -3.637075796723365784e-02 -3.033714834600687027e-03
5.666000000000000000e+03 5.261453628540039062e+00 -1.176911067962646484e+01 -5.090542882680892944e-02 -9.910167008638381958e-02 -4.500212892889976501e-02 -1.387284137308597565e-02
5.667000000000000000e+03 3.914145469665527344e+00 -1.096581363677978516e+01 -2.171880938112735748e-02 -3.800915926694869995e-02 -1.791839115321636200e-02 1.482613012194633484e-02
5.668000000000000000e+03 3.863585948944091797e+00 2.352045631408691406e+01 -7.299637049436569214e-02 -5.324181914329528809e-01 -1.816243678331375122e-01 1.026897784322500229e-02
5.669000000000000000e+03 7.549369335174560547e+00 -3.082467651367187500e+01 -1.507915407419204712e-01 -2.031646072864532471e-01 -1.061868444085121155e-01 -1.813533902168273926e-01
5.670000000000000000e+03 3.918113708496093750e+00 1.401471233367919922e+01 6.261362880468368530e-02 -2.661881744861602783e-01 -6.107236817479133606e-02 2.281561642885208130e-01
5.671000000000000000e+03 3.644491910934448242e+00 -3.393822097778320312e+01 -2.391871437430381775e-02 -3.067976236343383789e-01 -9.921490401029586792e-02 -1.337525844573974609e-01
5.672000000000000000e+03 9.198554039001464844e+00 -3.244118499755859375e+01 -1.552764177322387695e-01 -2.771090269088745117e-01 -1.297156363725662231e-01 -2.482181489467620850e-01
5.673000000000000000e+03 3.985118150711059570e+00 -2.783228683471679688e+01 -4.453414678573608398e-02 -1.468963176012039185e-01 -5.742913857102394104e-02 -1.622778736054897308e-02
5.674000000000000000e+03 3.885762453079223633e+00 2.193618202209472656e+01 -1.265471521764993668e-02 -4.830470383167266846e-01 -1.487105190753936768e-01 -1.915399543941020966e-02
5.675000000000000000e+03 3.973270654678344727e+00 2.112455940246582031e+01 2.093525975942611694e-02 -4.636434316635131836e-01 -1.328124552965164185e-01 -1.790452934801578522e-02
5.676000000000000000e+03 6.686580181121826172e+00 1.514411449432373047e+01 2.166375815868377686e-01 -2.374648749828338623e-01 -6.248189602047204971e-03 2.806524336338043213e-01
5.677000000000000000e+03 6.716398620605468750e+01 -2.703002548217773438e+01 -1.966582894325256348e+00 4.668310642242431641e+00 8.105182647705078125e-01 -2.034360170364379883e+00
5.678000000000000000e+03 7.608403778076171875e+01 2.507269287109375000e+01 -1.786103844642639160e-01 7.187951087951660156e+00 2.102802038192749023e+00 -3.968411087989807129e-01
5.679000000000000000e+03 4.304319858551025391e+00 -8.488134384155273438e+00 1.263135578483343124e-03 -2.792725712060928345e-02 -7.999236695468425751e-03 2.761805802583694458e-02
5.680000000000000000e+03 4.423729896545410156e+00 -6.452397823333740234e+00 9.190458804368972778e-03 -1.756216958165168762e-02 -2.511512953788042068e-03 2.677173539996147156e-02
5.681000000000000000e+03 4.269310474395751953e+00 3.359707260131835938e+01 1.680003702640533447e-01 -5.651007294654846191e-01 -1.191301196813583374e-01 1.106156930327415466e-01
5.682000000000000000e+03 3.504577636718750000e+00 3.379704284667968750e+01 1.232747659087181091e-01 -6.794780492782592773e-01 -1.668609827756881714e-01 9.869643300771713257e-02
5.683000000000000000e+03 3.111396408081054688e+01 2.904739379882812500e+01 1.382882893085479736e-01 -1.042843163013458252e-01 1.020119152963161469e-02 8.641897886991500854e-02
5.684000000000000000e+03 5.946828460693359375e+01 2.067027091979980469e+01 -8.794496059417724609e-01 3.129019260406494141e+00 6.748708486557006836e-01 7.998269200325012207e-01
5.685000000000000000e+03 6.080262756347656250e+01 2.021157455444335938e+01 -1.038233637809753418e+00 4.594433784484863281e+00 1.066860079765319824e+00 1.640972852706909180e+00
5.686000000000000000e+03 4.230148315429687500e+00 -3.488838958740234375e+01 -1.341090817004442215e-02 -3.244481384754180908e-01 -1.013577207922935486e-01 -1.597080379724502563e-01
5.687000000000000000e+03 4.485391616821289062e+00 -3.157629203796386719e+01 -6.763002276420593262e-02 -2.281040102243423462e-01 -8.872020989656448364e-02 -1.185382604598999023e-01
5.688000000000000000e+03 6.371386718750000000e+01 -1.516836643218994141e+01 -2.690270185470581055e+00 7.816972255706787109e+00 1.538010597229003906e+00 6.692020893096923828e-01
5.689000000000000000e+03 7.573498535156250000e+01 3.407363891601562500e+01 9.654549509286880493e-02 6.695175170898437500e+00 2.037516117095947266e+00 -1.358750648796558380e-02
5.690000000000000000e+03 7.635058593750000000e+01 3.397756195068359375e+01 7.664924114942550659e-02 6.896950721740722656e+00 2.092080116271972656e+00 -3.641859441995620728e-02
5.691000000000000000e+03 3.336601257324218750e+01 1.444983196258544922e+01 -3.020153939723968506e-02 1.187491565942764282e-01 2.656428515911102295e-02 3.724018037319183350e-01
5.692000000000000000e+03 3.407675170898437500e+01 1.518765354156494141e+01 1.832313388586044312e-01 -7.720950245857238770e-02 3.180655092000961304e-02 3.483147025108337402e-01
5.693000000000000000e+03 4.449259281158447266e+00 3.553806304931640625e+01 1.194961294531822205e-01 -5.133022665977478027e-01 -1.181418448686599731e-01 6.775767076760530472e-03
5.694000000000000000e+03 4.881361961364746094e+00 -3.416625976562500000e+01 -3.232338652014732361e-02 -2.949158847332000732e-01 -9.817177802324295044e-02 -1.761877238750457764e-01
5.695000000000000000e+03 7.363286590576171875e+01 -2.946453666687011719e+01 -2.844060957431793213e-01 5.570537090301513672e+00 1.585839390754699707e+00 1.164717793464660645e+00
5.696000000000000000e+03 4.064681529998779297e+00 -3.220339202880859375e+01 -5.052082985639572144e-02 -2.474824637174606323e-01 -8.940098434686660767e-02 -1.204530522227287292e-01
5.697000000000000000e+03 6.957246398925781250e+01 1.437935233116149902e+00 1.253885984420776367e+00 2.488818883895874023e+00 1.122811436653137207e+00 2.801774263381958008e+00
5.698000000000000000e+03 8.790656089782714844e+00 -5.328342437744140625e+00 6.609101314097642899e-03 -4.164240509271621704e-02 -1.050999108701944351e-02 -1.883850432932376862e-02
5.699000000000000000e+03 5.723972320556640625e+01 1.494611644744873047e+01 1.914734244346618652e+00 5.271275043487548828e+00 2.155802726745605469e+00 -1.066570639610290527e+00
5.700000000000000000e+03 7.525246143341064453e+00 4.557976722717285156e+00 -1.526756733655929565e-01 -6.227803975343704224e-02 -6.448611617088317871e-02 1.094245258718729019e-02
5.701000000000000000e+03 7.523767852783203125e+01 3.203511047363281250e+01 1.909877359867095947e-01 6.473558425903320312e+00 1.999363899230957031e+00 -1.371970623731613159e-01
5.702000000000000000e+03 5.705399322509765625e+01 2.168301010131835938e+01 -1.415572166442871094e+00 1.693242311477661133e+00 8.330103754997253418e-02 -1.599597930908203125e+00
5.703000000000000000e+03 5.544400024414062500e+01 2.223372268676757812e+01 -1.665889620780944824e+00 3.078516006469726562e+00 4.237878918647766113e-01 -2.002769708633422852e+00
5.704000000000000000e+03 5.541408157348632812e+01 2.010887145996093750e+01 -3.753775358200073242e-01 3.261263847351074219e+00 8.657659292221069336e-01 -2.024391651153564453e+00
5.705000000000000000e+03 3.657862091064453125e+01 2.002180480957031250e+01 2.775759100914001465e-01 -4.831343516707420349e-02 6.877873837947845459e-02 1.928741037845611572e-01
5.706000000000000000e+03 3.625077056884765625e+01 1.862924385070800781e+01 3.716752827167510986e-01 -1.427570730447769165e-01 6.867546588182449341e-02 2.339988350868225098e-01
5.707000000000000000e+03 4.247850418090820312e+01 -2.492251777648925781e+01 3.365758955478668213e-01 7.378920316696166992e-01 3.223403692245483398e-01 2.646563649177551270e-01
5.708000000000000000e+03 3.127256202697753906e+01 1.380335807800292969e+01 -2.386998981237411499e-01 6.955442428588867188e-01 1.370532959699630737e-01 5.236443877220153809e-01
5.709000000000000000e+03 1.216635513305664062e+01 -4.929327011108398438e+00 3.123898990452289581e-03 -1.028785482048988342e-02 -2.149186795577406883e-03 -3.369212523102760315e-02
5.710000000000000000e+03 4.159524154663085938e+01 -1.850189018249511719e+01 4.169183373451232910e-01 3.323732614517211914e-01 2.247874736785888672e-01 -3.231591582298278809e-01
5.711000000000000000e+03 6.565425109863281250e+01 2.241625785827636719e+01 -1.195548415184020996e+00 1.329833388328552246e+00 4.028546810150146484e-02 9.366533756256103516e-01
5.712000000000000000e+03 6.606978607177734375e+01 2.524076271057128906e+01 1.219550728797912598e+00 2.967094659805297852e+00 1.255993604660034180e+00 3.961206376552581787e-01
5.713000000000000000e+03 2.219417381286621094e+01 2.870311164855957031e+01 2.322926521301269531e-01 1.425008177757263184e-01 1.124380379915237427e-01 3.157277703285217285e-01
5.714000000000000000e+03 4.449609756469726562e+01 4.781515598297119141e+00 -6.209794282913208008e-01 2.592682540416717529e-01 -1.085133478045463562e-01 1.503570824861526489e-01
5.715000000000000000e+03 4.274888038635253906e+00 5.794382572174072266e+00 -9.460766613483428955e-02 -1.039127819240093231e-02 -3.149968385696411133e-02 1.277484744787216187e-02
5.716000000000000000e+03 6.919572353363037109e+00 -6.675950050354003906e+00 9.037479758262634277e-03 -5.409763008356094360e-02 -1.351804472506046295e-02 -9.094875422306358814e-04
5.717000000000000000e+03 6.225429534912109375e+01 -2.480781936645507812e+01 3.395223319530487061e-01 2.737814664840698242e+00 9.232010841369628906e-01 -6.590595841407775879e-02
5.718000000000000000e+03 1.614755630493164062e+01 2.127821350097656250e+01 2.103919982910156250e-01 1.864417195320129395e-01 1.190501153469085693e-01 3.975539803504943848e-01
5.719000000000000000e+03 2.393802452087402344e+01 -2.536934852600097656e+01 3.802374601364135742e-01 -8.720275014638900757e-02 8.791041374206542969e-02 -1.435658484697341919e-01
5.720000000000000000e+03 2.452826309204101562e+01 -2.753161430358886719e+01 4.898622930049896240e-01 -1.492919027805328369e-01 1.021711230278015137e-01 -1.907865405082702637e-01
5.721000000000000000e+03 6.376092910766601562e+00 5.896046638488769531e+00 -1.784815788269042969e-01 -4.697211831808090210e-02 -6.763610988855361938e-02 3.997031599283218384e-02
5.722000000000000000e+03 5.451326847076416016e+00 7.253393650054931641e+00 -1.759719252586364746e-01 -4.685406014323234558e-02 -6.684779375791549683e-02 9.168300777673721313e-02
5.723000000000000000e+03 7.503438568115234375e+01 3.441867828369140625e+01 1.064374819397926331e-01 6.454456329345703125e+00 1.968268156051635742e+00 8.223663084208965302e-03
5.724000000000000000e+03 4.789786529541015625e+01 -1.346916770935058594e+01 -9.484322071075439453e-01 1.220876693725585938e+00 8.173333853483200073e-02 1.921111345291137695e-01
5.725000000000000000e+03 1.385293960571289062e+01 2.052011489868164062e+01 8.667913824319839478e-02 2.314867675304412842e-01 9.544977545738220215e-02 5.587813854217529297e-01
5.726000000000000000e+03 3.713205718994140625e+01 -3.065991210937500000e+01 5.076553821563720703e-01 5.795258283615112305e-01 3.261543512344360352e-01 1.109241843223571777e-01
5.727000000000000000e+03 4.967736721038818359e+00 -1.369058418273925781e+01 -8.422164618968963623e-02 -1.435279250144958496e-01 -6.832487136125564575e-02 -5.635233968496322632e-02
5.728000000000000000e+03 1.747720146179199219e+01 -2.035981941223144531e+01 -4.430411756038665771e-01 -1.377401053905487061e-01 -1.742343902587890625e-01 -5.227411389350891113e-01
5.729000000000000000e+03 1.854558181762695312e+01 -1.891208457946777344e+01 -3.265375494956970215e-01 -9.811651706695556641e-02 -1.273962259292602539e-01 -5.740215182304382324e-01
5.730000000000000000e+03 5.217081451416015625e+01 2.003215599060058594e+01 -3.181859254837036133e-01 3.225903987884521484e+00 8.723154067993164062e-01 -1.778049707412719727e+00
5.731000000000000000e+03 5.274704742431640625e+01 2.229758834838867188e+01 -9.927411079406738281e-01 3.903845548629760742e+00 8.733313679695129395e-01 -1.423348665237426758e+00
5.732000000000000000e+03 1.059819221496582031e+01 2.051120948791503906e+01 5.128220841288566589e-02 5.484581738710403442e-02 3.183840960264205933e-02 2.756092846393585205e-01
5.733000000000000000e+03 2.072218322753906250e+01 6.379625797271728516e+00 8.140172809362411499e-02 -1.173660829663276672e-01 -1.078930869698524475e-02 1.380349099636077881e-01
5.734000000000000000e+03 7.414186096191406250e+01 2.303063201904296875e+01 -7.553616762161254883e-01 6.710975646972656250e+00 1.786684155464172363e+00 -5.540932416915893555e-01
5.735000000000000000e+03 6.949746704101562500e+01 2.116145896911621094e+01 -1.957597374916076660e+00 3.289778947830200195e+00 3.996545076370239258e-01 -1.348366856575012207e+00
5.736000000000000000e+03 4.978218078613281250e+01 3.142490959167480469e+01 7.209823131561279297e-01 3.007651329040527344e+00 1.118590116500854492e+00 -6.183249950408935547e-01
5.737000000000000000e+03 3.915853738784790039e+00 2.437377166748046875e+01 -1.167372390627861023e-01 -5.792521834373474121e-01 -2.087968289852142334e-01 4.387780278921127319e-02
5.738000000000000000e+03 2.696449089050292969e+01 6.248577594757080078e+00 1.755323857069015503e-01 2.549795508384704590e-01 1.291535794734954834e-01 1.599852889776229858e-01
5.739000000000000000e+03 2.624909019470214844e+01 6.500750541687011719e+00 1.798736453056335449e-01 1.296427100896835327e-01 9.285490214824676514e-02 1.835032254457473755e-01
5.740000000000000000e+03 8.490806579589843750e+00 5.216103076934814453e+00 -2.299545854330062866e-01 -1.092352271080017090e-01 -1.017569452524185181e-01 5.861370265483856201e-02
5.741000000000000000e+03 7.583652019500732422e+00 5.476809024810791016e+00 -2.068873345851898193e-01 -7.782776653766632080e-02 -8.541452884674072266e-02 4.435399547219276428e-02
5.742000000000000000e+03 7.345888519287109375e+01 -2.797529602050781250e+01 -1.178240060806274414e+00 5.845102310180664062e+00 1.400058627128601074e+00 1.524389863014221191e+00
5.743000000000000000e+03 3.187949752807617188e+01 2.897994232177734375e+01 1.258358061313629150e-01 1.912258192896842957e-02 4.348751530051231384e-02 4.589436575770378113e-02
5.744000000000000000e+03 5.107984542846679688e+01 2.885984230041503906e+01 9.410448670387268066e-01 3.919610023498535156e+00 1.458196520805358887e+00 -5.688809156417846680e-01
5.745000000000000000e+03 2.916876602172851562e+01 1.337980270385742188e+01 -1.243546605110168457e-01 5.668778419494628906e-01 1.327569484710693359e-01 4.368224143981933594e-01
5.746000000000000000e+03 2.753811454772949219e+01 1.279013729095458984e+01 4.844895750284194946e-02 2.133997082710266113e-01 7.855460047721862793e-02 2.683115005493164062e-01
5.747000000000000000e+03 5.436870574951171875e+01 -1.178204822540283203e+01 -2.466821521520614624e-01 -4.832370579242706299e-01 -2.189757674932479858e-01 2.460010349750518799e-01
5.748000000000000000e+03 5.348299407958984375e+01 -1.253229331970214844e+01 -5.325546115636825562e-02 -3.557193279266357422e-01 -1.226924359798431396e-01 8.964216709136962891e-02
5.749000000000000000e+03 4.536957931518554688e+01 5.751047611236572266e+00 -4.469509124755859375e-01 4.955174326896667480e-01 1.456995960325002670e-02 4.608061909675598145e-02
5.750000000000000000e+03 3.447186279296875000e+01 -9.624383926391601562e+00 5.062967166304588318e-02 2.257945388555526733e-01 8.292726427316665649e-02 -2.922076582908630371e-01
5.751000000000000000e+03 5.764393234252929688e+01 -2.283012771606445312e+01 1.479369521141052246e+00 3.866258859634399414e+00 1.603688478469848633e+00 2.010503053665161133e+00
5.752000000000000000e+03 5.702229309082031250e+01 -2.427651977539062500e+01 6.266823410987854004e-01 4.625252246856689453e+00 1.575580358505249023e+00 1.807549118995666504e+00
5.753000000000000000e+03 4.609195327758789062e+01 -2.478747940063476562e+01 1.072510704398155212e-01 1.064201951026916504e+00 3.514358997344970703e-01 -2.639998197555541992e-01
5.754000000000000000e+03 2.630373001098632812e+01 1.101554870605468750e+01 2.512440085411071777e-01 1.243708655238151550e-01 1.126844584941864014e-01 1.445648670196533203e-01
5.755000000000000000e+03 5.062799835205078125e+01 -1.362448310852050781e+01 -2.705724835395812988e-01 2.945565879344940186e-01 7.195228245109319687e-03 1.488956958055496216e-01
5.756000000000000000e+03 9.496117591857910156e+00 2.027153015136718750e+01 7.968760281801223755e-02 -7.930307835340499878e-02 1.153588455053977668e-04 1.932711154222488403e-01
5.757000000000000000e+03 5.684724807739257812e+01 -2.586468696594238281e+01 -4.578522443771362305e-01 5.144771575927734375e+00 1.406075835227966309e+00 1.690388560295104980e+00
5.758000000000000000e+03 2.475344657897949219e+01 1.194390773773193359e+01 1.352888792753219604e-01 -8.214844018220901489e-02 1.594213023781776428e-02 9.242337942123413086e-02
5.759000000000000000e+03 1.051598072052001953e+01 -4.964970588684082031e+00 9.136211127042770386e-03 -2.501928061246871948e-02 -4.764921031892299652e-03 -3.354375809431076050e-02
5.760000000000000000e+03 6.042763519287109375e+01 3.318498373031616211e+00 -1.799975752830505371e+00 6.858921527862548828e+00 1.517683625221252441e+00 -2.472111940383911133e+00
5.761000000000000000e+03 5.854588699340820312e+01 -2.132551002502441406e+01 1.512128710746765137e+00 3.705628395080566406e+00 1.565327167510986328e+00 1.773807525634765625e+00
5.762000000000000000e+03 5.722101974487304688e+01 -2.162137222290039062e+01 1.398984193801879883e+00 4.070322990417480469e+00 1.640792131423950195e+00 1.987713694572448730e+00
5.763000000000000000e+03 5.342070007324218750e+01 -1.363784885406494141e+01 6.107097491621971130e-02 -1.973266154527664185e-01 -4.087669402360916138e-02 1.397764980792999268e-01
5.764000000000000000e+03 6.869114685058593750e+01 -2.785718536376953125e+01 -7.035031914710998535e-01 1.698372602462768555e+00 2.984608113765716553e-01 -1.039529204368591309e+00
5.765000000000000000e+03 4.540997314453125000e+01 4.462405681610107422e+00 -7.362963557243347168e-01 3.892236351966857910e-01 -1.041218116879463196e-01 5.490153655409812927e-02
5.766000000000000000e+03 4.855352401733398438e+01 -1.450810050964355469e+01 -6.342397928237915039e-01 1.106638669967651367e+00 1.417196840047836304e-01 4.334736466407775879e-01
5.767000000000000000e+03 6.289577484130859375e+01 -1.098949527740478516e+01 -2.383418083190917969e-01 9.865645408630371094e+00 2.888190984725952148e+00 3.575930893421173096e-01
5.768000000000000000e+03 6.369596481323242188e+01 4.340694904327392578e+00 -1.762846946716308594e+00 4.251383781433105469e+00 7.465611100196838379e-01 -1.221861958503723145e+00
5.769000000000000000e+03 6.816213989257812500e+01 2.215830612182617188e+01 -1.173414111137390137e+00 1.927805542945861816e+00 2.263174504041671753e-01 -1.163578867912292480e+00
5.770000000000000000e+03 3.672911453247070312e+01 1.514886665344238281e+01 2.057339698076248169e-01 -4.969279766082763672e-01 -8.735819905996322632e-02 1.648176908493041992e-01
5.771000000000000000e+03 6.680147552490234375e+01 5.062147140502929688e+00 -1.398763179779052734e+00 9.956778883934020996e-01 -1.209255903959274292e-01 1.771464228630065918e+00
5.772000000000000000e+03 6.536386871337890625e+01 4.538908481597900391e+00 -1.317835927009582520e+00 2.200150251388549805e+00 2.646942734718322754e-01 2.231159210205078125e-01
5.773000000000000000e+03 7.920807361602783203e+00 1.601202964782714844e+01 3.261572718620300293e-01 -1.464255005121231079e-01 5.391953513026237488e-02 2.481047958135604858e-01
5.774000000000000000e+03 7.656349658966064453e+00 1.736244010925292969e+01 3.101063966751098633e-01 -1.992873847484588623e-01 3.324570134282112122e-02 1.719508022069931030e-01
5.775000000000000000e+03 2.243030548095703125e+01 -1.624058723449707031e+01 -5.811197757720947266e-01 -3.192709982395172119e-01 -2.701172232627868652e-01 -4.107712805271148682e-01
5.776000000000000000e+03 5.956264877319335938e+01 7.458349704742431641e+00 -1.789612770080566406e+00 6.867474555969238281e+00 1.523358583450317383e+00 -1.299283266067504883e+00
5.777000000000000000e+03 4.861075973510742188e+01 2.495174217224121094e+01 5.283403992652893066e-01 2.400998592376708984e+00 8.788017034530639648e-01 -1.613116860389709473e-01
5.778000000000000000e+03 5.709645080566406250e+01 6.930874347686767578e+00 -1.185307025909423828e+00 5.130432128906250000e+00 1.183537602424621582e+00 -1.001297831535339355e+00
5.779000000000000000e+03 5.995820617675781250e+01 9.356555938720703125e+00 -6.042724102735519409e-02 7.446230411529541016e+00 2.215740919113159180e+00 -8.513985276222229004e-01
5.780000000000000000e+03 7.446654510498046875e+01 1.103601932525634766e+01 1.478896021842956543e+00 9.085415840148925781e+00 3.169293642044067383e+00 -1.153286360204219818e-02
5.781000000000000000e+03 7.446550750732421875e+01 1.018592453002929688e+01 1.197269320487976074e+00 8.860701560974121094e+00 3.017391443252563477e+00 -2.880955636501312256e-01
5.782000000000000000e+03 2.570065116882324219e+01 -1.491266727447509766e+01 -8.867029547691345215e-01 -5.072777271270751953e-01 -4.181942045688629150e-01 -4.552230834960937500e-01
5.783000000000000000e+03 2.787064743041992188e+01 -1.545777988433837891e+01 -5.577777028083801270e-01 -4.990300834178924561e-01 -3.170423507690429688e-01 -3.107516467571258545e-01
5.784000000000000000e+03 8.901737213134765625e+00 -1.043260097503662109e+01 -7.716842740774154663e-02 -1.140247806906700134e-01 -5.735796317458152771e-02 -5.352170765399932861e-02
5.785000000000000000e+03 2.773535156250000000e+01 -1.732927703857421875e+01 -2.253712862730026245e-01 -3.956845104694366455e-01 -1.863167434930801392e-01 -1.927771270275115967e-01
5.786000000000000000e+03 3.310751342773437500e+01 3.023343467712402344e+01 2.047284990549087524e-01 3.004718124866485596e-01 1.515600979328155518e-01 2.798177674412727356e-02
5.787000000000000000e+03 2.800020790100097656e+01 -2.720878791809082031e+01 4.093468785285949707e-01 -1.127868294715881348e-01 8.896801620721817017e-02 -2.156554013490676880e-01
5.788000000000000000e+03 2.691088867187500000e+01 -3.054257202148437500e+01 2.306808382272720337e-01 -1.887099593877792358e-01 1.259126514196395874e-02 -2.205916047096252441e-01
5.789000000000000000e+03 1.279459095001220703e+01 -2.691798210144042969e+01 -4.613579437136650085e-02 -4.865157902240753174e-01 -1.597954779863357544e-01 -2.692218720912933350e-01
5.790000000000000000e+03 1.261489963531494141e+01 -2.609100532531738281e+01 3.822390455752611160e-03 -4.632707238197326660e-01 -1.378345042467117310e-01 -2.979410290718078613e-01
5.791000000000000000e+03 7.493640899658203125e+01 -3.368738937377929688e+01 3.633385896682739258e-01 6.235071182250976562e+00 1.979522943496704102e+00 1.450651288032531738e-01
5.792000000000000000e+03 5.727132034301757812e+01 1.263748264312744141e+01 1.645834326744079590e+00 5.786904335021972656e+00 2.229821681976318359e+00 -1.023998498916625977e+00
5.793000000000000000e+03 1.418393230438232422e+01 -2.566542434692382812e+01 7.248750329017639160e-02 -5.636695623397827148e-01 -1.473546028137207031e-01 -3.375853896141052246e-01
5.794000000000000000e+03 3.424539184570312500e+01 1.743046951293945312e+01 4.492620527744293213e-01 -1.431861892342567444e-02 1.304830312728881836e-01 4.002380669116973877e-01
5.795000000000000000e+03 5.738616943359375000e+01 -1.244199085235595703e+01 -7.613015174865722656e-02 1.848082184791564941e+00 5.315855741500854492e-01 1.998284578323364258e+00
5.796000000000000000e+03 4.305393600463867188e+01 -1.895863723754882812e+01 5.680062174797058105e-01 4.963223338127136230e-01 3.192985653877258301e-01 -8.937363326549530029e-02
5.797000000000000000e+03 7.575871276855468750e+01 -2.529165458679199219e+01 -1.980139166116714478e-01 8.714249610900878906e+00 2.554870605468750000e+00 -6.535243391990661621e-01
5.798000000000000000e+03 4.704475402832031250e+01 -1.586346244812011719e+01 -3.738657534122467041e-01 1.370558261871337891e+00 2.990077435970306396e-01 4.475964307785034180e-01
5.799000000000000000e+03 1.723715591430664062e+01 -1.439174652099609375e+01 -1.298991292715072632e-01 1.108303889632225037e-01 -5.720622371882200241e-03 -5.302854627370834351e-02
5.800000000000000000e+03 5.043802738189697266e+00 3.336744308471679688e+01 2.152055501937866211e-01 -4.540751576423645020e-01 -7.166087627410888672e-02 1.145827397704124451e-01
5.801000000000000000e+03 4.166371154785156250e+01 8.419729232788085938e+00 -3.252463340759277344e-01 -1.315142810344696045e-01 -1.370281726121902466e-01 4.550669789314270020e-01
5.802000000000000000e+03 4.208162307739257812e+01 7.005916118621826172e+00 -3.224268257617950439e-01 -1.472664177417755127e-01 -1.409079730510711670e-01 5.057202577590942383e-01
5.803000000000000000e+03 4.179792022705078125e+01 -1.936435127258300781e+01 5.080869197845458984e-01 4.250107407569885254e-01 2.799292802810668945e-01 -2.360922545194625854e-01
5.804000000000000000e+03 7.035186004638671875e+01 -2.835110855102539062e+01 1.496772021055221558e-01 1.630101561546325684e+00 5.339336395263671875e-01 6.996379494667053223e-01
5.805000000000000000e+03 6.363374328613281250e+01 -1.605173873901367188e+01 -2.593630552291870117e+00 7.878292560577392578e+00 1.585398674011230469e+00 3.400377631187438965e-01
5.806000000000000000e+03 6.225125503540039062e+01 -1.785116195678710938e+01 -4.624727666378021240e-01 7.132079124450683594e+00 2.000881910324096680e+00 -1.405563652515411377e-01
5.807000000000000000e+03 3.510654449462890625e+01 -1.218346309661865234e+01 -3.946778774261474609e-01 3.792548179626464844e-01 -4.626914858818054199e-03 7.109259604476392269e-04
5.808000000000000000e+03 1.480265235900878906e+01 -2.437269783020019531e+01 3.917326405644416809e-02 -5.647408366203308105e-01 -1.576702743768692017e-01 -3.823268413543701172e-01
5.809000000000000000e+03 2.705110359191894531e+01 -2.575259208679199219e+01 3.786920309066772461e-01 -1.528823226690292358e-01 6.774291396141052246e-02 -1.830674856901168823e-01
5.810000000000000000e+03 2.773223876953125000e+01 -2.610444450378417969e+01 3.840268552303314209e-01 -1.197043806314468384e-01 7.929673790931701660e-02 -1.939423382282257080e-01
5.811000000000000000e+03 5.651970672607421875e+01 1.493528366088867188e+01 1.919683575630187988e+00 4.874946117401123047e+00 2.038388967514038086e+00 -1.303736805915832520e+00
5.812000000000000000e+03 5.728445053100585938e+01 1.335082244873046875e+01 1.812981128692626953e+00 5.650174140930175781e+00 2.238946676254272461e+00 -1.138531923294067383e+00
5.813000000000000000e+03 4.386794281005859375e+01 2.001749992370605469e+01 3.819318860769271851e-02 7.050796151161193848e-01 2.229818403720855713e-01 3.181956410408020020e-01
5.814000000000000000e+03 7.562413787841796875e+01 6.641158103942871094e+00 -2.385250031948089600e-01 7.550748825073242188e+00 2.193667173385620117e+00 -7.198361158370971680e-01
5.815000000000000000e+03 6.596552276611328125e+01 2.702624130249023438e+01 1.574586987495422363e+00 3.732216835021972656e+00 1.592041134834289551e+00 7.421419024467468262e-01
5.816000000000000000e+03 4.146874237060546875e+01 1.078019046783447266e+01 -7.727655023336410522e-02 -2.794628404080867767e-02 -3.156685084104537964e-02 6.532471626996994019e-02
5.817000000000000000e+03 4.080946731567382812e+01 1.097649860382080078e+01 -1.416159868240356445e-01 -2.641040682792663574e-01 -1.217160224914550781e-01 7.828183472156524658e-02
5.818000000000000000e+03 3.191907644271850586e+00 -5.049396991729736328e+00 8.386777713894844055e-03 3.393205814063549042e-03 3.533995011821389198e-03 2.593962289392948151e-02
5.819000000000000000e+03 7.061459350585937500e+01 3.795578002929687500e+00 -1.189643889665603638e-01 3.854567766189575195e+00 1.120681047439575195e+00 2.401901960372924805e+00
5.820000000000000000e+03 1.119860744476318359e+01 -4.503433704376220703e+00 3.363451687619090080e-03 -2.371712215244770050e-02 -6.106100976467132568e-03 -3.551865741610527039e-02
5.821000000000000000e+03 1.354714870452880859e+01 -5.513960838317871094e+00 4.040506668388843536e-03 1.045908499509096146e-02 4.349877592176198959e-03 -2.758652530610561371e-02
5.822000000000000000e+03 1.461931705474853516e+01 -1.165558910369873047e+01 -1.598674803972244263e-01 1.981510370969772339e-01 1.148506347090005875e-02 -1.936597935855388641e-02
5.823000000000000000e+03 4.306443405151367188e+01 -1.986498641967773438e+01 5.989245772361755371e-01 6.176525354385375977e-01 3.649731278419494629e-01 -3.161095827817916870e-02
5.824000000000000000e+03 4.434042739868164062e+01 -2.025935935974121094e+01 6.491244435310363770e-01 9.626297354698181152e-01 4.835262596607208252e-01 1.510795354843139648e-01
5.825000000000000000e+03 7.366994476318359375e+01 1.671971702575683594e+01 -2.153145670890808105e-01 8.845544815063476562e+00 2.589069128036499023e+00 7.099039554595947266e-01
5.826000000000000000e+03 7.353472137451171875e+01 1.505887031555175781e+01 1.065048813819885254e+00 9.889529228210449219e+00 3.286373376846313477e+00 4.971584379673004150e-01
5.827000000000000000e+03 1.019020175933837891e+01 1.986676979064941406e+01 1.257901340723037720e-01 4.004654660820960999e-02 4.975100234150886536e-02 2.472565025091171265e-01
5.828000000000000000e+03 2.857148551940917969e+01 -3.543646621704101562e+01 1.540178656578063965e-01 -4.119251295924186707e-02 3.384760767221450806e-02 2.324738353490829468e-02
5.829000000000000000e+03 4.472366714477539062e+01 2.067707824707031250e+01 1.247006803750991821e-01 7.517956495285034180e-01 2.629489004611968994e-01 3.763454258441925049e-01
5.830000000000000000e+03 2.621532249450683594e+01 -1.586270809173583984e+01 -5.989149212837219238e-01 -5.067319869995117188e-01 -3.316940665245056152e-01 -3.643187880516052246e-01
5.831000000000000000e+03 2.644454574584960938e+01 -2.801146125793457031e+01 4.335920512676239014e-01 -1.986548602581024170e-01 7.048115879297256470e-02 -2.190221846103668213e-01
5.832000000000000000e+03 5.443027496337890625e+01 1.897324752807617188e+01 2.111292630434036255e-01 3.500242471694946289e+00 1.113411545753479004e+00 -2.009087800979614258e+00
5.833000000000000000e+03 8.677766799926757812e+00 -2.561513900756835938e+01 -5.055315047502517700e-02 -4.693093523383140564e-02 -2.924522571265697479e-02 -1.477155685424804688e-01
5.834000000000000000e+03 5.571343612670898438e+01 5.139769077301025391e+00 -9.214208722114562988e-01 3.094912767410278320e+00 6.520475745201110840e-01 -1.019716501235961914e+00
5.835000000000000000e+03 5.716501998901367188e+01 4.664340496063232422e+00 -1.301233649253845215e+00 4.425178527832031250e+00 9.371834993362426758e-01 -1.777919769287109375e+00
5.836000000000000000e+03 2.584467697143554688e+01 -2.225433158874511719e+01 9.750871360301971436e-02 -1.812565773725509644e-01 -2.512435987591743469e-02 -1.512919366359710693e-01
5.837000000000000000e+03 5.226618957519531250e+01 2.509903335571289062e+01 2.859363257884979248e-01 4.197056293487548828e+00 1.344897747039794922e+00 -4.893686473369598389e-01
5.838000000000000000e+03 3.342412948608398438e+01 1.597168540954589844e+01 3.556383550167083740e-01 1.405624896287918091e-01 1.488602608442306519e-01 3.776929974555969238e-01
5.839000000000000000e+03 1.812517166137695312e+01 -2.502417373657226562e+01 2.210883200168609619e-01 -8.308721333742141724e-02 4.140033200383186340e-02 -4.002074301242828369e-01
5.840000000000000000e+03 1.878185462951660156e+01 -1.670906829833984375e+01 -2.350146323442459106e-01 -1.002476587891578674e-01 -1.005786880850791931e-01 -4.238055050373077393e-01
5.841000000000000000e+03 1.843532562255859375e+01 -1.622075843811035156e+01 -2.055982202291488647e-01 -5.716891586780548096e-02 -7.883014529943466187e-02 -3.343390822410583496e-01
5.842000000000000000e+03 4.984042739868164062e+01 -9.077695846557617188e+00 -1.488663852214813232e-01 4.415005445480346680e-01 8.779024332761764526e-02 1.298258751630783081e-01
5.843000000000000000e+03 5.108134460449218750e+01 -9.725134849548339844e+00 -3.726676702499389648e-01 -9.391245990991592407e-02 -1.399740427732467651e-01 5.213150382041931152e-02
5.844000000000000000e+03 5.500605010986328125e+01 1.842625808715820312e+01 6.080306172370910645e-01 3.570505142211914062e+00 1.253560781478881836e+00 -1.933050036430358887e+00
5.845000000000000000e+03 5.177144241333007812e+01 -3.572029113769531250e+01 7.998850345611572266e-01 3.565932989120483398e+00 1.309745430946350098e+00 1.110103249549865723e+00
5.846000000000000000e+03 5.202132797241210938e+01 -3.469326782226562500e+01 1.140916466712951660e+00 3.693811655044555664e+00 1.450418472290039062e+00 1.251616120338439941e+00
5.847000000000000000e+03 2.295162582397460938e+01 6.441530704498291016e+00 1.083952710032463074e-01 -1.922665387392044067e-01 -2.516137994825839996e-02 1.550167202949523926e-01
5.848000000000000000e+03 5.227388000488281250e+01 -2.908461189270019531e+01 9.192153215408325195e-01 2.852498292922973633e+00 1.131514072418212891e+00 5.428093671798706055e-01
5.849000000000000000e+03 1.902807426452636719e+01 -1.611433792114257812e+01 -2.989756464958190918e-01 -9.089423716068267822e-02 -1.169609650969505310e-01 -3.539009094238281250e-01
5.850000000000000000e+03 6.141498184204101562e+01 -1.934192657470703125e+01 9.371359348297119141e-01 5.777751922607421875e+00 2.014466285705566406e+00 1.112833395600318909e-01
5.851000000000000000e+03 6.203454971313476562e+01 -1.884635734558105469e+01 4.696185886859893799e-01 6.655317783355712891e+00 2.137480974197387695e+00 -1.691821962594985962e-01
5.852000000000000000e+03 7.358316040039062500e+01 9.896847724914550781e+00 1.274223804473876953e+00 9.558829307556152344e+00 3.249916076660156250e+00 -5.005050450563430786e-02
5.853000000000000000e+03 7.396986389160156250e+01 9.116581916809082031e+00 6.659166216850280762e-01 8.861213684082031250e+00 2.858139038085937500e+00 -3.683750033378601074e-01
5.854000000000000000e+03 7.634263038635253906e+00 7.901531219482421875e+00 -3.071394264698028564e-01 -1.354598253965377808e-01 -1.327797770500183105e-01 1.573881208896636963e-01
5.855000000000000000e+03 2.512553024291992188e+01 1.406003189086914062e+01 -1.735829710960388184e-01 -1.015167236328125000e-01 -8.252990990877151489e-02 7.068597525358200073e-02
5.856000000000000000e+03 2.347193336486816406e+01 1.395556068420410156e+01 -1.313192695379257202e-01 -1.201229542493820190e-01 -7.543266564607620239e-02 7.454497367143630981e-02
5.857000000000000000e+03 7.282298278808593750e+01 -2.809335327148437500e+01 -1.048489689826965332e+00 4.986131668090820312e+00 1.181292653083801270e+00 1.782262682914733887e+00
5.858000000000000000e+03 8.820428848266601562e+00 1.836499023437500000e+01 2.791742682456970215e-01 -6.452601402997970581e-02 6.439447402954101562e-02 1.594130545854568481e-01
5.859000000000000000e+03 9.045615196228027344e+00 1.766130256652832031e+01 3.618544042110443115e-01 -1.174462120980024338e-02 1.050329357385635376e-01 1.844785511493682861e-01
5.860000000000000000e+03 1.383199691772460938e+01 -2.485120391845703125e+01 4.193155094981193542e-02 -5.385863780975341797e-01 -1.489964574575424194e-01 -3.675421774387359619e-01
5.861000000000000000e+03 4.276787567138671875e+01 9.619832992553710938e+00 1.061428990215063095e-02 4.842545092105865479e-01 1.484606415033340454e-01 1.351115405559539795e-01
5.862000000000000000e+03 4.217327499389648438e+01 1.059668350219726562e+01 3.087388351559638977e-03 2.611103057861328125e-01 7.925931364297866821e-02 3.645442053675651550e-02
5.863000000000000000e+03 5.855493164062500000e+01 8.110014915466308594e+00 -9.722346663475036621e-01 6.362547874450683594e+00 1.617094039916992188e+00 -9.410531520843505859e-01
5.864000000000000000e+03 4.472330856323242188e+01 -1.741166877746582031e+01 3.673075735569000244e-01 6.307904720306396484e-01 2.994294166564941406e-01 7.489039748907089233e-02
5.865000000000000000e+03 4.508957672119140625e+01 -1.683620834350585938e+01 1.485300809144973755e-01 7.172582149505615234e-01 2.597364783287048340e-01 1.172309070825576782e-01
5.866000000000000000e+03 3.511703872680664062e+01 1.956843566894531250e+01 2.769511342048645020e-01 2.482006512582302094e-02 9.053136408329010010e-02 3.186467587947845459e-01
5.867000000000000000e+03 3.583950805664062500e+01 2.168777847290039062e+01 8.465816825628280640e-02 1.133226454257965088e-01 5.939424410462379456e-02 1.514563858509063721e-01
5.868000000000000000e+03 4.180363082885742188e+01 -1.665642738342285156e+01 -4.091845452785491943e-02 1.385459452867507935e-01 2.928824536502361298e-02 -3.946059942245483398e-01
5.869000000000000000e+03 3.486272811889648438e+01 -6.097945213317871094e+00 -2.073995471000671387e-01 3.311966955661773682e-01 3.713914379477500916e-02 -6.424861550331115723e-01
5.870000000000000000e+03 4.323035812377929688e+01 -2.404054450988769531e+01 3.558207750320434570e-01 8.124966025352478027e-01 3.504951894283294678e-01 1.745538264513015747e-01
5.871000000000000000e+03 7.196312713623046875e+01 6.240221023559570312e+00 -9.190760850906372070e-01 6.621445178985595703e+00 1.710710763931274414e+00 1.371439337730407715e+00
5.872000000000000000e+03 7.239655303955078125e+01 7.926272392272949219e+00 -1.851997375488281250e-01 8.481313705444335938e+00 2.488834142684936523e+00 8.891283869743347168e-01
5.873000000000000000e+03 4.292940902709960938e+01 8.617399215698242188e+00 -1.478845179080963135e-01 4.034926295280456543e-01 7.668243348598480225e-02 2.669420242309570312e-01
5.874000000000000000e+03 5.239596176147460938e+01 -2.721739578247070312e+01 4.351730346679687500e-01 2.106076002120971680e+00 7.623746991157531738e-01 8.453963994979858398e-01
5.875000000000000000e+03 5.330802154541015625e+01 -2.794195556640625000e+01 4.612561166286468506e-01 3.252520084381103516e+00 1.114132881164550781e+00 1.104536056518554688e+00
5.876000000000000000e+03 5.320882797241210938e+01 2.009574127197265625e+01 -4.211873710155487061e-01 3.499753713607788086e+00 9.235698580741882324e-01 -1.939470887184143066e+00
5.877000000000000000e+03 2.594629669189453125e+01 -2.422044563293457031e+01 2.691752016544342041e-01 -1.578109413385391235e-01 3.340927511453628540e-02 -1.530363410711288452e-01
5.878000000000000000e+03 7.017839813232421875e+01 1.351227045059204102e+00 1.321169376373291016e+00 2.244039773941040039e+00 1.069562792778015137e+00 2.448827028274536133e+00
5.879000000000000000e+03 7.189176940917968750e+01 1.305211901664733887e+00 8.540077805519104004e-01 2.644631385803222656e+00 1.049591779708862305e+00 9.385771155357360840e-01
5.880000000000000000e+03 6.513295745849609375e+01 -1.570787048339843750e+01 -3.153905868530273438e+00 6.340587615966796875e+00 9.560044407844543457e-01 8.244175314903259277e-01
5.881000000000000000e+03 6.594799804687500000e+01 -1.401866626739501953e+01 -1.408491253852844238e+00 4.703737735748291016e+00 9.885739088058471680e-01 1.607661247253417969e-01
5.882000000000000000e+03 6.560249328613281250e+01 4.919269680976867676e-01 1.542725563049316406e+00 5.423004150390625000e+00 2.089718818664550781e+00 1.815632462501525879e+00
5.883000000000000000e+03 2.592090797424316406e+01 -2.301793479919433594e+01 1.567573547363281250e-01 -1.611043512821197510e-01 -1.304097473621368408e-03 -1.473686397075653076e-01
5.884000000000000000e+03 2.490304946899414062e+01 -2.552408027648925781e+01 3.977889418601989746e-01 -1.487164497375488281e-01 7.472175359725952148e-02 -1.581220179796218872e-01
5.885000000000000000e+03 8.672223091125488281e+00 7.557019710540771484e+00 -3.536957502365112305e-01 -2.022870481014251709e-01 -1.667948365211486816e-01 1.695378869771957397e-01
5.886000000000000000e+03 8.768925666809082031e+00 6.049992561340332031e+00 -2.912253737449645996e-01 -1.467126458883285522e-01 -1.313814073801040649e-01 1.006789058446884155e-01
5.887000000000000000e+03 1.634593582153320312e+01 -2.505826568603515625e+01 1.424549221992492676e-01 -4.278898835182189941e-01 -8.563049137592315674e-02 -3.749202191829681396e-01
5.888000000000000000e+03 5.056247329711914062e+01 3.106712532043457031e+01 7.568112611770629883e-01 3.415399551391601562e+00 1.251663208007812500e+00 -5.470867156982421875e-01
5.889000000000000000e+03 6.312405395507812500e+01 -1.256296277046203613e+00 2.149779796600341797e+00 9.667356491088867188e+00 3.545140743255615234e+00 2.461988925933837891e-01
5.890000000000000000e+03 6.285657882690429688e+01 -1.698693275451660156e+00 2.651657819747924805e+00 1.042739009857177734e+01 3.923714399337768555e+00 -6.308020651340484619e-02
5.891000000000000000e+03 3.245565795898437500e+01 3.055078506469726562e+01 2.357459813356399536e-01 1.836811900138854980e-01 1.258281469345092773e-01 3.887744247913360596e-02
5.892000000000000000e+03 5.159710407257080078e+00 2.337903213500976562e+01 -1.127768382430076599e-01 -5.433378219604492188e-01 -1.968343853950500488e-01 7.061998546123504639e-02
5.893000000000000000e+03 3.852951288223266602e+00 2.272365379333496094e+01 -4.347445070743560791e-02 -5.104152560234069824e-01 -1.661669164896011353e-01 -5.759328603744506836e-03
5.894000000000000000e+03 6.535175323486328125e+01 -1.308652210235595703e+01 -9.297334551811218262e-01 6.299044609069824219e+00 1.610793352127075195e+00 -1.559797376394271851e-01
5.895000000000000000e+03 6.554795837402343750e+01 -1.238149833679199219e+01 -1.407913565635681152e-01 6.380487918853759766e+00 1.871908903121948242e+00 -7.328945994377136230e-01
5.896000000000000000e+03 3.963949441909790039e+00 2.031163787841796875e+01 5.185716226696968079e-02 -4.439354240894317627e-01 -1.176234781742095947e-01 -1.102867349982261658e-02
5.897000000000000000e+03 2.174342155456542969e+01 -2.407407569885253906e+01 1.812845766544342041e-01 7.666170597076416016e-02 7.738388329744338989e-02 -1.919336020946502686e-01
5.898000000000000000e+03 5.955723953247070312e+01 3.198648929595947266e+00 -1.596199154853820801e+00 6.471352577209472656e+00 1.462545990943908691e+00 -2.664861440658569336e+00
5.899000000000000000e+03 5.524166870117187500e+01 -2.653209304809570312e+01 -3.828767538070678711e-01 5.047685146331787109e+00 1.399442553520202637e+00 1.641730546951293945e+00
5.900000000000000000e+03 7.307969665527343750e+01 -3.227199172973632812e+01 7.296652197837829590e-01 5.107090473175048828e+00 1.751026749610900879e+00 3.217513859272003174e-01
5.901000000000000000e+03 5.762219238281250000e+01 8.843400001525878906e+00 -2.580914199352264404e-01 5.740901470184326172e+00 1.644843101501464844e+00 -6.331803798675537109e-01
5.902000000000000000e+03 2.393579864501953125e+01 1.326594734191894531e+01 -5.046167597174644470e-02 -1.124741062521934509e-01 -4.888073354959487915e-02 7.007461041212081909e-02
5.903000000000000000e+03 2.893951225280761719e+01 -2.870728683471679688e+01 3.789082765579223633e-01 -3.594156727194786072e-02 1.028900146484375000e-01 -2.278517633676528931e-01
5.904000000000000000e+03 3.081688499450683594e+01 -2.875031089782714844e+01 4.016193747520446777e-01 1.301136910915374756e-01 1.595199108123779297e-01 -2.313648611307144165e-01
5.905000000000000000e+03 1.181007480621337891e+01 -2.510849761962890625e+01 -2.869351592380553484e-04 -3.490593135356903076e-01 -1.048038750886917114e-01 -3.177842497825622559e-01
5.906000000000000000e+03 1.070604228973388672e+01 -2.520303726196289062e+01 -1.935006491839885712e-02 -2.132151424884796143e-01 -6.976956129074096680e-02 -2.639471888542175293e-01
5.907000000000000000e+03 3.510475158691406250e+01 -3.126664161682128906e+01 4.924823939800262451e-01 3.509038388729095459e-01 2.530158758163452148e-01 -9.705403447151184082e-02
5.908000000000000000e+03 1.371206378936767578e+01 -2.608203506469726562e+01 4.724697023630142212e-02 -5.398662686347961426e-01 -1.477857828140258789e-01 -3.166543245315551758e-01
5.909000000000000000e+03 3.538104248046875000e+01 2.206431770324707031e+01 1.776774413883686066e-03 1.893034577369689941e-01 5.732406675815582275e-02 1.785920560359954834e-01
5.910000000000000000e+03 6.168566894531250000e+01 -2.031910514831542969e+01 1.685138106346130371e+00 5.470852375030517578e+00 2.146797180175781250e+00 4.408283531665802002e-02
5.911000000000000000e+03 1.687021255493164062e+01 -2.274493217468261719e+01 -1.845364868640899658e-01 -3.119961321353912354e-01 -1.489597856998443604e-01 -3.966657519340515137e-01
5.912000000000000000e+03 5.354751968383789062e+01 -3.547307205200195312e+01 7.130495309829711914e-01 4.235511302947998047e+00 1.484568238258361816e+00 1.140108704566955566e+00
5.913000000000000000e+03 5.370512008666992188e+01 2.224218177795410156e+01 -1.234283804893493652e+00 3.915683031082153320e+00 8.044197559356689453e-01 -1.634660005569458008e+00
5.914000000000000000e+03 5.571717834472656250e+01 1.685918807983398438e+01 1.442045927047729492e+00 3.999907016754150391e+00 1.632585883140563965e+00 -1.620751500129699707e+00
5.915000000000000000e+03 5.556965637207031250e+01 1.792522811889648438e+01 9.265667796134948730e-01 3.688786506652832031e+00 1.384606003761291504e+00 -1.752677083015441895e+00
5.916000000000000000e+03 2.237833786010742188e+01 2.994600486755371094e+01 7.524304091930389404e-02 1.739767491817474365e-01 7.476593554019927979e-02 1.716979295015335083e-01
5.917000000000000000e+03 2.340788269042968750e+01 3.100630187988281250e+01 -2.277243416756391525e-03 2.933711409568786621e-01 8.732816576957702637e-02 1.498630493879318237e-01
5.918000000000000000e+03 1.419173717498779297e+01 -5.933341026306152344e+00 -1.510135177522897720e-02 1.971908472478389740e-02 1.385319977998733521e-03 -2.519978769123554230e-02
5.919000000000000000e+03 1.350721168518066406e+01 -6.997866153717041016e+00 -3.589318692684173584e-02 2.331121824681758881e-02 -3.774589858949184418e-03 -2.654741518199443817e-02
5.920000000000000000e+03 6.525909423828125000e+01 -1.439188289642333984e+01 -2.171961545944213867e+00 5.921695232391357422e+00 1.124920129776000977e+00 6.238209009170532227e-01
5.921000000000000000e+03 7.248722076416015625e+01 2.075657081604003906e+01 -1.590453743934631348e+00 6.557415485382080078e+00 1.490088462829589844e+00 -7.134470939636230469e-01
5.922000000000000000e+03 7.057479858398437500e+01 -3.304956054687500000e+01 1.329320788383483887e+00 4.442314147949218750e+00 1.731490492820739746e+00 -5.690010786056518555e-01
5.923000000000000000e+03 4.504021453857421875e+01 -2.348748016357421875e+01 3.212749063968658447e-01 1.094770908355712891e+00 4.248137474060058594e-01 3.923789039254188538e-02
5.924000000000000000e+03 7.557525634765625000e+00 -6.289978027343750000e+00 6.245259661227464676e-03 -5.446176975965499878e-02 -1.446495298296213150e-02 -5.990733392536640167e-03
5.925000000000000000e+03 9.927105903625488281e+00 -5.499905586242675781e+00 1.211991300806403160e-03 -3.738430514931678772e-02 -1.085169333964586258e-02 -2.956804074347019196e-02
5.926000000000000000e+03 1.200627422332763672e+01 -5.469548702239990234e+00 -1.003232039511203766e-02 -1.266714185476303101e-02 -6.809839047491550446e-03 -4.174399375915527344e-02
5.927000000000000000e+03 2.122695350646972656e+01 -1.702607154846191406e+01 -4.165343642234802246e-01 -2.239632010459899902e-01 -1.921492666006088257e-01 -4.642253220081329346e-01
5.928000000000000000e+03 4.765598297119140625e+01 2.956333541870117188e+01 7.818255424499511719e-01 2.464487791061401367e+00 9.738940000534057617e-01 -6.402624845504760742e-01
5.929000000000000000e+03 1.387991237640380859e+01 -4.912213325500488281e+00 -4.972169175744056702e-03 4.413406364619731903e-03 -1.676288229646161199e-04 -3.151534125208854675e-02
5.930000000000000000e+03 7.514433288574218750e+01 -6.032754778861999512e-01 -6.074180006980895996e-01 6.584879875183105469e+00 1.793238520622253418e+00 -5.822931528091430664e-01
5.931000000000000000e+03 5.061492156982421875e+01 -1.025310420989990234e+01 -2.873335778713226318e-01 1.858550012111663818e-01 -3.044357337057590485e-02 -7.027472555637359619e-02
5.932000000000000000e+03 4.785024166107177734e+00 -2.470820999145507812e+01 4.759225994348526001e-02 -7.941869646310806274e-02 -9.547931142151355743e-03 4.551227204501628876e-03
5.933000000000000000e+03 6.344686985015869141e+00 -2.534358215332031250e+01 3.322826232761144638e-03 -1.824482530355453491e-02 -4.476599860936403275e-03 -2.995884418487548828e-02
5.934000000000000000e+03 6.614469528198242188e+00 1.312226104736328125e+01 5.811272561550140381e-02 -1.914689093828201294e-01 -4.000685364007949829e-02 3.460145294666290283e-01
5.935000000000000000e+03 4.414947891235351562e+01 7.376229763031005859e+00 -2.149902582168579102e-01 6.095347404479980469e-01 1.183633431792259216e-01 1.462188065052032471e-01
5.936000000000000000e+03 4.429068374633789062e+01 5.912395954132080078e+00 -4.168684780597686768e-01 3.415692746639251709e-01 -2.258976548910140991e-02 1.905727535486221313e-01
5.937000000000000000e+03 5.890860748291015625e+01 2.045972061157226562e+01 -5.254117250442504883e-01 2.755516767501831055e+00 6.690315008163452148e-01 2.056221961975097656e-01
5.938000000000000000e+03 4.149375534057617188e+01 1.574577617645263672e+01 1.553177088499069214e-01 3.218146860599517822e-01 1.431397199630737305e-01 -2.370765954256057739e-01
5.939000000000000000e+03 1.765444946289062500e+01 2.156476211547851562e+01 2.365092188119888306e-01 1.343726515769958496e-01 1.112645640969276428e-01 2.175282984972000122e-01
5.940000000000000000e+03 7.491464233398437500e+01 1.053444004058837891e+01 1.178987383842468262e+00 8.556834220886230469e+00 2.920746564865112305e+00 -2.990124523639678955e-01
5.941000000000000000e+03 5.491453933715820312e+01 -2.836342430114746094e+01 3.197739720344543457e-01 4.941665649414062500e+00 1.578431844711303711e+00 1.289396643638610840e+00
5.942000000000000000e+03 4.200424194335937500e+01 -2.021478462219238281e+01 5.123129487037658691e-01 5.505764484405517578e-01 3.188668191432952881e-01 -1.495407968759536743e-01
5.943000000000000000e+03 6.407357788085937500e+01 -1.103493690490722656e+01 2.719704508781433105e-01 9.212554931640625000e+00 2.845357656478881836e+00 -4.947272539138793945e-01
5.944000000000000000e+03 5.258864974975585938e+01 2.060813140869140625e+01 -5.503106713294982910e-01 3.464414834976196289e+00 8.742312788963317871e-01 -1.826102256774902344e+00
5.945000000000000000e+03 9.489647865295410156e+00 -2.682507896423339844e+01 -9.901583939790725708e-02 -1.724398285150527954e-01 -8.143670111894607544e-02 -1.870256811380386353e-01
5.946000000000000000e+03 2.325218963623046875e+01 3.648151016235351562e+01 1.655474603176116943e-01 -3.261794894933700562e-02 3.987885266542434692e-02 4.458537325263023376e-02
5.947000000000000000e+03 7.535118103027343750e+01 -1.631246948242187500e+01 -4.612002670764923096e-01 7.507888793945312500e+00 2.114006519317626953e+00 6.699517369270324707e-01
5.948000000000000000e+03 7.575369262695312500e+01 -1.503075885772705078e+01 -8.105267882347106934e-01 7.340580940246582031e+00 1.959016323089599609e+00 7.230104804039001465e-01
5.949000000000000000e+03 3.645383453369140625e+01 -3.391465377807617188e+01 4.352840781211853027e-01 6.844025850296020508e-01 3.359059989452362061e-01 7.878815755248069763e-03
5.950000000000000000e+03 3.583848190307617188e+01 -3.525372695922851562e+01 3.727911710739135742e-01 5.715820193290710449e-01 2.833119630813598633e-01 -1.735187543090432882e-04
5.951000000000000000e+03 3.441337585449218750e+01 1.976965141296386719e+01 2.227199822664260864e-01 1.175837814807891846e-01 1.020911261439323425e-01 3.507905900478363037e-01
5.952000000000000000e+03 3.571583175659179688e+01 1.932554244995117188e+01 3.074715435504913330e-01 -3.959672152996063232e-02 8.036244660615921021e-02 2.782940566539764404e-01
5.953000000000000000e+03 6.178359222412109375e+01 4.034512639045715332e-01 4.704600274562835693e-01 8.949257850646972656e+00 2.825915336608886719e+00 -1.518035411834716797e+00
5.954000000000000000e+03 6.510336303710937500e+01 9.594516158103942871e-01 1.038019061088562012e+00 5.560932159423828125e+00 1.979685425758361816e+00 1.327384948730468750e+00
5.955000000000000000e+03 5.842005920410156250e+01 -2.070537757873535156e+01 1.268232822418212891e+00 3.900999784469604492e+00 1.550769805908203125e+00 1.691276073455810547e+00
5.956000000000000000e+03 5.783891677856445312e+01 -2.076935386657714844e+01 1.166705250740051270e+00 3.885080575942993164e+00 1.515535831451416016e+00 1.796617627143859863e+00
5.957000000000000000e+03 7.330149841308593750e+01 1.445531558990478516e+01 1.297103881835937500e+00 1.051964378356933594e+01 3.545024156570434570e+00 2.198296338319778442e-01
5.958000000000000000e+03 2.727135658264160156e+01 -2.674254989624023438e+01 4.225817024707794189e-01 -1.506691426038742065e-01 8.157376199960708618e-02 -2.026996314525604248e-01
5.959000000000000000e+03 2.829687881469726562e+01 -2.827766418457031250e+01 3.934412598609924316e-01 -9.503725171089172363e-02 8.952119946479797363e-02 -2.305638939142227173e-01
5.960000000000000000e+03 1.018637561798095703e+01 -3.230333709716796875e+01 -1.777509301900863647e-01 -3.244772553443908691e-01 -1.506684571504592896e-01 -2.557030320167541504e-01
5.961000000000000000e+03 1.450148200988769531e+01 -5.342971324920654297e+00 9.562926366925239563e-03 2.432573772966861725e-02 1.016659941524267197e-02 -1.810090430080890656e-02
5.962000000000000000e+03 5.120129776000976562e+01 2.802977180480957031e+01 1.008746623992919922e+00 3.882906913757324219e+00 1.467496037483215332e+00 -5.908412337303161621e-01
5.963000000000000000e+03 5.157025909423828125e+01 2.540140724182128906e+01 5.978608131408691406e-01 3.902617931365966797e+00 1.350143551826477051e+00 -4.489609897136688232e-01
5.964000000000000000e+03 1.839247131347656250e+01 2.182817649841308594e+01 2.392112165689468384e-01 1.282239258289337158e-01 1.102305427193641663e-01 1.585960686206817627e-01
5.965000000000000000e+03 4.689104080200195312e+01 3.631891632080078125e+01 1.461078673601150513e-01 2.032420158386230469e+00 6.535584330558776855e-01 -5.509755015373229980e-01
5.966000000000000000e+03 6.590764617919921875e+01 2.576977348327636719e+01 1.475088477134704590e+00 3.296427726745605469e+00 1.431454896926879883e+00 5.897522568702697754e-01
5.967000000000000000e+03 5.982108688354492188e+01 -1.973484420776367188e+01 1.063448429107666016e+00 4.598711490631103516e+00 1.698647975921630859e+00 9.459416270256042480e-01
5.968000000000000000e+03 5.749782180786132812e+01 1.208678436279296875e+01 1.516441226005554199e+00 5.883594512939453125e+00 2.220010757446289062e+00 -9.996251463890075684e-01
5.969000000000000000e+03 4.037210464477539062e+01 1.263006591796875000e+01 1.963004842400550842e-02 -2.496239840984344482e-01 -6.899818032979965210e-02 -8.274590224027633667e-02
5.970000000000000000e+03 4.049966812133789062e+01 1.186153697967529297e+01 -6.184067577123641968e-02 -2.776149213314056396e-01 -1.018366813659667969e-01 -1.443271432071924210e-02
5.971000000000000000e+03 5.649789810180664062e+01 2.115738487243652344e+01 -9.836387038230895996e-01 2.411898374557495117e+00 4.284779131412506104e-01 -1.849750757217407227e+00
5.972000000000000000e+03 5.857609176635742188e+01 2.096679687500000000e+01 -8.203090429306030273e-01 2.179971218109130859e+00 4.078986048698425293e-01 -4.936348646879196167e-02
5.973000000000000000e+03 3.984653854370117188e+01 -1.717032051086425781e+01 4.957268014550209045e-02 5.427415370941162109e-01 1.776942759752273560e-01 -4.505003690719604492e-01
5.974000000000000000e+03 1.121310520172119141e+01 -2.858151245117187500e+01 -1.650559455156326294e-01 -3.628885746002197266e-01 -1.583833545446395874e-01 -2.192257046699523926e-01
5.975000000000000000e+03 1.924307250976562500e+01 -1.726186752319335938e+01 -2.792181670665740967e-01 -1.219113618135452271e-01 -1.203388571739196777e-01 -4.826734066009521484e-01
5.976000000000000000e+03 4.202637100219726562e+01 1.784460639953613281e+01 6.744629144668579102e-02 4.800839722156524658e-01 1.642590761184692383e-01 -5.072308331727981567e-02
5.977000000000000000e+03 4.015831375122070312e+01 1.758427047729492188e+01 2.559197843074798584e-01 6.847033649682998657e-02 9.731703251600265503e-02 -4.188944399356842041e-02
5.978000000000000000e+03 4.112573623657226562e+01 1.434612464904785156e+01 1.736856251955032349e-01 1.378410607576370239e-01 9.345801174640655518e-02 -2.546180188655853271e-01
5.979000000000000000e+03 6.801475524902343750e+01 -3.797968673706054688e+01 -5.798673033714294434e-01 5.042790412902832031e+00 1.338876843452453613e+00 -5.695789456367492676e-01
5.980000000000000000e+03 1.413545227050781250e+01 -1.111102199554443359e+01 -1.462178379297256470e-01 1.624497771263122559e-01 4.869585391134023666e-03 -3.125475719571113586e-02
5.981000000000000000e+03 5.245616149902343750e+01 -1.137300872802734375e+01 -2.828130125999450684e-01 -3.405038714408874512e-01 -1.869950741529464722e-01 -2.298551984131336212e-02
5.982000000000000000e+03 5.357374954223632812e+01 -1.120739555358886719e+01 -4.020588099956512451e-01 -5.311985015869140625e-01 -2.799772024154663086e-01 1.106374934315681458e-01
5.983000000000000000e+03 2.430275535583496094e+01 -2.593962478637695312e+01 4.323932230472564697e-01 -1.313488632440567017e-01 9.031330794095993042e-02 -1.452263593673706055e-01
5.984000000000000000e+03 7.282859039306640625e+01 1.811723709106445312e+01 -1.193149805068969727e+00 7.907008647918701172e+00 2.014157772064208984e+00 5.140334367752075195e-02
5.985000000000000000e+03 6.782562255859375000e+01 3.111126708984375000e+01 7.438766956329345703e-01 4.412496089935302734e+00 1.546911835670471191e+00 3.596108257770538330e-01
5.986000000000000000e+03 3.095062637329101562e+01 -1.315022087097167969e+01 -7.483481764793395996e-01 -3.839916586875915527e-01 -3.397019505500793457e-01 -5.006306990981101990e-02
5.987000000000000000e+03 2.746198463439941406e+01 8.893820762634277344e+00 3.485256433486938477e-01 4.487105011940002441e-01 2.391708493232727051e-01 1.575870960950851440e-01
5.988000000000000000e+03 2.719273948669433594e+01 9.855386734008789062e+00 3.297739326953887939e-01 3.263439238071441650e-01 1.968353539705276489e-01 1.505324840545654297e-01
5.989000000000000000e+03 2.743591880798339844e+01 1.228803157806396484e+01 8.579475432634353638e-02 2.663852572441101074e-01 1.056540012359619141e-01 2.304632961750030518e-01
5.990000000000000000e+03 9.864503860473632812e+00 -3.123150634765625000e+01 -2.008257359266281128e-01 -2.929767072200775146e-01 -1.481407284736633301e-01 -2.326196134090423584e-01
5.991000000000000000e+03 1.121571254730224609e+01 -3.022666168212890625e+01 -2.226933091878890991e-01 -3.906732201576232910e-01 -1.840099543333053589e-01 -2.355662286281585693e-01
5.992000000000000000e+03 5.801927947998046875e+01 1.765815925598144531e+01 1.293373942375183105e+00 4.482057094573974609e+00 1.732629299163818359e+00 -7.024623155593872070e-01
5.993000000000000000e+03 6.649498748779296875e+01 4.145855903625488281e+00 -5.814363360404968262e-01 1.788579344749450684e+00 3.621429204940795898e-01 1.541574597358703613e+00
5.994000000000000000e+03 6.838382720947265625e+01 9.568107724189758301e-01 1.510055899620056152e+00 2.945924043655395508e+00 1.336794018745422363e+00 2.909045934677124023e+00
5.995000000000000000e+03 2.831692695617675781e+01 -1.448960876464843750e+01 -7.293469309806823730e-01 -5.330030918121337891e-01 -3.787049949169158936e-01 -3.513301014900207520e-01
5.996000000000000000e+03 6.417041015625000000e+01 -1.041788816452026367e+00 2.174721240997314453e+00 8.159002304077148438e+00 3.100116968154907227e+00 1.155527830123901367e+00
5.997000000000000000e+03 6.311266708374023438e+01 1.387251853942871094e+00 4.747189953923225403e-02 7.076377391815185547e+00 2.137154817581176758e+00 -4.607864618301391602e-01
5.998000000000000000e+03 6.135184097290039062e+01 -2.125195503234863281e+01 2.135965824127197266e+00 4.635998725891113281e+00 2.031589269638061523e+00 3.574075698852539062e-01
5.999000000000000000e+03 5.698307037353515625e+01 1.958474922180175781e+01 1.463616192340850830e-01 3.069164276123046875e+00 9.646577835083007812e-01 -1.437237143516540527e+00
6.000000000000000000e+03 5.232183837890625000e+01 -1.349207973480224609e+01 -2.676212042570114136e-02 -2.090398669242858887e-01 -7.074059545993804932e-02 7.496127486228942871e-02
6.001000000000000000e+03 2.405742645263671875e+01 -2.689748573303222656e+01 4.812928736209869385e-01 -1.119225919246673584e-01 1.108110845088958740e-01 -1.626479476690292358e-01
6.002000000000000000e+03 3.271741867065429688e+01 2.867374420166015625e+01 1.043679714202880859e-01 1.910057365894317627e-01 8.861210942268371582e-02 1.495159976184368134e-02
6.003000000000000000e+03 6.207240295410156250e+01 -1.049182128906250000e+01 1.335233151912689209e-01 1.054907417297363281e+01 3.204779148101806641e+00 9.535213112831115723e-01
6.004000000000000000e+03 5.629409027099609375e+01 -2.423443603515625000e+01 8.034808039665222168e-01 5.033677577972412109e+00 1.751147508621215820e+00 1.636815428733825684e+00
6.005000000000000000e+03 3.499605178833007812e+01 1.885949325561523438e+01 3.375255465507507324e-01 -2.325500128790736198e-03 1.005600169301033020e-01 3.468656539916992188e-01
6.006000000000000000e+03 7.408195495605468750e+01 1.385297775268554688e+00 -1.497394591569900513e-01 5.261359691619873047e+00 1.533486008644104004e+00 -2.884238660335540771e-01
6.007000000000000000e+03 5.930047512054443359e+00 -1.307491874694824219e+01 -1.094732731580734253e-01 -1.605603396892547607e-01 -8.101008087396621704e-02 -7.725982367992401123e-02
6.008000000000000000e+03 6.238730239868164062e+01 -8.007470369338989258e-01 1.712602734565734863e+00 1.006377029418945312e+01 3.532912015914916992e+00 -6.245791912078857422e-01
6.009000000000000000e+03 5.372123336791992188e+01 -3.096924209594726562e+01 1.423468828201293945e+00 4.405729770660400391e+00 1.748759627342224121e+00 1.006707549095153809e+00
6.010000000000000000e+03 3.419627761840820312e+01 1.667825508117675781e+01 4.132350385189056396e-01 -3.019722178578376770e-02 1.149113476276397705e-01 3.786712586879730225e-01
6.011000000000000000e+03 3.739210128784179688e+01 1.537399291992187500e+01 2.329291701316833496e-01 -4.695929288864135742e-01 -7.099912315607070923e-02 9.666597843170166016e-02
6.012000000000000000e+03 1.053735828399658203e+01 -3.162951278686523438e+01 -2.061381340026855469e-01 -3.379001915454864502e-01 -1.632114946842193604e-01 -2.501845061779022217e-01
6.013000000000000000e+03 5.950835704803466797e+00 -3.095536994934082031e+01 -1.104054450988769531e-01 -1.927815079689025879e-01 -9.095608443021774292e-02 -1.443502455949783325e-01
6.014000000000000000e+03 3.958778762817382812e+01 1.258525753021240234e+01 -7.553888857364654541e-02 -4.888855516910552979e-01 -1.693273335695266724e-01 1.115788519382476807e-02
6.015000000000000000e+03 3.888260650634765625e+01 1.378811359405517578e+01 4.337549582123756409e-02 -4.959080219268798828e-01 -1.357597559690475464e-01 -1.999562978744506836e-02
6.016000000000000000e+03 4.248747253417968750e+01 1.829718017578125000e+01 1.359574589878320694e-02 5.513395667076110840e-01 1.694805920124053955e-01 2.807696536183357239e-02
6.017000000000000000e+03 4.122155761718750000e+01 1.889095115661621094e+01 2.013169825077056885e-01 2.835090160369873047e-01 1.454477906227111816e-01 6.090563163161277771e-02
6.018000000000000000e+03 2.701738929748535156e+01 4.711231231689453125e+00 -1.396948546171188354e-01 2.290681153535842896e-01 2.681197971105575562e-02 2.163809090852737427e-01
6.019000000000000000e+03 2.674396324157714844e+01 5.651571750640869141e+00 4.876384884119033813e-02 2.038701027631759644e-01 7.579018175601959229e-02 2.012920230627059937e-01
6.020000000000000000e+03 8.419837951660156250e+00 -3.503570938110351562e+01 -1.315068639814853668e-02 -2.990363240242004395e-01 -9.365610033273696899e-02 -2.630805075168609619e-01
6.021000000000000000e+03 5.875705337524414062e+01 -1.874246406555175781e+01 2.933043241500854492e-01 4.467375755310058594e+00 1.428203940391540527e+00 1.167568325996398926e+00
6.022000000000000000e+03 6.094037246704101562e+01 -2.397759056091308594e+01 1.409108877182006836e+00 2.373874187469482422e+00 1.134894967079162598e+00 1.193269133567810059e+00
6.023000000000000000e+03 1.315698528289794922e+01 -7.449775218963623047e+00 -2.762670256197452545e-02 1.728400215506553650e-02 -3.102809889242053032e-03 -3.430475294589996338e-02
6.024000000000000000e+03 3.537868118286132812e+01 2.025604820251464844e+01 2.041241228580474854e-01 5.377918854355812073e-02 7.737099379301071167e-02 2.726297974586486816e-01
6.025000000000000000e+03 4.178859710693359375e+01 1.227023124694824219e+01 1.679111272096633911e-01 2.648947238922119141e-01 1.298417598009109497e-01 -1.830706745386123657e-01
6.026000000000000000e+03 5.471623992919921875e+01 -1.251503372192382812e+01 -2.237648889422416687e-02 -2.413404583930969238e-01 -7.911508530378341675e-02 3.666738569736480713e-01
6.027000000000000000e+03 7.478712463378906250e+01 4.085991287231445312e+01 -1.936657913029193878e-02 6.492872238159179688e+00 1.942051649093627930e+00 5.891702324151992798e-02
6.028000000000000000e+03 7.447059631347656250e+01 3.587229537963867188e+01 5.705130845308303833e-02 6.344151973724365234e+00 1.920360922813415527e+00 5.580848455429077148e-02
6.029000000000000000e+03 3.268035125732421875e+01 -1.313454627990722656e+01 -6.523917317390441895e-01 -1.548218131065368652e-01 -2.421640753746032715e-01 1.357199549674987793e-01
6.030000000000000000e+03 3.189009666442871094e+01 -1.255041980743408203e+01 -6.618842482566833496e-01 -2.831203341484069824e-01 -2.835013568401336670e-01 4.600645974278450012e-02
6.031000000000000000e+03 8.269278526306152344e+00 8.232991218566894531e+00 -3.445786237716674805e-01 -1.871317178010940552e-01 -1.595131009817123413e-01 1.928094923496246338e-01
6.032000000000000000e+03 8.168784141540527344e+00 5.767471313476562500e+00 -2.498985975980758667e-01 -1.112225130200386047e-01 -1.083363294601440430e-01 6.724077463150024414e-02
6.033000000000000000e+03 1.087644195556640625e+01 -2.924743270874023438e+01 -1.917511969804763794e-01 -3.402067422866821289e-01 -1.595873832702636719e-01 -2.189507186412811279e-01
6.034000000000000000e+03 1.019538211822509766e+01 -3.057532119750976562e+01 -2.094483971595764160e-01 -3.019990324974060059e-01 -1.534342318773269653e-01 -2.266431599855422974e-01
6.035000000000000000e+03 4.129376220703125000e+01 1.291921234130859375e+01 1.519910991191864014e-01 1.209042370319366455e-01 8.186859637498855591e-02 -2.247286140918731689e-01
6.036000000000000000e+03 4.197689819335937500e+01 1.359741783142089844e+01 1.805242449045181274e-01 3.677375316619873047e-01 1.644785404205322266e-01 -2.767447531223297119e-01
6.037000000000000000e+03 4.235509109497070312e+01 1.138019847869873047e+01 1.524569243192672729e-01 3.978367149829864502e-01 1.650880873203277588e-01 -1.011988297104835510e-01
6.038000000000000000e+03 4.788080978393554688e+01 3.375234222412109375e+01 3.726094067096710205e-01 2.356400966644287109e+00 8.187031149864196777e-01 -6.748283505439758301e-01
6.039000000000000000e+03 4.802767944335937500e+01 3.167606735229492188e+01 6.699256300926208496e-01 2.453388929367065430e+00 9.369943737983703613e-01 -7.026753425598144531e-01
6.040000000000000000e+03 6.055566024780273438e+01 1.758173346519470215e+00 -6.524192094802856445e-01 7.537508487701416016e+00 2.065526962280273438e+00 -2.517039775848388672e+00
6.041000000000000000e+03 2.146994209289550781e+01 3.365650558471679688e+01 3.492248430848121643e-02 -1.220297589898109436e-01 -2.613218128681182861e-02 7.486505433917045593e-03
6.042000000000000000e+03 2.246795082092285156e+01 3.162078285217285156e+01 -5.365181714296340942e-02 1.176468357443809509e-01 1.919850520789623260e-02 6.255917251110076904e-02
6.043000000000000000e+03 7.506146240234375000e+01 -2.526888847351074219e+01 -3.542148470878601074e-01 9.107591629028320312e+00 2.626013040542602539e+00 -4.275155365467071533e-01
6.044000000000000000e+03 3.541899490356445312e+01 -3.310120010375976562e+01 4.602287113666534424e-01 4.807929694652557373e-01 2.823064923286437988e-01 -2.984055131673812866e-02
6.045000000000000000e+03 7.329530239105224609e+00 1.518975162506103516e+01 2.507626712322235107e-01 -1.827828586101531982e-01 2.039394527673721313e-02 2.900253534317016602e-01
6.046000000000000000e+03 3.444735717773437500e+01 -3.226209640502929688e+01 4.483268857002258301e-01 3.592879474163055420e-01 2.422844618558883667e-01 -8.791003376245498657e-02
6.047000000000000000e+03 4.312732315063476562e+01 1.796378326416015625e+01 -4.634281992912292480e-02 6.663260459899902344e-01 1.859949678182601929e-01 3.852494992315769196e-03
6.048000000000000000e+03 7.283383941650390625e+01 -2.871085548400878906e+01 -4.907533526420593262e-01 4.789893627166748047e+00 1.289742112159729004e+00 1.541664600372314453e+00
6.049000000000000000e+03 7.174699401855468750e+01 -2.884831619262695312e+01 4.865382611751556396e-02 3.315995216369628906e+00 1.009394645690917969e+00 1.419561266899108887e+00
6.050000000000000000e+03 5.738128280639648438e+01 8.210948944091796875e+00 -6.481506824493408203e-01 5.617957592010498047e+00 1.490942120552062988e+00 -7.250600457191467285e-01
6.051000000000000000e+03 5.902813720703125000e+01 9.111257553100585938e+00 -3.001551926136016846e-01 6.751842021942138672e+00 1.935505986213684082e+00 -6.649400591850280762e-01
6.052000000000000000e+03 5.029695129394531250e+01 2.969987106323242188e+01 8.960314989089965820e-01 3.368927717208862305e+00 1.279487729072570801e+00 -5.797172188758850098e-01
6.053000000000000000e+03 2.293201446533203125e+01 1.059153747558593750e+01 2.392184734344482422e-01 -1.612389981746673584e-01 2.339384332299232483e-02 1.355921477079391479e-01
6.054000000000000000e+03 7.306966400146484375e+01 -1.508918285369873047e+01 -4.649235904216766357e-01 4.360702037811279297e+00 1.168733477592468262e+00 -7.077100872993469238e-01
6.055000000000000000e+03 2.305478096008300781e+01 -1.664364242553710938e+01 -5.280843377113342285e-01 -3.575322926044464111e-01 -2.656849920749664307e-01 -4.161691367626190186e-01
6.056000000000000000e+03 2.685058784484863281e+01 -2.032207679748535156e+01 -2.273402363061904907e-02 -2.536455988883972168e-01 -8.291388303041458130e-02 -1.107467412948608398e-01
6.057000000000000000e+03 5.527323722839355469e+00 3.784616851806640625e+01 3.246158361434936523e-02 -3.467974066734313965e-01 -9.430074691772460938e-02 -5.152392759919166565e-02
6.058000000000000000e+03 5.231281661987304688e+01 -3.012888336181640625e+01 1.101416110992431641e+00 3.118956565856933594e+00 1.266111850738525391e+00 6.467730998992919922e-01
6.059000000000000000e+03 5.064233779907226562e+01 2.245322990417480469e+01 -2.220719307661056519e-01 2.946481227874755859e+00 8.173227906227111816e-01 -9.262675046920776367e-01
6.060000000000000000e+03 7.470388793945312500e+01 -1.696051406860351562e+01 -2.635376155376434326e-01 7.437135696411132812e+00 2.152079582214355469e+00 2.509051859378814697e-01
6.061000000000000000e+03 7.504218292236328125e+01 -1.767856025695800781e+01 4.730360954999923706e-02 8.108016014099121094e+00 2.446595668792724609e+00 4.933024942874908447e-01
6.062000000000000000e+03 1.781199455261230469e+01 2.083905410766601562e+01 6.109534949064254761e-02 5.884120613336563110e-02 3.598096594214439392e-02 1.715436726808547974e-01
6.063000000000000000e+03 5.734037780761718750e+01 1.631630325317382812e+01 1.702035427093505859e+00 4.796410560607910156e+00 1.949533820152282715e+00 -9.991273283958435059e-01
6.064000000000000000e+03 4.951543045043945312e+01 -1.165500640869140625e+01 -3.597210347652435303e-01 7.562927603721618652e-01 1.189715042710304260e-01 -2.417924255132675171e-01
6.065000000000000000e+03 4.959179687500000000e+01 -1.330758476257324219e+01 -5.446490645408630371e-01 7.719201445579528809e-01 6.818132102489471436e-02 1.109686419367790222e-01
6.066000000000000000e+03 9.492269515991210938e+00 -2.734134864807128906e+01 -1.237819939851760864e-01 -1.820190697908401489e-01 -9.174031764268875122e-02 -1.841661930084228516e-01
6.067000000000000000e+03 2.906266212463378906e+01 -1.432905769348144531e+01 -7.046893835067749023e-01 -5.199646949768066406e-01 -3.673962354660034180e-01 -2.941896021366119385e-01
6.068000000000000000e+03 5.346284866333007812e+01 -3.244168853759765625e+01 1.489273786544799805e+00 4.409807205200195312e+00 1.769724369049072266e+00 1.152050018310546875e+00
6.069000000000000000e+03 5.119840621948242188e+01 3.246359252929687500e+01 5.224539637565612793e-01 3.454590797424316406e+00 1.193113446235656738e+00 -4.539847075939178467e-01
6.070000000000000000e+03 6.371038055419921875e+01 -1.583633065223693848e+00 2.528786659240722656e+00 9.159595489501953125e+00 3.506514787673950195e+00 8.362333774566650391e-01
6.071000000000000000e+03 6.970526885986328125e+01 -3.067056274414062500e+01 1.686254143714904785e+00 3.303649902343750000e+00 1.496971249580383301e+00 -4.265040457248687744e-01
6.072000000000000000e+03 5.225721740722656250e+01 -3.088552093505859375e+01 1.220570087432861328e+00 3.351032972335815430e+00 1.371480941772460938e+00 7.453824281692504883e-01
6.073000000000000000e+03 5.211396789550781250e+01 -3.169223022460937500e+01 1.273145437240600586e+00 3.420148611068725586e+00 1.407988190650939941e+00 8.519460558891296387e-01
6.074000000000000000e+03 4.863056182861328125e+01 2.556202316284179688e+01 5.891934037208557129e-01 2.481759309768676758e+00 9.212858080863952637e-01 -1.689266413450241089e-01
6.075000000000000000e+03 5.130233764648437500e+01 3.314858627319335938e+01 2.988689541816711426e-01 3.346894741058349609e+00 1.093729019165039062e+00 -3.966692090034484863e-01
6.076000000000000000e+03 2.757079505920410156e+01 -3.054892349243164062e+01 2.563335895538330078e-01 -1.291772723197937012e-01 3.814689815044403076e-02 -2.211546152830123901e-01
6.077000000000000000e+03 2.807558822631835938e+01 -3.208935928344726562e+01 1.707118600606918335e-01 -7.941532880067825317e-02 2.738896012306213379e-02 -1.563761979341506958e-01
6.078000000000000000e+03 3.210337066650390625e+01 3.406790924072265625e+01 3.410685360431671143e-01 1.951115280389785767e-01 1.608540117740631104e-01 1.147362962365150452e-01
6.079000000000000000e+03 2.687268447875976562e+01 3.350104904174804688e+01 1.975621432065963745e-01 1.140930801630020142e-01 9.349656105041503906e-02 2.653819322586059570e-01
6.080000000000000000e+03 2.805447387695312500e+01 -2.959893608093261719e+01 3.386468291282653809e-01 -1.010168194770812988e-01 7.128900289535522461e-02 -2.321605086326599121e-01
6.081000000000000000e+03 2.736653518676757812e+01 -2.971307945251464844e+01 3.203996717929840088e-01 -1.480254828929901123e-01 5.171225592494010925e-02 -2.300273627042770386e-01
6.082000000000000000e+03 3.127360534667968750e+01 3.104555892944335938e+01 2.773387134075164795e-01 4.540471732616424561e-02 9.682302922010421753e-02 9.234540164470672607e-02
6.083000000000000000e+03 5.003545761108398438e+01 3.226847457885742188e+01 5.457222461700439453e-01 3.048378467559814453e+00 1.078230261802673340e+00 -5.944611430168151855e-01
6.084000000000000000e+03 3.093275451660156250e+01 -3.029967880249023438e+01 3.586493730545043945e-01 1.285544633865356445e-01 1.461611539125442505e-01 -1.945439428091049194e-01
6.085000000000000000e+03 4.798473739624023438e+01 3.595605087280273438e+01 7.670740783214569092e-02 2.271336317062377930e+00 7.044131159782409668e-01 -5.218670964241027832e-01
6.086000000000000000e+03 6.485474586486816406e+00 4.024663925170898438e+01 -5.664642900228500366e-02 -2.408638149499893188e-01 -8.925307542085647583e-02 -2.514156885445117950e-02
6.087000000000000000e+03 3.290615081787109375e+01 3.578713226318359375e+01 3.668176233768463135e-01 2.463312000036239624e-01 1.839446425437927246e-01 1.043959483504295349e-01
6.088000000000000000e+03 1.731483459472656250e+01 4.157098007202148438e+01 1.876978427171707153e-01 -1.396971642971038818e-01 1.440020278096199036e-02 1.566134020686149597e-02
6.089000000000000000e+03 5.289730834960937500e+01 -3.491469192504882812e+01 1.119257450103759766e+00 3.959267377853393555e+00 1.523557424545288086e+00 1.175551414489746094e+00
6.090000000000000000e+03 4.280051708221435547e+00 4.049292373657226562e+01 -3.314109519124031067e-02 -5.396859645843505859e-01 -1.718481183052062988e-01 -2.488065324723720551e-02
6.091000000000000000e+03 2.146961212158203125e+01 3.138166046142578125e+01 -9.793537110090255737e-02 -9.189845621585845947e-02 -5.695014819502830505e-02 4.228254035115242004e-02
6.092000000000000000e+03 6.731452178955078125e+01 3.371800613403320312e+01 1.762378811836242676e-01 4.436996936798095703e+00 1.383970499038696289e+00 2.992813885211944580e-01
6.093000000000000000e+03 6.789974975585937500e+01 3.256365966796875000e+01 4.918618500232696533e-01 4.481905460357666016e+00 1.492130279541015625e+00 3.614815473556518555e-01
6.094000000000000000e+03 5.946900844573974609e+00 3.651750564575195312e+01 1.224256604909896851e-01 -2.646562457084655762e-01 -4.266917333006858826e-02 -3.241268172860145569e-02
6.095000000000000000e+03 3.284802246093750000e+01 -3.230944061279296875e+01 3.735001981258392334e-01 2.599858939647674561e-01 1.900458335876464844e-01 -1.142856925725936890e-01
6.096000000000000000e+03 3.193079185485839844e+01 -3.175340843200683594e+01 3.486519753932952881e-01 2.018753588199615479e-01 1.651581972837448120e-01 -1.484508961439132690e-01
6.097000000000000000e+03 3.372731399536132812e+01 -3.323639297485351562e+01 3.978744745254516602e-01 3.264553844928741455e-01 2.172989547252655029e-01 -7.320717722177505493e-02
6.098000000000000000e+03 5.875500202178955078e+00 -3.781713104248046875e+01 7.939675450325012207e-02 -3.702515661716461182e-01 -8.725644648075103760e-02 -1.742432266473770142e-01
6.099000000000000000e+03 7.636598968505859375e+01 -3.779055023193359375e+01 5.476580932736396790e-02 7.059817790985107422e+00 2.134375095367431641e+00 -7.451932877302169800e-02
6.100000000000000000e+03 7.613643646240234375e+01 -3.660723114013671875e+01 1.054102778434753418e-01 6.936748027801513672e+00 2.112647533416748047e+00 -6.467626243829727173e-02
6.101000000000000000e+03 4.863920974731445312e+01 -3.968148422241210938e+01 -5.335053429007530212e-02 2.466086864471435547e+00 7.238208651542663574e-01 7.808413505554199219e-01
6.102000000000000000e+03 5.217473983764648438e+01 -4.158300018310546875e+01 -9.435352087020874023e-01 3.489737987518310547e+00 7.638608217239379883e-01 1.329013854265213013e-01
6.103000000000000000e+03 7.527764892578125000e+01 -3.827616500854492188e+01 1.696113497018814087e-02 6.748805522918701172e+00 2.029730081558227539e+00 -1.692357212305068970e-01
6.104000000000000000e+03 5.226120376586914062e+01 4.134639739990234375e+01 -2.442893832921981812e-01 2.051697969436645508e+00 5.422226190567016602e-01 1.001189127564430237e-01
6.105000000000000000e+03 3.264659881591796875e+01 4.138738250732421875e+01 4.164750277996063232e-01 2.652835547924041748e-01 2.045275717973709106e-01 1.488269958645105362e-02
6.106000000000000000e+03 3.424448394775390625e+01 3.740787887573242188e+01 4.045108258724212646e-01 2.968019545078277588e-01 2.103938311338424683e-01 8.883093297481536865e-02
6.107000000000000000e+03 4.548819732666015625e+01 3.811539840698242188e+01 9.406711161136627197e-02 1.799275875091552734e+00 5.680028796195983887e-01 -3.950201869010925293e-01
6.108000000000000000e+03 4.366534423828125000e+01 3.735797119140625000e+01 3.369113802909851074e-01 1.310076475143432617e+00 4.940963685512542725e-01 -3.635643124580383301e-01
6.109000000000000000e+03 2.182931327819824219e+01 3.546654510498046875e+01 1.189187839627265930e-01 -1.155714988708496094e-01 1.004185993224382401e-03 1.582193374633789062e-02
6.110000000000000000e+03 1.991450691223144531e+01 3.909487152099609375e+01 2.170821577310562134e-01 -1.519853174686431885e-01 1.952905394136905670e-02 3.462710976600646973e-02
6.111000000000000000e+03 2.913077926635742188e+01 3.367320632934570312e+01 3.089588582515716553e-01 7.057651877403259277e-02 1.138606071472167969e-01 2.084478735923767090e-01
6.112000000000000000e+03 2.814736175537109375e+01 3.227495574951171875e+01 2.718622386455535889e-01 3.394340723752975464e-02 9.174168854951858521e-02 3.082756996154785156e-01
6.113000000000000000e+03 3.081691503524780273e+00 -3.967733001708984375e+01 4.863822087645530701e-02 -4.644685983657836914e-01 -1.247491091489791870e-01 -7.875312864780426025e-02
6.114000000000000000e+03 3.485708618164062500e+01 -3.663782501220703125e+01 3.256205916404724121e-01 4.656927585601806641e-01 2.373940050601959229e-01 1.470249984413385391e-02
6.115000000000000000e+03 6.633503723144531250e+01 3.865718460083007812e+01 -1.261309087276458740e-01 3.818543195724487305e+00 1.107723712921142578e+00 1.248970162123441696e-02
6.116000000000000000e+03 7.366413879394531250e+01 3.918193054199218750e+01 -3.109141066670417786e-02 6.126162052154541016e+00 1.828521132469177246e+00 7.137176394462585449e-02
6.117000000000000000e+03 6.400270462036132812e+00 -1.256671714782714844e+01 -1.012590453028678894e-01 -1.527150422334671021e-01 -7.619222253561019897e-02 -6.429897993803024292e-02
6.118000000000000000e+03 5.864982986450195312e+01 -2.444485473632812500e+01 4.906311035156250000e-01 3.401332855224609375e+00 1.167589187622070312e+00 2.222548961639404297e+00
6.119000000000000000e+03 6.455368804931640625e+01 3.832497596740722656e+00 -1.071131587028503418e+00 3.668857097625732422e+00 7.793176770210266113e-01 -3.018608093261718750e-01
6.120000000000000000e+03 6.297653579711914062e+01 3.992073297500610352e+00 -1.838172912597656250e+00 5.397321224212646484e+00 1.067744493484497070e+00 -1.544330477714538574e+00
6.121000000000000000e+03 5.540392684936523438e+01 -1.529622745513916016e+01 -1.987947970628738403e-01 1.172362565994262695e+00 2.920703291893005371e-01 5.072804093360900879e-01
6.122000000000000000e+03 5.621751785278320312e+01 -1.316095733642578125e+01 3.180509805679321289e-02 1.008387684822082520e+00 3.120578229427337646e-01 1.145199418067932129e+00
6.123000000000000000e+03 2.324775886535644531e+01 -1.774513435363769531e+01 -3.666343092918395996e-01 -3.309201598167419434e-01 -2.092663347721099854e-01 -4.084303379058837891e-01
6.124000000000000000e+03 6.102706146240234375e+01 -1.307692623138427734e+01 -1.727727651596069336e+00 7.912549972534179688e+00 1.855446696281433105e+00 1.861892580986022949e+00
6.125000000000000000e+03 1.360660457611083984e+01 -2.551537704467773438e+01 5.037754774093627930e-02 -5.284699201583862305e-01 -1.434276998043060303e-01 -3.358024358749389648e-01
6.126000000000000000e+03 7.351139068603515625e+00 -1.139416694641113281e+01 -9.776556491851806641e-02 -1.295135468244552612e-01 -6.818373501300811768e-02 -4.858755692839622498e-02
6.127000000000000000e+03 7.850674152374267578e+00 -1.082543849945068359e+01 -7.830788940191268921e-02 -1.312375366687774658e-01 -6.286362558603286743e-02 -4.656101763248443604e-02
6.128000000000000000e+03 1.036744594573974609e+01 6.017765522003173828e+00 -3.800835311412811279e-01 -2.268013209104537964e-01 -1.820654571056365967e-01 1.723523885011672974e-01
6.129000000000000000e+03 7.605263519287109375e+01 -1.293660449981689453e+01 -1.364197134971618652e+00 7.884822368621826172e+00 1.956187605857849121e+00 3.012810349464416504e-01
6.130000000000000000e+03 2.365444755554199219e+01 1.146837425231933594e+01 1.647177636623382568e-01 -1.334906518459320068e-01 9.368136525154113770e-03 1.042827442288398743e-01
6.131000000000000000e+03 5.871985626220703125e+01 -1.980879402160644531e+01 8.791860342025756836e-01 4.204258918762207031e+00 1.525033473968505859e+00 1.351713061332702637e+00
6.132000000000000000e+03 7.464672088623046875e+01 1.705814170837402344e+01 -2.998375892639160156e-01 8.470483779907226562e+00 2.451193809509277344e+00 9.968014359474182129e-01
6.133000000000000000e+03 5.804132080078125000e+01 -1.302909183502197266e+01 -3.461742103099822998e-01 3.226525545120239258e+00 8.641054034233093262e-01 2.251077651977539062e+00
6.134000000000000000e+03 6.058815765380859375e+01 -1.706185913085937500e+01 -8.465194702148437500e-01 6.199043750762939453e+00 1.605757236480712891e+00 6.709401607513427734e-01
6.135000000000000000e+03 5.753414535522460938e+01 -1.770588874816894531e+01 -3.661291897296905518e-01 3.858867883682250977e+00 1.047821640968322754e+00 1.100585937500000000e+00
6.136000000000000000e+03 4.369630050659179688e+01 1.937913894653320312e+01 -2.757984958589076996e-02 6.974406242370605469e-01 2.009582370519638062e-01 2.403625696897506714e-01
6.137000000000000000e+03 4.434646224975585938e+01 1.903432655334472656e+01 -2.003762722015380859e-01 7.738901972770690918e-01 1.720541715621948242e-01 2.283483743667602539e-01
6.138000000000000000e+03 5.798019409179687500e+01 1.435143756866455078e+01 1.876155495643615723e+00 5.957403182983398438e+00 2.350067615509033203e+00 -8.817597627639770508e-01
6.139000000000000000e+03 5.726824951171875000e+01 1.415548324584960938e+01 1.878063440322875977e+00 5.551912307739257812e+00 2.228992700576782227e+00 -1.109402775764465332e+00
6.140000000000000000e+03 2.474632263183593750e+01 -1.678685951232910156e+01 -4.844772219657897949e-01 -4.418432414531707764e-01 -2.778961360454559326e-01 -3.620181381702423096e-01
6.141000000000000000e+03 4.175395965576171875e+01 9.145094871520996094e+00 -2.064057439565658569e-01 -1.155996974557638168e-02 -6.538971513509750366e-02 3.240133225917816162e-01
6.142000000000000000e+03 5.978111267089843750e+00 1.817421913146972656e+01 1.980440765619277954e-01 -3.354250788688659668e-01 -4.121429473161697388e-02 1.008792817592620850e-01
6.143000000000000000e+03 4.244639587402343750e+01 7.859427452087402344e+00 -2.601291537284851074e-01 1.222543194890022278e-01 -4.136244952678680420e-02 4.166128039360046387e-01
6.144000000000000000e+03 7.418095397949218750e+01 9.676240921020507812e+00 9.541331529617309570e-01 8.893267631530761719e+00 2.954220294952392578e+00 -3.403261899948120117e-01
6.145000000000000000e+03 7.118276977539062500e+01 1.549789190292358398e+00 1.040063500404357910e+00 2.521647214889526367e+00 1.068513154983520508e+00 1.651142954826354980e+00
6.146000000000000000e+03 2.624497032165527344e+01 -1.941846466064453125e+01 -1.002143621444702148e-01 -3.217763304710388184e-01 -1.265972107648849487e-01 -1.748982816934585571e-01
6.147000000000000000e+03 5.597982025146484375e+01 2.170736885070800781e+01 -1.419628977775573730e+00 2.695121526718139648e+00 3.826477229595184326e-01 -2.058711051940917969e+00
6.148000000000000000e+03 5.499344635009765625e+01 2.172677040100097656e+01 -1.344282984733581543e+00 3.441611289978027344e+00 6.291984915733337402e-01 -2.087671995162963867e+00
6.149000000000000000e+03 2.733136940002441406e+01 -2.525950241088867188e+01 3.445001542568206787e-01 -1.370512843132019043e-01 6.223465874791145325e-02 -1.789036095142364502e-01
6.150000000000000000e+03 1.895991134643554688e+01 -1.534243965148925781e+01 -3.284367024898529053e-01 -5.067652091383934021e-02 -1.137339621782302856e-01 -2.321293801069259644e-01
6.151000000000000000e+03 1.823581695556640625e+01 -1.558358383178710938e+01 -1.954210400581359863e-01 -2.960849739611148834e-02 -6.750886142253875732e-02 -2.432229220867156982e-01
6.152000000000000000e+03 4.402472305297851562e+01 -1.639937210083007812e+01 -2.268734388053417206e-02 2.588644623756408691e-01 7.085313647985458374e-02 -4.951553419232368469e-02
6.153000000000000000e+03 4.336340332031250000e+01 -1.651375389099121094e+01 -2.928495593369007111e-02 1.292838454246520996e-01 2.999966777861118317e-02 -1.950343996286392212e-01
6.154000000000000000e+03 7.497875213623046875e+01 8.075260162353515625e+00 1.295325607061386108e-01 8.063347816467285156e+00 2.457864046096801758e+00 -6.785244941711425781e-01
6.155000000000000000e+03 2.006517982482910156e+01 -2.394747734069824219e+01 6.889051944017410278e-02 1.110445559024810791e-01 5.398052185773849487e-02 -2.942211925983428955e-01
6.156000000000000000e+03 4.780138397216796875e+01 2.326158714294433594e+01 3.975118994712829590e-01 1.766205310821533203e+00 6.491151452064514160e-01 -7.928792387247085571e-02
6.157000000000000000e+03 5.159411239624023438e+01 2.053409767150878906e+01 -3.828440606594085693e-01 3.073798656463623047e+00 8.072863817214965820e-01 -1.651305794715881348e+00
6.158000000000000000e+03 4.878976440429687500e+01 2.289582061767578125e+01 2.546678781509399414e-01 2.029833078384399414e+00 6.853502988815307617e-01 -4.145320355892181396e-01
6.159000000000000000e+03 2.794698524475097656e+01 1.214418601989746094e+01 8.088195323944091797e-02 3.684608340263366699e-01 1.348028331995010376e-01 2.535601556301116943e-01
6.160000000000000000e+03 2.570336914062500000e+01 1.185339832305908203e+01 1.612680852413177490e-01 -1.059064455330371857e-02 4.520323127508163452e-02 1.178760081529617310e-01
6.161000000000000000e+03 3.346554565429687500e+01 -7.510568141937255859e+00 -6.688844412565231323e-02 -9.227284789085388184e-02 -4.774838685989379883e-02 -6.204378604888916016e-01
6.162000000000000000e+03 1.776452636718750000e+01 -2.236888885498046875e+01 -2.278714329004287720e-01 -1.474852859973907471e-01 -1.126070171594619751e-01 -4.171609878540039062e-01
6.163000000000000000e+03 1.823521232604980469e+01 -2.438873481750488281e+01 8.092580735683441162e-02 -6.078621745109558105e-02 6.041877903044223785e-03 -3.692238628864288330e-01
6.164000000000000000e+03 5.878790283203125000e+01 1.417845821380615234e+01 1.669110059738159180e+00 7.040380954742431641e+00 2.612847328186035156e+00 -5.684537887573242188e-01
6.165000000000000000e+03 5.800714492797851562e+01 1.563215827941894531e+01 1.805309772491455078e+00 5.558569908142089844e+00 2.209163904190063477e+00 -7.374169230461120605e-01
6.166000000000000000e+03 5.733931732177734375e+01 1.568623638153076172e+01 1.834561228752136230e+00 5.048427581787109375e+00 2.064896583557128906e+00 -1.006801009178161621e+00
6.167000000000000000e+03 6.672760486602783203e+00 2.102273941040039062e+01 1.119736023247241974e-02 -3.796241581439971924e-01 -1.105280369520187378e-01 6.677372008562088013e-02
6.168000000000000000e+03 6.144484329223632812e+01 1.886996388435363770e+00 -7.702586650848388672e-01 7.592989444732666016e+00 2.046819210052490234e+00 -1.961088180541992188e+00
6.169000000000000000e+03 6.236232376098632812e+01 1.282036900520324707e+00 -1.352886408567428589e-01 7.806188106536865234e+00 2.301269769668579102e+00 -1.056319117546081543e+00
6.170000000000000000e+03 3.308893585205078125e+01 -9.417689323425292969e+00 -1.972533613443374634e-01 -1.837707459926605225e-01 -1.143072322010993958e-01 -3.476696610450744629e-01
6.171000000000000000e+03 3.393935012817382812e+01 -8.002376556396484375e+00 -3.000292740762233734e-02 2.997351251542568207e-02 -8.824835276755038649e-06 -5.465055704116821289e-01
6.172000000000000000e+03 4.995634841918945312e+01 -1.396956634521484375e+01 -3.983050286769866943e-01 5.518687367439270020e-01 4.606910422444343567e-02 2.669841349124908447e-01
6.173000000000000000e+03 3.797192335128784180e+00 1.467911243438720703e+01 7.738684117794036865e-02 -2.967915534973144531e-01 -6.582141667604446411e-02 2.000849246978759766e-01
6.174000000000000000e+03 6.705746650695800781e+00 1.455740165710449219e+01 1.864015311002731323e-01 -2.122063338756561279e-01 -7.741439156234264374e-03 3.057154417037963867e-01
6.175000000000000000e+03 6.716693115234375000e+01 2.813292121887207031e+01 1.278130292892456055e+00 3.875290870666503906e+00 1.546026349067687988e+00 4.272233545780181885e-01
6.176000000000000000e+03 9.249657630920410156e+00 1.969948768615722656e+01 1.390454769134521484e-01 -8.080296963453292847e-02 1.747275516390800476e-02 1.816968470811843872e-01
6.177000000000000000e+03 4.394137191772460938e+01 -2.079485511779785156e+01 6.061748266220092773e-01 9.169368147850036621e-01 4.569334983825683594e-01 9.800576418638229370e-02
6.178000000000000000e+03 5.025417327880859375e+01 -1.296035099029541016e+01 -3.752314746379852295e-01 4.639826118946075439e-01 2.662534452974796295e-02 4.309940617531538010e-03
6.179000000000000000e+03 1.185991001129150391e+01 -2.729161071777343750e+01 -8.726598322391510010e-02 -4.058512151241302490e-01 -1.479351520538330078e-01 -2.458123564720153809e-01
6.180000000000000000e+03 6.258039093017578125e+01 -1.304389953613281250e+00 2.202388286590576172e+00 1.023599052429199219e+01 3.731513500213623047e+00 -3.710239827632904053e-01
6.181000000000000000e+03 1.870936584472656250e+01 -1.462787055969238281e+01 -3.237804472446441650e-01 -2.108003012835979462e-02 -1.034581437706947327e-01 -1.244652494788169861e-01
6.182000000000000000e+03 1.802198600769042969e+01 -1.492093467712402344e+01 -2.015295773744583130e-01 1.533638592809438705e-02 -5.585795640945434570e-02 -1.437494456768035889e-01
6.183000000000000000e+03 7.354045867919921875e+01 -2.873736190795898438e+01 -6.623409986495971680e-01 5.665134429931640625e+00 1.500837922096252441e+00 1.411400675773620605e+00
6.184000000000000000e+03 7.542927551269531250e+01 -2.741909980773925781e+01 -1.066658258438110352e+00 7.867238998413085938e+00 2.040174245834350586e+00 2.892557680606842041e-01
6.185000000000000000e+03 3.368106079101562500e+01 -6.386572837829589844e+00 -1.394202411174774170e-01 1.373179140500724316e-03 -4.141411557793617249e-02 -6.504739522933959961e-01
6.186000000000000000e+03 1.904388809204101562e+01 2.219890594482421875e+01 2.789415419101715088e-01 9.137642383575439453e-02 1.110953912138938904e-01 1.336715668439865112e-01
6.187000000000000000e+03 2.212862014770507812e+01 2.936646652221679688e+01 1.330344080924987793e-01 1.085040941834449768e-01 7.246155291795730591e-02 2.339220345020294189e-01
6.188000000000000000e+03 6.080804061889648438e+01 5.721583843231201172e+00 -2.670173168182373047e+00 6.631723880767822266e+00 1.188465237617492676e+00 -2.044708013534545898e+00
6.189000000000000000e+03 6.099552154541015625e+01 5.012080669403076172e+00 -2.570451498031616211e+00 6.550689220428466797e+00 1.194071292877197266e+00 -2.217753648757934570e+00
6.190000000000000000e+03 6.241024494171142578e+00 -1.030608940124511719e+01 -3.754618763923645020e-02 -1.030067428946495056e-01 -4.216587916016578674e-02 -8.945437148213386536e-03
6.191000000000000000e+03 4.243218231201171875e+01 6.054088115692138672e+00 -3.299753069877624512e-01 -1.210331320762634277e-01 -1.353025287389755249e-01 3.848575949668884277e-01
6.192000000000000000e+03 3.948073577880859375e+01 -1.539280986785888672e+01 -6.105107069015502930e-01 7.454135417938232422e-01 4.047084599733352661e-02 -4.519518315792083740e-01
6.193000000000000000e+03 3.891349411010742188e+01 -1.570778179168701172e+01 -5.341529846191406250e-01 8.183839321136474609e-01 8.526929467916488647e-02 -3.768397569656372070e-01
6.194000000000000000e+03 5.968822479248046875e+01 6.865882873535156250e+00 -2.073999166488647461e+00 6.666929721832275391e+00 1.377879142761230469e+00 -1.507471680641174316e+00
6.195000000000000000e+03 5.883063888549804688e+01 8.392179489135742188e+00 -9.217402935028076172e-01 6.584135532379150391e+00 1.698718667030334473e+00 -8.148390650749206543e-01
6.196000000000000000e+03 7.675727081298828125e+01 8.947321772575378418e-01 -3.879895210266113281e-01 7.369023323059082031e+00 2.094310283660888672e+00 -2.083546966314315796e-01
6.197000000000000000e+03 4.983007049560546875e+01 -2.751165390014648438e+01 5.482198596000671387e-01 9.495951533317565918e-01 4.493445158004760742e-01 -5.010392069816589355e-01
6.198000000000000000e+03 6.532448577880859375e+01 -1.380195045471191406e+01 -1.593087434768676758e+00 6.126155853271484375e+00 1.359920501708984375e+00 3.563204407691955566e-01
6.199000000000000000e+03 6.415612792968750000e+01 -1.566099834442138672e+01 -2.919548749923706055e+00 7.569159507751464844e+00 1.394883155822753906e+00 5.687252879142761230e-01
6.200000000000000000e+03 6.501835632324218750e+01 -1.482382392883300781e+01 -2.521093606948852539e+00 6.394283771514892578e+00 1.161957144737243652e+00 7.599320411682128906e-01
6.201000000000000000e+03 7.518305969238281250e+01 3.064841270446777344e+01 2.220564037561416626e-01 6.470094203948974609e+00 2.007645130157470703e+00 -2.284387797117233276e-01
6.202000000000000000e+03 7.538842010498046875e+01 3.262682342529296875e+01 1.640800386667251587e-01 6.547560214996337891e+00 2.013492107391357422e+00 -8.684922754764556885e-02
6.203000000000000000e+03 4.383271026611328125e+01 5.450282573699951172e+00 -5.016627311706542969e-01 2.076542228460311890e-01 -8.820255100727081299e-02 2.025468945503234863e-01
6.204000000000000000e+03 4.364082336425781250e+01 6.989243507385253906e+00 -2.757055461406707764e-01 3.486012518405914307e-01 2.186870947480201721e-02 2.970730066299438477e-01
6.205000000000000000e+03 6.007415008544921875e+01 -1.133416748046875000e+01 -5.851835608482360840e-01 7.778800010681152344e+00 2.158084869384765625e+00 3.124196052551269531e+00
6.206000000000000000e+03 7.584028625488281250e+01 2.986625289916992188e+01 1.635890603065490723e-01 6.740562438964843750e+00 2.071245431900024414e+00 -2.824710309505462646e-01
6.207000000000000000e+03 2.399668502807617188e+01 5.735641002655029297e+00 -5.697947926819324493e-04 -1.413788199424743652e-01 -4.258458688855171204e-02 1.859541237354278564e-01
6.208000000000000000e+03 1.684098625183105469e+01 -2.443744850158691406e+01 7.571448385715484619e-02 -3.303921520709991455e-01 -7.640329748392105103e-02 -3.811607956886291504e-01
6.209000000000000000e+03 4.465874862670898438e+01 -2.491710281372070312e+01 3.176068663597106934e-01 8.251032829284667969e-01 3.428130447864532471e-01 -4.094584286212921143e-02
6.210000000000000000e+03 4.372961044311523438e+01 -2.354052162170410156e+01 3.787992000579833984e-01 8.912740349769592285e-01 3.810219764709472656e-01 1.373086273670196533e-01
6.211000000000000000e+03 5.713573455810546875e+01 -1.618249893188476562e+01 -5.421319603919982910e-01 3.205151319503784180e+00 7.989057898521423340e-01 1.000727653503417969e+00
6.212000000000000000e+03 7.484432983398437500e+01 -2.974851608276367188e+01 -3.739999830722808838e-01 6.525867938995361328e+00 1.845560431480407715e+00 7.992351055145263672e-01
6.213000000000000000e+03 5.900442504882812500e+01 9.744379997253417969e+00 4.517320394515991211e-01 6.888986587524414062e+00 2.202215433120727539e+00 -7.344804406166076660e-01
6.214000000000000000e+03 1.104465961456298828e+01 -5.580147743225097656e+00 -5.482729058712720871e-03 -2.693849802017211914e-02 -9.726367890834808350e-03 -3.967101871967315674e-02
6.215000000000000000e+03 3.605732345581054688e+01 1.504908657073974609e+01 1.720989197492599487e-01 -4.567877650260925293e-01 -8.540665358304977417e-02 2.365986108779907227e-01
6.216000000000000000e+03 4.162239456176757812e+01 1.743869972229003906e+01 1.097945272922515869e-01 3.826055526733398438e-01 1.477200239896774292e-01 -9.208946675062179565e-02
6.217000000000000000e+03 4.765609264373779297e+00 -6.080627441406250000e+00 9.386292658746242523e-03 -2.649053372442722321e-02 -5.131272133439779282e-03 2.554683759808540344e-02
6.218000000000000000e+03 4.974626064300537109e+00 -5.588894367218017578e+00 1.137528754770755768e-02 -2.102244831621646881e-02 -2.894148230552673340e-03 2.022009342908859253e-02
6.219000000000000000e+03 7.475789546966552734e+00 -9.623237609863281250e+00 -3.752021864056587219e-02 -1.078502163290977478e-01 -4.361113160848617554e-02 -2.466657757759094238e-02
6.220000000000000000e+03 2.706177711486816406e+01 1.135351943969726562e+01 2.081430852413177490e-01 2.441220581531524658e-01 1.356795430183410645e-01 1.653203517198562622e-01
6.221000000000000000e+03 5.722202777862548828e+00 -5.375771522521972656e+00 1.147170178592205048e-02 -2.790247648954391479e-02 -4.929232411086559296e-03 1.419271249324083328e-02
6.222000000000000000e+03 2.554096603393554688e+01 6.733295917510986328e+00 2.100526392459869385e-01 8.304689079523086548e-03 6.550719588994979858e-02 1.708015203475952148e-01
6.223000000000000000e+03 2.332325744628906250e+01 7.220599174499511719e+00 2.289242893457412720e-01 -1.915561705827713013e-01 1.121043507009744644e-02 1.606741845607757568e-01
6.224000000000000000e+03 5.514251232147216797e+00 -5.884079456329345703e+00 1.024601235985755920e-02 -3.384638205170631409e-02 -7.080110721290111542e-03 1.504865474998950958e-02
6.225000000000000000e+03 6.556693267822265625e+01 2.304805946350097656e+01 -3.517117202281951904e-01 1.833270907402038574e+00 4.444677531719207764e-01 8.600983619689941406e-01
6.226000000000000000e+03 1.247597599029541016e+01 2.071801185607910156e+01 7.092358916997909546e-02 2.025052309036254883e-01 8.202864974737167358e-02 4.435973465442657471e-01
6.227000000000000000e+03 1.254552650451660156e+01 2.002421569824218750e+01 5.905270576477050781e-02 2.991175353527069092e-01 1.074510738253593445e-01 4.536353647708892822e-01
6.228000000000000000e+03 7.272253417968750000e+01 -3.043015670776367188e+01 4.641710817813873291e-01 4.695487499237060547e+00 1.547897577285766602e+00 9.501426815986633301e-01
6.229000000000000000e+03 7.441346740722656250e+01 -3.101303100585937500e+01 1.543068438768386841e-01 5.954925537109375000e+00 1.832769632339477539e+00 6.757411360740661621e-01
6.230000000000000000e+03 2.673135566711425781e+01 7.710111618041992188e+00 3.227996826171875000e-01 2.605426609516143799e-01 1.750026941299438477e-01 1.510101705789566040e-01
6.231000000000000000e+03 2.604761695861816406e+01 5.913352012634277344e+00 9.060329198837280273e-02 8.676077425479888916e-02 5.320921912789344788e-02 1.851846873760223389e-01
6.232000000000000000e+03 5.912387371063232422e+00 1.278217220306396484e+01 1.648427918553352356e-02 -1.889531314373016357e-01 -5.174065381288528442e-02 3.294993042945861816e-01
6.233000000000000000e+03 2.349870491027832031e+01 6.039693832397460938e+00 5.606539174914360046e-02 -1.703709661960601807e-01 -3.429166972637176514e-02 1.797775775194168091e-01
6.234000000000000000e+03 2.537072563171386719e+01 6.111067771911621094e+00 9.907601773738861084e-02 -1.380544062703847885e-02 2.558117173612117767e-02 1.949303746223449707e-01
6.235000000000000000e+03 6.575806427001953125e+01 2.885115623474121094e+00 1.152624189853668213e-01 3.417335987091064453e+00 1.059779524803161621e+00 1.217776536941528320e+00
6.236000000000000000e+03 6.894629669189453125e+01 1.232938170433044434e+00 1.444733381271362305e+00 2.658881425857543945e+00 1.231084465980529785e+00 2.954919099807739258e+00
6.237000000000000000e+03 7.522955322265625000e+01 3.137475395202636719e+01 2.035574764013290405e-01 6.471770763397216797e+00 2.002598524093627930e+00 -1.657460033893585205e-01
6.238000000000000000e+03 6.050320816040039062e+01 2.115390205383300781e+01 -1.596538662910461426e+00 3.676973104476928711e+00 6.241303086280822754e-01 1.749246835708618164e+00
6.239000000000000000e+03 6.559986877441406250e+01 2.441377449035644531e+01 7.646899819374084473e-01 2.813598632812500000e+00 1.073486566543579102e+00 5.240329504013061523e-01
6.240000000000000000e+03 7.648763275146484375e+01 -2.839481735229492188e+01 -6.256644129753112793e-01 7.738144874572753906e+00 2.133744239807128906e+00 1.150223538279533386e-01
6.241000000000000000e+03 3.940748453140258789e+00 -2.943099784851074219e+01 -5.877088755369186401e-02 -1.809656620025634766e-01 -7.192096859216690063e-02 -5.279961228370666504e-02
6.242000000000000000e+03 4.612125396728515625e+00 -2.870757865905761719e+01 -6.972811371088027954e-02 -1.539950966835021973e-01 -6.711696088314056396e-02 -5.033397674560546875e-02
6.243000000000000000e+03 7.508458709716796875e+01 2.983624839782714844e+01 2.182399034500122070e-01 6.430983066558837891e+00 1.994766950607299805e+00 -2.928832173347473145e-01
6.244000000000000000e+03 7.604088592529296875e+01 3.185101985931396484e+00 -3.428978919982910156e-01 6.990687370300292969e+00 1.994336843490600586e+00 -4.292244911193847656e-01
6.245000000000000000e+03 2.118307495117187500e+01 -1.779165267944335938e+01 -3.627566993236541748e-01 -2.064094990491867065e-01 -1.707498580217361450e-01 -4.930116236209869385e-01
6.246000000000000000e+03 2.207853698730468750e+01 -1.687923049926757812e+01 -4.685883224010467529e-01 -2.774370610713958740e-01 -2.238076180219650269e-01 -4.433488845825195312e-01
6.247000000000000000e+03 4.007185459136962891e+00 -3.089947700500488281e+01 -5.906650424003601074e-02 -2.155260145664215088e-01 -8.237775415182113647e-02 -9.105518460273742676e-02
6.248000000000000000e+03 5.944556808471679688e+01 8.009262084960937500e+00 -1.351110816001892090e+00 6.758145332336425781e+00 1.622110366821289062e+00 -1.008530259132385254e+00
6.249000000000000000e+03 5.926131057739257812e+01 8.539984703063964844e+00 -8.116308450698852539e-01 6.849750995635986328e+00 1.811436057090759277e+00 -9.229072332382202148e-01
6.250000000000000000e+03 4.802124977111816406e+00 -2.712591171264648438e+01 -4.626941680908203125e-02 -1.115902215242385864e-01 -4.735789075493812561e-02 -1.805907301604747772e-02
6.251000000000000000e+03 2.222967529296875000e+01 9.007313728332519531e+00 3.211380541324615479e-01 -1.985153555870056152e-01 3.678680956363677979e-02 1.753010451793670654e-01
6.252000000000000000e+03 2.210003662109375000e+01 7.769855022430419922e+00 2.979263663291931152e-01 -2.011660486459732056e-01 2.902809716761112213e-02 1.564871966838836670e-01
6.253000000000000000e+03 6.720920562744140625e+01 2.597669410705566406e+01 1.228043556213378906e+00 3.117166757583618164e+00 1.303563117980957031e+00 5.566104128956794739e-02
6.254000000000000000e+03 3.123260498046875000e+01 3.022346878051757812e+01 2.344164550304412842e-01 -1.772787794470787048e-02 6.500657647848129272e-02 8.341749012470245361e-02
6.255000000000000000e+03 7.646914672851562500e+01 -2.477306175231933594e+01 1.075959354639053345e-01 8.508032798767089844e+00 2.584688425064086914e+00 -7.916850447654724121e-01
6.256000000000000000e+03 7.517387390136718750e+01 -2.446493721008300781e+01 3.932273089885711670e-01 9.233285903930664062e+00 2.887953996658325195e+00 -5.296681523323059082e-01
6.257000000000000000e+03 1.749114418029785156e+01 -1.384351444244384766e+01 -1.771115809679031372e-01 9.142037481069564819e-02 -2.570736408233642578e-02 6.090310867875814438e-03
6.258000000000000000e+03 7.505906677246093750e+01 2.896317100524902344e+01 2.025352269411087036e-01 6.441679954528808594e+00 1.993264675140380859e+00 -3.676899671554565430e-01
6.259000000000000000e+03 7.606381225585937500e+01 2.185330772399902344e+01 -5.801751017570495605e-01 7.615484714508056641e+00 2.110592842102050781e+00 6.322205066680908203e-02
6.260000000000000000e+03 7.473328399658203125e+01 2.149135398864746094e+01 -9.417338967323303223e-01 7.310318946838378906e+00 1.910575509071350098e+00 -1.150581389665603638e-01
6.261000000000000000e+03 7.500329589843750000e+01 2.312633705139160156e+01 -5.977926254272460938e-01 7.055298805236816406e+00 1.937251806259155273e+00 -3.669829666614532471e-01
6.262000000000000000e+03 7.603771209716796875e+01 2.585195732116699219e+01 -9.253930300474166870e-02 7.080256938934326172e+00 2.096315383911132812e+00 -4.227323830127716064e-01
6.263000000000000000e+03 7.551470184326171875e+01 2.343726348876953125e+01 -4.720351397991180420e-01 7.208901882171630859e+00 2.021059989929199219e+00 -3.176590204238891602e-01
6.264000000000000000e+03 7.592125701904296875e+01 -1.780461883544921875e+01 5.493142828345298767e-02 8.129717826843261719e+00 2.455394744873046875e+00 9.289282560348510742e-01
6.265000000000000000e+03 7.598493194580078125e+01 2.662893867492675781e+01 -8.118281140923500061e-03 6.985955238342285156e+00 2.093351125717163086e+00 -4.308528900146484375e-01
6.266000000000000000e+03 7.449596405029296875e+01 2.252770996093750000e+01 -7.975155711174011230e-01 6.999267101287841797e+00 1.860525369644165039e+00 -3.918625414371490479e-01
6.267000000000000000e+03 4.203746032714843750e+01 -1.746367263793945312e+01 2.326839715242385864e-01 1.987647861242294312e-01 1.294346302747726440e-01 -3.499488532543182373e-01
6.268000000000000000e+03 7.626381683349609375e+01 -2.781316947937011719e+01 -7.620390057563781738e-01 7.920199394226074219e+00 2.147448301315307617e+00 4.423599690198898315e-02
6.269000000000000000e+03 7.605613708496093750e+01 -2.719493103027343750e+01 -8.756997585296630859e-01 8.101470947265625000e+00 2.167731285095214844e+00 -1.043897792696952820e-01
6.270000000000000000e+03 7.584329223632812500e+01 6.022366046905517578e+00 -3.142895102500915527e-01 7.415917396545410156e+00 2.130488395690917969e+00 -6.763398647308349609e-01
6.271000000000000000e+03 7.495409393310546875e+01 1.775278091430664062e+01 -5.571819543838500977e-01 8.253708839416503906e+00 2.308958053588867188e+00 9.683410525321960449e-01
6.272000000000000000e+03 7.596060943603515625e+01 -1.655372619628906250e+01 -3.332978487014770508e-01 7.821329116821289062e+00 2.246409416198730469e+00 8.830956816673278809e-01
6.273000000000000000e+03 7.550460815429687500e+01 3.621969461441040039e+00 -3.719196319580078125e-01 6.833578109741210938e+00 1.938497543334960938e+00 -3.679622113704681396e-01
6.274000000000000000e+03 7.507012176513671875e+01 1.144583320617675781e+01 1.430197238922119141e+00 8.672781944274902344e+00 3.030893802642822266e+00 -1.526889950037002563e-02
6.275000000000000000e+03 7.630799102783203125e+01 6.805164337158203125e+00 -1.386926919221878052e-01 7.474078655242919922e+00 2.200615882873535156e+00 -8.285560011863708496e-01
6.276000000000000000e+03 7.634594726562500000e+01 1.797553825378417969e+01 -3.315716981887817383e-01 7.950684547424316406e+00 2.285733938217163086e+00 1.035606503486633301e+00
6.277000000000000000e+03 7.628709411621093750e+01 1.857692718505859375e+01 -5.033598542213439941e-01 7.954483985900878906e+00 2.235337257385253906e+00 9.084545373916625977e-01
6.278000000000000000e+03 7.512583923339843750e+01 -2.601722335815429688e+01 -9.530633687973022461e-01 8.625234603881835938e+00 2.301651477813720703e+00 -1.507510989904403687e-01
6.279000000000000000e+03 4.443998813629150391e+00 -3.048148536682128906e+01 -7.409047335386276245e-02 -1.996810436248779297e-01 -8.213145285844802856e-02 -9.231478720903396606e-02
6.280000000000000000e+03 6.614837646484375000e+01 2.324288558959960938e+01 -1.043635308742523193e-01 1.932495117187500000e+00 5.484394431114196777e-01 2.439159899950027466e-01
6.281000000000000000e+03 7.598834991455078125e+01 1.566960906982421875e+01 3.555349409580230713e-01 8.023030281066894531e+00 2.513569593429565430e+00 1.138430237770080566e+00
6.282000000000000000e+03 7.550731658935546875e+01 1.912897109985351562e+01 -7.534639835357666016e-01 7.968558311462402344e+00 2.164528369903564453e+00 7.239857316017150879e-01
6.283000000000000000e+03 7.429206848144531250e+01 1.639361000061035156e+01 3.204423934221267700e-02 8.761439323425292969e+00 2.638045310974121094e+00 9.852179884910583496e-01
6.284000000000000000e+03 7.597193145751953125e+01 -2.875361442565917969e+01 -6.781523823738098145e-01 7.506975173950195312e+00 2.048646688461303711e+00 3.852488994598388672e-01
6.285000000000000000e+03 7.653202819824218750e+01 2.708933353424072266e+00 -3.069220781326293945e-01 7.183833122253417969e+00 2.063073396682739258e+00 -4.055658280849456787e-01
6.286000000000000000e+03 7.564570617675781250e+01 2.614461660385131836e+00 -3.643088936805725098e-01 6.712991714477539062e+00 1.904604792594909668e+00 -3.586923182010650635e-01
6.287000000000000000e+03 7.529727935791015625e+01 1.424146938323974609e+01 9.817277193069458008e-01 8.475972175598144531e+00 2.837310075759887695e+00 8.430359363555908203e-01
6.288000000000000000e+03 7.472706604003906250e+01 9.505885124206542969e+00 7.499641776084899902e-01 8.441948890686035156e+00 2.757573843002319336e+00 -5.393854975700378418e-01
6.289000000000000000e+03 7.543489074707031250e+01 1.374922847747802734e+01 1.044783234596252441e+00 8.383107185363769531e+00 2.828366994857788086e+00 6.799004673957824707e-01
6.290000000000000000e+03 7.593697357177734375e+01 9.285896301269531250e+00 4.898223280906677246e-01 7.782885074615478516e+00 2.481812238693237305e+00 -7.365192174911499023e-01
6.291000000000000000e+03 7.545808410644531250e+01 9.011054992675781250e+00 4.571173489093780518e-01 7.962005138397216797e+00 2.525736808776855469e+00 -7.132138013839721680e-01
6.292000000000000000e+03 7.518695831298828125e+01 9.331027984619140625e+00 6.218510270118713379e-01 8.149818420410156250e+00 2.631500959396362305e+00 -6.375637650489807129e-01
6.293000000000000000e+03 7.484539031982421875e+01 1.348528289794921875e+01 1.258938312530517578e+00 8.920519828796386719e+00 3.053837537765502930e+00 5.979551076889038086e-01
6.294000000000000000e+03 7.630757141113281250e+01 8.064925193786621094e+00 1.205258741974830627e-01 7.541867256164550781e+00 2.298717975616455078e+00 -8.662169575691223145e-01
6.295000000000000000e+03 7.519350433349609375e+01 2.123508453369140625e+00 -3.449436724185943604e-01 6.367169380187988281e+00 1.806667804718017578e+00 -3.131024837493896484e-01
6.296000000000000000e+03 7.502614593505859375e+01 8.941509246826171875e+00 4.645631015300750732e-01 8.185960769653320312e+00 2.595157384872436523e+00 -6.569863557815551758e-01
6.297000000000000000e+03 7.454199981689453125e+01 7.511339187622070312e+00 -1.345500051975250244e-01 8.018069267272949219e+00 2.365055799484252930e+00 -5.072869062423706055e-01
6.298000000000000000e+03 7.361422729492187500e+01 6.129959583282470703e+00 -6.951290369033813477e-01 7.372128486633300781e+00 2.003099918365478516e+00 2.505845129489898682e-01
6.299000000000000000e+03 7.481269073486328125e+01 5.217805862426757812e+00 -4.918836057186126709e-01 7.081933021545410156e+00 1.977014780044555664e+00 -2.678396701812744141e-01
6.300000000000000000e+03 7.638368225097656250e+01 -1.543888568878173828e+01 -6.220780611038208008e-01 7.849496364593505859e+00 2.168225526809692383e+00 8.403096199035644531e-01
6.301000000000000000e+03 7.442947864532470703e+00 9.726544380187988281e+00 -2.774926126003265381e-01 -1.472269296646118164e-01 -1.274158656597137451e-01 2.643563449382781982e-01
6.302000000000000000e+03 7.580979919433593750e+01 4.130655288696289062e+00 -3.682428598403930664e-01 7.004531383514404297e+00 1.990886569023132324e+00 -4.615590572357177734e-01
6.303000000000000000e+03 7.529808807373046875e+01 1.991274070739746094e+01 -8.498331308364868164e-01 7.770595550537109375e+00 2.076228857040405273e+00 4.181946516036987305e-01
6.304000000000000000e+03 5.530124664306640625e+00 -2.465308189392089844e+01 5.798102915287017822e-02 -3.396042808890342712e-02 7.206180132925510406e-03 -3.351528430357575417e-03
6.305000000000000000e+03 4.247021198272705078e+00 -3.343773269653320312e+01 -3.851665183901786804e-02 -2.800774872303009033e-01 -9.557823836803436279e-02 -1.471765786409378052e-01
6.306000000000000000e+03 8.829973220825195312e+00 -3.391262817382812500e+01 -7.676173001527786255e-02 -2.851058840751647949e-01 -1.085602864623069763e-01 -2.642367780208587646e-01
6.307000000000000000e+03 4.302694797515869141e+00 6.728399753570556641e+00 -1.145886629819869995e-01 -2.264155261218547821e-02 -4.116906598210334778e-02 5.331285670399665833e-02
6.308000000000000000e+03 5.133851528167724609e+00 6.536859989166259766e+00 -1.509211957454681396e-01 -3.316830471158027649e-02 -5.522684752941131592e-02 5.706604197621345520e-02
6.309000000000000000e+03 7.551637268066406250e+01 -1.569349765777587891e+01 -6.276823282241821289e-01 7.346223354339599609e+00 2.015562295913696289e+00 6.741042137145996094e-01
6.310000000000000000e+03 4.044305324554443359e+00 -2.623701095581054688e+01 -1.071180030703544617e-02 -1.208595782518386841e-01 -3.947141394019126892e-02 7.076127454638481140e-03
6.311000000000000000e+03 5.818476200103759766e+00 5.633825302124023438e+00 -1.467350870370864868e-01 -3.497382253408432007e-02 -5.451267585158348083e-02 2.440651878714561462e-02
6.312000000000000000e+03 4.991147518157958984e+00 1.111304950714111328e+01 -8.329287171363830566e-02 -1.361973285675048828e-01 -6.584706157445907593e-02 2.706264257431030273e-01
6.313000000000000000e+03 6.895314025878906250e+01 2.245919227600097656e+01 -1.065354108810424805e+00 2.717687368392944336e+00 4.956999719142913818e-01 -1.291209101676940918e+00
6.314000000000000000e+03 7.013206481933593750e+01 2.147314262390136719e+01 -1.613507151603698730e+00 3.978259801864624023e+00 7.094258069992065430e-01 -1.355514407157897949e+00
6.315000000000000000e+03 5.675129413604736328e+00 -2.634166526794433594e+01 -4.019939154386520386e-02 -6.871482729911804199e-02 -3.267426788806915283e-02 -2.675768733024597168e-02
6.316000000000000000e+03 4.198138713836669922e+00 -1.170308685302734375e+01 -3.062874823808670044e-02 -6.085738539695739746e-02 -2.744583971798419952e-02 2.849437994882464409e-03
6.317000000000000000e+03 6.297001361846923828e+00 1.901759719848632812e+01 1.633681356906890869e-01 -3.388650119304656982e-01 -5.264906212687492371e-02 7.277998328208923340e-02
6.318000000000000000e+03 2.680351448059082031e+01 -1.531412887573242188e+01 -6.860679984092712402e-01 -5.330670475959777832e-01 -3.657405078411102295e-01 -3.915584087371826172e-01
6.319000000000000000e+03 4.635176658630371094e+00 1.886399459838867188e+01 1.201810240745544434e-01 -4.011457860469818115e-01 -8.428943157196044922e-02 4.225191101431846619e-02
6.320000000000000000e+03 3.969980955123901367e+00 1.634711647033691406e+01 1.166853085160255432e-01 -3.533800244331359863e-01 -7.100841403007507324e-02 1.393982023000717163e-01
6.321000000000000000e+03 5.583145618438720703e+00 1.552247047424316406e+01 1.795856356620788574e-01 -2.859296798706054688e-01 -3.190321475267410278e-02 2.290092110633850098e-01
6.322000000000000000e+03 5.545164108276367188e+00 1.164512825012207031e+01 -6.703419983386993408e-02 -1.522054374217987061e-01 -6.577189266681671143e-02 3.016134202480316162e-01
6.323000000000000000e+03 4.275413036346435547e+00 -1.371469402313232422e+01 -6.766448915004730225e-02 -1.043588295578956604e-01 -5.160699412226676941e-02 -4.323188215494155884e-02
6.324000000000000000e+03 4.723093986511230469e+00 -1.227982425689697266e+01 -5.503516271710395813e-02 -9.121730923652648926e-02 -4.387574270367622375e-02 -1.990104466676712036e-02
6.325000000000000000e+03 4.132203102111816406e+00 9.595480918884277344e+00 -1.044272482395172119e-01 -8.119086921215057373e-02 -5.568543449044227600e-02 1.781350076198577881e-01
6.326000000000000000e+03 5.174782276153564453e+00 8.844899177551269531e+00 -1.603422760963439941e-01 -7.003859430551528931e-02 -6.911426037549972534e-02 1.692039221525192261e-01
6.327000000000000000e+03 5.611212253570556641e+00 2.191696929931640625e+01 -3.661470487713813782e-02 -4.622808396816253662e-01 -1.496686637401580811e-01 4.079873487353324890e-02
6.328000000000000000e+03 4.151626586914062500e+00 1.324270820617675781e+01 3.463407605886459351e-02 -2.312704920768737793e-01 -5.899092555046081543e-02 2.533358931541442871e-01
6.329000000000000000e+03 4.795244693756103516e+00 1.587232494354248047e+01 1.419379562139511108e-01 -3.178775608539581299e-01 -5.278187990188598633e-02 1.874668151140213013e-01
6.330000000000000000e+03 5.678033351898193359e+00 9.850018501281738281e+00 -1.732836812734603882e-01 -1.013742759823799133e-01 -8.239738643169403076e-02 2.384860813617706299e-01
6.331000000000000000e+03 4.353411197662353516e+00 -1.007843399047851562e+01 -1.521450374275445938e-02 -4.725717008113861084e-02 -1.874150149524211884e-02 1.741083711385726929e-02
6.332000000000000000e+03 4.485946178436279297e+00 -1.073597240447998047e+01 -2.133234404027462006e-02 -5.986322462558746338e-02 -2.435867115855216980e-02 1.292578782886266708e-02
6.333000000000000000e+03 5.104781627655029297e+00 2.206224632263183594e+01 -3.780854865908622742e-02 -4.751321375370025635e-01 -1.538822054862976074e-01 2.535180933773517609e-02
6.334000000000000000e+03 4.705859661102294922e+00 -2.793574142456054688e+01 -6.526737660169601440e-02 -1.297948211431503296e-01 -5.851865932345390320e-02 -3.433533385396003723e-02
6.335000000000000000e+03 4.498131752014160156e+00 2.272019004821777344e+01 -5.652633681893348694e-02 -5.116124749183654785e-01 -1.704416424036026001e-01 1.481281779706478119e-02
6.336000000000000000e+03 5.155970573425292969e+00 -9.566740989685058594e+00 -1.520677469670772552e-02 -6.230491772294044495e-02 -2.325350791215896606e-02 1.462221425026655197e-02
6.337000000000000000e+03 5.249934673309326172e+00 -1.094166755676269531e+01 -3.590642660856246948e-02 -8.406718820333480835e-02 -3.599208593368530273e-02 -1.752607291564345360e-03
6.338000000000000000e+03 5.211642742156982422e+00 -1.027442264556884766e+01 -2.774002030491828918e-02 -7.316645979881286621e-02 -3.027194365859031677e-02 4.922846797853708267e-03
6.339000000000000000e+03 5.834909057617187500e+01 1.625683021545410156e+01 1.686867475509643555e+00 5.551060199737548828e+00 2.171378374099731445e+00 -5.313748717308044434e-01
6.340000000000000000e+03 5.706005859375000000e+01 1.675524139404296875e+01 1.592013120651245117e+00 4.448272705078125000e+00 1.812085747718811035e+00 -1.135920643806457520e+00
6.341000000000000000e+03 6.060992717742919922e+00 1.563166427612304688e+01 2.061049193143844604e-01 -2.761270701885223389e-01 -2.100664936006069183e-02 2.393488734960556030e-01
6.342000000000000000e+03 5.032763957977294922e+00 1.972393608093261719e+01 9.598170220851898193e-02 -4.095515310764312744e-01 -9.407094866037368774e-02 2.697081863880157471e-02
6.343000000000000000e+03 5.243712425231933594e+00 2.153781509399414062e+01 -5.654093343764543533e-03 -4.545301496982574463e-01 -1.380552798509597778e-01 2.230494655668735504e-02
6.344000000000000000e+03 2.725758743286132812e+01 -1.584286785125732422e+01 -5.176748037338256836e-01 -5.033044219017028809e-01 -3.062937557697296143e-01 -3.188797533512115479e-01
6.345000000000000000e+03 4.494628429412841797e+00 1.527868080139160156e+01 1.238066926598548889e-01 -3.088890016078948975e-01 -5.552469566464424133e-02 2.046521306037902832e-01
6.346000000000000000e+03 3.829844951629638672e+00 -7.273744106292724609e+00 6.550191901624202728e-03 -1.180661562830209732e-02 -1.576926908455789089e-03 3.024630807340145111e-02
6.347000000000000000e+03 3.906709194183349609e+00 -7.916818618774414062e+00 8.143506711348891258e-04 -1.772248558700084686e-02 -5.072440486401319504e-03 3.019600175321102142e-02
6.348000000000000000e+03 7.543190002441406250e+01 2.497315216064453125e+01 -2.334926277399063110e-01 6.925065994262695312e+00 2.007472038269042969e+00 -4.715045988559722900e-01
6.349000000000000000e+03 2.470622444152832031e+01 6.255956172943115234e+00 1.247365325689315796e-01 -8.752176165580749512e-02 1.116443146020174026e-02 1.750594377517700195e-01
6.350000000000000000e+03 2.707098960876464844e+01 8.308666229248046875e+00 3.616386055946350098e-01 3.397970497608184814e-01 2.104306966066360474e-01 1.479681134223937988e-01
6.351000000000000000e+03 7.409198760986328125e+01 -3.403530502319335938e+01 4.974232614040374756e-01 5.842557430267333984e+00 1.901994228363037109e+00 2.734130434691905975e-02
6.352000000000000000e+03 5.390805721282958984e+00 -8.522557258605957031e+00 -3.490722505375742912e-03 -5.659198015928268433e-02 -1.802481152117252350e-02 1.537258643656969070e-02
6.353000000000000000e+03 4.927653789520263672e+00 -7.994050979614257812e+00 4.829087993130087852e-04 -4.470668360590934753e-02 -1.326713245362043381e-02 2.300776354968547821e-02
6.354000000000000000e+03 7.513780212402343750e+01 2.810493087768554688e+01 1.408420056104660034e-01 6.508234024047851562e+00 1.994722843170166016e+00 -4.283244013786315918e-01
6.355000000000000000e+03 7.520800018310546875e+01 2.728217887878417969e+01 7.815761864185333252e-02 6.590301036834716797e+00 2.000537633895874023e+00 -4.801464974880218506e-01
6.356000000000000000e+03 7.540388488769531250e+01 -3.249581527709960938e+01 2.322955131530761719e-01 6.440075397491455078e+00 2.001711368560791016e+00 3.440688848495483398e-01
6.357000000000000000e+03 7.394662475585937500e+01 -3.305475997924804688e+01 5.538772940635681152e-01 5.663037776947021484e+00 1.865074515342712402e+00 2.045290172100067139e-01
6.358000000000000000e+03 3.505582809448242188e+01 -1.288113212585449219e+01 -5.236545205116271973e-01 3.185453712940216064e-01 -6.153274327516555786e-02 -1.367004029452800751e-02
6.359000000000000000e+03 3.565989685058593750e+01 -1.283865261077880859e+01 -5.591730475425720215e-01 4.945821464061737061e-01 -1.937727257609367371e-02 -6.309246271848678589e-02
6.360000000000000000e+03 8.394811630249023438e+00 -3.341802597045898438e+01 -1.043671742081642151e-01 -2.725580930709838867e-01 -1.130775809288024902e-01 -2.515039741992950439e-01
6.361000000000000000e+03 5.782515335083007812e+01 -2.429713821411132812e+01 6.506063938140869141e-01 3.988190412521362305e+00 1.391638994216918945e+00 2.076701164245605469e+00
6.362000000000000000e+03 5.705005264282226562e+01 -2.351464462280273438e+01 1.202822923660278320e+00 4.347278594970703125e+00 1.665030479431152344e+00 1.901736021041870117e+00
6.363000000000000000e+03 7.066971302032470703e+00 1.051385498046875000e+01 -2.080609053373336792e-01 -1.458263546228408813e-01 -1.061661839485168457e-01 3.010458350181579590e-01
6.364000000000000000e+03 6.140100860595703125e+01 -2.352962303161621094e+01 1.748698353767395020e+00 2.987066507339477539e+00 1.420729398727416992e+00 7.461436390876770020e-01
6.365000000000000000e+03 6.237229156494140625e+01 -2.182522583007812500e+01 2.483095169067382812e+00 5.400946617126464844e+00 2.365212440490722656e+00 -2.313771694898605347e-01
6.366000000000000000e+03 1.061597537994384766e+01 5.471043586730957031e+00 -3.431823551654815674e-01 -2.085576802492141724e-01 -1.655220091342926025e-01 1.566813141107559204e-01
6.367000000000000000e+03 3.995512008666992188e+01 1.417178916931152344e+01 1.457631140947341919e-01 -2.055833190679550171e-01 -1.794606447219848633e-02 -1.605214923620223999e-01
6.368000000000000000e+03 6.751075744628906250e+01 8.335924744606018066e-01 1.661952495574951172e+00 3.674015045166015625e+00 1.600790262222290039e+00 2.725438833236694336e+00
6.369000000000000000e+03 6.594232177734375000e+01 4.308207511901855469e+00 -8.302828073501586914e-01 1.876362323760986328e+00 3.138238489627838135e-01 8.903542160987854004e-01
6.370000000000000000e+03 7.396529388427734375e+01 3.152032661437988281e+01 2.935946881771087646e-01 6.016032695770263672e+00 1.892888188362121582e+00 -1.471324563026428223e-01
6.371000000000000000e+03 7.472803497314453125e+01 3.279088592529296875e+01 2.049796581268310547e-01 6.326915264129638672e+00 1.959568500518798828e+00 -7.146807014942169189e-02
6.372000000000000000e+03 4.234239578247070312e+01 -2.104776382446289062e+01 4.883065819740295410e-01 6.630078554153442383e-01 3.453943431377410889e-01 -2.363441884517669678e-02
6.373000000000000000e+03 6.147093772888183594e+00 -3.399773406982421875e+01 -5.392336472868919373e-02 -2.761383950710296631e-01 -9.901852160692214966e-02 -2.100479751825332642e-01
6.374000000000000000e+03 1.314792060852050781e+01 -2.643545150756835938e+01 1.219631824642419815e-02 -5.118483304977416992e-01 -1.498955935239791870e-01 -3.003097474575042725e-01
6.375000000000000000e+03 7.092427825927734375e+01 -3.216496276855468750e+01 1.366256356239318848e+00 4.203135490417480469e+00 1.670817613601684570e+00 -2.447391599416732788e-01
6.376000000000000000e+03 7.508568572998046875e+01 1.291945743560791016e+01 1.313408613204956055e+00 8.695867538452148438e+00 3.002782821655273438e+00 4.591627120971679688e-01
6.377000000000000000e+03 5.171326637268066406e+00 -3.580939102172851562e+01 1.081019267439842224e-02 -3.395228981971740723e-01 -9.861381351947784424e-02 -1.826260536909103394e-01
6.378000000000000000e+03 5.381424427032470703e+00 -3.342630004882812500e+01 -5.631496757268905640e-02 -2.623336017131805420e-01 -9.559457749128341675e-02 -1.813019216060638428e-01
6.379000000000000000e+03 5.571709442138671875e+01 -1.274061679840087891e+01 9.303147345781326294e-02 2.777171730995178223e-01 1.112245917320251465e-01 8.524504303932189941e-01
6.380000000000000000e+03 1.838052368164062500e+01 -1.961615180969238281e+01 -3.630259335041046143e-01 -8.827103674411773682e-02 -1.353890895843505859e-01 -5.669156312942504883e-01
6.381000000000000000e+03 4.242257308959960938e+01 -2.433146286010742188e+01 3.174498379230499268e-01 7.749666571617126465e-01 3.277249634265899658e-01 2.289406955242156982e-01
6.382000000000000000e+03 4.288906097412109375e+01 -2.455426979064941406e+01 3.583564758300781250e-01 7.457388043403625488e-01 3.312285840511322021e-01 2.133113741874694824e-01
6.383000000000000000e+03 6.879526519775390625e+01 1.922084927558898926e+00 1.009596467018127441e+00 2.739897727966308594e+00 1.124848246574401855e+00 2.948539257049560547e+00
6.384000000000000000e+03 4.324623489379882812e+01 7.467840671539306641e+00 -2.703198194503784180e-01 3.323798775672912598e-01 1.861802116036415100e-02 3.135121166706085205e-01
6.385000000000000000e+03 7.876562595367431641e+00 4.975346565246582031e+00 -1.916399449110031128e-01 -7.829760760068893433e-02 -8.098126947879791260e-02 2.883718349039554596e-02
6.386000000000000000e+03 5.845965862274169922e+00 7.793228626251220703e+00 -2.092308998107910156e-01 -6.140634417533874512e-02 -8.119117468595504761e-02 1.232745945453643799e-01
6.387000000000000000e+03 9.289917945861816406e+00 -5.954517841339111328e+00 7.069819141179323196e-03 -4.509312286972999573e-02 -1.140699163079261780e-02 -2.982053905725479126e-02
6.388000000000000000e+03 4.978051662445068359e+00 7.796049118041992188e+00 -1.589565277099609375e-01 -4.790193215012550354e-02 -6.205753609538078308e-02 1.126841232180595398e-01
6.389000000000000000e+03 7.249585723876953125e+01 7.200104236602783203e+00 -6.257114410400390625e-01 7.769515037536621094e+00 2.143141031265258789e+00 8.612227439880371094e-01
6.390000000000000000e+03 7.145848083496093750e+01 2.239370584487915039e+00 5.570944547653198242e-01 3.335118532180786133e+00 1.167663931846618652e+00 1.634198307991027832e+00
6.391000000000000000e+03 2.939401245117187500e+01 -3.125352478027343750e+01 2.765399217605590820e-01 2.072408236563205719e-02 8.917920291423797607e-02 -1.766324490308761597e-01
6.392000000000000000e+03 5.058156013488769531e+00 5.706921100616455078e+00 -1.179384365677833557e-01 -2.245344035327434540e-02 -4.211756214499473572e-02 1.637378707528114319e-02
6.393000000000000000e+03 7.311361694335937500e+01 1.757294774055480957e+00 1.960194259881973267e-01 4.326674461364746094e+00 1.356808185577392578e+00 1.975091248750686646e-01
6.394000000000000000e+03 8.408686637878417969e+00 6.634564876556396484e+00 -3.034017086029052734e-01 -1.495735049247741699e-01 -1.358925700187683105e-01 1.132604703307151794e-01
6.395000000000000000e+03 5.814674758911132812e+01 -1.708905982971191406e+01 -4.874772131443023682e-01 4.271848678588867188e+00 1.135311484336853027e+00 1.124071836471557617e+00
6.396000000000000000e+03 7.166304016113281250e+01 2.054880905151367188e+01 -1.762406229972839355e+00 5.859993457794189453e+00 1.229276180267333984e+00 -9.188721776008605957e-01
6.397000000000000000e+03 7.233078002929687500e+01 2.146110725402832031e+01 -1.432418107986450195e+00 6.130649089813232422e+00 1.409469246864318848e+00 -8.710324764251708984e-01
6.398000000000000000e+03 5.033391189575195312e+01 -8.355625152587890625e+00 -3.865410983562469482e-01 1.561897099018096924e-01 -6.910541653633117676e-02 3.403451442718505859e-01
6.399000000000000000e+03 7.805177211761474609e+00 6.320213794708251953e+00 -2.623924016952514648e-01 -1.043431907892227173e-01 -1.100206747651100159e-01 8.362212032079696655e-02
6.400000000000000000e+03 7.280618190765380859e+00 5.966314792633056641e+00 -2.262220233678817749e-01 -8.270760625600814819e-02 -9.267888963222503662e-02 5.747240036725997925e-02
6.401000000000000000e+03 8.144435882568359375e+00 1.821591567993164062e+01 2.805444300174713135e-01 -1.550353765487670898e-01 3.765271976590156555e-02 1.430097818374633789e-01
6.402000000000000000e+03 4.136302185058593750e+01 -1.768499946594238281e+01 2.435532808303833008e-01 2.655754387378692627e-01 1.527386158704757690e-01 -3.956926465034484863e-01
6.403000000000000000e+03 4.307025527954101562e+01 -1.848919105529785156e+01 5.134595632553100586e-01 3.895438015460968018e-01 2.709009945392608643e-01 -1.229866966605186462e-01
6.404000000000000000e+03 5.791284942626953125e+01 4.592699527740478516e+00 -1.550396919250488281e+00 5.151180744171142578e+00 1.080235123634338379e+00 -2.042498111724853516e+00
6.405000000000000000e+03 4.218392181396484375e+01 1.725478744506835938e+01 5.443279072642326355e-02 5.146793723106384277e-01 1.707336455583572388e-01 -9.759493172168731689e-02
6.406000000000000000e+03 7.404552459716796875e+01 3.370475387573242188e+01 1.995957046747207642e-01 6.116411685943603516e+00 1.894802212715148926e+00 -2.253590337932109833e-02
6.407000000000000000e+03 7.407894897460937500e+01 3.212718200683593750e+01 2.770322263240814209e-01 6.093801975250244141e+00 1.911250233650207520e+00 -1.056521013379096985e-01
6.408000000000000000e+03 6.252220153808593750e+01 6.200780272483825684e-01 4.203056693077087402e-01 8.179759025573730469e+00 2.580019474029541016e+00 -7.817869782447814941e-01
6.409000000000000000e+03 3.245723342895507812e+01 -9.252780914306640625e+00 -3.204810917377471924e-01 -3.756134212017059326e-01 -2.088283598423004150e-01 -3.775920271873474121e-01
6.410000000000000000e+03 3.348743438720703125e+01 -8.415770530700683594e+00 -8.547311276197433472e-02 -8.402336388826370239e-02 -5.084894225001335144e-02 -5.207901000976562500e-01
6.411000000000000000e+03 4.429849624633789062e+01 -1.876240158081054688e+01 6.433138847351074219e-01 7.200196981430053711e-01 4.090000689029693604e-01 7.037099450826644897e-02
6.412000000000000000e+03 2.077755165100097656e+01 -1.674122047424316406e+01 -4.245786666870117188e-01 -1.968291252851486206e-01 -1.864223331212997437e-01 -4.411051869392395020e-01
6.413000000000000000e+03 4.287966156005859375e+01 -1.682673072814941406e+01 7.230319082736968994e-02 1.406284272670745850e-01 6.387948244810104370e-02 -2.575868964195251465e-01
6.414000000000000000e+03 1.370068168640136719e+01 -9.993982315063476562e+00 -1.204443275928497314e-01 1.081186532974243164e-01 -3.697702428326010704e-03 -3.052482195198535919e-02
6.415000000000000000e+03 1.417003631591796875e+01 -9.095179557800292969e+00 -9.101936966180801392e-02 7.750074565410614014e-02 -4.055587109178304672e-03 -6.163466721773147583e-03
6.416000000000000000e+03 7.323293304443359375e+01 7.315362930297851562e+00 -4.245902597904205322e-01 8.090857505798339844e+00 2.299880266189575195e+00 2.170012742280960083e-01
6.417000000000000000e+03 3.155554771423339844e+01 -1.166832351684570312e+01 -6.211143136024475098e-01 -4.599165618419647217e-01 -3.243092596530914307e-01 -8.564585447311401367e-02
6.418000000000000000e+03 4.403919601440429688e+01 -1.715589904785156250e+01 2.301350682973861694e-01 4.026867151260375977e-01 1.898465305566787720e-01 -5.135313048958778381e-02
6.419000000000000000e+03 5.434025573730468750e+01 -2.790975952148437500e+01 2.071606069803237915e-01 4.471011161804199219e+00 1.403451561927795410e+00 1.274246096611022949e+00
6.420000000000000000e+03 1.050185394287109375e+01 -2.575931358337402344e+01 -5.159480497241020203e-02 -2.083232253789901733e-01 -7.797540724277496338e-02 -2.431524991989135742e-01
6.421000000000000000e+03 1.081578540802001953e+01 -2.766346168518066406e+01 -1.247742474079132080e-01 -3.038436472415924072e-01 -1.285853683948516846e-01 -2.186837643384933472e-01
6.422000000000000000e+03 7.464763641357421875e+01 -1.617581558227539062e+01 -4.931863844394683838e-01 6.896630287170410156e+00 1.921033143997192383e+00 2.300675213336944580e-01
6.423000000000000000e+03 5.122207260131835938e+01 2.720845985412597656e+01 9.962658882141113281e-01 3.861825466156005859e+00 1.457427382469177246e+00 -5.261334180831909180e-01
6.424000000000000000e+03 5.103972244262695312e+01 2.966404151916503906e+01 9.019665122032165527e-01 3.780817270278930664e+00 1.404835104942321777e+00 -5.035408139228820801e-01
6.425000000000000000e+03 4.258666610717773438e+01 -2.004902839660644531e+01 5.677202939987182617e-01 5.618560910224914551e-01 3.388729095458984375e-01 -8.161108940839767456e-02
6.426000000000000000e+03 5.109617233276367188e+01 -9.135546684265136719e+00 -4.865410625934600830e-01 -1.489924639463424683e-01 -1.906600594520568848e-01 1.781600564718246460e-01
6.427000000000000000e+03 5.486178588867187500e+01 2.070393753051757812e+01 -7.841401696205139160e-01 3.446272611618041992e+00 7.986397147178649902e-01 -2.124859809875488281e+00
6.428000000000000000e+03 6.225767517089843750e+01 -1.118409156799316406e+01 -6.462459564208984375e-01 9.997291564941406250e+00 2.805313825607299805e+00 1.031722545623779297e+00
6.429000000000000000e+03 6.962222290039062500e+01 2.322113609313964844e+01 -6.385405063629150391e-01 3.440887451171875000e+00 8.407040834426879883e-01 -1.316796183586120605e+00
6.430000000000000000e+03 5.800487136840820312e+01 2.055047607421875000e+01 -4.455522000789642334e-01 2.324985742568969727e+00 5.638300180435180664e-01 -6.226634383201599121e-01
6.431000000000000000e+03 5.904359054565429688e+01 1.869527244567871094e+01 7.105742096900939941e-01 4.359825134277343750e+00 1.521119832992553711e+00 1.844816282391548157e-02
6.432000000000000000e+03 5.865392684936523438e+01 -2.198091316223144531e+01 1.631722688674926758e+00 3.525148630142211914e+00 1.547061443328857422e+00 1.916155576705932617e+00
6.433000000000000000e+03 1.447797679901123047e+01 -9.868501663208007812e+00 -1.310710757970809937e-01 1.149137690663337708e-01 -4.847191739827394485e-03 -4.537891596555709839e-03
6.434000000000000000e+03 2.325419616699218750e+01 -2.343224525451660156e+01 1.523291766643524170e-01 -6.098556891083717346e-02 2.740308269858360291e-02 -1.839752197265625000e-01
6.435000000000000000e+03 2.689101028442382812e+01 1.227627849578857422e+01 1.166457012295722961e-01 1.447912901639938354e-01 7.843109965324401855e-02 1.854863762855529785e-01
6.436000000000000000e+03 7.393132019042968750e+01 1.569946670532226562e+01 6.336543560028076172e-01 9.215085029602050781e+00 2.954621791839599609e+00 8.043894171714782715e-01
6.437000000000000000e+03 7.529877471923828125e+01 1.485645961761474609e+01 7.667351365089416504e-01 8.433543205261230469e+00 2.760083675384521484e+00 9.678494930267333984e-01
6.438000000000000000e+03 7.433669281005859375e+01 1.803490829467773438e+01 -8.311477899551391602e-01 8.250495910644531250e+00 2.225804328918457031e+00 7.184989452362060547e-01
6.439000000000000000e+03 5.188462829589843750e+01 2.207371139526367188e+01 -6.934304833412170410e-01 3.544443845748901367e+00 8.553040027618408203e-01 -1.315489530563354492e+00
6.440000000000000000e+03 6.776615142822265625e+01 2.861879730224609375e+01 1.135239124298095703e+00 4.005200862884521484e+00 1.542132019996643066e+00 2.820325791835784912e-01
6.441000000000000000e+03 1.155469417572021484e+01 -5.102651596069335938e+00 6.670045666396617889e-03 -1.857229508459568024e-02 -3.570674918591976166e-03 -3.547290712594985962e-02
6.442000000000000000e+03 1.234745311737060547e+01 -6.275397777557373047e+00 -2.138718031346797943e-02 -4.105755593627691269e-03 -7.647880818694829941e-03 -4.041494801640510559e-02
6.443000000000000000e+03 2.366216850280761719e+01 -2.476333999633789062e+01 3.284428119659423828e-01 -8.157193660736083984e-02 7.406126707792282104e-02 -1.447294503450393677e-01
6.444000000000000000e+03 6.704779815673828125e+01 4.088512897491455078e+00 -4.154861867427825928e-01 1.808223009109497070e+00 4.178210496902465820e-01 2.124577522277832031e+00
6.445000000000000000e+03 6.247335433959960938e+01 -2.256640243530273438e+01 2.406590461730957031e+00 5.018435001373291016e+00 2.227507591247558594e+00 -1.342572420835494995e-01
6.446000000000000000e+03 6.304992675781250000e+01 -1.643376541137695312e+01 -2.199917316436767578e+00 7.802054405212402344e+00 1.680641174316406250e+00 1.801190823316574097e-01
6.447000000000000000e+03 3.412587356567382812e+01 1.593299484252929688e+01 3.566789031028747559e-01 -6.860849261283874512e-02 8.642111718654632568e-02 3.633582592010498047e-01
6.448000000000000000e+03 2.757824516296386719e+01 -2.783999824523925781e+01 4.176598787307739258e-01 -1.411452144384384155e-01 8.295439928770065308e-02 -2.220526188611984253e-01
6.449000000000000000e+03 6.885899353027343750e+01 -2.841796493530273438e+01 4.025288820266723633e-01 2.118936061859130859e+00 7.564394474029541016e-01 -7.015682458877563477e-01
6.450000000000000000e+03 5.614683151245117188e+01 -2.589823722839355469e+01 -4.155777692794799805e-01 5.355182170867919922e+00 1.481881380081176758e+00 1.642013907432556152e+00
6.451000000000000000e+03 4.408099746704101562e+01 -2.184216308593750000e+01 5.374771952629089355e-01 9.945558905601501465e-01 4.596099257469177246e-01 1.226146221160888672e-01
6.452000000000000000e+03 4.345486450195312500e+01 -2.129765701293945312e+01 5.514559149742126465e-01 8.189509510993957520e-01 4.111220538616180420e-01 8.638116717338562012e-02
6.453000000000000000e+03 7.402696990966796875e+01 1.737205696105957031e+01 -5.578224062919616699e-01 8.503474235534667969e+00 2.383695602416992188e+00 7.956652045249938965e-01
6.454000000000000000e+03 7.460295867919921875e+01 1.547342586517333984e+01 6.775589585304260254e-01 8.919167518615722656e+00 2.879018068313598633e+00 9.747492074966430664e-01
6.455000000000000000e+03 6.318370056152343750e+01 -8.796998023986816406e+00 2.517621278762817383e+00 1.150904083251953125e+01 4.207998752593994141e+00 -2.886850535869598389e-01
6.456000000000000000e+03 5.135007858276367188e+01 -2.930070304870605469e+01 9.155239462852478027e-01 2.322204351425170898e+00 9.713184833526611328e-01 2.465598583221435547e-01
6.457000000000000000e+03 5.175384902954101562e+01 -2.879248809814453125e+01 8.859104514122009277e-01 2.277738571166992188e+00 9.490946531295776367e-01 3.525840044021606445e-01
6.458000000000000000e+03 6.496104431152343750e+01 2.425605773925781250e+01 6.483518481254577637e-01 3.250966310501098633e+00 1.169795393943786621e+00 8.906498551368713379e-01
6.459000000000000000e+03 6.318286514282226562e+01 -1.548650169372558594e+01 -2.575669765472412109e+00 7.890982627868652344e+00 1.594593882560729980e+00 5.751458406448364258e-01
6.460000000000000000e+03 6.275765609741210938e+01 4.793987274169921875e+00 -2.447429418563842773e+00 5.229299068450927734e+00 8.345608711242675781e-01 -1.894460439682006836e+00
6.461000000000000000e+03 7.460887145996093750e+01 -2.689428138732910156e+01 -1.393822550773620605e+00 7.829850673675537109e+00 1.930808424949645996e+00 6.305086612701416016e-01
6.462000000000000000e+03 6.834442138671875000e+01 3.506780862808227539e+00 1.701587736606597900e-01 2.499701738357543945e+00 8.009581565856933594e-01 2.900437593460083008e+00
6.463000000000000000e+03 5.362905883789062500e+01 -1.187903022766113281e+01 -1.990193724632263184e-01 -4.424229264259338379e-01 -1.924326866865158081e-01 1.083062216639518738e-01
6.464000000000000000e+03 7.847814559936523438e+00 8.958195686340332031e+00 -3.206911385059356689e-01 -1.718457192182540894e-01 -1.477610468864440918e-01 2.241613119840621948e-01
6.465000000000000000e+03 5.198982620239257812e+01 2.434120559692382812e+01 -9.135845303535461426e-02 4.021041870117187500e+00 1.178905010223388672e+00 -6.613442897796630859e-01
6.466000000000000000e+03 5.085031127929687500e+01 2.568678092956542969e+01 6.750904917716979980e-01 3.468829870223999023e+00 1.243176102638244629e+00 -3.890813887119293213e-01
6.467000000000000000e+03 3.262857437133789062e+01 -1.094702720642089844e+01 -4.340614080429077148e-01 -2.538200020790100098e-01 -2.063644230365753174e-01 -1.049665361642837524e-01
6.468000000000000000e+03 7.233856678009033203e+00 -2.594345855712890625e+01 -4.977277666330337524e-02 -2.754311636090278625e-02 -2.319476753473281860e-02 -7.720151543617248535e-02
6.469000000000000000e+03 5.098262786865234375e+01 3.046530914306640625e+01 8.270576596260070801e-01 3.680477619171142578e+00 1.352260589599609375e+00 -5.026296377182006836e-01
6.470000000000000000e+03 4.043630599975585938e+01 1.393120002746582031e+01 1.397584825754165649e-01 -9.520608186721801758e-02 1.336572133004665375e-02 -1.970360875129699707e-01
6.471000000000000000e+03 4.846311187744140625e+01 2.176707839965820312e+01 2.095551639795303345e-01 1.493622779846191406e+00 5.109533667564392090e-01 -4.721454679965972900e-01
6.472000000000000000e+03 2.296362876892089844e+01 9.774424552917480469e+00 2.938250601291656494e-01 -1.813656985759735107e-01 3.373781219124794006e-02 1.538180112838745117e-01
6.473000000000000000e+03 7.251347064971923828e+00 1.588809013366699219e+01 2.874839901924133301e-01 -2.113932669162750244e-01 2.282721363008022308e-02 2.550301551818847656e-01
6.474000000000000000e+03 7.468638896942138672e+00 1.803453636169433594e+01 2.717764675617218018e-01 -2.260024547576904297e-01 1.373220514506101608e-02 1.374663263559341431e-01
6.475000000000000000e+03 5.859227752685546875e+01 -1.562147998809814453e+01 -8.588505387306213379e-01 4.622765541076660156e+00 1.129174470901489258e+00 1.387098073959350586e+00
6.476000000000000000e+03 5.727842330932617188e+01 7.535981655120849609e+00 -9.584147930145263672e-01 5.338020324707031250e+00 1.313881635665893555e+00 -8.892372846603393555e-01
6.477000000000000000e+03 7.952045440673828125e+00 -2.574769020080566406e+01 -4.737918823957443237e-02 -2.991892769932746887e-02 -2.318943478167057037e-02 -1.078725904226303101e-01
6.478000000000000000e+03 1.010518741607666016e+01 -2.745731925964355469e+01 -1.169790774583816528e-01 -2.368088811635971069e-01 -1.061363890767097473e-01 -2.078448385000228882e-01
6.479000000000000000e+03 5.664695739746093750e+01 1.568747901916503906e+01 1.831131219863891602e+00 4.658123493194580078e+00 1.946776390075683594e+00 -1.288245677947998047e+00
6.480000000000000000e+03 6.625382423400878906e+00 1.576617527008056641e+01 2.433441728353500366e-01 -2.490998804569244385e-01 -1.726710237562656403e-03 2.439478784799575806e-01
6.481000000000000000e+03 7.383208465576171875e+01 -1.417878532409667969e+01 -6.900155544281005859e-01 4.721305847167968750e+00 1.209387063980102539e+00 4.021037369966506958e-02
6.482000000000000000e+03 6.253131103515625000e+01 -2.330015754699707031e+01 1.941253542900085449e+00 4.621887207031250000e+00 1.968942284584045410e+00 -1.260269135236740112e-01
6.483000000000000000e+03 6.803802490234375000e+01 4.631274640560150146e-01 1.866067528724670410e+00 3.283158063888549805e+00 1.544767737388610840e+00 2.908274888992309570e+00
6.484000000000000000e+03 5.905474853515625000e+01 -2.359011268615722656e+01 1.249806761741638184e+00 3.149119853973388672e+00 1.319677948951721191e+00 2.101252079010009766e+00
6.485000000000000000e+03 5.298337554931640625e+01 -1.202010440826416016e+01 -1.678626388311386108e-01 -3.759726285934448242e-01 -1.631505787372589111e-01 2.356026321649551392e-02
6.486000000000000000e+03 8.672863960266113281e+00 2.057963562011718750e+01 4.748214036226272583e-02 -2.013086825609207153e-01 -4.614796116948127747e-02 1.491499245166778564e-01
6.487000000000000000e+03 6.952028656005859375e+01 -2.837669181823730469e+01 3.258964121341705322e-01 1.575079083442687988e+00 5.702926516532897949e-01 -1.029737740755081177e-01
6.488000000000000000e+03 5.912885665893554688e+01 6.108837604522705078e+00 -2.067892789840698242e+00 6.319494724273681641e+00 1.275480628013610840e+00 -1.710380673408508301e+00
6.489000000000000000e+03 5.026163482666015625e+01 -1.129760169982910156e+01 -2.258339077234268188e-01 4.393692314624786377e-01 6.406059861183166504e-02 -1.857472956180572510e-01
6.490000000000000000e+03 1.159294605255126953e+01 -9.169784545898437500e+00 -7.186781615018844604e-02 -2.777122659608721733e-03 -2.239348180592060089e-02 -7.060634344816207886e-02
6.491000000000000000e+03 7.013430786132812500e+01 -3.410432815551757812e+01 1.056878209114074707e+00 4.765221118927001953e+00 1.746629834175109863e+00 -8.216993212699890137e-01
6.492000000000000000e+03 7.384796905517578125e+01 -3.213061523437500000e+01 4.811136424541473389e-01 5.613268852233886719e+00 1.828314661979675293e+00 4.404808878898620605e-01
6.493000000000000000e+03 3.473985671997070312e+01 -8.902651786804199219e+00 1.329429596662521362e-01 3.040921390056610107e-01 1.311105340719223022e-01 -4.027348458766937256e-01
6.494000000000000000e+03 3.428205108642578125e+01 -8.550511360168457031e+00 2.314759045839309692e-02 1.461153775453567505e-01 5.077888816595077515e-02 -4.848649203777313232e-01
6.495000000000000000e+03 5.842403411865234375e+01 -2.320562744140625000e+01 1.302736043930053711e+00 3.526533842086791992e+00 1.448780894279479980e+00 2.083545684814453125e+00
6.496000000000000000e+03 4.928149795532226562e+01 2.545705223083496094e+01 5.981281995773315430e-01 2.728697538375854492e+00 9.980477094650268555e-01 -2.806839346885681152e-01
6.497000000000000000e+03 5.853624725341796875e+01 1.058333683013916016e+01 1.205490708351135254e+00 6.687055587768554688e+00 2.367763996124267578e+00 -8.267679810523986816e-01
6.498000000000000000e+03 3.242279815673828125e+01 -1.040231418609619141e+01 -3.865703642368316650e-01 -3.177311718463897705e-01 -2.112904638051986694e-01 -1.990742087364196777e-01
6.499000000000000000e+03 3.492770767211914062e+01 -1.056036567687988281e+01 -7.865736261010169983e-03 4.113189876079559326e-01 1.210359781980514526e-01 -1.074840426445007324e-01
6.500000000000000000e+03 4.367116928100585938e+01 7.885665893554687500e+00 -1.491029560565948486e-01 5.572871565818786621e-01 1.224552541971206665e-01 2.248200625181198120e-01
6.501000000000000000e+03 6.137989044189453125e+01 2.686585187911987305e+00 -1.377451539039611816e+00 7.092832088470458984e+00 1.714614152908325195e+00 -2.096999883651733398e+00
6.502000000000000000e+03 6.049656295776367188e+01 2.540443420410156250e+00 -1.301167488098144531e+00 7.189293384552001953e+00 1.766437768936157227e+00 -2.467875480651855469e+00
6.503000000000000000e+03 5.981914520263671875e+01 -2.400473213195800781e+01 1.121312737464904785e+00 2.524930715560913086e+00 1.093873023986816406e+00 1.989115476608276367e+00
6.504000000000000000e+03 5.430276489257812500e+01 2.016074371337890625e+01 -4.940529465675354004e-01 3.514087677001953125e+00 9.060104489326477051e-01 -2.053352832794189453e+00
6.505000000000000000e+03 5.383431625366210938e+01 1.954393768310546875e+01 -1.209544390439987183e-01 3.510631084442138672e+00 1.016903042793273926e+00 -2.048214912414550781e+00
6.506000000000000000e+03 2.077143096923828125e+01 -2.365058135986328125e+01 5.894315242767333984e-02 9.573619812726974487e-02 4.640380665659904480e-02 -2.793644070625305176e-01
6.507000000000000000e+03 2.249879264831542969e+01 -2.374839210510253906e+01 1.595541536808013916e-01 -5.579975433647632599e-03 4.619225487112998962e-02 -1.815981268882751465e-01
6.508000000000000000e+03 6.978123474121093750e+01 -3.532664108276367188e+01 6.633611917495727539e-01 5.085436344146728516e+00 1.724639296531677246e+00 -9.227129220962524414e-01
6.509000000000000000e+03 2.575722694396972656e+01 7.374330997467041016e+00 2.789619266986846924e-01 5.032864585518836975e-02 9.878717362880706787e-02 1.679258197546005249e-01
6.510000000000000000e+03 2.492337226867675781e+01 1.299359607696533203e+01 1.443320536054670811e-03 -8.586145192384719849e-02 -2.532543800771236420e-02 7.523953914642333984e-02
6.511000000000000000e+03 7.854540824890136719e+00 2.101352119445800781e+01 -5.197266000322997570e-04 -2.902689576148986816e-01 -8.723659813404083252e-02 1.106061339378356934e-01
6.512000000000000000e+03 7.924795150756835938e+00 1.893184661865234375e+01 2.162040919065475464e-01 -1.970534324645996094e-01 5.745197180658578873e-03 1.210562810301780701e-01
6.513000000000000000e+03 2.263732910156250000e+01 -1.731198310852050781e+01 -4.189465343952178955e-01 -3.123666048049926758e-01 -2.193939387798309326e-01 -4.295991659164428711e-01
6.514000000000000000e+03 6.304593276977539062e+01 -6.487901210784912109e-01 1.691815972328186035e+00 9.122340202331542969e+00 3.244246959686279297e+00 1.249919086694717407e-01
6.515000000000000000e+03 6.466652679443359375e+01 4.861789345741271973e-01 1.246902823448181152e+00 6.377080440521240234e+00 2.287194967269897461e+00 1.171236634254455566e+00
6.516000000000000000e+03 9.796341896057128906e+00 -6.562868118286132812e+00 -5.801142659038305283e-03 -4.706315323710441589e-02 -1.585928909480571747e-02 -3.362601250410079956e-02
6.517000000000000000e+03 7.291817474365234375e+01 1.931193733215332031e+01 -1.515097737312316895e+00 7.394851684570312500e+00 1.763926148414611816e+00 -1.821853965520858765e-01
6.518000000000000000e+03 7.325688171386718750e+01 2.102560424804687500e+01 -1.374551534652709961e+00 6.873656272888183594e+00 1.649731516838073730e+00 -4.607331156730651855e-01
6.519000000000000000e+03 6.270310592651367188e+01 -1.038206386566162109e+01 4.615268707275390625e-01 1.078199577331542969e+01 3.373056888580322266e+00 3.787198960781097412e-01
6.520000000000000000e+03 5.893432617187500000e+01 1.962505149841308594e+01 6.936939060688018799e-02 3.591364860534667969e+00 1.098220229148864746e+00 6.446451693773269653e-02
6.521000000000000000e+03 7.459912109375000000e+01 3.141060447692871094e+01 2.538665235042572021e-01 6.248996734619140625e+00 1.950858950614929199e+00 -1.824333667755126953e-01
6.522000000000000000e+03 5.958468627929687500e+01 -1.319760704040527344e+01 -1.219360232353210449e+00 6.052156925201416016e+00 1.449838995933532715e+00 2.425284862518310547e+00
6.523000000000000000e+03 5.958868026733398438e+01 -1.241478443145751953e+01 -9.762614369392395020e-01 6.100750446319580078e+00 1.537346720695495605e+00 2.833768844604492188e+00
6.524000000000000000e+03 1.287078475952148438e+01 -5.125307559967041016e+00 -6.590358447283506393e-03 -5.900451447814702988e-03 -3.747242968529462814e-03 -3.666948154568672180e-02
6.525000000000000000e+03 5.755264282226562500e+01 2.110091400146484375e+01 -8.306381106376647949e-01 1.738177895545959473e+00 2.722619473934173584e-01 -1.124114513397216797e+00
6.526000000000000000e+03 5.595277404785156250e+01 2.063434028625488281e+01 -6.794778108596801758e-01 2.976618766784667969e+00 6.891422867774963379e-01 -2.004895210266113281e+00
6.527000000000000000e+03 4.446860313415527344e+00 -5.314258575439453125e+00 1.089548878371715546e-02 -1.514405850321054459e-02 -1.274570939131081104e-03 2.555108815431594849e-02
6.528000000000000000e+03 4.524868488311767578e+00 2.199817466735839844e+01 -2.464628405869007111e-02 -4.888376891613006592e-01 -1.540451943874359131e-01 3.298615803942084312e-03
6.529000000000000000e+03 1.261709499359130859e+01 -5.735441207885742188e+00 8.496538503095507622e-04 -4.611026030033826828e-03 -1.128411735408008099e-03 -3.393046930432319641e-02
6.530000000000000000e+03 3.496495056152343750e+01 1.812145042419433594e+01 4.057822525501251221e-01 -6.969793140888214111e-02 1.008253023028373718e-01 3.477876484394073486e-01
6.531000000000000000e+03 1.245447921752929688e+01 -9.561281204223632812e+00 -9.025381505489349365e-02 4.522663727402687073e-02 -1.350815314799547195e-02 -6.323026120662689209e-02
6.532000000000000000e+03 3.574328231811523438e+01 2.082666587829589844e+01 1.584277451038360596e-01 6.918843835592269897e-02 6.828485429286956787e-02 2.174132466316223145e-01
6.533000000000000000e+03 2.723514366149902344e+01 -2.850479316711425781e+01 3.947573602199554443e-01 -1.582457274198532104e-01 7.095349580049514771e-02 -2.317661345005035400e-01
6.534000000000000000e+03 5.840945816040039062e+01 1.524932289123535156e+01 1.781176567077636719e+00 6.086942195892333984e+00 2.360435485839843750e+00 -5.643944740295410156e-01
6.535000000000000000e+03 7.212799835205078125e+01 5.427544593811035156e+00 -8.182096481323242188e-01 6.120495796203613281e+00 1.590685725212097168e+00 1.377828240394592285e+00
6.536000000000000000e+03 7.271130371093750000e+01 6.455383777618408203e+00 -8.004090189933776855e-01 7.234083175659179688e+00 1.930102229118347168e+00 8.151433467864990234e-01
6.537000000000000000e+03 4.260089111328125000e+01 -1.876870727539062500e+01 5.171549320220947266e-01 3.822481930255889893e-01 2.698209285736083984e-01 -1.947647333145141602e-01
6.538000000000000000e+03 4.337100219726562500e+01 -1.955608367919921875e+01 6.250979304313659668e-01 6.278240680694580078e-01 3.758766055107116699e-01 4.957749508321285248e-03
6.539000000000000000e+03 5.129881286621093750e+01 -1.169898891448974609e+01 -2.379666715860366821e-01 -5.375526845455169678e-03 -7.300265878438949585e-02 -1.085268408060073853e-01
6.540000000000000000e+03 1.202435111999511719e+01 -2.584778404235839844e+01 -8.941398002207279205e-03 -3.917612731456756592e-01 -1.202108040452003479e-01 -3.033930957317352295e-01
6.541000000000000000e+03 6.191333007812500000e+01 -2.331743431091308594e+01 1.968642115592956543e+00 3.755673408508300781e+00 1.717294692993164062e+00 2.762616574764251709e-01
6.542000000000000000e+03 7.476304626464843750e+01 2.675573110580444336e+00 -3.170929253101348877e-01 6.146376132965087891e+00 1.748784899711608887e+00 -1.780491322278976440e-01
6.543000000000000000e+03 5.193888473510742188e+01 -2.795009803771972656e+01 6.795381307601928711e-01 2.136882543563842773e+00 8.449262380599975586e-01 4.782748818397521973e-01
6.544000000000000000e+03 5.362798309326171875e+01 2.071963882446289062e+01 -7.147852182388305664e-01 3.631270170211791992e+00 8.749455213546752930e-01 -1.994947552680969238e+00
6.545000000000000000e+03 7.673079681396484375e+01 -1.876831817626953125e+01 4.187996983528137207e-01 8.274559020996093750e+00 2.608007431030273438e+00 9.851067662239074707e-01
6.546000000000000000e+03 8.808373451232910156e+00 -3.294601058959960938e+01 -1.249980479478836060e-01 -2.664636671543121338e-01 -1.174385175108909607e-01 -2.516142725944519043e-01
6.547000000000000000e+03 5.121234416961669922e+00 -3.216915512084960938e+01 -7.257790118455886841e-02 -2.339811474084854126e-01 -9.196771681308746338e-02 -1.512252837419509888e-01
6.548000000000000000e+03 6.108856582641601562e+01 -2.051355361938476562e+01 1.743951082229614258e+00 4.885996341705322266e+00 1.988984227180480957e+00 3.776403367519378662e-01
6.549000000000000000e+03 2.882568550109863281e+01 -3.413368606567382812e+01 1.561578661203384399e-01 -4.933438263833522797e-03 4.536733031272888184e-02 -5.339333042502403259e-02
6.550000000000000000e+03 3.021476554870605469e+01 3.443917846679687500e+01 3.330046534538269043e-01 1.104933023452758789e-01 1.330493837594985962e-01 1.583676189184188843e-01
6.551000000000000000e+03 2.678103828430175781e+01 9.252893447875976562e+00 3.615001738071441650e-01 2.514076828956604004e-01 1.838723570108413696e-01 1.494606435298919678e-01
6.552000000000000000e+03 3.305117416381835938e+01 -6.430593490600585938e+00 -1.165455654263496399e-01 -1.794694215059280396e-01 -8.880449831485748291e-02 -6.279575228691101074e-01
6.553000000000000000e+03 1.073974895477294922e+01 -7.880917072296142578e+00 -3.281095623970031738e-02 -3.458053618669509888e-02 -2.021744847297668457e-02 -5.219870805740356445e-02
6.554000000000000000e+03 9.163829803466796875e+00 -7.034721851348876953e+00 -3.256048308685421944e-03 -5.692562088370323181e-02 -1.805450022220611572e-02 -3.390770778059959412e-02
6.555000000000000000e+03 3.898400497436523438e+01 -1.360726833343505859e+01 -8.765874505043029785e-01 9.852977991104125977e-01 3.261309862136840820e-02 -3.502265512943267822e-01
6.556000000000000000e+03 5.150554656982421875e+01 -1.230755329132080078e+01 -1.983857750892639160e-01 -1.708396011963486671e-03 -6.002825498580932617e-02 -6.255459785461425781e-02
6.557000000000000000e+03 7.249250030517578125e+01 -2.934917640686035156e+01 7.368697226047515869e-02 4.441809654235839844e+00 1.354648947715759277e+00 1.336251854896545410e+00
6.558000000000000000e+03 5.415271377563476562e+01 2.180014991760253906e+01 -1.235826611518859863e+00 3.764283418655395508e+00 7.585370540618896484e-01 -1.951579928398132324e+00
6.559000000000000000e+03 6.813084411621093750e+01 -2.899104499816894531e+01 8.562862277030944824e-01 3.389740943908691406e+00 1.273808121681213379e+00 -1.301381230354309082e+00
6.560000000000000000e+03 6.887006378173828125e+01 -2.905816841125488281e+01 9.865512847900390625e-01 2.490441799163818359e+00 1.043097853660583496e+00 -7.219477295875549316e-01
6.561000000000000000e+03 3.501448822021484375e+01 1.734864616394042969e+01 4.165816307067871094e-01 -1.393571048974990845e-01 8.316735923290252686e-02 3.320842087268829346e-01
6.562000000000000000e+03 3.622919082641601562e+01 1.924742317199707031e+01 3.372373282909393311e-01 -9.622770547866821289e-02 7.230288535356521606e-02 2.304329872131347656e-01
6.563000000000000000e+03 6.370158767700195312e+01 -1.172098064422607422e+01 -6.433650851249694824e-01 9.018920898437500000e+00 2.512666702270507812e+00 4.893447831273078918e-02
6.564000000000000000e+03 6.364321517944335938e+01 -1.270433330535888672e+01 -1.496740937232971191e+00 8.435009956359863281e+00 2.081480503082275391e+00 5.365846753120422363e-01
6.565000000000000000e+03 3.141509246826171875e+01 -3.370606994628906250e+01 2.904212474822998047e-01 1.732785999774932861e-01 1.391099542379379272e-01 -5.985474959015846252e-02
6.566000000000000000e+03 5.854981613159179688e+01 -1.312445163726806641e+01 -6.529358029365539551e-01 4.194931983947753906e+00 1.062598824501037598e+00 2.365436315536499023e+00
6.567000000000000000e+03 5.864126968383789062e+01 -1.255605030059814453e+01 -5.188446640968322754e-01 4.169255256652832031e+00 1.095123171806335449e+00 2.725519418716430664e+00
6.568000000000000000e+03 4.793008422851562500e+01 3.267883300781250000e+01 5.132274031639099121e-01 2.409302473068237305e+00 8.767589926719665527e-01 -7.017674446105957031e-01
6.569000000000000000e+03 4.892712020874023438e+01 3.164871978759765625e+01 6.757567524909973145e-01 2.756225347518920898e+00 1.029594659805297852e+00 -6.771823763847351074e-01
6.570000000000000000e+03 3.626292943954467773e+00 -3.628008270263671875e+01 4.673025570809841156e-03 -3.706841468811035156e-01 -1.098033338785171509e-01 -1.384177505970001221e-01
6.571000000000000000e+03 5.696467399597167969e+00 -3.485896682739257812e+01 -1.451206114143133163e-02 -3.006566166877746582e-01 -9.455060213804244995e-02 -2.052095532417297363e-01
6.572000000000000000e+03 5.661652755737304688e+01 1.710122680664062500e+01 1.412463903427124023e+00 4.155284881591796875e+00 1.670324683189392090e+00 -1.344640851020812988e+00
6.573000000000000000e+03 5.705475997924804688e+01 1.761788940429687500e+01 1.254430651664733887e+00 4.061950683593750000e+00 1.594914317131042480e+00 -1.207213997840881348e+00
6.574000000000000000e+03 2.531032180786132812e+01 -2.719798088073730469e+01 4.588855504989624023e-01 -1.881699711084365845e-01 8.121468126773834229e-02 -1.832159161567687988e-01
6.575000000000000000e+03 4.819609642028808594e+00 -2.547420310974121094e+01 1.104252971708774567e-02 -8.113390207290649414e-02 -2.102741226553916931e-02 3.498517442494630814e-03
6.576000000000000000e+03 7.483364105224609375e+01 -1.543572521209716797e+01 -7.018436193466186523e-01 6.613061904907226562e+00 1.773365497589111328e+00 3.929295241832733154e-01
6.577000000000000000e+03 7.345542144775390625e+01 2.031945228576660156e+01 -1.393273234367370605e+00 7.260455608367919922e+00 1.760154724121093750e+00 -2.303019464015960693e-01
6.578000000000000000e+03 7.325434875488281250e+01 1.866746711730957031e+01 -1.343975186347961426e+00 7.806019306182861328e+00 1.938613176345825195e+00 1.167591661214828491e-01
6.579000000000000000e+03 8.023935317993164062e+00 7.247458457946777344e+00 -3.130629956722259521e-01 -1.411693543195724487e-01 -1.362697035074234009e-01 1.358632296323776245e-01
6.580000000000000000e+03 4.616635513305664062e+01 2.172684097290039062e+01 2.922564744949340820e-01 1.000603675842285156e+00 3.878580629825592041e-01 2.665047049522399902e-01
6.581000000000000000e+03 4.547883224487304688e+01 2.068417739868164062e+01 1.030585691332817078e-01 8.135098814964294434e-01 2.749705314636230469e-01 3.336729705333709717e-01
6.582000000000000000e+03 4.782261276245117188e+01 2.118129158020019531e+01 2.165269553661346436e-01 1.043975472450256348e+00 3.781507313251495361e-01 -2.376305609941482544e-01
6.583000000000000000e+03 4.039229965209960938e+01 1.665112495422363281e+01 2.240485101938247681e-01 7.219701260328292847e-02 8.887365460395812988e-02 -1.178565472364425659e-01
6.584000000000000000e+03 4.192634201049804688e+01 1.652806091308593750e+01 8.283858001232147217e-02 4.696604013442993164e-01 1.657496988773345947e-01 -1.795329451560974121e-01
6.585000000000000000e+03 1.943589019775390625e+01 -1.848267364501953125e+01 -3.174011707305908203e-01 -1.126578301191329956e-01 -1.290176957845687866e-01 -5.504444241523742676e-01
6.586000000000000000e+03 4.077987289428710938e+01 1.509572696685791016e+01 1.871968060731887817e-01 9.401320666074752808e-02 8.436300605535507202e-02 -2.259136885404586792e-01
6.587000000000000000e+03 2.377205276489257812e+01 3.485986328125000000e+01 1.057928651571273804e-01 6.277766078710556030e-02 5.057115852832794189e-02 8.218833059072494507e-02
6.588000000000000000e+03 5.850907897949218750e+01 8.887248992919921875e+00 -3.196189701557159424e-01 6.424720287322998047e+00 1.831530451774597168e+00 -7.384062409400939941e-01
6.589000000000000000e+03 2.438836669921875000e+01 1.131238651275634766e+01 1.974750459194183350e-01 -1.108860969543457031e-01 2.597668394446372986e-02 1.011403053998947144e-01
6.590000000000000000e+03 2.364152336120605469e+01 1.060713195800781250e+01 2.450077980756759644e-01 -1.442824751138687134e-01 3.021759353578090668e-02 1.261039078235626221e-01
6.591000000000000000e+03 5.932954025268554688e+01 -1.815196800231933594e+01 -2.254063822329044342e-02 4.903409004211425781e+00 1.464260458946228027e+00 9.892654418945312500e-01
6.592000000000000000e+03 3.230697250366210938e+01 -9.859475135803222656e+00 -3.640060126781463623e-01 -3.744008243083953857e-01 -2.215220481157302856e-01 -2.984040975570678711e-01
6.593000000000000000e+03 5.293926620483398438e+01 -1.304076004028320312e+01 1.183917373418807983e-02 -2.772527635097503662e-01 -7.962407171726226807e-02 6.394723057746887207e-02
6.594000000000000000e+03 3.598720550537109375e+01 1.978265762329101562e+01 2.779157161712646484e-01 -2.596936188638210297e-02 7.558390498161315918e-02 2.351567596197128296e-01
6.595000000000000000e+03 6.988844299316406250e+01 2.203882598876953125e+01 -1.374985575675964355e+00 3.762466669082641602e+00 7.162443399429321289e-01 -1.397504329681396484e+00
6.596000000000000000e+03 7.087802886962890625e+01 -3.030663871765136719e+01 1.232521891593933105e+00 3.261912107467651367e+00 1.348330140113830566e+00 3.469098806381225586e-01
6.597000000000000000e+03 5.198730850219726562e+01 -2.961875343322753906e+01 1.045257329940795898e+00 2.786763429641723633e+00 1.149606227874755859e+00 4.848423302173614502e-01
6.598000000000000000e+03 5.170343399047851562e+01 -3.014905166625976562e+01 1.027463436126708984e+00 2.794089317321777344e+00 1.146465778350830078e+00 4.190361201763153076e-01
6.599000000000000000e+03 3.143139839172363281e+01 3.182439422607421875e+01 3.035156428813934326e-01 9.272628277540206909e-02 1.188725754618644714e-01 9.987778961658477783e-02
6.600000000000000000e+03 5.849916839599609375e+01 1.912633514404296875e+01 4.315376877784729004e-01 3.732406854629516602e+00 1.249183416366577148e+00 -3.608075380325317383e-01
6.601000000000000000e+03 7.263185882568359375e+01 -1.390710353851318359e+01 -4.166810512542724609e-01 2.503577232360839844e+00 6.260688304901123047e-01 -8.176711797714233398e-01
6.602000000000000000e+03 7.354194641113281250e+01 -1.473559665679931641e+01 -5.947901606559753418e-01 4.662740707397460938e+00 1.220385193824768066e+00 -2.867829799652099609e-01
6.603000000000000000e+03 6.435569000244140625e+01 4.592020511627197266e+00 -1.731429219245910645e+00 3.281427621841430664e+00 4.649995267391204834e-01 -7.250429391860961914e-01
6.604000000000000000e+03 6.583074188232421875e+01 3.632117986679077148e+00 -4.104787707328796387e-01 2.630415439605712891e+00 6.659809947013854980e-01 1.017208456993103027e+00
6.605000000000000000e+03 2.569385337829589844e+01 -2.792078971862792969e+01 4.503618478775024414e-01 -2.045973241329193115e-01 7.372935861349105835e-02 -2.118951678276062012e-01
6.606000000000000000e+03 2.610722541809082031e+01 -2.858980941772460938e+01 4.025291204452514648e-01 -2.068046778440475464e-01 5.871733650565147400e-02 -2.265437692403793335e-01
6.607000000000000000e+03 6.460587310791015625e+01 3.133182764053344727e+00 -4.781855344772338867e-01 4.161210536956787109e+00 1.104907512664794922e+00 1.238185092806816101e-01
6.608000000000000000e+03 6.768191528320312500e+01 3.483395576477050781e+00 8.194029331207275391e-02 2.349401712417602539e+00 7.294026017189025879e-01 2.626992702484130859e+00
6.609000000000000000e+03 7.436576843261718750e+01 -3.505283355712890625e+01 3.901821672916412354e-01 6.048006057739257812e+00 1.931456446647644043e+00 -9.323480725288391113e-02
6.610000000000000000e+03 7.507908630371093750e+01 -3.555694580078125000e+01 2.575453817844390869e-01 6.372364521026611328e+00 1.988972902297973633e+00 -1.033440455794334412e-01
6.611000000000000000e+03 3.042163848876953125e+01 -3.070165824890136719e+01 3.256177604198455811e-01 9.260381758213043213e-02 1.254664808511734009e-01 -1.833303719758987427e-01
6.612000000000000000e+03 4.066215133666992188e+01 1.337915897369384766e+01 1.361467242240905762e-01 -5.985125526785850525e-02 2.288863994181156158e-02 -1.856144070625305176e-01
6.613000000000000000e+03 4.073301315307617188e+01 1.239272403717041016e+01 4.513856768608093262e-02 -1.501125097274780273e-01 -3.149218112230300903e-02 -9.347488731145858765e-02
6.614000000000000000e+03 9.538721084594726562e+00 -3.186296081542968750e+01 -1.811770647764205933e-01 -2.749392390251159668e-01 -1.368348896503448486e-01 -2.446848005056381226e-01
6.615000000000000000e+03 4.712582111358642578e+00 -3.280916595458984375e+01 -5.695630982518196106e-02 -2.590180635452270508e-01 -9.479231387376785278e-02 -1.517520993947982788e-01
6.616000000000000000e+03 1.053436183929443359e+01 -2.991166496276855469e+01 -2.091347575187683105e-01 -3.250338137149810791e-01 -1.602505743503570557e-01 -2.151449024677276611e-01
6.617000000000000000e+03 3.103145217895507812e+01 -3.156212043762207031e+01 3.059753179550170898e-01 1.463787108659744263e-01 1.357062011957168579e-01 -1.605888307094573975e-01
6.618000000000000000e+03 3.155170249938964844e+01 -3.250584030151367188e+01 3.183477520942687988e-01 1.865327358245849609e-01 1.514641493558883667e-01 -1.092096865177154541e-01
6.619000000000000000e+03 2.532932090759277344e+01 1.239423656463623047e+01 9.904408454895019531e-02 -6.355055421590805054e-02 1.064806059002876282e-02 9.246247261762619019e-02
6.620000000000000000e+03 4.855312347412109375e+01 3.687307739257812500e+01 -6.017403304576873779e-02 2.340639591217041016e+00 6.841396689414978027e-01 -4.149553775787353516e-01
6.621000000000000000e+03 4.152702331542968750e+01 1.833471298217773438e+01 1.290101855993270874e-01 3.658586442470550537e-01 1.484606564044952393e-01 1.950099878013134003e-02
6.622000000000000000e+03 9.179133415222167969e+00 -3.084155273437500000e+01 -1.873293817043304443e-01 -2.453476041555404663e-01 -1.298030912876129150e-01 -2.166820615530014038e-01
6.623000000000000000e+03 2.659457969665527344e+01 -2.623855018615722656e+01 4.097575545310974121e-01 -1.714770644903182983e-01 7.148414850234985352e-02 -1.856241673231124878e-01
6.624000000000000000e+03 5.308133697509765625e+01 -2.997130775451660156e+01 1.114493846893310547e+00 3.694536209106445312e+00 1.442709088325500488e+00 7.960938215255737305e-01
6.625000000000000000e+03 4.815269470214843750e+00 -3.001802062988281250e+01 -8.122561126947402954e-02 -1.801206022500991821e-01 -7.840386778116226196e-02 -8.857848495244979858e-02
6.626000000000000000e+03 2.834978675842285156e+01 -3.052161979675292969e+01 2.739246189594268799e-01 -6.758883595466613770e-02 6.190073490142822266e-02 -2.099778354167938232e-01
6.627000000000000000e+03 4.903669357299804688e+01 3.261975860595703125e+01 5.071940422058105469e-01 2.723999500274658203e+00 9.693580865859985352e-01 -6.554508209228515625e-01
6.628000000000000000e+03 5.013148880004882812e+01 3.612703704833984375e+01 -1.303209215402603149e-01 2.672241210937500000e+00 7.625761032104492188e-01 -3.281448781490325928e-01
6.629000000000000000e+03 2.918114471435546875e+01 3.575313949584960938e+01 3.116276264190673828e-01 1.226368248462677002e-01 1.302793323993682861e-01 1.529326438903808594e-01
6.630000000000000000e+03 2.860738563537597656e+01 -2.928983879089355469e+01 3.499049544334411621e-01 -5.892752856016159058e-02 8.729322999715805054e-02 -2.258606255054473877e-01
6.631000000000000000e+03 2.253176689147949219e+01 3.431809616088867188e+01 6.564733386039733887e-02 -2.891203202307224274e-02 1.102058961987495422e-02 2.635378763079643250e-02
6.632000000000000000e+03 5.054196166992187500e+01 3.294399642944335938e+01 4.059931337833404541e-01 3.132510662078857422e+00 1.061551094055175781e+00 -5.403199195861816406e-01
6.633000000000000000e+03 5.272671890258789062e+01 -3.584313583374023438e+01 5.402869582176208496e-01 3.885483980178833008e+00 1.327731251716613770e+00 1.150535225868225098e+00
6.634000000000000000e+03 4.352014541625976562e+00 3.810477828979492188e+01 1.224985253065824509e-02 -5.060219168663024902e-01 -1.481316089630126953e-01 -4.158007353544235229e-02
6.635000000000000000e+03 5.259733200073242188e+00 3.592383956909179688e+01 1.383778005838394165e-01 -3.993802368640899658e-01 -7.830072939395904541e-02 -7.713957689702510834e-03
6.636000000000000000e+03 7.541796684265136719e+00 -3.536777496337890625e+01 -1.043568830937147141e-03 -3.041600584983825684e-01 -9.156108647584915161e-02 -2.467083185911178589e-01
6.637000000000000000e+03 2.921448898315429688e+01 -3.784971237182617188e+01 2.857904136180877686e-01 -1.788310892879962921e-02 8.037219196557998657e-02 1.037679314613342285e-01
6.638000000000000000e+03 5.691492557525634766e+00 -4.017484283447265625e+01 1.324570477008819580e-01 -4.050598144531250000e-01 -8.178082853555679321e-02 -1.000077202916145325e-01
6.639000000000000000e+03 7.068125915527343750e+01 3.282310104370117188e+01 4.003063142299652100e-01 5.121106624603271484e+00 1.656423807144165039e+00 1.118218526244163513e-01
6.640000000000000000e+03 5.149782562255859375e+01 3.611265945434570312e+01 -2.650002837181091309e-01 2.846175909042358398e+00 7.743527293205261230e-01 -1.199788227677345276e-01
6.641000000000000000e+03 4.989458847045898438e+01 3.744486618041992188e+01 -2.107529193162918091e-01 2.456733465194702148e+00 6.737941503524780273e-01 -2.563496530055999756e-01
6.642000000000000000e+03 4.787687301635742188e+01 3.486266326904296875e+01 2.188974618911743164e-01 2.299768447875976562e+00 7.555997967720031738e-01 -6.185244917869567871e-01
6.643000000000000000e+03 8.431070327758789062e+00 3.932674789428710938e+01 -3.223495557904243469e-02 -6.720107048749923706e-02 -2.983080595731735229e-02 2.826028130948543549e-02
6.644000000000000000e+03 5.548117828369140625e+01 -3.916815567016601562e+01 -1.049856901168823242e+00 3.398230314254760742e+00 7.045120000839233398e-01 2.518059313297271729e-01
6.645000000000000000e+03 5.419287872314453125e+01 -3.963670730590820312e+01 -1.008137345314025879e+00 3.699723720550537109e+00 8.074758648872375488e-01 1.790226846933364868e-01
6.646000000000000000e+03 7.358263397216796875e+01 -3.709816360473632812e+01 1.734952479600906372e-01 5.959033966064453125e+00 1.839758753776550293e+00 -3.371399343013763428e-01
6.647000000000000000e+03 3.375300979614257812e+01 -3.529446029663085938e+01 3.451483547687530518e-01 3.511163592338562012e-01 2.088794112205505371e-01 -5.999519489705562592e-03
6.648000000000000000e+03 4.457181930541992188e+01 4.014508819580078125e+01 1.224280074238777161e-01 1.582306861877441406e+00 5.114204883575439453e-01 -1.853916794061660767e-01
6.649000000000000000e+03 6.750222778320312500e+01 3.651095581054687500e+01 -1.438125371932983398e-01 4.484100818634033203e+00 1.302086472511291504e+00 1.341061145067214966e-01
6.650000000000000000e+03 3.262525558471679688e+01 3.926449966430664062e+01 3.968743681907653809e-01 2.540919184684753418e-01 1.952898800373077393e-01 4.879118502140045166e-02
6.651000000000000000e+03 2.947635650634765625e+01 3.864601898193359375e+01 3.322250843048095703e-01 1.334157437086105347e-01 1.396922469139099121e-01 7.751312106847763062e-02
6.652000000000000000e+03 6.940306091308593750e+01 3.505273437500000000e+01 1.585820615291595459e-01 4.883141040802001953e+00 1.512516975402832031e+00 1.792621761560440063e-01
6.653000000000000000e+03 6.714842224121093750e+01 3.508693313598632812e+01 -1.132928300648927689e-02 4.360145092010498047e+00 1.304644703865051270e+00 1.986261755228042603e-01
6.654000000000000000e+03 3.257857513427734375e+01 -3.611479187011718750e+01 3.163806200027465820e-01 2.425724267959594727e-01 1.676859110593795776e-01 3.432052209973335266e-02
6.655000000000000000e+03 3.493382644653320312e+01 -3.994665145874023438e+01 3.125612735748291016e-01 4.119511544704437256e-01 2.173537313938140869e-01 4.044688306748867035e-03
6.656000000000000000e+03 7.046393585205078125e+01 -3.715202713012695312e+01 6.112509593367576599e-02 5.354741096496582031e+00 1.624759912490844727e+00 -6.823039054870605469e-01
6.657000000000000000e+03 7.484636688232421875e+01 -4.070282363891601562e+01 -1.011097952723503113e-01 6.742703437805175781e+00 1.992478013038635254e+00 -1.124743744730949402e-01
6.658000000000000000e+03 7.389971923828125000e+01 -3.885430908203125000e+01 -1.081694290041923523e-01 6.292864322662353516e+00 1.855408549308776855e+00 -2.953748703002929688e-01
6.659000000000000000e+03 3.126376152038574219e+01 -3.848438644409179688e+01 3.214142620563507080e-01 1.188886165618896484e-01 1.320908665657043457e-01 7.531651109457015991e-02
6.660000000000000000e+03 2.536965751647949219e+01 3.509104537963867188e+01 1.508591026067733765e-01 1.002178266644477844e-01 7.532308250665664673e-02 1.431122571229934692e-01
6.661000000000000000e+03 5.178561019897460938e+01 3.747326660156250000e+01 -3.428401052951812744e-01 2.559634685516357422e+00 6.650384068489074707e-01 4.355058819055557251e-02
6.662000000000000000e+03 5.816088104248046875e+01 -1.767217254638671875e+01 -3.299797773361206055e-01 4.329257965087890625e+00 1.199783444404602051e+00 1.176360726356506348e+00
6.663000000000000000e+03 5.275605392456054688e+01 -2.832038879394531250e+01 6.691517829895019531e-01 2.860584497451782227e+00 1.058920860290527344e+00 7.926988601684570312e-01
6.664000000000000000e+03 5.220122146606445312e+01 -2.851077651977539062e+01 8.250403404235839844e-01 2.608878612518310547e+00 1.030175685882568359e+00 5.418336987495422363e-01
6.665000000000000000e+03 4.610292434692382812e+00 2.014687919616699219e+01 6.733786314725875854e-02 -4.315726459026336670e-01 -1.092704385519027710e-01 5.692560225725173950e-03
6.666000000000000000e+03 2.639933776855468750e+01 -1.686713218688964844e+01 -3.949898183345794678e-01 -4.735007882118225098e-01 -2.605471909046173096e-01 -2.939222753047943115e-01
6.667000000000000000e+03 2.368710899353027344e+01 -1.706137084960937500e+01 -4.553112089633941650e-01 -3.840495049953460693e-01 -2.518082261085510254e-01 -3.945291340351104736e-01
6.668000000000000000e+03 2.310494613647460938e+01 -1.942304420471191406e+01 -2.114163786172866821e-01 -2.432156503200531006e-01 -1.363896131515502930e-01 -3.660467565059661865e-01
6.669000000000000000e+03 7.501483154296875000e+01 -2.843452072143554688e+01 -8.829420804977416992e-01 7.132166385650634766e+00 1.874767303466796875e+00 7.454380393028259277e-01
6.670000000000000000e+03 8.787025451660156250e+00 -2.626601219177246094e+01 -7.846213877201080322e-02 -8.885399252176284790e-02 -5.019484087824821472e-02 -1.552873998880386353e-01
6.671000000000000000e+03 8.893237113952636719e+00 -2.685731506347656250e+01 -1.068163812160491943e-01 -1.221502795815467834e-01 -6.868999451398849487e-02 -1.644641757011413574e-01
6.672000000000000000e+03 2.393139457702636719e+01 -1.815337371826171875e+01 -2.976949214935302734e-01 -3.399833738803863525e-01 -1.913034915924072266e-01 -3.612544536590576172e-01
6.673000000000000000e+03 5.678832626342773438e+01 1.630047416687011719e+01 1.690474987030029297e+00 4.535171985626220703e+00 1.867694020271301270e+00 -1.257687091827392578e+00
6.674000000000000000e+03 1.294568157196044922e+01 -6.610693931579589844e+00 -1.092087849974632263e-02 7.047364953905344009e-03 -1.162054017186164856e-03 -3.303001821041107178e-02
6.675000000000000000e+03 1.045685958862304688e+01 -6.101964473724365234e+00 6.982099730521440506e-04 -3.476512804627418518e-02 -1.022007595747709274e-02 -3.928288072347640991e-02
6.676000000000000000e+03 4.807234573364257812e+01 2.250370979309082031e+01 2.976147234439849854e-01 1.613673567771911621e+00 5.733864903450012207e-01 -2.334386408329010010e-01
6.677000000000000000e+03 5.057314682006835938e+01 2.152242279052734375e+01 -2.797430157661437988e-01 2.717034101486206055e+00 7.311872839927673340e-01 -1.196384549140930176e+00
6.678000000000000000e+03 3.854489898681640625e+01 1.428011322021484375e+01 1.128220260143280029e-01 -5.000477433204650879e-01 -1.161677092313766479e-01 -1.197296660393476486e-02
6.679000000000000000e+03 3.830168914794921875e+01 1.870890045166015625e+01 3.588265776634216309e-01 -1.230472922325134277e-01 7.073378562927246094e-02 1.001752763986587524e-01
6.680000000000000000e+03 4.128149032592773438e+01 1.358225917816162109e+01 1.655580699443817139e-01 1.749725788831710815e-01 1.021591946482658386e-01 -2.567413747310638428e-01
6.681000000000000000e+03 5.300456619262695312e+01 -2.905471992492675781e+01 9.052524566650390625e-01 3.363424777984619141e+00 1.280603170394897461e+00 8.126546740531921387e-01
6.682000000000000000e+03 5.949460506439208984e+00 1.956551742553710938e+01 1.273837089538574219e-01 -3.707812130451202393e-01 -7.301925122737884521e-02 5.220440402626991272e-02
6.683000000000000000e+03 5.031928253173828125e+01 2.419682502746582031e+01 1.959270387887954712e-01 3.051292896270751953e+00 9.741659760475158691e-01 -4.497747123241424561e-01
6.684000000000000000e+03 4.820113372802734375e+01 2.419460678100585938e+01 4.623693525791168213e-01 2.121434926986694336e+00 7.751412987709045410e-01 -1.037063747644424438e-01
6.685000000000000000e+03 5.159363269805908203e+00 1.633405685424804688e+01 1.797451227903366089e-01 -3.312771618366241455e-01 -4.545961320400238037e-02 1.727104336023330688e-01
6.686000000000000000e+03 6.152346134185791016e+00 1.441577148437500000e+01 1.583604514598846436e-01 -2.400171160697937012e-01 -2.449699863791465759e-02 2.968010902404785156e-01
6.687000000000000000e+03 5.142469406127929688e+00 1.247167205810546875e+01 -7.298146374523639679e-03 -1.869084835052490234e-01 -5.826198682188987732e-02 2.986879348754882812e-01
6.688000000000000000e+03 5.808951568603515625e+01 -1.522544288635253906e+01 -6.911826133728027344e-01 3.957020998001098633e+00 9.797514677047729492e-01 1.419035196304321289e+00
6.689000000000000000e+03 3.376611328125000000e+01 -8.871873855590820312e+00 -4.103189334273338318e-02 -3.905938239768147469e-03 -1.348134968429803848e-02 -4.234517216682434082e-01
6.690000000000000000e+03 7.145989990234375000e+01 2.194346809387207031e+01 -1.297289729118347168e+00 5.320850372314453125e+00 1.207068204879760742e+00 -1.124971270561218262e+00
6.691000000000000000e+03 6.486794471740722656e+00 -2.620987510681152344e+01 -5.145023018121719360e-02 -5.000185593962669373e-02 -3.043562546372413635e-02 -4.896186664700508118e-02
6.692000000000000000e+03 5.587561798095703125e+01 -1.374130916595458984e+01 4.297514632344245911e-02 9.899239540100097656e-01 3.098697364330291748e-01 9.107207059860229492e-01
6.693000000000000000e+03 5.537381362915039062e+01 -1.424557781219482422e+01 1.983932405710220337e-02 8.101115822792053223e-01 2.489852756261825562e-01 6.351228356361389160e-01
6.694000000000000000e+03 6.177135467529296875e+01 -2.269446945190429688e+01 2.237074136734008789e+00 4.045488357543945312e+00 1.884768843650817871e+00 3.343945443630218506e-01
6.695000000000000000e+03 6.084812545776367188e+01 -2.228203582763671875e+01 2.134794712066650391e+00 3.567203283309936523e+00 1.710599422454833984e+00 9.530435204505920410e-01
6.696000000000000000e+03 1.835728263854980469e+01 -2.267343330383300781e+01 -1.677099466323852539e-01 -7.859279215335845947e-02 -7.389082014560699463e-02 -3.981261551380157471e-01
6.697000000000000000e+03 1.940677642822265625e+01 -2.419124412536621094e+01 5.812700837850570679e-02 8.953591436147689819e-02 4.429887607693672180e-02 -3.487246930599212646e-01
6.698000000000000000e+03 5.372707366943359375e+00 -1.266991901397705078e+01 -7.112997770309448242e-02 -1.266411095857620239e-01 -5.933132767677307129e-02 -3.760292381048202515e-02
6.699000000000000000e+03 4.348981380462646484e+00 -1.294679355621337891e+01 -5.310053378343582153e-02 -8.813911676406860352e-02 -4.237189516425132751e-02 -2.006294764578342438e-02
6.700000000000000000e+03 4.965054321289062500e+01 2.450893402099609375e+01 3.828115165233612061e-01 2.797500610351562500e+00 9.540936350822448730e-01 -3.530873358249664307e-01
6.701000000000000000e+03 5.705728530883789062e+01 -1.508213710784912109e+01 -4.280073940753936768e-01 2.822330236434936523e+00 7.182968854904174805e-01 1.166443705558776855e+00
6.702000000000000000e+03 6.414849853515625000e+01 -1.482841873168945312e+01 -2.584947824478149414e+00 7.447711944580078125e+00 1.458829164505004883e+00 7.000380754470825195e-01
6.703000000000000000e+03 3.217358016967773438e+01 -1.203456020355224609e+01 -5.686860084533691406e-01 -2.788814306259155273e-01 -2.542702257633209229e-01 1.691032201051712036e-02
6.704000000000000000e+03 3.326587677001953125e+01 -1.227486133575439453e+01 -5.012581348419189453e-01 -7.714842259883880615e-02 -1.735219508409500122e-01 8.210426568984985352e-02
6.705000000000000000e+03 4.845632934570312500e+01 2.859907722473144531e+01 8.110749125480651855e-01 2.659788608551025391e+00 1.041259050369262695e+00 -5.377330780029296875e-01
6.706000000000000000e+03 4.978302764892578125e+01 2.771297645568847656e+01 9.214087128639221191e-01 3.078962802886962891e+00 1.200111508369445801e+00 -4.592184722423553467e-01
6.707000000000000000e+03 5.716895103454589844e+00 -1.129931640625000000e+01 -5.286459997296333313e-02 -1.099026501178741455e-01 -4.883017390966415405e-02 -1.839264109730720520e-02
6.708000000000000000e+03 4.367187500000000000e+01 -1.852306556701660156e+01 5.322471857070922852e-01 5.360066890716552734e-01 3.204761743545532227e-01 -3.111721575260162354e-02
6.709000000000000000e+03 7.429153442382812500e+01 -3.017122650146484375e+01 -3.770729154348373413e-02 5.903465270996093750e+00 1.759727478027343750e+00 8.408941626548767090e-01
6.710000000000000000e+03 7.537554168701171875e+01 -2.917120933532714844e+01 -5.636454820632934570e-01 7.006705760955810547e+00 1.932918071746826172e+00 6.191596984863281250e-01
6.711000000000000000e+03 7.429911804199218750e+01 -2.864004707336425781e+01 -8.256316184997558594e-01 6.476737022399902344e+00 1.695331573486328125e+00 1.054016470909118652e+00
6.712000000000000000e+03 7.384146881103515625e+01 7.980661869049072266e+00 -1.092240959405899048e-02 8.425967216491699219e+00 2.524513244628906250e+00 -2.698630988597869873e-01
6.713000000000000000e+03 7.472962951660156250e+01 6.970724105834960938e+00 -3.041882216930389404e-01 7.769094467163085938e+00 2.239471912384033203e+00 -4.895666539669036865e-01
6.714000000000000000e+03 4.409195709228515625e+01 -2.473813247680664062e+01 3.300653100013732910e-01 8.290513753890991211e-01 3.477350175380706787e-01 5.883553251624107361e-02
6.715000000000000000e+03 4.331340408325195312e+01 -2.494406509399414062e+01 3.615839481353759766e-01 7.384374141693115234e-01 3.300064206123352051e-01 1.755805462598800659e-01
6.716000000000000000e+03 4.479422760009765625e+01 -2.419884300231933594e+01 2.823421657085418701e-01 9.920244216918945312e-01 3.823099732398986816e-01 -1.514359726570546627e-03
6.717000000000000000e+03 7.047550964355468750e+01 2.007395267486572266e+00 9.187599420547485352e-01 2.647568464279174805e+00 1.069898486137390137e+00 2.381411552429199219e+00
6.718000000000000000e+03 7.392687988281250000e+01 2.934041738510131836e+00 -2.029493749141693115e-01 5.580028533935546875e+00 1.613123774528503418e+00 1.385920941829681396e-01
6.719000000000000000e+03 5.712837219238281250e+01 -1.399840450286865234e+01 -2.579630613327026367e-01 2.381695032119750977e+00 6.371195912361145020e-01 1.450849413871765137e+00
6.720000000000000000e+03 5.858027267456054688e+01 -1.398944950103759766e+01 -7.639079689979553223e-01 4.360721588134765625e+00 1.079044103622436523e+00 2.001337766647338867e+00
6.721000000000000000e+03 6.596635437011718750e+01 1.731891274452209473e+00 8.058683276176452637e-01 4.197623729705810547e+00 1.501047611236572266e+00 1.725316166877746582e+00
6.722000000000000000e+03 8.618709564208984375e+00 1.906972122192382812e+01 2.141441553831100464e-01 -1.256485283374786377e-01 2.654868923127651215e-02 1.444621682167053223e-01
6.723000000000000000e+03 4.343308258056640625e+01 -2.032341003417968750e+01 6.169934272766113281e-01 7.211116552352905273e-01 4.014315009117126465e-01 4.600076377391815186e-02
6.724000000000000000e+03 4.294168853759765625e+01 -2.070081520080566406e+01 5.674625039100646973e-01 7.039325833320617676e-01 3.814185261726379395e-01 7.186752278357744217e-03
6.725000000000000000e+03 2.433482551574707031e+01 -1.745782089233398438e+01 -3.839223086833953857e-01 -3.978281915187835693e-01 -2.345251590013504028e-01 -3.595383465290069580e-01
6.726000000000000000e+03 6.727085113525390625e+01 2.325499534606933594e+01 -2.371253259479999542e-02 1.767437338829040527e+00 5.231174826622009277e-01 -3.909411430358886719e-01
6.727000000000000000e+03 5.106348514556884766e+00 -2.953349494934082031e+01 -9.155098348855972290e-02 -1.647665798664093018e-01 -7.689527422189712524e-02 -8.338966220617294312e-02
6.728000000000000000e+03 5.279569625854492188e+00 -6.395232677459716797e+00 1.017364859580993652e-02 -3.538322821259498596e-02 -7.562873885035514832e-03 1.780172251164913177e-02
6.729000000000000000e+03 7.504367828369140625e+01 -1.474080467224121094e+01 -8.423966765403747559e-01 6.525866508483886719e+00 1.705040931701660156e+00 5.225226879119873047e-01
6.730000000000000000e+03 4.233443069458007812e+01 8.446118354797363281e+00 -2.243560999631881714e-01 1.290600299835205078e-01 -2.858882024884223938e-02 3.519483506679534912e-01
6.731000000000000000e+03 7.144567489624023438e+00 -5.775002002716064453e+00 1.356139220297336578e-02 -4.475855454802513123e-02 -9.359148330986499786e-03 -2.725921338424086571e-03
6.732000000000000000e+03 6.669184207916259766e+00 -7.662030220031738281e+00 1.770146656781435013e-03 -6.593918800354003906e-02 -1.925071328878402710e-02 9.010627400130033493e-04
6.733000000000000000e+03 6.466551208496093750e+01 2.332574844360351562e+01 -5.303488969802856445e-01 3.003781795501708984e+00 7.420298457145690918e-01 1.443500876426696777e+00
6.734000000000000000e+03 6.577993011474609375e+01 2.385641288757324219e+01 3.860719501972198486e-01 2.426995038986206055e+00 8.439200520515441895e-01 4.980615973472595215e-01
6.735000000000000000e+03 6.539189338684082031e+00 -6.048613548278808594e+00 8.511887863278388977e-03 -4.565216228365898132e-02 -1.114208251237869263e-02 5.624320358037948608e-03
6.736000000000000000e+03 1.785204315185546875e+01 -2.335477828979492188e+01 -8.289686590433120728e-02 -1.308815181255340576e-01 -6.413351744413375854e-02 -4.012059271335601807e-01
6.737000000000000000e+03 2.374715805053710938e+01 8.906739234924316406e+00 3.271847069263458252e-01 -1.652604341506958008e-01 4.857727885246276855e-02 1.508758217096328735e-01
6.738000000000000000e+03 1.220972633361816406e+01 -2.668468093872070312e+01 -3.907386213541030884e-02 -4.295398890972137451e-01 -1.405841261148452759e-01 -2.735467851161956787e-01
6.739000000000000000e+03 7.401126861572265625e+01 2.946069717407226562e+01 3.111122250556945801e-01 6.022663116455078125e+00 1.900132656097412109e+00 -3.342759609222412109e-01
6.740000000000000000e+03 6.337207412719726562e+01 -1.465050315856933594e+01 -2.484652757644653320e+00 7.945352554321289062e+00 1.638210058212280273e+00 7.656190395355224609e-01
6.741000000000000000e+03 6.098553085327148438e+01 -1.150874805450439453e+01 -1.016651988029479980e+00 9.038153648376464844e+00 2.406450748443603516e+00 2.169809103012084961e+00
6.742000000000000000e+03 3.974223709106445312e+01 1.853336524963378906e+01 3.043986856937408447e-01 1.663793437182903290e-02 9.631098806858062744e-02 3.586032614111900330e-02
6.743000000000000000e+03 5.255768775939941406e+00 -2.887144470214843750e+01 -8.896739035844802856e-02 -1.452406495809555054e-01 -7.026240974664688110e-02 -7.239572703838348389e-02
6.744000000000000000e+03 5.979037094116210938e+01 -2.103542137145996094e+01 1.715918779373168945e+00 3.903180837631225586e+00 1.685729861259460449e+00 1.260187506675720215e+00
6.745000000000000000e+03 5.735224914550781250e+01 5.952753067016601562e+00 -1.436945915222167969e+00 5.035384654998779297e+00 1.079531669616699219e+00 -1.319831967353820801e+00
6.746000000000000000e+03 6.900710296630859375e+01 3.638037443161010742e+00 3.092413069680333138e-03 2.841150283813476562e+00 8.532727956771850586e-01 2.921555280685424805e+00
6.747000000000000000e+03 6.003760528564453125e+01 5.532364845275878906e+00 -2.424842834472656250e+00 6.586237430572509766e+00 1.248418450355529785e+00 -2.061802864074707031e+00
6.748000000000000000e+03 6.461692810058593750e+01 -1.304407691955566406e+01 -1.302179336547851562e+00 7.414867877960205078e+00 1.833806514739990234e+00 1.108184605836868286e-01
6.749000000000000000e+03 6.472608947753906250e+01 -1.374054908752441406e+01 -1.825353384017944336e+00 6.892248153686523438e+00 1.520068407058715820e+00 4.213344156742095947e-01
6.750000000000000000e+03 7.164756011962890625e+01 -3.070953178405761719e+01 1.022722601890563965e+00 3.861149549484252930e+00 1.465161681175231934e+00 5.951266884803771973e-01
6.751000000000000000e+03 1.772671699523925781e+01 -2.166707611083984375e+01 -3.413797914981842041e-01 -1.324171423912048340e-01 -1.421390771865844727e-01 -4.384938776493072510e-01
6.752000000000000000e+03 1.832203674316406250e+01 -2.042513656616210938e+01 -3.850870132446289062e-01 -7.667873799800872803e-02 -1.385297328233718872e-01 -5.161408782005310059e-01
6.753000000000000000e+03 1.307787036895751953e+01 -8.658128738403320312e+00 -7.043706625699996948e-02 4.272682964801788330e-02 -8.313071914017200470e-03 -3.561899811029434204e-02
6.754000000000000000e+03 4.963589096069335938e+01 3.063670730590820312e+01 8.166275024414062500e-01 3.040510177612304688e+00 1.157141327857971191e+00 -6.271721720695495605e-01
6.755000000000000000e+03 1.967157363891601562e+01 -1.611092376708984375e+01 -3.590452671051025391e-01 -1.178893074393272400e-01 -1.430803686380386353e-01 -3.701806366443634033e-01
6.756000000000000000e+03 7.419798278808593750e+01 2.384223937988281250e+01 -5.495325922966003418e-01 6.533744812011718750e+00 1.795263648033142090e+00 -6.198356151580810547e-01
6.757000000000000000e+03 6.718026733398437500e+01 2.709390640258789062e+01 1.353039741516113281e+00 3.500194549560546875e+00 1.455970287322998047e+00 2.591573297977447510e-01
6.758000000000000000e+03 7.440415954589843750e+01 2.792871665954589844e+01 1.913746744394302368e-01 6.209562301635742188e+00 1.920281052589416504e+00 -4.779310524463653564e-01
6.759000000000000000e+03 2.374031257629394531e+01 9.767196655273437500e+00 3.133024871349334717e-01 -1.498841792345046997e-01 4.902549460530281067e-02 1.374634951353073120e-01
6.760000000000000000e+03 5.976049423217773438e+01 8.686312675476074219e+00 -8.444970250129699707e-01 7.074519157409667969e+00 1.869006633758544922e+00 -8.576371669769287109e-01
6.761000000000000000e+03 5.545353698730468750e+01 2.118796157836914062e+01 -1.060563087463378906e+00 3.113284349441528320e+00 6.158163547515869141e-01 -2.094666719436645508e+00
6.762000000000000000e+03 4.357042312622070312e+01 -2.240684318542480469e+01 4.576396644115447998e-01 8.893670439720153809e-01 4.041019976139068604e-01 1.457208991050720215e-01
6.763000000000000000e+03 2.032230567932128906e+01 -1.667714691162109375e+01 -3.890314102172851562e-01 -1.661988496780395508e-01 -1.665690690279006958e-01 -4.353845119476318359e-01
6.764000000000000000e+03 1.346562671661376953e+01 -9.346348762512207031e+00 -1.072946935892105103e-01 7.802870869636535645e-02 -8.779794909060001373e-03 -3.581263124942779541e-02
6.765000000000000000e+03 6.361596584320068359e+00 -2.761386680603027344e+01 -9.450772404670715332e-02 -9.822924435138702393e-02 -5.782109126448631287e-02 -7.072611153125762939e-02
6.766000000000000000e+03 7.537281799316406250e+01 2.164978408813476562e+01 -7.435737848281860352e-01 7.506744861602783203e+00 2.028951406478881836e+00 3.353502135723829269e-03
6.767000000000000000e+03 7.402476501464843750e+01 2.133429527282714844e+01 -1.139963030815124512e+00 7.155631065368652344e+00 1.804700374603271484e+00 -2.837657928466796875e-01
6.768000000000000000e+03 7.461444091796875000e+01 2.355273246765136719e+01 -5.574979782104492188e-01 6.846197605133056641e+00 1.886609911918640137e+00 -4.876256883144378662e-01
6.769000000000000000e+03 7.534655761718750000e+01 2.571955871582031250e+01 -1.060388237237930298e-01 6.808904647827148438e+00 2.010859727859497070e+00 -4.962551891803741455e-01
6.770000000000000000e+03 7.378565979003906250e+01 2.392586517333984375e+01 -5.747996568679809570e-01 6.356668472290039062e+00 1.734560608863830566e+00 -7.221639156341552734e-01
6.771000000000000000e+03 7.482202911376953125e+01 2.083862304687500000e+01 -1.009854793548583984e+00 7.523798942565917969e+00 1.954183340072631836e+00 6.777536869049072266e-02
6.772000000000000000e+03 7.548873901367187500e+01 2.040288543701171875e+01 -8.428861498832702637e-01 7.728284358978271484e+00 2.065619468688964844e+00 3.208507597446441650e-01
6.773000000000000000e+03 8.639414787292480469e+00 -3.205242919921875000e+01 -1.583617180585861206e-01 -2.446467578411102295e-01 -1.209025457501411438e-01 -2.343230098485946655e-01
6.774000000000000000e+03 7.333370971679687500e+01 3.276538848876953125e+01 2.961751818656921387e-01 5.846405506134033203e+00 1.842774152755737305e+00 -4.901406168937683105e-02
6.775000000000000000e+03 5.471364974975585938e+01 -1.369289875030517578e+01 1.181395351886749268e-01 1.688617616891860962e-01 8.610039204359054565e-02 4.082974791526794434e-01
6.776000000000000000e+03 7.565835571289062500e+01 -2.810614967346191406e+01 -8.873062729835510254e-01 7.610830307006835938e+00 2.017057180404663086e+00 3.470394015312194824e-01
6.777000000000000000e+03 7.070621490478515625e+01 5.072005271911621094e+00 -8.328539133071899414e-01 4.632698059082031250e+00 1.139953255653381348e+00 2.422011375427246094e+00
6.778000000000000000e+03 7.530867767333984375e+01 4.629339694976806641e+00 -4.162173867225646973e-01 7.001040935516357422e+00 1.975447058677673340e+00 -3.669291138648986816e-01
6.779000000000000000e+03 4.956771850585937500e+00 -3.103204727172851562e+01 -8.485841006040573120e-02 -2.019030153751373291e-01 -8.602842688560485840e-02 -1.196593493223190308e-01
6.780000000000000000e+03 7.612909698486328125e+01 1.921319770812988281e+01 -5.991508960723876953e-01 7.930811882019042969e+00 2.199498176574707031e+00 7.456466555595397949e-01
6.781000000000000000e+03 7.457842254638671875e+01 1.875094413757324219e+01 -9.730859994888305664e-01 8.025093078613281250e+00 2.115602254867553711e+00 6.113033294677734375e-01
6.782000000000000000e+03 7.531095123291015625e+01 1.672252845764160156e+01 -5.172913521528244019e-02 8.314960479736328125e+00 2.478969573974609375e+00 1.163666725158691406e+00
6.783000000000000000e+03 7.544319152832031250e+01 8.014207839965820312e+00 1.103806123137474060e-01 7.824673175811767578e+00 2.380516052246093750e+00 -7.811933755874633789e-01
6.784000000000000000e+03 7.496035003662109375e+01 6.342179775238037109e+00 -3.944064080715179443e-01 7.524640083312988281e+00 2.139070034027099609e+00 -4.708973765373229980e-01
6.785000000000000000e+03 7.517264556884765625e+01 3.108468532562255859e+00 -3.723758161067962646e-01 6.556162834167480469e+00 1.855136156082153320e+00 -2.622033059597015381e-01
6.786000000000000000e+03 7.526392364501953125e+01 1.846569824218750000e+01 -7.214446663856506348e-01 8.070044517517089844e+00 2.204579830169677734e+00 8.362661600112915039e-01
6.787000000000000000e+03 7.489492034912109375e+01 1.941099929809570312e+01 -9.906306862831115723e-01 7.882025718688964844e+00 2.067418575286865234e+00 4.937754273414611816e-01
6.788000000000000000e+03 7.445541381835937500e+01 8.517888069152832031e+00 3.156821131706237793e-01 8.387806892395019531e+00 2.611046791076660156e+00 -5.570254325866699219e-01
6.789000000000000000e+03 7.500227355957031250e+01 8.512044906616210938e+00 3.042355477809906006e-01 8.108445167541503906e+00 2.523804187774658203e+00 -6.782631874084472656e-01
6.790000000000000000e+03 5.847579002380371094e+00 6.283229827880859375e+00 -1.757488846778869629e-01 -4.230473935604095459e-02 -6.541609019041061401e-02 5.103773996233940125e-02
6.791000000000000000e+03 6.050899982452392578e+00 8.364367485046386719e+00 -2.227027118206024170e-01 -7.759382575750350952e-02 -9.008896350860595703e-02 1.618866771459579468e-01
6.792000000000000000e+03 4.361509799957275391e+00 7.638315677642822266e+00 -1.260427385568618774e-01 -3.604286164045333862e-02 -4.862567782402038574e-02 9.375668317079544067e-02
6.793000000000000000e+03 7.077813720703125000e+01 2.172458076477050781e+01 -1.503053069114685059e+00 4.791717529296875000e+00 9.865992665290832520e-01 -1.318282008171081543e+00
6.794000000000000000e+03 3.982957839965820312e+01 -1.600452804565429688e+01 -4.126345515251159668e-01 5.907261967658996582e-01 5.342749878764152527e-02 -4.620306789875030518e-01
6.795000000000000000e+03 7.507863616943359375e+01 7.672706604003906250e+00 -4.353484883904457092e-02 7.900605678558349609e+00 2.357121229171752930e+00 -6.819368600845336914e-01
6.796000000000000000e+03 7.160679626464843750e+01 3.787987947463989258e+00 -1.679387688636779785e-01 4.544685363769531250e+00 1.313024044036865234e+00 1.734578490257263184e+00
6.797000000000000000e+03 7.439803314208984375e+01 3.169057369232177734e+00 -3.280723989009857178e-01 6.066563129425048828e+00 1.721547245979309082e+00 -4.594908561557531357e-03
6.798000000000000000e+03 6.807186889648437500e+01 2.698937797546386719e+01 1.162075996398925781e+00 3.580945491790771484e+00 1.422906398773193359e+00 -5.068703740835189819e-02
6.799000000000000000e+03 4.842876434326171875e+00 -2.629400253295898438e+01 -2.558301202952861786e-02 -9.542526304721832275e-02 -3.630248084664344788e-02 -6.432974245399236679e-03
6.800000000000000000e+03 4.696643829345703125e+00 1.725228118896484375e+01 1.521525084972381592e-01 -3.613440692424774170e-01 -6.275746226310729980e-02 1.154357269406318665e-01
6.801000000000000000e+03 2.553082084655761719e+01 -1.551718711853027344e+01 -7.279863357543945312e-01 -5.080993771553039551e-01 -3.708257079124450684e-01 -4.123396873474121094e-01
6.802000000000000000e+03 2.676280784606933594e+01 -1.626341629028320312e+01 -4.752153158187866211e-01 -4.945758581161499023e-01 -2.909373342990875244e-01 -3.185684680938720703e-01
6.803000000000000000e+03 5.683139801025390625e+00 1.864407539367675781e+01 1.638252437114715576e-01 -3.627789318561553955e-01 -5.968610569834709167e-02 7.185813784599304199e-02
6.804000000000000000e+03 4.831156253814697266e+00 1.041788578033447266e+01 -1.078305542469024658e-01 -1.126158311963081360e-01 -6.613391637802124023e-02 2.352342009544372559e-01
6.805000000000000000e+03 5.421512603759765625e+00 1.056275177001953125e+01 -1.280179768800735474e-01 -1.157624498009681702e-01 -7.313412427902221680e-02 2.651092410087585449e-01
6.806000000000000000e+03 6.280818939208984375e+00 -1.163821887969970703e+01 -7.465773075819015503e-02 -1.240685656666755676e-01 -5.961788818240165710e-02 -3.236632421612739563e-02
6.807000000000000000e+03 4.647877216339111328e+00 1.644531059265136719e+01 1.517313420772552490e-01 -3.400934636592864990e-01 -5.650863796472549438e-02 1.548259854316711426e-01
6.808000000000000000e+03 5.634652137756347656e+00 2.105834007263183594e+01 2.094648964703083038e-02 -4.272674918174743652e-01 -1.218963041901588440e-01 2.705835923552513123e-02
6.809000000000000000e+03 4.510231494903564453e+00 1.953543472290039062e+01 9.176434576511383057e-02 -4.185173213481903076e-01 -9.802588820457458496e-02 1.602120697498321533e-02
6.810000000000000000e+03 5.412734985351562500e+00 -2.811253356933593750e+01 -8.391323685646057129e-02 -1.257547140121459961e-01 -6.290038675069808960e-02 -5.684988573193550110e-02
6.811000000000000000e+03 4.551836395263671875e+01 -1.596165847778320312e+01 -2.353643327951431274e-01 7.957863211631774902e-01 1.681265980005264282e-01 1.796034127473831177e-01
6.812000000000000000e+03 4.901238441467285156e+00 1.428301715850830078e+01 1.028962284326553345e-01 -2.666247487068176270e-01 -4.911855235695838928e-02 2.580357789993286133e-01
6.813000000000000000e+03 4.927968978881835938e+00 1.340156459808349609e+01 5.492222681641578674e-02 -2.277738749980926514e-01 -5.185549333691596985e-02 2.825341522693634033e-01
6.814000000000000000e+03 5.060430526733398438e+00 2.064788436889648438e+01 4.861944913864135742e-02 -4.318354427814483643e-01 -1.149647906422615051e-01 1.072692684829235077e-02
6.815000000000000000e+03 5.768172264099121094e+00 -1.019486141204833984e+01 -3.347693011164665222e-02 -8.749457448720932007e-02 -3.629145398736000061e-02 -2.909518079832196236e-03
6.816000000000000000e+03 4.852311611175537109e+00 -1.004630470275878906e+01 -1.537407562136650085e-02 -6.505204737186431885e-02 -2.412783727049827576e-02 1.586716063320636749e-02
6.817000000000000000e+03 5.550724029541015625e+00 1.429927825927734375e+01 1.261306703090667725e-01 -2.475854605436325073e-01 -3.643643483519554138e-02 2.824536263942718506e-01
6.818000000000000000e+03 4.315345764160156250e+00 1.449464130401611328e+01 8.615784347057342529e-02 -2.777679264545440674e-01 -5.748302489519119263e-02 2.299815118312835693e-01
6.819000000000000000e+03 1.721706390380859375e+01 -2.215619277954101562e+01 -2.928335666656494141e-01 -2.405440658330917358e-01 -1.600132882595062256e-01 -3.945060670375823975e-01
6.820000000000000000e+03 1.889021110534667969e+01 -2.310425567626953125e+01 -9.402808547019958496e-02 -1.878692954778671265e-02 -3.384450450539588928e-02 -4.018741548061370850e-01
6.821000000000000000e+03 6.057232856750488281e+00 -1.081501388549804688e+01 -4.809887707233428955e-02 -1.028461977839469910e-01 -4.528352245688438416e-02 -1.389261707663536072e-02
6.822000000000000000e+03 5.025009155273437500e+00 1.503124332427978516e+01 1.398215144872665405e-01 -2.879360616207122803e-01 -4.443436488509178162e-02 2.327871173620223999e-01
6.823000000000000000e+03 7.527301025390625000e+01 2.648695755004882812e+01 -2.464917674660682678e-02 6.692970752716064453e+00 2.000496387481689453e+00 -5.012280941009521484e-01
6.824000000000000000e+03 6.546594619750976562e+00 -3.315808868408203125e+01 -8.235727250576019287e-02 -2.483442276716232300e-01 -9.921044856309890747e-02 -2.077567428350448608e-01
6.825000000000000000e+03 5.534553050994873047e+00 -7.470339298248291016e+00 4.887440707534551620e-03 -4.737602546811103821e-02 -1.274657528847455978e-02 1.618560217320919037e-02
6.826000000000000000e+03 6.696831512451171875e+01 1.314017295837402344e+00 1.281614780426025391e+00 3.811300039291381836e+00 1.527874469757080078e+00 2.453378915786743164e+00
6.827000000000000000e+03 6.791384124755859375e+01 1.397904396057128906e+00 1.290844202041625977e+00 3.127016067504882812e+00 1.325358033180236816e+00 2.881828546524047852e+00
6.828000000000000000e+03 5.106177520751953125e+01 2.102315521240234375e+01 -3.923896551132202148e-01 2.903571844100952148e+00 7.533546686172485352e-01 -1.417975544929504395e+00
6.829000000000000000e+03 4.927778720855712891e+00 -6.946165561676025391e+00 6.122307851910591125e-03 -3.465401008725166321e-02 -8.559511043131351471e-03 2.315884642302989960e-02
6.830000000000000000e+03 4.435178756713867188e+00 -7.487221717834472656e+00 5.259599070996046066e-03 -2.647274546325206757e-02 -6.363944150507450104e-03 2.652345784008502960e-02
6.831000000000000000e+03 7.368392181396484375e+01 2.772217178344726562e+01 2.363481968641281128e-01 5.885601520538330078e+00 1.836584806442260742e+00 -5.141628980636596680e-01
6.832000000000000000e+03 7.449022674560546875e+01 2.711456680297851562e+01 9.529598802328109741e-02 6.283449172973632812e+00 1.913623571395874023e+00 -5.323055982589721680e-01
6.833000000000000000e+03 1.090964126586914062e+01 -6.798305034637451172e+00 -1.648274622857570648e-02 -2.863619849085807800e-02 -1.353568304330110550e-02 -4.220891371369361877e-02
6.834000000000000000e+03 8.658790588378906250e+00 -6.417875766754150391e+00 1.378434360958635807e-03 -5.538665130734443665e-02 -1.620246469974517822e-02 -2.187449112534523010e-02
6.835000000000000000e+03 6.375227355957031250e+01 1.568817734718322754e+00 1.901126503944396973e-01 6.490657329559326172e+00 2.004230976104736328e+00 7.422682642936706543e-02
6.836000000000000000e+03 3.680466842651367188e+01 1.933349800109863281e+01 3.396056592464447021e-01 -1.081321462988853455e-01 6.944205611944198608e-02 1.895988136529922485e-01
6.837000000000000000e+03 3.954258728027343750e+01 1.646529197692871094e+01 2.751276493072509766e-01 -1.102365776896476746e-01 4.946731775999069214e-02 -8.087860792875289917e-02
6.838000000000000000e+03 5.664707946777343750e+01 6.621590614318847656e+00 -1.161848306655883789e+00 4.629956245422363281e+00 1.040432333946228027e+00 -1.026786088943481445e+00
6.839000000000000000e+03 5.581629180908203125e+01 5.752426147460937500e+00 -9.681500196456909180e-01 3.448941469192504883e+00 7.442374229431152344e-01 -9.743254184722900391e-01
6.840000000000000000e+03 6.197800827026367188e+01 4.501520156860351562e+00 -2.407170295715332031e+00 6.119925975799560547e+00 1.113826751708984375e+00 -2.074057579040527344e+00
6.841000000000000000e+03 2.585544204711914062e+01 -2.143232154846191406e+01 3.240010514855384827e-02 -2.101793587207794189e-01 -5.333377793431282043e-02 -1.489007472991943359e-01
6.842000000000000000e+03 7.142240142822265625e+01 -3.330503082275390625e+01 1.111165046691894531e+00 4.670541286468505859e+00 1.734511852264404297e+00 -3.348847627639770508e-01
6.843000000000000000e+03 7.309466552734375000e+01 -3.141645812988281250e+01 6.256097555160522461e-01 5.031413555145263672e+00 1.697106957435607910e+00 5.830469727516174316e-01
6.844000000000000000e+03 7.470919036865234375e+01 -3.279629135131835938e+01 3.670565485954284668e-01 6.101002693176269531e+00 1.940417766571044922e+00 3.032073974609375000e-01
6.845000000000000000e+03 7.456865692138671875e+01 -1.378624057769775391e+01 -1.004829406738281250e+00 5.593977451324462891e+00 1.376744389533996582e+00 5.510596036911010742e-01
6.846000000000000000e+03 7.028775691986083984e+00 7.550738334655761719e+00 -2.642118036746978760e-01 -9.581975638866424561e-02 -1.080094724893569946e-01 1.308079808950424194e-01
6.847000000000000000e+03 5.057812500000000000e+01 -1.196438884735107422e+01 -3.084321618080139160e-01 3.095562160015106201e-01 3.372165665496140718e-04 -1.624991595745086670e-01
6.848000000000000000e+03 4.224583053588867188e+01 -1.824307632446289062e+01 4.299583435058593750e-01 3.096199333667755127e-01 2.218734771013259888e-01 -2.521248459815979004e-01
6.849000000000000000e+03 6.008842086791992188e+01 -2.260845375061035156e+01 1.885963559150695801e+00 3.160431146621704102e+00 1.513918399810791016e+00 1.509530663490295410e+00
6.850000000000000000e+03 6.795637130737304688e+00 6.452878475189208984e+00 -2.249846905469894409e-01 -6.922797858715057373e-02 -8.826379477977752686e-02 7.189267128705978394e-02
6.851000000000000000e+03 7.466516876220703125e+01 1.726178288459777832e+00 -2.869024574756622314e-01 5.894002437591552734e+00 1.682129979133605957e+00 -3.029582798480987549e-01
6.852000000000000000e+03 6.658711242675781250e+01 2.626036834716796875e+01 1.434646487236022949e+00 3.249682664871215820e+00 1.405298709869384766e+00 3.378802537918090820e-01
6.853000000000000000e+03 6.896833038330078125e+01 2.323685073852539062e+01 -4.843660593032836914e-01 2.912488222122192383e+00 7.284366488456726074e-01 -1.239114165306091309e+00
6.854000000000000000e+03 7.415713500976562500e+01 3.470959854125976562e+01 1.355657130479812622e-01 6.156307697296142578e+00 1.887561917304992676e+00 3.832342848181724548e-02
6.855000000000000000e+03 7.147631072998046875e+01 3.314466094970703125e+01 3.417102396488189697e-01 5.356598854064941406e+00 1.709492683410644531e+00 8.803939819335937500e-02
6.856000000000000000e+03 9.528364181518554688e+00 -8.645980834960937500e+00 -3.097513131797313690e-02 -7.620607316493988037e-02 -3.215436264872550964e-02 -5.064618960022926331e-02
6.857000000000000000e+03 5.941744232177734375e+01 4.680739879608154297e+00 -2.110408067703247070e+00 6.324487209320068359e+00 1.264223814010620117e+00 -2.274922847747802734e+00
6.858000000000000000e+03 6.206670379638671875e+01 -1.268303871154785156e+01 -1.714224934577941895e+00 8.685691833496093750e+00 2.091440200805664062e+00 1.295265316963195801e+00
6.859000000000000000e+03 2.578664588928222656e+01 -1.650847625732421875e+01 -4.938637912273406982e-01 -4.790503978729248047e-01 -2.918742597103118896e-01 -3.384770154953002930e-01
6.860000000000000000e+03 2.537409210205078125e+01 -1.713863563537597656e+01 -4.020366072654724121e-01 -4.456339478492736816e-01 -2.543011605739593506e-01 -3.294142186641693115e-01
6.861000000000000000e+03 5.908314514160156250e+01 -1.328511333465576172e+01 -8.841344714164733887e-01 4.961764812469482422e+00 1.223289132118225098e+00 2.438918352127075195e+00
6.862000000000000000e+03 6.593280792236328125e+01 2.636188125610351562e+01 1.554461359977722168e+00 3.532621622085571289e+00 1.526124835014343262e+00 6.771095395088195801e-01
6.863000000000000000e+03 6.870025634765625000e+01 2.423640060424804688e+01 2.435027956962585449e-01 2.990717887878417969e+00 9.702662229537963867e-01 -9.146207571029663086e-01
6.864000000000000000e+03 5.646665573120117188e+01 2.009816551208496094e+01 -2.456039935350418091e-01 2.897007465362548828e+00 7.954210638999938965e-01 -1.745153665542602539e+00
6.865000000000000000e+03 5.797959136962890625e+01 1.958661842346191406e+01 1.951534450054168701e-01 3.146619558334350586e+00 1.002531886100769043e+00 -7.170751094818115234e-01
6.866000000000000000e+03 5.331490707397460938e+01 2.181483268737792969e+01 -1.012038588523864746e+00 3.847649812698364258e+00 8.506833314895629883e-01 -1.750850081443786621e+00
6.867000000000000000e+03 2.136019325256347656e+01 -1.841644859313964844e+01 -3.186154365539550781e-01 -1.883497983217239380e-01 -1.520895659923553467e-01 -4.823780953884124756e-01
6.868000000000000000e+03 5.917008972167968750e+01 -2.118198966979980469e+01 1.619722604751586914e+00 3.777081966400146484e+00 1.619041442871093750e+00 1.545316934585571289e+00
6.869000000000000000e+03 9.820998191833496094e+00 -9.385081291198730469e+00 -5.500283464789390564e-02 -7.932142168283462524e-02 -4.029727727174758911e-02 -6.762896478176116943e-02
6.870000000000000000e+03 1.959989547729492188e+01 -1.941414070129394531e+01 -3.178945183753967285e-01 -7.802581787109375000e-02 -1.187761053442955017e-01 -5.312622189521789551e-01
6.871000000000000000e+03 5.217435455322265625e+01 2.266470527648925781e+01 -6.712183356285095215e-01 3.765671253204345703e+00 9.283358454704284668e-01 -1.159944534301757812e+00
6.872000000000000000e+03 1.012981986999511719e+01 -2.686895751953125000e+01 -1.035027503967285156e-01 -2.161631882190704346e-01 -9.589978307485580444e-02 -2.118161767721176147e-01
6.873000000000000000e+03 3.322805404663085938e+01 -8.860915184020996094e+00 -1.536085158586502075e-01 -1.693137139081954956e-01 -9.687666594982147217e-02 -4.188548326492309570e-01
6.874000000000000000e+03 3.618419265747070312e+01 1.794105339050292969e+01 4.042622148990631104e-01 -2.105968147516250610e-01 5.809961631894111633e-02 2.405992299318313599e-01
6.875000000000000000e+03 2.596789932250976562e+01 1.136403656005859375e+01 2.215346544981002808e-01 3.836963698267936707e-02 7.797128707170486450e-02 1.183581277728080750e-01
6.876000000000000000e+03 2.686698532104492188e+01 1.076059246063232422e+01 2.655449807643890381e-01 2.047072798013687134e-01 1.410756856203079224e-01 1.518468558788299561e-01
6.877000000000000000e+03 5.865891265869140625e+01 4.603122234344482422e+00 -1.857521891593933105e+00 5.854634761810302734e+00 1.199133872985839844e+00 -2.194401741027832031e+00
6.878000000000000000e+03 5.750990295410156250e+01 1.717558479309082031e+01 1.459910273551940918e+00 4.453059673309326172e+00 1.773891091346740723e+00 -9.674426913261413574e-01
6.879000000000000000e+03 5.750317764282226562e+01 1.909383201599121094e+01 4.843973219394683838e-01 3.365933895111083984e+00 1.155099391937255859e+00 -1.073059082031250000e+00
6.880000000000000000e+03 6.309433364868164062e+01 -1.158912944793701172e+01 -7.010589838027954102e-01 9.417623519897460938e+00 2.614969491958618164e+00 4.532247483730316162e-01
6.881000000000000000e+03 6.338803100585937500e+01 -1.357651996612548828e+01 -2.060940980911254883e+00 8.226449966430664062e+00 1.849652767181396484e+00 8.060914874076843262e-01
6.882000000000000000e+03 6.417256164550781250e+01 -1.382404708862304688e+01 -2.079475402832031250e+00 7.656152725219726562e+00 1.673003196716308594e+00 5.677179694175720215e-01
6.883000000000000000e+03 6.429364013671875000e+01 -1.437571811676025391e+01 -2.387056827545166016e+00 7.267933368682861328e+00 1.464262843132019043e+00 6.587769389152526855e-01
6.884000000000000000e+03 4.673131942749023438e+00 2.127197456359863281e+01 1.539844553917646408e-02 -4.568290412425994873e-01 -1.324291825294494629e-01 -8.634026744402945042e-04
6.885000000000000000e+03 5.611240768432617188e+01 1.748390007019042969e+01 1.225101232528686523e+00 3.895900011062622070e+00 1.536300301551818848e+00 -1.568045377731323242e+00
6.886000000000000000e+03 6.977794647216796875e+00 -3.452774047851562500e+01 -3.585674986243247986e-02 -2.843367755413055420e-01 -9.605806320905685425e-02 -2.356094121932983398e-01
6.887000000000000000e+03 7.374366760253906250e+01 1.828589057922363281e+01 -1.018969416618347168e+00 8.155213356018066406e+00 2.140873193740844727e+00 4.991208016872406006e-01
6.888000000000000000e+03 1.876769447326660156e+01 -1.826709365844726562e+01 -2.862496674060821533e-01 -1.073577702045440674e-01 -1.180822327733039856e-01 -5.571021437644958496e-01
6.889000000000000000e+03 1.904286384582519531e+01 -1.962673187255859375e+01 -3.458152711391448975e-01 -6.987748295068740845e-02 -1.247078254818916321e-01 -5.445288419723510742e-01
6.890000000000000000e+03 6.032883834838867188e+01 4.079386234283447266e+00 -2.144059896469116211e+00 6.683192253112792969e+00 1.361739635467529297e+00 -2.401747941970825195e+00
6.891000000000000000e+03 5.929442596435546875e+01 5.398081302642822266e+00 -2.191312789916992188e+00 6.367201328277587891e+00 1.252766609191894531e+00 -1.997069239616394043e+00
6.892000000000000000e+03 6.159474945068359375e+01 -1.829048156738281250e+01 -9.260546416044235229e-03 6.415006160736083984e+00 1.921723604202270508e+00 6.237712875008583069e-02
6.893000000000000000e+03 6.241490554809570312e+01 -1.682845878601074219e+01 -1.557554244995117188e+00 7.545327186584472656e+00 1.796332001686096191e+00 1.001875996589660645e-01
6.894000000000000000e+03 2.974643135070800781e+01 -3.613930892944335938e+01 2.120673209428787231e-01 6.785702705383300781e-02 8.397730439901351929e-02 3.911862894892692566e-02
6.895000000000000000e+03 7.124889373779296875e+01 -2.953087615966796875e+01 7.053722739219665527e-01 3.113067388534545898e+00 1.145531892776489258e+00 9.440063238143920898e-01
6.896000000000000000e+03 3.432624435424804688e+01 -1.287917613983154297e+01 -5.409508943557739258e-01 9.814701974391937256e-02 -1.328411698341369629e-01 7.840071618556976318e-02
6.897000000000000000e+03 4.043294906616210938e+01 1.825151443481445312e+01 2.396935671567916870e-01 1.348012685775756836e-01 1.123484447598457336e-01 7.785780355334281921e-03
6.898000000000000000e+03 5.814524459838867188e+01 8.457440376281738281e+00 -6.579852700233459473e-01 6.146211624145507812e+00 1.646467924118041992e+00 -7.347621917724609375e-01
6.899000000000000000e+03 5.844690704345703125e+01 2.005200195312500000e+01 -1.776260137557983398e-01 2.939791917800903320e+00 8.286497592926025391e-01 -3.095603585243225098e-01
6.900000000000000000e+03 3.956406021118164062e+01 1.782437705993652344e+01 2.922050654888153076e-01 -2.512113004922866821e-02 8.012517541646957397e-02 -2.965050749480724335e-03
6.901000000000000000e+03 5.174243164062500000e+01 2.360431480407714844e+01 -3.329361081123352051e-01 3.738200187683105469e+00 1.021579265594482422e+00 -7.677178382873535156e-01
6.902000000000000000e+03 5.130771255493164062e+01 2.464601325988769531e+01 1.707330942153930664e-01 3.648785591125488281e+00 1.145855545997619629e+00 -4.737936258316040039e-01
6.903000000000000000e+03 4.297598648071289062e+01 1.961565208435058594e+01 7.131393998861312866e-02 5.779741406440734863e-01 1.947864294052124023e-01 2.160670161247253418e-01
6.904000000000000000e+03 7.171961784362792969e+00 8.590551376342773438e+00 -2.826983630657196045e-01 -1.157470643520355225e-01 -1.195336356759071350e-01 1.924476176500320435e-01
6.905000000000000000e+03 4.911912918090820312e+01 2.485151672363281250e+01 4.967437684535980225e-01 2.557058572769165039e+00 9.161406755447387695e-01 -2.414933145046234131e-01
6.906000000000000000e+03 1.352955150604248047e+01 -7.843292713165283203e+00 -5.404769256711006165e-02 3.904864937067031860e-02 -4.499713424593210220e-03 -2.197846211493015289e-02
6.907000000000000000e+03 4.950941467285156250e+01 2.695334053039550781e+01 8.247907757759094238e-01 2.931872129440307617e+00 1.126998901367187500e+00 -4.094466567039489746e-01
6.908000000000000000e+03 6.519989013671875000e+01 3.807360649108886719e+00 -7.181395292282104492e-01 3.011588096618652344e+00 6.880345344543457031e-01 2.998979687690734863e-01
6.909000000000000000e+03 6.392343521118164062e+01 3.643543481826782227e+00 -1.267638325691223145e+00 4.628044605255126953e+00 1.008121967315673828e+00 -7.500173449516296387e-01
6.910000000000000000e+03 4.427930831909179688e+01 -2.299042892456054688e+01 3.892104327678680420e-01 1.022202610969543457e+00 4.234238862991333008e-01 1.222009509801864624e-01
6.911000000000000000e+03 6.554954528808593750e+01 2.250876188278198242e+00 4.252723753452301025e-01 4.098625659942626953e+00 1.357169389724731445e+00 1.263411283493041992e+00
6.912000000000000000e+03 5.836648941040039062e+01 7.669909000396728516e+00 -1.250944375991821289e+00 6.213438034057617188e+00 1.488748073577880859e+00 -9.775503873825073242e-01
6.913000000000000000e+03 6.643763732910156250e+01 3.513475418090820312e+00 -1.186178773641586304e-01 2.417991638183593750e+00 6.898121237754821777e-01 1.630635142326354980e+00
6.914000000000000000e+03 5.874782943725585938e+01 -1.774923324584960938e+01 -2.167114019393920898e-01 4.697824478149414062e+00 1.344334006309509277e+00 1.064912676811218262e+00
6.915000000000000000e+03 3.352450180053710938e+01 -1.024110221862792969e+01 -1.821341961622238159e-01 -4.792554304003715515e-02 -6.901792436838150024e-02 -1.876862198114395142e-01
6.916000000000000000e+03 6.653446197509765625e+01 2.476758575439453125e+01 9.268649816513061523e-01 2.617285490036010742e+00 1.063245177268981934e+00 1.357412040233612061e-01
6.917000000000000000e+03 2.798414802551269531e+01 -2.888286018371582031e+01 3.727177977561950684e-01 -1.179909110069274902e-01 7.641806453466415405e-02 -2.338012158870697021e-01
6.918000000000000000e+03 2.655309104919433594e+01 -1.788662719726562500e+01 -2.173950523138046265e-01 -4.195311367511749268e-01 -1.910778582096099854e-01 -2.231071144342422485e-01
6.919000000000000000e+03 2.393599128723144531e+01 -2.241645431518554688e+01 6.827910244464874268e-02 -1.233100146055221558e-01 -1.650927402079105377e-02 -2.021117955446243286e-01
6.920000000000000000e+03 6.985636138916015625e+01 2.522733688354492188e+00 7.446743249893188477e-01 2.836220741271972656e+00 1.074268460273742676e+00 2.728418350219726562e+00
6.921000000000000000e+03 2.654163169860839844e+01 -2.428905677795410156e+01 2.827043533325195312e-01 -1.506123691797256470e-01 3.962759301066398621e-02 -1.618975996971130371e-01
6.922000000000000000e+03 2.527741622924804688e+01 -2.333733940124511719e+01 1.878349632024765015e-01 -1.616857498884201050e-01 7.844761013984680176e-03 -1.587050557136535645e-01
6.923000000000000000e+03 4.091443634033203125e+01 1.622601890563964844e+01 1.803336143493652344e-01 1.651538759469985962e-01 1.036462485790252686e-01 -1.731953322887420654e-01
6.924000000000000000e+03 6.963852691650390625e+01 3.564996719360351562e+00 9.043265134096145630e-02 3.128195524215698242e+00 9.655885100364685059e-01 2.824920654296875000e+00
6.925000000000000000e+03 4.199463653564453125e+01 1.868944740295410156e+01 1.111168861389160156e-01 4.429817497730255127e-01 1.662295907735824585e-01 6.467603147029876709e-02
6.926000000000000000e+03 2.413421440124511719e+01 -2.384840965270996094e+01 2.290707230567932129e-01 -1.075378805398941040e-01 3.645985201001167297e-02 -1.584280282258987427e-01
6.927000000000000000e+03 8.028075218200683594e+00 -6.887887477874755859e+00 4.025325644761323929e-03 -5.999960005283355713e-02 -1.679228246212005615e-02 -1.678210310637950897e-02
6.928000000000000000e+03 3.185573577880859375e+01 -1.317794895172119141e+01 -6.953074932098388672e-01 -2.223483026027679443e-01 -2.752967476844787598e-01 8.286161720752716064e-02
6.929000000000000000e+03 6.257986831665039062e+01 -1.582052135467529297e+01 -2.221716642379760742e+00 7.825635433197021484e+00 1.681175708770751953e+00 5.240803360939025879e-01
6.930000000000000000e+03 3.375547790527343750e+01 -9.517024993896484375e+00 -7.523348182439804077e-02 -4.671325907111167908e-03 -2.397144213318824768e-02 -3.093028664588928223e-01
6.931000000000000000e+03 7.306587982177734375e+01 2.171366310119628906e+01 -1.261029839515686035e+00 6.571130275726318359e+00 1.593030214309692383e+00 -6.725974082946777344e-01
6.932000000000000000e+03 6.276005172729492188e+01 -8.942332118749618530e-03 1.054353833198547363e+00 8.699746131896972656e+00 2.926229953765869141e+00 -3.276863992214202881e-01
6.933000000000000000e+03 6.374947738647460938e+01 5.482717156410217285e-01 8.494345545768737793e-01 7.306387424468994141e+00 2.446746587753295898e+00 3.784767985343933105e-01
6.934000000000000000e+03 7.117295074462890625e+01 -3.437932586669921875e+01 9.012950062751770020e-01 4.942799091339111328e+00 1.753228187561035156e+00 -5.479259490966796875e-01
6.935000000000000000e+03 6.223726272583007812e+01 2.826023101806640625e+00 -1.307999134063720703e+00 6.677379608154296875e+00 1.610814094543457031e+00 -1.588077783584594727e+00
6.936000000000000000e+03 6.129257965087890625e+01 3.487231731414794922e+00 -1.896288633346557617e+00 6.823388576507568359e+00 1.478129982948303223e+00 -2.178659439086914062e+00
6.937000000000000000e+03 6.247793579101562500e+01 -1.182475185394287109e+01 -1.082021355628967285e+00 9.379942893981933594e+00 2.489376544952392578e+00 9.427586197853088379e-01
6.938000000000000000e+03 6.115833282470703125e+01 4.265752792358398438e+00 -2.303796529769897461e+00 6.598653793334960938e+00 1.288457155227661133e+00 -2.236336469650268555e+00
6.939000000000000000e+03 8.122253417968750000e+00 -2.640424537658691406e+01 -8.247236162424087524e-02 -6.466639041900634766e-02 -4.414162412285804749e-02 -1.255808621644973755e-01
6.940000000000000000e+03 9.320901870727539062e+00 -2.775015068054199219e+01 -1.341687887907028198e-01 -1.875214278697967529e-01 -9.650706499814987183e-02 -1.819243282079696655e-01
6.941000000000000000e+03 7.483233928680419922e+00 -2.663739776611328125e+01 -8.410263806581497192e-02 -6.348381191492080688e-02 -4.427593573927879333e-02 -9.561865031719207764e-02
6.942000000000000000e+03 5.490444564819335938e+01 1.955873870849609375e+01 -8.398554474115371704e-02 3.451466560363769531e+00 1.010244369506835938e+00 -2.058053255081176758e+00
6.943000000000000000e+03 5.547048568725585938e+01 1.901215744018554688e+01 2.950779497623443604e-01 3.442017555236816406e+00 1.121128678321838379e+00 -1.896111488342285156e+00
6.944000000000000000e+03 1.051217269897460938e+01 -2.831924438476562500e+01 -1.516047120094299316e-01 -2.904863357543945312e-01 -1.326273232698440552e-01 -2.107572108507156372e-01
6.945000000000000000e+03 8.928150177001953125e+00 -2.809476280212402344e+01 -1.465728878974914551e-01 -1.788647621870040894e-01 -9.763129800558090210e-02 -1.675296425819396973e-01
6.946000000000000000e+03 5.135932922363281250e+01 -2.828244781494140625e+01 8.084117770195007324e-01 1.934275984764099121e+00 8.228063583374023438e-01 2.507635056972503662e-01
6.947000000000000000e+03 5.039366531372070312e+01 2.805665206909179688e+01 9.503024220466613770e-01 3.422763824462890625e+00 1.311919808387756348e+00 -5.423993468284606934e-01
6.948000000000000000e+03 6.319329071044921875e+01 7.501287460327148438e-01 5.354413986206054688e-01 7.584575176239013672e+00 2.436004877090454102e+00 -1.464064568281173706e-01
6.949000000000000000e+03 7.006201934814453125e+01 -2.995699691772460938e+01 1.436754941940307617e+00 2.944672822952270508e+00 1.314428329467773438e+00 3.188326209783554077e-02
6.950000000000000000e+03 6.926611328125000000e+01 -2.960699462890625000e+01 1.429528832435607910e+00 2.641597509384155273e+00 1.221337914466857910e+00 -4.573289752006530762e-01
6.951000000000000000e+03 5.012424087524414062e+01 2.594818305969238281e+01 7.188754677772521973e-01 3.159411668777465820e+00 1.163486123085021973e+00 -3.709263801574707031e-01
6.952000000000000000e+03 1.167752170562744141e+01 -5.999730110168457031e+00 -2.048570429906249046e-03 -1.665117591619491577e-02 -5.609923508018255234e-03 -3.678762912750244141e-02
6.953000000000000000e+03 4.952605056762695312e+01 2.986320304870605469e+01 8.787022829055786133e-01 3.006532907485961914e+00 1.165570616722106934e+00 -6.269984245300292969e-01
6.954000000000000000e+03 7.458240509033203125e+01 1.477519702911376953e+01 9.547436833381652832e-01 9.035115242004394531e+00 2.996957778930664062e+00 8.792509436607360840e-01
6.955000000000000000e+03 2.488467407226562500e+01 -2.229754257202148438e+01 8.469686657190322876e-02 -1.649947017431259155e-01 -2.408934943377971649e-02 -1.771262586116790771e-01
6.956000000000000000e+03 5.699589157104492188e+01 2.061034774780273438e+01 -5.440133213996887207e-01 2.462366819381713867e+00 5.755060315132141113e-01 -1.543755650520324707e+00
6.957000000000000000e+03 7.051774597167968750e+01 -3.104656791687011719e+01 1.493438243865966797e+00 3.634640932083129883e+00 1.538423776626586914e+00 -8.484462648630142212e-02
6.958000000000000000e+03 4.926288604736328125e+01 -1.430667591094970703e+01 -5.576283335685729980e-01 8.789354562759399414e-01 9.639213234186172485e-02 3.864203691482543945e-01
6.959000000000000000e+03 2.151956558227539062e+01 -2.334947967529296875e+01 4.917026683688163757e-02 5.811594054102897644e-02 3.218586370348930359e-02 -2.391211986541748047e-01
6.960000000000000000e+03 1.817678070068359375e+01 -2.382442665100097656e+01 1.258868165314197540e-02 -9.932667762041091919e-02 -2.602139860391616821e-02 -3.916860818862915039e-01
6.961000000000000000e+03 1.895448112487792969e+01 -2.202311897277832031e+01 -2.386937737464904785e-01 -3.346531838178634644e-02 -8.164772391319274902e-02 -4.269782602787017822e-01
6.962000000000000000e+03 2.651982879638671875e+01 1.019490051269531250e+01 3.122851252555847168e-01 1.799827665090560913e-01 1.476803719997406006e-01 1.441335082054138184e-01
6.963000000000000000e+03 5.389708328247070312e+01 2.133554840087890625e+01 -1.042786478996276855e+00 3.717156887054443359e+00 8.023111224174499512e-01 -1.932557702064514160e+00
6.964000000000000000e+03 5.650796127319335938e+01 -1.438863945007324219e+01 -2.040408253669738770e-01 1.943234205245971680e+00 5.217580199241638184e-01 1.086855530738830566e+00
6.965000000000000000e+03 5.595130157470703125e+01 -1.487708377838134766e+01 -1.891928166151046753e-01 1.515624880790710449e+00 3.979296088218688965e-01 7.237631678581237793e-01
6.966000000000000000e+03 7.207635498046875000e+01 1.916098713874816895e+00 6.086760759353637695e-01 3.444574594497680664e+00 1.215975165367126465e+00 1.096224188804626465e+00
6.967000000000000000e+03 7.372978210449218750e+01 2.027748346328735352e+00 -6.562650948762893677e-02 5.083172321319580078e+00 1.505263686180114746e+00 1.922544441185891628e-03
6.968000000000000000e+03 5.127882003784179688e+01 -1.326882648468017578e+01 -1.836744695901870728e-01 7.391072064638137817e-02 -3.292912617325782776e-02 6.184962764382362366e-02
6.969000000000000000e+03 5.588404464721679688e+01 -2.678190803527832031e+01 -5.254250168800354004e-01 5.336387157440185547e+00 1.443288683891296387e+00 1.618722438812255859e+00
6.970000000000000000e+03 3.442155075073242188e+01 -1.207646846771240234e+01 -3.807966113090515137e-01 1.984076350927352905e-01 -5.471669510006904602e-02 4.000483825802803040e-02
6.971000000000000000e+03 1.781459617614746094e+01 -1.431577110290527344e+01 -2.022982835769653320e-01 4.367025941610336304e-02 -4.758840426802635193e-02 -5.762328580021858215e-02
6.972000000000000000e+03 4.873549652099609375e+01 3.013820457458496094e+01 8.447507023811340332e-01 2.717791318893432617e+00 1.068762540817260742e+00 -6.381215453147888184e-01
6.973000000000000000e+03 1.027768993377685547e+01 -7.205489158630371094e+00 -1.287756673991680145e-02 -4.537433385848999023e-02 -1.747556962072849274e-02 -4.610720649361610413e-02
6.974000000000000000e+03 7.318019104003906250e+01 -3.433493041992187500e+01 6.403232812881469727e-01 5.468884468078613281e+00 1.832762360572814941e+00 -1.309736520051956177e-01
6.975000000000000000e+03 2.932305717468261719e+01 -3.201848983764648438e+01 2.326954454183578491e-01 2.514840289950370789e-02 7.735314965248107910e-02 -1.565782427787780762e-01
6.976000000000000000e+03 2.905414962768554688e+01 -3.292071533203125000e+01 1.903295665979385376e-01 9.288521483540534973e-03 5.988542735576629639e-02 -1.032763347029685974e-01
6.977000000000000000e+03 5.932687759399414062e+01 -2.273137855529785156e+01 1.688144326210021973e+00 3.173929691314697266e+00 1.458622217178344727e+00 1.863694310188293457e+00
6.978000000000000000e+03 1.154882431030273438e+01 -6.610414505004882812e+00 -1.657698489725589752e-02 -2.068677172064781189e-02 -1.117912679910659790e-02 -4.623798653483390808e-02
6.979000000000000000e+03 7.392089843750000000e+01 7.407623291015625000e+00 -2.955704927444458008e-01 8.110102653503417969e+00 2.344359636306762695e+00 -2.111191600561141968e-01
6.980000000000000000e+03 6.606607055664062500e+01 -1.337533473968505859e+01 -5.865979790687561035e-01 4.960783958435058594e+00 1.312255859375000000e+00 -4.284461438655853271e-01
6.981000000000000000e+03 8.505909919738769531e+00 1.982353591918945312e+01 1.278608441352844238e-01 -1.767773330211639404e-01 -1.467494573444128036e-02 1.338373273611068726e-01
6.982000000000000000e+03 5.655450057983398438e+01 1.805211830139160156e+01 9.699028730392456055e-01 3.757926702499389648e+00 1.418348908424377441e+00 -1.456870436668395996e+00
6.983000000000000000e+03 6.105747222900390625e+00 1.503959274291992188e+01 1.845910251140594482e-01 -2.512338459491729736e-01 -1.999284699559211731e-02 2.673511207103729248e-01
6.984000000000000000e+03 7.139627075195312500e+01 5.322375774383544922e+00 -8.474645018577575684e-01 5.464795589447021484e+00 1.385199427604675293e+00 1.923884034156799316e+00
6.985000000000000000e+03 7.371566772460937500e+01 1.959688568115234375e+01 -1.317133665084838867e+00 7.620701789855957031e+00 1.891070365905761719e+00 1.153601706027984619e-01
6.986000000000000000e+03 5.195352554321289062e+01 -1.187397193908691406e+01 -2.009653300046920776e-01 -1.784386187791824341e-01 -1.138211861252784729e-01 -5.783824622631072998e-02
6.987000000000000000e+03 2.590896224975585938e+01 1.057621192932128906e+01 2.850234806537628174e-01 5.402514338493347168e-02 1.017145887017250061e-01 1.243211701512336731e-01
6.988000000000000000e+03 7.052723693847656250e+01 3.035377502441406250e+01 6.897031664848327637e-01 4.801716327667236328e+00 1.647425889968872070e+00 -1.195991784334182739e-02
6.989000000000000000e+03 6.767482757568359375e+01 2.754554748535156250e+01 1.256504058837890625e+00 3.669312953948974609e+00 1.477745056152343750e+00 1.514618247747421265e-01
6.990000000000000000e+03 4.340529632568359375e+01 -1.705287551879882812e+01 2.245364934206008911e-01 2.304739356040954590e-01 1.365031301975250244e-01 -1.466190814971923828e-01
6.991000000000000000e+03 4.283701705932617188e+01 -1.798017120361328125e+01 4.262911379337310791e-01 2.998996973037719727e-01 2.178572565317153931e-01 -2.077662050724029541e-01
6.992000000000000000e+03 2.407148933410644531e+01 7.047781944274902344e+00 2.219287902116775513e-01 -1.493457704782485962e-01 2.177490666508674622e-02 1.604171395301818848e-01
6.993000000000000000e+03 6.090264320373535156e+00 -3.203913497924804688e+01 -9.585577994585037231e-02 -2.220900207757949829e-01 -9.538374096155166626e-02 -1.741157770156860352e-01
6.994000000000000000e+03 1.264376258850097656e+01 -7.127723693847656250e+00 -3.556422144174575806e-02 9.200630709528923035e-03 -7.909077219665050507e-03 -3.362348675727844238e-02
6.995000000000000000e+03 8.175036430358886719e+00 -1.025248813629150391e+01 -6.548649817705154419e-02 -1.212904006242752075e-01 -5.603306740522384644e-02 -4.586597159504890442e-02
6.996000000000000000e+03 3.541386032104492188e+01 1.573820495605468750e+01 3.037579953670501709e-01 -3.223598301410675049e-01 -5.580545868724584579e-03 2.946018576622009277e-01
6.997000000000000000e+03 3.757169723510742188e+01 1.865537834167480469e+01 3.731744885444641113e-01 -1.626109182834625244e-01 6.316906958818435669e-02 1.375712603330612183e-01
6.998000000000000000e+03 2.543249511718750000e+01 -2.605618667602539062e+01 4.212211072444915771e-01 -1.749834269285202026e-01 7.387129962444305420e-02 -1.606606692075729370e-01
6.999000000000000000e+03 6.036139678955078125e+01 -1.924394607543945312e+01 7.455802559852600098e-01 5.108139514923095703e+00 1.756116032600402832e+00 6.552219390869140625e-01
7.000000000000000000e+03 6.042967605590820312e+01 -2.082170295715332031e+01 1.729317426681518555e+00 4.341522216796875000e+00 1.821251869201660156e+00 8.644198179244995117e-01
7.001000000000000000e+03 6.079406738281250000e+01 -1.982173347473144531e+01 1.261816263198852539e+00 5.101471424102783203e+00 1.908986330032348633e+00 4.725544750690460205e-01
7.002000000000000000e+03 5.104457092285156250e+01 2.391101837158203125e+01 -4.859599471092224121e-02 3.462472200393676758e+00 1.024162888526916504e+00 -6.465830206871032715e-01
7.003000000000000000e+03 2.604059982299804688e+01 8.018049240112304688e+00 3.416913151741027832e-01 9.527301788330078125e-02 1.310892999172210693e-01 1.474950760602951050e-01
7.004000000000000000e+03 3.111852836608886719e+01 3.333134460449218750e+01 3.363635540008544922e-01 1.168830096721649170e-01 1.359739601612091064e-01 1.361095905303955078e-01
7.005000000000000000e+03 6.160190200805664062e+01 -2.198619461059570312e+01 2.341857433319091797e+00 4.366838932037353516e+00 2.012608766555786133e+00 3.491137623786926270e-01
7.006000000000000000e+03 2.804433059692382812e+01 -1.653636550903320312e+01 -3.390003740787506104e-01 -4.180449545383453369e-01 -2.271136045455932617e-01 -2.363009601831436157e-01
7.007000000000000000e+03 6.050912475585937500e+01 -1.256518936157226562e+01 -1.435948848724365234e+00 7.673532485961914062e+00 1.871275186538696289e+00 2.371106624603271484e+00
7.008000000000000000e+03 4.853087997436523438e+01 2.939914703369140625e+01 8.443268537521362305e-01 2.645233392715454102e+00 1.046868085861206055e+00 -6.161558628082275391e-01
7.009000000000000000e+03 5.026593780517578125e+01 2.886746406555175781e+01 9.826225638389587402e-01 3.342543840408325195e+00 1.297549962997436523e+00 -5.654716491699218750e-01
7.010000000000000000e+03 7.260647583007812500e+01 2.931130647659301758e+00 3.987497091293334961e-02 4.640232086181640625e+00 1.404032111167907715e+00 9.801254868507385254e-01
7.011000000000000000e+03 7.215776062011718750e+01 4.732544422149658203e+00 -6.347152590751647949e-01 5.612061500549316406e+00 1.493203878402709961e+00 1.396450042724609375e+00
7.012000000000000000e+03 3.987970733642578125e+01 1.698295402526855469e+01 2.581660151481628418e-01 -1.255580317229032516e-02 7.368306815624237061e-02 -6.702384352684020996e-02
7.013000000000000000e+03 6.892530059814453125e+01 2.547894001007080078e+00 7.071054577827453613e-01 2.774139404296875000e+00 1.044373393058776855e+00 2.882897615432739258e+00
7.014000000000000000e+03 6.015464305877685547e+00 1.091230010986328125e+01 -1.359680742025375366e-01 -1.315562874078750610e-01 -8.025731146335601807e-02 2.946604788303375244e-01
7.015000000000000000e+03 2.602485084533691406e+01 -2.675444793701171875e+01 4.466670453548431396e-01 -1.892199963331222534e-01 7.723411172628402710e-02 -1.926290988922119141e-01
7.016000000000000000e+03 3.291302871704101562e+01 -3.410189437866210938e+01 3.469786942005157471e-01 2.744552195072174072e-01 1.864301711320877075e-01 -3.329287096858024597e-02
7.017000000000000000e+03 2.429562377929687500e+01 3.259668731689453125e+01 2.754792943596839905e-02 2.401205003261566162e-01 8.030052483081817627e-02 1.850941330194473267e-01
7.018000000000000000e+03 5.522273063659667969e+00 -3.155430412292480469e+01 -9.209071844816207886e-02 -2.180136442184448242e-01 -9.303130954504013062e-02 -1.469269841909408569e-01
7.019000000000000000e+03 9.830612182617187500e+00 -2.956277465820312500e+01 -1.904592067003250122e-01 -2.623469829559326172e-01 -1.358418464660644531e-01 -2.047315686941146851e-01
7.020000000000000000e+03 5.889446258544921875e+00 -2.914952087402343750e+01 -1.088837012648582458e-01 -1.479035764932632446e-01 -7.703617960214614868e-02 -9.375304728746414185e-02
7.021000000000000000e+03 4.896739959716796875e+01 3.591269302368164062e+01 -9.895280003547668457e-03 2.487066984176635742e+00 7.431514859199523926e-01 -4.681887328624725342e-01
7.022000000000000000e+03 5.126358032226562500e+01 3.397558593750000000e+01 1.275337040424346924e-01 3.216299533843994141e+00 1.003149986267089844e+00 -3.665544688701629639e-01
7.023000000000000000e+03 7.320207214355468750e+01 3.369951248168945312e+01 2.279423773288726807e-01 5.852238178253173828e+00 1.824054121971130371e+00 1.378936413675546646e-02
7.024000000000000000e+03 7.852007389068603516e+00 -3.667139434814453125e+01 7.264047116041183472e-02 -3.359444141387939453e-01 -7.899118959903717041e-02 -2.332432419061660767e-01
7.025000000000000000e+03 6.468726634979248047e+00 -3.656087112426757812e+01 5.039270222187042236e-02 -3.358025550842285156e-01 -8.562295883893966675e-02 -2.100055962800979614e-01
7.026000000000000000e+03 2.831546020507812500e+01 3.458277893066406250e+01 2.778438329696655273e-01 8.900509029626846313e-02 1.100546792149543762e-01 1.978752166032791138e-01
7.027000000000000000e+03 6.969759368896484375e+01 3.698445510864257812e+01 -1.609604433178901672e-02 4.957157135009765625e+00 1.482318282127380371e+00 8.956605195999145508e-02
7.028000000000000000e+03 7.202379608154296875e+01 -3.733819580078125000e+01 1.329050362110137939e-01 5.600521564483642578e+00 1.720028042793273926e+00 -4.577834904193878174e-01
7.029000000000000000e+03 7.222350311279296875e+01 -4.138445663452148438e+01 -3.617472648620605469e-01 6.033921718597412109e+00 1.701652407646179199e+00 -1.067245900630950928e-01
7.030000000000000000e+03 6.879212188720703125e+01 3.294871139526367188e+01 3.842647969722747803e-01 4.676740169525146484e+00 1.518301486968994141e+00 2.978305816650390625e-01
7.031000000000000000e+03 6.846491241455078125e+01 3.392739105224609375e+01 2.418233305215835571e-01 4.623743057250976562e+00 1.459669828414916992e+00 2.683730125427246094e-01
7.032000000000000000e+03 6.970863342285156250e+01 -3.897286987304687500e+01 -4.858593642711639404e-01 5.257513999938964844e+00 1.431496381759643555e+00 -3.649075031280517578e-01
7.033000000000000000e+03 6.855853271484375000e+01 3.160448074340820312e+01 6.594293117523193359e-01 4.538770198822021484e+00 1.559459924697875977e+00 2.774529457092285156e-01
7.034000000000000000e+03 2.154636764526367188e+01 4.129389572143554688e+01 2.532890141010284424e-01 -1.055364832282066345e-01 4.432576149702072144e-02 1.093590538948774338e-02
7.035000000000000000e+03 5.522714996337890625e+01 -3.816539764404296875e+01 -7.936683297157287598e-01 3.781982183456420898e+00 8.964941501617431641e-01 1.597154587507247925e-01
7.036000000000000000e+03 5.792741775512695312e+01 7.966143608093261719e+00 -8.460295796394348145e-01 5.841365814208984375e+00 1.498600840568542480e+00 -8.332563638687133789e-01
7.037000000000000000e+03 3.561012649536132812e+01 1.630255699157714844e+01 3.588005304336547852e-01 -2.866785824298858643e-01 2.163659036159515381e-02 2.754718065261840820e-01
7.038000000000000000e+03 5.028846359252929688e+01 2.667871475219726562e+01 8.799947500228881836e-01 3.288991928100585938e+00 1.250695943832397461e+00 -4.037960767745971680e-01
7.039000000000000000e+03 5.150164794921875000e+01 2.153216552734375000e+01 -5.086138844490051270e-01 3.226178407669067383e+00 8.152693510055541992e-01 -1.417084813117980957e+00
7.040000000000000000e+03 4.035371017456054688e+01 1.570118427276611328e+01 2.123104035854339600e-01 2.419426478445529938e-02 7.095140218734741211e-02 -1.705162823200225830e-01
7.041000000000000000e+03 8.337280273437500000e+00 -2.699980926513671875e+01 -1.071448251605033875e-01 -1.019464731216430664e-01 -6.272739171981811523e-02 -1.384766697883605957e-01
7.042000000000000000e+03 9.466315269470214844e+00 -2.858041000366210938e+01 -1.605975329875946045e-01 -2.179103940725326538e-01 -1.135523766279220581e-01 -1.870987713336944580e-01
7.043000000000000000e+03 2.644517898559570312e+01 1.149892139434814453e+01 2.099236696958541870e-01 1.091517806053161621e-01 9.572263807058334351e-02 1.566853225231170654e-01
7.044000000000000000e+03 2.628863906860351562e+01 1.210674762725830078e+01 1.389811933040618896e-01 5.871320515871047974e-02 5.930831655859947205e-02 1.345590502023696899e-01
7.045000000000000000e+03 1.232618904113769531e+01 -7.677774906158447266e+00 -3.850363194942474365e-02 8.239450864493846893e-03 -9.079254232347011566e-03 -4.646813869476318359e-02
7.046000000000000000e+03 1.295157051086425781e+01 -7.964794635772705078e+00 -6.202923506498336792e-02 2.770018763840198517e-02 -1.029871404170989990e-02 -3.666648641228675842e-02
7.047000000000000000e+03 6.499415874481201172e+00 1.638497161865234375e+01 2.507937252521514893e-01 -2.725386023521423340e-01 -6.523462012410163879e-03 2.072991877794265747e-01
7.048000000000000000e+03 5.469692230224609375e+00 1.594939041137695312e+01 1.843651086091995239e-01 -3.048339784145355225e-01 -3.614066168665885925e-02 2.021518200635910034e-01
7.049000000000000000e+03 1.017450237274169922e+01 -2.894297599792480469e+01 -1.794888377189636230e-01 -2.802669107913970947e-01 -1.379267126321792603e-01 -2.001431286334991455e-01
7.050000000000000000e+03 6.447344970703125000e+01 2.547184467315673828e+00 -2.120600640773773193e-01 4.957235336303710938e+00 1.423552513122558594e+00 2.243659198284149170e-01
7.051000000000000000e+03 5.894446563720703125e+01 6.806897640228271484e+00 -1.833223342895507812e+00 6.464037418365478516e+00 1.389244318008422852e+00 -1.404379725456237793e+00
7.052000000000000000e+03 5.787739181518554688e+01 5.902459144592285156e+00 -1.632038831710815430e+00 5.499719142913818359e+00 1.160304069519042969e+00 -1.527375936508178711e+00
7.053000000000000000e+03 5.890471267700195312e+01 7.437868118286132812e+00 -1.501797437667846680e+00 6.428398132324218750e+00 1.477980136871337891e+00 -1.160522341728210449e+00
7.054000000000000000e+03 5.824412536621093750e+01 -1.612660789489746094e+01 -7.293490767478942871e-01 4.342036247253417969e+00 1.083806157112121582e+00 1.223654866218566895e+00
7.055000000000000000e+03 5.773540496826171875e+01 -1.373959064483642578e+01 -4.015151560306549072e-01 3.136851310729980469e+00 8.206008076667785645e-01 1.814595580101013184e+00
7.056000000000000000e+03 1.850422668457031250e+01 -2.128302574157714844e+01 -3.210723400115966797e-01 -7.201520353555679321e-02 -1.179262623190879822e-01 -4.646664857864379883e-01
7.057000000000000000e+03 6.640584564208984375e+01 2.566087532043457031e+01 1.313331007957458496e+00 3.005764722824096680e+00 1.295728683471679688e+00 3.091316819190979004e-01
7.058000000000000000e+03 6.757863616943359375e+01 2.655242347717285156e+01 1.250463008880615234e+00 3.342979669570922852e+00 1.378032803535461426e+00 4.455472808331251144e-03
7.059000000000000000e+03 2.427875709533691406e+01 1.060285377502441406e+01 2.563168406486511230e-01 -1.200606524944305420e-01 4.087685421109199524e-02 1.209202483296394348e-01
7.060000000000000000e+03 6.298386383056640625e+01 2.077885150909423828e+00 -5.306593775749206543e-01 6.615816116333007812e+00 1.825547099113464355e+00 -8.446868658065795898e-01
7.061000000000000000e+03 6.550562286376953125e+01 1.402446746826171875e+00 8.602147698402404785e-01 4.989575386047363281e+00 1.754937052726745605e+00 1.444164395332336426e+00
7.062000000000000000e+03 5.523847198486328125e+01 -1.316670036315917969e+01 1.140918582677841187e-01 1.737893223762512207e-01 8.636435121297836304e-02 6.148010492324829102e-01
7.063000000000000000e+03 7.364622497558593750e+01 -3.014554023742675781e+01 1.046967580914497375e-01 5.516848564147949219e+00 1.686463594436645508e+00 9.320729970932006836e-01
7.064000000000000000e+03 7.430378723144531250e+01 -2.942903518676757812e+01 -4.250067174434661865e-01 6.182021617889404297e+00 1.727104425430297852e+00 1.047171115875244141e+00
7.065000000000000000e+03 7.306427764892578125e+01 3.082370948791503906e+01 3.978185951709747314e-01 5.689818859100341797e+00 1.826291203498840332e+00 -1.807844191789627075e-01
7.066000000000000000e+03 7.270858287811279297e+00 2.042624473571777344e+01 6.976315379142761230e-02 -3.145650029182434082e-01 -7.344055175781250000e-02 8.654362708330154419e-02
7.067000000000000000e+03 7.240839004516601562e+00 1.870505332946777344e+01 2.153855264186859131e-01 -2.662434875965118408e-01 -1.525738835334777832e-02 1.080623790621757507e-01
7.068000000000000000e+03 2.597830390930175781e+01 -1.748121833801269531e+01 -3.163628876209259033e-01 -4.374197125434875488e-01 -2.261347770690917969e-01 -2.810347676277160645e-01
7.069000000000000000e+03 2.455204582214355469e+01 8.682648658752441406e+00 3.409210145473480225e-01 -1.087896600365638733e-01 6.963940709829330444e-02 1.425950229167938232e-01
7.070000000000000000e+03 2.356498718261718750e+01 8.055873870849609375e+00 3.150711953639984131e-01 -1.790909320116043091e-01 4.079407826066017151e-02 1.520752310752868652e-01
7.071000000000000000e+03 3.918695449829101562e+01 1.458107089996337891e+01 1.633567363023757935e-01 -3.326408565044403076e-01 -5.078523978590965271e-02 -9.187476336956024170e-02
7.072000000000000000e+03 3.934838485717773438e+01 1.407128334045410156e+01 1.369576156139373779e-01 -3.501731455326080322e-01 -6.396466493606567383e-02 -1.023397147655487061e-01
7.073000000000000000e+03 7.084474182128906250e+01 2.662430047988891602e+00 5.253074169158935547e-01 3.264777421951293945e+00 1.137025475502014160e+00 2.157041072845458984e+00
7.074000000000000000e+03 2.166830253601074219e+01 -1.743209075927734375e+01 -3.932597041130065918e-01 -2.391846925020217896e-01 -1.897333264350891113e-01 -4.658735394477844238e-01
7.075000000000000000e+03 6.953971862792968750e+01 -2.904141616821289062e+01 9.007645845413208008e-01 2.066638231277465820e+00 8.902208805084228516e-01 -1.749681383371353149e-01
7.076000000000000000e+03 6.654908752441406250e+01 1.989742040634155273e+00 8.251108527183532715e-01 3.609928846359252930e+00 1.330511927604675293e+00 2.041970968246459961e+00
7.077000000000000000e+03 4.957343292236328125e+01 2.161612129211425781e+01 -3.631787002086639404e-02 2.104427099227905273e+00 6.204327940940856934e-01 -9.065972566604614258e-01
7.078000000000000000e+03 7.316201019287109375e+01 2.998662567138671875e+01 4.008717536926269531e-01 5.707029819488525391e+00 1.832370400428771973e+00 -2.692161500453948975e-01
7.079000000000000000e+03 7.381552886962890625e+01 3.008485984802246094e+01 3.358669877052307129e-01 5.916078567504882812e+00 1.875583648681640625e+00 -2.703919708728790283e-01
7.080000000000000000e+03 5.667582511901855469e+00 -2.985888862609863281e+01 -1.037582606077194214e-01 -1.655594408512115479e-01 -8.079531043767929077e-02 -1.063283979892730713e-01
7.081000000000000000e+03 5.353991985321044922e+00 -3.047717285156250000e+01 -9.865695238113403320e-02 -1.882115155458450317e-01 -8.606053888797760010e-02 -1.147370934486389160e-01
7.082000000000000000e+03 7.135645866394042969e+00 1.654483413696289062e+01 2.901810705661773682e-01 -2.329789400100708008e-01 1.716063916683197021e-02 2.073585987091064453e-01
7.083000000000000000e+03 6.184884262084960938e+01 -2.388350105285644531e+01 1.507188081741333008e+00 3.172746181488037109e+00 1.403980255126953125e+00 3.840592801570892334e-01
7.084000000000000000e+03 5.880945587158203125e+01 -1.709656524658203125e+01 -4.961271584033966064e-01 4.818702697753906250e+00 1.296772599220275879e+00 1.077612876892089844e+00
7.085000000000000000e+03 6.682562828063964844e+00 -1.104835605621337891e+01 -6.258381158113479614e-02 -1.261180341243743896e-01 -5.661055445671081543e-02 -3.107795678079128265e-02
7.086000000000000000e+03 7.024419403076171875e+01 3.134609699249267578e+00 2.863661348819732666e-01 3.238677740097045898e+00 1.057513117790222168e+00 2.624253749847412109e+00
7.087000000000000000e+03 7.353222656250000000e+01 2.848857116699218750e+01 3.206415474414825439e-01 5.805068016052246094e+00 1.837712883949279785e+00 -4.420332014560699463e-01
7.088000000000000000e+03 7.427553558349609375e+01 2.876039123535156250e+01 2.526795864105224609e-01 6.124411106109619141e+00 1.913127303123474121e+00 -4.007354676723480225e-01
7.089000000000000000e+03 5.318971157073974609e+00 1.914591026306152344e+01 1.317985951900482178e-01 -3.863070905208587646e-01 -7.635254412889480591e-02 4.779461398720741272e-02
7.090000000000000000e+03 2.552972412109375000e+01 -2.390906524658203125e+01 2.424761801958084106e-01 -1.534760445356369019e-01 2.670004032552242279e-02 -1.516859233379364014e-01
7.091000000000000000e+03 2.288303375244140625e+01 8.218359947204589844e+00 3.177358210086822510e-01 -2.071045637130737305e-01 3.318937495350837708e-02 1.630689352750778198e-01
7.092000000000000000e+03 2.476229858398437500e+01 -2.365504074096679688e+01 2.123499661684036255e-01 -1.301879882812500000e-01 2.464859187602996826e-02 -1.526045799255371094e-01
7.093000000000000000e+03 6.146805191040039062e+01 -1.550473499298095703e+01 -1.887081503868103027e+00 7.382044792175292969e+00 1.648488879203796387e+00 9.358564019203186035e-01
7.094000000000000000e+03 6.740441894531250000e+01 1.747598052024841309e+00 1.084947228431701660e+00 3.262349367141723633e+00 1.304188966751098633e+00 2.594053030014038086e+00
7.095000000000000000e+03 6.762969970703125000e+01 2.225970506668090820e+00 8.101402521133422852e-01 2.937062978744506836e+00 1.124161005020141602e+00 2.687829732894897461e+00
7.096000000000000000e+03 6.973773956298828125e+01 2.992295074462890625e+01 8.063589930534362793e-01 4.537122726440429688e+00 1.603044509887695312e+00 4.165869206190109253e-02
7.097000000000000000e+03 2.429124641418457031e+01 7.861227035522460938e+00 2.982390522956848145e-01 -1.360952258110046387e-01 4.864314943552017212e-02 1.577632874250411987e-01
7.098000000000000000e+03 6.669256591796875000e+01 2.369260597229003906e+01 2.023524940013885498e-01 2.053027153015136719e+00 6.766138672828674316e-01 -6.013859808444976807e-02
7.099000000000000000e+03 4.334275436401367188e+01 6.466572284698486328e+00 -3.385024666786193848e-01 1.809969097375869751e-01 -4.725167155265808105e-02 3.021411597728729248e-01
7.100000000000000000e+03 7.382012939453125000e+01 2.203730964660644531e+01 -1.027025461196899414e+00 6.836083412170410156e+00 1.742717385292053223e+00 -4.712737500667572021e-01
7.101000000000000000e+03 7.006683349609375000e+00 -2.810705947875976562e+01 -1.192081123590469360e-01 -1.113662868738174438e-01 -6.917232275009155273e-02 -1.064897254109382629e-01
7.102000000000000000e+03 5.090144348144531250e+01 -1.262214756011962891e+01 -2.394714355468750000e-01 1.923672556877136230e-01 -1.413125451654195786e-02 -3.524233028292655945e-02
7.103000000000000000e+03 7.057504272460937500e+01 2.230082702636718750e+01 -1.156756520271301270e+00 4.445753097534179688e+00 9.866989254951477051e-01 -1.348699212074279785e+00
7.104000000000000000e+03 6.634039402008056641e+00 -3.537018585205078125e+01 1.495517790317535400e-04 -3.108568787574768066e-01 -9.321220219135284424e-02 -2.240861207246780396e-01
7.105000000000000000e+03 7.383177185058593750e+01 2.614623451232910156e+01 -1.832179143093526363e-03 6.054068088531494141e+00 1.815670728683471680e+00 -6.444264054298400879e-01
7.106000000000000000e+03 5.753561782836914062e+01 1.811981964111328125e+01 1.029031395912170410e+00 3.966740846633911133e+00 1.498731613159179688e+00 -1.001500248908996582e+00
7.107000000000000000e+03 1.229965686798095703e+01 -8.866626739501953125e+00 -7.990860193967819214e-02 2.595833130180835724e-02 -1.618508063256740570e-02 -5.598232150077819824e-02
7.108000000000000000e+03 6.007522583007812500e+01 -1.437225437164306641e+01 -1.522236585617065430e+00 6.366808414459228516e+00 1.453371524810791016e+00 1.796236872673034668e+00
7.109000000000000000e+03 3.763619232177734375e+01 1.464997100830078125e+01 1.405796706676483154e-01 -5.323655009269714355e-01 -1.175357475876808167e-01 7.399408519268035889e-02
7.110000000000000000e+03 6.925224304199218750e+01 2.398421287536621094e+01 -5.508976802229881287e-02 3.284735679626464844e+00 9.688937664031982422e-01 -1.109019041061401367e+00
7.111000000000000000e+03 6.969898223876953125e+01 2.262762260437011719e+01 -9.284343123435974121e-01 3.578395843505859375e+00 7.949884533882141113e-01 -1.389834165573120117e+00
7.112000000000000000e+03 7.439573669433593750e+01 2.441362953186035156e+01 -3.916938602924346924e-01 6.559197425842285156e+00 1.850251078605651855e+00 -6.062459349632263184e-01
7.113000000000000000e+03 7.354739379882812500e+01 2.265147590637207031e+01 -9.110175371170043945e-01 6.541451454162597656e+00 1.689130187034606934e+00 -6.605950593948364258e-01
7.114000000000000000e+03 7.462420654296875000e+01 2.551402854919433594e+01 -1.588959842920303345e-01 6.507369518280029297e+00 1.904541969299316406e+00 -5.886849164962768555e-01
7.115000000000000000e+03 7.278865814208984375e+01 2.377439117431640625e+01 -5.814031958580017090e-01 5.804680347442626953e+00 1.566983103752136230e+00 -9.107035398483276367e-01
7.116000000000000000e+03 6.216040039062500000e+01 3.684189796447753906e+00 -1.867574214935302734e+00 6.240411758422851562e+00 1.311851263046264648e+00 -1.864077806472778320e+00
7.117000000000000000e+03 5.845479583740234375e+01 6.011062622070312500e+00 -1.861827492713928223e+00 5.972313404083251953e+00 1.233145833015441895e+00 -1.636884689331054688e+00
7.118000000000000000e+03 5.608454704284667969e+00 -2.726574325561523438e+01 -6.943059712648391724e-02 -9.461049735546112061e-02 -4.921232908964157104e-02 -4.275312647223472595e-02
7.119000000000000000e+03 5.982912063598632812e+01 -1.373752880096435547e+01 -1.358708500862121582e+00 6.239420890808105469e+00 1.464213728904724121e+00 2.143374443054199219e+00
7.120000000000000000e+03 6.418335437774658203e+00 7.515128135681152344e+00 -2.277279794216156006e-01 -6.996586173772811890e-02 -8.930815011262893677e-02 1.158986985683441162e-01
7.121000000000000000e+03 6.483121871948242188e+00 -3.153922462463378906e+01 -1.192368716001510620e-01 -2.108242511749267578e-01 -9.901834279298782349e-02 -1.714671552181243896e-01
7.122000000000000000e+03 7.497101593017578125e+01 2.027671623229980469e+01 -9.664209485054016113e-01 7.673871040344238281e+00 2.012234926223754883e+00 2.794256806373596191e-01
7.123000000000000000e+03 7.536219787597656250e+01 7.228761672973632812e+00 -1.389728039503097534e-01 7.718403339385986328e+00 2.273829221725463867e+00 -7.219818234443664551e-01
7.124000000000000000e+03 7.310519409179687500e+01 5.869213581085205078e+00 -7.427644133567810059e-01 6.971320629119873047e+00 1.868566870689392090e+00 6.320249438285827637e-01
7.125000000000000000e+03 7.383086395263671875e+01 2.454646301269531250e+01 -3.779924809932708740e-01 6.235656261444091797e+00 1.757299184799194336e+00 -7.236973047256469727e-01
7.126000000000000000e+03 7.357568359375000000e+01 5.053608894348144531e+00 -5.931215882301330566e-01 6.629553318023681641e+00 1.810929536819458008e+00 3.875056207180023193e-01
7.127000000000000000e+03 7.388247680664062500e+01 1.889362144470214844e+01 -1.210240840911865234e+00 7.881011962890625000e+00 2.001231431961059570e+00 3.222824931144714355e-01
7.128000000000000000e+03 7.445071411132812500e+01 8.020174980163574219e+00 6.029479205608367920e-02 8.211747169494628906e+00 2.481612682342529297e+00 -5.230427384376525879e-01
7.129000000000000000e+03 7.408297729492187500e+01 6.818726539611816406e+00 -4.298997819423675537e-01 7.798480987548828125e+00 2.210574388504028320e+00 -1.917318701744079590e-01
7.130000000000000000e+03 5.950646400451660156e+00 9.079251289367675781e+00 -2.079253792762756348e-01 -8.715201914310455322e-02 -8.852321654558181763e-02 2.025847136974334717e-01
7.131000000000000000e+03 7.427427673339843750e+01 2.330192565917968750e+00 -2.068325579166412354e-01 5.679132461547851562e+00 1.641689896583557129e+00 -1.109743565320968628e-01
7.132000000000000000e+03 7.472442626953125000e+01 3.519820451736450195e+00 -3.805461525917053223e-01 6.413716316223144531e+00 1.809951066970825195e+00 -1.363937854766845703e-01
7.133000000000000000e+03 7.352967071533203125e+01 4.353545665740966797e+00 -4.994516968727111816e-01 6.157181262969970703e+00 1.697318911552429199e+00 4.815918505191802979e-01
7.134000000000000000e+03 7.427993774414062500e+01 4.310599327087402344e+00 -4.511606395244598389e-01 6.516809463500976562e+00 1.819694638252258301e+00 3.429007157683372498e-02
7.135000000000000000e+03 6.381003379821777344e+00 1.015405654907226562e+01 -1.943975239992141724e-01 -1.158731579780578613e-01 -9.308120608329772949e-02 2.703245878219604492e-01
7.136000000000000000e+03 5.651894569396972656e+00 1.674194526672363281e+01 2.057397067546844482e-01 -3.212690353393554688e-01 -3.465879708528518677e-02 1.656967997550964355e-01
7.137000000000000000e+03 5.779487609863281250e+00 -3.270880126953125000e+01 -7.913955301046371460e-02 -2.450384199619293213e-01 -9.725338965654373169e-02 -1.770980805158615112e-01
7.138000000000000000e+03 6.713822841644287109e+00 -3.229740905761718750e+01 -1.087845712900161743e-01 -2.313907593488693237e-01 -1.020525991916656494e-01 -1.962885409593582153e-01
7.139000000000000000e+03 5.658786773681640625e+00 1.354979228973388672e+01 8.086963742971420288e-02 -2.241423428058624268e-01 -4.298181086778640747e-02 3.099518418312072754e-01
7.140000000000000000e+03 6.586227416992187500e+00 1.997674369812011719e+01 1.094449758529663086e-01 -3.457040190696716309e-01 -7.087770849466323853e-02 6.206757202744483948e-02
7.141000000000000000e+03 5.549182891845703125e+00 2.011396980285644531e+01 8.847104012966156006e-02 -3.984981477260589600e-01 -9.300813078880310059e-02 3.060901351273059845e-02
7.142000000000000000e+03 5.802655029296875000e+01 1.862326812744140625e+01 7.826690673828125000e-01 3.859634876251220703e+00 1.392691254615783691e+00 -7.108111381530761719e-01
7.143000000000000000e+03 6.673132419586181641e+00 -9.131310462951660156e+00 -2.076824940741062164e-02 -9.234280884265899658e-02 -3.393331915140151978e-02 -6.861630361527204514e-03
7.144000000000000000e+03 7.336112976074218750e+01 -3.076528167724609375e+01 3.287012875080108643e-01 5.242599487304687500e+00 1.671390175819396973e+00 7.980873584747314453e-01
7.145000000000000000e+03 5.555602073669433594e+00 1.497086429595947266e+01 1.599647104740142822e-01 -2.760986387729644775e-01 -3.484017774462699890e-02 2.534204423427581787e-01
7.146000000000000000e+03 5.185044765472412109e+00 1.558739185333251953e+01 1.590389609336853027e-01 -3.064834177494049072e-01 -4.423333704471588135e-02 2.129426896572113037e-01
7.147000000000000000e+03 6.865779399871826172e+00 -1.038635826110839844e+01 -5.232330411672592163e-02 -1.132544875144958496e-01 -4.967333748936653137e-02 -2.513768151402473450e-02
7.148000000000000000e+03 7.455313873291015625e+01 2.631207656860351562e+01 -1.007243618369102478e-02 6.370961189270019531e+00 1.908266663551330566e+00 -5.822796225547790527e-01
7.149000000000000000e+03 6.883157348632812500e+01 2.836169433593750000e+01 1.031342506408691406e+00 4.068597316741943359e+00 1.529981970787048340e+00 6.394801661372184753e-03
7.150000000000000000e+03 7.216401672363281250e+01 2.216754531860351562e+01 -1.204465985298156738e+00 5.818299293518066406e+00 1.384149909019470215e+00 -9.964944720268249512e-01
7.151000000000000000e+03 6.395962715148925781e+00 -8.581815719604492188e+00 -7.255391217768192291e-03 -7.534713298082351685e-02 -2.478075772523880005e-02 1.718574785627424717e-03
7.152000000000000000e+03 6.218495845794677734e+00 -7.030029773712158203e+00 4.718294832855463028e-03 -5.510975047945976257e-02 -1.511743664741516113e-02 8.833320811390876770e-03
7.153000000000000000e+03 7.312600708007812500e+01 2.528069877624511719e+01 -1.630287319421768188e-01 5.768892288208007812e+00 1.681758999824523926e+00 -7.826546430587768555e-01
7.154000000000000000e+03 7.282168579101562500e+01 2.826887321472167969e+01 3.829433321952819824e-01 5.499477386474609375e+00 1.764726161956787109e+00 -4.665125012397766113e-01
7.155000000000000000e+03 6.145561599731445312e+01 -1.250580310821533203e+01 -1.586558938026428223e+00 8.603711128234863281e+00 2.105145692825317383e+00 1.753723502159118652e+00
7.156000000000000000e+03 2.442782592773437500e+01 9.949454307556152344e+00 3.090047836303710938e-01 -1.127265170216560364e-01 5.888348072767257690e-02 1.283526271581649780e-01
7.157000000000000000e+03 2.638876533508300781e+01 8.645330429077148438e+00 3.547423183917999268e-01 1.762498170137405396e-01 1.592976450920104980e-01 1.416004300117492676e-01
7.158000000000000000e+03 6.328718948364257812e+01 -1.216411113739013672e+01 -1.192751646041870117e+00 8.773746490478515625e+00 2.274298429489135742e+00 5.089666247367858887e-01
7.159000000000000000e+03 2.704287147521972656e+01 -1.719802474975585938e+01 -2.862810790538787842e-01 -4.418986439704895020e-01 -2.184539139270782471e-01 -2.375507205724716187e-01
7.160000000000000000e+03 7.392306327819824219e+00 -3.369297790527343750e+01 -7.775370776653289795e-02 -2.694556713104248047e-01 -1.041628122329711914e-01 -2.361025810241699219e-01
7.161000000000000000e+03 5.190320968627929688e+01 -1.288503074645996094e+01 -1.014500036835670471e-01 -1.052814796566963196e-01 -6.201944500207901001e-02 3.793528536334633827e-03
7.162000000000000000e+03 5.044980621337890625e+01 2.736430740356445312e+01 9.551885128021240234e-01 3.392682313919067383e+00 1.304361224174499512e+00 -5.173316597938537598e-01
7.163000000000000000e+03 6.830341339111328125e+01 2.348710632324218750e+01 -1.603693366050720215e-01 2.418291091918945312e+00 6.773765087127685547e-01 -9.993743300437927246e-01
7.164000000000000000e+03 6.727862358093261719e+00 9.354362487792968750e+00 -2.457394301891326904e-01 -1.141849085688591003e-01 -1.079773008823394775e-01 2.302092462778091431e-01
7.165000000000000000e+03 7.197601318359375000e+01 -3.179395675659179688e+01 1.048879146575927734e+00 4.437993526458740234e+00 1.646061778068542480e+00 2.720429003238677979e-01
7.166000000000000000e+03 5.594285964965820312e+00 -2.544816398620605469e+01 2.380219753831624985e-03 -4.941866546869277954e-02 -1.411153376102447510e-02 -9.178685024380683899e-03
7.167000000000000000e+03 7.231797027587890625e+01 -3.242924499511718750e+01 9.509667158126831055e-01 4.760270118713378906e+00 1.713371038436889648e+00 1.596352010965347290e-01
7.168000000000000000e+03 7.313221740722656250e+01 -3.325342941284179688e+01 7.321472167968750000e-01 5.313335895538330078e+00 1.813645005226135254e+00 8.123496919870376587e-02
7.169000000000000000e+03 6.167414665222167969e+00 6.888338088989257812e+00 -2.040338665246963501e-01 -5.662636086344718933e-02 -7.819806784391403198e-02 8.323548734188079834e-02
7.170000000000000000e+03 7.312959289550781250e+01 3.480009078979492188e+01 1.791940778493881226e-01 5.879141807556152344e+00 1.817500829696655273e+00 4.550101235508918762e-02
7.171000000000000000e+03 7.205117797851562500e+01 3.464909744262695312e+01 2.039523869752883911e-01 5.568701267242431641e+00 1.731796145439147949e+00 9.293498098850250244e-02
7.172000000000000000e+03 7.814600944519042969e+00 -2.723513412475585938e+01 -1.072008609771728516e-01 -9.593623876571655273e-02 -6.094112992286682129e-02 -1.219258680939674377e-01
7.173000000000000000e+03 3.424390029907226562e+01 -1.039048671722412109e+01 -1.019035130739212036e-01 1.479499042034149170e-01 1.381391845643520355e-02 -1.467003971338272095e-01
7.174000000000000000e+03 5.894774436950683594e+00 -6.363862514495849609e+00 1.121147722005844116e-02 -3.987653553485870361e-02 -8.599517866969108582e-03 1.402752567082643509e-02
7.175000000000000000e+03 3.317704772949218750e+01 -1.164782619476318359e+01 -4.457744956016540527e-01 -1.080996170639991760e-01 -1.661622375249862671e-01 2.586726471781730652e-02
7.176000000000000000e+03 3.253876876831054688e+01 -1.152973365783691406e+01 -5.009036660194396973e-01 -2.371134608983993530e-01 -2.214051336050033569e-01 -1.982891745865345001e-02
7.177000000000000000e+03 5.630556869506835938e+01 5.891037940979003906e+00 -1.113590717315673828e+00 3.994751214981079102e+00 8.643481135368347168e-01 -1.083976268768310547e+00
7.178000000000000000e+03 1.738495445251464844e+01 -2.301511955261230469e+01 -1.265488415956497192e-01 -2.134960591793060303e-01 -1.020134761929512024e-01 -3.898537456989288330e-01
7.179000000000000000e+03 2.658236503601074219e+01 -2.533556556701660156e+01 3.597539663314819336e-01 -1.639837026596069336e-01 5.873107910156250000e-02 -1.697891205549240112e-01
7.180000000000000000e+03 2.505029869079589844e+01 -2.149751281738281250e+01 2.237993478775024414e-02 -1.909230053424835205e-01 -5.056292191147804260e-02 -1.951062530279159546e-01
7.181000000000000000e+03 2.595711708068847656e+01 -2.014764976501464844e+01 -5.101623013615608215e-02 -2.748043835163116455e-01 -9.774618595838546753e-02 -1.703206896781921387e-01
7.182000000000000000e+03 1.913740730285644531e+01 -2.025007820129394531e+01 -3.251720964908599854e-01 -5.503961443901062012e-02 -1.140635088086128235e-01 -5.177277326583862305e-01
7.183000000000000000e+03 3.894923782348632812e+01 1.793567085266113281e+01 3.351032137870788574e-01 -1.071322634816169739e-01 6.839128583669662476e-02 3.529138490557670593e-02
7.184000000000000000e+03 7.693795204162597656e+00 1.970013999938964844e+01 1.376316696405410767e-01 -2.534358203411102295e-01 -3.474124148488044739e-02 1.039334759116172791e-01
7.185000000000000000e+03 6.959637165069580078e+00 1.936240959167480469e+01 1.586161255836486816e-01 -3.087600469589233398e-01 -4.504317417740821838e-02 8.225271850824356079e-02
7.186000000000000000e+03 3.401934432983398438e+01 -1.112360382080078125e+01 -2.406791001558303833e-01 1.217739433050155640e-01 -3.567154705524444580e-02 -4.281713068485260010e-02
7.187000000000000000e+03 3.332572555541992188e+01 -1.096402454376220703e+01 -3.382585048675537109e-01 -1.029975935816764832e-01 -1.323768347501754761e-01 -8.040166646242141724e-02
7.188000000000000000e+03 6.822933197021484375e+01 2.797052764892578125e+01 1.151538372039794922e+00 3.865597486495971680e+00 1.505140781402587891e+00 8.930803835391998291e-02
7.189000000000000000e+03 5.895903778076171875e+01 7.952818870544433594e+00 -1.244483470916748047e+00 6.676659107208251953e+00 1.629652738571166992e+00 -1.012164592742919922e+00
7.190000000000000000e+03 5.794515228271484375e+01 7.401289939880371094e+00 -1.228704571723937988e+00 5.914459228515625000e+00 1.405726313591003418e+00 -1.040656924247741699e+00
7.191000000000000000e+03 2.244028282165527344e+01 -1.915505599975585938e+01 -2.548631131649017334e-01 -2.173858284950256348e-01 -1.416746824979782104e-01 -4.185487031936645508e-01
7.192000000000000000e+03 5.033689498901367188e+01 3.044286346435546875e+01 8.342276811599731445e-01 3.307931661605834961e+00 1.242647767066955566e+00 -5.791713595390319824e-01
7.193000000000000000e+03 7.416957092285156250e+01 2.060428810119628906e+01 -1.207801699638366699e+00 7.412365436553955078e+00 1.861369132995605469e+00 -4.052096977829933167e-02
7.194000000000000000e+03 3.688497161865234375e+01 1.860737991333007812e+01 3.753127455711364746e-01 -1.639349609613418579e-01 6.341333687305450439e-02 1.862162351608276367e-01
7.195000000000000000e+03 5.902170562744140625e+01 -2.045594787597656250e+01 1.311785459518432617e+00 4.000323772430419922e+00 1.593632698059082031e+00 1.437901973724365234e+00
7.196000000000000000e+03 4.914846038818359375e+01 2.826412773132324219e+01 8.714380860328674316e-01 2.877590417861938477e+00 1.124708533287048340e+00 -5.229610204696655273e-01
7.197000000000000000e+03 5.240370559692382812e+01 2.167105293273925781e+01 -7.441788911819458008e-01 3.618573427200317383e+00 8.623183965682983398e-01 -1.573899030685424805e+00
7.198000000000000000e+03 8.200819969177246094e+00 -9.549863815307617188e+00 -4.314336180686950684e-02 -1.057753190398216248e-01 -4.467560350894927979e-02 -3.536316007375717163e-02
7.199000000000000000e+03 6.271209716796875000e+01 -1.245464611053466797e+01 -1.558098554611206055e+00 8.911375045776367188e+00 2.205982923507690430e+00 9.243539571762084961e-01
7.200000000000000000e+03 7.310010528564453125e+01 -2.980031585693359375e+01 5.589810386300086975e-02 4.996561050415039062e+00 1.515737771987915039e+00 1.131749629974365234e+00
7.201000000000000000e+03 7.203655242919921875e+01 -3.001157951354980469e+01 5.766404867172241211e-01 4.026050090789794922e+00 1.380807161331176758e+00 9.729420542716979980e-01
7.202000000000000000e+03 5.728072357177734375e+01 5.324279785156250000e+00 -1.396518588066101074e+00 4.695033550262451172e+00 9.895545244216918945e-01 -1.560960412025451660e+00
7.203000000000000000e+03 5.760470581054687500e+01 6.461412429809570312e+00 -1.415237545967102051e+00 5.408106327056884766e+00 1.197860598564147949e+00 -1.267885804176330566e+00
7.204000000000000000e+03 6.096231842041015625e+01 -1.876396369934082031e+01 4.435296058654785156e-01 5.758715629577636719e+00 1.860673546791076660e+00 3.272000849246978760e-01
7.205000000000000000e+03 6.175976943969726562e+01 -1.724473190307617188e+01 -1.012145400047302246e+00 6.951076984405517578e+00 1.781679391860961914e+00 1.582796275615692139e-01
7.206000000000000000e+03 5.930029296875000000e+01 -1.928664398193359375e+01 7.009053826332092285e-01 4.512948989868164062e+00 1.564156293869018555e+00 1.116959691047668457e+00
7.207000000000000000e+03 5.859267807006835938e+01 5.306360721588134766e+00 -1.904176831245422363e+00 5.883458137512207031e+00 1.193784356117248535e+00 -1.937898159027099609e+00
7.208000000000000000e+03 7.163149261474609375e+01 -3.243643569946289062e+01 1.186109900474548340e+00 4.431020259857177734e+00 1.685139060020446777e+00 -7.341767847537994385e-02
7.209000000000000000e+03 5.013425827026367188e+01 2.205412864685058594e+01 -1.563241630792617798e-01 2.587362766265869141e+00 7.293115258216857910e-01 -9.592831134796142578e-01
7.210000000000000000e+03 4.914207839965820312e+01 2.223406600952148438e+01 9.666646271944046021e-02 2.080404043197631836e+00 6.531211733818054199e-01 -6.371227502822875977e-01
7.211000000000000000e+03 5.103695297241210938e+01 2.197693824768066406e+01 -4.377202987670898438e-01 3.127072572708129883e+00 8.068056702613830566e-01 -1.171065092086791992e+00
7.212000000000000000e+03 6.063966751098632812e+01 -2.154340934753417969e+01 2.065533161163330078e+00 3.924940109252929688e+00 1.797142028808593750e+00 9.062172770500183105e-01
7.213000000000000000e+03 6.109137725830078125e+01 -2.296241950988769531e+01 2.052098512649536133e+00 3.239943981170654297e+00 1.587612748146057129e+00 9.192254543304443359e-01
7.214000000000000000e+03 5.748427200317382812e+01 2.008360481262207031e+01 -1.202512308955192566e-01 2.649598598480224609e+00 7.588042020797729492e-01 -1.138779759407043457e+00
7.215000000000000000e+03 2.111834907531738281e+01 -2.136351776123046875e+01 -1.752164959907531738e-01 -4.032962024211883545e-02 -6.466383486986160278e-02 -3.912936747074127197e-01
7.216000000000000000e+03 1.978617095947265625e+01 -1.788132286071777344e+01 -3.110612034797668457e-01 -1.329676657915115356e-01 -1.332086622714996338e-01 -5.306689739227294922e-01
7.217000000000000000e+03 2.497610282897949219e+01 -1.778997802734375000e+01 -3.121345937252044678e-01 -4.078350365161895752e-01 -2.159908860921859741e-01 -3.180676102638244629e-01
7.218000000000000000e+03 2.597333145141601562e+01 -1.836216735839843750e+01 -1.837256550788879395e-01 -3.781435787677764893e-01 -1.685607731342315674e-01 -2.282628268003463745e-01
7.219000000000000000e+03 5.994478607177734375e+01 -2.178001022338867188e+01 1.899453639984130859e+00 3.624110937118530273e+00 1.657069444656372070e+00 1.374522089958190918e+00
7.220000000000000000e+03 4.107561492919921875e+01 1.785695457458496094e+01 1.793478876352310181e-01 2.692216932773590088e-01 1.345708668231964111e-01 -4.286984726786613464e-02
7.221000000000000000e+03 2.523763084411621094e+01 1.151191520690917969e+01 1.951756328344345093e-01 -5.076565220952033997e-02 4.332299157977104187e-02 1.053344756364822388e-01
7.222000000000000000e+03 2.496680450439453125e+01 9.409473419189453125e+00 3.370156586170196533e-01 -6.446292996406555176e-02 8.176582306623458862e-02 1.347164064645767212e-01
7.223000000000000000e+03 9.009187698364257812e+00 -9.569964408874511719e+00 -5.036805197596549988e-02 -1.056016013026237488e-01 -4.679089412093162537e-02 -5.156245455145835876e-02
7.224000000000000000e+03 1.053637695312500000e+01 -8.957232475280761719e+00 -5.390388891100883484e-02 -4.400389641523361206e-02 -2.937233634293079376e-02 -6.753206998109817505e-02
7.225000000000000000e+03 6.296752548217773438e+01 2.797461986541748047e+00 -1.063309907913208008e+00 6.129093170166015625e+00 1.519734859466552734e+00 -1.162789106369018555e+00
7.226000000000000000e+03 7.036895751953125000e+01 2.286376953125000000e+01 -9.007437229156494141e-01 4.201257228851318359e+00 9.901540875434875488e-01 -1.327368021011352539e+00
7.227000000000000000e+03 5.946198272705078125e+01 -1.693951797485351562e+01 -6.404680609703063965e-01 5.279697895050048828e+00 1.391768932342529297e+00 1.022381305694580078e+00
7.228000000000000000e+03 3.616698074340820312e+01 1.673194503784179688e+01 3.941088616847991943e-01 -3.050596714019775391e-01 2.671475894749164581e-02 2.265848964452743530e-01
7.229000000000000000e+03 3.685657119750976562e+01 1.781312370300292969e+01 3.933289051055908203e-01 -2.293783575296401978e-01 4.918516799807548523e-02 1.785299032926559448e-01
7.230000000000000000e+03 6.767953491210937500e+01 2.830481052398681641e+00 5.403547883033752441e-01 2.649346828460693359e+00 9.569104909896850586e-01 2.672304391860961914e+00
7.231000000000000000e+03 6.704991912841796875e+01 2.829926252365112305e+00 4.447761178016662598e-01 2.812745332717895508e+00 9.772564172744750977e-01 2.301758527755737305e+00
7.232000000000000000e+03 6.704933166503906250e+01 3.477144718170166016e+00 3.304560109972953796e-02 2.357586860656738281e+00 7.171897292137145996e-01 2.212615728378295898e+00
7.233000000000000000e+03 5.142193222045898438e+01 2.241872024536132812e+01 -4.830527901649475098e-01 3.375427007675170898e+00 8.677123188972473145e-01 -1.120467662811279297e+00
7.234000000000000000e+03 5.074005889892578125e+01 2.330980682373046875e+01 -1.224715188145637512e-01 3.196591138839721680e+00 9.222359061241149902e-01 -7.136308550834655762e-01
7.235000000000000000e+03 6.930458831787109375e+01 3.033534049987792969e+00 3.973559141159057617e-01 2.858507871627807617e+00 9.767591357231140137e-01 2.951269149780273438e+00
7.236000000000000000e+03 5.763183212280273438e+01 -1.466302394866943359e+01 -5.294001102447509766e-01 3.321530580520629883e+00 8.376391530036926270e-01 1.475737094879150391e+00
7.237000000000000000e+03 5.761819458007812500e+01 -1.565246677398681641e+01 -6.003686189651489258e-01 3.537370681762695312e+00 8.811006546020507812e-01 1.236385226249694824e+00
7.238000000000000000e+03 6.119023799896240234e+00 2.054269409179687500e+01 6.238438934087753296e-02 -3.903410732746124268e-01 -9.838700294494628906e-02 4.472046718001365662e-02
7.239000000000000000e+03 5.060880279541015625e+01 2.494338226318359375e+01 4.389872252941131592e-01 3.318194627761840820e+00 1.127154588699340820e+00 -3.994920551776885986e-01
7.240000000000000000e+03 6.994441986083984375e+01 4.207818984985351562e+00 -3.414035737514495850e-01 3.561311006546020508e+00 9.659722447395324707e-01 2.806105852127075195e+00
7.241000000000000000e+03 1.981875038146972656e+01 -2.325292968750000000e+01 -4.599104449152946472e-02 5.590933561325073242e-02 2.975486451759934425e-03 -3.581141829490661621e-01
7.242000000000000000e+03 4.940869140625000000e+01 2.905210876464843750e+01 9.167572855949401855e-01 2.997588396072387695e+00 1.174303650856018066e+00 -5.755107402801513672e-01
7.243000000000000000e+03 6.091259765625000000e+01 -1.210728359222412109e+01 -1.340911269187927246e+00 8.397360801696777344e+00 2.116935014724731445e+00 2.113955497741699219e+00
7.244000000000000000e+03 6.043483352661132812e+01 -1.347154617309570312e+01 -1.624279022216796875e+00 7.103536605834960938e+00 1.643777251243591309e+00 2.034339189529418945e+00
7.245000000000000000e+03 7.557180786132812500e+01 1.747431182861328125e+01 -3.562309443950653076e-01 8.134474754333496094e+00 2.333472967147827148e+00 1.085557103157043457e+00
7.246000000000000000e+03 6.861195373535156250e+01 2.734490013122558594e+01 1.078488230705261230e+00 3.785979986190795898e+00 1.459340453147888184e+00 -1.280425488948822021e-01
7.247000000000000000e+03 6.837928771972656250e+01 2.907139396667480469e+01 1.037414550781250000e+00 4.141534805297851562e+00 1.553684830665588379e+00 1.852153837680816650e-01
7.248000000000000000e+03 2.229091453552246094e+01 -2.305019378662109375e+01 6.099091842770576477e-02 -4.583541303873062134e-03 1.692221313714981079e-02 -2.273471951484680176e-01
7.249000000000000000e+03 6.357391738891601562e+01 2.777456521987915039e+00 -7.469955086708068848e-01 5.612318992614746094e+00 1.459597110748291016e+00 -5.800094008445739746e-01
7.250000000000000000e+03 4.890278625488281250e+01 3.081889724731445312e+01 7.984431982040405273e-01 2.750936746597290039e+00 1.064813971519470215e+00 -6.592302322387695312e-01
7.251000000000000000e+03 7.468667602539062500e+01 1.409685134887695312e+01 1.160723567008972168e+00 9.038316726684570312e+00 3.059711933135986328e+00 7.377022504806518555e-01
7.252000000000000000e+03 8.089238166809082031e+00 -2.946903419494628906e+01 -1.621374338865280151e-01 -1.816917508840560913e-01 -1.031487584114074707e-01 -1.636965572834014893e-01
7.253000000000000000e+03 9.498637199401855469e+00 -3.019807052612304688e+01 -1.954852640628814697e-01 -2.554889023303985596e-01 -1.352922618389129639e-01 -2.054456323385238647e-01
7.254000000000000000e+03 7.287041473388671875e+01 5.275345802307128906e+00 -7.469281554222106934e-01 6.518380641937255859e+00 1.731435775756835938e+00 8.426677584648132324e-01
7.255000000000000000e+03 7.127658081054687500e+01 -3.141026115417480469e+01 1.272185921669006348e+00 3.940356969833374023e+00 1.563762903213500977e+00 1.389218568801879883e-01
7.256000000000000000e+03 9.085293769836425781e+00 -8.107175827026367188e+00 -1.736228726804256439e-02 -7.316752523183822632e-02 -2.715894393622875214e-02 -3.978259116411209106e-02
7.257000000000000000e+03 5.928524017333984375e+01 -2.191265487670898438e+01 1.778011679649353027e+00 3.474873781204223633e+00 1.575865626335144043e+00 1.658211946487426758e+00
7.258000000000000000e+03 7.534199714660644531e+00 -1.030202674865722656e+01 -5.567577108740806580e-02 -1.152266934514045715e-01 -5.127074196934700012e-02 -2.951486594974994659e-02
7.259000000000000000e+03 8.882674217224121094e+00 -3.147406196594238281e+01 -1.754228472709655762e-01 -2.506668567657470703e-01 -1.278269141912460327e-01 -2.247234880924224854e-01
7.260000000000000000e+03 8.496441841125488281e+00 -3.048219490051269531e+01 -1.752870380878448486e-01 -2.166771888732910156e-01 -1.175892651081085205e-01 -1.925972998142242432e-01
7.261000000000000000e+03 6.317635726928710938e+01 -1.406666469573974609e+01 -2.255906820297241211e+00 8.238648414611816406e+00 1.794822454452514648e+00 8.588138818740844727e-01
7.262000000000000000e+03 6.225903320312500000e+01 -1.340389156341552734e+01 -1.993375301361083984e+00 8.445450782775878906e+00 1.935622572898864746e+00 1.208517551422119141e+00
7.263000000000000000e+03 7.288021850585937500e+01 2.407790422439575195e+00 1.613042652606964111e-01 4.415941238403320312e+00 1.373173713684082031e+00 6.022888422012329102e-01
7.264000000000000000e+03 1.180823898315429688e+01 -7.177526950836181641e+00 -3.089169226586818695e-02 -1.031970977783203125e-02 -1.236342079937458038e-02 -4.270022362470626831e-02
7.265000000000000000e+03 7.212069702148437500e+01 -3.576902389526367188e+01 4.985409080982208252e-01 5.402403354644775391e+00 1.770283341407775879e+00 -4.759983718395233154e-01
7.266000000000000000e+03 7.089952850341796875e+01 -3.565756988525390625e+01 6.041364669799804688e-01 5.164162635803222656e+00 1.730489730834960938e+00 -6.600537896156311035e-01
7.267000000000000000e+03 5.986872100830078125e+01 -1.870441436767578125e+01 3.554374277591705322e-01 5.104775428771972656e+00 1.638063788414001465e+00 8.049847483634948730e-01
7.268000000000000000e+03 5.649469375610351562e+01 1.906168556213378906e+01 4.017845690250396729e-01 3.337090253829956055e+00 1.121662378311157227e+00 -1.599250555038452148e+00
7.269000000000000000e+03 3.012449836730957031e+01 -3.219372177124023438e+01 2.477390319108963013e-01 7.867821305990219116e-02 9.792517125606536865e-02 -1.400996148586273193e-01
7.270000000000000000e+03 5.919006729125976562e+01 -1.386968708038330078e+01 -1.064481019973754883e+00 5.196306705474853516e+00 1.239547610282897949e+00 2.138150930404663086e+00
7.271000000000000000e+03 5.826167297363281250e+01 -1.350746250152587891e+01 -6.194750666618347168e-01 3.843633174896240234e+00 9.672474265098571777e-01 2.093460559844970703e+00
7.272000000000000000e+03 9.664779663085937500e+00 -7.641480445861816406e+00 -1.573962904512882233e-02 -5.942625552415847778e-02 -2.254976518452167511e-02 -4.018736630678176880e-02
7.273000000000000000e+03 1.012568664550781250e+01 -8.282445907592773438e+00 -3.287779912352561951e-02 -5.791205540299415588e-02 -2.723695524036884308e-02 -5.695204436779022217e-02
7.274000000000000000e+03 6.919789123535156250e+01 3.075017929077148438e+01 7.633385062217712402e-01 4.531138420104980469e+00 1.588343024253845215e+00 1.885801702737808228e-01
7.275000000000000000e+03 6.845890998840332031e+00 -2.699724578857421875e+01 -8.357849717140197754e-02 -7.261765003204345703e-02 -4.685884341597557068e-02 -7.691141963005065918e-02
7.276000000000000000e+03 6.416291809082031250e+01 1.024983525276184082e+00 6.503794789314270020e-01 6.462334632873535156e+00 2.133814334869384766e+00 5.411429405212402344e-01
7.277000000000000000e+03 3.219325637817382812e+01 -3.314599990844726562e+01 3.272721171379089355e-01 2.247128784656524658e-01 1.655955016613006592e-01 -8.878785371780395508e-02
7.278000000000000000e+03 3.759836196899414062e+01 1.786871910095214844e+01 3.801231384277343750e-01 -2.147969752550125122e-01 4.959785193204879761e-02 1.248083636164665222e-01
7.279000000000000000e+03 2.432467079162597656e+01 -2.447973632812500000e+01 2.954721152782440186e-01 -1.089987084269523621e-01 5.594202131032943726e-02 -1.426038146018981934e-01
7.280000000000000000e+03 2.498056983947753906e+01 -2.424350929260253906e+01 2.775238752365112305e-01 -1.482007652521133423e-01 3.879693523049354553e-02 -1.552767157554626465e-01
7.281000000000000000e+03 3.651248550415039062e+01 1.594646739959716797e+01 3.100461363792419434e-01 -4.015956819057464600e-01 -2.746485732495784760e-02 1.899804621934890747e-01
7.282000000000000000e+03 4.876655578613281250e+01 2.444320869445800781e+01 4.539242684841156006e-01 2.383811712265014648e+00 8.513207435607910156e-01 -2.032153904438018799e-01
7.283000000000000000e+03 4.948319244384765625e+01 2.330046081542968750e+01 1.536985933780670166e-01 2.523248434066772461e+00 8.030841350555419922e-01 -4.938597977161407471e-01
7.284000000000000000e+03 3.992577362060546875e+01 1.477560806274414062e+01 1.958422511816024780e-01 -1.655338555574417114e-01 9.092517197132110596e-03 -1.675806045532226562e-01
7.285000000000000000e+03 3.767931365966796875e+01 1.708514404296875000e+01 3.696467280387878418e-01 -2.745376527309417725e-01 2.853271551430225372e-02 8.865308761596679688e-02
7.286000000000000000e+03 5.892733383178710938e+01 -1.648617362976074219e+01 -7.653314471244812012e-01 4.972477912902832031e+00 1.262143969535827637e+00 1.152557969093322754e+00
7.287000000000000000e+03 7.400342464447021484e+00 -3.212084197998046875e+01 -1.263260841369628906e-01 -2.306300252676010132e-01 -1.070868372917175293e-01 -2.091531753540039062e-01
7.288000000000000000e+03 3.197367286682128906e+01 -3.473685836791992188e+01 2.853426933288574219e-01 2.208841741085052490e-01 1.518680602312088013e-01 -1.499654911458492279e-02
7.289000000000000000e+03 7.313310241699218750e+01 3.609750366210937500e+01 7.685508579015731812e-02 5.876406669616699219e+00 1.785978555679321289e+00 1.033708825707435608e-01
7.290000000000000000e+03 6.837506866455078125e+01 3.496458435058593750e+01 6.656609475612640381e-02 4.691219806671142578e+00 1.427335739135742188e+00 2.360999882221221924e-01
7.291000000000000000e+03 7.047535705566406250e+01 3.554152679443359375e+01 1.326576620340347290e-01 5.226453304290771484e+00 1.607733368873596191e+00 1.615427881479263306e-01
7.292000000000000000e+03 4.738613128662109375e+01 3.786683654785156250e+01 -3.567332401871681213e-02 2.106956005096435547e+00 6.213848590850830078e-01 -4.023816883563995361e-01
7.293000000000000000e+03 7.219101715087890625e+01 -3.446497344970703125e+01 7.845418453216552734e-01 5.187114238739013672e+00 1.791496753692626953e+00 -3.044112026691436768e-01
7.294000000000000000e+03 7.336742401123046875e+01 -3.558110809326171875e+01 4.332412481307983398e-01 5.757054805755615234e+00 1.857088923454284668e+00 -2.431446462869644165e-01
7.295000000000000000e+03 3.097760772705078125e+01 -3.293260192871093750e+01 2.769050002098083496e-01 1.552891433238983154e-01 1.296582370996475220e-01 -9.425860643386840820e-02
7.296000000000000000e+03 2.446907615661621094e+01 3.977188873291015625e+01 2.560742497444152832e-01 -2.185838297009468079e-02 7.026476413011550903e-02 2.714160829782485962e-02
7.297000000000000000e+03 6.862862110137939453e+00 -4.169757843017578125e+01 1.995928138494491577e-01 -3.939293026924133301e-01 -5.830094590783119202e-02 -3.285675868391990662e-02
7.298000000000000000e+03 7.196477508544921875e+01 4.152530670166015625e+01 -1.012315079569816589e-01 5.769647598266601562e+00 1.700524806976318359e+00 -1.946150092408061028e-03
7.299000000000000000e+03 5.297063446044921875e+01 2.120865058898925781e+01 -8.291251659393310547e-01 3.667829990386962891e+00 8.516114354133605957e-01 -1.746352791786193848e+00
7.300000000000000000e+03 2.642548561096191406e+01 -2.485154342651367188e+01 3.276570141315460205e-01 -1.589611023664474487e-01 5.060876905918121338e-02 -1.670636236667633057e-01
7.301000000000000000e+03 2.582344055175781250e+01 -2.490253639221191406e+01 3.398735523223876953e-01 -1.657740622758865356e-01 5.222984403371810913e-02 -1.595855206251144409e-01
7.302000000000000000e+03 6.047215652465820312e+01 -1.817831420898437500e+01 -2.647938765585422516e-02 5.652035236358642578e+00 1.687666773796081543e+00 5.724583268165588379e-01
7.303000000000000000e+03 7.161564636230468750e+01 4.668347358703613281e+00 -6.523912549018859863e-01 5.211246490478515625e+00 1.367656588554382324e+00 1.817616105079650879e+00
7.304000000000000000e+03 7.252420043945312500e+01 2.504861259460449219e+01 -1.667997837066650391e-01 5.481128215789794922e+00 1.594298481941223145e+00 -8.826497793197631836e-01
7.305000000000000000e+03 7.378135681152343750e+01 2.693867301940917969e+01 1.343355476856231689e-01 5.972971916198730469e+00 1.832192182540893555e+00 -5.942146182060241699e-01
7.306000000000000000e+03 2.438855361938476562e+01 -2.116646003723144531e+01 -1.430657040327787399e-02 -1.840908080339431763e-01 -5.951921269297599792e-02 -2.230657339096069336e-01
7.307000000000000000e+03 5.947745513916015625e+01 -1.520662307739257812e+01 -1.196609139442443848e+00 5.595750808715820312e+00 1.319742560386657715e+00 1.500114321708679199e+00
7.308000000000000000e+03 8.795484542846679688e+00 -2.982087516784667969e+01 -1.768547743558883667e-01 -2.102923095226287842e-01 -1.161441281437873840e-01 -1.884519457817077637e-01
7.309000000000000000e+03 7.625890254974365234e+00 -2.852549171447753906e+01 -1.385606974363327026e-01 -1.396132260560989380e-01 -8.345218002796173096e-02 -1.318735629320144653e-01
7.310000000000000000e+03 7.306074523925781250e+01 3.330629348754882812e+00 -1.665573567152023315e-01 5.197690963745117188e+00 1.509340167045593262e+00 7.341995835304260254e-01
7.311000000000000000e+03 7.108589172363281250e+01 4.336856842041015625e+00 -4.375288784503936768e-01 4.512907981872558594e+00 1.222613811492919922e+00 2.198785781860351562e+00
7.312000000000000000e+03 4.976328277587890625e+01 2.263631629943847656e+01 9.535317309200763702e-03 2.499564409255981445e+00 7.527298927307128906e-01 -7.209293246269226074e-01
7.313000000000000000e+03 5.867108154296875000e+01 -1.453026485443115234e+01 -8.935286402702331543e-01 4.596461296081542969e+00 1.110879898071289062e+00 1.754573345184326172e+00
7.314000000000000000e+03 7.333228302001953125e+01 2.922651100158691406e+01 3.696382045745849609e-01 5.740271091461181641e+00 1.832972764968872070e+00 -3.579420447349548340e-01
7.315000000000000000e+03 7.289289855957031250e+01 3.169452476501464844e+01 3.832106888294219971e-01 5.663887023925781250e+00 1.814129352569580078e+00 -9.309145063161849976e-02
7.316000000000000000e+03 6.514665985107421875e+01 3.062938928604125977e+00 -3.147544562816619873e-01 3.879619598388671875e+00 1.069459557533264160e+00 5.328649282455444336e-01
7.317000000000000000e+03 6.640876770019531250e+01 2.784999847412109375e+00 3.323952555656433105e-01 3.115051984786987305e+00 1.034234166145324707e+00 1.790433168411254883e+00
7.318000000000000000e+03 6.092189788818359375e+00 -2.839820480346679688e+01 -1.027500405907630920e-01 -1.223123148083686829e-01 -6.751871109008789062e-02 -8.274629712104797363e-02
7.319000000000000000e+03 3.693265151977539062e+01 1.696878814697265625e+01 3.842514455318450928e-01 -3.018190264701843262e-01 2.472972869873046875e-02 1.662463098764419556e-01
7.320000000000000000e+03 7.198548126220703125e+01 2.289391136169433594e+01 -9.021788835525512695e-01 5.504324436187744141e+00 1.380643725395202637e+00 -1.055699229240417480e+00
7.321000000000000000e+03 7.829136371612548828e+00 -3.013212394714355469e+01 -1.595126241445541382e-01 -1.869933158159255981e-01 -1.039517819881439209e-01 -1.737375259399414062e-01
7.322000000000000000e+03 7.400102138519287109e+00 -2.912413787841796875e+01 -1.428110152482986450e-01 -1.485717147588729858e-01 -8.741481602191925049e-02 -1.384918987751007080e-01
7.323000000000000000e+03 7.271092224121093750e+01 2.309434700012207031e+01 -8.331829905509948730e-01 5.924440383911132812e+00 1.527377247810363770e+00 -9.022020101547241211e-01
7.324000000000000000e+03 7.335626983642578125e+01 2.323202133178710938e+01 -7.521233558654785156e-01 6.309786319732666016e+00 1.667298913002014160e+00 -7.489187121391296387e-01
7.325000000000000000e+03 4.993082046508789062e+01 2.522369003295898438e+01 5.409855246543884277e-01 2.977966308593750000e+00 1.055685520172119141e+00 -3.204483389854431152e-01
7.326000000000000000e+03 6.330073547363281250e+01 3.344128847122192383e+00 -1.285188317298889160e+00 5.451504707336425781e+00 1.249894857406616211e+00 -1.111553192138671875e+00
7.327000000000000000e+03 3.829508590698242188e+01 1.793063735961914062e+01 3.592735528945922852e-01 -1.712264716625213623e-01 5.641413107514381409e-02 7.075392454862594604e-02
7.328000000000000000e+03 6.617156982421875000e+01 2.423118400573730469e+01 6.898825764656066895e-01 2.533921241760253906e+00 9.671411514282226562e-01 2.570708692073822021e-01
7.329000000000000000e+03 6.712329864501953125e+01 2.432612228393554688e+01 6.356195211410522461e-01 2.396873235702514648e+00 9.097478389739990234e-01 -2.414469122886657715e-01
7.330000000000000000e+03 2.275230216979980469e+01 -1.844352340698242188e+01 -3.003463745117187500e-01 -2.660863101482391357e-01 -1.699298024177551270e-01 -4.171405732631683350e-01
7.331000000000000000e+03 2.211752128601074219e+01 -1.796838188171386719e+01 -3.505907952785491943e-01 -2.462299615144729614e-01 -1.790462285280227661e-01 -4.531060457229614258e-01
7.332000000000000000e+03 6.525745391845703125e+00 -2.948042297363281250e+01 -1.257604062557220459e-01 -1.505604684352874756e-01 -8.289626240730285645e-02 -1.204374358057975769e-01
7.333000000000000000e+03 3.998183059692382812e+01 1.617307281494140625e+01 2.308565825223922729e-01 -2.776841819286346436e-02 6.092644855380058289e-02 -1.280739903450012207e-01
7.334000000000000000e+03 7.121207427978515625e+01 3.270348787307739258e+00 1.064250618219375610e-01 3.935913801193237305e+00 1.212701678276062012e+00 1.986802101135253906e+00
7.335000000000000000e+03 7.358381271362304688e+00 -2.759080696105957031e+01 -1.164816617965698242e-01 -1.051547229290008545e-01 -6.649091839790344238e-02 -1.074837222695350647e-01
7.336000000000000000e+03 2.568659019470214844e+01 9.002022743225097656e+00 3.576529026031494141e-01 3.374991193413734436e-02 1.174208447337150574e-01 1.380153894424438477e-01
7.337000000000000000e+03 7.298897552490234375e+01 2.752225112915039062e+01 2.975647747516632080e-01 5.580555915832519531e+00 1.763436198234558105e+00 -5.644265413284301758e-01
7.338000000000000000e+03 7.387126159667968750e+01 2.346189880371093750e+01 -6.448316574096679688e-01 6.500891208648681641e+00 1.756817817687988281e+00 -6.543897390365600586e-01
7.339000000000000000e+03 6.711648559570312500e+01 2.213005781173706055e+00 7.903916239738464355e-01 3.126762866973876953e+00 1.175146341323852539e+00 2.418975353240966797e+00
7.340000000000000000e+03 6.801842212677001953e+00 1.781734848022460938e+01 2.518610656261444092e-01 -2.838011085987091064e-01 -9.582014754414558411e-03 1.335558146238327026e-01
7.341000000000000000e+03 6.584253311157226562e+00 1.843699836730957031e+01 2.116031646728515625e-01 -3.100344836711883545e-01 -2.952939644455909729e-02 1.015102565288543701e-01
7.342000000000000000e+03 7.126446533203125000e+01 2.258341979980468750e+01 -1.076985239982604980e+00 5.026653766632080078e+00 1.184900641441345215e+00 -1.222604274749755859e+00
7.343000000000000000e+03 7.384909820556640625e+01 2.532585716247558594e+01 -1.664867997169494629e-01 6.151964664459228516e+00 1.795643329620361328e+00 -6.934345960617065430e-01
7.344000000000000000e+03 9.025878906250000000e+00 -2.736656379699707031e+01 -1.200727969408035278e-01 -1.575373262166976929e-01 -8.328303694725036621e-02 -1.669847965240478516e-01
7.345000000000000000e+03 7.365917205810546875e+01 5.626924991607666016e+00 -6.615385413169860840e-01 6.988502979278564453e+00 1.898089289665222168e+00 2.724255919456481934e-01
7.346000000000000000e+03 7.254742431640625000e+01 3.867720842361450195e+00 -3.184333145618438721e-01 5.263654708862304688e+00 1.483566403388977051e+00 1.109170913696289062e+00
7.347000000000000000e+03 7.363500213623046875e+01 3.610130071640014648e+00 -3.282461166381835938e-01 5.797393798828125000e+00 1.640744328498840332e+00 4.095391631126403809e-01
7.348000000000000000e+03 7.423111724853515625e+01 3.685495138168334961e+00 -3.873810470104217529e-01 6.201697826385498047e+00 1.744295120239257812e+00 6.547028571367263794e-02
7.349000000000000000e+03 7.286714935302734375e+01 2.466390419006347656e+01 -2.899834811687469482e-01 5.757291793823242188e+00 1.640192508697509766e+00 -8.460127711296081543e-01
7.350000000000000000e+03 7.334858894348144531e+00 -8.942101478576660156e+00 -1.995654962956905365e-02 -9.067735075950622559e-02 -3.319017216563224792e-02 -1.439372915774583817e-02
7.351000000000000000e+03 5.779979228973388672e+00 -9.821841239929199219e+00 -2.459317073225975037e-02 -8.149231970310211182e-02 -3.182564675807952881e-02 2.626798348501324654e-03
7.352000000000000000e+03 3.785598373413085938e+01 1.631996536254882812e+01 3.282161056995391846e-01 -3.396745622158050537e-01 -3.437533741816878319e-03 5.573940277099609375e-02
7.353000000000000000e+03 7.061395168304443359e+00 -8.286116600036621094e+00 -9.573384188115596771e-03 -8.333331346511840820e-02 -2.787200920283794403e-02 -6.393540650606155396e-03
7.354000000000000000e+03 6.135797977447509766e+00 -9.315919876098632812e+00 -1.882703788578510284e-02 -8.272171020507812500e-02 -3.046462498605251312e-02 1.408863347023725510e-03
7.355000000000000000e+03 2.537556838989257812e+01 -1.861520767211914062e+01 -1.949921697378158569e-01 -3.613340258598327637e-01 -1.668978631496429443e-01 -2.576728165149688721e-01
7.356000000000000000e+03 6.005879402160644531e+00 -8.046568870544433594e+00 -3.092074999585747719e-03 -6.656083464622497559e-02 -2.089587226510047913e-02 9.486019611358642578e-03
7.357000000000000000e+03 7.311878204345703125e+01 2.601905441284179688e+01 3.602773323655128479e-02 5.725875377655029297e+00 1.728570938110351562e+00 -7.238801717758178711e-01
7.358000000000000000e+03 6.919804382324218750e+01 2.766814994812011719e+01 9.797607660293579102e-01 3.999529600143432617e+00 1.493787050247192383e+00 -1.880021840333938599e-01
7.359000000000000000e+03 7.309636688232421875e+01 2.678093719482421875e+01 1.719408035278320312e-01 5.649186134338378906e+00 1.746338009834289551e+00 -6.403067708015441895e-01
7.360000000000000000e+03 2.545371246337890625e+01 1.003483104705810547e+01 3.150485157966613770e-01 5.733445868827402592e-04 9.468655288219451904e-02 1.277285516262054443e-01
7.361000000000000000e+03 7.261461639404296875e+01 3.256412887573242188e+01 3.336067497730255127e-01 5.628209590911865234e+00 1.788544893264770508e+00 -1.509178336709737778e-02
7.362000000000000000e+03 7.233541107177734375e+01 3.351786422729492188e+01 2.903670072555541992e-01 5.597955703735351562e+00 1.766496777534484863e+00 3.843797370791435242e-02
7.363000000000000000e+03 6.188410568237304688e+01 -1.205535793304443359e+01 -1.369694352149963379e+00 9.193745613098144531e+00 2.347215414047241211e+00 1.466688275337219238e+00
7.364000000000000000e+03 1.986426925659179688e+01 -1.996729087829589844e+01 -3.072389662265777588e-01 -6.134985014796257019e-02 -1.105766519904136658e-01 -5.083360075950622559e-01
7.365000000000000000e+03 7.238636779785156250e+01 -3.114364814758300781e+01 7.975780963897705078e-01 4.533401489257812500e+00 1.599293947219848633e+00 5.795236229896545410e-01
7.366000000000000000e+03 4.074017333984375000e+01 1.723995780944824219e+01 2.022596597671508789e-01 1.603641211986541748e-01 1.087871342897415161e-01 -8.767117559909820557e-02
7.367000000000000000e+03 3.909738540649414062e+01 1.678117179870605469e+01 2.954266667366027832e-01 -1.508496403694152832e-01 4.337310791015625000e-02 -3.377050533890724182e-02
7.368000000000000000e+03 3.378094100952148438e+01 -1.183638572692871094e+01 -4.135944247245788574e-01 3.288730606436729431e-02 -1.142121404409408569e-01 4.438465088605880737e-02
7.369000000000000000e+03 2.485511016845703125e+01 1.042875957489013672e+01 2.817404270172119141e-01 -7.179857045412063599e-02 6.298255175352096558e-02 1.152462139725685120e-01
7.370000000000000000e+03 6.216827774047851562e+01 -1.516075229644775391e+01 -2.235911846160888672e+00 7.777773857116699219e+00 1.662558555603027344e+00 8.489984869956970215e-01
7.371000000000000000e+03 2.051263046264648438e+01 -2.289607048034667969e+01 -6.119009107351303101e-02 5.386380478739738464e-02 -2.197886584326624870e-03 -3.193730115890502930e-01
7.372000000000000000e+03 1.965789031982421875e+01 -2.156904411315917969e+01 -2.449431121349334717e-01 -1.823059096932411194e-02 -7.895211130380630493e-02 -4.314922094345092773e-01
7.373000000000000000e+03 6.019777679443359375e+01 4.817902565002441406e+00 -2.372683763504028320e+00 6.615607261657714844e+00 1.272876977920532227e+00 -2.242865562438964844e+00
7.374000000000000000e+03 6.300419998168945312e+01 -1.308634853363037109e+01 -1.837211608886718750e+00 8.474637031555175781e+00 1.991227746009826660e+00 8.513972163200378418e-01
7.375000000000000000e+03 2.352130889892578125e+01 -1.883090972900390625e+01 -2.445048689842224121e-01 -2.872944474220275879e-01 -1.595397889614105225e-01 -3.649266362190246582e-01
7.376000000000000000e+03 1.119555854797363281e+01 -8.544687271118164062e+00 -5.454158037900924683e-02 -2.090077102184295654e-02 -2.263270504772663116e-02 -6.339605152606964111e-02
7.377000000000000000e+03 1.131987380981445312e+01 -7.503506183624267578e+00 -2.766702137887477875e-02 -2.283476293087005615e-02 -1.515053492039442062e-02 -5.259280651807785034e-02
7.378000000000000000e+03 7.228156280517578125e+01 -3.336413192749023438e+01 9.064426422119140625e-01 4.964524745941162109e+00 1.761290192604064941e+00 -1.008217260241508484e-01
7.379000000000000000e+03 3.716400909423828125e+01 1.614646530151367188e+01 3.338629901409149170e-01 -3.923519253730773926e-01 -1.754667423665523529e-02 1.205441802740097046e-01
7.380000000000000000e+03 1.933077239990234375e+01 -2.091800498962402344e+01 -2.996462881565093994e-01 -3.312786296010017395e-02 -9.983224421739578247e-02 -4.832106232643127441e-01
7.381000000000000000e+03 2.005141639709472656e+01 -2.058202743530273438e+01 -2.715747654438018799e-01 -5.275539308786392212e-02 -9.729904681444168091e-02 -4.776831269264221191e-01
7.382000000000000000e+03 2.401628494262695312e+01 -2.316633224487304688e+01 1.468930095434188843e-01 -1.141405776143074036e-01 9.825727902352809906e-03 -1.730855107307434082e-01
7.383000000000000000e+03 5.868868637084960938e+01 -1.509346389770507812e+01 -8.590980172157287598e-01 4.594281673431396484e+00 1.120555043220520020e+00 1.564264774322509766e+00
7.384000000000000000e+03 2.556154632568359375e+01 -1.803827095031738281e+01 -2.531644999980926514e-01 -3.999731838703155518e-01 -1.959413141012191772e-01 -2.800325453281402588e-01
7.385000000000000000e+03 5.993217468261718750e+01 -1.756880950927734375e+01 -3.729974031448364258e-01 5.529417037963867188e+00 1.546925902366638184e+00 8.205350041389465332e-01
7.386000000000000000e+03 6.110813903808593750e+01 -1.769378852844238281e+01 -4.381577670574188232e-01 6.343217372894287109e+00 1.771517872810363770e+00 3.324846029281616211e-01
7.387000000000000000e+03 6.192223358154296875e+01 -1.618899345397949219e+01 -1.831249475479125977e+00 7.389576911926269531e+00 1.667498230934143066e+00 5.171654820442199707e-01
7.388000000000000000e+03 2.477214813232421875e+01 -2.305106353759765625e+01 1.547659188508987427e-01 -1.389717906713485718e-01 4.738237708806991577e-03 -1.661572456359863281e-01
7.389000000000000000e+03 6.745309829711914062e+00 -2.875912666320800781e+01 -1.245923265814781189e-01 -1.330437213182449341e-01 -7.729081809520721436e-02 -1.082453876733779907e-01
7.390000000000000000e+03 9.094767570495605469e+00 -2.917041587829589844e+01 -1.739601492881774902e-01 -2.147186845541000366e-01 -1.166036501526832581e-01 -1.812673807144165039e-01
7.391000000000000000e+03 2.610557937622070312e+01 9.617592811584472656e+00 3.401570022106170654e-01 1.070584207773208618e-01 1.341646313667297363e-01 1.321462094783782959e-01
7.392000000000000000e+03 2.553483200073242188e+01 1.105563545227050781e+01 2.455815672874450684e-01 -1.120996102690696716e-02 7.031148672103881836e-02 1.202319264411926270e-01
7.393000000000000000e+03 8.873753547668457031e+00 -8.743456840515136719e+00 -2.716726437211036682e-02 -8.343178778886795044e-02 -3.317971527576446533e-02 -4.100726172327995300e-02
7.394000000000000000e+03 8.527385711669921875e+00 -7.551228523254394531e+00 -7.495689205825328827e-03 -7.138206064701080322e-02 -2.366332523524761200e-02 -2.587513439357280731e-02
7.395000000000000000e+03 7.232798004150390625e+01 2.460318088531494141e+00 3.088450133800506592e-01 3.995937585830688477e+00 1.291434764862060547e+00 1.022831916809082031e+00
7.396000000000000000e+03 7.341300201416015625e+01 2.668984174728393555e+00 -4.883089289069175720e-02 5.098295211791992188e+00 1.514839291572570801e+00 2.998647987842559814e-01
7.397000000000000000e+03 3.576969528198242188e+01 1.744444084167480469e+01 4.092191457748413086e-01 -2.113917768001556396e-01 5.934820696711540222e-02 2.776386439800262451e-01
7.398000000000000000e+03 6.842415618896484375e+01 2.535150718688964844e+01 7.647704482078552246e-01 3.170773029327392578e+00 1.180663108825683594e+00 -5.745730996131896973e-01
7.399000000000000000e+03 6.771058654785156250e+01 2.391271209716796875e+01 2.742581069469451904e-01 2.247101306915283203e+00 7.564078569412231445e-01 -6.209800243377685547e-01
7.400000000000000000e+03 5.667285156250000000e+01 5.483242511749267578e+00 -1.230245351791381836e+00 4.219549655914306641e+00 8.967913389205932617e-01 -1.289848566055297852e+00
7.401000000000000000e+03 5.811692047119140625e+01 -1.427828025817871094e+01 -6.147077083587646484e-01 3.720277786254882812e+00 9.316709637641906738e-01 1.698592424392700195e+00
7.402000000000000000e+03 7.360046386718750000e+00 -7.300501823425292969e+00 6.575423176400363445e-04 -6.777384877204895020e-02 -2.013489231467247009e-02 -6.730626337230205536e-03
7.403000000000000000e+03 7.809776782989501953e+00 -7.985106468200683594e+00 -7.065225392580032349e-03 -7.710890471935272217e-02 -2.525223791599273682e-02 -1.891204342246055603e-02
7.404000000000000000e+03 5.820103454589843750e+01 6.728674411773681641e+00 -1.552812695503234863e+00 5.860678672790527344e+00 1.292359828948974609e+00 -1.253994584083557129e+00
7.405000000000000000e+03 6.822540283203125000e+00 -9.730629920959472656e+00 -3.110841847956180573e-02 -9.883350878953933716e-02 -3.898257762193679810e-02 -1.190486829727888107e-02
7.406000000000000000e+03 6.280933761596679688e+01 -1.487333965301513672e+01 -2.405352592468261719e+00 8.024129867553710938e+00 1.685633182525634766e+00 8.304782509803771973e-01
7.407000000000000000e+03 8.189612388610839844e+00 -3.118165397644042969e+01 -1.608227938413619995e-01 -2.179969996213912964e-01 -1.136459410190582275e-01 -2.047025859355926514e-01
7.408000000000000000e+03 2.011194992065429688e+01 -2.219990539550781250e+01 -1.579031944274902344e-01 1.476538740098476410e-02 -4.294134303927421570e-02 -3.825448751449584961e-01
7.409000000000000000e+03 7.243095397949218750e+01 2.984331512451171875e+01 4.800226688385009766e-01 5.407866477966308594e+00 1.766366720199584961e+00 -2.402203977108001709e-01
7.410000000000000000e+03 6.902973937988281250e+01 2.950108718872070312e+01 9.204083085060119629e-01 4.322341442108154297e+00 1.572824954986572266e+00 1.133952960371971130e-01
7.411000000000000000e+03 6.502336120605468750e+01 2.416864633560180664e+00 1.049763336777687073e-01 4.532674312591552734e+00 1.391295194625854492e+00 7.390745878219604492e-01
7.412000000000000000e+03 3.807091903686523438e+01 1.559431648254394531e+01 2.685162723064422607e-01 -3.967349529266357422e-01 -3.846560046076774597e-02 1.892421022057533264e-02
7.413000000000000000e+03 2.503202438354492188e+01 7.632107734680175781e+00 2.954300642013549805e-01 -6.073004752397537231e-02 7.041000574827194214e-02 1.548099070787429810e-01
7.414000000000000000e+03 7.140300750732421875e+01 3.157869148254394531e+01 5.044921636581420898e-01 5.184774875640869141e+00 1.706780195236206055e+00 3.887952771037817001e-03
7.415000000000000000e+03 6.411305999755859375e+01 2.997806549072265625e+00 -6.334413290023803711e-01 4.924028396606445312e+00 1.287176132202148438e+00 -3.073249161243438721e-01
7.416000000000000000e+03 6.124367523193359375e+01 -1.659829330444335938e+01 -1.279507875442504883e+00 6.861074447631835938e+00 1.674469947814941406e+00 5.617921948432922363e-01
7.417000000000000000e+03 6.367627716064453125e+01 -1.398774719238281250e+01 -2.233819484710693359e+00 7.921680450439453125e+00 1.706358432769775391e+00 7.327659130096435547e-01
7.418000000000000000e+03 1.184261703491210938e+01 -8.155804634094238281e+00 -5.131155997514724731e-02 -5.395609769038856030e-04 -1.555533707141876221e-02 -4.946644231677055359e-02
7.419000000000000000e+03 6.691773223876953125e+01 2.534029769897460938e+01 1.143134713172912598e+00 2.870931625366210938e+00 1.204219937324523926e+00 2.212956920266151428e-02
7.420000000000000000e+03 6.464917755126953125e+01 1.499478578567504883e+00 5.267366170883178711e-01 5.573668479919433594e+00 1.830121517181396484e+00 7.918888926506042480e-01
7.421000000000000000e+03 3.877676391601562500e+01 1.581278896331787109e+01 2.741921246051788330e-01 -2.823822796344757080e-01 -2.457042923197150230e-03 -4.897876828908920288e-02
7.422000000000000000e+03 3.897903060913085938e+01 1.515821361541748047e+01 2.234998792409896851e-01 -3.255975842475891113e-01 -3.062930703163146973e-02 -8.297129720449447632e-02
7.423000000000000000e+03 7.052692413330078125e+01 2.587761878967285156e+01 4.033771455287933350e-01 4.269656658172607422e+00 1.401910185813903809e+00 -8.062844872474670410e-01
7.424000000000000000e+03 6.982730865478515625e+01 2.798357391357421875e+01 8.714541196823120117e-01 4.256383895874023438e+00 1.538351297378540039e+00 -2.481250762939453125e-01
7.425000000000000000e+03 3.115625000000000000e+01 -3.646580505371093750e+01 2.592044174671173096e-01 1.650111824274063110e-01 1.272646784782409668e-01 5.568747222423553467e-02
7.426000000000000000e+03 3.097229957580566406e+01 -3.505934524536132812e+01 2.615337371826171875e-01 1.499817818403244019e-01 1.234546527266502380e-01 -1.278478070162236691e-03
7.427000000000000000e+03 6.874446868896484375e+01 3.594650650024414062e+01 -1.687812432646751404e-02 4.802755832672119141e+00 1.435763359069824219e+00 1.267200857400894165e-01
7.428000000000000000e+03 7.133729553222656250e+01 3.765003967285156250e+01 -2.550986781716346741e-02 5.382215499877929688e+00 1.607011675834655762e+00 9.723604470491409302e-02
7.429000000000000000e+03 6.932128906250000000e+01 3.205160903930664062e+01 5.581272840499877930e-01 4.688440322875976562e+00 1.573970317840576172e+00 2.508319318294525146e-01
7.430000000000000000e+03 6.948905181884765625e+01 3.407189559936523438e+01 2.522596120834350586e-01 4.920235633850097656e+00 1.551748514175415039e+00 2.274194359779357910e-01
7.431000000000000000e+03 2.537183761596679688e+01 3.728844451904296875e+01 2.298093289136886597e-01 3.625674918293952942e-02 7.981982082128524780e-02 7.498788088560104370e-02
7.432000000000000000e+03 7.173803710937500000e+01 3.600624465942382812e+01 1.123371198773384094e-01 5.517542839050292969e+00 1.688964009284973145e+00 8.852692693471908569e-02
7.433000000000000000e+03 7.126463317871093750e+01 3.955081558227539062e+01 -1.120264753699302673e-01 5.456644058227539062e+00 1.603385329246520996e+00 5.296615511178970337e-02
7.434000000000000000e+03 2.531842994689941406e+01 8.339230537414550781e+00 3.371025621891021729e-01 -1.697628572583198547e-02 9.603787958621978760e-02 1.474506258964538574e-01
7.435000000000000000e+03 5.031303787231445312e+01 2.294405174255371094e+01 -1.218382194638252258e-01 2.867992401123046875e+00 8.238462805747985840e-01 -7.692832350730895996e-01
7.436000000000000000e+03 7.171552181243896484e+00 -2.980036735534667969e+01 -1.431057453155517578e-01 -1.688247919082641602e-01 -9.357916563749313354e-02 -1.451303809881210327e-01
7.437000000000000000e+03 6.512643432617187500e+01 1.877611875534057617e+00 5.206372737884521484e-01 4.869569778442382812e+00 1.617062211036682129e+00 1.029201865196228027e+00
7.438000000000000000e+03 6.070655059814453125e+01 -1.588875102996826172e+01 -1.484376788139343262e+00 6.616207599639892578e+00 1.539549350738525391e+00 1.011683583259582520e+00
7.439000000000000000e+03 1.871354484558105469e+01 -2.368816757202148438e+01 -4.234924912452697754e-02 -1.730628125369548798e-02 -1.789665967226028442e-02 -3.718585371971130371e-01
7.440000000000000000e+03 1.944393730163574219e+01 -2.262633895874023438e+01 -1.363074481487274170e-01 8.219116367399692535e-03 -3.842649608850479126e-02 -3.763625025749206543e-01
7.441000000000000000e+03 5.702397155761718750e+01 1.858334541320800781e+01 7.508450746536254883e-01 3.596338748931884766e+00 1.304155111312866211e+00 -1.311905980110168457e+00
7.442000000000000000e+03 2.130014991760253906e+01 -2.260700035095214844e+01 -4.989413917064666748e-02 2.487992495298385620e-02 -7.504263892769813538e-03 -3.048619329929351807e-01
7.443000000000000000e+03 5.932184600830078125e+01 -1.590341567993164062e+01 -1.020329236984252930e+00 5.340661525726318359e+00 1.296099781990051270e+00 1.277291178703308105e+00
7.444000000000000000e+03 3.939683532714843750e+01 1.722911834716796875e+01 2.965237498283386230e-01 -7.138828933238983154e-02 6.754063814878463745e-02 -3.162218257784843445e-02
7.445000000000000000e+03 7.213597869873046875e+01 3.351659536361694336e+00 -2.716485038399696350e-02 4.548131942749023438e+00 1.356290102005004883e+00 1.331123352050781250e+00
7.446000000000000000e+03 2.366227722167968750e+01 -1.993781852722167969e+01 -1.493394821882247925e-01 -2.296711951494216919e-01 -1.137032061815261841e-01 -3.124260008335113525e-01
7.447000000000000000e+03 2.307933807373046875e+01 -2.273396873474121094e+01 6.423860043287277222e-02 -7.145413756370544434e-02 -2.164662815630435944e-03 -2.138446569442749023e-01
7.448000000000000000e+03 8.162673950195312500e+00 -2.773932456970214844e+01 -1.310948878526687622e-01 -1.285409182310104370e-01 -7.789074629545211792e-02 -1.391382068395614624e-01
7.449000000000000000e+03 7.841300487518310547e+00 -2.804099273681640625e+01 -1.326933056116104126e-01 -1.272802501916885376e-01 -7.799206674098968506e-02 -1.326182782649993896e-01
7.450000000000000000e+03 6.950417041778564453e+00 -3.052520751953125000e+01 -1.363911479711532593e-01 -1.825806051492691040e-01 -9.569152444601058960e-02 -1.566840410232543945e-01
7.451000000000000000e+03 2.510666084289550781e+01 -1.975604629516601562e+01 -1.144641563296318054e-01 -2.916401028633117676e-01 -1.218312755227088928e-01 -2.382407635450363159e-01
7.452000000000000000e+03 2.066192626953125000e+01 -1.777755737304687500e+01 -3.393552005290985107e-01 -1.779107451438903809e-01 -1.551797837018966675e-01 -5.045036077499389648e-01
7.453000000000000000e+03 7.177502441406250000e+01 2.828933477401733398e+00 2.913967669010162354e-01 3.923203468322753906e+00 1.264380097389221191e+00 1.516524076461791992e+00
7.454000000000000000e+03 7.016242980957031250e+01 2.339181137084960938e+01 -5.897395610809326172e-01 4.031755447387695312e+00 1.032604813575744629e+00 -1.284261703491210938e+00
7.455000000000000000e+03 7.232408142089843750e+01 2.407992935180664062e+01 -4.998043477535247803e-01 5.504911422729492188e+00 1.501532077789306641e+00 -9.755198359489440918e-01
7.456000000000000000e+03 3.891831588745117188e+01 1.729768180847167969e+01 3.238770663738250732e-01 -1.517758667469024658e-01 5.163035914301872253e-02 1.467840396799147129e-03
7.457000000000000000e+03 7.286916351318359375e+01 2.239125251770019531e+01 -1.060195684432983398e+00 6.211349964141845703e+00 1.545346260070800781e+00 -8.143397569656372070e-01
7.458000000000000000e+03 7.320679473876953125e+01 2.430015563964843750e+01 -4.233321547508239746e-01 5.934188365936279297e+00 1.653256893157958984e+00 -8.283467292785644531e-01
7.459000000000000000e+03 7.102051544189453125e+01 2.317996406555175781e+01 -7.688147425651550293e-01 4.728923320770263672e+00 1.188032507896423340e+00 -1.237071156501770020e+00
7.460000000000000000e+03 2.501291084289550781e+01 1.102663516998291016e+01 2.398400008678436279e-01 -5.030630528926849365e-02 5.686010792851448059e-02 1.069879233837127686e-01
7.461000000000000000e+03 7.427476501464843750e+01 6.184860229492187500e+00 -5.489587783813476562e-01 7.451312541961669922e+00 2.070706129074096680e+00 -1.674882322549819946e-01
7.462000000000000000e+03 7.170545959472656250e+01 2.355848884582519531e+01 -6.577710509300231934e-01 5.186463356018066406e+00 1.358607649803161621e+00 -1.110588908195495605e+00
7.463000000000000000e+03 5.924403190612792969e+00 1.619338417053222656e+01 2.170569151639938354e-01 -2.973639667034149170e-01 -2.409211173653602600e-02 2.017481774091720581e-01
7.464000000000000000e+03 6.182233810424804688e+01 -1.445588207244873047e+01 -2.126663208007812500e+00 7.912684917449951172e+00 1.735806584358215332e+00 1.182085156440734863e+00
7.465000000000000000e+03 6.928719329833984375e+01 2.465289878845214844e+01 3.083946406841278076e-01 3.410927772521972656e+00 1.115796685218811035e+00 -9.505411386489868164e-01
7.466000000000000000e+03 5.838549613952636719e+00 -8.937322616577148438e+00 -1.159447617828845978e-02 -7.597558200359344482e-02 -2.627101726830005646e-02 8.338015526533126831e-03
7.467000000000000000e+03 7.074268341064453125e+01 2.525222778320312500e+01 1.683586835861206055e-01 4.391151428222656250e+00 1.367852926254272461e+00 -9.513956904411315918e-01
7.468000000000000000e+03 7.244261932373046875e+01 2.663883399963378906e+01 2.362014651298522949e-01 5.346461772918701172e+00 1.674798965454101562e+00 -7.013893723487854004e-01
7.469000000000000000e+03 2.062657356262207031e+01 -1.961344337463378906e+01 -2.846244275569915771e-01 -1.034204885363578796e-01 -1.164134740829467773e-01 -4.882562160491943359e-01
7.470000000000000000e+03 7.262168121337890625e+01 2.903536605834960938e+01 4.594569504261016846e-01 5.439275264739990234e+00 1.769619703292846680e+00 -3.576226830482482910e-01
7.471000000000000000e+03 6.947357940673828125e+01 2.873358345031738281e+01 9.235087633132934570e-01 4.280928611755371094e+00 1.561331272125244141e+00 -6.453825533390045166e-02
7.472000000000000000e+03 2.028919219970703125e+01 -2.118100738525390625e+01 -2.275510877370834351e-01 -2.257717587053775787e-02 -7.503847777843475342e-02 -4.350205957889556885e-01
7.473000000000000000e+03 2.466569709777832031e+01 -1.851617240905761719e+01 -2.295045703649520874e-01 -3.517915904521942139e-01 -1.743888556957244873e-01 -3.042447268962860107e-01
7.474000000000000000e+03 2.295130920410156250e+01 -2.038926315307617188e+01 -1.436280757188796997e-01 -1.647379845380783081e-01 -9.250981360673904419e-02 -3.364526033401489258e-01
7.475000000000000000e+03 2.191041946411132812e+01 -2.170853424072265625e+01 -9.625437110662460327e-02 -4.197579622268676758e-02 -4.146905243396759033e-02 -3.205620348453521729e-01
7.476000000000000000e+03 6.002667999267578125e+01 -1.639401435852050781e+01 -1.027179002761840820e+00 5.957924365997314453e+00 1.479223608970642090e+00 1.028211116790771484e+00
7.477000000000000000e+03 8.100335121154785156e+00 -8.762713432312011719e+00 -2.233580872416496277e-02 -9.561894088983535767e-02 -3.538642451167106628e-02 -2.780924551188945770e-02
7.478000000000000000e+03 7.195368957519531250e+01 2.456480598449707031e+01 -2.670635282993316650e-01 5.171743869781494141e+00 1.471404194831848145e+00 -1.000401735305786133e+00
7.479000000000000000e+03 7.015933990478515625e+01 2.909358024597167969e+01 8.095877170562744141e-01 4.536017417907714844e+00 1.603681445121765137e+00 -1.180385500192642212e-01
7.480000000000000000e+03 6.109578704833984375e+01 -1.479289627075195312e+01 -1.896465659141540527e+00 7.297906875610351562e+00 1.620432376861572266e+00 1.311069607734680176e+00
7.481000000000000000e+03 7.227254486083984375e+01 3.069066810607910156e+01 4.743545055389404297e-01 5.421075344085693359e+00 1.768628954887390137e+00 -1.477490961551666260e-01
7.482000000000000000e+03 7.216210937500000000e+01 3.151659202575683594e+01 4.554372727870941162e-01 5.423027038574218750e+00 1.763539195060729980e+00 -8.095215260982513428e-02
7.483000000000000000e+03 6.997632598876953125e+01 3.123669052124023438e+01 6.427632570266723633e-01 4.777343750000000000e+00 1.626032114028930664e+00 1.148130670189857483e-01
7.484000000000000000e+03 7.000372314453125000e+01 3.250437927246093750e+01 4.515373408794403076e-01 4.867316246032714844e+00 1.595656037330627441e+00 2.009869813919067383e-01
7.485000000000000000e+03 6.077769088745117188e+01 -1.409954071044921875e+01 -1.764612913131713867e+00 7.219349861145019531e+00 1.636421084403991699e+00 1.672889113426208496e+00
7.486000000000000000e+03 6.031354904174804688e+01 -1.511290264129638672e+01 -1.499256491661071777e+00 6.469768524169921875e+00 1.491153597831726074e+00 1.408360481262207031e+00
7.487000000000000000e+03 7.189580535888671875e+01 2.882885551452636719e+01 5.469242930412292480e-01 5.127883911132812500e+00 1.702442407608032227e+00 -3.513351082801818848e-01
7.488000000000000000e+03 7.198619842529296875e+01 4.225105285644531250e+00 -4.296971857547760010e-01 5.094630241394042969e+00 1.399479985237121582e+00 1.567205667495727539e+00
7.489000000000000000e+03 6.254085159301757812e+01 -1.416660499572753906e+01 -2.246662616729736328e+00 8.106296539306640625e+00 1.757890224456787109e+00 9.988521933555603027e-01
7.490000000000000000e+03 7.102235412597656250e+01 3.426678848266601562e+01 2.504014372825622559e-01 5.273941040039062500e+00 1.657302856445312500e+00 1.180457249283790588e-01
7.491000000000000000e+03 6.148378372192382812e+01 -1.372517299652099609e+01 -1.962692260742187500e+00 7.955607891082763672e+00 1.797874689102172852e+00 1.507110357284545898e+00
7.492000000000000000e+03 6.813848114013671875e+01 2.462314224243164062e+01 5.641187429428100586e-01 2.771633625030517578e+00 1.000725626945495605e+00 -6.723352670669555664e-01
7.493000000000000000e+03 6.839582824707031250e+01 2.649693870544433594e+01 1.065565347671508789e+00 3.506422042846679688e+00 1.371596217155456543e+00 -2.600623667240142822e-01
7.494000000000000000e+03 7.231032562255859375e+01 2.732092285156250000e+01 3.535872697830200195e-01 5.254533290863037109e+00 1.682436108589172363e+00 -5.972011685371398926e-01
7.495000000000000000e+03 3.052853775024414062e+01 -3.406026840209960938e+01 2.326159775257110596e-01 1.263408660888671875e-01 1.076870486140251160e-01 -4.724127054214477539e-02
7.496000000000000000e+03 7.072253417968750000e+01 2.374297904968261719e+01 -4.972254633903503418e-01 4.406732559204101562e+00 1.172852158546447754e+00 -1.235332608222961426e+00
7.497000000000000000e+03 6.851318359375000000e+01 2.598859405517578125e+01 9.229470491409301758e-01 3.389527797698974609e+00 1.293742418289184570e+00 -4.167924225330352783e-01
7.498000000000000000e+03 7.049143218994140625e+01 2.829376029968261719e+01 7.585149407386779785e-01 4.528716564178466797e+00 1.586169481277465820e+00 -3.013795316219329834e-01
7.499000000000000000e+03 3.854390716552734375e+01 1.650251579284667969e+01 3.160430490970611572e-01 -2.468263357877731323e-01 2.076501771807670593e-02 -1.049236115068197250e-02
7.500000000000000000e+03 3.834962844848632812e+01 1.720010948181152344e+01 3.459413647651672363e-01 -2.126853764057159424e-01 3.997679054737091064e-02 4.542030021548271179e-02
7.501000000000000000e+03 8.385932922363281250e+00 -2.824808883666992188e+01 -1.466229110956192017e-01 -1.565046310424804688e-01 -9.093826264142990112e-02 -1.557578444480895996e-01
7.502000000000000000e+03 2.228165817260742188e+01 -2.075150299072265625e+01 -1.525850892066955566e-01 -1.095119640231132507e-01 -7.862912118434906006e-02 -3.554773330688476562e-01
7.503000000000000000e+03 2.260058403015136719e+01 -2.139697837829589844e+01 -8.490870893001556396e-02 -9.404837340116500854e-02 -5.368712544441223145e-02 -3.027406334877014160e-01
7.504000000000000000e+03 3.944832992553710938e+01 1.594804000854492188e+01 2.548165619373321533e-01 -1.521185636520385742e-01 3.080940060317516327e-02 -1.053257584571838379e-01
7.505000000000000000e+03 6.804050445556640625e+01 2.615013122558593750e+01 1.069988012313842773e+00 3.280890464782714844e+00 1.305263519287109375e+00 -2.376039475202560425e-01
7.506000000000000000e+03 6.362147903442382812e+01 2.149738311767578125e+00 -3.786994814872741699e-01 5.956656455993652344e+00 1.673387050628662109e+00 -4.016983211040496826e-01
7.507000000000000000e+03 8.600499153137207031e+00 -2.754572105407714844e+01 -1.239856109023094177e-01 -1.338269710540771484e-01 -7.734377682209014893e-02 -1.559416949748992920e-01
7.508000000000000000e+03 7.143367767333984375e+01 2.780471420288085938e+01 5.581746101379394531e-01 4.860809803009033203e+00 1.625695228576660156e+00 -4.862863719463348389e-01
7.509000000000000000e+03 6.981731414794921875e+01 2.380077362060546875e+01 -2.689393162727355957e-01 3.635706424713134766e+00 1.010030150413513184e+00 -1.242833495140075684e+00
7.510000000000000000e+03 7.221468353271484375e+01 2.546316719055175781e+01 -2.179801091551780701e-02 5.274986267089843750e+00 1.575956463813781738e+00 -8.618093132972717285e-01
7.511000000000000000e+03 7.280010986328125000e+01 4.518273353576660156e+00 -5.577235221862792969e-01 5.857948303222656250e+00 1.590067386627197266e+00 9.923711419105529785e-01
7.512000000000000000e+03 7.195125579833984375e+01 2.588120079040527344e+01 1.346102505922317505e-01 5.076807022094726562e+00 1.563425064086914062e+00 -8.230749368667602539e-01
7.513000000000000000e+03 7.134523010253906250e+01 2.412788772583007812e+01 -3.767333924770355225e-01 4.833345413208007812e+00 1.336983680725097656e+00 -1.113039970397949219e+00
7.514000000000000000e+03 7.010664367675781250e+01 2.725228309631347656e+01 7.644185423851013184e-01 4.225939273834228516e+00 1.497107386589050293e+00 -4.456892609596252441e-01
7.515000000000000000e+03 7.163829803466796875e+01 2.708988952636718750e+01 4.398613870143890381e-01 4.924488544464111328e+00 1.609305024147033691e+00 -6.257542371749877930e-01
7.516000000000000000e+03 2.154793739318847656e+01 -1.926975822448730469e+01 -2.780587971210479736e-01 -1.586300730705261230e-01 -1.310066580772399902e-01 -4.587280452251434326e-01
7.517000000000000000e+03 2.428618240356445312e+01 -1.929038047790527344e+01 -1.751268208026885986e-01 -2.925125658512115479e-01 -1.402918249368667603e-01 -2.980068624019622803e-01
7.518000000000000000e+03 7.118289947509765625e+01 2.858225822448730469e+01 6.558245420455932617e-01 4.826519012451171875e+00 1.644703149795532227e+00 -3.293401002883911133e-01
7.519000000000000000e+03 2.167432975769042969e+01 -2.108628463745117188e+01 -1.625049561262130737e-01 -7.083322107791900635e-02 -7.000145316123962402e-02 -3.704679906368255615e-01
7.520000000000000000e+03 2.050694084167480469e+01 -1.833822631835937500e+01 -3.288891315460205078e-01 -1.434756815433502197e-01 -1.417094469070434570e-01 -5.117815136909484863e-01
7.521000000000000000e+03 2.074563598632812500e+01 -2.032496070861816406e+01 -2.537397742271423340e-01 -7.841486483812332153e-02 -9.964638948440551758e-02 -4.567323029041290283e-01
7.522000000000000000e+03 2.476124954223632812e+01 -2.049951553344726562e+01 -6.678498536348342896e-02 -2.445930391550064087e-01 -9.341340512037277222e-02 -2.314167618751525879e-01
7.523000000000000000e+03 8.328049659729003906e+00 -2.883768844604492188e+01 -1.553354263305664062e-01 -1.684786379337310791e-01 -9.714422374963760376e-02 -1.610864549875259399e-01
7.524000000000000000e+03 2.209540557861328125e+01 -2.236390113830566406e+01 -2.659163065254688263e-02 -2.376307360827922821e-02 -1.510641071945428848e-02 -2.707043886184692383e-01
7.525000000000000000e+03 6.890184783935546875e+01 2.672574615478515625e+01 9.671879410743713379e-01 3.704153299331665039e+00 1.401402354240417480e+00 -3.183733224868774414e-01
7.526000000000000000e+03 6.913558959960937500e+01 2.535698318481445312e+01 5.784359574317932129e-01 3.470063209533691406e+00 1.214549779891967773e+00 -7.312072515487670898e-01
7.527000000000000000e+03 7.212300109863281250e+01 2.804835510253906250e+01 4.735278487205505371e-01 5.187815189361572266e+00 1.698402881622314453e+00 -4.817287921905517578e-01
7.528000000000000000e+03 7.140505981445312500e+01 3.060006523132324219e+01 5.665683150291442871e-01 5.093727111816406250e+00 1.698088645935058594e+00 -6.876928359270095825e-02
7.529000000000000000e+03 7.188625335693359375e+01 3.225400924682617188e+01 4.038308262825012207e-01 5.374659538269042969e+00 1.733547091484069824e+00 2.297790348529815674e-02
7.530000000000000000e+03 2.013413047790527344e+01 -1.894927978515625000e+01 -3.153836131095886230e-01 -1.117961630225181580e-01 -1.281539350748062134e-01 -5.250765681266784668e-01
7.531000000000000000e+03 7.033047485351562500e+01 2.654610252380371094e+01 6.058474779129028320e-01 4.244812488555908203e+00 1.455198049545288086e+00 -6.348744630813598633e-01
7.532000000000000000e+03 7.088507843017578125e+01 2.942315673828125000e+01 6.938771009445190430e-01 4.811510562896728516e+00 1.651616215705871582e+00 -1.755708605051040649e-01
7.533000000000000000e+03 2.700395584106445312e+01 3.506793975830078125e+01 2.173978835344314575e-01 9.506560862064361572e-02 9.373904764652252197e-02 1.791057437658309937e-01
7.534000000000000000e+03 2.065471076965332031e+01 -2.173208808898925781e+01 -1.729448288679122925e-01 4.182035103440284729e-03 -5.062883719801902771e-02 -3.795061707496643066e-01
7.535000000000000000e+03 2.403438949584960938e+01 -2.057644844055175781e+01 -8.596454560756683350e-02 -2.093299478292465210e-01 -8.858834952116012573e-02 -2.699674963951110840e-01
7.536000000000000000e+03 2.257540893554687500e+01 -1.979819679260253906e+01 -2.036895304918289185e-01 -1.816738396883010864e-01 -1.156090050935745239e-01 -3.870097696781158447e-01
7.537000000000000000e+03 7.180486297607421875e+01 2.644374847412109375e+01 2.833293080329895020e-01 4.976862430572509766e+00 1.578057527542114258e+00 -7.340960502624511719e-01
7.538000000000000000e+03 7.097752380371093750e+01 2.682548713684082031e+01 5.154384374618530273e-01 4.570029735565185547e+00 1.525640487670898438e+00 -6.352833509445190430e-01
7.539000000000000000e+03 7.137810516357421875e+01 2.558259201049804688e+01 1.512440443038940430e-01 4.765776157379150391e+00 1.475106000900268555e+00 -8.803811073303222656e-01
7.540000000000000000e+03 2.085323524475097656e+01 -2.087718200683593750e+01 -2.117391675710678101e-01 -4.580996185541152954e-02 -7.726473361253738403e-02 -4.147869348526000977e-01
7.541000000000000000e+03 2.286650657653808594e+01 -2.205256080627441406e+01 -9.475118480622768402e-03 -7.872186601161956787e-02 -2.645909599959850311e-02 -2.575275003910064697e-01
7.542000000000000000e+03 2.368566322326660156e+01 -2.168110466003417969e+01 -2.932937815785408020e-03 -1.421445608139038086e-01 -4.352324828505516052e-02 -2.353631705045700073e-01
7.543000000000000000e+03 7.035359954833984375e+01 2.428801536560058594e+01 -1.280345469713211060e-01 4.073276042938232422e+00 1.183572411537170410e+00 -1.142900824546813965e+00
7.544000000000000000e+03 6.907076263427734375e+01 2.607496261596679688e+01 8.266032934188842773e-01 3.606769561767578125e+00 1.330011844635009766e+00 -5.261360406875610352e-01
7.545000000000000000e+03 2.122086524963378906e+01 -2.191987419128417969e+01 -1.208532527089118958e-01 -7.842119783163070679e-03 -3.860861435532569885e-02 -3.404376804828643799e-01
7.546000000000000000e+03 7.075743103027343750e+01 2.753616142272949219e+01 6.634994149208068848e-01 4.546072959899902344e+00 1.562871694564819336e+00 -4.730241894721984863e-01
7.547000000000000000e+03 6.969021606445312500e+01 2.628081130981445312e+01 7.027502059936523438e-01 3.888234615325927734e+00 1.377295374870300293e+00 -6.052181720733642578e-01
7.548000000000000000e+03 7.003931427001953125e+01 2.490016555786132812e+01 1.955789029598236084e-01 3.915044069290161133e+00 1.233186841011047363e+00 -9.830085039138793945e-01
7.549000000000000000e+03 2.331327819824218750e+01 -2.101759910583496094e+01 -8.237851411104202271e-02 -1.569811850786209106e-01 -7.180791348218917847e-02 -2.913905084133148193e-01
7.550000000000000000e+03 7.117135620117187500e+01 2.617317771911621094e+01 3.394039869308471680e-01 4.657098770141601562e+00 1.498950719833374023e+00 -7.795138955116271973e-01
7.551000000000000000e+03 7.101740264892578125e+01 2.467786598205566406e+01 -9.027672559022903442e-02 4.566457748413085938e+00 1.342854261398315430e+00 -1.055336594581604004e+00
7.552000000000000000e+03 2.187562561035156250e+01 -2.008298492431640625e+01 -2.121321409940719604e-01 -1.270779669284820557e-01 -1.017630323767662048e-01 -4.074601233005523682e-01
7.553000000000000000e+03 6.985342407226562500e+01 2.558986282348632812e+01 4.867525398731231689e-01 3.889432430267333984e+00 1.312855482101440430e+00 -8.001257181167602539e-01
7.554000000000000000e+03 2.131471633911132812e+01 -2.050638771057128906e+01 -2.134809941053390503e-01 -9.235706925392150879e-02 -9.175141900777816772e-02 -4.210940003395080566e-01
7.555000000000000000e+03 7.163939666748046875e+01 2.505817222595214844e+01 -6.335954368114471436e-02 4.947794437408447266e+00 1.465330481529235840e+00 -9.640449881553649902e-01
7.556000000000000000e+03 4.804775238037109375e+01 4.122190475463867188e+01 -1.751627624034881592e-01 2.069450378417968750e+00 5.682862997055053711e-01 -1.147701367735862732e-01
7.557000000000000000e+03 9.325423240661621094e+00 -4.080067825317382812e+01 3.144913613796234131e-01 -3.311949074268341064e-01 -5.011066794395446777e-03 -9.905964136123657227e-02
7.558000000000000000e+03 3.189095497131347656e+01 -4.108063888549804688e+01 3.405746519565582275e-01 1.793258190155029297e-01 1.559701412916183472e-01 2.675080299377441406e-02
7.559000000000000000e+03 6.764144134521484375e+01 4.151105499267578125e+01 -1.478556096553802490e-01 4.259696483612060547e+00 1.233552217483520508e+00 1.954594254493713379e-02
7.560000000000000000e+03 2.813718223571777344e+01 4.106176376342773438e+01 3.210426867008209229e-01 7.350719720125198364e-02 1.183649674057960510e-01 2.673003450036048889e-02
7.561000000000000000e+03 6.301922988891601562e+01 4.126409530639648438e+01 2.265948802232742310e-01 2.181921482086181641e+00 7.225549221038818359e-01 -1.558716595172882080e-01
7.562000000000000000e+03 3.355865478515625000e+01 1.405207276344299316e+00 -3.059473276138305664e+00 -1.109091266989707947e-01 -9.511147141456604004e-01 -3.035941161215305328e-02
7.563000000000000000e+03 2.930882072448730469e+01 -3.003063440322875977e+00 -1.925624674186110497e-03 -4.836298897862434387e-02 -1.508658379316329956e-02 -3.110393881797790527e-02
7.564000000000000000e+03 3.250587463378906250e+01 2.056231737136840820e+00 -1.468706727027893066e+00 8.382474631071090698e-02 -4.154646098613739014e-01 3.836733996868133545e-01
7.565000000000000000e+03 7.857635498046875000e+01 4.203630828857421875e+01 -6.102558691054582596e-03 7.644903659820556641e+00 2.291640281677246094e+00 3.983109071850776672e-02
7.566000000000000000e+03 3.546504020690917969e+00 -4.080032348632812500e+01 7.523540407419204712e-02 -4.725989103317260742e-01 -1.192090511322021484e-01 -4.250003024935722351e-02
7.567000000000000000e+03 3.080301094055175781e+01 5.628033876419067383e-01 -1.154049873352050781e+00 3.005826473236083984e-01 -2.560401856899261475e-01 -1.723669618368148804e-01
7.568000000000000000e+03 4.769214248657226562e+01 9.607632756233215332e-01 -1.246431589126586914e+00 1.765688806772232056e-01 -3.209588229656219482e-01 -1.422731671482324600e-02
7.569000000000000000e+03 5.380763244628906250e+01 -1.634232711791992188e+01 -4.171212613582611084e-01 2.154877036809921265e-02 -1.186717525124549866e-01 2.156548798084259033e-01
7.570000000000000000e+03 5.120397186279296875e+01 -2.575881958007812500e+01 -2.281615883111953735e-01 1.980933248996734619e-01 -9.020477533340454102e-03 -2.423168905079364777e-02
7.571000000000000000e+03 5.576501464843750000e+01 3.746207046508789062e+01 -2.918078005313873291e-01 1.494153857231140137e+00 3.607038259506225586e-01 6.209009885787963867e-01
7.572000000000000000e+03 1.122904014587402344e+01 1.755912208557128906e+01 4.135360717773437500e-01 4.712268412113189697e-01 2.654288709163665771e-01 3.977611660957336426e-01
7.573000000000000000e+03 6.950692749023437500e+01 -1.564436435699462891e+01 -1.522495388984680176e+00 2.619826421141624451e-02 -4.488891363143920898e-01 -2.116181135177612305e+00
7.574000000000000000e+03 4.984904861450195312e+01 -3.380730438232421875e+01 1.016747713088989258e+00 3.395516157150268555e+00 1.323679208755493164e+00 1.301232814788818359e+00
7.575000000000000000e+03 3.847776794433593750e+01 -3.451217651367187500e+01 3.824029266834259033e-01 1.074926614761352539e+00 4.371988475322723389e-01 -6.035009399056434631e-02
7.576000000000000000e+03 4.153384017944335938e+01 -3.022927522659301758e+00 -2.151528120040893555e+00 -5.170005559921264648e-01 -8.005586266517639160e-01 2.787818200886249542e-02
7.577000000000000000e+03 6.144745635986328125e+01 -2.804574251174926758e+00 4.103167533874511719e+00 1.476585960388183594e+01 5.660708427429199219e+00 -2.364858627319335938e+00
7.578000000000000000e+03 6.028227996826171875e+01 -9.566345214843750000e+00 2.313104867935180664e+00 1.025773143768310547e+01 3.771250963211059570e+00 4.306267261505126953e+00
7.579000000000000000e+03 6.101035308837890625e+01 -3.936796188354492188e+01 -1.236810564994812012e+00 -4.288333058357238770e-01 -4.996931850910186768e-01 -1.027418822050094604e-01
7.580000000000000000e+03 6.818917846679687500e+01 3.792312240600585938e+01 -1.421868950128555298e-01 4.696546077728271484e+00 1.366307735443115234e+00 -8.309641270898282528e-04
7.581000000000000000e+03 1.385114765167236328e+01 -4.035300445556640625e+01 4.859283864498138428e-01 -8.081955462694168091e-02 1.215326488018035889e-01 -1.554960012435913086e-01
7.582000000000000000e+03 3.076444244384765625e+01 -4.507591247558593750e+00 -2.789774723351001740e-02 -4.165661931037902832e-01 -1.333391815423965454e-01 -3.255189359188079834e-01
7.583000000000000000e+03 3.615144348144531250e+01 3.465241622924804688e+01 3.943671882152557373e-01 3.973635435104370117e-01 2.375192195177078247e-01 1.792837083339691162e-01
7.584000000000000000e+03 6.353522872924804688e+01 -2.019313049316406250e+01 1.369618773460388184e+00 8.380187988281250000e+00 2.924942016601562500e+00 -6.704826354980468750e-01
7.585000000000000000e+03 5.805585098266601562e+01 -1.114502334594726562e+01 -1.917645484209060669e-01 2.087595701217651367e+00 5.687493085861206055e-01 2.617984533309936523e+00
7.586000000000000000e+03 5.732619857788085938e+01 -1.172873878479003906e+01 -6.037255376577377319e-02 1.120908021926879883e+00 3.181606233119964600e-01 2.045950651168823242e+00
7.587000000000000000e+03 7.628869628906250000e+01 -7.454966068267822266e+00 1.082454919815063477e+00 1.099671745300292969e+01 3.623751640319824219e+00 -5.948621034622192383e-01
7.588000000000000000e+03 5.465655136108398438e+01 2.373281860351562500e+01 -1.092712163925170898e+00 3.982107400894165039e+00 8.668186068534851074e-01 -1.356481671333312988e+00
7.589000000000000000e+03 6.000561141967773438e+01 -3.972756958007812500e+01 -1.094648718833923340e+00 3.692549467086791992e-01 -2.176181375980377197e-01 -1.843714267015457153e-01
7.590000000000000000e+03 5.560299682617187500e+01 -3.726231765747070312e+01 -6.992341279983520508e-01 3.857634305953979492e+00 9.475200772285461426e-01 1.864289045333862305e-01
7.591000000000000000e+03 5.651735687255859375e+01 -3.895565414428710938e+01 -9.043119549751281738e-01 2.671403646469116211e+00 5.301275253295898438e-01 -5.316707491874694824e-01
7.592000000000000000e+03 7.251176452636718750e+01 1.461350440979003906e+00 4.792904257774353027e-01 3.386273384094238281e+00 1.159669160842895508e+00 4.100644886493682861e-01
7.593000000000000000e+03 6.273135757446289062e+01 3.664661788940429688e+01 -3.778013885021209717e-01 2.545758485794067383e+00 6.503871083259582520e-01 -5.182413458824157715e-01
7.594000000000000000e+03 4.012101745605468750e+01 3.867999553680419922e+00 -7.484383136034011841e-02 -7.760570645332336426e-01 -2.552702724933624268e-01 -1.993651390075683594e-01
7.595000000000000000e+03 3.992483901977539062e+01 4.584558486938476562e+00 1.099625006318092346e-01 -6.852085590362548828e-01 -1.725738197565078735e-01 2.203200310468673706e-01
7.596000000000000000e+03 2.109477806091308594e+01 -4.037100219726562500e+01 7.677040100097656250e-01 3.335153311491012573e-02 2.403166592121124268e-01 1.473764032125473022e-01
7.597000000000000000e+03 1.421572685241699219e+01 3.772325134277343750e+01 1.377915143966674805e-01 -7.072088122367858887e-02 2.012119069695472717e-02 1.384697109460830688e-01
7.598000000000000000e+03 7.363419532775878906e+00 3.825936889648437500e+01 1.117949839681386948e-02 -1.130915060639381409e-01 -3.057360276579856873e-02 -8.652739226818084717e-03
7.599000000000000000e+03 5.948415756225585938e+01 -2.641061973571777344e+01 -1.422403931617736816e+00 2.469209909439086914e+00 3.140417933464050293e-01 2.113238811492919922e+00
7.600000000000000000e+03 2.275356292724609375e+01 2.946500396728515625e+01 2.019447237253189087e-01 2.733562886714935303e-01 1.425902992486953735e-01 2.215432375669479370e-01
7.601000000000000000e+03 2.428078079223632812e+01 -3.874728012084960938e+01 3.784960806369781494e-01 -2.975991368293762207e-01 2.426908910274505615e-02 9.004487842321395874e-02
7.602000000000000000e+03 5.440747833251953125e+01 -1.636618614196777344e+01 -4.753355979919433594e-01 4.839285910129547119e-01 2.577895065769553185e-03 2.052939981222152710e-01
7.603000000000000000e+03 2.030452728271484375e+01 -4.156309509277343750e+01 8.308277130126953125e-01 7.102958858013153076e-02 2.705571949481964111e-01 8.250341564416885376e-02
7.604000000000000000e+03 1.998568534851074219e+01 1.745174980163574219e+01 -3.479973375797271729e-01 -1.835935413837432861e-01 -1.594772636890411377e-01 1.417551040649414062e-01
7.605000000000000000e+03 7.107535552978515625e+01 1.793301582336425781e+01 -8.704271316528320312e-01 5.778539657592773438e+00 1.472433805465698242e+00 -1.160848975181579590e+00
7.606000000000000000e+03 6.457671356201171875e+01 2.633051490783691406e+01 1.809256911277770996e+00 4.563967227935791016e+00 1.911967277526855469e+00 1.256938815116882324e+00
7.607000000000000000e+03 3.154727935791015625e+01 1.372764945030212402e+00 -1.309351801872253418e+00 3.430039584636688232e-01 -2.899043560028076172e-01 -1.504930406808853149e-01
7.608000000000000000e+03 5.541220855712890625e+01 -3.066871833801269531e+01 1.512492775917053223e+00 6.209946155548095703e+00 2.316731691360473633e+00 1.508833408355712891e+00
7.609000000000000000e+03 3.871879577636718750e+01 -2.987549400329589844e+01 4.581350982189178467e-01 8.770649433135986328e-01 4.005600214004516602e-01 3.763148784637451172e-01
7.610000000000000000e+03 4.411591720581054688e+01 2.155883789062500000e+01 3.965983390808105469e-01 6.696467399597167969e-01 3.198735117912292480e-01 4.480386078357696533e-01
7.611000000000000000e+03 2.350363254547119141e+00 3.951678848266601562e+01 8.378301281481981277e-04 -8.655639886856079102e-01 -2.594178617000579834e-01 -3.111058846116065979e-02
7.612000000000000000e+03 5.053347015380859375e+01 -3.399923706054687500e+01 1.140263319015502930e+00 3.319264650344848633e+00 1.337858438491821289e+00 1.240877747535705566e+00
7.613000000000000000e+03 6.455221557617187500e+01 2.776361846923828125e+01 1.246208429336547852e+00 5.197872161865234375e+00 1.933224201202392578e+00 1.361645460128784180e+00
7.614000000000000000e+03 2.229125595092773438e+01 1.767717742919921875e+01 -2.221794426441192627e-01 -1.641058325767517090e-01 -1.158855780959129333e-01 1.162590906023979187e-01
7.615000000000000000e+03 5.277722930908203125e+01 3.574772644042968750e+01 -3.332365155220031738e-01 2.916647434234619141e+00 7.750232815742492676e-01 1.215228214859962463e-01
7.616000000000000000e+03 5.995950698852539062e+01 3.643190765380859375e+01 -7.203156948089599609e-01 6.975842267274856567e-02 -1.951671838760375977e-01 -1.519295424222946167e-01
7.617000000000000000e+03 1.152758216857910156e+01 -3.662432479858398438e+01 1.550447791814804077e-01 -2.665410339832305908e-01 -3.344887495040893555e-02 -2.223871201276779175e-01
7.618000000000000000e+03 3.912268829345703125e+01 -1.849880337715148926e+00 -7.784934639930725098e-01 3.120275400578975677e-02 -2.241872102022171021e-01 2.063461393117904663e-01
7.619000000000000000e+03 6.487250518798828125e+01 4.922438144683837891e+00 -1.704030990600585938e+00 2.230944156646728516e+00 1.580739617347717285e-01 -5.432947874069213867e-01
7.620000000000000000e+03 6.873595428466796875e+01 6.085594654083251953e+00 -1.767650485038757324e+00 2.080919027328491211e+00 9.398052841424942017e-02 2.482571601867675781e+00
7.621000000000000000e+03 3.659289169311523438e+01 -2.942231559753417969e+01 4.822973608970642090e-01 3.056397736072540283e-01 2.363811433315277100e-01 5.429523810744285583e-02
7.622000000000000000e+03 3.687783432006835938e+01 -3.007160377502441406e+01 5.033392906188964844e-01 4.568198919296264648e-01 2.880477607250213623e-01 9.949803352355957031e-02
7.623000000000000000e+03 2.225177574157714844e+01 1.693923759460449219e+01 -2.656177282333374023e-01 -1.409138888120651245e-01 -1.219594925642013550e-01 1.358557194471359253e-01
7.624000000000000000e+03 1.484419345855712891e+01 -3.946625137329101562e+01 4.400199055671691895e-01 1.749535650014877319e-01 1.844920367002487183e-01 -3.147086501121520996e-01
7.625000000000000000e+03 3.703143692016601562e+01 -1.226675128936767578e+01 -4.240943491458892822e-01 9.743001461029052734e-01 1.650617420673370361e-01 -2.139274775981903076e-01
7.626000000000000000e+03 2.263034248352050781e+01 3.091005516052246094e+01 -4.293409362435340881e-02 1.692884564399719238e-01 3.790630772709846497e-02 9.937855601310729980e-02
7.627000000000000000e+03 7.623727416992187500e+01 -1.237113857269287109e+01 -1.328973412513732910e+00 8.138062477111816406e+00 2.042726993560791016e+00 1.382971704006195068e-01
7.628000000000000000e+03 1.608903312683105469e+01 -1.911204457283020020e+00 1.359432190656661987e-02 2.224708721041679382e-02 1.075242273509502411e-02 -1.625284180045127869e-02
7.629000000000000000e+03 3.811243057250976562e+01 -3.392618179321289062e+01 4.071458578109741211e-01 1.064230799674987793e+00 4.414129853248596191e-01 -6.884866207838058472e-02
7.630000000000000000e+03 2.853541946411132812e+01 1.129561614990234375e+01 1.892779618501663208e-01 5.655928254127502441e-01 2.264612466096878052e-01 2.599171400070190430e-01
7.631000000000000000e+03 1.735365295410156250e+01 -2.390668678283691406e+01 3.179601579904556274e-02 -2.338108569383621216e-01 -6.060445308685302734e-02 -3.913421332836151123e-01
7.632000000000000000e+03 3.871407318115234375e+01 1.242047309875488281e+01 -2.445935904979705811e-01 -7.245097756385803223e-01 -2.907310128211975098e-01 1.894755810499191284e-01
7.633000000000000000e+03 5.378530883789062500e+01 2.347277069091796875e+01 -9.732571244239807129e-01 4.221090316772460938e+00 9.743499755859375000e-01 -1.260984301567077637e+00
7.634000000000000000e+03 1.946081924438476562e+01 5.462257862091064453e+00 -1.642633527517318726e-01 -2.334213117137551308e-03 -4.997926950454711914e-02 1.891711801290512085e-01
7.635000000000000000e+03 1.189773273468017578e+01 5.723199844360351562e+00 -4.354707896709442139e-01 -3.093989193439483643e-01 -2.234609127044677734e-01 2.321572005748748779e-01
7.636000000000000000e+03 7.217253112792968750e+01 -1.351628494262695312e+01 -1.773209273815155029e-01 1.436709403991699219e+00 3.778165280818939209e-01 -1.122369885444641113e+00
7.637000000000000000e+03 6.510171508789062500e+01 -2.731456947326660156e+01 -1.966278910636901855e+00 7.053845882415771484e+00 1.526270031929016113e+00 -2.179311752319335938e+00
7.638000000000000000e+03 5.583905410766601562e+01 7.162110805511474609e+00 -7.784360647201538086e-01 4.026968479156494141e+00 9.745596647262573242e-01 -6.081259846687316895e-01
7.639000000000000000e+03 1.240745162963867188e+01 -1.092289733886718750e+01 -1.369691342115402222e-01 6.664371490478515625e-02 -2.109762839972972870e-02 -7.427119463682174683e-02
7.640000000000000000e+03 1.877736282348632812e+01 2.283013725280761719e+01 4.486104846000671387e-01 1.754846125841140747e-01 1.872285306453704834e-01 2.169245779514312744e-01
7.641000000000000000e+03 5.088135910034179688e+01 -3.548556900024414062e+01 9.398491382598876953e-01 3.432787895202636719e+00 1.311791062355041504e+00 1.111814856529235840e+00
7.642000000000000000e+03 5.115989685058593750e+01 -3.463901138305664062e+01 1.309796452522277832e+00 3.328727006912231445e+00 1.391556978225708008e+00 1.206366658210754395e+00
7.643000000000000000e+03 7.430662536621093750e+01 -2.539986419677734375e+01 -6.264921426773071289e-01 8.981861114501953125e+00 2.506610870361328125e+00 2.134696096181869507e-01
7.644000000000000000e+03 4.594266510009765625e+01 6.073050022125244141e+00 -3.258875906467437744e-01 5.695299506187438965e-01 7.309271395206451416e-02 -9.587986022233963013e-02
7.645000000000000000e+03 4.052957534790039062e+01 2.000885200500488281e+01 3.150036931037902832e-01 1.203569993376731873e-01 1.306082010269165039e-01 1.091570928692817688e-01
7.646000000000000000e+03 7.300889587402343750e+01 -1.615626144409179688e+01 -2.815475463867187500e-01 4.890939235687255859e+00 1.382817506790161133e+00 -9.509934186935424805e-01
7.647000000000000000e+03 4.894662857055664062e+01 -3.699909591674804688e+01 4.624759256839752197e-01 2.901700973510742188e+00 1.009253025054931641e+00 1.173813700675964355e+00
7.648000000000000000e+03 6.658302307128906250e+01 4.681266784667968750e+00 -1.072636365890502930e+00 1.147806286811828613e+00 2.255098521709442139e-02 1.608936071395874023e+00
7.649000000000000000e+03 6.412458801269531250e+01 5.345660209655761719e+00 -2.453208923339843750e+00 2.789779901504516602e+00 1.009713262319564819e-01 -1.383068442344665527e+00
7.650000000000000000e+03 6.842527008056640625e+01 -3.423099899291992188e+01 9.985901117324829102e-01 5.112281322479248047e+00 1.833261370658874512e+00 -1.239751577377319336e+00
7.651000000000000000e+03 7.754884338378906250e+01 -7.922722816467285156e+00 6.577825546264648438e-01 8.955014228820800781e+00 2.883839130401611328e+00 -7.828398346900939941e-01
7.652000000000000000e+03 5.132801055908203125e+01 3.496447372436523438e+01 -9.231808036565780640e-02 3.051537752151489258e+00 8.877658843994140625e-01 -2.711319625377655029e-01
7.653000000000000000e+03 5.266402816772460938e+01 -3.695061874389648438e+01 8.157873898744583130e-02 3.815594673156738281e+00 1.169152021408081055e+00 9.108099937438964844e-01
7.654000000000000000e+03 5.389626693725585938e+01 -3.700653839111328125e+01 -1.809193491935729980e-01 4.074935436248779297e+00 1.168204784393310547e+00 8.414447307586669922e-01
7.655000000000000000e+03 3.883840560913085938e+01 -1.302713108062744141e+01 -7.239353060722351074e-01 9.937527179718017578e-01 8.094523102045059204e-02 -2.727931439876556396e-01
7.656000000000000000e+03 7.307081604003906250e+01 -1.429038715362548828e+01 -4.767447710037231445e-01 3.660306215286254883e+00 9.550684690475463867e-01 -5.237528681755065918e-01
7.657000000000000000e+03 3.556839752197265625e+01 -3.036746978759765625e+01 5.165042877197265625e-01 3.189796209335327148e-01 2.506451606750488281e-01 -8.059068769216537476e-02
7.658000000000000000e+03 5.016555786132812500e+01 3.494962692260742188e+01 1.518863718956708908e-02 2.831798076629638672e+00 8.540959954261779785e-01 -4.390912950038909912e-01
7.659000000000000000e+03 6.527100372314453125e+01 2.705776977539062500e+01 1.594499349594116211e+00 4.236827850341796875e+00 1.749398112297058105e+00 1.068845748901367188e+00
7.660000000000000000e+03 2.805163002014160156e+01 3.345757293701171875e+01 2.626599371433258057e-01 5.537750571966171265e-02 9.541123360395431519e-02 2.530066668987274170e-01
7.661000000000000000e+03 5.966982269287109375e+01 -1.161710643768310547e+01 -6.407898664474487305e-01 6.579102039337158203e+00 1.781493544578552246e+00 3.225205898284912109e+00
7.662000000000000000e+03 6.005564880371093750e+01 -1.209637832641601562e+01 -1.028782248497009277e+00 7.101611614227294922e+00 1.821848750114440918e+00 2.824256181716918945e+00
7.663000000000000000e+03 4.901891708374023438e+01 3.485314559936523438e+01 1.255219578742980957e-01 2.582544803619384766e+00 8.124200105667114258e-01 -5.333084464073181152e-01
7.664000000000000000e+03 2.171962928771972656e+01 1.699129867553710938e+01 -2.734891474246978760e-01 -1.542708426713943481e-01 -1.283279955387115479e-01 1.263612359762191772e-01
7.665000000000000000e+03 6.850639343261718750e+01 5.143400192260742188e+00 -1.153937935829162598e+00 2.150620937347412109e+00 2.990049123764038086e-01 2.745469331741333008e+00
7.666000000000000000e+03 4.817268753051757812e+01 -2.674125289916992188e+01 2.336222678422927856e-01 8.920886516571044922e-01 3.377132713794708252e-01 -7.378024458885192871e-01
7.667000000000000000e+03 7.767990875244140625e+01 -6.608685970306396484e+00 7.056202292442321777e-01 8.717510223388671875e+00 2.826939105987548828e+00 -2.056831717491149902e-01
7.668000000000000000e+03 3.077796363830566406e+01 2.968396186828613281e+01 1.965191364288330078e-01 -1.014834269881248474e-01 2.851071022450923920e-02 1.011822968721389771e-01
7.669000000000000000e+03 7.345809173583984375e+01 -1.344974517822265625e+01 -6.814961433410644531e-01 3.553958177566528320e+00 8.617385625839233398e-01 4.382190108299255371e-02
7.670000000000000000e+03 2.216091537475585938e+01 1.200096607208251953e+01 6.543415039777755737e-02 -1.438527107238769531e-01 -2.352556772530078888e-02 9.868860989809036255e-02
7.671000000000000000e+03 6.218646240234375000e+01 -2.015242195129394531e+01 1.641324162483215332e+00 6.282149314880371094e+00 2.377042055130004883e+00 -3.852974176406860352e-01
7.672000000000000000e+03 7.838080596923828125e+01 -1.099143218994140625e+01 -3.211770653724670410e-01 9.001645088195800781e+00 2.604140281677246094e+00 -8.374695777893066406e-01
7.673000000000000000e+03 7.847112274169921875e+01 -1.044903278350830078e+01 -1.118133142590522766e-01 8.832204818725585938e+00 2.616117477416992188e+00 -1.008296132087707520e+00
7.674000000000000000e+03 7.648483276367187500e+01 -1.187112998962402344e+01 -1.328091025352478027e+00 8.741183280944824219e+00 2.223927497863769531e+00 -1.818268746137619019e-01
7.675000000000000000e+03 5.265488433837890625e+01 -1.036247062683105469e+01 -6.163536906242370605e-01 -5.063974857330322266e-01 -3.368253409862518311e-01 1.206037551164627075e-01
7.676000000000000000e+03 4.978423309326171875e+01 -6.919364452362060547e+00 -5.314747095108032227e-01 3.599424958229064941e-01 -5.145966634154319763e-02 6.433880925178527832e-01
7.677000000000000000e+03 1.038571262359619141e+01 4.694473266601562500e+00 -2.575742304325103760e-01 -1.687846630811691284e-01 -1.279076784849166870e-01 1.142833009362220764e-01
7.678000000000000000e+03 5.433499526977539062e+01 -1.571151733398437500e+01 -1.748691797256469727e-01 3.658044338226318359e-01 5.728057399392127991e-02 2.294149398803710938e-01
7.679000000000000000e+03 4.243496704101562500e+01 9.002066612243652344e+00 -1.414155662059783936e-01 2.533977627754211426e-01 3.359466046094894409e-02 2.884145677089691162e-01
7.680000000000000000e+03 3.790602493286132812e+01 1.396338272094726562e+01 -1.075529400259256363e-02 -5.869142413139343262e-01 -1.793008595705032349e-01 9.283514320850372314e-02
7.681000000000000000e+03 3.829582214355468750e+01 1.491406631469726562e+01 1.806866079568862915e-01 -4.443231225013732910e-01 -7.909095287322998047e-02 4.467212595045566559e-03
7.682000000000000000e+03 6.228031921386718750e+01 2.281704902648925781e+01 -1.972956418991088867e+00 4.269086360931396484e+00 6.888390183448791504e-01 2.640001058578491211e+00
7.683000000000000000e+03 3.663001775741577148e+00 -2.205501747131347656e+01 1.055463925004005432e-01 -1.235058829188346863e-01 -5.387848708778619766e-03 -7.106818258762359619e-02
7.684000000000000000e+03 5.401087570190429688e+01 -3.253719329833984375e+01 1.578106045722961426e+00 4.843296051025390625e+00 1.926420569419860840e+00 1.149409294128417969e+00
7.685000000000000000e+03 4.651773834228515625e+01 -2.522068595886230469e+01 1.024979278445243835e-01 1.020101547241210938e+00 3.367798626422882080e-01 -4.303213655948638916e-01
7.686000000000000000e+03 5.285312271118164062e+01 -3.171740722656250000e+01 1.387837529182434082e+00 3.897504329681396484e+00 1.585602521896362305e+00 1.008484959602355957e+00
7.687000000000000000e+03 3.639438247680664062e+01 -4.142623901367187500e+00 -6.795687079429626465e-01 4.796911180019378662e-01 -5.996327474713325500e-02 -3.105009198188781738e-01
7.688000000000000000e+03 3.796906280517578125e+01 -2.815750837326049805e+00 -9.625570774078369141e-01 2.724477648735046387e-01 -2.070327848196029663e-01 3.188829869031906128e-02
7.689000000000000000e+03 3.434796094894409180e+00 2.689610671997070312e+01 -1.359466463327407837e-01 -6.221104264259338379e-01 -2.274171262979507446e-01 1.741167604923248291e-01
7.690000000000000000e+03 6.277495193481445312e+01 -2.468615293502807617e+00 3.238094329833984375e+00 1.153546047210693359e+01 4.432066440582275391e+00 -2.336923480033874512e-01
7.691000000000000000e+03 3.433671569824218750e+01 3.608046340942382812e+01 3.835188150405883789e-01 3.360522091388702393e-01 2.158713042736053467e-01 1.175279095768928528e-01
7.692000000000000000e+03 5.845623397827148438e+01 1.719632148742675781e+01 1.473099827766418457e+00 5.131222724914550781e+00 1.981296777725219727e+00 -3.756976127624511719e-01
7.693000000000000000e+03 6.469444274902343750e+01 -5.520733594894409180e-01 1.983424544334411621e+00 7.100589275360107422e+00 2.725204229354858398e+00 1.502733826637268066e+00
7.694000000000000000e+03 2.644357299804687500e+01 4.312995433807373047e+00 -2.986638247966766357e-01 1.329681277275085449e-01 -4.970870912075042725e-02 2.317152172327041626e-01
7.695000000000000000e+03 2.548889732360839844e+01 -2.895953369140625000e+01 3.907124996185302734e-01 -2.184612900018692017e-01 5.167536437511444092e-02 -2.215971797704696655e-01
7.696000000000000000e+03 6.658596038818359375e+01 -1.239186000823974609e+01 6.602653861045837402e-01 4.575417041778564453e+00 1.570704698562622070e+00 -1.413203477859497070e+00
7.697000000000000000e+03 3.019787406921386719e+01 -2.910125160217285156e+01 3.743109405040740967e-01 6.992023438215255737e-02 1.332693547010421753e-01 -2.215599864721298218e-01
7.698000000000000000e+03 3.051690864562988281e+01 -2.971327972412109375e+01 3.670269548892974854e-01 1.027004420757293701e-01 1.409182101488113403e-01 -2.070022970438003540e-01
7.699000000000000000e+03 3.051970958709716797e+00 2.747295379638671875e+01 -1.014492213726043701e-01 -6.033831834793090820e-01 -2.114497274160385132e-01 1.867356002330780029e-01
7.700000000000000000e+03 5.868591690063476562e+01 -2.263234329223632812e+01 1.546417474746704102e+00 3.375012636184692383e+00 1.476428985595703125e+00 2.030447959899902344e+00
7.701000000000000000e+03 4.831767654418945312e+01 -1.396786117553710938e+01 -8.724505305290222168e-01 1.155234456062316895e+00 8.483518660068511963e-02 2.787454426288604736e-01
7.702000000000000000e+03 6.338106155395507812e+01 -9.653762817382812500e+00 1.543426990509033203e+00 1.075845050811767578e+01 3.690563440322875977e+00 -3.768303394317626953e-01
7.703000000000000000e+03 7.815950012207031250e+01 -3.758558654785156250e+01 2.632538042962551117e-02 7.656949520111083984e+00 2.304982423782348633e+00 -1.847442425787448883e-02
7.704000000000000000e+03 5.924798202514648438e+01 1.434443664550781250e+01 1.490981578826904297e+00 7.794258117675781250e+00 2.785571813583374023e+00 -4.851764440536499023e-01
7.705000000000000000e+03 6.410301208496093750e+01 -9.474189758300781250e+00 1.855822682380676270e+00 1.039224243164062500e+01 3.674419403076171875e+00 -1.045588731765747070e+00
7.706000000000000000e+03 3.909809112548828125e+01 -1.494926452636718750e+01 -7.600238323211669922e-01 8.437831401824951172e-01 2.512779645621776581e-02 -4.269886612892150879e-01
7.707000000000000000e+03 6.749891662597656250e+01 2.496897697448730469e+01 8.702148199081420898e-01 2.732147693634033203e+00 1.080708742141723633e+00 -2.774679362773895264e-01
7.708000000000000000e+03 6.026542663574218750e+01 8.918725013732910156e+00 -5.366275310516357422e-01 7.453441619873046875e+00 2.075044155120849609e+00 -1.122969508171081543e+00
7.709000000000000000e+03 3.030969429016113281e+01 2.098704814910888672e+00 -9.823529720306396484e-01 3.837395310401916504e-01 -1.795840412378311157e-01 3.352976590394973755e-02
7.710000000000000000e+03 3.304611968994140625e+01 3.093978309631347656e+01 2.341539263725280762e-01 2.892564237117767334e-01 1.570231020450592041e-01 4.916736111044883728e-02
7.711000000000000000e+03 6.089389038085937500e+01 -7.986332178115844727e-01 1.849093198776245117e+00 1.062518978118896484e+01 3.742285013198852539e+00 -3.156080961227416992e+00
7.712000000000000000e+03 1.202254390716552734e+01 1.951121520996093750e+01 1.462771296501159668e-01 3.018023669719696045e-01 1.344238519668579102e-01 3.955411911010742188e-01
7.713000000000000000e+03 6.113946914672851562e+01 2.138665771484375000e+01 -2.007479190826416016e+00 3.979723691940307617e+00 5.916733145713806152e-01 2.297100543975830078e+00
7.714000000000000000e+03 7.802009582519531250e+01 -1.132107830047607422e+01 -4.380457103252410889e-01 8.943330764770507812e+00 2.551585435867309570e+00 -8.446344733238220215e-01
7.715000000000000000e+03 4.176306915283203125e+01 -2.280216789245605469e+01 2.912085354328155518e-01 7.685022950172424316e-01 3.179132640361785889e-01 1.188944578170776367e-01
7.716000000000000000e+03 4.491307830810546875e+01 3.406048774719238281e+00 -9.279395937919616699e-01 2.557218074798583984e-01 -2.016653269529342651e-01 1.095093637704849243e-01
7.717000000000000000e+03 4.457392501831054688e+01 3.803905963897705078e+00 -8.787610530853271484e-01 2.414339333772659302e-01 -1.911981403827667236e-01 1.378030478954315186e-01
7.718000000000000000e+03 5.030189037322998047e+00 -1.316804313659667969e+01 -8.044982701539993286e-02 -1.301837712526321411e-01 -6.319008022546768188e-02 -5.175022408366203308e-02
7.719000000000000000e+03 6.191316223144531250e+01 -2.090691947937011719e+01 2.118745326995849609e+00 5.361497879028320312e+00 2.244072914123535156e+00 -7.536412030458450317e-02
7.720000000000000000e+03 3.204959869384765625e+01 -1.118475532531738281e+01 -5.487151145935058594e-01 -3.968119025230407715e-01 -2.836580872535705566e-01 -1.084535270929336548e-01
7.721000000000000000e+03 1.137457466125488281e+01 1.928040695190429688e+01 1.727279126644134521e-01 2.566491663455963135e-01 1.288131177425384521e-01 3.459258675575256348e-01
7.722000000000000000e+03 1.175768089294433594e+01 2.061238861083984375e+01 4.752202704548835754e-02 1.761106252670288086e-01 6.708979606628417969e-02 3.737140893936157227e-01
7.723000000000000000e+03 3.672968864440917969e+00 3.541729736328125000e+01 9.840306639671325684e-02 -6.501937508583068848e-01 -1.655371934175491333e-01 2.034417726099491119e-02
7.724000000000000000e+03 2.725205039978027344e+01 1.185704803466796875e+01 1.548576951026916504e-01 2.404313087463378906e-01 1.185867041349411011e-01 1.954660713672637939e-01
7.725000000000000000e+03 7.761299133300781250e+01 -3.649174880981445312e+01 5.937528982758522034e-02 7.472791194915771484e+00 2.259649991989135742e+00 -1.744462735950946808e-02
7.726000000000000000e+03 4.408618164062500000e+01 -1.935061836242675781e+01 6.548414230346679688e-01 7.703152298927307129e-01 4.275470077991485596e-01 1.022883355617523193e-01
7.727000000000000000e+03 7.301010131835937500e+01 -1.356711387634277344e+01 -4.966239035129547119e-01 2.827145099639892578e+00 6.991563439369201660e-01 -3.646408021450042725e-01
7.728000000000000000e+03 4.504502105712890625e+01 3.873505592346191406e+00 -8.809587359428405762e-01 3.008001744747161865e-01 -1.740475594997406006e-01 1.147606223821640015e-01
7.729000000000000000e+03 5.786507797241210938e+01 1.500951862335205078e+01 1.852148771286010742e+00 5.693449974060058594e+00 2.263679504394531250e+00 -9.143048524856567383e-01
7.730000000000000000e+03 3.363578796386718750e+01 2.562142944335937500e+01 -1.333298236131668091e-01 3.268002867698669434e-01 5.804113298654556274e-02 1.637122631072998047e-01
7.731000000000000000e+03 4.971463775634765625e+01 -2.867366600036621094e+01 7.819257974624633789e-01 1.272297024726867676e+00 6.162668466567993164e-01 -4.358799159526824951e-01
7.732000000000000000e+03 4.366394805908203125e+01 -2.446141242980957031e+01 3.638968467712402344e-01 8.045880198478698730e-01 3.505454659461975098e-01 1.358037292957305908e-01
7.733000000000000000e+03 6.004430007934570312e+01 -1.291960144042968750e+01 -1.321234464645385742e+00 6.779944896697998047e+00 1.637613058090209961e+00 2.430300951004028320e+00
7.734000000000000000e+03 3.935382080078125000e+01 1.354854869842529297e+01 3.966554254293441772e-02 -4.162181913852691650e-01 -1.129657924175262451e-01 -5.620647594332695007e-02
7.735000000000000000e+03 7.585583496093750000e+01 -2.459987449645996094e+01 2.207934558391571045e-01 8.868846893310546875e+00 2.726891994476318359e+00 -6.675652861595153809e-01
7.736000000000000000e+03 7.335206604003906250e+01 -1.390848064422607422e+01 -6.776694655418395996e-01 3.773135185241699219e+00 9.286396503448486328e-01 -2.407545149326324463e-01
7.737000000000000000e+03 2.842403221130371094e+01 -1.580190086364746094e+01 -4.511564373970031738e-01 -4.244482219219207764e-01 -2.626813948154449463e-01 -2.491108179092407227e-01
7.738000000000000000e+03 5.743940353393554688e+01 -2.228314781188964844e+01 1.519363045692443848e+00 4.042435169219970703e+00 1.668539524078369141e+00 2.025063514709472656e+00
7.739000000000000000e+03 1.298619174957275391e+01 -2.833764457702636719e+01 -1.482935547828674316e-01 -5.328339338302612305e-01 -2.043382525444030762e-01 -2.660442590713500977e-01
7.740000000000000000e+03 3.269915390014648438e+01 -8.652191162109375000e+00 -2.068919986486434937e-01 -3.191419541835784912e-01 -1.578101813793182373e-01 -4.868088662624359131e-01
7.741000000000000000e+03 5.248066329956054688e+01 -2.775529289245605469e+01 5.853962302207946777e-01 2.433135747909545898e+00 9.055595993995666504e-01 7.940525412559509277e-01
7.742000000000000000e+03 1.514832019805908203e+01 -1.203189563751220703e+01 -1.565302908420562744e-01 2.134079933166503906e-01 1.706331036984920502e-02 8.578799664974212646e-03
7.743000000000000000e+03 3.564093780517578125e+01 -4.189693450927734375e+00 -5.632673501968383789e-01 3.799129426479339600e-01 -5.500632524490356445e-02 -3.968881070613861084e-01
7.744000000000000000e+03 6.700850677490234375e+01 4.628326416015625000e+00 -9.864813685417175293e-01 1.489307284355163574e+00 1.508477628231048584e-01 1.969450235366821289e+00
7.745000000000000000e+03 6.820200347900390625e+01 4.240397930145263672e+00 -4.341846406459808350e-01 2.209709882736206055e+00 5.326576232910156250e-01 2.755580902099609375e+00
7.746000000000000000e+03 7.002617645263671875e+01 4.900499820709228516e+00 -7.179366350173950195e-01 3.877863645553588867e+00 9.479780793190002441e-01 2.699247598648071289e+00
7.747000000000000000e+03 7.340160369873046875e+01 6.689003467559814453e+00 -6.186921000480651855e-01 7.700563430786132812e+00 2.124561309814453125e+00 2.234447151422500610e-01
7.748000000000000000e+03 6.396158218383789062e+01 -1.326718521118164062e+01 -1.737828135490417480e+00 8.035699844360351562e+00 1.889361619949340820e+00 5.051171779632568359e-01
7.749000000000000000e+03 6.241048049926757812e+01 -2.013770341873168945e+00 2.867285013198852539e+00 1.139529037475585938e+01 4.278772830963134766e+00 -4.896356761455535889e-01
7.750000000000000000e+03 2.918829345703125000e+01 -1.491627216339111328e+01 -5.935789346694946289e-01 -4.165264964103698730e-01 -3.030316531658172607e-01 -2.421921640634536743e-01
7.751000000000000000e+03 5.300199508666992188e+01 2.300508499145507812e+01 -8.959702849388122559e-01 4.061878204345703125e+00 9.497723579406738281e-01 -1.248384475708007812e+00
7.752000000000000000e+03 1.657022476196289062e+01 -2.331381988525390625e+01 -8.542394638061523438e-02 -3.772059381008148193e-01 -1.387889683246612549e-01 -3.828544318675994873e-01
7.753000000000000000e+03 5.434746551513671875e+01 -1.428183364868164062e+01 6.586676836013793945e-02 1.651917397975921631e-01 6.931754946708679199e-02 3.181931972503662109e-01
7.754000000000000000e+03 4.510267639160156250e+01 5.278722286224365234e+00 -5.333580970764160156e-01 4.066120684146881104e-01 -3.802379965782165527e-02 7.313572615385055542e-02
7.755000000000000000e+03 1.280207920074462891e+01 -1.037030506134033203e+01 -1.140393838286399841e-01 7.387438416481018066e-02 -1.204949989914894104e-02 -6.987247616052627563e-02
7.756000000000000000e+03 5.201745986938476562e+01 2.108503723144531250e+01 -6.078181862831115723e-01 3.371593475341796875e+00 8.291325569152832031e-01 -1.588510513305664062e+00
7.757000000000000000e+03 4.309850311279296875e+01 8.031855583190917969e+00 -1.488183289766311646e-01 3.812949657440185547e-01 6.974298506975173950e-02 2.977212071418762207e-01
7.758000000000000000e+03 5.831039047241210938e+01 -1.821688652038574219e+01 -4.344863444566726685e-02 4.352632999420166016e+00 1.292755246162414551e+00 1.179458975791931152e+00
7.759000000000000000e+03 4.847897720336914062e+01 2.355562400817871094e+01 3.513279259204864502e-01 2.066756010055541992e+00 7.254251837730407715e-01 -2.388348877429962158e-01
7.760000000000000000e+03 7.708609008789062500e+01 -1.361480426788330078e+01 -8.385937213897705078e-01 8.474607467651367188e+00 2.290804147720336914e+00 3.189649581909179688e-01
7.761000000000000000e+03 4.499464797973632812e+01 4.337171554565429688e+00 -7.594010829925537109e-01 2.949282526969909668e-01 -1.393418461084365845e-01 1.024708300828933716e-01
7.762000000000000000e+03 2.453686141967773438e+01 -2.505928611755371094e+01 3.566453754901885986e-01 -1.346492767333984375e-01 6.659883260726928711e-02 -1.451983153820037842e-01
7.763000000000000000e+03 5.298199844360351562e+01 -1.092290878295898438e+01 -4.256355464458465576e-01 -5.015562176704406738e-01 -2.781575322151184082e-01 8.315885066986083984e-02
7.764000000000000000e+03 4.917224502563476562e+01 -2.807762718200683594e+01 6.293469667434692383e-01 9.986339211463928223e-01 4.883942604064941406e-01 -6.197589635848999023e-01
7.765000000000000000e+03 3.013049316406250000e+01 -3.312051773071289062e+01 2.400201410055160522e-01 8.810964226722717285e-02 9.843893349170684814e-02 -9.354092180728912354e-02
7.766000000000000000e+03 6.601427459716796875e+01 2.857437515258789062e+01 1.159459948539733887e+00 4.304650783538818359e+00 1.639233112335205078e+00 7.060647606849670410e-01
7.767000000000000000e+03 2.646419143676757812e+01 7.103734493255615234e+00 2.745564877986907959e-01 1.709347367286682129e-01 1.336473673582077026e-01 1.573912799358367920e-01
7.768000000000000000e+03 4.078709411621093750e+01 1.286785793304443359e+01 1.039602160453796387e-01 -6.905667483806610107e-02 1.047106180340051651e-02 -1.688576340675354004e-01
7.769000000000000000e+03 4.008991622924804688e+01 1.306181907653808594e+01 5.474105104804039001e-02 -3.037300109863281250e-01 -7.469668239355087280e-02 -1.097267791628837585e-01
7.770000000000000000e+03 3.991065216064453125e+01 1.359540557861328125e+01 9.223754703998565674e-02 -3.110014796257019043e-01 -6.562917679548263550e-02 -1.289821565151214600e-01
7.771000000000000000e+03 6.134936809539794922e+00 1.758984375000000000e+01 2.250148206949234009e-01 -3.178049027919769287e-01 -2.783702127635478973e-02 1.312502175569534302e-01
7.772000000000000000e+03 3.594845962524414062e+01 1.575088977813720703e+01 2.984845936298370361e-01 -3.835338950157165527e-01 -2.551478520035743713e-02 2.278901040554046631e-01
7.773000000000000000e+03 1.117969894409179688e+01 2.009866714477539062e+01 8.992400020360946655e-02 1.359579563140869141e-01 6.776458770036697388e-02 3.234587609767913818e-01
7.774000000000000000e+03 4.327230453491210938e+00 -1.546712493896484375e+01 -9.303775429725646973e-02 -1.621659696102142334e-01 -7.656111568212509155e-02 -8.620350807905197144e-02
7.775000000000000000e+03 3.982218027114868164e+00 -1.471455001831054688e+01 -6.996872276067733765e-02 -1.072099730372428894e-01 -5.315361171960830688e-02 -5.476005747914314270e-02
7.776000000000000000e+03 6.333617401123046875e+01 1.900612413883209229e-01 1.011908888816833496e+00 8.045271873474121094e+00 2.717154026031494141e+00 1.494953185319900513e-01
7.777000000000000000e+03 4.557837677001953125e+01 3.895328044891357422e+00 -8.160846233367919922e-01 3.507284820079803467e-01 -1.396068483591079712e-01 8.804429322481155396e-02
7.778000000000000000e+03 4.856753158569335938e+01 -5.793920040130615234e+00 -5.705530643463134766e-01 6.702831983566284180e-01 2.991904132068157196e-02 5.541891455650329590e-01
7.779000000000000000e+03 7.160147857666015625e+01 1.826768493652343750e+01 -1.400954961776733398e+00 6.711054801940917969e+00 1.593029856681823730e+00 -8.165810704231262207e-01
7.780000000000000000e+03 1.914995002746582031e+01 -1.907448959350585938e+01 -3.268686532974243164e-01 -9.271444380283355713e-02 -1.258749365806579590e-01 -5.633472204208374023e-01
7.781000000000000000e+03 6.779321289062500000e+01 2.560584640502929688e+01 1.028715610504150391e+00 3.013378143310546875e+00 1.212628126144409180e+00 -2.892985939979553223e-01
7.782000000000000000e+03 4.866843032836914062e+01 2.627198219299316406e+01 6.736151576042175293e-01 2.590506076812744141e+00 9.792364239692687988e-01 -2.602687180042266846e-01
7.783000000000000000e+03 5.160837173461914062e+01 2.293906593322753906e+01 -4.738326072692871094e-01 3.598233938217163086e+00 9.373204112052917480e-01 -1.003768801689147949e+00
7.784000000000000000e+03 5.110021972656250000e+01 2.284650230407714844e+01 -3.538536131381988525e-01 3.343015670776367188e+00 8.967486023902893066e-01 -8.984836935997009277e-01
7.785000000000000000e+03 2.265937042236328125e+01 7.484395980834960938e+00 2.647898197174072266e-01 -2.050795853137969971e-01 1.791306771337985992e-02 1.482639610767364502e-01
7.786000000000000000e+03 2.226703643798828125e+01 8.328397750854492188e+00 3.304708600044250488e-01 -1.987883448600769043e-01 3.950475528836250305e-02 1.639250814914703369e-01
7.787000000000000000e+03 4.412262344360351562e+01 4.457347393035888672e+00 -7.029125094413757324e-01 2.029684931039810181e-01 -1.499832123517990112e-01 1.366725116968154907e-01
7.788000000000000000e+03 4.856331634521484375e+01 2.787362670898437500e+01 8.043239116668701172e-01 2.676981687545776367e+00 1.044391632080078125e+00 -4.574218988418579102e-01
7.789000000000000000e+03 6.960063171386718750e+01 3.325603866577148438e+01 3.716265857219696045e-01 4.841495037078857422e+00 1.563936471939086914e+00 2.226025164127349854e-01
7.790000000000000000e+03 2.868157196044921875e+01 -3.146015357971191406e+01 2.438754141330718994e-01 -2.981502003967761993e-02 6.421811878681182861e-02 -1.788241714239120483e-01
7.791000000000000000e+03 3.560103988647460938e+01 1.808476448059082031e+01 3.967014253139495850e-01 -1.258926540613174438e-01 8.124262839555740356e-02 3.005562126636505127e-01
7.792000000000000000e+03 1.212047958374023438e+01 -6.780710220336914062e+00 -1.764763146638870239e-02 -2.917775185778737068e-03 -6.169622298330068588e-03 -4.143719002604484558e-02
7.793000000000000000e+03 6.020608901977539062e+01 -2.018604278564453125e+01 1.424168944358825684e+00 4.519007682800292969e+00 1.782953023910522461e+00 8.239617943763732910e-01
7.794000000000000000e+03 5.964129257202148438e+01 -2.033459854125976562e+01 1.326572299003601074e+00 4.252725124359130859e+00 1.673789262771606445e+00 1.180631279945373535e+00
7.795000000000000000e+03 4.267472839355468750e+01 -1.739595413208007812e+01 2.437432557344436646e-01 1.812128573656082153e-01 1.274868398904800415e-01 -2.559442818164825439e-01
7.796000000000000000e+03 5.936618804931640625e+01 -1.450528621673583984e+01 -1.174692630767822266e+00 5.505779266357421875e+00 1.299326062202453613e+00 1.793579101562500000e+00
7.797000000000000000e+03 3.967923355102539062e+01 1.537617397308349609e+01 2.298985719680786133e-01 -1.486623585224151611e-01 2.437086403369903564e-02 -1.409792751073837280e-01
7.798000000000000000e+03 6.317749500274658203e+00 1.698743438720703125e+01 2.421792894601821899e-01 -2.987980246543884277e-01 -1.698562316596508026e-02 1.659211218357086182e-01
7.799000000000000000e+03 5.789940643310546875e+01 1.668240547180175781e+01 1.641159534454345703e+00 4.979695320129394531e+00 1.986256480216979980e+00 -7.630690336227416992e-01
7.800000000000000000e+03 7.061179351806640625e+01 3.192857742309570312e+01 5.117833018302917480e-01 4.999695301055908203e+00 1.653443574905395508e+00 1.160187199711799622e-01
7.801000000000000000e+03 6.248976230621337891e+00 -9.795051574707031250e+00 -2.875417657196521759e-02 -9.636064618825912476e-02 -3.753444552421569824e-02 -6.450993940234184265e-03
7.802000000000000000e+03 4.323004531860351562e+01 -1.760820007324218750e+01 3.259067237377166748e-01 2.937658131122589111e-01 1.859017610549926758e-01 -1.534249782562255859e-01
7.803000000000000000e+03 8.187994003295898438e+00 -3.407019042968750000e+01 -6.459454447031021118e-02 -2.793883681297302246e-01 -1.031948775053024292e-01 -2.576972842216491699e-01
7.804000000000000000e+03 7.560053253173828125e+01 3.331313323974609375e+01 1.253612041473388672e-01 6.633069992065429688e+00 2.027529478073120117e+00 -4.625265672802925110e-02
7.805000000000000000e+03 3.088963699340820312e+01 -3.225418853759765625e+01 2.910251319408416748e-01 1.389688253402709961e-01 1.289981901645660400e-01 -1.328579336404800415e-01
7.806000000000000000e+03 7.550030517578125000e+01 -1.738584899902343750e+01 -8.797170221805572510e-02 7.952977657318115234e+00 2.359501838684082031e+00 7.633013129234313965e-01
7.807000000000000000e+03 4.294921493530273438e+01 -1.940866279602050781e+01 5.969783663749694824e-01 5.190909504890441895e-01 3.348208069801330566e-01 -8.314380049705505371e-02
7.808000000000000000e+03 4.243214797973632812e+01 -1.934917449951171875e+01 5.406016707420349121e-01 4.524799585342407227e-01 2.979244887828826904e-01 -1.633828431367874146e-01
7.809000000000000000e+03 7.454146575927734375e+01 -3.191494750976562500e+01 3.179610073566436768e-01 5.977427482604980469e+00 1.888616561889648438e+00 4.481714963912963867e-01
7.810000000000000000e+03 4.821253967285156250e+01 3.074623680114746094e+01 7.778046131134033203e-01 2.548502683639526367e+00 9.978922009468078613e-01 -6.914950013160705566e-01
7.811000000000000000e+03 7.597772216796875000e+01 -8.952765464782714844e-01 -6.565530300140380859e-01 7.465769290924072266e+00 2.042764902114868164e+00 -2.430778592824935913e-01
7.812000000000000000e+03 7.636773681640625000e+01 -1.380678772926330566e+00 -5.875151753425598145e-01 7.755222320556640625e+00 2.150312185287475586e+00 -2.603682130575180054e-02
7.813000000000000000e+03 9.460309982299804688e+00 -4.983203887939453125e+00 1.272865477949380875e-02 -3.462192416191101074e-02 -6.567980628460645676e-03 -2.804245986044406891e-02
7.814000000000000000e+03 7.718395996093750000e+01 -2.156086158752441406e+01 7.149748206138610840e-01 8.104208946228027344e+00 2.645755290985107422e+00 6.003817915916442871e-02
7.815000000000000000e+03 7.684843444824218750e+01 -2.112808799743652344e+01 8.659113049507141113e-01 8.330301284790039062e+00 2.758863687515258789e+00 2.285046577453613281e-01
7.816000000000000000e+03 7.727352142333984375e+01 -2.097461318969726562e+01 6.472083926200866699e-01 8.015302658081054688e+00 2.598753213882446289e+00 3.117615580558776855e-01
7.817000000000000000e+03 2.667816162109375000e+01 -2.976200103759765625e+01 3.101689219474792480e-01 -1.988926678895950317e-01 3.338287770748138428e-02 -2.352465838193893433e-01
7.818000000000000000e+03 1.108128738403320312e+01 -2.607117080688476562e+01 -4.482792690396308899e-02 -2.944394350051879883e-01 -1.017802059650421143e-01 -2.649195492267608643e-01
7.819000000000000000e+03 2.090142822265625000e+01 -1.740595626831054688e+01 -3.665746748447418213e-01 -2.023709863424301147e-01 -1.706836968660354614e-01 -4.765166044235229492e-01
7.820000000000000000e+03 2.053192138671875000e+01 -1.709454345703125000e+01 -3.751899600028991699e-01 -1.811485290527343750e-01 -1.669015437364578247e-01 -4.730053246021270752e-01
7.821000000000000000e+03 7.428112030029296875e+01 5.568577766418457031e+00 -5.615576505661010742e-01 7.149189472198486328e+00 1.976289510726928711e+00 -4.366442188620567322e-02
7.822000000000000000e+03 1.980251693725585938e+01 -1.685338401794433594e+01 -3.435060083866119385e-01 -1.380027383565902710e-01 -1.444526165723800659e-01 -4.547783434391021729e-01
7.823000000000000000e+03 7.664888000488281250e+01 1.271543407440185547e+01 7.833315134048461914e-01 7.444992542266845703e+00 2.468497276306152344e+00 3.176508247852325439e-01
7.824000000000000000e+03 7.600573730468750000e+01 1.270061016082763672e+01 1.011722922325134277e+00 7.912181854248046875e+00 2.677171468734741211e+00 3.596173822879791260e-01
7.825000000000000000e+03 1.016810417175292969e+01 -2.630150985717773438e+01 -6.777278333902359009e-02 -1.993061751127243042e-01 -8.012368530035018921e-02 -2.261226028203964233e-01
7.826000000000000000e+03 5.657393455505371094e+00 -9.382861137390136719e+00 -1.462805271148681641e-02 -7.812677323818206787e-02 -2.782644890248775482e-02 6.736405659466981888e-03
7.827000000000000000e+03 6.948242187500000000e+01 2.697654342651367188e+01 8.735845685005187988e-01 3.953813552856445312e+00 1.448219418525695801e+00 -3.916915655136108398e-01
7.828000000000000000e+03 7.662110900878906250e+01 -2.054541397094726562e+01 8.773269653320312500e-01 8.473287582397460938e+00 2.805184364318847656e+00 4.635933041572570801e-01
7.829000000000000000e+03 6.417658996582031250e+01 1.992628455162048340e+00 4.933328926563262939e-02 5.577219009399414062e+00 1.687965631484985352e+00 2.668549418449401855e-01
7.830000000000000000e+03 7.025102233886718750e+01 3.370996856689453125e+01 2.868975102901458740e-01 5.090273380279541016e+00 1.613151311874389648e+00 1.685732901096343994e-01
7.831000000000000000e+03 2.682804489135742188e+01 -2.910967063903808594e+01 3.698275685310363770e-01 -1.895731836557388306e-01 5.407631769776344299e-02 -2.374354898929595947e-01
7.832000000000000000e+03 1.151313400268554688e+01 -2.557909202575683594e+01 -1.979990862309932709e-02 -3.216405212879180908e-01 -1.024321317672729492e-01 -2.842805385589599609e-01
7.833000000000000000e+03 7.635905456542968750e+01 -4.589401185512542725e-01 -5.605123639106750488e-01 7.486605644226074219e+00 2.077827930450439453e+00 -1.297913491725921631e-01
7.834000000000000000e+03 4.925662517547607422e+00 -1.053539562225341797e+01 -2.654575556516647339e-02 -7.360536605119705200e-02 -3.004533797502517700e-02 5.056234542280435562e-03
7.835000000000000000e+03 8.310452461242675781e+00 -3.248830795288085938e+01 -1.370714008808135986e-01 -2.522179484367370605e-01 -1.167868077754974365e-01 -2.340761870145797729e-01
7.836000000000000000e+03 7.811233997344970703e+00 -3.292531585693359375e+01 -1.115666106343269348e-01 -2.508830726146697998e-01 -1.087348982691764832e-01 -2.349240630865097046e-01
7.837000000000000000e+03 8.055488586425781250e+00 -3.190040588378906250e+01 -1.483742147684097290e-01 -2.328198850154876709e-01 -1.143582314252853394e-01 -2.163535803556442261e-01
7.838000000000000000e+03 9.852718353271484375e+00 -2.804317474365234375e+01 -1.491461396217346191e-01 -2.339078485965728760e-01 -1.149161979556083679e-01 -1.921008676290512085e-01
7.839000000000000000e+03 4.212426662445068359e+00 -9.446909904479980469e+00 -7.424188777804374695e-03 -3.454267606139183044e-02 -1.259006001055240631e-02 2.510815486311912537e-02
7.840000000000000000e+03 3.686702251434326172e+00 -9.598968505859375000e+00 -6.229186430573463440e-03 -1.827210374176502228e-02 -7.350387051701545715e-03 2.728789672255516052e-02
7.841000000000000000e+03 7.651010894775390625e+01 -1.694066238403320312e+01 -1.959768384695053101e-01 8.035970687866210938e+00 2.351998329162597656e+00 1.021175265312194824e+00
7.842000000000000000e+03 7.426308441162109375e+01 4.969765663146972656e+00 -5.237345099449157715e-01 6.767435073852539062e+00 1.873110175132751465e+00 2.621526643633842468e-02
7.843000000000000000e+03 7.627582550048828125e+01 -1.991670799255371094e+01 8.977568745613098145e-01 8.605957031250000000e+00 2.851114034652709961e+00 6.029131412506103516e-01
7.844000000000000000e+03 7.165129089355468750e+01 2.967024993896484375e+01 5.970271229743957520e-01 5.090398788452148438e+00 1.706227660179138184e+00 -2.112870216369628906e-01
7.845000000000000000e+03 1.066638660430908203e+01 -2.662930488586425781e+01 -7.858563959598541260e-02 -2.671587467193603516e-01 -1.037233173847198486e-01 -2.333627343177795410e-01
7.846000000000000000e+03 2.017453002929687500e+01 -1.741822052001953125e+01 -3.351700305938720703e-01 -1.568987518548965454e-01 -1.476206332445144653e-01 -4.886224567890167236e-01
7.847000000000000000e+03 5.445551872253417969e+00 -9.963300704956054688e+00 -2.264414727687835693e-02 -8.696322888135910034e-02 -3.288221359252929688e-02 5.647915881127119064e-03
7.848000000000000000e+03 7.621996307373046875e+01 -1.733880805969238281e+01 -9.510906785726547241e-02 8.033026695251464844e+00 2.381375312805175781e+00 9.868981838226318359e-01
7.849000000000000000e+03 7.374155426025390625e+01 -3.129388046264648438e+01 3.737253844738006592e-01 5.495253086090087891e+00 1.760693550109863281e+00 6.331507563591003418e-01
7.850000000000000000e+03 7.466265869140625000e+01 3.208747100830078125e+01 2.233453989028930664e-01 6.282736301422119141e+00 1.951824426651000977e+00 -1.134599968791007996e-01
7.851000000000000000e+03 7.579128265380859375e+01 3.215419006347656250e+01 1.455752551555633545e-01 6.689732074737548828e+00 2.050592184066772461e+00 -1.073070168495178223e-01
7.852000000000000000e+03 7.686576843261718750e+01 -2.883047866821289062e+01 -4.714388251304626465e-01 7.760059833526611328e+00 2.186586380004882812e+00 1.237805113196372986e-01
7.853000000000000000e+03 5.476517200469970703e+00 8.213436126708984375e+00 -1.892208009958267212e-01 -5.819092690944671631e-02 -7.422351837158203125e-02 1.435080915689468384e-01
7.854000000000000000e+03 7.659312438964843750e+01 -3.196099853515625000e+01 3.433544933795928955e-02 7.139217376708984375e+00 2.152065753936767578e+00 3.079279065132141113e-01
7.855000000000000000e+03 2.403440666198730469e+01 6.330590248107910156e+00 1.049918457865715027e-01 -1.441024243831634521e-01 -1.173317339271306992e-02 1.777225434780120850e-01
7.856000000000000000e+03 7.629924774169921875e+01 3.813709735870361328e+00 -3.044281601905822754e-01 7.156177043914794922e+00 2.055524826049804688e+00 -4.903766810894012451e-01
7.857000000000000000e+03 7.581053161621093750e+01 -3.144141387939453125e+01 2.727647870779037476e-02 6.743138790130615234e+00 2.031124591827392578e+00 4.399053454399108887e-01
7.858000000000000000e+03 7.554716491699218750e+01 8.525904655456542969e+00 2.685275077819824219e-01 7.881979465484619141e+00 2.445152044296264648e+00 -7.764667272567749023e-01
7.859000000000000000e+03 4.780968189239501953e+00 -9.041974067687988281e+00 -7.865173742175102234e-03 -5.280188471078872681e-02 -1.820011809468269348e-02 2.034749835729598999e-02
7.860000000000000000e+03 7.615932464599609375e+01 -3.042310142517089844e+01 -1.759478300809860229e-01 7.064670562744140625e+00 2.066616773605346680e+00 4.310166835784912109e-01
7.861000000000000000e+03 7.506333160400390625e+01 -3.091401481628417969e+01 -4.132555914111435413e-04 6.363605976104736328e+00 1.908957839012145996e+00 6.267311573028564453e-01
7.862000000000000000e+03 7.352772521972656250e+01 3.196579742431640625e+01 3.171867728233337402e-01 5.891990661621093750e+00 1.862753272056579590e+00 -1.100816056132316589e-01
7.863000000000000000e+03 5.384715557098388672e+00 1.809251022338867188e+01 1.704939156770706177e-01 -3.646010458469390869e-01 -5.823213607072830200e-02 8.831132948398590088e-02
7.864000000000000000e+03 7.500080871582031250e+01 2.211918640136718750e+01 -7.963591217994689941e-01 7.278898715972900391e+00 1.944761872291564941e+00 -1.908167004585266113e-01
7.865000000000000000e+03 6.938363552093505859e+00 5.473130702972412109e+00 -1.864294409751892090e-01 -5.865937843918800354e-02 -7.352664321660995483e-02 2.970353327691555023e-02
7.866000000000000000e+03 7.441327667236328125e+01 2.997596549987792969e+01 2.761537134647369385e-01 6.184757232666015625e+00 1.938273191452026367e+00 -2.962698638439178467e-01
7.867000000000000000e+03 7.330345916748046875e+01 2.379296875000000000e+01 -5.968760251998901367e-01 6.150803089141845703e+00 1.666178107261657715e+00 -7.974386811256408691e-01
7.868000000000000000e+03 7.581023406982421875e+01 1.968217086791992188e+01 -7.636979818344116211e-01 7.882274627685546875e+00 2.135572910308837891e+00 5.651944279670715332e-01
7.869000000000000000e+03 7.487647247314453125e+01 2.419150733947753906e+01 -4.159734249114990234e-01 6.847769737243652344e+00 1.929538846015930176e+00 -4.967790842056274414e-01
7.870000000000000000e+03 7.071554183959960938e+00 -3.126544189453125000e+01 -1.351006925106048584e-01 -2.026193290948867798e-01 -1.013160049915313721e-01 -1.785133481025695801e-01
7.871000000000000000e+03 7.381722259521484375e+01 3.083248519897460938e+01 3.396124243736267090e-01 5.949925422668457031e+00 1.886861443519592285e+00 -2.120881974697113037e-01
7.872000000000000000e+03 7.451707458496093750e+01 3.071645355224609375e+01 2.683047652244567871e-01 6.229078292846679688e+00 1.949214935302734375e+00 -2.282642722129821777e-01
7.873000000000000000e+03 7.249274444580078125e+01 2.599186134338378906e+01 7.248241454362869263e-02 5.375628471374511719e+00 1.634433269500732422e+00 -7.807034850120544434e-01
7.874000000000000000e+03 7.479909515380859375e+01 2.482598304748535156e+01 -2.705518901348114014e-01 6.675331115722656250e+00 1.921433687210083008e+00 -5.664663314819335938e-01
7.875000000000000000e+03 1.115754413604736328e+01 -1.603091955184936523e-01 -8.524383156327530742e-05 3.241915255784988403e-03 9.470013901591300964e-04 -8.283419534564018250e-03
7.876000000000000000e+03 1.126386642456054688e+01 -8.940912485122680664e-01 4.438998643308877945e-03 -1.316143665462732315e-02 -2.616731449961662292e-03 -1.834796927869319916e-02
7.877000000000000000e+03 1.049932956695556641e+01 -1.051980972290039062e+00 1.331496983766555786e-02 -8.698443998582661152e-04 3.733537625521421432e-03 -1.766692101955413818e-02
7.878000000000000000e+03 1.279222297668457031e+01 -5.713624954223632812e-01 -1.593935675919055939e-02 -1.435174141079187393e-02 -9.087329730391502380e-03 -2.076187171041965485e-02
7.879000000000000000e+03 1.264629268646240234e+01 1.541289687156677246e-01 -2.776670269668102264e-02 3.191539319232106209e-03 -7.372548803687095642e-03 -1.419240981340408325e-02
7.880000000000000000e+03 1.190196800231933594e+01 -3.807745641097426414e-03 -1.455568801611661911e-02 -1.025491300970315933e-02 -7.443180307745933533e-03 -9.158342145383358002e-03
7.881000000000000000e+03 1.202809429168701172e+01 -7.334445118904113770e-01 -5.461317487061023712e-03 -1.724812202155590057e-03 -2.155838999897241592e-03 -2.109935507178306580e-02
7.882000000000000000e+03 1.041281127929687500e+01 -3.140535950660705566e-01 1.515503227710723877e-02 -7.765159942209720612e-03 2.216961467638611794e-03 -4.764863289892673492e-03
7.883000000000000000e+03 8.950648307800292969e+00 -1.127177476882934570e+00 2.602406777441501617e-02 7.638420793227851391e-04 8.036373183131217957e-03 -8.108649402856826782e-03
7.884000000000000000e+03 9.654337882995605469e+00 -3.896256983280181885e-01 2.851104736328125000e-02 5.120652262121438980e-03 1.008951012045145035e-02 -4.997508600354194641e-03
7.885000000000000000e+03 8.111012458801269531e+00 -3.855062127113342285e-01 4.033158347010612488e-02 4.026694688946008682e-03 1.330748293548822403e-02 -1.534173730760812759e-03
7.886000000000000000e+03 7.337950229644775391e+00 -3.871315717697143555e-01 4.143092781305313110e-02 -4.716133698821067810e-03 1.101443823426961899e-02 1.721059525152668357e-04
7.887000000000000000e+03 6.565063476562500000e+00 -3.886615037918090820e-01 4.006761312484741211e-02 2.963071223348379135e-03 1.290920469909906387e-02 1.212188275530934334e-03
7.888000000000000000e+03 5.792575359344482422e+00 -3.895556330680847168e-01 3.624431043863296509e-02 -3.352924948558211327e-03 9.867415763437747955e-03 2.245252951979637146e-03
7.889000000000000000e+03 5.020018577575683594e+00 -3.902509510517120361e-01 3.088083676993846893e-02 2.131075598299503326e-03 9.903573431074619293e-03 2.999209566041827202e-03
7.890000000000000000e+03 4.246604442596435547e+00 -3.901863992214202881e-01 2.418082207441329956e-02 -2.055191900581121445e-03 6.637689191848039627e-03 3.319303272292017937e-03
7.891000000000000000e+03 3.473218679428100586e+00 -3.899813890457153320e-01 1.720167137682437897e-02 1.583108678460121155e-03 5.635433830320835114e-03 3.489261958748102188e-03
7.892000000000000000e+03 2.700762510299682617e+00 -3.899726569652557373e-01 1.044336240738630295e-02 -8.051625336520373821e-04 2.891459967941045761e-03 2.932046540081501007e-03
7.893000000000000000e+03 1.928606271743774414e+00 -3.900973796844482422e-01 5.063030868768692017e-03 1.168272574432194233e-03 1.869391067884862423e-03 2.331280848011374474e-03
7.894000000000000000e+03 1.157287955284118652e+00 -3.904983699321746826e-01 1.515885465778410435e-03 2.730697742663323879e-04 5.366865661926567554e-04 1.027817488647997379e-03
7.895000000000000000e+03 3.859849572181701660e-01 -3.903989493846893311e-01 2.678581804502755404e-04 3.138047759421169758e-04 1.744988840073347092e-04 2.335821336600929499e-04
7.896000000000000000e+03 3.889317214488983154e-01 -1.130398988723754883e+00 4.663732543122023344e-04 1.305569196119904518e-03 5.315827438607811928e-04 9.823137661442160606e-04
7.897000000000000000e+03 9.728007316589355469e+00 -1.129625678062438965e+00 1.974494010210037231e-02 -8.657081983983516693e-03 3.326357575133442879e-03 -1.261752936989068985e-02
7.898000000000000000e+03 8.172894477844238281e+00 -1.125506162643432617e+00 2.957028150558471680e-02 -7.254265248775482178e-03 6.694804877042770386e-03 -4.275942221283912659e-03
7.899000000000000000e+03 7.393939018249511719e+00 -1.127131581306457520e+00 3.140352666378021240e-02 5.721199559047818184e-04 9.592694230377674103e-03 -7.575226482003927231e-05
7.900000000000000000e+03 6.615158557891845703e+00 -1.128661513328552246e+00 3.075090423226356506e-02 -5.701985675841569901e-03 7.514675147831439972e-03 2.737548900768160820e-03
7.901000000000000000e+03 5.836776733398437500e+00 -1.129555583000183105e+00 2.887839823961257935e-02 7.020744378678500652e-04 8.874141611158847809e-03 6.120906211435794830e-03
7.902000000000000000e+03 5.058326244354248047e+00 -1.130250930786132812e+00 2.501053735613822937e-02 -3.654547035694122314e-03 6.406797096133232117e-03 7.540480233728885651e-03
7.903000000000000000e+03 4.279018878936767578e+00 -1.130186438560485840e+00 2.080629579722881317e-02 1.330814906395971775e-03 6.641133688390254974e-03 9.284858591854572296e-03
7.904000000000000000e+03 3.499739646911621094e+00 -1.129981398582458496e+00 1.561680249869823456e-02 -1.281550386920571327e-03 4.300575703382492065e-03 8.919632993638515472e-03
7.905000000000000000e+03 2.721390008926391602e+00 -1.129972696304321289e+00 1.089782826602458954e-02 2.417665906250476837e-03 3.994648344814777374e-03 8.653537370264530182e-03
7.906000000000000000e+03 1.943340182304382324e+00 -1.130097389221191406e+00 6.249692291021347046e-03 1.289894222281873226e-03 2.261875895783305168e-03 6.113973446190357208e-03
7.907000000000000000e+03 8.882872581481933594e+00 -3.871774673461914062e-01 3.591635078191757202e-02 -6.152079440653324127e-03 8.929281495511531830e-03 -2.558978274464607239e-03
7.908000000000000000e+03 1.166128277778625488e+00 -1.130498409271240234e+00 3.061373485252261162e-03 3.173064207658171654e-03 1.870331354439258575e-03 3.883126890286803246e-03
