# el_label, x, y, sXX, sYY, sZZ, sXY
1.000000000000000000e+00 4.707408905029296875e+01 -1.076617479324340820e+00 -8.332355499267578125e+00 -9.479449391365051270e-01 -2.784090042114257812e+00 -1.579433679580688477e+00
2.000000000000000000e+00 4.687518692016601562e+01 -1.069175720214843750e+00 -1.604811668395996094e+00 4.560464024543762207e-01 -3.446295857429504395e-01 1.382720172405242920e-01
3.000000000000000000e+00 4.667628479003906250e+01 -1.061733961105346680e+00 -7.534179091453552246e-01 -1.460280716419219971e-01 -2.698338031768798828e-01 -3.515570759773254395e-01
4.000000000000000000e+00 4.647738265991210938e+01 -1.054292201995849609e+00 1.961993277072906494e-01 2.233549207448959351e-01 1.258662790060043335e-01 -3.305487930774688721e-01
5.000000000000000000e+00 4.707762527465820312e+01 -1.134917616844177246e+00 2.527175426483154297e+00 -1.574890971183776855e+00 2.856853604316711426e-01 -1.628830790519714355e+00
6.000000000000000000e+00 4.688108062744140625e+01 -1.166342496871948242e+00 8.382562994956970215e-01 -5.782241746783256531e-02 2.341301590204238892e-01 -8.373363018035888672e-01
7.000000000000000000e+00 4.668453598022460938e+01 -1.197767496109008789e+00 2.226435899734497070e+00 2.639232575893402100e-01 7.471077442169189453e-01 -3.625778555870056152e-01
8.000000000000000000e+00 4.648799133300781250e+01 -1.229192495346069336e+00 2.149917364120483398e+00 2.081461809575557709e-02 6.512196063995361328e-01 -6.239105463027954102e-01
9.000000000000000000e+00 4.709244537353515625e+01 -1.191413640975952148e+00 7.765684604644775391e+00 -1.113405358046293259e-02 2.326365232467651367e+00 1.673430204391479492e+00
1.000000000000000000e+01 4.690577697753906250e+01 -1.260502696037292480e+00 5.356304168701171875e+00 -2.597123086452484131e-01 1.528977632522583008e+00 2.838226556777954102e-01
1.100000000000000000e+01 4.671911239624023438e+01 -1.329591751098632812e+00 4.257373332977294922e+00 5.191190838813781738e-01 1.432947754859924316e+00 9.248095005750656128e-02
1.200000000000000000e+01 4.653244781494140625e+01 -1.398680806159973145e+00 4.328143119812011719e+00 3.628304004669189453e-01 1.407292127609252930e+00 9.985990077257156372e-02
1.300000000000000000e+01 4.711797714233398438e+01 -1.243943691253662109e+00 1.069520282745361328e+01 2.536949634552001953e+00 3.969645738601684570e+00 4.884339332580566406e+00
1.400000000000000000e+01 4.694833374023437500e+01 -1.348052740097045898e+00 7.462698459625244141e+00 1.617058515548706055e+00 2.723927021026611328e+00 2.539146423339843750e+00
1.500000000000000000e+01 4.677869415283203125e+01 -1.452161788940429688e+00 6.454830169677734375e+00 1.137301087379455566e+00 2.277639389038085938e+00 1.585360646247863770e+00
1.600000000000000000e+01 4.660905075073242188e+01 -1.556270718574523926e+00 5.617392063140869141e+00 1.303814172744750977e+00 2.076361894607543945e+00 1.116268157958984375e+00
1.700000000000000000e+01 4.715325164794921875e+01 -1.290497183799743652e+00 1.106326103210449219e+01 7.002181053161621094e+00 5.419632434844970703e+00 7.718307018280029297e+00
1.800000000000000000e+01 4.700712203979492188e+01 -1.425642013549804688e+00 8.394424438476562500e+00 4.249144077301025391e+00 3.793070554733276367e+00 4.668369770050048828e+00
1.900000000000000000e+01 4.686099624633789062e+01 -1.560786724090576172e+00 7.073971271514892578e+00 3.394298791885375977e+00 3.140480995178222656e+00 3.145316362380981445e+00
2.000000000000000000e+01 4.671487045288085938e+01 -1.695931315422058105e+00 6.273333549499511719e+00 2.608879804611206055e+00 2.664664030075073242e+00 2.495491743087768555e+00
2.100000000000000000e+01 4.719691085815429688e+01 -1.329292654991149902e+00 1.003192996978759766e+01 1.206575489044189453e+01 6.629305362701416016e+00 9.437948226928710938e+00
2.200000000000000000e+01 4.707989120483398438e+01 -1.490301012992858887e+00 7.879233837127685547e+00 8.176403999328613281e+00 4.816691398620605469e+00 5.976839065551757812e+00
2.300000000000000000e+01 4.696287155151367188e+01 -1.651309251785278320e+00 6.897747993469238281e+00 6.188218593597412109e+00 3.925789833068847656e+00 4.443913936614990234e+00
2.400000000000000000e+01 4.684585189819335938e+01 -1.812317609786987305e+00 5.892949581146240234e+00 5.212522029876708984e+00 3.331641435623168945e+00 3.441086292266845703e+00
2.500000000000000000e+01 4.724729156494140625e+01 -1.358845233917236328e+00 8.062992095947265625e+00 1.769906806945800781e+01 7.728618144989013672e+00 9.461946487426757812e+00
2.600000000000000000e+01 4.716385650634765625e+01 -1.539555191993713379e+00 6.830374717712402344e+00 1.226108169555664062e+01 5.727437019348144531e+00 6.425507545471191406e+00
2.700000000000000000e+01 4.708042526245117188e+01 -1.720265269279479980e+00 5.836703777313232422e+00 9.788307189941406250e+00 4.687503337860107422e+00 4.739476203918457031e+00
2.800000000000000000e+01 4.699699020385742188e+01 -1.900975227355957031e+00 5.314716815948486328e+00 8.081910133361816406e+00 4.018988132476806641e+00 3.948162078857421875e+00
2.900000000000000000e+01 4.730245971679687500e+01 -1.378023982048034668e+00 6.346447944641113281e+00 2.279909324645996094e+01 8.743661880493164062e+00 7.961627006530761719e+00
3.000000000000000000e+01 4.725580596923828125e+01 -1.571519732475280762e+00 5.422090530395507812e+00 1.627892112731933594e+01 6.510303497314453125e+00 5.641969680786132812e+00
3.100000000000000000e+01 4.720915222167968750e+01 -1.765015602111816406e+00 4.778067588806152344e+00 1.335636425018310547e+01 5.440329551696777344e+00 4.345086574554443359e+00
3.200000000000000000e+01 4.716249465942382812e+01 -1.958511471748352051e+00 4.282300472259521484e+00 1.131601810455322266e+01 4.679495334625244141e+00 3.270104885101318359e+00
3.300000000000000000e+01 4.736030578613281250e+01 -1.386094808578491211e+00 5.123970031738281250e+00 2.669688224792480469e+01 9.546256065368652344e+00 5.106196880340576172e+00
3.400000000000000000e+01 4.735221862792968750e+01 -1.584971308708190918e+00 4.658138275146484375e+00 1.969409179687500000e+01 7.305669307708740234e+00 4.015301704406738281e+00
3.500000000000000000e+01 4.734412765502929688e+01 -1.783847808837890625e+00 3.707715272903442383e+00 1.637759590148925781e+01 6.025593280792236328e+00 3.007728815078735352e+00
3.600000000000000000e+01 4.733603668212890625e+01 -1.982724189758300781e+00 3.473809719085693359e+00 1.450373172760009766e+01 5.393262386322021484e+00 2.192446470260620117e+00
3.700000000000000000e+01 4.741861724853515625e+01 -1.382749080657958984e+00 5.473991394042968750e+00 2.913915061950683594e+01 1.038394260406494141e+01 1.749504327774047852e+00
3.800000000000000000e+01 4.744940185546875000e+01 -1.579395055770874023e+00 4.269969940185546875e+00 2.201473236083984375e+01 7.885410785675048828e+00 1.607921361923217773e+00
3.900000000000000000e+01 4.748018646240234375e+01 -1.776041030883789062e+00 3.605435848236083984e+00 1.860457038879394531e+01 6.663001537322998047e+00 1.242670893669128418e+00
4.000000000000000000e+01 4.751097106933593750e+01 -1.972686886787414551e+00 2.828266382217407227e+00 1.658094215393066406e+01 5.822762489318847656e+00 7.157800793647766113e-01
4.100000000000000000e+01 4.747516250610351562e+01 -1.368114590644836426e+00 6.781134605407714844e+00 2.974403953552246094e+01 1.095755290985107422e+01 -1.722863435745239258e+00
4.200000000000000000e+01 4.754364395141601562e+01 -1.555004358291625977e+00 5.125350475311279297e+00 2.331407928466796875e+01 8.531828880310058594e+00 -7.834286689758300781e-01
4.300000000000000000e+01 4.761212158203125000e+01 -1.741894006729125977e+00 3.949162721633911133e+00 1.970617675781250000e+01 7.096601963043212891e+00 -9.873284101486206055e-01
4.400000000000000000e+01 4.768060302734375000e+01 -1.928783655166625977e+00 3.408615827560424805e+00 1.737271499633789062e+01 6.234398841857910156e+00 -8.779587745666503906e-01
4.500000000000000000e+01 4.752777481079101562e+01 -1.342751622200012207e+00 9.435047149658203125e+00 2.931869888305664062e+01 1.162612342834472656e+01 -4.310179710388183594e+00
4.600000000000000000e+01 4.763132858276367188e+01 -1.512732625007629395e+00 6.592839241027832031e+00 2.316360473632812500e+01 8.926933288574218750e+00 -3.177275657653808594e+00
4.700000000000000000e+01 4.773488616943359375e+01 -1.682713627815246582e+00 5.319517612457275391e+00 1.998777389526367188e+01 7.592187404632568359e+00 -2.711051940917968750e+00
4.800000000000000000e+01 4.783843994140625000e+01 -1.852694630622863770e+00 4.375350475311279297e+00 1.743742942810058594e+01 6.543834209442138672e+00 -2.997180700302124023e+00
4.900000000000000000e+01 4.757444000244140625e+01 -1.307630777359008789e+00 1.231929016113281250e+01 2.752363586425781250e+01 1.195287799835205078e+01 -6.107682704925537109e+00
5.000000000000000000e+01 4.770911026000976562e+01 -1.454197764396667480e+00 9.010050773620605469e+00 2.257064628601074219e+01 9.474208831787109375e+00 -4.660127162933349609e+00
5.100000000000000000e+01 4.784377670288085938e+01 -1.600764870643615723e+00 7.132052898406982422e+00 1.898483657836914062e+01 7.835066795349121094e+00 -4.287722110748291016e+00
5.200000000000000000e+01 4.797844314575195312e+01 -1.747331857681274414e+00 5.828436374664306641e+00 1.737153625488281250e+01 6.959991455078125000e+00 -3.954556465148925781e+00
5.300000000000000000e+01 4.761338043212890625e+01 -1.264096021652221680e+00 1.557105445861816406e+01 2.609846878051757812e+01 1.250085639953613281e+01 -6.526385784149169922e+00
5.400000000000000000e+01 4.777400588989257812e+01 -1.381639838218688965e+00 1.146868133544921875e+01 2.074061965942382812e+01 9.662790298461914062e+00 -5.575828075408935547e+00
5.500000000000000000e+01 4.793463134765625000e+01 -1.499183773994445801e+00 9.466718673706054688e+00 1.818777465820312500e+01 8.296348571777343750e+00 -4.810396194458007812e+00
5.600000000000000000e+01 4.809525680541992188e+01 -1.616727709770202637e+00 7.788581848144531250e+00 1.576981544494628906e+01 7.067519187927246094e+00 -4.425301551818847656e+00
5.700000000000000000e+01 4.764309692382812500e+01 -1.213813543319702148e+00 1.816393280029296875e+01 2.394258499145507812e+01 1.263195514678955078e+01 -6.101518154144287109e+00
5.800000000000000000e+01 4.782353591918945312e+01 -1.297835707664489746e+00 1.397504043579101562e+01 1.967243003845214844e+01 1.009424114227294922e+01 -5.393320083618164062e+00
5.900000000000000000e+01 4.800397109985351562e+01 -1.381857991218566895e+00 1.167281436920166016e+01 1.635152626037597656e+01 8.407301902770996094e+00 -4.767391204833984375e+00
6.000000000000000000e+01 4.818441009521484375e+01 -1.465880274772644043e+00 1.010534667968750000e+01 1.483041477203369141e+01 7.480728626251220703e+00 -4.195188999176025391e+00
6.100000000000000000e+01 4.766245651245117188e+01 -1.158707737922668457e+00 2.025833511352539062e+01 2.315737152099609375e+01 1.302471160888671875e+01 -4.919035434722900391e+00
6.200000000000000000e+01 4.785579681396484375e+01 -1.205992698669433594e+00 1.581810760498046875e+01 1.799805068969726562e+01 1.014484691619873047e+01 -4.424790382385253906e+00
6.300000000000000000e+01 4.804914093017578125e+01 -1.253277778625488281e+00 1.343449878692626953e+01 1.564916515350341797e+01 8.725099563598632812e+00 -4.048153877258300781e+00
6.400000000000000000e+01 4.824248504638671875e+01 -1.300562739372253418e+00 1.206260871887207031e+01 1.338133335113525391e+01 7.633182525634765625e+00 -3.663573026657104492e+00
6.500000000000000000e+01 4.767071533203125000e+01 -1.100887537002563477e+00 2.124727058410644531e+01 2.214994239807128906e+01 1.301916408538818359e+01 -3.198968648910522461e+00
6.600000000000000000e+01 4.786956405639648438e+01 -1.109625816345214844e+00 1.701737594604492188e+01 1.775705337524414062e+01 1.043232917785644531e+01 -3.035828828811645508e+00
6.700000000000000000e+01 4.806841278076171875e+01 -1.118364095687866211e+00 1.431977939605712891e+01 1.467935848236083984e+01 8.699741363525390625e+00 -2.703880310058593750e+00
6.800000000000000000e+01 4.826726150512695312e+01 -1.127102375030517578e+00 1.273845291137695312e+01 1.341580486297607422e+01 7.846277236938476562e+00 -2.866397380828857422e+00
6.900000000000000000e+01 4.766756057739257812e+01 -1.042565941810607910e+00 2.157893180847167969e+01 2.261359596252441406e+01 1.325775814056396484e+01 -1.602048397064208984e+00
7.000000000000000000e+01 4.786430358886718750e+01 -1.012423157691955566e+00 1.703368186950683594e+01 1.749308204650878906e+01 1.035802936553955078e+01 -1.216320276260375977e+00
7.100000000000000000e+01 4.806105041503906250e+01 -9.822804331779479980e-01 1.445620632171630859e+01 1.515828800201416016e+01 8.884347915649414062e+00 -1.408936262130737305e+00
7.200000000000000000e+01 4.825779342651367188e+01 -9.521375894546508789e-01 1.218205165863037109e+01 1.324935054779052734e+01 7.629420757293701172e+00 -1.209685325622558594e+00
7.300000000000000000e+01 4.765310668945312500e+01 -9.859747886657714844e-01 2.067222404479980469e+01 2.322183799743652344e+01 1.316821861267089844e+01 1.068210750818252563e-01
7.400000000000000000e+01 4.784022140502929688e+01 -9.181044697761535645e-01 1.640509033203125000e+01 1.846756172180175781e+01 1.046179485321044922e+01 9.775093942880630493e-02
7.500000000000000000e+01 4.802733230590820312e+01 -8.502342104911804199e-01 1.342745208740234375e+01 1.577784729003906250e+01 8.761590003967285156e+00 1.128001809120178223e-01
7.600000000000000000e+01 4.821444702148437500e+01 -7.823639512062072754e-01 1.160784339904785156e+01 1.395775699615478516e+01 7.669680118560791016e+00 5.166601762175559998e-02
7.700000000000000000e+01 4.762791824340820312e+01 -9.332796335220336914e-01 1.932269287109375000e+01 2.464495658874511719e+01 1.319029426574707031e+01 1.067741990089416504e+00
7.800000000000000000e+01 4.779823303222656250e+01 -8.302792906761169434e-01 1.466195011138916016e+01 1.976152420043945312e+01 1.032704162597656250e+01 1.126372098922729492e+00
7.900000000000000000e+01 4.796855545043945312e+01 -7.272789478302001953e-01 1.210383987426757812e+01 1.698567581176757812e+01 8.726855278015136719e+00 9.321272969245910645e-01
8.000000000000000000e+01 4.813887023925781250e+01 -6.242786049842834473e-01 1.034040355682373047e+01 1.503723335266113281e+01 7.613291263580322266e+00 8.495153784751892090e-01
8.100000000000000000e+01 4.759294891357421875e+01 -8.864973187446594238e-01 1.701969337463378906e+01 2.655752563476562500e+01 1.307316589355468750e+01 1.475961446762084961e+00
8.200000000000000000e+01 4.773995590209960938e+01 -7.523087263107299805e-01 1.270437145233154297e+01 2.122797203063964844e+01 1.017970371246337891e+01 1.148581624031066895e+00
8.300000000000000000e+01 4.788695907592773438e+01 -6.181201338768005371e-01 1.026751518249511719e+01 1.829456520080566406e+01 8.568624496459960938e+00 1.106485843658447266e+00
8.400000000000000000e+01 4.803396606445312500e+01 -4.839315712451934814e-01 8.757537841796875000e+00 1.635887145996093750e+01 7.534922599792480469e+00 8.822245597839355469e-01
8.500000000000000000e+01 4.754954147338867188e+01 -8.474180698394775391e-01 1.458390998840332031e+01 2.805814933776855469e+01 1.279261779785156250e+01 9.350067973136901855e-01
8.600000000000000000e+01 4.766761016845703125e+01 -6.871767044067382812e-01 1.048505783081054688e+01 2.298234939575195312e+01 1.004022216796875000e+01 2.747102677822113037e-01
8.700000000000000000e+01 4.778567886352539062e+01 -5.269353389739990234e-01 8.501114845275878906e+00 1.909684944152832031e+01 8.279389381408691406e+00 2.386387735605239868e-01
8.800000000000000000e+01 4.790374755859375000e+01 -3.666939437389373779e-01 7.032613754272460938e+00 1.730213928222656250e+01 7.300426006317138672e+00 3.180212080478668213e-01
8.900000000000000000e+01 4.749935913085937500e+01 -8.175376057624816895e-01 1.234746646881103516e+01 2.990384483337402344e+01 1.267539310455322266e+01 -9.421002268791198730e-01
9.000000000000000000e+01 4.758396911621093750e+01 -6.373758316040039062e-01 8.494824409484863281e+00 2.343699645996093750e+01 9.579545974731445312e+00 -1.195176959037780762e+00
9.100000000000000000e+01 4.766857910156250000e+01 -4.572141468524932861e-01 6.994135856628417969e+00 2.021219253540039062e+01 8.161898612976074219e+00 -1.595493555068969727e+00
9.200000000000000000e+01 4.775319290161132812e+01 -2.770524322986602783e-01 5.620727539062500000e+00 1.694617080688476562e+01 6.770069599151611328e+00 -1.168854236602783203e+00
9.300000000000000000e+01 4.744431686401367188e+01 -7.979993224143981934e-01 1.017040824890136719e+01 3.017494583129882812e+01 1.210360622406005859e+01 -3.346701860427856445e+00
9.400000000000000000e+01 4.749223327636718750e+01 -6.048120856285095215e-01 7.660125732421875000e+00 2.358770942687988281e+01 9.374350547790527344e+00 -3.781510591506958008e+00
9.500000000000000000e+01 4.754014968872070312e+01 -4.116248786449432373e-01 5.639054298400878906e+00 1.971483421325683594e+01 7.606166362762451172e+00 -3.298976182937622070e+00
9.600000000000000000e+01 4.758806610107421875e+01 -2.184376418590545654e-01 5.033840179443359375e+00 1.752678489685058594e+01 6.768187522888183594e+00 -3.534255743026733398e+00
9.700000000000000000e+01 4.738652420043945312e+01 -7.895510196685791016e-01 9.648189544677734375e+00 2.952474594116210938e+01 1.175188064575195312e+01 -6.731612205505371094e+00
9.800000000000000000e+01 4.739591217041015625e+01 -5.907316207885742188e-01 7.074050903320312500e+00 2.215727806091308594e+01 8.769398689270019531e+00 -6.137652873992919922e+00
9.900000000000000000e+01 4.740530014038085938e+01 -3.919121921062469482e-01 5.772196769714355469e+00 1.852493476867675781e+01 7.289139747619628906e+00 -5.606332778930664062e+00
1.000000000000000000e+02 4.741468811035156250e+01 -1.930927783250808716e-01 4.559055328369140625e+00 1.643480300903320312e+01 6.298157215118408203e+00 -4.892426013946533203e+00
1.010000000000000000e+02 4.732818984985351562e+01 -7.925160527229309082e-01 9.929155349731445312e+00 2.698005867004394531e+01 1.107276439666748047e+01 -9.909641265869140625e+00
1.020000000000000000e+02 4.729869461059570312e+01 -5.956732630729675293e-01 7.869709968566894531e+00 1.962952804565429688e+01 8.249771118164062500e+00 -8.483910560607910156e+00
1.030000000000000000e+02 4.726919174194335938e+01 -3.988305330276489258e-01 6.286053657531738281e+00 1.622204589843750000e+01 6.752429962158203125e+00 -7.210690975189208984e+00
1.040000000000000000e+02 4.723969268798828125e+01 -2.019877880811691284e-01 5.304975032806396484e+00 1.384527492523193359e+01 5.745074748992919922e+00 -6.564058780670166016e+00
1.050000000000000000e+02 4.727155303955078125e+01 -8.067808747291564941e-01 1.170743083953857422e+01 2.278600120544433594e+01 1.034802913665771484e+01 -1.262171936035156250e+01
1.060000000000000000e+02 4.720429611206054688e+01 -6.194479465484619141e-01 9.148356437683105469e+00 1.600056648254394531e+01 7.544677257537841797e+00 -9.778181076049804688e+00
1.070000000000000000e+02 4.713703536987304688e+01 -4.321151077747344971e-01 7.600016117095947266e+00 1.292988300323486328e+01 6.158969879150390625e+00 -8.370211601257324219e+00
1.080000000000000000e+02 4.706977844238281250e+01 -2.447822540998458862e-01 6.199656009674072266e+00 1.129926967620849609e+01 5.249677658081054688e+00 -7.411304950714111328e+00
1.090000000000000000e+02 4.721877670288085938e+01 -8.317995667457580566e-01 1.396009731292724609e+01 1.732211303710937500e+01 9.384662628173828125e+00 -1.376205635070800781e+01
1.100000000000000000e+02 4.711633300781250000e+01 -6.611458659172058105e-01 1.105424690246582031e+01 1.159551239013671875e+01 6.794928073883056641e+00 -1.010516738891601562e+01
1.110000000000000000e+02 4.701388931274414062e+01 -4.904921352863311768e-01 8.742931365966796875e+00 9.410015106201171875e+00 5.445883750915527344e+00 -8.312970161437988281e+00
1.120000000000000000e+02 4.691144561767578125e+01 -3.198384344577789307e-01 7.458076953887939453e+00 8.232054710388183594e+00 4.707039356231689453e+00 -7.303615570068359375e+00
1.130000000000000000e+02 4.717187881469726562e+01 -8.666146993637084961e-01 1.676055717468261719e+01 1.105309677124023438e+01 8.344096183776855469e+00 -1.311122798919677734e+01
1.140000000000000000e+02 4.703817367553710938e+01 -7.191711068153381348e-01 1.212455654144287109e+01 7.227840423583984375e+00 5.805718898773193359e+00 -8.970029830932617188e+00
1.150000000000000000e+02 4.690446472167968750e+01 -5.717275142669677734e-01 9.985313415527343750e+00 5.984078884124755859e+00 4.790817737579345703e+00 -7.267636299133300781e+00
1.160000000000000000e+02 4.677075576782226562e+01 -4.242838919162750244e-01 8.091094970703125000e+00 5.156266689300537109e+00 3.974208354949951172e+00 -6.291066169738769531e+00
1.170000000000000000e+02 4.713265991210937500e+01 -9.098939299583435059e-01 1.782264709472656250e+01 5.055085182189941406e+00 6.863319396972656250e+00 -1.046548748016357422e+01
1.180000000000000000e+02 4.697280502319335938e+01 -7.913030982017517090e-01 1.280304336547851562e+01 3.491846799850463867e+00 4.888466835021972656e+00 -6.613505840301513672e+00
1.190000000000000000e+02 4.681295013427734375e+01 -6.727122664451599121e-01 9.751302719116210938e+00 3.259931087493896484e+00 3.903370141983032227e+00 -5.372692108154296875e+00
1.200000000000000000e+02 4.665309524536132812e+01 -5.541214942932128906e-01 8.513979911804199219e+00 2.885271549224853516e+00 3.419775485992431641e+00 -4.910717964172363281e+00
1.210000000000000000e+02 4.710261535644531250e+01 -9.599809050559997559e-01 1.737836074829101562e+01 -2.836063504219055176e-02 5.205000400543212891e+00 -5.774414062500000000e+00
1.220000000000000000e+02 4.692272949218750000e+01 -8.747813701629638672e-01 1.071104621887207031e+01 1.511269807815551758e+00 3.666694641113281250e+00 -3.704919815063476562e+00
1.230000000000000000e+02 4.674284744262695312e+01 -7.895818352699279785e-01 9.330793380737304688e+00 1.703740835189819336e+00 3.310360193252563477e+00 -3.699424266815185547e+00
1.240000000000000000e+02 4.656296157836914062e+01 -7.043823003768920898e-01 7.693499565124511719e+00 9.299275279045104980e-01 2.587028026580810547e+00 -3.076084852218627930e+00
1.250000000000000000e+02 4.708289718627929688e+01 -1.014958739280700684e+00 1.009125137329101562e+01 -1.733846664428710938e+00 2.507221460342407227e+00 -8.673910498619079590e-01
1.260000000000000000e+02 4.688986587524414062e+01 -9.664111137390136719e-01 9.432971954345703125e+00 1.350567102432250977e+00 3.235061645507812500e+00 -2.416778087615966797e+00
1.270000000000000000e+02 4.669683837890625000e+01 -9.178634881973266602e-01 7.346010684967041016e+00 -3.030000068247318268e-02 2.194713115692138672e+00 -1.620498538017272949e+00
1.280000000000000000e+02 4.650380706787109375e+01 -8.693158626556396484e-01 6.202408313751220703e+00 5.314942002296447754e-01 2.020170688629150391e+00 -1.458039760589599609e+00
1.290000000000000000e+02 1.777486610412597656e+01 1.073900461196899414e+00 -7.879293560981750488e-01 4.968475699424743652e-01 -8.732452988624572754e-02 -4.498043283820152283e-02
1.300000000000000000e+02 1.792778015136718750e+01 4.714254438877105713e-01 -5.819330811500549316e-01 -3.593231141567230225e-01 -2.823768556118011475e-01 -3.168122470378875732e-02
1.310000000000000000e+02 1.644459342956542969e+01 1.723731011152267456e-01 -5.479918122291564941e-01 -2.555798888206481934e-01 -2.410715073347091675e-01 -8.271907269954681396e-02
1.320000000000000000e+02 1.848871994018554688e+01 6.747622489929199219e-01 -5.592069029808044434e-01 4.064560234546661377e-01 -4.582526907324790955e-02 2.155053801834583282e-02
1.330000000000000000e+02 1.726383209228515625e+01 2.464335858821868896e-01 -4.507014751434326172e-01 3.263506591320037842e-01 -3.730524703860282898e-02 -9.647735208272933960e-02
1.340000000000000000e+02 1.847787094116210938e+01 1.163098692893981934e+00 -7.910115718841552734e-01 -5.668842792510986328e-01 -4.073687791824340820e-01 -6.091218441724777222e-02
1.350000000000000000e+02 1.630637359619140625e+01 9.048026204109191895e-01 -6.418343782424926758e-01 2.415179908275604248e-01 -1.200949102640151978e-01 -1.330977976322174072e-01
1.360000000000000000e+02 1.839068794250488281e+01 1.810296177864074707e-01 -8.279222249984741211e-01 1.027769744396209717e-01 -2.175435721874237061e-01 -1.288206726312637329e-01
1.370000000000000000e+02 1.705963325500488281e+01 9.744657874107360840e-01 -7.727199792861938477e-01 -3.253077566623687744e-01 -3.294083178043365479e-01 -7.218740880489349365e-02
1.380000000000000000e+02 2.069370651245117188e+01 3.904900848865509033e-01 -1.054362893104553223e+00 8.549397587776184082e-01 -5.982693284749984741e-02 6.632699966430664062e-01
1.390000000000000000e+02 2.311314582824707031e+01 -1.502791643142700195e-01 -2.105255603790283203e+00 3.886656463146209717e-01 -5.149769783020019531e-01 4.738292843103408813e-02
1.400000000000000000e+02 2.569888687133789062e+01 -5.156913399696350098e-01 -4.064738273620605469e+00 5.534790158271789551e-01 -1.053377747535705566e+00 1.061437487602233887e+00
1.410000000000000000e+02 2.401404762268066406e+01 3.338841721415519714e-02 -1.365767478942871094e+00 1.103547453880310059e+00 -7.866600900888442993e-02 -4.480327367782592773e-01
1.420000000000000000e+02 2.763137626647949219e+01 -1.746285796165466309e+00 1.428310990333557129e+00 1.921427249908447266e+00 1.004921436309814453e+00 -1.002217650413513184e+00
1.430000000000000000e+02 2.771944427490234375e+01 -1.175511240959167480e+00 -3.129312276840209961e+00 -8.545665740966796875e-01 -1.195163726806640625e+00 1.393562912940979004e+00
1.440000000000000000e+02 2.848646163940429688e+01 -2.198873519897460938e+00 1.991578489542007446e-01 -8.963252305984497070e-01 -2.091502100229263306e-01 -7.177814375609159470e-03
1.450000000000000000e+02 2.930397224426269531e+01 -2.423318624496459961e+00 -6.560309529304504395e-01 2.559756040573120117e-01 -1.200165972113609314e-01 1.302860379219055176e-01
1.460000000000000000e+02 1.982421684265136719e+01 3.275624811649322510e-01 -7.727630138397216797e-01 2.112010568380355835e-01 -1.684685945510864258e-01 -1.446734815835952759e-01
1.470000000000000000e+02 1.909939575195312500e+01 1.000163033604621887e-01 -3.923074007034301758e-01 1.231635361909866333e-01 -8.074316382408142090e-02 -1.121670976281166077e-01
1.480000000000000000e+02 1.978351783752441406e+01 -9.413920342922210693e-02 -3.127249330282211304e-02 -2.343972921371459961e-01 -7.970093935728073120e-02 -3.744622692465782166e-02
1.490000000000000000e+02 2.930961036682128906e+01 -1.660121440887451172e+00 -1.650570631027221680e+00 -5.038498640060424805e-01 -6.463261246681213379e-01 5.368133783340454102e-01
1.500000000000000000e+02 3.012296295166015625e+01 -2.638345956802368164e+00 -5.130441188812255859e-01 -9.634952545166015625e-01 -4.429618120193481445e-01 6.755261868238449097e-02
1.510000000000000000e+02 3.009844779968261719e+01 -1.867299437522888184e+00 -1.764402031898498535e+00 -1.149297598749399185e-02 -5.327684879302978516e-01 2.226011157035827637e-01
1.520000000000000000e+02 2.688036918640136719e+01 -8.299868702888488770e-01 -4.891222476959228516e+00 -2.446863949298858643e-01 -1.540772676467895508e+00 1.935881137847900391e+00
1.530000000000000000e+02 2.669494247436523438e+01 -1.065739393234252930e+00 2.925585031509399414e+00 7.269768714904785156e-01 1.095768570899963379e+00 -2.204305887222290039e+00
1.540000000000000000e+02 2.604942893981933594e+01 -5.149537920951843262e-01 -7.267090320587158203e+00 -1.108396768569946289e+00 -2.512646198272705078e+00 1.708324432373046875e+00
1.550000000000000000e+02 2.534797477722167969e+01 -2.902369797229766846e-01 -4.211152553558349609e+00 1.702285647392272949e+00 -7.526599764823913574e-01 1.198436021804809570e+00
1.560000000000000000e+02 2.502335357666015625e+01 -2.417187690734863281e-01 -1.601226997375488281e+01 -2.266504526138305664e+00 -5.483632564544677734e+00 6.256575107574462891e+00
1.570000000000000000e+02 2.246835899353027344e+01 1.378261744976043701e-01 -1.175541996955871582e+00 1.881747364997863770e+00 2.118615955114364624e-01 -6.014497280120849609e-01
1.580000000000000000e+02 2.035116004943847656e+01 -1.736120879650115967e-01 -4.855888895690441132e-03 1.345083355903625488e+00 4.020682573318481445e-01 -4.261803627014160156e-01
1.590000000000000000e+02 1.996188163757324219e+01 8.227458000183105469e-01 -1.268707394599914551e+00 -6.819031238555908203e-01 -5.851831436157226562e-01 9.311381727457046509e-03
1.600000000000000000e+02 1.914756202697753906e+01 5.841042995452880859e-01 -9.742497801780700684e-01 -1.374332159757614136e-01 -3.335048854351043701e-01 -6.085296347737312317e-02
1.610000000000000000e+02 1.921282958984375000e+01 1.082078099250793457e+00 -7.767723798751831055e-01 6.047400832176208496e-01 -5.160967633128166199e-02 1.990899294614791870e-01
1.620000000000000000e+02 2.161278152465820312e+01 8.425430953502655029e-02 -8.821046948432922363e-01 -1.241486787796020508e+00 -6.370773911476135254e-01 2.473959326744079590e-01
1.630000000000000000e+02 2.852224922180175781e+01 -1.443525433540344238e+00 -2.134883403778076172e+00 -2.309366464614868164e-01 -7.097460031509399414e-01 9.252464175224304199e-01
1.640000000000000000e+02 2.421053886413574219e+01 -1.071830093860626221e-01 -1.074211597442626953e+01 -4.649237096309661865e-01 -3.362111806869506836e+00 8.342214226722717285e-01
1.650000000000000000e+02 2.475981521606445312e+01 -1.221572384238243103e-01 -1.200382518768310547e+01 -3.251848936080932617e+00 -4.576702117919921875e+00 3.637835264205932617e+00
1.660000000000000000e+02 2.316209220886230469e+01 1.658043712377548218e-01 -1.816497802734375000e+00 -1.365404844284057617e+00 -9.545707702636718750e-01 1.149137854576110840e+00
1.670000000000000000e+02 3.171501731872558594e+01 -2.317536830902099609e+00 -9.597315192222595215e-01 -7.280538082122802734e-01 -5.063356161117553711e-01 -3.231586813926696777e-01
1.680000000000000000e+02 3.159167480468750000e+01 -1.573781251907348633e+00 -1.346451878547668457e+00 3.323709219694137573e-02 -3.939644396305084229e-01 -6.108044385910034180e-01
1.690000000000000000e+02 3.092625236511230469e+01 -2.603541374206542969e+00 -6.496171355247497559e-01 -2.820515036582946777e-01 -2.795006036758422852e-01 -1.226583346724510193e-01
1.700000000000000000e+02 3.329127502441406250e+01 -1.721204519271850586e+00 -1.059467792510986328e+00 -6.270227432250976562e-01 -5.059471726417541504e-01 -6.000764369964599609e-01
1.710000000000000000e+02 3.305626296997070312e+01 -1.019069790840148926e+00 -1.652343750000000000e+00 -8.901306986808776855e-02 -5.224070549011230469e-01 -8.511369228363037109e-01
1.720000000000000000e+02 3.232479095458984375e+01 -1.299670934677124023e+00 -1.477905988693237305e+00 -5.859283208847045898e-01 -6.191502809524536133e-01 -5.883864760398864746e-01
1.730000000000000000e+02 3.250396728515625000e+01 -2.022616147994995117e+00 -9.397618770599365234e-01 -1.285306513309478760e-01 -3.204877674579620361e-01 -7.111073732376098633e-01
1.740000000000000000e+02 3.085874366760253906e+01 -1.838975429534912109e+00 -1.635757207870483398e+00 -6.775873303413391113e-01 -6.940033435821533203e-01 -2.414470016956329346e-01
1.750000000000000000e+02 3.381026458740234375e+01 -7.248246073722839355e-01 -1.934252858161926270e+00 -6.012336611747741699e-01 -7.606459259986877441e-01 -7.727848887443542480e-01
1.760000000000000000e+02 3.458703231811523438e+01 -4.199312925338745117e-01 -2.074119091033935547e+00 -1.397661268711090088e-01 -6.641655564308166504e-01 -9.772581458091735840e-01
1.770000000000000000e+02 3.405215835571289062e+01 -1.424708485603332520e+00 -1.129015564918518066e+00 -1.637459397315979004e-01 -3.878284394741058350e-01 -8.361425995826721191e-01
1.780000000000000000e+02 3.536509704589843750e+01 -1.194015666842460632e-01 -2.254585266113281250e+00 -5.517590045928955078e-01 -8.419032692909240723e-01 -8.510368466377258301e-01
1.790000000000000000e+02 3.691955184936523438e+01 4.870322942733764648e-01 -2.163488388061523438e+00 -3.583732545375823975e-01 -7.565584778785705566e-01 -7.181072831153869629e-01
1.800000000000000000e+02 3.769688415527343750e+01 7.879440784454345703e-01 -1.828073263168334961e+00 9.554240107536315918e-02 -5.197592973709106445e-01 -5.164530277252197266e-01
1.810000000000000000e+02 3.846224212646484375e+01 2.872591614723205566e-01 -1.663991928100585938e+00 6.236466765403747559e-01 -3.121035695075988770e-01 8.063080720603466034e-03
1.820000000000000000e+02 3.847284317016601562e+01 1.084994435310363770e+00 -1.276224136352539062e+00 -1.819559000432491302e-02 -3.883259296417236328e-01 -1.621574014425277710e-01
1.830000000000000000e+02 3.699311447143554688e+01 -2.780858278274536133e-01 -1.549258470535278320e+00 2.666210532188415527e-01 -3.847912251949310303e-01 -4.681736528873443604e-01
1.840000000000000000e+02 3.614285659790039062e+01 1.828823834657669067e-01 -2.242989063262939453e+00 -1.256486028432846069e-01 -7.105912566184997559e-01 -9.139503240585327148e-01
1.850000000000000000e+02 3.478684234619140625e+01 -1.136123776435852051e+00 -1.366924524307250977e+00 -4.565832018852233887e-01 -5.470523238182067871e-01 -6.756160855293273926e-01
1.860000000000000000e+02 3.552282333374023438e+01 -8.519025444984436035e-01 -1.409451842308044434e+00 -3.817924112081527710e-02 -4.342893362045288086e-01 -7.454892992973327637e-01
1.870000000000000000e+02 3.625850296020507812e+01 -5.659272074699401855e-01 -1.556103587150573730e+00 -2.247868627309799194e-01 -5.342671275138854980e-01 -5.224229097366333008e-01
1.880000000000000000e+02 3.772836685180664062e+01 6.517409812659025192e-03 -1.652436852455139160e+00 2.226673215627670288e-01 -4.289308786392211914e-01 -1.954570561647415161e-01
1.890000000000000000e+02 4.034412002563476562e+01 8.600630611181259155e-02 -1.577051758766174316e+00 -1.916840970516204834e-01 -5.306207537651062012e-01 5.680146217346191406e-01
1.900000000000000000e+02 4.009532165527343750e+01 -3.289372920989990234e-01 -1.352562904357910156e+00 4.026097357273101807e-01 -2.849859595298767090e-01 3.788002729415893555e-01
1.910000000000000000e+02 3.917059707641601562e+01 2.798575162887573242e-01 -1.598359107971191406e+00 3.270912170410156250e-01 -3.813803791999816895e-01 1.444942206144332886e-01
1.920000000000000000e+02 4.074783325195312500e+01 -6.394054889678955078e-01 -8.213675618171691895e-01 -2.483277767896652222e-02 -2.538600862026214600e-01 7.439805269241333008e-01
1.930000000000000000e+02 4.048299407958984375e+01 5.748174786567687988e-01 -2.042932033538818359e+00 -2.138365805149078369e-01 -6.770305633544921875e-01 8.874897956848144531e-01
1.940000000000000000e+02 4.114390563964843750e+01 2.687752246856689453e-01 -2.197672128677368164e+00 -5.232577323913574219e-01 -8.162789940834045410e-01 9.900649189949035645e-01
1.950000000000000000e+02 4.095602416992187500e+01 -1.931824684143066406e-01 -1.420494794845581055e+00 -7.480323314666748047e-02 -4.485893845558166504e-01 6.906391978263854980e-01
1.960000000000000000e+02 3.978742980957031250e+01 1.734901964664459229e-01 -1.529666900634765625e+00 4.803493022918701172e-01 -3.147952854633331299e-01 2.672210335731506348e-01
1.970000000000000000e+02 3.918857574462890625e+01 1.092316150665283203e+00 -1.211463689804077148e+00 2.934639155864715576e-01 -2.753999233245849609e-01 2.361797541379928589e-01
1.980000000000000000e+02 3.983617019653320312e+01 8.375948667526245117e-01 -1.720305919647216797e+00 -2.597100436687469482e-01 -5.940048098564147949e-01 5.853341817855834961e-01
1.990000000000000000e+02 4.146276855468750000e+01 -9.404913187026977539e-01 -1.175472289323806763e-01 -3.629498183727264404e-02 -4.615266621112823486e-02 1.023720979690551758e+00
2.000000000000000000e+02 4.403033447265625000e+01 -1.524677395820617676e+00 1.798310041427612305e+00 -6.895537972450256348e-01 3.326268494129180908e-01 5.609825253486633301e-01
2.010000000000000000e+02 4.235707092285156250e+01 -8.283829092979431152e-01 1.224844381213188171e-01 -5.615008473396301270e-01 -1.317049115896224976e-01 1.041469693183898926e+00
2.020000000000000000e+02 4.386895751953125000e+01 -1.155465960502624512e+00 1.315642118453979492e+00 -5.322570800781250000e-01 2.350155264139175415e-01 4.575370252132415771e-01
2.030000000000000000e+02 4.394588470458984375e+01 -1.697346210479736328e+00 1.731867432594299316e+00 -7.734850049018859863e-01 2.875147163867950439e-01 8.146861195564270020e-01
2.040000000000000000e+02 4.409344100952148438e+01 -1.341129422187805176e+00 1.852171063423156738e+00 -5.070555806159973145e-01 4.035346508026123047e-01 5.130102038383483887e-01
2.050000000000000000e+02 4.415122222900390625e+01 -9.498546719551086426e-01 1.848851203918457031e+00 -2.192397564649581909e-01 4.888834357261657715e-01 6.526950001716613770e-02
2.060000000000000000e+02 4.376041793823242188e+01 -1.384515404701232910e+00 1.488683223724365234e+00 -6.225064992904663086e-01 2.598530352115631104e-01 6.647927761077880859e-01
2.070000000000000000e+02 4.410879135131835938e+01 -6.990968585014343262e-01 1.374244451522827148e+00 -1.419889330863952637e-01 3.696766793727874756e-01 -1.652115285396575928e-01
2.080000000000000000e+02 4.217096710205078125e+01 -1.217572569847106934e+00 4.443873763084411621e-01 -6.684220433235168457e-01 -6.721040606498718262e-02 1.530700564384460449e+00
2.090000000000000000e+02 4.183580780029296875e+01 -3.180391713976860046e-02 -1.815301179885864258e+00 -3.566505908966064453e-01 -6.515855193138122559e-01 9.490862488746643066e-01
2.100000000000000000e+02 4.413154220581054688e+01 -1.158857345581054688e+00 1.531859874725341797e+00 -2.905282974243164062e-01 3.723994791507720947e-01 2.393816113471984863e-01
2.110000000000000000e+02 4.164568328857421875e+01 -4.938412606716156006e-01 -9.049070477485656738e-01 -4.362405538558959961e-01 -4.023442864418029785e-01 1.003844738006591797e+00
2.120000000000000000e+02 4.329117965698242188e+01 -6.365234851837158203e-01 2.133828252553939819e-01 -3.177452385425567627e-01 -3.130872175097465515e-02 5.203919410705566406e-01
2.130000000000000000e+02 4.336140060424804688e+01 -1.352624773979187012e+00 1.409117579460144043e+00 -9.220182299613952637e-01 1.461298018693923950e-01 9.010689258575439453e-01
2.140000000000000000e+02 4.280392456054687500e+01 -1.365182876586914062e+00 1.044534325599670410e+00 -8.829211592674255371e-01 4.848397150635719299e-02 1.276981592178344727e+00
2.150000000000000000e+02 4.257183456420898438e+01 -3.539549112319946289e-01 -8.067522644996643066e-01 -3.800555765628814697e-01 -3.560423552989959717e-01 7.549450397491455078e-01
2.160000000000000000e+02 4.377132034301757812e+01 -1.878119230270385742e+00 1.688696622848510742e+00 -9.572625160217285156e-01 2.194302380084991455e-01 9.659510850906372070e-01
2.170000000000000000e+02 4.380718612670898438e+01 -8.228727579116821289e-01 1.210395812988281250e+00 -4.782627224922180176e-01 2.196399122476577759e-01 9.310175478458404541e-02
2.180000000000000000e+02 4.570388031005859375e+01 -2.246677398681640625e+00 3.504498958587646484e+00 4.394948482513427734e-01 1.183198094367980957e+00 6.362189054489135742e-01
2.190000000000000000e+02 4.566480255126953125e+01 -9.748253822326660156e-01 1.761823892593383789e+00 1.244287490844726562e-01 5.658757686614990234e-01 -3.434488773345947266e-01
2.200000000000000000e+02 4.757777023315429688e+01 -2.397229433059692383e+00 2.160639286041259766e+00 1.306647014617919922e+01 4.568132877349853516e+00 2.792104780673980713e-01
2.210000000000000000e+02 4.832912063598632812e+01 -1.585829496383666992e+00 8.640153884887695312e+00 1.298844909667968750e+01 6.488580703735351562e+00 -4.142572879791259766e+00
2.220000000000000000e+02 4.843109130859375000e+01 -8.926219940185546875e-01 1.092645263671875000e+01 1.197016143798828125e+01 6.868984222412109375e+00 -1.090965509414672852e+00
2.230000000000000000e+02 4.830132293701171875e+01 -5.393640995025634766e-01 9.649785041809082031e+00 1.354056072235107422e+01 6.957103729248046875e+00 4.699667394161224365e-01
2.240000000000000000e+02 4.524711990356445312e+01 6.124847531318664551e-01 2.705552101135253906e+00 2.045518159866333008e+00 1.425321102142333984e+00 -3.162043094635009766e+00
2.250000000000000000e+02 4.624863052368164062e+01 4.723422229290008545e-01 3.825223207473754883e+00 4.477767944335937500e+00 2.490897417068481445e+00 -4.858370780944824219e+00
2.260000000000000000e+02 4.709383010864257812e+01 1.041834428906440735e-01 4.511899471282958984e+00 1.083853530883789062e+01 4.605130195617675781e+00 -5.950131893157958984e+00
2.270000000000000000e+02 4.767319107055664062e+01 4.069225490093231201e-02 3.466977357864379883e+00 1.511053562164306641e+01 5.573253631591796875e+00 -2.647327899932861328e+00
2.280000000000000000e+02 4.791863250732421875e+01 -1.975508928298950195e+00 3.839374303817749023e+00 1.747330665588378906e+01 6.393804550170898438e+00 -3.081792354583740234e+00
2.290000000000000000e+02 4.692854309082031250e+01 -2.395730495452880859e+00 3.407030344009399414e+00 7.641591072082519531e+00 3.314586400985717773e+00 2.659933567047119141e+00
2.300000000000000000e+02 4.416625595092773438e+01 -2.039438247680664062e+00 2.084409236907958984e+00 -8.823480010032653809e-01 3.606184124946594238e-01 1.013606429100036621e+00
2.310000000000000000e+02 4.435440063476562500e+01 -2.080928325653076172e+00 2.159536838531494141e+00 -1.176249742507934570e+00 2.949861586093902588e-01 8.100844621658325195e-01
2.320000000000000000e+02 4.453419113159179688e+01 -2.093595027923583984e+00 2.243289709091186523e+00 -7.054353952407836914e-01 4.613562822341918945e-01 5.833033919334411621e-01
2.330000000000000000e+02 4.497744369506835938e+01 -1.995514154434204102e+00 2.773634910583496094e+00 -6.741621494293212891e-01 6.298418045043945312e-01 3.273667991161346436e-01
2.340000000000000000e+02 4.526600265502929688e+01 -9.266797900199890137e-01 2.092444181442260742e+00 1.135773882269859314e-01 6.618064641952514648e-01 -3.319909870624542236e-01
2.350000000000000000e+02 4.552282714843750000e+01 -2.219120740890502930e+00 3.281915664672851562e+00 -7.402522116899490356e-02 9.623671174049377441e-01 5.453268885612487793e-01
2.360000000000000000e+02 4.648963928222656250e+01 -2.343798637390136719e+00 4.024617195129394531e+00 3.593412876129150391e+00 2.285408973693847656e+00 2.014927625656127930e+00
2.370000000000000000e+02 4.608864593505859375e+01 -1.395017981529235840e+00 3.104511022567749023e+00 8.812274783849716187e-02 9.577901363372802734e-01 -4.479685723781585693e-01
2.380000000000000000e+02 4.424076080322265625e+01 -1.834334969520568848e+00 1.943357348442077637e+00 -8.578085303306579590e-01 3.256646692752838135e-01 6.575790047645568848e-01
2.390000000000000000e+02 4.484309768676757812e+01 6.796083450317382812e-01 2.224685430526733398e+00 1.777665615081787109e+00 1.200705289840698242e+00 -2.722054481506347656e+00
2.400000000000000000e+02 4.453499221801757812e+01 -5.565751791000366211e-01 1.177253842353820801e+00 1.221633702516555786e-01 3.898251652717590332e-01 -3.119585812091827393e-01
2.410000000000000000e+02 4.604501342773437500e+01 4.925103187561035156e-01 3.580219745635986328e+00 3.847432851791381836e+00 2.228295803070068359e+00 -4.448322296142578125e+00
2.420000000000000000e+02 4.680900573730468750e+01 -1.742932647466659546e-01 6.391573429107666016e+00 7.269645214080810547e+00 4.098365306854248047e+00 -6.707679748535156250e+00
2.430000000000000000e+02 4.725801849365234375e+01 3.341780006885528564e-01 3.059152126312255859e+00 1.149459457397460938e+01 4.366124153137207031e+00 -5.200432300567626953e+00
2.440000000000000000e+02 4.473467636108398438e+01 -5.893948078155517578e-01 1.433645486831665039e+00 3.978078812360763550e-02 4.420278966426849365e-01 -3.871096968650817871e-01
2.450000000000000000e+02 4.504623031616210938e+01 6.455855965614318848e-01 2.444816112518310547e+00 1.620292901992797852e+00 1.219532728195190430e+00 -2.780588388442993164e+00
2.460000000000000000e+02 4.552052307128906250e+01 -4.163532257080078125e-01 3.456090688705444336e+00 5.684422254562377930e-01 1.207359910011291504e+00 -1.517260670661926270e+00
2.470000000000000000e+02 4.612258911132812500e+01 -7.714904546737670898e-01 4.526292800903320312e+00 3.929253518581390381e-01 1.475765347480773926e+00 -1.119943976402282715e+00
2.480000000000000000e+02 4.592384338378906250e+01 -7.283547520637512207e-01 3.956419229507446289e+00 1.593493223190307617e-01 1.234730601310729980e+00 -1.031427264213562012e+00
2.490000000000000000e+02 4.639004898071289062e+01 -6.193647384643554688e-01 6.802192211151123047e+00 1.259709596633911133e+00 2.418570518493652344e+00 -2.847593545913696289e+00
2.500000000000000000e+02 4.631315994262695312e+01 -8.206840157508850098e-01 5.241215229034423828e+00 1.396145969629287720e-01 1.614248991012573242e+00 -1.323079109191894531e+00
2.510000000000000000e+02 4.847517013549804688e+01 -1.109098434448242188e+00 1.120642566680908203e+01 1.194598293304443359e+01 6.945722579956054688e+00 -2.007400274276733398e+00
2.520000000000000000e+02 4.838021469116210938e+01 -7.219952344894409180e-01 1.048796176910400391e+01 1.257817554473876953e+01 6.919841289520263672e+00 1.886069625616073608e-01
2.530000000000000000e+02 4.816253280639648438e+01 -3.706911802291870117e-01 7.429283142089843750e+00 1.515990924835205078e+01 6.776757717132568359e+00 6.135619282722473145e-01
2.540000000000000000e+02 4.650733566284179688e+01 -4.437022805213928223e-01 7.329511165618896484e+00 2.367638826370239258e+00 2.909144878387451172e+00 -4.442051410675048828e+00
2.550000000000000000e+02 4.626905059814453125e+01 -1.057970523834228516e+00 8.395587205886840820e-01 -2.409579232335090637e-02 2.446388900279998779e-01 -4.386161863803863525e-01
2.560000000000000000e+02 4.580196762084960938e+01 -1.218814969062805176e+00 2.179306030273437500e+00 1.154917925596237183e-01 6.884393692016601562e-01 -6.194362640380859375e-01
2.570000000000000000e+02 4.658016204833984375e+01 -1.859352350234985352e+00 5.515018939971923828e+00 2.795211315155029297e+00 2.493068933486938477e+00 2.060577154159545898e+00
2.580000000000000000e+02 4.706432723999023438e+01 -2.157914161682128906e+00 4.046862602233886719e+00 8.858588218688964844e+00 3.871635198593139648e+00 3.094549655914306641e+00
2.590000000000000000e+02 4.442724609375000000e+01 -1.007937550544738770e+00 1.672541856765747070e+00 -5.413907393813133240e-02 4.855208396911621094e-01 -3.526275744661688805e-03
2.600000000000000000e+02 4.447272872924804688e+01 -7.995542287826538086e-01 2.355987310409545898e+00 4.075249731540679932e-01 8.290536403656005859e-01 -3.693170249462127686e-01
2.610000000000000000e+02 4.843492507934570312e+01 -1.385236620903015137e+00 1.023213291168212891e+01 1.306348419189453125e+01 6.988685131072998047e+00 -3.774919748306274414e+00
2.620000000000000000e+02 4.869729232788085938e+01 -1.000590682029724121e+00 9.907478332519531250e+00 1.075601100921630859e+01 6.199046611785888672e+00 -1.110942482948303223e+00
2.630000000000000000e+02 4.698842239379882812e+01 -8.188907802104949951e-02 5.635601520538330078e+00 9.892039299011230469e+00 4.658292293548583984e+00 -6.787049770355224609e+00
2.640000000000000000e+02 4.665302276611328125e+01 -3.006985187530517578e-01 7.233088970184326172e+00 4.704360008239746094e+00 3.581234693527221680e+00 -5.807431221008300781e+00
2.650000000000000000e+02 4.826168441772460938e+01 -2.695240080356597900e-01 7.195651054382324219e+00 1.409703826904296875e+01 6.387806892395019531e+00 6.425883173942565918e-01
2.660000000000000000e+02 4.841865921020507812e+01 -2.164688259363174438e-01 7.179416656494140625e+00 1.229417324066162109e+01 5.842077255249023438e+00 7.409110069274902344e-01
2.670000000000000000e+02 4.855709457397460938e+01 -7.061381340026855469e-01 9.779438018798828125e+00 1.150130271911621094e+01 6.384222030639648438e+00 -1.373921781778335571e-01
2.680000000000000000e+02 4.799287414550781250e+01 1.016103625297546387e-01 3.559461593627929688e+00 1.441067981719970703e+01 5.391042709350585938e+00 -1.365207314491271973e+00
2.690000000000000000e+02 4.745062637329101562e+01 2.251650691032409668e-01 3.594186782836914062e+00 1.315925121307373047e+01 5.026031494140625000e+00 -4.231729507446289062e+00
2.700000000000000000e+02 4.706903076171875000e+01 3.797867298126220703e-01 3.392390012741088867e+00 9.900510787963867188e+00 3.987870216369628906e+00 -5.447220325469970703e+00
2.710000000000000000e+02 4.705669021606445312e+01 2.270742058753967285e-01 3.690980672836303711e+00 1.013353824615478516e+01 4.147356033325195312e+00 -5.909291267395019531e+00
2.720000000000000000e+02 4.785695266723632812e+01 -1.285256296396255493e-01 5.151444911956787109e+00 1.589993476867675781e+01 6.315413951873779297e+00 -1.070265889167785645e+00
2.730000000000000000e+02 4.756806945800781250e+01 -2.169602155685424805e+00 2.605443954467773438e+00 1.526907634735107422e+01 5.362356185913085938e+00 3.272131979465484619e-01
2.740000000000000000e+02 4.798123931884765625e+01 -2.053692102432250977e+00 3.898534297943115234e+00 1.585642433166503906e+01 5.926487445831298828e+00 -3.167579174041748047e+00
2.750000000000000000e+02 4.861778259277343750e+01 -1.551593542098999023e+00 7.749519348144531250e+00 1.178402709960937500e+01 5.860064029693603516e+00 -4.044847488403320312e+00
2.760000000000000000e+02 4.615895080566406250e+01 -1.597228765487670898e+00 4.078787326812744141e+00 2.324110716581344604e-01 1.293359518051147461e+00 -8.239024877548217773e-02
2.770000000000000000e+02 4.674664688110351562e+01 -1.963693022727966309e+00 5.481752872467041016e+00 4.593271255493164062e+00 3.022507429122924805e+00 3.064380645751953125e+00
2.780000000000000000e+02 4.589739608764648438e+01 -2.262108802795410156e+00 3.830093860626220703e+00 7.174329757690429688e-01 1.364258050918579102e+00 9.242514967918395996e-01
2.790000000000000000e+02 4.728751373291015625e+01 -2.193590164184570312e+00 3.061616897583007812e+00 1.190609264373779297e+01 4.490312576293945312e+00 1.604160904884338379e+00
2.800000000000000000e+02 4.715289306640625000e+01 -2.431893348693847656e+00 2.959827184677124023e+00 9.037892341613769531e+00 3.599315881729125977e+00 1.985932111740112305e+00
2.810000000000000000e+02 4.812860870361328125e+01 -2.170466899871826172e+00 3.833410263061523438e+00 1.445148658752441406e+01 5.485468864440917969e+00 -3.433998346328735352e+00
2.820000000000000000e+02 4.778826904296875000e+01 -2.080867767333984375e+00 3.704234600067138672e+00 1.523523616790771484e+01 5.681841373443603516e+00 -1.583398938179016113e+00
2.830000000000000000e+02 4.630331039428710938e+01 -2.059875726699829102e+00 4.714140892028808594e+00 1.833654522895812988e+00 1.964338660240173340e+00 1.443269610404968262e+00
2.840000000000000000e+02 4.670420455932617188e+01 -2.366210460662841797e+00 3.961438655853271484e+00 5.463683605194091797e+00 2.827536821365356445e+00 2.496681928634643555e+00
2.850000000000000000e+02 4.643953704833984375e+01 -1.691779851913452148e+00 5.211548805236816406e+00 1.109690427780151367e+00 1.896371722221374512e+00 9.782984256744384766e-01
2.860000000000000000e+02 4.433591842651367188e+01 -1.430923461914062500e+00 1.820731282234191895e+00 -4.479576349258422852e-01 4.118320941925048828e-01 2.818193733692169189e-01
2.870000000000000000e+02 4.609618759155273438e+01 -2.298792123794555664e+00 4.083840370178222656e+00 1.521376490592956543e+00 1.681565046310424805e+00 1.280864477157592773e+00
2.880000000000000000e+02 4.544639205932617188e+01 5.858734250068664551e-01 2.995654821395874023e+00 2.131540536880493164e+00 1.538158535957336426e+00 -3.332461357116699219e+00
2.890000000000000000e+02 4.621507263183593750e+01 -5.216124057769775391e-01 5.940767288208007812e+00 9.574531316757202148e-01 2.069466114044189453e+00 -2.749218463897705078e+00
2.900000000000000000e+02 4.577472305297851562e+01 -1.888497352600097656e+00 3.655271768569946289e+00 6.560330837965011597e-02 1.116262555122375488e+00 1.810720413923263550e-01
2.910000000000000000e+02 4.546777725219726562e+01 -9.536386132240295410e-01 1.945656895637512207e+00 -3.553785756230354309e-02 5.730357170104980469e-01 -3.669273257255554199e-01
2.920000000000000000e+02 4.506324386596679688e+01 -8.963363766670227051e-01 2.184048175811767578e+00 -7.475948333740234375e-02 6.327865719795227051e-01 -3.350072801113128662e-01
2.930000000000000000e+02 4.462869262695312500e+01 -1.025648474693298340e+00 2.095932006835937500e+00 1.764775365591049194e-01 6.817228794097900391e-01 -1.977543085813522339e-01
2.940000000000000000e+02 4.543262481689453125e+01 -1.207089900970458984e+00 2.245993852615356445e+00 7.889875769615173340e-02 6.974677443504333496e-01 -4.849738180637359619e-01
2.950000000000000000e+02 4.486737823486328125e+01 -8.599443435668945312e-01 2.241208553314208984e+00 1.879736483097076416e-01 7.287546992301940918e-01 -2.948949933052062988e-01
2.960000000000000000e+02 4.558546066284179688e+01 3.362103998661041260e-01 3.590619087219238281e+00 1.917446136474609375e+00 1.652419567108154297e+00 -3.285094499588012695e+00
2.970000000000000000e+02 4.499666976928710938e+01 4.278692007064819336e-01 2.491056919097900391e+00 1.426278829574584961e+00 1.175200700759887695e+00 -2.508064270019531250e+00
2.980000000000000000e+02 4.665113449096679688e+01 4.026198387145996094e-01 3.906367063522338867e+00 6.761006355285644531e+00 3.200212001800537109e+00 -5.659967422485351562e+00
2.990000000000000000e+02 4.577335739135742188e+01 2.638005614280700684e-01 3.981890678405761719e+00 2.415901422500610352e+00 1.919337630271911621e+00 -3.734364271163940430e+00
3.000000000000000000e+02 4.719963455200195312e+01 1.765546351671218872e-01 3.866647243499755859e+00 1.144476413726806641e+01 4.593423366546630859e+00 -5.581146717071533203e+00
3.010000000000000000e+02 4.637799835205078125e+01 2.214269191026687622e-01 4.702085494995117188e+00 4.510731220245361328e+00 2.763844966888427734e+00 -5.162914276123046875e+00
3.020000000000000000e+02 4.493429183959960938e+01 2.298479974269866943e-01 2.382722616195678711e+00 1.106230616569519043e+00 1.046685934066772461e+00 -2.070122003555297852e+00
3.030000000000000000e+02 4.473954772949218750e+01 2.656526267528533936e-01 2.289327859878540039e+00 8.178052306175231934e-01 9.321399331092834473e-01 -1.846858382225036621e+00
3.040000000000000000e+02 4.599285507202148438e+01 2.400217652320861816e-01 4.280011177062988281e+00 2.981614589691162109e+00 2.178487777709960938e+00 -4.162190437316894531e+00
3.050000000000000000e+02 4.469503021240234375e+01 6.358122825622558594e-02 2.096086502075195312e+00 6.300862431526184082e-01 8.178518414497375488e-01 -1.516091704368591309e+00
3.060000000000000000e+02 4.464984130859375000e+01 -1.407355964183807373e-01 1.813166618347167969e+00 3.664588034152984619e-01 6.538876295089721680e-01 -1.067117214202880859e+00
3.070000000000000000e+02 4.520068359375000000e+01 3.714963793754577637e-01 2.870257377624511719e+00 1.417547941207885742e+00 1.286341667175292969e+00 -2.635851621627807617e+00
3.080000000000000000e+02 4.428553009033203125e+01 -1.628471970558166504e+00 2.015191793441772461e+00 -6.181187033653259277e-01 4.191218912601470947e-01 5.019335150718688965e-01
3.090000000000000000e+02 4.439567947387695312e+01 -1.224116206169128418e+00 2.034943342208862305e+00 -2.414235323667526245e-01 5.380559563636779785e-01 1.323323845863342285e-01
3.100000000000000000e+02 4.449784851074218750e+01 -1.562429428100585938e+00 2.089560747146606445e+00 -4.423945844173431396e-01 4.941498339176177979e-01 3.131831586360931396e-01
3.110000000000000000e+02 4.462693405151367188e+01 -1.763449311256408691e+00 2.256430387496948242e+00 -5.890353322029113770e-01 5.002185106277465820e-01 2.851655483245849609e-01
3.120000000000000000e+02 4.585922241210937500e+01 -9.997743368148803711e-01 1.535681486129760742e+00 -2.224570605903863907e-03 4.600370824337005615e-01 -3.390522897243499756e-01
3.130000000000000000e+02 4.532942962646484375e+01 -2.184180021286010742e+00 3.319225788116455078e+00 -8.620569854974746704e-02 9.699060320854187012e-01 4.053606688976287842e-01
3.140000000000000000e+02 4.507015609741210938e+01 -1.879274129867553711e+00 2.786399602890014648e+00 -3.710063695907592773e-01 7.246180176734924316e-01 1.404352337121963501e-01
3.150000000000000000e+02 4.634774017333984375e+01 -1.487689614295959473e+00 4.157505035400390625e+00 3.128788471221923828e-01 1.341115236282348633e+00 -1.047747507691383362e-01
3.160000000000000000e+02 4.499355697631835938e+01 -1.135487794876098633e+00 2.213259935379028320e+00 1.036283671855926514e-01 6.950664520263671875e-01 -3.512654304504394531e-01
3.170000000000000000e+02 4.473313140869140625e+01 -2.110537052154541016e+00 2.474048852920532227e+00 -7.877075672149658203e-01 5.059024095535278320e-01 5.549714565277099609e-01
3.180000000000000000e+02 4.530865097045898438e+01 -6.734058260917663574e-01 2.481128454208374023e+00 2.447740435600280762e-01 8.177707195281982422e-01 -6.460040211677551270e-01
3.190000000000000000e+02 4.492652893066406250e+01 -6.241641640663146973e-01 1.729081511497497559e+00 1.267718970775604248e-01 5.567560195922851562e-01 -4.045877158641815186e-01
3.200000000000000000e+02 4.628339385986328125e+01 -1.282473206520080566e+00 2.584083557128906250e+00 1.099929958581924438e-01 8.082229495048522949e-01 -5.491045713424682617e-01
3.210000000000000000e+02 4.668253707885742188e+01 -7.292340695858001709e-02 5.949052810668945312e+00 6.404150962829589844e+00 3.705961227416992188e+00 -6.168182373046875000e+00
3.220000000000000000e+02 4.498781967163085938e+01 -1.539394855499267578e+00 2.463927030563354492e+00 -2.378872483968734741e-01 6.678119301795959473e-01 -1.459837853908538818e-01
3.230000000000000000e+02 4.556296920776367188e+01 -1.846271395683288574e+00 3.377771854400634766e+00 -9.161897003650665283e-03 1.010582923889160156e+00 3.991691395640373230e-03
3.240000000000000000e+02 4.588948440551757812e+01 -1.487568378448486328e+00 3.254825115203857422e+00 1.204643994569778442e-01 1.012586832046508789e+00 -4.010955691337585449e-01
3.250000000000000000e+02 4.563657760620117188e+01 -2.059129953384399414e+00 3.619692564010620117e+00 1.870206594467163086e-01 1.142013907432556152e+00 3.771718740463256836e-01
3.260000000000000000e+02 4.480657577514648438e+01 -1.911782741546630859e+00 2.547071695327758789e+00 -5.478647947311401367e-01 5.997620820999145508e-01 3.857208490371704102e-01
3.270000000000000000e+02 4.493986511230468750e+01 -1.769082069396972656e+00 2.563541412353515625e+00 -4.464093744754791260e-01 6.351396441459655762e-01 1.082520931959152222e-01
3.280000000000000000e+02 4.510018920898437500e+01 1.452946215867996216e-01 2.748890161514282227e+00 1.151584148406982422e+00 1.170142292976379395e+00 -2.204235315322875977e+00
3.290000000000000000e+02 4.526287078857421875e+01 -7.390889804810285568e-03 3.151368141174316406e+00 9.242970347404479980e-01 1.222699522972106934e+00 -2.143475055694580078e+00
3.300000000000000000e+02 4.584127426147460938e+01 -1.344220340251922607e-01 4.546654224395751953e+00 1.496250152587890625e+00 1.812871336936950684e+00 -2.880127429962158203e+00
3.310000000000000000e+02 4.511531829833984375e+01 -6.558393836021423340e-01 2.043246746063232422e+00 9.340333193540573120e-02 6.409950256347656250e-01 -4.962653517723083496e-01
3.320000000000000000e+02 4.537020111083984375e+01 -1.423714399337768555e+00 2.563968420028686523e+00 -1.462833136320114136e-01 7.253055572509765625e-01 -4.694495499134063721e-01
3.330000000000000000e+02 4.655339431762695312e+01 -1.943318843841552734e-01 6.530708789825439453e+00 4.376471996307373047e+00 3.272154092788696289e+00 -5.549189090728759766e+00
3.340000000000000000e+02 4.546014785766601562e+01 1.618351787328720093e-01 3.348125457763671875e+00 1.585948348045349121e+00 1.480222105979919434e+00 -2.753007411956787109e+00
3.350000000000000000e+02 4.445450973510742188e+01 -1.921118497848510742e+00 2.267453908920288086e+00 -7.276052236557006836e-01 4.619545936584472656e-01 6.124040484428405762e-01
3.360000000000000000e+02 4.464120864868164062e+01 -1.215800881385803223e+00 1.945615172386169434e+00 -9.435851126909255981e-02 5.553770065307617188e-01 -4.635746777057647705e-02
3.370000000000000000e+02 4.467267608642578125e+01 -8.265720605850219727e-01 2.272554874420166016e+00 -1.481257528066635132e-01 6.373287439346313477e-01 -3.285201787948608398e-01
3.380000000000000000e+02 4.594096374511718750e+01 -1.706760764122009277e+00 3.875398635864257812e+00 2.307567149400711060e-01 1.231846570968627930e+00 -1.816225051879882812e-02
3.390000000000000000e+02 4.620425415039062500e+01 2.595641911029815674e-01 4.335565567016601562e+00 3.967563629150390625e+00 2.490938901901245117e+00 -4.717078208923339844e+00
3.400000000000000000e+02 4.611198425292968750e+01 -2.076613426208496094e+00 4.365191936492919922e+00 1.035930037498474121e+00 1.620336532592773438e+00 1.009568810462951660e+00
3.410000000000000000e+02 4.569924926757812500e+01 -1.419457793235778809e+00 2.875018358230590820e+00 -7.032737135887145996e-02 8.414072990417480469e-01 -5.549448728561401367e-01
3.420000000000000000e+02 4.564059448242187500e+01 7.602966856211423874e-03 3.930337667465209961e+00 1.371491789817810059e+00 1.590548872947692871e+00 -2.793332815170288086e+00
3.430000000000000000e+02 4.807328414916992188e+01 -1.894246339797973633e+00 5.027915954589843750e+00 1.543197631835937500e+01 6.137967586517333984e+00 -3.708121538162231445e+00
3.440000000000000000e+02 4.493392562866210938e+01 -2.159478425979614258e+00 2.607486963272094727e+00 -5.613249540328979492e-01 6.138485670089721680e-01 5.558555126190185547e-01
3.450000000000000000e+02 4.512698745727539062e+01 -2.182496309280395508e+00 2.968976259231567383e+00 -6.449209451675415039e-01 6.972166299819946289e-01 4.754665493965148926e-01
3.460000000000000000e+02 4.513634109497070312e+01 -2.007325172424316406e+00 2.922830820083618164e+00 -3.299282193183898926e-01 7.778707742691040039e-01 2.069564759731292725e-01
3.470000000000000000e+02 4.594165802001953125e+01 -2.033022403717041016e+00 4.035848617553710938e+00 6.880626082420349121e-01 1.417173385620117188e+00 6.156493425369262695e-01
3.480000000000000000e+02 4.480339050292968750e+01 -3.826518952846527100e-01 1.897629380226135254e+00 2.305820882320404053e-01 6.384634375572204590e-01 -7.511446475982666016e-01
3.490000000000000000e+02 4.459337234497070312e+01 -3.494528532028198242e-01 1.605967402458190918e+00 1.790972501039505005e-01 5.355194211006164551e-01 -7.151270508766174316e-01
3.500000000000000000e+02 4.509450531005859375e+01 -2.167795300483703613e-01 2.675606727600097656e+00 5.410252809524536133e-01 9.649895429611206055e-01 -1.405621767044067383e+00
3.510000000000000000e+02 4.491281890869140625e+01 4.711332172155380249e-02 2.559185743331909180e+00 6.446819901466369629e-01 9.611603021621704102e-01 -1.702619671821594238e+00
3.520000000000000000e+02 4.479204940795898438e+01 4.707175195217132568e-01 2.007223129272460938e+00 1.368679642677307129e+00 1.012770891189575195e+00 -2.125469446182250977e+00
3.530000000000000000e+02 4.531591415405273438e+01 -4.764584004878997803e-01 2.797178268432617188e+00 3.439600169658660889e-01 9.423415064811706543e-01 -1.062460303306579590e+00
3.540000000000000000e+02 4.551034164428710938e+01 -6.796787381172180176e-01 2.970815896987915039e+00 1.539365351200103760e-01 9.374257326126098633e-01 -8.019177317619323730e-01
3.550000000000000000e+02 4.571750259399414062e+01 -6.962562799453735352e-01 3.447477817535400391e+00 2.865345776081085205e-01 1.120203733444213867e+00 -9.041666984558105469e-01
3.560000000000000000e+02 4.600225830078125000e+01 -4.503211081027984619e-01 5.091259002685546875e+00 1.088265299797058105e+00 1.853857278823852539e+00 -2.416760444641113281e+00
3.570000000000000000e+02 4.575975036621093750e+01 -4.077676236629486084e-01 4.134698867797851562e+00 6.760210990905761719e-01 1.443215966224670410e+00 -1.898116111755371094e+00
3.580000000000000000e+02 4.637202453613281250e+01 -3.188561201095581055e-01 6.538649559020996094e+00 2.537043094635009766e+00 2.722707748413085938e+00 -4.190215110778808594e+00
3.590000000000000000e+02 4.480067062377929688e+01 -1.075721502304077148e+00 2.214637756347656250e+00 -2.130200117826461792e-01 6.004852652549743652e-01 -3.111612498760223389e-01
3.600000000000000000e+02 4.521743774414062500e+01 -1.163672447204589844e+00 2.235955715179443359e+00 -1.013512685894966125e-01 6.403813362121582031e-01 -4.098391532897949219e-01
3.610000000000000000e+02 4.564538955688476562e+01 5.565872788429260254e-01 3.284886837005615234e+00 2.670720577239990234e+00 1.786682248115539551e+00 -3.809196949005126953e+00
3.620000000000000000e+02 4.540134429931640625e+01 3.549543619155883789e-01 3.158897638320922852e+00 1.779955744743347168e+00 1.481655955314636230e+00 -3.021509170532226562e+00
3.630000000000000000e+02 4.584349060058593750e+01 5.199597477912902832e-01 3.523305892944335938e+00 3.139614582061767578e+00 1.998876094818115234e+00 -4.089658737182617188e+00
3.640000000000000000e+02 4.601700973510742188e+01 1.507382001727819443e-02 4.792144775390625000e+00 2.417209625244140625e+00 2.162806272506713867e+00 -3.936227083206176758e+00
3.650000000000000000e+02 4.563104629516601562e+01 -1.212582707405090332e+00 2.240165233612060547e+00 -2.070532739162445068e-02 6.658379435539245605e-01 -5.154160857200622559e-01
3.660000000000000000e+02 4.597065353393554688e+01 -1.270321607589721680e+00 2.289134740829467773e+00 -1.209858246147632599e-02 6.831108331680297852e-01 -7.421798110008239746e-01
3.670000000000000000e+02 4.605815124511718750e+01 -1.040893435478210449e+00 1.233722209930419922e+00 4.530422762036323547e-02 3.837079405784606934e-01 -3.695274591445922852e-01
3.680000000000000000e+02 4.629202651977539062e+01 -2.319643259048461914e+00 4.175632476806640625e+00 2.342440843582153320e+00 1.955421924591064453e+00 1.725029230117797852e+00
3.690000000000000000e+02 4.650938415527343750e+01 -4.567114263772964478e-02 5.843312740325927734e+00 4.652009487152099609e+00 3.148596763610839844e+00 -5.439795970916748047e+00
3.700000000000000000e+02 4.644785690307617188e+01 4.418224096298217773e-01 3.925814628601074219e+00 5.713407516479492188e+00 2.891766786575317383e+00 -5.511152744293212891e+00
3.710000000000000000e+02 4.656869888305664062e+01 1.626113206148147583e-01 4.935044288635253906e+00 5.863449096679687500e+00 3.239547967910766602e+00 -5.777394771575927734e+00
3.720000000000000000e+02 4.676183319091796875e+01 9.364981204271316528e-02 5.262660503387451172e+00 7.265316486358642578e+00 3.758393049240112305e+00 -6.287820816040039062e+00
3.730000000000000000e+02 4.686440277099609375e+01 3.876663744449615479e-01 3.580691337585449219e+00 8.343008041381835938e+00 3.577109813690185547e+00 -5.778868675231933594e+00
3.740000000000000000e+02 4.734226226806640625e+01 1.584938168525695801e-02 3.947089672088623047e+00 1.395970630645751953e+01 5.372038841247558594e+00 -4.840483665466308594e+00
3.750000000000000000e+02 4.717791366577148438e+01 -2.939295955002307892e-02 4.569926738739013672e+00 1.251405620574951172e+01 5.125195026397705078e+00 -6.243511199951171875e+00
3.760000000000000000e+02 4.800201416015625000e+01 -2.397472858428955078e-01 6.347138404846191406e+00 1.633574867248535156e+01 6.804866313934326172e+00 4.670808315277099609e-01
3.770000000000000000e+02 4.804270553588867188e+01 -1.171733140945434570e-01 5.981141090393066406e+00 1.563376998901367188e+01 6.484473705291748047e+00 -3.208962380886077881e-01
3.780000000000000000e+02 4.651024627685546875e+01 -2.083829164505004883e+00 4.940038204193115234e+00 3.002388954162597656e+00 2.382728338241577148e+00 2.059053897857666016e+00
3.790000000000000000e+02 4.689163208007812500e+01 -2.068291187286376953e+00 4.564909934997558594e+00 7.114188671112060547e+00 3.503729581832885742e+00 3.348317384719848633e+00
3.800000000000000000e+02 4.625252532958984375e+01 -1.813232064247131348e+00 4.758393287658691406e+00 1.005999922752380371e+00 1.729318022727966309e+00 7.738088369369506836e-01
3.810000000000000000e+02 4.837628936767578125e+01 -1.828139185905456543e+00 6.045446395874023438e+00 1.341104412078857422e+01 5.836947441101074219e+00 -4.126020431518554688e+00
3.820000000000000000e+02 4.688629150390625000e+01 2.063952833414077759e-01 4.340744495391845703e+00 8.520276069641113281e+00 3.858306169509887695e+00 -5.891026496887207031e+00
3.830000000000000000e+02 4.693235015869140625e+01 6.127646192908287048e-02 5.020335674285888672e+00 9.243907928466796875e+00 4.279273033142089844e+00 -6.532627105712890625e+00
3.840000000000000000e+02 4.499114990234375000e+01 -4.273075461387634277e-01 2.109793901443481445e+00 2.441395819187164307e-01 7.061800956726074219e-01 -8.207252025604248047e-01
3.850000000000000000e+02 4.488411712646484375e+01 -1.598488688468933105e-01 2.282203197479248047e+00 4.943482279777526855e-01 8.329654335975646973e-01 -1.301087141036987305e+00
3.860000000000000000e+02 4.471806716918945312e+01 -1.422158002853393555e+00 2.195827245712280273e+00 -2.455836832523345947e-01 5.850731134414672852e-01 -5.766551941633224487e-02
3.870000000000000000e+02 4.821270370483398438e+01 -1.756528735160827637e+00 6.218504905700683594e+00 1.495139884948730469e+01 6.350971221923828125e+00 -4.191820621490478516e+00
3.880000000000000000e+02 4.495988845825195312e+01 -1.359273672103881836e+00 2.237454414367675781e+00 -2.023319303989410400e-01 6.105367541313171387e-01 -1.805112659931182861e-01
3.890000000000000000e+02 4.531200790405273438e+01 -1.606171965599060059e+00 2.901855707168579102e+00 -8.318456262350082397e-02 8.456013202667236328e-01 -2.811948657035827637e-01
3.900000000000000000e+02 4.606529235839843750e+01 -1.892283797264099121e+00 4.242028713226318359e+00 6.344949603080749512e-01 1.462957143783569336e+00 5.669463872909545898e-01
3.910000000000000000e+02 4.672095489501953125e+01 -2.131984710693359375e+00 4.686832427978515625e+00 5.235882759094238281e+00 2.976814508438110352e+00 2.728096246719360352e+00
3.920000000000000000e+02 4.605465316772460938e+01 -1.937921196222305298e-01 5.320270061492919922e+00 1.632525801658630371e+00 2.085838794708251953e+00 -3.334570407867431641e+00
3.930000000000000000e+02 4.543407440185546875e+01 -1.866306215524673462e-01 3.532568216323852539e+00 8.012999892234802246e-01 1.300160527229309082e+00 -1.938189506530761719e+00
3.940000000000000000e+02 4.848227310180664062e+01 -4.694398045539855957e-01 8.295819282531738281e+00 1.204495525360107422e+01 6.102232456207275391e+00 4.695491790771484375e-01
3.950000000000000000e+02 4.515327072143554688e+01 -4.774542748928070068e-01 2.387767314910888672e+00 3.339480161666870117e-01 8.165146112442016602e-01 -8.948600888252258301e-01
3.960000000000000000e+02 4.481526565551757812e+01 -1.621654987335205078e+00 2.395945787429809570e+00 -3.774920403957366943e-01 6.055361032485961914e-01 4.953686520457267761e-02
3.970000000000000000e+02 4.532735443115234375e+01 -1.943568944931030273e+00 3.017902851104736328e+00 -2.569043636322021484e-01 8.282995223999023438e-01 1.690471321344375610e-01
3.980000000000000000e+02 4.551421737670898438e+01 -1.580828905105590820e+00 2.949102163314819336e+00 -8.971034735441207886e-02 8.578175306320190430e-01 -2.876474857330322266e-01
3.990000000000000000e+02 4.521968078613281250e+01 -1.768702507019042969e+00 2.819776773452758789e+00 -3.023276031017303467e-01 7.552347779273986816e-01 1.381954643875360489e-02
4.000000000000000000e+02 4.514551162719726562e+01 -1.539870262145996094e+00 2.532866239547729492e+00 -2.754532098770141602e-01 6.772238612174987793e-01 -1.750083863735198975e-01
4.010000000000000000e+02 4.517527770996093750e+01 -1.371437072753906250e+00 2.429072856903076172e+00 2.127135545015335083e-02 7.351032495498657227e-01 -4.258210361003875732e-01
4.020000000000000000e+02 4.524781417846679688e+01 -3.251873850822448730e-01 2.857091426849365234e+00 4.613439142704010010e-01 9.955306053161621094e-01 -1.327897429466247559e+00
4.030000000000000000e+02 4.507286834716796875e+01 -1.663246154785156250e+00 2.665272474288940430e+00 -2.800427973270416260e-01 7.155689001083374023e-01 -1.021642759442329407e-01
4.040000000000000000e+02 4.629029846191406250e+01 -1.248166710138320923e-01 5.678578853607177734e+00 3.005824089050292969e+00 2.605320930480957031e+00 -4.477436542510986328e+00
4.050000000000000000e+02 4.623290634155273438e+01 7.696995884180068970e-02 4.951592445373535156e+00 3.631746053695678711e+00 2.575001716613769531e+00 -4.646847248077392578e+00
4.060000000000000000e+02 4.327482223510742188e+01 9.344523549079895020e-01 3.037871420383453369e-01 8.663850426673889160e-01 3.510516583919525146e-01 -1.185749650001525879e+00
4.070000000000000000e+02 4.412754440307617188e+01 -4.000531136989593506e-01 1.020591616630554199e+00 1.007544472813606262e-01 3.364038169384002686e-01 -3.821945488452911377e-01
4.080000000000000000e+02 4.428807830810546875e+01 -1.940629035234451294e-01 1.226983785629272461e+00 2.489845603704452515e-01 4.427905082702636719e-01 -5.900538563728332520e-01
4.090000000000000000e+02 4.286532211303710938e+01 2.955683767795562744e-01 -7.968381047248840332e-03 1.579025387763977051e-01 4.498024657368659973e-02 -2.712723612785339355e-01
4.100000000000000000e+02 4.353377532958984375e+01 -5.814829096198081970e-02 4.926517903804779053e-01 1.613865643739700317e-01 1.962115019559860229e-01 -3.731598556041717529e-01
4.110000000000000000e+02 4.446591949462890625e+01 5.114257931709289551e-01 1.842539548873901367e+00 8.202248215675354004e-01 7.988293170928955078e-01 -1.833782911300659180e+00
4.120000000000000000e+02 4.396886062622070312e+01 6.498024463653564453e-01 1.102996587753295898e+00 9.225683212280273438e-01 6.076694726943969727e-01 -1.536252140998840332e+00
4.130000000000000000e+02 4.243626022338867188e+01 1.250380635261535645e+00 -3.452561795711517334e-01 6.705164313316345215e-01 9.757807105779647827e-02 -6.713584065437316895e-01
4.140000000000000000e+02 4.210858154296875000e+01 5.819446444511413574e-01 -5.490268468856811523e-01 1.405113488435745239e-01 -1.225546449422836304e-01 -1.142608150839805603e-01
4.150000000000000000e+02 4.447880935668945312e+01 2.919352352619171143e-01 1.911327242851257324e+00 7.580354213714599609e-01 8.008087873458862305e-01 -1.681635141372680664e+00
4.160000000000000000e+02 4.442543792724609375e+01 -4.042277485132217407e-02 1.474152684211730957e+00 6.235964298248291016e-01 6.293247342109680176e-01 -1.120721578598022461e+00
4.170000000000000000e+02 4.449390411376953125e+01 1.096270382404327393e-01 1.981817603111267090e+00 5.235350131988525391e-01 7.516058087348937988e-01 -1.408083200454711914e+00
4.180000000000000000e+02 4.441020202636718750e+01 7.953417301177978516e-01 1.366593122482299805e+00 1.277062416076660156e+00 7.930966615676879883e-01 -2.067085266113281250e+00
4.190000000000000000e+02 4.431690597534179688e+01 1.737364381551742554e-01 1.610151886940002441e+00 7.667161822319030762e-01 7.130604386329650879e-01 -1.429394125938415527e+00
4.200000000000000000e+02 4.397523117065429688e+01 1.759799569845199585e-01 9.907774329185485840e-01 5.487206578254699707e-01 4.618494212627410889e-01 -1.005690693855285645e+00
4.210000000000000000e+02 4.008607864379882812e+01 2.347794055938720703e+00 -2.886163949966430664e+00 2.957285940647125244e-01 -7.771306037902832031e-01 -7.945404648780822754e-01
4.220000000000000000e+02 3.924859237670898438e+01 1.918622970581054688e+00 -5.256785869598388672e+00 -1.057367801666259766e+00 -1.894246101379394531e+00 7.748270779848098755e-02
4.230000000000000000e+02 4.066986846923828125e+01 1.245835542678833008e+00 -1.770725131034851074e+00 -1.545231938362121582e-01 -5.775744915008544922e-01 3.218458890914916992e-01
4.240000000000000000e+02 4.163364028930664062e+01 1.592744350433349609e+00 -1.105439186096191406e+00 6.037369966506958008e-01 -1.505106687545776367e-01 -5.668846964836120605e-01
4.250000000000000000e+02 4.137876510620117188e+01 8.941976428031921387e-01 -1.041448950767517090e+00 1.248364672064781189e-01 -2.749837636947631836e-01 2.041188627481460571e-01
4.260000000000000000e+02 3.931212234497070312e+01 2.709177732467651367e+00 -1.588774919509887695e+00 -8.759495019912719727e-01 -7.394173145294189453e-01 -1.305880904197692871e+00
4.270000000000000000e+02 4.086096572875976562e+01 1.975051641464233398e+00 -1.585551977157592773e+00 5.636819005012512207e-01 -3.065610229969024658e-01 -2.700510621070861816e-01
4.280000000000000000e+02 3.995876693725585938e+01 1.587908506393432617e+00 -2.640449762344360352e+00 5.803430825471878052e-02 -7.747246623039245605e-01 7.208554744720458984e-01
4.290000000000000000e+02 3.316690444946289062e+01 7.908318638801574707e-01 -2.281802415847778320e+00 2.543848752975463867e-02 -6.769091486930847168e-01 -7.934380173683166504e-01
4.300000000000000000e+02 3.399934387207031250e+01 6.623410582542419434e-01 -2.770380973815917969e+00 -3.319454789161682129e-01 -9.306979775428771973e-01 -1.261452436447143555e+00
4.310000000000000000e+02 3.436914443969726562e+01 1.189764857292175293e+00 -4.028153896331787109e+00 -5.454761385917663574e-01 -1.372089028358459473e+00 -2.650895714759826660e-01
4.320000000000000000e+02 3.783919525146484375e+01 2.484255313873291016e+00 -9.782506823539733887e-01 1.275237441062927246e+00 8.909601718187332153e-02 5.910051465034484863e-01
4.330000000000000000e+02 3.703740692138671875e+01 1.373660683631896973e+00 -4.541524410247802734e+00 1.658892184495925903e-01 -1.312690496444702148e+00 -7.140275239944458008e-01
4.340000000000000000e+02 3.334777450561523438e+01 3.404574692249298096e-01 -1.272155165672302246e+00 -1.551245301961898804e-01 -4.281838834285736084e-01 -8.366594910621643066e-01
4.350000000000000000e+02 3.353592681884765625e+01 -1.197979226708412170e-01 -1.420978069305419922e+00 -1.772795766592025757e-01 -4.794772863388061523e-01 -6.208698153495788574e-01
4.360000000000000000e+02 3.501575469970703125e+01 1.059977054595947266e+00 -4.459002017974853516e+00 -7.019702196121215820e-01 -1.548291683197021484e+00 -1.007657647132873535e+00
4.370000000000000000e+02 3.555833053588867188e+01 6.905598640441894531e-01 -1.208286285400390625e+00 3.337739109992980957e-01 -2.623537182807922363e-01 -1.416051983833312988e-01
4.380000000000000000e+02 3.575750350952148438e+01 1.575511693954467773e+00 -5.925029277801513672e+00 -4.349340200424194336e-01 -1.907989025115966797e+00 -9.690195322036743164e-01
4.390000000000000000e+02 3.622613906860351562e+01 1.030777692794799805e+00 -2.757301330566406250e+00 -1.176447570323944092e-01 -8.624838590621948242e-01 -1.728865355253219604e-01
4.400000000000000000e+02 3.782004547119140625e+01 1.683207035064697266e+00 -5.662150382995605469e+00 1.799641847610473633e-01 -1.644655823707580566e+00 -1.851002812385559082e+00
4.410000000000000000e+02 3.853881835937500000e+01 1.949121356010437012e+00 -6.674573421478271484e+00 -1.740968585014343262e+00 -2.524662494659423828e+00 -1.731589436531066895e+00
4.420000000000000000e+02 3.856629180908203125e+01 2.753397226333618164e+00 -3.367516994476318359e-01 -1.086886048316955566e+00 -4.270913302898406982e-01 8.993037790060043335e-02
4.430000000000000000e+02 3.379653930664062500e+01 1.053609251976013184e+00 -2.623529911041259766e+00 -6.122540682554244995e-02 -8.054265975952148438e-01 -2.341123670339584351e-01
4.440000000000000000e+02 3.424254989624023438e+01 2.046553343534469604e-01 -6.331879496574401855e-01 -2.558540403842926025e-01 -2.667126059532165527e-01 -7.029113769531250000e-01
4.450000000000000000e+02 3.494199752807617188e+01 4.520132541656494141e-01 -4.350731074810028076e-01 -5.951752662658691406e-01 -3.090744912624359131e-01 -3.812795877456665039e-02
4.460000000000000000e+02 3.690625000000000000e+01 2.049182176589965820e+00 -2.554830312728881836e+00 1.493422836065292358e-01 -7.216464281082153320e-01 -5.968351960182189941e-01
4.470000000000000000e+02 3.083432960510253906e+01 -2.170480340719223022e-01 -1.455211877822875977e+00 2.579501867294311523e-01 -3.591784834861755371e-01 -1.467036157846450806e-01
4.480000000000000000e+02 3.085270309448242188e+01 -9.999262094497680664e-01 -1.072215080261230469e+00 9.774633496999740601e-02 -2.923406362533569336e-01 -1.706425696611404419e-01
4.490000000000000000e+02 3.216926574707031250e+01 -6.736713051795959473e-01 -1.557654738426208496e+00 -1.744530647993087769e-01 -5.196323394775390625e-01 -5.945094227790832520e-01
4.500000000000000000e+02 3.193232536315917969e+01 -3.087860345840454102e-01 -1.419506549835205078e+00 8.923131041228771210e-03 -4.231750071048736572e-01 -3.893391489982604980e-01
4.510000000000000000e+02 3.283817291259765625e+01 -3.977768719196319580e-01 -1.545039057731628418e+00 -2.538595199584960938e-01 -5.396695733070373535e-01 -5.667982101440429688e-01
4.520000000000000000e+02 3.245020675659179688e+01 5.051715970039367676e-01 -1.513339281082153320e+00 7.790613919496536255e-02 -4.306299388408660889e-01 -5.122827291488647461e-01
4.530000000000000000e+02 3.264751434326171875e+01 4.808262735605239868e-02 -1.625754356384277344e+00 -1.555508077144622803e-01 -5.343915820121765137e-01 -5.487827658653259277e-01
4.540000000000000000e+02 3.166022682189941406e+01 1.470156908035278320e-01 -1.543565869331359863e+00 1.895729005336761475e-01 -4.061978757381439209e-01 -2.633458077907562256e-01
4.550000000000000000e+02 3.155240631103515625e+01 -8.315400481224060059e-01 -1.398049235343933105e+00 -7.150657474994659424e-02 -4.408667385578155518e-01 -3.965516686439514160e-01
4.560000000000000000e+02 1.934751129150390625e+01 2.503270149230957031e+00 -1.573040485382080078e+00 -2.092696577310562134e-01 -5.346930027008056641e-01 2.403344213962554932e-01
4.570000000000000000e+02 2.005071449279785156e+01 1.556203603744506836e+00 -2.050330162048339844e+00 -1.191077306866645813e-01 -6.508314013481140137e-01 4.881625473499298096e-01
4.580000000000000000e+02 1.928076744079589844e+01 1.755981087684631348e+00 -2.313016176223754883e+00 -1.898451000452041626e-01 -7.508583664894104004e-01 4.042606949806213379e-01
4.590000000000000000e+02 2.158644676208496094e+01 1.168239593505859375e+00 -1.916687011718750000e+00 -1.261304914951324463e-01 -6.128452420234680176e-01 4.840289950370788574e-01
4.600000000000000000e+02 2.307723426818847656e+01 1.624484539031982422e+00 -1.560058355331420898e+00 -1.221517771482467651e-01 -5.046630501747131348e-01 4.039226174354553223e-01
4.610000000000000000e+02 2.233542251586914062e+01 9.922933578491210938e-01 -1.892817497253417969e+00 -1.351235210895538330e-01 -6.083822846412658691e-01 4.899868369102478027e-01
4.620000000000000000e+02 2.398313713073730469e+01 4.381691217422485352e-01 -1.924914956092834473e+00 -1.236365586519241333e-01 -6.145654916763305664e-01 5.237509012222290039e-01
4.630000000000000000e+02 2.469855880737304688e+01 3.134082555770874023e-01 -1.946582078933715820e+00 -1.326987296342849731e-01 -6.237842440605163574e-01 5.058709979057312012e-01
4.640000000000000000e+02 2.544886207580566406e+01 1.369469165802001953e-01 -1.939224720001220703e+00 -1.343891173601150513e-01 -6.220841407775878906e-01 5.074529647827148438e-01
4.650000000000000000e+02 2.621602630615234375e+01 -5.633327364921569824e-02 -1.927361011505126953e+00 -1.154626235365867615e-01 -6.128470897674560547e-01 4.941701889038085938e-01
4.660000000000000000e+02 2.698558807373046875e+01 -2.541643083095550537e-01 -1.888978242874145508e+00 -1.157028824090957642e-01 -6.014043092727661133e-01 4.714536964893341064e-01
4.670000000000000000e+02 2.852584266662597656e+01 -6.537437438964843750e-01 -1.671121239662170410e+00 -6.865881383419036865e-02 -5.219340324401855469e-01 3.571169972419738770e-01
4.680000000000000000e+02 2.929613304138183594e+01 -8.536532521247863770e-01 -1.452543735504150391e+00 1.385250408202409744e-02 -4.316073656082153320e-01 2.491706311702728271e-01
4.690000000000000000e+02 2.926754379272460938e+01 -8.154577016830444336e-02 -1.456692099571228027e+00 1.624755561351776123e-01 -3.882649540901184082e-01 8.270481228828430176e-02
4.700000000000000000e+02 3.006602287292480469e+01 -1.052662253379821777e+00 -1.093240022659301758e+00 7.670573890209197998e-02 -3.049602806568145752e-01 7.100319117307662964e-02
4.710000000000000000e+02 3.003009986877441406e+01 -2.786456644535064697e-01 -1.448017954826354980e+00 2.857951223850250244e-01 -3.486668765544891357e-01 -3.148388862609863281e-02
4.720000000000000000e+02 2.011012649536132812e+01 2.305401802062988281e+00 -1.734074473381042480e+00 -1.241573542356491089e-01 -5.574695467948913574e-01 2.908600568771362305e-01
4.730000000000000000e+02 2.087202072143554688e+01 2.110936641693115234e+00 -1.650913238525390625e+00 -1.027763411402702332e-01 -5.261068344116210938e-01 3.592061102390289307e-01
4.740000000000000000e+02 2.163119125366210938e+01 1.921256065368652344e+00 -1.617607116699218750e+00 -1.197285950183868408e-01 -5.212007164955139160e-01 3.789744079113006592e-01
4.750000000000000000e+02 2.237283515930175781e+01 1.747218847274780273e+00 -1.573215842247009277e+00 -1.240161806344985962e-01 -5.091695785522460938e-01 3.963406682014465332e-01
4.760000000000000000e+02 2.399707603454589844e+01 1.007387638092041016e+00 -1.671377658843994141e+00 -1.160484775900840759e-01 -5.362278223037719727e-01 4.438228011131286621e-01
4.770000000000000000e+02 2.471397018432617188e+01 1.074061155319213867e+00 -1.594736576080322266e+00 -1.191441863775253296e-01 -5.141642093658447266e-01 4.462931752204895020e-01
4.780000000000000000e+02 2.545693969726562500e+01 8.995088934898376465e-01 -1.605743765830993652e+00 -9.922946989536285400e-02 -5.114920139312744141e-01 4.269303679466247559e-01
4.790000000000000000e+02 2.697899818420410156e+01 5.122158527374267578e-01 -1.605112075805664062e+00 -2.755252085626125336e-02 -4.897993803024291992e-01 3.577160239219665527e-01
4.800000000000000000e+02 2.775563621520996094e+01 -4.536604583263397217e-01 -1.810951113700866699e+00 -7.160889357328414917e-02 -5.647680163383483887e-01 4.226428866386413574e-01
4.810000000000000000e+02 2.081994247436523438e+01 1.359829425811767578e+00 -1.966726303100585938e+00 -1.288742870092391968e-01 -6.286801695823669434e-01 4.817349314689636230e-01
4.820000000000000000e+02 2.621677017211914062e+01 7.081378102302551270e-01 -1.609341859817504883e+00 -7.835128158330917358e-02 -5.063079595565795898e-01 4.093725979328155518e-01
4.830000000000000000e+02 2.366904449462890625e+01 1.446964621543884277e+00 -1.576623558998107910e+00 -1.228893697261810303e-01 -5.098538398742675781e-01 4.293275773525238037e-01
4.840000000000000000e+02 2.850458717346191406e+01 1.164546683430671692e-01 -1.535391807556152344e+00 9.017670899629592896e-02 -4.335645437240600586e-01 2.007672190666198730e-01
4.850000000000000000e+02 2.774171447753906250e+01 3.146288096904754639e-01 -1.577688097953796387e+00 6.992213893681764603e-03 -4.712087810039520264e-01 3.007788360118865967e-01
4.860000000000000000e+02 2.338090705871582031e+01 6.175161004066467285e-01 -1.908568620681762695e+00 -1.488422155380249023e-01 -6.172232627868652344e-01 4.988813102245330811e-01
4.870000000000000000e+02 2.305155563354492188e+01 1.057019233703613281e+00 -1.808146953582763672e+00 -1.282670348882675171e-01 -5.809242129325866699e-01 4.823157489299774170e-01
4.880000000000000000e+02 1.611225318908691406e+01 2.416136503219604492e+00 -9.806205630302429199e-01 1.790138706564903259e-02 -2.888157665729522705e-01 3.380885422229766846e-01
4.890000000000000000e+02 1.692862129211425781e+01 2.473628282546997070e+00 -1.235038280487060547e+00 5.173657462000846863e-02 -3.549905121326446533e-01 3.038159608840942383e-01
4.900000000000000000e+02 1.619552993774414062e+01 1.680045008659362793e+00 -1.156627416610717773e+00 1.083582732826471329e-02 -3.437374830245971680e-01 5.362935736775398254e-02
4.910000000000000000e+02 1.774459457397460938e+01 2.528052330017089844e+00 -1.481090188026428223e+00 -3.528233990073204041e-02 -4.549117386341094971e-01 3.571690917015075684e-01
4.920000000000000000e+02 1.851055526733398438e+01 1.834378838539123535e+00 -2.225292921066284180e+00 -1.400238722562789917e-01 -7.095950841903686523e-01 1.699014902114868164e-01
4.930000000000000000e+02 1.855901145935058594e+01 2.579250097274780273e+00 -1.472787022590637207e+00 -1.831104010343551636e-01 -4.967692196369171143e-01 3.627602756023406982e-01
4.940000000000000000e+02 1.696798706054687500e+01 1.734610080718994141e+00 -1.439961433410644531e+00 -6.607902701944112778e-03 -4.339707791805267334e-01 5.810747668147087097e-02
4.950000000000000000e+02 1.774004745483398438e+01 1.786107659339904785e+00 -1.755235075950622559e+00 2.387068793177604675e-02 -5.194092988967895508e-01 4.753234982490539551e-02
4.960000000000000000e+02 1.307423973083496094e+01 1.803115367889404297e+00 -1.934623718261718750e-01 1.385157648473978043e-02 -5.388323962688446045e-02 1.825128048658370972e-01
4.970000000000000000e+02 1.322374725341796875e+01 1.078295350074768066e+00 -8.921889588236808777e-03 2.537359483540058136e-02 4.935511853545904160e-03 7.215254753828048706e-02
4.980000000000000000e+02 1.396254444122314453e+01 1.243136167526245117e+00 -1.939386725425720215e-01 1.259745843708515167e-02 -5.440236255526542664e-02 6.765514612197875977e-02
4.990000000000000000e+02 1.470126342773437500e+01 1.407449364662170410e+00 -4.399259984493255615e-01 3.290436044335365295e-02 -1.221064925193786621e-01 4.303305968642234802e-02
5.000000000000000000e+02 1.544029712677001953e+01 1.569983482360839844e+00 -8.010048866271972656e-01 -8.745838887989521027e-03 -2.429252117872238159e-01 4.511772841215133667e-02
5.010000000000000000e+02 1.532874107360839844e+01 2.303210496902465820e+00 -7.665317654609680176e-01 4.835222661495208740e-02 -2.154538631439208984e-01 3.237721323966979980e-01
5.020000000000000000e+02 1.382568740844726562e+01 1.970758438110351562e+00 -3.590207099914550781e-01 4.977948218584060669e-02 -9.277237206697463989e-02 2.155644893646240234e-01
5.030000000000000000e+02 1.457705688476562500e+01 2.137874126434326172e+00 -5.769414901733398438e-01 4.391242936253547668e-02 -1.599087119102478027e-01 2.755565941333770752e-01
5.040000000000000000e+02 1.104393005371093750e+01 6.161050796508789062e-01 2.392711192369461060e-01 1.788097433745861053e-03 7.231776416301727295e-02 6.088542565703392029e-02
5.050000000000000000e+02 1.093760776519775391e+01 1.349887132644653320e+00 8.624309301376342773e-02 -1.561472937464714050e-02 2.118850871920585632e-02 5.764623731374740601e-02
5.060000000000000000e+02 1.032133674621582031e+01 4.645727574825286865e-01 2.423069030046463013e-01 -2.413591369986534119e-03 7.196799665689468384e-02 3.962140902876853943e-02
5.070000000000000000e+02 1.176770782470703125e+01 7.675349712371826172e-01 2.004927992820739746e-01 1.526040863245725632e-02 6.472596526145935059e-02 6.854239106178283691e-02
5.080000000000000000e+02 1.234649181365966797e+01 1.644436478614807129e+00 -6.085745990276336670e-02 8.895329199731349945e-03 -1.558863930404186249e-02 1.334949582815170288e-01
5.090000000000000000e+02 1.249242305755615234e+01 9.189449548721313477e-01 1.181831657886505127e-01 8.038072846829891205e-03 3.786637261509895325e-02 7.728157192468643188e-02
5.100000000000000000e+02 1.023481845855712891e+01 1.202500104904174805e+00 1.359904706478118896e-01 -3.128135576844215393e-02 3.141273185610771179e-02 3.801189735531806946e-02
5.110000000000000000e+02 1.164158153533935547e+01 1.497171759605407715e+00 2.290095016360282898e-02 -1.440354250371456146e-02 2.549222204834222794e-03 9.924557805061340332e-02
5.120000000000000000e+02 8.738976478576660156e+00 3.806764781475067139e-01 2.710433006286621094e-01 -2.214250154793262482e-03 8.064872026443481445e-02 -1.175139565020799637e-03
5.130000000000000000e+02 8.719267845153808594e+00 1.120676517486572266e+00 1.508385837078094482e-01 -1.892879977822303772e-02 3.957293555140495300e-02 4.286189097911119461e-03
5.140000000000000000e+02 7.164478778839111328e+00 1.118019104003906250e+00 1.456121355295181274e-01 -6.772024556994438171e-03 4.165203496813774109e-02 -2.597438730299472809e-02
5.150000000000000000e+02 6.292463302612304688e+00 3.770544826984405518e-01 2.129112780094146729e-01 1.543473990750499070e-05 6.387801468372344971e-02 -1.354587730020284653e-02
5.160000000000000000e+02 5.476712703704833984e+00 3.768434524536132812e-01 1.793908327817916870e-01 -1.244419603608548641e-03 5.344392359256744385e-02 -1.537094824016094208e-02
5.170000000000000000e+02 4.661345481872558594e+00 3.765997588634490967e-01 1.430672407150268555e-01 4.409402026794850826e-04 4.305245354771614075e-02 -1.583667658269405365e-02
5.180000000000000000e+02 3.032949686050415039e+00 3.775091171264648438e-01 6.905138492584228516e-02 1.058627618476748466e-03 2.103300392627716064e-02 -1.522411219775676727e-02
5.190000000000000000e+02 2.221997976303100586e+00 3.784421682357788086e-01 3.695152699947357178e-02 9.099105955101549625e-04 1.135843060910701752e-02 -1.318048406392335892e-02
5.200000000000000000e+02 2.505794763565063477e+00 1.118442177772521973e+00 3.929383307695388794e-02 5.745652597397565842e-03 1.351184584200382233e-02 -3.677568212151527405e-02
5.210000000000000000e+02 1.745976328849792480e+00 1.122917294502258301e+00 2.371724881231784821e-02 9.304486215114593506e-03 9.906521067023277283e-03 -2.820273302495479584e-02
5.220000000000000000e+02 3.682450354099273682e-01 9.625021815299987793e-01 1.126910909079015255e-03 7.165520917624235153e-03 2.487729536369442940e-03 -4.901285283267498016e-03
5.230000000000000000e+02 6.944741606712341309e-01 4.059950113296508789e-01 3.855927148833870888e-03 2.735042478889226913e-03 1.977290958166122437e-03 -2.774525899440050125e-03
5.240000000000000000e+02 3.278808116912841797e+00 1.117509126663208008e+00 5.887197330594062805e-02 1.469056587666273117e-03 1.810230873525142670e-02 -4.190816730260848999e-02
5.250000000000000000e+02 3.846553564071655273e+00 3.765962421894073486e-01 1.055714040994644165e-01 -5.579879507422447205e-04 3.150402754545211792e-02 -1.642505824565887451e-02
5.260000000000000000e+02 5.608756542205810547e+00 1.116843461990356445e+00 1.172113418579101562e-01 -1.759954029694199562e-03 3.463541716337203979e-02 -3.931111097335815430e-02
5.270000000000000000e+02 6.386569023132324219e+00 1.117054462432861328e+00 1.347179859876632690e-01 -5.795679520815610886e-03 3.867669031023979187e-02 -3.521218523383140564e-02
5.280000000000000000e+02 7.108311176300048828e+00 3.780190646648406982e-01 2.421304434537887573e-01 -1.991891767829656601e-03 7.204156368970870972e-02 -1.159579586237668991e-02
5.290000000000000000e+02 7.924066066741943359e+00 3.789985179901123047e-01 2.626241147518157959e-01 -2.385690575465559959e-03 7.807152718305587769e-02 -6.335423327982425690e-03
5.300000000000000000e+02 7.942295551300048828e+00 1.118998527526855469e+00 1.538372635841369629e-01 -1.091012265533208847e-02 4.287813976407051086e-02 -1.763194799423217773e-02
5.310000000000000000e+02 9.552846908569335938e+00 3.859910368919372559e-01 2.522197067737579346e-01 -1.237378083169460297e-02 7.195377349853515625e-02 1.629283465445041656e-02
5.320000000000000000e+02 9.495200157165527344e+00 1.125990986824035645e+00 1.555071771144866943e-01 -2.561174891889095306e-02 3.896862640976905823e-02 1.963302493095397949e-02
5.330000000000000000e+02 1.054147243499755859e+00 1.145995020866394043e+00 1.040519215166568756e-02 1.442946866154670715e-02 7.450398057699203491e-03 -1.857037842273712158e-02
5.340000000000000000e+02 4.831327438354492188e+00 1.116599798202514648e+00 9.853557497262954712e-02 -1.903340220451354980e-03 2.898967079818248749e-02 -4.192011058330535889e-02
5.350000000000000000e+02 4.054473876953125000e+00 1.116596221923828125e+00 7.880628854036331177e-02 2.306089445482939482e-04 2.371107041835784912e-02 -4.237324744462966919e-02
5.360000000000000000e+02 1.424241423606872559e+00 3.829173147678375244e-01 1.351862307637929916e-02 2.375652547925710678e-03 4.768282640725374222e-03 -8.609902113676071167e-03
5.370000000000000000e+02 1.338139057159423828e+01 3.142086565494537354e-01 -5.159453749656677246e-01 1.981467008590698242e-01 -9.533961117267608643e-02 -1.772991716861724854e-01
5.380000000000000000e+02 1.410687160491943359e+01 4.760258793830871582e-01 -5.668354630470275879e-01 -2.808945775032043457e-01 -2.543190121650695801e-01 -9.541158378124237061e-02
5.390000000000000000e+02 1.353089809417724609e+01 -4.106113612651824951e-01 -3.756269812583923340e-01 -2.622846662998199463e-01 -1.913734972476959229e-01 -1.259867250919342041e-01
5.400000000000000000e+02 1.483218193054199219e+01 6.374483108520507812e-01 -5.833095908164978027e-01 2.131149768829345703e-01 -1.110583916306495667e-01 -1.971163451671600342e-01
5.410000000000000000e+02 1.495638942718505859e+01 -9.297639876604080200e-02 -4.559384286403656006e-01 -2.811620235443115234e-01 -2.211301326751708984e-01 -8.302129805088043213e-02
5.420000000000000000e+02 1.566942024230957031e+01 6.387124955654144287e-02 -4.697086513042449951e-01 3.060550391674041748e-01 -4.909608513116836548e-02 -1.874969303607940674e-01
5.430000000000000000e+02 1.555786418914794922e+01 7.970982789993286133e-01 -6.170483231544494629e-01 -2.440203875303268433e-01 -2.583205997943878174e-01 -8.131764829158782959e-02
5.440000000000000000e+02 1.424372863769531250e+01 -2.515964508056640625e-01 -4.288105070590972900e-01 2.047537863254547119e-01 -6.721702218055725098e-02 -1.889060288667678833e-01
5.450000000000000000e+02 3.317607879638671875e+00 -1.895042896270751953e+00 -1.584932394325733185e-02 1.582834683358669281e-02 -6.293209935392951593e-06 -1.006231270730495453e-02
5.460000000000000000e+02 4.726804733276367188e+00 -1.808047652244567871e+00 -3.651465848088264465e-02 3.498380631208419800e-02 -4.592560580931603909e-04 -1.299914531409740448e-02
5.470000000000000000e+02 9.022733688354492188e+00 -2.569250345230102539e+00 -1.053853258490562439e-01 -1.305868029594421387e-01 -7.079163938760757446e-02 -1.488161236047744751e-01
5.480000000000000000e+02 1.797405815124511719e+01 -2.979764223098754883e+00 1.471610814332962036e-01 3.606715500354766846e-01 1.523497849702835083e-01 1.360776126384735107e-01
5.490000000000000000e+02 1.726619338989257812e+01 -1.959691524505615234e+00 3.683196008205413818e-02 6.579136103391647339e-02 3.078699670732021332e-02 -3.801564872264862061e-02
5.500000000000000000e+02 2.011888885498046875e+01 -9.024936556816101074e-01 2.076786756515502930e-01 3.585466146469116211e-01 1.698675751686096191e-01 -1.904250979423522949e-01
5.510000000000000000e+02 1.739740943908691406e+01 -5.154251456260681152e-01 -4.584770798683166504e-01 -1.616456508636474609e-01 -1.860368251800537109e-01 -9.002494066953659058e-02
5.520000000000000000e+02 5.390949845314025879e-01 -1.057283020019531250e+01 3.122030757367610931e-03 -3.227134048938751221e-02 -8.744793012738227844e-03 2.421609126031398773e-03
5.530000000000000000e+02 6.691865921020507812e+00 -1.487880516052246094e+01 -2.139568626880645752e-01 -3.528283238410949707e-01 -1.700355559587478638e-01 -2.197407186031341553e-01
5.540000000000000000e+02 1.018669891357421875e+01 -1.253126144409179688e+01 -1.431857496500015259e-01 -1.629013568162918091e-02 -4.784276336431503296e-02 -9.614678472280502319e-02
5.550000000000000000e+02 8.947484016418457031e+00 -1.299404335021972656e+01 -2.585677206516265869e-01 -1.861358582973480225e-01 -1.334110796451568604e-01 -1.632549464702606201e-01
5.560000000000000000e+02 1.249977207183837891e+01 -1.233960628509521484e+01 6.103621423244476318e-02 1.235874965786933899e-01 5.538711324334144592e-02 -1.101955771446228027e-01
5.570000000000000000e+02 1.598170852661132812e+01 -8.305339813232421875e+00 -2.577628754079341888e-02 2.791503965854644775e-01 7.601223140954971313e-02 3.358300542458891869e-03
5.580000000000000000e+02 1.823982810974121094e+01 -1.457623577117919922e+01 -1.090439930558204651e-01 2.020833492279052734e-01 2.791180647909641266e-02 -2.374442219734191895e-01
5.590000000000000000e+02 1.555427169799804688e+01 -9.755433082580566406e+00 6.762607395648956299e-02 3.467127084732055664e-01 1.243016347289085388e-01 -1.421774830669164658e-02
5.600000000000000000e+02 1.704098510742187500e+01 -8.403776168823242188e+00 8.774589747190475464e-02 4.896018803119659424e-01 1.732043325901031494e-01 -4.158467426896095276e-02
5.610000000000000000e+02 1.722673225402832031e+01 -5.522223949432373047e+00 1.056280732154846191e-01 4.635201692581176758e-01 1.707444787025451660e-01 5.977042019367218018e-02
5.620000000000000000e+02 3.598266363143920898e+00 -2.067872047424316406e+01 1.017859578132629395e-01 -2.522804737091064453e-01 -4.514835402369499207e-02 -1.764291077852249146e-01
5.630000000000000000e+02 6.256388664245605469e+00 -2.200303649902343750e+01 2.794153392314910889e-01 1.535444706678390503e-01 1.298879384994506836e-01 -1.844987273216247559e-01
5.640000000000000000e+02 9.004364967346191406e+00 -2.318507575988769531e+01 2.728015482425689697e-01 1.931324414908885956e-02 8.763444423675537109e-02 -1.210067048668861389e-01
5.650000000000000000e+02 7.522284030914306641e+00 -2.285505485534667969e+01 3.779247999191284180e-01 1.403228938579559326e-01 1.554743051528930664e-01 -1.734167933464050293e-01
5.660000000000000000e+02 4.197775363922119141e+00 -2.411457252502441406e+01 7.798488438129425049e-02 -2.296398431062698364e-01 -4.549648612737655640e-02 -2.189775183796882629e-02
5.670000000000000000e+02 5.813720822334289551e-01 -3.035706901550292969e+01 -6.769763422198593616e-04 -5.538179278373718262e-01 -1.663484722375869751e-01 -2.542558358982205391e-03
5.680000000000000000e+02 1.208783149719238281e+01 -3.664947509765625000e+01 1.057008802890777588e-01 1.070976704359054565e-01 6.383956223726272583e-02 -1.161692440509796143e-01
5.690000000000000000e+02 1.319812583923339844e+01 -3.737306213378906250e+01 1.460866034030914307e-01 2.117035984992980957e-01 1.073370575904846191e-01 -1.430843919515609741e-01
5.700000000000000000e+02 1.258758640289306641e+01 -3.518156433105468750e+01 5.387920513749122620e-02 1.357340961694717407e-01 5.688399076461791992e-02 -9.457953274250030518e-02
5.710000000000000000e+02 1.253813171386718750e+01 -3.068845176696777344e+01 -7.135114818811416626e-02 -1.100202798843383789e-01 -5.441142618656158447e-02 -1.004197299480438232e-01
5.720000000000000000e+02 1.414229774475097656e+01 -2.985713577270507812e+01 -6.430304050445556641e-02 -1.913232654333114624e-01 -7.668789476156234741e-02 -1.136357709765434265e-01
5.730000000000000000e+02 1.492449188232421875e+01 -2.861752700805664062e+01 -5.482664331793785095e-03 -1.468562632799148560e-01 -4.570167884230613708e-02 -7.206625491380691528e-02
5.740000000000000000e+02 1.192787075042724609e+01 -2.263199806213378906e+01 -1.954927742481231689e-01 -1.213751509785652161e-01 -9.506037831306457520e-02 -1.616629660129547119e-01
5.750000000000000000e+02 1.050338935852050781e+01 -2.305632591247558594e+01 5.042107403278350830e-02 -1.431113760918378830e-02 1.083298120647668839e-02 -9.752494096755981445e-02
5.760000000000000000e+02 1.089097309112548828e+01 -2.424016952514648438e+01 5.059749633073806763e-02 -1.079690009355545044e-01 -1.721145026385784149e-02 -2.173421233892440796e-01
5.770000000000000000e+02 7.520617961883544922e+00 -3.637472534179687500e+01 3.748755902051925659e-02 -2.108106315135955811e-01 -5.199692025780677795e-02 -1.023010388016700745e-01
5.780000000000000000e+02 9.470588684082031250e+00 -3.477029418945312500e+01 1.539032533764839172e-02 -1.130579188466072083e-01 -2.930027991533279419e-02 -1.272442787885665894e-01
5.790000000000000000e+02 6.129782795906066895e-01 -3.174526977539062500e+01 -1.629325561225414276e-03 -5.649831891059875488e-01 -1.699837595224380493e-01 -5.630566272884607315e-03
5.800000000000000000e+02 9.144105911254882812e-01 -3.726207733154296875e+01 6.449538283050060272e-03 -6.213204860687255859e-01 -1.844612807035446167e-01 -2.508800011128187180e-03
5.810000000000000000e+02 3.043268442153930664e+00 -3.779693984985351562e+01 2.279330231249332428e-02 -5.130759477615356445e-01 -1.470847874879837036e-01 -2.537922933697700500e-02
5.820000000000000000e+02 2.215785026550292969e+01 -3.978625106811523438e+01 2.568041086196899414e-01 1.842413544654846191e-01 1.323136389255523682e-01 1.841261833906173706e-01
5.830000000000000000e+02 2.254581260681152344e+01 -4.151183700561523438e+01 3.086207509040832520e-01 2.218908220529556274e-01 1.591534763574600220e-01 7.040360569953918457e-02
5.840000000000000000e+02 2.509198188781738281e+01 -4.045267486572265625e+01 1.494862735271453857e-01 6.497730612754821777e-01 2.397778034210205078e-01 4.820182546973228455e-02
5.850000000000000000e+02 2.878035545349121094e+01 -3.920423889160156250e+01 5.147808045148849487e-02 1.146981358528137207e+00 3.595378100872039795e-01 1.482005566358566284e-01
5.860000000000000000e+02 2.629406929016113281e+01 -3.859107971191406250e+01 1.441643387079238892e-01 8.429470658302307129e-01 2.961334288120269775e-01 9.697863459587097168e-02
5.870000000000000000e+02 4.002591323852539062e+01 -3.529347610473632812e+01 4.769769310951232910e-01 2.135619401931762695e+00 7.837789058685302734e-01 -1.356087923049926758e+00
5.880000000000000000e+02 3.913937377929687500e+01 -3.225110244750976562e+01 1.102010726928710938e+00 7.638553619384765625e+00 2.622169256210327148e+00 1.462714672088623047e+00
5.890000000000000000e+02 3.595608901977539062e+01 -2.996093940734863281e+01 8.058986067771911621e-01 1.213369965553283691e+00 6.057805418968200684e-01 8.008520603179931641e-01
5.900000000000000000e+02 3.696041107177734375e+01 -3.128090286254882812e+01 1.386092305183410645e+00 2.758826732635498047e+00 1.243475675582885742e+00 1.123654484748840332e+00
5.910000000000000000e+02 3.120732688903808594e+01 -2.614789390563964844e+01 1.104668676853179932e-01 3.734139800071716309e-01 1.451642513275146484e-01 -3.012355566024780273e-01
5.920000000000000000e+02 2.940947341918945312e+01 -2.438959884643554688e+01 3.120754957199096680e-01 1.500228285789489746e+00 5.436911582946777344e-01 -5.195241570472717285e-01
5.930000000000000000e+02 2.967569732666015625e+01 -2.626888275146484375e+01 -5.416731163859367371e-02 1.043309450149536133e+00 2.967426180839538574e-01 -3.412649035453796387e-01
5.940000000000000000e+02 2.247717666625976562e+01 -2.804541969299316406e+01 1.492237448692321777e-01 2.136800885200500488e-01 1.088711470365524292e-01 -1.579687893390655518e-01
5.950000000000000000e+02 2.327408027648925781e+01 -2.703126144409179688e+01 2.211695462465286255e-01 4.294052422046661377e-01 1.951724439859390259e-01 -1.230401322245597839e-01
5.960000000000000000e+02 2.343520736694335938e+01 -2.903114509582519531e+01 1.502019464969635010e-01 4.585409760475158691e-01 1.826228797435760498e-01 -2.088787108659744263e-01
5.970000000000000000e+02 2.512612915039062500e+01 -2.880410957336425781e+01 6.446782499551773071e-02 7.974171042442321777e-01 2.585654854774475098e-01 -1.227780580520629883e-01
5.980000000000000000e+02 2.918919372558593750e+01 -2.991707420349121094e+01 1.153352335095405579e-01 8.947329521179199219e-01 3.030204474925994873e-01 -2.796129584312438965e-01
5.990000000000000000e+02 2.510749816894531250e+01 -3.343996047973632812e+01 -9.153896011412143707e-03 8.409253954887390137e-01 2.495314478874206543e-01 -3.670168668031692505e-02
6.000000000000000000e+02 2.353494834899902344e+01 -3.895373535156250000e+01 2.576403915882110596e-01 3.219998776912689209e-01 1.738920807838439941e-01 2.216011136770248413e-01
6.010000000000000000e+02 4.077528381347656250e+01 -3.619181442260742188e+01 5.197837948799133301e-01 1.034883975982666016e+00 4.664002954959869385e-01 -3.347579836845397949e-01
6.020000000000000000e+02 4.753527832031250000e+01 -3.683283233642578125e+01 7.573724985122680664e-01 1.898990750312805176e+00 7.969089746475219727e-01 9.555932879447937012e-01
6.030000000000000000e+02 4.876208496093750000e+01 -3.602478027343750000e+01 9.409444928169250488e-01 4.018795013427734375e+00 1.487921833992004395e+00 1.657667875289916992e+00
6.040000000000000000e+02 5.720788955688476562e+01 -3.756142425537109375e+01 -7.354418039321899414e-01 4.172629356384277344e+00 1.031156301498413086e+00 -1.221698284149169922e+00
6.050000000000000000e+02 5.599784851074218750e+01 -3.618415069580078125e+01 8.470396697521209717e-02 7.387652397155761719e+00 2.241706848144531250e+00 -1.092733502388000488e+00
6.060000000000000000e+02 5.967616271972656250e+01 -3.957207870483398438e+01 -2.254499912261962891e+00 -7.399034500122070312e-01 -8.983210325241088867e-01 -6.069678664207458496e-01
6.070000000000000000e+02 5.911964035034179688e+01 -3.772048187255859375e+01 -1.790374398231506348e+00 7.387588024139404297e-01 -3.154847025871276855e-01 3.188903927803039551e-01
6.080000000000000000e+02 6.003480529785156250e+01 -3.811740875244140625e+01 -4.028591632843017578e+00 -1.265623569488525391e+00 -1.588264465332031250e+00 1.326208353042602539e+00
6.090000000000000000e+02 6.137117767333984375e+01 -3.837158203125000000e+01 -3.819657564163208008e+00 -2.150180488824844360e-01 -1.210402727127075195e+00 -3.507697582244873047e-01
6.100000000000000000e+02 6.430868530273437500e+01 -3.734248352050781250e+01 -1.352788209915161133e+00 6.470097303390502930e-01 -2.117335498332977295e-01 2.946049571037292480e-01
6.110000000000000000e+02 6.984926605224609375e+01 -3.507728576660156250e+01 8.146130442619323730e-01 5.796144962310791016e+00 1.983227372169494629e+00 -1.400303840637207031e+00
6.120000000000000000e+02 7.798882293701171875e+01 -4.166656494140625000e+01 -2.077668346464633942e-02 7.921357154846191406e+00 2.370174169540405273e+00 -6.144287530332803726e-03
6.130000000000000000e+02 7.740625000000000000e+01 -3.699507522583007812e+01 -1.971166394650936127e-02 7.503749370574951172e+00 2.245211362838745117e+00 -1.916810721158981323e-01
6.140000000000000000e+02 7.817430877685546875e+01 -3.035115814208984375e+01 -5.905663967132568359e-02 7.570021152496337891e+00 2.253289461135864258e+00 7.811632007360458374e-02
6.150000000000000000e+02 7.370162963867187500e+01 -2.077800750732421875e+01 5.001989006996154785e-01 1.293447780609130859e+01 4.030403137207031250e+00 -1.258368015289306641e+00
6.160000000000000000e+02 7.239350891113281250e+01 -1.785885620117187500e+01 1.325420022010803223e+00 4.083006381988525391e+00 1.622527837753295898e+00 -1.995261907577514648e+00
6.170000000000000000e+02 7.696329498291015625e+01 -1.082031726837158203e+01 -7.375548481941223145e-01 9.390450477600097656e+00 2.595868825912475586e+00 -9.261191487312316895e-01
6.180000000000000000e+02 7.935240936279296875e+01 -1.260108375549316406e+01 -7.367068529129028320e-02 1.017207527160644531e+01 3.029521465301513672e+00 -1.110799834132194519e-01
6.190000000000000000e+02 7.304544830322265625e+01 -1.149057960510253906e+01 -2.476993322372436523e+00 5.111096501350402832e-01 -5.897650718688964844e-01 -2.806802093982696533e-01
6.200000000000000000e+02 7.089206695556640625e+01 -1.216124534606933594e+01 -2.251793861389160156e+00 -4.359779953956604004e-01 -8.063315749168395996e-01 -1.093919396400451660e+00
6.210000000000000000e+02 6.896924591064453125e+01 -1.357345008850097656e+01 -2.918630540370941162e-01 5.528882145881652832e-01 7.830755412578582764e-02 -1.699251413345336914e+00
6.220000000000000000e+02 6.844355773925781250e+01 -1.614264488220214844e+01 -2.712589025497436523e+00 -1.699616946280002594e-02 -8.188755512237548828e-01 -7.178897857666015625e-01
6.230000000000000000e+02 7.221180725097656250e+01 -1.611046028137207031e+01 -1.593269258737564087e-01 3.142945051193237305e+00 8.950853943824768066e-01 -1.073489665985107422e+00
6.240000000000000000e+02 7.040146636962890625e+01 -1.628970146179199219e+01 -4.739218950271606445e-01 6.067774891853332520e-01 3.985667601227760315e-02 -8.955868482589721680e-01
6.250000000000000000e+02 7.348748016357421875e+01 -1.953322219848632812e+01 1.366781830787658691e+00 9.927571296691894531e+00 3.388305902481079102e+00 -2.144380331039428711e+00
6.260000000000000000e+02 7.823047637939453125e+01 -1.820553207397460938e+01 6.662300974130630493e-02 8.120274543762207031e+00 2.456069231033325195e+00 9.839309453964233398e-01
6.270000000000000000e+02 7.531742095947265625e+01 -8.069564819335937500e+00 6.800609230995178223e-01 1.416260147094726562e+01 4.452798843383789062e+00 4.508455693721771240e-01
6.280000000000000000e+02 7.672939300537109375e+01 -6.920740127563476562e+00 1.116503596305847168e+00 1.044546127319335938e+01 3.468589305877685547e+00 -3.893593549728393555e-01
6.290000000000000000e+02 7.687501525878906250e+01 -5.566197395324707031e+00 8.523165583610534668e-01 9.963089942932128906e+00 3.244621992111206055e+00 1.668934822082519531e-01
6.300000000000000000e+02 7.937937927246093750e+01 2.720180034637451172e+00 -9.253468364477157593e-03 8.516775131225585938e+00 2.552256584167480469e+00 -2.170894742012023926e-01
6.310000000000000000e+02 7.077229309082031250e+01 3.526287078857421875e+00 2.690574526786804199e-01 3.416040658950805664e+00 1.105529427528381348e+00 1.488584399223327637e+00
6.320000000000000000e+02 6.739340972900390625e+01 6.840687274932861328e+00 -1.242024064064025879e+00 2.645057141780853271e-01 -2.932554781436920166e-01 5.363424420356750488e-01
6.330000000000000000e+02 6.314246749877929688e+01 6.266969680786132812e+00 -9.401719570159912109e-01 2.760039806365966797e+00 5.459603071212768555e-01 -1.337363839149475098e+00
6.340000000000000000e+02 6.231559753417968750e+01 9.125062942504882812e+00 4.087080061435699463e-01 2.041045665740966797e+00 7.349261045455932617e-01 -1.268470048904418945e+00
6.350000000000000000e+02 6.100917816162109375e+01 -3.387375116348266602e+00 1.795910000801086426e+00 1.202620315551757812e+01 4.146633625030517578e+00 -2.454861402511596680e+00
6.360000000000000000e+02 6.598072052001953125e+01 -3.727179288864135742e+00 2.200119733810424805e+00 7.458031177520751953e+00 2.897445201873779297e+00 3.102974653244018555e+00
6.370000000000000000e+02 6.496815490722656250e+01 -3.333122968673706055e+00 1.619926571846008301e+00 7.693095207214355469e+00 2.793906450271606445e+00 1.424946546554565430e+00
6.380000000000000000e+02 6.124011230468750000e+01 -4.775583267211914062e+00 3.821086287498474121e-01 1.105115604400634766e+01 3.429979324340820312e+00 -7.352436780929565430e-01
6.390000000000000000e+02 6.335416412353515625e+01 -6.720705032348632812e+00 1.732448339462280273e+00 9.374768257141113281e+00 3.332165002822875977e+00 3.261229991912841797e-01
6.400000000000000000e+02 6.180688095092773438e+01 -1.029846858978271484e+01 -5.723893642425537109e-01 7.217998027801513672e+00 1.993682503700256348e+00 1.014078855514526367e+00
6.410000000000000000e+02 6.131124877929687500e+01 -8.999203681945800781e+00 1.237388849258422852e+00 8.279735565185546875e+00 2.855137348175048828e+00 1.833174467086791992e+00
6.420000000000000000e+02 5.798053741455078125e+01 -1.093304634094238281e+01 -4.418031573295593262e-01 1.323954701423645020e+00 2.646454572677612305e-01 4.014876205474138260e-03
6.430000000000000000e+02 5.894421386718750000e+01 -1.013910007476806641e+01 -5.147818922996520996e-01 1.364879250526428223e+00 2.550292015075683594e-01 9.617948532104492188e-01
6.440000000000000000e+02 5.688159179687500000e+01 -1.021814537048339844e+01 -4.421429336071014404e-01 5.363386869430541992e-01 2.825872600078582764e-02 -8.989464044570922852e-01
6.450000000000000000e+02 5.411938858032226562e+01 -9.955549240112304688e+00 1.396739482879638672e+00 4.921097755432128906e+00 1.895351171493530273e+00 -2.865024566650390625e+00
6.460000000000000000e+02 4.912882232666015625e+01 -7.969367027282714844e+00 6.817499399185180664e-01 9.369919776916503906e+00 3.015500783920288086e+00 1.850390911102294922e+00
6.470000000000000000e+02 5.008490753173828125e+01 -5.808261871337890625e+00 2.119416147470474243e-01 1.074853992462158203e+01 3.288144588470458984e+00 -6.782406568527221680e-01
6.480000000000000000e+02 5.244910049438476562e+01 -4.965734004974365234e+00 7.047709226608276367e-01 1.449404048919677734e+01 4.559643268585205078e+00 -9.196625947952270508e-01
6.490000000000000000e+02 4.876134109497070312e+01 -2.573472261428833008e+00 3.099311590194702148e+00 1.243633651733398438e+01 4.660694599151611328e+00 -3.286463022232055664e+00
6.500000000000000000e+02 4.927278518676757812e+01 -3.697994947433471680e+00 1.058560252189636230e+00 1.128588581085205078e+01 3.703333854675292969e+00 -2.678107738494873047e+00
6.510000000000000000e+02 4.941810226440429688e+01 -2.112113475799560547e+00 5.078313350677490234e+00 1.080717182159423828e+01 4.765645503997802734e+00 -3.339873075485229492e+00
6.520000000000000000e+02 4.919768905639648438e+01 -9.468281865119934082e-01 8.007684707641601562e+00 9.682218551635742188e+00 5.306971073150634766e+00 -9.529279470443725586e-01
6.530000000000000000e+02 7.810539245605468750e+01 3.944175958633422852e+00 -1.042394563555717468e-01 7.599489688873291016e+00 2.248574972152709961e+00 -7.206771373748779297e-01
6.540000000000000000e+02 7.937835693359375000e+01 8.260774612426757812e+00 9.679328650236129761e-03 5.899182796478271484e+00 1.772658705711364746e+00 -3.015260696411132812e-01
6.550000000000000000e+02 7.205218505859375000e+01 1.383841991424560547e+01 1.054423451423645020e+00 1.361403846740722656e+01 4.400538444519042969e+00 -7.269445657730102539e-01
6.560000000000000000e+02 7.205793762207031250e+01 1.115663814544677734e+01 1.555892467498779297e+00 1.400636863708496094e+01 4.668678283691406250e+00 2.335065603256225586e+00
6.570000000000000000e+02 7.131222534179687500e+01 9.174592971801757812e+00 2.528586626052856445e+00 9.293307304382324219e+00 3.546568155288696289e+00 3.595587491989135742e+00
6.580000000000000000e+02 7.240637969970703125e+01 1.010331916809082031e+01 2.042824745178222656e+00 1.125648689270019531e+01 3.989793539047241211e+00 1.988096594810485840e+00
6.590000000000000000e+02 6.993462371826171875e+01 6.815803050994873047e+00 8.465135097503662109e-01 3.589849710464477539e+00 1.330909013748168945e+00 2.100031137466430664e+00
6.600000000000000000e+02 7.932872772216796875e+01 1.247659492492675781e+01 1.197049990296363831e-01 5.164244651794433594e+00 1.585184931755065918e+00 9.923440217971801758e-02
6.610000000000000000e+02 7.938414764404296875e+01 1.672137260437011719e+01 -3.574699163436889648e-02 6.810096263885498047e+00 2.032304763793945312e+00 3.559260070323944092e-01
6.620000000000000000e+02 7.013370513916015625e+01 1.749899101257324219e+01 -2.180718928575515747e-01 2.425278186798095703e+00 6.621619462966918945e-01 -1.063249588012695312e+00
6.630000000000000000e+02 7.168877410888671875e+01 1.522042274475097656e+01 1.238865256309509277e+00 1.137730884552001953e+01 3.784852266311645508e+00 -2.360695362091064453e+00
6.640000000000000000e+02 7.823423767089843750e+01 1.814368057250976562e+01 -1.560819596052169800e-01 7.546276092529296875e+00 2.217058181762695312e+00 7.492436766624450684e-01
6.650000000000000000e+02 7.941388702392578125e+01 2.364789772033691406e+01 -1.882605440914630890e-02 8.482743263244628906e+00 2.539175033569335938e+00 -3.898826614022254944e-02
6.660000000000000000e+02 6.823056030273437500e+01 3.080293464660644531e+01 1.054578900337219238e+00 5.152940750122070312e+00 1.862255811691284180e+00 9.898770451545715332e-01
6.670000000000000000e+02 6.348185729980468750e+01 3.084623146057128906e+01 4.001168012619018555e-01 7.385239124298095703e+00 2.335606813430786133e+00 -9.391865879297256470e-02
6.680000000000000000e+02 6.376768112182617188e+01 2.828573799133300781e+01 7.536803483963012695e-01 9.111170768737792969e+00 2.959455490112304688e+00 1.194020986557006836e+00
6.690000000000000000e+02 6.438285064697265625e+01 2.721720886230468750e+01 2.335125923156738281e+00 8.398861885070800781e+00 3.220196247100830078e+00 2.188408851623535156e+00
6.700000000000000000e+02 6.328877258300781250e+01 2.620946884155273438e+01 2.917920827865600586e+00 1.050319385528564453e+01 4.026334285736083984e+00 3.781598329544067383e+00
6.710000000000000000e+02 6.489112854003906250e+01 2.128327751159667969e+01 -1.772763609886169434e+00 2.153534650802612305e+00 1.142312958836555481e-01 3.503839731216430664e+00
6.720000000000000000e+02 6.231369018554687500e+01 2.393422889709472656e+01 -4.662669450044631958e-02 6.114596366882324219e+00 1.820390939712524414e+00 3.419607162475585938e+00
6.730000000000000000e+02 5.843960952758789062e+01 2.325980758666992188e+01 -7.759421825408935547e+00 -2.130937874317169189e-01 -2.391754627227783203e+00 -4.978429377079010010e-01
6.740000000000000000e+02 5.720384979248046875e+01 2.327612495422363281e+01 -4.973313808441162109e+00 5.399935245513916016e-01 -1.329996109008789062e+00 -6.593374013900756836e-01
6.750000000000000000e+02 5.545514297485351562e+01 2.432753372192382812e+01 -3.054824769496917725e-01 3.336495637893676758e+00 9.093039631843566895e-01 -1.869652271270751953e+00
6.760000000000000000e+02 5.463306808471679688e+01 2.532540893554687500e+01 1.839130043983459473e+00 5.843596935272216797e+00 2.304818153381347656e+00 -3.069700956344604492e+00
6.770000000000000000e+02 4.941006469726562500e+01 2.226762962341308594e+01 -4.879308938980102539e-01 2.992159843444824219e+00 7.512686252593994141e-01 -3.809201121330261230e-01
6.780000000000000000e+02 4.571513366699218750e+01 2.482606697082519531e+01 1.671558499336242676e+00 6.132710456848144531e+00 2.341280698776245117e+00 2.161841630935668945e+00
6.790000000000000000e+02 4.821408462524414062e+01 2.190761756896972656e+01 -5.436553359031677246e-01 2.887966871261596680e+00 7.032935023307800293e-01 1.312170028686523438e-01
6.800000000000000000e+02 4.505612564086914062e+01 2.362102317810058594e+01 1.114488959312438965e+00 3.849673509597778320e+00 1.489248752593994141e+00 2.162198305130004883e+00
6.810000000000000000e+02 4.598803329467773438e+01 2.199167251586914062e+01 -1.230145931243896484e+00 3.807379007339477539e+00 7.731698751449584961e-01 1.679399371147155762e+00
6.820000000000000000e+02 4.337140655517578125e+01 2.073549461364746094e+01 -1.985698223114013672e+00 2.600462675094604492e+00 1.844293773174285889e-01 1.231598973274230957e+00
6.830000000000000000e+02 4.077226257324218750e+01 2.039706993103027344e+01 -8.279051184654235840e-01 5.112271904945373535e-01 -9.500337392091751099e-02 -8.456806540489196777e-01
6.840000000000000000e+02 4.069859313964843750e+01 2.168833732604980469e+01 -3.088706970214843750e+00 -2.169351093471050262e-02 -9.331201910972595215e-01 -2.428858429193496704e-01
6.850000000000000000e+02 3.936431121826171875e+01 2.183868598937988281e+01 -1.348390698432922363e+00 6.384146809577941895e-01 -2.129928171634674072e-01 -5.943124890327453613e-01
6.860000000000000000e+02 3.945731735229492188e+01 2.032509231567382812e+01 -7.777186632156372070e-01 1.090520262718200684e+00 9.384046494960784912e-02 -1.561833024024963379e+00
6.870000000000000000e+02 3.740579223632812500e+01 1.124841785430908203e+01 1.083646535873413086e+00 6.720052957534790039e-01 5.266955494880676270e-01 -7.534704804420471191e-01
6.880000000000000000e+02 3.556851577758789062e+01 1.216703891754150391e+01 1.078013300895690918e+00 3.638114333152770996e-01 4.325474202632904053e-01 -5.428699851036071777e-01
6.890000000000000000e+02 3.902252197265625000e+01 8.790437698364257812e+00 3.336231410503387451e-01 1.051825284957885742e+00 4.156345427036285400e-01 -3.431720435619354248e-01
6.900000000000000000e+02 3.936597442626953125e+01 7.352787971496582031e+00 1.474376674741506577e-02 1.190569162368774414e+00 3.615938723087310791e-01 -1.684872806072235107e-01
6.910000000000000000e+02 3.949445724487304688e+01 5.897765636444091797e+00 7.816923409700393677e-02 1.093528032302856445e+00 3.515091836452484131e-01 -2.323621325194835663e-02
6.920000000000000000e+02 4.030598449707031250e+01 3.022737741470336914e+00 -1.162264704704284668e+00 1.264880150556564331e-01 -3.107330203056335449e-01 -1.437425971031188965e+00
6.930000000000000000e+02 4.428066253662109375e+01 2.073280811309814453e+00 2.713124155998229980e-01 2.833104133605957031e+00 9.313249588012695312e-01 -2.955238103866577148e+00
6.940000000000000000e+02 4.484851455688476562e+01 9.974203109741210938e-01 1.803345918655395508e+00 1.850556731224060059e+00 1.096170783042907715e+00 -2.852351427078247070e+00
6.950000000000000000e+02 4.852727890014648438e+01 1.168410301208496094e+00 1.684164166450500488e+00 9.678663253784179688e+00 3.408848047256469727e+00 -7.451919317245483398e-01
6.960000000000000000e+02 5.082081604003906250e+01 4.456954598426818848e-01 3.585159778594970703e+00 6.671353340148925781e+00 3.076953887939453125e+00 1.728191256523132324e+00
6.970000000000000000e+02 5.095586013793945312e+01 4.950688362121582031e+00 -4.699463367462158203e+00 6.576653718948364258e-01 -1.212539434432983398e+00 1.717208743095397949e+00
6.980000000000000000e+02 7.706813812255859375e+01 2.353391647338867188e+01 -1.818105280399322510e-01 7.557569026947021484e+00 2.212727546691894531e+00 -2.250918745994567871e-01
6.990000000000000000e+02 7.938671112060546875e+01 2.916419982910156250e+01 1.896277256309986115e-02 7.791034221649169922e+00 2.342999219894409180e+00 -3.984520211815834045e-02
7.000000000000000000e+02 6.913954925537109375e+01 3.552395629882812500e+01 -2.310893088579177856e-01 5.694356918334960938e+00 1.638980269432067871e+00 5.808749794960021973e-01
7.010000000000000000e+02 6.162981796264648438e+01 3.841968536376953125e+01 -4.487251341342926025e-01 1.957466602325439453e+00 4.526224136352539062e-01 -6.972258687019348145e-01
7.020000000000000000e+02 6.347072982788085938e+01 3.796481323242187500e+01 -7.631972432136535645e-01 3.041544437408447266e+00 6.835041642189025879e-01 -4.425616562366485596e-01
7.030000000000000000e+02 5.851416778564453125e+01 3.614390182495117188e+01 -2.251053333282470703e+00 4.546061623841524124e-03 -6.739521622657775879e-01 3.794472515583038330e-01
7.040000000000000000e+02 5.717584991455078125e+01 3.578108215332031250e+01 -1.371890783309936523e+00 8.279115557670593262e-01 -1.631937623023986816e-01 4.855120182037353516e-01
7.050000000000000000e+02 5.481176376342773438e+01 3.644247817993164062e+01 -1.163006424903869629e+00 3.357392549514770508e+00 6.583158373832702637e-01 8.316493630409240723e-01
7.060000000000000000e+02 6.223901367187500000e+01 3.680527114868164062e+01 -1.372557759284973145e+00 2.452172517776489258e+00 3.238844573497772217e-01 -8.923450112342834473e-01
7.070000000000000000e+02 6.173831176757812500e+01 3.456211471557617188e+01 -5.160996913909912109e-01 1.267158508300781250e+00 2.253176420927047729e-01 -2.685937285423278809e-01
7.080000000000000000e+02 6.259578704833984375e+01 3.343795013427734375e+01 1.737959533929824829e-01 3.096560239791870117e+00 9.811068773269653320e-01 -9.911137223243713379e-01
7.090000000000000000e+02 6.321736145019531250e+01 3.219082260131835938e+01 6.600137948989868164e-01 6.275551319122314453e+00 2.080669403076171875e+00 -9.585290551185607910e-01
7.100000000000000000e+02 7.937416839599609375e+01 3.191540908813476562e+01 2.457210607826709747e-02 7.693539142608642578e+00 2.315433502197265625e+00 1.243938133120536804e-02
7.110000000000000000e+02 7.908450317382812500e+01 3.736796188354492188e+01 -8.148488588631153107e-03 7.873218536376953125e+00 2.359521150588989258e+00 1.496429275721311569e-02
7.120000000000000000e+02 7.145608520507812500e+01 3.819505691528320312e+01 -2.845397591590881348e-01 6.078831195831298828e+00 1.738287448883056641e+00 3.429732322692871094e-01
7.130000000000000000e+02 7.688570404052734375e+01 3.794474411010742188e+01 -1.404662430286407471e-01 7.438286304473876953e+00 2.189346075057983398e+00 1.888572424650192261e-01
7.140000000000000000e+02 5.256986618041992188e+01 3.580962371826171875e+01 -9.960467219352722168e-01 4.416365623474121094e+00 1.026095628738403320e+00 1.340761482715606689e-01
7.150000000000000000e+02 4.980343246459960938e+01 3.456694412231445312e+01 -4.567581117153167725e-01 4.471593379974365234e+00 1.204450607299804688e+00 -5.429695248603820801e-01
7.160000000000000000e+02 5.354375076293945312e+01 3.082585525512695312e+01 8.166885972023010254e-01 8.451066017150878906e+00 2.780326366424560547e+00 9.161021709442138672e-01
7.170000000000000000e+02 5.413862991333007812e+01 3.293529129028320312e+01 1.011604309082031250e+00 6.101317882537841797e+00 2.133876800537109375e+00 1.787283301353454590e+00
7.180000000000000000e+02 5.359315490722656250e+01 2.956324958801269531e+01 5.025978758931159973e-02 8.475516319274902344e+00 2.557733058929443359e+00 1.310060769319534302e-01
7.190000000000000000e+02 5.359552001953125000e+01 2.832052993774414062e+01 7.199876904487609863e-01 9.220300674438476562e+00 2.982086420059204102e+00 -7.634728550910949707e-01
7.200000000000000000e+02 4.007278060913085938e+01 3.971857452392578125e+01 -1.019454300403594971e-01 1.250386476516723633e+00 3.445323407649993896e-01 -1.037541180849075317e-01
7.210000000000000000e+02 4.090826034545898438e+01 3.596334075927734375e+01 -2.088743001222610474e-01 6.511006951332092285e-01 1.326679140329360962e-01 -4.458001255989074707e-01
7.220000000000000000e+02 4.306710815429687500e+01 3.286255264282226562e+01 3.464149534702301025e-01 1.169433355331420898e+00 4.547544717788696289e-01 -7.440548539161682129e-01
7.230000000000000000e+02 4.186415863037109375e+01 3.369807815551757812e+01 -2.289896458387374878e-01 5.066846609115600586e-01 8.330850303173065186e-02 -2.952997088432312012e-01
7.240000000000000000e+02 4.505590820312500000e+01 3.102056884765625000e+01 1.024147748947143555e+00 3.364849567413330078e+00 1.316699147224426270e+00 -1.504310131072998047e+00
7.250000000000000000e+02 4.608319854736328125e+01 2.905517387390136719e+01 8.314481973648071289e-01 5.318685054779052734e+00 1.845039963722229004e+00 -1.065924525260925293e+00
7.260000000000000000e+02 4.617734146118164062e+01 2.766419029235839844e+01 4.387868046760559082e-01 5.849461078643798828e+00 1.886474370956420898e+00 -1.838292181491851807e-01
7.270000000000000000e+02 3.897963333129882812e+01 3.436842727661132812e+01 -9.620482325553894043e-01 -2.142251655459403992e-02 -2.950412333011627197e-01 -3.315540775656700134e-02
7.280000000000000000e+02 3.801604461669921875e+01 3.752259445190429688e+01 -1.474187672138214111e-01 1.012079477310180664e+00 2.593982219696044922e-01 1.732476800680160522e-01
7.290000000000000000e+02 3.577538299560546875e+01 3.327541732788085938e+01 -2.128201872110366821e-01 1.898791313171386719e+00 5.057913661003112793e-01 3.682276606559753418e-01
7.300000000000000000e+02 4.047441101074218750e+01 3.432497406005859375e+01 -8.945990800857543945e-01 1.015456393361091614e-01 -2.379160225391387939e-01 -7.539952546358108521e-02
7.310000000000000000e+02 3.414575195312500000e+01 3.678754425048828125e+01 -4.169758260250091553e-01 1.666166067123413086e+00 3.747570812702178955e-01 1.299296915531158447e-01
7.320000000000000000e+02 3.144299507141113281e+01 3.395714950561523438e+01 -6.767936050891876221e-02 1.897391676902770996e+00 5.489136576652526855e-01 -3.529157340526580811e-01
7.330000000000000000e+02 2.767497253417968750e+01 2.879358482360839844e+01 9.741868972778320312e-01 4.981239736080169678e-01 4.416932761669158936e-01 -4.711445271968841553e-01
7.340000000000000000e+02 2.958301353454589844e+01 2.917988204956054688e+01 8.921120762825012207e-01 1.107423782348632812e+00 5.998607277870178223e-01 -7.717019915580749512e-01
7.350000000000000000e+02 2.871844673156738281e+01 2.796577453613281250e+01 7.677248716354370117e-01 6.316907405853271484e-01 4.198246896266937256e-01 -6.547010540962219238e-01
7.360000000000000000e+02 2.981544876098632812e+01 2.709735298156738281e+01 8.097375631332397461e-01 1.075900197029113770e+00 5.656913518905639648e-01 -7.817714810371398926e-01
7.370000000000000000e+02 3.077966308593750000e+01 2.599707412719726562e+01 7.563001513481140137e-01 1.734381079673767090e+00 7.472043633460998535e-01 -9.334950447082519531e-01
7.380000000000000000e+02 3.375307083129882812e+01 2.423490142822265625e+01 5.599579215049743652e-01 3.275985002517700195e+00 1.150782823562622070e+00 -4.201917052268981934e-01
7.390000000000000000e+02 3.312681579589843750e+01 2.648132324218750000e+01 9.241584539413452148e-01 3.174505710601806641e+00 1.229599237442016602e+00 -5.094575285911560059e-01
7.400000000000000000e+02 3.532917022705078125e+01 2.659263801574707031e+01 7.802370786666870117e-01 5.998144626617431641e+00 2.033514499664306641e+00 -1.314262390136718750e+00
7.410000000000000000e+02 3.416945266723632812e+01 2.802256584167480469e+01 7.678345441818237305e-01 4.132347583770751953e+00 1.470054507255554199e+00 -5.185747146606445312e-01
7.420000000000000000e+02 3.569502258300781250e+01 3.069516944885253906e+01 3.521528840065002441e-01 3.449048995971679688e+00 1.140360593795776367e+00 1.031109690666198730e+00
7.430000000000000000e+02 3.539278793334960938e+01 2.950413894653320312e+01 3.362896442413330078e-01 4.629726886749267578e+00 1.489804983139038086e+00 6.053609848022460938e-01
7.440000000000000000e+02 3.590144348144531250e+01 3.183044815063476562e+01 2.029092758893966675e-01 2.387728929519653320e+00 7.771914601325988770e-01 7.242920398712158203e-01
7.450000000000000000e+02 2.499213600158691406e+01 3.861278915405273438e+01 -7.274357974529266357e-02 1.003554224967956543e+00 2.792432010173797607e-01 -1.535107940435409546e-01
7.460000000000000000e+02 2.233320808410644531e+01 4.141951751708984375e+01 -1.134371384978294373e-02 7.082798480987548828e-01 2.090808451175689697e-01 -2.508495934307575226e-02
7.470000000000000000e+02 2.568810653686523438e+01 2.914348793029785156e+01 1.097873926162719727e+00 4.638279378414154053e-01 4.685105681419372559e-01 1.582246571779251099e-01
7.480000000000000000e+02 2.446845626831054688e+01 3.132415199279785156e+01 3.591410815715789795e-01 7.910994887351989746e-01 3.450721800327301025e-01 -6.358002871274948120e-02
7.490000000000000000e+02 2.860472679138183594e+01 3.005050277709960938e+01 8.246716856956481934e-01 9.371876716613769531e-01 5.285578370094299316e-01 -5.201537013053894043e-01
7.500000000000000000e+02 1.886299514770507812e+01 3.911606216430664062e+01 8.239863067865371704e-02 3.265783190727233887e-01 1.226930841803550720e-01 -3.691459074616432190e-02
7.510000000000000000e+02 1.602026176452636719e+01 3.585057449340820312e+01 7.390030473470687866e-02 8.400493301451206207e-03 2.469023875892162323e-02 3.687357157468795776e-02
7.520000000000000000e+02 1.376218891143798828e+01 3.491603088378906250e+01 2.765838243067264557e-02 1.032888307236135006e-03 8.607381023466587067e-03 6.400898844003677368e-02
7.530000000000000000e+02 1.653643035888671875e+01 3.384062957763671875e+01 -9.033960849046707153e-02 -1.160060986876487732e-02 -3.058206662535667419e-02 4.354666173458099365e-02
7.540000000000000000e+02 1.876086235046386719e+01 3.193261718750000000e+01 -3.893309086561203003e-02 2.365208789706230164e-02 -4.584300797432661057e-03 1.761095412075519562e-02
7.550000000000000000e+02 1.987158203125000000e+01 2.878819274902343750e+01 1.951006241142749786e-02 3.068510591983795166e-01 9.790833294391632080e-02 1.059946045279502869e-01
7.560000000000000000e+02 2.453673553466796875e+01 2.867247200012207031e+01 7.972984313964843750e-01 7.836121916770935059e-01 4.742731750011444092e-01 5.017556548118591309e-01
7.570000000000000000e+02 2.065167045593261719e+01 2.714941406250000000e+01 3.215608596801757812e-01 6.011905670166015625e-01 2.768254280090332031e-01 4.452430903911590576e-01
7.580000000000000000e+02 1.991463088989257812e+01 2.400488281250000000e+01 4.522852301597595215e-01 6.196312904357910156e-01 3.215749561786651611e-01 2.575776875019073486e-01
7.590000000000000000e+02 1.763680076599121094e+01 2.425214385986328125e+01 8.741114139556884766e-01 4.528245925903320312e-01 3.980807960033416748e-01 5.570214390754699707e-01
7.600000000000000000e+02 1.765175247192382812e+01 1.908560180664062500e+01 9.807404130697250366e-02 -1.585300862789154053e-01 -1.813681237399578094e-02 1.847372651100158691e-01
7.610000000000000000e+02 1.476947402954101562e+01 1.851826286315917969e+01 5.687592029571533203e-01 1.409146338701248169e-01 2.129021584987640381e-01 2.905442118644714355e-01
7.620000000000000000e+02 1.627080726623535156e+01 1.933479690551757812e+01 2.653164267539978027e-01 -7.297603785991668701e-02 5.770211666822433472e-02 3.600946366786956787e-01
7.630000000000000000e+02 1.756923866271972656e+01 2.175597190856933594e+01 5.043046474456787109e-01 2.481787055730819702e-01 2.257449924945831299e-01 2.494699060916900635e-01
7.640000000000000000e+02 1.993365287780761719e+01 1.712186622619628906e+01 -1.878506839275360107e-01 -9.470061957836151123e-02 -8.476538956165313721e-02 1.218818277120590210e-01
7.650000000000000000e+02 2.257437705993652344e+01 1.754337310791015625e+01 2.062821239233016968e-01 7.270300984382629395e-01 2.799936532974243164e-01 -2.890377640724182129e-01
7.660000000000000000e+02 2.424356842041015625e+01 1.539788341522216797e+01 1.064835563302040100e-01 4.525779485702514648e-01 1.677184551954269409e-01 -2.051151543855667114e-01
7.670000000000000000e+02 2.024661254882812500e+01 1.003172874450683594e+01 3.188968896865844727e-01 4.939924776554107666e-01 2.438668161630630493e-01 3.360330760478973389e-01
7.680000000000000000e+02 2.024862480163574219e+01 8.765188217163085938e+00 5.509094595909118652e-01 3.836252987384796143e-01 2.803604304790496826e-01 3.807301521301269531e-01
7.690000000000000000e+02 1.909785079956054688e+01 8.306504249572753906e+00 7.456406354904174805e-01 5.963996648788452148e-01 4.026120901107788086e-01 5.956341028213500977e-01
7.700000000000000000e+02 1.798415374755859375e+01 7.516321182250976562e+00 8.872739672660827637e-01 4.586709439754486084e-01 4.037834703922271729e-01 6.078012585639953613e-01
7.710000000000000000e+02 2.022492599487304688e+01 3.108968496322631836e+00 -1.191577076911926270e+00 -1.557304710149765015e-01 -4.041922688484191895e-01 2.107239514589309692e-01
7.720000000000000000e+02 2.176532363891601562e+01 2.658739566802978516e+00 -1.287976145744323730e+00 -1.221185624599456787e-01 -4.230284094810485840e-01 2.881244421005249023e-01
7.730000000000000000e+02 2.634381866455078125e+01 1.499437332153320312e+00 -1.302075862884521484e+00 -8.410855196416378021e-03 -3.931460082530975342e-01 3.245312273502349854e-01
7.740000000000000000e+02 2.790176963806152344e+01 1.115860342979431152e+00 -1.346353888511657715e+00 1.434181481599807739e-01 -3.608807027339935303e-01 2.031172215938568115e-01
7.750000000000000000e+02 3.041322898864746094e+01 2.007977247238159180e+00 -1.080566644668579102e+00 5.309441089630126953e-01 -1.648867428302764893e-01 -1.715066097676753998e-02
7.760000000000000000e+02 3.349522018432617188e+01 1.469152450561523438e+00 -2.644406795501708984e+00 -9.612606465816497803e-02 -8.221598267555236816e-01 -2.630202174186706543e-01
7.770000000000000000e+02 3.286840057373046875e+01 1.236471295356750488e+00 -2.064505577087402344e+00 1.710375249385833740e-01 -5.680404305458068848e-01 -1.685159653425216675e-01
7.780000000000000000e+02 1.081266975402832031e+01 3.572737503051757812e+01 2.160307914018630981e-01 3.404051065444946289e-02 7.502139359712600708e-02 9.495347738265991211e-02
7.790000000000000000e+02 8.786393165588378906e+00 3.875842285156250000e+01 -3.432700037956237793e-02 -7.500383257865905762e-02 -3.279925137758255005e-02 2.420834824442863464e-02
7.800000000000000000e+02 8.278233528137207031e+00 3.485061645507812500e+01 3.051748573780059814e-01 1.072510406374931335e-01 1.237277686595916748e-01 1.194727346301078796e-01
7.810000000000000000e+02 2.024751424789428711e+00 4.168855285644531250e+01 -8.524131029844284058e-02 -9.797393083572387695e-01 -3.194941878318786621e-01 -2.409882843494415283e-02
7.820000000000000000e+02 6.702128648757934570e-01 3.325399780273437500e+01 2.513889037072658539e-02 -1.217280030250549316e+00 -3.576423525810241699e-01 2.194864861667156219e-02
7.830000000000000000e+02 2.955618381500244141e+00 3.260385513305664062e+01 6.946929544210433960e-02 -8.560789823532104492e-01 -2.359829097986221313e-01 8.001874387264251709e-02
7.840000000000000000e+02 7.467353820800781250e+00 3.380373001098632812e+01 1.976594924926757812e-01 8.249134570360183716e-02 8.404525369405746460e-02 1.609406769275665283e-01
7.850000000000000000e+02 6.693366527557373047e+00 3.269312667846679688e+01 1.335352212190628052e-01 -6.505522876977920532e-02 2.054399810731410980e-02 8.642622083425521851e-02
7.860000000000000000e+02 4.998181343078613281e+00 3.058431625366210938e+01 1.733917556703090668e-02 -5.711942315101623535e-01 -1.661565154790878296e-01 6.901998072862625122e-02
7.870000000000000000e+02 5.717720985412597656e+00 2.810984992980957031e+01 -4.634251073002815247e-02 -8.092975616455078125e-01 -2.566920220851898193e-01 4.249819740653038025e-02
7.880000000000000000e+02 2.830241441726684570e+00 2.578428649902343750e+01 -5.543284863233566284e-02 -7.604419589042663574e-01 -2.447624504566192627e-01 3.797271475195884705e-02
7.890000000000000000e+02 5.324446558952331543e-01 2.480105590820312500e+01 1.854403963079676032e-04 -8.665421605110168457e-01 -2.599070370197296143e-01 -4.351864103227853775e-03
7.900000000000000000e+02 1.666673421859741211e+00 2.208995819091796875e+01 2.069704933091998100e-03 -8.114373683929443359e-01 -2.428102940320968628e-01 -1.563893631100654602e-02
7.910000000000000000e+02 1.808838248252868652e+00 1.797289085388183594e+01 4.114215448498725891e-02 -7.275110483169555664e-01 -2.059106677770614624e-01 7.184214890003204346e-02
7.920000000000000000e+02 1.854451775550842285e+00 1.084166240692138672e+01 -2.312050387263298035e-02 -1.928279399871826172e-01 -6.478453427553176880e-02 1.831521540880203247e-01
7.930000000000000000e+02 2.446347713470458984e+00 4.192644596099853516e+00 -2.860308066010475159e-02 2.429964952170848846e-02 -1.291029271669685841e-03 -3.988544270396232605e-02
7.940000000000000000e+02 1.015394020080566406e+01 1.956045508384704590e+00 1.302251312881708145e-02 -4.727935791015625000e-02 -1.027705334126949310e-02 5.003781244158744812e-02
7.950000000000000000e+02 1.247416400909423828e+01 7.413158416748046875e+00 -1.129002213478088379e+00 -7.106517553329467773e-01 -5.518962144851684570e-01 7.552989721298217773e-01
7.960000000000000000e+02 1.083743000030517578e+01 2.080864429473876953e+00 -3.677379339933395386e-02 -5.628252774477005005e-02 -2.791689708828926086e-02 9.206923842430114746e-02
7.970000000000000000e+02 1.152462863922119141e+01 2.219340801239013672e+00 -9.705500304698944092e-02 -4.561943188309669495e-02 -4.280233010649681091e-02 1.306462287902832031e-01
7.980000000000000000e+02 1.369438171386718750e+01 2.741607427597045898e+00 -4.430481195449829102e-01 7.935750181786715984e-04 -1.326763629913330078e-01 3.722335696220397949e-01
7.990000000000000000e+02 1.685331726074218750e+01 3.210560798645019531e+00 -1.006242156028747559e+00 6.058184802532196045e-02 -2.836981117725372314e-01 5.025785565376281738e-01
8.000000000000000000e+02 1.768007278442382812e+01 3.324145793914794922e+00 -1.048033833503723145e+00 -1.645188406109809875e-02 -3.193457126617431641e-01 4.623332023620605469e-01
8.010000000000000000e+02 3.396394729614257812e+01 1.735796809196472168e+00 -3.634618759155273438e+00 -3.720913231372833252e-01 -1.202013015747070312e+00 6.170180439949035645e-01
8.020000000000000000e+02 2.914922332763671875e+01 6.799006462097167969e+00 1.744224131107330322e-01 1.407191872596740723e+00 4.744842946529388428e-01 -1.844247132539749146e-01
8.030000000000000000e+02 2.960970115661621094e+01 9.289655685424804688e+00 1.891184151172637939e-01 9.093900918960571289e-01 3.295525610446929932e-01 2.885285317897796631e-01
8.040000000000000000e+02 3.002285003662109375e+01 1.041374683380126953e+01 2.556936442852020264e-01 6.836720108985900879e-01 2.818096876144409180e-01 3.630343377590179443e-01
8.050000000000000000e+02 2.898813629150390625e+01 1.279589939117431641e+01 2.930246889591217041e-01 3.526917397975921631e-01 1.937149316072463989e-01 1.728567779064178467e-01
8.060000000000000000e+02 2.985505294799804688e+01 1.542588710784912109e+01 3.309612870216369629e-01 1.943180710077285767e-01 1.575838178396224976e-01 2.088088542222976685e-01
8.070000000000000000e+02 2.998156547546386719e+01 1.428856849670410156e+01 3.479027152061462402e-01 3.466792702674865723e-01 2.083745896816253662e-01 2.820317149162292480e-01
8.080000000000000000e+02 2.844062995910644531e+01 1.518688678741455078e+01 2.252710014581680298e-01 4.554981365799903870e-02 8.124624192714691162e-02 5.178508907556533813e-02
8.090000000000000000e+02 2.703087234497070312e+01 1.526807403564453125e+01 2.247523367404937744e-01 6.399109214544296265e-02 8.662302792072296143e-02 -6.937602162361145020e-02
8.100000000000000000e+02 2.465076255798339844e+01 1.649093818664550781e+01 3.026457428932189941e-01 4.028783440589904785e-01 2.116572409868240356e-01 -3.246878981590270996e-01
8.110000000000000000e+02 2.243851089477539062e+01 1.617747497558593750e+01 -7.657060027122497559e-02 4.100051224231719971e-01 1.000303551554679871e-01 -6.683309376239776611e-02
8.120000000000000000e+02 2.369983100891113281e+01 1.725977706909179688e+01 3.336837291717529297e-01 6.410586237907409668e-01 2.924227118492126465e-01 -4.301955997943878174e-01
8.130000000000000000e+02 1.870677757263183594e+01 1.731083679199218750e+01 -3.877918124198913574e-01 -3.039811551570892334e-01 -2.075318992137908936e-01 2.836502194404602051e-01
8.140000000000000000e+02 2.219236755371093750e+01 2.154660034179687500e+01 6.855676323175430298e-02 7.507035136222839355e-01 2.457780838012695312e-01 -4.440028965473175049e-02
8.150000000000000000e+02 2.324765205383300781e+01 2.815769577026367188e+01 5.141562223434448242e-01 8.181052207946777344e-01 3.996784090995788574e-01 4.759085476398468018e-01
8.160000000000000000e+02 2.330409049987792969e+01 2.674795532226562500e+01 4.337653219699859619e-01 9.211001396179199219e-01 4.064596295356750488e-01 5.445272326469421387e-01
8.170000000000000000e+02 3.310387802124023438e+01 1.234550666809082031e+01 3.114478588104248047e-01 8.211610466241836548e-02 1.180691942572593689e-01 3.931701555848121643e-02
8.180000000000000000e+02 3.873088836669921875e+01 3.482695579528808594e+00 7.865477204322814941e-01 7.839598506689071655e-02 2.594830989837646484e-01 2.213492542505264282e-01
8.190000000000000000e+02 3.822313690185546875e+01 3.283396244049072266e+00 1.551991701126098633e+00 1.134490847587585449e+00 8.059447407722473145e-01 1.244377374649047852e+00
8.200000000000000000e+02 4.763807678222656250e+01 -6.345557689666748047e+00 -2.464709520339965820e+00 8.059544563293457031e+00 1.678450345993041992e+00 4.244002401828765869e-01
8.210000000000000000e+02 4.710173797607421875e+01 -2.840567827224731445e+00 1.677165865898132324e+00 8.034868240356445312e+00 2.913610219955444336e+00 1.339111685752868652e+00
8.220000000000000000e+02 4.262847900390625000e+01 -2.137565612792968750e+00 1.309399485588073730e+00 -1.101877212524414062e+00 6.225667893886566162e-02 1.553519010543823242e+00
8.230000000000000000e+02 4.137497711181640625e+01 -2.203151464462280273e+00 1.458460927009582520e+00 3.727483749389648438e-01 5.493627786636352539e-01 1.520489335060119629e+00
8.240000000000000000e+02 4.057065963745117188e+01 -1.343768954277038574e+00 -5.693268775939941406e-02 4.245050251483917236e-01 1.102717071771621704e-01 7.613611817359924316e-01
8.250000000000000000e+02 3.872808837890625000e+01 -3.653605580329895020e-01 -1.383331894874572754e+00 5.807883143424987793e-01 -2.407630831003189087e-01 1.146705821156501770e-01
8.260000000000000000e+02 3.647407913208007812e+01 -1.370663166046142578e+00 -7.808337807655334473e-01 3.205263316631317139e-01 -1.380922347307205200e-01 -4.236740469932556152e-01
8.270000000000000000e+02 3.425944900512695312e+01 -2.170227766036987305e+00 -5.588681697845458984e-01 -4.377020001411437988e-01 -2.989710569381713867e-01 -5.014812350273132324e-01
8.280000000000000000e+02 2.994142723083496094e+01 -5.469630241394042969e+00 2.222561277449131012e-03 -7.756993770599365234e-01 -2.320430427789688110e-01 -2.161636054515838623e-01
8.290000000000000000e+02 2.982187652587890625e+01 -7.387316703796386719e+00 -9.532664902508258820e-03 -9.446194171905517578e-01 -2.862456440925598145e-01 5.476169660687446594e-02
8.300000000000000000e+02 3.052370262145996094e+01 -6.538486480712890625e+00 2.781518995761871338e-01 -6.546979546546936035e-01 -1.129638180136680603e-01 1.383334118872880936e-02
8.310000000000000000e+02 3.459023284912109375e+01 -8.515172958374023438e+00 4.927847683429718018e-01 6.634408235549926758e-01 3.468676805496215820e-01 7.688310146331787109e-01
8.320000000000000000e+02 2.859461402893066406e+01 -1.101340961456298828e+01 -3.859633505344390869e-01 -1.185602992773056030e-01 -1.513570994138717651e-01 -1.949955821037292480e-01
8.330000000000000000e+02 2.867141914367675781e+01 -1.478765487670898438e+01 -5.812058448791503906e-01 6.880654692649841309e-01 3.205789998173713684e-02 1.472955495119094849e-01
8.340000000000000000e+02 2.730840873718261719e+01 -1.317451477050781250e+01 -1.169158816337585449e+00 -1.429203338921070099e-02 -3.550352454185485840e-01 -3.095126450061798096e-01
8.350000000000000000e+02 2.474152183532714844e+01 -1.353481388092041016e+01 -1.738218426704406738e+00 -2.805931270122528076e-01 -6.056435108184814453e-01 -5.722114443778991699e-01
8.360000000000000000e+02 2.217743873596191406e+01 -1.391754913330078125e+01 -1.210229277610778809e+00 -1.125848144292831421e-01 -3.968442380428314209e-01 -1.095650717616081238e-01
8.370000000000000000e+02 2.104167175292968750e+01 -1.425016212463378906e+01 -7.095197439193725586e-01 -6.588815897703170776e-02 -2.326223701238632202e-01 -1.674723923206329346e-01
8.380000000000000000e+02 2.028388023376464844e+01 -1.298655319213867188e+01 -3.988505303859710693e-01 -3.330406919121742249e-02 -1.296463906764984131e-01 9.075407683849334717e-02
8.390000000000000000e+02 1.842806625366210938e+01 -1.097649478912353516e+01 -2.418602257966995239e-02 1.263145953416824341e-01 3.063857182860374451e-02 -1.072802580893039703e-02
8.400000000000000000e+02 1.937147140502929688e+01 -1.199845123291015625e+01 -9.171199053525924683e-02 -3.976730629801750183e-03 -2.870661579072475433e-02 3.455489128828048706e-02
8.410000000000000000e+02 1.850807189941406250e+01 -1.282332706451416016e+01 -2.099824249744415283e-01 1.665792018175125122e-01 -1.302096713334321976e-02 3.567351493984460831e-03
8.420000000000000000e+02 1.790481948852539062e+01 -1.662072563171386719e+01 -6.838347762823104858e-03 1.079649105668067932e-02 1.187442918308079243e-03 -4.341476857662200928e-01
8.430000000000000000e+02 2.220798492431640625e+01 -2.600662612915039062e+01 3.176263272762298584e-01 1.917922049760818481e-01 1.528255641460418701e-01 -8.786423504352569580e-02
8.440000000000000000e+02 2.263578033447265625e+01 -1.531407737731933594e+01 -5.907835960388183594e-01 -2.536160349845886230e-01 -2.533198893070220947e-01 -5.001688003540039062e-01
8.450000000000000000e+02 2.343471145629882812e+01 -1.383125591278076172e+01 -1.749392986297607422e+00 -1.779933124780654907e-01 -5.782158970832824707e-01 -3.799624741077423096e-01
8.460000000000000000e+02 2.966103935241699219e+01 -1.846814537048339844e+01 4.716958701610565186e-01 2.059972047805786133e+00 7.595003843307495117e-01 9.117344021797180176e-01
8.470000000000000000e+02 2.921610069274902344e+01 -1.971802520751953125e+01 3.942416906356811523e-01 2.338527441024780273e+00 8.198307752609252930e-01 6.722451448440551758e-01
8.480000000000000000e+02 2.754278755187988281e+01 -2.190675926208496094e+01 4.251845777034759521e-01 1.376114249229431152e+00 5.403896570205688477e-01 9.833487868309020996e-02
8.490000000000000000e+02 2.878972625732421875e+01 -2.232212066650390625e+01 2.342442572116851807e-01 2.202328681945800781e+00 7.309718728065490723e-01 -1.141560822725296021e-01
8.500000000000000000e+02 2.917261314392089844e+01 -3.938609361648559570e+00 3.507690429687500000e-01 5.118520259857177734e-01 2.587863206863403320e-01 -1.574510186910629272e-01
8.510000000000000000e+02 1.578681755065917969e+01 -7.812291979789733887e-01 -3.438545763492584229e-01 -2.472985386848449707e-01 -1.773459315299987793e-01 -1.193231940269470215e-01
8.520000000000000000e+02 1.210634231567382812e+01 -1.470621466636657715e+00 -2.427462786436080933e-01 8.462302386760711670e-02 -4.743697494268417358e-02 -1.115347966551780701e-01
8.530000000000000000e+02 5.250428771972656250e+01 -1.552058696746826172e+01 -2.777509450912475586e+00 1.440898180007934570e+00 -4.009833931922912598e-01 -2.008705615997314453e+00
8.540000000000000000e+02 5.442667770385742188e+01 -1.730650901794433594e+01 1.621974349021911621e+00 6.622685432434082031e+00 2.473397970199584961e+00 -2.675794363021850586e+00
8.550000000000000000e+02 5.424946594238281250e+01 -1.552976894378662109e+01 -1.561622023582458496e+00 5.700947284698486328e+00 1.241797566413879395e+00 -3.298985481262207031e+00
8.560000000000000000e+02 5.713536834716796875e+01 -1.825824165344238281e+01 1.312696814537048340e+00 7.208082199096679688e+00 2.556233644485473633e+00 -1.826304346323013306e-01
8.570000000000000000e+02 6.465086364746093750e+01 -2.019083023071289062e+01 3.484748005867004395e-01 9.594347953796386719e+00 2.982846736907958984e+00 -2.027209997177124023e-01
8.580000000000000000e+02 6.452234649658203125e+01 -1.760138702392578125e+01 -3.293418884277343750e-01 6.196627616882324219e+00 1.760185718536376953e+00 8.084429800510406494e-02
8.590000000000000000e+02 6.326025009155273438e+01 -1.802016639709472656e+01 -5.398859083652496338e-02 6.807440757751464844e+00 2.026035547256469727e+00 -5.520032048225402832e-01
8.600000000000000000e+02 6.679177856445312500e+01 -1.040114402770996094e+01 1.535194396972656250e+00 3.640070676803588867e+00 1.552579522132873535e+00 -2.114146471023559570e+00
8.610000000000000000e+02 6.546042633056640625e+01 -1.074222183227539062e+01 3.931042551994323730e-02 6.550714969635009766e+00 1.977007627487182617e+00 -1.235381126403808594e+00
8.620000000000000000e+02 5.568947982788085938e+01 -1.793780899047851562e+01 1.489367127418518066e+00 8.108668327331542969e+00 2.879410743713378906e+00 -1.629907727241516113e+00
8.630000000000000000e+02 5.549456405639648438e+01 -2.054681015014648438e+01 5.927117466926574707e-01 1.163857269287109375e+01 3.669385194778442383e+00 -4.560697376728057861e-01
8.640000000000000000e+02 5.785265731811523438e+01 -2.464769744873046875e+01 -4.033835530281066895e-01 5.966583728790283203e+00 1.668960094451904297e+00 9.141644835472106934e-01
8.650000000000000000e+02 5.689438247680664062e+01 -2.189962005615234375e+01 2.351282119750976562e+00 7.489755630493164062e+00 2.952311277389526367e+00 8.721647858619689941e-01
8.660000000000000000e+02 5.475209045410156250e+01 -2.596671867370605469e+01 -3.017270803451538086e+00 7.370654582977294922e+00 1.306015133857727051e+00 2.065699338912963867e+00
8.670000000000000000e+02 5.558592605590820312e+01 -2.660282707214355469e+01 -1.701658844947814941e+00 7.434010028839111328e+00 1.719705462455749512e+00 2.206395387649536133e+00
8.680000000000000000e+02 5.824750137329101562e+01 -2.802378273010253906e+01 1.055172562599182129e+00 4.770352363586425781e+00 1.747657418251037598e+00 1.747023224830627441e+00
8.690000000000000000e+02 5.734794235229492188e+01 -2.909676170349121094e+01 1.109167933464050293e+00 7.134789466857910156e+00 2.473187208175659180e+00 3.158696174621582031e+00
8.700000000000000000e+02 5.318494033813476562e+01 -2.592144012451171875e+01 -2.859295606613159180e+00 2.358337640762329102e+00 -1.502873301506042480e-01 1.503727555274963379e+00
8.710000000000000000e+02 4.673862457275390625e+01 -2.843677139282226562e+01 -8.978744596242904663e-02 1.673081755638122559e+00 4.749882817268371582e-01 -1.507632970809936523e+00
8.720000000000000000e+02 4.963762283325195312e+01 -2.568156242370605469e+01 -2.838013887405395508e+00 1.491911768913269043e+00 -4.038306176662445068e-01 -1.250652313232421875e+00
8.730000000000000000e+02 4.891025543212890625e+01 -2.444327163696289062e+01 -1.475584983825683594e+00 1.740146040916442871e+00 7.936832308769226074e-02 -7.855644822120666504e-01
8.740000000000000000e+02 4.382149124145507812e+01 -2.302656745910644531e+01 1.337330460548400879e+00 3.194523572921752930e+00 1.359556198120117188e+00 1.956488847732543945e+00
8.750000000000000000e+02 4.700047302246093750e+01 -2.218810653686523438e+01 1.626883149147033691e+00 7.883666038513183594e+00 2.853164672851562500e+00 -1.626842141151428223e+00
8.760000000000000000e+02 4.494023132324218750e+01 -2.763624954223632812e+01 -1.925035834312438965e+00 6.087316274642944336e-01 -3.948912918567657471e-01 -8.136530965566635132e-02
8.770000000000000000e+02 4.597792434692382812e+01 -2.737168502807617188e+01 -1.484428644180297852e+00 1.732996106147766113e+00 7.457024604082107544e-02 -9.689849019050598145e-01
8.780000000000000000e+02 4.776477432250976562e+01 -2.928246116638183594e+01 1.828102350234985352e+00 2.825044155120849609e+00 1.395943999290466309e+00 -2.336674928665161133e+00
8.790000000000000000e+02 4.929450988769531250e+01 -3.155127906799316406e+01 1.499099493026733398e+00 7.245047569274902344e+00 2.623244047164916992e+00 -1.948511838912963867e+00
8.800000000000000000e+02 4.958982467651367188e+01 -3.274948501586914062e+01 6.055909991264343262e-01 7.593436717987060547e+00 2.459708213806152344e+00 -1.443589925765991211e-01
8.810000000000000000e+02 5.024903488159179688e+01 -3.370412826538085938e+01 1.430779933929443359e+00 6.846920490264892578e+00 2.483309984207153320e+00 7.817095518112182617e-01
8.820000000000000000e+02 4.663817214965820312e+01 -2.069769859313964844e+01 1.385510325431823730e+00 1.110481071472167969e+01 3.747096300125122070e+00 3.835480213165283203e-01
8.830000000000000000e+02 4.480707550048828125e+01 -1.687694168090820312e+01 -3.602629303932189941e-01 5.037388801574707031e+00 1.403137683868408203e+00 1.687247157096862793e+00
8.840000000000000000e+02 3.989471817016601562e+01 -1.633873939514160156e+01 -4.483448266983032227e-01 3.809533715248107910e-01 -2.021743543446063995e-02 -4.154041111469268799e-01
8.850000000000000000e+02 4.740772247314453125e+01 -1.662805747985839844e+01 -1.735073685646057129e+00 7.030658245086669922e+00 1.588675379753112793e+00 2.704726696014404297e+00
8.860000000000000000e+02 4.888389205932617188e+01 -1.662165832519531250e+01 -2.585591793060302734e+00 2.559916257858276367e+00 -7.702629547566175461e-03 1.283516526222229004e+00
8.870000000000000000e+02 5.012370681762695312e+01 -1.627222633361816406e+01 -5.492809772491455078e+00 1.238215491175651550e-01 -1.610696434974670410e+00 -7.301722764968872070e-01
8.880000000000000000e+02 7.384167480468750000e+01 -2.203211021423339844e+01 6.778535842895507812e-01 1.320103645324707031e+01 4.163667201995849609e+00 3.449120223522186279e-01
8.890000000000000000e+02 7.938525390625000000e+01 -2.641834640502929688e+01 6.370983901433646679e-04 7.399008274078369141e+00 2.219893455505371094e+00 -2.007115632295608521e-01
8.900000000000000000e+02 7.143875885009765625e+01 -2.622912597656250000e+01 -1.963073849678039551e+00 1.669999361038208008e+00 -8.792235702276229858e-02 8.392629027366638184e-01
8.910000000000000000e+02 7.017661285400390625e+01 -2.655460929870605469e+01 -3.764487504959106445e+00 8.075141161680221558e-02 -1.105120778083801270e+00 8.249344676733016968e-02
8.920000000000000000e+02 6.901540374755859375e+01 -2.703379631042480469e+01 -1.964106559753417969e+00 6.816818118095397949e-01 -3.847274482250213623e-01 -5.273290872573852539e-01
8.930000000000000000e+02 6.712528228759765625e+01 -2.530929756164550781e+01 8.501025438308715820e-01 4.222479343414306641e+00 1.521774530410766602e+00 -2.286965370178222656e+00
8.940000000000000000e+02 6.351055526733398438e+01 -2.763316917419433594e+01 7.323806285858154297e-01 4.073653697967529297e+00 1.441810250282287598e+00 -2.351727962493896484e+00
8.950000000000000000e+02 6.569522094726562500e+01 -2.886856269836425781e+01 1.945822000503540039e+00 9.706645011901855469e+00 3.495740175247192383e+00 -3.517200946807861328e+00
8.960000000000000000e+02 6.570436096191406250e+01 -3.029041862487792969e+01 2.945008277893066406e+00 1.239163875579833984e+01 4.600994110107421875e+00 -4.108952045440673828e+00
8.970000000000000000e+02 6.604650115966796875e+01 -3.299831390380859375e+01 4.274758994579315186e-01 9.266142845153808594e+00 2.908085823059082031e+00 -8.485382199287414551e-01
8.980000000000000000e+02 6.613141632080078125e+01 -3.435126495361328125e+01 4.585483670234680176e-01 7.895640850067138672e+00 2.506256818771362305e+00 -1.092529669404029846e-01
8.990000000000000000e+02 6.518857574462890625e+01 -3.636713409423828125e+01 2.073185443878173828e-01 4.218143939971923828e+00 1.327638745307922363e+00 5.714288353919982910e-01
9.000000000000000000e+02 6.730446624755859375e+01 -4.147452163696289062e+01 -1.567106366157531738e+00 4.587004184722900391e+00 9.059693217277526855e-01 -5.982581526041030884e-02
9.010000000000000000e+02 6.581700134277343750e+01 -3.777317047119140625e+01 -2.311901330947875977e+00 4.981495857238769531e+00 8.008783459663391113e-01 -2.819621376693248749e-02
9.020000000000000000e+02 6.829216766357421875e+01 -2.870092201232910156e+01 1.254472255706787109e+00 3.394591808319091797e+00 1.394719243049621582e+00 -1.753259062767028809e+00
9.030000000000000000e+02 6.116845321655273438e+01 -2.650676536560058594e+01 -5.413693904876708984e+00 -5.877777338027954102e-01 -1.800441503524780273e+00 -3.411630392074584961e-01
9.040000000000000000e+02 6.463952636718750000e+01 -2.166132164001464844e+01 2.135251998901367188e+00 1.204870700836181641e+01 4.255187988281250000e+00 -2.477316856384277344e+00
9.050000000000000000e+02 6.706708526611328125e+01 -1.630079078674316406e+01 -2.948849201202392578e+00 1.840016841888427734e-01 -8.294543027877807617e-01 -3.589922487735748291e-01
9.060000000000000000e+02 6.954112243652343750e+01 -1.548362541198730469e+01 -1.022590994834899902e+00 1.607158482074737549e-01 -2.585625350475311279e-01 -1.307376623153686523e+00
9.070000000000000000e+02 4.683635711669921875e+01 -2.794595956802368164e+00 2.371823787689208984e+00 6.134801387786865234e+00 2.551987648010253906e+00 1.648360252380371094e+00
9.080000000000000000e+02 4.768137741088867188e+01 -9.827110290527343750e+00 1.570677995681762695e+00 1.437908363342285156e+01 4.784928321838378906e+00 2.314008235931396484e+00
9.090000000000000000e+02 4.534804916381835938e+01 -1.291895008087158203e+01 1.106287956237792969e+00 3.340654611587524414e+00 1.334082722663879395e+00 2.710216522216796875e+00
9.100000000000000000e+02 4.287300491333007812e+01 -1.377541828155517578e+01 -3.861013889312744141e+00 -7.498192042112350464e-02 -1.180798768997192383e+00 3.253796398639678955e-01
9.110000000000000000e+02 4.054338073730468750e+01 -1.979018974304199219e+01 4.412907958030700684e-01 1.428001523017883301e+00 5.607876777648925781e-01 3.457130789756774902e-01
9.120000000000000000e+02 4.032081222534179688e+01 -2.473191642761230469e+01 1.744977355003356934e+00 5.343221664428710938e+00 2.126459836959838867e+00 2.509844064712524414e+00
9.130000000000000000e+02 4.176948928833007812e+01 -1.436526966094970703e+01 -2.700984001159667969e+00 -2.185034453868865967e-01 -8.758462071418762207e-01 1.450047641992568970e-01
9.140000000000000000e+02 4.080437088012695312e+01 -1.339671897888183594e+01 -3.140474557876586914e+00 -4.562759697437286377e-01 -1.079025149345397949e+00 5.457334518432617188e-01
9.150000000000000000e+02 3.750920104980468750e+01 -1.200002288818359375e+01 -9.866852164268493652e-01 8.866734504699707031e-01 -3.000352345407009125e-02 1.682650446891784668e-01
9.160000000000000000e+02 3.607857894897460938e+01 -7.559854507446289062e+00 9.747207760810852051e-01 1.671536803245544434e+00 7.938772439956665039e-01 7.166798114776611328e-01
9.170000000000000000e+02 3.756336975097656250e+01 -6.152178764343261719e+00 1.281265854835510254e+00 3.832202911376953125e+00 1.534040570259094238e+00 1.860810041427612305e+00
9.180000000000000000e+02 3.518704605102539062e+01 -2.733275175094604492e+00 2.571068238466978073e-03 -8.417573571205139160e-02 -2.448140084743499756e-02 -2.844496071338653564e-01
9.190000000000000000e+02 3.718368530273437500e+01 -1.051125526428222656e+00 -9.959741234779357910e-01 3.456633687019348145e-01 -1.950932294130325317e-01 -1.519609540700912476e-01
9.200000000000000000e+02 6.240178680419921875e+01 -2.687051391601562500e+01 -3.344389915466308594e+00 1.454953670501708984e+00 -5.668308734893798828e-01 -4.158510267734527588e-01
9.210000000000000000e+02 6.605627441406250000e+01 -2.437014579772949219e+01 2.585202693939208984e+00 7.468383312225341797e+00 3.016075849533081055e+00 -4.603049278259277344e+00
9.220000000000000000e+02 5.585340881347656250e+01 -3.316125488281250000e+01 9.113317131996154785e-01 1.056766891479492188e+01 3.443700075149536133e+00 6.850254535675048828e-01
9.230000000000000000e+02 5.150999832153320312e+01 -3.159328842163085938e+01 2.170012950897216797e+00 5.320127010345458984e+00 2.247041940689086914e+00 -1.051911935210227966e-01
9.240000000000000000e+02 5.985685729980468750e+01 -2.607084846496582031e+01 -2.756366014480590820e+00 1.395597457885742188e+00 -4.082306027412414551e-01 5.947803258895874023e-01
9.250000000000000000e+02 1.590520572662353516e+01 -1.851837539672851562e+01 -2.176454477012157440e-02 -1.276048123836517334e-01 -4.481080546975135803e-02 -1.975679546594619751e-01
9.260000000000000000e+02 1.602142143249511719e+01 -1.721997642517089844e+01 6.271337717771530151e-02 3.415073156356811523e-01 1.212662085890769958e-01 -2.335374206304550171e-01
9.270000000000000000e+02 1.742652320861816406e+01 -2.158811759948730469e+01 -1.741928160190582275e-01 -1.048592850565910339e-01 -8.371563255786895752e-02 -2.443418502807617188e-01
9.280000000000000000e+02 1.726978683471679688e+01 -2.687082099914550781e+01 3.640992343425750732e-01 4.268794320523738861e-03 1.105104088783264160e-01 7.445678859949111938e-02
9.290000000000000000e+02 4.834203243255615234e+00 -1.959930229187011719e+01 2.411502785980701447e-02 -2.977281808853149414e-01 -8.208394795656204224e-02 -1.378515511751174927e-01
9.300000000000000000e+02 4.363751411437988281e+00 -1.866420364379882812e+01 -2.898233942687511444e-02 -3.153533935546875000e-01 -1.033007204532623291e-01 -1.781320720911026001e-01
9.310000000000000000e+02 2.146392107009887695e+00 -1.844009208679199219e+01 -5.343560874462127686e-02 -2.557770013809204102e-01 -9.276378154754638672e-02 -1.561153382062911987e-01
9.320000000000000000e+02 3.418277740478515625e+00 -1.828519821166992188e+01 -6.764569133520126343e-02 -3.141167759895324707e-01 -1.145287379622459412e-01 -2.004173696041107178e-01
9.330000000000000000e+02 5.789534091949462891e+00 -1.612965393066406250e+01 -1.452305316925048828e-01 -4.274691939353942871e-01 -1.718099117279052734e-01 -2.459408640861511230e-01
9.340000000000000000e+02 1.881643891334533691e+00 -1.433230304718017578e+01 -1.746004633605480194e-02 -1.202431991696357727e-01 -4.131097346544265747e-02 -2.717727236449718475e-02
9.350000000000000000e+02 4.683865737915039062e+01 1.907298088073730469e+01 -2.487057209014892578e+00 2.533391952514648438e+00 1.390038989484310150e-02 1.017806887626647949e+00
9.360000000000000000e+02 4.820814514160156250e+01 1.906542778015136719e+01 -4.184758663177490234e+00 -3.274018317461013794e-02 -1.265249609947204590e+00 1.211961209774017334e-01
9.370000000000000000e+02 5.073416900634765625e+01 1.793265724182128906e+01 -6.694604754447937012e-01 1.126645207405090332e+00 1.371554285287857056e-01 -2.438871413469314575e-01
9.380000000000000000e+02 5.274476242065429688e+01 1.601199150085449219e+01 1.609367370605468750e+00 3.102525472640991211e+00 1.413567900657653809e+00 -2.083688020706176758e+00
9.390000000000000000e+02 5.365065383911132812e+01 1.506515407562255859e+01 1.707858085632324219e+00 5.574031352996826172e+00 2.184566974639892578e+00 -2.675578832626342773e+00
9.400000000000000000e+02 5.728835296630859375e+01 1.283344841003417969e+01 1.648445725440979004e+00 8.878394126892089844e+00 3.158051967620849609e+00 1.233945369720458984e+00
9.410000000000000000e+02 5.485635375976562500e+01 1.957556533813476562e+01 -9.508492946624755859e-01 4.725992202758789062e+00 1.132542848587036133e+00 -2.400455236434936523e+00
9.420000000000000000e+02 5.468271255493164062e+01 1.313296794891357422e+01 1.192137002944946289e+00 9.930811882019042969e+00 3.336884737014770508e+00 -1.608659386634826660e+00
9.430000000000000000e+02 5.475444412231445312e+01 1.041721439361572266e+01 4.298363029956817627e-01 1.341916465759277344e+01 4.154700279235839844e+00 8.129931688308715820e-01
9.440000000000000000e+02 6.077061080932617188e+01 9.078081130981445312e+00 -8.116411417722702026e-02 5.986609935760498047e+00 1.771633744239807129e+00 -7.598102688789367676e-01
9.450000000000000000e+02 5.430678939819335938e+01 7.867665767669677734e+00 2.543166875839233398e+00 1.194402408599853516e+01 4.346157073974609375e+00 4.264945030212402344e+00
9.460000000000000000e+02 5.741986083984375000e+01 2.489788293838500977e+00 2.946905493736267090e-01 3.568950414657592773e+00 1.159092307090759277e+00 -2.698900103569030762e-01
9.470000000000000000e+02 4.938158416748046875e+01 1.715606927871704102e+00 1.134513974189758301e+00 7.408526897430419922e+00 2.562912225723266602e+00 3.869407474994659424e-01
9.480000000000000000e+02 5.794589614868164062e+01 1.188200950622558594e+00 -1.794846951961517334e-01 2.373967885971069336e+00 6.583449244499206543e-01 -1.146972060203552246e+00
9.490000000000000000e+02 5.541771697998046875e+01 3.395859003067016602e-01 1.234078049659729004e+00 1.830816268920898438e+00 9.194682836532592773e-01 1.920970320701599121e+00
9.500000000000000000e+02 5.387334060668945312e+01 -8.314582705497741699e-01 2.881692171096801758e+00 4.932629585266113281e+00 2.344296693801879883e+00 3.313915967941284180e+00
9.510000000000000000e+02 5.307265472412109375e+01 6.241495132446289062e+00 6.070162653923034668e-01 5.068163394927978516e+00 1.702553868293762207e+00 2.827852249145507812e+00
9.520000000000000000e+02 4.748472595214843750e+01 7.452426433563232422e+00 9.812040328979492188e-01 2.839689254760742188e+00 1.146268010139465332e+00 -1.661550998687744141e+00
9.530000000000000000e+02 4.656188964843750000e+01 8.375183105468750000e+00 1.988186955451965332e+00 4.203782081604003906e+00 1.857590675354003906e+00 -3.235341072082519531e+00
9.540000000000000000e+02 4.439383697509765625e+01 9.953040122985839844e+00 2.426615715026855469e+00 8.213475227355957031e+00 3.192027330398559570e+00 -2.464935302734375000e+00
9.550000000000000000e+02 4.464427185058593750e+01 1.251779937744140625e+01 6.228955388069152832e-01 1.069488239288330078e+01 3.395333528518676758e+00 -7.831216454505920410e-01
9.560000000000000000e+02 4.513776779174804688e+01 1.527534961700439453e+01 7.042631506919860840e-01 7.150310993194580078e+00 2.356372356414794922e+00 1.852178096771240234e+00
9.570000000000000000e+02 4.480008316040039062e+01 1.390150260925292969e+01 6.304603219032287598e-01 9.238362312316894531e+00 2.960646629333496094e+00 8.492066860198974609e-01
9.580000000000000000e+02 4.207308959960937500e+01 2.181417465209960938e+01 -2.993441820144653320e+00 2.153911255300045013e-02 -8.915708065032958984e-01 -2.059690207242965698e-01
9.590000000000000000e+02 4.579359817504882812e+01 2.067290115356445312e+01 -2.082809448242187500e+00 3.567298173904418945e+00 4.453466534614562988e-01 1.496999144554138184e+00
9.600000000000000000e+02 1.665273666381835938e+01 6.945507049560546875e+00 5.958400368690490723e-01 2.614082098007202148e-01 2.571744620800018311e-01 4.231689274311065674e-01
9.610000000000000000e+02 1.044605064392089844e+01 9.190356254577636719e+00 -6.314196586608886719e-01 -8.398259282112121582e-01 -4.413736760616302490e-01 6.193129420280456543e-01
9.620000000000000000e+02 9.580598831176757812e+00 1.104173374176025391e+01 -2.278901934623718262e-01 -7.659403085708618164e-01 -2.981491684913635254e-01 3.620035946369171143e-01
9.630000000000000000e+02 9.550200462341308594e+00 1.354675579071044922e+01 1.222104132175445557e-01 1.955831795930862427e-01 9.533807635307312012e-02 2.385692894458770752e-01
9.640000000000000000e+02 9.549414634704589844e+00 1.230212593078613281e+01 -1.054091844707727432e-02 -2.924792766571044922e-01 -9.090606123208999634e-02 1.304317414760589600e-01
9.650000000000000000e+02 7.836727142333984375e+00 1.402780723571777344e+01 2.216775864362716675e-01 -2.114705145359039307e-01 3.062123199924826622e-03 4.497866630554199219e-01
9.660000000000000000e+02 4.857839584350585938e+00 1.635730552673339844e+01 1.974087804555892944e-01 -4.446642994880676270e-01 -7.417665421962738037e-02 2.628983855247497559e-01
9.670000000000000000e+02 1.104019260406494141e+01 1.660210800170898438e+01 7.813037037849426270e-01 7.644985914230346680e-01 4.637407064437866211e-01 6.855079531669616699e-01
9.680000000000000000e+02 1.212573814392089844e+01 1.745904922485351562e+01 9.901232123374938965e-01 5.788328051567077637e-01 4.706867933273315430e-01 6.978874206542968750e-01
9.690000000000000000e+02 3.159909439086914062e+01 -1.580609989166259766e+01 3.035545349121093750e-01 9.881280660629272461e-01 3.875047862529754639e-01 6.516237258911132812e-01
9.700000000000000000e+02 3.273874282836914062e+01 -1.520088863372802734e+01 -5.851416587829589844e-01 3.150738179683685303e-01 -8.102036267518997192e-02 3.338936269283294678e-01
9.710000000000000000e+02 2.405164527893066406e+01 -1.610331535339355469e+01 -3.159079253673553467e-01 -1.846470832824707031e-01 -1.501664966344833374e-01 -4.058276116847991943e-01
9.720000000000000000e+02 3.392865371704101562e+01 -1.478816986083984375e+01 -1.639012932777404785e+00 -3.245522454380989075e-02 -5.014404654502868652e-01 3.457248210906982422e-01
9.730000000000000000e+02 3.806972122192382812e+01 -1.085256576538085938e+01 -7.535584270954132080e-02 9.453513622283935547e-01 2.609986662864685059e-01 -1.233260780572891235e-01
9.740000000000000000e+02 3.699843978881835938e+01 -1.598456668853759766e+01 -6.923528909683227539e-01 2.664375007152557373e-01 -1.277746111154556274e-01 1.744719594717025757e-01
9.750000000000000000e+02 3.793628692626953125e+01 -1.686181259155273438e+01 -2.428502291440963745e-01 2.264215946197509766e-01 -4.928588867187500000e-03 -1.952031105756759644e-01
9.760000000000000000e+02 3.909211730957031250e+01 -1.750190734863281250e+01 -8.653478696942329407e-03 1.500538140535354614e-01 4.242010042071342468e-02 -1.948179602622985840e-01
9.770000000000000000e+02 3.980918121337890625e+01 -2.239863967895507812e+01 5.200134590268135071e-03 2.563964128494262695e+00 7.707493305206298828e-01 5.007745623588562012e-01
9.780000000000000000e+02 4.344169235229492188e+01 -2.101862144470214844e+01 1.888138771057128906e+00 3.426299571990966797e+00 1.594331502914428711e+00 1.832288146018981934e+00
9.790000000000000000e+02 4.113584899902343750e+01 -2.776167869567871094e+01 -4.550045132637023926e-01 3.011759996414184570e+00 7.670266628265380859e-01 1.371265172958374023e+00
9.800000000000000000e+02 4.091456985473632812e+01 -2.566537094116210938e+01 1.281883955001831055e+00 3.452390193939208984e+00 1.420282244682312012e+00 2.287689447402954102e+00
9.810000000000000000e+02 3.984229278564453125e+01 -2.779139518737792969e+01 -2.470631450414657593e-01 5.431097507476806641e+00 1.555210232734680176e+00 1.656851887702941895e+00
9.820000000000000000e+02 3.728539276123046875e+01 -2.847773933410644531e+01 5.828768014907836914e-02 2.158500671386718750e+00 6.650365591049194336e-01 1.086685061454772949e+00
9.830000000000000000e+02 3.337842178344726562e+01 -2.912483787536621094e+01 -2.344173789024353027e-01 9.800475090742111206e-02 -4.092378914356231689e-02 -1.797907054424285889e-01
9.840000000000000000e+02 3.286957931518554688e+01 -2.797208023071289062e+01 -4.488514363765716553e-01 5.589647591114044189e-02 -1.178864911198616028e-01 -3.359464555978775024e-02
9.850000000000000000e+02 1.449164199829101562e+01 -2.147693252563476562e+01 -4.876017570495605469e-01 -4.728192687034606934e-01 -2.881263196468353271e-01 -4.135171473026275635e-01
9.860000000000000000e+02 1.996125221252441406e+01 -2.528489112854003906e+01 3.191534578800201416e-01 8.357816934585571289e-02 1.208194866776466370e-01 -1.332545187324285507e-02
9.870000000000000000e+02 1.728153610229492188e+01 -4.033460998535156250e+01 5.682186484336853027e-01 1.082658395171165466e-01 2.029453366994857788e-01 -1.046363785862922668e-01
9.880000000000000000e+02 1.890169906616210938e+01 -4.085839462280273438e+01 4.602849781513214111e-01 2.833971008658409119e-02 1.465874165296554565e-01 -2.245651371777057648e-02
9.890000000000000000e+02 1.567658329010009766e+01 -4.081265258789062500e+01 3.271204233169555664e-01 1.362674683332443237e-01 1.390163600444793701e-01 -1.024070382118225098e-01
9.900000000000000000e+02 1.533312797546386719e+01 -3.900833511352539062e+01 2.438710182905197144e-01 1.906831562519073486e-01 1.303662508726119995e-01 -1.859221160411834717e-01
9.910000000000000000e+02 1.583596706390380859e+01 2.315310096740722656e+01 8.469681739807128906e-01 2.490790188312530518e-01 3.288141489028930664e-01 4.068302214145660400e-01
9.920000000000000000e+02 1.038128471374511719e+01 2.259300422668457031e+01 -1.668305695056915283e-01 -2.175622805953025818e-02 -5.657603964209556580e-02 8.017553389072418213e-02
9.930000000000000000e+02 9.088194847106933594e+00 2.219233894348144531e+01 -8.456922322511672974e-02 -1.095130518078804016e-01 -5.822468176484107971e-02 8.391159772872924805e-02
9.940000000000000000e+02 7.470361232757568359e+00 2.436471176147460938e+01 -1.592096984386444092e-01 -2.500724196434020996e-01 -1.227846369147300720e-01 2.086943835020065308e-01
9.950000000000000000e+02 1.753346681594848633e+00 2.615671157836914062e+01 -2.123930491507053375e-02 -8.269545435905456543e-01 -2.544581592082977295e-01 2.914126031100749969e-02
9.960000000000000000e+02 6.633201599121093750e+01 2.022947120666503906e+01 -6.884256839752197266e+00 -5.107387304306030273e-01 -2.218498706817626953e+00 1.062535643577575684e+00
9.970000000000000000e+02 6.502468109130859375e+01 2.013473320007324219e+01 -4.644574642181396484e+00 3.123964965343475342e-01 -1.299653410911560059e+00 6.977989673614501953e-01
9.980000000000000000e+02 6.385418319702148438e+01 2.471450424194335938e+01 4.404559135437011719e-01 6.997077941894531250e+00 2.231260061264038086e+00 1.599298238754272461e+00
9.990000000000000000e+02 6.372498703002929688e+01 1.990031051635742188e+01 2.664097547531127930e-01 3.409454107284545898e+00 1.102759122848510742e+00 3.103885650634765625e+00
1.000000000000000000e+03 6.108946609497070312e+01 2.005200386047363281e+01 -1.010721698403358459e-01 7.262192249298095703e+00 2.148335933685302734e+00 2.830426692962646484e+00
1.001000000000000000e+03 5.424456787109375000e+01 1.610723304748535156e+01 7.879309058189392090e-01 5.656671524047851562e+00 1.933380842208862305e+00 -1.394654273986816406e+00
1.002000000000000000e+03 6.099684143066406250e+01 1.616797828674316406e+01 1.881542325019836426e+00 1.343564224243164062e+01 4.595155715942382812e+00 3.640953540802001953e+00
1.003000000000000000e+03 6.068180084228515625e+01 1.342008781433105469e+01 3.964852690696716309e-01 1.098405933380126953e+01 3.414163589477539062e+00 4.415816664695739746e-01
1.004000000000000000e+03 5.611853027343750000e+01 1.285655021667480469e+01 1.541238188743591309e+00 9.113713264465332031e+00 3.196485519409179688e+00 7.122019529342651367e-01
1.005000000000000000e+03 6.322966384887695312e+01 8.147939682006835938e+00 -3.319152593612670898e-01 1.170474529266357422e+00 2.515677809715270996e-01 -3.189204335212707520e-01
1.006000000000000000e+03 6.145267105102539062e+01 1.009531116485595703e+01 1.040808558464050293e+00 5.712864875793457031e+00 2.026102066040039062e+00 -1.708079695701599121e+00
1.007000000000000000e+03 6.831559753417968750e+01 1.947034263610839844e+01 -3.887488365173339844e+00 -2.292185872793197632e-01 -1.235012054443359375e+00 1.048530817031860352e+00
1.008000000000000000e+03 6.922357940673828125e+01 1.850524330139160156e+01 -1.096580386161804199e+00 8.264322876930236816e-01 -8.104443550109863281e-02 3.164472877979278564e-01
1.009000000000000000e+03 6.960227966308593750e+01 2.025164794921875000e+01 -2.589313030242919922e+00 3.394336700439453125e+00 2.415070682764053345e-01 -1.134024858474731445e+00
1.010000000000000000e+03 6.892464447021484375e+01 2.131658172607421875e+01 -1.720250129699707031e+00 2.386456489562988281e+00 1.998619586229324341e-01 -1.307052731513977051e+00
1.011000000000000000e+03 6.418359375000000000e+01 7.236319065093994141e+00 -2.084687471389770508e+00 2.974742054939270020e-01 -5.361639857292175293e-01 1.362401992082595825e-01
1.012000000000000000e+03 3.185758018493652344e+01 2.326473999023437500e+01 2.412436008453369141e-01 3.294397115707397461e+00 1.060692191123962402e+00 -3.427698016166687012e-01
1.013000000000000000e+03 3.182082176208496094e+01 2.054509353637695312e+01 3.407314047217369080e-02 2.670127391815185547e+00 8.112601637840270996e-01 -1.329619586467742920e-01
1.014000000000000000e+03 3.798751068115234375e+01 2.172759819030761719e+01 -4.886865317821502686e-01 1.485517621040344238e+00 2.990493476390838623e-01 -1.128496170043945312e+00
1.015000000000000000e+03 3.666911697387695312e+01 2.412545204162597656e+01 1.227789878845214844e+00 2.494966745376586914e+00 1.116827011108398438e+00 -1.689333796501159668e+00
1.016000000000000000e+03 5.297186660766601562e+01 3.220124816894531250e+01 1.035514473915100098e+00 6.822072982788085938e+00 2.357276201248168945e+00 7.255797982215881348e-01
1.017000000000000000e+03 7.250984191894531250e+01 -1.181441903114318848e+00 -1.289037585258483887e+00 1.835722088813781738e+00 1.640053540468215942e-01 -4.441079497337341309e-01
1.018000000000000000e+03 7.436349487304687500e+01 -3.529281854629516602e+00 7.629491090774536133e-01 7.504881381988525391e+00 2.480349063873291016e+00 -2.486320972442626953e+00
1.019000000000000000e+03 7.691751861572265625e+01 1.029126405715942383e+00 -4.505317509174346924e-01 7.649425983428955078e+00 2.159668445587158203e+00 -4.042835235595703125e-01
1.020000000000000000e+03 7.692104339599609375e+01 -4.199672698974609375e+00 2.410818785429000854e-01 9.392163276672363281e+00 2.889973402023315430e+00 3.277579545974731445e-01
1.021000000000000000e+03 6.003817367553710938e+01 -9.487645149230957031e+00 1.109926104545593262e+00 5.138113021850585938e+00 1.874411702156066895e+00 2.419949531555175781e+00
1.022000000000000000e+03 6.124620819091796875e+01 -7.620708942413330078e+00 1.803015947341918945e+00 1.033284664154052734e+01 3.640758991241455078e+00 1.999319195747375488e+00
1.023000000000000000e+03 6.766131591796875000e+01 -1.530814647674560547e+00 1.911468625068664551e+00 2.737442970275878906e+00 1.394673466682434082e+00 2.141112327575683594e+00
1.024000000000000000e+03 6.674265289306640625e+01 -2.554196357727050781e+00 2.378583669662475586e+00 4.527698040008544922e+00 2.071884632110595703e+00 3.004330158233642578e+00
1.025000000000000000e+03 6.840230560302734375e+01 -3.130232989788055420e-01 7.916196584701538086e-01 2.031733751296997070e+00 8.470060229301452637e-01 2.029471158981323242e+00
1.026000000000000000e+03 6.977169036865234375e+01 -6.838058829307556152e-01 -1.670634448528289795e-01 6.422808766365051270e-01 1.425652354955673218e-01 1.043559193611145020e+00
1.027000000000000000e+03 4.519957733154296875e+01 -3.848255157470703125e+01 -1.357760071754455566e+00 5.547264814376831055e-01 -2.409100979566574097e-01 3.811662495136260986e-01
1.028000000000000000e+03 4.302265167236328125e+01 -3.849501419067382812e+01 -1.418253540992736816e+00 4.767720103263854980e-01 -2.824444472789764404e-01 -1.049049347639083862e-01
1.029000000000000000e+03 4.660956954956054688e+01 -3.771739196777343750e+01 -6.796815395355224609e-01 6.253053545951843262e-01 -1.631284318864345551e-02 7.664647102355957031e-01
1.030000000000000000e+03 4.149322891235351562e+01 -3.749758148193359375e+01 -8.354876637458801270e-01 4.273299276828765869e-01 -1.224473118782043457e-01 -4.224809706211090088e-01
1.031000000000000000e+03 3.962902832031250000e+01 -3.103468513488769531e+01 1.324310064315795898e+00 7.242993354797363281e+00 2.570191144943237305e+00 2.804921627044677734e+00
1.032000000000000000e+03 3.779469299316406250e+01 -2.733865547180175781e+01 8.356828093528747559e-01 2.400563478469848633e+00 9.708738923072814941e-01 1.632288098335266113e+00
1.033000000000000000e+03 4.024114227294921875e+01 -2.991113281250000000e+01 1.695734620094299316e+00 5.582003593444824219e+00 2.183321475982666016e+00 2.748638153076171875e+00
1.034000000000000000e+03 5.667401885986328125e+01 5.977962017059326172e-01 -2.765082418918609619e-01 5.884755849838256836e-01 9.359019994735717773e-02 1.613092720508575439e-01
1.035000000000000000e+03 5.867947387695312500e+01 5.833091214299201965e-02 5.746356248855590820e-01 2.758301019668579102e+00 9.998809695243835449e-01 -1.774354219436645508e+00
1.036000000000000000e+03 5.959745788574218750e+01 -9.384320974349975586e-01 1.915623784065246582e+00 4.661612033843994141e+00 1.973170757293701172e+00 -2.971158504486083984e+00
1.037000000000000000e+03 4.950659179687500000e+01 -1.950276196002960205e-01 6.101832866668701172e+00 8.720011711120605469e+00 4.446553230285644531e+00 7.280540466308593750e-01
1.038000000000000000e+03 5.031257247924804688e+01 -2.835556602478027344e+01 5.310299992561340332e-01 3.160784959793090820e+00 1.107544541358947754e+00 -7.152615785598754883e-01
1.039000000000000000e+03 5.096563720703125000e+01 -2.691153144836425781e+01 -5.612975358963012695e-01 1.683334827423095703e+00 3.366111814975738525e-01 -9.345881342887878418e-01
1.040000000000000000e+03 4.726271438598632812e+01 -1.099910354614257812e+01 3.845593929290771484e+00 1.462821102142333984e+01 5.542141437530517578e+00 5.427615165710449219e+00
1.041000000000000000e+03 4.824746322631835938e+01 -8.837231636047363281e+00 1.348348617553710938e+00 1.102196121215820312e+01 3.711092948913574219e+00 1.437403321266174316e+00
1.042000000000000000e+03 9.794717788696289062e+00 -1.839817881584167480e+00 -1.585980206727981567e-01 -1.488058120012283325e-01 -9.222114831209182739e-02 -1.437422335147857666e-01
1.043000000000000000e+03 2.799633216857910156e+01 -2.981168174743652344e+01 1.060436591506004333e-01 8.496965169906616211e-01 2.867220640182495117e-01 -2.019603103399276733e-01
1.044000000000000000e+03 2.503751373291015625e+01 -3.208697509765625000e+01 1.444273293018341064e-01 9.081885814666748047e-01 3.157847821712493896e-01 -1.487172096967697144e-01
1.045000000000000000e+03 6.593693542480468750e+01 -3.162071037292480469e+01 9.857942461967468262e-01 1.156025981903076172e+01 3.763816118240356445e+00 -2.065055608749389648e+00
1.046000000000000000e+03 6.803256225585937500e+01 -2.761568832397460938e+01 3.021321892738342285e-01 3.730296611785888672e+00 1.209728598594665527e+00 -1.995938420295715332e+00
1.047000000000000000e+03 7.809373474121093750e+01 -2.627458381652832031e+01 -1.984263658523559570e-01 7.602007389068603516e+00 2.221074342727661133e+00 -4.555872380733489990e-01
1.048000000000000000e+03 7.941482543945312500e+01 -2.369083786010742188e+01 1.220687106251716614e-01 6.412849426269531250e+00 1.960475444793701172e+00 -1.619222462177276611e-01
1.049000000000000000e+03 7.933102416992187500e+01 -3.331179046630859375e+01 -1.037798542529344559e-02 7.733089923858642578e+00 2.316813468933105469e+00 1.735195703804492950e-02
1.050000000000000000e+03 5.089194869995117188e+01 -1.473781299591064453e+01 -6.186864972114562988e-01 1.306123256683349609e+00 2.062310427427291870e-01 -8.626464605331420898e-01
1.051000000000000000e+03 4.594440460205078125e+01 -1.781754493713378906e+01 1.342193782329559326e-01 7.049077987670898438e+00 2.154989242553710938e+00 1.171400427818298340e+00
1.052000000000000000e+03 3.893482971191406250e+01 -1.169807815551757812e+01 -5.631617307662963867e-01 4.209877550601959229e-02 -1.563188880681991577e-01 5.453289672732353210e-02
1.053000000000000000e+03 3.709030914306640625e+01 -9.062973976135253906e+00 1.637443900108337402e-01 2.357890367507934570e+00 7.564904093742370605e-01 3.793630748987197876e-02
1.054000000000000000e+03 3.052725028991699219e+01 -1.126823520660400391e+01 -3.922365903854370117e-01 1.738904118537902832e-01 -6.550385802984237671e-02 3.365058302879333496e-01
1.055000000000000000e+03 6.863980102539062500e+01 7.036920547485351562e+00 6.301668286323547363e-01 1.627255439758300781e+00 6.772266626358032227e-01 1.532663702964782715e+00
1.056000000000000000e+03 4.955284881591796875e+01 1.881294631958007812e+01 -4.218200683593750000e+00 -9.933880530297756195e-03 -1.268440365791320801e+00 1.537772417068481445e-01
1.057000000000000000e+03 3.370785903930664062e+01 1.725473403930664062e+01 2.596704363822937012e-01 1.616521596908569336e+00 5.628576278686523438e-01 -6.897641420364379883e-01
1.058000000000000000e+03 2.148522186279296875e+01 8.827275276184082031e+00 4.629458785057067871e-01 2.942110877484083176e-03 1.397663950920104980e-01 2.103298008441925049e-01
1.059000000000000000e+03 3.193167495727539062e+01 1.802728843688964844e+01 1.368808448314666748e-01 1.970964550971984863e+00 6.323536038398742676e-01 -3.572297841310501099e-02
1.060000000000000000e+03 6.704350280761718750e+01 3.273550796508789062e+01 3.424933254718780518e-01 5.260875225067138672e+00 1.681010484695434570e+00 9.621795415878295898e-01
1.061000000000000000e+03 4.628368377685546875e+01 3.050426673889160156e+01 9.630419611930847168e-01 4.324800968170166016e+00 1.586352825164794922e+00 -1.076000571250915527e+00
1.062000000000000000e+03 2.228679275512695312e+01 2.288006210327148438e+01 6.605351716279983521e-02 6.526336073875427246e-01 2.156061381101608276e-01 8.661849796772003174e-02
1.063000000000000000e+03 1.944309830665588379e+00 1.648448371887207031e+01 4.711128771305084229e-02 -6.384570002555847168e-01 -1.774037182331085205e-01 1.391835212707519531e-01
1.064000000000000000e+03 9.099624633789062500e+00 1.471995449066162109e+01 3.246149420738220215e-01 1.986036449670791626e-01 1.569655686616897583e-01 3.688273727893829346e-01
1.065000000000000000e+03 2.111720657348632812e+01 2.006202888488769531e+01 2.863909304141998291e-01 5.104433298110961914e-01 2.390502691268920898e-01 -2.712984085083007812e-01
1.066000000000000000e+03 1.862523436546325684e+00 9.525939941406250000e+00 -3.229566290974617004e-02 -9.339485317468643188e-02 -3.770715370774269104e-02 1.482564061880111694e-01
1.067000000000000000e+03 3.942474746704101562e+01 3.858269453048706055e+00 2.681110203266143799e-01 -1.425781399011611938e-01 3.765986487269401550e-02 -1.868024468421936035e-01
1.068000000000000000e+03 2.690093231201171875e+01 1.114643096923828125e+01 2.634009122848510742e-01 3.430633246898651123e-01 1.819392740726470947e-01 4.542740527540445328e-03
1.069000000000000000e+03 4.127786254882812500e+01 9.352228164672851562e+00 1.067754745483398438e+00 3.138036012649536133e+00 1.261737227439880371e+00 -7.009047865867614746e-01
1.070000000000000000e+03 3.935870742797851562e+01 1.075842666625976562e+01 1.275324463844299316e+00 1.722553491592407227e+00 8.993633985519409180e-01 -9.279425144195556641e-01
1.071000000000000000e+03 9.048829078674316406e+00 -1.853929758071899414e+00 -1.309943199157714844e-01 4.276531934738159180e-02 -2.646870166063308716e-02 -9.196643531322479248e-02
1.072000000000000000e+03 7.584242820739746094e+00 -1.860193848609924316e+00 -9.325446188449859619e-02 4.480621218681335449e-02 -1.453447435051202774e-02 -5.880444496870040894e-02
1.073000000000000000e+03 8.314828872680664062e+00 -1.859326481819152832e+00 -1.267579644918441772e-01 -1.071205958724021912e-01 -7.016357034444808960e-02 -1.187526434659957886e-01
1.074000000000000000e+03 6.852558612823486328e+00 -1.858120679855346680e+00 -7.977878302335739136e-02 -8.154036849737167358e-02 -4.839574545621871948e-02 -8.449526876211166382e-02
1.075000000000000000e+03 2.598641157150268555e+00 -1.973475575447082520e+00 -9.600926190614700317e-03 -2.800071053206920624e-02 -1.128049101680517197e-02 -1.356763951480388641e-02
1.076000000000000000e+03 3.476038217544555664e+00 -2.663407325744628906e+00 -2.310582995414733887e-02 -4.043669626116752625e-02 -1.906275749206542969e-02 -3.193050995469093323e-02
1.077000000000000000e+03 4.024875640869140625e+00 -1.840254664421081543e+00 -2.329606004059314728e-02 -4.665251076221466064e-02 -2.098457142710685730e-02 -3.548158705234527588e-02
1.078000000000000000e+03 1.870843291282653809e+00 -2.074172973632812500e+00 -4.780916962772607803e-03 4.628574475646018982e-03 -4.570271630655042827e-05 -3.931337967514991760e-03
1.079000000000000000e+03 1.132133722305297852e+00 -2.157064914703369141e+00 -3.821552963927388191e-03 -9.720629081130027771e-03 -4.062654450535774231e-03 -2.518370049074292183e-03
1.080000000000000000e+03 2.079712390899658203e+00 -4.162213897705078125e+01 -1.577031798660755157e-02 -6.090476512908935547e-01 -1.874454021453857422e-01 4.506359342485666275e-03
1.081000000000000000e+03 5.328646659851074219e+00 -3.751668167114257812e+01 3.769037872552871704e-02 -3.752140998840332031e-01 -1.012571156024932861e-01 -8.740372210741043091e-02
1.082000000000000000e+03 1.116843104362487793e+00 -3.862721252441406250e+01 -1.459962688386440277e-03 -6.235275864601135254e-01 -1.874962598085403442e-01 -1.356182154268026352e-03
1.083000000000000000e+03 7.184009552001953125e-01 -3.451668930053710938e+01 1.584712153999134898e-04 -5.966915488243103027e-01 -1.789599210023880005e-01 -7.861057296395301819e-03
1.084000000000000000e+03 6.610049009323120117e-01 -3.313192367553710938e+01 -4.898148472420871258e-04 -5.801940560340881348e-01 -1.742051690816879272e-01 -7.601054385304450989e-03
1.085000000000000000e+03 5.689453482627868652e-01 -2.896142578125000000e+01 -5.082532297819852829e-03 -5.539098381996154785e-01 -1.676977127790451050e-01 3.592530963942408562e-03
1.086000000000000000e+03 5.794742703437805176e-01 -2.755823516845703125e+01 4.911048803478479385e-03 -5.642715096473693848e-01 -1.678081452846527100e-01 5.698959808796644211e-03
1.087000000000000000e+03 1.698576450347900391e+00 -2.739570999145507812e+01 -2.540006302297115326e-03 -4.745951890945434570e-01 -1.431405544281005859e-01 1.718266122043132782e-02
1.088000000000000000e+03 2.136957406997680664e+00 -2.296427345275878906e+01 5.540028586983680725e-02 -4.181916713714599609e-01 -1.088374108076095581e-01 -3.823274001479148865e-02
1.089000000000000000e+03 7.330949306488037109e-01 -2.178582191467285156e+01 1.745324581861495972e-02 -5.363320708274841309e-01 -1.556636393070220947e-01 -3.765957802534103394e-02
1.090000000000000000e+03 7.159820199012756348e-01 -2.034946632385253906e+01 6.395419593900442123e-03 -4.447264969348907471e-01 -1.314993202686309814e-01 -6.449747085571289062e-02
1.091000000000000000e+03 2.138531208038330078e+00 -1.701028251647949219e+01 -3.617732226848602295e-02 -2.184076607227325439e-01 -7.637549936771392822e-02 -1.102779507637023926e-01
1.092000000000000000e+03 6.275956034660339355e-01 -1.474039936065673828e+01 -7.598205003887414932e-03 -5.056513845920562744e-02 -1.744900271296501160e-02 -1.455783378332853317e-02
1.093000000000000000e+03 5.937988758087158203e-01 -1.335230731964111328e+01 -1.838704338297247887e-03 -2.610773593187332153e-02 -8.383931592106819153e-03 -1.961533445864915848e-03
1.094000000000000000e+03 1.781278848648071289e+00 -1.300057983398437500e+01 -1.708350703120231628e-02 -1.080700755119323730e-01 -3.754607215523719788e-02 -8.667172864079475403e-03
1.095000000000000000e+03 5.196651220321655273e-01 -9.185391426086425781e+00 -1.485706656239926815e-03 -3.736588731408119202e-02 -1.165547873824834824e-02 -5.856103380210697651e-04
1.096000000000000000e+03 4.984238445758819580e-01 -7.800230503082275391e+00 1.912611885927617550e-03 -3.317767381668090820e-02 -9.379518218338489532e-03 -7.740674773231148720e-04
1.097000000000000000e+03 1.501849651336669922e+00 -7.673513412475585938e+00 -8.707513334229588509e-04 -5.578480288386344910e-02 -1.699666678905487061e-02 -1.105720270425081253e-02
1.098000000000000000e+03 4.804005026817321777e-01 -6.408545970916748047e+00 9.202725486829876900e-04 -2.786019258201122284e-02 -8.081976324319839478e-03 -4.859395325183868408e-03
1.099000000000000000e+03 7.179723358154296875e+01 -4.126068878173828125e+01 -8.830946683883666992e-01 6.489652633666992188e+00 1.681967377662658691e+00 -2.316134870052337646e-01
1.100000000000000000e+03 3.194721221923828125e+01 -3.927046203613281250e+01 -1.375311613082885742e-01 1.589887142181396484e+00 4.357067942619323730e-01 3.584556877613067627e-01
1.101000000000000000e+03 1.187792778015136719e+01 -3.904623031616210938e+01 1.310075521469116211e-01 6.908128503710031509e-03 4.137470573186874390e-02 -7.105202227830886841e-02
1.102000000000000000e+03 7.846868896484375000e+01 4.021180725097656250e+01 -3.412996605038642883e-02 7.816127300262451172e+00 2.334599256515502930e+00 -5.180875584483146667e-02
1.103000000000000000e+03 7.800877380371093750e+01 4.173163986206054688e+01 7.507894933223724365e-02 7.780482769012451172e+00 2.356668472290039062e+00 -2.074037864804267883e-02
1.104000000000000000e+03 7.869633483886718750e+01 3.875260543823242188e+01 -3.510095179080963135e-02 7.855085372924804688e+00 2.345995187759399414e+00 -2.052503265440464020e-02
1.105000000000000000e+03 7.753105163574218750e+01 3.677009582519531250e+01 -6.753187626600265503e-02 7.511812210083007812e+00 2.233284235000610352e+00 1.457310467958450317e-01
1.106000000000000000e+03 7.931635284423828125e+01 3.465306091308593750e+01 1.931167021393775940e-02 7.780755519866943359e+00 2.340020179748535156e+00 4.003474116325378418e-02
1.107000000000000000e+03 7.660466003417968750e+01 3.385950851440429688e+01 8.320099860429763794e-02 7.120941638946533203e+00 2.161242723464965820e+00 1.587810963392257690e-01
1.108000000000000000e+03 7.935414886474609375e+01 3.328812789916992188e+01 -9.048812091350555420e-03 7.721261501312255859e+00 2.313663721084594727e+00 2.332174964249134064e-02
1.109000000000000000e+03 7.938214111328125000e+01 3.053974151611328125e+01 5.803400417789816856e-04 7.709903717041015625e+00 2.313145160675048828e+00 -1.951743476092815399e-02
1.110000000000000000e+03 7.685258483886718750e+01 2.874396705627441406e+01 1.545528769493103027e-01 7.119502067565917969e+00 2.182216405868530273e+00 -1.909075081348419189e-01
1.111000000000000000e+03 7.939907836914062500e+01 2.641056632995605469e+01 8.844726253300905228e-04 8.122647285461425781e+00 2.437059402465820312e+00 -7.953817397356033325e-02
1.112000000000000000e+03 7.697017669677734375e+01 2.615920829772949219e+01 4.179210960865020752e-02 7.287731170654296875e+00 2.198856830596923828e+00 -3.449760079383850098e-01
1.113000000000000000e+03 7.940531158447265625e+01 2.502883529663085938e+01 -9.134944528341293335e-03 8.321702003479003906e+00 2.493770122528076172e+00 -6.988137215375900269e-02
1.114000000000000000e+03 7.942401885986328125e+01 2.088358306884765625e+01 -3.408855199813842773e-02 8.433582305908203125e+00 2.519848108291625977e+00 1.014911383390426636e-01
1.115000000000000000e+03 7.942321014404296875e+01 1.950244140625000000e+01 -5.576566979289054871e-02 8.096828460693359375e+00 2.412318706512451172e+00 2.126454114913940430e-01
1.116000000000000000e+03 7.826860046386718750e+01 2.086633682250976562e+01 -1.978574395179748535e-01 7.996418952941894531e+00 2.339568376541137695e+00 2.342845499515533447e-01
1.117000000000000000e+03 7.940988159179687500e+01 1.811454010009765625e+01 -1.314262580126523972e-02 7.527595996856689453e+00 2.254336118698120117e+00 2.960991859436035156e-01
1.118000000000000000e+03 7.934092712402343750e+01 1.389781188964843750e+01 1.883115433156490326e-02 5.508210182189941406e+00 1.658112406730651855e+00 2.363302558660507202e-01
1.119000000000000000e+03 7.799091339111328125e+01 1.234469318389892578e+01 3.093501627445220947e-01 6.301197052001953125e+00 1.983164072036743164e+00 2.144189924001693726e-01
1.120000000000000000e+03 7.933564758300781250e+01 1.106154727935791016e+01 3.054510615766048431e-02 5.123991012573242188e+00 1.546360850334167480e+00 -6.608356535434722900e-02
1.121000000000000000e+03 7.938147735595703125e+01 6.873673915863037109e+00 9.687354788184165955e-03 6.605268955230712891e+00 1.984486818313598633e+00 -3.236341178417205811e-01
1.122000000000000000e+03 7.937298583984375000e+01 5.490809917449951172e+00 -1.733758673071861267e-02 7.321600914001464844e+00 2.191278934478759766e+00 -3.185243606567382812e-01
1.123000000000000000e+03 7.810140991210937500e+01 5.323496341705322266e+00 -5.491263046860694885e-02 7.242148399353027344e+00 2.156170845031738281e+00 -7.776162028312683105e-01
1.124000000000000000e+03 7.937164306640625000e+01 4.105545520782470703e+00 -3.180228173732757568e-02 7.972913742065429688e+00 2.382333517074584961e+00 -2.658170759677886963e-01
1.125000000000000000e+03 7.940837860107421875e+01 -3.805652260780334473e-02 -7.233578711748123169e-03 9.067938804626464844e+00 2.718211650848388672e+00 6.175997987156733871e-05
1.126000000000000000e+03 7.940670013427734375e+01 -1.412781715393066406e+00 -1.543071717023849487e-01 8.878699302673339844e+00 2.617317676544189453e+00 1.852186173200607300e-01
1.127000000000000000e+03 7.939057922363281250e+01 -2.792106151580810547e+00 5.099347978830337524e-02 8.328770637512207031e+00 2.513929367065429688e+00 3.093715608119964600e-01
1.128000000000000000e+03 7.937783813476562500e+01 -4.189328670501708984e+00 -5.122715979814529419e-02 7.651699066162109375e+00 2.280141592025756836e+00 3.088490366935729980e-01
1.129000000000000000e+03 7.809909057617187500e+01 -5.604920864105224609e+00 4.429481923580169678e-01 8.587223052978515625e+00 2.709051370620727539e+00 2.653653621673583984e-01
1.130000000000000000e+03 7.495669555664062500e+01 -9.473637580871582031e+00 1.107182741165161133e+00 1.150869083404541016e+01 3.784761905670166016e+00 1.859995722770690918e+00
1.131000000000000000e+03 7.930928802490234375e+01 -8.421071052551269531e+00 1.334129273891448975e-02 7.584659576416015625e+00 2.279400348663330078e+00 -4.191384315490722656e-01
1.132000000000000000e+03 7.935308837890625000e+01 -1.120860099792480469e+01 -2.260990887880325317e-01 9.584070205688476562e+00 2.807391405105590820e+00 -4.420132935047149658e-01
1.133000000000000000e+03 7.805452728271484375e+01 -1.130752849578857422e+01 -5.443719029426574707e-01 9.217021942138671875e+00 2.601794958114624023e+00 -7.033634781837463379e-01
1.134000000000000000e+03 7.939823150634765625e+01 -1.537382698059082031e+01 -6.533592939376831055e-02 9.780804634094238281e+00 2.914640665054321289e+00 2.922123074531555176e-01
1.135000000000000000e+03 7.380432891845703125e+01 -1.716208267211914062e+01 -7.606655359268188477e-02 6.209286212921142578e+00 1.839965820312500000e+00 -1.342587172985076904e-01
1.136000000000000000e+03 7.940731811523437500e+01 -1.814255905151367188e+01 -2.862909808754920959e-02 8.148481369018554688e+00 2.435955524444580078e+00 3.871167004108428955e-01
1.137000000000000000e+03 7.441447448730468750e+01 -2.316132736206054688e+01 1.549264788627624512e+00 1.181904411315917969e+01 4.010492801666259766e+00 6.383044719696044922e-01
1.138000000000000000e+03 7.816352844238281250e+01 -2.236559295654296875e+01 3.885478377342224121e-01 7.349401950836181641e+00 2.321384906768798828e+00 5.255082994699478149e-02
1.139000000000000000e+03 7.941284179687500000e+01 -2.504948616027832031e+01 -4.707317426800727844e-02 6.912799358367919922e+00 2.059717893600463867e+00 -2.507055103778839111e-01
1.140000000000000000e+03 7.939209747314453125e+01 -2.917587852478027344e+01 -1.589328981935977936e-02 7.878771305084228516e+00 2.358863353729248047e+00 -3.396119549870491028e-02
1.141000000000000000e+03 7.813210296630859375e+01 -3.168193626403808594e+01 -9.474049322307109833e-03 7.441486358642578125e+00 2.229603528976440430e+00 1.276971995830535889e-01
1.142000000000000000e+03 7.937129974365234375e+01 -3.192854118347167969e+01 2.262226119637489319e-02 7.790291309356689453e+00 2.343874216079711914e+00 2.507217787206172943e-02
1.143000000000000000e+03 7.919779205322265625e+01 -3.605557250976562500e+01 -2.253358252346515656e-02 7.776036262512207031e+00 2.326050758361816406e+00 -2.890535257756710052e-02
1.144000000000000000e+03 7.911518859863281250e+01 -3.742188644409179688e+01 1.356044691056013107e-02 7.815367221832275391e+00 2.348678350448608398e+00 -2.845871262252330780e-02
1.145000000000000000e+03 7.899057006835937500e+01 -3.878656387329101562e+01 1.271754968911409378e-02 7.872965335845947266e+00 2.365704774856567383e+00 -4.908195510506629944e-02
1.146000000000000000e+03 7.869329071044921875e+01 -4.015100479125976562e+01 -3.057838603854179382e-02 7.912600994110107422e+00 2.364606857299804688e+00 -2.696539647877216339e-02
1.147000000000000000e+03 7.956553459167480469e+00 4.122083282470703125e+01 -7.663072645664215088e-02 -1.883259117603302002e-01 -7.948698848485946655e-02 9.677959606051445007e-03
1.148000000000000000e+03 2.728818130493164062e+01 3.752159500122070312e+01 -1.103735119104385376e-01 1.253431081771850586e+00 3.429172635078430176e-01 -1.949352174997329712e-01
1.149000000000000000e+03 4.756352615356445312e+01 3.905895996093750000e+01 -9.879429340362548828e-01 3.426140308380126953e+00 7.314592003822326660e-01 -4.344350099563598633e-01
1.150000000000000000e+03 6.799700927734375000e+01 4.097701263427734375e+01 -6.227941513061523438e-01 4.981672763824462891e+00 1.307663559913635254e+00 4.342124238610267639e-02
1.151000000000000000e+03 3.894272148609161377e-01 2.187745809555053711e+00 2.225691219791769981e-03 3.814479336142539978e-02 1.211114507168531418e-02 -1.135397423058748245e-02
1.152000000000000000e+03 2.871472120285034180e+00 2.920539855957031250e+00 -2.030962379649281502e-03 1.227392442524433136e-02 3.072888590395450592e-03 -5.571144819259643555e-02
1.153000000000000000e+03 4.347855567932128906e+00 4.551696777343750000e+00 -9.750061482191085815e-02 -1.123583968728780746e-02 -3.262093663215637207e-02 -2.242495492100715637e-02
1.154000000000000000e+03 6.248242259025573730e-01 9.344330787658691406e+00 -6.327779497951269150e-03 -1.931450515985488892e-02 -7.692685350775718689e-03 5.159604176878929138e-02
1.155000000000000000e+03 6.062949299812316895e-01 1.212793827056884766e+01 -5.232163239270448685e-03 -3.099016547203063965e-01 -9.454014152288436890e-02 7.270023971796035767e-02
1.156000000000000000e+03 1.857723355293273926e+00 1.217089366912841797e+01 -1.034668087959289551e-02 -3.047973513603210449e-01 -9.454321116209030151e-02 2.012456506490707397e-01
1.157000000000000000e+03 6.446603536605834961e-01 1.638365364074707031e+01 1.147180981934070587e-02 -7.714785337448120117e-01 -2.280020266771316528e-01 5.141678825020790100e-02
1.158000000000000000e+03 6.111952662467956543e-01 1.782102966308593750e+01 8.682468906044960022e-03 -8.650643825531005859e-01 -2.569145560264587402e-01 2.860751375555992126e-02
1.159000000000000000e+03 5.461489558219909668e-01 2.202022933959960938e+01 3.301813732832670212e-03 -9.059782028198242188e-01 -2.708029150962829590e-01 -9.509204886853694916e-03
1.160000000000000000e+03 3.694209337234497070e+00 2.513271522521972656e+01 -7.712559401988983154e-02 -6.970378756523132324e-01 -2.322490364313125610e-01 3.507868945598602295e-02
1.161000000000000000e+03 4.989293575286865234e+00 2.541062736511230469e+01 -1.020353734493255615e-01 -6.777866482734680176e-01 -2.339466065168380737e-01 6.169653311371803284e-02
1.162000000000000000e+03 1.562941789627075195e+00 2.472425079345703125e+01 -2.396193519234657288e-02 -8.157830834388732910e-01 -2.519235014915466309e-01 -2.554889302700757980e-03
1.163000000000000000e+03 1.677908897399902344e+00 2.893581390380859375e+01 -6.921297870576381683e-03 -9.247398376464843750e-01 -2.794983386993408203e-01 8.768526464700698853e-02
1.164000000000000000e+03 1.917073130607604980e+00 3.003784561157226562e+01 -3.848370164632797241e-03 -9.374019503593444824e-01 -2.823750972747802734e-01 1.166361793875694275e-01
1.165000000000000000e+03 7.051661014556884766e-01 3.042338562011718750e+01 1.060643792152404785e-02 -1.074768424034118652e+00 -3.192485868930816650e-01 4.211830720305442810e-02
1.166000000000000000e+03 8.192516565322875977e-01 3.597079467773437500e+01 5.721908062696456909e-03 -1.212761282920837402e+00 -3.621118068695068359e-01 -1.438235212117433548e-02
1.167000000000000000e+03 2.643447399139404297e+00 3.694924545288085938e+01 2.903859503567218781e-02 -9.064924120903015137e-01 -2.632361650466918945e-01 -3.836427628993988037e-02
1.168000000000000000e+03 1.067545890808105469e+00 3.875322341918945312e+01 6.097105797380208969e-03 -1.094422340393066406e+00 -3.264975547790527344e-01 -5.409765616059303284e-02
1.169000000000000000e+03 1.357462644577026367e+00 4.016155624389648438e+01 1.578073762357234955e-02 -1.017057180404663086e+00 -3.003829419612884521e-01 -6.944743543863296509e-02
1.170000000000000000e+03 9.448048591613769531e+00 1.886502861976623535e+00 3.999169915914535522e-02 -4.830541461706161499e-02 -2.494115615263581276e-03 2.927766181528568268e-02
1.171000000000000000e+03 8.715661048889160156e+00 1.874155640602111816e+00 5.283061787486076355e-02 -3.829875960946083069e-02 4.359557293355464935e-03 1.473363488912582397e-03
1.172000000000000000e+03 7.975556850433349609e+00 1.868710041046142578e+00 5.328253284096717834e-02 -2.621432393789291382e-02 8.120463229715824127e-03 -1.039388775825500488e-02
1.173000000000000000e+03 7.226274013519287109e+00 1.860844135284423828e+00 6.079559028148651123e-02 -2.113553136587142944e-02 1.189801841974258423e-02 -3.222408518195152283e-02
1.174000000000000000e+03 6.475492477416992188e+00 1.859712839126586914e+00 5.640070512890815735e-02 -1.118783745914697647e-02 1.356386020779609680e-02 -4.182801768183708191e-02
1.175000000000000000e+03 5.727991580963134766e+00 1.866780996322631836e+00 5.519538000226020813e-02 -8.975613862276077271e-03 1.386593002825975418e-02 -5.011754482984542847e-02
1.176000000000000000e+03 4.978300094604492188e+00 1.876338958740234375e+00 4.916180670261383057e-02 -2.701670629903674126e-03 1.393804047256708145e-02 -5.438119173049926758e-02
1.177000000000000000e+03 4.225272178649902344e+00 1.893667697906494141e+00 4.172817245125770569e-02 -2.355357632040977478e-03 1.181184407323598862e-02 -5.703705176711082458e-02
1.178000000000000000e+03 3.468729972839355469e+00 1.929545402526855469e+00 3.332335501909255981e-02 3.558467840775847435e-03 1.106454711407423019e-02 -5.636077001690864563e-02
1.179000000000000000e+03 1.939784646034240723e+00 2.063899993896484375e+00 1.519793458282947540e-02 2.181858755648136139e-02 1.110495626926422119e-02 -4.562364891171455383e-02
1.180000000000000000e+03 1.167224168777465820e+00 2.135980367660522461e+00 7.637536618858575821e-03 3.105224482715129852e-02 1.160693448036909103e-02 -3.165458887815475464e-02
1.181000000000000000e+03 1.141347789764404297e+01 8.299345016479492188e+00 -7.304014563560485840e-01 -6.649153232574462891e-01 -4.185950458049774170e-01 7.185799479484558105e-01
1.182000000000000000e+03 1.221560382843017578e+01 2.374927043914794922e+00 -1.829850673675537109e-01 -5.608798936009407043e-02 -7.172191888093948364e-02 2.083032727241516113e-01
1.183000000000000000e+03 1.437559890747070312e+01 3.755899190902709961e+00 -5.577767491340637207e-01 -2.653409913182258606e-02 -1.752932667732238770e-01 5.782102942466735840e-01
1.184000000000000000e+03 1.447051048278808594e+01 2.913479566574096680e+00 -5.792542695999145508e-01 3.009257838129997253e-02 -1.647485196590423584e-01 4.381907284259796143e-01
1.185000000000000000e+03 1.524952983856201172e+01 3.051970005035400391e+00 -7.226453423500061035e-01 2.871858142316341400e-02 -2.081780284643173218e-01 4.942814707756042480e-01
1.186000000000000000e+03 1.848382949829101562e+01 4.310595035552978516e+00 -6.858286857604980469e-01 7.030756026506423950e-02 -1.846563369035720825e-01 3.881281018257141113e-01
1.187000000000000000e+03 1.855065536499023438e+01 3.388393163681030273e+00 -1.087332248687744141e+00 -8.414249867200851440e-02 -3.514424264430999756e-01 3.618822693824768066e-01
1.188000000000000000e+03 2.252546501159667969e+01 2.466711521148681641e+00 -1.303282618522644043e+00 -1.170292273163795471e-01 -4.260935485363006592e-01 3.141508400440216064e-01
1.189000000000000000e+03 2.122450637817382812e+01 3.621023654937744141e+00 -9.085911512374877930e-01 -1.410042494535446167e-01 -3.148786127567291260e-01 1.873294711112976074e-01
1.190000000000000000e+03 2.328411865234375000e+01 2.277688026428222656e+00 -1.301392555236816406e+00 -1.299553960561752319e-01 -4.294044077396392822e-01 3.421623110771179199e-01
1.191000000000000000e+03 2.404551315307617188e+01 2.082245588302612305e+00 -1.289638638496398926e+00 -1.099810525774955750e-01 -4.198859035968780518e-01 3.620125949382781982e-01
1.192000000000000000e+03 2.480866622924804688e+01 1.885124444961547852e+00 -1.294440865516662598e+00 -8.615627884864807129e-02 -4.141791462898254395e-01 3.577018678188323975e-01
1.193000000000000000e+03 2.867070198059082031e+01 9.019211530685424805e-01 -1.355778098106384277e+00 2.162635177373886108e-01 -3.418543934822082520e-01 1.270405203104019165e-01
1.194000000000000000e+03 2.983607673645019531e+01 5.004899501800537109e+00 3.626638650894165039e-01 1.022235393524169922e+00 4.154697656631469727e-01 -5.014855861663818359e-01
1.195000000000000000e+03 2.941155815124511719e+01 6.572982072830200195e-01 -1.420345664024353027e+00 3.076519966125488281e-01 -3.338080942630767822e-01 4.674012959003448486e-02
1.196000000000000000e+03 3.008318901062011719e+01 4.080342352390289307e-01 -1.429451823234558105e+00 3.418391644954681396e-01 -3.262838125228881836e-01 -3.287839516997337341e-02
1.197000000000000000e+03 3.141640281677246094e+01 7.330098152160644531e-01 -1.466178655624389648e+00 2.884981036186218262e-01 -3.533041775226593018e-01 -1.542546749114990234e-01
1.198000000000000000e+03 3.314143371582031250e+01 1.863683223724365234e+00 -2.058572769165039062e+00 -1.316524390131235123e-02 -6.215214133262634277e-01 6.573649048805236816e-01
1.199000000000000000e+03 2.697302055358886719e+01 3.809485435485839844e+00 -4.423047602176666260e-01 1.938636451959609985e-01 -7.453233748674392700e-02 1.621727645397186279e-01
1.200000000000000000e+03 2.982917022705078125e+01 1.156357574462890625e+01 3.330089449882507324e-01 5.318298935890197754e-01 2.594516575336456299e-01 2.807324230670928955e-01
1.201000000000000000e+03 4.268914413452148438e+01 3.378740549087524414e+00 -6.180066466331481934e-01 2.356479406356811523e+00 5.215418338775634766e-01 -2.012550830841064453e+00
1.202000000000000000e+03 4.183937835693359375e+01 2.467109203338623047e+00 -9.056926965713500977e-01 1.185274362564086914e+00 8.387447893619537354e-02 -1.088873982429504395e+00
1.203000000000000000e+03 4.374369812011718750e+01 1.579034686088562012e+00 5.009485483169555664e-01 1.591437578201293945e+00 6.277158260345458984e-01 -2.082712173461914062e+00
1.204000000000000000e+03 4.593411254882812500e+01 8.436459302902221680e-01 2.830258846282958984e+00 4.086721897125244141e+00 2.075094223022460938e+00 -4.521101951599121094e+00
1.205000000000000000e+03 4.631936645507812500e+01 7.295808792114257812e-01 3.220589637756347656e+00 5.540222167968750000e+00 2.628243684768676758e+00 -5.184227943420410156e+00
1.206000000000000000e+03 4.830809783935546875e+01 6.533919811248779297e+00 -2.638199806213378906e+00 1.358939290046691895e+00 -3.837781250476837158e-01 -2.553677856922149658e-01
1.207000000000000000e+03 4.730971527099609375e+01 6.645280122756958008e-01 2.194185495376586914e+00 1.048675918579101562e+01 3.804283380508422852e+00 -4.314550876617431641e+00
1.208000000000000000e+03 4.660818099975585938e+01 -2.712550640106201172e+00 2.804746866226196289e+00 4.868607521057128906e+00 2.302006244659423828e+00 1.907475233078002930e+00
1.209000000000000000e+03 4.627039337158203125e+01 -2.789875507354736328e+00 2.952512979507446289e+00 3.371027946472167969e+00 1.897062301635742188e+00 1.732843875885009766e+00
1.210000000000000000e+03 4.570506668090820312e+01 -2.434808015823364258e+00 3.541836261749267578e+00 4.723178446292877197e-01 1.204246163368225098e+00 8.975612521171569824e-01
1.211000000000000000e+03 4.468063354492187500e+01 -2.297806262969970703e+00 2.396978855133056641e+00 -6.806663274765014648e-01 5.148937702178955078e-01 6.937371492385864258e-01
1.212000000000000000e+03 4.500587081909179688e+01 -2.404902458190917969e+00 2.556644916534423828e+00 -6.080796122550964355e-01 5.845695734024047852e-01 7.519240379333496094e-01
1.213000000000000000e+03 4.453077697753906250e+01 -2.273887395858764648e+00 2.377775430679321289e+00 -9.730389118194580078e-01 4.214209616184234619e-01 7.661449313163757324e-01
1.214000000000000000e+03 4.453840255737304688e+01 -2.433366060256958008e+00 2.259400844573974609e+00 -9.610692858695983887e-01 3.894994854927062988e-01 7.838963866233825684e-01
1.215000000000000000e+03 4.414003753662109375e+01 -2.994914293289184570e+00 1.892346858978271484e+00 -1.481537938117980957e+00 1.232426688075065613e-01 1.196054577827453613e+00
1.216000000000000000e+03 4.130216979980468750e+01 -1.509150862693786621e+00 2.830303907394409180e-01 1.579374521970748901e-01 1.322903484106063843e-01 1.195283412933349609e+00
1.217000000000000000e+03 4.195451736450195312e+01 -1.750537157058715820e+00 1.020821213722229004e+00 -1.610490381717681885e-01 2.579316794872283936e-01 1.637917041778564453e+00
1.218000000000000000e+03 3.790362930297851562e+01 -7.293012738227844238e-01 -1.011714935302734375e+00 7.333983182907104492e-01 -8.349496871232986450e-02 -1.516781300306320190e-01
1.219000000000000000e+03 3.349489974975585938e+01 -2.453891515731811523e+00 -4.627590477466583252e-01 -2.185607552528381348e-01 -2.043959498405456543e-01 -6.692113280296325684e-01
1.220000000000000000e+03 3.599275970458984375e+01 -2.516240835189819336e+00 1.618769466876983643e-01 4.072342514991760254e-01 1.707333624362945557e-01 -3.355999886989593506e-01
1.221000000000000000e+03 3.499514770507812500e+01 -1.913580060005187988e+00 -5.218638777732849121e-01 -2.281135506927967072e-02 -1.634025722742080688e-01 -6.399672031402587891e-01
1.222000000000000000e+03 3.186533355712890625e+01 -3.084182977676391602e+00 -3.443516790866851807e-01 -3.760732114315032959e-01 -2.161274701356887817e-01 -3.961484134197235107e-01
1.223000000000000000e+03 3.100042724609375000e+01 -3.365898370742797852e+00 -3.685998544096946716e-02 -9.995326995849609375e-01 -3.109177947044372559e-01 -2.319730520248413086e-01
1.224000000000000000e+03 3.012834930419921875e+01 -3.412327051162719727e+00 3.556801080703735352e-01 -2.830783128738403320e-01 2.178053557872772217e-02 -2.973996400833129883e-01
1.225000000000000000e+03 2.869699478149414062e+01 -3.056297540664672852e+00 5.281997323036193848e-01 1.068816542625427246e+00 4.791049063205718994e-01 -9.857117533683776855e-01
1.226000000000000000e+03 2.934167671203613281e+01 -3.193060398101806641e+00 3.871909081935882568e-01 -8.493580818176269531e-01 -1.386501491069793701e-01 1.132469847798347473e-01
1.227000000000000000e+03 3.168803977966308594e+01 -6.029758453369140625e+00 3.552165329456329346e-01 -5.664517283439636230e-01 -6.337055563926696777e-02 -4.038842767477035522e-02
1.228000000000000000e+03 2.597813415527343750e+01 -1.314912414550781250e+01 -1.532012581825256348e+00 -2.530584931373596191e-01 -5.355213284492492676e-01 -6.028596162796020508e-01
1.229000000000000000e+03 1.749906158447265625e+01 -9.825510025024414062e+00 9.157392196357250214e-03 3.444768488407135010e-01 1.060902774333953857e-01 -1.092530936002731323e-01
1.230000000000000000e+03 1.752266693115234375e+01 -4.186716556549072266e+00 -5.497178528457880020e-03 4.532019793987274170e-01 1.343114376068115234e-01 1.563829630613327026e-01
1.231000000000000000e+03 1.512541580200195312e+01 -1.891114115715026855e+00 -1.141733527183532715e-01 -1.912946701049804688e-01 -9.164040535688400269e-02 -1.451036930084228516e-01
1.232000000000000000e+03 1.921876144409179688e+01 -1.626932978630065918e+00 -1.026996821165084839e-01 -1.844786852598190308e-01 -8.615350723266601562e-02 3.501403331756591797e-01
1.233000000000000000e+03 1.899209213256835938e+01 -4.517046213150024414e-01 -3.276990950107574463e-01 2.055972814559936523e-02 -9.214180707931518555e-02 -6.427203863859176636e-02
1.234000000000000000e+03 1.959206771850585938e+01 -6.223422288894653320e-01 -4.655795171856880188e-02 4.722313582897186279e-02 1.995555940084159374e-04 2.191954106092453003e-01
1.235000000000000000e+03 1.821110153198242188e+01 -1.203108429908752441e+00 -3.606218099594116211e-01 -1.865764148533344269e-02 -1.137838363647460938e-01 1.774852126836776733e-01
1.236000000000000000e+03 1.656200408935546875e+01 -6.245302557945251465e-01 -3.092387914657592773e-01 3.318926692008972168e-01 6.796159315854310989e-03 -1.193026229739189148e-01
1.237000000000000000e+03 1.361662101745605469e+01 -1.192283272743225098e+00 -2.967156171798706055e-01 1.276237219572067261e-01 -5.072757229208946228e-02 -1.208353266119956970e-01
1.238000000000000000e+03 1.598428153991699219e+01 -2.853031873703002930e+00 -2.301847562193870544e-02 1.350835314951837063e-03 -6.500292569398880005e-03 -1.208852529525756836e-01
1.239000000000000000e+03 1.433502769470214844e+01 -1.065125465393066406e+00 -2.539282739162445068e-01 -2.178220897912979126e-01 -1.415251046419143677e-01 -1.516163945198059082e-01
1.240000000000000000e+03 1.134052848815917969e+01 -1.622009992599487305e+00 -2.062741518020629883e-01 -1.874371021986007690e-01 -1.181133762001991272e-01 -1.644421815872192383e-01
1.241000000000000000e+03 1.056373405456542969e+01 -1.763115763664245605e+00 -1.778317540884017944e-01 5.008093640208244324e-02 -3.832524642348289490e-02 -1.095796450972557068e-01
1.242000000000000000e+03 5.522080230712890625e+01 -2.321629905700683594e+01 1.860246777534484863e+00 1.017462730407714844e+01 3.610462427139282227e+00 2.960958003997802734e+00
1.243000000000000000e+03 7.350334930419921875e+01 -1.830467414855957031e+01 6.880407929420471191e-01 7.102078437805175781e+00 2.337035894393920898e+00 -1.249656558036804199e+00
1.244000000000000000e+03 6.508547973632812500e+01 -2.315977096557617188e+01 3.321827173233032227e+00 1.151873493194580078e+01 4.452168941497802734e+00 -4.746577739715576172e+00
1.245000000000000000e+03 5.243802642822265625e+01 -7.530753135681152344e+00 2.208856582641601562e+00 1.010953998565673828e+01 3.695518970489501953e+00 -2.052576780319213867e+00
1.246000000000000000e+03 3.982211685180664062e+01 -1.259967899322509766e+01 -1.280268073081970215e+00 -4.403989389538764954e-02 -3.972924053668975830e-01 5.955848097801208496e-01
1.247000000000000000e+03 3.699235153198242188e+01 -1.040656661987304688e+01 -5.650207027792930603e-02 1.321561813354492188e+00 3.795179128646850586e-01 6.376188248395919800e-02
1.248000000000000000e+03 3.709317016601562500e+01 -7.846516132354736328e+00 5.528872609138488770e-01 3.371906518936157227e+00 1.177438139915466309e+00 6.963643431663513184e-01
1.249000000000000000e+03 3.900974655151367188e+01 -1.139626383781433105e+00 -6.953052878379821777e-01 9.740204215049743652e-01 8.361454308032989502e-02 2.175279557704925537e-01
1.250000000000000000e+03 6.355439758300781250e+01 -3.974713134765625000e+01 -1.500233173370361328e+00 9.362846016883850098e-01 -1.691845655441284180e-01 4.578262567520141602e-01
1.251000000000000000e+03 5.614213562011718750e+01 -3.177703857421875000e+01 1.331278204917907715e+00 1.103053951263427734e+01 3.708545446395874023e+00 2.318007946014404297e+00
1.252000000000000000e+03 1.652697753906250000e+01 -1.589443778991699219e+01 1.571083217859268188e-01 4.241149425506591797e-01 1.743669807910919189e-01 -2.874001264572143555e-01
1.253000000000000000e+03 1.386329555511474609e+01 -2.817501831054687500e+01 4.585267230868339539e-02 -1.917241513729095459e-01 -4.376144334673881531e-02 -8.016164600849151611e-02
1.254000000000000000e+03 7.812707424163818359e+00 -1.387188434600830078e+01 -1.995288729667663574e-01 -2.085815817117691040e-01 -1.224331334233283997e-01 -2.218001186847686768e-01
1.255000000000000000e+03 5.479897689819335938e+01 1.446081829071044922e+01 1.560765027999877930e+00 7.586420059204101562e+00 2.744155645370483398e+00 -1.372796654701232910e+00
1.256000000000000000e+03 1.754998970031738281e+01 1.789776039123535156e+01 -4.002017974853515625e-01 -1.558338850736618042e-01 -1.668107062578201294e-01 2.871757447719573975e-01
1.257000000000000000e+03 1.951753044128417969e+01 4.213608741760253906e+00 -7.070814371109008789e-01 -7.027347385883331299e-02 -2.332064658403396606e-01 2.349587529897689819e-01
1.258000000000000000e+03 9.379234313964843750e+00 9.815390586853027344e+00 -5.068210363388061523e-01 -6.726277470588684082e-01 -3.538346290588378906e-01 4.533291161060333252e-01
1.259000000000000000e+03 1.016666984558105469e+01 1.557681083679199219e+01 4.308896660804748535e-01 6.134617924690246582e-01 3.133054375648498535e-01 4.904645979404449463e-01
1.260000000000000000e+03 3.890601348876953125e+01 -1.869373893737792969e+01 2.298482358455657959e-01 1.186565682291984558e-01 1.045514419674873352e-01 -1.399275362491607666e-01
1.261000000000000000e+03 3.967274475097656250e+01 -2.111191558837890625e+01 4.716722667217254639e-02 1.228374719619750977e+00 3.826625943183898926e-01 3.587809801101684570e-01
1.262000000000000000e+03 3.476861953735351562e+01 -2.867712402343750000e+01 -7.162050008773803711e-01 5.185311287641525269e-02 -1.993055790662765503e-01 1.671442575752735138e-02
1.263000000000000000e+03 3.018979454040527344e+01 -1.731769752502441406e+01 7.116431593894958496e-01 1.661201238632202148e+00 7.118533253669738770e-01 9.109101295471191406e-01
1.264000000000000000e+03 2.423714065551757812e+01 -3.003876113891601562e+01 1.273688226938247681e-01 7.070580124855041504e-01 2.503280639648437500e-01 -2.690355181694030762e-01
1.265000000000000000e+03 2.501651763916015625e+01 -3.632001495361328125e+01 6.064072251319885254e-02 8.551685214042663574e-01 2.747427821159362793e-01 1.322952061891555786e-01
1.266000000000000000e+03 1.270850276947021484e+01 -3.380794525146484375e+01 -7.244095671921968460e-03 1.153533626347780228e-02 1.287372317165136337e-03 -5.248169228434562683e-02
1.267000000000000000e+03 1.299864578247070312e+01 -3.242240905761718750e+01 -2.550136111676692963e-02 -1.000897064805030823e-01 -3.767732158303260803e-02 -6.839143484830856323e-02
1.268000000000000000e+03 1.597410869598388672e+01 -2.753596305847167969e+01 1.518050134181976318e-01 -7.941695302724838257e-02 2.171641960740089417e-02 -5.780874751508235931e-03
1.269000000000000000e+03 2.003112030029296875e+01 -2.648522758483886719e+01 4.941146075725555420e-01 5.568677932024002075e-02 1.649404168128967285e-01 -6.165882200002670288e-02
1.270000000000000000e+03 1.234681129455566406e+01 3.533955001831054688e+01 1.069842204451560974e-01 -1.126499101519584656e-02 2.871576696634292603e-02 6.060885265469551086e-02
1.271000000000000000e+03 1.511760520935058594e+01 3.440006637573242188e+01 -5.706033855676651001e-02 -1.551974005997180939e-02 -2.177402377128601074e-02 4.868654161691665649e-02
1.272000000000000000e+03 1.958447074890136719e+01 3.085461807250976562e+01 -1.256897766143083572e-02 1.152720600366592407e-01 3.081092424690723419e-02 1.751292613334953785e-03
1.273000000000000000e+03 2.286464309692382812e+01 2.551481246948242188e+01 2.195806354284286499e-01 8.337728977203369141e-01 3.160060644149780273e-01 3.969068229198455811e-01
1.274000000000000000e+03 1.469311904907226562e+01 2.170816612243652344e+01 4.622648656368255615e-01 2.205109447240829468e-01 2.048327326774597168e-01 4.945782124996185303e-01
1.275000000000000000e+03 1.309732627868652344e+01 2.271980857849121094e+01 2.906446754932403564e-01 7.246319204568862915e-02 1.089323610067367554e-01 1.853393167257308960e-01
1.276000000000000000e+03 6.574172496795654297e+00 2.545427894592285156e+01 -1.950255483388900757e-01 -5.500665307044982910e-01 -2.235276252031326294e-01 2.428437769412994385e-01
1.277000000000000000e+03 7.096604156494140625e+01 1.641598129272460938e+01 1.221688985824584961e+00 5.787260532379150391e+00 2.102684974670410156e+00 -2.393678188323974609e+00
1.278000000000000000e+03 6.612538909912109375e+01 6.715667724609375000e+00 -2.743280410766601562e+00 -1.126381829380989075e-01 -8.567755818367004395e-01 5.284746885299682617e-01
1.279000000000000000e+03 6.074839782714843750e+01 1.479854297637939453e+01 8.763881921768188477e-01 1.273178768157958984e+01 4.082452774047851562e+00 1.776425719261169434e+00
1.280000000000000000e+03 6.205119323730468750e+01 1.864649009704589844e+01 3.970211744308471680e+00 9.511707305908203125e+00 4.044575691223144531e+00 5.358788490295410156e+00
1.281000000000000000e+03 3.152141571044921875e+01 2.467337608337402344e+01 5.743569731712341309e-01 2.889731168746948242e+00 1.039226412773132324e+00 -7.125133275985717773e-01
1.282000000000000000e+03 3.233322525024414062e+01 1.679134941101074219e+01 2.964542508125305176e-01 1.453477621078491211e+00 5.249795913696289062e-01 -1.558023989200592041e-01
1.283000000000000000e+03 2.250987243652343750e+01 1.892079925537109375e+01 3.176813125610351562e-01 1.014322280883789062e+00 3.996010720729827881e-01 -4.220430254936218262e-01
1.284000000000000000e+03 2.195274162292480469e+01 2.803733825683593750e+01 3.518993258476257324e-01 6.464129686355590820e-01 2.994937002658843994e-01 3.875271081924438477e-01
1.285000000000000000e+03 4.779573059082031250e+01 3.048065757751464844e+01 8.914644718170166016e-01 4.666958808898925781e+00 1.667526960372924805e+00 -4.565878212451934814e-01
1.286000000000000000e+03 4.609189224243164062e+01 2.620983886718750000e+01 6.478790640830993652e-01 6.518048286437988281e+00 2.149778127670288086e+00 9.064161181449890137e-01
1.287000000000000000e+03 4.334421920776367188e+01 2.219458198547363281e+01 -1.021349549293518066e+00 1.687063097953796387e+00 1.997140645980834961e-01 8.485662341117858887e-01
1.288000000000000000e+03 3.585585021972656250e+01 2.525953865051269531e+01 1.422241330146789551e+00 4.497599601745605469e+00 1.775952339172363281e+00 -1.999469995498657227e+00
1.289000000000000000e+03 6.588101959228515625e+01 2.809131813049316406e+01 1.734746694564819336e+00 5.314766407012939453e+00 2.114853858947753906e+00 1.428273916244506836e+00
1.290000000000000000e+03 5.975727462768554688e+01 2.352681922912597656e+01 -4.866367340087890625e+00 5.848971009254455566e-01 -1.284440994262695312e+00 -3.380265459418296814e-02
1.291000000000000000e+03 5.498611068725585938e+01 3.396025848388671875e+01 7.822235822677612305e-01 3.451744556427001953e+00 1.270190477371215820e+00 1.597796797752380371e+00
1.292000000000000000e+03 7.933836364746093750e+01 -9.822629928588867188e+00 1.137364953756332397e-01 8.513242721557617188e+00 2.588093757629394531e+00 -5.357241034507751465e-01
1.293000000000000000e+03 6.608231353759765625e+01 -9.388331413269042969e+00 1.868048667907714844e+00 6.516483783721923828e+00 2.515359878540039062e+00 -3.254905939102172852e+00
1.294000000000000000e+03 6.392863464355468750e+01 -5.680225849151611328e+00 1.869133710861206055e+00 9.691719055175781250e+00 3.468255758285522461e+00 -2.166907936334609985e-01
1.295000000000000000e+03 4.087800979614257812e+01 -2.887927436828613281e+01 7.391084432601928711e-01 3.329415798187255859e+00 1.220557212829589844e+00 1.814535975456237793e+00
1.296000000000000000e+03 6.044396591186523438e+01 -2.086918830871582031e+00 2.520629882812500000e+00 8.494802474975585938e+00 3.304629564285278320e+00 -3.779536724090576172e+00
1.297000000000000000e+03 5.461646270751953125e+01 -8.854231834411621094e+00 2.425723791122436523e+00 3.008610248565673828e+00 1.630300164222717285e+00 -2.819925069808959961e+00
1.298000000000000000e+03 4.984864807128906250e+01 -4.281684398651123047e+00 6.722359061241149902e-01 1.072527503967285156e+01 3.419253349304199219e+00 -2.112132072448730469e+00
1.299000000000000000e+03 5.326980209350585938e+01 -1.919636368751525879e+00 1.774606823921203613e+00 6.512322425842285156e+00 2.486078739166259766e+00 2.766726970672607422e+00
1.300000000000000000e+03 4.411186218261718750e+01 -2.407495021820068359e+00 2.238763570785522461e+00 -1.443813323974609375e+00 2.384850531816482544e-01 1.050482749938964844e+00
1.301000000000000000e+03 4.345644760131835938e+01 -2.382291078567504883e+00 1.797203898429870605e+00 -1.345948100090026855e+00 1.353767216205596924e-01 1.526886582374572754e+00
1.302000000000000000e+03 4.605723953247070312e+01 -5.811618804931640625e+00 -3.186054706573486328e+00 -4.761172831058502197e-01 -1.098651647567749023e+00 1.895865797996520996e+00
1.303000000000000000e+03 4.841288375854492188e+01 -3.200610637664794922e+00 9.094403386116027832e-01 1.197299385070800781e+01 3.864730358123779297e+00 -2.173334360122680664e+00
1.304000000000000000e+03 4.604683303833007812e+01 -2.555731773376464844e+00 3.523769617080688477e+00 1.577225446701049805e+00 1.530298471450805664e+00 1.386062026023864746e+00
1.305000000000000000e+03 4.517272949218750000e+01 -2.551203012466430664e+00 2.761372804641723633e+00 -4.517047405242919922e-01 6.929004192352294922e-01 8.490420579910278320e-01
1.306000000000000000e+03 4.484749221801757812e+01 -2.341011047363281250e+00 2.510608196258544922e+00 -7.267088890075683594e-01 5.351697802543640137e-01 6.814333200454711914e-01
1.307000000000000000e+03 4.504751205444335938e+01 -3.432498216629028320e+00 1.628087162971496582e+00 -5.778638720512390137e-01 3.150669932365417480e-01 1.277173638343811035e+00
1.308000000000000000e+03 4.556204223632812500e+01 -2.444722175598144531e+00 3.296884536743164062e+00 9.930304437875747681e-02 1.018856287002563477e+00 7.179447412490844727e-01
1.309000000000000000e+03 4.585967636108398438e+01 -2.493982553482055664e+00 3.492265939712524414e+00 1.121379613876342773e+00 1.384093642234802246e+00 1.112938046455383301e+00
1.310000000000000000e+03 4.438358688354492188e+01 -2.331936359405517578e+00 2.292054176330566406e+00 -1.120343446731567383e+00 3.515132367610931396e-01 7.639976143836975098e-01
1.311000000000000000e+03 4.813650894165039062e+01 5.473476648330688477e-01 2.783630371093750000e+00 1.193955612182617188e+01 4.416955947875976562e+00 -1.187357664108276367e+00
1.312000000000000000e+03 4.867661666870117188e+01 5.559003353118896484e+00 -4.881371974945068359e+00 1.914443850517272949e+00 -8.900784254074096680e-01 -7.902582287788391113e-01
1.313000000000000000e+03 4.550430297851562500e+01 9.242770075798034668e-01 2.456275701522827148e+00 3.003767013549804688e+00 1.638012886047363281e+00 -3.852608680725097656e+00
1.314000000000000000e+03 4.682575988769531250e+01 3.535776138305664062e+00 -1.835834026336669922e+00 5.920303344726562500e+00 1.225340723991394043e+00 -3.671901702880859375e+00
1.315000000000000000e+03 4.591614151000976562e+01 1.198694825172424316e+00 2.076160430908203125e+00 4.414239406585693359e+00 1.947119951248168945e+00 -4.454092979431152344e+00
1.316000000000000000e+03 4.670232009887695312e+01 6.370162367820739746e-01 2.970799207687377930e+00 7.273872375488281250e+00 3.073401451110839844e+00 -5.371791362762451172e+00
1.317000000000000000e+03 4.699986648559570312e+01 9.558453559875488281e-01 1.930689573287963867e+00 8.522508621215820312e+00 3.135959386825561523e+00 -4.768615722656250000e+00
1.318000000000000000e+03 4.528319168090820312e+01 9.524887204170227051e-01 2.223929643630981445e+00 2.464938879013061523e+00 1.406660556793212891e+00 -3.402563333511352539e+00
1.319000000000000000e+03 4.651734161376953125e+01 6.957277059555053711e-01 3.208857059478759766e+00 6.151982784271240234e+00 2.808251857757568359e+00 -5.302420616149902344e+00
1.320000000000000000e+03 4.571742630004882812e+01 8.893589973449707031e-01 2.625016689300537109e+00 3.369739294052124023e+00 1.798426866531372070e+00 -4.091102123260498047e+00
1.321000000000000000e+03 1.293556499481201172e+01 2.553627490997314453e+00 -2.907593846321105957e-01 -1.752141490578651428e-02 -9.248423576354980469e-02 2.818669974803924561e-01
1.322000000000000000e+03 1.207601165771484375e+01 3.090696811676025391e+00 -2.613300383090972900e-01 -1.054588854312896729e-01 -1.100366786122322083e-01 2.470045238733291626e-01
1.323000000000000000e+03 1.074971866607666016e+01 2.808729648590087891e+00 -1.315621584653854370e-01 -8.689925819635391235e-02 -6.553842127323150635e-02 1.092983856797218323e-01
1.324000000000000000e+03 1.141178989410400391e+01 4.258006572723388672e+00 -3.444049358367919922e-01 -2.611602842807769775e-01 -1.816695630550384521e-01 2.624723613262176514e-01
1.325000000000000000e+03 1.008885383605957031e+01 2.719288587570190430e+00 -1.002961471676826477e-01 -8.361896127462387085e-02 -5.517453327775001526e-02 8.316411823034286499e-02
1.326000000000000000e+03 1.505912113189697266e+01 -9.338402152061462402e-01 -3.194480240345001221e-01 2.141369730234146118e-01 -3.159331530332565308e-02 -1.489889174699783325e-01
1.327000000000000000e+03 1.287277698516845703e+01 -1.324803113937377930e+00 -2.367981821298599243e-01 -1.969375014305114746e-01 -1.301207095384597778e-01 -1.779204607009887695e-01
1.328000000000000000e+03 1.419081306457519531e+01 -3.789363145828247070e+00 -8.147728629410266876e-03 4.941473901271820068e-02 1.238010264933109283e-02 -2.539777196943759918e-02
1.329000000000000000e+03 1.695207977294921875e+01 -2.891440868377685547e+00 2.724180521909147501e-04 2.219841033220291138e-01 6.667695939540863037e-02 9.714081138372421265e-02
1.330000000000000000e+03 4.138003349304199219e+00 -2.523048400878906250e+00 -1.958927884697914124e-02 9.073079563677310944e-03 -3.154859878122806549e-03 -1.821589283645153046e-02
1.331000000000000000e+03 6.784267902374267578e+00 -2.577774524688720703e+00 -5.992836877703666687e-02 2.140112034976482391e-02 -1.155817415565252304e-02 -5.993163213133811951e-02
1.332000000000000000e+03 5.423578262329101562e+00 -1.819796800613403320e+00 -4.213522747159004211e-02 -7.070353627204895020e-02 -3.385162726044654846e-02 -5.945798754692077637e-02
1.333000000000000000e+03 8.246334075927734375e+00 -3.336790561676025391e+00 -7.332417368888854980e-02 -1.146778240799903870e-01 -5.640059709548950195e-02 -1.407133191823959351e-01
1.334000000000000000e+03 8.271533966064453125e+00 -2.584512233734130859e+00 -7.916853576898574829e-02 2.213285677134990692e-02 -1.711070351302623749e-02 -8.924409002065658569e-02
1.335000000000000000e+03 7.530762672424316406e+00 -2.584116220474243164e+00 -8.062005788087844849e-02 -1.007827967405319214e-01 -5.442085862159729004e-02 -1.158287376165390015e-01
1.336000000000000000e+03 6.128044128417968750e+00 -1.848791122436523438e+00 -5.859462916851043701e-02 4.130588099360466003e-02 -5.186624359339475632e-03 -3.355646505951881409e-02
1.337000000000000000e+03 6.024654865264892578e+00 -2.583147764205932617e+00 -5.191241577267646790e-02 -7.510105520486831665e-02 -3.810404241085052490e-02 -8.571735769510269165e-02
1.338000000000000000e+03 4.763314247131347656e+00 -2.410290718078613281e+00 -3.144062310457229614e-02 -5.397784709930419922e-02 -2.562553994357585907e-02 -5.955384299159049988e-02
1.339000000000000000e+03 2.360506772994995117e+00 -5.004895210266113281e+00 1.554444665089249611e-03 -3.276895359158515930e-02 -9.364352561533451080e-03 -1.672195084393024445e-02
1.340000000000000000e+03 3.791592717170715332e-01 -2.196302413940429688e+00 -3.785930573940277100e-03 2.436423208564519882e-03 -4.048521805088967085e-04 -7.686142344027757645e-04
1.341000000000000000e+03 4.259788393974304199e-01 -3.594260692596435547e+00 2.447899198159575462e-03 -7.292630150914192200e-03 -1.453419215977191925e-03 -2.627162961289286613e-03
1.342000000000000000e+03 4.646187722682952881e-01 -5.002838611602783203e+00 -2.383526414632797241e-03 -1.325726788491010666e-02 -4.692238289862871170e-03 -3.016945207491517067e-03
1.343000000000000000e+03 9.804346084594726562e+00 -2.541295766830444336e+00 -1.088465750217437744e-01 1.978581584990024567e-02 -2.671822719275951385e-02 -1.126997694373130798e-01
1.344000000000000000e+03 9.415615081787109375e+00 2.653601646423339844e+00 -6.587529927492141724e-02 -7.865463942289352417e-02 -4.335898160934448242e-02 4.005213081836700439e-02
1.345000000000000000e+03 8.017502784729003906e+00 2.625833749771118164e+00 -3.046580776572227478e-02 -4.774113371968269348e-02 -2.346208132803440094e-02 -9.878151118755340576e-03
1.346000000000000000e+03 7.281853675842285156e+00 2.584471940994262695e+00 -2.488550730049610138e-02 -3.344498947262763977e-02 -1.749914884567260742e-02 -2.060404978692531586e-02
1.347000000000000000e+03 6.554957389831542969e+00 2.582724809646606445e+00 -6.816597655415534973e-03 -2.666548267006874084e-02 -1.004462409764528275e-02 -3.952228277921676636e-02
1.348000000000000000e+03 5.833610534667968750e+00 2.609456300735473633e+00 -4.891067277640104294e-03 -1.203314401209354401e-02 -5.077263340353965759e-03 -4.683993384242057800e-02
1.349000000000000000e+03 2.583038806915283203e+00 7.171033859252929688e+00 -7.456693798303604126e-02 -8.175871334969997406e-03 -2.482284419238567352e-02 7.177984714508056641e-02
1.350000000000000000e+03 5.212077140808105469e+00 3.360235214233398438e+00 -5.067426711320877075e-02 -1.349292136728763580e-02 -1.925015635788440704e-02 -4.418848082423210144e-02
1.351000000000000000e+03 1.291714429855346680e+00 3.401551723480224609e+00 -1.741398591548204422e-03 5.544132366776466370e-02 1.610997691750526428e-02 -3.870863094925880432e-02
1.352000000000000000e+03 2.706521987915039062e+00 1.989015698432922363e+00 2.561033330857753754e-02 9.749942459166049957e-03 1.060808263719081879e-02 -5.378148332238197327e-02
1.353000000000000000e+03 2.101726293563842773e+00 3.162211179733276367e+00 -1.187639776617288589e-03 3.075706586241722107e-02 8.870827965438365936e-03 -5.100760981440544128e-02
1.354000000000000000e+03 1.899237442016601562e+01 -1.036262035369873047e+00 1.401033997535705566e-01 2.172103375196456909e-01 1.071941182017326355e-01 6.847336888313293457e-02
1.355000000000000000e+03 3.573667907714843750e+01 -1.653850078582763672e+00 -7.359932661056518555e-01 -5.803561210632324219e-02 -2.382086515426635742e-01 -4.357539117336273193e-01
1.356000000000000000e+03 3.954875946044921875e+01 -3.922855854034423828e+00 3.427639961242675781e+00 1.725106120109558105e+00 1.545823812484741211e+00 2.087008953094482422e+00
1.357000000000000000e+03 3.898207473754882812e+01 -2.091162681579589844e+00 2.353799939155578613e-01 1.075072526931762695e+00 3.931357562541961670e-01 4.577343165874481201e-01
1.358000000000000000e+03 3.442735671997070312e+01 -2.935142278671264648e+00 6.812772899866104126e-02 -6.669487059116363525e-02 4.298596468288451433e-04 -5.131986737251281738e-01
1.359000000000000000e+03 3.684779357910156250e+01 -2.240780115127563477e+00 -4.712569341063499451e-02 5.380464196205139160e-01 1.472762078046798706e-01 -9.065343439579010010e-02
1.360000000000000000e+03 3.269174957275390625e+01 -2.768251657485961914e+00 -4.536534249782562256e-01 -6.516218185424804688e-01 -3.315825760364532471e-01 -3.849492371082305908e-01
1.361000000000000000e+03 3.681278610229492188e+01 -6.894214630126953125e+00 9.019187688827514648e-01 3.031134366989135742e+00 1.179915904998779297e+00 1.034720540046691895e+00
1.362000000000000000e+03 1.604350471496582031e+01 3.131717681884765625e+00 -8.604154586791992188e-01 6.217585504055023193e-02 -2.394718676805496216e-01 5.045086145401000977e-01
1.363000000000000000e+03 1.301848983764648438e+01 5.226768016815185547e+00 -5.010749697685241699e-01 -3.742215931415557861e-01 -2.625889778137207031e-01 4.741907417774200439e-01
1.364000000000000000e+03 1.353954696655273438e+01 3.561412096023559570e+00 -4.367588758468627930e-01 -7.554836571216583252e-02 -1.536921709775924683e-01 4.800520837306976318e-01
1.365000000000000000e+03 1.601209068298339844e+01 3.839223861694335938e+00 -7.592833042144775391e-01 6.606398522853851318e-02 -2.079657912254333496e-01 6.240714192390441895e-01
1.366000000000000000e+03 1.141315078735351562e+01 2.919602632522583008e+00 -1.902571916580200195e-01 -1.162455454468727112e-01 -9.195081889629364014e-02 1.845767050981521606e-01
1.367000000000000000e+03 4.758217620849609375e+01 -2.893054485321044922e+00 1.113403320312500000e+00 1.104082202911376953e+01 3.646267652511596680e+00 -1.895831227302551270e-01
1.368000000000000000e+03 5.272264099121093750e+01 -3.026792287826538086e+00 1.123871922492980957e+00 1.008106708526611328e+01 3.361481666564941406e+00 1.202672004699707031e+00
1.369000000000000000e+03 4.912374496459960938e+01 -1.552846074104309082e+00 7.229931354522705078e+00 1.077493476867675781e+01 5.401459693908691406e+00 -3.230992794036865234e+00
1.370000000000000000e+03 4.876745605468750000e+01 1.535080522298812866e-01 5.315331459045410156e+00 1.090779304504394531e+01 4.866937160491943359e+00 9.257521629333496094e-01
1.371000000000000000e+03 5.193733215332031250e+01 1.511716246604919434e+00 1.608431577682495117e+00 5.231832027435302734e+00 2.052079200744628906e+00 2.984238386154174805e+00
1.372000000000000000e+03 4.981095504760742188e+01 -1.199732184410095215e+00 5.785790443420410156e+00 8.490876197814941406e+00 4.282999992370605469e+00 -9.801347851753234863e-01
1.373000000000000000e+03 4.742429733276367188e+01 -7.839247703552246094e+00 3.494369387626647949e-01 9.563792228698730469e+00 2.973968982696533203e+00 -2.597376704216003418e-01
1.374000000000000000e+03 4.634673690795898438e+01 1.021250963211059570e+00 2.360633134841918945e+00 5.806972980499267578e+00 2.450281620025634766e+00 -4.801239490509033203e+00
1.375000000000000000e+03 4.762876892089843750e+01 1.231256246566772461e+00 9.708957076072692871e-01 1.010063743591308594e+01 3.321460008621215820e+00 -3.005444288253784180e+00
1.376000000000000000e+03 2.739721107482910156e+01 2.119989395141601562e+00 -1.011257886886596680e+00 1.619337946176528931e-01 -2.547972500324249268e-01 2.153663933277130127e-01
1.377000000000000000e+03 2.712183761596679688e+01 1.309681415557861328e+00 -1.316425442695617676e+00 6.269570440053939819e-02 -3.761189281940460205e-01 2.863422930240631104e-01
1.378000000000000000e+03 2.100062751770019531e+01 2.874457836151123047e+00 -1.291345834732055664e+00 -1.123848482966423035e-01 -4.211191833019256592e-01 2.454403936862945557e-01
1.379000000000000000e+03 2.557343292236328125e+01 1.690788269042968750e+00 -1.284761667251586914e+00 -6.047239899635314941e-02 -4.035702049732208252e-01 3.561627864837646484e-01
1.380000000000000000e+03 2.502733421325683594e+01 2.663953065872192383e+00 -9.781318306922912598e-01 -6.018498539924621582e-02 -3.114950358867645264e-01 2.941844463348388672e-01
1.381000000000000000e+03 2.905996513366699219e+01 1.706546187400817871e+00 -1.170372009277343750e+00 3.714954853057861328e-01 -2.396629601716995239e-01 7.422036677598953247e-02
1.382000000000000000e+03 2.044127082824707031e+01 3.976769447326660156e+00 -7.897744178771972656e-01 -1.192868351936340332e-01 -2.727183699607849121e-01 2.115260213613510132e-01
1.383000000000000000e+03 1.941548538208007812e+01 3.312097787857055664e+00 -1.127017378807067871e+00 -1.277438849210739136e-01 -3.764283955097198486e-01 2.857320308685302734e-01
1.384000000000000000e+03 2.272546577453613281e+01 3.230598211288452148e+00 -9.767854809761047363e-01 -1.406251490116119385e-01 -3.352231979370117188e-01 2.477850466966629028e-01
1.385000000000000000e+03 2.348844528198242188e+01 3.063304901123046875e+00 -9.776892662048339844e-01 -1.181861534714698792e-01 -3.287626206874847412e-01 2.662307918071746826e-01
1.386000000000000000e+03 2.425818824768066406e+01 2.863503456115722656e+00 -9.805052280426025391e-01 -9.611449390649795532e-02 -3.229859173297882080e-01 2.733464539051055908e-01
1.387000000000000000e+03 2.949770545959472656e+01 2.566930770874023438e+00 -7.799425721168518066e-01 4.765054881572723389e-01 -9.103112667798995972e-02 7.062266767024993896e-02
1.388000000000000000e+03 2.888053703308105469e+01 5.723979473114013672e+00 3.394759893417358398e-01 1.043585181236267090e+00 4.149183630943298340e-01 -2.435857951641082764e-01
1.389000000000000000e+03 2.658339500427246094e+01 2.291580200195312500e+00 -9.922760128974914551e-01 5.950996652245521545e-02 -2.798298001289367676e-01 2.590761482715606689e-01
1.390000000000000000e+03 2.169999504089355469e+01 5.366527557373046875e+00 -2.059952616691589355e-01 -1.084985509514808655e-01 -9.434814751148223877e-02 1.067601740360260010e-01
1.391000000000000000e+03 3.182847595214843750e+01 1.562166333198547363e+00 -1.339031338691711426e+00 3.555824756622314453e-01 -2.950346767902374268e-01 1.130199152976274490e-02
1.392000000000000000e+03 3.106336975097656250e+01 2.667279005050659180e+00 -5.908544659614562988e-01 3.659256994724273682e-01 -6.747863441705703735e-02 -1.137721538543701172e-02
1.393000000000000000e+03 1.775258255004882812e+01 5.750071525573730469e+00 -1.347028762102127075e-01 3.285294175148010254e-01 5.814795941114425659e-02 4.286003410816192627e-01
1.394000000000000000e+03 1.362571811676025391e+01 -2.028213739395141602e+00 -1.388846188783645630e-01 -1.787564903497695923e-01 -9.529233723878860474e-02 -1.749746054410934448e-01
1.395000000000000000e+03 1.060834980010986328e+01 -2.482704401016235352e+00 -1.301116645336151123e-01 -1.529870629310607910e-01 -8.492961525917053223e-02 -1.673200279474258423e-01
1.396000000000000000e+03 1.214569473266601562e+01 -2.226213455200195312e+00 -1.470308601856231689e-01 -1.859402507543563843e-01 -9.989133477210998535e-02 -1.845273226499557495e-01
1.397000000000000000e+03 1.640469741821289062e+01 -5.420495986938476562e+00 5.241848528385162354e-03 3.340160250663757324e-01 1.017773598432540894e-01 6.034648045897483826e-02
1.398000000000000000e+03 3.983734130859375000e+01 -1.099863409996032715e+00 -5.859106779098510742e-01 5.261065363883972168e-01 -1.794124953448772430e-02 5.642407536506652832e-01
1.399000000000000000e+03 4.069519805908203125e+01 -3.451374530792236328e+00 3.715640783309936523e+00 1.040939927101135254e+00 1.426974177360534668e+00 1.376465559005737305e+00
1.400000000000000000e+03 4.259128570556640625e+01 -3.617193698883056641e+00 1.066965460777282715e+00 -6.335728764533996582e-01 1.300177723169326782e-01 9.550364017486572266e-01
1.401000000000000000e+03 4.182621383666992188e+01 -2.927336931228637695e+00 2.263535976409912109e+00 -1.243209540843963623e-01 6.417645215988159180e-01 1.545907855033874512e+00
1.402000000000000000e+03 4.356413269042968750e+01 -4.209329605102539062e+00 -2.244487524032592773e+00 -1.186890244483947754e+00 -1.029413342475891113e+00 1.722090721130371094e+00
1.403000000000000000e+03 3.838317108154296875e+01 -4.173311233520507812e+00 2.513966083526611328e+00 2.272422075271606445e+00 1.435916423797607422e+00 1.668952226638793945e+00
1.404000000000000000e+03 3.968569564819335938e+01 -2.211131811141967773e+00 6.856057047843933105e-01 1.404626250267028809e+00 6.270695924758911133e-01 7.561162710189819336e-01
1.405000000000000000e+03 3.250498962402343750e+01 1.675605297088623047e+00 -1.421397209167480469e+00 3.701811432838439941e-01 -3.153648078441619873e-01 -6.211594119668006897e-02
1.406000000000000000e+03 3.073818778991699219e+01 4.114397525787353516e+00 2.262050658464431763e-01 4.622744619846343994e-01 2.065438628196716309e-01 -3.612436056137084961e-01
1.407000000000000000e+03 3.007248687744140625e+01 3.406247138977050781e+00 -3.709879815578460693e-01 6.120660901069641113e-01 7.232342660427093506e-02 -1.322973817586898804e-01
1.408000000000000000e+03 3.105396461486816406e+01 1.357638955116271973e+00 -1.273259758949279785e+00 4.389612972736358643e-01 -2.502895295619964600e-01 -1.246811524033546448e-01
1.409000000000000000e+03 1.749330902099609375e+01 4.227233886718750000e+00 -7.287693023681640625e-01 9.763865172863006592e-02 -1.893391907215118408e-01 5.119516849517822266e-01
1.410000000000000000e+03 1.699964714050292969e+01 5.068675518035888672e+00 -5.322278738021850586e-01 1.994168758392333984e-01 -9.984329342842102051e-02 5.888027548789978027e-01
1.411000000000000000e+03 1.517836093902587891e+01 6.667311668395996094e+00 -2.372705638408660889e-01 3.267354145646095276e-02 -6.137910485267639160e-02 2.841033041477203369e-01
1.412000000000000000e+03 3.529949951171875000e+01 -4.448319435119628906e+00 9.030587077140808105e-01 2.900500595569610596e-01 3.579326272010803223e-01 8.572348952293395996e-02
1.413000000000000000e+03 3.292097473144531250e+01 -3.550668716430664062e+00 4.272823780775070190e-02 -3.846388459205627441e-01 -1.025731861591339111e-01 -4.364262223243713379e-01
1.414000000000000000e+03 3.206663513183593750e+01 -3.909930944442749023e+00 1.466961055994033813e-01 -7.354438900947570801e-01 -1.766243427991867065e-01 -2.309240549802780151e-01
1.415000000000000000e+03 3.108750343322753906e+01 -4.212568283081054688e+00 1.244565621018409729e-01 -5.540603995323181152e-01 -1.288811564445495605e-01 -4.174982607364654541e-01
1.416000000000000000e+03 1.823310661315917969e+01 -2.005584478378295898e+00 2.208258807659149170e-01 5.681509375572204590e-01 2.366930544376373291e-01 1.790180802345275879e-02
1.417000000000000000e+03 4.261407089233398438e+01 2.225726366043090820e+00 -4.568626284599304199e-01 1.444921016693115234e+00 2.964175045490264893e-01 -1.544411659240722656e+00
1.418000000000000000e+03 4.119006729125976562e+01 3.702818393707275391e+00 -4.996041953563690186e-01 1.126134872436523438e+00 1.879591941833496094e-01 -1.341989874839782715e+00
1.419000000000000000e+03 4.105840301513671875e+01 2.759165525436401367e+00 -1.509221196174621582e+00 9.502052664756774902e-01 -1.677047759294509888e-01 -1.098361015319824219e+00
1.420000000000000000e+03 4.286891174316406250e+01 4.350683212280273438e+00 -7.819950580596923828e-01 3.049460411071777344e+00 6.802396178245544434e-01 -2.023963451385498047e+00
1.421000000000000000e+03 3.882666397094726562e+01 4.109408378601074219e+00 9.871049225330352783e-02 8.224771618843078613e-01 2.763563096523284912e-01 3.433284759521484375e-01
1.422000000000000000e+03 3.969215393066406250e+01 3.357445955276489258e+00 -8.192203938961029053e-03 -3.437888920307159424e-01 -1.055943295359611511e-01 -7.013957500457763672e-01
1.423000000000000000e+03 4.662586975097656250e+01 6.876520156860351562e+00 -1.498830080032348633e+00 4.683603763580322266e+00 9.554321169853210449e-01 -1.951301097869873047e+00
1.424000000000000000e+03 4.439604187011718750e+01 1.206030488014221191e+00 1.239927768707275391e+00 1.803610205650329590e+00 9.130614399909973145e-01 -2.508166074752807617e+00
1.425000000000000000e+03 4.476915740966796875e+01 2.321259737014770508e+00 3.621987402439117432e-01 3.449232101440429688e+00 1.143429279327392578e+00 -3.547890424728393555e+00
1.426000000000000000e+03 4.337716674804687500e+01 2.344608306884765625e+00 -1.222149655222892761e-01 2.065377235412597656e+00 5.829486846923828125e-01 -2.064917564392089844e+00
1.427000000000000000e+03 3.989661026000976562e+01 -2.363713836669921875e+01 8.229419589042663574e-01 5.295992374420166016e+00 1.835680246353149414e+00 1.639410376548767090e+00
1.428000000000000000e+03 4.870169067382812500e+01 -3.033274459838867188e+01 2.411093473434448242e+00 5.009253978729248047e+00 2.226104259490966797e+00 -2.894654989242553711e+00
1.429000000000000000e+03 4.856586456298828125e+01 -2.646893692016601562e+01 -1.655698418617248535e+00 3.151617288589477539e+00 4.487756788730621338e-01 -2.182352304458618164e+00
1.430000000000000000e+03 4.689145278930664062e+01 2.449931144714355469e+01 1.187945604324340820e+00 4.298079490661621094e+00 1.645807623863220215e+00 7.306674122810363770e-01
1.431000000000000000e+03 4.762784194946289062e+01 2.908126449584960938e+01 1.213541030883789062e+00 4.627637863159179688e+00 1.752353668212890625e+00 -3.200551569461822510e-01
1.432000000000000000e+03 1.861391830444335938e+01 -2.651421928405761719e+01 5.374291539192199707e-01 4.671647772192955017e-02 1.752436906099319458e-01 3.827591612935066223e-02
1.433000000000000000e+03 3.041847229003906250e+01 3.041655921936035156e+01 6.032289266586303711e-01 1.632073760032653809e+00 6.705908179283142090e-01 -7.096528410911560059e-01
1.434000000000000000e+03 4.647994613647460938e+01 -1.210257339477539062e+01 3.882204055786132812e+00 8.143918991088867188e+00 3.607836961746215820e+00 5.268668651580810547e+00
1.435000000000000000e+03 3.308499908447265625e+01 1.562774467468261719e+01 4.123792946338653564e-01 9.885269999504089355e-01 4.202718734741210938e-01 -3.749309480190277100e-01
1.436000000000000000e+03 3.107662773132324219e+01 1.608073043823242188e+01 3.143188953399658203e-01 8.582791686058044434e-01 3.517794013023376465e-01 3.237762749195098877e-01
1.437000000000000000e+03 6.079094314575195312e+01 3.561589431762695312e+01 -1.920271635055541992e+00 4.371937215328216553e-01 -4.449233710765838623e-01 2.640850841999053955e-03
1.438000000000000000e+03 4.962308883666992188e+01 -3.486991500854492188e+01 1.288534760475158691e+00 6.335412979125976562e+00 2.287184238433837891e+00 1.437209367752075195e+00
1.439000000000000000e+03 4.262495422363281250e+01 -4.106023406982421875e+01 -5.015453696250915527e-01 4.010671079158782959e-01 -3.014347702264785767e-02 -2.813627421855926514e-01
1.440000000000000000e+03 3.919164657592773438e+01 -3.995103454589843750e+01 -9.298921823501586914e-01 1.798387408256530762e+00 2.605485618114471436e-01 -5.459339916706085205e-02
1.441000000000000000e+03 3.929644775390625000e+01 -3.442620849609375000e+01 7.713410854339599609e-01 5.440735340118408203e+00 1.863623023033142090e+00 -6.604833602905273438e-01
1.442000000000000000e+03 5.259638977050781250e+01 -3.363827896118164062e+01 1.821142435073852539e+00 5.972497940063476562e+00 2.338092088699340820e+00 4.730777740478515625e-01
1.443000000000000000e+03 4.966434860229492188e+01 -2.984087944030761719e+01 1.686351180076599121e+00 4.284144401550292969e+00 1.791148662567138672e+00 -1.224792242050170898e+00
1.444000000000000000e+03 5.790100860595703125e+01 4.094377136230468750e+01 -3.290110826492309570e-01 1.628124594688415527e+00 3.897340297698974609e-01 2.792695164680480957e-01
1.445000000000000000e+03 5.982779312133789062e+01 3.722995758056640625e+01 -1.391129612922668457e+00 4.680902063846588135e-01 -2.769118249416351318e-01 -2.429590374231338501e-02
1.446000000000000000e+03 1.516661262512207031e+01 -2.396913909912109375e+01 5.664906278252601624e-02 -2.812455594539642334e-01 -6.737894564867019653e-02 -1.772974431514739990e-01
1.447000000000000000e+03 1.845171737670898438e+01 -2.554313087463378906e+01 3.270807564258575439e-01 4.493799433112144470e-02 1.116056218743324280e-01 -2.875957451760768890e-02
1.448000000000000000e+03 4.372028350830078125e+01 -2.738935661315917969e+01 -2.856203556060791016e+00 -1.874287873506546021e-01 -9.130896925926208496e-01 3.224425613880157471e-01
1.449000000000000000e+03 4.049763107299804688e+01 -2.373902320861816406e+00 1.041250109672546387e+00 8.521049618721008301e-01 5.680065155029296875e-01 1.311960697174072266e+00
1.450000000000000000e+03 3.815262603759765625e+01 -5.203962802886962891e+00 2.598044633865356445e+00 3.254976511001586914e+00 1.755906343460083008e+00 2.385912656784057617e+00
1.451000000000000000e+03 3.175683403015136719e+01 -1.118064689636230469e+01 -3.976934850215911865e-01 3.088182508945465088e-01 -2.666256576776504517e-02 6.163602471351623535e-01
1.452000000000000000e+03 3.579979324340820312e+01 -9.228693962097167969e+00 3.905446231365203857e-01 1.335231065750122070e+00 5.177326798439025879e-01 8.442384600639343262e-01
1.453000000000000000e+03 2.138057136535644531e+01 1.595713329315185547e+01 -1.620356291532516479e-01 3.150336146354675293e-01 4.589939117431640625e-02 5.016006529331207275e-03
1.454000000000000000e+03 3.313645553588867188e+01 2.304677963256835938e+01 2.948180735111236572e-01 3.127329587936401367e+00 1.026644349098205566e+00 -4.459598958492279053e-01
1.455000000000000000e+03 4.247375488281250000e+01 -2.760783958435058594e+01 -1.630595088005065918e+00 9.722177386283874512e-01 -1.975132077932357788e-01 6.769592165946960449e-01
1.456000000000000000e+03 2.674352073669433594e+01 2.985958290100097656e+01 9.627903103828430176e-01 5.708939433097839355e-01 4.601052701473236084e-01 -1.610419303178787231e-01
1.457000000000000000e+03 2.174748229980468750e+01 3.084490394592285156e+01 1.345257461071014404e-01 5.412143468856811523e-01 2.027220278978347778e-01 -5.832237191498279572e-03
1.458000000000000000e+03 3.110367393493652344e+01 1.394415283203125000e+01 2.999989986419677734e-01 5.833921432495117188e-01 2.650173604488372803e-01 3.061975836753845215e-01
1.459000000000000000e+03 2.773688316345214844e+01 1.212975311279296875e+01 3.117589056491851807e-01 3.282774090766906738e-01 1.920108944177627563e-01 7.428470999002456665e-02
1.460000000000000000e+03 2.225801086425781250e+01 2.020668411254882812e+01 1.180742830038070679e-01 9.847155213356018066e-01 3.308369517326354980e-01 -2.362050265073776245e-01
1.461000000000000000e+03 2.001184654235839844e+01 1.864702415466308594e+01 9.128116071224212646e-02 1.644736677408218384e-01 7.672644406557083130e-02 -8.949331939220428467e-02
1.462000000000000000e+03 3.551662826538085938e+01 -1.263605022430419922e+01 -9.549255371093750000e-01 3.898683190345764160e-01 -1.695171594619750977e-01 4.181560277938842773e-01
1.463000000000000000e+03 3.626971435546875000e+01 -4.235213756561279297e+00 1.223544597625732422e+00 8.947787284851074219e-01 6.354969739913940430e-01 2.416074723005294800e-01
1.464000000000000000e+03 3.679396057128906250e+01 -5.588013172149658203e+00 1.837744593620300293e+00 1.743962049484252930e+00 1.074512004852294922e+00 9.874980449676513672e-01
1.465000000000000000e+03 4.468369674682617188e+01 -1.445060253143310547e+01 -1.599653124809265137e+00 3.486960649490356445e+00 5.661922097206115723e-01 2.712577581405639648e+00
1.466000000000000000e+03 4.408992385864257812e+01 -1.344429683685302734e+01 -2.127346038818359375e+00 9.567277431488037109e-01 -3.511855006217956543e-01 6.079789996147155762e-01
1.467000000000000000e+03 3.064416694641113281e+01 2.838972663879394531e+01 7.982044219970703125e-01 1.621861815452575684e+00 7.260198593139648438e-01 -8.385387659072875977e-01
1.468000000000000000e+03 3.182899856567382812e+01 2.185901832580566406e+01 -3.478973358869552612e-02 3.013041973114013672e+00 8.934757113456726074e-01 -1.317878961563110352e-01
1.469000000000000000e+03 3.750406265258789062e+01 2.307055282592773438e+01 4.671895205974578857e-01 1.589478850364685059e+00 6.170005202293395996e-01 -1.077921867370605469e+00
1.470000000000000000e+03 3.337101364135742188e+01 3.026312637329101562e+01 4.010460972785949707e-01 2.851056337356567383e+00 9.756307005882263184e-01 -4.725739657878875732e-01
1.471000000000000000e+03 4.793197250366210938e+01 -1.444621181488037109e+01 -2.246916294097900391e+00 6.861601829528808594e+00 1.384405612945556641e+00 2.749507904052734375e+00
1.472000000000000000e+03 3.206914901733398438e+01 -2.706083297729492188e+01 6.422015279531478882e-02 2.345516681671142578e-01 8.963154256343841553e-02 -6.605913490056991577e-02
1.473000000000000000e+03 2.684049415588378906e+01 -3.358501052856445312e+01 1.923430711030960083e-01 8.721770644187927246e-01 3.193560540676116943e-01 -6.098192930221557617e-02
1.474000000000000000e+03 2.059244346618652344e+01 1.283214759826660156e+01 2.533193305134773254e-02 2.833428233861923218e-02 1.609986461699008942e-02 8.204533904790878296e-02
1.475000000000000000e+03 4.580081176757812500e+01 -1.391438865661621094e+01 -1.285918474197387695e+00 6.171952247619628906e+00 1.465810179710388184e+00 3.460246562957763672e+00
1.476000000000000000e+03 2.251628303527832031e+01 2.420935249328613281e+01 1.617626547813415527e-01 7.054374217987060547e-01 2.601600289344787598e-01 2.448948919773101807e-01
1.477000000000000000e+03 2.093988037109375000e+01 2.140218544006347656e+01 2.163579314947128296e-01 6.056344509124755859e-01 2.465977072715759277e-01 -1.065501868724822998e-01
1.478000000000000000e+03 2.019262695312500000e+01 2.584462165832519531e+01 4.966859817504882812e-01 6.312097907066345215e-01 3.383687436580657959e-01 4.179840087890625000e-01
1.479000000000000000e+03 1.850657844543457031e+01 2.512173843383789062e+01 7.560941576957702637e-01 7.620040178298950195e-01 4.554294645786285400e-01 6.596739888191223145e-01
1.480000000000000000e+03 4.456277847290039062e+01 -4.744743824005126953e+00 -3.516412019729614258e+00 -2.238947153091430664e+00 -1.726607680320739746e+00 2.673299789428710938e+00
1.481000000000000000e+03 4.719973373413085938e+01 -4.172905445098876953e+00 -8.296613097190856934e-01 6.960111141204833984e+00 1.839135050773620605e+00 -2.920603752136230469e-01
1.482000000000000000e+03 4.680540466308593750e+01 -6.778367042541503906e+00 -1.322541713714599609e+00 2.515684366226196289e+00 3.579427599906921387e-01 7.196699827909469604e-02
1.483000000000000000e+03 2.095195770263671875e+01 2.825282096862792969e+01 2.004431635141372681e-01 5.837059020996093750e-01 2.352447211742401123e-01 3.563117682933807373e-01
1.484000000000000000e+03 2.052162551879882812e+01 1.137505912780761719e+01 2.405075542628765106e-02 2.085814476013183594e-01 6.978966295719146729e-02 1.229185834527015686e-01
1.485000000000000000e+03 2.573423957824707031e+01 1.574266242980957031e+01 2.872958481311798096e-01 2.294937968254089355e-01 1.550368964672088623e-01 -2.202110737562179565e-01
1.486000000000000000e+03 4.784931564331054688e+01 -4.794231891632080078e+00 -1.589943051338195801e+00 8.856092453002929688e+00 2.179844856262207031e+00 -5.255187153816223145e-01
1.487000000000000000e+03 4.559013366699218750e+01 -4.847215652465820312e+00 -2.364233493804931641e+00 -2.796446084976196289e-01 -7.931634187698364258e-01 1.713717818260192871e+00
1.488000000000000000e+03 2.096246719360351562e+01 2.277884292602539062e+01 2.385277450084686279e-01 6.450373530387878418e-01 2.650695443153381348e-01 7.514915615320205688e-02
1.489000000000000000e+03 3.875201797485351562e+01 -3.062031173706054688e+01 1.108812451362609863e+00 5.173901081085205078e+00 1.884814023971557617e+00 1.596580624580383301e+00
1.490000000000000000e+03 3.305209732055664062e+01 1.939144706726074219e+01 3.443513810634613037e-02 2.311705589294433594e+00 7.038422226905822754e-01 -4.570288658142089844e-01
1.491000000000000000e+03 3.186653518676757812e+01 1.926458168029785156e+01 -4.632877930998802185e-02 2.362094402313232422e+00 6.947296857833862305e-01 -1.498911231756210327e-01
1.492000000000000000e+03 3.297731781005859375e+01 2.174173355102539062e+01 3.204348310828208923e-02 2.959711313247680664e+00 8.975263833999633789e-01 -4.024951159954071045e-01
1.493000000000000000e+03 3.294573211669921875e+01 2.053219032287597656e+01 -5.822459608316421509e-02 2.666898965835571289e+00 7.826023101806640625e-01 -4.173302054405212402e-01
1.494000000000000000e+03 5.164517974853515625e+01 -1.005050373077392578e+01 1.687538027763366699e+00 6.634662151336669922e+00 2.496660232543945312e+00 -5.172164440155029297e-01
1.495000000000000000e+03 5.203476333618164062e+01 -8.874077796936035156e+00 1.338809132575988770e+00 7.746928215026855469e+00 2.725721120834350586e+00 -4.616965651512145996e-01
1.496000000000000000e+03 3.915922546386718750e+01 -2.900888681411743164e+00 1.492747664451599121e+00 1.458482384681701660e+00 8.853690028190612793e-01 6.608980894088745117e-01
1.497000000000000000e+03 3.755170440673828125e+01 -1.802984714508056641e+00 -2.411337643861770630e-01 9.003695845603942871e-01 1.977707445621490479e-01 -1.169844642281532288e-01
1.498000000000000000e+03 4.343244934082031250e+01 -3.108810186386108398e+00 1.414140939712524414e+00 -1.838884234428405762e+00 -1.274229586124420166e-01 1.908950686454772949e+00
1.499000000000000000e+03 3.594148635864257812e+01 -1.351658344268798828e+01 -1.015417456626892090e+00 3.526920378208160400e-01 -1.988176405429840088e-01 1.651673018932342529e-01
1.500000000000000000e+03 3.726722335815429688e+01 -1.300923919677734375e+01 -1.280827760696411133e+00 7.214485406875610352e-01 -1.678137481212615967e-01 2.149220407009124756e-01
1.501000000000000000e+03 3.976486968994140625e+01 -3.791341781616210938e+01 -1.079667329788208008e+00 1.745705127716064453e+00 1.998113095760345459e-01 -8.966291695833206177e-02
1.502000000000000000e+03 4.955315399169921875e+01 -3.974623489379882812e+01 -1.589012384414672852e+00 4.639136791229248047e+00 9.150372743606567383e-01 6.400175094604492188e-01
1.503000000000000000e+03 4.914662170410156250e+01 -2.751509475708007812e+01 -1.222834110260009766e+00 2.728651762008666992e+00 4.517452716827392578e-01 -1.937435269355773926e+00
1.504000000000000000e+03 4.665893554687500000e+01 -4.104893493652343750e+01 -9.049612283706665039e-01 2.066351413726806641e+00 3.484170138835906982e-01 4.006387293338775635e-01
1.505000000000000000e+03 5.909643936157226562e+01 1.999779510498046875e+01 4.779089707881212234e-03 4.925494194030761719e+00 1.479081988334655762e+00 6.634887456893920898e-01
1.506000000000000000e+03 5.001161193847656250e+01 -3.763066864013671875e+01 -1.123418569564819336e+00 5.676317691802978516e+00 1.365869760513305664e+00 6.346771121025085449e-01
1.507000000000000000e+03 3.882697677612304688e+01 -2.774168586730957031e+01 -2.076020985841751099e-01 5.406472682952880859e+00 1.559661149978637695e+00 1.771373391151428223e+00
1.508000000000000000e+03 3.732573699951171875e+01 -3.304887390136718750e+01 1.417792677879333496e+00 3.302219390869140625e+00 1.416003704071044922e+00 1.318579435348510742e+00
1.509000000000000000e+03 3.844120025634765625e+01 -3.364860153198242188e+01 1.159373521804809570e+00 5.369801998138427734e+00 1.958752632141113281e+00 7.458385229110717773e-01
1.510000000000000000e+03 3.112891197204589844e+01 1.205160903930664062e+01 3.705158531665802002e-01 4.439177215099334717e-01 2.443300634622573853e-01 3.515934050083160400e-01
1.511000000000000000e+03 3.202683258056640625e+01 1.297377109527587891e+01 3.823829591274261475e-01 3.587481677532196045e-01 2.223393470048904419e-01 1.919743269681930542e-01
1.512000000000000000e+03 4.783475112915039062e+01 -2.540233993530273438e+01 -1.823836684226989746e+00 3.360225439071655273e+00 4.609166383743286133e-01 -2.066426515579223633e+00
1.513000000000000000e+03 4.793118286132812500e+01 -2.342459869384765625e+01 8.328197002410888672e-01 2.989698410034179688e+00 1.146755456924438477e+00 -1.924728512763977051e+00
1.514000000000000000e+03 6.678679656982421875e+01 2.990272331237792969e+01 1.297516584396362305e+00 5.390941143035888672e+00 2.006537437438964844e+00 9.139655232429504395e-01
1.515000000000000000e+03 6.452698516845703125e+01 3.650802993774414062e+01 -1.073367953300476074e+00 4.183951854705810547e+00 9.331752061843872070e-01 -8.741383254528045654e-02
1.516000000000000000e+03 3.937967681884765625e+01 -2.549597930908203125e+01 1.964196205139160156e+00 7.266081809997558594e+00 2.769083499908447266e+00 3.256291627883911133e+00
1.517000000000000000e+03 3.945987319946289062e+01 -2.701500320434570312e+01 -4.061765037477016449e-03 5.502068519592285156e+00 1.649402022361755371e+00 1.721283793449401855e+00
1.518000000000000000e+03 3.190892028808593750e+01 -2.972888374328613281e+01 2.272145450115203857e-01 5.821326971054077148e-01 2.428041696548461914e-01 -3.999997973442077637e-01
1.519000000000000000e+03 2.928957176208496094e+01 8.051522254943847656e+00 6.968673318624496460e-02 1.152222514152526855e+00 3.665727674961090088e-01 1.543891876935958862e-01
1.520000000000000000e+03 2.600491142272949219e+01 3.242878675460815430e+00 -6.984683871269226074e-01 3.890985623002052307e-02 -1.978675574064254761e-01 2.282832860946655273e-01
1.521000000000000000e+03 2.837682914733886719e+01 -2.365741920471191406e+01 3.347072601318359375e-01 1.687508463859558105e+00 6.066647171974182129e-01 -1.642002016305923462e-01
1.522000000000000000e+03 3.833959960937500000e+01 -2.977590560913085938e+01 4.352181255817413330e-01 4.390254497528076172e+00 1.447641849517822266e+00 1.196459054946899414e+00
1.523000000000000000e+03 3.602732849121093750e+01 -2.847378349304199219e+01 -2.737919688224792480e-01 4.482367932796478271e-01 5.233344808220863342e-02 3.632151782512664795e-01
1.524000000000000000e+03 3.594909667968750000e+01 -1.524668407440185547e+01 -1.595612287521362305e+00 -1.113832667469978333e-01 -5.120986700057983398e-01 2.807688415050506592e-01
1.525000000000000000e+03 2.765590858459472656e+01 -2.504105377197265625e+01 1.538686007261276245e-01 1.095043897628784180e+00 3.746737539768218994e-01 -4.484206065535545349e-02
1.526000000000000000e+03 4.858582305908203125e+01 -1.533762645721435547e+01 -2.962299823760986328e+00 5.766976356506347656e+00 8.414029479026794434e-01 2.448730230331420898e+00
1.527000000000000000e+03 5.135173416137695312e+01 -1.598826789855957031e+01 -5.814078330993652344e+00 -1.008734703063964844e-01 -1.774485588073730469e+00 -9.464857578277587891e-01
1.528000000000000000e+03 3.555121231079101562e+01 -1.153056144714355469e+01 -4.243142008781433105e-01 7.328877449035644531e-01 9.257206320762634277e-02 5.661171674728393555e-01
1.529000000000000000e+03 3.122241401672363281e+01 -1.450183963775634766e+01 -8.703190684318542480e-01 1.022908329963684082e+00 4.577679187059402466e-02 5.096502900123596191e-01
1.530000000000000000e+03 3.863694381713867188e+01 -2.645627021789550781e+01 2.113090038299560547e+00 5.106245040893554688e+00 2.165800571441650391e+00 3.020318269729614258e+00
1.531000000000000000e+03 3.817558288574218750e+01 -1.268947696685791016e+01 -1.180343031883239746e+00 7.762488126754760742e-01 -1.212282702326774597e-01 9.471097588539123535e-02
1.532000000000000000e+03 3.003047943115234375e+01 -1.472245597839355469e+01 -5.647844672203063965e-01 1.010444879531860352e+00 1.336981207132339478e-01 3.147573471069335938e-01
1.533000000000000000e+03 3.030183219909667969e+01 -1.605673980712890625e+01 1.190025731921195984e-01 1.255835413932800293e+00 4.124513864517211914e-01 5.999408960342407227e-01
1.534000000000000000e+03 4.338090896606445312e+01 -2.617252731323242188e+01 2.747805714607238770e-01 8.960903882980346680e-01 3.512612879276275635e-01 9.840259552001953125e-01
1.535000000000000000e+03 3.850571441650390625e+01 -2.867415046691894531e+01 1.060015559196472168e-01 4.623866558074951172e+00 1.418960452079772949e+00 1.732592463493347168e+00
1.536000000000000000e+03 2.786068725585937500e+01 -2.067688560485839844e+01 4.564419984817504883e-01 1.562657117843627930e+00 6.057297587394714355e-01 2.186668068170547485e-01
1.537000000000000000e+03 2.892301750183105469e+01 -2.102445220947265625e+01 1.507828831672668457e-01 2.368958473205566406e+00 7.559224367141723633e-01 3.184342682361602783e-01
1.538000000000000000e+03 3.026543235778808594e+01 -2.529236602783203125e+01 3.430345952510833740e-01 7.836058139801025391e-01 3.379921317100524902e-01 -4.494976699352264404e-01
1.539000000000000000e+03 3.932237243652343750e+01 -1.985639190673828125e+01 6.140425428748130798e-02 2.641268968582153320e-01 9.765934944152832031e-02 1.047114282846450806e-01
1.540000000000000000e+03 4.021399688720703125e+01 -1.874736404418945312e+01 3.291756212711334229e-01 7.224530577659606934e-01 3.154886066913604736e-01 5.122415721416473389e-02
1.541000000000000000e+03 2.890856933593750000e+01 -1.706840324401855469e+01 1.997189223766326904e-01 1.134774565696716309e+00 4.003480374813079834e-01 3.051134645938873291e-01
1.542000000000000000e+03 2.854587554931640625e+01 -1.816609954833984375e+01 4.760155081748962402e-01 1.350341796875000000e+00 5.479071736335754395e-01 4.513123333454132080e-01
1.543000000000000000e+03 5.393875503540039062e+01 2.636487388610839844e+01 1.794032335281372070e+00 8.852953910827636719e+00 3.194095849990844727e+00 -2.635409832000732422e+00
1.544000000000000000e+03 5.148221206665039062e+01 2.824060630798339844e+01 1.509254693984985352e+00 6.202699184417724609e+00 2.313585996627807617e+00 -2.808299362659454346e-01
1.545000000000000000e+03 4.486745834350585938e+01 -1.773996162414550781e+01 4.326701760292053223e-01 5.749267578125000000e+00 1.854581356048583984e+00 1.290279150009155273e+00
1.546000000000000000e+03 4.725952911376953125e+01 -1.789263534545898438e+01 1.573765039443969727e+00 9.123607635498046875e+00 3.209211826324462891e+00 3.206279516220092773e+00
1.547000000000000000e+03 3.122449111938476562e+01 -2.756863784790039062e+01 -1.822637021541595459e-01 5.356822609901428223e-01 1.060255616903305054e-01 -2.125762552022933960e-01
1.548000000000000000e+03 3.060267066955566406e+01 -2.684097862243652344e+01 5.841333046555519104e-02 6.677273511886596680e-01 2.178422063589096069e-01 -2.659928500652313232e-01
1.549000000000000000e+03 6.264926910400390625e+01 2.516487121582031250e+01 2.795748233795166016e+00 7.777422904968261719e+00 3.171951293945312500e+00 4.458715438842773438e+00
1.550000000000000000e+03 6.537959289550781250e+01 2.625789642333984375e+01 2.503874778747558594e+00 5.300058364868164062e+00 2.341179847717285156e+00 1.582754731178283691e+00
1.551000000000000000e+03 2.878458786010742188e+01 1.037874317169189453e+01 2.689201831817626953e-01 6.014598608016967773e-01 2.611140310764312744e-01 1.418906450271606445e-01
1.552000000000000000e+03 2.833960533142089844e+01 8.286186218261718750e+00 2.140197753906250000e-01 8.191367983818054199e-01 3.099469840526580811e-01 -4.062355682253837585e-02
1.553000000000000000e+03 1.148356533050537109e+01 -1.265107917785644531e+01 2.298864535987377167e-03 -2.151973173022270203e-02 -5.766259972006082535e-03 -3.239113092422485352e-02
1.554000000000000000e+03 9.684780120849609375e+00 -1.153056335449218750e+01 -8.359957486391067505e-02 -1.284644156694412231e-01 -6.361919641494750977e-02 -1.096910685300827026e-01
1.555000000000000000e+03 1.372076129913330078e+01 6.771797657012939453e+00 -1.169552683830261230e+00 -3.292613029479980469e-01 -4.496441781520843506e-01 5.465545654296875000e-01
1.556000000000000000e+03 2.855492019653320312e+01 1.121478271484375000e+01 2.436219155788421631e-01 4.948005974292755127e-01 2.215267568826675415e-01 1.479947566986083984e-01
1.557000000000000000e+03 5.415421295166015625e+01 3.153527677059173584e-01 2.297415733337402344e+00 4.323036193847656250e+00 1.986135601997375488e+00 3.083021163940429688e+00
1.558000000000000000e+03 6.238209915161132812e+01 2.121428108215332031e+01 -2.589735746383666992e+00 6.497103214263916016e+00 1.172210216522216797e+00 3.868963956832885742e+00
1.559000000000000000e+03 6.115372085571289062e+01 2.124398612976074219e+01 -1.801602125167846680e+00 6.362527847290039062e+00 1.368277668952941895e+00 3.251509189605712891e+00
1.560000000000000000e+03 2.982317161560058594e+01 1.345407366752624512e+00 -1.236115336418151855e+00 4.103940725326538086e-01 -2.477163672447204590e-01 9.125311858952045441e-03
1.561000000000000000e+03 3.169357299804687500e+01 3.241317033767700195e+00 -7.992741465568542480e-02 2.820988297462463379e-01 6.065142154693603516e-02 -1.230646297335624695e-01
1.562000000000000000e+03 2.316134834289550781e+01 -1.654650306701660156e+01 -1.873418241739273071e-01 -2.047613114118576050e-01 -1.176309436559677124e-01 -4.425171911716461182e-01
1.563000000000000000e+03 1.627054023742675781e+01 -3.972909927368164062e+01 3.767990171909332275e-01 1.713699996471405029e-01 1.644507050514221191e-01 -2.609390318393707275e-01
1.564000000000000000e+03 1.421692371368408203e+01 -3.826893997192382812e+01 1.812887787818908691e-01 1.939334571361541748e-01 1.125666722655296326e-01 -1.845705509185791016e-01
1.565000000000000000e+03 6.100397872924804688e+01 2.388833045959472656e+01 -8.310477733612060547e-01 3.489097118377685547e+00 7.974147796630859375e-01 2.342090606689453125e+00
1.566000000000000000e+03 2.453156280517578125e+01 -3.772608184814453125e+01 2.285302132368087769e-01 6.767394542694091797e-01 2.715809047222137451e-01 1.766308248043060303e-01
1.567000000000000000e+03 5.308261871337890625e+01 3.432320785522460938e+01 -4.059760570526123047e-01 5.226763725280761719e+00 1.446236252784729004e+00 5.173824355006217957e-02
1.568000000000000000e+03 4.679260635375976562e+01 3.187111282348632812e+01 4.390954375267028809e-01 3.938415765762329102e+00 1.313253402709960938e+00 -7.390002012252807617e-01
1.569000000000000000e+03 5.153115081787109375e+01 3.159606933593750000e+01 8.649682998657226562e-01 5.579583168029785156e+00 1.933365464210510254e+00 -6.762337684631347656e-02
1.570000000000000000e+03 5.988554382324218750e+01 2.237388420104980469e+01 -2.753145456314086914e+00 3.028921604156494141e+00 8.273284882307052612e-02 2.545468330383300781e+00
1.571000000000000000e+03 5.980042266845703125e+01 9.054490923881530762e-01 -3.238514959812164307e-01 5.054348945617675781e+00 1.419149160385131836e+00 -2.181713581085205078e+00
1.572000000000000000e+03 5.435571670532226562e+01 2.353219032287597656e+01 -1.720765590667724609e+00 5.666763782501220703e+00 1.183799386024475098e+00 -2.222064971923828125e+00
1.573000000000000000e+03 1.675045204162597656e+01 -4.188867950439453125e+01 3.383371233940124512e-01 1.178889349102973938e-01 1.368678212165832520e-01 -3.246515244245529175e-02
1.574000000000000000e+03 6.577397155761718750e+01 -1.688136482238769531e+01 -1.570225119590759277e+00 3.233186721801757812e+00 4.988884925842285156e-01 5.548028349876403809e-01
1.575000000000000000e+03 6.382547760009765625e+01 -1.645089912414550781e+01 -1.738640189170837402e+00 6.076873779296875000e+00 1.301470160484313965e+00 4.181544762104749680e-03
1.576000000000000000e+03 6.376521682739257812e+01 3.421205139160156250e+01 -6.700032353401184082e-01 4.389139652252197266e+00 1.115740895271301270e+00 9.613560140132904053e-02
1.577000000000000000e+03 5.597180557250976562e+01 3.499704742431640625e+01 -2.168511152267456055e-01 1.853551626205444336e+00 4.910101592540740967e-01 1.056111693382263184e+00
1.578000000000000000e+03 2.531737899780273438e+01 -3.073521614074707031e+01 1.230336874723434448e-01 8.998464941978454590e-01 3.068640530109405518e-01 -1.710686832666397095e-01
1.579000000000000000e+03 1.442900657653808594e+01 -1.407816123962402344e+01 1.854249835014343262e-01 4.086041450500488281e-01 1.782087385654449463e-01 -2.766219675540924072e-01
1.580000000000000000e+03 2.934062385559082031e+01 -9.863097190856933594e+00 -1.298943161964416504e-01 -3.121336102485656738e-01 -1.326083838939666748e-01 -8.114593103528022766e-03
1.581000000000000000e+03 2.769580841064453125e+01 -1.196670055389404297e+01 -1.042186856269836426e+00 -1.951179504394531250e-01 -3.711914420127868652e-01 -4.136244058609008789e-01
1.582000000000000000e+03 6.111676025390625000e+01 2.250534629821777344e+01 -3.264684677124023438e+00 5.521782875061035156e+00 6.771293282508850098e-01 3.580842018127441406e+00
1.583000000000000000e+03 5.622858428955078125e+01 3.767362213134765625e+01 -9.170588850975036621e-01 2.010816097259521484e+00 3.281271755695343018e-01 1.178606867790222168e+00
1.584000000000000000e+03 5.391660690307617188e+01 3.517442321777343750e+01 -9.796782135963439941e-01 4.780287742614746094e+00 1.140182852745056152e+00 7.050520777702331543e-01
1.585000000000000000e+03 6.537774658203125000e+01 2.909100341796875000e+01 1.318197965621948242e+00 6.180309772491455078e+00 2.249552249908447266e+00 1.701033473014831543e+00
1.586000000000000000e+03 6.307145309448242188e+01 3.556188964843750000e+01 -1.402146577835083008e+00 3.321458101272583008e+00 5.757935047149658203e-01 -3.688905239105224609e-01
1.587000000000000000e+03 6.360564041137695312e+01 2.953045463562011719e+01 3.728253021836280823e-02 7.423661231994628906e+00 2.238283157348632812e+00 2.198856920003890991e-01
1.588000000000000000e+03 6.501538085937500000e+01 3.017918014526367188e+01 6.633458733558654785e-01 7.052302360534667969e+00 2.314694404602050781e+00 8.992543220520019531e-01
1.589000000000000000e+03 2.692253303527832031e+01 -3.512799072265625000e+01 1.322969645261764526e-01 9.235858917236328125e-01 3.167648613452911377e-01 7.578632235527038574e-02
1.590000000000000000e+03 5.604504013061523438e+01 2.308016586303710938e+01 -2.483469009399414062e+00 3.193368434906005859e+00 2.129697650671005249e-01 -1.880345225334167480e+00
1.591000000000000000e+03 1.348547554016113281e+01 -3.109839057922363281e+01 -6.117958948016166687e-02 -1.805993169546127319e-01 -7.253367453813552856e-02 -9.691812843084335327e-02
1.592000000000000000e+03 1.062471008300781250e+01 -3.651905059814453125e+01 8.110915869474411011e-02 -6.673396378755569458e-02 4.312557168304920197e-03 -1.054018735885620117e-01
1.593000000000000000e+03 2.658845138549804688e+01 -2.440226364135742188e+01 2.998259365558624268e-01 1.058150053024291992e+00 4.073927700519561768e-01 3.862703964114189148e-02
1.594000000000000000e+03 2.065165710449218750e+01 -4.061380386352539062e+01 3.691183328628540039e-01 1.171527057886123657e-01 1.458813101053237915e-01 3.822355717420578003e-02
1.595000000000000000e+03 6.129616546630859375e+01 3.269418239593505859e+00 -6.548651456832885742e-01 5.214531421661376953e+00 1.367899775505065918e+00 -1.730333685874938965e+00
1.596000000000000000e+03 6.265872573852539062e+01 -8.942278623580932617e-01 7.294554710388183594e-01 6.734786510467529297e+00 2.239272594451904297e+00 -4.241334497928619385e-01
1.597000000000000000e+03 6.068325424194335938e+01 1.209106063842773438e+01 5.136689543724060059e-01 9.458710670471191406e+00 2.991713762283325195e+00 -5.347328782081604004e-01
1.598000000000000000e+03 1.321762466430664062e+01 -2.945019531250000000e+01 -3.690708056092262268e-02 -1.507782042026519775e-01 -5.630558729171752930e-02 -9.195423871278762817e-02
1.599000000000000000e+03 1.568009376525878906e+01 -1.977149009704589844e+01 -2.839883267879486084e-01 -5.894086360931396484e-01 -2.620190978050231934e-01 -3.795238137245178223e-01
1.600000000000000000e+03 1.742571830749511719e+01 -1.248010635375976562e+00 -1.214676797389984131e-01 4.243139028549194336e-01 9.085386246442794800e-02 -2.200293242931365967e-01
1.601000000000000000e+03 7.211433410644531250e+01 -1.253382110595703125e+01 -1.905471920967102051e+00 5.241099596023559570e-01 -4.144085943698883057e-01 -6.443037986755371094e-01
1.602000000000000000e+03 7.143633270263671875e+01 -1.374731636047363281e+01 -2.597699165344238281e-01 6.921374797821044922e-01 1.297102719545364380e-01 -1.042178511619567871e+00
1.603000000000000000e+03 2.136704063415527344e+01 -2.707855796813964844e+01 2.836672663688659668e-01 1.249694600701332092e-01 1.225910186767578125e-01 -1.038231551647186279e-01
1.604000000000000000e+03 1.009093093872070312e+01 -3.306465911865234375e+01 -1.642384193837642670e-02 -9.195331484079360962e-02 -3.251314908266067505e-02 -1.466501504182815552e-01
1.605000000000000000e+03 1.136831283569335938e+01 -3.350012969970703125e+01 -1.662482321262359619e-02 -2.088085375726222992e-02 -1.125170290470123291e-02 -1.385488957166671753e-01
1.606000000000000000e+03 1.536992454528808594e+01 -2.521263504028320312e+01 1.864031404256820679e-01 -2.500699162483215332e-01 -1.910003460943698883e-02 -1.368448883295059204e-01
1.607000000000000000e+03 1.223641681671142578e+01 -2.369452857971191406e+01 -1.885799318552017212e-02 -1.893375962972640991e-01 -6.245867535471916199e-02 -2.270448952913284302e-01
1.608000000000000000e+03 2.319938087463378906e+01 -2.508079338073730469e+01 3.417260348796844482e-01 3.990540802478790283e-01 2.222340255975723267e-01 -1.079935953021049500e-02
1.609000000000000000e+03 2.511436080932617188e+01 -3.485911560058593750e+01 8.931539952754974365e-02 8.087948560714721680e-01 2.694330811500549316e-01 1.099617127329111099e-02
1.610000000000000000e+03 2.670146179199218750e+01 -3.097900390625000000e+01 1.708036065101623535e-01 8.182837963104248047e-01 2.967262268066406250e-01 -1.590853482484817505e-01
1.611000000000000000e+03 5.256821823120117188e+01 -6.190539836883544922e+00 1.841830134391784668e+00 1.378363990783691406e+01 4.687640666961669922e+00 -2.790881395339965820e+00
1.612000000000000000e+03 5.198453140258789062e+01 -3.854532718658447266e+00 1.217410564422607422e+00 1.178979873657226562e+01 3.902162790298461914e+00 -5.304226875305175781e-01
1.613000000000000000e+03 1.707240295410156250e+01 -6.911654472351074219e+00 -5.314773693680763245e-02 4.768789410591125488e-01 1.271193623542785645e-01 6.297153420746326447e-03
1.614000000000000000e+03 1.487016582489013672e+01 -1.100313377380371094e+01 -1.089310422539710999e-01 2.865972220897674561e-01 5.329985171556472778e-02 -2.488641999661922455e-02
1.615000000000000000e+03 2.965443229675292969e+01 -8.580400466918945312e+00 3.298398479819297791e-02 -7.493288516998291016e-01 -2.149034589529037476e-01 6.242494285106658936e-02
1.616000000000000000e+03 6.136654281616210938e+01 -6.203082084655761719e+00 6.117621660232543945e-01 1.085417366027832031e+01 3.439780712127685547e+00 3.588956892490386963e-01
1.617000000000000000e+03 2.597053337097167969e+01 -1.658012962341308594e+01 -8.907129615545272827e-02 2.341315895318984985e-01 4.351808875799179077e-02 -1.007445752620697021e-01
1.618000000000000000e+03 6.450946044921875000e+01 -2.843720054626464844e+01 2.353429555892944336e+00 7.986927986145019531e+00 3.102107286453247070e+00 -4.297140121459960938e+00
1.619000000000000000e+03 2.889166259765625000e+01 -1.602553176879882812e+01 -1.515384465456008911e-01 9.636192321777343750e-01 2.436242252588272095e-01 2.714441418647766113e-01
1.620000000000000000e+03 1.436103916168212891e+01 -1.966135263442993164e+00 -1.969777345657348633e-01 1.499351561069488525e-01 -1.411277428269386292e-02 -9.109115600585937500e-02
1.621000000000000000e+03 3.235450363159179688e+01 -4.739206790924072266e+00 3.933350145816802979e-01 -5.297310352325439453e-01 -4.091879352927207947e-02 -2.775406539440155029e-01
1.622000000000000000e+03 5.570350265502929688e+01 -9.659862518310546875e+00 1.556034684181213379e+00 2.282897949218750000e+00 1.151679754257202148e+00 -1.896884560585021973e+00
1.623000000000000000e+03 5.628301620483398438e+01 -1.124032020568847656e+01 3.526275157928466797e-01 2.834295034408569336e+00 9.560768008232116699e-01 -2.219183683395385742e+00
1.624000000000000000e+03 2.619405937194824219e+01 -1.461999988555908203e+01 -7.320650815963745117e-01 -3.555547446012496948e-02 -2.302861660718917847e-01 -1.634729653596878052e-01
1.625000000000000000e+03 7.356020355224609375e+01 -2.399962043762207031e+01 2.513610124588012695e+00 1.201563262939453125e+01 4.358772754669189453e+00 2.847077131271362305e+00
1.626000000000000000e+03 7.420019531250000000e+01 -2.490299987792968750e+01 -8.254106640815734863e-01 9.359351158142089844e+00 2.560182094573974609e+00 -7.548024654388427734e-01
1.627000000000000000e+03 1.617476844787597656e+01 -6.801349639892578125e+00 1.160591244697570801e-01 3.608926832675933838e-01 1.430855393409729004e-01 -3.267543390393257141e-02
1.628000000000000000e+03 5.298333740234375000e+01 2.539072036743164062e+01 9.814224243164062500e-01 5.747180461883544922e+00 2.018580913543701172e+00 -7.345715165138244629e-01
1.629000000000000000e+03 6.947522735595703125e+01 -1.217887210845947266e+01 -5.550374388694763184e-01 5.983498692512512207e-01 1.299373619258403778e-02 -1.027804613113403320e+00
1.630000000000000000e+03 6.825968170166015625e+01 -1.170635795593261719e+01 9.628047943115234375e-01 1.376448273658752441e+00 7.017759084701538086e-01 -1.416801810264587402e+00
1.631000000000000000e+03 1.927557373046875000e+01 -1.385090637207031250e+01 -3.609727621078491211e-01 1.232780590653419495e-01 -7.130841165781021118e-02 -1.485864073038101196e-01
1.632000000000000000e+03 1.662879943847656250e+01 -1.068145370483398438e+01 -8.326191455125808716e-02 2.562262713909149170e-01 5.188930407166481018e-02 3.395375097170472145e-03
1.633000000000000000e+03 1.681506919860839844e+01 -1.277192211151123047e+01 -1.117549985647201538e-01 2.655878365039825439e-01 4.614984989166259766e-02 -1.743569411337375641e-02
1.634000000000000000e+03 3.078317260742187500e+01 -8.066563606262207031e+00 1.831202059984207153e-01 -3.427088856697082520e-01 -4.787660762667655945e-02 2.784602940082550049e-01
1.635000000000000000e+03 3.138497924804687500e+01 -7.456019878387451172e+00 1.642352342605590820e-01 -4.995850324630737305e-01 -1.006049364805221558e-01 1.487030237913131714e-01
1.636000000000000000e+03 7.441631317138671875e+01 1.392807102203369141e+01 1.152303814888000488e+00 8.808259963989257812e+00 2.988169193267822266e+00 9.619230628013610840e-01
1.637000000000000000e+03 1.926742362976074219e+01 2.621555137634277344e+01 4.265359342098236084e-01 9.787001609802246094e-01 4.215708374977111816e-01 5.373441576957702637e-01
1.638000000000000000e+03 6.818431091308593750e+01 -2.606595802307128906e+01 -2.968622207641601562e+00 1.216871261596679688e+00 -5.255252718925476074e-01 -7.193503379821777344e-01
1.639000000000000000e+03 6.650910949707031250e+01 -2.626100921630859375e+01 -1.828407168388366699e+00 7.070274353027343750e+00 1.572560191154479980e+00 -2.923563241958618164e+00
1.640000000000000000e+03 1.224928569793701172e+01 2.047777366638183594e+01 3.184090554714202881e-01 2.620719373226165771e-01 1.741442978382110596e-01 3.354250490665435791e-01
1.641000000000000000e+03 8.386752128601074219e+00 2.340495872497558594e+01 -2.179556936025619507e-01 -1.722210645675659180e-01 -1.170530244708061218e-01 1.315883249044418335e-01
1.642000000000000000e+03 6.512557983398437500e+01 -6.277646541595458984e+00 8.383535146713256836e-01 1.191102218627929688e+01 3.824812650680541992e+00 1.271124035120010376e-01
1.643000000000000000e+03 7.814852905273437500e+01 1.675318908691406250e+01 -5.272625479847192764e-03 7.171604633331298828e+00 2.149899721145629883e+00 8.522366881370544434e-01
1.644000000000000000e+03 5.854100799560546875e+01 3.164319992065429688e+00 -3.131285905838012695e-01 4.564451694488525391e+00 1.275396823883056641e+00 -1.227067112922668457e+00
1.645000000000000000e+03 4.517183685302734375e+01 1.814322471618652344e+01 -1.420771121978759766e+00 4.382009983062744141e+00 8.883717060089111328e-01 8.294135332107543945e-01
1.646000000000000000e+03 6.511833190917968750e+01 -9.812208175659179688e+00 4.751533865928649902e-01 7.888663291931152344e+00 2.509145021438598633e+00 -8.325226902961730957e-01
1.647000000000000000e+03 6.238362884521484375e+01 1.987992477416992188e+01 9.083392024040222168e-01 7.430786609649658203e+00 2.501737833023071289e+00 4.030580520629882812e+00
1.648000000000000000e+03 8.805167198181152344e+00 -2.450311660766601562e+01 8.660681545734405518e-02 6.664591282606124878e-02 4.597581550478935242e-02 -1.746363639831542969e-01
1.649000000000000000e+03 6.640211939811706543e-01 -2.470558738708496094e+01 1.346570532768964767e-02 -5.924665331840515137e-01 -1.737002581357955933e-01 4.892583005130290985e-03
1.650000000000000000e+03 5.312489032745361328e+00 -2.081520271301269531e+01 1.555967032909393311e-01 3.494912013411521912e-02 5.716374889016151428e-02 -1.305413395166397095e-01
1.651000000000000000e+03 7.413602447509765625e+01 -1.064934635162353516e+01 -5.931526422500610352e-01 3.905817508697509766e+00 9.937994480133056641e-01 1.257194638252258301e+00
1.652000000000000000e+03 7.301834106445312500e+01 -2.492321205139160156e+01 5.975711345672607422e-01 6.402597904205322266e+00 2.100050687789916992e+00 3.236017465591430664e+00
1.653000000000000000e+03 7.815197753906250000e+01 -2.767844009399414062e+01 -1.434871554374694824e-01 7.639941215515136719e+00 2.248936176300048828e+00 -2.271741330623626709e-01
1.654000000000000000e+03 5.501538848876953125e+01 -3.470921325683593750e+01 1.248325109481811523e+00 8.733335494995117188e+00 2.994498252868652344e+00 1.255501657724380493e-01
1.655000000000000000e+03 7.049822998046875000e+01 8.162250518798828125e+00 2.063729286193847656e+00 4.915210723876953125e+00 2.093682050704956055e+00 2.959046840667724609e+00
1.656000000000000000e+03 7.323493194580078125e+01 9.241946220397949219e+00 1.427074432373046875e+00 8.570462226867675781e+00 2.999260902404785156e+00 3.587518930435180664e-01
1.657000000000000000e+03 6.114341735839843750e+01 -2.371865081787109375e+01 2.300074815750122070e+00 3.047554492950439453e+00 1.604288816452026367e+00 -9.131715297698974609e-01
1.658000000000000000e+03 5.361005401611328125e+01 -8.029484748840332031e+00 2.789527416229248047e+00 6.981517791748046875e+00 2.931313514709472656e+00 -3.507626771926879883e+00
1.659000000000000000e+03 5.956351757049560547e+00 2.674047470092773438e+01 -1.110474616289138794e-01 -8.662221431732177734e-01 -2.931808829307556152e-01 1.931030601263046265e-01
1.660000000000000000e+03 5.607404708862304688e+00 2.938850021362304688e+01 1.946337707340717316e-02 -5.960543155670166016e-01 -1.729772835969924927e-01 3.186299651861190796e-02
1.661000000000000000e+03 7.112084197998046875e+01 1.807468223571777344e+01 -1.223264575004577637e+00 5.499281883239746094e+00 1.282805204391479492e+00 -8.622777462005615234e-01
1.662000000000000000e+03 6.145795822143554688e+01 1.746763801574707031e+01 3.020101070404052734e+00 1.230121040344238281e+01 4.596393585205078125e+00 5.200392246246337891e+00
1.663000000000000000e+03 2.013086318969726562e+01 1.564297294616699219e+01 -2.780963182449340820e-01 -2.962756752967834473e-01 -1.723116040229797363e-01 2.420920729637145996e-01
1.664000000000000000e+03 5.913566970825195312e+01 -2.717012405395507812e+01 -2.649814844131469727e+00 1.222164988517761230e+00 -4.282949864864349365e-01 6.988602280616760254e-01
1.665000000000000000e+03 6.679879760742187500e+01 3.119272947311401367e+00 3.989008665084838867e-01 2.354687690734863281e+00 8.260765671730041504e-01 1.870724916458129883e+00
1.666000000000000000e+03 7.018385314941406250e+01 8.026477694511413574e-01 4.009403586387634277e-01 1.473418354988098145e+00 5.623075962066650391e-01 1.811469316482543945e+00
1.667000000000000000e+03 5.883389663696289062e+01 -1.202399349212646484e+01 1.537464410066604614e-01 3.457758188247680664e+00 1.083451390266418457e+00 9.066274166107177734e-01
1.668000000000000000e+03 2.950381278991699219e+00 2.086225891113281250e+01 3.193756192922592163e-02 -6.880944371223449707e-01 -1.968470513820648193e-01 9.936364367604255676e-03
1.669000000000000000e+03 7.181781768798828125e+01 -2.772971534729003906e+01 -6.927071213722229004e-01 3.590764045715332031e+00 8.694170713424682617e-01 2.022294282913208008e+00
1.670000000000000000e+03 7.035681915283203125e+01 1.918658828735351562e+01 -2.470845937728881836e+00 4.028846740722656250e+00 4.674002528190612793e-01 -5.256124734878540039e-01
1.671000000000000000e+03 6.749352931976318359e+00 1.316854572296142578e+01 6.283755600452423096e-02 -2.438040971755981445e-01 -5.428996309638023376e-02 4.873058199882507324e-01
1.672000000000000000e+03 7.319284057617187500e+01 1.270736885070800781e+01 1.635393261909484863e+00 1.134571552276611328e+01 3.894332647323608398e+00 6.951362490653991699e-01
1.673000000000000000e+03 7.208954620361328125e+01 1.240805625915527344e+01 2.630527317523956299e-01 1.458050727844238281e+01 4.453067779541015625e+00 5.945877432823181152e-01
1.674000000000000000e+03 7.940560913085937500e+01 -1.675626182556152344e+01 8.152163587510585785e-03 9.023358345031738281e+00 2.709453105926513672e+00 3.643224835395812988e-01
1.675000000000000000e+03 6.048531341552734375e+01 8.020129203796386719e+00 -2.713820636272430420e-01 5.539191722869873047e+00 1.580343008041381836e+00 -7.975056171417236328e-01
1.676000000000000000e+03 6.224260711669921875e+01 7.219928741455078125e+00 -1.142004132270812988e+00 3.402916193008422852e+00 6.782736182212829590e-01 -1.201473712921142578e+00
1.677000000000000000e+03 6.041084289550781250e+00 3.155593490600585938e+01 3.808566927909851074e-02 -3.209085166454315186e-01 -8.484685420989990234e-02 4.058841615915298462e-02
1.678000000000000000e+03 6.006292343139648438e+01 -3.885206222534179688e+01 -2.402834177017211914e+00 -3.520252704620361328e-01 -8.264577984809875488e-01 -6.951165199279785156e-01
1.679000000000000000e+03 4.992241668701171875e+01 5.578733444213867188e+00 -7.043189525604248047e+00 -5.162669345736503601e-02 -2.128444910049438477e+00 7.177343964576721191e-01
1.680000000000000000e+03 4.521188354492187500e+01 -2.631611824035644531e+01 -1.248522996902465820e+00 1.961383819580078125e+00 2.138582468032836914e-01 -7.732770442962646484e-01
1.681000000000000000e+03 4.685876846313476562e+01 -1.918927764892578125e+01 1.361772060394287109e+00 1.169032955169677734e+01 3.915630578994750977e+00 3.001657009124755859e+00
1.682000000000000000e+03 6.510036468505859375e+01 1.155746340751647949e+00 3.329941630363464355e-01 4.395881175994873047e+00 1.418662548065185547e+00 9.848221540451049805e-01
1.683000000000000000e+03 6.709603881835937500e+01 -1.497759342193603516e+01 -9.782814979553222656e-01 1.272099614143371582e+00 8.814544230699539185e-02 -1.712984740734100342e-01
1.684000000000000000e+03 6.477703094482421875e+01 -1.885933303833007812e+01 4.078842699527740479e-01 7.418734073638916016e+00 2.347985506057739258e+00 4.878218173980712891e-01
1.685000000000000000e+03 6.195570755004882812e+01 -2.161100959777832031e+01 3.073585271835327148e+00 5.073991298675537109e+00 2.444272994995117188e+00 -1.693509817123413086e+00
1.686000000000000000e+03 6.162968444824218750e+01 -2.537489891052246094e+01 1.900682151317596436e-01 1.247981309890747070e+00 4.314148426055908203e-01 -1.406125783920288086e+00
1.687000000000000000e+03 4.754425811767578125e+01 2.280697631835937500e+01 -1.498247981071472168e-01 3.479402780532836914e+00 9.988733530044555664e-01 5.198318362236022949e-01
1.688000000000000000e+03 7.939785766601562500e+01 -2.231515502929687500e+01 6.522756814956665039e-02 6.304548263549804688e+00 1.910932779312133789e+00 5.115549638867378235e-02
1.689000000000000000e+03 5.108491897583007812e+01 -1.264177680015563965e+00 4.029883384704589844e+00 7.630780220031738281e+00 3.498198986053466797e+00 1.172160580754280090e-01
1.690000000000000000e+03 1.336325645446777344e+01 1.817353630065917969e+01 1.012518405914306641e+00 3.591341078281402588e-01 4.114957451820373535e-01 5.559493303298950195e-01
1.691000000000000000e+03 1.198563289642333984e+01 2.150805854797363281e+01 1.867380291223526001e-01 1.210276335477828979e-01 9.232969582080841064e-02 2.788551151752471924e-01
1.692000000000000000e+03 6.543269348144531250e+01 -8.311759948730468750e+00 1.888255953788757324e+00 1.080623912811279297e+01 3.808348417282104492e+00 -2.346997737884521484e+00
1.693000000000000000e+03 4.888016510009765625e+01 -5.348671436309814453e+00 -8.941158652305603027e-01 1.001201248168945312e+01 2.735368967056274414e+00 -5.224170684814453125e-01
1.694000000000000000e+03 6.659506225585937500e+01 -3.576928710937500000e+01 3.374738097190856934e-01 6.241855144500732422e+00 1.973798632621765137e+00 -3.797771334648132324e-01
1.695000000000000000e+03 6.341257095336914062e+01 -1.903529739379882812e+01 5.423326492309570312e-01 7.051948547363281250e+00 2.278284311294555664e+00 -1.016572713851928711e+00
1.696000000000000000e+03 5.307713699340820312e+01 -9.351601600646972656e+00 1.142843961715698242e+00 6.628459930419921875e+00 2.331391096115112305e+00 -1.840971708297729492e+00
1.697000000000000000e+03 5.632417297363281250e+01 8.436894416809082031e+00 1.390714883804321289e+00 9.321127891540527344e+00 3.213552951812744141e+00 8.884809613227844238e-01
1.698000000000000000e+03 5.191885375976562500e+01 5.662322998046875000e+00 -4.134298324584960938e+00 9.798344969749450684e-01 -9.463391304016113281e-01 1.509160280227661133e+00
1.699000000000000000e+03 7.814801788330078125e+01 -1.412162971496582031e+01 -3.813429176807403564e-01 9.157482147216796875e+00 2.632841587066650391e+00 3.984591960906982422e-01
1.700000000000000000e+03 1.688971161842346191e+00 -1.166383457183837891e+01 6.418196018785238266e-03 -8.219465613365173340e-02 -2.273293770849704742e-02 1.840598997659981251e-03
1.701000000000000000e+03 6.140292358398437500e+01 -3.949428939819335938e+01 -2.228711128234863281e+00 -6.133800745010375977e-01 -8.526273369789123535e-01 1.582611799240112305e-01
1.702000000000000000e+03 1.967288589477539062e+01 2.750984191894531250e+01 1.033443138003349304e-01 6.520046591758728027e-01 2.266046851873397827e-01 2.215396314859390259e-01
1.703000000000000000e+03 7.339930534362792969e-01 3.184970664978027344e+01 -8.331819437444210052e-03 -1.148474216461181641e+00 -3.470418155193328857e-01 4.149865359067916870e-02
1.704000000000000000e+03 1.976225471496582031e+01 2.287700653076171875e+01 3.997174501419067383e-01 5.342824459075927734e-01 2.801999747753143311e-01 1.102246418595314026e-01
1.705000000000000000e+03 7.857143878936767578e+00 2.151796531677246094e+01 4.251112416386604309e-02 -2.165943533182144165e-01 -5.222496762871742249e-02 6.386394798755645752e-02
1.706000000000000000e+03 1.868789672851562500e+01 2.300810432434082031e+01 5.455136299133300781e-01 4.710899889469146729e-01 3.049810826778411865e-01 2.922672927379608154e-01
1.707000000000000000e+03 7.284790039062500000e+01 -2.610891151428222656e+01 -1.146675109863281250e+00 5.040839672088623047e+00 1.168249487876892090e+00 1.668172836303710938e+00
1.708000000000000000e+03 5.283539581298828125e+01 -1.370504570007324219e+01 -4.832958877086639404e-01 3.175428867340087891e+00 8.076398968696594238e-01 -2.921950578689575195e+00
1.709000000000000000e+03 1.932552146911621094e+01 3.388042068481445312e+01 2.618866972625255585e-02 2.140003591775894165e-01 7.205671072006225586e-02 -9.900296479463577271e-02
1.710000000000000000e+03 6.639302253723144531e+00 3.559925842285156250e+01 1.540928632020950317e-01 -2.608767151832580566e-01 -3.203515708446502686e-02 -1.323363650590181351e-02
1.711000000000000000e+03 4.153014183044433594e+00 3.651183700561523438e+01 5.924054980278015137e-02 -6.858739256858825684e-01 -1.879900097846984863e-01 -5.539388582110404968e-02
1.712000000000000000e+03 7.229585266113281250e+01 -1.441677284240722656e+01 -5.373362302780151367e-01 2.096845149993896484e+00 4.678526818752288818e-01 -6.661124229431152344e-01
1.713000000000000000e+03 7.144435882568359375e+01 -1.701550865173339844e+01 1.140405297279357910e+00 1.625456213951110840e+00 8.297584652900695801e-01 -1.194028258323669434e+00
1.714000000000000000e+03 2.053810882568359375e+01 7.610777378082275391e+00 4.724399149417877197e-01 6.530148535966873169e-02 1.613224297761917114e-01 2.304411232471466064e-01
1.715000000000000000e+03 1.910035705566406250e+01 3.540003585815429688e+01 6.143517792224884033e-02 2.442689090967178345e-01 9.171122312545776367e-02 -1.091509535908699036e-01
1.716000000000000000e+03 1.779565811157226562e+01 3.301537704467773438e+01 -8.215638250112533569e-02 -1.108717266470193863e-02 -2.797306701540946960e-02 2.941618487238883972e-02
1.717000000000000000e+03 3.430599975585937500e+01 2.640874671936035156e+01 1.065822124481201172e+00 4.210380077362060547e+00 1.582860589027404785e+00 -7.325446009635925293e-01
1.718000000000000000e+03 1.726307868957519531e+01 3.677258682250976562e+01 1.019043773412704468e-01 1.393606215715408325e-01 7.237949967384338379e-02 -2.893992327153682709e-02
1.719000000000000000e+03 1.486259078979492188e+01 3.678797149658203125e+01 9.222533553838729858e-02 1.495447847992181778e-02 3.215394541621208191e-02 6.421145051717758179e-02
1.720000000000000000e+03 1.623587989807128906e+01 1.834620666503906250e+01 -1.714155673980712891e-01 -1.485777497291564941e-01 -9.599799662828445435e-02 1.901043951511383057e-01
1.721000000000000000e+03 3.424748229980468750e+01 2.254109573364257812e+01 1.106682792305946350e-01 3.083597660064697266e+00 9.582797884941101074e-01 -5.670661926269531250e-01
1.722000000000000000e+03 2.152778053283691406e+01 2.903176307678222656e+01 2.373160123825073242e-01 6.159448027610778809e-01 2.559782564640045166e-01 2.596088051795959473e-01
1.723000000000000000e+03 2.054261589050292969e+01 2.988961601257324219e+01 7.383849471807479858e-02 3.141251504421234131e-01 1.163890957832336426e-01 7.229992747306823730e-02
1.724000000000000000e+03 1.730669593811035156e+01 2.313441467285156250e+01 7.566179633140563965e-01 3.510074913501739502e-01 3.322876393795013428e-01 3.971450328826904297e-01
1.725000000000000000e+03 1.448224830627441406e+01 2.290008544921875000e+01 6.298630237579345703e-01 1.134337708353996277e-01 2.229890227317810059e-01 2.927359938621520996e-01
1.726000000000000000e+03 5.881999135017395020e-01 2.902880096435546875e+01 -1.880080997943878174e-02 -9.813241362571716309e-01 -3.000375032424926758e-01 3.498388826847076416e-02
1.727000000000000000e+03 4.641407966613769531e+00 2.758646202087402344e+01 -1.058923602104187012e-01 -7.069171667098999023e-01 -2.438428550958633423e-01 1.384852677583694458e-01
1.728000000000000000e+03 7.818804168701171875e+01 -1.547660350799560547e+01 -2.134037613868713379e-01 8.909387588500976562e+00 2.608794927597045898e+00 6.700486540794372559e-01
1.729000000000000000e+03 7.298159027099609375e+01 -1.682729530334472656e+01 3.286334872245788574e-02 4.952319622039794922e+00 1.495554804801940918e+00 -5.478172898292541504e-01
1.730000000000000000e+03 5.512555599212646484e+00 4.762475967407226562e+00 -1.560748368501663208e-01 -3.383470326662063599e-02 -5.697286128997802734e-02 -2.141647040843963623e-03
1.731000000000000000e+03 1.330740833282470703e+01 2.163856315612792969e+01 3.146656453609466553e-01 1.819074898958206177e-01 1.489719450473785400e-01 3.835470676422119141e-01
1.732000000000000000e+03 1.171803569793701172e+01 2.262841033935546875e+01 -1.037602499127388000e-02 2.385018952190876007e-02 4.042249638587236404e-03 9.190531820058822632e-02
1.733000000000000000e+03 6.541500568389892578e+00 2.363050460815429688e+01 -1.077399924397468567e-01 -4.135436713695526123e-01 -1.563850939273834229e-01 1.335431635379791260e-01
1.734000000000000000e+03 1.479319667816162109e+01 2.055451202392578125e+01 3.736063838005065918e-01 2.069516181945800781e-01 1.741673946380615234e-01 5.193274617195129395e-01
1.735000000000000000e+03 7.057413482666015625e+01 -1.458229446411132812e+01 -2.624813020229339600e-01 8.557608127593994141e-01 1.779838502407073975e-01 -1.848044872283935547e+00
1.736000000000000000e+03 3.753565597534179688e+01 3.386370086669921875e+01 -3.400401473045349121e-01 9.035390615463256836e-01 1.690496802330017090e-01 3.142302036285400391e-01
1.737000000000000000e+03 3.132159233093261719e+01 2.974165153503417969e+01 7.073490023612976074e-01 1.937717199325561523e+00 7.935198545455932617e-01 -7.795694470405578613e-01
1.738000000000000000e+03 6.428283691406250000e+01 -2.516735076904296875e+01 -5.389760732650756836e-01 8.098387718200683594e+00 2.267823696136474609e+00 -2.743382692337036133e+00
1.739000000000000000e+03 6.498899078369140625e+01 -2.697526168823242188e+01 -2.141418933868408203e+00 8.449002265930175781e+00 1.892275094985961914e+00 -2.542075395584106445e+00
1.740000000000000000e+03 6.329898452758789062e+01 -2.028006362915039062e+01 1.821412801742553711e+00 7.837401866912841797e+00 2.897644519805908203e+00 -1.983822703361511230e+00
1.741000000000000000e+03 3.656789398193359375e+01 2.131230545043945312e+01 -2.248596996068954468e-01 2.372082471847534180e+00 6.441668272018432617e-01 -1.350500464439392090e+00
1.742000000000000000e+03 7.822830963134765625e+01 -2.371793174743652344e+01 4.040291309356689453e-01 7.333374500274658203e+00 2.321221113204956055e+00 -3.326335847377777100e-01
1.743000000000000000e+03 5.389911270141601562e+01 -2.483133506774902344e+01 -1.896835446357727051e+00 4.041013717651367188e+00 6.432535648345947266e-01 1.961459994316101074e+00
1.744000000000000000e+03 6.543972778320312500e+01 -4.994568824768066406e+00 1.132982492446899414e+00 1.076604938507080078e+01 3.569709777832031250e+00 1.974616050720214844e+00
1.745000000000000000e+03 4.562417221069335938e+01 9.273841857910156250e+00 2.884043931961059570e+00 7.838441371917724609e+00 3.216745615005493164e+00 -3.815260648727416992e+00
1.746000000000000000e+03 4.466833114624023438e+01 1.119453430175781250e+01 1.542032241821289062e+00 1.046584796905517578e+01 3.602364063262939453e+00 -2.539402723312377930e+00
1.747000000000000000e+03 5.482034683227539062e+01 2.874233245849609375e+00 -1.810932010412216187e-01 4.988705158233642578e+00 1.442283511161804199e+00 2.752272367477416992e+00
1.748000000000000000e+03 7.114859008789062500e+01 -7.605930566787719727e-01 -1.898265957832336426e+00 3.477397188544273376e-02 -5.590475797653198242e-01 3.080630898475646973e-01
1.749000000000000000e+03 3.524114990234375000e+01 3.512574005126953125e+01 -4.941913783550262451e-01 1.755631566047668457e+00 3.784320354461669922e-01 1.985338777303695679e-01
1.750000000000000000e+03 7.294596862792968750e+01 7.258144766092300415e-02 -6.629012227058410645e-01 3.431128978729248047e+00 8.304683566093444824e-01 -1.025496959686279297e+00
1.751000000000000000e+03 6.886139678955078125e+01 1.121851563453674316e+00 4.223463833332061768e-01 2.031637907028198242e+00 7.361953258514404297e-01 2.131603240966796875e+00
1.752000000000000000e+03 6.303036117553710938e+01 -3.816419601440429688e+01 -2.703020811080932617e+00 4.400582909584045410e-01 -6.788887381553649902e-01 -2.231967896223068237e-01
1.753000000000000000e+03 5.295029449462890625e+01 2.613701343536376953e+00 -3.817960619926452637e-01 5.010627746582031250e+00 1.388649463653564453e+00 3.864557027816772461e+00
1.754000000000000000e+03 5.434375000000000000e+01 6.701826095581054688e+00 1.226401090621948242e+00 8.719973564147949219e+00 2.983912467956542969e+00 2.893156766891479492e+00
1.755000000000000000e+03 7.806297302246093750e+01 3.296137237548828125e+01 5.224829167127609253e-02 7.436802387237548828e+00 2.246715307235717773e+00 6.865614652633666992e-02
1.756000000000000000e+03 7.924442291259765625e+01 3.601218414306640625e+01 -1.584440842270851135e-02 7.842892169952392578e+00 2.348114490509033203e+00 3.479219228029251099e-02
1.757000000000000000e+03 7.940754699707031250e+01 -2.092282295227050781e+01 6.738506257534027100e-02 6.613242626190185547e+00 2.004188299179077148e+00 2.067729234695434570e-01
1.758000000000000000e+03 7.938753509521484375e+01 -2.779864311218261719e+01 -6.478047370910644531e-02 7.735317230224609375e+00 2.301161050796508789e+00 -1.213028952479362488e-01
1.759000000000000000e+03 7.723556518554687500e+01 -3.827067184448242188e+01 -2.618424594402313232e-02 7.538257598876953125e+00 2.253622055053710938e+00 -1.404960155487060547e-01
1.760000000000000000e+03 7.927080535888671875e+01 -3.468785858154296875e+01 4.202542826533317566e-02 7.734855175018310547e+00 2.333064317703247070e+00 -2.377075515687465668e-02
1.761000000000000000e+03 7.565743255615234375e+01 -2.756748390197753906e+01 -8.053004145622253418e-01 7.892173767089843750e+00 2.126061916351318359e+00 2.578883171081542969e-01
1.762000000000000000e+03 7.938857269287109375e+01 -3.055046463012695312e+01 -3.238378465175628662e-02 7.864028453826904297e+00 2.349493265151977539e+00 2.353535406291484833e-02
1.763000000000000000e+03 7.781961059570312500e+01 -3.433980560302734375e+01 4.824383556842803955e-02 7.347251892089843750e+00 2.218648672103881836e+00 -6.010178104043006897e-02
1.764000000000000000e+03 7.801184082031250000e+01 -3.302024078369140625e+01 1.091065555810928345e-01 7.354743480682373047e+00 2.239155054092407227e+00 2.414112351834774017e-02
1.765000000000000000e+03 7.575039672851562500e+01 -3.811464309692382812e+01 -5.684205144643783569e-02 7.158976554870605469e+00 2.130640506744384766e+00 -4.745477139949798584e-01
1.766000000000000000e+03 7.663569641113281250e+01 -3.936209487915039062e+01 -4.922805726528167725e-02 7.587066650390625000e+00 2.261351585388183594e+00 -2.774703204631805420e-01
1.767000000000000000e+03 7.807872009277343750e+01 1.531641960144042969e+01 1.037625297904014587e-01 6.799814224243164062e+00 2.071073055267333984e+00 8.425379395484924316e-01
1.768000000000000000e+03 7.935974121093750000e+01 1.531644153594970703e+01 6.424220651388168335e-02 6.088240623474121094e+00 1.845744848251342773e+00 3.251741230487823486e-01
1.769000000000000000e+03 7.942015075683593750e+01 2.226505661010742188e+01 -3.200291842222213745e-02 8.540050506591796875e+00 2.552414417266845703e+00 2.256651036441326141e-02
1.770000000000000000e+03 7.811785888671875000e+01 3.163744163513183594e+01 3.566765412688255310e-02 7.421179771423339844e+00 2.237054347991943359e+00 6.486223079264163971e-03
1.771000000000000000e+03 7.816572570800781250e+01 2.762455940246582031e+01 5.014002323150634766e-02 7.597048282623291016e+00 2.294156551361083984e+00 -1.928149908781051636e-01
1.772000000000000000e+03 7.939318847656250000e+01 2.778861236572265625e+01 6.117957644164562225e-03 7.929489612579345703e+00 2.380682229995727539e+00 -6.935118138790130615e-02
1.773000000000000000e+03 7.821803283691406250e+01 2.493356323242187500e+01 -2.544737234711647034e-02 7.856099605560302734e+00 2.349195718765258789e+00 -2.133973240852355957e-01
1.774000000000000000e+03 7.824028778076171875e+01 2.357828140258789062e+01 -1.096212714910507202e-01 7.976401329040527344e+00 2.360033988952636719e+00 -1.204658672213554382e-01
1.775000000000000000e+03 7.245076751708984375e+01 1.603883743286132812e+01 3.940911293029785156e-01 9.293584823608398438e+00 2.906302690505981445e+00 7.067802548408508301e-02
1.776000000000000000e+03 7.713478851318359375e+01 1.956421661376953125e+01 -4.999548196792602539e-01 7.759023666381835938e+00 2.177720785140991211e+00 5.581796765327453613e-01
1.777000000000000000e+03 7.557153320312500000e+01 1.020237445831298828e+01 1.132759213447570801e+00 7.819105625152587891e+00 2.685559511184692383e+00 -2.905273437500000000e-01
1.778000000000000000e+03 7.527961730957031250e+01 1.227440738677978516e+01 1.252631664276123047e+00 8.262705802917480469e+00 2.854601144790649414e+00 3.700899183750152588e-01
1.779000000000000000e+03 7.808201599121093750e+01 9.434495925903320312e+00 2.354408353567123413e-01 6.337358474731445312e+00 1.971839666366577148e+00 -5.606357455253601074e-01
1.780000000000000000e+03 7.935760498046875000e+01 9.656031608581542969e+00 8.625230938196182251e-02 5.378414630889892578e+00 1.639400124549865723e+00 -1.830426752567291260e-01
1.781000000000000000e+03 7.482099151611328125e+01 -1.715851402282714844e+01 -2.938868105411529541e-01 7.208092212677001953e+00 2.074261665344238281e+00 4.565941095352172852e-01
1.782000000000000000e+03 7.938081359863281250e+01 -1.399018001556396484e+01 -1.085400581359863281e-01 1.020386505126953125e+01 3.028597593307495117e+00 8.787499368190765381e-02
1.783000000000000000e+03 7.940897369384765625e+01 -1.953115272521972656e+01 5.866213515400886536e-02 7.281886100769042969e+00 2.202164411544799805e+00 3.558540642261505127e-01
1.784000000000000000e+03 7.704568481445312500e+01 -2.217278861999511719e+01 6.752384901046752930e-01 8.038431167602539062e+00 2.614100933074951172e+00 2.043419480323791504e-01
1.785000000000000000e+03 7.932991790771484375e+01 -7.001090049743652344e+00 2.222198247909545898e-01 7.012334346771240234e+00 2.170366287231445312e+00 -1.676029264926910400e-01
1.786000000000000000e+03 7.935999298095703125e+01 -5.592967510223388672e+00 1.389221101999282837e-01 7.077205181121826172e+00 2.164838314056396484e+00 2.176454365253448486e-01
1.787000000000000000e+03 7.822782135009765625e+01 -1.209624260663986206e-01 -3.201996386051177979e-01 8.380850791931152344e+00 2.418195247650146484e+00 -3.211790695786476135e-02
1.788000000000000000e+03 7.939327239990234375e+01 1.340271234512329102e+00 -8.665178716182708740e-02 8.911819458007812500e+00 2.647550106048583984e+00 -1.160818114876747131e-01
1.789000000000000000e+03 7.814852142333984375e+01 8.050225257873535156e+00 1.066874116659164429e-01 6.603108882904052734e+00 2.012938976287841797e+00 -7.297632098197937012e-01
1.790000000000000000e+03 7.814424896240234375e+01 2.896079444885253906e+01 4.566800594329833984e-02 7.489828586578369141e+00 2.260648965835571289e+00 -1.433050483465194702e-01
1.791000000000000000e+03 7.571778106689453125e+01 3.710464096069335938e+01 -9.099544584751129150e-02 6.982622146606445312e+00 2.067487955093383789e+00 2.278698235750198364e-01
1.792000000000000000e+03 7.801318359375000000e+01 1.087093353271484375e+01 3.496707081794738770e-01 6.231434345245361328e+00 1.974331498146057129e+00 -1.638408303260803223e-01
1.793000000000000000e+03 7.817288970947265625e+01 1.215773344039916992e+00 -1.527941524982452393e-01 8.164039611816406250e+00 2.403373479843139648e+00 -3.434478640556335449e-01
1.794000000000000000e+03 7.813024139404296875e+01 2.568631649017333984e+00 -1.760690510272979736e-01 7.925643920898437500e+00 2.324872493743896484e+00 -5.069070458412170410e-01
1.795000000000000000e+03 7.550270843505859375e+01 -2.916924953460693359e+00 -3.571924865245819092e-01 8.587859153747558594e+00 2.469199895858764648e+00 -3.898316025733947754e-01
1.796000000000000000e+03 7.557858276367187500e+01 7.433654665946960449e-01 -7.366672158241271973e-01 6.843431949615478516e+00 1.832029461860656738e+00 -8.845624923706054688e-01
1.797000000000000000e+03 7.566181182861328125e+01 -5.435297489166259766e+00 1.300485610961914062e+00 1.216366958618164062e+01 4.039246559143066406e+00 -1.317568898200988770e+00
1.798000000000000000e+03 7.801539611816406250e+01 -1.271825122833251953e+01 -5.460261702537536621e-01 9.159925460815429688e+00 2.584169864654541016e+00 -2.640819847583770752e-01
1.799000000000000000e+03 7.590387725830078125e+01 -1.397248649597167969e+01 -1.193401575088500977e+00 7.550670623779296875e+00 1.907180666923522949e+00 7.272536158561706543e-01
1.800000000000000000e+03 7.592563629150390625e+01 -1.832485389709472656e+01 1.617583185434341431e-01 8.056946754455566406e+00 2.465611457824707031e+00 1.107403159141540527e+00
1.801000000000000000e+03 7.823616790771484375e+01 -1.958181381225585938e+01 1.519211232662200928e-01 7.748654365539550781e+00 2.370172500610351562e+00 7.981512546539306641e-01
1.802000000000000000e+03 7.789040374755859375e+01 -8.558132171630859375e+00 5.315159559249877930e-01 8.980829238891601562e+00 2.853703737258911133e+00 -1.017466187477111816e+00
1.803000000000000000e+03 7.801641082763671875e+01 -9.995244026184082031e+00 -9.663530439138412476e-02 9.246235847473144531e+00 2.744880199432373047e+00 -1.273291587829589844e+00
1.804000000000000000e+03 1.953780364990234375e+01 7.227442264556884766e+00 4.526567459106445312e-01 2.471512407064437866e-01 2.099424004554748535e-01 2.311540842056274414e-01
1.805000000000000000e+03 5.377465438842773438e+01 -3.378851318359375000e+01 1.749894380569458008e+00 6.832712173461914062e+00 2.574781894683837891e+00 6.786491870880126953e-01
1.806000000000000000e+03 5.552713775634765625e+01 -2.960127639770507812e+01 7.284429073333740234e-01 7.423779487609863281e+00 2.445666551589965820e+00 1.781818270683288574e+00
1.807000000000000000e+03 5.663563537597656250e+01 -3.041805076599121094e+01 1.794476985931396484e+00 9.963241577148437500e+00 3.527315378189086914e+00 3.493433237075805664e+00
1.808000000000000000e+03 4.465308380126953125e+01 2.227656173706054688e+01 -6.730927824974060059e-01 3.164209365844726562e+00 7.473349571228027344e-01 1.514529585838317871e+00
1.809000000000000000e+03 2.167205047607421875e+01 1.110261726379394531e+01 2.251872718334197998e-01 1.808178722858428955e-01 1.218015402555465698e-01 2.639429867267608643e-01
1.810000000000000000e+03 1.624202728271484375e+01 2.049352073669433594e+01 4.111407697200775146e-01 9.233195334672927856e-02 1.510418206453323364e-01 4.373093545436859131e-01
1.811000000000000000e+03 3.899407958984375000e+01 3.604308700561523438e+01 -1.566755175590515137e-01 5.228593945503234863e-01 1.098551675677299500e-01 2.032524347305297852e-01
1.812000000000000000e+03 7.485801696777343750e+01 -4.757504463195800781e+00 1.193370938301086426e+00 1.183279991149902344e+01 3.907851219177246094e+00 -2.563714265823364258e+00
1.813000000000000000e+03 2.126504707336425781e+01 1.735344505310058594e+01 7.097613997757434845e-03 3.343113958835601807e-01 1.024226993322372437e-01 -7.090728729963302612e-02
1.814000000000000000e+03 5.938326263427734375e+01 1.245141124725341797e+01 1.254344820976257324e+00 9.135945320129394531e+00 3.117086887359619141e+00 9.275203943252563477e-01
1.815000000000000000e+03 5.460109329223632812e+01 9.081134796142578125e+00 1.429855465888977051e+00 1.538170623779296875e+01 5.043468475341796875e+00 2.894045829772949219e+00
1.816000000000000000e+03 7.540319061279296875e+01 -6.673348903656005859e+00 6.537107825279235840e-01 1.411001014709472656e+01 4.429116249084472656e+00 -9.454995393753051758e-01
1.817000000000000000e+03 6.443604278564453125e+01 -4.529124259948730469e+00 1.892091989517211914e+00 9.216141700744628906e+00 3.332470178604125977e+00 5.107254981994628906e-01
1.818000000000000000e+03 5.863259887695312500e+01 -3.853653717041015625e+01 -1.797781467437744141e+00 1.826346397399902344e+00 8.569491095840930939e-03 1.304394453763961792e-01
1.819000000000000000e+03 5.920853424072265625e+01 -4.050955200195312500e+01 -9.977557063102722168e-01 9.040884971618652344e-01 -2.810017019510269165e-02 -9.335029721260070801e-01
1.820000000000000000e+03 3.528038024902343750e+01 2.127014541625976562e+01 -1.523059904575347900e-01 2.659943342208862305e+00 7.522912025451660156e-01 -1.032051444053649902e+00
1.821000000000000000e+03 8.403579711914062500e+00 1.315569305419921875e+01 1.436346024274826050e-01 -2.012615501880645752e-01 -1.728808507323265076e-02 4.609827697277069092e-01
1.822000000000000000e+03 8.563158035278320312e+00 1.225117874145507812e+01 -6.727813184261322021e-02 -2.357452660799026489e-01 -9.090702235698699951e-02 4.903462231159210205e-01
1.823000000000000000e+03 4.564557266235351562e+01 1.658368682861328125e+01 1.169217348098754883e+00 5.248078346252441406e+00 1.925188779830932617e+00 2.004326343536376953e+00
1.824000000000000000e+03 4.632389450073242188e+01 1.775829315185546875e+01 -4.283312559127807617e-01 2.873477220535278320e+00 7.335438132286071777e-01 1.145301103591918945e+00
1.825000000000000000e+03 9.363466262817382812e+00 1.663288879394531250e+01 5.725709199905395508e-01 9.988237172365188599e-02 2.017359882593154907e-01 3.267672359943389893e-01
1.826000000000000000e+03 2.201594543457031250e+01 1.307392501831054688e+01 2.811308763921260834e-02 1.782357245683670044e-01 6.190464273095130920e-02 1.148167029023170471e-01
1.827000000000000000e+03 5.101805114746093750e+01 2.921413993835449219e+01 1.560308694839477539e+00 5.267532825469970703e+00 2.048352479934692383e+00 -1.517201811075210571e-01
1.828000000000000000e+03 1.403692150115966797e+01 5.452580928802490234e+00 -5.414141416549682617e-01 -3.013519942760467529e-01 -2.528298497200012207e-01 6.703689098358154297e-01
1.829000000000000000e+03 1.669622230529785156e+01 3.938706636428833008e+00 -7.854230999946594238e-01 1.049716025590896606e-01 -2.041354477405548096e-01 5.888113975524902344e-01
1.830000000000000000e+03 9.850535392761230469e+00 8.111590385437011719e+00 -5.388941168785095215e-01 -4.827034771442413330e-01 -3.064792752265930176e-01 3.812833428382873535e-01
1.831000000000000000e+03 7.299798011779785156e+00 3.278754234313964844e+00 -8.415828645229339600e-02 -5.367093533277511597e-02 -4.134876653552055359e-02 -1.482393965125083923e-02
1.832000000000000000e+03 7.316744995117187500e+01 -1.339397239685058594e+01 -8.020811080932617188e-01 2.753486394882202148e+00 5.854215621948242188e-01 3.535220324993133545e-01
1.833000000000000000e+03 4.411331558227539062e+01 3.193541908264160156e+01 7.761268019676208496e-01 1.779770255088806152e+00 7.667691111564636230e-01 -1.230911016464233398e+00
1.834000000000000000e+03 3.215872955322265625e+01 2.927697563171386719e+01 7.500271797180175781e-01 2.481894969940185547e+00 9.695766568183898926e-01 -8.274042606353759766e-01
1.835000000000000000e+03 5.480798339843750000e+01 1.178756999969482422e+01 4.770238697528839111e-01 1.208285427093505859e+01 3.767963409423828125e+00 -3.316301703453063965e-01
1.836000000000000000e+03 5.518981170654296875e+01 1.576996707916259766e+01 1.180593490600585938e+00 6.072226524353027344e+00 2.175846099853515625e+00 -8.452399373054504395e-01
1.837000000000000000e+03 4.492313385009765625e+01 3.317486190795898438e+01 8.819212019443511963e-02 2.924696922302246094e+00 9.038667082786560059e-01 -1.112671017646789551e+00
1.838000000000000000e+03 5.666643142700195312e+01 -2.693498039245605469e+01 -2.520269632339477539e+00 7.160027027130126953e+00 1.391927123069763184e+00 1.701840758323669434e+00
1.839000000000000000e+03 4.704051208496093750e+01 2.051510429382324219e+01 -2.453301668167114258e+00 2.651367425918579102e+00 5.941969156265258789e-02 1.641410231590270996e+00
1.840000000000000000e+03 4.557762145996093750e+01 1.935912322998046875e+01 -2.152894258499145508e+00 3.850475549697875977e+00 5.092743635177612305e-01 1.498430132865905762e+00
1.841000000000000000e+03 5.789873504638671875e+01 1.188956260681152344e+01 1.493441820144653320e+00 9.046237945556640625e+00 3.161903858184814453e+00 1.228236198425292969e+00
1.842000000000000000e+03 5.177102279663085938e+01 1.697673988342285156e+01 5.810464620590209961e-01 1.892331480979919434e+00 7.420133948326110840e-01 -1.456995129585266113e+00
1.843000000000000000e+03 5.017097854614257812e+01 -3.106993103027343750e+01 1.996940016746520996e+00 5.363793373107910156e+00 2.208220005035400391e+00 -9.570152759552001953e-01
1.844000000000000000e+03 6.758824920654296875e+01 -3.275062942504882812e+01 1.516217947006225586e+00 7.196385383605957031e+00 2.613780975341796875e+00 -1.797449827194213867e+00
1.845000000000000000e+03 6.715130615234375000e+01 -3.013424873352050781e+01 2.535126924514770508e+00 6.270589828491210938e+00 2.641715049743652344e+00 -2.085416316986083984e+00
1.846000000000000000e+03 6.268578338623046875e+01 -7.718515396118164062e+00 1.886395692825317383e+00 8.887664794921875000e+00 3.232218265533447266e+00 1.556302756071090698e-01
1.847000000000000000e+03 6.453919219970703125e+01 -7.388616085052490234e+00 1.679594516754150391e+00 1.067520904541015625e+01 3.706441164016723633e+00 -9.081276655197143555e-01
1.848000000000000000e+03 4.155210494995117188e+01 1.084927082061767578e+01 1.757188200950622559e+00 3.713098764419555664e+00 1.641086101531982422e+00 -1.146368384361267090e+00
1.849000000000000000e+03 3.388646316528320312e+01 3.252910995483398438e+01 -1.141763180494308472e-01 2.551237821578979492e+00 7.311185002326965332e-01 -1.739491969347000122e-01
1.850000000000000000e+03 2.942475128173828125e+01 3.102694129943847656e+01 5.977932214736938477e-01 1.291181683540344238e+00 5.666924715042114258e-01 -5.645720362663269043e-01
1.851000000000000000e+03 1.339192008972167969e+01 -1.322379875183105469e+01 1.255586296319961548e-01 2.089676409959793091e-01 1.003578826785087585e-01 -1.341218501329421997e-01
1.852000000000000000e+03 1.532495498657226562e+01 -1.509495735168457031e+01 1.948921829462051392e-01 5.516531467437744141e-01 2.239636033773422241e-01 -2.830102145671844482e-01
1.853000000000000000e+03 7.813785552978515625e+01 -4.195513725280761719e+00 1.268246173858642578e-01 8.454316139221191406e+00 2.574342012405395508e+00 7.198334336280822754e-01
1.854000000000000000e+03 6.540897369384765625e+01 -2.555969238281250000e+01 -9.896287918090820312e-01 8.471282958984375000e+00 2.244496345520019531e+00 -3.017458438873291016e+00
1.855000000000000000e+03 4.389892959594726562e+01 1.421051216125488281e+01 1.003701567649841309e+00 7.005589008331298828e+00 2.402787208557128906e+00 -2.332872450351715088e-01
1.856000000000000000e+03 3.831986236572265625e+01 1.010602855682373047e+01 6.698601841926574707e-01 7.435020804405212402e-01 4.240086674690246582e-01 -6.172315478324890137e-01
1.857000000000000000e+03 6.644055175781250000e+01 -8.752879500389099121e-01 8.449771404266357422e-01 4.319086551666259766e+00 1.549219131469726562e+00 2.005517721176147461e+00
1.858000000000000000e+03 6.331826400756835938e+01 -2.224863767623901367e+00 1.366145849227905273e+00 7.596276760101318359e+00 2.688726902008056641e+00 -5.187186226248741150e-02
1.859000000000000000e+03 3.516793441772460938e+01 2.809855651855468750e+01 3.069634139537811279e-01 5.627215862274169922e+00 1.780253767967224121e+00 -9.371340274810791016e-02
1.860000000000000000e+03 5.626761245727539062e+01 -2.828986930847167969e+01 -3.025020360946655273e-01 7.633080959320068359e+00 2.199173688888549805e+00 1.997567892074584961e+00
1.861000000000000000e+03 7.485163116455078125e+01 -1.383146405220031738e+00 -1.013738036155700684e+00 6.771080970764160156e+00 1.727202892303466797e+00 -7.860898971557617188e-01
1.862000000000000000e+03 7.361557769775390625e+01 -2.223448753356933594e+00 1.159593239426612854e-01 4.446119308471679688e+00 1.368623614311218262e+00 -1.357452154159545898e+00
1.863000000000000000e+03 6.788020324707031250e+01 -3.406011199951171875e+01 1.149351239204406738e+00 6.258601665496826172e+00 2.222385883331298828e+00 -1.536514759063720703e+00
1.864000000000000000e+03 7.100704956054687500e+01 -2.939120101928710938e+01 1.027510762214660645e+00 3.506677389144897461e+00 1.360256433486938477e+00 4.834688305854797363e-01
1.865000000000000000e+03 3.411085510253906250e+01 2.152223396301269531e+01 -1.339519023895263672e-02 2.898284673690795898e+00 8.654668331146240234e-01 -6.782963275909423828e-01
1.866000000000000000e+03 3.624300765991210938e+01 2.260625839233398438e+01 -9.407436847686767578e-02 2.710412979125976562e+00 7.849016189575195312e-01 -1.161705374717712402e+00
1.867000000000000000e+03 4.585158538818359375e+01 3.240665817260742188e+01 1.696708947420120239e-01 3.549475193023681641e+00 1.115743875503540039e+00 -8.865343928337097168e-01
1.868000000000000000e+03 6.705335998535156250e+01 -1.144825935363769531e+01 8.030015230178833008e-01 3.159376144409179688e+00 1.188713312149047852e+00 -1.399277329444885254e+00
1.869000000000000000e+03 7.039716339111328125e+01 -1.355143070220947266e+01 -4.315518960356712341e-02 1.410000473260879517e-01 2.935345843434333801e-02 -1.768005371093750000e+00
1.870000000000000000e+03 4.424293518066406250e+01 1.558467864990234375e+01 7.892596721649169922e-01 5.947537899017333984e+00 2.021039247512817383e+00 5.565681457519531250e-01
1.871000000000000000e+03 5.148419189453125000e+01 1.873227691650390625e+01 -2.115489482879638672e+00 2.861734628677368164e+00 2.238735556602478027e-01 -1.327866435050964355e+00
1.872000000000000000e+03 5.245533752441406250e+01 1.776505470275878906e+01 -1.820090562105178833e-01 3.159452438354492188e+00 8.932330012321472168e-01 -1.631633162498474121e+00
1.873000000000000000e+03 5.338632202148437500e+01 1.686999130249023438e+01 3.920455873012542725e-01 4.413286209106445312e+00 1.441599488258361816e+00 -1.980798840522766113e+00
1.874000000000000000e+03 5.607316207885742188e+01 1.145089244842529297e+01 1.332270026206970215e+00 1.025919723510742188e+01 3.477440357208251953e+00 8.609237074851989746e-01
1.875000000000000000e+03 5.906605529785156250e+01 1.131884765625000000e+01 1.177009105682373047e+00 8.470115661621093750e+00 2.894137382507324219e+00 8.651624321937561035e-01
1.876000000000000000e+03 5.152813434600830078e+00 -1.744968414306640625e+01 -1.297533363103866577e-01 -4.914932847023010254e-01 -1.863739937543869019e-01 -1.805892884731292725e-01
1.877000000000000000e+03 4.541237258911132812e+01 -1.550925445556640625e+01 -1.782763481140136719e+00 6.098809242248535156e+00 1.294813752174377441e+00 2.536258459091186523e+00
1.878000000000000000e+03 1.732351875305175781e+01 -1.769806098937988281e+01 2.797327935695648193e-02 6.804995238780975342e-02 2.880696952342987061e-02 -5.206432342529296875e-01
1.879000000000000000e+03 1.325502967834472656e+01 -2.210940742492675781e+01 -3.893921971321105957e-01 -1.983185112476348877e-01 -1.763132214546203613e-01 -2.876482605934143066e-01
1.880000000000000000e+03 1.761187362670898438e+01 -1.179919910430908203e+01 -8.199294656515121460e-02 2.765675187110900879e-01 5.837237089872360229e-02 -1.621748320758342743e-02
1.881000000000000000e+03 1.513584232330322266e+01 -1.300234317779541016e+01 -3.537668660283088684e-02 3.784848153591156006e-01 1.029324382543563843e-01 -8.101152628660202026e-02
1.882000000000000000e+03 5.540026092529296875e+01 -1.922380065917968750e+01 1.358958959579467773e+00 1.029736137390136719e+01 3.496896028518676758e+00 -1.906387090682983398e+00
1.883000000000000000e+03 5.636469268798828125e+01 -1.668327140808105469e+01 1.210804358124732971e-01 6.498672485351562500e+00 1.985925793647766113e+00 -6.586827039718627930e-01
1.884000000000000000e+03 5.081056594848632812e+01 -2.539971542358398438e+01 -4.811439037322998047e+00 1.279952079057693481e-01 -1.405033111572265625e+00 -1.776631027460098267e-01
1.885000000000000000e+03 9.262981414794921875e+00 -2.758671188354492188e+01 -3.671059384942054749e-02 -5.526310577988624573e-02 -2.759210951626300812e-02 -1.559901982545852661e-01
1.886000000000000000e+03 5.201432418823242188e+01 -2.546454238891601562e+01 -4.974650382995605469e+00 5.664690136909484863e-01 -1.322454452514648438e+00 3.609026968479156494e-01
1.887000000000000000e+03 5.345542526245117188e+01 -1.471075153350830078e+01 -8.527762889862060547e-01 3.576390981674194336e+00 8.170844316482543945e-01 -3.493153572082519531e+00
1.888000000000000000e+03 5.339477539062500000e+01 -1.651734733581542969e+01 -1.437554240226745605e+00 2.219342947006225586e+00 2.345366179943084717e-01 -1.833260178565979004e+00
1.889000000000000000e+03 1.163991165161132812e+01 -1.155017185211181641e+01 -8.745758980512619019e-02 5.420091375708580017e-02 -9.977002628147602081e-03 -1.225825026631355286e-01
1.890000000000000000e+03 1.622440147399902344e+01 -2.226939010620117188e+01 -1.214528158307075500e-01 -2.330566346645355225e-01 -1.063528358936309814e-01 -1.706750243902206421e-01
1.891000000000000000e+03 1.573642349243164062e+01 -2.101648330688476562e+01 -3.984098434448242188e-01 -4.671777486801147461e-01 -2.596762776374816895e-01 -3.233014941215515137e-01
1.892000000000000000e+03 1.403432655334472656e+01 -2.555817604064941406e+01 1.322159022092819214e-01 -2.644133865833282471e-01 -3.965923935174942017e-02 -1.724402010440826416e-01
1.893000000000000000e+03 6.144066452980041504e-01 -2.614463043212890625e+01 -8.102749474346637726e-03 -5.795351266860961914e-01 -1.762913763523101807e-01 7.315675728023052216e-03
1.894000000000000000e+03 1.356824779510498047e+01 -2.321882629394531250e+01 -9.123559296131134033e-02 -3.370275795459747314e-01 -1.284789443016052246e-01 -2.803585827350616455e-01
1.895000000000000000e+03 1.992813825607299805e+00 -1.566045951843261719e+01 -3.836895152926445007e-02 -1.738927513360977173e-01 -6.367851048707962036e-02 -7.488063722848892212e-02
1.896000000000000000e+03 6.658375859260559082e-01 -1.612735557556152344e+01 -2.954932162538170815e-03 -9.547226130962371826e-02 -2.952815778553485870e-02 -2.467453666031360626e-02
1.897000000000000000e+03 1.671015739440917969e+01 -1.978811073303222656e+01 -3.010301589965820312e-01 -4.564596712589263916e-02 -1.040028333663940430e-01 -3.857038319110870361e-01
1.898000000000000000e+03 1.695737648010253906e+01 -1.877551269531250000e+01 -1.635267138481140137e-01 -1.299526821821928024e-02 -5.295659229159355164e-02 -4.901378452777862549e-01
1.899000000000000000e+03 4.090043258666992188e+01 -2.105306625366210938e+01 4.575048685073852539e-01 2.124842405319213867e+00 7.747042179107666016e-01 1.099223494529724121e+00
1.900000000000000000e+03 4.689128875732421875e+01 -2.637320518493652344e+01 -1.550646424293518066e+00 3.329114437103271484e+00 5.335403680801391602e-01 -2.113493442535400391e+00
1.901000000000000000e+03 5.548729324340820312e+01 -2.193113517761230469e+01 1.450514554977416992e+00 1.266543674468994141e+01 4.234785556793212891e+00 1.642024040222167969e+00
1.902000000000000000e+03 5.687006759643554688e+01 -1.939295959472656250e+01 1.843557476997375488e+00 7.552841663360595703e+00 2.818919658660888672e+00 -2.171848565340042114e-01
1.903000000000000000e+03 5.519940185546875000e+01 -2.760709381103515625e+01 -1.773114681243896484e+00 6.986851692199707031e+00 1.564121007919311523e+00 1.422775626182556152e+00
1.904000000000000000e+03 1.451795458793640137e+00 -4.002636337280273438e+01 1.499254442751407623e-02 -6.147252321243286133e-01 -1.799198091030120850e-01 1.102885697036981583e-02
1.905000000000000000e+03 9.126110672950744629e-01 3.736370086669921875e+01 1.952152512967586517e-02 -1.164939045906066895e+00 -3.436252474784851074e-01 -3.835621476173400879e-02
1.906000000000000000e+03 3.003327369689941406e+00 3.824002075195312500e+01 4.801006987690925598e-02 -8.788735866546630859e-01 -2.492590546607971191e-01 -6.812123954296112061e-02
1.907000000000000000e+03 7.349808812141418457e-01 3.460558319091796875e+01 3.860147902742028236e-03 -1.232056856155395508e+00 -3.684590160846710205e-01 -5.621106829494237900e-03
1.908000000000000000e+03 5.930670499801635742e-01 2.763747024536132812e+01 5.869428161531686783e-03 -9.141342043876647949e-01 -2.724794149398803711e-01 1.830146647989749908e-02
1.909000000000000000e+03 5.777924656867980957e-01 2.622202110290527344e+01 -1.201403141021728516e-02 -8.780422210693359375e-01 -2.670168876647949219e-01 1.140495296567678452e-02
1.910000000000000000e+03 7.940360903739929199e-01 -3.589267349243164062e+01 -1.253892434760928154e-03 -6.131371855735778809e-01 -1.843173205852508545e-01 -9.237125515937805176e-03
1.911000000000000000e+03 1.955094337463378906e+00 -3.273462295532226562e+01 -1.699392101727426052e-03 -5.016447305679321289e-01 -1.510032266378402710e-01 -2.589236013591289520e-02
1.912000000000000000e+03 5.234554409980773926e-01 2.340358543395996094e+01 -3.734334604814648628e-03 -8.831730484962463379e-01 -2.660722136497497559e-01 -9.046121500432491302e-03
1.913000000000000000e+03 2.801850318908691406e+00 3.089699363708496094e+01 1.944670826196670532e-02 -8.615542650222778320e-01 -2.526322603225708008e-01 1.072132140398025513e-01
1.914000000000000000e+03 4.386026382446289062e+00 3.429990386962890625e+01 1.455260217189788818e-01 -6.773486733436584473e-01 -1.595467925071716309e-01 1.905418932437896729e-02
1.915000000000000000e+03 3.530607223510742188e+00 3.950821304321289062e+01 -6.737823598086833954e-03 -9.277351498603820801e-01 -2.803418934345245361e-01 -2.804322913289070129e-02
1.916000000000000000e+03 2.656505346298217773e+00 -2.855834770202636719e+01 -1.238544564694166183e-02 -4.074883162975311279e-01 -1.259621381759643555e-01 9.710657177492976189e-04
1.917000000000000000e+03 6.072605609893798828e+00 -2.455550384521484375e+01 7.599305361509323120e-02 -1.043737307190895081e-02 1.966670341789722443e-02 -4.329359158873558044e-02
1.918000000000000000e+03 1.616323351860046387e+00 -1.032980155944824219e+01 -4.453554283827543259e-03 -7.337897270917892456e-02 -2.334975823760032654e-02 -1.587913429830223322e-04
1.919000000000000000e+03 7.179284691810607910e-01 -2.323855972290039062e+01 6.974703632295131683e-03 -5.842196941375732422e-01 -1.731735020875930786e-01 -1.753007993102073669e-02
1.920000000000000000e+03 2.566129684448242188e+00 -3.660404968261718750e+01 7.688270416110754013e-03 -5.273450016975402832e-01 -1.558970212936401367e-01 -3.594763949513435364e-02
1.921000000000000000e+03 5.675005316734313965e-01 2.063222694396972656e+01 1.033299602568149567e-03 -9.212537407875061035e-01 -2.760661244392395020e-01 -4.184200428426265717e-03
1.922000000000000000e+03 5.840700268745422363e-01 1.923657608032226562e+01 8.452531881630420685e-03 -9.131629467010498047e-01 -2.714131176471710205e-01 8.215787820518016815e-03
1.923000000000000000e+03 6.465179920196533203e-01 1.494692707061767578e+01 3.682089736685156822e-03 -6.424263715744018555e-01 -1.916232854127883911e-01 6.724896281957626343e-02
1.924000000000000000e+03 6.212719678878784180e-01 1.352802658081054688e+01 3.487306647002696991e-03 -4.820611178874969482e-01 -1.435721516609191895e-01 7.507352530956268311e-02
1.925000000000000000e+03 7.075983881950378418e-01 7.891144752502441406e+00 -1.081061828881502151e-02 7.086705416440963745e-02 1.801693066954612732e-02 3.200618550181388855e-02
1.926000000000000000e+03 6.876466274261474609e-01 6.393599987030029297e+00 -1.167002879083156586e-02 1.107258647680282593e-01 2.971675060689449310e-02 1.149853318929672241e-02
1.927000000000000000e+03 7.034480571746826172e-01 -1.751458549499511719e+01 -1.876513101160526276e-02 -1.856072843074798584e-01 -6.131172552704811096e-02 -5.245631560683250427e-02
1.928000000000000000e+03 3.829144239425659180e+00 -3.898327636718750000e+01 2.396146208047866821e-02 -5.109699964523315430e-01 -1.461025625467300415e-01 -4.169965907931327820e-02
1.929000000000000000e+03 3.646300315856933594e+00 -3.476437377929687500e+01 4.160232841968536377e-03 -4.428618252277374268e-01 -1.316104829311370850e-01 -5.957954004406929016e-02
1.930000000000000000e+03 2.107717037200927734e+00 -3.406000518798828125e+01 -9.780250256881117821e-04 -5.143795609474182129e-01 -1.546072661876678467e-01 -3.108493983745574951e-02
1.931000000000000000e+03 1.821275711059570312e+00 -3.140592002868652344e+01 -7.795908022671937943e-03 -4.904941618442535400e-01 -1.494870185852050781e-01 -1.934681646525859833e-02
1.932000000000000000e+03 4.886877536773681641e+00 -2.532166290283203125e+01 2.932967804372310638e-02 -1.571936756372451782e-01 -3.835919871926307678e-02 -2.880167681723833084e-03
1.933000000000000000e+03 1.930292248725891113e+00 -2.454875373840332031e+01 2.079390734434127808e-02 -4.518995285034179688e-01 -1.293316930532455444e-01 7.882400415837764740e-03
1.934000000000000000e+03 2.199438810348510742e+00 -2.138103294372558594e+01 7.330778241157531738e-02 -3.920322656631469727e-01 -9.561734646558761597e-02 -1.095916926860809326e-01
1.935000000000000000e+03 7.156275510787963867e-01 -1.891799926757812500e+01 -4.406864754855632782e-03 -3.114588558673858643e-01 -9.475971758365631104e-02 -7.013193517923355103e-02
1.936000000000000000e+03 6.987047195434570312e+00 -8.335650444030761719e+00 2.880971878767013550e-02 -1.516526043415069580e-01 -3.685286641120910645e-02 -1.083862856030464172e-01
1.937000000000000000e+03 5.628393292427062988e-01 -1.196286392211914062e+01 -2.003547269850969315e-03 -2.755495533347129822e-02 -8.867550641298294067e-03 2.750470302999019623e-03
1.938000000000000000e+03 2.957979440689086914e+00 -1.261205101013183594e+01 -6.437005009502172470e-03 -1.483406424522399902e-01 -4.643329605460166931e-02 -2.137144282460212708e-02
1.939000000000000000e+03 2.521714925765991211e+00 -7.543956756591796875e+00 1.422706246376037598e-02 -6.529418379068374634e-02 -1.532013621181249619e-02 -1.259021554142236710e-02
1.940000000000000000e+03 2.794143199920654297e+00 -2.868718385696411133e+00 -9.519300423562526703e-03 -1.534866285510361195e-03 -3.316249931231141090e-03 -1.896801590919494629e-02
1.941000000000000000e+03 1.292152762413024902e+00 -3.508103132247924805e+00 -1.165394322015345097e-03 -6.887592840939760208e-03 -2.415896160528063774e-03 -7.916102185845375061e-03
1.942000000000000000e+03 5.352522730827331543e-01 4.949915885925292969e+00 -3.832089947536587715e-03 1.177527531981468201e-01 3.417619690299034119e-02 -8.062944747507572174e-03
1.943000000000000000e+03 3.491769790649414062e+00 4.313062667846679688e+00 -4.960409924387931824e-02 5.441944580525159836e-03 -1.324864663183689117e-02 -4.132323339581489563e-02
1.944000000000000000e+03 6.065558195114135742e-01 1.073913383483886719e+01 -3.056144108995795250e-03 -1.508778333663940430e-01 -4.618019238114356995e-02 6.290379911661148071e-02
1.945000000000000000e+03 1.878412365913391113e+00 1.353100681304931641e+01 6.576714571565389633e-03 -4.209004044532775879e-01 -1.242971047759056091e-01 2.078126072883605957e-01
1.946000000000000000e+03 1.750418782234191895e+00 1.937795829772949219e+01 2.715234085917472839e-02 -7.740703225135803223e-01 -2.240753918886184692e-01 2.421789802610874176e-02
1.947000000000000000e+03 1.565751194953918457e+00 2.340187644958496094e+01 4.297525156289339066e-03 -8.153629899024963379e-01 -2.433196455240249634e-01 -2.350039035081863403e-02
1.948000000000000000e+03 4.451514053344726562e+01 -1.871306800842285156e+01 1.352634072303771973e+00 4.835577011108398438e+00 1.856463313102722168e+00 9.179453253746032715e-01
1.949000000000000000e+03 5.680030441284179688e+01 -2.058469390869140625e+01 2.207875490188598633e+00 8.517904281616210938e+00 3.217733860015869141e+00 2.598886191844940186e-01
1.950000000000000000e+03 4.694498443603515625e+01 -2.429749679565429688e+01 -1.099678277969360352e+00 4.665307521820068359e+00 1.069688796997070312e+00 -1.103197574615478516e+00
1.951000000000000000e+03 3.441650009155273438e+01 1.308561038970947266e+01 8.245118260383605957e-01 2.958559989929199219e-01 3.361103534698486328e-01 -4.798983335494995117e-01
1.952000000000000000e+03 3.434398651123046875e+01 1.224002552032470703e+01 5.021411776542663574e-01 4.903807118535041809e-02 1.653537750244140625e-01 -1.902118921279907227e-01
1.953000000000000000e+03 3.283026123046875000e+01 1.395834541320800781e+01 5.052894353866577148e-01 4.734630286693572998e-01 2.936257421970367432e-01 -9.250746667385101318e-02
1.954000000000000000e+03 3.359052658081054688e+01 1.330002689361572266e+01 6.744653582572937012e-01 3.204919695854187012e-01 2.984871864318847656e-01 -2.174243777990341187e-01
1.955000000000000000e+03 3.843208312988281250e+01 1.205585765838623047e+01 1.442184209823608398e+00 1.139838695526123047e+00 7.746068835258483887e-01 -1.068689346313476562e+00
1.956000000000000000e+03 3.763751220703125000e+01 1.330815124511718750e+01 1.319861531257629395e+00 1.076969623565673828e+00 7.190493345260620117e-01 -1.111712813377380371e+00
1.957000000000000000e+03 3.666940689086914062e+01 1.247815322875976562e+01 1.189445853233337402e+00 7.218973040580749512e-01 5.734029412269592285e-01 -8.198930621147155762e-01
1.958000000000000000e+03 3.969560623168945312e+01 1.747922134399414062e+01 5.174525380134582520e-01 1.752627134323120117e+00 6.810238957405090332e-01 -1.495310187339782715e+00
1.959000000000000000e+03 2.331211471557617188e+01 1.599170112609863281e+01 -2.099526487290859222e-02 5.523068308830261230e-01 1.593934744596481323e-01 -1.327270567417144775e-01
1.960000000000000000e+03 5.984817123413085938e+01 1.649567985534667969e+01 2.497434139251708984e+00 9.463832855224609375e+00 3.588380098342895508e+00 2.423371553421020508e+00
1.961000000000000000e+03 6.660574340820312500e+01 2.708050346374511719e+01 2.298327207565307617e+00 4.919152736663818359e+00 2.165243864059448242e+00 1.178562521934509277e+00
1.962000000000000000e+03 6.765467834472656250e+01 2.056721687316894531e+01 -4.383362770080566406e+00 -1.670769900083541870e-01 -1.365131974220275879e+00 2.431489527225494385e-01
1.963000000000000000e+03 4.570150375366210938e+01 -2.847911357879638672e+00 2.874242305755615234e+00 6.641356348991394043e-01 1.061513423919677734e+00 1.219020962715148926e+00
1.964000000000000000e+03 4.541202926635742188e+01 -2.707393169403076172e+00 2.912095785140991211e+00 -4.528183490037918091e-02 8.600441813468933105e-01 9.822699427604675293e-01
1.965000000000000000e+03 4.506874847412109375e+01 9.775259494781494141e-01 2.058895111083984375e+00 2.304214239120483398e+00 1.308932781219482422e+00 -3.225058555603027344e+00
1.966000000000000000e+03 4.613556671142578125e+01 7.943248748779296875e-01 3.076736688613891602e+00 4.558306694030761719e+00 2.290513038635253906e+00 -4.746118068695068359e+00
1.967000000000000000e+03 4.549140548706054688e+01 -3.160408973693847656e+00 2.230849266052246094e+00 3.353835344314575195e-01 7.698698639869689941e-01 1.232792139053344727e+00
1.968000000000000000e+03 4.587067794799804688e+01 -3.626805305480957031e+00 9.018000364303588867e-01 1.262440085411071777e+00 6.492720246315002441e-01 1.149706840515136719e+00
1.969000000000000000e+03 4.470526885986328125e+01 -3.948803424835205078e+00 3.638179898262023926e-01 -1.185207366943359375e+00 -2.464168071746826172e-01 1.235499858856201172e+00
1.970000000000000000e+03 4.645470428466796875e+01 -3.330005407333374023e+00 1.716535925865173340e+00 4.022761344909667969e+00 1.721789121627807617e+00 1.244208335876464844e+00
1.971000000000000000e+03 1.069404983520507812e+01 3.550875663757324219e+00 -2.301071435213088989e-01 -1.511086821556091309e-01 -1.143647432327270508e-01 1.646583527326583862e-01
1.972000000000000000e+03 4.753151321411132812e+01 -3.590433359146118164e+00 -1.612720489501953125e-01 9.267029762268066406e+00 2.731727123260498047e+00 -6.263865828514099121e-01
1.973000000000000000e+03 4.678712081909179688e+01 -3.286000251770019531e+00 1.249834775924682617e+00 5.302446365356445312e+00 1.965684413909912109e+00 9.898399114608764648e-01
1.974000000000000000e+03 4.991199874877929688e+01 6.894522905349731445e-01 3.453121423721313477e+00 7.650997638702392578e+00 3.331235885620117188e+00 1.481847643852233887e+00
1.975000000000000000e+03 1.594958019256591797e+01 -1.766803383827209473e+00 -1.293439716100692749e-01 3.052045404911041260e-01 5.275817215442657471e-02 -8.329270780086517334e-02
1.976000000000000000e+03 9.513090133666992188e+00 5.607422828674316406e+00 -4.124149084091186523e-01 -2.501882016658782959e-01 -1.987809389829635620e-01 1.744056046009063721e-01
1.977000000000000000e+03 1.131422710418701172e+01 3.588582038879394531e+00 -2.540777325630187988e-01 -1.512314826250076294e-01 -1.215927675366401672e-01 1.882627010345458984e-01
1.978000000000000000e+03 1.288601303100585938e+01 -2.099855422973632812e+00 -1.854338496923446655e-01 8.381313085556030273e-02 -3.048621490597724915e-02 -1.114420890808105469e-01
1.979000000000000000e+03 1.510978317260742188e+01 -2.887409448623657227e+00 -7.438315451145172119e-02 1.558892875909805298e-01 2.445184066891670227e-02 -8.398616686463356018e-03
1.980000000000000000e+03 5.286169052124023438e+00 -3.580230951309204102e+00 -1.995196007192134857e-02 -8.740608394145965576e-02 -3.220741450786590576e-02 -7.017342001199722290e-02
1.981000000000000000e+03 6.014483928680419922e+00 -3.334011793136596680e+00 -3.587799891829490662e-02 6.518901325762271881e-03 -8.807729929685592651e-03 -5.865872278809547424e-02
1.982000000000000000e+03 7.494010925292968750e+00 -3.323022603988647461e+00 -4.675933346152305603e-02 -1.604336430318653584e-03 -1.450910046696662903e-02 -9.094101190567016602e-02
1.983000000000000000e+03 1.065352344512939453e+01 -3.252560138702392578e+00 -7.267788797616958618e-02 1.213849522173404694e-02 -1.816181838512420654e-02 -1.224457621574401855e-01
1.984000000000000000e+03 7.427454471588134766e+00 -4.112092018127441406e+00 -3.412795811891555786e-02 -1.031838878989219666e-01 -4.119355231523513794e-02 -1.247658282518386841e-01
1.985000000000000000e+03 4.980123996734619141e+00 -2.955095052719116211e+00 -3.202404826879501343e-02 -1.953794853761792183e-03 -1.019335258752107620e-02 -4.839526861906051636e-02
1.986000000000000000e+03 5.351168155670166016e+00 -2.474228858947753906e+00 -3.764307871460914612e-02 6.399243604391813278e-03 -9.373150765895843506e-03 -2.358022704720497131e-02
1.987000000000000000e+03 6.755325317382812500e+00 -3.286462306976318359e+00 -4.219175875186920166e-02 -1.034312695264816284e-01 -4.368690773844718933e-02 -1.057907566428184509e-01
1.988000000000000000e+03 2.578443765640258789e+00 -4.031346321105957031e+00 -6.652186159044504166e-03 -2.474239654839038849e-02 -9.418374858796596527e-03 -2.672366425395011902e-02
1.989000000000000000e+03 3.693965673446655273e+00 -8.626791000366210938e+00 2.614297531545162201e-02 -1.068034470081329346e-01 -2.419814094901084900e-02 -1.984831318259239197e-02
1.990000000000000000e+03 2.089914560317993164e+00 -3.221823453903198242e+00 -7.008325308561325073e-03 -3.157142177224159241e-02 -1.157392468303442001e-02 -1.348613947629928589e-02
1.991000000000000000e+03 1.440911889076232910e+00 -6.333584308624267578e+00 5.093641113489866257e-03 -3.605785965919494629e-02 -9.289265610277652740e-03 -8.259560912847518921e-03
1.992000000000000000e+03 1.139658164978027344e+01 -2.375948190689086914e+00 -1.328135281801223755e-01 3.636776655912399292e-02 -2.893372625112533569e-02 -1.142742782831192017e-01
1.993000000000000000e+03 1.276952838897705078e+01 3.325547933578491211e+00 -3.486881256103515625e-01 -1.279140859842300415e-01 -1.429806649684906006e-01 3.631686270236968994e-01
1.994000000000000000e+03 1.186562442779541016e+01 3.757444381713867188e+00 -3.238008618354797363e-01 -2.032241374254226685e-01 -1.581075042486190796e-01 3.039023876190185547e-01
1.995000000000000000e+03 5.964065074920654297e+00 3.391814470291137695e+00 -6.522658467292785645e-02 -3.357712179422378540e-02 -2.964111231267452240e-02 -3.322829678654670715e-02
1.996000000000000000e+03 8.727471351623535156e+00 2.637320518493652344e+00 -4.600351303815841675e-02 -6.041827052831649780e-02 -3.192653506994247437e-02 1.792638376355171204e-02
1.997000000000000000e+03 9.391701698303222656e+00 3.398641109466552734e+00 -1.658869683742523193e-01 -1.016709208488464355e-01 -8.026736974716186523e-02 7.234665006399154663e-02
1.998000000000000000e+03 3.829378128051757812e+00 3.466455936431884766e+00 -3.089016303420066833e-02 2.762773539870977402e-03 -8.438216522336006165e-03 -5.225447565317153931e-02
1.999000000000000000e+03 3.624289035797119141e+00 2.747924327850341797e+00 4.346584610175341368e-04 2.582833170890808105e-03 9.052474633790552616e-04 -5.753891170024871826e-02
2.000000000000000000e+03 4.362394332885742188e+00 2.657681703567504883e+00 1.262053847312927246e-04 -1.251384383067488670e-03 -3.375536762177944183e-04 -5.822050943970680237e-02
2.001000000000000000e+03 5.098310470581054688e+00 2.624376535415649414e+00 -4.931349540129303932e-04 -1.233524363487958908e-02 -3.848513588309288025e-03 -5.469809100031852722e-02
2.002000000000000000e+03 1.582450747489929199e+00 4.679984092712402344e+00 -1.668551564216613770e-02 5.917006358504295349e-02 1.274536456912755966e-02 -2.720698155462741852e-02
2.003000000000000000e+03 4.356285035610198975e-01 3.563899993896484375e+00 -2.220891619799658656e-04 8.436504006385803223e-02 2.524288557469844818e-02 -1.463486254215240479e-02
2.004000000000000000e+03 1.553056716918945312e+01 -5.271768093109130859e+00 8.146366477012634277e-02 2.170684188604354858e-01 8.955962210893630981e-02 -4.810963571071624756e-02
2.005000000000000000e+03 3.368929290771484375e+01 -3.201769113540649414e+00 -1.349455490708351135e-02 -4.304129183292388916e-01 -1.331722438335418701e-01 -3.094058930873870850e-01
2.006000000000000000e+03 3.617594528198242188e+01 -3.387271404266357422e+00 6.380643248558044434e-01 4.829575717449188232e-01 3.363065719604492188e-01 -5.506939254701137543e-03
2.007000000000000000e+03 3.818709945678710938e+01 -3.078871250152587891e+00 1.285536885261535645e+00 1.208831787109375000e+00 7.483106255531311035e-01 5.319935679435729980e-01
2.008000000000000000e+03 3.818622970581054688e+01 -2.167577743530273438e+00 1.328956037759780884e-01 1.082053065299987793e+00 3.644846081733703613e-01 2.262597680091857910e-01
2.009000000000000000e+03 3.817819595336914062e+01 -1.416714549064636230e+00 -6.475270390510559082e-01 6.737563014030456543e-01 7.868778891861438751e-03 1.501630991697311401e-01
2.010000000000000000e+03 3.530387496948242188e+01 -3.561097860336303711e+00 6.144103407859802246e-01 2.416830807924270630e-01 2.568280398845672607e-01 -1.885011494159698486e-01
2.011000000000000000e+03 1.523112678527832031e+01 3.861534595489501953e+00 -6.586026549339294434e-01 2.242081984877586365e-02 -1.908545494079589844e-01 6.141941547393798828e-01
2.012000000000000000e+03 1.322087669372558594e+01 6.035020351409912109e+00 -6.619967818260192871e-01 -4.604708254337310791e-01 -3.367402851581573486e-01 5.284031629562377930e-01
2.013000000000000000e+03 2.823422622680664062e+01 1.948944568634033203e+00 -1.061198830604553223e+00 2.782064676284790039e-01 -2.348977178335189819e-01 1.673699617385864258e-01
2.014000000000000000e+03 2.153361320495605469e+01 4.266893386840820312e+00 -6.529923677444458008e-01 -1.276258975267410278e-01 -2.341854721307754517e-01 1.647619456052780151e-01
2.015000000000000000e+03 2.197047615051269531e+01 3.383944272994995117e+00 -9.853737354278564453e-01 -1.217055022716522217e-01 -3.321237862110137939e-01 2.193105667829513550e-01
2.016000000000000000e+03 2.579804992675781250e+01 2.473422288894653320e+00 -1.001778244972229004e+00 -9.262990206480026245e-03 -3.033123612403869629e-01 2.760402858257293701e-01
2.017000000000000000e+03 2.368196487426757812e+01 3.877535104751586914e+00 -6.491264104843139648e-01 -1.237791404128074646e-01 -2.318716645240783691e-01 1.864680051803588867e-01
2.018000000000000000e+03 2.852431869506835938e+01 2.824585437774658203e+00 -7.055792808532714844e-01 3.872590363025665283e-01 -9.549608081579208374e-02 9.765517711639404297e-02
2.019000000000000000e+03 2.213839721679687500e+01 4.055434703826904297e+00 -6.910764575004577637e-01 -1.515791118144989014e-01 -2.527966797351837158e-01 1.733187586069107056e-01
2.020000000000000000e+03 2.760697555541992188e+01 2.899593114852905273e+00 -7.318130731582641602e-01 2.433277815580368042e-01 -1.465455889701843262e-01 1.662543714046478271e-01
2.021000000000000000e+03 2.771773338317871094e+01 3.614920854568481445e+00 -5.125508308410644531e-01 2.803456783294677734e-01 -6.966154277324676514e-02 1.376692354679107666e-01
2.022000000000000000e+03 2.795653152465820312e+01 4.229711532592773438e+00 -1.992017924785614014e-01 4.179091453552246094e-01 6.561220437288284302e-02 7.985678315162658691e-02
2.023000000000000000e+03 2.093107032775878906e+01 4.748820781707763672e+00 -5.125020742416381836e-01 -9.747613221406936646e-02 -1.829934716224670410e-01 1.580839902162551880e-01
2.024000000000000000e+03 2.447104263305664062e+01 3.631702423095703125e+00 -6.729688644409179688e-01 -8.089008182287216187e-02 -2.261576801538467407e-01 2.235200405120849609e-01
2.025000000000000000e+03 2.038706016540527344e+01 5.449486732482910156e+00 -2.602229714393615723e-01 -4.191985726356506348e-02 -9.064285457134246826e-02 1.652942448854446411e-01
2.026000000000000000e+03 1.344865798950195312e+01 -3.635660409927368164e+00 -5.546521395444869995e-02 -2.363824658095836639e-02 -2.373103797435760498e-02 -1.725211888551712036e-01
2.027000000000000000e+03 1.225450038909912109e+01 -2.979761838912963867e+00 -1.038497909903526306e-01 7.908954471349716187e-02 -7.428073324263095856e-03 -1.284973174333572388e-01
2.028000000000000000e+03 1.389408969879150391e+01 -4.662590980529785156e+00 2.491236105561256409e-02 1.034905984997749329e-01 3.852088749408721924e-02 -1.442591696977615356e-01
2.029000000000000000e+03 4.409860992431640625e+01 2.729651212692260742e+00 -1.272898763418197632e-01 3.143333673477172852e+00 9.048131108283996582e-01 -2.976390600204467773e+00
2.030000000000000000e+03 3.325276565551757812e+01 -4.312697887420654297e+00 4.198581278324127197e-01 -4.056752324104309082e-01 4.254867788404226303e-03 -1.586564481258392334e-01
2.031000000000000000e+03 1.851131820678710938e+01 6.607886314392089844e+00 2.310553342103958130e-01 3.330636024475097656e-01 1.692356765270233154e-01 3.551529347896575928e-01
2.032000000000000000e+03 1.623765754699707031e+01 4.536019325256347656e+00 -6.173395514488220215e-01 1.165154203772544861e-01 -1.502472311258316040e-01 6.557450294494628906e-01
2.033000000000000000e+03 3.332053756713867188e+01 -6.518056869506835938e+00 7.118229866027832031e-01 -8.963330090045928955e-02 1.866569072008132935e-01 2.869627475738525391e-01
2.034000000000000000e+03 3.394466781616210938e+01 -3.881056785583496094e+00 4.019680619239807129e-01 -2.403529286384582520e-01 4.848454147577285767e-02 -3.428563475608825684e-01
2.035000000000000000e+03 4.493867492675781250e+01 1.323690414428710938e+00 1.524113059043884277e+00 2.460013866424560547e+00 1.195238113403320312e+00 -3.265618801116943359e+00
2.036000000000000000e+03 9.818857192993164062e+00 -3.270445108413696289e+00 -7.254717499017715454e-02 -1.423039883375167847e-01 -6.445535272359848022e-02 -1.723924130201339722e-01
2.037000000000000000e+03 4.075787353515625000e+01 5.123949050903320312e+00 -1.450472921133041382e-01 1.522562265396118164e+00 4.132544994354248047e-01 -7.273955941200256348e-01
2.038000000000000000e+03 4.197989654541015625e+01 3.506215810775756836e+00 -7.339333891868591309e-01 1.857696890830993652e+00 3.371290564537048340e-01 -1.692234039306640625e+00
2.039000000000000000e+03 4.414231491088867188e+01 6.403623104095458984e+00 -1.165495872497558594e+00 5.347487449645996094e+00 1.254597544670104980e+00 -1.931424617767333984e+00
2.040000000000000000e+03 3.947733688354492188e+01 4.656293392181396484e+00 1.386361010372638702e-02 6.300028562545776367e-01 1.931599378585815430e-01 -9.760678559541702271e-02
2.041000000000000000e+03 4.040761947631835938e+01 3.718831777572631836e+00 -3.804392218589782715e-01 6.519196033477783203e-01 8.144410699605941772e-02 -8.211973309516906738e-01
2.042000000000000000e+03 1.531038665771484375e+01 4.756109714508056641e+00 -5.562715530395507812e-01 5.129396170377731323e-02 -1.514932811260223389e-01 7.010315060615539551e-01
2.043000000000000000e+03 4.357949829101562500e+01 4.119071006774902344e+00 -8.529143929481506348e-01 3.500446081161499023e+00 7.942594885826110840e-01 -2.411913871765136719e+00
2.044000000000000000e+03 4.333804321289062500e+01 3.332362413406372070e+00 -6.284636855125427246e-01 2.723839044570922852e+00 6.286125779151916504e-01 -2.362716913223266602e+00
2.045000000000000000e+03 3.041909790039062500e+01 9.275537133216857910e-01 -1.387217998504638672e+00 4.392600357532501221e-01 -2.843874096870422363e-01 -3.793398290872573853e-02
2.046000000000000000e+03 4.583891296386718750e+01 7.637898445129394531e+00 7.419333606958389282e-02 6.146960735321044922e+00 1.866346240043640137e+00 -2.504420518875122070e+00
2.047000000000000000e+03 4.492362213134765625e+01 8.281746864318847656e+00 1.561106294393539429e-01 6.625653743743896484e+00 2.034529209136962891e+00 -1.684281468391418457e+00
2.048000000000000000e+03 1.860284042358398438e+01 5.209972858428955078e+00 -3.934964537620544434e-01 1.600754559040069580e-01 -7.002630084753036499e-02 3.318633139133453369e-01
2.049000000000000000e+03 2.205976867675781250e+01 4.683630466461181641e+00 -4.802825450897216797e-01 -1.408985704183578491e-01 -1.863543242216110229e-01 1.324058920145034790e-01
2.050000000000000000e+03 3.965476608276367188e+01 -2.873775291442871094e+01 -3.393056690692901611e-01 5.617388248443603516e+00 1.583424806594848633e+00 1.366057515144348145e+00
2.051000000000000000e+03 4.405671691894531250e+01 1.852041816711425781e+01 -1.075578689575195312e+00 3.666968345642089844e+00 7.774169445037841797e-01 5.582734346389770508e-01
2.052000000000000000e+03 4.211949157714843750e+01 2.053124809265136719e+01 -1.148545742034912109e+00 1.096135139465332031e+00 -1.572317071259021759e-02 6.156734228134155273e-01
2.053000000000000000e+03 4.937263488769531250e+01 2.561859369277954102e+00 1.344516873359680176e-01 6.022820472717285156e+00 1.847181677818298340e+00 -1.377183198928833008e-01
2.054000000000000000e+03 3.233061599731445312e+01 -1.406497192382812500e+01 -9.229630827903747559e-01 7.709208130836486816e-01 -4.561267420649528503e-02 8.697617053985595703e-01
2.055000000000000000e+03 3.301020431518554688e+01 -1.130571174621582031e+01 -3.435169458389282227e-01 3.946119546890258789e-01 1.532850321382284164e-02 8.519243001937866211e-01
2.056000000000000000e+03 3.185284996032714844e+01 2.795908164978027344e+01 7.883203625679016113e-01 2.278370618820190430e+00 9.200072884559631348e-01 -8.010399341583251953e-01
2.057000000000000000e+03 1.144716072082519531e+01 -2.518379020690917969e+01 5.358239263296127319e-02 -1.475404798984527588e-01 -2.818742766976356506e-02 -2.261467427015304565e-01
2.058000000000000000e+03 1.191053104400634766e+01 -3.204419326782226562e+01 -5.810586363077163696e-02 -6.993193179368972778e-02 -3.841133788228034973e-02 -1.095690354704856873e-01
2.059000000000000000e+03 4.759932327270507812e+01 2.760005760192871094e+01 1.275527834892272949e+00 5.109899997711181641e+00 1.915628314018249512e+00 4.051145538687705994e-02
2.060000000000000000e+03 3.959494781494140625e+01 1.887221717834472656e+01 2.508508227765560150e-02 1.378133416175842285e+00 4.209655523300170898e-01 -1.517626285552978516e+00
2.061000000000000000e+03 3.027255249023437500e+01 1.321747303009033203e+01 2.988577187061309814e-01 4.233151972293853760e-01 2.166518718004226685e-01 2.501762509346008301e-01
2.062000000000000000e+03 5.242802810668945312e+01 2.846886634826660156e+01 1.275454640388488770e+00 6.783516407012939453e+00 2.417691230773925781e+00 -7.203891277313232422e-01
2.063000000000000000e+03 5.212062072753906250e+01 3.056280517578125000e+01 1.230019211769104004e+00 6.179936408996582031e+00 2.222986698150634766e+00 2.196389585733413696e-01
2.064000000000000000e+03 4.096301651000976562e+01 -2.227560424804687500e+01 7.708567380905151367e-01 3.362149238586425781e+00 1.239901781082153320e+00 2.192539453506469727e+00
2.065000000000000000e+03 4.107778549194335938e+01 -2.328912734985351562e+01 1.045160651206970215e+00 3.207924127578735352e+00 1.275925397872924805e+00 2.725793361663818359e+00
2.066000000000000000e+03 2.998909950256347656e+01 -4.347607612609863281e+00 9.938206523656845093e-02 -8.855096101760864258e-01 -2.358382642269134521e-01 -3.250528573989868164e-01
2.067000000000000000e+03 3.159881591796875000e+01 -2.854293251037597656e+01 -1.577975451946258545e-01 6.457511186599731445e-01 1.463860720396041870e-01 -3.395247161388397217e-01
2.068000000000000000e+03 3.985446548461914062e+01 -1.447004890441894531e+01 -1.658095598220825195e+00 4.736179113388061523e-01 -3.553433120250701904e-01 -5.663233995437622070e-01
2.069000000000000000e+03 2.919900321960449219e+01 4.189341545104980469e+00 -1.658395528793334961e-01 6.342829465866088867e-01 1.405330151319503784e-01 -2.579125948250293732e-02
2.070000000000000000e+03 3.330809402465820312e+01 1.831934547424316406e+01 1.589641124010086060e-01 1.882623910903930664e+00 6.124764084815979004e-01 -5.820447802543640137e-01
2.071000000000000000e+03 6.851153564453125000e+01 5.444457054138183594e+00 -4.146398277953267097e-04 2.252611637115478516e+00 6.756591200828552246e-01 2.300363063812255859e+00
2.072000000000000000e+03 6.711269378662109375e+01 2.806166112422943115e-01 7.791184186935424805e-01 3.412625312805175781e+00 1.257523179054260254e+00 2.088377237319946289e+00
2.073000000000000000e+03 4.111655807495117188e+01 -2.661801147460937500e+01 -1.821817010641098022e-01 3.716473817825317383e+00 1.060287594795227051e+00 1.836468100547790527e+00
2.074000000000000000e+03 4.043897628784179688e+01 6.222016334533691406e+00 -1.207117550075054169e-02 1.737607955932617188e+00 5.176610350608825684e-01 -3.800297677516937256e-01
2.075000000000000000e+03 4.147846603393554688e+01 5.464951992034912109e+00 -2.684372663497924805e-01 2.403987169265747070e+00 6.406649351119995117e-01 -9.785504341125488281e-01
2.076000000000000000e+03 3.505310440063476562e+01 -1.426661872863769531e+01 -1.616376280784606934e+00 -5.603432655334472656e-02 -5.017231702804565430e-01 3.909232616424560547e-01
2.077000000000000000e+03 7.155590820312500000e+01 5.130262374877929688e-01 3.086472749710083008e-01 1.285934329032897949e+00 4.783744812011718750e-01 1.650799363851547241e-01
2.078000000000000000e+03 6.633736419677734375e+01 3.092854118347167969e+01 1.138392686843872070e+00 5.313212871551513672e+00 1.935481667518615723e+00 1.094967246055603027e+00
2.079000000000000000e+03 9.820415496826171875e+00 -4.656788349151611328e+00 -4.713202640414237976e-02 -1.084586009383201599e-01 -4.667718708515167236e-02 -1.877838820219039917e-01
2.080000000000000000e+03 2.785226440429687500e+01 6.185798645019531250e+00 2.329664826393127441e-01 5.272498726844787598e-01 2.280649095773696899e-01 -6.811667233705520630e-02
2.081000000000000000e+03 2.544345092773437500e+01 4.201232433319091797e+00 -3.968347311019897461e-01 -5.543979350477457047e-03 -1.207136139273643494e-01 1.749917864799499512e-01
2.082000000000000000e+03 6.132743453979492188e+01 6.156336784362792969e+00 -6.546588540077209473e-01 4.731009483337402344e+00 1.222905278205871582e+00 -1.714917540550231934e+00
2.083000000000000000e+03 5.221114730834960938e+01 2.612887954711914062e+01 1.703991770744323730e+00 5.650985717773437500e+00 2.206493377685546875e+00 -9.200480580329895020e-01
2.084000000000000000e+03 5.066170120239257812e+01 2.256986808776855469e+01 -4.428610503673553467e-01 3.596675395965576172e+00 9.461442828178405762e-01 -1.178342938423156738e+00
2.085000000000000000e+03 4.153085327148437500e+01 -2.426812171936035156e+01 1.477480411529541016e+00 2.752362251281738281e+00 1.268952846527099609e+00 2.449561834335327148e+00
2.086000000000000000e+03 1.116091728210449219e+01 -4.089662933349609375e+01 1.420248001813888550e-01 2.017124369740486145e-02 4.865881428122520447e-02 -3.792016208171844482e-02
2.087000000000000000e+03 3.307640075683593750e+01 2.790781211853027344e+01 9.054636955261230469e-01 3.186758279800415039e+00 1.227666616439819336e+00 -7.635002136230468750e-01
2.088000000000000000e+03 6.273989105224609375e+01 -5.718964099884033203e+00 1.589316248893737793e+00 9.884607315063476562e+00 3.442177057266235352e+00 2.736051082611083984e-01
2.089000000000000000e+03 1.084678649902343750e+01 7.406925678253173828e+00 -7.264825701713562012e-01 -5.362735390663146973e-01 -3.788268268108367920e-01 4.918354153633117676e-01
2.090000000000000000e+03 5.914538192749023438e+01 2.014190673828125000e+00 -1.309611797332763672e-01 4.659450531005859375e+00 1.358546853065490723e+00 -1.978129863739013672e+00
2.091000000000000000e+03 5.563749694824218750e+01 6.990393161773681641e+00 6.651716828346252441e-01 9.534083366394042969e+00 3.059776544570922852e+00 8.955286741256713867e-01
2.092000000000000000e+03 6.575279998779296875e+01 -1.273964691162109375e+01 -7.560405135154724121e-01 4.527987480163574219e+00 1.131584167480468750e+00 -3.123233020305633545e-01
2.093000000000000000e+03 6.035754013061523438e+01 1.082875156402587891e+01 1.196474075317382812e+00 7.900356769561767578e+00 2.729049205780029297e+00 -6.354771256446838379e-01
2.094000000000000000e+03 5.612483596801757812e+01 1.421518516540527344e+01 1.461730241775512695e+00 8.317127227783203125e+00 2.933657407760620117e+00 2.653140723705291748e-01
2.095000000000000000e+03 4.765116500854492188e+01 -2.738433837890625000e+01 -1.341203689575195312e+00 3.320043325424194336e+00 5.936518907546997070e-01 -2.180697679519653320e+00
2.096000000000000000e+03 4.846037292480468750e+01 -2.828294372558593750e+01 -3.460677862167358398e-01 3.547632932662963867e+00 9.604695439338684082e-01 -2.045033454895019531e+00
2.097000000000000000e+03 6.969589996337890625e+01 5.213693141937255859e+00 5.048377811908721924e-02 3.262301445007324219e+00 9.938355684280395508e-01 2.060700654983520508e+00
2.098000000000000000e+03 7.240805816650390625e+01 8.336729049682617188e+00 6.436643004417419434e-01 8.280864715576171875e+00 2.677358865737915039e+00 4.466198086738586426e-01
2.099000000000000000e+03 5.046024703979492188e+01 1.974191665649414062e+01 -2.377562284469604492e+00 1.997115135192871094e+00 -1.141341477632522583e-01 -1.665275692939758301e+00
2.100000000000000000e+03 4.836182403564453125e+01 2.053540802001953125e+01 -1.481203198432922363e+00 1.306985259056091309e+00 -5.226540192961692810e-02 5.764184594154357910e-01
2.101000000000000000e+03 6.279435348510742188e+01 -2.590666961669921875e+01 -1.449359178543090820e+00 3.609611034393310547e+00 6.480755805969238281e-01 -2.582446098327636719e+00
2.102000000000000000e+03 6.328506088256835938e+01 -2.172787666320800781e+01 3.152925252914428711e+00 7.145785808563232422e+00 3.089613437652587891e+00 -2.502880334854125977e+00
2.103000000000000000e+03 1.700134277343750000e+01 -2.592789649963378906e+01 2.898254990577697754e-01 -7.493933290243148804e-02 6.446585059165954590e-02 -5.744002014398574829e-02
2.104000000000000000e+03 2.046791458129882812e+01 1.429230308532714844e+01 -5.248048529028892517e-02 -1.526221334934234619e-01 -6.153078749775886536e-02 9.803389757871627808e-02
2.105000000000000000e+03 2.335733985900878906e+01 1.316143321990966797e+01 5.287520587444305420e-02 2.595719397068023682e-01 9.373414516448974609e-02 9.854725748300552368e-02
2.106000000000000000e+03 7.362550354003906250e+01 6.234998226165771484e+00 -6.394180655479431152e-02 6.947912216186523438e+00 2.065191030502319336e+00 -1.255810558795928955e-01
2.107000000000000000e+03 6.062854385375976562e+01 -1.857292801141738892e-01 1.163827404379844666e-01 6.309091091156005859e+00 1.927642107009887695e+00 -1.926080226898193359e+00
2.108000000000000000e+03 6.025183486938476562e+01 2.797182798385620117e+00 -5.667116045951843262e-01 5.109964370727539062e+00 1.362975835800170898e+00 -1.768532752990722656e+00
2.109000000000000000e+03 7.760050964355468750e+01 -3.565988540649414062e+01 5.997252464294433594e-02 7.378561496734619141e+00 2.231560230255126953e+00 -1.354501992464065552e-01
2.110000000000000000e+03 7.387460327148437500e+01 -3.841471099853515625e+01 -2.005615532398223877e-01 6.588621616363525391e+00 1.916418075561523438e+00 -5.563743710517883301e-01
2.111000000000000000e+03 7.407364654541015625e+01 -3.190267181396484375e+01 5.912966132164001465e-01 5.788313865661621094e+00 1.913883090019226074e+00 1.229791641235351562e-01
2.112000000000000000e+03 7.599768829345703125e+01 -3.516882324218750000e+01 1.316660940647125244e-01 6.878995418548583984e+00 2.103198528289794922e+00 -2.975072860717773438e-01
2.113000000000000000e+03 7.827287292480468750e+01 1.951360130310058594e+01 -1.884560436010360718e-01 7.853886604309082031e+00 2.299629211425781250e+00 4.764747917652130127e-01
2.114000000000000000e+03 7.174910736083984375e+01 1.695643997192382812e+01 -7.174608707427978516e-01 7.788197040557861328e+00 2.121220827102661133e+00 -9.506015777587890625e-01
2.115000000000000000e+03 7.721206665039062500e+01 -2.429373741149902344e+01 3.720733821392059326e-01 7.857070446014404297e+00 2.468743085861206055e+00 -5.207427740097045898e-01
2.116000000000000000e+03 7.684022521972656250e+01 -2.632278633117675781e+01 -2.532024085521697998e-01 7.847320079803466797e+00 2.278235197067260742e+00 -3.881876468658447266e-01
2.117000000000000000e+03 7.783434295654296875e+01 3.553961181640625000e+01 6.334682460874319077e-03 7.497446060180664062e+00 2.251134157180786133e+00 1.265800446271896362e-01
2.118000000000000000e+03 7.624763488769531250e+01 -2.523485183715820312e+01 -2.222221344709396362e-01 8.211027145385742188e+00 2.396641492843627930e+00 -6.468905806541442871e-01
2.119000000000000000e+03 7.817415618896484375e+01 -2.902212524414062500e+01 -1.703951209783554077e-01 7.622321605682373047e+00 2.235577821731567383e+00 -5.806557461619377136e-02
2.120000000000000000e+03 7.698261260986328125e+01 -3.018773841857910156e+01 -1.824956685304641724e-01 7.242150306701660156e+00 2.117896318435668945e+00 2.411205768585205078e-01
2.121000000000000000e+03 7.632251739501953125e+01 -2.327864456176757812e+01 1.070742726325988770e+00 8.565198898315429688e+00 2.890782356262207031e+00 -1.654412299394607544e-01
2.122000000000000000e+03 7.571377563476562500e+01 -3.663685607910156250e+01 6.414975225925445557e-02 6.916064739227294922e+00 2.094064235687255859e+00 -3.676277995109558105e-01
2.123000000000000000e+03 7.676009368896484375e+01 -3.266220092773437500e+01 1.686341315507888794e-01 6.922772407531738281e+00 2.127422094345092773e+00 1.133540496230125427e-01
2.124000000000000000e+03 7.500302886962890625e+01 -3.137965202331542969e+01 3.386142849922180176e-01 6.274300098419189453e+00 1.983874320983886719e+00 3.469566702842712402e-01
2.125000000000000000e+03 7.508397674560546875e+01 -4.051890945434570312e+01 -2.715705335140228271e-01 7.105545997619628906e+00 2.050192594528198242e+00 -3.500311374664306641e-01
2.126000000000000000e+03 7.825681304931640625e+01 2.222006797790527344e+01 -1.153367012739181519e-01 8.034694671630859375e+00 2.375807285308837891e+00 2.105341106653213501e-02
2.127000000000000000e+03 7.709657287597656250e+01 2.087873077392578125e+01 -3.659081459045410156e-01 7.732825756072998047e+00 2.210075378417968750e+00 2.424877285957336426e-01
2.128000000000000000e+03 7.590620422363281250e+01 2.351560592651367188e+01 -3.647504448890686035e-01 7.164756774902343750e+00 2.040001869201660156e+00 -3.357434570789337158e-01
2.129000000000000000e+03 7.708180236816406250e+01 2.220566177368164062e+01 -3.536030650138854980e-01 7.668279170989990234e+00 2.194402694702148438e+00 -5.424388684332370758e-03
2.130000000000000000e+03 7.678517913818359375e+01 1.535963916778564453e+01 2.424728274345397949e-01 7.420773506164550781e+00 2.298973798751831055e+00 1.070549249649047852e+00
2.131000000000000000e+03 7.803190612792968750e+01 1.383543491363525391e+01 3.091641068458557129e-01 6.458202838897705078e+00 2.030210018157958984e+00 5.848515629768371582e-01
2.132000000000000000e+03 7.339552307128906250e+01 1.171384620666503906e+01 1.580181479454040527e+00 1.016671180725097656e+01 3.524068117141723633e+00 6.234245896339416504e-01
2.133000000000000000e+03 7.824726104736328125e+01 -2.095303153991699219e+01 2.940481007099151611e-01 7.451515197753906250e+00 2.323668956756591797e+00 5.725975632667541504e-01
2.134000000000000000e+03 7.680706787109375000e+01 9.142602920532226562e+00 4.459956288337707520e-01 7.054578304290771484e+00 2.250172138214111328e+00 -7.226326465606689453e-01
2.135000000000000000e+03 7.703495025634765625e+01 2.485373497009277344e+01 -1.162513047456741333e-01 7.412995815277099609e+00 2.189023256301879883e+00 -3.140036165714263916e-01
2.136000000000000000e+03 7.819319915771484375e+01 2.628587150573730469e+01 -5.226700566709041595e-03 7.708644390106201172e+00 2.311025381088256836e+00 -2.271911054849624634e-01
2.137000000000000000e+03 7.813420867919921875e+01 3.029970932006835938e+01 7.592733204364776611e-02 7.437254905700683594e+00 2.253954648971557617e+00 -5.414976924657821655e-02
2.138000000000000000e+03 7.689253997802734375e+01 2.744453239440917969e+01 8.230663090944290161e-02 7.154738903045654297e+00 2.171113729476928711e+00 -2.895953059196472168e-01
2.139000000000000000e+03 7.821982574462890625e+01 -1.683521461486816406e+01 -1.380175650119781494e-01 8.611415863037109375e+00 2.542019367218017578e+00 9.382138252258300781e-01
2.140000000000000000e+03 7.586598968505859375e+01 -1.961833190917968750e+01 6.599064469337463379e-01 8.746402740478515625e+00 2.821892738342285156e+00 8.088111877441406250e-01
2.141000000000000000e+03 7.535456848144531250e+01 4.815746307373046875e+00 -2.014368921518325806e-01 6.915231227874755859e+00 2.014138460159301758e+00 -8.231066465377807617e-01
2.142000000000000000e+03 7.634024047851562500e+01 3.615144729614257812e+01 -1.049646269530057907e-02 7.134666442871093750e+00 2.137250900268554688e+00 2.312025874853134155e-01
2.143000000000000000e+03 7.815019989013671875e+01 -2.787896394729614258e+00 -2.159057408571243286e-01 8.571907043457031250e+00 2.506800413131713867e+00 6.116864085197448730e-01
2.144000000000000000e+03 7.820612335205078125e+01 -1.439955830574035645e+00 -2.781141698360443115e-01 8.508201599121093750e+00 2.469026327133178711e+00 2.967427074909210205e-01
2.145000000000000000e+03 7.814619445800781250e+01 6.691210269927978516e+00 -1.046662870794534683e-02 6.913773536682128906e+00 2.070992231369018555e+00 -8.121471405029296875e-01
2.146000000000000000e+03 7.692230224609375000e+01 6.567292213439941406e+00 -2.298836782574653625e-02 7.060630798339843750e+00 2.111292839050292969e+00 -9.526182413101196289e-01
2.147000000000000000e+03 7.413165283203125000e+01 -1.424812507629394531e+01 -1.002430915832519531e+00 5.077241420745849609e+00 1.222443103790283203e+00 7.233272194862365723e-01
2.148000000000000000e+03 7.556515502929687500e+01 -2.078190040588378906e+01 1.142834067344665527e+00 8.669569969177246094e+00 2.943721055984497070e+00 7.436848878860473633e-01
2.149000000000000000e+03 7.694052886962890625e+01 -1.428171730041503906e+01 -7.450714707374572754e-01 8.342699050903320312e+00 2.279288053512573242e+00 5.054843425750732422e-01
2.150000000000000000e+03 7.655809783935546875e+01 3.510707092285156250e+01 6.300120614469051361e-03 7.158524990081787109e+00 2.149447441101074219e+00 1.998775899410247803e-01
2.151000000000000000e+03 7.471553802490234375e+01 3.128440093994140625e+01 2.923459708690643311e-01 6.472479343414306641e+00 2.029447555541992188e+00 1.264354586601257324e-01
2.152000000000000000e+03 7.687158966064453125e+01 3.135745811462402344e+01 1.593020558357238770e-01 7.075788974761962891e+00 2.170527458190917969e+00 9.733280166983604431e-03
2.153000000000000000e+03 7.270336151123046875e+01 1.723082351684570312e+01 -9.476623535156250000e-01 8.013031005859375000e+00 2.119610548019409180e+00 2.700042724609375000e-01
2.154000000000000000e+03 7.669069671630859375e+01 1.064026927947998047e+01 7.684864997863769531e-01 7.115940093994140625e+00 2.365328073501586914e+00 -2.947818040847778320e-01
2.155000000000000000e+03 7.694977569580078125e+01 7.811850547790527344e+00 1.778436154127120972e-01 7.011338710784912109e+00 2.156754732131958008e+00 -9.315286278724670410e-01
2.156000000000000000e+03 7.796967315673828125e+01 3.426104736328125000e+01 7.591168396174907684e-03 7.471177577972412109e+00 2.243630647659301758e+00 1.064636409282684326e-01
2.157000000000000000e+03 7.685897064208984375e+01 2.376465082168579102e+00 -3.938627839088439941e-01 7.412597179412841797e+00 2.105620384216308594e+00 -7.734122872352600098e-01
2.158000000000000000e+03 7.676037597656250000e+01 5.171290874481201172e+00 -7.947704195976257324e-02 7.097219467163085938e+00 2.105322599411010742e+00 -9.686574339866638184e-01
2.159000000000000000e+03 7.697165679931640625e+01 -1.379499077796936035e+00 -6.822335124015808105e-01 8.191128730773925781e+00 2.252668619155883789e+00 1.107025295495986938e-01
2.160000000000000000e+03 7.500226593017578125e+01 -1.318069362640380859e+01 -1.500973701477050781e+00 6.549039363861083984e+00 1.514419674873352051e+00 8.403735160827636719e-01
2.161000000000000000e+03 7.595969390869140625e+01 -9.988796234130859375e+00 -2.024741619825363159e-01 9.774391174316406250e+00 2.871575117111206055e+00 -7.407645583152770996e-01
2.162000000000000000e+03 7.682623291015625000e+01 -2.725575208663940430e+00 -4.278998970985412598e-01 8.489756584167480469e+00 2.418556928634643555e+00 3.162493109703063965e-01
2.163000000000000000e+03 7.652523040771484375e+01 -8.429855346679687500e+00 1.044306874275207520e+00 1.058542060852050781e+01 3.488918304443359375e+00 -6.956269741058349609e-01
2.164000000000000000e+03 4.744513702392578125e+01 -1.540950298309326172e+01 -3.008692979812622070e+00 7.051133632659912109e+00 1.212732195854187012e+00 2.872104167938232422e+00
2.165000000000000000e+03 2.115661430358886719e+01 2.418599891662597656e+01 3.196708858013153076e-01 6.382473707199096680e-01 2.873754799365997314e-01 2.722772061824798584e-01
2.166000000000000000e+03 2.144294929504394531e+01 2.558847427368164062e+01 4.243676364421844482e-01 6.421145796775817871e-01 3.199446499347686768e-01 4.425562322139739990e-01
2.167000000000000000e+03 4.385869216918945312e+01 3.406269073486328125e+01 -1.090451702475547791e-01 2.009020805358886719e+00 5.699927210807800293e-01 -1.015212416648864746e+00
2.168000000000000000e+03 3.052783393859863281e+01 -8.903145790100097656e+00 2.031091786921024323e-02 -3.701654672622680664e-01 -1.049563661217689514e-01 3.335187733173370361e-01
2.169000000000000000e+03 6.604279327392578125e+01 -2.744469451904296875e+01 -9.227101206779479980e-01 7.733444690704345703e+00 2.043220281600952148e+00 -2.636706590652465820e+00
2.170000000000000000e+03 3.889701461791992188e+01 -1.559872722625732422e+01 -8.548143506050109863e-01 3.191463947296142578e-01 -1.607003808021545410e-01 -2.273127734661102295e-01
2.171000000000000000e+03 3.890935897827148438e+01 -1.362145423889160156e+01 -1.897837519645690918e+00 6.204919815063476562e-01 -3.832036852836608887e-01 -1.167457774281501770e-01
2.172000000000000000e+03 2.867704010009765625e+01 -2.566747093200683594e+01 3.634220734238624573e-02 1.229120135307312012e+00 3.796387314796447754e-01 -1.085248365998268127e-01
2.173000000000000000e+03 3.032144165039062500e+01 -2.767737960815429688e+01 -1.728701293468475342e-01 8.936562538146972656e-01 2.162358462810516357e-01 -3.385387957096099854e-01
2.174000000000000000e+03 2.049077749252319336e+00 3.199187278747558594e+01 3.829082846641540527e-02 -9.679527282714843750e-01 -2.788985669612884521e-01 8.681140840053558350e-02
2.175000000000000000e+03 3.601150989532470703e+00 3.351831436157226562e+01 7.782309502363204956e-02 -7.498489022254943848e-01 -2.016077488660812378e-01 4.534308239817619324e-02
2.176000000000000000e+03 3.588693141937255859e+00 2.685906982421875000e+01 -8.959728479385375977e-02 -7.429326176643371582e-01 -2.497589588165283203e-01 8.385537564754486084e-02
2.177000000000000000e+03 4.440168857574462891e+00 2.459816741943359375e+01 -6.060813739895820618e-02 -6.452816128730773926e-01 -2.117669284343719482e-01 5.477790907025337219e-02
2.178000000000000000e+03 1.807836771011352539e+00 2.762616539001464844e+01 -3.191681578755378723e-02 -8.659452795982360840e-01 -2.693586349487304688e-01 7.070117443799972534e-02
2.179000000000000000e+03 2.627794265747070312e+00 2.917674064636230469e+01 -2.144037559628486633e-02 -8.470100164413452148e-01 -2.605351209640502930e-01 1.293032616376876831e-01
2.180000000000000000e+03 3.913349390029907227e+00 3.166683197021484375e+01 6.416757404804229736e-02 -6.913872957229614258e-01 -1.881659179925918579e-01 1.238894090056419373e-01
2.181000000000000000e+03 2.465458393096923828e+00 3.557521057128906250e+01 3.647775202989578247e-02 -9.372621774673461914e-01 -2.702353298664093018e-01 -2.751240879297256470e-02
2.182000000000000000e+03 2.234693765640258789e+00 3.425775527954101562e+01 5.579261481761932373e-02 -9.786776900291442871e-01 -2.768655419349670410e-01 2.031285315752029419e-02
2.183000000000000000e+03 5.520796775817871094e+00 3.345737838745117188e+01 1.506625413894653320e-01 -4.300086796283721924e-01 -8.380384743213653564e-02 6.599270552396774292e-02
2.184000000000000000e+03 3.882184028625488281e+00 -3.589673995971679688e+01 1.223281584680080414e-02 -4.383615553379058838e-01 -1.278386116027832031e-01 -5.282001942396163940e-02
2.185000000000000000e+03 1.664204597473144531e+00 -2.875226020812988281e+01 -8.745570667088031769e-03 -4.789310693740844727e-01 -1.463029980659484863e-01 1.430543255992233753e-03
2.186000000000000000e+03 6.707767486572265625e+00 -2.707040023803710938e+01 -3.992032632231712341e-02 -7.705103605985641479e-02 -3.509140759706497192e-02 -8.221347630023956299e-02
2.187000000000000000e+03 4.978810787200927734e+00 -3.426027679443359375e+01 4.128343891352415085e-03 -3.353176116943359375e-01 -9.935678541660308838e-02 -8.554365485906600952e-02
2.188000000000000000e+03 2.787827968597412109e+00 -2.976243591308593750e+01 -2.081954479217529297e-02 -4.080354571342468262e-01 -1.286565065383911133e-01 -1.680906862020492554e-02
2.189000000000000000e+03 1.716487407684326172e+00 -3.008546638488769531e+01 -8.041438646614551544e-03 -4.862135648727416992e-01 -1.482765078544616699e-01 -5.509785842150449753e-03
2.190000000000000000e+03 7.252325534820556641e+00 2.261562728881835938e+01 -5.593621358275413513e-02 -2.656404972076416016e-01 -9.647300839424133301e-02 8.349988609552383423e-02
2.191000000000000000e+03 1.727024793624877930e+00 2.074028396606445312e+01 1.533683482557535172e-02 -7.958567738533020020e-01 -2.341559827327728271e-01 -4.783968906849622726e-03
2.192000000000000000e+03 2.873018741607666016e+00 2.226310729980468750e+01 1.279559172689914703e-02 -7.081543803215026855e-01 -2.086076289415359497e-01 -1.241746358573436737e-02
2.193000000000000000e+03 2.089268445968627930e+00 -1.990801429748535156e+01 2.128341421484947205e-02 -3.281295001506805420e-01 -9.205383062362670898e-02 -1.735873073339462280e-01
2.194000000000000000e+03 3.294031381607055664e+00 -1.512109088897705078e+01 -6.214870512485504150e-02 -2.012202143669128418e-01 -7.901068031787872314e-02 -7.066415250301361084e-02
2.195000000000000000e+03 6.044823646545410156e+00 -1.387997627258300781e+01 -1.089720427989959717e-01 -2.564234733581542969e-01 -1.096186563372612000e-01 -1.433300226926803589e-01
2.196000000000000000e+03 7.050625801086425781e+00 1.989448738098144531e+01 1.930136829614639282e-01 -2.832255959510803223e-01 -2.706357650458812714e-02 7.454784959554672241e-02
2.197000000000000000e+03 1.993585944175720215e+00 8.196953773498535156e+00 -5.074270442128181458e-02 -2.623561210930347443e-02 -2.309349551796913147e-02 1.000268086791038513e-01
2.198000000000000000e+03 3.109138727188110352e+00 -2.456299209594726562e+01 1.535527966916561127e-02 -3.361776173114776611e-01 -9.624670445919036865e-02 9.348746389150619507e-03
2.199000000000000000e+03 5.299563407897949219e+00 -2.312115287780761719e+01 1.799585968255996704e-01 -6.881392747163772583e-02 3.334340080618858337e-02 -3.113832324743270874e-02
2.200000000000000000e+03 3.458537101745605469e+00 -1.633588600158691406e+01 -9.703014791011810303e-02 -2.549461126327514648e-01 -1.055928766727447510e-01 -1.464985162019729614e-01
2.201000000000000000e+03 2.692126512527465820e+00 -1.007250308990478516e+01 1.732944883406162262e-02 -1.040493547916412354e-01 -2.601597271859645844e-02 -4.524333868175745010e-03
2.202000000000000000e+03 1.561239600181579590e+00 -9.000838279724121094e+00 9.630055166780948639e-03 -5.978541076183319092e-02 -1.504660677164793015e-02 1.466604589950293303e-04
2.203000000000000000e+03 7.129569530487060547e+00 -4.880098819732666016e+00 7.086795521900057793e-04 -9.799727797508239746e-02 -2.918658033013343811e-02 -9.956408292055130005e-02
2.204000000000000000e+03 3.335507869720458984e+00 7.885061740875244141e+00 -1.172019243240356445e-01 -5.534451082348823547e-02 -5.176392942667007446e-02 1.345134228467941284e-01
2.205000000000000000e+03 1.960438013076782227e+00 6.037600994110107422e+00 -3.970763832330703735e-02 3.477104753255844116e-02 -1.480977050960063934e-03 1.161793712526559830e-02
2.206000000000000000e+03 1.963330626487731934e+00 1.496946239471435547e+01 3.255310654640197754e-02 -5.396351218223571777e-01 -1.521246135234832764e-01 1.887297481298446655e-01
2.207000000000000000e+03 3.190464258193969727e+00 1.480443000793457031e+01 6.882005184888839722e-02 -4.617801010608673096e-01 -1.178880184888839722e-01 2.774427831172943115e-01
2.208000000000000000e+03 3.704252243041992188e+00 -3.387294292449951172e+00 -4.942971747368574142e-03 -9.058852680027484894e-03 -4.200547467917203903e-03 -2.374923601746559143e-02
2.209000000000000000e+03 1.410759210586547852e+00 -4.929370403289794922e+00 -3.092732280492782593e-03 -3.251346945762634277e-02 -1.068186108022928238e-02 -1.495898421853780746e-02
2.210000000000000000e+03 2.998033761978149414e+00 8.595969200134277344e+00 -9.966526180505752563e-02 -7.330133765935897827e-02 -5.188998207449913025e-02 1.623638421297073364e-01
2.211000000000000000e+03 4.118453025817871094e+00 -1.217451381683349609e+01 -3.759468346834182739e-02 -1.977910101413726807e-01 -7.061570882797241211e-02 -4.056682810187339783e-02
2.212000000000000000e+03 4.662113666534423828e+00 -1.587887287139892578e+01 -1.303637325763702393e-01 -3.191795349121093750e-01 -1.348629891872406006e-01 -1.219080686569213867e-01
2.213000000000000000e+03 2.614836454391479492e+00 -8.810003280639648438e+00 4.567216365103377029e-06 -9.251330792903900146e-02 -2.775262109935283661e-02 -1.836886070668697357e-02
2.214000000000000000e+03 2.292329072952270508e+00 -3.535046005249023438e+01 3.847055602818727493e-03 -5.192840099334716797e-01 -1.546310782432556152e-01 -2.924903109669685364e-02
2.215000000000000000e+03 3.407064676284790039e+00 -3.354817199707031250e+01 -9.051287197507917881e-04 -4.244065880775451660e-01 -1.275935173034667969e-01 -5.327839404344558716e-02
2.216000000000000000e+03 4.616799354553222656e+00 -3.302603530883789062e+01 -1.704072952270507812e-02 -3.402497172355651855e-01 -1.071871370077133179e-01 -7.676931470632553101e-02
2.217000000000000000e+03 1.807053089141845703e+00 -2.600555992126464844e+01 -1.884704572148621082e-03 -4.702340662479400635e-01 -1.416356265544891357e-01 1.614310033619403839e-02
2.218000000000000000e+03 6.497414112091064453e+00 -2.598679733276367188e+01 -1.955433934926986694e-02 -4.904336109757423401e-02 -2.057931013405323029e-02 -6.670916825532913208e-02
2.219000000000000000e+03 3.306005716323852539e+00 -1.947735786437988281e+01 -2.028289949521422386e-03 -2.902790009975433350e-01 -8.769218623638153076e-02 -1.835762262344360352e-01
2.220000000000000000e+03 3.088512659072875977e+00 9.656741142272949219e+00 -9.166268259286880493e-02 -1.292128562927246094e-01 -6.626266241073608398e-02 2.264867573976516724e-01
2.221000000000000000e+03 4.725986003875732422e+00 9.915385246276855469e+00 -1.711751222610473633e-01 -1.423810273408889771e-01 -9.406684339046478271e-02 3.144579529762268066e-01
2.222000000000000000e+03 3.209386825561523438e+00 1.221102237701416016e+01 -1.827220432460308075e-02 -2.896435260772705078e-01 -9.237472712993621826e-02 3.149700164794921875e-01
2.223000000000000000e+03 3.772187948226928711e+00 1.575089740753173828e+01 1.258785128593444824e-01 -4.899103045463562012e-01 -1.092095375061035156e-01 2.594388127326965332e-01
2.224000000000000000e+03 2.916497468948364258e+00 1.952398300170898438e+01 6.189531832933425903e-02 -6.658062338829040527e-01 -1.811732798814773560e-01 4.191022738814353943e-02
2.225000000000000000e+03 3.208867788314819336e+00 1.683836364746093750e+01 1.025184094905853271e-01 -5.635068416595458984e-01 -1.382965296506881714e-01 1.799781024456024170e-01
2.226000000000000000e+03 6.287722587585449219e+00 1.851006698608398438e+01 2.337129265069961548e-01 -3.633292317390441895e-01 -3.888489305973052979e-02 1.396663188934326172e-01
2.227000000000000000e+03 7.226416778564453125e+01 1.853177642822265625e+01 -1.868958115577697754e+00 7.183585166931152344e+00 1.594388008117675781e+00 -8.535066246986389160e-02
2.228000000000000000e+03 4.240531158447265625e+01 7.792140007019042969e+00 8.565412461757659912e-02 4.070718765258789062e+00 1.246911764144897461e+00 -7.920217514038085938e-01
2.229000000000000000e+03 4.101823806762695312e+01 1.281500530242919922e+01 1.857768535614013672e+00 3.232423543930053711e+00 1.527057647705078125e+00 -1.390201807022094727e+00
2.230000000000000000e+03 5.791944885253906250e+01 -2.692722129821777344e+01 -2.836166381835937500e+00 6.891312122344970703e+00 1.216543793678283691e+00 1.850063920021057129e+00
2.231000000000000000e+03 5.367147064208984375e+01 -3.768788909912109375e+01 -8.658141493797302246e-01 5.593225002288818359e+00 1.418223261833190918e+00 5.860774517059326172e-01
2.232000000000000000e+03 5.708884048461914062e+01 -4.082671356201171875e+01 -2.185394525527954102e+00 3.674484491348266602e+00 4.467269778251647949e-01 -6.375288963317871094e-01
2.233000000000000000e+03 2.182616043090820312e+01 2.688645744323730469e+01 4.311444759368896484e-01 6.202602386474609375e-01 3.154214024543762207e-01 4.643391370773315430e-01
2.234000000000000000e+03 3.399924468994140625e+01 2.051491165161132812e+01 -8.898193389177322388e-02 2.649697780609130859e+00 7.682147622108459473e-01 -6.918644309043884277e-01
2.235000000000000000e+03 5.407335662841796875e+01 1.768236160278320312e+01 1.970366761088371277e-02 4.677613735198974609e+00 1.409195184707641602e+00 -1.770640969276428223e+00
2.236000000000000000e+03 5.320631027221679688e+01 1.852849769592285156e+01 -1.282628893852233887e+00 4.394340991973876953e+00 9.335137009620666504e-01 -2.012275457382202148e+00
2.237000000000000000e+03 5.301500701904296875e+01 -4.064557266235351562e+01 -2.374891757965087891e+00 5.662362575531005859e+00 9.862412810325622559e-01 4.190392792224884033e-01
2.238000000000000000e+03 2.148719406127929688e+01 9.948242187500000000e+00 3.953702449798583984e-01 6.089272350072860718e-02 1.368788927793502808e-01 2.886714637279510498e-01
2.239000000000000000e+03 2.502205657958984375e+01 1.366795349121093750e+01 1.614724248647689819e-01 2.924043536186218262e-01 1.361630409955978394e-01 -7.563233375549316406e-02
2.240000000000000000e+03 3.518773269653320312e+01 1.409108352661132812e+01 8.629652261734008789e-01 7.135195136070251465e-01 4.729454219341278076e-01 -8.101687431335449219e-01
2.241000000000000000e+03 3.531446838378906250e+01 1.662351417541503906e+01 4.039244949817657471e-01 1.411480307579040527e+00 5.446214675903320312e-01 -1.128384590148925781e+00
2.242000000000000000e+03 4.925654602050781250e+01 -9.700785636901855469e+00 2.373494863510131836e+00 9.314211845397949219e+00 3.506312131881713867e+00 2.380748748779296875e+00
2.243000000000000000e+03 5.058235931396484375e+01 -1.214144611358642578e+01 1.192626476287841797e+00 5.260059356689453125e+00 1.935805678367614746e+00 -3.243528008460998535e-01
2.244000000000000000e+03 2.425078392028808594e+01 -2.796131515502929688e+01 7.619859278202056885e-02 6.152995824813842773e-01 2.074494510889053345e-01 -1.730882823467254639e-01
2.245000000000000000e+03 2.288772392272949219e+01 -2.220360565185546875e+01 3.329624533653259277e-01 2.071308791637420654e-01 1.620279997587203979e-01 -1.245902180671691895e-01
2.246000000000000000e+03 7.487181091308593750e+01 -2.153885459899902344e+01 1.304622173309326172e+00 1.062280464172363281e+01 3.578227996826171875e+00 1.046578511595726013e-01
2.247000000000000000e+03 7.546538543701171875e+01 -2.238846015930175781e+01 1.274447917938232422e+00 9.287264823913574219e+00 3.168513774871826172e+00 2.705212831497192383e-01
2.248000000000000000e+03 4.325377273559570312e+01 1.589445781707763672e+01 7.342692017555236816e-01 4.572964191436767578e+00 1.592170000076293945e+00 -5.041580200195312500e-01
2.249000000000000000e+03 5.491681289672851562e+01 2.244415664672851562e+01 -2.117429733276367188e+00 4.741872787475585938e+00 7.873329520225524902e-01 -2.729249477386474609e+00
2.250000000000000000e+03 5.369224929809570312e+01 2.450537109375000000e+01 -6.315764188766479492e-01 6.133546352386474609e+00 1.650591015815734863e+00 -1.292168378829956055e+00
2.251000000000000000e+03 1.389649295806884766e+01 -1.029176425933837891e+01 4.273989051580429077e-02 2.353752255439758301e-01 8.343453705310821533e-02 -6.026587262749671936e-02
2.252000000000000000e+03 2.840355682373046875e+01 4.882761955261230469e+00 5.110968649387359619e-02 5.505507588386535645e-01 1.804981231689453125e-01 -2.118735015392303467e-02
2.253000000000000000e+03 4.683782577514648438e+00 1.227365398406982422e+01 -2.955712378025054932e-02 -2.617601752281188965e-01 -8.739519119262695312e-02 4.052816033363342285e-01
2.254000000000000000e+03 5.581561279296875000e+01 1.010625934600830078e+01 1.506462812423706055e+00 1.131565093994140625e+01 3.846634149551391602e+00 1.657715916633605957e+00
2.255000000000000000e+03 4.709459304809570312e+01 -5.398766517639160156e+00 -2.177668809890747070e+00 5.895533561706542969e+00 1.115359425544738770e+00 -3.551377654075622559e-01
2.256000000000000000e+03 5.238814544677734375e+01 1.948860549926757812e+01 -1.814014196395874023e+00 3.867957353591918945e+00 6.161829829216003418e-01 -2.260813713073730469e+00
2.257000000000000000e+03 4.212488174438476562e+00 2.870682907104492188e+01 -5.111683160066604614e-02 -7.470616698265075684e-01 -2.394535541534423828e-01 1.475398689508438110e-01
2.258000000000000000e+03 3.662725448608398438e+00 2.982377815246582031e+01 1.291902828961610794e-02 -7.758397459983825684e-01 -2.288762181997299194e-01 1.363193988800048828e-01
2.259000000000000000e+03 6.447825622558593750e+01 -1.272094726562500000e+01 -1.148229002952575684e+00 5.920212745666503906e+00 1.431595206260681152e+00 3.758541643619537354e-01
2.260000000000000000e+03 6.495342254638671875e+01 -1.421360015869140625e+01 -1.632151603698730469e+00 5.287540912628173828e+00 1.096616744995117188e+00 3.405481278896331787e-01
2.261000000000000000e+03 4.586704635620117188e+01 3.439997863769531250e+01 -3.219254314899444580e-01 3.203401803970336914e+00 8.644428849220275879e-01 -9.395549297332763672e-01
2.262000000000000000e+03 5.005595684051513672e+00 2.393018722534179688e+01 -7.015046477317810059e-02 -5.800834894180297852e-01 -1.950701922178268433e-01 4.687168076634407043e-02
2.263000000000000000e+03 4.900079345703125000e+01 2.908667182922363281e+01 1.379502773284912109e+00 5.029669761657714844e+00 1.922751665115356445e+00 -1.054496243596076965e-01
2.264000000000000000e+03 1.610210800170898438e+01 2.175196838378906250e+01 4.951621592044830322e-01 2.195445448160171509e-01 2.144120037555694580e-01 4.128461778163909912e-01
2.265000000000000000e+03 2.690094566345214844e+01 1.416870880126953125e+01 2.591255903244018555e-01 1.790476888418197632e-01 1.314519792795181274e-01 -6.058244034647941589e-02
2.266000000000000000e+03 7.599955749511718750e+01 1.848178100585937500e+01 -7.282891869544982910e-01 7.814464092254638672e+00 2.125852584838867188e+00 8.588146567344665527e-01
2.267000000000000000e+03 1.667930984497070312e+01 -4.106842994689941406e+00 1.080949157476425171e-01 2.645446956157684326e-01 1.117918863892555237e-01 2.780728228390216827e-02
2.268000000000000000e+03 2.501012420654296875e+01 -1.485007953643798828e+01 -8.288492560386657715e-01 -1.830434650182723999e-01 -3.035678267478942871e-01 -2.939920723438262939e-01
2.269000000000000000e+03 1.074103355407714844e+01 -3.804211807250976562e+01 1.197035610675811768e-01 -4.762890934944152832e-02 2.162239700555801392e-02 -8.969929814338684082e-02
2.270000000000000000e+03 1.096150112152099609e+01 -3.499007415771484375e+01 5.491603165864944458e-02 -5.683981999754905701e-02 -5.771368159912526608e-04 -1.385874003171920776e-01
2.271000000000000000e+03 2.978843688964843750e+01 -1.255365657806396484e+01 -6.857192516326904297e-01 4.781481623649597168e-01 -6.227131932973861694e-02 3.776961565017700195e-01
2.272000000000000000e+03 2.710686302185058594e+01 -1.907134056091308594e+01 4.745274484157562256e-01 9.103117585182189941e-01 4.154517650604248047e-01 1.542169153690338135e-01
2.273000000000000000e+03 2.739446830749511719e+01 -1.779498481750488281e+01 2.290931791067123413e-01 7.331944108009338379e-01 2.886862754821777344e-01 9.744302183389663696e-02
2.274000000000000000e+03 3.193030929565429688e+01 2.653350830078125000e+01 7.291071414947509766e-01 2.501264572143554688e+00 9.691115617752075195e-01 -7.364647388458251953e-01
2.275000000000000000e+03 3.233092880249023438e+01 3.047318840026855469e+01 4.267149567604064941e-01 2.422049522399902344e+00 8.546293377876281738e-01 -6.396273970603942871e-01
2.276000000000000000e+03 8.870901107788085938e+00 8.688200950622558594e+00 -5.400980114936828613e-01 -3.668721616268157959e-01 -2.720910608768463135e-01 3.382357358932495117e-01
2.277000000000000000e+03 8.707381248474121094e+00 4.799334526062011719e+00 -2.778395712375640869e-01 -1.381649672985076904e-01 -1.248013600707054138e-01 7.485768198966979980e-02
2.278000000000000000e+03 4.663165283203125000e+01 3.354733276367187500e+01 8.155944943428039551e-02 3.749812364578247070e+00 1.149411559104919434e+00 -8.851555585861206055e-01
2.279000000000000000e+03 6.055544662475585938e+01 -1.701427078247070312e+01 3.641053438186645508e-01 6.278273105621337891e+00 1.992713570594787598e+00 -1.560439914464950562e-01
2.280000000000000000e+03 6.162572860717773438e+01 -1.941691398620605469e+01 1.791302680969238281e+00 6.065260410308837891e+00 2.356968879699707031e+00 -1.438241124153137207e+00
2.281000000000000000e+03 9.560062408447265625e+00 2.072307014465332031e+01 1.788339912891387939e-01 -2.451339736580848694e-02 4.629617556929588318e-02 9.471742808818817139e-02
2.282000000000000000e+03 1.345031356811523438e+01 1.960292243957519531e+01 4.543171525001525879e-01 3.745044171810150146e-01 2.486464679241180420e-01 4.953406155109405518e-01
2.283000000000000000e+03 5.521801757812500000e+01 -1.060410213470458984e+01 5.518400669097900391e-01 3.026387691497802734e+00 1.073468327522277832e+00 -2.592778444290161133e+00
2.284000000000000000e+03 1.487891387939453125e+01 -2.274521636962890625e+01 -6.092442572116851807e-02 -3.778806030750274658e-01 -1.316415071487426758e-01 -2.054012566804885864e-01
2.285000000000000000e+03 4.170965194702148438e+01 -1.625522232055664062e+01 -3.490884900093078613e-01 5.114638209342956543e-01 4.871259629726409912e-02 7.677580416202545166e-02
2.286000000000000000e+03 7.063743591308593750e+01 -3.666573333740234375e+01 -2.503130771219730377e-02 6.008286476135253906e+00 1.794976472854614258e+00 -1.125429630279541016e+00
2.287000000000000000e+03 6.734371185302734375e+01 -3.722776794433593750e+01 -9.877768754959106445e-01 4.955430030822753906e+00 1.190295934677124023e+00 -8.705694675445556641e-01
2.288000000000000000e+03 4.980513000488281250e+01 2.490099143981933594e+01 9.971482157707214355e-01 4.288471221923828125e+00 1.585685729980468750e+00 -9.752332419157028198e-02
2.289000000000000000e+03 5.212184524536132812e+01 2.761072921752929688e+01 1.615214586257934570e+00 6.227096557617187500e+00 2.352693319320678711e+00 -7.174980640411376953e-01
2.290000000000000000e+03 2.164252471923828125e+01 -1.570787525177001953e+01 -4.624856710433959961e-01 -1.369407773017883301e-01 -1.798279434442520142e-01 -5.179330110549926758e-01
2.291000000000000000e+03 1.086088657379150391e+01 -3.153870964050292969e+01 -7.172146439552307129e-02 -6.189455091953277588e-02 -4.008480533957481384e-02 -1.315402239561080933e-01
2.292000000000000000e+03 4.358876800537109375e+01 1.286445331573486328e+01 1.563814759254455566e+00 7.293363571166992188e+00 2.657153606414794922e+00 -1.245585918426513672e+00
2.293000000000000000e+03 1.289325141906738281e+01 -2.823770046234130859e+00 -7.993634790182113647e-02 -1.476701349020004272e-01 -6.828194856643676758e-02 -1.667624562978744507e-01
2.294000000000000000e+03 2.696199035644531250e+01 -2.644248962402343750e+01 5.586733669042587280e-02 1.037995100021362305e+00 3.281587362289428711e-01 -5.854244530200958252e-02
2.295000000000000000e+03 5.542359924316406250e+01 7.973175525665283203e+00 1.766645193099975586e+00 9.809960365295410156e+00 3.472981691360473633e+00 1.069098711013793945e+00
2.296000000000000000e+03 5.935070419311523438e+01 8.418933868408203125e+00 1.755367368459701538e-01 6.869517326354980469e+00 2.113516092300415039e+00 -4.131633043289184570e-01
2.297000000000000000e+03 1.997013092041015625e+01 -1.498033046722412109e+01 -3.208478093147277832e-01 3.839763998985290527e-02 -8.473505079746246338e-02 -3.498455286026000977e-01
2.298000000000000000e+03 1.972099494934082031e+01 -1.679883384704589844e+01 -1.456696540117263794e-01 -1.322161499410867691e-02 -4.766738042235374451e-02 -5.333705544471740723e-01
2.299000000000000000e+03 5.063959121704101562e+01 -3.212435531616210938e+01 2.248774528503417969e+00 5.868315219879150391e+00 2.435127019882202148e+00 -2.694308757781982422e-01
2.300000000000000000e+03 5.116451644897460938e+01 -3.301887130737304688e+01 1.601750016212463379e+00 6.226673126220703125e+00 2.348526954650878906e+00 1.088150516152381897e-01
2.301000000000000000e+03 4.359384536743164062e+01 -1.494922065734863281e+01 -1.018316149711608887e+00 1.765372157096862793e+00 2.241167873144149780e-01 1.522601962089538574e+00
2.302000000000000000e+03 2.819091987609863281e+01 -1.940838432312011719e+01 4.272994995117187500e-01 1.481745481491088867e+00 5.727134943008422852e-01 3.874842226505279541e-01
2.303000000000000000e+03 6.034585189819335938e+01 1.778952789306640625e+01 2.868183374404907227e+00 8.750315666198730469e+00 3.485549688339233398e+00 2.703874588012695312e+00
2.304000000000000000e+03 2.884620857238769531e+01 -1.247789382934570312e+01 -9.290635585784912109e-01 4.399868845939636230e-01 -1.467230021953582764e-01 -3.059508046135306358e-03
2.305000000000000000e+03 4.818183135986328125e+01 -3.811730575561523438e+01 -1.147967696189880371e+00 2.715616941452026367e+00 4.702948033809661865e-01 7.727330327033996582e-01
2.306000000000000000e+03 4.738921356201171875e+01 -1.279273796081542969e+01 1.513471603393554688e-01 8.784294128417968750e+00 2.680692434310913086e+00 2.813495159149169922e+00
2.307000000000000000e+03 4.687626647949218750e+01 -1.389464759826660156e+01 -1.512639760971069336e+00 7.582934856414794922e+00 1.821088552474975586e+00 3.222842931747436523e+00
2.308000000000000000e+03 7.580563354492187500e+01 -4.277831077575683594e+00 4.496571123600006104e-01 9.398734092712402344e+00 2.954517364501953125e+00 -2.793286442756652832e-01
2.309000000000000000e+03 3.581946945190429688e+01 -3.138678550720214844e+01 1.326655864715576172e+00 1.466434240341186523e+00 8.379270434379577637e-01 7.324757575988769531e-01
2.310000000000000000e+03 3.803675079345703125e+01 -3.172312927246093750e+01 1.661055922508239746e+00 4.123176097869873047e+00 1.735269546508789062e+00 1.093921422958374023e+00
2.311000000000000000e+03 7.149160003662109375e+01 1.976426315307617188e+01 -2.057418823242187500e+00 5.849555492401123047e+00 1.137640953063964844e+00 -1.037585973739624023e+00
2.312000000000000000e+03 6.567167663574218750e+01 -1.171363830566406250e+01 -2.836641371250152588e-01 5.358635425567626953e+00 1.522491335868835449e+00 -8.195618987083435059e-01
2.313000000000000000e+03 3.542580032348632812e+01 -8.242617607116699219e+00 7.100297212600708008e-01 1.120534539222717285e+00 5.491692423820495605e-01 8.031399250030517578e-01
2.314000000000000000e+03 5.433676147460937500e+01 -3.242460250854492188e+01 2.173819780349731445e+00 7.153276920318603516e+00 2.798128843307495117e+00 1.070320367813110352e+00
2.315000000000000000e+03 5.486886596679687500e+01 -3.098632431030273438e+01 1.927187323570251465e+00 7.502290248870849609e+00 2.828843116760253906e+00 1.420405149459838867e+00
2.316000000000000000e+03 2.542700576782226562e+01 1.474730968475341797e+01 1.465352922677993774e-01 3.037625849246978760e-01 1.350893676280975342e-01 -1.605222076177597046e-01
2.317000000000000000e+03 1.732156562805175781e+01 3.533063888549804688e+01 5.671995133161544800e-02 7.424161583185195923e-02 3.928847238421440125e-02 -3.288969025015830994e-02
2.318000000000000000e+03 6.496513366699218750e+01 3.977481460571289062e+01 -6.875535249710083008e-01 3.859027624130249023e+00 9.514421820640563965e-01 -9.928051382303237915e-02
2.319000000000000000e+03 2.687869071960449219e+01 6.523119449615478516e+00 2.347773462533950806e-01 2.811821699142456055e-01 1.547878533601760864e-01 -5.409999936819076538e-02
2.320000000000000000e+03 2.811345291137695312e+01 7.167486667633056641e+00 2.849390208721160889e-01 6.460897922515869141e-01 2.793086469173431396e-01 -1.265785545110702515e-01
2.321000000000000000e+03 1.668724822998046875e+01 5.953846454620361328e+00 -1.276741921901702881e-01 3.078626096248626709e-01 5.405652150511741638e-02 5.375511050224304199e-01
2.322000000000000000e+03 1.896646499633789062e+01 2.009367370605468750e+01 2.616897523403167725e-01 1.597734093666076660e-01 1.264389455318450928e-01 3.822480514645576477e-02
2.323000000000000000e+03 1.886547470092773438e+01 1.878771400451660156e+01 1.288710981607437134e-01 -2.763994783163070679e-02 3.036934509873390198e-02 2.714009210467338562e-02
2.324000000000000000e+03 6.009933090209960938e+01 -2.309640121459960938e+01 2.400230169296264648e+00 3.389268159866333008e+00 1.736849546432495117e+00 -8.494210243225097656e-02
2.325000000000000000e+03 2.594625854492187500e+01 -2.950171470642089844e+01 7.710980623960494995e-02 7.902540564537048340e-01 2.602091729640960693e-01 -1.534024626016616821e-01
2.326000000000000000e+03 2.607573509216308594e+01 -2.768889617919921875e+01 2.259781025350093842e-02 8.412891626358032227e-01 2.591660916805267334e-01 -1.332111507654190063e-01
2.327000000000000000e+03 6.378667068481445312e+01 -3.573832988739013672e+00 1.886206746101379395e+00 8.213696479797363281e+00 3.029970884323120117e+00 1.855476051568984985e-01
2.328000000000000000e+03 6.250940704345703125e+01 -4.294957637786865234e+00 1.700307369232177734e+00 9.689944267272949219e+00 3.417075395584106445e+00 -9.921434521675109863e-01
2.329000000000000000e+03 3.562882232666015625e+01 2.372097969055175781e+01 4.139388203620910645e-01 3.306516647338867188e+00 1.116136670112609863e+00 -1.010112643241882324e+00
2.330000000000000000e+03 4.785530090332031250e+00 3.253185272216796875e+01 1.485282331705093384e-01 -5.875884294509887695e-01 -1.317180544137954712e-01 9.862410277128219604e-02
2.331000000000000000e+03 1.898276901245117188e+01 2.202101135253906250e+01 4.449529945850372314e-01 3.909086883068084717e-01 2.507584989070892334e-01 1.353928446769714355e-01
2.332000000000000000e+03 6.737513542175292969e+00 2.100161552429199219e+01 9.901215881109237671e-02 -3.097341656684875488e-01 -6.321660429239273071e-02 7.284443080425262451e-02
2.333000000000000000e+03 5.287662887573242188e+01 -5.769015550613403320e-01 2.605154037475585938e+00 5.456132888793945312e+00 2.418385982513427734e+00 2.800755500793457031e+00
2.334000000000000000e+03 5.296147155761718750e+01 4.079661369323730469e-01 1.934812545776367188e+00 5.334562301635742188e+00 2.180812358856201172e+00 2.830104589462280273e+00
2.335000000000000000e+03 4.569275665283203125e+01 -1.905231475830078125e+01 1.917790889739990234e+00 7.352241039276123047e+00 2.781009435653686523e+00 1.315692067146301270e+00
2.336000000000000000e+03 5.941860198974609375e+01 -2.417899703979492188e+01 8.213217258453369141e-01 3.124443769454956055e+00 1.183729648590087891e+00 7.044500708580017090e-01
2.337000000000000000e+03 5.799093627929687500e+01 -2.056267929077148438e+01 2.716683149337768555e+00 6.048464775085449219e+00 2.629544496536254883e+00 3.120918273925781250e-01
2.338000000000000000e+03 6.564024353027343750e+01 3.523534774780273438e+00 2.506817281246185303e-01 2.413822650909423828e+00 7.993512749671936035e-01 9.428310394287109375e-01
2.339000000000000000e+03 4.868283843994140625e+01 -1.061082553863525391e+01 3.527258157730102539e+00 8.836798667907714844e+00 3.709217071533203125e+00 2.273761510848999023e+00
2.340000000000000000e+03 4.493879318237304688e+01 -2.417907524108886719e+01 2.114878296852111816e-01 3.430363416671752930e+00 1.092555403709411621e+00 9.421222209930419922e-01
2.341000000000000000e+03 6.023604583740234375e+01 6.807981491088867188e+00 -6.014891266822814941e-01 5.687365055084228516e+00 1.525762796401977539e+00 -1.222502827644348145e+00
2.342000000000000000e+03 2.077663230895996094e+01 3.180244827270507812e+01 5.663841217756271362e-02 3.961503803730010986e-01 1.358366459608078003e-01 -6.418718397617340088e-02
2.343000000000000000e+03 1.915331649780273438e+01 3.717541122436523438e+01 7.962672412395477295e-02 3.181572854518890381e-01 1.193352043628692627e-01 -8.974184095859527588e-02
2.344000000000000000e+03 5.109375762939453125e+01 -2.980404138565063477e+00 2.307805061340332031e+00 9.770536422729492188e+00 3.623502492904663086e+00 -1.736620187759399414e+00
2.345000000000000000e+03 6.737506103515625000e+01 5.550831317901611328e+00 6.079975981265306473e-03 9.552425146102905273e-01 2.883967459201812744e-01 2.025580167770385742e+00
2.346000000000000000e+03 4.259829330444335938e+01 9.111668586730957031e+00 1.378561258316040039e+00 4.912760734558105469e+00 1.887396574020385742e+00 -9.738376140594482422e-01
2.347000000000000000e+03 5.461230850219726562e+01 -2.863176536560058594e+01 -5.792791768908500671e-02 6.449511528015136719e+00 1.917475104331970215e+00 1.781502485275268555e+00
2.348000000000000000e+03 1.175610542297363281e+01 -2.822522926330566406e+01 -4.421942576300352812e-04 -1.414728760719299316e-01 -4.257452487945556641e-02 -1.466219574213027954e-01
2.349000000000000000e+03 3.367517089843750000e+01 -3.055544662475585938e+01 7.622271776199340820e-01 4.846095740795135498e-01 3.740510344505310059e-01 -6.680522859096527100e-02
2.350000000000000000e+03 3.688317871093750000e+01 4.108427047729492188e+01 -1.572322398424148560e-01 1.338624477386474609e+00 3.544176816940307617e-01 5.345823988318443298e-02
2.351000000000000000e+03 3.578785705566406250e+01 3.854354476928710938e+01 -2.916407883167266846e-01 1.372097253799438477e+00 3.241369426250457764e-01 2.157182991504669189e-01
2.352000000000000000e+03 4.284316062927246094e+00 -2.190505409240722656e+01 1.821355372667312622e-01 -2.387707531452178955e-01 -1.699056290090084076e-02 -1.043706461787223816e-01
2.353000000000000000e+03 6.192239284515380859e+00 3.447495269775390625e+01 2.315272241830825806e-01 -2.989584803581237793e-01 -2.022937871515750885e-02 4.028180241584777832e-02
2.354000000000000000e+03 6.546511840820312500e+01 5.163593769073486328e+00 -2.600429356098175049e-01 1.004680395126342773e+00 2.233912348747253418e-01 3.907698094844818115e-01
2.355000000000000000e+03 6.759795379638671875e+01 1.520905852317810059e+00 5.201967954635620117e-01 2.631268024444580078e+00 9.454393982887268066e-01 2.239102363586425781e+00
2.356000000000000000e+03 1.067345905303955078e+01 -2.597032928466796875e+01 2.727428264915943146e-02 -9.193044900894165039e-02 -1.939684897661209106e-02 -2.079301625490188599e-01
2.357000000000000000e+03 2.945024681091308594e+01 -1.169027900695800781e+01 -7.530208826065063477e-01 1.697684079408645630e-01 -1.749757379293441772e-01 1.486371643841266632e-02
2.358000000000000000e+03 6.080965805053710938e+01 1.893634033203125000e+01 1.365592360496520996e+00 7.895854473114013672e+00 2.778434038162231445e+00 2.248698711395263672e+00
2.359000000000000000e+03 5.862464141845703125e+01 2.218322181701660156e+01 -2.086774826049804688e+00 6.387689709663391113e-01 -4.344017505645751953e-01 1.798436045646667480e-01
2.360000000000000000e+03 2.371094131469726562e+01 3.019552421569824219e+01 4.358819127082824707e-01 6.796236634254455566e-01 3.346516788005828857e-01 5.068123340606689453e-02
2.361000000000000000e+03 4.466511154174804688e+01 1.692315673828125000e+01 6.686157733201980591e-02 4.624938011169433594e+00 1.407539963722229004e+00 5.251553058624267578e-01
2.362000000000000000e+03 4.352755737304687500e+01 1.730793762207031250e+01 -3.614052832126617432e-01 4.220106601715087891e+00 1.157610297203063965e+00 -5.217602849006652832e-02
2.363000000000000000e+03 3.686037826538085938e+01 -1.411778831481933594e+01 -1.483909368515014648e+00 7.020363211631774902e-01 -2.345619201660156250e-01 -1.365230083465576172e-01
2.364000000000000000e+03 3.791844558715820312e+01 -1.478748989105224609e+01 -1.373262882232666016e+00 6.215600967407226562e-01 -2.255108505487442017e-01 -2.627895176410675049e-01
2.365000000000000000e+03 4.260381317138671875e+01 -1.552445983886718750e+01 -5.767944455146789551e-01 8.714795112609863281e-01 8.840552717447280884e-02 4.399144649505615234e-01
2.366000000000000000e+03 7.529772186279296875e+01 -2.424066925048828125e+01 8.831016421318054199e-01 8.818389892578125000e+00 2.910447359085083008e+00 -1.126518249511718750e-01
2.367000000000000000e+03 2.121705818176269531e+01 1.872892189025878906e+01 1.939918845891952515e-01 3.601419925689697266e-01 1.662401705980300903e-01 -1.656671613454818726e-01
2.368000000000000000e+03 4.328275680541992188e+01 1.160373687744140625e+01 2.135222196578979492e+00 6.142682552337646484e+00 2.483371496200561523e+00 -1.498510479927062988e+00
2.369000000000000000e+03 5.062552642822265625e+01 3.290765380859375000e+01 5.113561749458312988e-01 5.081617355346679688e+00 1.677892088890075684e+00 -3.074727058410644531e-01
2.370000000000000000e+03 5.990110778808593750e+01 -1.799524116516113281e+01 1.212586045265197754e+00 5.950049877166748047e+00 2.148790836334228516e+00 -3.581065237522125244e-01
2.371000000000000000e+03 5.836203384399414062e+01 -1.854743957519531250e+01 1.668175101280212402e+00 6.280236721038818359e+00 2.384523630142211914e+00 -1.982128173112869263e-01
2.372000000000000000e+03 6.367565536499023438e+01 2.368348121643066406e+01 -5.687211751937866211e-01 6.709044933319091797e+00 1.842097163200378418e+00 2.953280925750732422e+00
2.373000000000000000e+03 6.363679122924804688e+01 2.122192764282226562e+01 -2.864107131958007812e+00 5.528351306915283203e+00 7.992732524871826172e-01 4.271052360534667969e+00
2.374000000000000000e+03 2.590820121765136719e+01 -2.565972328186035156e+01 1.565711945295333862e-01 8.148511648178100586e-01 2.914266884326934814e-01 -1.635392569005489349e-02
2.375000000000000000e+03 2.786071968078613281e+01 1.057666873931884766e+01 2.911058962345123291e-01 4.403083622455596924e-01 2.194242775440216064e-01 6.817914545536041260e-02
2.376000000000000000e+03 2.751203155517578125e+01 9.638917922973632812e+00 2.719084918498992920e-01 4.832329452037811279e-01 2.265424281358718872e-01 -1.419410202652215958e-02
2.377000000000000000e+03 6.398850250244140625e+01 -2.390486907958984375e+01 1.745903968811035156e+00 7.329017639160156250e+00 2.722476482391357422e+00 -2.318493604660034180e+00
2.378000000000000000e+03 6.393213272094726562e+01 -2.646089172363281250e+01 -2.131918907165527344e+00 7.331352233886718750e+00 1.559829950332641602e+00 -2.817001819610595703e+00
2.379000000000000000e+03 5.539832687377929688e+01 2.122240066528320312e+01 -1.851094961166381836e+00 4.329659938812255859e+00 7.435694932937622070e-01 -2.771594762802124023e+00
2.380000000000000000e+03 5.976416015625000000e+01 9.620838165283203125e+00 5.920420289039611816e-01 6.817521572113037109e+00 2.222869157791137695e+00 1.936902664601802826e-02
2.381000000000000000e+03 3.482588577270507812e+01 2.492086601257324219e+01 8.156493902206420898e-01 3.921344757080078125e+00 1.421098232269287109e+00 -7.763299942016601562e-01
2.382000000000000000e+03 1.609875297546386719e+01 -1.388350009918212891e+01 -3.227511793375015259e-02 4.270958304405212402e-01 1.184462159872055054e-01 -1.121378391981124878e-01
2.383000000000000000e+03 1.713173866271972656e+01 -1.460804653167724609e+01 -4.559876769781112671e-02 1.987792998552322388e-01 4.595416039228439331e-02 -1.522146165370941162e-01
2.384000000000000000e+03 5.223238372802734375e+01 2.213347816467285156e+01 -1.264269948005676270e+00 4.629757404327392578e+00 1.009646177291870117e+00 -1.903815627098083496e+00
2.385000000000000000e+03 3.719245529174804688e+01 3.568154907226562500e+01 -5.370199680328369141e-01 1.214292645454406738e+00 2.031818032264709473e-01 5.103617310523986816e-01
2.386000000000000000e+03 1.278265762329101562e+01 -2.583148384094238281e+01 1.096905842423439026e-01 -2.344858199357986450e-01 -3.743857145309448242e-02 -1.869691461324691772e-01
2.387000000000000000e+03 1.554996871948242188e+01 -2.647324371337890625e+01 1.977193802595138550e-01 -1.863017380237579346e-01 3.425294067710638046e-03 -8.074121922254562378e-02
2.388000000000000000e+03 5.825874328613281250e+01 -2.353131103515625000e+01 1.182246327400207520e+00 5.502968311309814453e+00 2.005564451217651367e+00 1.107618689537048340e+00
2.389000000000000000e+03 1.647109222412109375e+01 3.826176452636718750e+01 1.214503422379493713e-01 1.262426823377609253e-01 7.430790364742279053e-02 6.515315733850002289e-03
2.390000000000000000e+03 7.136460876464843750e+01 -1.534995841979980469e+01 -1.120046675205230713e-01 1.677602171897888184e+00 4.696792364120483398e-01 -1.468683600425720215e+00
2.391000000000000000e+03 9.549989700317382812e+00 1.852056503295898438e+01 4.463350772857666016e-01 7.061898708343505859e-02 1.550862193107604980e-01 2.022924125194549561e-01
2.392000000000000000e+03 6.856049537658691406e+00 1.771876716613769531e+01 3.479151427745819092e-01 -2.924225032329559326e-01 1.664778962731361389e-02 1.957323253154754639e-01
2.393000000000000000e+03 3.412383270263671875e+01 1.963375282287597656e+01 -2.016485296189785004e-02 2.284041881561279297e+00 6.791630983352661133e-01 -8.384758830070495605e-01
2.394000000000000000e+03 3.817724609375000000e+01 2.016821098327636719e+01 -5.831419229507446289e-01 1.639344930648803711e+00 3.168608844280242920e-01 -1.600566744804382324e+00
2.395000000000000000e+03 4.592015075683593750e+01 -2.302638816833496094e+01 8.126007318496704102e-01 5.414173603057861328e+00 1.868032217025756836e+00 6.848492622375488281e-01
2.396000000000000000e+03 4.017183685302734375e+01 -2.627082824707031250e+01 7.222658991813659668e-01 4.430277347564697266e+00 1.545762896537780762e+00 1.648920297622680664e+00
2.397000000000000000e+03 4.296799087524414062e+01 1.457970333099365234e+01 1.251328468322753906e+00 5.298971176147460938e+00 1.965089917182922363e+00 -8.624854683876037598e-01
2.398000000000000000e+03 4.030971908569335938e+01 1.168803405761718750e+01 1.651402115821838379e+00 2.340854644775390625e+00 1.197677016258239746e+00 -1.108935117721557617e+00
2.399000000000000000e+03 4.636458969116210938e+01 2.322434997558593750e+01 6.524965167045593262e-02 4.203878879547119141e+00 1.280738472938537598e+00 8.503984808921813965e-01
2.400000000000000000e+03 6.721067810058593750e+01 2.170214843750000000e+01 -1.528480648994445801e+00 8.292871117591857910e-01 -2.097580730915069580e-01 -2.701746225357055664e-01
2.401000000000000000e+03 2.001216888427734375e+01 1.991711616516113281e+01 2.612826824188232422e-01 2.597152590751647949e-01 1.562993824481964111e-01 -1.030764579772949219e-01
2.402000000000000000e+03 7.470298004150390625e+01 -1.950580215454101562e+01 7.848566174507141113e-01 8.911555290222167969e+00 2.908923625946044922e+00 4.938694238662719727e-01
2.403000000000000000e+03 7.591816711425781250e+01 -1.707170295715332031e+01 -2.977067530155181885e-01 8.011800765991210938e+00 2.314228057861328125e+00 1.131645679473876953e+00
2.404000000000000000e+03 6.550101470947265625e+01 3.343630218505859375e+01 -1.143837496638298035e-01 5.278807163238525391e+00 1.549327015876770020e+00 6.817529797554016113e-01
2.405000000000000000e+03 6.430591583251953125e+01 3.279510116577148438e+01 1.562473922967910767e-01 5.301975727081298828e+00 1.637467026710510254e+00 4.385504126548767090e-01
2.406000000000000000e+03 4.232890319824218750e+01 6.557708740234375000e+00 -2.803765833377838135e-01 3.650372505187988281e+00 1.010998725891113281e+00 -1.125200986862182617e+00
2.407000000000000000e+03 1.038836860656738281e+01 1.754462432861328125e+01 5.986568927764892578e-01 3.517362773418426514e-01 2.851179540157318115e-01 3.351825475692749023e-01
2.408000000000000000e+03 4.456890869140625000e+01 2.080764389038085938e+01 -2.200789213180541992e+00 3.586840152740478516e+00 4.158152639865875244e-01 1.413681030273437500e+00
2.409000000000000000e+03 5.818806457519531250e+01 1.972807502746582031e+01 5.778945684432983398e-01 4.494516372680664062e+00 1.521723270416259766e+00 -2.842346727848052979e-01
2.410000000000000000e+03 7.450390625000000000e+01 -2.887460899353027344e+01 -4.315424859523773193e-01 6.464968204498291016e+00 1.810027718544006348e+00 9.409160614013671875e-01
2.411000000000000000e+03 6.145986175537109375e+01 -1.461664676666259766e+00 1.088877558708190918e+00 7.823818683624267578e+00 2.673808813095092773e+00 -1.273780465126037598e+00
2.412000000000000000e+03 4.809455490112304688e+01 -1.165356349945068359e+01 2.843425750732421875e+00 9.190385818481445312e+00 3.610143423080444336e+00 1.869113445281982422e+00
2.413000000000000000e+03 5.092061614990234375e+01 -8.552947998046875000e+00 1.567472577095031738e+00 8.826639175415039062e+00 3.118233442306518555e+00 6.639675498008728027e-01
2.414000000000000000e+03 3.431815338134765625e+01 3.122612762451171875e+01 1.045412942767143250e-01 2.854872465133666992e+00 8.878241181373596191e-01 -2.370633482933044434e-01
2.415000000000000000e+03 3.007710838317871094e+01 3.306742858886718750e+01 2.461692690849304199e-01 1.677730798721313477e+00 5.771700143814086914e-01 -5.575610399246215820e-01
2.416000000000000000e+03 5.413806438446044922e+00 3.597147750854492188e+01 9.379522502422332764e-02 -4.780183136463165283e-01 -1.152669265866279602e-01 -2.404475957155227661e-02
2.417000000000000000e+03 6.234534835815429688e+01 2.253503227233886719e+01 -2.794785976409912109e+00 6.412736415863037109e+00 1.085385084152221680e+00 3.782221317291259766e+00
2.418000000000000000e+03 6.267959213256835938e+01 -8.827435493469238281e+00 1.022601366043090820e+00 8.543419837951660156e+00 2.869806289672851562e+00 4.451087117195129395e-01
2.419000000000000000e+03 1.204346656799316406e+01 4.117522048950195312e+01 8.321201428771018982e-03 5.136498808860778809e-02 1.790585555136203766e-02 3.097430616617202759e-02
2.420000000000000000e+03 5.838844680786132812e+01 1.390278911590576172e+01 1.841555833816528320e+00 8.839018821716308594e+00 3.204172372817993164e+00 1.668541431427001953e+00
2.421000000000000000e+03 7.370600891113281250e+01 1.083373641967773438e+01 1.535215377807617188e+00 9.916620254516601562e+00 3.435550451278686523e+00 2.038376778364181519e-01
2.422000000000000000e+03 6.290626907348632812e+01 -2.308297157287597656e+01 3.152165651321411133e+00 5.724412918090820312e+00 2.662973642349243164e+00 -2.103243827819824219e+00
2.423000000000000000e+03 7.405132293701171875e+01 -1.238078594207763672e+01 -1.439397454261779785e+00 4.453727722167968750e+00 9.042990803718566895e-01 1.340781450271606445e+00
2.424000000000000000e+03 7.515194702148437500e+01 -1.497131824493408203e+01 -8.482256531715393066e-01 6.741526126861572266e+00 1.767990231513977051e+00 7.375746965408325195e-01
2.425000000000000000e+03 5.067064285278320312e+00 2.643502235412597656e+01 -1.527120769023895264e-01 -6.955943107604980469e-01 -2.544919252395629883e-01 9.772451221942901611e-02
2.426000000000000000e+03 3.654542922973632812e+01 -3.435499954223632812e+01 9.931537508964538574e-01 2.943100690841674805e+00 1.180876374244689941e+00 1.153196692466735840e+00
2.427000000000000000e+03 4.032521057128906250e+01 -1.789103889465332031e+01 2.325347065925598145e-01 6.159393191337585449e-01 2.545422017574310303e-01 -1.841653138399124146e-01
2.428000000000000000e+03 4.395859146118164062e+01 -1.983454513549804688e+01 1.860016703605651855e+00 3.800652503967285156e+00 1.698200702667236328e+00 1.458044052124023438e+00
2.429000000000000000e+03 1.475564670562744141e+01 1.945324134826660156e+01 4.223247170448303223e-01 1.952555030584335327e-01 1.852740645408630371e-01 5.221504569053649902e-01
2.430000000000000000e+03 5.196377182006835938e+01 3.369985961914062500e+01 2.439437992870807648e-02 4.975949287414550781e+00 1.500103116035461426e+00 -9.652163088321685791e-02
2.431000000000000000e+03 4.918333053588867188e+01 3.221985244750976562e+01 5.515592098236083984e-01 4.725069046020507812e+00 1.582988500595092773e+00 -4.983306527137756348e-01
2.432000000000000000e+03 7.504116058349609375e+01 6.078892707824707031e+00 -4.878251999616622925e-02 7.030988693237304688e+00 2.094661951065063477e+00 -7.692527174949645996e-01
2.433000000000000000e+03 7.306700134277343750e+01 -2.756628608703613281e+01 -1.076845645904541016e+00 5.500377655029296875e+00 1.327059507369995117e+00 1.593128323554992676e+00
2.434000000000000000e+03 6.947421264648437500e+01 -2.834992599487304688e+01 1.056327104568481445e+00 1.886979103088378906e+00 8.829918503761291504e-01 -6.604091525077819824e-01
2.435000000000000000e+03 7.385832214355468750e+01 1.691207122802734375e+01 -5.879272222518920898e-01 8.305309295654296875e+00 2.315214633941650391e+00 8.745139241218566895e-01
2.436000000000000000e+03 2.713980484008789062e+01 -2.313409614562988281e+01 3.693126738071441650e-01 1.177606225013732910e+00 4.640756845474243164e-01 7.314692437648773193e-02
2.437000000000000000e+03 5.517459487915039062e+01 1.674479126930236816e+00 3.859001696109771729e-01 3.831946134567260742e+00 1.265353918075561523e+00 2.901779890060424805e+00
2.438000000000000000e+03 5.628632354736328125e+01 1.989494919776916504e+00 8.090564608573913574e-01 3.297568798065185547e+00 1.231987595558166504e+00 1.575258970260620117e+00
2.439000000000000000e+03 4.738875389099121094e+00 -2.713534927368164062e+01 -2.125928737223148346e-02 -1.955467313528060913e-01 -6.504180282354354858e-02 -1.078828983008861542e-02
2.440000000000000000e+03 7.416075706481933594e+00 -2.432826614379882812e+01 8.996192365884780884e-02 7.277600467205047607e-02 4.882137849926948547e-02 -1.042583361268043518e-01
2.441000000000000000e+03 1.416201591491699219e+01 -1.214998340606689453e+01 6.799184251576662064e-03 3.239488303661346436e-01 9.922440350055694580e-02 -1.138582900166511536e-01
2.442000000000000000e+03 4.343420791625976562e+01 1.939157295227050781e+01 -1.250643014907836914e+00 3.068566322326660156e+00 5.453770160675048828e-01 7.300671935081481934e-01
2.443000000000000000e+03 8.311360359191894531e+00 1.581290054321289062e+01 4.474637508392333984e-01 -4.877846688032150269e-02 1.196055859327316284e-01 3.881693184375762939e-01
2.444000000000000000e+03 3.289072036743164062e+01 -9.899754524230957031e+00 -4.924336448311805725e-03 2.653563320636749268e-01 7.812959700822830200e-02 7.386808395385742188e-01
2.445000000000000000e+03 2.669293594360351562e+01 -3.222845458984375000e+01 1.529614329338073730e-01 8.364820480346679688e-01 2.968330383300781250e-01 -1.409957855939865112e-01
2.446000000000000000e+03 6.436997985839843750e+01 2.551561164855957031e+01 2.247406959533691406e+00 5.805252075195312500e+00 2.415797710418701172e+00 1.246649742126464844e+00
2.447000000000000000e+03 3.339433288574218750e+01 -1.343437099456787109e+01 -7.732357978820800781e-01 2.954522669315338135e-01 -1.433350592851638794e-01 9.045431017875671387e-01
2.448000000000000000e+03 3.209999561309814453e+00 1.090381240844726562e+01 -6.284768134355545044e-02 -1.965620666742324829e-01 -7.782292366027832031e-02 2.850317358970642090e-01
2.449000000000000000e+03 8.424371719360351562e+00 1.123018932342529297e+01 -2.968719899654388428e-01 -2.756945490837097168e-01 -1.717699617147445679e-01 4.695877134799957275e-01
2.450000000000000000e+03 2.422312355041503906e+01 8.202890396118164062e+00 3.413015007972717285e-01 -1.179900113493204117e-02 9.885074943304061890e-02 5.172583460807800293e-02
2.451000000000000000e+03 6.979698944091796875e+01 -2.965591049194335938e+01 2.007335662841796875e+00 3.071002483367919922e+00 1.523501396179199219e+00 -1.568550765514373779e-01
2.452000000000000000e+03 2.171883392333984375e+01 1.455675697326660156e+01 -1.637378782033920288e-01 1.897789537906646729e-01 7.812324445694684982e-03 1.423314362764358521e-01
2.453000000000000000e+03 2.373293304443359375e+01 1.429421997070312500e+01 -2.353120036423206329e-02 3.804901540279388428e-01 1.070876866579055786e-01 -1.630755700170993805e-02
2.454000000000000000e+03 4.975962066650390625e+01 -6.924548149108886719e+00 1.842013001441955566e-01 9.958964347839355469e+00 3.042949676513671875e+00 7.346992492675781250e-01
2.455000000000000000e+03 2.099542427062988281e+01 3.547332763671875000e+01 6.478572636842727661e-02 4.928770065307617188e-01 1.672988235950469971e-01 -1.725141555070877075e-01
2.456000000000000000e+03 7.286165714263916016e+00 -1.298611545562744141e+01 -1.523178219795227051e-01 -2.622917890548706055e-01 -1.243828833103179932e-01 -1.446092277765274048e-01
2.457000000000000000e+03 4.739760971069335938e+01 2.599998855590820312e+01 1.501943111419677734e+00 4.786406040191650391e+00 1.886504769325256348e+00 7.231649756431579590e-01
2.458000000000000000e+03 4.292719650268554688e+01 1.039013576507568359e+01 1.705826044082641602e+00 5.338676929473876953e+00 2.113350868225097656e+00 -1.063207149505615234e+00
2.459000000000000000e+03 6.557872772216796875e+01 -2.051084995269775391e+00 1.393898963928222656e+00 6.043204784393310547e+00 2.231131076812744141e+00 1.610281109809875488e+00
2.460000000000000000e+03 3.725270843505859375e+01 -4.119497299194335938e+00 1.443287014961242676e+00 1.535378456115722656e+00 8.935996294021606445e-01 6.261310577392578125e-01
2.461000000000000000e+03 1.068272495269775391e+01 -1.081779003143310547e+01 3.013384900987148285e-02 -2.809867821633815765e-02 6.105515640228986740e-04 -1.380526125431060791e-01
2.462000000000000000e+03 6.406726074218750000e+01 -1.373433780670166016e+01 -1.499677181243896484e+00 6.020283222198486328e+00 1.356181740760803223e+00 6.174889802932739258e-01
2.463000000000000000e+03 6.072124862670898438e+01 -1.078346347808837891e+01 -1.212963461875915527e+00 6.617392539978027344e+00 1.621328711509704590e+00 1.648346662521362305e+00
2.464000000000000000e+03 3.340119934082031250e+01 3.401274108886718750e+01 -2.627447843551635742e-01 2.110358238220214844e+00 5.542840957641601562e-01 -1.379555761814117432e-01
2.465000000000000000e+03 5.372114562988281250e+01 5.048527717590332031e+00 -2.614895820617675781e+00 6.919776916503906250e+00 1.291464328765869141e+00 3.242844820022583008e+00
2.466000000000000000e+03 5.168984222412109375e+01 3.869871616363525391e+00 -6.799214482307434082e-01 2.944272994995117188e+00 6.793054342269897461e-01 3.407696962356567383e+00
2.467000000000000000e+03 6.304179763793945312e+01 -4.156190490722656250e+01 -1.064857602119445801e+00 6.231904625892639160e-01 -1.325001269578933716e-01 2.300881743431091309e-01
2.468000000000000000e+03 7.009609222412109375e+01 2.211625480651855469e+01 -1.300019741058349609e+00 3.865892648696899414e+00 7.697619199752807617e-01 -1.267060637474060059e+00
2.469000000000000000e+03 5.135462570190429688e+01 -3.522214126586914062e+01 1.143584609031677246e+00 5.435508728027343750e+00 1.973728060722351074e+00 5.512334704399108887e-01
2.470000000000000000e+03 1.526551055908203125e+01 5.734337806701660156e+00 -4.157718122005462646e-01 6.605327874422073364e-02 -1.049155592918395996e-01 6.592554450035095215e-01
2.471000000000000000e+03 5.128754425048828125e+01 -6.141369342803955078e+00 1.634561300277709961e+00 1.046580886840820312e+01 3.630110979080200195e+00 -5.454069972038269043e-01
2.472000000000000000e+03 5.110563278198242188e+01 -4.346300125122070312e+00 1.433898329734802246e+00 1.155030155181884766e+01 3.895260095596313477e+00 -2.331611633300781250e+00
2.473000000000000000e+03 5.190925598144531250e+01 -2.698435211181640625e+01 -2.144895195960998535e-01 1.847684621810913086e+00 4.899585247039794922e-01 7.245771288871765137e-01
2.474000000000000000e+03 5.422845840454101562e+01 -2.681645393371582031e+01 -1.488167524337768555e+00 6.194686889648437500e+00 1.411955714225769043e+00 2.674769639968872070e+00
2.475000000000000000e+03 1.684053230285644531e+01 -2.068578529357910156e+01 -2.527052462100982666e-01 -9.230990707874298096e-02 -1.035045459866523743e-01 -2.918559312820434570e-01
2.476000000000000000e+03 1.882489967346191406e+01 -1.977281761169433594e+01 -6.497293710708618164e-02 -1.889098808169364929e-02 -2.515917643904685974e-02 -4.373353421688079834e-01
2.477000000000000000e+03 7.316448974609375000e+01 -1.522053432464599609e+01 -4.394268393516540527e-01 4.147917747497558594e+00 1.112547278404235840e+00 -8.193305134773254395e-02
2.478000000000000000e+03 7.133477020263671875e+01 2.263194656372070312e+01 -7.875918745994567871e-01 5.014875888824462891e+00 1.268185138702392578e+00 -1.272455453872680664e+00
2.479000000000000000e+03 4.957102584838867188e+01 -1.384956169128417969e+01 -7.011190056800842285e-01 4.949507236480712891e+00 1.274516463279724121e+00 9.560244679450988770e-01
2.480000000000000000e+03 5.958219146728515625e+01 1.507777595520019531e+01 1.985232472419738770e+00 9.838028907775878906e+00 3.546978473663330078e+00 2.130827665328979492e+00
2.481000000000000000e+03 7.466737365722656250e+01 -2.061331939697265625e+01 1.225246191024780273e+00 1.025532817840576172e+01 3.444172382354736328e+00 3.042525984346866608e-02
2.482000000000000000e+03 6.222215270996093750e+01 -2.425542831420898438e+01 1.147709369659423828e+00 3.800588130950927734e+00 1.484489321708679199e+00 -1.663220405578613281e+00
2.483000000000000000e+03 5.659663009643554688e+01 -1.287697505950927734e+01 2.031722851097583771e-02 4.072562217712402344e+00 1.227863788604736328e+00 -1.937438845634460449e+00
2.484000000000000000e+03 3.683113479614257812e+01 1.461219692230224609e+01 9.921454191207885742e-01 1.070829153060913086e+00 6.188923716545104980e-01 -1.225570440292358398e+00
2.485000000000000000e+03 5.178474044799804688e+01 -2.182857513427734375e+00 2.394973754882812500e+00 8.772661209106445312e+00 3.350290536880493164e+00 -1.381304264068603516e-01
2.486000000000000000e+03 5.248487091064453125e+01 -1.409389615058898926e+00 2.785529136657714844e+00 7.239384651184082031e+00 3.007474184036254883e+00 1.825769662857055664e+00
2.487000000000000000e+03 5.179233932495117188e+01 4.116062927246093750e+01 -1.252771377563476562e+00 3.551865100860595703e+00 6.897280812263488770e-01 4.763395711779594421e-02
2.488000000000000000e+03 5.310268783569335938e+01 3.767643356323242188e+01 -1.356397390365600586e+00 4.170687198638916016e+00 8.442869782447814941e-01 4.253263771533966064e-01
2.489000000000000000e+03 2.133498954772949219e+01 -2.478824996948242188e+01 3.667660653591156006e-01 1.628736108541488647e-01 1.588919013738632202e-01 -1.580910943448543549e-02
2.490000000000000000e+03 1.830541229248046875e+01 -2.229983139038085938e+01 -5.716952495276927948e-03 -1.216094382107257843e-02 -5.363368894904851913e-03 -1.785520464181900024e-01
2.491000000000000000e+03 6.509840393066406250e+01 3.492752838134765625e+01 -7.999370098114013672e-01 4.917498588562011719e+00 1.235268473625183105e+00 4.475497007369995117e-01
2.492000000000000000e+03 5.568503952026367188e+01 -1.218811798095703125e+01 2.668659389019012451e-01 3.480093955993652344e+00 1.124087929725646973e+00 -2.411926507949829102e+00
2.493000000000000000e+03 5.151299667358398438e+01 -2.904547500610351562e+01 1.105260014533996582e+00 3.780109882354736328e+00 1.465610980987548828e+00 2.805227413773536682e-02
2.494000000000000000e+03 3.756466293334960938e+01 -3.509389114379882812e+01 4.543115794658660889e-01 2.963270425796508789e+00 1.025274634361267090e+00 1.116870760917663574e+00
2.495000000000000000e+03 3.811288833618164062e+01 -3.711636352539062500e+01 -5.670266747474670410e-01 2.847240924835205078e+00 6.840643286705017090e-01 4.980078041553497314e-01
2.496000000000000000e+03 6.703920745849609375e+01 -2.888201522827148438e+01 1.315173983573913574e+00 7.050508975982666016e+00 2.509704828262329102e+00 -2.217542886734008789e+00
2.497000000000000000e+03 6.745624542236328125e+01 -2.686119079589843750e+01 -1.295113444328308105e+00 4.966626644134521484e+00 1.101454019546508789e+00 -2.645046472549438477e+00
2.498000000000000000e+03 3.478742980957031250e+01 3.013437080383300781e+01 4.093150794506072998e-01 3.653512001037597656e+00 1.218848109245300293e+00 1.110732257366180420e-01
2.499000000000000000e+03 4.955527114868164062e+01 4.443009853363037109e+00 -1.653185486793518066e+00 2.484783172607421875e+00 2.494793534278869629e-01 -7.610653638839721680e-01
2.500000000000000000e+03 6.367578125000000000e+01 -8.318281173706054688e+00 1.679537296295166016e+00 8.612497329711914062e+00 3.087610244750976562e+00 -9.820788167417049408e-03
2.501000000000000000e+03 6.300261306762695312e+01 -9.977722167968750000e+00 1.654536426067352295e-01 7.977818965911865234e+00 2.442981719970703125e+00 5.989913344383239746e-01
2.502000000000000000e+03 8.311077117919921875e+00 2.020732879638671875e+01 1.888337582349777222e-01 -1.563363969326019287e-01 9.749210439622402191e-03 9.205818921327590942e-02
2.503000000000000000e+03 7.844297409057617188e+00 9.156209945678710938e+00 -4.642984867095947266e-01 -2.715338766574859619e-01 -2.207497060298919678e-01 3.436596989631652832e-01
2.504000000000000000e+03 4.592448425292968750e+01 -1.664623451232910156e+01 -1.144301772117614746e+00 7.314347267150878906e+00 1.851013541221618652e+00 1.690627694129943848e+00
2.505000000000000000e+03 5.814879608154296875e+01 8.870377540588378906e+00 8.663110733032226562e-01 7.771829605102539062e+00 2.591442346572875977e+00 3.215574324131011963e-01
2.506000000000000000e+03 2.851334571838378906e+01 1.404059314727783203e+01 3.304899632930755615e-01 1.706586480140686035e-01 1.503445804119110107e-01 1.050350666046142578e-01
2.507000000000000000e+03 5.792630195617675781e+00 2.469702720642089844e+01 -8.292002975940704346e-02 -5.705476403236389160e-01 -1.960403025150299072e-01 1.174176037311553955e-01
2.508000000000000000e+03 5.878442764282226562e+01 -2.521431350708007812e+01 -5.883903503417968750e-01 4.248953819274902344e+00 1.098168969154357910e+00 1.897489309310913086e+00
2.509000000000000000e+03 5.665974807739257812e+01 -2.446355438232421875e+01 -8.348444700241088867e-01 8.241972923278808594e+00 2.222138643264770508e+00 1.247199058532714844e+00
2.510000000000000000e+03 2.344161796569824219e+01 -2.331584358215332031e+01 3.969720304012298584e-01 3.711932897567749023e-01 2.304496020078659058e-01 -3.398667322471737862e-03
2.511000000000000000e+03 2.375074768066406250e+01 -1.501497936248779297e+01 -7.377319335937500000e-01 -3.083363771438598633e-01 -3.138205111026763916e-01 -3.859438598155975342e-01
2.512000000000000000e+03 6.496134185791015625e+01 -1.576365566253662109e+01 -2.083964824676513672e+00 5.012832641601562500e+00 8.786603808403015137e-01 5.610671043395996094e-01
2.513000000000000000e+03 6.240860748291015625e+01 -1.866271209716796875e+01 7.893382310867309570e-01 6.819003582000732422e+00 2.282502412796020508e+00 -1.078520417213439941e+00
2.514000000000000000e+03 5.110079193115234375e+01 -2.812062644958496094e+01 2.722171694040298462e-02 3.070399045944213867e+00 9.292862415313720703e-01 -4.050223156809806824e-03
2.515000000000000000e+03 3.425642013549804688e+01 1.384512996673583984e+01 6.896989345550537109e-01 5.967738032341003418e-01 3.859418034553527832e-01 -5.381363034248352051e-01
2.516000000000000000e+03 3.075274658203125000e+01 -1.234597778320312500e+01 -7.819528579711914062e-01 5.493346452713012695e-01 -6.978547573089599609e-02 4.818493127822875977e-01
2.517000000000000000e+03 3.049234008789062500e+01 -2.997094917297363281e+01 1.630790829658508301e-01 7.067827582359313965e-01 2.609585523605346680e-01 -2.739291489124298096e-01
2.518000000000000000e+03 3.625275421142578125e+01 -3.241190719604492188e+01 1.501188874244689941e+00 2.219811439514160156e+00 1.116300106048583984e+00 9.351318478584289551e-01
2.519000000000000000e+03 2.571821975708007812e+01 3.074029350280761719e+01 5.558151602745056152e-01 8.371201157569885254e-01 4.178805947303771973e-01 2.395273000001907349e-02
2.520000000000000000e+03 7.624043941497802734e+00 -2.595838737487792969e+01 -1.762872375547885895e-02 -1.465385966002941132e-02 -9.684775024652481079e-03 -1.180527806282043457e-01
2.521000000000000000e+03 9.835794448852539062e+00 -2.517297554016113281e+01 4.171115905046463013e-02 -3.373972326517105103e-02 2.391430782154202461e-03 -2.194164395332336426e-01
2.522000000000000000e+03 5.557434463500976562e+01 -2.561489105224609375e+01 -3.310019493103027344e+00 7.520497322082519531e+00 1.263143301010131836e+00 1.839336872100830078e+00
2.523000000000000000e+03 5.522306442260742188e+01 -1.616453552246093750e+01 -1.506505727767944336e+00 6.508648872375488281e+00 1.500642895698547363e+00 -1.414191961288452148e+00
2.524000000000000000e+03 5.683891296386718750e+01 -2.322279739379882812e+01 1.027186512947082520e+00 7.231000423431396484e+00 2.477456092834472656e+00 1.884362548589706421e-01
2.525000000000000000e+03 5.148832321166992188e+00 -4.035004043579101562e+01 3.022358939051628113e-02 -4.137422442436218262e-01 -1.150555983185768127e-01 -4.825897142291069031e-02
2.526000000000000000e+03 6.656653881072998047e+00 -3.826040649414062500e+01 6.338481605052947998e-02 -2.628326117992401123e-01 -5.983433872461318970e-02 -8.245155215263366699e-02
2.527000000000000000e+03 3.720245361328125000e+01 1.842268180847167969e+01 9.317467361688613892e-02 1.687898278236389160e+00 5.343219041824340820e-01 -1.625054359436035156e+00
2.528000000000000000e+03 8.480993270874023438e+00 -1.218142986297607422e+01 -1.057551577687263489e-01 -1.556756198406219482e-01 -7.842923700809478760e-02 -1.331008076667785645e-01
2.529000000000000000e+03 4.392189502716064453e+00 -1.335522556304931641e+01 -4.377494007349014282e-02 -2.096176892518997192e-01 -7.601778954267501831e-02 -6.619163602590560913e-02
2.530000000000000000e+03 5.822572708129882812e+01 3.828051376342773438e+01 -2.660517394542694092e-01 1.107209563255310059e+00 2.523473501205444336e-01 7.315004467964172363e-01
2.531000000000000000e+03 3.232883071899414062e+01 -4.146008300781250000e+01 -3.273200094699859619e-01 1.793310165405273438e+00 4.397970438003540039e-01 1.137563437223434448e-01
2.532000000000000000e+03 5.512900924682617188e+01 -1.373589134216308594e+01 -2.415241748094558716e-01 4.602512836456298828e+00 1.308296561241149902e+00 -2.885507345199584961e+00
2.533000000000000000e+03 6.632630920410156250e+01 5.562780380249023438e+00 -2.259825542569160461e-02 3.737970292568206787e-01 1.053596287965774536e-01 1.015795111656188965e+00
2.534000000000000000e+03 6.268636322021484375e+01 2.791165113449096680e+00 -3.518268167972564697e-01 4.561428070068359375e+00 1.262880325317382812e+00 -1.072005748748779297e+00
2.535000000000000000e+03 5.884704971313476562e+01 2.106922149658203125e+01 -6.605444550514221191e-01 3.321031808853149414e+00 7.981461882591247559e-01 3.979257643222808838e-01
2.536000000000000000e+03 5.919469070434570312e+01 1.825962257385253906e+01 1.603301048278808594e+00 6.777691841125488281e+00 2.514297962188720703e+00 9.429920315742492676e-01
2.537000000000000000e+03 5.642060089111328125e+01 2.167038154602050781e+01 -2.612658977508544922e+00 3.123509883880615234e+00 1.532553434371948242e-01 -2.748885154724121094e+00
2.538000000000000000e+03 6.719665527343750000e+01 -1.248306655883789062e+01 -1.675871163606643677e-01 2.721617937088012695e+00 7.662092447280883789e-01 -9.095929861068725586e-01
2.539000000000000000e+03 7.501834106445312500e+01 -1.131265735626220703e+01 -2.060671329498291016e+00 7.719419956207275391e+00 1.697624564170837402e+00 6.735153198242187500e-01
2.540000000000000000e+03 7.600481414794921875e+01 -1.209796142578125000e+01 -1.442331790924072266e+00 8.363647460937500000e+00 2.076394557952880859e+00 1.348369866609573364e-01
2.541000000000000000e+03 6.831436920166015625e+01 -3.543167877197265625e+01 3.410716354846954346e-01 6.027616500854492188e+00 1.910606384277343750e+00 -1.390709042549133301e+00
2.542000000000000000e+03 7.051377868652343750e+01 -3.342000579833984375e+01 1.547544479370117188e+00 5.145954608917236328e+00 2.008049726486206055e+00 -1.226939558982849121e+00
2.543000000000000000e+03 4.972878265380859375e+01 -1.501592445373535156e+01 -1.666211485862731934e+00 2.787262439727783203e+00 3.363152742385864258e-01 1.852264404296875000e+00
2.544000000000000000e+03 5.190335083007812500e+01 -1.428210163116455078e+01 -9.475854635238647461e-01 1.906077027320861816e+00 2.875474989414215088e-01 -2.357633590698242188e+00
2.545000000000000000e+03 6.601876068115234375e+01 7.762271165847778320e-01 5.084086656570434570e-01 3.808543682098388672e+00 1.295085668563842773e+00 1.613199949264526367e+00
2.546000000000000000e+03 4.474847030639648438e+01 -2.900218725204467773e+00 2.317456007003784180e+00 -8.638569116592407227e-01 4.360797107219696045e-01 1.151230931282043457e+00
2.547000000000000000e+03 4.538650894165039062e+01 -4.007931709289550781e+00 8.786012232303619385e-02 2.315047085285186768e-01 9.580944478511810303e-02 1.229969739913940430e+00
2.548000000000000000e+03 4.398447418212890625e+01 -3.607097148895263672e+00 9.773339033126831055e-01 -2.078824758529663086e+00 -3.304472565650939941e-01 1.625795841217041016e+00
2.549000000000000000e+03 4.545516204833984375e+01 2.769726037979125977e+00 -4.371300935745239258e-01 4.777588367462158203e+00 1.302137494087219238e+00 -3.885010719299316406e+00
2.550000000000000000e+03 4.704756546020507812e+01 1.459271669387817383e+00 8.403888344764709473e-01 8.108176231384277344e+00 2.684569358825683594e+00 -4.209113597869873047e+00
2.551000000000000000e+03 4.707606887817382812e+01 6.386565566062927246e-01 2.515906095504760742e+00 9.300063133239746094e+00 3.544790744781494141e+00 -5.083648681640625000e+00
2.552000000000000000e+03 4.805887985229492188e+01 1.534816265106201172e+00 8.040146827697753906e-01 9.337067604064941406e+00 3.042324781417846680e+00 -2.078796386718750000e+00
2.553000000000000000e+03 4.654138565063476562e+01 -4.557092666625976562e+00 -1.004233479499816895e+00 3.743440866470336914e+00 8.217622637748718262e-01 3.777581751346588135e-01
2.554000000000000000e+03 4.669428634643554688e+01 1.559180617332458496e+00 1.064020752906799316e+00 6.990196704864501953e+00 2.416265249252319336e+00 -4.434058189392089844e+00
2.555000000000000000e+03 4.916236495971679688e+01 9.145506024360656738e-01 2.827762126922607422e+00 8.819060325622558594e+00 3.494046688079833984e+00 6.243138909339904785e-01
2.556000000000000000e+03 4.491983032226562500e+01 1.926080226898193359e+00 6.372904777526855469e-01 3.312173604965209961e+00 1.184839248657226562e+00 -3.539278268814086914e+00
2.557000000000000000e+03 4.461099243164062500e+01 1.631371259689331055e+00 9.690076112747192383e-01 2.475464582443237305e+00 1.033341646194458008e+00 -3.018356084823608398e+00
2.558000000000000000e+03 1.003593730926513672e+01 3.489302873611450195e+00 -1.834727227687835693e-01 -1.271395832300186157e-01 -9.318368881940841675e-02 9.008155763149261475e-02
2.559000000000000000e+03 5.016154479980468750e+01 2.537763833999633789e+00 1.334602236747741699e-01 4.962740898132324219e+00 1.528860330581665039e+00 1.143867492675781250e+00
2.560000000000000000e+03 4.719123077392578125e+01 6.074337482452392578e+00 -2.767415046691894531e+00 5.345849990844726562e+00 7.735304236412048340e-01 -2.271267890930175781e+00
2.561000000000000000e+03 4.631221389770507812e+01 5.679531574249267578e+00 -1.964260578155517578e+00 5.262291908264160156e+00 9.894093871116638184e-01 -2.877482175827026367e+00
2.562000000000000000e+03 1.249028587341308594e+01 4.100472927093505859e+00 -3.888112604618072510e-01 -1.987144351005554199e-01 -1.762577146291732788e-01 3.664091527462005615e-01
2.563000000000000000e+03 1.201048278808593750e+01 4.911409378051757812e+00 -4.441908299922943115e-01 -2.995506227016448975e-01 -2.231224328279495239e-01 3.608593642711639404e-01
2.564000000000000000e+03 1.432765579223632812e+01 -2.878794908523559570e+00 -5.218392238020896912e-02 -9.005552530288696289e-02 -4.267183318734169006e-02 -1.754490286111831665e-01
2.565000000000000000e+03 1.358645629882812500e+01 -2.853824853897094727e+00 -9.767232835292816162e-02 6.135245785117149353e-02 -1.089596096426248550e-02 -8.623743802309036255e-02
2.566000000000000000e+03 9.017027854919433594e+00 -3.302334547042846680e+00 -5.560437217354774475e-02 -3.488932270556688309e-03 -1.772799156606197357e-02 -1.027854606509208679e-01
2.567000000000000000e+03 8.231657981872558594e+00 -4.148239135742187500e+00 -1.059074420481920242e-02 -3.311507403850555420e-02 -1.311174500733613968e-02 -1.048856079578399658e-01
2.568000000000000000e+03 9.040249824523925781e+00 -4.041811466217041016e+00 -5.596523359417915344e-02 -1.253122985363006592e-01 -5.438325926661491394e-02 -1.665785759687423706e-01
2.569000000000000000e+03 4.591831684112548828e+00 -3.907447099685668945e+00 -1.152813993394374847e-02 -1.482326816767454147e-02 -7.905422709882259369e-03 -3.778988867998123169e-02
2.570000000000000000e+03 3.411708593368530273e+00 -6.208910465240478516e+00 1.366148330271244049e-02 -5.911627039313316345e-02 -1.363643631339073181e-02 -2.891009859740734100e-02
2.571000000000000000e+03 4.341997623443603516e+00 -3.198778390884399414e+00 -2.857912518084049225e-02 -5.798865482211112976e-02 -2.597033418715000153e-02 -5.244852602481842041e-02
2.572000000000000000e+03 3.275686264038085938e+00 -5.112345695495605469e+00 -1.132460683584213257e-02 -6.246195361018180847e-02 -2.213596738874912262e-02 -4.231803864240646362e-02
2.573000000000000000e+03 3.091109037399291992e+00 -3.590139865875244141e+00 -2.180214598774909973e-02 -3.917380422353744507e-02 -1.829278469085693359e-02 -2.895169891417026520e-02
2.574000000000000000e+03 6.507302284240722656e+00 -4.493499755859375000e+00 -2.810370549559593201e-02 -4.582658410072326660e-02 -2.217908762395381927e-02 -9.160215407609939575e-02
2.575000000000000000e+03 2.411905765533447266e+00 -6.280464649200439453e+00 -1.237955759279429913e-03 -6.275288015604019165e-02 -1.919725164771080017e-02 -2.540734596550464630e-02
2.576000000000000000e+03 1.495873260498046875e+01 -3.940130710601806641e+00 2.539992704987525940e-02 5.380813404917716980e-02 2.376241795718669891e-02 -1.296636313199996948e-01
2.577000000000000000e+03 3.456161880493164062e+01 -3.654952287673950195e+00 3.773419857025146484e-01 -9.840799123048782349e-02 8.368019759654998779e-02 -1.589387357234954834e-01
2.578000000000000000e+03 6.658290386199951172e+00 3.311394929885864258e+00 -7.979310303926467896e-02 -3.271535038948059082e-02 -3.375253826379776001e-02 -2.004028111696243286e-02
2.579000000000000000e+03 7.078197479248046875e+00 3.846414327621459961e+00 -1.224608346819877625e-01 -4.946693405508995056e-02 -5.157833173871040344e-02 -9.178617969155311584e-03
2.580000000000000000e+03 8.046741485595703125e+00 3.452716350555419922e+00 -1.262292116880416870e-01 -6.661235541105270386e-02 -5.785246938467025757e-02 1.638861373066902161e-02
2.581000000000000000e+03 6.720761775970458984e+00 4.455104351043701172e+00 -1.668804138898849487e-01 -6.637091934680938721e-02 -6.997539848089218140e-02 1.178262848407030106e-02
2.582000000000000000e+03 6.798661231994628906e+00 5.201844215393066406e+00 -2.384560406208038330e-01 -7.442945241928100586e-02 -9.386564791202545166e-02 3.953983262181282043e-02
2.583000000000000000e+03 4.510550498962402344e+00 3.369515419006347656e+00 -3.516325354576110840e-02 -1.094642281532287598e-02 -1.383290346711874008e-02 -4.840719699859619141e-02
2.584000000000000000e+03 3.054841041564941406e+00 4.809534549713134766e+00 -5.339537188410758972e-02 9.372991509735584259e-03 -1.320671476423740387e-02 -2.108695730566978455e-02
2.585000000000000000e+03 3.142703533172607422e+00 3.720889091491699219e+00 -2.854759991168975830e-02 9.519835934042930603e-03 -5.708329379558563232e-03 -4.692684859037399292e-02
2.586000000000000000e+03 3.054207801818847656e+00 5.676776409149169922e+00 -8.426059037446975708e-02 1.715989084914326668e-03 -2.476337924599647522e-02 1.198414899408817291e-02
2.587000000000000000e+03 3.714768218994140625e+01 -3.184072256088256836e+00 9.364076256752014160e-01 1.192545533180236816e+00 6.386859416961669922e-01 2.137312591075897217e-01
2.588000000000000000e+03 8.767112731933593750e+00 3.442070722579956055e+00 -1.407336890697479248e-01 -1.002830862998962402e-01 -7.230503112077713013e-02 3.073432296514511108e-02
2.589000000000000000e+03 1.033640575408935547e+01 4.998011112213134766e+00 -3.704626560211181641e-01 -2.221329510211944580e-01 -1.777786910533905029e-01 1.796925514936447144e-01
2.590000000000000000e+03 1.120435714721679688e+01 5.741728305816650391e+00 -5.112124681472778320e-01 -4.025132954120635986e-01 -2.741177380084991455e-01 3.140155971050262451e-01
2.591000000000000000e+03 1.996258926391601562e+01 6.303026199340820312e+00 7.360858470201492310e-02 8.579584211111068726e-02 4.782132804393768311e-02 1.919142454862594604e-01
2.592000000000000000e+03 3.638240432739257812e+01 -4.990852832794189453e+00 1.389367103576660156e+00 1.187542796134948730e+00 7.730730175971984863e-01 5.426698923110961914e-01
2.593000000000000000e+03 2.469384384155273438e+01 4.375108718872070312e+00 -4.192587435245513916e-01 -7.595258951187133789e-02 -1.485633999109268188e-01 1.391221731901168823e-01
2.594000000000000000e+03 2.523777008056640625e+01 3.432183980941772461e+00 -7.023010849952697754e-01 -3.543761000037193298e-02 -2.213216125965118408e-01 2.180217802524566650e-01
2.595000000000000000e+03 2.416071701049804688e+01 5.964993476867675781e+00 1.421685609966516495e-02 -1.030360609292984009e-01 -2.664576098322868347e-02 6.418814510107040405e-02
2.596000000000000000e+03 2.078077888488769531e+01 6.683681488037109375e+00 2.000492960214614868e-01 1.212558057159185410e-02 6.365246325731277466e-02 1.255615949630737305e-01
2.597000000000000000e+03 2.287639808654785156e+01 4.031349658966064453e+00 -6.708514094352722168e-01 -1.275076419115066528e-01 -2.395077198743820190e-01 1.776204705238342285e-01
2.598000000000000000e+03 2.397108840942382812e+01 4.588484764099121094e+00 -3.858504891395568848e-01 -1.000117361545562744e-01 -1.457586586475372314e-01 1.424860954284667969e-01
2.599000000000000000e+03 2.847676849365234375e+01 3.660888433456420898e+00 -4.324647486209869385e-01 4.635268449783325195e-01 9.318622760474681854e-03 5.758379027247428894e-02
2.600000000000000000e+03 2.620857238769531250e+01 4.015160083770751953e+00 -4.364150762557983398e-01 7.786615192890167236e-02 -1.075646728277206421e-01 1.651245802640914917e-01
2.601000000000000000e+03 2.678520011901855469e+01 3.057919263839721680e+00 -7.413375973701477051e-01 1.218941062688827515e-01 -1.858330368995666504e-01 1.973923146724700928e-01
2.602000000000000000e+03 2.665610313415527344e+01 5.644607067108154297e+00 8.856129646301269531e-02 1.799298971891403198e-01 8.054735511541366577e-02 1.512791495770215988e-02
2.603000000000000000e+03 1.151027774810791016e+01 -3.198596954345703125e+00 -8.944849669933319092e-02 -1.550676673650741577e-01 -7.335484772920608521e-02 -1.712033003568649292e-01
2.604000000000000000e+03 1.324931716918945312e+01 -4.356331348419189453e+00 4.970511421561241150e-02 -1.528058387339115143e-02 1.032735966145992279e-02 -8.412653207778930664e-02
2.605000000000000000e+03 1.246344375610351562e+01 -4.181428432464599609e+00 -2.791492454707622528e-02 -6.884273886680603027e-02 -2.902729995548725128e-02 -1.600449830293655396e-01
2.606000000000000000e+03 9.824460029602050781e+00 -3.991012811660766602e+00 -2.687191590666770935e-02 -2.369632944464683533e-02 -1.517047360539436340e-02 -9.936046600341796875e-02
2.607000000000000000e+03 3.547606658935546875e+01 -5.351112842559814453e+00 1.308697342872619629e+00 6.284584999084472656e-01 5.811467170715332031e-01 3.388718664646148682e-01
2.608000000000000000e+03 3.379770278930664062e+01 -5.057931423187255859e+00 7.369251251220703125e-01 -1.854981929063796997e-01 1.654280871152877808e-01 -1.896218210458755493e-02
2.609000000000000000e+03 4.481673812866210938e+01 3.788027763366699219e+00 -9.681959748268127441e-01 4.543399333953857422e+00 1.072560906410217285e+00 -3.359131336212158203e+00
2.610000000000000000e+03 4.588766479492187500e+01 6.341756343841552734e+00 -1.765450477600097656e+00 6.203539848327636719e+00 1.331426858901977539e+00 -2.745186328887939453e+00
2.611000000000000000e+03 4.227096939086914062e+01 5.462461948394775391e+00 -5.885860323905944824e-01 3.051075458526611328e+00 7.387468218803405762e-01 -1.309026837348937988e+00
2.612000000000000000e+03 4.213475036621093750e+01 4.481840133666992188e+00 -5.338245034217834473e-01 2.384614467620849609e+00 5.552369952201843262e-01 -1.676650404930114746e+00
2.613000000000000000e+03 3.278844451904296875e+01 -5.587339878082275391e+00 6.891188621520996094e-01 -3.260208368301391602e-01 1.089294105768203735e-01 -9.926124475896358490e-03
2.614000000000000000e+03 1.065231513977050781e+01 -4.051554203033447266e+00 -3.284893184900283813e-02 -1.303346306085586548e-01 -4.895507171750068665e-02 -1.927443444728851318e-01
2.615000000000000000e+03 4.011707687377929688e+01 4.444383621215820312e+00 -5.769051983952522278e-02 6.954652667045593262e-01 1.913324296474456787e-01 -5.450581908226013184e-01
2.616000000000000000e+03 4.970193099975585938e+01 -3.134798526763916016e+00 1.921748638153076172e+00 1.051233291625976562e+01 3.730224370956420898e+00 -2.861005783081054688e+00
2.617000000000000000e+03 5.039294815063476562e+01 -5.333130359649658203e-01 5.051021099090576172e+00 7.373235225677490234e+00 3.727276802062988281e+00 4.294724464416503906e-01
2.618000000000000000e+03 3.127203369140625000e+01 -5.119304180145263672e+00 3.517185747623443604e-01 -6.184411048889160156e-01 -8.001676201820373535e-02 -1.824445128440856934e-01
2.619000000000000000e+03 4.749369430541992188e+01 5.271465778350830078e+00 -2.701946496963500977e+00 5.149107456207275391e+00 7.341483235359191895e-01 -2.907201051712036133e+00
2.620000000000000000e+03 1.914796447753906250e+01 5.859139919281005859e+00 -7.328867167234420776e-02 1.373548060655593872e-01 1.921984367072582245e-02 2.542342841625213623e-01
2.621000000000000000e+03 1.950934600830078125e+01 5.100479125976562500e+00 -4.161665439605712891e-01 2.465294441208243370e-03 -1.241103708744049072e-01 2.564685344696044922e-01
2.622000000000000000e+03 1.195713901519775391e+01 6.617558479309082031e+00 -7.947102189064025879e-01 -4.812231361865997314e-01 -3.827800154685974121e-01 4.335623085498809814e-01
2.623000000000000000e+03 1.022156047821044922e+01 6.493539333343505859e+00 -5.612502098083496094e-01 -3.460223376750946045e-01 -2.721817791461944580e-01 2.505297064781188965e-01
2.624000000000000000e+03 2.563291549682617188e+01 5.003377914428710938e+00 -1.448693722486495972e-01 9.900195524096488953e-03 -4.049075394868850708e-02 8.930258452892303467e-02
2.625000000000000000e+03 4.850026321411132812e+01 -1.344228363037109375e+01 -3.905161321163177490e-01 6.632709980010986328e+00 1.872658133506774902e+00 1.622397661209106445e+00
2.626000000000000000e+03 6.380128097534179688e+01 -3.329570591449737549e-01 5.040373802185058594e-01 6.055273532867431641e+00 1.967793226242065430e+00 2.826632857322692871e-01
2.627000000000000000e+03 6.207104110717773438e+01 -2.877781629562377930e+00 2.134152173995971680e+00 8.545035362243652344e+00 3.203756332397460938e+00 -1.143309593200683594e+00
2.628000000000000000e+03 3.448076629638671875e+01 -1.290521240234375000e+01 -6.913191080093383789e-01 3.247311115264892578e-01 -1.099764034152030945e-01 6.479365229606628418e-01
2.629000000000000000e+03 5.059606933593750000e+01 2.757380294799804688e+01 1.728220820426940918e+00 5.058081626892089844e+00 2.035890817642211914e+00 -2.162921428680419922e-01
2.630000000000000000e+03 4.002978515625000000e+01 9.225039482116699219e+00 7.803061604499816895e-01 2.041315078735351562e+00 8.464863896369934082e-01 -6.674748063087463379e-01
2.631000000000000000e+03 4.079259109497070312e+01 -1.532591819763183594e+01 -8.932213783264160156e-01 1.501821875572204590e-01 -2.229117602109909058e-01 -3.343577086925506592e-01
2.632000000000000000e+03 4.975354385375976562e+01 2.091856575012207031e+01 -1.070893168449401855e+00 1.962512373924255371e+00 2.674857676029205322e-01 -1.056560873985290527e+00
2.633000000000000000e+03 6.451603698730468750e+01 -1.332093119621276855e+00 9.113862514495849609e-01 6.312222480773925781e+00 2.167082548141479492e+00 8.989970684051513672e-01
2.634000000000000000e+03 4.821533203125000000e+01 -3.990820407867431641e+00 -2.915897369384765625e-01 1.000332736968994141e+01 2.913521289825439453e+00 -1.088975310325622559e+00
2.635000000000000000e+03 4.686558914184570312e+01 -3.709355831146240234e+00 6.606474518775939941e-02 6.017299175262451172e+00 1.825009107589721680e+00 4.550123512744903564e-01
2.636000000000000000e+03 4.862076950073242188e+01 -6.368617057800292969e+00 -1.389750242233276367e+00 9.633083343505859375e+00 2.473000049591064453e+00 5.021914839744567871e-01
2.637000000000000000e+03 4.638223266601562500e+01 -3.854301929473876953e+00 1.812797971069812775e-02 3.328538894653320312e+00 1.004000067710876465e+00 8.055297732353210449e-01
2.638000000000000000e+03 5.895564270019531250e+01 4.923412322998046875e+00 -4.174636602401733398e-01 5.707219600677490234e+00 1.586926817893981934e+00 -1.200472474098205566e+00
2.639000000000000000e+03 4.523371505737304688e+01 6.912716388702392578e+00 -1.459149956703186035e+00 5.962669849395751953e+00 1.351055979728698730e+00 -1.727336645126342773e+00
2.640000000000000000e+03 5.164799880981445312e+01 2.048887443542480469e+01 -1.554303288459777832e+00 3.695809125900268555e+00 6.424517631530761719e-01 -2.024488449096679688e+00
2.641000000000000000e+03 2.119044494628906250e+01 6.007481098175048828e+00 -5.162362754344940186e-02 -6.158497929573059082e-02 -3.396258130669593811e-02 1.118235215544700623e-01
2.642000000000000000e+03 2.753406524658203125e+01 5.336192131042480469e+00 1.563605964183807373e-01 4.162439107894897461e-01 1.717813611030578613e-01 5.674366373568773270e-03
2.643000000000000000e+03 3.265644073486328125e+01 2.531159973144531250e+01 7.400881052017211914e-01 3.094553232192993164e+00 1.150392413139343262e+00 -4.230103790760040283e-01
2.644000000000000000e+03 3.204456710815429688e+01 -8.317728996276855469e+00 3.022906184196472168e-01 -5.416173860430717468e-02 7.443866133689880371e-02 5.097187161445617676e-01
2.645000000000000000e+03 3.977469635009765625e+01 1.627416229248046875e+01 8.445022106170654297e-01 1.993223667144775391e+00 8.513177633285522461e-01 -1.531756758689880371e+00
2.646000000000000000e+03 3.520164489746093750e+01 2.237816238403320312e+01 -4.368282854557037354e-02 3.045866966247558594e+00 9.006552100181579590e-01 -9.858483076095581055e-01
2.647000000000000000e+03 5.296240615844726562e+01 1.492343664169311523e+00 1.426318764686584473e+00 5.070425510406494141e+00 1.949023365974426270e+00 3.474653959274291992e+00
2.648000000000000000e+03 2.488127708435058594e+01 -1.837023353576660156e+01 2.394116967916488647e-01 1.974350661039352417e-01 1.310540288686752319e-01 -1.759075522422790527e-01
2.649000000000000000e+03 3.604824447631835938e+01 -6.153269290924072266e+00 1.479026556015014648e+00 1.422418355941772461e+00 8.704335093498229980e-01 8.354123830795288086e-01
2.650000000000000000e+03 4.384386444091796875e+01 8.769396781921386719e+00 9.781910181045532227e-01 5.631148815155029297e+00 1.982801914215087891e+00 -1.169511556625366211e+00
2.651000000000000000e+03 2.708419990539550781e+01 7.493800640106201172e+00 2.760934829711914062e-01 3.914668262004852295e-01 2.002680897712707520e-01 -5.261288583278656006e-02
2.652000000000000000e+03 3.194692611694335938e+01 1.488919448852539062e+01 3.500680923461914062e-01 7.489385008811950684e-01 3.297019600868225098e-01 2.432574890553951263e-02
2.653000000000000000e+03 3.377016448974609375e+01 1.465022754669189453e+01 5.912133455276489258e-01 7.813800573348999023e-01 4.117780327796936035e-01 -4.807141423225402832e-01
2.654000000000000000e+03 7.560655975341796875e+01 1.732207679748535156e+01 -3.586775362491607666e-01 8.003926277160644531e+00 2.293574571609497070e+00 1.169876694679260254e+00
2.655000000000000000e+03 7.708522796630859375e+01 1.824716186523437500e+01 -3.673698604106903076e-01 7.717873573303222656e+00 2.205151081085205078e+00 9.309762120246887207e-01
2.656000000000000000e+03 2.986912727355957031e+01 -1.355886459350585938e+01 -8.688276410102844238e-01 7.582202553749084473e-01 -3.318221122026443481e-02 3.128590583801269531e-01
2.657000000000000000e+03 4.222404479980468750e+01 1.907105445861816406e+01 -7.257388234138488770e-01 2.334960699081420898e+00 4.827665686607360840e-01 -1.198780760169029236e-01
2.658000000000000000e+03 9.281922340393066406e+00 7.137005805969238281e+00 -5.534665584564208984e-01 -3.078797757625579834e-01 -2.584038972854614258e-01 2.836858928203582764e-01
2.659000000000000000e+03 2.688663291931152344e+01 -2.979756164550781250e+01 4.727397114038467407e-02 9.299187660217285156e-01 2.931578159332275391e-01 -1.676885932683944702e-01
2.660000000000000000e+03 3.425407791137695312e+01 1.616506195068359375e+01 4.459584951400756836e-01 1.325712323188781738e+00 5.315012335777282715e-01 -8.109803795814514160e-01
2.661000000000000000e+03 7.322634887695312500e+01 4.608851909637451172e+00 -1.328325420618057251e-01 5.783757209777832031e+00 1.695277333259582520e+00 1.274383664131164551e-01
2.662000000000000000e+03 6.427111816406250000e+01 1.127655029296875000e+00 2.048624306917190552e-01 4.860682487487792969e+00 1.519663572311401367e+00 4.522039890289306641e-01
2.663000000000000000e+03 2.238952636718750000e+01 1.184660720825195312e+01 1.378358304500579834e-01 1.855618655681610107e-01 9.701930731534957886e-02 1.965973824262619019e-01
2.664000000000000000e+03 2.358721542358398438e+01 1.205030250549316406e+01 1.981760412454605103e-01 1.775310337543487549e-01 1.127121224999427795e-01 1.077360063791275024e-01
2.665000000000000000e+03 7.663474273681640625e+01 1.220639038085937500e+01 7.878634333610534668e-01 7.143677234649658203e+00 2.379462242126464844e+00 2.662075757980346680e-01
2.666000000000000000e+03 7.707257843017578125e+01 -1.827832984924316406e+01 9.101036190986633301e-02 8.262040138244628906e+00 2.505915164947509766e+00 1.193471670150756836e+00
2.667000000000000000e+03 7.705184936523437500e+01 -1.693930435180664062e+01 -2.328989952802658081e-01 8.207349777221679688e+00 2.392335176467895508e+00 1.119610548019409180e+00
2.668000000000000000e+03 7.704843139648437500e+01 -1.966494178771972656e+01 4.096336960792541504e-01 8.057112693786621094e+00 2.540024042129516602e+00 1.061669111251831055e+00
2.669000000000000000e+03 7.597020721435546875e+01 7.056511878967285156e+00 7.040601223707199097e-02 7.276366710662841797e+00 2.204031705856323242e+00 -9.673533439636230469e-01
2.670000000000000000e+03 7.555374908447265625e+01 2.185098171234130859e+00 -4.671081304550170898e-01 6.418663024902343750e+00 1.785466432571411133e+00 -8.942275643348693848e-01
2.671000000000000000e+03 7.416300964355468750e+01 1.261720657348632812e+01 1.712193608283996582e+00 9.231093406677246094e+00 3.282986164093017578e+00 2.283270955085754395e-01
2.672000000000000000e+03 7.676108551025390625e+01 1.379410362243652344e+01 6.164200901985168457e-01 7.282819271087646484e+00 2.369771718978881836e+00 8.093163967132568359e-01
2.673000000000000000e+03 7.481439208984375000e+01 9.436839103698730469e+00 1.160149335861206055e+00 8.080136299133300781e+00 2.772085666656494141e+00 -4.466370046138763428e-01
2.674000000000000000e+03 7.694235992431640625e+01 -1.558677482604980469e+01 -5.115709304809570312e-01 8.307180404663085938e+00 2.338682651519775391e+00 9.197404980659484863e-01
2.675000000000000000e+03 7.682295227050781250e+01 3.747091293334960938e+00 -2.234523147344589233e-01 7.169274330139160156e+00 2.083746671676635742e+00 -9.033955931663513184e-01
2.676000000000000000e+03 7.552677154541015625e+01 3.464195251464843750e+00 -2.520723938941955566e-01 6.672692298889160156e+00 1.926185965538024902e+00 -7.864883542060852051e-01
2.677000000000000000e+03 7.676567077636718750e+01 -1.309911346435546875e+01 -1.042442440986633301e+00 8.579774856567382812e+00 2.261199712753295898e+00 1.120453700423240662e-01
2.678000000000000000e+03 7.481825256347656250e+01 1.095147705078125000e+01 1.381340861320495605e+00 8.255659103393554688e+00 2.891099929809570312e+00 -1.346018724143505096e-02
2.679000000000000000e+03 7.477163696289062500e+01 -1.599721908569335938e+01 -6.761400103569030762e-01 6.451076030731201172e+00 1.732480764389038086e+00 6.361792087554931641e-01
2.680000000000000000e+03 7.688292694091796875e+01 1.686922454833984375e+01 -7.084234058856964111e-02 7.555958271026611328e+00 2.245534658432006836e+00 1.145718455314636230e+00
2.681000000000000000e+03 7.348200225830078125e+01 1.551820373535156250e+01 5.771919488906860352e-01 9.169780731201171875e+00 2.924091815948486328e+00 6.373219490051269531e-01
2.682000000000000000e+03 7.604681396484375000e+01 -6.622182130813598633e-01 -8.757715225219726562e-01 7.704345226287841797e+00 2.048572063446044922e+00 -3.719159066677093506e-01
2.683000000000000000e+03 7.708386230468750000e+01 -2.191312015056610107e-01 -4.785351455211639404e-01 7.839044094085693359e+00 2.208152532577514648e+00 -2.264643609523773193e-01
2.684000000000000000e+03 7.502598571777343750e+01 1.626028823852539062e+01 -1.682061329483985901e-02 8.159247398376464844e+00 2.442728042602539062e+00 1.193172097206115723e+00
2.685000000000000000e+03 7.589118957519531250e+01 2.223046684265136719e+01 -5.121671557426452637e-01 7.366410255432128906e+00 2.056272983551025391e+00 -1.706309765577316284e-01
2.686000000000000000e+03 7.456602478027343750e+01 3.621152877807617188e+01 -2.205132879316806793e-02 6.805356502532958984e+00 2.034991502761840820e+00 2.675128877162933350e-01
2.687000000000000000e+03 7.554338836669921875e+01 3.218113327026367188e+01 2.218993753194808960e-01 6.764415740966796875e+00 2.095894575119018555e+00 1.308678984642028809e-01
2.688000000000000000e+03 7.678172302246093750e+01 3.260522842407226562e+01 8.333753794431686401e-02 7.099694252014160156e+00 2.154909610748291016e+00 1.033006682991981506e-01
2.689000000000000000e+03 7.581892395019531250e+01 -3.010465431213378906e+01 -1.183429658412933350e-01 6.868804931640625000e+00 2.025138616561889648e+00 4.397100210189819336e-01
2.690000000000000000e+03 7.690906524658203125e+01 -2.762181663513183594e+01 -4.407552480697631836e-01 7.701128959655761719e+00 2.178112030029296875e+00 -2.477059811353683472e-01
2.691000000000000000e+03 7.395539093017578125e+01 2.838928413391113281e+01 5.190038084983825684e-01 6.008121490478515625e+00 1.958137631416320801e+00 -2.609844207763671875e-01
2.692000000000000000e+03 7.552745056152343750e+01 2.722125053405761719e+01 2.176859825849533081e-01 6.703148365020751953e+00 2.076250314712524414e+00 -3.661047220230102539e-01
2.693000000000000000e+03 7.104059600830078125e+01 -3.444869995117187500e+01 8.658353686332702637e-01 5.564185142517089844e+00 1.929006099700927734e+00 -1.133792757987976074e+00
2.694000000000000000e+03 7.546824645996093750e+01 2.853585624694824219e+01 2.404805272817611694e-01 6.618130207061767578e+00 2.057583332061767578e+00 -2.532114684581756592e-01
2.695000000000000000e+03 7.686293792724609375e+01 3.005933952331542969e+01 1.291605234146118164e-01 7.087805747985839844e+00 2.165089845657348633e+00 -1.107433885335922241e-01
2.696000000000000000e+03 7.556720733642578125e+01 2.988651466369628906e+01 2.948283255100250244e-01 6.655313968658447266e+00 2.085042715072631836e+00 -9.351883828639984131e-02
2.697000000000000000e+03 7.695587158203125000e+01 -3.143937110900878906e+01 7.172591239213943481e-02 7.077268600463867188e+00 2.144698381423950195e+00 1.964675039052963257e-01
2.698000000000000000e+03 7.572318267822265625e+01 -2.885472869873046875e+01 -5.701127648353576660e-01 7.143825531005859375e+00 1.972113847732543945e+00 4.690284729003906250e-01
2.699000000000000000e+03 7.639313507080078125e+01 -3.386289978027343750e+01 2.923615872859954834e-01 6.817398548126220703e+00 2.132928133010864258e+00 -1.253195703029632568e-01
2.700000000000000000e+03 7.438421630859375000e+01 -3.450712966918945312e+01 5.776365995407104492e-01 6.147631645202636719e+00 2.017580509185791016e+00 -3.867292702198028564e-01
2.701000000000000000e+03 7.549398040771484375e+01 3.532071304321289062e+01 2.340385131537914276e-02 6.866191864013671875e+00 2.066878795623779297e+00 2.310255169868469238e-01
2.702000000000000000e+03 7.109321594238281250e+01 -3.878943252563476562e+01 -6.737825870513916016e-01 6.275233268737792969e+00 1.680435180664062500e+00 -7.868801951408386230e-01
2.703000000000000000e+03 4.820964813232421875e+01 -7.207910060882568359e+00 -9.833250641822814941e-01 9.113619804382324219e+00 2.439088344573974609e+00 1.512328147888183594e+00
2.704000000000000000e+03 2.158584594726562500e+01 6.766144275665283203e+00 2.034084349870681763e-01 -8.626098185777664185e-02 3.514423593878746033e-02 1.064881086349487305e-01
2.705000000000000000e+03 3.519707489013671875e+01 -6.810655117034912109e+00 1.069824218750000000e+00 8.390470147132873535e-01 5.726613402366638184e-01 6.476241350173950195e-01
2.706000000000000000e+03 4.602153015136718750e+01 -2.528284263610839844e+01 -9.027463197708129883e-01 3.340629100799560547e+00 7.313648462295532227e-01 -7.359609603881835938e-01
2.707000000000000000e+03 5.196068191528320312e+01 -6.714972257614135742e-01 3.006252527236938477e+00 6.795607089996337891e+00 2.940557956695556641e+00 1.387914657592773438e+00
2.708000000000000000e+03 2.255951118469238281e+01 2.960127449035644531e+01 3.785277307033538818e-01 6.234984397888183594e-01 3.006078302860260010e-01 1.983569413423538208e-01
2.709000000000000000e+03 2.685851287841796875e+01 -1.575196075439453125e+01 -3.566031455993652344e-01 3.223808407783508301e-01 -1.026669330894947052e-02 -4.331756755709648132e-02
2.710000000000000000e+03 2.225251388549804688e+01 -1.703570747375488281e+01 -1.049064397811889648e-01 -1.591338664293289185e-01 -7.921209186315536499e-02 -4.904244542121887207e-01
2.711000000000000000e+03 3.265225648880004883e+00 2.411866188049316406e+01 -2.530139684677124023e-02 -7.001851201057434082e-01 -2.176459580659866333e-01 3.250502515584230423e-03
2.712000000000000000e+03 4.300948143005371094e+00 2.090814590454101562e+01 6.051146984100341797e-02 -5.659532546997070312e-01 -1.516325324773788452e-01 3.064044192433357239e-02
2.713000000000000000e+03 4.108151912689208984e+00 2.368744277954101562e+01 -4.030929133296012878e-02 -6.330974698066711426e-01 -2.020220309495925903e-01 1.324665639549493790e-02
2.714000000000000000e+03 4.085935115814208984e+00 -1.707983779907226562e+01 -1.072230562567710876e-01 -2.778151333332061768e-01 -1.155114546418190002e-01 -1.589569896459579468e-01
2.715000000000000000e+03 4.663580894470214844e+00 -1.459170246124267578e+01 -1.022130772471427917e-01 -3.051130771636962891e-01 -1.221978440880775452e-01 -1.083094254136085510e-01
2.716000000000000000e+03 5.468159198760986328e+00 2.285832977294921875e+01 -9.942762553691864014e-03 -4.964450299739837646e-01 -1.519163399934768677e-01 4.069023206830024719e-02
2.717000000000000000e+03 4.196159839630126953e+00 2.242332839965820312e+01 1.531079132109880447e-02 -6.068924069404602051e-01 -1.774744838476181030e-01 1.219005323946475983e-02
2.718000000000000000e+03 7.163653373718261719e+00 1.500538349151611328e+01 3.015860319137573242e-01 -2.161867767572402954e-01 2.561977505683898926e-02 4.105418026447296143e-01
2.719000000000000000e+03 2.960721731185913086e+00 1.820006370544433594e+01 8.436605334281921387e-02 -6.272441148757934570e-01 -1.628634184598922729e-01 1.002691239118576050e-01
2.720000000000000000e+03 4.068068027496337891e+00 1.956109428405761719e+01 1.065819188952445984e-01 -5.599167943000793457e-01 -1.360004544258117676e-01 6.474224478006362915e-02
2.721000000000000000e+03 2.979579687118530273e+00 -2.597950363159179688e+01 1.277794688940048218e-02 -3.498940169811248779e-01 -1.011348217725753784e-01 1.054207421839237213e-02
2.722000000000000000e+03 2.711485385894775391e+00 -2.732519531250000000e+01 -1.879345811903476715e-02 -3.898585736751556396e-01 -1.225956082344055176e-01 1.208468340337276459e-02
2.723000000000000000e+03 5.936717033386230469e+00 -2.748043060302734375e+01 -4.294887185096740723e-02 -1.315205842256546021e-01 -5.234083533287048340e-02 -5.709536373615264893e-02
2.724000000000000000e+03 3.181073188781738281e+00 1.351693248748779297e+01 2.137654460966587067e-02 -3.827627599239349365e-01 -1.084158644080162048e-01 3.051112294197082520e-01
2.725000000000000000e+03 5.405272960662841797e+00 1.532114124298095703e+01 2.069854587316513062e-01 -3.708750903606414795e-01 -4.916689544916152954e-02 3.539657592773437500e-01
2.726000000000000000e+03 4.589333057403564453e+00 1.362640666961669922e+01 5.805828794836997986e-02 -3.278042376041412354e-01 -8.092378079891204834e-02 3.969931602478027344e-01
2.727000000000000000e+03 3.898279428482055664e+00 3.534983825683593750e+01 6.355402618646621704e-02 -7.129384875297546387e-01 -1.948153525590896606e-01 -7.735768798738718033e-03
2.728000000000000000e+03 3.759993314743041992e+00 -9.823590278625488281e+00 -4.606898874044418335e-03 -1.338404119014739990e-01 -4.153419286012649536e-02 -3.169589862227439880e-02
2.729000000000000000e+03 2.802331924438476562e+00 -1.133907890319824219e+01 -1.404458098113536835e-02 -1.311963647603988647e-01 -4.357228428125381470e-02 -1.257964037358760834e-02
2.730000000000000000e+03 2.980509281158447266e+00 -3.099171638488769531e+01 -1.573413982987403870e-02 -4.138180613517761230e-01 -1.288656592369079590e-01 -2.689572237432003021e-02
2.731000000000000000e+03 4.571751594543457031e+00 -2.862702941894531250e+01 -4.120908677577972412e-02 -2.487252503633499146e-01 -8.698029816150665283e-02 -2.478550560772418976e-02
2.732000000000000000e+03 5.246368408203125000e+00 7.970878124237060547e+00 -2.591387629508972168e-01 -8.706296235322952271e-02 -1.038605198264122009e-01 1.960207521915435791e-01
2.733000000000000000e+03 3.129582643508911133e+00 -1.387454128265380859e+01 -5.086432397365570068e-02 -2.030213028192520142e-01 -7.616569101810455322e-02 -4.657345637679100037e-02
2.734000000000000000e+03 5.880560874938964844e+00 1.087173748016357422e+01 -1.783451139926910400e-01 -1.795049756765365601e-01 -1.073550209403038025e-01 4.153370261192321777e-01
2.735000000000000000e+03 5.246408939361572266e+00 -1.163757324218750000e+01 -1.174335740506649017e-02 -1.870383918285369873e-01 -5.963452532887458801e-02 -5.617140606045722961e-02
2.736000000000000000e+03 6.988868236541748047e+00 -3.440494537353515625e+01 1.644466974539682269e-04 -2.324571609497070312e-01 -6.968781352043151855e-02 -1.088035032153129578e-01
2.737000000000000000e+03 3.798818349838256836e+00 -2.932952117919921875e+01 -2.861491777002811432e-02 -3.306718170642852783e-01 -1.077860221266746521e-01 -1.978234574198722839e-02
2.738000000000000000e+03 4.095197677612304688e+00 -3.049954414367675781e+01 -3.393833711743354797e-02 -3.249523341655731201e-01 -1.076672002673149109e-01 -4.223731160163879395e-02
2.739000000000000000e+03 3.182288169860839844e+00 -3.227143096923828125e+01 -1.449711341410875320e-02 -4.159426093101501465e-01 -1.291319131851196289e-01 -4.449643194675445557e-02
2.740000000000000000e+03 5.961868286132812500e+00 -6.233977317810058594e+00 2.369513548910617828e-02 -1.228939443826675415e-01 -2.975964359939098358e-02 -8.748418837785720825e-02
2.741000000000000000e+03 5.248397350311279297e+00 4.085641384124755859e+00 -8.513297140598297119e-02 -2.890723571181297302e-02 -3.421206399798393250e-02 -2.483377605676651001e-02
2.742000000000000000e+03 4.120876789093017578e+00 -4.999660015106201172e+00 9.132444858551025391e-03 -4.219858720898628235e-02 -9.919843636453151703e-03 -3.476002067327499390e-02
2.743000000000000000e+03 2.449283599853515625e+01 1.261353015899658203e+01 1.508194804191589355e-01 2.582884728908538818e-01 1.227323934435844421e-01 2.523121237754821777e-02
2.744000000000000000e+03 4.386048316955566406e+00 -3.678209304809570312e+01 2.968667261302471161e-02 -4.344976544380187988e-01 -1.214432939887046814e-01 -6.908982247114181519e-02
2.745000000000000000e+03 6.231748580932617188e+00 -3.352704620361328125e+01 -1.406090892851352692e-02 -2.558910548686981201e-01 -8.098559081554412842e-02 -1.046480908989906311e-01
2.746000000000000000e+03 6.119843482971191406e+00 3.677699661254882812e+01 1.813984476029872894e-02 -3.349232971668243408e-01 -9.503503888845443726e-02 -2.781010419130325317e-02
2.747000000000000000e+03 4.661529064178466797e+00 3.765272521972656250e+01 3.181393444538116455e-02 -6.077554821968078613e-01 -1.727824509143829346e-01 -1.512514147907495499e-02
2.748000000000000000e+03 1.345246219635009766e+01 2.058149719238281250e+01 3.466418385505676270e-01 2.992562055587768555e-01 1.937694102525711060e-01 5.188036561012268066e-01
2.749000000000000000e+03 4.938707733154296875e+01 -2.860107803344726562e+01 2.891799807548522949e-01 3.319498300552368164e+00 1.082603454589843750e+00 -1.456835985183715820e+00
2.750000000000000000e+03 5.071419906616210938e+01 -2.953712654113769531e+01 1.124688267707824707e+00 4.026951789855957031e+00 1.545492053031921387e+00 -3.481500148773193359e-01
2.751000000000000000e+03 2.867177009582519531e+01 -1.351252555847167969e+01 -8.373990654945373535e-01 5.724269747734069824e-01 -7.949161529541015625e-02 1.327446401119232178e-01
2.752000000000000000e+03 2.734025955200195312e+01 -1.461029720306396484e+01 -6.783103942871093750e-01 4.044021070003509521e-01 -8.217248320579528809e-02 -4.645919799804687500e-02
2.753000000000000000e+03 7.324244689941406250e+01 1.404895019531250000e+01 1.322275519371032715e+00 1.062047863006591797e+01 3.582826375961303711e+00 2.181602865457534790e-01
2.754000000000000000e+03 6.233689785003662109e+00 -3.589041519165039062e+01 2.117273584008216858e-02 -2.732197344303131104e-01 -7.561410218477249146e-02 -1.019511148333549500e-01
2.755000000000000000e+03 3.575138854980468750e+01 -1.037314605712890625e+01 -2.352865636348724365e-01 1.219622492790222168e+00 2.953007817268371582e-01 6.903440356254577637e-01
2.756000000000000000e+03 3.371421432495117188e+01 -8.622879028320312500e+00 3.499847352504730225e-01 3.820591568946838379e-01 2.196131646633148193e-01 7.250940203666687012e-01
2.757000000000000000e+03 4.854723930358886719e+00 4.063413619995117188e+01 -6.492155790328979492e-02 -5.960816740989685059e-01 -1.983009725809097290e-01 1.319950819015502930e-02
2.758000000000000000e+03 5.405734634399414062e+01 1.509437441825866699e+00 2.577835917472839355e-01 4.575441360473632812e+00 1.449967503547668457e+00 3.212915897369384766e+00
2.759000000000000000e+03 5.432644271850585938e+01 3.963722229003906250e+00 -8.511010408401489258e-01 5.915362358093261719e+00 1.519278407096862793e+00 3.329562664031982422e+00
2.760000000000000000e+03 6.721920013427734375e+01 2.889374732971191406e+01 1.568933606147766113e+00 5.220909118652343750e+00 2.036952733993530273e+00 1.127331495285034180e+00
2.761000000000000000e+03 4.902776718139648438e+01 -1.233692741394042969e+01 1.154907584190368652e+00 6.916535377502441406e+00 2.421432733535766602e+00 9.694024920463562012e-01
2.762000000000000000e+03 1.158230400085449219e+01 1.829599952697753906e+01 6.773467063903808594e-01 4.555943906307220459e-01 3.398823440074920654e-01 4.313775599002838135e-01
2.763000000000000000e+03 1.241995811462402344e+01 1.957325172424316406e+01 4.355900585651397705e-01 4.059937000274658203e-01 2.524751424789428711e-01 4.430055618286132812e-01
2.764000000000000000e+03 1.586024665832519531e+01 -1.184625244140625000e+01 -6.546156853437423706e-02 3.745909929275512695e-01 9.273882955312728882e-02 -3.380607441067695618e-02
2.765000000000000000e+03 5.035454177856445312e+01 4.123327255249023438e+00 -1.611421227455139160e+00 2.073801994323730469e+00 1.387142241001129150e-01 1.209111094474792480e+00
2.766000000000000000e+03 4.860896682739257812e+01 4.537898063659667969e+00 -3.144882678985595703e+00 3.696486949920654297e+00 1.654812842607498169e-01 -2.222644329071044922e+00
2.767000000000000000e+03 7.425543975830078125e+01 1.815770268440246582e-01 -1.001256465911865234e+00 5.541955947875976562e+00 1.362209916114807129e+00 -1.058948040008544922e+00
2.768000000000000000e+03 5.997405242919921875e+01 2.122531890869140625e+01 -1.251538872718811035e+00 4.476015090942382812e+00 9.673427939414978027e-01 2.067732334136962891e+00
2.769000000000000000e+03 1.965430068969726562e+01 2.101864051818847656e+01 3.738620579242706299e-01 3.337891101837158203e-01 2.122953385114669800e-01 -6.073706224560737610e-02
2.770000000000000000e+03 2.727410697937011719e+01 8.564351081848144531e+00 3.101509809494018555e-01 4.052414298057556152e-01 2.146177291870117188e-01 -4.747692123055458069e-02
2.771000000000000000e+03 6.616925811767578125e+01 4.577757835388183594e+00 1.524474322795867920e-01 1.370270967483520508e+00 4.568155109882354736e-01 1.269654273986816406e+00
2.772000000000000000e+03 5.534095764160156250e+01 4.391060829162597656e+00 -1.180221080780029297e+00 6.665348052978515625e+00 1.645538091659545898e+00 2.175291538238525391e+00
2.773000000000000000e+03 4.472899627685546875e+01 -2.187613487243652344e+01 1.731630802154541016e+00 4.826076507568359375e+00 1.967312097549438477e+00 1.683040499687194824e+00
2.774000000000000000e+03 4.533971405029296875e+01 -2.048335266113281250e+01 2.329987287521362305e+00 6.549272060394287109e+00 2.663777828216552734e+00 1.374550700187683105e+00
2.775000000000000000e+03 7.566588592529296875e+01 -2.627268791198730469e+01 -6.531940698623657227e-01 8.400182723999023438e+00 2.324096679687500000e+00 -2.962284684181213379e-01
2.776000000000000000e+03 5.137941741943359375e+01 -5.145733356475830078e+00 1.693147063255310059e+00 1.121226310729980469e+01 3.871623039245605469e+00 -1.909082174301147461e+00
2.777000000000000000e+03 2.599008941650390625e+01 -2.260200119018554688e+01 4.233219623565673828e-01 8.682464957237243652e-01 3.874705433845520020e-01 6.409704685211181641e-02
2.778000000000000000e+03 2.446757316589355469e+01 -2.323420333862304688e+01 3.763583302497863770e-01 5.349937081336975098e-01 2.734056115150451660e-01 1.795683754608035088e-03
2.779000000000000000e+03 5.820339202880859375e+01 -2.155113410949707031e+01 2.566011190414428711e+00 5.557971000671386719e+00 2.437194585800170898e+00 5.566868185997009277e-02
2.780000000000000000e+03 6.609821319580078125e+01 2.138678359985351562e+01 -1.589200854301452637e+00 1.215085312724113464e-01 -4.403077065944671631e-01 1.068707227706909180e+00
2.781000000000000000e+03 6.050331497192382812e+01 -2.483745002746582031e+01 3.620605468750000000e-01 1.927895784378051758e+00 6.869868636131286621e-01 4.199720025062561035e-01
2.782000000000000000e+03 5.196688461303710938e+01 2.689540386199951172e+00 2.781804502010345459e-01 4.699541568756103516e+00 1.493316650390625000e+00 3.854586362838745117e+00
2.783000000000000000e+03 5.267982101440429688e+01 4.436807155609130859e+00 -1.374704360961914062e+00 4.956062316894531250e+00 1.074407458305358887e+00 4.666153907775878906e+00
2.784000000000000000e+03 4.272794723510742188e+01 -2.380809974670410156e+01 1.204721927642822266e+00 2.826759576797485352e+00 1.209444403648376465e+00 2.407264232635498047e+00
2.785000000000000000e+03 1.767882156372070312e+01 -1.361559104919433594e+01 -1.732794195413589478e-01 2.988742887973785400e-01 3.767845779657363892e-02 -1.231909394264221191e-01
2.786000000000000000e+03 8.192237854003906250e+00 1.018269157409667969e+01 -3.886572122573852539e-01 -2.707459926605224609e-01 -1.978209614753723145e-01 3.940460383892059326e-01
2.787000000000000000e+03 7.298508644104003906e+00 1.156897258758544922e+01 -1.559214144945144653e-01 -2.015493363142013550e-01 -1.072412282228469849e-01 4.864990115165710449e-01
2.788000000000000000e+03 7.475650024414062500e+01 -1.833454704284667969e+01 2.138741314411163330e-01 8.584033966064453125e+00 2.639372348785400391e+00 4.515920281410217285e-01
2.789000000000000000e+03 2.243837165832519531e+01 -2.401813507080078125e+01 3.338671326637268066e-01 2.085637599229812622e-01 1.627292633056640625e-01 -7.762116938829421997e-02
2.790000000000000000e+03 1.952680015563964844e+01 -2.406892013549804688e+01 2.309595942497253418e-01 7.739869505167007446e-02 9.250748902559280396e-02 -6.767914444208145142e-02
2.791000000000000000e+03 1.323227977752685547e+01 -1.136091613769531250e+01 -6.357020884752273560e-02 2.041043192148208618e-01 4.216023534536361694e-02 -1.045336574316024780e-01
2.792000000000000000e+03 4.447076416015625000e+01 1.956155395507812500e+01 -1.904029369354248047e+00 3.660208225250244141e+00 5.268536806106567383e-01 1.213308930397033691e+00
2.793000000000000000e+03 7.341686248779296875e+01 7.630894184112548828e+00 3.182798922061920166e-01 7.720769405364990234e+00 2.411714792251586914e+00 8.670140802860260010e-02
2.794000000000000000e+03 6.497684478759765625e+01 2.466377639770507812e+01 1.031435847282409668e+00 4.900113582611083984e+00 1.779464840888977051e+00 1.755149960517883301e+00
2.795000000000000000e+03 3.230842590332031250e+01 3.183732986450195312e+01 1.891126930713653564e-01 2.230494499206542969e+00 7.258821725845336914e-01 -5.436207056045532227e-01
2.796000000000000000e+03 7.435064697265625000e+01 -2.614077186584472656e+01 -9.096304178237915039e-01 8.533297538757324219e+00 2.287100076675415039e+00 8.461853861808776855e-01
2.797000000000000000e+03 7.437335205078125000e+01 -2.752176094055175781e+01 -1.118008255958557129e+00 6.939490795135498047e+00 1.746444702148437500e+00 1.029911518096923828e+00
2.798000000000000000e+03 3.717232894897460938e+01 -2.991049003601074219e+01 7.579004168510437012e-01 2.581309080123901367e+00 1.001762866973876953e+00 1.097933530807495117e+00
2.799000000000000000e+03 3.454353332519531250e+01 -3.143650627136230469e+01 1.150049924850463867e+00 9.364822506904602051e-01 6.259596347808837891e-01 4.908992350101470947e-01
2.800000000000000000e+03 3.481270980834960938e+01 -3.007571601867675781e+01 9.429947733879089355e-01 3.191937506198883057e-01 3.786565661430358887e-01 3.189844191074371338e-01
2.801000000000000000e+03 6.797359466552734375e+01 2.778460264205932617e+00 5.366898775100708008e-01 2.274612426757812500e+00 8.433906435966491699e-01 2.166670799255371094e+00
2.802000000000000000e+03 7.063697052001953125e+01 -2.800145721435546875e+01 9.732607007026672363e-01 1.783003211021423340e+00 8.268791437149047852e-01 1.152070999145507812e+00
2.803000000000000000e+03 1.275307178497314453e+01 -2.803461265563964844e+01 4.906839504837989807e-02 -1.771133244037628174e-01 -3.841347992420196533e-02 -1.186318695545196533e-01
2.804000000000000000e+03 1.283776378631591797e+01 -2.693948745727539062e+01 6.777827441692352295e-02 -2.149887382984161377e-01 -4.416314139962196350e-02 -1.486794352531433105e-01
2.805000000000000000e+03 6.361088562011718750e+01 2.248683166503906250e+01 -1.695750951766967773e+00 5.540504932403564453e+00 1.153426170349121094e+00 3.489573001861572266e+00
2.806000000000000000e+03 6.498587036132812500e+01 2.358395195007324219e+01 1.954524070024490356e-01 4.305192947387695312e+00 1.350193619728088379e+00 1.703322649002075195e+00
2.807000000000000000e+03 3.565146636962890625e+01 1.933810234069824219e+01 -5.827415734529495239e-02 2.161932468414306641e+00 6.310974955558776855e-01 -1.271306872367858887e+00
2.808000000000000000e+03 3.452310180664062500e+01 1.873532676696777344e+01 8.181659132242202759e-02 2.043917417526245117e+00 6.377201676368713379e-01 -9.518559575080871582e-01
2.809000000000000000e+03 5.974235916137695312e+01 -1.139291381835937500e+01 -2.768152058124542236e-01 5.087958335876464844e+00 1.443342924118041992e+00 2.091358661651611328e+00
2.810000000000000000e+03 3.044223785400390625e+01 -1.006458663940429688e+01 -1.869935542345046997e-01 -1.599947214126586914e-01 -1.040964871644973755e-01 2.340573221445083618e-01
2.811000000000000000e+03 5.105608749389648438e+01 -7.336497306823730469e+00 1.160614967346191406e+00 1.024832057952880859e+01 3.422680616378784180e+00 3.962531983852386475e-01
2.812000000000000000e+03 5.482681655883789062e+01 5.520973205566406250e+00 -1.132068991661071777e+00 7.635064601898193359e+00 1.950898766517639160e+00 1.627676129341125488e+00
2.813000000000000000e+03 5.339286804199218750e+01 3.459838628768920898e+00 -7.493326663970947266e-01 5.160334587097167969e+00 1.323300480842590332e+00 3.475055217742919922e+00
2.814000000000000000e+03 1.492377948760986328e+01 -7.881603717803955078e+00 6.400243192911148071e-02 2.487401664257049561e-01 9.382277727127075195e-02 -3.931697830557823181e-02
2.815000000000000000e+03 1.350433349609375000e+01 -8.588072776794433594e+00 4.858798161149024963e-02 1.615836918354034424e-01 6.305149942636489868e-02 -6.498625874519348145e-02
2.816000000000000000e+03 7.076966857910156250e+01 2.091028594970703125e+01 -1.812449574470520020e+00 4.628494262695312500e+00 8.448134660720825195e-01 -1.155776619911193848e+00
2.817000000000000000e+03 7.186947631835937500e+01 2.142908477783203125e+01 -1.653373956680297852e+00 5.723771095275878906e+00 1.221119046211242676e+00 -1.093372702598571777e+00
2.818000000000000000e+03 1.828178977966308594e+01 -2.069303131103515625e+01 -1.006937697529792786e-01 4.069851338863372803e-02 -1.799857616424560547e-02 -3.745422661304473877e-01
2.819000000000000000e+03 1.143432235717773438e+01 -9.937414169311523438e+00 -3.394983708858489990e-02 8.771229535341262817e-03 -7.553582079708576202e-03 -1.243981197476387024e-01
2.820000000000000000e+03 7.563330650329589844e+00 -3.081224060058593750e+01 -6.045454367995262146e-02 -1.441912949085235596e-01 -6.139374896883964539e-02 -1.137948408722877502e-01
2.821000000000000000e+03 5.951715469360351562e+01 1.368988609313964844e+01 1.252368569374084473e+00 9.920581817626953125e+00 3.351885080337524414e+00 1.421053290367126465e+00
2.822000000000000000e+03 5.844422912597656250e+01 1.512211418151855469e+01 2.152666568756103516e+00 8.381830215454101562e+00 3.160348892211914062e+00 1.626746773719787598e+00
2.823000000000000000e+03 1.944299697875976562e+01 2.475316047668457031e+01 5.699760317802429199e-01 6.573900580406188965e-01 3.682098090648651123e-01 3.859282732009887695e-01
2.824000000000000000e+03 1.885378074645996094e+01 2.392988777160644531e+01 5.983317494392395020e-01 5.647886991500854492e-01 3.489361405372619629e-01 3.196577727794647217e-01
2.825000000000000000e+03 2.821137428283691406e+01 -3.208267974853515625e+01 2.662057876586914062e-01 8.297456502914428711e-01 3.287854194641113281e-01 -1.266658604145050049e-01
2.826000000000000000e+03 5.692309188842773438e+01 -1.549768161773681641e+01 -5.185976624488830566e-01 5.987703800201416016e+00 1.640731811523437500e+00 -9.881241917610168457e-01
2.827000000000000000e+03 5.724065780639648438e+01 -1.191091442108154297e+01 4.640298485755920410e-01 2.544771432876586914e+00 9.026404023170471191e-01 -1.141671895980834961e+00
2.828000000000000000e+03 5.287120437622070312e+01 -2.733143424987792969e+01 -9.449957609176635742e-01 3.500761985778808594e+00 7.667298913002014160e-01 1.685314536094665527e+00
2.829000000000000000e+03 4.869346618652343750e+01 2.550820732116699219e+01 1.368223667144775391e+00 4.276997566223144531e+00 1.693566322326660156e+00 1.610215008258819580e-01
2.830000000000000000e+03 6.413484954833984375e+01 -9.924398422241210938e+00 4.400837719440460205e-01 7.684377670288085938e+00 2.437338590621948242e+00 -1.443448364734649658e-01
2.831000000000000000e+03 6.576179504394531250e+01 -1.482943820953369141e+01 -1.519986391067504883e+00 3.711180210113525391e+00 6.573581695556640625e-01 6.575036048889160156e-01
2.832000000000000000e+03 5.674421310424804688e+00 -1.004373741149902344e+01 1.826552115380764008e-02 -1.575063914060592651e-01 -4.177226126194000244e-02 -6.023423373699188232e-02
2.833000000000000000e+03 5.791881561279296875e+01 7.497858524322509766e+00 5.731274485588073730e-01 7.462580680847167969e+00 2.410712480545043945e+00 -1.706442534923553467e-01
2.834000000000000000e+03 4.274643421173095703e+00 2.598519515991210938e+01 -1.039223745465278625e-01 -6.819357275962829590e-01 -2.357574254274368286e-01 7.019274681806564331e-02
2.835000000000000000e+03 5.785434722900390625e+01 -2.570893287658691406e+01 -1.749106287956237793e+00 6.425562858581542969e+00 1.402937054634094238e+00 1.746769309043884277e+00
2.836000000000000000e+03 5.003596878051757812e+01 -2.710538673400878906e+01 -1.463063597679138184e+00 2.116962194442749023e+00 1.961696147918701172e-01 -1.657067537307739258e+00
2.837000000000000000e+03 7.173152923583984375e+01 7.364844322204589844e+00 3.702483326196670532e-02 7.506453990936279297e+00 2.263043642044067383e+00 1.396863341331481934e+00
2.838000000000000000e+03 6.947708892822265625e+01 3.799581766128540039e+00 4.355653524398803711e-01 2.657379627227783203e+00 9.278835058212280273e-01 2.098565101623535156e+00
2.839000000000000000e+03 5.336320114135742188e+01 2.016820526123046875e+01 -1.589363217353820801e+00 4.649245262145996094e+00 9.179645776748657227e-01 -2.475867271423339844e+00
2.840000000000000000e+03 6.135625457763671875e+01 -1.193254756927490234e+01 -7.807644009590148926e-01 6.422395706176757812e+00 1.692489385604858398e+00 1.445018649101257324e+00
2.841000000000000000e+03 6.329526519775390625e+01 -1.110680198669433594e+01 -8.195847868919372559e-01 7.166172504425048828e+00 1.903976321220397949e+00 5.953185558319091797e-01
2.842000000000000000e+03 1.413499450683593750e+01 -2.682922363281250000e+01 1.520390063524246216e-01 -2.259767204523086548e-01 -2.218131534755229950e-02 -1.139746233820915222e-01
2.843000000000000000e+03 7.352307128906250000e+01 2.263422393798828125e+01 -8.464221954345703125e-01 6.570957660675048828e+00 1.717360615730285645e+00 -7.204502820968627930e-01
2.844000000000000000e+03 5.263647460937500000e+01 -1.053567981719970703e+01 1.413030385971069336e+00 5.567962646484375000e+00 2.094297885894775391e+00 -1.583096504211425781e+00
2.845000000000000000e+03 5.474897003173828125e+01 -1.162861156463623047e+01 4.781352877616882324e-01 4.053003787994384766e+00 1.359341740608215332e+00 -3.142019271850585938e+00
2.846000000000000000e+03 5.381353759765625000e+01 -2.783620834350585938e+01 -1.203077554702758789e+00 4.731882572174072266e+00 1.058641552925109863e+00 1.797750234603881836e+00
2.847000000000000000e+03 6.391939926147460938e+01 5.294175624847412109e+00 -5.961955189704895020e-01 2.109133243560791016e+00 4.538813531398773193e-01 -9.261896610260009766e-01
2.848000000000000000e+03 5.668075942993164062e+01 -2.565559005737304688e+01 -2.263618230819702148e+00 7.647964954376220703e+00 1.615303993225097656e+00 1.800793170928955078e+00
2.849000000000000000e+03 2.770652580261230469e+01 3.123320770263671875e+01 5.992304086685180664e-01 9.730320572853088379e-01 4.716787338256835938e-01 -3.222340941429138184e-01
2.850000000000000000e+03 2.310590171813964844e+01 3.150171852111816406e+01 2.257530540227890015e-01 6.922135949134826660e-01 2.753899991512298584e-01 -3.538049384951591492e-02
2.851000000000000000e+03 4.995353698730468750e+01 2.854098510742187500e+01 1.584972977638244629e+00 5.077780246734619141e+00 1.998825907707214355e+00 -2.922983169555664062e-01
2.852000000000000000e+03 4.933195877075195312e+01 3.057036018371582031e+01 1.141762614250183105e+00 4.730905532836914062e+00 1.761800408363342285e+00 -3.053158819675445557e-01
2.853000000000000000e+03 5.049957656860351562e+01 -1.367802143096923828e+01 -1.729684472084045410e-01 3.473602771759033203e+00 9.901902675628662109e-01 2.239118702709674835e-02
2.854000000000000000e+03 5.118638229370117188e+01 -1.117207908630371094e+01 1.728863000869750977e+00 5.704608440399169922e+00 2.230041503906250000e+00 -5.395776629447937012e-01
2.855000000000000000e+03 4.359923934936523438e+01 3.626158142089843750e+01 -4.260021448135375977e-01 1.988641023635864258e+00 4.687916636466979980e-01 -9.331071972846984863e-01
2.856000000000000000e+03 4.214953994750976562e+01 3.771279144287109375e+01 -2.168821692466735840e-01 1.549429774284362793e+00 3.997642695903778076e-01 -5.053218007087707520e-01
2.857000000000000000e+03 8.359435081481933594e+00 7.699287891387939453e+00 -4.514355063438415527e-01 -2.683662474155426025e-01 -2.159405350685119629e-01 2.562289535999298096e-01
2.858000000000000000e+03 1.794077301025390625e+01 -2.332979774475097656e+01 7.090900093317031860e-02 -4.426430910825729370e-02 7.993408478796482086e-03 -1.252520084381103516e-01
2.859000000000000000e+03 6.588723754882812500e+01 -1.377290916442871094e+01 -9.873295426368713379e-01 3.600610494613647461e+00 7.839842438697814941e-01 2.127725332975387573e-01
2.860000000000000000e+03 6.734621429443359375e+01 -1.361966800689697266e+01 -5.989030003547668457e-01 2.303156614303588867e+00 5.112760663032531738e-01 -9.404696822166442871e-01
2.861000000000000000e+03 7.562705993652343750e+01 4.044892120361328125e+01 -8.099254965782165527e-02 7.282446384429931641e+00 2.160436153411865234e+00 2.021075636148452759e-01
2.862000000000000000e+03 7.529865264892578125e+01 3.842555236816406250e+01 -1.749699413776397705e-01 7.037005901336669922e+00 2.058610677719116211e+00 2.044626474380493164e-01
2.863000000000000000e+03 6.465218353271484375e+01 3.320682942867279053e-01 4.036327600479125977e-01 5.157437324523925781e+00 1.668321013450622559e+00 8.332871794700622559e-01
2.864000000000000000e+03 3.308440780639648438e+01 2.916631507873535156e+01 6.406057476997375488e-01 2.973500013351440430e+00 1.084231734275817871e+00 -7.290893197059631348e-01
2.865000000000000000e+03 3.037627792358398438e+01 -2.872830772399902344e+01 1.803673431277275085e-02 7.981445193290710449e-01 2.448543757200241089e-01 -3.739645183086395264e-01
2.866000000000000000e+03 5.689367294311523438e+01 3.702852487564086914e+00 -3.522592484951019287e-01 5.403793334960937500e+00 1.515460252761840820e+00 7.276996374130249023e-01
2.867000000000000000e+03 5.677685928344726562e+01 7.393970489501953125e+00 9.259901642799377441e-01 8.082409858703613281e+00 2.702520132064819336e+00 2.852271199226379395e-01
2.868000000000000000e+03 4.277919387817382812e+01 -2.196224403381347656e+01 1.503126263618469238e+00 3.226424455642700195e+00 1.418865203857421875e+00 2.317466020584106445e+00
2.869000000000000000e+03 4.195684814453125000e+01 -2.272117424011230469e+01 1.299325466156005859e+00 2.868018388748168945e+00 1.250203132629394531e+00 2.284210681915283203e+00
2.870000000000000000e+03 2.276245880126953125e+01 1.507843780517578125e+01 -3.996002301573753357e-02 3.800652623176574707e-01 1.020315736532211304e-01 -3.415229916572570801e-02
2.871000000000000000e+03 2.247217941284179688e+01 3.476208496093750000e+01 7.929055392742156982e-02 6.672067046165466309e-01 2.239491790533065796e-01 -1.833554506301879883e-01
2.872000000000000000e+03 5.081361770629882812e+01 3.050345039367675781e+01 1.147292137145996094e+00 5.662370204925537109e+00 2.042898654937744141e+00 -2.830052375793457031e-01
2.873000000000000000e+03 5.117768478393554688e+01 3.532559967041015625e+01 -7.963806986808776855e-01 4.752252101898193359e+00 1.186761498451232910e+00 -2.407859265804290771e-01
2.874000000000000000e+03 4.977852630615234375e+01 3.638220214843750000e+01 -8.885499835014343262e-01 4.310018539428710938e+00 1.026440501213073730e+00 -3.898816704750061035e-01
2.875000000000000000e+03 1.393565940856933594e+01 -7.457861900329589844e+00 3.666626662015914917e-02 1.147421523928642273e-01 4.542252421379089355e-02 -5.055125430226325989e-02
2.876000000000000000e+03 1.523827266693115234e+01 -6.563016414642333984e+00 4.685951396822929382e-02 1.991880089044570923e-01 7.381425797939300537e-02 7.937367074191570282e-03
2.877000000000000000e+03 6.855645751953125000e+01 -1.494399929046630859e+01 -7.213540077209472656e-01 1.837364137172698975e-01 -1.612852662801742554e-01 -1.529432892799377441e+00
2.878000000000000000e+03 7.253859710693359375e+01 2.030976867675781250e+01 -1.801318645477294922e+00 6.503289222717285156e+00 1.410591125488281250e+00 -5.876356959342956543e-01
2.879000000000000000e+03 5.492725372314453125e+01 1.685428047180175781e+01 6.502470374107360840e-01 5.543118953704833984e+00 1.858009696006774902e+00 -1.218854784965515137e+00
2.880000000000000000e+03 5.682532882690429688e+01 1.681087303161621094e+01 1.463011860847473145e+00 6.169123649597167969e+00 2.289640665054321289e+00 -6.215094402432441711e-02
2.881000000000000000e+03 5.736997604370117188e+01 1.084041786193847656e+01 1.552356600761413574e+00 8.978824615478515625e+00 3.159354209899902344e+00 1.346458077430725098e+00
2.882000000000000000e+03 5.694846343994140625e+01 9.494839668273925781e+00 1.711962938308715820e+00 8.830311775207519531e+00 3.162682294845581055e+00 9.510087966918945312e-01
2.883000000000000000e+03 2.412718772888183594e+01 -2.599924278259277344e+01 2.098778486251831055e-01 5.310622453689575195e-01 2.222820371389389038e-01 -7.399410009384155273e-02
2.884000000000000000e+03 2.510099029541015625e+01 -2.684042167663574219e+01 1.424320042133331299e-01 7.556578516960144043e-01 2.694269716739654541e-01 -5.810182914137840271e-02
2.885000000000000000e+03 6.631607055664062500e+01 3.736591339111328125e+01 -7.510079741477966309e-01 4.985847949981689453e+00 1.270452022552490234e+00 1.862337738275527954e-01
2.886000000000000000e+03 6.198679351806640625e+01 4.097190856933593750e+01 -2.886233627796173096e-01 2.230147361755371094e+00 5.824571847915649414e-01 -2.434949576854705811e-01
2.887000000000000000e+03 3.557606887817382812e+01 -3.547372436523437500e+01 4.700130522251129150e-01 2.083173990249633789e+00 7.659561038017272949e-01 1.084822416305541992e+00
2.888000000000000000e+03 3.712208938598632812e+01 -3.807900238037109375e+01 -7.426638007164001465e-01 2.647383928298950195e+00 5.714160203933715820e-01 5.651120543479919434e-01
2.889000000000000000e+03 1.207252502441406250e+01 -9.037614822387695312e+00 5.335883051156997681e-02 5.552409589290618896e-02 3.266488015651702881e-02 -1.061326563358306885e-01
2.890000000000000000e+03 1.231630706787109375e+01 -1.062632656097412109e+01 4.937589168548583984e-02 8.349174261093139648e-02 3.986028954386711121e-02 -1.083320453763008118e-01
2.891000000000000000e+03 3.837591934204101562e+01 1.869207763671875000e+01 6.619127094745635986e-02 1.529370069503784180e+00 4.786683917045593262e-01 -1.716470241546630859e+00
2.892000000000000000e+03 3.686100387573242188e+01 1.987096214294433594e+01 -2.602607011795043945e-01 1.984198689460754395e+00 5.171813964843750000e-01 -1.495519042015075684e+00
2.893000000000000000e+03 6.849639892578125000e+01 2.957900619506835938e+01 1.326366424560546875e+00 4.872943401336669922e+00 1.859792947769165039e+00 6.562901139259338379e-01
2.894000000000000000e+03 7.409004974365234375e+01 3.310047912597656250e+01 1.699359714984893799e-01 6.441447734832763672e+00 1.983415007591247559e+00 2.967683970928192139e-01
2.895000000000000000e+03 6.851515960693359375e+01 -2.992297935485839844e+01 2.308481693267822266e+00 4.374634742736816406e+00 2.004934787750244141e+00 -1.695421695709228516e+00
2.896000000000000000e+03 6.454604339599609375e+01 -1.183654689788818359e+01 -9.189617037773132324e-01 6.450735569000244141e+00 1.659532189369201660e+00 5.624694377183914185e-02
2.897000000000000000e+03 5.635759353637695312e+00 -1.272165107727050781e+01 -7.610131055116653442e-02 -2.531766295433044434e-01 -9.878338128328323364e-02 -8.701253682374954224e-02
2.898000000000000000e+03 4.112960815429687500e+01 -1.852566528320312500e+01 5.756469368934631348e-01 1.347970128059387207e+00 5.770851373672485352e-01 1.739774048328399658e-01
2.899000000000000000e+03 7.375748443603515625e+01 -1.614745521545410156e+01 -5.037398934364318848e-01 5.479998111724853516e+00 1.492877483367919922e+00 1.351881027221679688e-01
2.900000000000000000e+03 2.787816047668457031e+01 -1.658802986145019531e+01 -1.401123311370611191e-02 7.773401737213134766e-01 2.289986759424209595e-01 1.654424220323562622e-01
2.901000000000000000e+03 1.770540046691894531e+01 2.040004158020019531e+01 4.075373709201812744e-01 3.853137046098709106e-02 1.338206231594085693e-01 1.958167850971221924e-01
2.902000000000000000e+03 6.154204845428466797e+00 2.188648796081542969e+01 1.703919284045696259e-02 -4.199883937835693359e-01 -1.208847612142562866e-01 5.815296992659568787e-02
2.903000000000000000e+03 2.195039558410644531e+01 3.921632385253906250e+01 2.461487194523215294e-03 6.547858119010925293e-01 1.971741914749145508e-01 -1.020157039165496826e-01
2.904000000000000000e+03 1.805799484252929688e+01 4.131937026977539062e+01 8.018926531076431274e-02 2.722845971584320068e-01 1.057421639561653137e-01 -1.337322406470775604e-02
2.905000000000000000e+03 2.794108963012695312e+01 -2.847431373596191406e+01 -1.312314439564943314e-02 9.832255840301513672e-01 2.910307347774505615e-01 -2.018406391143798828e-01
2.906000000000000000e+03 2.928791236877441406e+01 -2.740998268127441406e+01 -6.923153996467590332e-02 1.008059263229370117e+00 2.816483080387115479e-01 -2.368253916501998901e-01
2.907000000000000000e+03 7.389636993408203125e+00 -2.951062202453613281e+01 -5.824662744998931885e-02 -1.278549730777740479e-01 -5.583047866821289062e-02 -1.081750616431236267e-01
2.908000000000000000e+03 8.107773780822753906e+00 -3.467929458618164062e+01 1.533973589539527893e-02 -1.713887900114059448e-01 -4.681471735239028931e-02 -1.225878372788429260e-01
2.909000000000000000e+03 5.106689071655273438e+01 2.151494979858398438e+01 -1.383597850799560547e+00 3.546389818191528320e+00 6.488376259803771973e-01 -1.749786496162414551e+00
2.910000000000000000e+03 1.885790252685546875e+01 -1.570562076568603516e+01 -1.264776438474655151e-01 9.671006351709365845e-02 -8.930273354053497314e-03 -3.705049157142639160e-01
2.911000000000000000e+03 2.291019058227539062e+01 -2.043742752075195312e+01 3.158345222473144531e-01 6.454034149646759033e-02 1.141124516725540161e-01 -2.325340211391448975e-01
2.912000000000000000e+03 6.875134277343750000e+01 -3.118725585937500000e+01 2.393348217010498047e+00 4.776361465454101562e+00 2.150913000106811523e+00 -1.240932703018188477e+00
2.913000000000000000e+03 5.273965835571289062e+01 2.373008918762207031e+01 -7.371267676353454590e-01 5.317880630493164062e+00 1.374226212501525879e+00 -1.399532318115234375e+00
2.914000000000000000e+03 5.437464904785156250e+01 2.073126029968261719e+01 -1.815403938293457031e+00 4.740942955017089844e+00 8.776617050170898438e-01 -2.740107297897338867e+00
2.915000000000000000e+03 4.893165206909179688e+01 2.780290985107421875e+01 1.571051001548767090e+00 4.663028240203857422e+00 1.870223760604858398e+00 1.029614582657814026e-01
2.916000000000000000e+03 4.714583587646484375e+01 2.176162338256835938e+01 -6.901623010635375977e-01 2.784658432006835938e+00 6.283488273620605469e-01 8.810884952545166016e-01
2.917000000000000000e+03 1.257060050964355469e+01 -2.475199508666992188e+01 6.211824715137481689e-02 -2.448894232511520386e-01 -5.483135208487510681e-02 -2.482295036315917969e-01
2.918000000000000000e+03 4.222666168212890625e+01 1.605430030822753906e+01 6.614403128623962402e-01 3.850547790527343750e+00 1.353596448898315430e+00 -1.045860648155212402e+00
2.919000000000000000e+03 5.828405380249023438e+01 1.279338169097900391e+01 1.498859524726867676e+00 8.867636680603027344e+00 3.109948873519897461e+00 1.462667942047119141e+00
2.920000000000000000e+03 2.266366958618164062e+01 1.089641952514648438e+01 3.188175559043884277e-01 8.392696827650070190e-02 1.208233535289764404e-01 1.936115324497222900e-01
2.921000000000000000e+03 2.260442543029785156e+01 9.891724586486816406e+00 3.503831624984741211e-01 5.470972508192062378e-02 1.215278655290603638e-01 1.842363774776458740e-01
2.922000000000000000e+03 1.383774948120117188e+01 -2.436580085754394531e+01 9.908949583768844604e-02 -3.153988122940063477e-01 -6.489279866218566895e-02 -2.004803717136383057e-01
2.923000000000000000e+03 1.156084156036376953e+01 -3.015318107604980469e+01 -5.393985658884048462e-02 -9.914961457252502441e-02 -4.592683911323547363e-02 -1.154048964381217957e-01
2.924000000000000000e+03 5.348542690277099609e+00 -3.132343292236328125e+01 -4.044102132320404053e-02 -2.667293846607208252e-01 -9.215112030506134033e-02 -7.623036950826644897e-02
2.925000000000000000e+03 2.640618324279785156e+01 -2.143527793884277344e+01 4.916421771049499512e-01 8.995871543884277344e-01 4.173687994480133057e-01 1.104318276047706604e-01
2.926000000000000000e+03 5.489376831054687500e+01 -1.465559959411621094e+01 -1.079227447509765625e+00 5.046758651733398438e+00 1.190259337425231934e+00 -2.340539693832397461e+00
2.927000000000000000e+03 5.581634521484375000e+01 -1.507547664642333984e+01 -5.691627264022827148e-01 5.609597682952880859e+00 1.512130498886108398e+00 -2.122424364089965820e+00
2.928000000000000000e+03 2.634549331665039062e+01 1.002339553833007812e+01 3.249711096286773682e-01 2.611008286476135254e-01 1.758215874433517456e-01 -3.876416012644767761e-03
2.929000000000000000e+03 7.674427032470703125e+00 1.250755023956298828e+01 -4.421871528029441833e-02 -2.379062026739120483e-01 -8.463747799396514893e-02 5.171661376953125000e-01
2.930000000000000000e+03 4.293977737426757812e+00 1.481863307952880859e+01 1.244536340236663818e-01 -4.110620617866516113e-01 -8.598252385854721069e-02 3.456339836120605469e-01
2.931000000000000000e+03 4.161457443237304688e+01 1.389349746704101562e+01 1.607757806777954102e+00 3.706123352050781250e+00 1.594164371490478516e+00 -1.220628738403320312e+00
2.932000000000000000e+03 5.811617279052734375e+01 -1.955968475341796875e+01 2.136387825012207031e+00 6.589895725250244141e+00 2.617885112762451172e+00 2.063811570405960083e-01
2.933000000000000000e+03 5.939108276367187500e+01 -1.887755775451660156e+01 1.878497242927551270e+00 5.871485233306884766e+00 2.324994802474975586e+00 -1.880313009023666382e-01
2.934000000000000000e+03 3.494872283935546875e+01 2.022168159484863281e+01 -1.446377635002136230e-01 2.447957992553710938e+00 6.909960508346557617e-01 -1.059380412101745605e+00
2.935000000000000000e+03 7.579770660400390625e+01 -1.585508155822753906e+01 -7.160585522651672363e-01 7.591476917266845703e+00 2.062625646591186523e+00 8.729447722434997559e-01
2.936000000000000000e+03 6.827943420410156250e+01 4.062547206878662109e+00 4.137208759784698486e-01 2.079347133636474609e+00 7.479204535484313965e-01 2.263086080551147461e+00
2.937000000000000000e+03 6.716149902343750000e+01 4.309638977050781250e+00 3.565003871917724609e-01 1.771115422248840332e+00 6.382847428321838379e-01 1.812719464302062988e+00
2.938000000000000000e+03 5.760736846923828125e+01 -1.708372879028320312e+01 7.668269872665405273e-01 6.597266197204589844e+00 2.209228038787841797e+00 -3.414420187473297119e-01
2.939000000000000000e+03 5.729846191406250000e+01 -1.436880874633789062e+01 -1.319261938333511353e-01 5.009954929351806641e+00 1.463408708572387695e+00 -1.053529739379882812e+00
2.940000000000000000e+03 5.632921600341796875e+01 1.556827545166015625e+01 1.483579874038696289e+00 7.055522441864013672e+00 2.561730623245239258e+00 -9.197501465678215027e-03
2.941000000000000000e+03 4.257658386230468750e+01 3.501186752319335938e+01 -3.756349682807922363e-01 1.512156724929809570e+00 3.409565389156341553e-01 -7.710840106010437012e-01
2.942000000000000000e+03 5.308818054199218750e+01 -3.158841514587402344e+01 2.328397750854492188e+00 5.630977630615234375e+00 2.387812614440917969e+00 7.017534971237182617e-01
2.943000000000000000e+03 5.372658538818359375e+01 -2.896515846252441406e+01 7.388432025909423828e-01 5.367992401123046875e+00 1.832050681114196777e+00 1.264325499534606934e+00
2.944000000000000000e+03 5.070243835449218750e+01 -9.567837715148925781e+00 1.926685929298400879e+00 7.707245349884033203e+00 2.890179395675659180e+00 7.990999221801757812e-01
2.945000000000000000e+03 1.677436828613281250e+01 -2.481097221374511719e+01 1.841531395912170410e-01 -1.209540367126464844e-01 1.895973086357116699e-02 -1.120014116168022156e-01
2.946000000000000000e+03 1.658182716369628906e+01 -2.354315376281738281e+01 5.016643926501274109e-02 -1.947509199380874634e-01 -4.337534308433532715e-02 -1.433149278163909912e-01
2.947000000000000000e+03 3.472483062744140625e+01 2.327920722961425781e+01 1.993416994810104370e-01 3.385155916213989258e+00 1.075349330902099609e+00 -6.798020601272583008e-01
2.948000000000000000e+03 5.270684432983398438e+01 -2.857961082458496094e+01 5.372508764266967773e-01 3.940903663635253906e+00 1.343446373939514160e+00 7.168902754783630371e-01
2.949000000000000000e+03 5.183659744262695312e+01 -3.689073562622070312e+01 -5.598084926605224609e-01 5.677686691284179688e+00 1.535363554954528809e+00 9.749533534049987793e-01
2.950000000000000000e+03 7.437744903564453125e+01 1.810881614685058594e+01 -1.137977004051208496e+00 7.935364723205566406e+00 2.039216279983520508e+00 6.984814405441284180e-01
2.951000000000000000e+03 7.422966003417968750e+01 1.996882438659667969e+01 -1.299447536468505859e+00 7.415962696075439453e+00 1.834954619407653809e+00 1.770769804716110229e-01
2.952000000000000000e+03 4.087600708007812500e+01 1.896748352050781250e+01 -1.534312516450881958e-01 1.648506760597229004e+00 4.485226571559906006e-01 -8.803068995475769043e-01
2.953000000000000000e+03 4.208956527709960938e+01 1.212222385406494141e+01 1.873666286468505859e+00 4.390095233917236328e+00 1.879128456115722656e+00 -1.172341585159301758e+00
2.954000000000000000e+03 2.644756317138671875e+01 1.298270320892333984e+01 2.369069755077362061e-01 2.629476785659790039e-01 1.499563902616500854e-01 -3.571906313300132751e-02
2.955000000000000000e+03 3.097757530212402344e+01 -3.500261688232421875e+01 4.995760023593902588e-01 1.062578558921813965e+00 4.686463773250579834e-01 3.511165380477905273e-01
2.956000000000000000e+03 4.847805404663085938e+01 3.380545425415039062e+01 -6.473089009523391724e-02 4.286729812622070312e+00 1.266599655151367188e+00 -6.850034594535827637e-01
2.957000000000000000e+03 4.746572494506835938e+01 3.285168457031250000e+01 1.547823846340179443e-01 4.037915706634521484e+00 1.257809400558471680e+00 -7.852360606193542480e-01
2.958000000000000000e+03 1.835310363769531250e+01 -1.831479835510253906e+01 -7.932374626398086548e-02 -2.443763427436351776e-02 -3.112841211259365082e-02 -5.173305273056030273e-01
2.959000000000000000e+03 1.994313812255859375e+01 -1.917916107177734375e+01 1.905302889645099640e-02 -2.461076155304908752e-02 -1.667320029810070992e-03 -4.701084792613983154e-01
2.960000000000000000e+03 6.432366943359375000e+01 -1.091702461242675781e+01 -4.018760621547698975e-01 7.218385219573974609e+00 2.044952630996704102e+00 1.284320354461669922e-01
2.961000000000000000e+03 6.230572891235351562e+01 -1.143920516967773438e+01 -1.060112953186035156e+00 7.232408046722412109e+00 1.851688504219055176e+00 1.260972380638122559e+00
2.962000000000000000e+03 4.429328536987304688e+01 -1.596773338317871094e+01 -5.987318158149719238e-01 3.847748994827270508e+00 9.747051596641540527e-01 1.542758107185363770e+00
2.963000000000000000e+03 4.336869430541992188e+01 -1.651353263854980469e+01 -5.251754075288772583e-02 2.498937129974365234e+00 7.339258790016174316e-01 1.144319772720336914e+00
2.964000000000000000e+03 1.338557815551757812e+01 3.778689193725585938e+01 9.864089637994766235e-02 1.828210614621639252e-02 3.507690131664276123e-02 1.157968789339065552e-01
2.965000000000000000e+03 1.282470703125000000e+01 1.884720802307128906e+01 6.630123853683471680e-01 4.232270717620849609e-01 3.258718550205230713e-01 4.776140153408050537e-01
2.966000000000000000e+03 5.972989654541015625e+01 1.926939392089843750e+01 1.136835694313049316e+00 6.413097858428955078e+00 2.264980077743530273e+00 1.562158942222595215e+00
2.967000000000000000e+03 5.780697250366210938e+01 2.080447196960449219e+01 -8.026599884033203125e-01 2.899119377136230469e+00 6.289377808570861816e-01 -8.604561686515808105e-01
2.968000000000000000e+03 4.362033367156982422e+00 1.739372062683105469e+01 1.790354102849960327e-01 -5.095439553260803223e-01 -9.915256500244140625e-02 1.818400025367736816e-01
2.969000000000000000e+03 8.658373832702636719e+00 1.763988494873046875e+01 4.675306081771850586e-01 -3.191517293453216553e-02 1.306846290826797485e-01 2.333634197711944580e-01
2.970000000000000000e+03 3.277161026000976562e+01 4.113357162475585938e+01 -3.159736394882202148e-01 1.491851091384887695e+00 3.527632355690002441e-01 2.352537401020526886e-02
2.971000000000000000e+03 1.893081474304199219e+01 -1.749174499511718750e+01 -6.047511473298072815e-02 3.800717368721961975e-02 -6.740382872521877289e-03 -5.194786787033081055e-01
2.972000000000000000e+03 1.049112892150878906e+01 -2.722091865539550781e+01 -8.437177166342735291e-03 -9.831505268812179565e-02 -3.202566877007484436e-02 -1.829180717468261719e-01
2.973000000000000000e+03 9.900707244873046875e+00 -3.090728569030761719e+01 -5.439184233546257019e-02 -8.802268654108047485e-02 -4.272435978055000305e-02 -1.390900462865829468e-01
2.974000000000000000e+03 5.742718124389648438e+01 1.518998336791992188e+01 1.812905788421630859e+00 7.676739692687988281e+00 2.846893548965454102e+00 9.563789963722229004e-01
2.975000000000000000e+03 5.728453826904296875e+01 1.404246902465820312e+01 1.840591788291931152e+00 8.189302444458007812e+00 3.008968114852905273e+00 1.134556531906127930e+00
2.976000000000000000e+03 1.026879024505615234e+01 1.957341003417968750e+01 3.725048601627349854e-01 1.474315673112869263e-01 1.559809297323226929e-01 1.893617510795593262e-01
2.977000000000000000e+03 9.025301933288574219e+00 -3.659232330322265625e+01 6.971300393342971802e-02 -1.437202394008636475e-01 -2.220217138528823853e-02 -1.079619079828262329e-01
2.978000000000000000e+03 4.009465026855468750e+01 1.371324253082275391e+01 1.594253540039062500e+00 2.262962341308593750e+00 1.157164812088012695e+00 -1.393792986869812012e+00
2.979000000000000000e+03 3.852158355712890625e+01 1.408691310882568359e+01 1.348841309547424316e+00 1.429934263229370117e+00 8.336326479911804199e-01 -1.353683590888977051e+00
2.980000000000000000e+03 6.194720458984375000e+01 -2.042828559875488281e+01 2.567016363143920898e+00 5.520068168640136719e+00 2.426125288009643555e+00 -1.614473700523376465e+00
2.981000000000000000e+03 6.089919662475585938e+01 -2.207771873474121094e+01 2.929894924163818359e+00 4.211378097534179688e+00 2.142381906509399414e+00 -9.883955121040344238e-01
2.982000000000000000e+03 2.879396057128906250e+01 3.202626037597656250e+01 4.300354421138763428e-01 1.256765484809875488e+00 5.060402750968933105e-01 -4.437716007232666016e-01
2.983000000000000000e+03 8.410302162170410156e+00 1.881908988952636719e+01 3.562853932380676270e-01 -1.125690937042236328e-01 7.311489433050155640e-02 1.425914466381072998e-01
2.984000000000000000e+03 7.413941192626953125e+01 8.523991584777832031e+00 5.677722692489624023e-01 8.225488662719726562e+00 2.637978315353393555e+00 -4.172363281250000000e-01
2.985000000000000000e+03 5.879987335205078125e+01 -1.748574256896972656e+01 9.648233652114868164e-01 6.237651824951171875e+00 2.160742521286010742e+00 -6.030252203345298767e-02
2.986000000000000000e+03 2.803590965270996094e+01 -4.138397979736328125e+01 6.621760129928588867e-02 1.033161163330078125e+00 3.298136293888092041e-01 4.591894522309303284e-02
2.987000000000000000e+03 8.916542053222656250e+00 3.646744918823242188e+01 1.743563711643218994e-01 6.082034483551979065e-02 7.055301219224929810e-02 9.198865294456481934e-02
2.988000000000000000e+03 7.054473114013671875e+01 2.179805994033813477e+00 5.821478962898254395e-01 2.314097881317138672e+00 8.688737154006958008e-01 1.415825128555297852e+00
2.989000000000000000e+03 6.082754898071289062e+01 -1.865268325805664062e+01 1.481878638267517090e+00 5.920042037963867188e+00 2.220576286315917969e+00 -7.277591228485107422e-01
2.990000000000000000e+03 5.746441650390625000e+01 2.197322273254394531e+01 -1.881116390228271484e+00 1.703309774398803711e+00 -5.334200710058212280e-02 -2.204487800598144531e+00
2.991000000000000000e+03 4.661426925659179688e+01 9.868348240852355957e-01 2.163074731826782227e+00 6.945161342620849609e+00 2.732470750808715820e+00 -4.959248065948486328e+00
2.992000000000000000e+03 4.573492813110351562e+01 1.555336236953735352e+00 1.370192766189575195e+00 4.295689582824707031e+00 1.699764728546142578e+00 -4.284909725189208984e+00
2.993000000000000000e+03 4.654072189331054688e+01 4.972772121429443359e+00 -2.535114288330078125e+00 5.655055522918701172e+00 9.359823465347290039e-01 -2.877773761749267578e+00
2.994000000000000000e+03 4.542903900146484375e+01 1.288275003433227539e+00 1.826318979263305664e+00 3.310825109481811523e+00 1.541143178939819336e+00 -3.864596843719482422e+00
2.995000000000000000e+03 9.201760292053222656e+00 4.098483085632324219e+00 -2.306520193815231323e-01 -1.413708925247192383e-01 -1.116068735718727112e-01 8.622011542320251465e-02
2.996000000000000000e+03 4.880606079101562500e+01 1.794936418533325195e+00 8.824166059494018555e-01 7.784460544586181641e+00 2.600063323974609375e+00 -4.616104066371917725e-01
2.997000000000000000e+03 4.762220001220703125e+01 2.964504957199096680e+00 -1.057070970535278320e+00 6.478795528411865234e+00 1.626517415046691895e+00 -2.957916498184204102e+00
2.998000000000000000e+03 5.562781333923339844e+00 -4.321442127227783203e+00 -2.092462591826915741e-02 -2.289791777729988098e-02 -1.314676273614168167e-02 -5.945963412523269653e-02
2.999000000000000000e+03 3.915980815887451172e+00 -4.133522510528564453e+00 -2.315751835703849792e-02 -6.206335127353668213e-02 -2.556626126170158386e-02 -5.506896600127220154e-02
3.000000000000000000e+03 8.969128608703613281e+00 -1.055102634429931641e+01 2.568997442722320557e-02 -1.292553693056106567e-01 -3.106961771845817566e-02 -1.225756704807281494e-01
3.001000000000000000e+03 6.739118576049804688e+00 -3.945587873458862305e+00 -2.717825584113597870e-02 -2.634398639202117920e-02 -1.605667173862457275e-02 -7.669746130704879761e-02
3.002000000000000000e+03 6.158464908599853516e+00 -4.001584053039550781e+00 -2.028490044176578522e-02 -1.063455045223236084e-01 -3.798912093043327332e-02 -9.798771888017654419e-02
3.003000000000000000e+03 8.384532928466796875e+00 -4.922390460968017578e+00 -4.208557307720184326e-02 -1.134995892643928528e-01 -4.667554795742034912e-02 -1.338281780481338501e-01
3.004000000000000000e+03 7.799037933349609375e+00 -5.394660472869873047e+00 -8.562791044823825359e-04 -7.044687867164611816e-02 -2.139094844460487366e-02 -1.332589238882064819e-01
3.005000000000000000e+03 3.577434301376342773e+00 -7.404006004333496094e+00 3.431089222431182861e-03 -1.010854244232177734e-01 -2.929629944264888763e-02 -4.010744392871856689e-02
3.006000000000000000e+03 4.034940242767333984e+00 4.063226222991943359e+00 -4.977330937981605530e-02 -8.414073847234249115e-03 -1.745621487498283386e-02 -3.722137212753295898e-02
3.007000000000000000e+03 5.957742214202880859e+00 4.197228431701660156e+00 -1.259980797767639160e-01 -3.477935120463371277e-02 -4.823322966694831848e-02 -1.632813364267349243e-02
3.008000000000000000e+03 5.206480503082275391e+00 5.917476177215576172e+00 -1.965489983558654785e-01 -4.536430165171623230e-02 -7.257398962974548340e-02 4.851712659001350403e-02
3.009000000000000000e+03 3.752534389495849609e+00 4.826751708984375000e+00 -8.625374734401702881e-02 -1.067728269845247269e-02 -2.907930873334407806e-02 -8.970740251243114471e-03
3.010000000000000000e+03 4.603258132934570312e+00 4.045648097991943359e+00 -7.169176638126373291e-02 -1.276487298309803009e-02 -2.533699199557304382e-02 -3.581603243947029114e-02
3.011000000000000000e+03 7.852282047271728516e+00 4.223033428192138672e+00 -1.923363506793975830e-01 -9.768217056989669800e-02 -8.700555562973022461e-02 3.835087269544601440e-02
3.012000000000000000e+03 1.270665359497070312e+01 -3.462500572204589844e+00 -3.232647106051445007e-02 -6.672967225313186646e-02 -2.971684187650680542e-02 -1.114746108651161194e-01
3.013000000000000000e+03 2.255182647705078125e+01 5.732570648193359375e+00 -8.383758366107940674e-02 -1.367206871509552002e-01 -6.616748124361038208e-02 9.061494469642639160e-02
3.014000000000000000e+03 2.280574798583984375e+01 4.870540142059326172e+00 -3.496329784393310547e-01 -1.318461596965789795e-01 -1.444437354803085327e-01 1.153104007244110107e-01
3.015000000000000000e+03 2.487014579772949219e+01 5.139096736907958984e+00 -1.438355892896652222e-01 -5.592933669686317444e-02 -5.992947518825531006e-02 1.009537205100059509e-01
3.016000000000000000e+03 2.416901588439941406e+01 5.225970268249511719e+00 -1.513765007257461548e-01 -8.997070044279098511e-02 -7.240416109561920166e-02 9.588160365819931030e-02
3.017000000000000000e+03 2.579164695739746094e+01 5.853779315948486328e+00 7.963248342275619507e-02 5.874018743634223938e-02 4.151180014014244080e-02 3.895817324519157410e-02
3.018000000000000000e+03 2.333925628662109375e+01 6.681601047515869141e+00 1.672598272562026978e-01 -1.505466550588607788e-01 5.013951100409030914e-03 7.358505576848983765e-02
3.019000000000000000e+03 2.721861839294433594e+01 4.560442447662353516e+00 -1.705590337514877319e-01 2.586286664009094238e-01 2.642088569700717926e-02 1.057619377970695496e-01
3.020000000000000000e+03 5.185879135131835938e+01 3.697689771652221680e-01 2.916288375854492188e+00 5.895668506622314453e+00 2.643587112426757812e+00 2.464005470275878906e+00
3.021000000000000000e+03 1.155887222290039062e+01 -4.092382431030273438e+00 -1.271462626755237579e-02 5.703784991055727005e-03 -2.103252336382865906e-03 -1.078080087900161743e-01
3.022000000000000000e+03 1.326258182525634766e+01 -5.086097717285156250e+00 1.268711872398853302e-03 -5.726007744669914246e-02 -1.679740846157073975e-02 -9.130408614873886108e-02
3.023000000000000000e+03 4.908250427246093750e+01 -4.409990787506103516e+00 -1.471062153577804565e-01 1.107081413269042969e+01 3.277112483978271484e+00 -1.790360569953918457e+00
3.024000000000000000e+03 4.398959350585937500e+01 3.544983386993408203e+00 -7.969704270362854004e-01 3.637365579605102539e+00 8.521185517311096191e-01 -2.688195705413818359e+00
3.025000000000000000e+03 3.444633102416992188e+01 -4.377943515777587891e+00 7.841444015502929688e-01 7.342670857906341553e-02 2.572713494300842285e-01 -7.683078199625015259e-02
3.026000000000000000e+03 4.482370376586914062e+01 2.944687843322753906e+00 -4.108425378799438477e-01 4.009345054626464844e+00 1.079550862312316895e+00 -3.418571472167968750e+00
3.027000000000000000e+03 5.046594238281250000e+01 -3.682244300842285156e+00 1.716295599937438965e+00 1.089404487609863281e+01 3.783102273941040039e+00 -2.236115217208862305e+00
3.028000000000000000e+03 4.311771011352539062e+01 5.340866088867187500e+00 -8.729366064071655273e-01 3.832935571670532227e+00 8.879996538162231445e-01 -1.859743952751159668e+00
3.029000000000000000e+03 3.443278503417968750e+01 -5.938432693481445312e+00 1.076283335685729980e+00 2.335151582956314087e-01 3.929395675659179688e-01 3.299168646335601807e-01
3.030000000000000000e+03 1.579896736145019531e+01 -4.035727977752685547e+00 4.057695716619491577e-02 1.705147922039031982e-01 6.332752853631973267e-02 3.253179788589477539e-02
3.031000000000000000e+03 4.137569808959960938e+01 6.504727840423583984e+00 -2.216784060001373291e-01 2.726569414138793945e+00 7.514672875404357910e-01 -7.275779247283935547e-01
3.032000000000000000e+03 6.001153182983398438e+01 2.017438125610351562e+01 -7.407832890748977661e-02 5.765292167663574219e+00 1.707364201545715332e+00 1.699963450431823730e+00
3.033000000000000000e+03 5.101285934448242188e+01 2.567294120788574219e+00 8.463928699493408203e-01 4.059036254882812500e+00 1.471628785133361816e+00 2.468594312667846680e+00
3.034000000000000000e+03 3.270033264160156250e+01 -7.819992542266845703e+00 4.204114675521850586e-01 -7.824710011482238770e-02 1.026493087410926819e-01 4.814649522304534912e-01
3.035000000000000000e+03 3.166737556457519531e+01 -9.970576286315917969e+00 -6.234566494822502136e-02 6.267384439706802368e-02 9.845390013651922345e-05 6.230463385581970215e-01
3.036000000000000000e+03 2.360470390319824219e+01 7.470280170440673828e+00 2.746596336364746094e-01 -9.954942017793655396e-02 5.253306403756141663e-02 7.614419609308242798e-02
3.037000000000000000e+03 1.165640544891357422e+01 -2.710640335083007812e+01 4.033344238996505737e-02 -1.491947770118713379e-01 -3.265840187668800354e-02 -1.711500138044357300e-01
3.038000000000000000e+03 3.390898895263671875e+01 -9.663665771484375000e+00 1.798653453588485718e-01 5.000187158584594727e-01 2.039652168750762939e-01 8.392642736434936523e-01
3.039000000000000000e+03 5.047352600097656250e+01 -4.919093132019042969e+00 1.059622049331665039e+00 1.068583393096923828e+01 3.523636817932128906e+00 -1.491193294525146484e+00
3.040000000000000000e+03 3.463416671752929688e+01 -7.635585308074951172e+00 8.575055599212646484e-01 6.596578359603881836e-01 4.551490247249603271e-01 6.888307332992553711e-01
3.041000000000000000e+03 7.827084541320800781e+00 6.797103881835937500e+00 -4.160253703594207764e-01 -1.669580340385437012e-01 -1.748950183391571045e-01 1.681723743677139282e-01
3.042000000000000000e+03 7.627413177490234375e+01 -2.148048210144042969e+01 9.702008962631225586e-01 8.800955772399902344e+00 2.931347131729125977e+00 4.095196425914764404e-01
3.043000000000000000e+03 4.480543518066406250e+01 6.251366615295410156e+00 -1.156295657157897949e+00 5.578221797943115234e+00 1.326577901840209961e+00 -2.402104854583740234e+00
3.044000000000000000e+03 4.498640060424804688e+01 5.372314929962158203e+00 -1.435524463653564453e+00 5.256072521209716797e+00 1.146164417266845703e+00 -2.859883069992065430e+00
3.045000000000000000e+03 4.347237396240234375e+01 7.616153717041015625e+00 -1.082659214735031128e-01 5.270709514617919922e+00 1.548733115196228027e+00 -1.325904846191406250e+00
3.046000000000000000e+03 4.177270889282226562e+01 -1.956406974792480469e+01 8.094807863235473633e-01 1.983060240745544434e+00 8.377623558044433594e-01 8.432801961898803711e-01
3.047000000000000000e+03 3.224369812011718750e+01 -6.942288875579833984e+00 5.090896487236022949e-01 -2.892919480800628662e-01 6.593930721282958984e-02 2.275641858577728271e-01
3.048000000000000000e+03 4.258411026000976562e+01 -1.719558143615722656e+01 4.260352253913879395e-01 1.854902267456054688e+00 6.842812299728393555e-01 5.501934885978698730e-01
3.049000000000000000e+03 2.130960083007812500e+01 -1.748244285583496094e+01 -8.216793090105056763e-02 -1.028769239783287048e-01 -5.551345646381378174e-02 -5.418548583984375000e-01
3.050000000000000000e+03 7.070613861083984375e+01 2.571328735351562500e+01 7.968111634254455566e-01 4.450183868408203125e+00 1.574098467826843262e+00 -6.503090262413024902e-01
3.051000000000000000e+03 3.493214035034179688e+01 1.770303535461425781e+01 2.460002601146697998e-01 1.739332675933837891e+00 5.955998897552490234e-01 -1.053547382354736328e+00
3.052000000000000000e+03 3.488375091552734375e+01 1.508687496185302734e+01 6.677567362785339355e-01 9.638832211494445801e-01 4.894919991493225098e-01 -8.787105679512023926e-01
3.053000000000000000e+03 6.626298522949218750e+01 2.515868568420410156e+01 1.609897613525390625e+00 4.099914073944091797e+00 1.712943434715270996e+00 7.873756885528564453e-01
3.054000000000000000e+03 6.825024414062500000e+01 2.233663749694824219e+01 -1.087657213211059570e+00 1.640288710594177246e+00 1.657894551753997803e-01 -7.969605326652526855e-01
3.055000000000000000e+03 6.857220458984375000e+01 2.700125312805175781e+01 1.753920674324035645e+00 4.226805210113525391e+00 1.794217824935913086e+00 2.133766412734985352e-01
3.056000000000000000e+03 6.881196594238281250e+01 2.864667320251464844e+01 1.545904397964477539e+00 4.786568641662597656e+00 1.899741888046264648e+00 3.962860107421875000e-01
3.057000000000000000e+03 5.108712387084960938e+01 -3.066292572021484375e+01 2.045788526535034180e+00 4.706084251403808594e+00 2.025561809539794922e+00 -1.067568361759185791e-01
3.058000000000000000e+03 5.184428405761718750e+01 -2.818571853637695312e+01 -3.925285488367080688e-02 3.655937671661376953e+00 1.085005521774291992e+00 3.560351431369781494e-01
3.059000000000000000e+03 9.969499588012695312e+00 4.277906894683837891e+00 -2.875868678092956543e-01 -1.747113764286041260e-01 -1.386894732713699341e-01 1.413062810897827148e-01
3.060000000000000000e+03 5.922363662719726562e+01 -1.974857330322265625e+01 2.577180862426757812e+00 5.231125354766845703e+00 2.342491865158081055e+00 -2.543059885501861572e-01
3.061000000000000000e+03 5.367205810546875000e+01 -1.112517547607421875e+01 5.226995348930358887e-01 4.586091041564941406e+00 1.532637119293212891e+00 -2.553466558456420898e+00
3.062000000000000000e+03 7.286055755615234375e+01 -3.386413574218750000e+01 7.915040850639343262e-01 5.705674171447753906e+00 1.949153423309326172e+00 -5.245374441146850586e-01
3.063000000000000000e+03 5.481541061401367188e+01 -1.268802833557128906e+01 -3.028685450553894043e-01 4.531675815582275391e+00 1.268642187118530273e+00 -2.815087556838989258e+00
3.064000000000000000e+03 6.078288269042968750e+01 1.643076181411743164e+00 -4.178578555583953857e-01 5.622489452362060547e+00 1.561389446258544922e+00 -1.889566063880920410e+00
3.065000000000000000e+03 6.175589370727539062e+01 -2.267396354675292969e+01 2.939049243927001953e+00 4.261439323425292969e+00 2.160146713256835938e+00 -1.510745763778686523e+00
3.066000000000000000e+03 4.442137145996093750e+01 7.333717346191406250e+00 -2.765547633171081543e-01 5.457922458648681641e+00 1.554410219192504883e+00 -1.614687681198120117e+00
3.067000000000000000e+03 3.432098007202148438e+01 -1.147663974761962891e+01 -3.991860449314117432e-01 5.645538568496704102e-01 4.961035028100013733e-02 8.615954518318176270e-01
3.068000000000000000e+03 8.841466903686523438e+00 -2.594029808044433594e+01 -1.576126180589199066e-02 -7.341913878917694092e-03 -6.930952426046133041e-03 -1.628850996494293213e-01
3.069000000000000000e+03 9.798099517822265625e+00 -2.897201919555664062e+01 -4.946213215589523315e-02 -9.168849140405654907e-02 -4.234518483281135559e-02 -1.450992077589035034e-01
3.070000000000000000e+03 6.591082000732421875e+01 2.240161895751953125e+01 -4.945079982280731201e-01 2.190766334533691406e+00 5.088775157928466797e-01 1.612364649772644043e+00
3.071000000000000000e+03 6.145092391967773438e+01 6.548545956611633301e-01 -2.538690567016601562e-01 6.263553619384765625e+00 1.802905440330505371e+00 -1.402620315551757812e+00
3.072000000000000000e+03 6.642257690429687500e+01 1.933867454528808594e+00 4.763891100883483887e-01 3.081205606460571289e+00 1.067278385162353516e+00 1.676769614219665527e+00
3.073000000000000000e+03 5.584086608886718750e+01 3.238573551177978516e+00 -3.273918628692626953e-01 5.094147205352783203e+00 1.430026650428771973e+00 1.699953198432922363e+00
3.074000000000000000e+03 5.387127304077148438e+01 2.585661411285400391e+00 1.142559424042701721e-01 5.076310634613037109e+00 1.557169914245605469e+00 3.762878894805908203e+00
3.075000000000000000e+03 5.013544845581054688e+01 3.374921083450317383e+00 -5.010210275650024414e-01 3.984127044677734375e+00 1.044931769371032715e+00 5.041669607162475586e-01
3.076000000000000000e+03 6.223726654052734375e+01 5.325964927673339844e+00 -7.783106565475463867e-01 3.747994899749755859e+00 8.909053206443786621e-01 -1.470915913581848145e+00
3.077000000000000000e+03 6.056150436401367188e+01 4.944686889648437500e+00 -6.924502253532409668e-01 5.174248218536376953e+00 1.344539403915405273e+00 -1.562414646148681641e+00
3.078000000000000000e+03 5.011988067626953125e+01 1.622493982315063477e+00 1.862725615501403809e+00 6.332108497619628906e+00 2.458450078964233398e+00 1.319473624229431152e+00
3.079000000000000000e+03 5.693696594238281250e+01 6.237804889678955078e+00 8.236465603113174438e-02 7.605887889862060547e+00 2.306475639343261719e+00 -5.603814125061035156e-02
3.080000000000000000e+03 5.593899154663085938e+01 5.905841827392578125e+00 -1.603240668773651123e-01 8.034504890441894531e+00 2.362254381179809570e+00 8.937497735023498535e-01
3.081000000000000000e+03 4.962248611450195312e+01 -1.137400627136230469e+01 2.349130868911743164e+00 7.105186939239501953e+00 2.836295366287231445e+00 7.401101589202880859e-01
3.082000000000000000e+03 3.855991744995117188e+01 1.725919532775878906e+01 5.554974079132080078e-01 1.564340472221374512e+00 6.359513401985168457e-01 -1.632183074951171875e+00
3.083000000000000000e+03 7.362123870849609375e+01 -3.040952301025390625e+01 5.670102238655090332e-01 5.432452201843261719e+00 1.799838662147521973e+00 6.612678766250610352e-01
3.084000000000000000e+03 6.043509292602539062e+01 -1.260536098480224609e+01 -9.438813328742980957e-01 5.882215499877929688e+00 1.481500267982482910e+00 1.031546711921691895e+00
3.085000000000000000e+03 6.065783691406250000e+01 -1.453366565704345703e+01 -8.277143836021423340e-01 6.163992404937744141e+00 1.600883364677429199e+00 6.360701322555541992e-01
3.086000000000000000e+03 5.943544387817382812e+01 -1.318632793426513672e+01 -4.709438681602478027e-01 5.391839504241943359e+00 1.476268768310546875e+00 9.434232115745544434e-01
3.087000000000000000e+03 5.530079841613769531e+00 -2.644629287719726562e+01 -1.903555542230606079e-02 -1.150599941611289978e-01 -4.022866487503051758e-02 -3.112778067588806152e-02
3.088000000000000000e+03 5.098499679565429688e+01 1.539318323135375977e+00 1.727749705314636230e+00 5.662597656250000000e+00 2.217104196548461914e+00 2.639026880264282227e+00
3.089000000000000000e+03 5.971203613281250000e+01 5.668325424194335938e+00 -3.627654910087585449e-01 5.623731613159179688e+00 1.578289866447448730e+00 -1.515873789787292480e+00
3.090000000000000000e+03 5.793061828613281250e+01 1.610916709899902344e+01 2.001155138015747070e+00 7.542793273925781250e+00 2.863184452056884766e+00 1.070293426513671875e+00
3.091000000000000000e+03 5.863856887817382812e+01 1.706858253479003906e+01 2.244787454605102539e+00 7.209764480590820312e+00 2.836365699768066406e+00 1.246675610542297363e+00
3.092000000000000000e+03 5.241257476806640625e+01 -2.972890472412109375e+01 1.393133759498596191e+00 4.556653022766113281e+00 1.784936070442199707e+00 5.876399874687194824e-01
3.093000000000000000e+03 7.216660308837890625e+01 -2.916645622253417969e+01 7.587484717369079590e-01 4.127906799316406250e+00 1.465996503829956055e+00 1.088653445243835449e+00
3.094000000000000000e+03 3.240202331542968750e+01 -3.285991287231445312e+01 8.423518538475036621e-01 7.734849452972412109e-01 4.847510457038879395e-01 1.852177977561950684e-01
3.095000000000000000e+03 3.490646123886108398e+00 6.630980968475341797e+00 -1.112377122044563293e-01 -2.025040797889232635e-02 -3.944643586874008179e-02 6.021349132061004639e-02
3.096000000000000000e+03 6.283247756958007812e+01 -1.246469116210937500e+01 -1.216151356697082520e+00 6.691521644592285156e+00 1.642611145973205566e+00 8.417533040046691895e-01
3.097000000000000000e+03 4.092208480834960938e+01 -1.707221984863281250e+01 1.052169278264045715e-01 6.411052346229553223e-01 2.238966524600982666e-01 -1.708967834711074829e-01
3.098000000000000000e+03 4.309898757934570312e+01 -2.501597404479980469e+01 8.480276465415954590e-01 2.202522039413452148e+00 9.151648879051208496e-01 1.821786999702453613e+00
3.099000000000000000e+03 7.424832820892333984e+00 8.178604125976562500e+00 -4.193114340305328369e-01 -1.850079745054244995e-01 -1.812958270311355591e-01 2.424332648515701294e-01
3.100000000000000000e+03 7.287068843841552734e+00 5.969856739044189453e+00 -3.060178458690643311e-01 -1.224458217620849609e-01 -1.285391002893447876e-01 9.646777808666229248e-02
3.101000000000000000e+03 2.677579307556152344e+01 -2.026769256591796875e+01 4.878732860088348389e-01 9.171336889266967773e-01 4.215020835399627686e-01 1.116851419210433960e-01
3.102000000000000000e+03 2.569856452941894531e+01 -1.984608459472656250e+01 4.592321217060089111e-01 5.383003354072570801e-01 2.992597222328186035e-01 7.651995401829481125e-03
3.103000000000000000e+03 1.751355552673339844e+01 -2.008479690551757812e+01 -1.871965825557708740e-01 -3.668311983346939087e-02 -6.716390699148178101e-02 -4.012196063995361328e-01
3.104000000000000000e+03 1.966022109985351562e+01 -1.830873870849609375e+01 -7.265779376029968262e-02 -1.844535022974014282e-02 -2.733094245195388794e-02 -5.344073176383972168e-01
3.105000000000000000e+03 2.363990783691406250e+01 9.894677162170410156e+00 3.769582808017730713e-01 3.984081372618675232e-02 1.250397264957427979e-01 1.179895550012588501e-01
3.106000000000000000e+03 2.601816940307617188e+01 -1.874812507629394531e+01 3.679717183113098145e-01 4.694263935089111328e-01 2.512194216251373291e-01 -5.023171007633209229e-02
3.107000000000000000e+03 5.794651031494140625e+01 4.332067012786865234e+00 -2.300851196050643921e-01 5.545225620269775391e+00 1.594542145729064941e+00 -7.027757763862609863e-01
3.108000000000000000e+03 1.426905918121337891e+01 -6.243257999420166016e+00 6.818269193172454834e-02 1.160680130124092102e-01 5.527521297335624695e-02 -7.983379811048507690e-02
3.109000000000000000e+03 5.860301971435546875e+01 1.016326618194580078e+01 1.292751431465148926e+00 8.066493988037109375e+00 2.807773828506469727e+00 5.567588210105895996e-01
3.110000000000000000e+03 6.541699218750000000e+01 -2.885302007198333740e-01 6.458066701889038086e-01 5.053580284118652344e+00 1.709815979003906250e+00 1.379197955131530762e+00
3.111000000000000000e+03 6.526973724365234375e+01 2.296039581298828125e+00 2.573254406452178955e-01 3.343671321868896484e+00 1.080299019813537598e+00 9.490925073623657227e-01
3.112000000000000000e+03 4.420347595214843750e+01 -2.540261840820312500e+01 2.882341742515563965e-01 1.767171859741210938e+00 6.166217923164367676e-01 6.718383431434631348e-01
3.113000000000000000e+03 7.437618255615234375e+01 2.633341789245605469e+00 -3.189043998718261719e-01 5.786545753479003906e+00 1.640292406082153320e+00 -6.717261672019958496e-01
3.114000000000000000e+03 2.677377128601074219e+01 -2.868229293823242188e+01 4.130841791629791260e-02 9.096459746360778809e-01 2.852863371372222900e-01 -1.313066929578781128e-01
3.115000000000000000e+03 4.761419677734375000e+01 4.453055858612060547e+00 -2.971757411956787109e+00 4.995059490203857422e+00 6.069906353950500488e-01 -2.944617033004760742e+00
3.116000000000000000e+03 3.931972503662109375e+01 1.286694717407226562e+01 1.572181820869445801e+00 1.793967366218566895e+00 1.009844779968261719e+00 -1.273246169090270996e+00
3.117000000000000000e+03 1.097029876708984375e+01 -5.228897094726562500e+00 -3.402135102078318596e-03 1.198235619813203812e-02 2.574066165834665298e-03 -1.722723990678787231e-01
3.118000000000000000e+03 7.527275085449218750e+01 3.329352188110351562e+01 1.305440962314605713e-01 6.742010116577148438e+00 2.061766386032104492e+00 2.052590996026992798e-01
3.119000000000000000e+03 2.456704711914062500e+01 -1.687089920043945312e+01 8.910351432859897614e-03 1.489599980413913727e-02 7.141905371099710464e-03 -2.391319125890731812e-01
3.120000000000000000e+03 2.606120681762695312e+01 7.718676567077636719e+00 2.983542382717132568e-01 1.503946781158447266e-01 1.346246749162673950e-01 -3.484665602445602417e-02
3.121000000000000000e+03 2.642683982849121094e+01 4.813078403472900391e+00 -1.068628951907157898e-01 1.322721838951110840e-01 7.622787263244390488e-03 1.138177812099456787e-01
3.122000000000000000e+03 7.458479309082031250e+01 1.521752929687500000e+01 6.034851074218750000e-01 8.641194343566894531e+00 2.773403882980346680e+00 1.073224067687988281e+00
3.123000000000000000e+03 7.590398406982421875e+01 -3.124471855163574219e+01 9.374871104955673218e-02 6.671532154083251953e+00 2.029584407806396484e+00 3.413714766502380371e-01
3.124000000000000000e+03 7.469982147216796875e+01 -3.018701934814453125e+01 4.279972985386848450e-02 6.167140483856201172e+00 1.862982034683227539e+00 6.186810135841369629e-01
3.125000000000000000e+03 2.041031837463378906e+01 -1.789682960510253906e+01 -3.561389446258544922e-02 -4.496614262461662292e-02 -2.417401038110256195e-02 -5.232857465744018555e-01
3.126000000000000000e+03 2.066441154479980469e+01 -1.621226310729980469e+01 -2.719412446022033691e-01 -6.232007965445518494e-02 -1.002783924341201782e-01 -4.915565252304077148e-01
3.127000000000000000e+03 3.607614135742187500e+01 1.810042381286621094e+01 1.690260022878646851e-01 1.751187801361083984e+00 5.760641694068908691e-01 -1.447107672691345215e+00
3.128000000000000000e+03 7.475698852539062500e+01 2.355529022216796875e+01 -4.060646593570709229e-01 6.803909301757812500e+00 1.919353365898132324e+00 -5.292600393295288086e-01
3.129000000000000000e+03 7.587007141113281250e+01 2.477006721496582031e+01 -1.150519549846649170e-01 6.995177268981933594e+00 2.064037561416625977e+00 -4.516822099685668945e-01
3.130000000000000000e+03 7.260718536376953125e+01 2.622686958312988281e+01 5.160070061683654785e-01 5.456118583679199219e+00 1.791637659072875977e+00 -5.940071344375610352e-01
3.131000000000000000e+03 7.572383117675781250e+01 2.599291610717773438e+01 1.032597757875919342e-02 6.792199611663818359e+00 2.040757656097412109e+00 -4.384029507637023926e-01
3.132000000000000000e+03 7.333406829833984375e+01 1.913475418090820312e+01 -1.464489102363586426e+00 7.500420570373535156e+00 1.810779452323913574e+00 6.727327406406402588e-02
3.133000000000000000e+03 7.821675109863281250e+01 -2.494368171691894531e+01 -5.212893709540367126e-02 7.437516212463378906e+00 2.215616226196289062e+00 -6.037443280220031738e-01
3.134000000000000000e+03 7.327497100830078125e+01 5.516658782958984375e+00 -4.210614785552024841e-02 6.339653968811035156e+00 1.889264345169067383e+00 5.218918249011039734e-02
3.135000000000000000e+03 7.219121551513671875e+01 3.315027236938476562e+00 6.453651934862136841e-02 4.433802127838134766e+00 1.349501609802246094e+00 5.210409760475158691e-01
3.136000000000000000e+03 7.354502868652343750e+01 3.639292478561401367e+00 -1.834382116794586182e-01 5.531985759735107422e+00 1.604564189910888672e+00 -2.358061373233795166e-01
3.137000000000000000e+03 7.601010894775390625e+01 1.960102272033691406e+01 -7.207987904548645020e-01 7.637576580047607422e+00 2.075033426284790039e+00 5.038204789161682129e-01
3.138000000000000000e+03 7.461385345458984375e+01 2.103898620605468750e+01 -9.789801239967346191e-01 7.246869564056396484e+00 1.880366802215576172e+00 -1.631755232810974121e-01
3.139000000000000000e+03 7.511591339111328125e+01 7.885508060455322266e+00 3.553889691829681396e-01 7.491174697875976562e+00 2.353969097137451172e+00 -7.304159998893737793e-01
3.140000000000000000e+03 7.431245422363281250e+01 6.942600250244140625e+00 5.709957703948020935e-02 7.402149677276611328e+00 2.237774848937988281e+00 -5.504049062728881836e-01
3.141000000000000000e+03 7.566662597656250000e+01 9.047071456909179688e+00 5.685716867446899414e-01 7.544903755187988281e+00 2.434042692184448242e+00 -8.009604215621948242e-01
3.142000000000000000e+03 7.412226104736328125e+01 1.005288124084472656e+01 1.537672638893127441e+00 9.130652427673339844e+00 3.200497627258300781e+00 -1.709039881825447083e-02
3.143000000000000000e+03 7.430365753173828125e+01 2.990956306457519531e+01 4.495345652103424072e-01 6.195736885070800781e+00 1.993581414222717285e+00 1.676109619438648224e-02
3.144000000000000000e+03 7.586338806152343750e+01 2.088284111022949219e+01 -7.486706972122192383e-01 7.524306297302246094e+00 2.032690763473510742e+00 1.847776323556900024e-01
3.145000000000000000e+03 7.465508270263671875e+01 2.232972908020019531e+01 -7.623938322067260742e-01 6.934002399444580078e+00 1.851482629776000977e+00 -3.371211588382720947e-01
3.146000000000000000e+03 7.251421356201171875e+01 -3.061847305297851562e+01 8.264465332031250000e-01 4.844593048095703125e+00 1.701311945915222168e+00 4.639893770217895508e-01
3.147000000000000000e+03 7.473925018310546875e+01 3.426757049560546875e+01 9.375075250864028931e-02 6.720354557037353516e+00 2.044231414794921875e+00 2.709041535854339600e-01
3.148000000000000000e+03 7.216025543212890625e+01 -3.555142211914062500e+01 5.093486309051513672e-01 5.859738349914550781e+00 1.910726070404052734e+00 -9.485515952110290527e-01
3.149000000000000000e+03 7.502313232421875000e+01 -3.313343048095703125e+01 4.643554091453552246e-01 6.289765834808349609e+00 2.026236295700073242e+00 -1.092243194580078125e-02
3.150000000000000000e+03 3.884251022338867188e+01 1.593133831024169922e+01 9.627438187599182129e-01 1.661521911621093750e+00 7.872797250747680664e-01 -1.570021033287048340e+00
3.151000000000000000e+03 3.935624313354492188e+01 1.475340461730957031e+01 1.309779644012451172e+00 1.914581060409545898e+00 9.673082232475280762e-01 -1.502952814102172852e+00
3.152000000000000000e+03 7.367442321777343750e+01 3.165679168701171875e+01 4.055466055870056152e-01 6.169047355651855469e+00 1.972378134727478027e+00 2.389940470457077026e-01
3.153000000000000000e+03 7.570544433593750000e+01 3.113484764099121094e+01 2.207079529762268066e-01 6.758038997650146484e+00 2.093624114990234375e+00 2.574203908443450928e-02
3.154000000000000000e+03 4.347290420532226562e+01 -1.806982994079589844e+01 9.006221294403076172e-01 3.092359066009521484e+00 1.197894334793090820e+00 1.136496424674987793e+00
3.155000000000000000e+03 4.277505493164062500e+01 -1.893160629272460938e+01 1.084146022796630859e+00 2.781673669815063477e+00 1.159745931625366211e+00 9.570262432098388672e-01
3.156000000000000000e+03 5.218164920806884766e+00 -2.895121574401855469e+01 -5.187021940946578979e-02 -2.206518501043319702e-01 -8.175662159919738770e-02 -5.052083730697631836e-02
3.157000000000000000e+03 3.882523775100708008e+00 -1.100066184997558594e+01 1.360859163105487823e-02 -1.545500159263610840e-01 -4.228242859244346619e-02 -2.457054331898689270e-02
3.158000000000000000e+03 5.201588630676269531e+00 -2.797639846801757812e+01 -4.268170148134231567e-02 -1.823827177286148071e-01 -6.751932948827743530e-02 -4.002856090664863586e-02
3.159000000000000000e+03 4.128618240356445312e+00 -2.788485336303710938e+01 -2.458788082003593445e-02 -2.888235151767730713e-01 -9.402341395616531372e-02 -9.721126407384872437e-03
3.160000000000000000e+03 7.122905731201171875e+01 6.213720798492431641e+00 1.475999653339385986e-01 5.775077819824218750e+00 1.776803255081176758e+00 1.803938150405883789e+00
3.161000000000000000e+03 3.372525930404663086e+00 -2.317617225646972656e+01 1.071830466389656067e-01 -2.887565195560455322e-01 -5.447204783558845520e-02 -4.060999676585197449e-02
3.162000000000000000e+03 5.613698005676269531e+00 2.083197212219238281e+01 1.034417822957038879e-01 -4.556594789028167725e-01 -1.056653037667274475e-01 4.604773223400115967e-02
3.163000000000000000e+03 4.016136169433593750e+00 1.846801567077636719e+01 1.200790181756019592e-01 -5.456268787384033203e-01 -1.276643574237823486e-01 1.099119931459426880e-01
3.164000000000000000e+03 4.601354598999023438e+00 1.095816612243652344e+01 -1.217245683073997498e-01 -1.934361904859542847e-01 -9.454822540283203125e-02 3.681570887565612793e-01
3.165000000000000000e+03 4.891586780548095703e+00 1.900212669372558594e+01 1.479378193616867065e-01 -4.941732287406921387e-01 -1.038706228137016296e-01 1.029476076364517212e-01
3.166000000000000000e+03 3.548048973083496094e+00 -2.742719268798828125e+01 -1.406185422092676163e-02 -3.223127424716949463e-01 -1.009123772382736206e-01 1.253994560102000833e-04
3.167000000000000000e+03 6.523758411407470703e+00 1.602341270446777344e+01 3.085223734378814697e-01 -3.096066713333129883e-01 -3.252873430028557777e-04 3.340381085872650146e-01
3.168000000000000000e+03 5.950314998626708984e+00 1.416940307617187500e+01 1.406697332859039307e-01 -3.201757371425628662e-01 -5.385180190205574036e-02 4.412720501422882080e-01
3.169000000000000000e+03 5.047475337982177734e+00 -3.557264709472656250e+01 1.230861805379390717e-02 -3.620457351207733154e-01 -1.049211323261260986e-01 -9.257711470127105713e-02
3.170000000000000000e+03 7.991188049316406250e+00 -3.341706085205078125e+01 -2.153679728507995605e-02 -1.589755564928054810e-01 -5.415370687842369080e-02 -1.327704936265945435e-01
3.171000000000000000e+03 4.028862476348876953e+00 9.418837547302246094e+00 -1.471001505851745605e-01 -1.190445348620414734e-01 -7.984340935945510864e-02 2.625200748443603516e-01
3.172000000000000000e+03 6.096408843994140625e+00 1.205054378509521484e+01 -7.815046608448028564e-02 -2.366583943367004395e-01 -9.444265812635421753e-02 4.748681783676147461e-01
3.173000000000000000e+03 5.759889125823974609e+00 9.839904785156250000e+00 -2.513228654861450195e-01 -1.547491103410720825e-01 -1.218215972185134888e-01 3.557595908641815186e-01
3.174000000000000000e+03 7.372181701660156250e+01 3.494686508178710938e+01 1.181340776383876801e-02 6.507960319519042969e+00 1.955932140350341797e+00 3.724918067455291748e-01
3.175000000000000000e+03 7.213549041748046875e+01 3.401177597045898438e+01 1.661585569381713867e-01 5.978615760803222656e+00 1.843432188034057617e+00 4.682378172874450684e-01
3.176000000000000000e+03 4.833231925964355469e+00 -8.502409934997558594e+00 5.195079836994409561e-03 -1.390233039855957031e-01 -4.014846682548522949e-02 -5.867356434464454651e-02
3.177000000000000000e+03 3.983891963958740234e+00 5.487055301666259766e+00 -1.207246631383895874e-01 -1.390051934868097305e-02 -4.038755595684051514e-02 1.141120307147502899e-02
3.178000000000000000e+03 4.818843364715576172e+00 7.104617118835449219e+00 -2.002630382776260376e-01 -6.168244034051895142e-02 -7.858364284038543701e-02 1.166322529315948486e-01
3.179000000000000000e+03 5.132618331909179688e+01 2.388743019104003906e+01 -4.891335219144821167e-02 4.532036304473876953e+00 1.344936847686767578e+00 -8.657330274581909180e-01
3.180000000000000000e+03 6.584031581878662109e+00 -5.551349163055419922e+00 5.920440889894962311e-04 -6.844338029623031616e-02 -2.035540156066417694e-02 -8.744250982999801636e-02
3.181000000000000000e+03 4.423532009124755859e+00 -6.033761024475097656e+00 -5.982458591461181641e-03 -9.878221899271011353e-02 -3.142940253019332886e-02 -6.141940131783485413e-02
3.182000000000000000e+03 5.906952667236328125e+01 7.199345111846923828e+00 1.032213270664215088e-01 6.537918567657470703e+00 1.992341995239257812e+00 -6.879554390907287598e-01
3.183000000000000000e+03 2.265024757385253906e+01 8.823069572448730469e+00 4.027563035488128662e-01 -2.352883853018283844e-02 1.137682422995567322e-01 1.672464162111282349e-01
3.184000000000000000e+03 2.380949592590332031e+01 1.094077491760253906e+01 2.788386642932891846e-01 1.284008026123046875e-01 1.221718415617942810e-01 1.296778619289398193e-01
3.185000000000000000e+03 6.796688079833984375e+00 -1.198432540893554688e+01 -5.000247061252593994e-02 -2.002798616886138916e-01 -7.508470118045806885e-02 -9.679424762725830078e-02
3.186000000000000000e+03 4.935673904418945312e+01 3.469790697097778320e+00 -1.441484808921813965e+00 4.719482898712158203e+00 9.833995103836059570e-01 -4.177884757518768311e-01
3.187000000000000000e+03 3.594445800781250000e+01 1.568007373809814453e+01 7.321342825889587402e-01 1.208174467086791992e+00 5.820926427841186523e-01 -1.196752071380615234e+00
3.188000000000000000e+03 3.461002349853515625e+01 -1.028863048553466797e+01 1.367265731096267700e-02 6.147798895835876465e-01 1.885357648134231567e-01 8.125818967819213867e-01
3.189000000000000000e+03 5.330687713623046875e+01 2.280813980102539062e+01 -1.604257225990295410e+00 5.279716968536376953e+00 1.102637887001037598e+00 -1.986511826515197754e+00
3.190000000000000000e+03 5.655246353149414062e+01 1.871027183532714844e+01 3.627425432205200195e-01 4.863969802856445312e+00 1.568013668060302734e+00 -1.152198791503906250e+00
3.191000000000000000e+03 5.212217712402343750e+01 2.456199836730957031e+01 2.056075260043144226e-02 5.295990467071533203e+00 1.594965457916259766e+00 -9.955042600631713867e-01
3.192000000000000000e+03 2.811842346191406250e+01 -2.704482841491699219e+01 -3.425493091344833374e-02 1.002429127693176270e+00 2.904522716999053955e-01 -1.748654097318649292e-01
3.193000000000000000e+03 6.159748077392578125e+01 -1.777854347229003906e+01 4.992611110210418701e-01 6.287243366241455078e+00 2.035951375961303711e+00 -6.802899241447448730e-01
3.194000000000000000e+03 1.166381931304931641e+01 -2.606710052490234375e+01 4.130439832806587219e-02 -1.767453849315643311e-01 -4.063229635357856750e-02 -2.103878110647201538e-01
3.195000000000000000e+03 5.376815032958984375e+01 -1.306665039062500000e+01 -2.332339435815811157e-02 4.095385074615478516e+00 1.221618413925170898e+00 -3.184384346008300781e+00
3.196000000000000000e+03 5.425742340087890625e+01 -1.403553009033203125e+01 -1.045271039009094238e+00 4.876265048980712891e+00 1.149298191070556641e+00 -3.091038703918457031e+00
3.197000000000000000e+03 5.617817306518554688e+01 -1.395773696899414062e+01 -4.819643795490264893e-01 4.798131465911865234e+00 1.294850230216979980e+00 -1.860481858253479004e+00
3.198000000000000000e+03 2.072458076477050781e+01 -2.349990463256835938e+01 2.483857870101928711e-01 9.518051147460937500e-02 1.030698865652084351e-01 -1.078231334686279297e-01
3.199000000000000000e+03 5.219937896728515625e+01 -1.161917209625244141e+01 1.078798174858093262e+00 4.740554809570312500e+00 1.745805859565734863e+00 -1.648048400878906250e+00
3.200000000000000000e+03 2.655219841003417969e+01 3.239154815673828125e+01 3.903718292713165283e-01 9.697937369346618652e-01 4.080496728420257568e-01 -2.480266541242599487e-01
3.201000000000000000e+03 2.375154304504394531e+01 3.633798980712890625e+01 2.876425720751285553e-02 8.230963349342346191e-01 2.555581927299499512e-01 -1.854749470949172974e-01
3.202000000000000000e+03 5.052420043945312500e+01 2.593231391906738281e+01 1.508908271789550781e+00 4.617576599121093750e+00 1.837945461273193359e+00 -2.071657031774520874e-01
3.203000000000000000e+03 4.256595993041992188e+01 1.332871818542480469e+01 1.815845131874084473e+00 4.982271671295166016e+00 2.039434909820556641e+00 -1.279853343963623047e+00
3.204000000000000000e+03 4.210017395019531250e+01 1.494780445098876953e+01 1.332424879074096680e+00 4.004899978637695312e+00 1.601197481155395508e+00 -1.242681264877319336e+00
3.205000000000000000e+03 2.917426490783691406e+01 -2.863791275024414062e+01 -2.724799513816833496e-02 9.072370529174804688e-01 2.639967203140258789e-01 -2.576802372932434082e-01
3.206000000000000000e+03 2.491568183898925781e+01 -2.492508506774902344e+01 3.019986748695373535e-01 6.835429072380065918e-01 2.956624925136566162e-01 2.909396588802337646e-02
3.207000000000000000e+03 5.963238143920898438e+01 3.931386709213256836e+00 -4.574010372161865234e-01 5.347120285034179688e+00 1.466915845870971680e+00 -1.773363351821899414e+00
3.208000000000000000e+03 6.083014678955078125e+01 -2.021756172180175781e+01 2.557088851928710938e+00 5.190295696258544922e+00 2.324215412139892578e+00 -9.758855700492858887e-01
3.209000000000000000e+03 6.262498474121093750e+01 -1.703535079956054688e+01 -4.123472273349761963e-01 6.644463539123535156e+00 1.869634866714477539e+00 -3.443477749824523926e-01
3.210000000000000000e+03 5.637027740478515625e+01 4.817917346954345703e+00 -7.434830069541931152e-01 6.688113212585449219e+00 1.783389091491699219e+00 5.495880842208862305e-01
3.211000000000000000e+03 5.375594615936279297e+00 1.796130752563476562e+01 2.234152257442474365e-01 -4.353129565715789795e-01 -6.356931477785110474e-02 1.613995581865310669e-01
3.212000000000000000e+03 7.201592254638671875e+01 1.909482717514038086e+00 1.458660811185836792e-01 3.456382751464843750e+00 1.080674648284912109e+00 2.866939008235931396e-01
3.213000000000000000e+03 6.010813140869140625e+01 -1.946324920654296875e+01 2.258985757827758789e+00 5.345946311950683594e+00 2.281479597091674805e+00 -7.622640728950500488e-01
3.214000000000000000e+03 7.094137573242187500e+01 4.882906436920166016e+00 1.205586194992065430e-01 4.349532604217529297e+00 1.341027379035949707e+00 1.553333997726440430e+00
3.215000000000000000e+03 7.278118896484375000e+01 6.754599094390869141e+00 1.263171434402465820e-01 7.001679897308349609e+00 2.138399124145507812e+00 2.913228571414947510e-01
3.216000000000000000e+03 5.684026336669921875e+01 2.043547630310058594e+01 -3.660570383071899414e-01 3.645552158355712891e+00 9.838485717773437500e-01 -1.858439326286315918e+00
3.217000000000000000e+03 5.752901077270507812e+01 1.781815147399902344e+01 1.248962283134460449e+00 5.794505596160888672e+00 2.113040447235107422e+00 -1.859345436096191406e-01
3.218000000000000000e+03 3.681293106079101562e+01 -3.647206115722656250e+01 -2.280203402042388916e-01 2.700727701187133789e+00 7.418122291564941406e-01 6.606994867324829102e-01
3.219000000000000000e+03 4.521727752685546875e+01 3.683721542358398438e+01 -5.922173261642456055e-01 2.824112176895141602e+00 6.695684790611267090e-01 -8.496669530868530273e-01
3.220000000000000000e+03 7.007775115966796875e+01 -3.095568656921386719e+01 2.064573526382446289e+00 4.121701717376708984e+00 1.855882525444030762e+00 -8.392524123191833496e-01
3.221000000000000000e+03 6.933043670654296875e+01 -3.373741149902343750e+01 1.265532255172729492e+00 5.717147350311279297e+00 2.094803810119628906e+00 -1.556097745895385742e+00
3.222000000000000000e+03 9.899586677551269531e+00 -9.926914215087890625e+00 -2.725603431463241577e-02 -1.117439121007919312e-01 -4.169998317956924438e-02 -1.355320662260055542e-01
3.223000000000000000e+03 6.283855438232421875e+00 -1.096425533294677734e+01 -2.058387920260429382e-02 -2.217141538858413696e-01 -7.268940657377243042e-02 -7.547841966152191162e-02
3.224000000000000000e+03 5.475722885131835938e+01 1.852050590515136719e+01 -6.534298062324523926e-01 4.802709102630615234e+00 1.244783759117126465e+00 -1.953494548797607422e+00
3.225000000000000000e+03 5.574010467529296875e+01 1.772139739990234375e+01 4.566560685634613037e-01 5.299147129058837891e+00 1.726740956306457520e+00 -1.243108749389648438e+00
3.226000000000000000e+03 5.226743698120117188e+01 -1.265801620483398438e+01 5.961022973060607910e-01 3.741206169128417969e+00 1.301192522048950195e+00 -2.108242750167846680e+00
3.227000000000000000e+03 2.793913459777832031e+01 -3.099588775634765625e+01 1.250287741422653198e-01 8.825009465217590332e-01 3.022589087486267090e-01 -2.037195265293121338e-01
3.228000000000000000e+03 2.890655708312988281e+01 -3.520448684692382812e+01 3.241259455680847168e-01 9.206462502479553223e-01 3.734316825866699219e-01 1.283010989427566528e-01
3.229000000000000000e+03 1.114824485778808594e+01 2.020707321166992188e+01 2.848016917705535889e-01 1.544031649827957153e-01 1.317614465951919556e-01 2.638909816741943359e-01
3.230000000000000000e+03 4.721166229248046875e+01 3.479398345947265625e+01 -4.316120147705078125e-01 3.794761419296264648e+00 1.008944869041442871e+00 -8.528616428375244141e-01
3.231000000000000000e+03 3.500270843505859375e+01 -3.876453018188476562e+01 -4.230359792709350586e-01 2.124332427978515625e+00 5.103889107704162598e-01 4.548496901988983154e-01
3.232000000000000000e+03 1.499733352661132812e+01 4.005011749267578125e+01 7.795833051204681396e-02 1.240299120545387268e-01 6.059647351503372192e-02 3.992654383182525635e-02
3.233000000000000000e+03 1.132242870330810547e+01 3.853162765502929688e+01 3.327369224280118942e-03 2.425528317689895630e-02 8.274795487523078918e-03 1.234953925013542175e-01
3.234000000000000000e+03 5.318627834320068359e+00 3.895550918579101562e+01 -2.329526003450155258e-03 -4.352721273899078369e-01 -1.312804967164993286e-01 1.077747251838445663e-02
3.235000000000000000e+03 4.746393203735351562e+01 3.670396041870117188e+01 -7.876553535461425781e-01 3.608853578567504883e+00 8.463594913482666016e-01 -6.744594573974609375e-01
3.236000000000000000e+03 6.921313476562500000e+01 2.465263366699218750e+00 5.646380782127380371e-01 2.237565994262695312e+00 8.406612277030944824e-01 2.204697608947753906e+00
3.237000000000000000e+03 5.139294433593750000e+01 2.527048110961914062e+01 9.163267016410827637e-01 5.017383098602294922e+00 1.780112862586975098e+00 -3.439061045646667480e-01
3.238000000000000000e+03 3.095375061035156250e+01 3.171481704711914062e+01 3.615337014198303223e-01 1.878563523292541504e+00 6.720291972160339355e-01 -6.430794000625610352e-01
3.239000000000000000e+03 2.902563095092773438e+01 3.346128463745117188e+01 2.085263580083847046e-01 1.411052584648132324e+00 4.858736991882324219e-01 -4.419313371181488037e-01
3.240000000000000000e+03 2.147548103332519531e+01 3.712468719482421875e+01 3.296197205781936646e-02 5.626179575920104980e-01 1.786739826202392578e-01 -1.521553099155426025e-01
3.241000000000000000e+03 2.765704345703125000e+01 3.429560852050781250e+01 1.410610526800155640e-01 1.241150975227355957e+00 4.146636128425598145e-01 -3.022974729537963867e-01
3.242000000000000000e+03 3.065953636169433594e+01 3.776244735717773438e+01 -2.995131909847259521e-01 1.580387473106384277e+00 3.842622637748718262e-01 -9.336552023887634277e-02
3.243000000000000000e+03 3.317974853515625000e+01 3.862072372436523438e+01 -3.333613574504852295e-01 1.596584916114807129e+00 3.789670467376708984e-01 2.165905945003032684e-02
3.244000000000000000e+03 7.217359161376953125e+01 4.099639892578125000e+01 -3.298677802085876465e-01 6.321016311645507812e+00 1.797344565391540527e+00 1.214609667658805847e-01
3.245000000000000000e+03 7.253381729125976562e+00 1.871425819396972656e+01 2.896890044212341309e-01 -2.689032554626464844e-01 6.235726177692413330e-03 1.408998221158981323e-01
3.246000000000000000e+03 5.812830734252929688e+01 1.874677848815917969e+01 1.005465507507324219e+00 5.460977077484130859e+00 1.939932823181152344e+00 2.347882241010665894e-01
3.247000000000000000e+03 2.630273437500000000e+01 -1.761025238037109375e+01 1.521204262971878052e-01 4.499102532863616943e-01 1.806091964244842529e-01 -2.041833847761154175e-02
3.248000000000000000e+03 2.402202606201171875e+01 -2.422332763671875000e+01 3.250964283943176270e-01 4.690881073474884033e-01 2.382553517818450928e-01 -2.928295731544494629e-02
3.249000000000000000e+03 6.942799377441406250e+01 3.344329452514648438e+01 2.906263470649719238e-01 5.492343425750732422e+00 1.734890937805175781e+00 7.329261898994445801e-01
3.250000000000000000e+03 9.049613952636718750e+00 -3.232487487792968750e+01 -4.346541315317153931e-02 -1.127481982111930847e-01 -4.686408489942550659e-02 -1.316636353731155396e-01
3.251000000000000000e+03 4.813630294799804688e+01 2.401938819885253906e+01 6.941192150115966797e-01 3.861118078231811523e+00 1.366571187973022461e+00 2.737756073474884033e-01
3.252000000000000000e+03 3.267283630371093750e+01 -1.248094272613525391e+01 -5.852643251419067383e-01 5.527071356773376465e-01 -9.767144918441772461e-03 8.502120971679687500e-01
3.253000000000000000e+03 6.484272003173828125e+01 2.244053268432617188e+01 -1.161610245704650879e+00 3.833047151565551758e+00 8.014311194419860840e-01 2.690805912017822266e+00
3.254000000000000000e+03 6.690618896484375000e+01 2.406002998352050781e+01 7.767741084098815918e-01 2.894598960876464844e+00 1.101411938667297363e+00 5.056661963462829590e-01
3.255000000000000000e+03 4.078437042236328125e+01 1.460206413269042969e+01 1.427980661392211914e+00 2.815792798995971680e+00 1.273132085800170898e+00 -1.517195105552673340e+00
3.256000000000000000e+03 4.067500305175781250e+01 1.620215415954589844e+01 8.952109217643737793e-01 2.533597230911254883e+00 1.028642416000366211e+00 -1.439836144447326660e+00
3.257000000000000000e+03 7.106587219238281250e+01 3.241174316406250000e+01 4.656195640563964844e-01 5.662313938140869141e+00 1.838380098342895508e+00 5.288261175155639648e-01
3.258000000000000000e+03 7.601128578186035156e+00 1.687515258789062500e+01 4.201484918594360352e-01 -1.957491040229797363e-01 6.731981784105300903e-02 2.694227397441864014e-01
3.259000000000000000e+03 4.222823715209960938e+01 1.747371864318847656e+01 7.842665910720825195e-02 3.098026990890502930e+00 9.529361128807067871e-01 -6.235969066619873047e-01
3.260000000000000000e+03 1.059500312805175781e+01 -2.965942001342773438e+01 -6.154586002230644226e-02 -8.696485310792922974e-02 -4.455321282148361206e-02 -1.300808340311050415e-01
3.261000000000000000e+03 6.259513854980468750e+00 -3.084496879577636719e+01 -5.042836815118789673e-02 -2.028373032808303833e-01 -7.597970217466354370e-02 -8.780403435230255127e-02
3.262000000000000000e+03 5.222784042358398438e+01 -3.250196838378906250e+01 2.509031295776367188e+00 5.729735851287841797e+00 2.471630096435546875e+00 5.943387746810913086e-01
3.263000000000000000e+03 4.711380386352539062e+01 2.255357980728149414e+00 -2.219473570585250854e-01 7.109164237976074219e+00 2.066164970397949219e+00 -3.712604522705078125e+00
3.264000000000000000e+03 4.775050735473632812e+01 1.955347418785095215e+00 -5.399968847632408142e-02 8.286280632019042969e+00 2.469684362411499023e+00 -2.827711343765258789e+00
3.265000000000000000e+03 4.735513687133789062e+01 1.722715139389038086e+00 4.991413652896881104e-01 8.089336395263671875e+00 2.576543331146240234e+00 -3.631461620330810547e+00
3.266000000000000000e+03 4.839540863037109375e+01 2.007969856262207031e+00 9.065219014883041382e-02 8.154065132141113281e+00 2.473415374755859375e+00 -1.482644438743591309e+00
3.267000000000000000e+03 4.803305435180664062e+01 2.309478044509887695e+00 -2.175425589084625244e-01 7.914755821228027344e+00 2.309164047241210938e+00 -2.311202287673950195e+00
3.268000000000000000e+03 4.829196166992187500e+01 2.841555833816528320e+00 -9.950203299522399902e-01 6.699637889862060547e+00 1.711385369300842285e+00 -1.907810807228088379e+00
3.269000000000000000e+03 8.037668228149414062e+00 5.460454940795898438e+00 -3.230343163013458252e-01 -1.451727747917175293e-01 -1.404621303081512451e-01 9.405836462974548340e-02
3.270000000000000000e+03 7.256424427032470703e+00 -6.109154701232910156e+00 1.446925569325685501e-02 -1.364926993846893311e-01 -3.660703450441360474e-02 -1.067764312028884888e-01
3.271000000000000000e+03 5.989091396331787109e+00 -4.993831634521484375e+00 -3.301193006336688995e-03 -1.070764884352684021e-01 -3.311330452561378479e-02 -9.305617213249206543e-02
3.272000000000000000e+03 5.306058406829833984e+00 -5.585250854492187500e+00 5.284150596708059311e-03 -5.855761468410491943e-02 -1.598203927278518677e-02 -6.117183715105056763e-02
3.273000000000000000e+03 4.682734012603759766e+00 -7.230003833770751953e+00 3.045118041336536407e-02 -9.490080922842025757e-02 -1.933488994836807251e-02 -4.248054698109626770e-02
3.274000000000000000e+03 5.654354572296142578e+00 6.750145435333251953e+00 -2.504022717475891113e-01 -7.723709195852279663e-02 -9.829180687665939331e-02 1.151129826903343201e-01
3.275000000000000000e+03 4.775918960571289062e+00 5.142805099487304688e+00 -1.365175247192382812e-01 -3.122554160654544830e-02 -5.032292008399963379e-02 9.069701656699180603e-03
3.276000000000000000e+03 7.413919925689697266e+00 4.827792167663574219e+00 -2.311437726020812988e-01 -9.004366397857666016e-02 -9.635622799396514893e-02 3.154944255948066711e-02
3.277000000000000000e+03 6.015869140625000000e+00 5.514370918273925781e+00 -2.108100652694702148e-01 -6.773831695318222046e-02 -8.356451243162155151e-02 4.533146694302558899e-02
3.278000000000000000e+03 9.792559623718261719e+00 -7.143663406372070312e+00 4.382692743092775345e-03 -1.071249023079872131e-01 -3.082266263663768768e-02 -1.651105284690856934e-01
3.279000000000000000e+03 1.045838928222656250e+01 -4.769354343414306641e+00 5.439549684524536133e-03 -9.362944215536117554e-02 -2.645696885883808136e-02 -1.029946133494377136e-01
3.280000000000000000e+03 8.677867889404296875e+00 6.248852729797363281e+00 -4.116640090942382812e-01 -2.071238458156585693e-01 -1.856363564729690552e-01 1.489481627941131592e-01
3.281000000000000000e+03 2.495652961730957031e+01 5.967476844787597656e+00 5.704988539218902588e-02 -3.305146470665931702e-02 7.199526298791170120e-03 5.809807777404785156e-02
3.282000000000000000e+03 2.338278007507324219e+01 5.872768878936767578e+00 -1.358680706471204758e-02 -1.136340871453285217e-01 -3.816626965999603271e-02 7.783669233322143555e-02
3.283000000000000000e+03 2.352464103698730469e+01 5.094979763031005859e+00 -2.663396000862121582e-01 -1.341464221477508545e-01 -1.201458051800727844e-01 1.022818833589553833e-01
3.284000000000000000e+03 1.241161537170410156e+01 -5.011375904083251953e+00 2.127276174724102020e-02 3.651998564600944519e-02 1.733782514929771423e-02 -1.205318272113800049e-01
3.285000000000000000e+03 1.463342666625976562e+01 -5.046925544738769531e+00 5.192139372229576111e-02 7.932436466217041016e-02 3.937372937798500061e-02 -1.957456022500991821e-02
3.286000000000000000e+03 4.532361221313476562e+01 5.872030258178710938e+00 -1.791936516761779785e+00 5.501963615417480469e+00 1.113008141517639160e+00 -2.150573015213012695e+00
3.287000000000000000e+03 4.668652343750000000e+01 4.244522094726562500e+00 -2.084430217742919922e+00 5.903596878051757812e+00 1.145749926567077637e+00 -3.579269409179687500e+00
3.288000000000000000e+03 4.396101379394531250e+01 4.977200984954833984e+00 -1.069193363189697266e+00 4.375181198120117188e+00 9.917963743209838867e-01 -2.496220350265502930e+00
3.289000000000000000e+03 1.152400112152099609e+01 -5.646296501159667969e+00 4.350215569138526917e-02 -5.176207423210144043e-02 -2.477975562214851379e-03 -1.193410232663154602e-01
3.290000000000000000e+03 9.133851051330566406e+00 -4.770707130432128906e+00 2.161644957959651947e-02 -5.310280621051788330e-02 -9.445906616747379303e-03 -1.109388843178749084e-01
3.291000000000000000e+03 1.298002624511718750e+01 -7.088379383087158203e+00 3.971405699849128723e-02 7.188522070646286011e-02 3.347978368401527405e-02 -9.631392359733581543e-02
3.292000000000000000e+03 4.850751876831054688e+01 3.596737146377563477e+00 -1.284501791000366211e+00 5.145615577697753906e+00 1.158334255218505859e+00 -1.716748595237731934e+00
3.293000000000000000e+03 2.552375984191894531e+01 -2.378051948547363281e+01 3.591211438179016113e-01 7.297292351722717285e-01 3.266551196575164795e-01 4.497090727090835571e-02
3.294000000000000000e+03 4.586316299438476562e+01 2.313990116119384766e+00 1.593002825975418091e-01 5.093124389648437500e+00 1.575727462768554688e+00 -4.271752357482910156e+00
3.295000000000000000e+03 4.481641769409179688e+01 4.668626785278320312e+00 -1.540486574172973633e+00 4.949752330780029297e+00 1.022779822349548340e+00 -2.744749307632446289e+00
3.296000000000000000e+03 4.328696441650390625e+01 6.455426216125488281e+00 -6.666553616523742676e-01 4.348237037658691406e+00 1.104474425315856934e+00 -1.428801178932189941e+00
3.297000000000000000e+03 1.258286571502685547e+01 -8.088169097900390625e+00 2.941318601369857788e-02 3.980514779686927795e-02 2.076550014317035675e-02 -9.930656850337982178e-02
3.298000000000000000e+03 1.160081100463867188e+01 -4.923753738403320312e+00 -4.221514798700809479e-03 -1.174225434660911560e-01 -3.649321943521499634e-02 -1.384061127901077271e-01
3.299000000000000000e+03 4.568307113647460938e+01 4.728766918182373047e+00 -1.739618778228759766e+00 5.480869293212890625e+00 1.122375130653381348e+00 -3.377341747283935547e+00
3.300000000000000000e+03 2.613091278076171875e+01 8.826469421386718750e+00 3.182875514030456543e-01 2.366080284118652344e-01 1.664686799049377441e-01 -2.571177668869495392e-02
3.301000000000000000e+03 4.880445957183837891e+00 -4.707242965698242188e+00 -1.046155486255884171e-02 -9.049508720636367798e-02 -3.028699196875095367e-02 -7.362877577543258667e-02
3.302000000000000000e+03 2.592636871337890625e+01 6.750098705291748047e+00 2.181723415851593018e-01 1.183414906263351440e-01 1.009541526436805725e-01 -4.411870613694190979e-04
3.303000000000000000e+03 2.089495468139648438e+01 -2.033496093750000000e+01 1.552871316671371460e-01 1.034204848110675812e-02 4.968875274062156677e-02 -3.389992117881774902e-01
3.304000000000000000e+03 7.288256835937500000e+01 -3.218917846679687500e+01 1.094389438629150391e+00 5.251642704010009766e+00 1.903809785842895508e+00 -2.098127268254756927e-02
3.305000000000000000e+03 5.866311550140380859e+00 1.957716751098632812e+01 1.668389141559600830e-01 -4.178742468357086182e-01 -7.531060278415679932e-02 9.824612736701965332e-02
3.306000000000000000e+03 5.906796455383300781e+00 1.698773384094238281e+01 2.899607121944427490e-01 -3.784577548503875732e-01 -2.654911205172538757e-02 2.433392703533172607e-01
3.307000000000000000e+03 4.022240161895751953e+00 7.458425998687744141e+00 -1.555394232273101807e-01 -5.382798239588737488e-02 -6.281021982431411743e-02 1.266053169965744019e-01
3.308000000000000000e+03 4.365179538726806641e+00 6.276798248291015625e+00 -1.571332067251205444e-01 -3.614984452724456787e-02 -5.798491463065147400e-02 5.793822929263114929e-02
3.309000000000000000e+03 1.326377105712890625e+01 -6.021081924438476562e+00 6.467198580503463745e-02 6.020005792379379272e-02 3.746161237359046936e-02 -7.025497406721115112e-02
3.310000000000000000e+03 7.292420196533203125e+01 2.187676429748535156e+01 -1.141769170761108398e+00 6.266563415527343750e+00 1.537438273429870605e+00 -7.885665893554687500e-01
3.311000000000000000e+03 5.018681335449218750e+01 -1.047151756286621094e+01 2.442690610885620117e+00 7.110578060150146484e+00 2.865980625152587891e+00 7.928491234779357910e-01
3.312000000000000000e+03 1.071198558807373047e+01 4.328854560852050781e+00 -3.244055509567260742e-01 -2.228879183530807495e-01 -1.641880422830581665e-01 1.828911006450653076e-01
3.313000000000000000e+03 3.632785797119140625e+01 1.678611564636230469e+01 5.234740376472473145e-01 1.432448983192443848e+00 5.867769122123718262e-01 -1.390297293663024902e+00
3.314000000000000000e+03 4.881644248962402344e+00 -1.065156745910644531e+01 -1.455614808946847916e-02 -1.840537637472152710e-01 -5.958297476172447205e-02 -4.189132153987884521e-02
3.315000000000000000e+03 2.460618209838867188e+01 -1.943409347534179688e+01 3.481308519840240479e-01 2.213489115238189697e-01 1.708439290523529053e-01 -1.682218015193939209e-01
3.316000000000000000e+03 5.784322357177734375e+01 6.204264640808105469e+00 1.162959039211273193e-01 6.756623268127441406e+00 2.061875820159912109e+00 -4.901740252971649170e-01
3.317000000000000000e+03 5.175644683837890625e+01 2.306118774414062500e+01 -8.709385991096496582e-01 4.633585453033447266e+00 1.128794074058532715e+00 -1.453337192535400391e+00
3.318000000000000000e+03 2.508399772644042969e+01 1.059280776977539062e+01 2.892125546932220459e-01 1.794043779373168945e-01 1.405850797891616821e-01 4.129813611507415771e-02
3.319000000000000000e+03 6.201095581054687500e+01 -1.288262081146240234e+01 -1.322822690010070801e+00 6.677836418151855469e+00 1.606504082679748535e+00 9.906417131423950195e-01
3.320000000000000000e+03 3.476158523559570312e+01 -9.388809204101562500e+00 2.895773649215698242e-01 6.893630027770996094e-01 2.936821281909942627e-01 8.284265398979187012e-01
3.321000000000000000e+03 7.331838226318359375e+01 -2.898815727233886719e+01 -1.177036464214324951e-01 5.308543682098388672e+00 1.557252049446105957e+00 1.274119973182678223e+00
3.322000000000000000e+03 7.031365966796875000e+01 -3.223109436035156250e+01 1.820265769958496094e+00 4.730344772338867188e+00 1.965183138847351074e+00 -8.327357172966003418e-01
3.323000000000000000e+03 2.247642135620117188e+01 6.700402259826660156e+00 1.638565808534622192e-01 -1.003024801611900330e-01 1.906623132526874542e-02 7.742689549922943115e-02
3.324000000000000000e+03 7.352147674560546875e+01 2.089661216735839844e+01 -1.427465796470642090e+00 6.976520061492919922e+00 1.664716243743896484e+00 -4.059372246265411377e-01
3.325000000000000000e+03 7.478852081298828125e+01 2.467936325073242188e+01 -2.167061865329742432e-01 6.615258216857910156e+00 1.919565558433532715e+00 -5.663559436798095703e-01
3.326000000000000000e+03 7.452149963378906250e+01 2.568383026123046875e+01 8.660793304443359375e-02 6.311616897583007812e+00 1.919467449188232422e+00 -6.013244986534118652e-01
3.327000000000000000e+03 7.401758575439453125e+01 2.686953353881835938e+01 2.915434539318084717e-01 6.020177364349365234e+00 1.893516302108764648e+00 -4.639349579811096191e-01
3.328000000000000000e+03 7.000186920166015625e+01 2.438337707519531250e+01 2.645852565765380859e-01 3.980792284011840820e+00 1.273613214492797852e+00 -9.535912871360778809e-01
3.329000000000000000e+03 7.160297393798828125e+01 2.709128570556640625e+01 7.890909910202026367e-01 5.095221996307373047e+00 1.765293955802917480e+00 -3.661542832851409912e-01
3.330000000000000000e+03 7.409980010986328125e+01 5.578922271728515625e+00 -1.070350408554077148e-01 6.754581928253173828e+00 1.994264006614685059e+00 -4.718295633792877197e-01
3.331000000000000000e+03 7.417951202392578125e+01 4.605339050292968750e+00 -1.490198075771331787e-01 6.310842037200927734e+00 1.848546624183654785e+00 -6.259108781814575195e-01
3.332000000000000000e+03 7.345301818847656250e+01 1.376311659812927246e+00 -2.415197789669036865e-01 4.485160827636718750e+00 1.273092389106750488e+00 -5.888398289680480957e-01
3.333000000000000000e+03 6.751831054687500000e+01 2.319155311584472656e+01 2.273973077535629272e-01 1.991807818412780762e+00 6.657615303993225098e-01 2.964830957353115082e-02
3.334000000000000000e+03 6.922257232666015625e+01 2.321520423889160156e+01 -1.719525605440139771e-01 3.256273746490478516e+00 9.252963662147521973e-01 -1.217205166816711426e+00
3.335000000000000000e+03 2.180639839172363281e+01 -2.285680198669433594e+01 3.188394606113433838e-01 1.824587583541870117e-01 1.503894627094268799e-01 -8.169560134410858154e-02
3.336000000000000000e+03 2.008125877380371094e+01 -2.228603744506835938e+01 1.590826362371444702e-01 8.379398286342620850e-02 7.286298274993896484e-02 -1.717161834239959717e-01
3.337000000000000000e+03 6.332362651824951172e+00 -2.822347640991210938e+01 -5.866396054625511169e-02 -1.425994038581848145e-01 -6.037900969386100769e-02 -7.798611372709274292e-02
3.338000000000000000e+03 6.981159210205078125e+00 -2.780397987365722656e+01 -5.565727502107620239e-02 -1.047281622886657715e-01 -4.811562970280647278e-02 -9.920655936002731323e-02
3.339000000000000000e+03 5.726964950561523438e+00 -3.243275070190429688e+01 -2.819132618606090546e-02 -2.646969556808471680e-01 -8.786647766828536987e-02 -8.748570829629898071e-02
3.340000000000000000e+03 8.253258705139160156e+00 -3.145989990234375000e+01 -5.256471037864685059e-02 -1.318446099758148193e-01 -5.532279610633850098e-02 -1.250384151935577393e-01
3.341000000000000000e+03 2.370079231262207031e+01 9.002667427062988281e+00 3.600531816482543945e-01 -3.338451683521270752e-02 9.800060093402862549e-02 1.020269542932510376e-01
3.342000000000000000e+03 5.734907150268554688e+01 1.939401626586914062e+01 1.338772475719451904e-01 4.317346572875976562e+00 1.335367202758789062e+00 -1.086678266525268555e+00
3.343000000000000000e+03 2.360079193115234375e+01 -1.958284759521484375e+01 2.987785935401916504e-01 1.548132151365280151e-01 1.360775381326675415e-01 -2.338505685329437256e-01
3.344000000000000000e+03 7.096537780761718750e+01 3.582437133789062500e+01 -1.333396881818771362e-01 5.868384838104248047e+00 1.720513582229614258e+00 4.673872590065002441e-01
3.345000000000000000e+03 4.957764053344726562e+01 2.671393394470214844e+01 1.749616503715515137e+00 4.631613731384277344e+00 1.914369106292724609e+00 -7.766665425151586533e-03
3.346000000000000000e+03 6.484538078308105469e+00 8.577000617980957031e+00 -3.593739867210388184e-01 -1.426084786653518677e-01 -1.505947411060333252e-01 2.690795361995697021e-01
3.347000000000000000e+03 4.744764804840087891e+00 9.091987609863281250e+00 -2.190528959035873413e-01 -1.091124266386032104e-01 -9.844960272312164307e-02 2.642614841461181641e-01
3.348000000000000000e+03 1.041317081451416016e+01 -5.857263565063476562e+00 2.415568754076957703e-02 -1.376955658197402954e-01 -3.406196460127830505e-02 -1.343411803245544434e-01
3.349000000000000000e+03 4.811310768127441406e+00 -9.664558410644531250e+00 3.483001515269279480e-02 -1.620808392763137817e-01 -3.817524760961532593e-02 -4.087536782026290894e-02
3.350000000000000000e+03 5.770197391510009766e+00 -7.141508102416992188e+00 9.078683331608772278e-03 -1.376738101243972778e-01 -3.857853636145591736e-02 -7.918529212474822998e-02
3.351000000000000000e+03 5.732994842529296875e+01 5.319843769073486328e+00 -4.087309837341308594e-01 6.757091045379638672e+00 1.904508113861083984e+00 -1.638766080141067505e-01
3.352000000000000000e+03 3.174106788635253906e+01 -1.222040557861328125e+01 -5.197253823280334473e-01 4.637643098831176758e-01 -1.678832992911338806e-02 7.036415338516235352e-01
3.353000000000000000e+03 3.222854232788085938e+01 -3.119845581054687500e+01 5.814636349678039551e-01 4.958534240722656250e-01 3.231951296329498291e-01 -1.115062087774276733e-01
3.354000000000000000e+03 1.126618385314941406e+01 -8.486125946044921875e+00 1.787003688514232635e-02 -3.016663715243339539e-02 -3.688979893922805786e-03 -1.204016357660293579e-01
3.355000000000000000e+03 7.907651901245117188e+00 -1.123143196105957031e+01 -4.909208789467811584e-02 -2.115912884473800659e-01 -7.820501178503036499e-02 -1.099682450294494629e-01
3.356000000000000000e+03 2.386746978759765625e+01 -1.763825798034667969e+01 9.273547679185867310e-02 -1.448671240359544754e-02 2.347462996840476990e-02 -3.241592943668365479e-01
3.357000000000000000e+03 2.293906211853027344e+01 -1.836822509765625000e+01 1.376509815454483032e-01 -5.028368905186653137e-02 2.621018700301647186e-02 -3.729172348976135254e-01
3.358000000000000000e+03 3.783865356445312500e+01 1.542321109771728516e+01 9.982480406761169434e-01 1.402783513069152832e+00 7.203094959259033203e-01 -1.461356401443481445e+00
3.359000000000000000e+03 5.903257751464843750e+01 -2.239235305786132812e+01 2.289619922637939453e+00 4.829314708709716797e+00 2.135680437088012695e+00 1.925117075443267822e-01
3.360000000000000000e+03 7.133145904541015625e+01 -3.077583885192871094e+01 1.632091760635375977e+00 4.144201755523681641e+00 1.732887983322143555e+00 1.565416902303695679e-01
3.361000000000000000e+03 6.900969696044921875e+01 -3.246017837524414062e+01 2.263834238052368164e+00 5.132256031036376953e+00 2.218827009201049805e+00 -1.771639704704284668e+00
3.362000000000000000e+03 7.251069641113281250e+01 2.280185699462890625e+01 -8.311132192611694336e-01 5.708176136016845703e+00 1.463118791580200195e+00 -9.485951662063598633e-01
3.363000000000000000e+03 4.090504837036132812e+01 1.748398780822753906e+01 3.172897994518280029e-01 2.331637620925903320e+00 7.946782112121582031e-01 -1.189603209495544434e+00
3.364000000000000000e+03 2.866757202148437500e+01 -3.345032501220703125e+01 3.059547245502471924e-01 8.800950050354003906e-01 3.558149337768554688e-01 -1.078029815107584000e-02
3.365000000000000000e+03 3.147975540161132812e+01 -3.703168487548828125e+01 1.991606056690216064e-01 1.327038764953613281e+00 4.578598141670227051e-01 4.248653054237365723e-01
3.366000000000000000e+03 5.936760330200195312e+01 -1.635569572448730469e+01 2.249705493450164795e-01 6.126762390136718750e+00 1.905519843101501465e+00 -4.268391057848930359e-03
3.367000000000000000e+03 6.674799346923828125e+01 2.263124275207519531e+01 -1.930993497371673584e-01 1.397031068801879883e+00 3.611795306205749512e-01 3.738573789596557617e-01
3.368000000000000000e+03 2.080704879760742188e+01 -1.906284904479980469e+01 2.304107323288917542e-02 -2.129888534545898438e-02 5.226564244367182255e-04 -4.747225344181060791e-01
3.369000000000000000e+03 1.295572757720947266e+01 -9.642177581787109375e+00 -3.337302431464195251e-02 1.170258596539497375e-01 2.509585022926330566e-02 -1.086195036768913269e-01
3.370000000000000000e+03 6.759236907958984375e+01 3.180354690551757812e+01 6.067434549331665039e-01 5.377394676208496094e+00 1.795241475105285645e+00 9.067050218582153320e-01
3.371000000000000000e+03 6.210572814941406250e+01 -1.600501823425292969e+01 -1.000414967536926270e+00 6.569732189178466797e+00 1.670795083045959473e+00 6.089489161968231201e-02
3.372000000000000000e+03 6.105647659301757812e+01 -1.602144622802734375e+01 -4.077613949775695801e-01 6.356855869293212891e+00 1.784728407859802246e+00 5.050871893763542175e-02
3.373000000000000000e+03 2.482711410522460938e+01 -2.207393646240234375e+01 4.518631994724273682e-01 5.000204443931579590e-01 2.855651080608367920e-01 3.152463119477033615e-03
3.374000000000000000e+03 6.154177856445312500e+01 -1.517521190643310547e+01 -1.076368212699890137e+00 6.485522270202636719e+00 1.622746229171752930e+00 6.423861384391784668e-01
3.375000000000000000e+03 6.798372268676757812e+00 9.550013542175292969e+00 -3.380146920680999756e-01 -1.550094485282897949e-01 -1.479072421789169312e-01 3.518528640270233154e-01
3.376000000000000000e+03 7.048927307128906250e+00 1.055445671081542969e+01 -2.880198657512664795e-01 -2.013369500637054443e-01 -1.468070447444915771e-01 4.467027187347412109e-01
3.377000000000000000e+03 5.397449874877929688e+01 1.920866584777832031e+01 -1.323309183120727539e+00 4.648046970367431641e+00 9.974213838577270508e-01 -2.360494613647460938e+00
3.378000000000000000e+03 7.329525947570800781e+00 -2.857648086547851562e+01 -5.832646787166595459e-02 -1.158800870180130005e-01 -5.226196721196174622e-02 -1.046536564826965332e-01
3.379000000000000000e+03 8.163816452026367188e+00 -2.962367439270019531e+01 -5.672245472669601440e-02 -1.003895774483680725e-01 -4.713360965251922607e-02 -1.217937022447586060e-01
3.380000000000000000e+03 4.453788375854492188e+01 3.882213973999023438e+01 -6.030860543251037598e-01 2.544843196868896484e+00 5.825271606445312500e-01 -5.790998935699462891e-01
3.381000000000000000e+03 4.937469863891601562e+01 2.364088821411132812e+01 3.456247746944427490e-01 3.701957464218139648e+00 1.214274644851684570e+00 -2.687430977821350098e-01
3.382000000000000000e+03 7.234097290039062500e+01 5.777544975280761719e+00 -1.638081520795822144e-01 6.273772239685058594e+00 1.832989215850830078e+00 6.584804654121398926e-01
3.383000000000000000e+03 2.580495262145996094e+01 3.527732467651367188e+01 6.890387088060379028e-02 1.023911714553833008e+00 3.278446793556213379e-01 -2.342827320098876953e-01
3.384000000000000000e+03 6.413198089599609375e+01 2.238516092300415039e+00 4.521123319864273071e-02 3.998992443084716797e+00 1.213261127471923828e+00 2.665758319199085236e-02
3.385000000000000000e+03 6.218209457397460938e+01 3.704044103622436523e+00 -5.135843157768249512e-01 4.345823287963867188e+00 1.149671673774719238e+00 -1.393636584281921387e+00
3.386000000000000000e+03 6.301640319824218750e+01 4.443484306335449219e+00 -5.603280067443847656e-01 3.471330165863037109e+00 8.733006715774536133e-01 -1.192289948463439941e+00
3.387000000000000000e+03 7.520092964172363281e+00 -2.719402694702148438e+01 -4.812223464250564575e-02 -6.999639421701431274e-02 -3.543558716773986816e-02 -1.092794761061668396e-01
3.388000000000000000e+03 5.477738952636718750e+01 3.981805801391601562e+01 -9.605957269668579102e-01 2.738517761230468750e+00 5.333766341209411621e-01 4.575853347778320312e-01
3.389000000000000000e+03 5.063205337524414062e+01 3.858996582031250000e+01 -1.253286957740783691e+00 3.911172628402709961e+00 7.973657250404357910e-01 -2.193207480013370514e-02
3.390000000000000000e+03 6.172351074218750000e+01 2.242011308670043945e+00 -4.896930158138275146e-01 5.277081966400146484e+00 1.436216711997985840e+00 -1.346612930297851562e+00
3.391000000000000000e+03 6.309378433227539062e+01 1.772880196571350098e+00 -2.133713066577911377e-01 4.980132579803466797e+00 1.430028438568115234e+00 -6.702018976211547852e-01
3.392000000000000000e+03 6.313581466674804688e+01 -1.535346221923828125e+01 -1.466309666633605957e+00 6.348059654235839844e+00 1.464524984359741211e+00 5.738726854324340820e-01
3.393000000000000000e+03 5.072224044799804688e+01 2.445819282531738281e+01 5.455437302589416504e-01 4.354341506958007812e+00 1.469965577125549316e+00 -5.496422648429870605e-01
3.394000000000000000e+03 2.532636260986328125e+01 -2.094450950622558594e+01 4.602780938148498535e-01 5.468786358833312988e-01 3.021470308303833008e-01 -1.226488593965768814e-02
3.395000000000000000e+03 3.655331039428710938e+01 -4.123610305786132812e+01 -8.285910487174987793e-01 2.088531970977783203e+00 3.779822885990142822e-01 1.059358045458793640e-01
3.396000000000000000e+03 5.122784614562988281e+00 -3.012896537780761719e+01 -4.318212345242500305e-02 -2.509245872497558594e-01 -8.823201060295104980e-02 -5.683793127536773682e-02
3.397000000000000000e+03 7.316000366210937500e+01 3.016161727905273438e+01 5.347590446472167969e-01 5.924705028533935547e+00 1.937839269638061523e+00 8.460965752601623535e-02
3.398000000000000000e+03 4.659809112548828125e+01 2.066071033477783203e+00 2.857829630374908447e-01 6.327209949493408203e+00 1.983897924423217773e+00 -4.370731353759765625e+00
3.399000000000000000e+03 8.521902084350585938e+00 -5.657797813415527344e+00 5.244156718254089355e-02 -9.021047502756118774e-02 -1.133067253977060318e-02 -1.053538694977760315e-01
3.400000000000000000e+03 8.849135398864746094e+00 -7.325039386749267578e+00 6.752894073724746704e-02 -1.013786271214485168e-01 -1.015490666031837463e-02 -9.244402498006820679e-02
3.401000000000000000e+03 4.612192535400390625e+01 1.844514608383178711e+00 7.051086425781250000e-01 5.460279941558837891e+00 1.849616646766662598e+00 -4.453453540802001953e+00
3.402000000000000000e+03 7.807303905487060547e+00 -6.755644798278808594e+00 3.836619108915328979e-02 -7.931885868310928345e-02 -1.228580065071582794e-02 -1.024487987160682678e-01
3.403000000000000000e+03 9.608355522155761719e+00 -6.282097816467285156e+00 5.588647350668907166e-02 -5.295174941420555115e-02 8.804170065559446812e-04 -1.171910911798477173e-01
3.404000000000000000e+03 9.316039085388183594e+00 -5.500935554504394531e+00 -2.705969661474227905e-02 -1.177962124347686768e-01 -4.345677420496940613e-02 -1.597653180360794067e-01
3.405000000000000000e+03 6.483484745025634766e+00 6.375164985656738281e+00 -2.997463643550872803e-01 -8.980223536491394043e-02 -1.168645843863487244e-01 9.906573593616485596e-02
3.406000000000000000e+03 1.067260932922363281e+01 -9.255448341369628906e+00 5.633897706866264343e-02 -3.171142190694808960e-02 7.388265803456306458e-03 -1.283703297376632690e-01
3.407000000000000000e+03 9.991228103637695312e+00 -5.240556240081787109e+00 3.142450749874114990e-02 -3.971970453858375549e-02 -2.488559111952781677e-03 -1.285685300827026367e-01
3.408000000000000000e+03 4.437754440307617188e+01 5.709472656250000000e+00 -1.477739572525024414e+00 4.996465206146240234e+00 1.055617690086364746e+00 -2.023775339126586914e+00
3.409000000000000000e+03 5.575013637542724609e+00 8.888176918029785156e+00 -2.676940262317657471e-01 -1.086971536278724670e-01 -1.129173487424850464e-01 2.710989117622375488e-01
3.410000000000000000e+03 4.577399063110351562e+01 3.968544483184814453e+00 -1.621954083442687988e+00 5.392243385314941406e+00 1.131086826324462891e+00 -3.446792840957641602e+00
3.411000000000000000e+03 4.603139877319335938e+01 3.255674123764038086e+00 -9.830969572067260742e-01 5.438544273376464844e+00 1.336634159088134766e+00 -3.941964149475097656e+00
3.412000000000000000e+03 1.112315845489501953e+01 -6.398230552673339844e+00 1.844868063926696777e-02 -1.748712919652462006e-02 2.884652058128267527e-04 -1.416950225830078125e-01
3.413000000000000000e+03 1.204511260986328125e+01 -6.758604526519775391e+00 6.200110167264938354e-02 -2.548090182244777679e-02 1.095606014132499695e-02 -1.021173745393753052e-01
3.414000000000000000e+03 6.371375274658203125e+01 3.416042566299438477e+00 -1.978756040334701538e-01 3.511989593505859375e+00 9.942342042922973633e-01 -5.599481463432312012e-01
3.415000000000000000e+03 8.017888069152832031e+00 -8.459616661071777344e+00 5.752050876617431641e-02 -1.331100761890411377e-01 -2.267687022686004639e-02 -9.013202041387557983e-02
3.416000000000000000e+03 1.980432510375976562e+01 -2.025922203063964844e+01 2.246068976819515228e-02 4.316735640168190002e-02 1.968841440975666046e-02 -3.987433910369873047e-01
3.417000000000000000e+03 1.921756362915039062e+01 -2.135453414916992188e+01 -1.898161135613918304e-03 4.215970169752836227e-03 6.953427800908684731e-04 -3.143361806869506836e-01
3.418000000000000000e+03 1.905930519104003906e+01 -2.301972389221191406e+01 1.050253733992576599e-01 2.169482782483100891e-02 3.801605850458145142e-02 -1.566069871187210083e-01
3.419000000000000000e+03 2.262377357482910156e+01 7.751645565032958984e+00 3.581693172454833984e-01 -9.940865635871887207e-02 7.762819528579711914e-02 1.133935153484344482e-01
3.420000000000000000e+03 6.869721221923828125e+01 2.511857223510742188e+01 1.149527430534362793e+00 3.488058567047119141e+00 1.391275763511657715e+00 -4.258359670639038086e-01
3.421000000000000000e+03 6.621827125549316406e+00 -2.885930633544921875e+01 -5.583919584751129150e-02 -1.490034312009811401e-01 -6.145278736948966980e-02 -9.077899158000946045e-02
3.422000000000000000e+03 2.506019592285156250e+01 8.748971939086914062e+00 3.378014266490936279e-01 7.011260837316513062e-02 1.223742142319679260e-01 3.852857649326324463e-02
3.423000000000000000e+03 8.333883285522460938e+00 -9.538505554199218750e+00 -3.774639451876282692e-03 -1.695813685655593872e-01 -5.200680345296859741e-02 -1.205838397145271301e-01
3.424000000000000000e+03 3.397846221923828125e+01 -3.313045883178710938e+01 1.117499351501464844e+00 1.121497392654418945e+00 6.716990470886230469e-01 5.610538125038146973e-01
3.425000000000000000e+03 7.382608795166015625e+01 2.487441444396972656e+01 -1.018917784094810486e-01 6.183515548706054688e+00 1.824487209320068359e+00 -7.135921716690063477e-01
3.426000000000000000e+03 6.003471755981445312e+01 -2.128850555419921875e+01 2.903568267822265625e+00 4.463400363922119141e+00 2.210090637207031250e+00 -6.213778257369995117e-01
3.427000000000000000e+03 7.129380035400390625e+01 2.395511627197265625e+01 -2.240844815969467163e-01 4.641017913818359375e+00 1.325080037117004395e+00 -1.099789738655090332e+00
3.428000000000000000e+03 7.215325164794921875e+01 4.622600078582763672e+00 -1.220914945006370544e-01 5.458942890167236328e+00 1.601055502891540527e+00 8.056138157844543457e-01
3.429000000000000000e+03 9.814130783081054688e+00 -7.968012332916259766e+00 7.665588706731796265e-02 -8.840095251798629761e-02 -3.523519728332757950e-03 -1.006521806120872498e-01
3.430000000000000000e+03 6.808666229248046875e+01 2.402093696594238281e+01 7.204301357269287109e-01 2.861752271652221680e+00 1.074654698371887207e+00 -3.329975008964538574e-01
3.431000000000000000e+03 6.751936340332031250e+01 2.602302742004394531e+01 1.806267261505126953e+00 3.642430543899536133e+00 1.634609341621398926e+00 4.359477758407592773e-01
3.432000000000000000e+03 5.845373535156250000e+01 -1.348911762237548828e+01 -7.272493094205856323e-02 4.505200862884521484e+00 1.329742789268493652e+00 1.578464359045028687e-01
3.433000000000000000e+03 5.847329330444335938e+01 -1.460178852081298828e+01 -2.108766883611679077e-01 5.434122085571289062e+00 1.566973567008972168e+00 -3.106373175978660583e-02
3.434000000000000000e+03 5.815596771240234375e+01 -1.585363960266113281e+01 -6.490048766136169434e-02 6.069073677062988281e+00 1.801252007484436035e+00 -1.358046978712081909e-01
3.435000000000000000e+03 9.315312385559082031e+00 -9.077949523925781250e+00 6.263992190361022949e-02 -9.564147889614105225e-02 -9.900467470288276672e-03 -1.124479174613952637e-01
3.436000000000000000e+03 5.955359935760498047e+00 -8.282631874084472656e+00 3.687360510230064392e-02 -1.269682198762893677e-01 -2.702838368713855743e-02 -5.297860875725746155e-02
3.437000000000000000e+03 7.278820037841796875e+00 -1.018446254730224609e+01 2.297265082597732544e-02 -1.607901751995086670e-01 -4.134525731205940247e-02 -8.933462947607040405e-02
3.438000000000000000e+03 6.228989410400390625e+01 -1.440777969360351562e+01 -1.348923563957214355e+00 6.447476387023925781e+00 1.529565811157226562e+00 6.091507077217102051e-01
3.439000000000000000e+03 1.231510066986083984e+01 -5.867647647857666016e+00 2.559242397546768188e-02 -2.411421760916709900e-02 4.434617876540869474e-04 -1.311086714267730713e-01
3.440000000000000000e+03 7.313756942749023438e+00 -3.253496932983398438e+01 -3.349024802446365356e-02 -1.770587712526321411e-01 -6.316470354795455933e-02 -1.160461753606796265e-01
3.441000000000000000e+03 9.023065567016601562e+00 -3.012897109985351562e+01 -6.170018017292022705e-02 -9.771599620580673218e-02 -4.782485216856002808e-02 -1.354913562536239624e-01
3.442000000000000000e+03 6.368589019775390625e+01 -1.211671924591064453e+01 -1.188346624374389648e+00 6.842611312866210938e+00 1.696279406547546387e+00 8.074733614921569824e-01
3.443000000000000000e+03 6.289955520629882812e+01 -1.347874546051025391e+01 -1.384539484977722168e+00 6.556826114654541016e+00 1.551686048507690430e+00 8.671925067901611328e-01
3.444000000000000000e+03 7.248937988281250000e+01 2.862790489196777344e+01 7.810768485069274902e-01 5.502378463745117188e+00 1.885036587715148926e+00 -8.965033292770385742e-02
3.445000000000000000e+03 7.037768554687500000e+01 2.748389053344726562e+01 1.174218058586120605e+00 4.714654922485351562e+00 1.766661882400512695e+00 -2.534127235412597656e-02
3.446000000000000000e+03 7.311340332031250000e+01 3.363925552368164062e+01 2.146488279104232788e-01 6.211524486541748047e+00 1.927851915359497070e+00 3.561850488185882568e-01
3.447000000000000000e+03 7.042345428466796875e+01 3.045560073852539062e+01 9.649136066436767578e-01 5.303403854370117188e+00 1.880495309829711914e+00 4.907257854938507080e-01
3.448000000000000000e+03 7.384844207763671875e+01 -3.634497451782226562e+01 1.345132142305374146e-01 6.385273933410644531e+00 1.955936074256896973e+00 -6.979834437370300293e-01
3.449000000000000000e+03 7.159178924560546875e+01 -3.344229125976562500e+01 1.290733814239501953e+00 5.150980949401855469e+00 1.932514429092407227e+00 -7.302459478378295898e-01
3.450000000000000000e+03 2.567577934265136719e+01 1.183083724975585938e+01 2.672920525074005127e-01 2.525238096714019775e-01 1.559447646141052246e-01 1.545676402747631073e-02
3.451000000000000000e+03 3.236726379394531250e+01 3.531530761718750000e+01 -3.366022706031799316e-01 1.891787767410278320e+00 4.665556550025939941e-01 -1.658381521701812744e-01
3.452000000000000000e+03 2.183535385131835938e+01 -1.881699943542480469e+01 1.236298084259033203e-01 -2.590592764317989349e-02 2.931716479361057281e-02 -4.062848389148712158e-01
3.453000000000000000e+03 2.118327713012695312e+01 -2.163501548767089844e+01 1.923243552446365356e-01 7.662403583526611328e-02 8.068451285362243652e-02 -2.378400564193725586e-01
3.454000000000000000e+03 6.956735229492187500e+01 2.947623252868652344e+01 1.131287574768066406e+00 4.851255416870117188e+00 1.794762849807739258e+00 5.699560046195983887e-01
3.455000000000000000e+03 7.035935211181640625e+01 2.858873558044433594e+01 1.204618215560913086e+00 5.006986141204833984e+00 1.863481283187866211e+00 1.022441312670707703e-01
3.456000000000000000e+03 7.087945556640625000e+01 3.389389038085937500e+01 2.116759419441223145e-01 5.781779766082763672e+00 1.798036813735961914e+00 5.641192197799682617e-01
3.457000000000000000e+03 3.018956947326660156e+01 3.422194290161132812e+01 -1.493200566619634628e-02 1.671029686927795410e+00 4.968293011188507080e-01 -3.902952671051025391e-01
3.458000000000000000e+03 3.211888122558593750e+01 3.314923477172851562e+01 -3.895318880677223206e-02 2.093352317810058594e+00 6.163197159767150879e-01 -3.948215246200561523e-01
3.459000000000000000e+03 6.813197326660156250e+01 3.308843612670898438e+01 2.537089884281158447e-01 5.524833202362060547e+00 1.733562707901000977e+00 9.128938317298889160e-01
3.460000000000000000e+03 6.945931243896484375e+01 2.791573333740234375e+01 1.338125348091125488e+00 4.478143692016601562e+00 1.744880795478820801e+00 3.273604810237884521e-01
3.461000000000000000e+03 2.906982040405273438e+01 -3.124011421203613281e+01 2.561253607273101807e-01 7.869616150856018066e-01 3.129260838031768799e-01 -1.907635778188705444e-01
3.462000000000000000e+03 7.135157775878906250e+01 2.943040466308593750e+01 8.583854436874389648e-01 5.233571529388427734e+00 1.827587127685546875e+00 1.724672615528106689e-01
3.463000000000000000e+03 4.753606414794921875e+01 4.136892318725585938e+01 -1.094859957695007324e+00 3.422899246215820312e+00 6.984118223190307617e-01 -1.403727531433105469e-01
3.464000000000000000e+03 7.253104400634765625e+01 3.555783462524414062e+01 -1.906368695199489594e-02 6.166202068328857422e+00 1.844141483306884766e+00 4.411143958568572998e-01
3.465000000000000000e+03 6.667639160156250000e+01 3.396828842163085938e+01 -2.287403643131256104e-01 5.409081459045410156e+00 1.554102420806884766e+00 8.540115952491760254e-01
3.466000000000000000e+03 6.959061431884765625e+01 2.628235816955566406e+01 1.198584914207458496e+00 4.204179763793945312e+00 1.620829343795776367e+00 -2.770082950592041016e-01
3.467000000000000000e+03 4.696705627441406250e+01 2.874816656112670898e+00 -8.154739141464233398e-01 6.125520229339599609e+00 1.593014001846313477e+00 -3.891730070114135742e+00
3.468000000000000000e+03 4.760270690917968750e+01 2.395252704620361328e+00 -3.449178338050842285e-01 7.234557628631591797e+00 2.066891908645629883e+00 -3.155149221420288086e+00
3.469000000000000000e+03 4.764717102050781250e+01 3.660920143127441406e+00 -1.814635872840881348e+00 5.601973533630371094e+00 1.136201381683349609e+00 -3.297745943069458008e+00
3.470000000000000000e+03 8.648103713989257812e+00 -6.467020511627197266e+00 -9.692998137325048447e-04 -1.374012529850006104e-01 -4.151116311550140381e-02 -1.433716267347335815e-01
3.471000000000000000e+03 7.227137088775634766e+00 -7.369729042053222656e+00 3.239155188202857971e-02 -1.459375768899917603e-01 -3.406380861997604370e-02 -8.543679863214492798e-02
3.472000000000000000e+03 1.008122730255126953e+01 -8.631757736206054688e+00 3.047240665182471275e-03 -1.012157127261161804e-01 -2.945054322481155396e-02 -1.451516449451446533e-01
3.473000000000000000e+03 6.962608814239501953e+00 7.252190589904785156e+00 -3.525615930557250977e-01 -1.434046924114227295e-01 -1.487898826599121094e-01 1.802864521741867065e-01
3.474000000000000000e+03 2.199457740783691406e+01 -2.009816169738769531e+01 1.917968094348907471e-01 4.638763517141342163e-02 7.145532965660095215e-02 -3.364305496215820312e-01
3.475000000000000000e+03 2.409281921386718750e+01 6.786934852600097656e+00 1.839595288038253784e-01 -5.266342684626579285e-02 3.938883170485496521e-02 6.627494841814041138e-02
3.476000000000000000e+03 8.989398002624511719e+00 -8.206065177917480469e+00 4.476843867450952530e-03 -1.330542117357254028e-01 -3.857320919632911682e-02 -1.559659689664840698e-01
3.477000000000000000e+03 6.480762004852294922e+00 -9.258776664733886719e+00 9.817973710596561432e-03 -1.830098628997802734e-01 -5.195756629109382629e-02 -8.716858178377151489e-02
3.478000000000000000e+03 6.971469879150390625e+01 3.171840286254882812e+01 6.925567388534545898e-01 5.331357479095458984e+00 1.807174205780029297e+00 6.735504269599914551e-01
3.479000000000000000e+03 2.221606445312500000e+01 -2.117302322387695312e+01 3.095511198043823242e-01 1.348576545715332031e-01 1.333226412534713745e-01 -1.964914053678512573e-01
3.480000000000000000e+03 2.376195907592773438e+01 -2.134871673583984375e+01 3.922531604766845703e-01 3.291335701942443848e-01 2.164160162210464478e-01 -9.894054383039474487e-02
3.481000000000000000e+03 7.254619598388671875e+01 2.386824798583984375e+01 -4.278901815414428711e-01 5.753530025482177734e+00 1.597692012786865234e+00 -9.454625844955444336e-01
3.482000000000000000e+03 6.602165699005126953e+00 -6.792736530303955078e+00 1.972008496522903442e-02 -8.791511505842208862e-02 -2.045851014554500580e-02 -9.469263255596160889e-02
3.483000000000000000e+03 7.157453918457031250e+01 -3.215544891357421875e+01 1.401679873466491699e+00 4.862117290496826172e+00 1.879139065742492676e+00 -5.190305113792419434e-01
3.484000000000000000e+03 6.878601837158203125e+01 -3.691148757934570312e+01 -2.332133054733276367e-01 6.039033412933349609e+00 1.741746068000793457e+00 -1.310017824172973633e+00
3.485000000000000000e+03 3.063275337219238281e+01 3.581348419189453125e+01 -2.189167588949203491e-01 1.685012221336364746e+00 4.398286640644073486e-01 -2.158886492252349854e-01
3.486000000000000000e+03 7.347845458984375000e+01 3.737594223022460938e+01 -1.623810231685638428e-01 6.557178497314453125e+00 1.918439269065856934e+00 3.527165353298187256e-01
3.487000000000000000e+03 6.869420623779296875e+01 3.804263305664062500e+01 -5.054316520690917969e-01 5.422232151031494141e+00 1.475040197372436523e+00 2.567943036556243896e-01
3.488000000000000000e+03 2.899654197692871094e+01 -3.713114547729492188e+01 1.711272895336151123e-01 1.089121341705322266e+00 3.780745863914489746e-01 2.305799126625061035e-01
3.489000000000000000e+03 8.005929946899414062e+00 -7.504699230194091797e+00 1.841276884078979492e-03 -1.326380223035812378e-01 -3.923902288079261780e-02 -1.431364864110946655e-01
3.490000000000000000e+03 2.495899963378906250e+01 6.884289741516113281e+00 2.027008831501007080e-01 -2.114823460578918457e-02 5.446579307317733765e-02 1.854738220572471619e-02
3.491000000000000000e+03 6.651905059814453125e+01 -3.949116897583007812e+01 -1.610184431076049805e+00 4.433035373687744141e+00 8.468553423881530762e-01 9.029821306467056274e-02
3.492000000000000000e+03 2.680694580078125000e+01 -3.681507492065429688e+01 1.840739995241165161e-01 8.739792108535766602e-01 3.174159526824951172e-01 1.023573800921440125e-01
3.493000000000000000e+03 1.077063941955566406e+01 -7.245279788970947266e+00 5.437255278229713440e-02 -6.412130594253540039e-02 -2.924625296145677567e-03 -1.101189181208610535e-01
3.494000000000000000e+03 2.657839965820312500e+01 4.115287780761718750e+01 -1.917375177145004272e-01 1.215187430381774902e+00 3.070349991321563721e-01 -5.156325548887252808e-02
3.495000000000000000e+03 2.889748191833496094e+01 3.631176757812500000e+01 -1.176777184009552002e-01 1.445017933845520020e+00 3.982020616531372070e-01 -2.708564102649688721e-01
3.496000000000000000e+03 8.008145332336425781e+00 -4.111257934570312500e+01 8.335418999195098877e-02 -2.202164530754089355e-01 -4.105867817997932434e-02 -2.761313877999782562e-02
3.497000000000000000e+03 8.654484748840332031e+00 -3.862438964843750000e+01 9.018781781196594238e-02 -1.683831512928009033e-01 -2.345860004425048828e-02 -6.879373639822006226e-02
3.498000000000000000e+03 3.049612808227539062e+01 -3.145636367797851562e+01 3.704850077629089355e-01 7.963559031486511230e-01 3.500522673130035400e-01 -1.848445832729339600e-01
3.499000000000000000e+03 3.386333084106445312e+01 -3.639381790161132812e+01 2.334542721509933472e-01 1.798945903778076172e+00 6.097200512886047363e-01 7.413541674613952637e-01
3.500000000000000000e+03 7.055919647216796875e+00 3.792303466796875000e+01 -7.099827285856008530e-03 -2.072695195674896240e-01 -6.431080400943756104e-02 -3.206820040941238403e-02
3.501000000000000000e+03 6.659800720214843750e+01 3.538654327392578125e+01 -5.977090001106262207e-01 5.245338439941406250e+00 1.394288778305053711e+00 4.507685303688049316e-01
3.502000000000000000e+03 4.326987457275390625e+01 4.119547653198242188e+01 -4.096600115299224854e-01 2.113880157470703125e+00 5.112660527229309082e-01 -1.629783809185028076e-01
3.503000000000000000e+03 2.940942192077636719e+01 3.983171463012695312e+01 -2.722582221031188965e-01 1.430626273155212402e+00 3.475104272365570068e-01 -8.459886908531188965e-02
3.504000000000000000e+03 3.216529846191406250e+01 9.988108277320861816e-01 -1.650794267654418945e+00 3.744397163391113281e-01 -3.829063475131988525e-01 -3.717451393604278564e-01
3.505000000000000000e+03 1.823611640930175781e+01 -4.497534334659576416e-01 -1.459605842828750610e-01 1.703350394964218140e-01 7.312336470931768417e-03 -3.522508963942527771e-02
3.506000000000000000e+03 3.072049140930175781e+01 4.368301033973693848e-01 -1.471830487251281738e+00 3.906590044498443604e-01 -3.243514597415924072e-01 -1.175455003976821899e-01
3.507000000000000000e+03 4.687842178344726562e+01 6.162075996398925781e-01 2.829531908035278320e+00 8.241303443908691406e+00 3.321250677108764648e+00 -5.276701927185058594e+00
3.508000000000000000e+03 4.680377197265625000e+01 8.208667635917663574e-01 2.457014083862304688e+00 7.737123966217041016e+00 3.058241367340087891e+00 -5.150970935821533203e+00
3.509000000000000000e+03 4.761228179931640625e+01 6.919202804565429688e-01 1.720821499824523926e+00 1.133782672882080078e+01 3.917594671249389648e+00 -3.376195907592773438e+00
3.510000000000000000e+03 4.709579467773437500e+01 -3.357994794845581055e+00 6.190731525421142578e-01 7.800313949584960938e+00 2.525816202163696289e+00 6.067076921463012695e-01
3.511000000000000000e+03 4.642864608764648438e+01 -2.605628490447998047e+00 3.281495094299316406e+00 3.697423219680786133e+00 2.093675374984741211e+00 2.007643461227416992e+00
3.512000000000000000e+03 4.625381088256835938e+01 -2.566102027893066406e+00 3.305978775024414062e+00 2.713693857192993164e+00 1.805901765823364258e+00 1.548102021217346191e+00
3.513000000000000000e+03 4.572500991821289062e+01 -2.575070142745971680e+00 3.292716503143310547e+00 8.357543945312500000e-01 1.238541245460510254e+00 1.107656359672546387e+00
3.514000000000000000e+03 3.260677719116210938e+01 2.435711622238159180e+00 -5.302687287330627441e-01 -2.934483438730239868e-02 -1.678840816020965576e-01 2.525953650474548340e-01
3.515000000000000000e+03 2.858487510681152344e+01 9.410824775695800781e+00 2.181769907474517822e-01 6.892947554588317871e-01 2.722415030002593994e-01 1.225091442465782166e-01
3.516000000000000000e+03 3.531899261474609375e+01 1.319034194946289062e+01 8.674737215042114258e-01 5.126760601997375488e-01 4.140449464321136475e-01 -7.140601277351379395e-01
3.517000000000000000e+03 5.520367813110351562e+01 -2.445275688171386719e+01 -6.504879593849182129e-01 7.565027236938476562e+00 2.074361801147460938e+00 1.865166902542114258e+00
3.518000000000000000e+03 1.992806243896484375e+01 3.267902374267578125e+01 -7.789289113134145737e-03 2.312254309654235840e-01 6.703083962202072144e-02 -9.427176415920257568e-02
3.519000000000000000e+03 1.074137115478515625e+01 2.124553108215332031e+01 1.777954250574111938e-01 5.127013847231864929e-02 6.871967017650604248e-02 1.741570234298706055e-01
3.520000000000000000e+03 6.449147033691406250e+01 -9.043356895446777344e+00 1.118207812309265137e+00 8.254245758056640625e+00 2.811736106872558594e+00 -3.373893499374389648e-01
3.521000000000000000e+03 5.230162429809570312e+01 2.947487640380859375e+01 1.064334392547607422e+00 7.406437397003173828e+00 2.541231393814086914e+00 -1.696891933679580688e-01
3.522000000000000000e+03 5.310308837890625000e+01 2.714326095581054688e+01 1.595304727554321289e+00 8.123108863830566406e+00 2.915524005889892578e+00 -1.254120111465454102e+00
3.523000000000000000e+03 5.136668014526367188e+01 2.680058479309082031e+01 1.772991299629211426e+00 5.658623695373535156e+00 2.229484558105468750e+00 -4.410747885704040527e-01
3.524000000000000000e+03 6.469062805175781250e+01 3.141762542724609375e+01 7.293992042541503906e-01 5.988817214965820312e+00 2.015464782714843750e+00 2.638021111488342285e-01
3.525000000000000000e+03 6.149049377441406250e+01 8.256011009216308594e+00 -3.481184542179107666e-01 4.812767028808593750e+00 1.339394569396972656e+00 -1.269351959228515625e+00
3.526000000000000000e+03 6.494114685058593750e+01 6.209500789642333984e+00 -1.755532860755920410e+00 3.685089647769927979e-01 -4.161071777343750000e-01 5.570814386010169983e-02
3.527000000000000000e+03 1.522528362274169922e+01 -3.985733795166015625e+01 3.222817480564117432e-01 1.179311871528625488e-01 1.320638805627822876e-01 -1.540423333644866943e-01
3.528000000000000000e+03 3.860977172851562500e+01 -3.577941894531250000e+01 -4.516079127788543701e-01 3.137729883193969727e+00 8.058365583419799805e-01 6.278516054153442383e-01
3.529000000000000000e+03 6.735440063476562500e+01 -3.142691802978515625e+01 2.710164785385131836e+00 6.938167572021484375e+00 2.894499778747558594e+00 -2.688243389129638672e+00
3.530000000000000000e+03 3.972687530517578125e+01 -3.634219360351562500e+01 -2.897348999977111816e-01 2.663577318191528320e+00 7.121527194976806641e-01 -4.567113816738128662e-01
3.531000000000000000e+03 4.483966445922851562e+01 3.530008697509765625e+01 -4.477865397930145264e-01 2.807158708572387695e+00 7.078116536140441895e-01 -9.798191189765930176e-01
3.532000000000000000e+03 4.137822341918945312e+01 4.616437435150146484e+00 -3.500314056873321533e-01 1.786811590194702148e+00 4.310340583324432373e-01 -1.147613525390625000e+00
3.533000000000000000e+03 3.637541961669921875e+01 -1.270126724243164062e+01 -1.110483646392822266e+00 8.095986247062683105e-01 -9.026551246643066406e-02 1.554479897022247314e-01
3.534000000000000000e+03 1.299735164642333984e+01 -4.193664932250976562e+01 1.845521926879882812e-01 5.300527811050415039e-02 7.126723974943161011e-02 3.281501354649662971e-03
3.535000000000000000e+03 1.345006656646728516e+01 -4.080762100219726562e+01 2.281953245401382446e-01 5.955290794372558594e-02 8.632446825504302979e-02 -2.517629601061344147e-02
3.536000000000000000e+03 4.638268280029296875e+01 -1.485344886779785156e+01 -2.624195098876953125e+00 6.622564315795898438e+00 1.199510812759399414e+00 3.072377681732177734e+00
3.537000000000000000e+03 4.224875640869140625e+01 -2.644001388549804688e+01 -1.832662075757980347e-01 1.803887486457824707e+00 4.861863553524017334e-01 1.923909068107604980e+00
3.538000000000000000e+03 3.017455339431762695e+00 2.798932266235351562e+01 -4.993616789579391479e-02 -7.837594747543334961e-01 -2.501086890697479248e-01 1.128489524126052856e-01
3.539000000000000000e+03 3.195243072509765625e+01 2.093913078308105469e+00 -1.174336194992065430e+00 3.962677121162414551e-01 -2.334205359220504761e-01 4.860827326774597168e-02
3.540000000000000000e+03 5.284014892578125000e+01 -3.475574874877929688e+01 1.533248782157897949e+00 6.463578224182128906e+00 2.399048089981079102e+00 5.251777172088623047e-01
3.541000000000000000e+03 5.139329910278320312e+01 -3.397389602661132812e+01 2.198595285415649414e+00 5.885464668273925781e+00 2.425218105316162109e+00 7.873091101646423340e-01
3.542000000000000000e+03 6.324856948852539062e+01 -2.482815361022949219e+01 4.781007170677185059e-01 5.234143257141113281e+00 1.713673233985900879e+00 -2.659563302993774414e+00
3.543000000000000000e+03 4.726369094848632812e+01 1.088656902313232422e+00 1.400596499443054199e+00 9.215133666992187500e+00 3.184718847274780273e+00 -4.158880710601806641e+00
3.544000000000000000e+03 5.040157318115234375e+00 3.504701232910156250e+01 1.248924285173416138e-01 -5.546070337295532227e-01 -1.289143711328506470e-01 -2.718412131071090698e-02
3.545000000000000000e+03 1.671715736389160156e+01 -1.470203399658203125e+00 -1.650740355253219604e-01 -2.768608927726745605e-01 -1.325804740190505981e-01 -4.598419740796089172e-02
3.546000000000000000e+03 1.448417377471923828e+01 -9.138270378112792969e+00 -3.404827415943145752e-02 1.896212846040725708e-01 4.667190462350845337e-02 -5.256257206201553345e-02
3.547000000000000000e+03 5.384658813476562500e+01 2.181161308288574219e+01 -1.857769727706909180e+00 5.127042293548583984e+00 9.807817935943603516e-01 -2.505095481872558594e+00
3.548000000000000000e+03 5.360193252563476562e+01 -3.028218841552734375e+01 1.500481724739074707e+00 5.550328254699707031e+00 2.115242958068847656e+00 9.979943037033081055e-01
3.549000000000000000e+03 5.345682525634765625e+01 -3.592028808593750000e+01 9.784362912178039551e-01 6.143692970275878906e+00 2.136638641357421875e+00 4.028847217559814453e-01
3.550000000000000000e+03 6.707695770263671875e+01 -2.774463462829589844e+01 7.229689508676528931e-02 6.541578292846679688e+00 1.984162569046020508e+00 -2.405442237854003906e+00
3.551000000000000000e+03 5.756039428710937500e+01 -1.337262153625488281e+01 -1.613188162446022034e-02 4.140255451202392578e+00 1.237237095832824707e+00 -8.942002058029174805e-01
3.552000000000000000e+03 2.156283760070800781e+01 7.759972572326660156e+00 4.104478955268859863e-01 7.744074682705104351e-04 1.233666911721229553e-01 1.654531806707382202e-01
3.553000000000000000e+03 5.134878921508789062e+01 -1.312056827545166016e+01 6.420520544052124023e-01 3.534684896469116211e+00 1.253021121025085449e+00 -1.189462542533874512e+00
3.554000000000000000e+03 5.586505508422851562e+01 1.991700744628906250e+01 -9.319810867309570312e-01 4.219102859497070312e+00 9.861366152763366699e-01 -2.374263763427734375e+00
3.555000000000000000e+03 4.614275741577148438e+01 -3.223114728927612305e+00 2.125880479812622070e+00 2.783543586730957031e+00 1.472827196121215820e+00 1.226147890090942383e+00
3.556000000000000000e+03 4.600883865356445312e+01 -2.887861251831054688e+00 2.776077270507812500e+00 1.898887991905212402e+00 1.402489542961120605e+00 1.286723971366882324e+00
3.557000000000000000e+03 5.019238662719726562e+01 -2.498713493347167969e+00 3.256218194961547852e+00 9.925900459289550781e+00 3.954635620117187500e+00 -2.444031715393066406e+00
3.558000000000000000e+03 4.640466308593750000e+01 -3.002300262451171875e+00 2.386360645294189453e+00 3.899280071258544922e+00 1.885692119598388672e+00 1.669794201850891113e+00
3.559000000000000000e+03 1.361071205139160156e+01 -3.955674743652343750e+01 2.028117477893829346e-01 1.469029933214187622e-01 1.049144193530082703e-01 -8.924805372953414917e-02
3.560000000000000000e+03 1.792181587219238281e+01 -1.922095870971679688e+01 -1.282826364040374756e-01 5.861696973443031311e-02 -2.089970186352729797e-02 -4.964051544666290283e-01
3.561000000000000000e+03 4.015547275543212891e+00 -2.635452842712402344e+01 -1.615659566596150398e-03 -2.773897349834442139e-01 -8.370161801576614380e-02 4.764966666698455811e-03
3.562000000000000000e+03 3.719099426269531250e+01 -4.930596351623535156e+00 1.780302643775939941e+00 1.833439111709594727e+00 1.084122538566589355e+00 8.083190321922302246e-01
3.563000000000000000e+03 4.627716064453125000e+01 1.388623237609863281e+00 1.576305866241455078e+00 5.603261947631835938e+00 2.153870344161987305e+00 -4.692883491516113281e+00
3.564000000000000000e+03 4.320743560791015625e+00 -3.178704833984375000e+01 -2.444680966436862946e-02 -3.348855674266815186e-01 -1.077997088432312012e-01 -5.776619166135787964e-02
3.565000000000000000e+03 1.928581237792968750e+00 3.311525344848632812e+01 1.734572462737560272e-02 -1.010139107704162598e+00 -2.978380322456359863e-01 3.693454712629318237e-02
3.566000000000000000e+03 5.023917770385742188e+01 -1.782008409500122070e+00 5.113666057586669922e+00 8.795270919799804688e+00 4.172680854797363281e+00 -1.632872343063354492e+00
3.567000000000000000e+03 3.605280685424804688e+01 1.367687797546386719e+01 9.356238245964050293e-01 8.263595700263977051e-01 5.285950303077697754e-01 -9.112278819084167480e-01
3.568000000000000000e+03 5.550271606445312500e+01 8.944496154785156250e+00 2.317831993103027344e+00 1.056364727020263672e+01 3.864443778991699219e+00 1.899639248847961426e+00
3.569000000000000000e+03 2.301158714294433594e+01 3.318199539184570312e+01 1.276520639657974243e-01 6.858228445053100586e-01 2.440424710512161255e-01 -1.459482163190841675e-01
3.570000000000000000e+03 2.490740013122558594e+01 3.315554809570312500e+01 2.222592234611511230e-01 8.989344835281372070e-01 3.363581299781799316e-01 -1.663797497749328613e-01
3.571000000000000000e+03 6.777933502197265625e+01 2.790858650207519531e+01 1.676022291183471680e+00 4.361948966979980469e+00 1.811391353607177734e+00 8.344764113426208496e-01
3.572000000000000000e+03 4.787157821655273438e+01 3.181534004211425781e+01 6.103174686431884766e-01 4.294711589813232422e+00 1.471508741378784180e+00 -5.858171582221984863e-01
3.573000000000000000e+03 3.660973358154296875e+01 -1.166888141632080078e+01 -7.564488053321838379e-01 8.419234156608581543e-01 2.564238384366035461e-02 4.001009464263916016e-01
3.574000000000000000e+03 3.933668518066406250e+01 -2.970356941223144531e+01 5.949203372001647949e-01 5.510834217071533203e+00 1.831726312637329102e+00 1.666145920753479004e+00
3.575000000000000000e+03 6.855500793457031250e+01 -3.846406173706054688e+01 -1.226383447647094727e+00 5.541822433471679688e+00 1.294631719589233398e+00 -8.102114200592041016e-01
3.576000000000000000e+03 4.549172592163085938e+01 1.941014885902404785e+00 6.281420588493347168e-01 4.249186515808105469e+00 1.463198542594909668e+00 -4.009348392486572266e+00
3.577000000000000000e+03 4.519032669067382812e+01 1.598924398422241211e+00 1.288426160812377930e+00 3.165524721145629883e+00 1.336185216903686523e+00 -3.694757938385009766e+00
3.578000000000000000e+03 4.517565917968750000e+01 2.253473043441772461e+00 4.430429637432098389e-01 3.790789604187011719e+00 1.270149827003479004e+00 -3.739636898040771484e+00
3.579000000000000000e+03 4.028010177612304688e+01 7.636026382446289062e+00 2.106991708278656006e-01 2.066730022430419922e+00 6.832287311553955078e-01 -2.751867473125457764e-01
3.580000000000000000e+03 4.472077178955078125e+01 -2.522566556930541992e+00 2.351655960083007812e+00 -8.056811094284057617e-01 4.637924730777740479e-01 8.482179641723632812e-01
3.581000000000000000e+03 4.995376586914062500e+01 -8.850908279418945312e+00 1.646049737930297852e+00 9.262736320495605469e+00 3.272635936737060547e+00 1.614343285560607910e+00
3.582000000000000000e+03 6.061171722412109375e+01 -4.078973770141601562e+01 -9.679856300354003906e-01 1.787305176258087158e-01 -2.367765307426452637e-01 -1.818197965621948242e-01
3.583000000000000000e+03 7.800961303710937500e+01 -7.024494171142578125e+00 6.786342859268188477e-01 8.791127204895019531e+00 2.840928554534912109e+00 -1.969366967678070068e-01
3.584000000000000000e+03 7.714817810058593750e+01 -2.097454643249511719e+01 6.918659806251525879e-01 7.918092727661132812e+00 2.582987785339355469e+00 6.077497005462646484e-01
3.585000000000000000e+03 3.094412612915039062e+01 -1.338891792297363281e+01 -7.591514587402343750e-01 7.790157198905944824e-01 5.959264468401670456e-03 6.438024044036865234e-01
3.586000000000000000e+03 3.191139602661132812e+01 -1.309896564483642578e+01 -8.307414650917053223e-01 6.216968894004821777e-01 -6.271336972713470459e-02 7.753496766090393066e-01
3.587000000000000000e+03 3.363283157348632812e+01 -7.563179969787597656e+00 7.492299675941467285e-01 1.197621747851371765e-01 2.606976330280303955e-01 5.325011610984802246e-01
3.588000000000000000e+03 3.138498306274414062e+01 -8.851972579956054688e+00 8.203275501728057861e-02 -2.624295055866241455e-01 -5.411902815103530884e-02 3.438744544982910156e-01
3.589000000000000000e+03 4.875680160522460938e+01 2.409048795700073242e+00 -1.711175441741943359e-01 6.895761489868164062e+00 2.017393112182617188e+00 -1.058770895004272461e+00
3.590000000000000000e+03 4.680998992919921875e+01 1.221482634544372559e+00 1.566190004348754883e+00 7.507200241088867188e+00 2.722017049789428711e+00 -4.748814582824707031e+00
3.591000000000000000e+03 3.394780731201171875e+01 2.938286399841308594e+01 4.705211222171783447e-01 3.566219329833984375e+00 1.211022138595581055e+00 -3.919219672679901123e-01
3.592000000000000000e+03 6.590301513671875000e+01 3.208033752441406250e+01 3.666841089725494385e-01 5.706847190856933594e+00 1.822059392929077148e+00 1.007240533828735352e+00
3.593000000000000000e+03 2.985707283020019531e+01 3.197798156738281250e+01 3.625942468643188477e-01 1.563178896903991699e+00 5.777319669723510742e-01 -5.874130725860595703e-01
3.594000000000000000e+03 4.219163894653320312e+01 -2.083363914489746094e+01 1.268072485923767090e+00 2.885692119598388672e+00 1.246129393577575684e+00 1.650261759757995605e+00
3.595000000000000000e+03 6.772939300537109375e+01 3.470130920410156250e+01 -2.228506207466125488e-01 5.388801097869873047e+00 1.549785017967224121e+00 6.878527998924255371e-01
3.596000000000000000e+03 3.058832740783691406e+01 -3.316585540771484375e+01 5.559570193290710449e-01 7.697356343269348145e-01 3.977077901363372803e-01 3.034596517682075500e-02
3.597000000000000000e+03 3.285987472534179688e+01 -3.447275543212890625e+01 8.066660165786743164e-01 1.174449563026428223e+00 5.943346619606018066e-01 6.313414573669433594e-01
3.598000000000000000e+03 1.818510818481445312e+01 -2.446324539184570312e+01 1.802146136760711670e-01 -2.169296331703662872e-02 4.755649715662002563e-02 -7.320006936788558960e-02
3.599000000000000000e+03 6.608059692382812500e+01 2.331454658508300781e+01 3.842470049858093262e-01 3.187439918518066406e+00 1.071506023406982422e+00 1.298484444618225098e+00
3.600000000000000000e+03 6.094027996063232422e+00 7.637658119201660156e+00 -3.066335320472717285e-01 -1.038829460740089417e-01 -1.231549456715583801e-01 1.768687069416046143e-01
3.601000000000000000e+03 5.309950256347656250e+01 -1.212063312530517578e+01 4.815659224987030029e-01 4.303370475769042969e+00 1.435480952262878418e+00 -2.801071882247924805e+00
3.602000000000000000e+03 5.085531997680664062e+01 3.482019901275634766e+00 -8.827123641967773438e-01 2.496052742004394531e+00 4.840020835399627686e-01 2.054532766342163086e+00
3.603000000000000000e+03 5.804403686523437500e+01 -1.262978935241699219e+01 6.342730671167373657e-02 3.392420768737792969e+00 1.036754369735717773e+00 -2.759543657302856445e-01
3.604000000000000000e+03 6.466899108886718750e+01 4.265488624572753906e+00 -1.296324133872985840e-01 2.019489765167236328e+00 5.669571757316589355e-01 6.786048877984285355e-03
3.605000000000000000e+03 4.991524505615234375e+01 -1.293337631225585938e+01 7.093471288681030273e-01 5.301785469055175781e+00 1.803339838981628418e+00 3.494014739990234375e-01
3.606000000000000000e+03 4.195002365112304688e+01 -2.532636833190917969e+01 1.353808641433715820e+00 2.769125938415527344e+00 1.236880421638488770e+00 2.184565067291259766e+00
3.607000000000000000e+03 6.415149688720703125e+01 -1.480355548858642578e+01 -1.606802821159362793e+00 5.801836490631103516e+00 1.258510112762451172e+00 5.390153527259826660e-01
3.608000000000000000e+03 4.011469650268554688e+01 1.536744785308837891e+01 1.206994414329528809e+00 2.293999910354614258e+00 1.050298333168029785e+00 -1.484460830688476562e+00
3.609000000000000000e+03 2.485637664794921875e+00 2.457917785644531250e+01 -2.637537568807601929e-02 -7.746505737304687500e-01 -2.403077930212020874e-01 -4.051111172884702682e-03
3.610000000000000000e+03 3.242727756500244141e+00 -4.244419574737548828e+00 8.836551569402217865e-03 -3.190854936838150024e-02 -6.921599153429269791e-03 -2.148623205721378326e-02
3.611000000000000000e+03 5.879529190063476562e+01 5.998604297637939453e+00 -2.161680907011032104e-01 6.282191753387451172e+00 1.819807171821594238e+00 -1.025179982185363770e+00
3.612000000000000000e+03 4.406069564819335938e+01 -1.732104492187500000e+01 4.785402715206146240e-01 3.839924573898315430e+00 1.295539379119873047e+00 9.336376786231994629e-01
3.613000000000000000e+03 2.099241256713867188e+01 3.420244979858398438e+01 7.618021965026855469e-02 4.537149667739868164e-01 1.589685529470443726e-01 -1.606155335903167725e-01
3.614000000000000000e+03 2.434463500976562500e+01 -2.040557098388671875e+01 4.292796552181243896e-01 3.002055287361145020e-01 2.188455611467361450e-01 -1.065777987241744995e-01
3.615000000000000000e+03 1.425330352783203125e+01 4.614360809326171875e+00 -4.840486943721771240e-01 -1.144697740674018860e-01 -1.795555353164672852e-01 6.728248596191406250e-01
3.616000000000000000e+03 6.126835632324218750e+01 -1.361781406402587891e+01 -1.012595772743225098e+00 6.415631771087646484e+00 1.620910763740539551e+00 1.108062624931335449e+00
3.617000000000000000e+03 6.006363677978515625e+01 -1.540670871734619141e+01 -3.531651496887207031e-01 6.188721656799316406e+00 1.750666975975036621e+00 3.113639652729034424e-01
3.618000000000000000e+03 1.132579517364501953e+01 1.926937866210937500e+01 4.293236434459686279e-01 2.993867993354797363e-01 2.186131328344345093e-01 2.960088253021240234e-01
3.619000000000000000e+03 3.109948730468750000e+01 3.291049194335937500e+01 1.275863349437713623e-01 1.890552759170532227e+00 6.054416894912719727e-01 -5.241546630859375000e-01
3.620000000000000000e+03 5.046548843383789062e+01 2.357970809936523438e+01 -4.741845279932022095e-02 3.989307641983032227e+00 1.182566761970520020e+00 -6.734348535537719727e-01
3.621000000000000000e+03 5.276658630371093750e+01 2.116553878784179688e+01 -1.780833840370178223e+00 4.560034751892089844e+00 8.337602615356445312e-01 -2.336940288543701172e+00
3.622000000000000000e+03 1.331129932403564453e+01 4.386283397674560547e+00 -4.333642721176147461e-01 -2.508499920368194580e-01 -2.052642852067947388e-01 5.067086219787597656e-01
3.623000000000000000e+03 4.636219787597656250e+01 2.647389888763427734e+00 -5.472041964530944824e-01 5.849271774291992188e+00 1.590620279312133789e+00 -4.162175178527832031e+00
3.624000000000000000e+03 3.538060760498046875e+01 -3.376316452026367188e+01 1.156534671783447266e+00 1.832052350044250488e+00 8.965761065483093262e-01 9.919219613075256348e-01
3.625000000000000000e+03 5.966442108154296875e+00 -2.894246673583984375e+01 -5.346470698714256287e-02 -1.725062578916549683e-01 -6.779129058122634888e-02 -7.040247321128845215e-02
3.626000000000000000e+03 8.171171188354492188e+00 -2.818582344055175781e+01 -5.742523074150085449e-02 -7.735107839107513428e-02 -4.043289273977279663e-02 -1.248726621270179749e-01
3.627000000000000000e+03 2.501132965087890625e+01 -1.602600479125976562e+01 -2.575588524341583252e-01 -9.164590388536453247e-02 -1.047614216804504395e-01 -2.581408023834228516e-01
3.628000000000000000e+03 4.560464859008789062e+01 5.381391525268554688e+00 -2.160932302474975586e+00 5.905686855316162109e+00 1.123426437377929688e+00 -2.699481248855590820e+00
3.629000000000000000e+03 6.217603683471679688e+01 1.318719029426574707e+00 -2.201619446277618408e-01 5.426934719085693359e+00 1.562031865119934082e+00 -1.098137140274047852e+00
3.630000000000000000e+03 6.145811462402343750e+01 4.330389976501464844e+00 -6.016532778739929199e-01 4.738758563995361328e+00 1.241131544113159180e+00 -1.789162993431091309e+00
3.631000000000000000e+03 6.338559341430664062e+01 7.116897106170654297e-01 1.884462684392929077e-01 5.476592063903808594e+00 1.699511528015136719e+00 -1.475908309221267700e-01
3.632000000000000000e+03 7.227427673339843750e+01 3.283767318725585938e+01 3.565067946910858154e-01 5.905020713806152344e+00 1.878458261489868164e+00 4.298718273639678955e-01
3.633000000000000000e+03 7.173159790039062500e+01 2.521817398071289062e+01 3.434377610683441162e-01 4.934463500976562500e+00 1.583370447158813477e+00 -8.129827976226806641e-01
3.634000000000000000e+03 7.278962707519531250e+01 2.505570411682128906e+01 -3.907768055796623230e-02 5.611204624176025391e+00 1.671638011932373047e+00 -8.503487706184387207e-01
3.635000000000000000e+03 4.140911865234375000e+01 1.556635093688964844e+01 1.026640057563781738e+00 3.120775222778320312e+00 1.244224548339843750e+00 -1.231793165206909180e+00
3.636000000000000000e+03 7.561534118652343750e+01 1.522981452941894531e+01 4.852846264839172363e-01 7.949200153350830078e+00 2.530345439910888672e+00 1.207906723022460938e+00
3.637000000000000000e+03 1.169148540496826172e+01 -7.638303279876708984e+00 3.618415445089340210e-02 1.409580279141664505e-02 1.508398633450269699e-02 -1.292359977960586548e-01
3.638000000000000000e+03 4.450993537902832031e+00 8.270619392395019531e+00 -1.913386583328247070e-01 -8.374401181936264038e-02 -8.252479881048202515e-02 2.028575986623764038e-01
3.639000000000000000e+03 4.131058120727539062e+01 7.816518306732177734e+00 3.592099845409393311e-01 3.078152894973754883e+00 1.031208872795104980e+00 -5.710336565971374512e-01
3.640000000000000000e+03 2.506834411621093750e+01 7.818290710449218750e+00 3.042735457420349121e-01 3.573736920952796936e-02 1.020032688975334167e-01 1.027645915746688843e-02
3.641000000000000000e+03 2.452644729614257812e+01 9.564790725708007812e+00 3.614350259304046631e-01 8.724533021450042725e-02 1.346041113138198853e-01 4.425550997257232666e-02
3.642000000000000000e+03 1.054002380371093750e+01 -8.049659729003906250e+00 3.604974225163459778e-02 -4.898191615939140320e-02 -3.879652125760912895e-03 -1.397826820611953735e-01
3.643000000000000000e+03 2.536472511291503906e+01 -1.739970588684082031e+01 8.106637001037597656e-02 1.272591054439544678e-01 6.249764189124107361e-02 -1.890204548835754395e-01
3.644000000000000000e+03 4.185667419433593750e+01 -1.791794013977050781e+01 5.173501372337341309e-01 1.288847923278808594e+00 5.418594479560852051e-01 3.923096060752868652e-01
3.645000000000000000e+03 5.204270553588867188e+01 -3.081104087829589844e+01 1.869379997253417969e+00 4.835639476776123047e+00 2.011505842208862305e+00 3.678527176380157471e-01
3.646000000000000000e+03 7.556006622314453125e+01 1.380439949035644531e+01 8.536654710769653320e-01 7.899774074554443359e+00 2.626031875610351562e+00 7.950036525726318359e-01
3.647000000000000000e+03 7.509514617919921875e+01 1.911929512023925781e+01 -9.787973165512084961e-01 7.753344058990478516e+00 2.032363891601562500e+00 5.096521973609924316e-01
3.648000000000000000e+03 3.493441820144653320e+00 -2.835960960388183594e+01 -3.033848106861114502e-02 -3.393994569778442383e-01 -1.109213829040527344e-01 -2.839907538145780563e-03
3.649000000000000000e+03 2.586223602294921875e+00 2.350158882141113281e+01 -1.402263902127742767e-02 -7.438704967498779297e-01 -2.273679375648498535e-01 -8.573342114686965942e-03
3.650000000000000000e+03 6.725499629974365234e+00 -3.170606422424316406e+01 -4.419463500380516052e-02 -1.970612108707427979e-01 -7.237675786018371582e-02 -1.071479544043540955e-01
3.651000000000000000e+03 6.237327957153320312e+01 3.332523107528686523e-01 -1.759684085845947266e-02 6.212684631347656250e+00 1.858526349067687988e+00 -7.472413778305053711e-01
3.652000000000000000e+03 5.901649475097656250e+01 -2.072156906127929688e+01 2.517557621002197266e+00 5.341565132141113281e+00 2.357736825942993164e+00 -8.536387979984283447e-02
3.653000000000000000e+03 3.280655670166015625e+01 -8.735427856445312500e+00 3.752856552600860596e-01 7.007599808275699615e-03 1.146879717707633972e-01 6.121075153350830078e-01
3.654000000000000000e+03 1.917594146728515625e+01 -1.891039085388183594e+01 -5.516625940799713135e-02 4.855498299002647400e-02 -1.983382506296038628e-03 -5.046206712722778320e-01
3.655000000000000000e+03 1.228402042388916016e+01 -2.902634620666503906e+01 -2.111013978719711304e-02 -1.279103606939315796e-01 -4.470614716410636902e-02 -1.030643582344055176e-01
3.656000000000000000e+03 1.074672698974609375e+01 -2.850466918945312500e+01 -2.012522518634796143e-02 -9.592132270336151123e-02 -3.481396287679672241e-02 -1.440103799104690552e-01
3.657000000000000000e+03 2.128491210937500000e+01 3.294615936279296875e+01 5.599062144756317139e-02 4.796594977378845215e-01 1.606950461864471436e-01 -1.186489835381507874e-01
3.658000000000000000e+03 5.963312911987304688e+01 -1.442948436737060547e+01 -6.273107528686523438e-01 5.926278591156005859e+00 1.589690327644348145e+00 4.395432770252227783e-01
3.659000000000000000e+03 7.695137786865234375e+01 -2.891295051574707031e+01 -3.440836369991302490e-01 7.551352500915527344e+00 2.162180662155151367e+00 8.723130822181701660e-02
3.660000000000000000e+03 3.742834091186523438e+01 1.691367912292480469e+01 5.789613723754882812e-01 1.481129765510559082e+00 6.180273294448852539e-01 -1.583705067634582520e+00
3.661000000000000000e+03 7.005566120147705078e+00 -3.028069114685058594e+01 -5.438758060336112976e-02 -1.551179289817810059e-01 -6.285165250301361084e-02 -1.019217744469642639e-01
3.662000000000000000e+03 7.567555236816406250e+01 -3.219807052612304688e+01 3.201467096805572510e-01 6.504943847656250000e+00 2.047527074813842773e+00 1.380058825016021729e-01
3.663000000000000000e+03 7.251530456542968750e+01 3.172581481933593750e+01 4.025149047374725342e-01 5.951315402984619141e+00 1.906149148941040039e+00 3.299808502197265625e-01
3.664000000000000000e+03 7.217140960693359375e+01 3.057168197631835938e+01 7.348564863204956055e-01 5.666675090789794922e+00 1.920459389686584473e+00 2.225150614976882935e-01
3.665000000000000000e+03 7.365740203857421875e+01 2.371873092651367188e+01 -4.816145300865173340e-01 6.221667289733886719e+00 1.722015857696533203e+00 -7.125688791275024414e-01
3.666000000000000000e+03 3.747025012969970703e+00 8.566781997680664062e+00 -1.420138329267501831e-01 -9.263355284929275513e-02 -7.039421796798706055e-02 1.925992518663406372e-01
3.667000000000000000e+03 5.994297027587890625e+00 -2.990657615661621094e+01 -5.380918085575103760e-02 -1.989208608865737915e-01 -7.581901550292968750e-02 -7.741962373256683350e-02
3.668000000000000000e+03 6.722589969635009766e+00 -2.963232994079589844e+01 -5.727886036038398743e-02 -1.550563871860504150e-01 -6.370057165622711182e-02 -9.499532729387283325e-02
3.669000000000000000e+03 7.147802734375000000e+01 3.129818153381347656e+01 6.447091102600097656e-01 5.496890544891357422e+00 1.842479825019836426e+00 4.304313957691192627e-01
3.670000000000000000e+03 1.115754413604736328e+01 -1.603091955184936523e-01 -3.756707608699798584e-01 -1.797454953193664551e-01 -1.666248738765716553e-01 -8.650621771812438965e-02
3.671000000000000000e+03 1.126386642456054688e+01 -8.940912485122680664e-01 -2.939426004886627197e-01 9.971852600574493408e-02 -5.826721712946891785e-02 -1.193259283900260925e-01
3.672000000000000000e+03 1.049932956695556641e+01 -1.051980972290039062e+00 -2.436421215534210205e-01 -1.730107367038726807e-01 -1.249958500266075134e-01 -1.090033203363418579e-01
3.673000000000000000e+03 1.279222297668457031e+01 -5.713624954223632812e-01 -3.679555952548980713e-01 1.418331712484359741e-01 -6.783673167228698730e-02 -1.513672769069671631e-01
3.674000000000000000e+03 1.264629268646240234e+01 1.541289687156677246e-01 -4.727996885776519775e-01 -2.351010441780090332e-01 -2.123702168464660645e-01 -9.769361466169357300e-02
3.675000000000000000e+03 1.190196800231933594e+01 -3.807745641097426414e-03 -4.203034639358520508e-01 1.444638222455978394e-01 -8.275189250707626343e-02 -1.340464204549789429e-01
3.676000000000000000e+03 1.202809429168701172e+01 -7.334445118904113770e-01 -3.157460987567901611e-01 -2.148953229188919067e-01 -1.591924279928207397e-01 -1.346507072448730469e-01
3.677000000000000000e+03 1.041281127929687500e+01 -3.140535950660705566e-01 -3.423483073711395264e-01 1.063975095748901367e-01 -7.078523933887481689e-02 -9.574820101261138916e-02
3.678000000000000000e+03 9.660583496093750000e+00 -3.871031999588012695e-01 -2.840682268142700195e-01 -1.440628170967102051e-01 -1.284393221139907837e-01 -3.955062478780746460e-02
3.679000000000000000e+03 8.901437759399414062e+00 -3.833611309528350830e-01 -1.985831111669540405e-01 1.084188893437385559e-01 -2.704926766455173492e-02 -4.096401482820510864e-02
3.680000000000000000e+03 8.142838478088378906e+00 -3.822377920150756836e-01 -1.504779309034347534e-01 -1.009571477770805359e-01 -7.543052732944488525e-02 -9.636296890676021576e-03
3.681000000000000000e+03 7.384317874908447266e+00 -3.816416263580322266e-01 -1.024749502539634705e-01 8.334782719612121582e-02 -5.738135892897844315e-03 -3.139946237206459045e-02
3.682000000000000000e+03 6.625857353210449219e+00 -3.809241652488708496e-01 -7.600086927413940430e-02 -7.502323389053344727e-02 -4.530723020434379578e-02 -2.799808280542492867e-04
3.683000000000000000e+03 5.867558479309082031e+00 -3.799938857555389404e-01 -4.428124800324440002e-02 6.054123863577842712e-02 4.877997096627950668e-03 -2.371556870639324188e-02
3.684000000000000000e+03 5.109274387359619141e+00 -3.788675963878631592e-01 -3.085360676050186157e-02 -5.207767337560653687e-02 -2.487938478589057922e-02 3.651246661320328712e-03
3.685000000000000000e+03 4.350872039794921875e+00 -3.776756227016448975e-01 -1.232590246945619583e-02 3.889566659927368164e-02 7.970930077135562897e-03 -1.517292484641075134e-02
3.686000000000000000e+03 3.592402935028076172e+00 -3.764508068561553955e-01 -6.598822306841611862e-03 -3.022660128772258759e-02 -1.104762684553861618e-02 3.574610454961657524e-03
3.687000000000000000e+03 2.834043025970458984e+00 -3.751347661018371582e-01 1.213694340549409389e-03 1.898369006812572479e-02 6.059215404093265533e-03 -6.887826602905988693e-03
3.688000000000000000e+03 2.077167272567749023e+00 -3.747134804725646973e-01 1.231644651852548122e-03 -1.248067151755094528e-02 -3.374708117917180061e-03 2.891410607844591141e-03
3.689000000000000000e+03 1.334073781967163086e+00 -3.800741434097290039e-01 2.577585401013493538e-03 5.778453312814235687e-03 2.506811637431383133e-03 -1.875261077657341957e-03
3.690000000000000000e+03 3.531542122364044189e-01 -9.606399536132812500e-01 3.525184001773595810e-03 1.488619600422680378e-03 1.504141138866543770e-03 -3.828259359579533339e-04
3.691000000000000000e+03 6.561777591705322266e-01 -4.032240808010101318e-01 -3.077478613704442978e-03 -3.201452316716313362e-03 -1.883679302409291267e-03 3.964015748351812363e-03
3.692000000000000000e+03 9.748202323913574219e+00 -1.127103209495544434e+00 -2.078115195035934448e-01 6.626654416322708130e-02 -4.246349260210990906e-02 -1.055347919464111328e-01
3.693000000000000000e+03 9.011062622070312500e+00 -1.123361110687255859e+00 -1.884005516767501831e-01 -1.195426434278488159e-01 -9.238296002149581909e-02 -8.243829011917114258e-02
3.694000000000000000e+03 8.274469375610351562e+00 -1.122237801551818848e+00 -1.403581500053405762e-01 7.478006184101104736e-02 -1.967342570424079895e-02 -6.984274834394454956e-02
3.695000000000000000e+03 7.537953376770019531e+00 -1.121641635894775391e+00 -1.130742952227592468e-01 -8.799135684967041016e-02 -6.031969562172889709e-02 -4.624914005398750305e-02
3.696000000000000000e+03 6.801498889923095703e+00 -1.120924115180969238e+00 -8.155843615531921387e-02 6.049216911196708679e-02 -6.319880019873380661e-03 -4.873929172754287720e-02
3.697000000000000000e+03 6.065205574035644531e+00 -1.119993925094604492e+00 -6.076394021511077881e-02 -6.657005101442337036e-02 -3.820019587874412537e-02 -2.701149694621562958e-02
3.698000000000000000e+03 5.328927040100097656e+00 -1.118867635726928711e+00 -4.296202585101127625e-02 4.358407855033874512e-02 1.866161765065044165e-04 -3.033428266644477844e-02
3.699000000000000000e+03 4.592530727386474609e+00 -1.117675662040710449e+00 -2.628550864756107330e-02 -4.581364989280700684e-02 -2.162974700331687927e-02 -1.520991511642932892e-02
3.700000000000000000e+03 3.856066942214965820e+00 -1.116450786590576172e+00 -1.895414479076862335e-02 2.704385854303836823e-02 2.426913939416408539e-03 -1.520657353103160858e-02
3.701000000000000000e+03 3.119712829589843750e+00 -1.115134716033935547e+00 -9.026044048368930817e-03 -2.789058536291122437e-02 -1.107498910278081894e-02 -5.800609942525625229e-03
3.702000000000000000e+03 2.384842634201049805e+00 -1.114713430404663086e+00 -4.633984062820672989e-03 1.378939487040042877e-02 2.746623242273926735e-03 -6.043646484613418579e-03
3.703000000000000000e+03 1.663754701614379883e+00 -1.120074152946472168e+00 -2.782550407573580742e-03 -1.409238111227750778e-02 -5.062479525804519653e-03 2.026267815381288528e-03
3.704000000000000000e+03 1.007864356040954590e+00 -1.143224120140075684e+00 2.576493425294756889e-03 5.486279726028442383e-03 2.418831922113895416e-03 -2.222764771431684494e-03
3.705000000000000000e+03 4.727299118041992188e+01 -1.084059238433837891e+00 1.041753864288330078e+01 1.910617232322692871e+00 3.698446750640869141e+00 5.162918090820312500e+00
3.706000000000000000e+03 4.727416992187500000e+01 -1.103492617607116699e+00 1.125933074951171875e+01 7.391541957855224609e+00 5.595261573791503906e+00 1.191877269744873047e+01
3.707000000000000000e+03 4.727910614013671875e+01 -1.122324585914611816e+00 1.175857830047607422e+01 1.380225467681884766e+01 7.668250083923339844e+00 1.413717460632324219e+01
3.708000000000000000e+03 4.728762054443359375e+01 -1.139834642410278320e+00 1.130642509460449219e+01 2.126105690002441406e+01 9.770244598388671875e+00 1.531906223297119141e+01
3.709000000000000000e+03 4.729937744140625000e+01 -1.155352473258972168e+00 1.068334388732910156e+01 2.833703041076660156e+01 1.170611190795898438e+01 1.495776271820068359e+01
3.710000000000000000e+03 4.731393051147460938e+01 -1.168284296989440918e+00 9.712502479553222656e+00 3.541783905029296875e+01 1.353910255432128906e+01 1.314468479156494141e+01
3.711000000000000000e+03 4.733072280883789062e+01 -1.178135156631469727e+00 9.105304718017578125e+00 4.122565078735351562e+01 1.509928607940673828e+01 1.005064678192138672e+01
3.712000000000000000e+03 4.734911346435546875e+01 -1.184527993202209473e+00 9.036334037780761719e+00 4.547136688232421875e+01 1.635231018066406250e+01 5.833493709564208984e+00
3.713000000000000000e+03 4.736839675903320312e+01 -1.187218308448791504e+00 1.032799911499023438e+01 4.776199340820312500e+01 1.742699813842773438e+01 1.195190429687500000e+00
3.714000000000000000e+03 4.738783264160156250e+01 -1.186103105545043945e+00 1.245178604125976562e+01 4.782784271240234375e+01 1.808388900756835938e+01 -3.394806861877441406e+00
3.715000000000000000e+03 4.740668106079101562e+01 -1.181224942207336426e+00 1.591770267486572266e+01 4.630605316162109375e+01 1.866712760925292969e+01 -7.001614570617675781e+00
3.716000000000000000e+03 4.742421722412109375e+01 -1.172770619392395020e+00 1.965430068969726562e+01 4.318014144897460938e+01 1.885033226013183594e+01 -9.539617538452148438e+00
3.717000000000000000e+03 4.743977355957031250e+01 -1.161063671112060547e+00 2.385106468200683594e+01 3.995499420166015625e+01 1.914181709289550781e+01 -1.038845157623291016e+01
3.718000000000000000e+03 4.745275497436523438e+01 -1.146552085876464844e+00 2.729660987854003906e+01 3.607839202880859375e+01 1.901250076293945312e+01 -1.005568790435791016e+01
3.719000000000000000e+03 4.746265792846679688e+01 -1.129791259765625000e+00 3.027474784851074219e+01 3.366864395141601562e+01 1.918301773071289062e+01 -8.438040733337402344e+00
3.720000000000000000e+03 4.746911239624023438e+01 -1.111422657966613770e+00 3.202228546142578125e+01 3.130895042419433594e+01 1.899937057495117188e+01 -6.069463729858398438e+00
3.721000000000000000e+03 4.747186279296875000e+01 -1.092149257659912109e+00 3.296889877319335938e+01 3.097727203369140625e+01 1.918385124206542969e+01 -3.439727306365966797e+00
3.722000000000000000e+03 4.747081375122070312e+01 -1.072708725929260254e+00 3.257356262207031250e+01 3.108357048034667969e+01 1.909713935852050781e+01 -5.842657089233398438e-01
3.723000000000000000e+03 4.746599578857421875e+01 -1.053845047950744629e+00 3.158740043640136719e+01 3.288764953613281250e+01 1.934251594543457031e+01 1.630618333816528320e+00
3.724000000000000000e+03 4.745759963989257812e+01 -1.036280035972595215e+00 2.939583778381347656e+01 3.546492767333984375e+01 1.945822906494140625e+01 3.457437038421630859e+00
3.725000000000000000e+03 4.744594192504882812e+01 -1.020685911178588867e+00 2.693910789489746094e+01 3.867965698242187500e+01 1.968562889099121094e+01 4.138856887817382812e+00
3.726000000000000000e+03 4.743147277832031250e+01 -1.007659435272216797e+00 2.392866325378417969e+01 4.274939727783203125e+01 2.000341796875000000e+01 3.558413505554199219e+00
3.727000000000000000e+03 4.741474533081054688e+01 -9.976993203163146973e-01 2.086267662048339844e+01 4.590559005737304688e+01 2.003048133850097656e+01 1.861328840255737305e+00
3.728000000000000000e+03 4.739640045166015625e+01 -9.911865592002868652e-01 1.884338188171386719e+01 4.899452972412109375e+01 2.035137367248535156e+01 -1.594732403755187988e+00
3.729000000000000000e+03 4.737713623046875000e+01 -9.883704185485839844e-01 1.717955589294433594e+01 5.013569641113281250e+01 2.019457626342773438e+01 -5.828064918518066406e+00
3.730000000000000000e+03 4.735768890380859375e+01 -9.893587827682495117e-01 1.735545539855957031e+01 4.954454040527343750e+01 2.006999969482421875e+01 -1.084892940521240234e+01
3.731000000000000000e+03 4.733880996704101562e+01 -9.941137433052062988e-01 1.874930953979492188e+01 4.667491149902343750e+01 1.962726593017578125e+01 -1.556580066680908203e+01
3.732000000000000000e+03 4.732121658325195312e+01 -1.002453327178955078e+00 2.183138465881347656e+01 4.150678634643554688e+01 1.900145149230957031e+01 -1.959245491027832031e+01
3.733000000000000000e+03 4.730558776855468750e+01 -1.014058351516723633e+00 2.533719253540039062e+01 3.458213424682617188e+01 1.797579765319824219e+01 -2.199709510803222656e+01
3.734000000000000000e+03 4.729251480102539062e+01 -1.028484702110290527e+00 2.990093231201171875e+01 2.623846817016601562e+01 1.684181976318359375e+01 -2.226762008666992188e+01
3.735000000000000000e+03 4.728249740600585938e+01 -1.045180439949035645e+00 3.344236373901367188e+01 1.736910247802734375e+01 1.524344062805175781e+01 -2.035653305053710938e+01
3.736000000000000000e+03 4.727592468261718750e+01 -1.063506364822387695e+00 3.793701171875000000e+01 7.248322010040283203e+00 1.355560016632080078e+01 -1.371339130401611328e+01
