# el_label, x, y, sXX, sYY, sZZ, sXY
1.000000000000000000e+00 9.702937126159667969e+00 -2.983934059739112854e-02 -8.072845458984375000e+00 -1.957020163536071777e+00 -3.008959770202636719e+00 -2.578245639801025391e+00
2.000000000000000000e+00 9.504896163940429688e+00 -4.973223432898521423e-02 -2.769769430160522461e+00 7.122896313667297363e-01 -6.172439455986022949e-01 1.657838821411132812e-01
3.000000000000000000e+00 9.306854248046875000e+00 -6.962513178586959839e-02 -2.672067403793334961e+00 -3.825900852680206299e-01 -9.163972735404968262e-01 -2.705556154251098633e-01
4.000000000000000000e+00 9.108813285827636719e+00 -8.951802551746368408e-02 -2.275650978088378906e+00 2.056215852499008179e-01 -6.210087537765502930e-01 -1.169737130403518677e-01
5.000000000000000000e+00 9.714455604553222656e+00 -8.718428760766983032e-02 3.974872827529907227e+00 -1.964782357215881348e+00 6.030271649360656738e-01 -5.254311952739953995e-03
6.000000000000000000e+00 9.524093627929687500e+00 -1.453071534633636475e-01 3.556964695453643799e-01 -1.959085613489151001e-01 4.793637245893478394e-02 5.091904476284980774e-02
7.000000000000000000e+00 9.333730697631835938e+00 -2.034300118684768677e-01 1.036856532096862793e+00 5.152570605278015137e-01 4.656341075897216797e-01 7.492762207984924316e-01
8.000000000000000000e+00 9.143367767333984375e+00 -2.615528702735900879e-01 5.776300430297851562e-01 -1.051861792802810669e-01 1.417331546545028687e-01 3.706193864345550537e-01
9.000000000000000000e+00 9.736933708190917969e+00 -1.411830335855484009e-01 8.457942008972167969e+00 1.063997626304626465e+00 2.856581687927246094e+00 4.704239845275878906e+00
1.000000000000000000e+01 9.561555862426757812e+00 -2.353050708770751953e-01 5.101686000823974609e+00 5.601350069046020508e-01 1.698546290397644043e+00 2.515765905380249023e+00
1.100000000000000000e+01 9.386178970336914062e+00 -3.294270932674407959e-01 3.349382877349853516e+00 9.673761129379272461e-01 1.295027732849121094e+00 1.938344120979309082e+00
1.200000000000000000e+01 9.210802078247070312e+00 -4.235491156578063965e-01 3.130864143371582031e+00 1.059048414230346680e+00 1.256973743438720703e+00 1.909295678138732910e+00
1.300000000000000000e+01 9.769508361816406250e+00 -1.897630989551544189e-01 1.045991897583007812e+01 5.762142181396484375e+00 4.866618156433105469e+00 8.500864982604980469e+00
1.400000000000000000e+01 9.615847587585449219e+00 -3.162718117237091064e-01 6.675184726715087891e+00 3.371643781661987305e+00 3.014048576354980469e+00 5.412957191467285156e+00
1.500000000000000000e+01 9.462185859680175781e+00 -4.427805542945861816e-01 5.449668884277343750e+00 2.821775913238525391e+00 2.481433391571044922e+00 4.116798877716064453e+00
1.600000000000000000e+01 9.308525085449218750e+00 -5.692892670631408691e-01 4.416846275329589844e+00 2.448683738708496094e+00 2.059659004211425781e+00 3.422244787216186523e+00
1.700000000000000000e+01 9.810929298400878906e+00 -2.310599088668823242e-01 9.658536911010742188e+00 1.170421314239501953e+01 6.408824920654296875e+00 1.107528305053710938e+01
1.800000000000000000e+01 9.684882164001464844e+00 -3.850998580455780029e-01 7.080948352813720703e+00 7.543904304504394531e+00 4.387455940246582031e+00 7.585134983062744141e+00
1.900000000000000000e+01 9.558835029602050781e+00 -5.391398072242736816e-01 5.655372619628906250e+00 5.836558818817138672e+00 3.447579383850097656e+00 5.905434131622314453e+00
2.000000000000000000e+01 9.432787895202636719e+00 -6.931797266006469727e-01 4.922717571258544922e+00 5.056056976318359375e+00 2.993632316589355469e+00 5.022908210754394531e+00
2.100000000000000000e+01 9.859606742858886719e+00 -2.634885013103485107e-01 7.980171680450439453e+00 1.825047874450683594e+01 7.869194984436035156e+00 1.178581428527832031e+01
2.200000000000000000e+01 9.766011238098144531e+00 -4.391474723815917969e-01 6.042255878448486328e+00 1.226785182952880859e+01 5.493032455444335938e+00 8.501713752746582031e+00
2.300000000000000000e+01 9.672415733337402344e+00 -6.148064732551574707e-01 5.147361755371093750e+00 9.773530006408691406e+00 4.476267337799072266e+00 6.917413234710693359e+00
2.400000000000000000e+01 9.578820228576660156e+00 -7.904654741287231445e-01 4.375932216644287109e+00 8.243099212646484375e+00 3.785709142684936523e+00 5.868127822875976562e+00
2.500000000000000000e+01 9.913672447204589844e+00 -2.858042120933532715e-01 5.783340930938720703e+00 2.434902954101562500e+01 9.039710998535156250e+00 1.056259727478027344e+01
2.600000000000000000e+01 9.856121063232421875e+00 -4.763403236865997314e-01 4.861724376678466797e+00 1.711316108703613281e+01 6.592465877532958984e+00 8.046284675598144531e+00
2.700000000000000000e+01 9.798569679260253906e+00 -6.668764352798461914e-01 3.998146772384643555e+00 1.369208049774169922e+01 5.307068347930908203e+00 6.749470233917236328e+00
2.800000000000000000e+01 9.741018295288085938e+00 -8.574125766754150391e-01 3.549250602722167969e+00 1.187460994720458984e+01 4.627158164978027344e+00 5.859055519104003906e+00
2.900000000000000000e+01 9.971052169799804688e+00 -2.971505522727966309e-01 4.489120960235595703e+00 2.940239715576171875e+01 1.016745567321777344e+01 7.662505149841308594e+00
3.000000000000000000e+01 9.951753616333007812e+00 -4.952509105205535889e-01 3.706957817077636719e+00 2.119039916992187500e+01 7.469207286834716797e+00 6.365317821502685547e+00
3.100000000000000000e+01 9.932455062866210938e+00 -6.933512687683105469e-01 3.137900352478027344e+00 1.740196228027343750e+01 6.161958694458007812e+00 5.452023983001708984e+00
3.200000000000000000e+01 9.913155555725097656e+00 -8.914516568183898926e-01 2.671977281570434570e+00 1.489625644683837891e+01 5.270470142364501953e+00 4.836720466613769531e+00
3.300000000000000000e+01 1.002954196929931641e+01 -2.970920503139495850e-01 4.291007995605468750e+00 3.262196350097656250e+01 1.107389068603515625e+01 3.802586555480957031e+00
3.400000000000000000e+01 1.004923725128173828e+01 -4.951534271240234375e-01 3.452150344848632812e+00 2.429000663757324219e+01 8.322647094726562500e+00 3.739398956298828125e+00
3.500000000000000000e+01 1.006893157958984375e+01 -6.932148337364196777e-01 2.707624435424804688e+00 2.009614944458007812e+01 6.841132640838623047e+00 3.376965284347534180e+00
3.600000000000000000e+01 1.008862686157226562e+01 -8.912761807441711426e-01 2.303185224533081055e+00 1.750613212585449219e+01 5.942795276641845703e+00 2.921961069107055664e+00
3.700000000000000000e+01 1.008689880371093750e+01 -2.856309711933135986e-01 5.710970878601074219e+00 3.395191574096679688e+01 1.189886569976806641e+01 -2.741620242595672607e-01
3.800000000000000000e+01 1.014483070373535156e+01 -4.760516285896301270e-01 4.092849254608154297e+00 2.599684524536132812e+01 9.026908874511718750e+00 7.775208353996276855e-01
3.900000000000000000e+01 1.020276355743408203e+01 -6.664722561836242676e-01 3.203297615051269531e+00 2.175057029724121094e+01 7.486160755157470703e+00 7.755930423736572266e-01
4.000000000000000000e+01 1.026069545745849609e+01 -8.568928837776184082e-01 2.607881307601928711e+00 1.902523612976074219e+01 6.489934921264648438e+00 7.947210669517517090e-01
4.100000000000000000e+01 1.014091968536376953e+01 -2.632071673870086670e-01 8.442482948303222656e+00 3.360606002807617188e+01 1.261456298828125000e+01 -3.707894802093505859e+00
4.200000000000000000e+01 1.023486614227294922e+01 -4.386786222457885742e-01 5.785188674926757812e+00 2.630348396301269531e+01 9.626602172851562500e+00 -2.123551368713378906e+00
4.300000000000000000e+01 1.032881259918212891e+01 -6.141500473022460938e-01 4.557361602783203125e+00 2.227012634277343750e+01 8.048246383666992188e+00 -1.626085042953491211e+00
4.400000000000000000e+01 1.042275905609130859e+01 -7.896215319633483887e-01 3.787374019622802734e+00 1.947452926635742188e+01 6.978570938110351562e+00 -1.527187943458557129e+00
4.500000000000000000e+01 1.018953227996826172e+01 -2.306813150644302368e-01 1.192079257965087891e+01 3.189704895019531250e+01 1.314535236358642578e+01 -6.106836795806884766e+00
4.600000000000000000e+01 1.031588745117187500e+01 -3.844688534736633301e-01 8.364436149597167969e+00 2.562482452392578125e+01 1.019677829742431641e+01 -4.281064510345458984e+00
4.700000000000000000e+01 1.044224262237548828e+01 -5.382564067840576172e-01 6.641839504241943359e+00 2.160160446166992188e+01 8.473032951354980469e+00 -3.673773050308227539e+00
4.800000000000000000e+01 1.056859779357910156e+01 -6.920439004898071289e-01 5.603201389312744141e+00 1.919392585754394531e+01 7.439137935638427734e+00 -3.208274841308593750e+00
4.900000000000000000e+01 1.023087024688720703e+01 -1.893017292022705078e-01 1.575819015502929688e+01 2.989917945861816406e+01 1.369721126556396484e+01 -7.050220012664794922e+00
5.000000000000000000e+01 1.038478469848632812e+01 -3.155028820037841797e-01 1.127925205230712891e+01 2.391161918640136719e+01 1.055726146697998047e+01 -5.607728481292724609e+00
5.100000000000000000e+01 1.053869819641113281e+01 -4.417040348052978516e-01 9.222558975219726562e+00 2.053792953491210938e+01 8.928146362304687500e+00 -4.750822067260742188e+00
5.200000000000000000e+01 1.069261169433593750e+01 -5.679051876068115234e-01 7.844487667083740234e+00 1.788457679748535156e+01 7.718719482421875000e+00 -4.332500457763671875e+00
5.300000000000000000e+01 1.026334762573242188e+01 -1.406566202640533447e-01 1.909099388122558594e+01 2.753182411193847656e+01 1.398684501647949219e+01 -6.822895526885986328e+00
5.400000000000000000e+01 1.043891334533691406e+01 -2.344277054071426392e-01 1.426247215270996094e+01 2.234123229980468750e+01 1.098111152648925781e+01 -5.733221530914306641e+00
5.500000000000000000e+01 1.061447906494140625e+01 -3.281987905502319336e-01 1.176219654083251953e+01 1.875801277160644531e+01 9.156063079833984375e+00 -4.995830535888671875e+00
5.600000000000000000e+01 1.079004383087158203e+01 -4.219698905944824219e-01 1.014778518676757812e+01 1.680267333984375000e+01 8.085137367248535156e+00 -4.501497268676757812e+00
5.700000000000000000e+01 1.028571796417236328e+01 -8.661302924156188965e-02 2.175252723693847656e+01 2.609684562683105469e+01 1.435481166839599609e+01 -5.576232433319091797e+00
5.800000000000000000e+01 1.047619628906250000e+01 -1.443550437688827515e-01 1.665415573120117188e+01 2.053749084472656250e+01 1.115749454498291016e+01 -4.891870498657226562e+00
5.900000000000000000e+01 1.066667461395263672e+01 -2.020970582962036133e-01 1.392251873016357422e+01 1.759104728698730469e+01 9.454069137573242188e+00 -4.330771923065185547e+00
6.000000000000000000e+01 1.085715293884277344e+01 -2.598390877246856689e-01 1.207794189453125000e+01 1.532310676574707031e+01 8.220314979553222656e+00 -3.834214687347412109e+00
6.100000000000000000e+01 1.029712104797363281e+01 -2.924515865743160248e-02 2.326279830932617188e+01 2.498506355285644531e+01 1.447435855865478516e+01 -3.699613571166992188e+00
6.200000000000000000e+01 1.049520206451416016e+01 -4.874193295836448669e-02 1.826007270812988281e+01 1.974485015869140625e+01 1.140147686004638672e+01 -3.356586694717407227e+00
6.300000000000000000e+01 1.069328308105468750e+01 -6.823870539665222168e-02 1.522421836853027344e+01 1.654985618591308594e+01 9.532221794128417969e+00 -2.945154428482055664e+00
6.400000000000000000e+01 1.089136409759521484e+01 -8.773547410964965820e-02 1.334238147735595703e+01 1.461355781555175781e+01 8.386781692504882812e+00 -2.689146041870117188e+00
6.500000000000000000e+01 1.029712104797363281e+01 2.924515865743160248e-02 2.375640106201171875e+01 2.505106925964355469e+01 1.464224147796630859e+01 -1.706580638885498047e+00
6.600000000000000000e+01 1.049520206451416016e+01 4.874193295836448669e-02 1.867302131652832031e+01 1.945368385314941406e+01 1.143801212310791016e+01 -1.413287162780761719e+00
6.700000000000000000e+01 1.069328308105468750e+01 6.823870539665222168e-02 1.564708423614501953e+01 1.653921127319335938e+01 9.655888557434082031e+00 -1.323950052261352539e+00
6.800000000000000000e+01 1.089136409759521484e+01 8.773547410964965820e-02 1.352143192291259766e+01 1.433395385742187500e+01 8.356616020202636719e+00 -1.175523400306701660e+00
6.900000000000000000e+01 1.028571796417236328e+01 8.661302924156188965e-02 2.305079460144042969e+01 2.575487518310546875e+01 1.464170074462890625e+01 2.385900020599365234e-01
7.000000000000000000e+01 1.047619628906250000e+01 1.443550437688827515e-01 1.805508613586425781e+01 2.020058822631835938e+01 1.147670269012451172e+01 2.941419482231140137e-01
7.100000000000000000e+01 1.066667461395263672e+01 2.020970582962036133e-01 1.496831226348876953e+01 1.711089324951171875e+01 9.623762130737304688e+00 2.850213944911956787e-01
7.200000000000000000e+01 1.085715293884277344e+01 2.598390877246856689e-01 1.296292400360107422e+01 1.496979522705078125e+01 8.379816055297851562e+00 2.026675343513488770e-01
7.300000000000000000e+01 1.026334762573242188e+01 1.406566202640533447e-01 2.146197319030761719e+01 2.718172454833984375e+01 1.459310913085937500e+01 1.600952625274658203e+00
7.400000000000000000e+01 1.043891334533691406e+01 2.344277054071426392e-01 1.637310791015625000e+01 2.163371849060058594e+01 1.140204811096191406e+01 1.524377107620239258e+00
7.500000000000000000e+01 1.061447906494140625e+01 3.281987905502319336e-01 1.352017021179199219e+01 1.829835891723632812e+01 9.545558929443359375e+00 1.309940218925476074e+00
7.600000000000000000e+01 1.079004383087158203e+01 4.219698905944824219e-01 1.162764453887939453e+01 1.615878677368164062e+01 8.335928916931152344e+00 1.155673503875732422e+00
7.700000000000000000e+01 1.023087024688720703e+01 1.893017292022705078e-01 1.905302047729492188e+01 2.917497634887695312e+01 1.446839904785156250e+01 2.189812183380126953e+00
7.800000000000000000e+01 1.038478469848632812e+01 3.155028820037841797e-01 1.410165500640869141e+01 2.335519027709960938e+01 1.123705387115478516e+01 1.858458042144775391e+00
7.900000000000000000e+01 1.053869819641113281e+01 4.417040348052978516e-01 1.146483135223388672e+01 1.990131187438964844e+01 9.409842491149902344e+00 1.533268809318542480e+00
8.000000000000000000e+01 1.069261169433593750e+01 5.679051876068115234e-01 9.724295616149902344e+00 1.747973823547363281e+01 8.161210060119628906e+00 1.328798174858093262e+00
8.100000000000000000e+01 1.018953227996826172e+01 2.306813150644302368e-01 1.622128868103027344e+01 3.121753692626953125e+01 1.423164749145507812e+01 1.736114501953125000e+00
8.200000000000000000e+01 1.031588745117187500e+01 3.844688534736633301e-01 1.159105396270751953e+01 2.510390853881835938e+01 1.100848865509033203e+01 1.125846624374389648e+00
8.300000000000000000e+01 1.044224262237548828e+01 5.382564067840576172e-01 9.254530906677246094e+00 2.131248283386230469e+01 9.170104026794433594e+00 8.449406623840332031e-01
8.400000000000000000e+01 1.056859779357910156e+01 6.920439004898071289e-01 7.670505523681640625e+00 1.882628250122070312e+01 7.949036121368408203e+00 6.702181696891784668e-01
8.500000000000000000e+01 1.014091968536376953e+01 2.632071673870086670e-01 1.338630771636962891e+01 3.300886917114257812e+01 1.391855335235595703e+01 7.655622810125350952e-02
8.600000000000000000e+01 1.023486614227294922e+01 4.386786222457885742e-01 9.348270416259765625e+00 2.623060226440429688e+01 1.067366123199462891e+01 -5.944244861602783203e-01
8.700000000000000000e+01 1.032881259918212891e+01 6.141500473022460938e-01 7.279628276824951172e+00 2.225746345520019531e+01 8.861127853393554688e+00 -7.393824458122253418e-01
8.800000000000000000e+01 1.042275905609130859e+01 7.896215319633483887e-01 5.981894016265869141e+00 1.957241439819335938e+01 7.666292667388916016e+00 -7.319123148918151855e-01
8.900000000000000000e+01 1.008689880371093750e+01 2.856309711933135986e-01 1.108548927307128906e+01 3.385023117065429688e+01 1.348071575164794922e+01 -2.656207561492919922e+00
9.000000000000000000e+01 1.014483070373535156e+01 4.760516285896301270e-01 7.771903038024902344e+00 2.643721008300781250e+01 1.026273345947265625e+01 -3.117168426513671875e+00
9.100000000000000000e+01 1.020276355743408203e+01 6.664722561836242676e-01 5.975464820861816406e+00 2.223101043701171875e+01 8.461942672729492188e+00 -2.902115345001220703e+00
9.200000000000000000e+01 1.026069545745849609e+01 8.568928837776184082e-01 4.809739112854003906e+00 1.949751472473144531e+01 7.292176246643066406e+00 -2.780771017074584961e+00
9.300000000000000000e+01 1.002954196929931641e+01 2.970920503139495850e-01 9.868062019348144531e+00 3.332873916625976562e+01 1.295903968811035156e+01 -6.211100578308105469e+00
9.400000000000000000e+01 1.004923725128173828e+01 4.951534271240234375e-01 7.114603519439697266e+00 2.530628967285156250e+01 9.726267814636230469e+00 -5.915069103240966797e+00
9.500000000000000000e+01 1.006893157958984375e+01 6.932148337364196777e-01 5.575185298919677734e+00 2.109630012512207031e+01 8.001445770263671875e+00 -5.381811141967773438e+00
9.600000000000000000e+01 1.008862686157226562e+01 8.912761807441711426e-01 4.373446941375732422e+00 1.839775085449218750e+01 6.831359386444091797e+00 -4.894448280334472656e+00
9.700000000000000000e+01 9.971052169799804688e+00 2.971505522727966309e-01 9.913314819335937500e+00 3.099164390563964844e+01 1.227148818969726562e+01 -9.913829803466796875e+00
9.800000000000000000e+01 9.951753616333007812e+00 4.952509105205535889e-01 7.621808052062988281e+00 2.277536010742187500e+01 9.119150161743164062e+00 -8.555051803588867188e+00
9.900000000000000000e+01 9.932455062866210938e+00 6.933512687683105469e-01 5.927830219268798828e+00 1.880817031860351562e+01 7.420799732208251953e+00 -7.537210464477539062e+00
1.000000000000000000e+02 9.913155555725097656e+00 8.914516568183898926e-01 4.902120590209960938e+00 1.628242301940917969e+01 6.355362892150878906e+00 -6.820213794708251953e+00
1.010000000000000000e+02 9.913672447204589844e+00 2.858042120933532715e-01 1.141434383392333984e+01 2.682508468627929688e+01 1.147182846069335938e+01 -1.300272750854492188e+01
1.020000000000000000e+02 9.856121063232421875e+00 4.763403236865997314e-01 8.913443565368652344e+00 1.901073455810546875e+01 8.377253532409667969e+00 -1.047961235046386719e+01
1.030000000000000000e+02 9.798569679260253906e+00 6.668764352798461914e-01 7.134279251098632812e+00 1.544188117980957031e+01 6.772848129272460938e+00 -8.937620162963867188e+00
1.040000000000000000e+02 9.741018295288085938e+00 8.574125766754150391e-01 5.823219776153564453e+00 1.341186904907226562e+01 5.770526409149169922e+00 -8.015220642089843750e+00
1.050000000000000000e+02 9.859606742858886719e+00 2.634885013103485107e-01 1.392311954498291016e+01 2.108850097656250000e+01 1.050348567962646484e+01 -1.479873943328857422e+01
1.060000000000000000e+02 9.766011238098144531e+00 4.391474723815917969e-01 1.067372131347656250e+01 1.437999439239501953e+01 7.516114711761474609e+00 -1.113851261138916016e+01
1.070000000000000000e+02 9.672415733337402344e+00 6.148064732551574707e-01 8.635540962219238281e+00 1.152931308746337891e+01 6.049456119537353516e+00 -9.359853744506835938e+00
1.080000000000000000e+02 9.578820228576660156e+00 7.904654741287231445e-01 7.096923351287841797e+00 9.831839561462402344e+00 5.078628540039062500e+00 -8.146138191223144531e+00
1.090000000000000000e+02 9.810929298400878906e+00 2.310599088668823242e-01 1.661101531982421875e+01 1.454500675201416016e+01 9.346806526184082031e+00 -1.462165737152099609e+01
1.100000000000000000e+02 9.684882164001464844e+00 3.850998580455780029e-01 1.234810066223144531e+01 9.436624526977539062e+00 6.535417556762695312e+00 -1.043355369567871094e+01
1.110000000000000000e+02 9.558835029602050781e+00 5.391398072242736816e-01 9.832148551940917969e+00 7.537483215332031250e+00 5.210889816284179688e+00 -8.453725814819335938e+00
1.120000000000000000e+02 9.432787895202636719e+00 6.931797266006469727e-01 8.193197250366210938e+00 6.496513366699218750e+00 4.406913280487060547e+00 -7.492894649505615234e+00
1.130000000000000000e+02 9.769508361816406250e+00 1.897630989551544189e-01 1.869732666015625000e+01 7.861450195312500000e+00 7.967633247375488281e+00 -1.238793754577636719e+01
1.140000000000000000e+02 9.615847587585449219e+00 3.162718117237091064e-01 1.295459270477294922e+01 5.039158821105957031e+00 5.398125648498535156e+00 -8.188711166381835938e+00
1.150000000000000000e+02 9.462185859680175781e+00 4.427805542945861816e-01 1.029914855957031250e+01 4.098805904388427734e+00 4.319386482238769531e+00 -6.691889762878417969e+00
1.160000000000000000e+02 9.308525085449218750e+00 5.692892670631408691e-01 8.442046165466308594e+00 3.762340545654296875e+00 3.661315917968750000e+00 -5.761422634124755859e+00
1.170000000000000000e+02 9.736933708190917969e+00 1.411830335855484009e-01 1.846950531005859375e+01 2.393817663192749023e+00 6.258996963500976562e+00 -8.276514053344726562e+00
1.180000000000000000e+02 9.561555862426757812e+00 2.353050708770751953e-01 1.230192375183105469e+01 1.613943219184875488e+00 4.174759864807128906e+00 -5.052849769592285156e+00
1.190000000000000000e+02 9.386178970336914062e+00 3.294270932674407959e-01 9.113254547119140625e+00 1.947267413139343262e+00 3.318156719207763672e+00 -4.157003879547119141e+00
1.200000000000000000e+02 9.210802078247070312e+00 4.235491156578063965e-01 7.791469573974609375e+00 1.768002629280090332e+00 2.867841720581054688e+00 -3.926532745361328125e+00
1.210000000000000000e+02 9.714455604553222656e+00 8.718428760766983032e-02 1.559388637542724609e+01 -1.687788367271423340e+00 4.171829223632812500e+00 -2.663765192031860352e+00
1.220000000000000000e+02 9.524093627929687500e+00 1.453071534633636475e-01 8.604924201965332031e+00 5.566524863243103027e-01 2.748472929000854492e+00 -1.946817398071289062e+00
1.230000000000000000e+02 9.333730697631835938e+00 2.034300118684768677e-01 7.544354438781738281e+00 8.089378476142883301e-01 2.505987644195556641e+00 -2.373634576797485352e+00
1.240000000000000000e+02 9.143367767333984375e+00 2.615528702735900879e-01 5.945123195648193359e+00 2.610983848571777344e-01 1.861866593360900879e+00 -1.701407670974731445e+00
1.250000000000000000e+02 9.702937126159667969e+00 2.983934059739112854e-02 5.158301830291748047e+00 -1.974675893783569336e+00 9.550878405570983887e-01 1.417995095252990723e+00
1.260000000000000000e+02 9.504896163940429688e+00 4.973223432898521423e-02 6.288171768188476562e+00 8.657763004302978516e-01 2.146184444427490234e+00 -1.045401811599731445e+00
1.270000000000000000e+02 9.306854248046875000e+00 6.962513178586959839e-02 4.294599056243896484e+00 -3.439491689205169678e-01 1.185194969177246094e+00 -3.262207210063934326e-01
1.280000000000000000e+02 9.108813285827636719e+00 8.951802551746368408e-02 3.414716482162475586e+00 2.088485807180404663e-01 1.087069511413574219e+00 -4.467303752899169922e-01
1.290000000000000000e+02 1.158342361450195312e-01 -9.552106857299804688e-01 -1.933435560204088688e-03 -5.158847942948341370e-02 -1.605657488107681274e-02 -1.550679933279752731e-02
1.300000000000000000e+02 9.452310949563980103e-02 -5.196542143821716309e-01 -2.800104906782507896e-03 -9.198056533932685852e-03 -3.599448362365365028e-03 -6.532373838126659393e-03
1.310000000000000000e+02 8.047272264957427979e-02 -3.348883092403411865e-01 -1.027062884531915188e-03 2.426470200589392334e-05 -3.008394851349294186e-04 -1.636319939279928803e-04
1.320000000000000000e+02 6.704595088958740234e-01 -1.189597725868225098e+00 -1.785516925156116486e-02 -8.227250725030899048e-02 -3.003830462694168091e-02 -9.603055566549301147e-02
1.330000000000000000e+02 4.989198446273803711e-01 -1.392871141433715820e+00 -9.881838224828243256e-03 -1.159462556242942810e-01 -3.774842619895935059e-02 -8.844956755638122559e-02
1.340000000000000000e+02 6.919136643409729004e-01 -1.388064265251159668e+00 -1.856816187500953674e-02 -9.332811087369918823e-02 -3.356888145208358765e-02 -9.535750746726989746e-02
1.350000000000000000e+02 2.494502544403076172e+00 -1.354987144470214844e+00 -4.426672309637069702e-02 3.674821346066892147e-04 -1.316977292299270630e-02 -1.725526005029678345e-01
1.360000000000000000e+02 2.919969081878662109e+00 -1.376239299774169922e+00 -3.751664608716964722e-02 1.516909152269363403e-02 -6.704266183078289032e-03 -1.641418635845184326e-01
1.370000000000000000e+02 2.470916032791137695e+00 -1.059127449989318848e+00 -1.308626979589462280e-01 -4.930887953378260136e-04 -3.940673545002937317e-02 -1.596792042255401611e-01
1.380000000000000000e+02 2.876306295394897461e+00 -9.978117346763610840e-01 -1.706523299217224121e-01 9.570464491844177246e-03 -4.832455888390541077e-02 -1.522809267044067383e-01
1.390000000000000000e+02 2.802544832229614258e+00 -6.208453774452209473e-01 -2.865516543388366699e-01 1.734521705657243729e-03 -8.544513583183288574e-02 -1.235693320631980896e-01
1.400000000000000000e+02 3.299050569534301758e+00 -1.486306041479110718e-01 -5.775968432426452637e-01 4.273434635251760483e-03 -1.719970256090164185e-01 -3.487096726894378662e-02
1.410000000000000000e+02 3.092912435531616211e+00 -1.450943201780319214e-01 -5.307946205139160156e-01 -3.298480762168765068e-03 -1.602279245853424072e-01 -3.502371162176132202e-02
1.420000000000000000e+02 3.699659109115600586e+00 -1.269613206386566162e-01 -6.715421080589294434e-01 2.201722469180822372e-03 -2.008021026849746704e-01 -3.482844680547714233e-02
1.430000000000000000e+02 3.894185304641723633e+00 -1.247326359152793884e-01 -7.238694429397583008e-01 3.000630822498351336e-04 -2.170708179473876953e-01 -3.084076382219791412e-02
1.440000000000000000e+02 5.521253585815429688e+00 -1.368425250053405762e+00 3.344232439994812012e-01 6.935559958219528198e-02 1.211336553096771240e-01 6.586693972349166870e-02
1.450000000000000000e+02 5.718832492828369141e+00 -1.378246426582336426e+00 3.883503675460815430e-01 5.826609209179878235e-02 1.339849382638931274e-01 5.628965422511100769e-02
1.460000000000000000e+02 5.892667293548583984e+00 -1.387828886508941650e-01 -1.183421134948730469e+00 6.515895947813987732e-03 -3.530715703964233398e-01 -3.826683014631271362e-02
1.470000000000000000e+02 5.484801769256591797e+00 -1.456770151853561401e-01 -1.092154979705810547e+00 4.540188238024711609e-03 -3.262844383716583252e-01 -3.544879332184791565e-02
1.480000000000000000e+02 6.314941406250000000e+00 -1.399257540702819824e+00 6.981929540634155273e-01 1.541155874729156494e-01 2.556925714015960693e-01 2.553168237209320068e-01
1.490000000000000000e+02 6.297612190246582031e+00 -1.303483098745346069e-01 -1.284960389137268066e+00 6.741980556398630142e-03 -3.834655284881591797e-01 -4.164110869169235229e-02
1.500000000000000000e+02 6.114730358123779297e+00 -1.392511487007141113e+00 5.768682956695556641e-01 9.186878800392150879e-02 2.006211280822753906e-01 1.573801487684249878e-01
1.510000000000000000e+02 6.672454357147216797e+00 -1.408431291580200195e+00 8.792638778686523438e-01 2.166561782360076904e-01 3.287760019302368164e-01 3.663918972015380859e-01
1.520000000000000000e+02 7.689256191253662109e+00 -1.350958108901977539e+00 1.738602876663208008e+00 5.487491488456726074e-01 6.862055659294128418e-01 9.430992007255554199e-01
1.530000000000000000e+02 8.410909652709960938e+00 -3.483122587203979492e-01 -3.924431204795837402e-01 1.351476553827524185e-02 -1.136785000562667847e-01 1.459690481424331665e-01
1.540000000000000000e+02 8.302818298339843750e+00 -1.324055194854736328e+00 2.538681268692016602e+00 1.230838656425476074e+00 1.130856037139892578e+00 1.782338738441467285e+00
1.550000000000000000e+02 9.688844680786132812e+00 -1.044457077980041504e+00 3.163556098937988281e+00 1.053800487518310547e+01 4.110468387603759766e+00 5.197352886199951172e+00
1.560000000000000000e+02 1.025903892517089844e+01 -1.133519649505615234e+00 1.993467807769775391e+00 1.623761749267578125e+01 5.469325542449951172e+00 1.366463899612426758e+00
1.570000000000000000e+02 1.073481464385986328e+01 -1.144141316413879395e+00 3.396618843078613281e+00 1.570835113525390625e+01 5.731491088867187500e+00 -1.948657393455505371e+00
1.580000000000000000e+02 1.108393096923828125e+01 -2.791437804698944092e-01 1.087529182434082031e+01 1.361226272583007812e+01 7.346266269683837891e+00 -3.468582630157470703e+00
1.590000000000000000e+02 1.110609245300292969e+01 -8.639926463365554810e-02 1.188033390045166016e+01 1.295036411285400391e+01 7.449209213256835938e+00 -2.316474437713623047e+00
1.600000000000000000e+02 1.125073242187500000e+01 3.355023860931396484e-01 1.038773918151855469e+01 1.199066066741943359e+01 6.713520050048828125e+00 -9.274591505527496338e-02
1.610000000000000000e+02 1.096120643615722656e+01 5.763402581214904785e-01 9.739762306213378906e+00 1.462969589233398438e+01 7.310837745666503906e+00 1.100276708602905273e+00
1.620000000000000000e+02 1.065928459167480469e+01 8.806247115135192871e-01 6.147612571716308594e+00 1.708936500549316406e+01 6.971093177795410156e+00 2.803137004375457764e-01
1.630000000000000000e+02 9.162257194519042969e+00 1.101857781410217285e+00 5.560954093933105469e+00 5.549171447753906250e+00 3.333037614822387695e+00 -6.152100086212158203e+00
1.640000000000000000e+02 8.909451484680175781e+00 1.364026308059692383e+00 4.469146728515625000e+00 4.797693252563476562e+00 2.780051946640014648e+00 -5.445750236511230469e+00
1.650000000000000000e+02 8.948912620544433594e+00 3.158051371574401855e-01 4.991831779479980469e+00 4.343290627002716064e-01 1.627848267555236816e+00 -1.705430507659912109e+00
1.660000000000000000e+02 8.910804748535156250e+00 1.078275069594383240e-01 2.673989772796630859e+00 -8.052879571914672852e-02 7.780382633209228516e-01 -3.577549159526824951e-01
1.670000000000000000e+02 8.536369323730468750e+00 3.947198987007141113e-01 3.342800855636596680e+00 3.265179991722106934e-01 1.100795626640319824e+00 -1.266469001770019531e+00
1.680000000000000000e+02 9.712758064270019531e+00 1.387733101844787598e+00 3.338971138000488281e+00 1.165713500976562500e+01 4.498831748962402344e+00 -6.166024208068847656e+00
1.690000000000000000e+02 9.905720710754394531e+00 1.375819563865661621e+00 2.985383510589599609e+00 1.313520336151123047e+01 4.836175918579101562e+00 -5.474229812622070312e+00
1.700000000000000000e+02 8.702444076538085938e+00 1.370556354522705078e+00 4.446270465850830078e+00 3.663219213485717773e+00 2.432847023010253906e+00 -4.870768547058105469e+00
1.710000000000000000e+02 8.508754730224609375e+00 1.347165107727050781e-01 1.599868059158325195e+00 2.110706083476543427e-02 4.862925410270690918e-01 -3.031011819839477539e-01
1.720000000000000000e+02 8.101596832275390625e+00 1.356433868408203125e+00 3.332375526428222656e+00 1.840183377265930176e+00 1.551767706871032715e+00 -3.188306093215942383e+00
1.730000000000000000e+02 8.103774070739746094e+00 1.460121721029281616e-01 8.235633969306945801e-01 2.477861009538173676e-02 2.545025944709777832e-01 -2.612798213958740234e-01
1.740000000000000000e+02 5.695895671844482422e+00 1.386821031570434570e+00 5.294532775878906250e-01 3.258987963199615479e-01 2.566056251525878906e-01 -5.584816932678222656e-01
1.750000000000000000e+02 5.114307403564453125e+00 1.096266388893127441e+00 4.536736011505126953e-02 1.564718186855316162e-01 6.055175513029098511e-02 -1.997469961643218994e-01
1.760000000000000000e+02 5.508736133575439453e+00 1.152617573738098145e+00 2.447988688945770264e-01 2.138915657997131348e-01 1.376071274280548096e-01 -3.543792068958282471e-01
1.770000000000000000e+02 3.705371618270874023e+00 1.385451078414916992e+00 -6.894628703594207764e-02 1.242959797382354736e-01 1.660490781068801880e-02 8.886986225843429565e-02
1.780000000000000000e+02 3.707933187484741211e+00 1.598374396562576294e-01 -8.545437455177307129e-01 -1.524240244179964066e-03 -2.568203806877136230e-01 4.166743531823158264e-02
1.790000000000000000e+02 4.129785537719726562e+00 8.771088123321533203e-01 -3.216520249843597412e-01 6.503615528345108032e-02 -7.698476314544677734e-02 5.989864096045494080e-02
1.800000000000000000e+02 3.529339075088500977e+00 6.908538937568664551e-01 -4.546090960502624512e-01 2.603645436465740204e-02 -1.285717934370040894e-01 1.233251318335533142e-01
1.810000000000000000e+02 3.317279100418090820e+00 1.370108008384704590e+00 -9.330245107412338257e-02 8.557495474815368652e-02 -2.318249084055423737e-03 1.487860530614852905e-01
1.820000000000000000e+02 3.117893695831298828e+00 1.336868524551391602e+00 -1.216615065932273865e-01 7.852330803871154785e-02 -1.294145919382572174e-02 1.781392842531204224e-01
1.830000000000000000e+02 3.043033838272094727e+00 8.875674605369567871e-01 -3.062197864055633545e-01 3.009550087153911591e-02 -8.283728361129760742e-02 1.797063201665878296e-01
1.840000000000000000e+02 2.487853288650512695e+00 1.092489838600158691e+00 -1.907785087823867798e-01 9.530975483357906342e-03 -5.437425896525382996e-02 2.190216928720474243e-01
1.850000000000000000e+02 2.895749568939208984e+00 1.686940938234329224e-01 -6.289568543434143066e-01 -2.073036041110754013e-03 -1.893089711666107178e-01 5.159045010805130005e-02
1.860000000000000000e+02 2.300387144088745117e+00 1.371603012084960938e+00 -1.005875244736671448e-01 1.188885048031806946e-02 -2.660960331559181213e-02 2.451550811529159546e-01
1.870000000000000000e+02 9.027634263038635254e-01 1.380576014518737793e+00 -4.321831092238426208e-02 -1.303663402795791626e-01 -5.207539349794387817e-02 1.677269488573074341e-01
1.880000000000000000e+02 7.064817547798156738e-01 1.379356741905212402e+00 -1.422664802521467209e-02 -1.510095596313476562e-01 -4.957085847854614258e-02 1.296694427728652954e-01
1.890000000000000000e+02 5.074881911277770996e-01 1.412107199430465698e-01 -1.313615031540393829e-02 -6.845335010439157486e-03 -5.994445644319057465e-03 9.695818647742271423e-03
1.900000000000000000e+02 1.111962795257568359e+00 1.164401471614837646e-01 -8.685716241598129272e-02 1.182793825864791870e-02 -2.250876650214195251e-02 2.110691554844379425e-02
1.910000000000000000e+02 3.042126297950744629e-01 1.387158036231994629e+00 -5.125085590407252312e-04 -1.796097159385681152e-01 -5.403666570782661438e-02 7.875199615955352783e-02
1.920000000000000000e+02 1.001381948590278625e-01 9.661881327629089355e-01 -2.380682528018951416e-02 -6.379634886980056763e-02 -2.628095261752605438e-02 1.967977359890937805e-02
1.930000000000000000e+02 9.696643054485321045e-02 7.573472261428833008e-01 1.401849184185266495e-02 -3.144515305757522583e-02 -5.227998830378055573e-03 9.208952076733112335e-03
1.940000000000000000e+02 9.930790960788726807e-02 3.400205671787261963e-01 2.565259579569101334e-03 -7.487512775696814060e-04 5.449524614959955215e-04 5.526331369765102863e-04
1.950000000000000000e+02 9.669021517038345337e-02 5.493029952049255371e-01 -1.251481752842664719e-02 -1.125794928520917892e-02 -7.131829857826232910e-03 9.071995504200458527e-03
1.960000000000000000e+02 3.021513521671295166e-01 1.321522593498229980e-01 -1.488836598582565784e-03 -2.119982382282614708e-03 -1.082645729184150696e-03 2.338483231142163277e-03
1.970000000000000000e+02 9.223401546478271484e-01 1.477951705455780029e-01 -5.506261438131332397e-02 -8.769803680479526520e-03 -1.914972625672817230e-02 1.928299479186534882e-02
1.980000000000000000e+02 1.470306277275085449e+00 1.393156498670578003e-01 -1.909273117780685425e-01 -3.131027799099683762e-03 -5.821749940514564514e-02 3.364930674433708191e-02
1.990000000000000000e+02 1.504559159278869629e+00 1.359539151191711426e+00 -7.202468812465667725e-02 -7.112723588943481445e-02 -4.294557869434356689e-02 2.293422371149063110e-01
2.000000000000000000e+02 1.882001399993896484e+00 1.690664887428283691e-01 -3.114882707595825195e-01 1.161929336376488209e-03 -9.309790283441543579e-02 4.871090501546859741e-02
2.010000000000000000e+02 1.675266385078430176e+00 1.561140567064285278e-01 -2.513434588909149170e-01 -9.993197396397590637e-03 -7.840099930763244629e-02 4.439600557088851929e-02
2.020000000000000000e+02 2.088147163391113281e+00 1.728044748306274414e-01 -3.717338144779205322e-01 -2.998293843120336533e-03 -1.124196350574493408e-01 4.958376660943031311e-02
2.030000000000000000e+02 1.910987615585327148e+00 1.378558754920959473e+00 -9.304176270961761475e-02 -2.585238032042980194e-02 -3.566824272274971008e-02 2.442867457866668701e-01
2.040000000000000000e+02 3.938179492950439453e+00 4.657450318336486816e-01 -6.455966830253601074e-01 7.226450834423303604e-03 -1.915110647678375244e-01 7.494900375604629517e-02
2.050000000000000000e+02 4.308200359344482422e+00 1.459887772798538208e-01 -9.836796522140502930e-01 9.537975303828716278e-03 -2.922424972057342529e-01 2.979098819196224213e-02
2.060000000000000000e+02 5.096124649047851562e+00 1.248127669095993042e-01 -1.051726341247558594e+00 5.290771368891000748e-03 -3.139306902885437012e-01 5.720678251236677170e-03
2.070000000000000000e+02 6.690669059753417969e+00 1.378771901130676270e+00 1.322892069816589355e+00 6.116365194320678711e-01 5.803585648536682129e-01 -1.220293998718261719e+00
2.080000000000000000e+02 7.113923072814941406e+00 3.806204199790954590e-01 2.998196482658386230e-01 5.773089826107025146e-02 1.072651594877243042e-01 -3.374703228473663330e-01
2.090000000000000000e+02 7.700154304504394531e+00 1.426025778055191040e-01 2.400449812412261963e-01 4.737525712698698044e-03 7.343474775552749634e-02 -1.680504083633422852e-01
2.100000000000000000e+02 7.701015472412109375e+00 6.891489624977111816e-01 1.921956181526184082e+00 2.947483062744140625e-01 6.650113463401794434e-01 -1.102265238761901855e+00
2.110000000000000000e+02 9.123010635375976562e+00 7.135878205299377441e-01 7.013092994689941406e+00 3.223845005035400391e+00 3.071081399917602539e+00 -5.234319686889648438e+00
2.120000000000000000e+02 9.280339241027832031e+00 8.688903450965881348e-01 6.818365097045898438e+00 5.626513481140136719e+00 3.733463764190673828e+00 -6.497007369995117188e+00
2.130000000000000000e+02 1.029301166534423828e+01 1.328771829605102539e+00 2.888782978057861328e+00 1.538239955902099609e+01 5.481354713439941406e+00 -3.195177078247070312e+00
2.140000000000000000e+02 1.085127162933349609e+01 -7.153082489967346191e-01 6.777212619781494141e+00 1.637720680236816406e+01 6.946325778961181641e+00 -3.851193189620971680e+00
2.150000000000000000e+02 1.038669395446777344e+01 -1.044695854187011719e+00 2.515348911285400391e+00 1.718830108642578125e+01 5.911095142364501953e+00 1.115485727787017822e-01
2.160000000000000000e+02 1.023865318298339844e+01 -1.373344063758850098e+00 1.611067414283752441e+00 1.425796127319335938e+01 4.760708332061767578e+00 1.831061482429504395e+00
2.170000000000000000e+02 8.705793380737304688e+00 -4.061450958251953125e-01 6.612245440483093262e-01 1.224695444107055664e-01 2.351082265377044678e-01 4.468996226787567139e-01
2.180000000000000000e+02 7.281956672668457031e+00 -1.351641416549682617e+00 1.314722061157226562e+00 3.056640625000000000e-01 4.861158132553100586e-01 6.015340089797973633e-01
2.190000000000000000e+02 6.853759765625000000e+00 -1.359755992889404297e+00 9.488265514373779297e-01 1.983718425035476685e-01 3.441595137119293213e-01 3.870885670185089111e-01
2.200000000000000000e+02 6.702738761901855469e+00 -1.331013590097427368e-01 -1.399736166000366211e+00 8.173330686986446381e-03 -4.174688756465911865e-01 -4.638870060443878174e-02
2.210000000000000000e+02 5.115441322326660156e+00 -1.330337047576904297e+00 1.576114296913146973e-01 3.557493910193443298e-02 5.795590952038764954e-02 -1.291414257138967514e-02
2.220000000000000000e+02 2.153861999511718750e+00 -1.689965426921844482e-01 -2.836818993091583252e-01 1.113999262452125549e-02 -8.176257461309432983e-02 -4.239829257130622864e-02
2.230000000000000000e+02 2.294748306274414062e+00 -1.361813902854919434e+00 -4.937005788087844849e-02 -2.341280458495020866e-03 -1.551340147852897644e-02 -1.604386717081069946e-01
2.240000000000000000e+02 1.729924559593200684e+00 -4.902286231517791748e-01 -1.639820039272308350e-01 -1.398047804832458496e-02 -5.338874086737632751e-02 -8.906397223472595215e-02
2.250000000000000000e+02 1.307962417602539062e+00 -1.655665636062622070e-01 -1.151053160429000854e-01 -1.895386667456477880e-04 -3.458845615386962891e-02 -2.831633947789669037e-02
2.260000000000000000e+02 1.026552543044090271e-01 -1.392542600631713867e+00 -9.508141316473484039e-03 -1.029990389943122864e-01 -3.375215455889701843e-02 -1.495513692498207092e-02
2.270000000000000000e+02 9.305203437805175781e+00 -8.744363784790039062e-01 4.311411380767822266e+00 4.516442775726318359e+00 2.648356199264526367e+00 4.412101268768310547e+00
2.280000000000000000e+02 1.704760074615478516e+00 -1.067720770835876465e+00 -8.363433182239532471e-02 -3.205874189734458923e-02 -3.470792248845100403e-02 -1.505984365940093994e-01
2.290000000000000000e+02 3.718739748001098633e+00 4.421119987964630127e-01 -6.306191086769104004e-01 1.878310553729534149e-02 -1.835508048534393311e-01 9.202151745557785034e-02
2.300000000000000000e+02 9.469409942626953125e+00 9.639760851860046387e-01 6.101980209350585938e+00 8.785694122314453125e+00 4.466302394866943359e+00 -7.492244243621826172e+00
2.310000000000000000e+02 3.109212875366210938e+00 -1.420225858688354492e+00 -3.067706711590290070e-02 1.169416587799787521e-02 -5.694870371371507645e-03 -1.477928459644317627e-01
2.320000000000000000e+02 3.673345804214477539e+00 -1.356542825698852539e+00 -2.400231175124645233e-02 1.759784854948520660e-02 -1.921338844113051891e-03 -1.347145885229110718e-01
2.330000000000000000e+02 9.901885986328125000e+00 -1.074750423431396484e+00 2.409814834594726562e+00 1.357393836975097656e+01 4.795125961303710938e+00 4.255989551544189453e+00
2.340000000000000000e+02 1.107758998870849609e+01 1.039674431085586548e-01 1.226117420196533203e+01 1.303072071075439453e+01 7.587568283081054688e+00 -1.201016068458557129e+00
2.350000000000000000e+02 1.089429092407226562e+01 9.207270741462707520e-01 6.624397277832031250e+00 1.517389392852783203e+01 6.539487361907958984e+00 8.513086438179016113e-01
2.360000000000000000e+02 1.080690765380859375e+01 1.168788671493530273e+00 4.701086044311523438e+00 1.479288578033447266e+01 5.848191261291503906e+00 -7.863820530474185944e-03
2.370000000000000000e+02 1.065894412994384766e+01 1.228479743003845215e+00 3.955088376998901367e+00 1.564014148712158203e+01 5.878569126129150391e+00 -8.051321506500244141e-01
2.380000000000000000e+02 1.009926033020019531e+01 1.109326839447021484e+00 3.608646154403686523e+00 1.640150451660156250e+01 6.003045558929443359e+00 -4.686213493347167969e+00
2.390000000000000000e+02 9.517053604125976562e+00 1.392658829689025879e+00 3.987283706665039062e+00 9.597951889038085938e+00 4.075571060180664062e+00 -6.545157909393310547e+00
2.400000000000000000e+02 7.899786949157714844e+00 1.355904221534729004e+00 3.041320323944091797e+00 1.447180986404418945e+00 1.346550345420837402e+00 -2.748282432556152344e+00
2.410000000000000000e+02 7.492914676666259766e+00 1.346846580505371094e+00 2.361105918884277344e+00 1.052180171012878418e+00 1.023985862731933594e+00 -2.089340925216674805e+00
2.420000000000000000e+02 6.091519355773925781e+00 1.358504295349121094e+00 7.663561105728149414e-01 4.003950655460357666e-01 3.500253558158874512e-01 -7.525846362113952637e-01
2.430000000000000000e+02 4.462540626525878906e+00 1.066448926925659180e+00 -1.331866830587387085e-01 1.124275475740432739e-01 -6.227741949260234833e-03 -1.528754923492670059e-02
2.440000000000000000e+02 4.094229698181152344e+00 1.372979164123535156e+00 -1.854026317596435547e-02 1.437446773052215576e-01 3.756132721900939941e-02 1.518634497188031673e-03
2.450000000000000000e+02 1.286486506462097168e+00 1.162464618682861328e+00 -7.878645509481430054e-02 -7.233442366123199463e-02 -4.533626511693000793e-02 1.981877684593200684e-01
2.460000000000000000e+02 1.014702394604682922e-01 1.391971230506896973e+00 -2.495304308831691742e-02 -1.426618993282318115e-01 -5.028448253870010376e-02 1.871977932751178741e-02
2.470000000000000000e+02 1.003239825367927551e-01 1.273108571767807007e-01 -1.042192336171865463e-03 -2.023754350375384092e-04 -3.733703342732042074e-04 1.225668529514223337e-04
2.480000000000000000e+02 7.329292297363281250e-01 4.319826960563659668e-01 -6.211823970079421997e-02 -3.002715855836868286e-02 -2.764361910521984100e-02 5.545753240585327148e-02
2.490000000000000000e+02 1.386239290237426758e+00 3.766362667083740234e-01 -1.646470129489898682e-01 -1.809568703174591064e-02 -5.482280999422073364e-02 9.236036986112594604e-02
2.500000000000000000e+02 2.292985677719116211e+00 1.655435413122177124e-01 -4.330709278583526611e-01 -2.030007308349013329e-03 -1.305302828550338745e-01 5.260989442467689514e-02
2.510000000000000000e+02 2.695286035537719727e+00 1.684379279613494873e-01 -5.664811134338378906e-01 1.797182601876556873e-03 -1.694051772356033325e-01 5.201177299022674561e-02
2.520000000000000000e+02 3.501118183135986328e+00 4.493677020072937012e-01 -6.025823950767517090e-01 2.629340626299381256e-03 -1.799859106540679932e-01 1.036271378397941589e-01
2.530000000000000000e+02 4.504174232482910156e+00 1.370491534471511841e-01 -1.014209389686584473e+00 -2.049197908490896225e-03 -3.048775792121887207e-01 2.287745662033557892e-02
2.540000000000000000e+02 5.468919277191162109e+00 4.039701819419860840e-01 -6.288366913795471191e-01 2.741290070116519928e-02 -1.804271489381790161e-01 -6.047047302126884460e-02
2.550000000000000000e+02 5.696718215942382812e+00 1.538996994495391846e-01 -9.728366136550903320e-01 1.105058379471302032e-02 -2.885358035564422607e-01 -2.013435214757919312e-02
2.560000000000000000e+02 6.107610225677490234e+00 1.532623320817947388e-01 -8.771241307258605957e-01 9.593280963599681854e-03 -2.602592408657073975e-01 -3.661376237869262695e-02
2.570000000000000000e+02 6.509176254272460938e+00 1.416981220245361328e-01 -7.355548143386840820e-01 9.723934344947338104e-03 -2.177492678165435791e-01 -4.986958205699920654e-02
2.580000000000000000e+02 6.906415462493896484e+00 1.331113576889038086e-01 -5.181412696838378906e-01 -5.241399165242910385e-03 -1.570148020982742310e-01 -7.727136462926864624e-02
2.590000000000000000e+02 8.711063385009765625e+00 1.229138299822807312e-01 2.088208198547363281e+00 6.483960151672363281e-02 6.459143161773681641e-01 -3.609606921672821045e-01
2.600000000000000000e+02 1.103953266143798828e+01 2.695617675781250000e-01 1.190162181854248047e+01 1.349214076995849609e+01 7.618128776550292969e+00 7.936543971300125122e-02
2.610000000000000000e+02 1.114456081390380859e+01 7.576981186866760254e-01 8.028329849243164062e+00 1.326083087921142578e+01 6.386748313903808594e+00 1.014535784721374512e+00
2.620000000000000000e+02 1.048062229156494141e+01 1.001647591590881348e+00 4.733168601989746094e+00 1.755016136169433594e+01 6.684998989105224609e+00 -1.132843136787414551e+00
2.630000000000000000e+02 8.897590637207031250e+00 -1.108529567718505859e-01 -2.108678579330444336e+00 -1.844066977500915527e-01 -6.879256367683410645e-01 -9.714302420616149902e-02
2.640000000000000000e+02 9.020002365112304688e+00 -6.818686127662658691e-01 3.396206378936767578e+00 1.405277967453002930e+00 1.440445303916931152e+00 2.275630235671997070e+00
2.650000000000000000e+02 9.486912727355957031e+00 -9.693363308906555176e-01 3.998206377029418945e+00 7.394623756408691406e+00 3.417849063873291016e+00 5.165134429931640625e+00
2.660000000000000000e+02 1.111808109283447266e+01 -4.630428850650787354e-01 9.361466407775878906e+00 1.374720764160156250e+01 6.932601928710937500e+00 -3.698753356933593750e+00
2.670000000000000000e+02 8.106524467468261719e+00 -1.612324267625808716e-01 -1.720610380172729492e+00 -1.372346580028533936e-01 -5.573534965515136719e-01 -7.855435460805892944e-02
2.680000000000000000e+02 6.295588970184326172e+00 -3.674811720848083496e-01 -8.826628327369689941e-01 -1.597455516457557678e-02 -2.695912122726440430e-01 -7.252470403909683228e-02
2.690000000000000000e+02 5.241594791412353516e+00 -4.145678877830505371e-01 -7.171912193298339844e-01 3.277320181950926781e-03 -2.141741663217544556e-01 -7.443673908710479736e-02
2.700000000000000000e+02 4.866126537322998047e+00 -3.414294123649597168e-01 -7.590719461441040039e-01 -1.810347777791321278e-03 -2.282646894454956055e-01 -7.405912131071090698e-02
2.710000000000000000e+02 2.643744945526123047e+00 -3.284434974193572998e-01 -3.562905192375183105e-01 -1.399610773660242558e-03 -1.073070317506790161e-01 -7.510341703891754150e-02
2.720000000000000000e+02 2.499970436096191406e+00 -9.817486256361007690e-02 -4.003192186355590820e-01 -3.525214968249201775e-03 -1.211533322930335999e-01 -1.940902881324291229e-02
2.730000000000000000e+02 1.716540455818176270e+00 -1.788551807403564453e-01 -1.959167867898941040e-01 -3.407942131161689758e-03 -5.979741737246513367e-02 -3.831815719604492188e-02
2.740000000000000000e+02 9.602549672126770020e-02 -1.283648163080215454e-01 3.966070071328431368e-04 1.005862723104655743e-03 4.207409219816327095e-04 3.672064631246030331e-04
2.750000000000000000e+02 1.071215724945068359e+01 -8.493782281875610352e-01 4.966607570648193359e+00 1.711083984375000000e+01 6.623234272003173828e+00 -3.063530683517456055e+00
2.760000000000000000e+02 8.993978500366210938e+00 -1.087878465652465820e+00 3.609849691390991211e+00 3.157657384872436523e+00 2.030252218246459961e+00 3.312807321548461914e+00
2.770000000000000000e+02 1.125597381591796875e+01 -6.092246174812316895e-01 7.991715908050537109e+00 1.302525806427001953e+01 6.305092334747314453e+00 -3.794779777526855469e+00
2.780000000000000000e+02 9.019884109497070312e+00 5.161942839622497559e-01 6.420528888702392578e+00 1.234510779380798340e+00 2.296511888504028320e+00 -3.256515264511108398e+00
2.790000000000000000e+02 1.082630920410156250e+01 7.334623932838439941e-01 8.139574050903320312e+00 1.585491275787353516e+01 7.198346138000488281e+00 1.138434171676635742e+00
2.800000000000000000e+02 9.552035331726074219e+00 1.194209575653076172e+00 4.570289134979248047e+00 9.872374534606933594e+00 4.332798957824707031e+00 -6.906427860260009766e+00
2.810000000000000000e+02 1.088972091674804688e+01 -1.027581930160522461e+00 4.465025424957275391e+00 1.547713088989257812e+01 5.982646942138671875e+00 -2.830265522003173828e+00
2.820000000000000000e+02 1.125513172149658203e+01 5.939059853553771973e-01 9.118912696838378906e+00 1.230638504028320312e+01 6.427589416503906250e+00 8.621938228607177734e-01
2.830000000000000000e+02 1.131819057464599609e+01 -4.570733904838562012e-01 9.195106506347656250e+00 1.230109882354736328e+01 6.448861598968505859e+00 -3.416934013366699219e+00
2.840000000000000000e+02 1.102915954589843750e+01 -8.932558894157409668e-01 5.753088951110839844e+00 1.448364639282226562e+01 6.071020603179931641e+00 -3.503752231597900391e+00
2.850000000000000000e+02 1.134174919128417969e+01 -2.807932198047637939e-01 9.864708900451660156e+00 1.172985649108886719e+01 6.478369712829589844e+00 -2.759056329727172852e+00
2.860000000000000000e+02 1.139057826995849609e+01 2.890876829624176025e-01 9.963741302490234375e+00 1.111267852783203125e+01 6.322926044464111328e+00 -3.334698379039764404e-01
2.870000000000000000e+02 1.119312572479248047e+01 1.874526739120483398e-01 1.122727298736572266e+01 1.225911903381347656e+01 7.045917510986328125e+00 -7.287155389785766602e-01
2.880000000000000000e+02 1.041065502166748047e+01 -1.317460656166076660e+00 1.943253874778747559e+00 1.521246814727783203e+01 5.146716594696044922e+00 4.113532006740570068e-01
2.890000000000000000e+02 1.009277725219726562e+01 -1.060697197914123535e+00 2.062977075576782227e+00 1.594808864593505859e+01 5.403319358825683594e+00 2.740529537200927734e+00
2.900000000000000000e+02 9.907473564147949219e+00 1.121070504188537598e+00 3.878972530364990234e+00 1.457580089569091797e+01 5.536432266235351562e+00 -6.120193958282470703e+00
2.910000000000000000e+02 1.048631954193115234e+01 1.271646022796630859e+00 3.395645856857299805e+00 1.570273971557617188e+01 5.729515552520751953e+00 -1.806890606880187988e+00
2.920000000000000000e+02 1.057286930084228516e+01 -1.239858627319335938e+00 2.461372852325439453e+00 1.561967277526855469e+01 5.424313545227050781e+00 -7.749063968658447266e-01
2.930000000000000000e+02 8.883888125419616699e-01 -1.356295228004455566e+00 -2.438298426568508148e-02 -8.085565268993377686e-02 -3.157159313559532166e-02 -1.162954345345497131e-01
2.940000000000000000e+02 3.040100336074829102e-01 -1.391423225402832031e+00 -1.470524072647094727e-02 -1.462756842374801636e-01 -4.829427599906921387e-02 -4.785545170307159424e-02
2.950000000000000000e+02 1.093045949935913086e+00 -1.335810899734497070e+00 -2.155493944883346558e-02 -8.232943713665008545e-02 -3.116531297564506531e-02 -1.268717348575592041e-01
2.960000000000000000e+02 1.500203132629394531e+00 -1.350065231323242188e+00 -3.281883895397186279e-02 -5.457404255867004395e-02 -2.621786482632160187e-02 -1.571507006883621216e-01
2.970000000000000000e+02 2.097192764282226562e+00 -1.366299629211425781e+00 -5.837224796414375305e-02 -1.656220480799674988e-02 -2.248033508658409119e-02 -1.775139570236206055e-01
2.980000000000000000e+02 2.692356586456298828e+00 -1.078049063682556152e+00 -1.310963630676269531e-01 5.040505784563720226e-04 -3.917769342660903931e-02 -1.656855642795562744e-01
2.990000000000000000e+02 3.324770212173461914e+00 -1.174355626106262207e+00 -1.181335449218750000e-01 1.040171366184949875e-03 -3.512801229953765869e-02 -1.578378975391387939e-01
3.000000000000000000e+02 4.124855041503906250e+00 -1.150144219398498535e+00 -9.349448233842849731e-02 1.338152401149272919e-02 -2.403388731181621552e-02 -1.120328530669212341e-01
3.010000000000000000e+02 4.673169612884521484e+00 -1.339155793190002441e+00 9.147968143224716187e-02 4.330118373036384583e-02 4.043425992131233215e-02 -4.811260849237442017e-02
3.020000000000000000e+02 6.360189914703369141e+00 -1.196414113044738770e+00 4.574548900127410889e-01 7.365831732749938965e-02 1.593339592218399048e-01 1.136587634682655334e-01
3.030000000000000000e+02 8.068883895874023438e+00 -1.039474606513977051e+00 1.828331708908081055e+00 5.629642009735107422e-01 7.173887491226196289e-01 1.002960443496704102e+00
3.040000000000000000e+02 8.091531753540039062e+00 -1.341143488883972168e+00 2.275456428527832031e+00 9.705131649971008301e-01 9.737908840179443359e-01 1.453665018081665039e+00
3.050000000000000000e+02 8.518143653869628906e+00 -1.328126549720764160e+00 2.871088266372680664e+00 1.767241239547729492e+00 1.391498923301696777e+00 2.158500671386718750e+00
3.060000000000000000e+02 9.530289649963378906e+00 -1.405190467834472656e+00 2.747778415679931641e+00 8.208596229553222656e+00 3.286912441253662109e+00 4.264527797698974609e+00
3.070000000000000000e+02 9.200761795043945312e+00 -1.108575105667114258e+00 3.768946886062622070e+00 4.636874198913574219e+00 2.521746397018432617e+00 4.043737411499023438e+00
3.080000000000000000e+02 9.713594436645507812e+00 -1.432682633399963379e+00 2.313980579376220703e+00 9.956387519836425781e+00 3.681110382080078125e+00 4.055705547332763672e+00
3.090000000000000000e+02 1.005361557006835938e+01 -1.406605482101440430e+00 1.716281890869140625e+00 1.284624671936035156e+01 4.368758678436279297e+00 2.649060487747192383e+00
3.100000000000000000e+02 8.696110725402832031e+00 1.115810751914978027e+00 4.806044101715087891e+00 2.715359449386596680e+00 2.256421089172363281e+00 -4.310176849365234375e+00
3.110000000000000000e+02 8.318943977355957031e+00 1.107985258102416992e+00 3.891726255416870117e+00 1.558126807212829590e+00 1.634955883026123047e+00 -3.122977495193481445e+00
3.120000000000000000e+02 8.301010131835937500e+00 1.368102073669433594e+00 3.713108062744140625e+00 2.232974290847778320e+00 1.783824682235717773e+00 -3.658470392227172852e+00
3.130000000000000000e+02 7.696302413940429688e+00 1.353312492370605469e+00 2.644270658493041992e+00 1.147870779037475586e+00 1.137642502784729004e+00 -2.350463390350341797e+00
3.140000000000000000e+02 7.086571216583251953e+00 1.363262772560119629e+00 1.778640627861022949e+00 7.458616495132446289e-01 7.573506832122802734e-01 -1.580319643020629883e+00
3.150000000000000000e+02 6.295311927795410156e+00 1.356781244277954102e+00 9.228346347808837891e-01 4.408744573593139648e-01 4.091127216815948486e-01 -8.726584911346435547e-01
3.160000000000000000e+02 6.853132724761962891e+00 1.123047709465026855e+00 1.290484189987182617e+00 4.459932148456573486e-01 5.209432244300842285e-01 -1.085839152336120605e+00
3.170000000000000000e+02 5.500124454498291016e+00 1.383009076118469238e+00 4.673422873020172119e-01 3.109723329544067383e-01 2.334943860769271851e-01 -4.601195156574249268e-01
3.180000000000000000e+02 5.101686954498291016e+00 1.365977764129638672e+00 2.666030526161193848e-01 2.580716311931610107e-01 1.574023962020874023e-01 -2.865234613418579102e-01
3.190000000000000000e+02 4.679098129272460938e+00 1.089977860450744629e+00 -9.296848624944686890e-02 1.226122081279754639e-01 8.893116377294063568e-03 -7.842229306697845459e-02
3.200000000000000000e+02 4.692054748535156250e+00 1.359875679016113281e+00 1.092221438884735107e-01 2.059856057167053223e-01 9.456232190132141113e-02 -1.449610441923141479e-01
3.210000000000000000e+02 4.073109626770019531e+00 1.115261077880859375e+00 -1.668774336576461792e-01 1.078872755169868469e-01 -1.769704930484294891e-02 4.985963180661201477e-02
3.220000000000000000e+02 4.261375904083251953e+00 1.089777827262878418e+00 -1.742081493139266968e-01 9.516393393278121948e-02 -2.371326461434364319e-02 1.240645907819271088e-02
3.230000000000000000e+02 3.370482921600341797e+00 1.137103438377380371e+00 -1.978932768106460571e-01 6.929125636816024780e-02 -3.858060389757156372e-02 1.497561633586883545e-01
3.240000000000000000e+02 3.355420589447021484e+00 8.239315748214721680e-01 -3.722618818283081055e-01 3.089521452784538269e-02 -1.024100035429000854e-01 1.534894555807113647e-01
3.250000000000000000e+02 2.907274961471557617e+00 1.331713795661926270e+00 -1.376070976257324219e-01 4.882074892520904541e-02 -2.663590200245380402e-02 1.999735534191131592e-01
3.260000000000000000e+02 2.497857809066772461e+00 1.363923430442810059e+00 -1.252053827047348022e-01 2.093936689198017120e-02 -3.127980604767799377e-02 2.291518747806549072e-01
3.270000000000000000e+02 1.712112069129943848e+00 1.357282161712646484e+00 -9.202580153942108154e-02 -5.021188408136367798e-02 -4.267130792140960693e-02 2.331561148166656494e-01
3.280000000000000000e+02 5.158184766769409180e-01 1.148278355598449707e+00 -1.501110754907131195e-02 -1.176032647490501404e-01 -3.978431224822998047e-02 9.718064963817596436e-02
3.290000000000000000e+02 5.066074728965759277e-01 1.382435321807861328e+00 -3.488969802856445312e-02 -1.329342126846313477e-01 -5.034717544913291931e-02 1.091320961713790894e-01
3.300000000000000000e+02 1.299041390419006348e+00 -1.344434380531311035e+00 -2.867723256349563599e-02 -5.481754988431930542e-02 -2.504843473434448242e-02 -1.530256867408752441e-01
3.310000000000000000e+02 1.699975848197937012e+00 -1.355569839477539062e+00 -4.225590080022811890e-02 -2.515495382249355316e-02 -2.022325620055198669e-02 -1.737721115350723267e-01
3.320000000000000000e+02 1.902339577674865723e+00 -1.086406946182250977e+00 -8.712219446897506714e-02 -1.574235409498214722e-02 -3.085936419665813446e-02 -1.621521264314651489e-01
3.330000000000000000e+02 3.901492595672607422e+00 -1.116383552551269531e+00 -1.301641017198562622e-01 2.173178829252719879e-02 -3.252969309687614441e-02 -1.391749382019042969e-01
3.340000000000000000e+02 4.295088768005371094e+00 -1.396833062171936035e+00 7.075306028127670288e-02 4.102301597595214844e-02 3.353282436728477478e-02 -6.017196923494338989e-02
3.350000000000000000e+02 4.898310184478759766e+00 -1.326452493667602539e+00 1.159888729453086853e-01 3.747725114226341248e-02 4.603983834385871887e-02 -4.736813902854919434e-02
3.360000000000000000e+02 5.189235210418701172e+00 -1.027584314346313477e+00 -9.035851806402206421e-02 2.069564722478389740e-02 -2.089886181056499481e-02 -7.624205946922302246e-02
3.370000000000000000e+02 5.320949077606201172e+00 -1.354625225067138672e+00 2.326267510652542114e-01 5.096190050244331360e-02 8.507659286260604858e-02 9.385388111695647240e-04
3.380000000000000000e+02 5.764801025390625000e+00 -1.137822866439819336e+00 1.679910570383071899e-01 4.414585605263710022e-02 6.364107131958007812e-02 2.611339464783668518e-02
3.390000000000000000e+02 7.065707683563232422e+00 -1.340578079223632812e+00 1.083431482315063477e+00 2.642282545566558838e-01 4.042979180812835693e-01 4.862681329250335693e-01
3.400000000000000000e+02 7.867691516876220703e+00 -1.045733809471130371e+00 1.509017467498779297e+00 3.571002185344696045e-01 5.598353147506713867e-01 7.315270304679870605e-01
3.410000000000000000e+02 8.726363182067871094e+00 -1.351821899414062500e+00 3.202670812606811523e+00 2.592931985855102539e+00 1.738680839538574219e+00 2.836702346801757812e+00
3.420000000000000000e+02 9.130440711975097656e+00 -1.369238615036010742e+00 3.329036712646484375e+00 4.953230857849121094e+00 2.484680175781250000e+00 3.874872207641601562e+00
3.430000000000000000e+02 9.318794250488281250e+00 1.382393121719360352e+00 4.225565433502197266e+00 7.650763988494873047e+00 3.562898874282836914e+00 -6.335618495941162109e+00
3.440000000000000000e+02 9.116800308227539062e+00 1.368067383766174316e+00 4.492048740386962891e+00 6.057842254638671875e+00 3.164967298507690430e+00 -5.941768169403076172e+00
3.450000000000000000e+02 7.289333343505859375e+00 1.351579427719116211e+00 2.086349964141845703e+00 8.476852178573608398e-01 8.802105784416198730e-01 -1.826342225074768066e+00
3.460000000000000000e+02 6.666684150695800781e+00 1.139312386512756348e+00 1.109574913978576660e+00 3.949911594390869141e-01 4.513698220252990723e-01 -9.584136009216308594e-01
3.470000000000000000e+02 5.690845012664794922e+00 1.169502496719360352e+00 3.964326381683349609e-01 2.285376787185668945e-01 1.874911040067672729e-01 -4.307528436183929443e-01
3.480000000000000000e+02 4.897675514221191406e+00 1.088674783706665039e+00 -2.364392578601837158e-02 1.506475806236267090e-01 3.810109943151473999e-02 -1.223744451999664307e-01
3.490000000000000000e+02 3.899146795272827148e+00 1.380541920661926270e+00 -4.072482511401176453e-02 1.595515310764312744e-01 3.564801439642906189e-02 4.917164519429206848e-02
3.500000000000000000e+02 3.887932062149047852e+00 1.137910962104797363e+00 -1.723356395959854126e-01 9.595872461795806885e-02 -2.291307225823402405e-02 7.006763666868209839e-02
3.510000000000000000e+02 1.941070795059204102e+00 1.156734108924865723e+00 -1.357350498437881470e-01 -2.875478193163871765e-02 -4.934694990515708923e-02 2.278150469064712524e-01
3.520000000000000000e+02 9.954800605773925781e+00 -1.239313125610351562e+00 2.029426813125610352e+00 1.313109302520751953e+01 4.548155784606933594e+00 3.576353311538696289e+00
3.530000000000000000e+02 5.880936145782470703e+00 -3.953866362571716309e-01 -8.187236785888671875e-01 -9.739121422171592712e-03 -2.485388517379760742e-01 -8.269362151622772217e-02
3.540000000000000000e+02 7.868466854095458984e+00 -4.396730363368988037e-01 -4.877228438854217529e-01 -4.725768044590950012e-02 -1.604941487312316895e-01 -5.171318724751472473e-02
3.550000000000000000e+02 8.323198318481445312e+00 4.218527972698211670e-01 2.682671308517456055e+00 2.063711285591125488e-01 8.667127490043640137e-01 -1.032917380332946777e+00
3.560000000000000000e+02 7.904225349426269531e+00 4.247169494628906250e-01 1.676113963127136230e+00 1.565105468034744263e-01 5.497873425483703613e-01 -7.543700337409973145e-01
3.570000000000000000e+02 4.701137542724609375e+00 1.260974556207656860e-01 -1.036111474037170410e+00 6.651061121374368668e-03 -3.088381290435791016e-01 1.943109743297100067e-02
3.580000000000000000e+02 7.303282260894775391e+00 1.354932188987731934e-01 -2.044985443353652954e-01 1.828008145093917847e-02 -5.586554110050201416e-02 -1.266860067844390869e-01
3.590000000000000000e+02 7.303153038024902344e+00 -1.278868615627288818e-01 -1.557653307914733887e+00 -2.716263942420482635e-02 -4.754447937011718750e-01 -3.551798686385154724e-02
3.600000000000000000e+02 6.533110141754150391e+00 4.080563485622406006e-01 -1.522272676229476929e-01 4.985492303967475891e-02 -3.071170486509799957e-02 -2.214651107788085938e-01
3.610000000000000000e+02 7.104721069335937500e+00 1.325948536396026611e-01 -3.774844110012054443e-01 2.732702903449535370e-02 -1.050472110509872437e-01 -9.164066612720489502e-02
3.620000000000000000e+02 8.112528800964355469e+00 4.328442811965942383e-01 2.182236909866333008e+00 1.536225527524948120e-01 7.007578611373901367e-01 -8.674103021621704102e-01
3.630000000000000000e+02 8.929835319519042969e+00 -3.179746866226196289e-01 4.842033088207244873e-01 1.597902476787567139e-01 1.931980699300765991e-01 4.132275283336639404e-01
3.640000000000000000e+02 8.596513748168945312e+00 -2.476141005754470825e-01 -1.055069446563720703e+00 1.146554201841354370e-01 -2.821241915225982666e-01 -1.203634291887283325e-01
3.650000000000000000e+02 8.319588661193847656e+00 -1.394328922033309937e-01 -1.831306815147399902e+00 5.782531201839447021e-02 -5.320444107055664062e-01 -1.453209966421127319e-01
3.660000000000000000e+02 7.896694183349609375e+00 -1.483428627252578735e-01 -1.673003911972045898e+00 5.615463480353355408e-02 -4.850547909736633301e-01 -2.403079345822334290e-02
3.670000000000000000e+02 4.690986156463623047e+00 -1.297260075807571411e-01 -9.066750407218933105e-01 4.940027836710214615e-03 -2.705205082893371582e-01 -3.074558265507221222e-02
3.680000000000000000e+02 2.994648516178131104e-01 3.495013415813446045e-01 -1.230243220925331116e-02 -1.599247939884662628e-02 -8.488473482429981232e-03 1.305584888905286789e-02
3.690000000000000000e+02 2.688107252120971680e+00 -1.198066771030426025e-01 -4.405552446842193604e-01 -2.368062268942594528e-03 -1.328769922256469727e-01 -2.385809272527694702e-02
3.700000000000000000e+02 3.072667360305786133e+00 -4.050358831882476807e-01 -4.079259634017944336e-01 -8.470081229461356997e-05 -1.224031969904899597e-01 -8.846250176429748535e-02
3.710000000000000000e+02 3.301852226257324219e+00 -4.238827824592590332e-01 -4.415839910507202148e-01 -7.001713966019451618e-04 -1.326852589845657349e-01 -9.031473845243453979e-02
3.720000000000000000e+02 3.299222469329833984e+00 1.583903282880783081e-01 -7.488487362861633301e-01 -1.788578345440328121e-03 -2.251911908388137817e-01 4.616256430745124817e-02
3.730000000000000000e+02 3.911753177642822266e+00 1.607409417629241943e-01 -9.008555412292480469e-01 3.661853959783911705e-03 -2.691581249237060547e-01 4.062437266111373901e-02
3.740000000000000000e+02 2.494956493377685547e+00 1.634936779737472534e-01 -5.030949115753173828e-01 -1.757827412802726030e-04 -1.509812027215957642e-01 5.330849811434745789e-02
3.750000000000000000e+02 3.097318887710571289e+00 1.619818061590194702e-01 -6.877855062484741211e-01 5.198934581130743027e-03 -2.047759592533111572e-01 4.925970360636711121e-02
3.760000000000000000e+02 3.199888706207275391e+00 6.661611199378967285e-01 -4.355685710906982422e-01 1.479754596948623657e-02 -1.262313127517700195e-01 1.480664759874343872e-01
3.770000000000000000e+02 3.502358675003051758e+00 -1.408780515193939209e-01 -6.219918131828308105e-01 -3.486873116344213486e-03 -1.876436173915863037e-01 -3.275631740689277649e-02
3.780000000000000000e+02 2.450752735137939453e+00 -2.514180839061737061e-01 -3.370936512947082520e-01 -4.671679344028234482e-03 -1.025295928120613098e-01 -5.780927464365959167e-02
3.790000000000000000e+02 1.939509868621826172e+00 -1.946533620357513428e-01 -2.413789033889770508e-01 -3.717427141964435577e-03 -7.352890074253082275e-02 -4.125010967254638672e-02
3.800000000000000000e+02 1.963103652000427246e+00 -5.278034210205078125e-01 -1.960394382476806641e-01 2.363673411309719086e-03 -5.810272693634033203e-02 -1.011263802647590637e-01
3.810000000000000000e+02 6.975221633911132812e-01 -1.828634589910507202e-01 -2.656890638172626495e-02 -7.364380639046430588e-03 -1.017998624593019485e-02 -1.575728692114353180e-02
3.820000000000000000e+02 2.311627268791198730e-01 -3.789996504783630371e-01 -5.524449516087770462e-03 -7.387519348412752151e-03 -3.873590612784028053e-03 -6.518342997878789902e-03
3.830000000000000000e+02 4.852280616760253906e-01 -1.750710308551788330e-01 -1.168919447809457779e-02 -4.056631587445735931e-03 -4.723747726529836655e-03 -9.907252155244350433e-03
3.840000000000000000e+02 1.108332395553588867e+00 -1.638900786638259888e-01 -8.074177801609039307e-02 -5.210593808442354202e-03 -2.578571252524852753e-02 -2.357720769941806793e-02
3.850000000000000000e+02 5.902637958526611328e+00 1.572605222463607788e-01 -9.294572472572326660e-01 2.679446712136268616e-03 -2.780333459377288818e-01 -2.867191284894943237e-02
3.860000000000000000e+02 6.129099369049072266e+00 4.393589794635772705e-01 -3.220981955528259277e-01 3.553816676139831543e-02 -8.596800267696380615e-02 -1.574558466672897339e-01
3.870000000000000000e+02 4.142144203186035156e+00 4.426609277725219727e-01 -6.644515395164489746e-01 2.271316200494766235e-02 -1.925215125083923340e-01 6.450602412223815918e-02
3.880000000000000000e+02 6.708186626434326172e+00 1.365282684564590454e-01 -6.378805637359619141e-01 1.618088036775588989e-02 -1.865099072456359863e-01 -6.794767081737518311e-02
3.890000000000000000e+02 7.697260856628417969e+00 -1.324286907911300659e-01 -1.643955945968627930e+00 -3.308473899960517883e-02 -5.031121969223022461e-01 -4.388917982578277588e-02
3.900000000000000000e+02 7.104060173034667969e+00 -1.367662101984024048e-01 -1.514779686927795410e+00 3.369495645165443420e-02 -4.443254172801971436e-01 -4.267503693699836731e-02
3.910000000000000000e+02 5.630605220794677734e+00 -8.765625953674316406e-01 -1.699441075325012207e-01 1.221662852913141251e-02 -4.731824249029159546e-02 -5.204054340720176697e-02
3.920000000000000000e+02 5.046647071838378906e+00 -3.743271827697753906e-01 -7.505052685737609863e-01 -6.989337853156030178e-04 -2.253612577915191650e-01 -7.746985554695129395e-02
3.930000000000000000e+02 4.523074150085449219e+00 3.954443335533142090e-01 -7.325832247734069824e-01 1.232247706502676010e-02 -2.160782217979431152e-01 4.025947302579879761e-02
3.940000000000000000e+02 4.711832046508789062e+00 3.474344015121459961e-01 -7.882331609725952148e-01 1.040619798004627228e-02 -2.333480864763259888e-01 2.457356080412864685e-02
3.950000000000000000e+02 7.698516368865966797e+00 4.180117547512054443e-01 1.178680539131164551e+00 1.370127946138381958e-01 3.947079777717590332e-01 -6.034845113754272461e-01
3.960000000000000000e+02 6.700313091278076172e+00 -3.808155059814453125e-01 -8.427265286445617676e-01 -1.036139577627182007e-02 -2.559263706207275391e-01 -8.070001751184463501e-02
3.970000000000000000e+02 6.088542938232421875e+00 -3.830642998218536377e-01 -8.552878499031066895e-01 1.127831824123859406e-02 -2.532028555870056152e-01 -7.149860262870788574e-02
3.980000000000000000e+02 4.089779376983642578e+00 -1.334567815065383911e-01 -7.721311450004577637e-01 -3.286270424723625183e-03 -2.326252311468124390e-01 -3.455179184675216675e-02
3.990000000000000000e+02 1.088611483573913574e-01 -1.175893902778625488e+00 6.123620085418224335e-03 -7.757738232612609863e-02 -2.143612876534461975e-02 -1.076367683708667755e-02
4.000000000000000000e+02 1.197042241692543030e-01 -7.250900864601135254e-01 -2.700806595385074615e-03 -2.790507301688194275e-02 -9.181763976812362671e-03 -1.131590735167264938e-02
4.010000000000000000e+02 3.080295920372009277e-01 1.164847373962402344e+00 -1.602602005004882812e-02 -1.132836788892745972e-01 -3.879290819168090820e-02 5.827774852514266968e-02
4.020000000000000000e+02 3.398019671440124512e-01 -9.332243800163269043e-01 -7.824067957699298859e-03 -5.961028859019279480e-02 -2.023030817508697510e-02 -3.754914179444313049e-02
4.030000000000000000e+02 1.505174279212951660e+00 -1.053133010864257812e+00 -7.428492605686187744e-02 -2.561034262180328369e-02 -2.996858209371566772e-02 -1.485964059829711914e-01
4.040000000000000000e+02 9.072464108467102051e-01 -1.675877422094345093e-01 -5.039452016353607178e-02 1.566653809277340770e-04 -1.507135666906833649e-02 -2.160293422639369965e-02
4.050000000000000000e+02 3.997492194175720215e-01 -4.502246081829071045e-01 -1.699203997850418091e-02 -1.976537518203258514e-02 -1.102722529321908951e-02 -2.096417173743247986e-02
4.060000000000000000e+02 6.008073329925537109e+00 -9.523974061012268066e-01 -1.559179369360208511e-02 2.085306867957115173e-02 1.578382682055234909e-03 -6.179614458233118057e-03
4.070000000000000000e+02 8.651900291442871094e+00 8.789014220237731934e-01 4.882756710052490234e+00 1.790614247322082520e+00 2.002011299133300781e+00 -3.518055915832519531e+00
4.080000000000000000e+02 1.731535434722900391e+00 7.469242811203002930e-01 -1.827280223369598389e-01 -1.789706386625766754e-02 -6.018752604722976685e-02 1.752608269453048706e-01
4.090000000000000000e+02 3.018066883087158203e-01 9.518908262252807617e-01 4.375434946268796921e-03 -8.097881823778152466e-02 -2.298101596534252167e-02 4.625079780817031860e-02
4.100000000000000000e+02 6.622801303863525391e+00 9.074098467826843262e-01 7.616066932678222656e-01 2.355507761240005493e-01 2.991472482681274414e-01 -6.822839379310607910e-01
4.110000000000000000e+02 5.909246444702148438e+00 4.538686871528625488e-01 -3.960927426815032959e-01 3.761180117726325989e-02 -1.075442805886268616e-01 -1.280579268932342529e-01
4.120000000000000000e+02 6.162439823150634766e+00 7.207787036895751953e-01 1.439592093229293823e-01 1.148077547550201416e-01 7.763008773326873779e-02 -3.444421291351318359e-01
4.130000000000000000e+02 6.994360446929931641e+00 8.569750189781188965e-01 1.159190416336059570e+00 2.773040533065795898e-01 4.309483468532562256e-01 -8.512393832206726074e-01
4.140000000000000000e+02 5.450508117675781250e+00 -8.567239046096801758e-01 -2.329322993755340576e-01 1.473434269428253174e-02 -6.545938551425933838e-02 -8.238320797681808472e-02
4.150000000000000000e+02 2.871636390686035156e+00 7.811645865440368652e-01 -3.534352481365203857e-01 9.424578398466110229e-03 -1.032031998038291931e-01 1.809988021850585938e-01
4.160000000000000000e+02 5.379126071929931641e+00 -1.084372639656066895e+00 8.072673343122005463e-03 2.183225564658641815e-02 8.971478790044784546e-03 -3.632058948278427124e-02
4.170000000000000000e+02 1.398319959640502930e+00 7.668839693069458008e-01 -1.257717311382293701e-01 -3.610454127192497253e-02 -4.856288433074951172e-02 1.673062145709991455e-01
4.180000000000000000e+02 6.539139270782470703e+00 -7.426691055297851562e-01 -1.885656267404556274e-01 2.511120773851871490e-02 -4.903632774949073792e-02 -2.467227913439273834e-02
4.190000000000000000e+02 8.926049232482910156e+00 1.086104631423950195e+00 5.445240497589111328e+00 3.813244819641113281e+00 2.777545452117919922e+00 -5.226333141326904297e+00
4.200000000000000000e+02 8.306077003479003906e+00 -5.263161063194274902e-01 5.308314561843872070e-01 6.295910477638244629e-02 1.781371682882308960e-01 2.670540809631347656e-01
4.210000000000000000e+02 7.307789921760559082e-01 8.630416393280029297e-01 -4.492041096091270447e-02 -6.703731417655944824e-02 -3.358731791377067566e-02 1.017130911350250244e-01
4.220000000000000000e+02 1.100474834442138672e+00 1.160607099533081055e+00 -6.915783882141113281e-02 -8.883499354124069214e-02 -4.739784821867942810e-02 1.721010953187942505e-01
4.230000000000000000e+02 7.306941032409667969e+00 3.945715725421905518e-01 5.681165456771850586e-01 9.764914959669113159e-02 1.997297108173370361e-01 -3.989919424057006836e-01
4.240000000000000000e+02 7.039049625396728516e+00 -1.044562935829162598e+00 5.888903737068176270e-01 9.154815226793289185e-02 2.041315585374832153e-01 2.240294516086578369e-01
4.250000000000000000e+02 1.023482680320739746e-01 1.177505373954772949e+00 2.465689182281494141e-02 -1.031468212604522705e-01 -2.354697883129119873e-02 1.794545724987983704e-02
4.260000000000000000e+02 2.894755125045776367e+00 4.842920303344726562e-01 -4.704151451587677002e-01 6.303673610091209412e-03 -1.392334401607513428e-01 1.294329464435577393e-01
4.270000000000000000e+02 2.489332199096679688e+00 -7.762782573699951172e-01 -2.134444564580917358e-01 4.093026276677846909e-03 -6.280542910099029541e-02 -1.443676799535751343e-01
4.280000000000000000e+02 2.900695800781250000e-01 7.499809861183166504e-01 -2.240460552275180817e-02 -4.889431968331336975e-02 -2.138967812061309814e-02 4.303627088665962219e-02
4.290000000000000000e+02 5.359550952911376953e+00 8.854522109031677246e-01 -5.463349819183349609e-02 1.156399324536323547e-01 1.830193214118480682e-02 -1.946105062961578369e-01
4.300000000000000000e+02 5.542640686035156250e+00 9.272234439849853516e-01 8.000662177801132202e-02 1.462353765964508057e-01 6.787259876728057861e-02 -2.588919699192047119e-01
4.310000000000000000e+02 2.289767265319824219e+00 4.532178044319152832e-01 -3.562303185462951660e-01 -3.204981330782175064e-03 -1.078305914998054504e-01 1.294014602899551392e-01
4.320000000000000000e+02 5.462149143218994141e+00 -6.578353047370910645e-01 -4.560194313526153564e-01 9.028324857354164124e-03 -1.340973377227783203e-01 -7.891196012496948242e-02
4.330000000000000000e+02 2.269171953201293945e+00 -1.086358547210693359e+00 -1.168608069419860840e-01 -1.205066591501235962e-02 -3.867344185709953308e-02 -1.716825515031814575e-01
4.340000000000000000e+02 2.378907203674316406e+00 6.428192853927612305e-01 -3.242371082305908203e-01 -5.830671871080994606e-04 -9.744604676961898804e-02 1.671916544437408447e-01
4.350000000000000000e+02 6.141150951385498047e+00 -8.237398862838745117e-01 -1.592039316892623901e-01 2.999594993889331818e-02 -3.876239433884620667e-02 -3.493226692080497742e-02
4.360000000000000000e+02 6.323180675506591797e+00 1.092329025268554688e+00 7.085939049720764160e-01 2.727836072444915771e-01 2.944132685661315918e-01 -6.716862916946411133e-01
4.370000000000000000e+02 1.305986762046813965e+00 -1.038612484931945801e+00 -5.972369760274887085e-02 -4.907299950718879700e-02 -3.263900801539421082e-02 -1.311068534851074219e-01
4.380000000000000000e+02 8.587377548217773438e+00 -7.035877108573913574e-01 1.939773559570312500e+00 4.395489394664764404e-01 7.137967348098754883e-01 1.035982370376586914e+00
4.390000000000000000e+02 8.888291358947753906e+00 8.244770765304565430e-01 5.832751750946044922e+00 2.477452993392944336e+00 2.493061304092407227e+00 -4.290225982666015625e+00
4.400000000000000000e+02 9.206407070159912109e-01 -9.558174610137939453e-01 -4.111042618751525879e-02 -6.173559278249740601e-02 -3.085380606353282928e-02 -1.029829531908035278e-01
4.410000000000000000e+02 7.071588516235351562e+00 -7.870962619781494141e-01 1.150038540363311768e-01 5.253759399056434631e-02 5.026243254542350769e-02 7.774879038333892822e-02
4.420000000000000000e+02 6.807122230529785156e+00 8.832761049270629883e-01 9.401962757110595703e-01 2.475921362638473511e-01 3.563365042209625244e-01 -7.581253051757812500e-01
4.430000000000000000e+02 2.893933951854705811e-01 5.528285503387451172e-01 -4.299908876419067383e-03 -2.409115433692932129e-02 -8.517319336533546448e-03 1.546743046492338181e-02
4.440000000000000000e+02 8.357096672058105469e+00 7.064750790596008301e-01 3.759517431259155273e+00 7.508435845375061035e-01 1.353108286857604980e+00 -2.122169971466064453e+00
4.450000000000000000e+02 8.270479202270507812e+00 -1.023632287979125977e+00 2.182711124420166016e+00 6.781967878341674805e-01 8.582723736763000488e-01 1.234181880950927734e+00
4.460000000000000000e+02 7.560356140136718750e+00 -5.348212122917175293e-01 -2.806042134761810303e-01 5.672786384820938110e-02 -6.716290861368179321e-02 -1.444243267178535461e-02
4.470000000000000000e+02 7.259362220764160156e+00 1.051796913146972656e+00 1.733922123908996582e+00 5.110888481140136719e-01 6.735032796859741211e-01 -1.313237190246582031e+00
4.480000000000000000e+02 7.634734630584716797e+00 -7.674847245216369629e-01 4.708613157272338867e-01 6.111325323581695557e-02 1.595923751592636108e-01 2.014403939247131348e-01
4.490000000000000000e+02 7.500674247741699219e+00 -1.233047172427177429e-01 -1.598361015319824219e+00 2.542873658239841461e-02 -4.718796908855438232e-01 -3.724747523665428162e-02
4.500000000000000000e+02 8.504671096801757812e+00 -5.204694271087646484e-01 8.928758502006530762e-01 3.448597490787506104e-01 3.713206648826599121e-01 4.711965620517730713e-01
4.510000000000000000e+02 8.111049652099609375e+00 1.055274009704589844e+00 3.414430379867553711e+00 1.173897862434387207e+00 1.376498460769653320e+00 -2.552095890045166016e+00
4.520000000000000000e+02 7.257553100585937500e+00 -1.072890400886535645e+00 8.217552304267883301e-01 2.051475793123245239e-01 3.080708384513854980e-01 3.684867322444915771e-01
4.530000000000000000e+02 7.485047340393066406e+00 1.028296947479248047e+00 2.085955619812011719e+00 5.670980215072631836e-01 7.959160804748535156e-01 -1.525394797325134277e+00
4.540000000000000000e+02 7.503221988677978516e+00 -3.444402813911437988e-01 -9.745317101478576660e-01 -3.736422955989837646e-02 -3.035687804222106934e-01 -6.450404226779937744e-02
4.550000000000000000e+02 7.271910309791564941e-01 -4.768870770931243896e-01 -4.051211848855018616e-02 -1.783091574907302856e-02 -1.750290952622890472e-02 -4.713599383831024170e-02
4.560000000000000000e+02 5.073539614677429199e-01 3.733407557010650635e-01 -2.209342643618583679e-02 -9.429545141756534576e-03 -9.456891566514968872e-03 2.302497252821922302e-02
4.570000000000000000e+02 5.345447063446044922e-01 -5.940663814544677734e-01 -2.175075747072696686e-02 -2.787287160754203796e-02 -1.488708890974521637e-02 -3.666196390986442566e-02
4.580000000000000000e+02 8.786366462707519531e+00 -1.085190057754516602e+00 3.207630872726440430e+00 2.152804374694824219e+00 1.608130574226379395e+00 2.554710626602172852e+00
4.590000000000000000e+02 8.593629837036132812e+00 -1.034714937210083008e+00 2.812925338745117188e+00 1.196514844894409180e+00 1.202831983566284180e+00 1.928544640541076660e+00
4.600000000000000000e+02 6.814255237579345703e+00 -9.600764513015747070e-01 3.407714664936065674e-01 7.684074342250823975e-02 1.252836585044860840e-01 1.370749771595001221e-01
4.610000000000000000e+02 6.570720672607421875e+00 6.667274236679077148e-01 3.705966174602508545e-01 1.082441508769989014e-01 1.436522305011749268e-01 -4.199973344802856445e-01
4.620000000000000000e+02 1.317675113677978516e+00 -7.443127632141113281e-01 -8.965940028429031372e-02 -1.821579970419406891e-02 -3.236256167292594910e-02 -1.108952537178993225e-01
4.630000000000000000e+02 1.223283410072326660e+00 8.314480781555175781e-01 -1.184515357017517090e-01 -4.734277352690696716e-02 -4.973829165101051331e-02 1.547255069017410278e-01
4.640000000000000000e+02 1.124009132385253906e+00 9.628332853317260742e-01 -8.053900301456451416e-02 -5.735918134450912476e-02 -4.136945307254791260e-02 1.618365943431854248e-01
4.650000000000000000e+02 1.105970025062561035e+00 -1.018557906150817871e+00 -5.067821592092514038e-02 -4.093223437666893005e-02 -2.748313546180725098e-02 -1.203208118677139282e-01
4.660000000000000000e+02 6.378637790679931641e+00 -9.857322573661804199e-01 1.683753579854965210e-01 4.638617858290672302e-02 6.442846357822418213e-02 5.197005718946456909e-02
4.670000000000000000e+02 5.866957187652587891e+00 1.163851737976074219e+00 4.867572188377380371e-01 2.438669055700302124e-01 2.191872447729110718e-01 -5.068152546882629395e-01
4.680000000000000000e+02 1.514773011207580566e+00 -7.613509893417358398e-01 -1.066126972436904907e-01 -2.655609324574470520e-02 -3.995063528418540955e-02 -1.174711957573890686e-01
4.690000000000000000e+02 1.444802045822143555e+00 9.431028366088867188e-01 -1.237590163946151733e-01 -4.261738061904907227e-02 -4.991291835904121399e-02 1.826210916042327881e-01
4.700000000000000000e+02 5.619352817535400391e+00 7.003617882728576660e-01 -1.844231039285659790e-01 7.867967337369918823e-02 -3.172302991151809692e-02 -1.830963939428329468e-01
4.710000000000000000e+02 5.872273445129394531e+00 -6.479326486587524414e-01 -4.441213905811309814e-01 1.550002675503492355e-02 -1.285864114761352539e-01 -7.016148418188095093e-02
4.720000000000000000e+02 1.927343726158142090e+00 -8.159897327423095703e-01 -1.449272334575653076e-01 -1.762013323605060577e-02 -4.876421019434928894e-02 -1.409520655870437622e-01
4.730000000000000000e+02 1.836697220802307129e+00 4.731300473213195801e-01 -2.502052187919616699e-01 -1.344063412398099899e-02 -7.909375429153442383e-02 1.275560408830642700e-01
4.740000000000000000e+02 4.484950065612792969e+00 -4.092569947242736816e-01 -6.393387913703918457e-01 2.478871960192918777e-03 -1.910579800605773926e-01 -7.750072330236434937e-02
4.750000000000000000e+02 5.682041645050048828e+00 4.423465132713317871e-01 -4.914452135562896729e-01 2.673309482634067535e-02 -1.394136399030685425e-01 -9.815470129251480103e-02
4.760000000000000000e+02 2.226099729537963867e+00 -6.453637480735778809e-01 -2.102114558219909668e-01 -8.588158525526523590e-03 -6.563988327980041504e-02 -1.219838261604309082e-01
4.770000000000000000e+02 2.478810548782348633e+00 4.491901397705078125e-01 -3.997828960418701172e-01 7.452925638062879443e-05 -1.199125051498413086e-01 1.266705542802810669e-01
4.780000000000000000e+02 5.702065944671630859e+00 9.720186591148376465e-01 1.560491621494293213e-01 1.521754711866378784e-01 9.246739000082015991e-02 -3.221712112426757812e-01
4.790000000000000000e+02 9.861344695091247559e-01 4.200553297996520996e-01 -9.240095317363739014e-02 -1.444811094552278519e-02 -3.205471858382225037e-02 7.098655402660369873e-02
4.800000000000000000e+02 6.865882396697998047e+00 -6.946779489517211914e-01 -1.575176268815994263e-01 5.369038786739110947e-03 -4.564457759261131287e-02 -1.362438686192035675e-02
4.810000000000000000e+02 2.091331005096435547e+00 -1.111598134040832520e+00 -9.278393536806106567e-02 -1.422161050140857697e-02 -3.210166469216346741e-02 -1.582939177751541138e-01
4.820000000000000000e+02 7.375257492065429688e+00 -5.870767831802368164e-01 -2.087544649839401245e-01 2.011918695643544197e-03 -6.202276423573493958e-02 -4.789913073182106018e-03
4.830000000000000000e+02 8.118208885192871094e+00 7.375722527503967285e-01 3.040585994720458984e+00 5.719856619834899902e-01 1.083771586418151855e+00 -1.768121957778930664e+00
4.840000000000000000e+02 7.182654380798339844e+00 8.083785176277160645e-01 1.329708099365234375e+00 2.677152454853057861e-01 4.792270064353942871e-01 -9.024651646614074707e-01
4.850000000000000000e+02 8.061659812927246094e+00 -7.544200420379638672e-01 9.988897442817687988e-01 1.456862688064575195e-01 3.433727920055389404e-01 4.429472982883453369e-01
4.860000000000000000e+02 2.288366317749023438e+00 1.105708003044128418e+00 -1.801192164421081543e-01 -2.204385120421648026e-03 -5.469707772135734558e-02 2.234491407871246338e-01
4.870000000000000000e+02 1.893611550331115723e+00 8.765718936920166016e-01 -1.954709440469741821e-01 -2.304378524422645569e-02 -6.555441766977310181e-02 1.964381635189056396e-01
4.880000000000000000e+02 5.572792530059814453e+00 -1.114845037460327148e+00 6.933837383985519409e-02 3.280853852629661560e-02 3.064407408237457275e-02 -3.348125144839286804e-02
4.890000000000000000e+02 3.494744300842285156e+00 -7.762568593025207520e-01 -3.007159829139709473e-01 -2.049079630523920059e-03 -9.082952141761779785e-02 -1.291606873273849487e-01
4.900000000000000000e+02 4.491045475006103516e+00 -1.396871507167816162e-01 -8.636510372161865234e-01 -1.307140919379889965e-03 -2.594874501228332520e-01 -3.543782234191894531e-02
4.910000000000000000e+02 6.093074798583984375e+00 -6.247726082801818848e-01 -4.578007161617279053e-01 -1.054817624390125275e-02 -1.405046731233596802e-01 -7.931423187255859375e-02
4.920000000000000000e+02 1.616156101226806641e+00 4.187647104263305664e-01 -2.044019252061843872e-01 -8.588294498622417450e-03 -6.389706581830978394e-02 1.095843911170959473e-01
4.930000000000000000e+02 8.265336036682128906e+00 -7.771984934806823730e-01 1.354318141937255859e+00 3.320631384849548340e-01 5.059143900871276855e-01 7.233727574348449707e-01
4.940000000000000000e+02 3.040254831314086914e+00 -6.597338318824768066e-01 -2.999634444713592529e-01 -4.977545700967311859e-03 -9.148229658603668213e-02 -1.239986643195152283e-01
4.950000000000000000e+02 3.182293653488159180e+00 -1.286990880966186523e+00 -4.587309435009956360e-02 1.716887019574642181e-02 -8.611266501247882843e-03 -1.495198011398315430e-01
4.960000000000000000e+02 3.700124979019165039e+00 -8.394787311553955078e-01 -2.891163825988769531e-01 7.851183414459228516e-03 -8.437956124544143677e-02 -1.390249729156494141e-01
4.970000000000000000e+02 3.234292745590209961e+00 -8.975617885589599609e-01 -2.259773463010787964e-01 -3.805016167461872101e-03 -6.893470883369445801e-02 -1.394935399293899536e-01
4.980000000000000000e+02 4.274090766906738281e+00 6.616340279579162598e-01 -4.857077300548553467e-01 3.341095522046089172e-02 -1.356890350580215454e-01 5.344358831644058228e-02
4.990000000000000000e+02 4.685798168182373047e+00 8.589065670967102051e-01 -2.425023168325424194e-01 9.063909202814102173e-02 -4.555897042155265808e-02 -1.841533184051513672e-02
5.000000000000000000e+02 4.787053108215332031e+00 -5.285969376564025879e-01 -5.722141265869140625e-01 -6.055548437871038914e-04 -1.718459129333496094e-01 -9.154920279979705811e-02
5.010000000000000000e+02 5.083986759185791016e+00 3.485971391201019287e-01 -7.729843854904174805e-01 2.423387207090854645e-02 -2.246251553297042847e-01 -1.351420767605304718e-02
5.020000000000000000e+02 3.631146907806396484e+00 8.523319959640502930e-01 -3.504676222801208496e-01 3.872996568679809570e-02 -9.352129697799682617e-02 1.383632868528366089e-01
5.030000000000000000e+02 4.899170875549316406e+00 1.217303648591041565e-01 -1.051655769348144531e+00 1.494842348620295525e-03 -3.150482773780822754e-01 1.142052933573722839e-02
5.040000000000000000e+02 4.058701515197753906e+00 -3.757579624652862549e-01 -5.997757911682128906e-01 -2.725699916481971741e-03 -1.807504445314407349e-01 -8.060803264379501343e-02
5.050000000000000000e+02 4.264520168304443359e+00 -4.013584554195404053e-01 -6.111250519752502441e-01 2.897935686632990837e-03 -1.824681311845779419e-01 -8.492218703031539917e-02
5.060000000000000000e+02 3.877544403076171875e+00 -3.376358151435852051e-01 -5.920513272285461426e-01 1.447827438823878765e-03 -1.771810501813888550e-01 -8.015478402376174927e-02
5.070000000000000000e+02 3.712341070175170898e+00 1.157479882240295410e+00 -1.662203967571258545e-01 9.571598470211029053e-02 -2.115132659673690796e-02 1.091050282120704651e-01
5.080000000000000000e+02 4.289303779602050781e+00 -1.402549445629119873e-01 -8.184731006622314453e-01 1.161320134997367859e-03 -2.451935261487960815e-01 -3.436914458870887756e-02
5.090000000000000000e+02 7.154691219329833984e-01 1.531558632850646973e-01 -3.039622865617275238e-02 6.938729202374815941e-04 -8.910707198083400726e-03 1.520284358412027359e-02
5.100000000000000000e+02 1.283971667289733887e+00 1.132958233356475830e-01 -1.416442096233367920e-01 -1.299979817122220993e-02 -4.639320075511932373e-02 2.208070456981658936e-02
5.110000000000000000e+02 1.194373726844787598e+00 2.879570126533508301e-01 -1.223916709423065186e-01 -2.651432296261191368e-03 -3.751293197274208069e-02 6.811840087175369263e-02
5.120000000000000000e+02 1.338330149650573730e+00 5.902330279350280762e-01 -1.352569758892059326e-01 -2.121922187507152557e-02 -4.694285988807678223e-02 1.169591918587684631e-01
5.130000000000000000e+02 2.866396605968475342e-01 -1.433311402797698975e-01 -1.782488077878952026e-03 -4.996697418391704559e-03 -2.033755648881196976e-03 -2.473066095262765884e-03
5.140000000000000000e+02 9.295687675476074219e-01 -4.499128460884094238e-01 -6.168580800294876099e-02 -1.616586931049823761e-02 -2.335550263524055481e-02 -5.367980897426605225e-02
5.150000000000000000e+02 1.123660087585449219e+00 -4.487942457199096680e-01 -8.277631551027297974e-02 -8.126653730869293213e-03 -2.727089077234268188e-02 -6.639735400676727295e-02
5.160000000000000000e+02 1.509488821029663086e+00 -1.704776585102081299e-01 -1.535040885210037231e-01 -6.384795531630516052e-03 -4.796666651964187622e-02 -3.114760108292102814e-02
5.170000000000000000e+02 1.318691968917846680e+00 -4.570011496543884277e-01 -1.083928942680358887e-01 -1.510098576545715332e-02 -3.704816475510597229e-02 -7.312045991420745850e-02
5.180000000000000000e+02 1.519290566444396973e+00 -4.702608585357666016e-01 -1.366434395313262939e-01 -5.819279234856367111e-03 -4.273881390690803528e-02 -8.507944643497467041e-02
5.190000000000000000e+02 2.330801010131835938e+00 -1.092834845185279846e-01 -3.450070619583129883e-01 6.691458169370889664e-03 -1.014946773648262024e-01 -2.363802120089530945e-02
5.200000000000000000e+02 2.330002546310424805e+00 -4.076521396636962891e-01 -2.789691388607025146e-01 3.885137615725398064e-03 -8.252519369125366211e-02 -8.943679928779602051e-02
5.210000000000000000e+02 2.854635238647460938e+00 -3.763575851917266846e-01 -3.827546834945678711e-01 -7.597459945827722549e-03 -1.171056404709815979e-01 -8.358354121446609497e-02
5.220000000000000000e+02 2.888637542724609375e+00 -1.353092640638351440e-01 -4.839568734169006348e-01 -4.152729641646146774e-03 -1.464328765869140625e-01 -3.067693673074245453e-02
5.230000000000000000e+02 3.525556325912475586e+00 -4.008805751800537109e-01 -4.934588968753814697e-01 -1.857282361015677452e-03 -1.485948562622070312e-01 -9.018830955028533936e-02
5.240000000000000000e+02 3.712824344635009766e+00 -3.425129950046539307e-01 -5.569360256195068359e-01 1.646232209168374538e-03 -1.665869355201721191e-01 -7.345654070377349854e-02
5.250000000000000000e+02 3.153147101402282715e-01 -1.170158624649047852e+00 3.969299606978893280e-03 -9.410780668258666992e-02 -2.704155258834362030e-02 -4.805319383740425110e-02
5.260000000000000000e+02 1.098998665809631348e+00 1.383973240852355957e+00 -3.679652884602546692e-02 -1.121329516172409058e-01 -4.467884451150894165e-02 1.930509209632873535e-01
5.270000000000000000e+02 9.132696986198425293e-01 1.139184236526489258e+00 -3.409705311059951782e-02 -1.004044935107231140e-01 -4.035046324133872986e-02 1.522748172283172607e-01
5.280000000000000000e+02 1.297700524330139160e+00 1.380959510803222656e+00 -5.881245434284210205e-02 -9.511084109544754028e-02 -4.617698863148689270e-02 2.094106376171112061e-01
5.290000000000000000e+02 2.104677677154541016e+00 1.142934083938598633e+00 -1.485369950532913208e-01 -8.215740323066711426e-03 -4.702581837773323059e-02 2.327521890401840210e-01
5.300000000000000000e+02 2.105922222137451172e+00 1.380057573318481445e+00 -1.059859022498130798e-01 -1.430277992039918900e-02 -3.608660399913787842e-02 2.417611330747604370e-01
5.310000000000000000e+02 2.472120761871337891e+00 8.260114192962646484e-01 -2.767653167247772217e-01 2.960176905617117882e-03 -8.214154094457626343e-02 1.972797960042953491e-01
5.320000000000000000e+02 2.684350728988647461e+00 1.070449829101562500e+00 -2.066316008567810059e-01 1.842110417783260345e-02 -5.646314844489097595e-02 2.171064913272857666e-01
5.330000000000000000e+02 5.014388561248779297e-01 -1.180073738098144531e+00 -1.470376830548048019e-02 -9.438700973987579346e-02 -3.272723406553268433e-02 -7.389096915721893311e-02
5.340000000000000000e+02 1.898589730262756348e+00 -1.361667275428771973e+00 -5.230030789971351624e-02 -2.548113279044628143e-02 -2.333443239331245422e-02 -1.621233522891998291e-01
5.350000000000000000e+02 2.706937789916992188e+00 -1.351746082305908203e+00 -5.417102947831153870e-02 2.876991871744394302e-03 -1.538821123540401459e-02 -1.622396707534790039e-01
5.360000000000000000e+02 3.278998136520385742e+00 -1.419653534889221191e+00 -3.290195390582084656e-02 1.930120959877967834e-02 -4.080223385244607925e-03 -1.541560143232345581e-01
5.370000000000000000e+02 3.459973573684692383e+00 -1.375302791595458984e+00 -1.612322963774204254e-02 3.061182424426078796e-02 4.346578381955623627e-03 -1.232417151331901550e-01
5.380000000000000000e+02 3.894383430480957031e+00 -1.369561672210693359e+00 1.175651885569095612e-02 3.382580354809761047e-02 1.367469597607851028e-02 -1.028582677245140076e-01
5.390000000000000000e+02 4.101588249206542969e+00 -1.380870103836059570e+00 4.792618378996849060e-02 3.625752404332160950e-02 2.525511197745800018e-02 -9.829223155975341797e-02
5.400000000000000000e+02 4.473862648010253906e+00 -1.373406052589416504e+00 8.022461831569671631e-02 2.851862087845802307e-02 3.262297064065933228e-02 -6.802898645401000977e-02
5.410000000000000000e+02 4.413926601409912109e+00 -9.825900197029113770e-01 -1.763651669025421143e-01 8.827230893075466156e-03 -5.026138201355934143e-02 -1.074810773134231567e-01
5.420000000000000000e+02 4.651007652282714844e+00 -1.034792780876159668e+00 -1.240120902657508850e-01 1.818432100117206573e-02 -3.174833208322525024e-02 -1.068839728832244873e-01
5.430000000000000000e+02 2.698109626770019531e+00 1.353659868240356445e+00 -1.228971406817436218e-01 3.569676354527473450e-02 -2.616011351346969604e-02 2.118287682533264160e-01
5.440000000000000000e+02 3.203837871551513672e+00 1.046766161918640137e+00 -2.388078123331069946e-01 4.096488282084465027e-02 -5.935287848114967346e-02 1.749229580163955688e-01
5.450000000000000000e+02 3.536650180816650391e+00 1.156954050064086914e+00 -1.747968643903732300e-01 7.671321928501129150e-02 -2.942509204149246216e-02 1.245246008038520813e-01
5.460000000000000000e+02 3.511688947677612305e+00 1.383489131927490234e+00 -7.884215563535690308e-02 1.101538687944412231e-01 9.393513202667236328e-03 1.252624243497848511e-01
5.470000000000000000e+02 4.290624618530273438e+00 1.364819407463073730e+00 3.181198239326477051e-02 1.666053384542465210e-01 5.952519550919532776e-02 -3.809181228280067444e-02
5.480000000000000000e+02 4.488964080810546875e+00 1.358513236045837402e+00 4.308502748608589172e-02 1.827047616243362427e-01 6.773693859577178955e-02 -9.543082863092422485e-02
5.490000000000000000e+02 4.898042678833007812e+00 1.361506700515747070e+00 1.747211813926696777e-01 2.284200489521026611e-01 1.209423691034317017e-01 -2.286313623189926147e-01
5.500000000000000000e+02 5.317640781402587891e+00 1.127145648002624512e+00 1.693741381168365479e-01 1.936263293027877808e-01 1.089001446962356567e-01 -2.691535651683807373e-01
5.510000000000000000e+02 5.302229404449462891e+00 1.374965667724609375e+00 3.292597532272338867e-01 2.783536016941070557e-01 1.822840124368667603e-01 -3.811242580413818359e-01
5.520000000000000000e+02 6.038267612457275391e+00 1.127481818199157715e+00 5.834308862686157227e-01 2.680507004261016846e-01 2.554444968700408936e-01 -5.761169791221618652e-01
5.530000000000000000e+02 5.891308784484863281e+00 1.382144212722778320e+00 6.676238775253295898e-01 3.779305517673492432e-01 3.136663138866424561e-01 -6.669620871543884277e-01
5.540000000000000000e+02 5.990163803100585938e+00 9.407597780227661133e-01 3.025832176208496094e-01 1.555813848972320557e-01 1.374493837356567383e-01 -3.941951692104339600e-01
5.550000000000000000e+02 6.492058277130126953e+00 1.148414731025695801e+00 9.583695530891418457e-01 3.835081756114959717e-01 4.025633335113525391e-01 -8.534482717514038086e-01
5.560000000000000000e+02 6.495021343231201172e+00 1.377065539360046387e+00 1.121443748474121094e+00 5.180538296699523926e-01 4.918492734432220459e-01 -1.047409296035766602e+00
5.570000000000000000e+02 6.886942863464355469e+00 1.372913599014282227e+00 1.527567028999328613e+00 6.663641929626464844e-01 6.581794023513793945e-01 -1.393704891204833984e+00
5.580000000000000000e+02 7.049162387847900391e+00 1.097934365272521973e+00 1.484277725219726562e+00 4.780209362506866455e-01 5.886895656585693359e-01 -1.207096576690673828e+00
5.590000000000000000e+02 7.699464797973632812e+00 1.070272088050842285e+00 2.512005805969238281e+00 7.818552851676940918e-01 9.881583452224731445e-01 -1.873524069786071777e+00
5.600000000000000000e+02 7.895280361175537109e+00 1.076510429382324219e+00 2.955535411834716797e+00 9.156286716461181641e-01 1.161349177360534668e+00 -2.204300880432128906e+00
5.610000000000000000e+02 8.438706398010253906e+00 9.416235089302062988e-01 4.186749458312988281e+00 1.445931792259216309e+00 1.689804434776306152e+00 -3.020874977111816406e+00
5.620000000000000000e+02 8.499334335327148438e+00 1.141542434692382812e+00 4.407949447631835938e+00 2.245239019393920898e+00 1.995956540107727051e+00 -3.812664031982421875e+00
5.630000000000000000e+02 8.500323295593261719e+00 1.375605583190917969e+00 4.061188220977783203e+00 2.810327053070068359e+00 2.061454534530639648e+00 -4.200785636901855469e+00
5.640000000000000000e+02 9.372192382812500000e+00 1.157221794128417969e+00 5.264938354492187500e+00 7.963032245635986328e+00 3.968391180038452148e+00 -6.830747127532958984e+00
5.650000000000000000e+02 1.009897041320800781e+01 1.360965251922607422e+00 2.762327432632446289e+00 1.447122955322265625e+01 5.170067310333251953e+00 -4.428068161010742188e+00
5.660000000000000000e+02 1.029183864593505859e+01 1.070809483528137207e+00 3.834347248077392578e+00 1.733671760559082031e+01 6.351319313049316406e+00 -2.879902362823486328e+00
5.670000000000000000e+02 1.094621753692626953e+01 1.065440058708190918e+00 5.315776824951171875e+00 1.453681468963623047e+01 5.955777645111083984e+00 4.635229706764221191e-01
5.680000000000000000e+02 1.105038261413574219e+01 9.287655949592590332e-01 6.883097648620605469e+00 1.404878902435302734e+01 6.279565811157226562e+00 1.006638765335083008e+00
5.690000000000000000e+02 1.134867191314697266e+01 4.438386559486389160e-01 9.623556137084960938e+00 1.143455886840820312e+01 6.317434310913085938e+00 3.200354874134063721e-01
5.700000000000000000e+02 1.137658119201660156e+01 1.111932620406150818e-01 1.056369781494140625e+01 1.130169677734375000e+01 6.559618473052978516e+00 -1.084660768508911133e+00
5.710000000000000000e+02 1.135768222808837891e+01 -8.660465478897094727e-02 1.053540611267089844e+01 1.155138778686523438e+01 6.626038074493408203e+00 -2.010351181030273438e+00
5.720000000000000000e+02 1.114956474304199219e+01 -7.495307922363281250e-01 6.936142444610595703e+00 1.371706199645996094e+01 6.195961475372314453e+00 -3.751919984817504883e+00
5.730000000000000000e+02 1.055389499664306641e+01 -9.605528712272644043e-01 3.442463636398315430e+00 1.766316795349121094e+01 6.331689357757568359e+00 -1.601554751396179199e+00
5.740000000000000000e+02 9.789915084838867188e+00 -1.310788512229919434e+00 2.294873237609863281e+00 1.118292713165283203e+01 4.043340206146240234e+00 4.124275684356689453e+00
5.750000000000000000e+02 9.878663063049316406e+00 -1.433499455451965332e+00 1.809865355491638184e+00 1.189889621734619141e+01 4.112628459930419922e+00 3.510451555252075195e+00
5.760000000000000000e+02 9.613013267517089844e+00 -1.223307251930236816e+00 2.962749481201171875e+00 9.475531578063964844e+00 3.731484174728393555e+00 4.673269271850585938e+00
5.770000000000000000e+02 9.401084899902343750e+00 -1.164552330970764160e+00 3.582424640655517578e+00 6.768460273742675781e+00 3.105265617370605469e+00 4.740334510803222656e+00
5.780000000000000000e+02 9.330183982849121094e+00 -1.384363412857055664e+00 3.175657510757446289e+00 6.535326004028320312e+00 2.913295030593872070e+00 4.247356414794921875e+00
5.790000000000000000e+02 8.930303573608398438e+00 -1.360448479652404785e+00 3.319848537445068359e+00 3.695751428604125977e+00 2.104680061340332031e+00 3.336668729782104492e+00
5.800000000000000000e+02 8.432847976684570312e+00 -8.934742808341979980e-01 2.078916788101196289e+00 7.261724472045898438e-01 8.415268063545227051e-01 1.187324047088623047e+00
5.810000000000000000e+02 7.889681339263916016e+00 -1.347106099128723145e+00 2.039375782012939453e+00 8.014134764671325684e-01 8.522368073463439941e-01 1.222051858901977539e+00
5.820000000000000000e+02 7.666182994842529297e+00 -1.057257175445556641e+00 1.313960075378417969e+00 3.090306520462036133e-01 4.868972301483154297e-01 6.001767516136169434e-01
5.830000000000000000e+02 7.463826179504394531e+00 -1.071149468421936035e+00 1.041464090347290039e+00 1.863661855459213257e-01 3.683491051197052002e-01 4.212172925472259521e-01
5.840000000000000000e+02 7.487630367279052734e+00 -1.353373289108276367e+00 1.542536735534667969e+00 4.471442103385925293e-01 5.969042778015136719e-01 8.030341863632202148e-01
5.850000000000000000e+02 6.558133602142333984e+00 -1.260167956352233887e+00 6.635698676109313965e-01 1.189214214682579041e-01 2.347473949193954468e-01 2.291131764650344849e-01
5.860000000000000000e+02 6.502818107604980469e+00 -1.416561841964721680e+00 7.824307084083557129e-01 1.617205590009689331e-01 2.832453846931457520e-01 2.951315939426422119e-01
5.870000000000000000e+02 5.915615558624267578e+00 -1.386669874191284180e+00 4.601314961910247803e-01 8.794415742158889771e-02 1.644226908683776855e-01 1.259349435567855835e-01
5.880000000000000000e+02 6.147385597229003906e+00 -1.184150934219360352e+00 3.214520514011383057e-01 6.804059445858001709e-02 1.168477982282638550e-01 8.479332923889160156e-02
5.890000000000000000e+02 5.952733516693115234e+00 -1.164222836494445801e+00 2.427991479635238647e-01 3.099181316792964935e-02 8.213728666305541992e-02 2.739442139863967896e-02
5.900000000000000000e+02 2.070889949798583984e+00 4.941557049751281738e-01 -2.970003187656402588e-01 -3.783654887229204178e-03 -9.023519605398178101e-02 1.390810161828994751e-01
5.910000000000000000e+02 4.889294624328613281e+00 -1.243731975555419922e-01 -9.537492394447326660e-01 -6.193043198436498642e-03 -2.879826724529266357e-01 -3.374394401907920837e-02
5.920000000000000000e+02 5.086661815643310547e+00 -1.319323629140853882e-01 -1.002126336097717285e+00 1.676186453551054001e-03 -3.001350462436676025e-01 -3.530709072947502136e-02
5.930000000000000000e+02 5.283787727355957031e+00 -1.421496123075485229e-01 -1.049391627311706543e+00 -3.808272071182727814e-03 -3.159599900245666504e-01 -3.833109512925148010e-02
5.940000000000000000e+02 5.454619407653808594e+00 -4.220358133316040039e-01 -7.256150245666503906e-01 -1.136421598494052887e-02 -2.210937589406967163e-01 -8.778589218854904175e-02
5.950000000000000000e+02 5.032251358032226562e+00 -9.147278070449829102e-01 -1.880731433629989624e-01 3.415828570723533630e-03 -5.539719387888908386e-02 -8.210399746894836426e-02
5.960000000000000000e+02 5.672704696655273438e+00 -4.032779037952423096e-01 -7.743201255798339844e-01 6.243267096579074860e-03 -2.304230481386184692e-01 -8.066522330045700073e-02
5.970000000000000000e+02 5.689333438873291016e+00 -1.425580382347106934e-01 -1.136646747589111328e+00 -7.719135377556085587e-03 -3.433097600936889648e-01 -3.958634287118911743e-02
5.980000000000000000e+02 6.094984531402587891e+00 -1.345948725938796997e-01 -1.232395648956298828e+00 -9.111083112657070160e-03 -3.724520206451416016e-01 -4.157927259802818298e-02
5.990000000000000000e+02 6.499288082122802734e+00 -3.624794781208038330e-01 -8.871787786483764648e-01 3.797357901930809021e-03 -2.650144398212432861e-01 -7.307424396276473999e-02
6.000000000000000000e+02 6.500439167022705078e+00 -1.290287375450134277e-01 -1.341155052185058594e+00 -1.063756924122571945e-02 -4.055378139019012451e-01 -4.545855894684791565e-02
6.010000000000000000e+02 6.907692909240722656e+00 -4.148274362087249756e-01 -7.628765702247619629e-01 1.483450829982757568e-02 -2.244126200675964355e-01 -6.079591065645217896e-02
6.020000000000000000e+02 6.903815746307373047e+00 -1.389468610286712646e-01 -1.459692597389221191e+00 -1.815803349018096924e-02 -4.433551728725433350e-01 -5.354091897606849670e-02
6.030000000000000000e+02 7.121029853820800781e+00 -4.067460894584655762e-01 -7.686867713928222656e-01 -1.760963164269924164e-02 -2.358889132738113403e-01 -8.097891509532928467e-02
6.040000000000000000e+02 7.673297882080078125e+00 -3.812748491764068604e-01 -7.275053262710571289e-01 6.189122051000595093e-02 -1.996842324733734131e-01 -4.375726450234651566e-03
6.050000000000000000e+02 8.090831756591796875e+00 -4.654213786125183105e-01 -5.415032058954238892e-02 5.323266983032226562e-02 -2.752961299847811460e-04 1.074749603867530823e-01
6.060000000000000000e+02 8.513357162475585938e+00 -9.385216236114501953e-02 -2.024406194686889648e+00 -1.033249963074922562e-02 -6.104215979576110840e-01 -8.332521468400955200e-02
6.070000000000000000e+02 8.694006919860839844e+00 -9.929644316434860229e-02 -2.065280675888061523e+00 8.582445234060287476e-02 -5.938368439674377441e-01 1.436617784202098846e-02
6.080000000000000000e+02 8.780900955200195312e+00 -5.805974006652832031e-01 1.991112232208251953e+00 5.927975177764892578e-01 7.751729488372802734e-01 1.004168033599853516e+00
6.090000000000000000e+02 9.002408027648925781e+00 -5.003924965858459473e-01 2.487190246582031250e+00 5.367148518562316895e-01 9.071714878082275391e-01 1.410247921943664551e+00
6.100000000000000000e+02 2.677865982055664062e+00 4.797182679176330566e-01 -4.321614205837249756e-01 -5.070534825790673494e-05 -1.296636462211608887e-01 1.327957212924957275e-01
6.110000000000000000e+02 3.502223491668701172e+00 1.595564931631088257e-01 -8.022072315216064453e-01 4.232236649841070175e-03 -2.393925040960311890e-01 4.444462805986404419e-02
6.120000000000000000e+02 4.110939979553222656e+00 1.544675827026367188e-01 -9.455559253692626953e-01 8.625214104540646076e-04 -2.834080159664154053e-01 3.667588531970977783e-02
6.130000000000000000e+02 4.331385135650634766e+00 4.170958399772644043e-01 -7.045877575874328613e-01 1.234548725187778473e-02 -2.076726853847503662e-01 4.691385105252265930e-02
6.140000000000000000e+02 4.723761558532714844e+00 6.832276582717895508e-01 -4.321334064006805420e-01 5.730883032083511353e-02 -1.124473735690116882e-01 -2.424485236406326294e-02
6.150000000000000000e+02 5.272310256958007812e+00 3.729754388332366943e-01 -7.117676734924316406e-01 2.120149135589599609e-02 -2.071698606014251709e-01 -2.558361180126667023e-02
6.160000000000000000e+02 5.293497562408447266e+00 1.325630992650985718e-01 -1.037139058113098145e+00 1.060768682509660721e-02 -3.079594075679779053e-01 -8.329818025231361389e-03
6.170000000000000000e+02 5.232282638549804688e+00 6.048842072486877441e-01 -4.300444424152374268e-01 4.865375906229019165e-02 -1.144172027707099915e-01 -7.705397903919219971e-02
6.180000000000000000e+02 8.746415138244628906e+00 3.600572347640991211e-01 4.110112190246582031e+00 2.706131935119628906e-01 1.314217686653137207e+00 -1.433213710784912109e+00
6.190000000000000000e+02 8.305797576904296875e+00 1.427644640207290649e-01 1.192884087562561035e+00 1.178848370909690857e-02 3.614017665386199951e-01 -2.832449376583099365e-01
6.200000000000000000e+02 7.901810646057128906e+00 1.449706256389617920e-01 5.050451755523681641e-01 5.454801395535469055e-02 1.678779572248458862e-01 -2.071433216333389282e-01
6.210000000000000000e+02 7.500181674957275391e+00 4.128713011741638184e-01 8.328489661216735840e-01 6.371647119522094727e-02 2.689696252346038818e-01 -4.801461994647979736e-01
6.220000000000000000e+02 7.501165390014648438e+00 1.396588683128356934e-01 7.907819002866744995e-03 1.885001547634601593e-02 8.027350530028343201e-03 -1.523895263671875000e-01
6.230000000000000000e+02 6.921849727630615234e+00 3.830473423004150391e-01 9.243555366992950439e-02 5.194951966404914856e-02 4.331552237272262573e-02 -2.855116128921508789e-01
6.240000000000000000e+02 6.729214191436767578e+00 3.933477997779846191e-01 -4.447165131568908691e-02 4.304072633385658264e-02 -4.292776866350322962e-04 -2.406143844127655029e-01
6.250000000000000000e+02 6.333845615386962891e+00 4.256263971328735352e-01 -2.521653175354003906e-01 3.935974091291427612e-02 -6.384167075157165527e-02 -1.867885738611221313e-01
6.260000000000000000e+02 6.309340953826904297e+00 1.476686298847198486e-01 -8.111085891723632812e-01 4.082937957718968391e-04 -2.432100772857666016e-01 -4.346052184700965881e-02
6.270000000000000000e+02 5.493331432342529297e+00 1.431408077478408813e-01 -1.006567358970642090e+00 -2.488923026248812675e-03 -3.027168810367584229e-01 -1.338550448417663574e-02
6.280000000000000000e+02 8.807046890258789062e+00 5.908421874046325684e-01 5.451911926269531250e+00 1.121504545211791992e+00 1.972024917602539062e+00 -2.904943943023681641e+00
6.290000000000000000e+02 9.641102790832519531e+00 1.027891039848327637e+00 5.223113536834716797e+00 1.153215408325195312e+01 5.026580333709716797e+00 -7.383571147918701172e+00
6.300000000000000000e+02 9.723552703857421875e+00 1.164067268371582031e+00 4.287478446960449219e+00 1.236114883422851562e+01 4.994588375091552734e+00 -6.837130069732666016e+00
6.310000000000000000e+02 9.169920921325683594e+00 -7.426183819770812988e-01 3.993040323257446289e+00 2.627184391021728516e+00 1.986067414283752441e+00 3.265259504318237305e+00
6.320000000000000000e+02 9.013514518737792969e+00 -8.671277761459350586e-01 3.699963092803955078e+00 2.505108356475830078e+00 1.861521482467651367e+00 2.998023986816406250e+00
6.330000000000000000e+02 1.013618946075439453e+01 -1.204873919486999512e+00 1.904920101165771484e+00 1.473509883880615234e+01 4.992005825042724609e+00 2.325366497039794922e+00
6.340000000000000000e+02 1.096621036529541016e+01 -5.681729912757873535e-01 8.666154861450195312e+00 1.495717525482177734e+01 7.086998939514160156e+00 -4.146161079406738281e+00
6.350000000000000000e+02 1.110134124755859375e+01 4.364140033721923828e-01 1.048645496368408203e+01 1.337140464782714844e+01 7.157358169555664062e+00 5.212360620498657227e-01
6.360000000000000000e+02 1.073451900482177734e+01 1.042677521705627441e+00 5.248412132263183594e+00 1.599047565460205078e+01 6.371666431427001953e+00 2.360221557319164276e-02
6.370000000000000000e+02 7.196813225746154785e-01 1.133157849311828613e+00 -4.406799376010894775e-02 -1.018970981240272522e-01 -4.378952831029891968e-02 1.301191449165344238e-01
6.380000000000000000e+02 5.095959901809692383e-01 9.234093427658081055e-01 -2.560416422784328461e-02 -7.787421345710754395e-02 -3.104351274669170380e-02 7.452188432216644287e-02
6.390000000000000000e+02 9.473596811294555664e-01 8.759135007858276367e-01 -7.956783473491668701e-02 -6.635111570358276367e-02 -4.377568513154983521e-02 1.251417547464370728e-01
6.400000000000000000e+02 8.585849761962890625e+00 6.451504826545715332e-01 4.547777175903320312e+00 8.640722632408142090e-01 1.623554825782775879e+00 -2.418439149856567383e+00
6.410000000000000000e+02 3.430184721946716309e-01 -6.891425848007202148e-01 -7.412536535412073135e-03 -3.545863181352615356e-02 -1.286135148257017136e-02 -3.223766759037971497e-02
6.420000000000000000e+02 8.211489915847778320e-01 -1.136243939399719238e+00 -2.560548298060894012e-02 -6.416781991720199585e-02 -2.693199180066585541e-02 -9.985093027353286743e-02
6.430000000000000000e+02 7.618465423583984375e-01 -8.771122694015502930e-01 -3.204419463872909546e-02 -4.716289788484573364e-02 -2.376212738454341888e-02 -7.733690738677978516e-02
6.440000000000000000e+02 1.128251910209655762e+00 -7.265512347221374512e-01 -7.197525352239608765e-02 -3.313456848263740540e-02 -3.153294697403907776e-02 -9.477021545171737671e-02
6.450000000000000000e+02 7.798145771026611328e+00 8.820459842681884766e-01 2.514073610305786133e+00 5.622867345809936523e-01 9.229080677032470703e-01 -1.642670631408691406e+00
6.460000000000000000e+02 7.292043209075927734e+00 6.492977738380432129e-01 1.156132459640502930e+00 2.035704553127288818e-01 4.079108834266662598e-01 -7.709157466888427734e-01
6.470000000000000000e+02 7.491149425506591797e+00 7.071627378463745117e-01 1.599719166755676270e+00 2.727791666984558105e-01 5.617494583129882812e-01 -9.736879467964172363e-01
6.480000000000000000e+02 7.897399425506591797e+00 6.969326734542846680e-01 2.398471832275390625e+00 4.128606021404266357e-01 8.433997631072998047e-01 -1.350928783416748047e+00
6.490000000000000000e+02 7.121828079223632812e+00 6.090865731239318848e-01 7.640510201454162598e-01 1.439580023288726807e-01 2.724027037620544434e-01 -5.810533165931701660e-01
6.500000000000000000e+02 6.947204589843750000e+00 6.253395080566406250e-01 6.322191953659057617e-01 1.287573724985122681e-01 2.282929718494415283e-01 -5.178480744361877441e-01
6.510000000000000000e+02 6.761960983276367188e+00 6.432615518569946289e-01 4.961358010768890381e-01 1.244956105947494507e-01 1.861894130706787109e-01 -4.709899723529815674e-01
6.520000000000000000e+02 6.371105194091796875e+00 7.061058282852172852e-01 2.749776542186737061e-01 1.116160303354263306e-01 1.159781068563461304e-01 -3.944877386093139648e-01
6.530000000000000000e+02 5.778918266296386719e+00 8.067899346351623535e-01 2.422427758574485779e-03 1.089220717549324036e-01 3.340334817767143250e-02 -2.570601999759674072e-01
6.540000000000000000e+02 5.950025081634521484e+00 7.224904298782348633e-01 5.712437909096479416e-03 9.621752053499221802e-02 3.057898767292499542e-02 -2.841874659061431885e-01
6.550000000000000000e+02 5.419727802276611328e+00 6.486015915870666504e-01 -3.212859034538269043e-01 5.849894881248474121e-02 -7.883608341217041016e-02 -1.078946068882942200e-01
6.560000000000000000e+02 5.058570861816406250e+00 5.610458850860595703e-01 -5.122526288032531738e-01 5.091178789734840393e-02 -1.384022533893585205e-01 -3.396467491984367371e-02
6.570000000000000000e+02 6.443637371063232422e+00 9.457973241806030273e-01 6.507332921028137207e-01 2.243806421756744385e-01 2.625341713428497314e-01 -6.191036701202392578e-01
6.580000000000000000e+02 8.837642669677734375e+00 -7.290750741958618164e-01 2.773175239562988281e+00 9.400748014450073242e-01 1.113975048065185547e+00 1.688779234886169434e+00
6.590000000000000000e+02 8.703968048095703125e+00 -8.356453180313110352e-01 2.667359828948974609e+00 1.107411623001098633e+00 1.132431387901306152e+00 1.614703297615051270e+00
6.600000000000000000e+02 8.839380264282226562e+00 -8.827289342880249023e-01 3.354450464248657227e+00 1.597090005874633789e+00 1.485462069511413574e+00 2.337801933288574219e+00
6.610000000000000000e+02 7.849783420562744141e+00 -7.420578598976135254e-01 6.946178674697875977e-01 1.454271376132965088e-01 2.520135045051574707e-01 3.131610751152038574e-01
6.620000000000000000e+02 7.432171344757080078e+00 -8.125846982002258301e-01 4.476952850818634033e-01 1.318404674530029297e-01 1.738607287406921387e-01 2.151967734098434448e-01
6.630000000000000000e+02 7.247812271118164062e+00 -8.348821401596069336e-01 3.719092011451721191e-01 6.202565133571624756e-02 1.301804631948471069e-01 1.280725747346878052e-01
6.640000000000000000e+02 6.707566261291503906e+00 -1.137985229492187500e+00 5.683639645576477051e-01 1.123472228646278381e-01 2.042133510112762451e-01 1.961162984371185303e-01
6.650000000000000000e+02 6.152390956878662109e+00 9.818547368049621582e-01 4.978882372379302979e-01 2.184193581342697144e-01 2.148922681808471680e-01 -5.260035395622253418e-01
6.660000000000000000e+02 5.166089534759521484e+00 8.400604128837585449e-01 -1.675502657890319824e-01 9.666395187377929688e-02 -2.126589417457580566e-02 -1.146671250462532043e-01
6.670000000000000000e+02 4.488036632537841797e+00 7.870783209800720215e-01 -3.662592172622680664e-01 6.143970042467117310e-02 -9.144585579633712769e-02 1.251300983130931854e-02
6.680000000000000000e+02 3.789488315582275391e+00 9.651583433151245117e-01 -2.551708519458770752e-01 5.943625047802925110e-02 -5.872038006782531738e-02 1.028985828161239624e-01
6.690000000000000000e+02 3.485383033752441406e+00 9.789987802505493164e-01 -2.685925364494323730e-01 5.282525345683097839e-02 -6.473018229007720947e-02 1.483775526285171509e-01
6.700000000000000000e+02 3.102208375930786133e+00 4.528451859951019287e-01 -5.229477882385253906e-01 4.182881209999322891e-03 -1.556294709444046021e-01 1.202953085303306580e-01
6.710000000000000000e+02 2.668821096420288086e+00 7.853702306747436523e-01 -3.145271241664886475e-01 9.201051667332649231e-03 -9.159781783819198608e-02 1.854700297117233276e-01
6.720000000000000000e+02 2.879905700683593750e+00 1.040180444717407227e+00 -2.140962928533554077e-01 2.900638803839683533e-02 -5.552697181701660156e-02 2.024526000022888184e-01
6.730000000000000000e+02 2.283032178878784180e+00 8.337278962135314941e-01 -2.398566305637359619e-01 -3.078898414969444275e-03 -7.288065552711486816e-02 1.991827338933944702e-01
6.740000000000000000e+02 2.023591279983520508e+00 9.913223981857299805e-01 -1.762483566999435425e-01 -1.147563103586435318e-02 -5.631719529628753662e-02 2.232656478881835938e-01
6.750000000000000000e+02 1.773169398307800293e+00 1.094848155975341797e+00 -1.273857653141021729e-01 -3.053382039070129395e-02 -4.737587645649909973e-02 2.231171131134033203e-01
6.760000000000000000e+02 1.610540509223937988e+00 9.875396490097045898e-01 -1.310616284608840942e-01 -4.726848751306533813e-02 -5.349903553724288940e-02 2.011608332395553589e-01
6.770000000000000000e+02 7.322433948516845703e+00 -3.674551546573638916e-01 -8.975875973701477051e-01 3.622324392199516296e-02 -2.584093213081359863e-01 -7.795045524835586548e-02
6.780000000000000000e+02 7.189186573028564453e+00 -6.365131139755249023e-01 -1.660324633121490479e-01 4.055674746632575989e-02 -3.764271736145019531e-02 2.088297531008720398e-02
6.790000000000000000e+02 6.494585990905761719e+00 -5.667870044708251953e-01 -5.465787053108215332e-01 -2.632599882781505585e-02 -1.718714088201522827e-01 -7.174599915742874146e-02
6.800000000000000000e+02 6.665716648101806641e+00 -6.086487770080566406e-01 -3.913971185684204102e-01 2.642160654067993164e-02 -1.094926521182060242e-01 -2.685089223086833954e-02
6.810000000000000000e+02 5.662438392639160156e+00 -6.451626420021057129e-01 -4.736120104789733887e-01 -9.618993848562240601e-03 -1.449692994356155396e-01 -8.319871872663497925e-02
6.820000000000000000e+02 5.153976440429687500e+00 -6.769131422042846680e-01 -4.326148033142089844e-01 7.481937296688556671e-03 -1.275398582220077515e-01 -9.793920069932937622e-02
6.830000000000000000e+02 4.689115524291992188e+00 -3.678166568279266357e-01 -6.945674419403076172e-01 -5.284292623400688171e-03 -2.099555134773254395e-01 -7.997715473175048828e-02
6.840000000000000000e+02 4.881676197052001953e+00 -8.163195252418518066e-01 -3.204647600650787354e-01 9.043854661285877228e-03 -9.342627227306365967e-02 -1.052391156554222107e-01
6.850000000000000000e+02 4.461433410644531250e+00 -6.964415907859802246e-01 -4.141165614128112793e-01 4.667572211474180222e-03 -1.228346973657608032e-01 -1.161909401416778564e-01
6.860000000000000000e+02 4.224597930908203125e+00 -6.622968316078186035e-01 -4.113921821117401123e-01 3.426916664466261864e-03 -1.223895773291587830e-01 -1.063520982861518860e-01
6.870000000000000000e+02 3.801926136016845703e+00 -5.143706202507019043e-01 -4.652125239372253418e-01 -7.692091166973114014e-03 -1.418713927268981934e-01 -1.033271998167037964e-01
6.880000000000000000e+02 3.630661249160766602e+00 -6.272665858268737793e-01 -3.864288032054901123e-01 5.584200844168663025e-03 -1.142533794045448303e-01 -1.174619123339653015e-01
6.890000000000000000e+02 2.568556547164916992e+00 -5.380747914314270020e-01 -2.796990871429443359e-01 -9.018290787935256958e-03 -8.661521226167678833e-02 -1.118315011262893677e-01
6.900000000000000000e+02 1.276379942893981934e+00 9.805626869201660156e-01 -9.704887121915817261e-02 -6.133542209863662720e-02 -4.751528799533843994e-02 1.793453842401504517e-01
6.910000000000000000e+02 1.473438262939453125e+00 1.130170464515686035e+00 -9.878945350646972656e-02 -5.503934249281883240e-02 -4.614863917231559753e-02 2.121694236993789673e-01
6.920000000000000000e+02 6.174290180206298828e+00 -9.929761886596679688e-01 1.199157834053039551e-01 3.275704756379127502e-02 4.580184817314147949e-02 5.876538343727588654e-03
6.930000000000000000e+02 5.829972267150878906e+00 -8.968052864074707031e-01 -1.229630187153816223e-01 8.571648038923740387e-03 -3.431741148233413696e-02 -5.297949537634849548e-02
6.940000000000000000e+02 5.305361270904541016e+00 -7.824894189834594727e-01 -3.359878659248352051e-01 -5.189543589949607849e-03 -1.023532301187515259e-01 -8.260871469974517822e-02
6.950000000000000000e+02 4.869118213653564453e+00 -1.037578105926513672e+00 -1.140870302915573120e-01 2.456874027848243713e-02 -2.685548551380634308e-02 -8.052626252174377441e-02
6.960000000000000000e+02 4.970853805541992188e+00 -6.024886965751647949e-01 -4.998089671134948730e-01 -4.096814664080739021e-04 -1.500656008720397949e-01 -9.060051292181015015e-02
6.970000000000000000e+02 6.597208976745605469e+00 -9.410620927810668945e-01 1.687844544649124146e-01 2.360817790031433105e-02 5.771778896450996399e-02 5.020133405923843384e-02
6.980000000000000000e+02 1.099483966827392578e+00 6.637505888938903809e-01 -9.055510908365249634e-02 -3.349646180868148804e-02 -3.721547126770019531e-02 1.219472512602806091e-01
6.990000000000000000e+02 4.873821258544921875e+00 8.694833517074584961e-01 -2.151290476322174072e-01 8.994635939598083496e-02 -3.755480796098709106e-02 -6.607357412576675415e-02
7.000000000000000000e+02 4.735702037811279297e+00 5.310602784156799316e-01 -6.118276715278625488e-01 2.251016162335872650e-02 -1.767952442169189453e-01 6.232623942196369171e-03
7.010000000000000000e+02 4.781222641468048096e-01 7.325435876846313477e-01 -1.650892384350299835e-02 -6.391987204551696777e-02 -2.412863820791244507e-02 5.378347262740135193e-02
7.020000000000000000e+02 6.524793505668640137e-01 6.480366587638854980e-01 -3.203761577606201172e-02 -3.363363444805145264e-02 -1.970137469470500946e-02 7.350772619247436523e-02
7.030000000000000000e+02 5.329104065895080566e-01 -9.645437002182006836e-01 -1.329487748444080353e-02 -5.792883783578872681e-02 -2.136711403727531433e-02 -6.353354454040527344e-02
7.040000000000000000e+02 7.783585786819458008e-01 -7.012048959732055664e-01 -3.897724673151969910e-02 -3.779495134949684143e-02 -2.303165942430496216e-02 -6.741871684789657593e-02
7.050000000000000000e+02 6.917028427124023438e-01 -1.030764341354370117e+00 -2.978407964110374451e-02 -7.120823860168457031e-02 -3.029769472777843475e-02 -9.211117029190063477e-02
7.060000000000000000e+02 6.293925642967224121e-01 -7.808761000633239746e-01 -2.852930501103401184e-02 -4.874111711978912354e-02 -2.318112552165985107e-02 -6.274823099374771118e-02
7.070000000000000000e+02 9.472883939743041992e-01 -7.062159180641174316e-01 -5.411772802472114563e-02 -2.648067660629749298e-02 -2.417952008545398712e-02 -8.376526087522506714e-02
7.080000000000000000e+02 4.776030778884887695e-01 5.666073560714721680e-01 -3.727898374199867249e-02 -3.719422966241836548e-02 -2.234196476638317108e-02 5.079900473356246948e-02
7.090000000000000000e+02 1.538459300994873047e+00 6.425859332084655762e-01 -1.703631728887557983e-01 -3.119845874607563019e-02 -6.046849116683006287e-02 1.463663727045059204e-01
7.100000000000000000e+02 5.843770027160644531e+00 9.733428359031677246e-01 2.655563950538635254e-01 1.645046472549438477e-01 1.290183067321777344e-01 -3.772367537021636963e-01
7.110000000000000000e+02 4.688058853149414062e+00 -7.520776391029357910e-01 -3.840164840221405029e-01 4.041236825287342072e-03 -1.139925718307495117e-01 -1.043990924954414368e-01
7.120000000000000000e+02 1.718168497085571289e+00 -7.818244099617004395e-01 -1.278068274259567261e-01 -8.800187148153781891e-03 -4.098210483789443970e-02 -1.313330233097076416e-01
7.130000000000000000e+02 2.141017913818359375e+00 -8.937534093856811523e-01 -1.447398066520690918e-01 1.414478290826082230e-03 -4.299759864807128906e-02 -1.509837806224822998e-01
7.140000000000000000e+02 3.295278072357177734e+00 4.408143162727355957e-01 -5.726300477981567383e-01 1.204875949770212173e-02 -1.681743860244750977e-01 1.091849654912948608e-01
7.150000000000000000e+02 3.908945798873901367e+00 7.542336583137512207e-01 -4.274743199348449707e-01 3.602495044469833374e-02 -1.174348071217536926e-01 9.849820286035537720e-02
7.160000000000000000e+02 4.898604869842529297e+00 3.364383876323699951e-01 -8.003390431404113770e-01 1.755954325199127197e-02 -2.348338514566421509e-01 1.523638144135475159e-02
7.170000000000000000e+02 4.172647476196289062e+00 -9.147674441337585449e-01 -2.499289661645889282e-01 1.152096129953861237e-02 -7.152239978313446045e-02 -1.292421817779541016e-01
7.180000000000000000e+02 4.341487407684326172e+00 -1.208051443099975586e+00 -3.145797923207283020e-02 2.904408425092697144e-02 -7.241688435897231102e-04 -1.037102714180946350e-01
7.190000000000000000e+02 3.930785894393920898e+00 -8.624976873397827148e-01 -2.718597352504730225e-01 6.144174374639987946e-03 -7.971467077732086182e-02 -1.232876926660537720e-01
7.200000000000000000e+02 3.666007995605468750e+00 -1.085257411003112793e+00 -1.431882381439208984e-01 6.260211579501628876e-03 -4.107840731739997864e-02 -1.321689337491989136e-01
7.210000000000000000e+02 3.434339046478271484e+00 -1.001948237419128418e+00 -1.902755498886108398e-01 1.326410286128520966e-02 -5.310343578457832336e-02 -1.472374498844146729e-01
7.220000000000000000e+02 3.152985572814941406e+00 -1.041568875312805176e+00 -1.591455340385437012e-01 1.064098533242940903e-02 -4.455136507749557495e-02 -1.495211422443389893e-01
7.230000000000000000e+02 3.014698266983032227e+00 -1.173652768135070801e+00 -1.172612830996513367e-01 -1.990582968574017286e-04 -3.523810207843780518e-02 -1.617407649755477905e-01
7.240000000000000000e+02 3.278838396072387695e+00 -6.853585243225097656e-01 -3.174834549427032471e-01 3.964032046496868134e-03 -9.405582398176193237e-02 -1.330966651439666748e-01
7.250000000000000000e+02 5.003881931304931641e+00 7.624759674072265625e-01 -2.826332747936248779e-01 7.641741633415222168e-02 -6.186475977301597595e-02 -7.758922874927520752e-02
7.260000000000000000e+02 4.868101119995117188e+00 7.044153809547424316e-01 -3.877299427986145020e-01 4.823736473917961121e-02 -1.018477752804756165e-01 -3.493606671690940857e-02
7.270000000000000000e+02 2.721965551376342773e+00 -8.490000367164611816e-01 -2.133786976337432861e-01 -5.592387169599533081e-03 -6.569132208824157715e-02 -1.490408927202224731e-01
7.280000000000000000e+02 6.305780887603759766e+00 -5.861872434616088867e-01 -5.219631791114807129e-01 1.213636901229619980e-02 -1.529480516910552979e-01 -7.200482487678527832e-02
7.290000000000000000e+02 6.341193199157714844e+00 -7.839299440383911133e-01 -1.736868619918823242e-01 -4.407861735671758652e-03 -5.342841520905494690e-02 -3.178535774350166321e-02
7.300000000000000000e+02 2.076251029968261719e+00 7.923982143402099609e-01 -2.285027951002120972e-01 -1.250057015568017960e-02 -7.230100780725479126e-02 1.892584413290023804e-01
7.310000000000000000e+02 3.048688173294067383e+00 -8.854083418846130371e-01 -2.227401286363601685e-01 -2.434764290228486061e-03 -6.755246967077255249e-02 -1.522521823644638062e-01
7.320000000000000000e+02 3.992599487304687500e+00 -6.138769388198852539e-01 -4.316901862621307373e-01 4.940807819366455078e-03 -1.280248165130615234e-01 -1.122671961784362793e-01
7.330000000000000000e+02 4.893347263336181641e+00 5.319082140922546387e-01 -5.804238915443420410e-01 4.017601162195205688e-02 -1.620743572711944580e-01 -1.560509018599987030e-02
7.340000000000000000e+02 4.594274997711181641e+00 5.978508591651916504e-01 -5.514178872108459473e-01 4.034776985645294189e-02 -1.533210426568984985e-01 1.842672750353813171e-02
7.350000000000000000e+02 3.709774494171142578e+00 6.789032220840454102e-01 -4.876870512962341309e-01 1.849025301635265350e-02 -1.407590359449386597e-01 1.045671701431274414e-01
7.360000000000000000e+02 5.143874287605285645e-01 -1.039873313903808594e+01 2.709527499973773956e-02 1.065875530242919922e+00 3.278912305831909180e-01 7.927364110946655273e-02
7.370000000000000000e+02 6.732728481292724609e+00 -1.497562217712402344e+01 2.497534036636352539e+00 5.776582717895507812e+00 2.482234954833984375e+00 3.723046064376831055e+00
7.380000000000000000e+02 1.043231010437011719e+01 -1.255119037628173828e+01 -5.930036544799804688e+00 -1.074673011898994446e-01 -1.811251163482666016e+00 1.462000370025634766e+00
7.390000000000000000e+02 8.609264373779296875e+00 -1.303086853027343750e+01 -1.045813083648681641e+00 2.042878866195678711e+00 2.991197705268859863e-01 1.463466167449951172e+00
7.400000000000000000e+02 9.516578674316406250e+00 -1.695981144905090332e+00 2.344722747802734375e+00 7.990355968475341797e+00 3.100523710250854492e+00 3.746670961380004883e+00
7.410000000000000000e+02 1.647219777107238770e+00 -1.170450210571289062e+01 -1.775483191013336182e-01 1.838646292686462402e+00 4.983294010162353516e-01 4.703849181532859802e-02
7.420000000000000000e+02 1.921512603759765625e+00 -1.448905944824218750e+01 -2.860917709767818451e-02 2.402281284332275391e+00 7.121016383171081543e-01 -3.228186368942260742e-01
7.430000000000000000e+02 5.749347805976867676e-01 -1.720849800109863281e+01 1.821318119764328003e-01 4.357953742146492004e-02 6.771340221166610718e-02 1.884177178144454956e-01
7.440000000000000000e+02 2.856473207473754883e+00 -1.604368019104003906e+01 6.946677565574645996e-01 4.296171665191650391e+00 1.497251868247985840e+00 1.675314456224441528e-01
7.450000000000000000e+02 4.234958648681640625e+00 -2.179568290710449219e+01 -2.103933334350585938e+00 6.424404144287109375e+00 1.296141266822814941e+00 1.533992171287536621e+00
7.460000000000000000e+02 2.765121698379516602e+00 -1.714236068725585938e+01 1.046144604682922363e+00 5.070338249206542969e+00 1.834944844245910645e+00 6.555308103561401367e-01
7.470000000000000000e+02 2.170511007308959961e+00 -3.712249755859375000e+01 7.031371351331472397e-03 4.522730827331542969e+00 1.358928680419921875e+00 1.915764361619949341e-01
7.480000000000000000e+02 7.650614976882934570e-01 -3.751575851440429688e+01 5.497731268405914307e-02 4.634080410003662109e+00 1.406717300415039062e+00 8.890246599912643433e-02
7.490000000000000000e+02 6.030193567276000977e-01 -3.078326225280761719e+01 -8.695751428604125977e-03 4.782381534576416016e+00 1.432105779647827148e+00 -1.520828455686569214e-01
7.500000000000000000e+02 2.737987041473388672e+00 -2.372307014465332031e+01 -1.120103836059570312e+00 5.185095310211181641e+00 1.219497442245483398e+00 5.226832032203674316e-01
7.510000000000000000e+02 5.675719976425170898e-01 -2.399610519409179688e+01 -1.840664595365524292e-01 6.250805854797363281e+00 1.820021867752075195e+00 2.218407690525054932e-01
7.520000000000000000e+02 2.112716913223266602e+00 -3.454658889770507812e+01 6.754855066537857056e-02 4.348878860473632812e+00 1.324928283691406250e+00 6.874432414770126343e-02
7.530000000000000000e+02 1.348138046264648438e+01 -3.714637756347656250e+01 1.014645397663116455e-01 3.120395660400390625e+00 9.665580391883850098e-01 -5.596355795860290527e-01
7.540000000000000000e+02 1.241987323760986328e+01 -3.671844482421875000e+01 2.859509885311126709e-01 4.123227596282958984e+00 1.322753667831420898e+00 2.168496549129486084e-01
7.550000000000000000e+02 1.050166130065917969e+01 -2.295676803588867188e+01 -5.613476276397705078e+00 -5.559355765581130981e-02 -1.700720906257629395e+00 -3.737881481647491455e-01
7.560000000000000000e+02 1.070124626159667969e+01 -2.406831359863281250e+01 -3.439946889877319336e+00 4.919807612895965576e-01 -8.843898177146911621e-01 1.194030761718750000e+00
7.570000000000000000e+02 7.779647827148437500e+00 -2.291164588928222656e+01 -5.536758422851562500e+00 -8.238729238510131836e-01 -1.908189415931701660e+00 1.092038512229919434e+00
7.580000000000000000e+02 9.067665100097656250e+00 -2.316563987731933594e+01 -6.901088714599609375e+00 -5.421631932258605957e-01 -2.232975482940673828e+00 3.423837125301361084e-01
7.590000000000000000e+02 2.215984916687011719e+01 -3.978482055664062500e+01 -1.811284422874450684e+00 8.603472709655761719e-01 -2.852811515331268311e-01 -3.744056820869445801e-02
7.600000000000000000e+02 2.254781150817871094e+01 -4.151040267944335938e+01 -2.341000080108642578e+00 1.329772591590881348e+00 -3.033682405948638916e-01 3.669029176235198975e-01
7.610000000000000000e+02 2.511365699768066406e+01 -4.041632843017578125e+01 -2.242660760879516602e+00 4.770178794860839844e+00 7.582554817199707031e-01 -4.559773504734039307e-01
7.620000000000000000e+02 2.887824630737304688e+01 -3.902255630493164062e+01 -9.496831297874450684e-01 5.401917934417724609e+00 1.335670351982116699e+00 -7.939147353172302246e-01
7.630000000000000000e+02 2.630938529968261719e+01 -3.851722335815429688e+01 -9.743998050689697266e-01 5.948938369750976562e+00 1.492361545562744141e+00 -8.764533996582031250e-01
7.640000000000000000e+02 3.911121749877929688e+01 -3.417178726196289062e+01 7.955293059349060059e-01 9.176620483398437500e+00 2.991645097732543945e+00 -3.055095970630645752e-01
7.650000000000000000e+02 3.904518890380859375e+01 -3.217612457275390625e+01 1.775197148323059082e+00 1.142954826354980469e+01 3.961423635482788086e+00 2.648556232452392578e+00
7.660000000000000000e+02 3.609059143066406250e+01 -2.942399024963378906e+01 -9.941234588623046875e-01 1.101954460144042969e+00 3.234931081533432007e-02 1.254548311233520508e+00
7.670000000000000000e+02 3.670448684692382812e+01 -3.086092376708984375e+01 1.371128201484680176e+00 3.070488691329956055e+00 1.332485079765319824e+00 1.521376848220825195e+00
7.680000000000000000e+02 3.015204620361328125e+01 -2.544218635559082031e+01 1.075761675834655762e+00 4.848362922668457031e+00 1.777237415313720703e+00 -2.294270515441894531e+00
7.690000000000000000e+02 2.933083152770996094e+01 -2.444196701049804688e+01 1.491058826446533203e+00 9.288937568664550781e+00 3.233999013900756836e+00 -2.718109846115112305e+00
7.700000000000000000e+02 2.835930824279785156e+01 -2.570207977294921875e+01 -6.626093983650207520e-01 7.400893211364746094e+00 2.021485090255737305e+00 -1.202472150325775146e-01
7.710000000000000000e+02 2.248737144470214844e+01 -2.805016326904296875e+01 -5.612454414367675781e-01 1.735140085220336914e+00 3.521684110164642334e-01 -3.855054974555969238e-01
7.720000000000000000e+02 2.330934715270996094e+01 -2.706233978271484375e+01 -1.512693524360656738e+00 3.935409307479858398e+00 7.268147468566894531e-01 -8.059209585189819336e-01
7.730000000000000000e+02 2.345217132568359375e+01 -2.904148292541503906e+01 3.818221390247344971e-01 3.956636905670166016e+00 1.301537752151489258e+00 -1.652949571609497070e+00
7.740000000000000000e+02 2.518787193298339844e+01 -2.888354492187500000e+01 -1.035084486007690430e+00 6.885038852691650391e+00 1.754986286163330078e+00 -9.635477513074874878e-02
7.750000000000000000e+02 2.971110725402832031e+01 -3.104282569885253906e+01 7.938240468502044678e-02 4.646867275238037109e+00 1.417874813079833984e+00 -1.165292739868164062e+00
7.760000000000000000e+02 2.506159591674804688e+01 -3.346254730224609375e+01 2.241081371903419495e-02 9.362502098083496094e+00 2.815473794937133789e+00 -4.742160141468048096e-01
7.770000000000000000e+02 2.354035186767578125e+01 -3.894323730468750000e+01 -7.585008740425109863e-01 2.157454252243041992e+00 4.196859896183013916e-01 6.406392455101013184e-01
7.780000000000000000e+02 3.843093490600585938e+01 -3.784969329833984375e+01 -1.379759192466735840e+00 4.422227382659912109e+00 9.127404093742370605e-01 3.153434693813323975e-01
7.790000000000000000e+02 4.037525939941406250e+01 -3.657471084594726562e+01 -4.569275081157684326e-01 2.146466493606567383e+00 5.068616867065429688e-01 -3.165595829486846924e-01
7.800000000000000000e+02 4.607255935668945312e+01 -3.756229019165039062e+01 -1.795100927352905273e+00 -2.731230258941650391e-01 -6.204671859741210938e-01 -3.572217822074890137e-01
7.810000000000000000e+02 4.874452209472656250e+01 -3.856286621093750000e+01 -1.914130330085754395e+00 5.021114349365234375e+00 9.320951700210571289e-01 1.385218501091003418e+00
7.820000000000000000e+02 4.826758575439453125e+01 -3.638767242431640625e+01 3.398485481739044189e-01 3.525834083557128906e+00 1.159704804420471191e+00 1.725935935974121094e+00
7.830000000000000000e+02 5.822008895874023438e+01 -3.727328872680664062e+01 -3.256252706050872803e-01 2.260284185409545898e+00 5.803976655006408691e-01 -1.064181089401245117e+00
7.840000000000000000e+02 5.653799819946289062e+01 -3.530340194702148438e+01 1.934816718101501465e+00 9.998847007751464844e+00 3.580099105834960938e+00 -2.816246509552001953e+00
7.850000000000000000e+02 5.881611251831054688e+01 -4.041345977783203125e+01 -1.588044881820678711e+00 2.289634943008422852e+00 2.104770094156265259e-01 -6.117695569992065430e-01
7.860000000000000000e+02 5.879024124145507812e+01 -3.863906860351562500e+01 -1.124173998832702637e+00 1.530058383941650391e+00 1.217653453350067139e-01 -1.051098108291625977e+00
7.870000000000000000e+02 6.140172195434570312e+01 -3.870205307006835938e+01 -3.060220956802368164e+00 -6.847645044326782227e-01 -1.123495697975158691e+00 1.015910729765892029e-01
7.880000000000000000e+02 6.423586273193359375e+01 -3.736812973022460938e+01 -1.051153540611267090e+00 1.438089132308959961e+00 1.160806864500045776e-01 2.387644648551940918e-01
7.890000000000000000e+02 6.957292938232421875e+01 -3.404087829589843750e+01 1.284843206405639648e+00 5.709222793579101562e+00 2.098219871520996094e+00 -1.251012563705444336e+00
7.900000000000000000e+02 7.791925048828125000e+01 -4.165309524536132812e+01 -1.957514137029647827e-02 7.558850288391113281e+00 2.261782407760620117e+00 -5.163864698261022568e-03
7.910000000000000000e+02 7.754507446289062500e+01 -3.675093841552734375e+01 4.547783732414245605e-02 7.219285488128662109e+00 2.179429054260253906e+00 -1.330513507127761841e-01
7.920000000000000000e+02 7.801718902587890625e+01 -3.029901504516601562e+01 -1.023898646235466003e-01 7.261784553527832031e+00 2.147818326950073242e+00 1.011205986142158508e-01
7.930000000000000000e+02 7.465122222900390625e+01 -2.055262374877929688e+01 1.089587211608886719e+00 1.020193290710449219e+01 3.387455940246582031e+00 3.737218976020812988e-01
7.940000000000000000e+02 7.231275177001953125e+01 -1.763976478576660156e+01 6.438798904418945312e-01 3.448249340057373047e+00 1.227638840675354004e+00 -1.397638678550720215e+00
7.950000000000000000e+02 7.824902343750000000e+01 -1.109749317169189453e+01 -4.090543389320373535e-01 9.481431007385253906e+00 2.721713066101074219e+00 -7.507392168045043945e-01
7.960000000000000000e+02 7.936472320556640625e+01 -1.251189994812011719e+01 -5.764228478074073792e-02 1.041010093688964844e+01 3.105737447738647461e+00 -1.036061644554138184e-01
7.970000000000000000e+02 7.312339782714843750e+01 -1.147513198852539062e+01 -2.068473100662231445e+00 9.697496294975280762e-01 -3.296170830726623535e-01 4.867163673043251038e-02
7.980000000000000000e+02 7.107016754150390625e+01 -1.210160350799560547e+01 -2.187562942504882812e+00 -2.834024727344512939e-01 -7.412896156311035156e-01 -7.416592836380004883e-01
7.990000000000000000e+02 6.943774414062500000e+01 -1.322090530395507812e+01 -4.566397964954376221e-01 1.858122497797012329e-01 -8.124826848506927490e-02 -1.458353400230407715e+00
8.000000000000000000e+02 6.961718750000000000e+01 -1.541744041442871094e+01 -9.028267860412597656e-01 -7.061019539833068848e-02 -2.920311093330383301e-01 -9.189186692237854004e-01
8.010000000000000000e+02 7.129592895507812500e+01 -1.701303482055664062e+01 5.211430191993713379e-01 8.065968751907348633e-01 3.983219563961029053e-01 -3.662855625152587891e-01
8.020000000000000000e+02 7.035398101806640625e+01 -1.640978240966796875e+01 -8.899914026260375977e-01 -5.031047388911247253e-03 -2.685067355632781982e-01 -3.801541626453399658e-01
8.030000000000000000e+02 7.346811676025390625e+01 -1.947948074340820312e+01 1.033512234687805176e+00 9.421344757080078125e+00 3.136456966400146484e+00 -1.813667535781860352e+00
8.040000000000000000e+02 7.819744110107421875e+01 -1.811786460876464844e+01 8.246664702892303467e-02 8.444009780883789062e+00 2.557942867279052734e+00 1.061769247055053711e+00
8.050000000000000000e+02 7.719746398925781250e+01 -1.066908645629882812e+01 -4.994471371173858643e-01 9.825769424438476562e+00 2.797896623611450195e+00 -9.946191906929016113e-01
8.060000000000000000e+02 7.658626556396484375e+01 -8.409328460693359375e+00 1.173041939735412598e+00 1.099170303344726562e+01 3.649423360824584961e+00 -5.140587687492370605e-01
8.070000000000000000e+02 7.675254058837890625e+01 -6.913796901702880859e+00 1.070702314376831055e+00 1.088679599761962891e+01 3.587249517440795898e+00 -1.622493416070938110e-01
8.080000000000000000e+02 7.688092041015625000e+01 -5.569114208221435547e+00 8.318890929222106934e-01 1.042975711822509766e+01 3.378494024276733398e+00 3.626526296138763428e-01
8.090000000000000000e+02 7.936056518554687500e+01 2.810801506042480469e+00 -4.232922568917274475e-02 9.540352821350097656e+00 2.849407196044921875e+00 -2.363937795162200928e-01
8.100000000000000000e+02 6.880186462402343750e+01 4.224906921386718750e+00 1.021384028717875481e-03 2.274993658065795898e+00 6.828045248985290527e-01 2.027494907379150391e+00
8.110000000000000000e+02 6.686621093750000000e+01 5.903636455535888672e+00 -1.624286174774169922e+00 4.619725942611694336e-01 -3.486940562725067139e-01 6.386032700538635254e-01
8.120000000000000000e+02 6.305863952636718750e+01 5.869622707366943359e+00 -1.231642603874206543e+00 3.515392780303955078e+00 6.851250529289245605e-01 -1.749064087867736816e+00
8.130000000000000000e+02 6.320610046386718750e+01 8.368922233581542969e+00 6.847536563873291016e-01 1.869457006454467773e+00 7.662631869316101074e-01 -1.113434672355651855e+00
8.140000000000000000e+02 6.099301910400390625e+01 -3.402565956115722656e+00 1.773057937622070312e+00 1.210074043273925781e+01 4.162139415740966797e+00 -2.391062736511230469e+00
8.150000000000000000e+02 6.496657562255859375e+01 -3.298982858657836914e+00 1.566247105598449707e+00 8.082639694213867188e+00 2.894665956497192383e+00 1.536583065986633301e+00
8.160000000000000000e+02 6.123051452636718750e+01 -4.774186611175537109e+00 3.472216427326202393e-01 1.122959041595458984e+01 3.473043680191040039e+00 -6.873182654380798340e-01
8.170000000000000000e+02 6.332517242431640625e+01 -6.675994873046875000e+00 1.795401692390441895e+00 9.679909706115722656e+00 3.442593336105346680e+00 5.720089077949523926e-01
8.180000000000000000e+02 6.200791931152343750e+01 -1.024781894683837891e+01 -8.031671047210693359e-01 7.614081382751464844e+00 2.043274402618408203e+00 1.032963991165161133e+00
8.190000000000000000e+02 6.134943008422851562e+01 -8.964053153991699219e+00 1.228171467781066895e+00 8.814703941345214844e+00 3.012862682342529297e+00 1.895692706108093262e+00
8.200000000000000000e+02 5.802675247192382812e+01 -1.082590866088867188e+01 -1.170640826225280762e+00 1.000321030616760254e+00 -5.109590664505958557e-02 1.410080194473266602e-01
8.210000000000000000e+02 5.889373397827148438e+01 -1.009269142150878906e+01 -1.253943443298339844e+00 1.652955889701843262e+00 1.197037249803543091e-01 1.016929984092712402e+00
8.220000000000000000e+02 5.688612365722656250e+01 -1.033546829223632812e+01 -1.638205409049987793e+00 5.271632671356201172e-01 -3.333126306533813477e-01 -6.946231722831726074e-01
8.230000000000000000e+02 5.369472503662109375e+01 -1.105311775207519531e+01 2.701277732849121094e-01 3.755014657974243164e+00 1.207542657852172852e+00 -2.651471614837646484e+00
8.240000000000000000e+02 4.773237991333007812e+01 -6.570823192596435547e+00 1.333618164062500000e+00 7.962326049804687500e+00 2.788783073425292969e+00 -1.312265634536743164e+00
8.250000000000000000e+02 4.812582397460937500e+01 -5.169483661651611328e+00 5.215377211570739746e-01 6.353117942810058594e+00 2.062396526336669922e+00 -7.183053493499755859e-01
8.260000000000000000e+02 4.910057067871093750e+01 -5.266960620880126953e+00 1.078500509262084961e+00 7.373096942901611328e+00 2.535479307174682617e+00 -1.877895891666412354e-01
8.270000000000000000e+02 4.580504608154296875e+01 -5.422206401824951172e+00 1.002957820892333984e+00 2.302727699279785156e+00 9.917056560516357422e-01 -1.727800726890563965e+00
8.280000000000000000e+02 5.000923919677734375e+01 -7.394449234008789062e+00 1.919439792633056641e+00 7.772659301757812500e+00 2.907629728317260742e+00 7.267741560935974121e-01
8.290000000000000000e+02 4.835598754882812500e+01 -1.021639060974121094e+01 2.376234531402587891e+00 1.093594837188720703e+01 3.993654727935791016e+00 1.613803267478942871e+00
8.300000000000000000e+02 5.055362319946289062e+01 -1.313485813140869141e+01 -2.425270974636077881e-01 3.933486461639404297e+00 1.107287883758544922e+00 -6.633372902870178223e-01
8.310000000000000000e+02 4.741457366943359375e+01 -1.113931274414062500e+01 2.784401416778564453e+00 1.194748115539550781e+01 4.419564723968505859e+00 3.381199121475219727e+00
8.320000000000000000e+02 4.539624023437500000e+01 -1.301065444946289062e+01 -1.898210406303405762e+00 2.879163742065429688e+00 2.942859530448913574e-01 1.444882273674011230e+00
8.330000000000000000e+02 4.276674270629882812e+01 -1.372875595092773438e+01 -7.047452926635742188e+00 -1.285325139760971069e-01 -2.152795553207397461e+00 -3.000268638134002686e-01
8.340000000000000000e+02 4.084562683105468750e+01 -1.966804504394531250e+01 2.227970838546752930e+00 5.634106636047363281e+00 2.358623266220092773e+00 -1.064411878585815430e+00
8.350000000000000000e+02 4.157968139648437500e+01 -1.421158504486083984e+01 -4.766761302947998047e+00 7.013470530509948730e-01 -1.219624280929565430e+00 -1.084443092346191406e+00
8.360000000000000000e+02 4.075677490234375000e+01 -1.334935474395751953e+01 -3.687423706054687500e+00 1.407816171646118164e+00 -6.838822364807128906e-01 -7.642655968666076660e-01
8.370000000000000000e+02 3.752606201171875000e+01 -1.190619277954101562e+01 -9.519062191247940063e-02 5.931639194488525391e+00 1.750934600830078125e+00 -2.317072391510009766e+00
8.380000000000000000e+02 3.597164154052734375e+01 -8.044230461120605469e+00 2.839512825012207031e+00 6.543861865997314453e+00 2.815012454986572266e+00 -9.896519780158996582e-01
8.390000000000000000e+02 3.748741531372070312e+01 -5.968853473663330078e+00 1.988445162773132324e+00 7.237727165222167969e+00 2.767851829528808594e+00 2.398735761642456055e+00
8.400000000000000000e+02 3.661925506591796875e+01 -6.733826637268066406e+00 1.873674392700195312e+00 7.372920036315917969e+00 2.773978233337402344e+00 9.317120313644409180e-01
8.410000000000000000e+02 3.908907318115234375e+01 -4.105111598968505859e+00 4.686796963214874268e-01 2.529372930526733398e+00 8.994157910346984863e-01 2.079095363616943359e+00
8.420000000000000000e+02 3.731296539306640625e+01 8.747939467430114746e-01 -9.598158001899719238e-01 3.262657165527343750e+00 6.908524036407470703e-01 2.581196784973144531e+00
8.430000000000000000e+02 4.223940277099609375e+01 -3.415707826614379883e+00 -3.474698305130004883e+00 7.802969962358474731e-02 -1.019000530242919922e+00 3.520947694778442383e-01
8.440000000000000000e+02 4.099432373046875000e+01 -3.227793931961059570e+00 -2.544003248214721680e+00 5.100150108337402344e-01 -6.101964712142944336e-01 8.531095981597900391e-01
8.450000000000000000e+02 4.473827743530273438e+01 -4.559494972229003906e+00 -1.904002875089645386e-01 1.362942814826965332e+00 3.517627418041229248e-01 -8.485068678855895996e-01
8.460000000000000000e+02 7.809671783447265625e+01 4.246756553649902344e+00 -7.378377765417098999e-02 8.233032226562500000e+00 2.447774410247802734e+00 -7.570996284484863281e-01
8.470000000000000000e+02 7.937276458740234375e+01 8.398028373718261719e+00 1.464458089321851730e-02 6.734527587890625000e+00 2.024751663208007812e+00 -3.363205790519714355e-01
8.480000000000000000e+02 7.199075317382812500e+01 1.378713321685791016e+01 4.499608576297760010e-01 1.381449699401855469e+01 4.279337406158447266e+00 -1.223093152046203613e+00
8.490000000000000000e+02 7.197844696044921875e+01 1.045913028717041016e+01 1.584785819053649902e+00 1.232259559631347656e+01 4.172214508056640625e+00 2.172129154205322266e+00
8.500000000000000000e+02 7.135373687744140625e+01 9.384636878967285156e+00 1.968286752700805664e+00 8.126477241516113281e+00 3.028429031372070312e+00 2.977730274200439453e+00
8.510000000000000000e+02 7.010275268554687500e+01 7.920711517333984375e+00 1.247112274169921875e+00 3.370744228363037109e+00 1.385357022285461426e+00 2.021663904190063477e+00
8.520000000000000000e+02 7.945029449462890625e+01 1.255117607116699219e+01 4.190742224454879761e-02 5.281686782836914062e+00 1.597078323364257812e+00 2.146112499758601189e-03
8.530000000000000000e+02 7.938902282714843750e+01 1.667660713195800781e+01 3.309771418571472168e-02 6.369531154632568359e+00 1.920788645744323730e+00 2.602260708808898926e-01
8.540000000000000000e+02 7.022560882568359375e+01 1.758559989929199219e+01 3.387541770935058594e-01 3.398440837860107422e+00 1.121158480644226074e+00 -1.629757165908813477e+00
8.550000000000000000e+02 7.176979064941406250e+01 1.515783977508544922e+01 1.409913182258605957e+00 1.210394096374511719e+01 4.054156303405761719e+00 -2.329655647277832031e+00
8.560000000000000000e+02 7.811192321777343750e+01 1.796500396728515625e+01 -8.178034424781799316e-02 7.118882656097412109e+00 2.111130714416503906e+00 6.005606055259704590e-01
8.570000000000000000e+02 7.934983062744140625e+01 2.369807624816894531e+01 -1.375431381165981293e-02 7.778580188751220703e+00 2.329447746276855469e+00 -2.675114944577217102e-02
8.580000000000000000e+02 7.332915496826171875e+01 2.929488182067871094e+01 4.873839318752288818e-01 5.764329433441162109e+00 1.875513911247253418e+00 -2.073238417506217957e-02
8.590000000000000000e+02 6.354339218139648438e+01 3.065143394470214844e+01 3.082787394523620605e-01 7.412041664123535156e+00 2.316096067428588867e+00 -6.538471579551696777e-02
8.600000000000000000e+02 6.482352447509765625e+01 3.078708839416503906e+01 6.936647295951843262e-01 6.163791656494140625e+00 2.057236909866333008e+00 2.043111026287078857e-01
8.610000000000000000e+02 6.372219085693359375e+01 2.812985420227050781e+01 8.568314909934997559e-01 9.031601905822753906e+00 2.966530084609985352e+00 1.220572352409362793e+00
8.620000000000000000e+02 6.425991058349609375e+01 2.701793861389160156e+01 2.375671863555908203e+00 8.261181831359863281e+00 3.191056251525878906e+00 2.072903394699096680e+00
8.630000000000000000e+02 6.320983505249023438e+01 2.618046760559082031e+01 2.756337165832519531e+00 1.022746849060058594e+01 3.895141601562500000e+00 3.789071559906005859e+00
8.640000000000000000e+02 6.487786865234375000e+01 2.141911888122558594e+01 -1.190611481666564941e+00 2.085103750228881836e+00 2.683476805686950684e-01 2.836714982986450195e+00
8.650000000000000000e+02 6.223591232299804688e+01 2.392670440673828125e+01 7.130034565925598145e-01 5.717686176300048828e+00 1.929206967353820801e+00 3.377057075500488281e+00
8.660000000000000000e+02 5.841635131835937500e+01 2.327909278869628906e+01 -5.675739288330078125e+00 -1.287059765309095383e-02 -1.706583023071289062e+00 -3.029590845108032227e-01
8.670000000000000000e+02 5.717089080810546875e+01 2.329904747009277344e+01 -3.406662225723266602e+00 6.587606072425842285e-01 -8.243704438209533691e-01 -7.504758834838867188e-01
8.680000000000000000e+02 5.542784881591796875e+01 2.433631706237792969e+01 2.169342637062072754e-01 2.970287799835205078e+00 9.561666250228881836e-01 -1.741117477416992188e+00
8.690000000000000000e+02 5.462057113647460938e+01 2.533816528320312500e+01 1.681899428367614746e+00 5.087179660797119141e+00 2.030723810195922852e+00 -2.713817834854125977e+00
8.700000000000000000e+02 4.886103439331054688e+01 2.252928924560546875e+01 1.174290418624877930e+00 4.622580528259277344e+00 1.739061236381530762e+00 4.542615413665771484e-01
8.710000000000000000e+02 4.588286209106445312e+01 2.492210769653320312e+01 2.764419317245483398e+00 1.140150642395019531e+01 4.249777793884277344e+00 3.738883733749389648e+00
8.720000000000000000e+02 5.026545333862304688e+01 2.189073944091796875e+01 3.697504699230194092e-01 4.060257911682128906e+00 1.329002499580383301e+00 -1.084938049316406250e+00
8.730000000000000000e+02 4.590252304077148438e+01 2.340589141845703125e+01 2.187861442565917969e+00 8.347890853881835938e+00 3.160725831985473633e+00 3.130729436874389648e+00
8.740000000000000000e+02 4.628381729125976562e+01 2.167950057983398438e+01 -5.385586619377136230e-01 6.453133583068847656e+00 1.774372458457946777e+00 2.133087158203125000e+00
8.750000000000000000e+02 4.233327865600585938e+01 2.088834953308105469e+01 -4.354604780673980713e-01 1.904693722724914551e+00 4.407699704170227051e-01 1.695718050003051758e+00
8.760000000000000000e+02 4.090435028076171875e+01 2.060291481018066406e+01 -2.812610566616058350e-02 8.895180225372314453e-01 2.584175765514373779e-01 1.015033647418022156e-01
8.770000000000000000e+02 4.072915649414062500e+01 2.175057983398437500e+01 -3.038761377334594727e+00 -1.925045996904373169e-01 -9.693797826766967773e-01 2.781034074723720551e-02
8.780000000000000000e+02 3.936736297607421875e+01 2.188659095764160156e+01 -1.682998657226562500e+00 5.421777963638305664e-01 -3.422462642192840576e-01 -2.588084340095520020e-01
8.790000000000000000e+02 3.950687789916992188e+01 2.050271415710449219e+01 3.662690818309783936e-01 9.198512434959411621e-01 3.858360946178436279e-01 -1.373311400413513184e+00
8.800000000000000000e+02 3.704518890380859375e+01 1.148824596405029297e+01 -7.678878903388977051e-01 7.706715464591979980e-01 8.350978605449199677e-04 -3.616400957107543945e-01
8.810000000000000000e+02 3.594605636596679688e+01 1.225109004974365234e+01 -2.958051681518554688e+00 1.781555712223052979e-01 -8.339688181877136230e-01 -7.705444097518920898e-02
8.820000000000000000e+02 3.765036010742187500e+01 1.258901405334472656e+01 -8.097175955772399902e-01 3.015070199966430664e+00 6.616057753562927246e-01 -1.631713986396789551e+00
8.830000000000000000e+02 3.920742034912109375e+01 1.024650764465332031e+01 3.309295475482940674e-01 5.931523799896240234e+00 1.878736019134521484e+00 -8.414688110351562500e-01
8.840000000000000000e+02 4.065224838256835938e+01 7.740659713745117188e+00 6.870242953300476074e-01 9.119921684265136719e+00 2.942083835601806641e+00 5.454910397529602051e-01
8.850000000000000000e+02 3.962034606933593750e+01 6.163774967193603516e+00 3.282992541790008545e-01 1.296414756774902344e+01 3.987734079360961914e+00 2.371968328952789307e-01
8.860000000000000000e+02 3.874410247802734375e+01 2.930800437927246094e+00 3.319115877151489258e+00 8.083871841430664062e+00 3.420896291732788086e+00 3.571201801300048828e+00
8.870000000000000000e+02 4.136621856689453125e+01 -2.559462487697601318e-01 -2.835652232170104980e-01 3.433885097503662109e+00 9.450959563255310059e-01 1.315335333347320557e-01
8.880000000000000000e+02 3.588871002197265625e+01 1.148616075515747070e+00 -2.591552972793579102e+00 1.276681661605834961e+00 -3.944613635540008545e-01 1.569808006286621094e+00
8.890000000000000000e+02 3.579853439331054688e+01 -3.171916902065277100e-01 -1.329891800880432129e+00 1.925555706024169922e+00 1.786991804838180542e-01 2.875881910324096680e+00
8.900000000000000000e+02 3.442940139770507812e+01 1.150622963905334473e+00 -5.469332695007324219e+00 -4.465525746345520020e-01 -1.774765491485595703e+00 9.375159144401550293e-01
8.910000000000000000e+02 3.303630065917968750e+01 1.750617742538452148e+00 -4.010642528533935547e+00 -1.012172028422355652e-01 -1.233557939529418945e+00 9.286566376686096191e-01
8.920000000000000000e+02 3.094937515258789062e+01 3.757894992828369141e+00 3.801167607307434082e-01 2.172302007675170898e+00 7.657256126403808594e-01 -1.691128730773925781e+00
8.930000000000000000e+02 3.061398696899414062e+01 -1.205774307250976562e+00 -7.042647153139114380e-02 5.664179801940917969e+00 1.678125977516174316e+00 -1.523285984992980957e+00
8.940000000000000000e+02 2.825517845153808594e+01 4.019601345062255859e+00 -6.036302074790000916e-02 5.355236053466796875e+00 1.588461995124816895e+00 -7.965163588523864746e-01
8.950000000000000000e+02 2.804795646667480469e+01 7.869934082031250000e+00 2.291495561599731445e+00 6.774284362792968750e+00 2.719733953475952148e+00 -9.678462147712707520e-02
8.960000000000000000e+02 2.913155174255371094e+01 7.692581653594970703e+00 1.040831804275512695e+00 9.714672088623046875e+00 3.226651191711425781e+00 1.017816185951232910e+00
8.970000000000000000e+02 2.935544204711914062e+01 9.713625907897949219e+00 2.434922456741333008e+00 7.694219112396240234e+00 3.038742542266845703e+00 3.107697010040283203e+00
8.980000000000000000e+02 2.797918701171875000e+01 1.050763607025146484e+01 3.133695602416992188e+00 4.021695613861083984e+00 2.146617412567138672e+00 1.336421251296997070e+00
8.990000000000000000e+02 2.960150146484375000e+01 1.319194602966308594e+01 -1.430213212966918945e+00 4.550487518310546875e+00 9.360822439193725586e-01 3.756799459457397461e+00
9.000000000000000000e+02 3.132507133483886719e+01 1.466851520538330078e+01 -1.472009301185607910e+00 7.366677284240722656e+00 1.768400311470031738e+00 3.932412624359130859e+00
9.010000000000000000e+02 3.288365936279296875e+01 1.368333244323730469e+01 -4.797682762145996094e-01 2.945982933044433594e+00 7.398644089698791504e-01 2.229796886444091797e+00
9.020000000000000000e+02 3.405867004394531250e+01 1.238311195373535156e+01 -4.506703853607177734e+00 -4.556731134653091431e-02 -1.365681409835815430e+00 1.194213777780532837e-01
9.030000000000000000e+02 7.677196502685546875e+01 2.384837913513183594e+01 -1.466849744319915771e-01 7.048004627227783203e+00 2.070395946502685547e+00 -2.508156895637512207e-01
9.040000000000000000e+02 7.937330627441406250e+01 2.922390937805175781e+01 3.656398877501487732e-02 7.221988201141357422e+00 2.177565574645996094e+00 -3.107596933841705322e-02
9.050000000000000000e+02 7.075274658203125000e+01 3.666710662841796875e+01 -2.500191628932952881e-01 5.650196552276611328e+00 1.620053172111511230e+00 4.061065912246704102e-01
9.060000000000000000e+02 5.882953262329101562e+01 3.847153091430664062e+01 -1.820407658815383911e-01 1.346834778785705566e+00 3.494381904602050781e-01 7.267330884933471680e-01
9.070000000000000000e+02 5.600462722778320312e+01 3.497701644897460938e+01 5.153385400772094727e-01 2.946918487548828125e+00 1.038677096366882324e+00 1.677368044853210449e+00
9.080000000000000000e+02 5.486150360107421875e+01 3.636000442504882812e+01 -1.043870806694030762e+00 4.653852939605712891e+00 1.082994580268859863e+00 1.276865482330322266e+00
9.090000000000000000e+02 6.338343048095703125e+01 3.521627044677734375e+01 -1.659370064735412598e+00 4.063490867614746094e+00 7.212361693382263184e-01 -8.472748845815658569e-02
9.100000000000000000e+02 6.260192489624023438e+01 3.374229049682617188e+01 4.955221712589263916e-01 3.201499223709106445e+00 1.109106421470642090e+00 -8.503573536872863770e-01
9.110000000000000000e+02 6.371414947509765625e+01 3.319929122924804688e+01 3.305334448814392090e-01 5.133511543273925781e+00 1.639213562011718750e+00 -3.874994814395904541e-01
9.120000000000000000e+02 6.345668792724609375e+01 3.190669059753417969e+01 5.931488275527954102e-01 6.500070571899414062e+00 2.127965927124023438e+00 -7.584083676338195801e-01
9.130000000000000000e+02 7.931307983398437500e+01 3.198474311828613281e+01 3.295704722404479980e-02 7.177270889282226562e+00 2.163068532943725586e+00 2.071071229875087738e-02
9.140000000000000000e+02 7.925640869140625000e+01 3.747216033935546875e+01 -5.791835486888885498e-03 7.374722480773925781e+00 2.210679292678833008e+00 1.804630830883979797e-02
9.150000000000000000e+02 7.187351226806640625e+01 4.125774765014648438e+01 -3.520908355712890625e-01 6.077321529388427734e+00 1.717569231986999512e+00 9.917065501213073730e-02
9.160000000000000000e+02 5.256812667846679688e+01 3.556807708740234375e+01 -8.372563719749450684e-01 5.946618556976318359e+00 1.532808661460876465e+00 4.658215045928955078e-01
9.170000000000000000e+02 5.041263961791992188e+01 3.826225662231445312e+01 -1.515804648399353027e+00 5.318941116333007812e+00 1.140941023826599121e+00 1.803732849657535553e-02
9.180000000000000000e+02 5.362644195556640625e+01 3.079692649841308594e+01 1.219381928443908691e+00 1.029239845275878906e+01 3.453533887863159180e+00 1.619106650352478027e+00
9.190000000000000000e+02 5.416822052001953125e+01 3.287904357910156250e+01 1.716003298759460449e+00 8.116092681884765625e+00 2.949628591537475586e+00 2.762863636016845703e+00
9.200000000000000000e+02 4.852786636352539062e+01 3.171846580505371094e+01 5.465175509452819824e-01 6.493227958679199219e+00 2.111923694610595703e+00 2.361712902784347534e-01
9.210000000000000000e+02 5.365290832519531250e+01 2.956159973144531250e+01 -5.078566819429397583e-02 9.446873664855957031e+00 2.818826436996459961e+00 4.116018414497375488e-01
9.220000000000000000e+02 5.360853958129882812e+01 2.833407783508300781e+01 5.981521010398864746e-01 9.337121009826660156e+00 2.980581760406494141e+00 -2.694783806800842285e-01
9.230000000000000000e+02 4.309614562988281250e+01 4.104277801513671875e+01 -6.538010835647583008e-01 2.709123134613037109e+00 6.165965795516967773e-01 -1.868312805891036987e-01
9.240000000000000000e+02 4.466555404663085938e+01 3.666855621337890625e+01 -1.153380274772644043e+00 3.301570177078247070e+00 6.444569826126098633e-01 -1.131899476051330566e+00
9.250000000000000000e+02 4.315934753417968750e+01 3.298957061767578125e+01 -4.205556213855743408e-01 1.211710810661315918e+00 2.373465746641159058e-01 -5.899831056594848633e-01
9.260000000000000000e+02 4.197451019287109375e+01 3.395370483398437500e+01 -1.338076233863830566e+00 5.780352354049682617e-01 -2.280123084783554077e-01 -1.350797060877084732e-02
9.270000000000000000e+02 4.514908981323242188e+01 3.106739616394042969e+01 8.760924339294433594e-01 4.680864334106445312e+00 1.667087078094482422e+00 -1.715404152870178223e+00
9.280000000000000000e+02 4.607177734375000000e+01 2.900435066223144531e+01 9.860477447509765625e-01 8.563310623168945312e+00 2.864807367324829102e+00 -1.116955757141113281e+00
9.290000000000000000e+02 4.612610626220703125e+01 2.765366554260253906e+01 4.194064140319824219e-01 1.026339149475097656e+01 3.204839229583740234e+00 -3.374719619750976562e-02
9.300000000000000000e+02 3.881711959838867188e+01 3.488303756713867188e+01 -1.738327622413635254e+00 5.872423648834228516e-01 -3.453255593776702881e-01 4.705961048603057861e-01
9.310000000000000000e+02 3.578757858276367188e+01 3.350828170776367188e+01 -3.650792241096496582e-01 5.031736373901367188e+00 1.399997115135192871e+00 9.429889321327209473e-01
9.320000000000000000e+02 4.049604034423828125e+01 3.486962127685546875e+01 -2.008700847625732422e+00 6.075853481888771057e-02 -5.843827128410339355e-01 2.187376320362091064e-01
9.330000000000000000e+02 3.542855453491210938e+01 3.837449264526367188e+01 -1.049997687339782715e+00 3.590154647827148438e+00 7.620470523834228516e-01 4.373272359371185303e-01
9.340000000000000000e+02 2.730534553527832031e+01 3.803529357910156250e+01 -6.784621477127075195e-01 4.091915130615234375e+00 1.024035930633544922e+00 -1.107342466711997986e-01
9.350000000000000000e+02 2.768807029724121094e+01 2.882784271240234375e+01 -6.018054485321044922e-01 3.494024276733398438e-01 -7.572090625762939453e-02 -2.959671616554260254e-01
9.360000000000000000e+02 2.958734703063964844e+01 2.891339111328125000e+01 2.052993923425674438e-01 2.669826507568359375e+00 8.625378012657165527e-01 -1.394673824310302734e+00
9.370000000000000000e+02 2.869026947021484375e+01 2.790893554687500000e+01 1.596145331859588623e-01 7.945232391357421875e-01 2.862413525581359863e-01 -4.738675653934478760e-01
9.380000000000000000e+02 3.059746551513671875e+01 2.600720977783203125e+01 1.083792567253112793e+00 3.992089509963989258e+00 1.522764682769775391e+00 -1.835713386535644531e+00
9.390000000000000000e+02 3.136984825134277344e+01 2.496062850952148438e+01 1.099197864532470703e+00 8.643756866455078125e+00 2.922886371612548828e+00 -1.824283957481384277e+00
9.400000000000000000e+02 3.434466934204101562e+01 2.415039443969726562e+01 3.055510222911834717e-01 8.854496002197265625e+00 2.748013973236083984e+00 -1.266478747129440308e-01
9.410000000000000000e+02 3.393159103393554688e+01 2.588897895812988281e+01 9.131670594215393066e-01 9.588180541992187500e+00 3.150404214859008789e+00 1.415289044380187988e-01
9.420000000000000000e+02 3.534347152709960938e+01 2.664225006103515625e+01 1.055267453193664551e+00 1.325749588012695312e+01 4.293828964233398438e+00 -1.942018747329711914e+00
9.430000000000000000e+02 3.441934204101562500e+01 2.686283111572265625e+01 1.277713179588317871e+00 1.072468662261962891e+01 3.600719928741455078e+00 -3.262570202350616455e-01
9.440000000000000000e+02 3.547243499755859375e+01 3.079304885864257812e+01 8.827922344207763672e-01 9.648245811462402344e+00 3.159311532974243164e+00 2.042840242385864258e+00
9.450000000000000000e+02 3.527087783813476562e+01 2.942866325378417969e+01 6.886413693428039551e-01 1.229766654968261719e+01 3.895892381668090820e+00 1.453133583068847656e+00
9.460000000000000000e+02 3.587082672119140625e+01 3.206149291992187500e+01 7.040340304374694824e-01 6.582168579101562500e+00 2.185860872268676758e+00 1.806499004364013672e+00
9.470000000000000000e+02 2.553300857543945312e+01 2.910416412353515625e+01 -7.056632041931152344e-01 4.707258641719818115e-01 -7.048120349645614624e-02 3.835767209529876709e-01
9.480000000000000000e+02 2.873088836669921875e+01 3.011812591552734375e+01 5.585267543792724609e-01 2.118022441864013672e+00 8.029648065567016602e-01 -1.503262281417846680e+00
9.490000000000000000e+02 1.575857543945312500e+01 3.616869354248046875e+01 -5.458292961120605469e-01 1.360961198806762695e+00 2.445395439863204956e-01 -1.220651030540466309e+00
9.500000000000000000e+02 1.113439369201660156e+01 3.536163330078125000e+01 -2.256576061248779297e+00 -1.353379338979721069e-01 -7.175742387771606445e-01 -4.864958301186561584e-02
9.510000000000000000e+02 1.621149063110351562e+01 3.364024353027343750e+01 -2.157974243164062500e-02 6.807875633239746094e-01 1.977623403072357178e-01 -5.517512559890747070e-01
9.520000000000000000e+02 1.861329269409179688e+01 3.239993667602539062e+01 1.369214057922363281e+00 5.049265384674072266e+00 1.925543785095214844e+00 -2.108145475387573242e+00
9.530000000000000000e+02 1.993557929992675781e+01 2.788932800292968750e+01 4.661050438880920410e-01 1.202490711212158203e+01 3.747303724288940430e+00 1.475208699703216553e-01
9.540000000000000000e+02 2.446704292297363281e+01 2.841568565368652344e+01 5.904577299952507019e-02 2.114506721496582031e+00 6.520657539367675781e-01 7.189714312553405762e-01
9.550000000000000000e+02 2.097091865539550781e+01 2.589462280273437500e+01 -3.182081580162048340e-01 8.935779571533203125e+00 2.585271358489990234e+00 -8.135089278221130371e-01
9.560000000000000000e+02 2.008268547058105469e+01 2.517804527282714844e+01 -1.179416179656982422e+00 8.586755752563476562e+00 2.222201824188232422e+00 -6.732836365699768066e-01
9.570000000000000000e+02 2.038137435913085938e+01 2.426143455505371094e+01 -2.143342345952987671e-01 8.343164443969726562e+00 2.438649177551269531e+00 -8.325484395027160645e-01
9.580000000000000000e+02 1.740293121337890625e+01 2.409991264343261719e+01 -4.340166151523590088e-01 1.736963987350463867e-01 -7.809606939554214478e-02 -3.088330924510955811e-01
9.590000000000000000e+02 1.740561294555664062e+01 1.970235061645507812e+01 -7.814381271600723267e-02 -4.422051012516021729e-01 -1.561046689748764038e-01 9.790176153182983398e-01
9.600000000000000000e+02 1.451024818420410156e+01 1.863508415222167969e+01 -2.231431722640991211e+00 -1.222867220640182495e-01 -7.061155438423156738e-01 8.610091805458068848e-01
9.610000000000000000e+02 1.634194946289062500e+01 2.039516639709472656e+01 -7.761045545339584351e-02 -8.162501454353332520e-01 -2.681581974029541016e-01 1.269259452819824219e+00
9.620000000000000000e+02 1.670308494567871094e+01 2.172132682800292969e+01 9.302508831024169922e-01 -3.798626661300659180e-01 1.651164591312408447e-01 4.423135519027709961e-01
9.630000000000000000e+02 1.997657203674316406e+01 1.694540786743164062e+01 -2.861187934875488281e+00 6.227252006530761719e+00 1.009819269180297852e+00 6.271909475326538086e-01
9.640000000000000000e+02 2.255017852783203125e+01 1.753122520446777344e+01 -1.857668042182922363e+00 8.449897766113281250e+00 1.977668762207031250e+00 -1.924458742141723633e-01
9.650000000000000000e+02 2.298395919799804688e+01 1.448695755004882812e+01 -1.297401785850524902e+00 5.796597957611083984e+00 1.349758863449096680e+00 -1.949889808893203735e-01
9.660000000000000000e+02 2.100769996643066406e+01 1.050670433044433594e+01 2.094897985458374023e+00 9.764649391174316406e+00 3.557864189147949219e+00 8.721598386764526367e-01
9.670000000000000000e+02 2.109041404724121094e+01 8.697490692138671875e+00 2.202531337738037109e+00 6.370832443237304688e+00 2.572009086608886719e+00 6.708455681800842285e-01
9.680000000000000000e+02 1.939289283752441406e+01 8.654316902160644531e+00 3.307316780090332031e+00 6.289521694183349609e+00 2.879051446914672852e+00 3.935215473175048828e+00
9.690000000000000000e+02 1.919986152648925781e+01 7.577892780303955078e+00 2.423270463943481445e+00 4.968554019927978516e+00 2.217547416687011719e+00 3.122969388961791992e+00
9.700000000000000000e+02 1.798651313781738281e+01 7.298471927642822266e+00 2.041578292846679688e+00 2.906952857971191406e+00 1.484559416770935059e+00 2.736273765563964844e+00
9.710000000000000000e+02 1.518118000030517578e+01 6.496280670166015625e+00 -5.089368820190429688e+00 9.529773145914077759e-02 -1.498221397399902344e+00 1.211658716201782227e+00
9.720000000000000000e+02 1.110287475585937500e+01 1.300830960273742676e+00 4.556690216064453125e+00 1.318711471557617188e+01 5.323141574859619141e+00 3.776186704635620117e-01
9.730000000000000000e+02 1.252497100830078125e+01 7.331466197967529297e+00 -3.749172925949096680e+00 3.802801370620727539e-01 -1.010667800903320312e+00 8.671271204948425293e-01
9.740000000000000000e+02 9.717576026916503906e+00 1.666124105453491211e+00 2.595697879791259766e+00 1.086597537994384766e+01 4.038501739501953125e+00 -5.627705574035644531e+00
9.750000000000000000e+02 1.047934722900390625e+01 8.509380340576171875e+00 1.175960525870323181e-02 6.263719081878662109e+00 1.882643580436706543e+00 -2.241492271423339844e+00
9.760000000000000000e+02 9.772478103637695312e+00 1.085505390167236328e+01 1.931607007980346680e+00 1.351352310180664062e+01 4.633539199829101562e+00 -2.928860664367675781e+00
9.770000000000000000e+02 9.454727172851562500e+00 1.342616462707519531e+01 5.080707669258117676e-01 9.949626922607421875e+00 3.137309312820434570e+00 5.240489244461059570e-01
9.780000000000000000e+02 9.547625541687011719e+00 1.216686153411865234e+01 4.432292580604553223e-01 1.233089637756347656e+01 3.832237720489501953e+00 -5.333983302116394043e-01
9.790000000000000000e+02 8.108006477355957031e+00 1.277581405639648438e+01 1.299729108810424805e+00 7.491176605224609375e+00 2.637271881103515625e+00 -1.202623009681701660e+00
9.800000000000000000e+02 1.097128772735595703e+01 1.666854667663574219e+01 1.172948956489562988e+00 3.170439958572387695e+00 1.303016662597656250e+00 1.638643026351928711e+00
9.810000000000000000e+02 1.208107566833496094e+01 1.753387832641601562e+01 9.476335644721984863e-01 1.269530057907104492e+00 6.651490926742553711e-01 9.810444712638854980e-01
9.820000000000000000e+02 4.619542598724365234e+00 4.051576232910156250e+01 1.365036219358444214e-01 4.508446216583251953e+00 1.393484950065612793e+00 -9.323313832283020020e-02
9.830000000000000000e+02 8.676379203796386719e+00 3.472991561889648438e+01 -2.389513731002807617e+00 -2.479891292750835419e-02 -7.242938280105590820e-01 -1.918242722749710083e-01
9.840000000000000000e+02 1.956565380096435547e+00 4.166822433471679688e+01 3.772143423557281494e-01 6.240778923034667969e+00 1.985397934913635254e+00 1.076547354459762573e-01
9.850000000000000000e+02 3.547278165817260742e+00 3.834061813354492188e+01 -4.337812662124633789e-01 5.735778808593750000e+00 1.590599298477172852e+00 -2.295228689908981323e-01
9.860000000000000000e+02 6.316729784011840820e-01 3.322129058837890625e+01 -1.546341627836227417e-01 5.994339466094970703e+00 1.751911520957946777e+00 -3.706680834293365479e-01
9.870000000000000000e+02 1.888906478881835938e+00 3.303878784179687500e+01 -2.046343386173248291e-01 5.725776672363281250e+00 1.656342744827270508e+00 -9.094550609588623047e-01
9.880000000000000000e+02 7.674684524536132812e+00 3.374018859863281250e+01 -6.419298052787780762e-01 1.252286553382873535e+00 1.831070035696029663e-01 -5.900267884135246277e-02
9.890000000000000000e+02 6.882087230682373047e+00 3.255496215820312500e+01 2.165856771171092987e-02 3.561610698699951172e+00 1.074980735778808594e+00 1.053955793380737305e+00
9.900000000000000000e+02 5.892499446868896484e+00 2.996263313293457031e+01 1.789202690124511719e-01 8.889363288879394531e+00 2.720485210418701172e+00 9.945610165596008301e-01
9.910000000000000000e+02 5.583296775817871094e+00 2.867707824707031250e+01 7.360543012619018555e-01 1.085063648223876953e+01 3.476007223129272461e+00 -2.645571827888488770e-01
9.920000000000000000e+02 2.843526601791381836e+00 2.649238014221191406e+01 8.201244473457336426e-01 5.406023502349853516e+00 1.867844462394714355e+00 -7.526031881570816040e-02
9.930000000000000000e+02 5.686911940574645996e-01 2.487827491760253906e+01 1.379715651273727417e-01 3.051713466644287109e+00 9.569055438041687012e-01 2.096862792968750000e-01
9.940000000000000000e+02 1.978097677230834961e+00 2.215496444702148438e+01 -3.783122003078460693e-01 4.195043563842773438e+00 1.145019412040710449e+00 3.395812585949897766e-02
9.950000000000000000e+02 1.970952272415161133e+00 1.788725280761718750e+01 -1.158297508955001831e-01 3.140814542770385742e+00 9.074954390525817871e-01 -9.144169092178344727e-01
9.960000000000000000e+02 1.771053910255432129e+00 1.083155059814453125e+01 1.229528635740280151e-01 7.285175919532775879e-01 2.554411292076110840e-01 -3.307568132877349854e-01
9.970000000000000000e+02 1.927354931831359863e-01 2.420047521591186523e+00 1.551940757781267166e-02 -3.898961544036865234e-01 -1.123130246996879578e-01 5.124697089195251465e-02
9.980000000000000000e+02 1.152358722686767578e+01 8.138375282287597656e+00 -1.814975142478942871e-01 3.334624052047729492e+00 9.459379911422729492e-01 -1.321420907974243164e+00
9.990000000000000000e+02 1.111272144317626953e+01 1.860969066619873047e+00 2.369302272796630859e+00 1.190311813354492188e+01 4.281726360321044922e+00 -5.280693769454956055e-01
1.000000000000000000e+03 1.098313140869140625e+01 -1.443617224693298340e+00 2.926307201385498047e+00 1.364525127410888672e+01 4.971467494964599609e+00 -1.994430303573608398e+00
1.001000000000000000e+03 1.655243301391601562e+01 -4.842669010162353516e+00 6.606087088584899902e-01 8.827563285827636719e+00 2.846451520919799805e+00 -4.615341722965240479e-01
1.002000000000000000e+03 1.697121429443359375e+01 -7.185438156127929688e+00 1.132737696170806885e-01 1.385750102996826172e+01 4.191232681274414062e+00 -1.078219294548034668e+00
1.003000000000000000e+03 1.589434528350830078e+01 -8.825201034545898438e+00 3.133784770965576172e+00 1.032432270050048828e+01 4.037432193756103516e+00 -3.069000005722045898e+00
1.004000000000000000e+03 1.285015678405761719e+01 -1.231516456604003906e+01 -4.269672393798828125e+00 7.357708811759948730e-01 -1.060170412063598633e+00 3.506892919540405273e-01
1.005000000000000000e+03 5.247513580322265625e+01 -1.560802745819091797e+01 -2.625273942947387695e+00 1.225521206855773926e+00 -4.199258089065551758e-01 -1.811058759689331055e+00
1.006000000000000000e+03 5.439249801635742188e+01 -1.732641792297363281e+01 1.683996319770812988e+00 6.201213359832763672e+00 2.365562915802001953e+00 -2.579753637313842773e+00
1.007000000000000000e+03 5.417764663696289062e+01 -1.557923603057861328e+01 -1.445192813873291016e+00 5.112382888793945312e+00 1.100157141685485840e+00 -2.992672443389892578e+00
1.008000000000000000e+03 5.709914016723632812e+01 -1.836521339416503906e+01 1.335161209106445312e+00 6.971950531005859375e+00 2.492133378982543945e+00 -5.046011880040168762e-02
1.009000000000000000e+03 6.473251342773437500e+01 -2.018563842773437500e+01 2.134971767663955688e-01 9.894322395324707031e+00 3.032345771789550781e+00 8.171299844980239868e-02
1.010000000000000000e+03 6.448239898681640625e+01 -1.758464622497558594e+01 -7.631575316190719604e-02 6.614855289459228516e+00 1.961561918258666992e+00 3.863538801670074463e-01
1.011000000000000000e+03 6.307695007324218750e+01 -1.797831916809082031e+01 2.472623437643051147e-01 6.928523540496826172e+00 2.152735710144042969e+00 -3.605431616306304932e-01
1.012000000000000000e+03 6.685964965820312500e+01 -1.051989269256591797e+01 1.069065332412719727e+00 3.307663917541503906e+00 1.313018679618835449e+00 -1.682468295097351074e+00
1.013000000000000000e+03 6.381273269653320312e+01 -1.071252346038818359e+01 -7.969964146614074707e-01 7.558492660522460938e+00 2.028448820114135742e+00 2.922815382480621338e-01
1.014000000000000000e+03 5.563983154296875000e+01 -1.797929763793945312e+01 1.499773979187011719e+00 7.813029766082763672e+00 2.793841123580932617e+00 -1.493757367134094238e+00
1.015000000000000000e+03 5.541725540161132812e+01 -2.060113525390625000e+01 5.408002734184265137e-01 1.151780509948730469e+01 3.617581605911254883e+00 -2.965494394302368164e-01
1.016000000000000000e+03 5.749174499511718750e+01 -2.580041694641113281e+01 -1.315318703651428223e+00 6.782004356384277344e+00 1.640005707740783691e+00 1.849184393882751465e+00
1.017000000000000000e+03 5.647630691528320312e+01 -2.209330749511718750e+01 2.424980640411376953e+00 8.109659194946289062e+00 3.160392045974731445e+00 1.406545281410217285e+00
1.018000000000000000e+03 5.472881317138671875e+01 -2.605627059936523438e+01 -2.435568809509277344e+00 7.456748485565185547e+00 1.506353855133056641e+00 2.364053010940551758e+00
1.019000000000000000e+03 5.555295181274414062e+01 -2.669699287414550781e+01 -1.125686168670654297e+00 7.430203914642333984e+00 1.891355395317077637e+00 2.350615739822387695e+00
1.020000000000000000e+03 5.822774124145507812e+01 -2.797580337524414062e+01 6.780822873115539551e-01 4.934939384460449219e+00 1.683906435966491699e+00 2.115502357482910156e+00
1.021000000000000000e+03 5.736858749389648438e+01 -2.912009429931640625e+01 1.391601920127868652e+00 7.121440410614013672e+00 2.553912639617919922e+00 3.306457519531250000e+00
1.022000000000000000e+03 5.314323806762695312e+01 -2.601743507385253906e+01 -2.100108623504638672e+00 2.708887577056884766e+00 1.826337277889251709e-01 1.553652167320251465e+00
1.023000000000000000e+03 4.673817825317382812e+01 -2.852960586547851562e+01 7.846448421478271484e-01 2.624746799468994141e+00 1.022817492485046387e+00 -2.349631547927856445e+00
1.024000000000000000e+03 4.938269424438476562e+01 -2.556592369079589844e+01 -1.663997054100036621e+00 3.038699865341186523e+00 4.124108552932739258e-01 -2.266886234283447266e+00
1.025000000000000000e+03 4.880150222778320312e+01 -2.432799530029296875e+01 2.323051691055297852e-01 3.068063497543334961e+00 9.901105761528015137e-01 -2.131566047668457031e+00
1.026000000000000000e+03 4.386672973632812500e+01 -2.267323303222656250e+01 3.061517000198364258e+00 4.626649379730224609e+00 2.306449890136718750e+00 5.908961296081542969e-01
1.027000000000000000e+03 4.700820922851562500e+01 -2.210508537292480469e+01 2.773449897766113281e+00 8.645065307617187500e+00 3.425554513931274414e+00 -2.898770809173583984e+00
1.028000000000000000e+03 4.490603637695312500e+01 -2.781742858886718750e+01 -2.605190038681030273e+00 8.835788965225219727e-01 -5.164833664894104004e-01 -3.116421699523925781e-01
1.029000000000000000e+03 4.599335861206054688e+01 -2.748334503173828125e+01 -1.049567818641662598e+00 2.629083871841430664e+00 4.738548398017883301e-01 -2.189851522445678711e+00
1.030000000000000000e+03 4.776835632324218750e+01 -2.931500434875488281e+01 3.247249364852905273e+00 4.279259681701660156e+00 2.257952690124511719e+00 -3.779346704483032227e+00
1.031000000000000000e+03 4.929212570190429688e+01 -3.154109764099121094e+01 2.029219865798950195e+00 1.085141277313232422e+01 3.864189863204956055e+00 -3.229398012161254883e+00
1.032000000000000000e+03 4.965928268432617188e+01 -3.282426452636718750e+01 1.172992944717407227e+00 1.076159000396728516e+01 3.580374717712402344e+00 -4.460489749908447266e-01
1.033000000000000000e+03 5.054391479492187500e+01 -3.449602508544921875e+01 1.665677547454833984e+00 8.218639373779296875e+00 2.965295076370239258e+00 5.182348489761352539e-01
1.034000000000000000e+03 4.667080688476562500e+01 -2.066888809204101562e+01 1.591889977455139160e+00 1.048299217224121094e+01 3.622464656829833984e+00 -2.674229443073272705e-01
1.035000000000000000e+03 4.604757690429687500e+01 -1.671345329284667969e+01 -7.385827302932739258e-01 6.454280376434326172e+00 1.714709281921386719e+00 1.656780600547790527e+00
1.036000000000000000e+03 3.973054885864257812e+01 -1.609099388122558594e+01 -1.066706180572509766e+00 4.596653938293457031e+00 1.058984398841857910e+00 -2.026381969451904297e+00
1.037000000000000000e+03 4.747352981567382812e+01 -1.672948455810546875e+01 -1.151322484016418457e+00 6.341318607330322266e+00 1.556998729705810547e+00 2.691185951232910156e+00
1.038000000000000000e+03 4.889153671264648438e+01 -1.667563819885253906e+01 -2.053884267807006836e+00 2.353732585906982422e+00 8.995448797941207886e-02 1.244805097579956055e+00
1.039000000000000000e+03 5.013521194458007812e+01 -1.635136795043945312e+01 -5.109721660614013672e+00 -5.025023967027664185e-02 -1.547991514205932617e+00 -6.893472075462341309e-01
1.040000000000000000e+03 7.384400177001953125e+01 -2.201511192321777344e+01 6.954904794692993164e-01 1.344473361968994141e+01 4.242067337036132812e+00 5.024607777595520020e-01
1.041000000000000000e+03 7.942618560791015625e+01 -2.640556716918945312e+01 -4.093515500426292419e-02 7.075718402862548828e+00 2.110435009002685547e+00 -1.839197129011154175e-01
1.042000000000000000e+03 7.183636474609375000e+01 -2.599377441406250000e+01 -1.352139234542846680e+00 1.634625792503356934e+00 8.474598079919815063e-02 1.250822782516479492e+00
1.043000000000000000e+03 7.103749084472656250e+01 -2.715035057067871094e+01 -1.407905459403991699e+00 1.519196629524230957e+00 3.338734433054924011e-02 1.318011879920959473e+00
1.044000000000000000e+03 6.967771911621093750e+01 -2.653482246398925781e+01 -3.548218011856079102e+00 -1.648965775966644287e-01 -1.113934397697448730e+00 2.353214919567108154e-01
1.045000000000000000e+03 6.856741333007812500e+01 -2.920620918273925781e+01 1.834500789642333984e+00 3.915077686309814453e+00 1.724873542785644531e+00 -1.339123845100402832e+00
1.046000000000000000e+03 6.715529632568359375e+01 -2.541766738891601562e+01 1.955903619527816772e-01 4.318332195281982422e+00 1.354176759719848633e+00 -2.195923566818237305e+00
1.047000000000000000e+03 6.352624130249023438e+01 -2.761604309082031250e+01 8.237780928611755371e-01 4.160305500030517578e+00 1.495225071907043457e+00 -2.462392330169677734e+00
1.048000000000000000e+03 6.571389007568359375e+01 -2.901447868347167969e+01 2.447726249694824219e+00 9.500580787658691406e+00 3.584492206573486328e+00 -3.650604963302612305e+00
1.049000000000000000e+03 6.570921325683593750e+01 -3.036900138854980469e+01 2.782577991485595703e+00 1.219400215148925781e+01 4.492973804473876953e+00 -3.931096315383911133e+00
1.050000000000000000e+03 6.591598510742187500e+01 -3.303487777709960938e+01 2.194832116365432739e-01 9.385333061218261719e+00 2.881444931030273438e+00 -5.847939252853393555e-01
1.051000000000000000e+03 6.601765441894531250e+01 -3.433332824707031250e+01 4.483228623867034912e-01 8.132788658142089844e+00 2.574333667755126953e+00 1.053577885031700134e-01
1.052000000000000000e+03 6.532035827636718750e+01 -3.642023849487304688e+01 -4.836184158921241760e-02 4.561991214752197266e+00 1.354088783264160156e+00 7.830112576484680176e-01
1.053000000000000000e+03 6.731041717529296875e+01 -4.154418945312500000e+01 -1.368280410766601562e+00 4.702884197235107422e+00 1.000381231307983398e+00 -7.650070823729038239e-03
1.054000000000000000e+03 6.654026031494140625e+01 -3.773608398437500000e+01 -1.600369572639465332e+00 5.225762367248535156e+00 1.087617874145507812e+00 -4.643448591232299805e-01
1.055000000000000000e+03 6.115222930908203125e+01 -2.648270416259765625e+01 -4.515702247619628906e+00 -3.141479790210723877e-01 -1.448955059051513672e+00 -2.419867813587188721e-01
1.056000000000000000e+03 6.473315429687500000e+01 -2.162253952026367188e+01 1.852299094200134277e+00 1.221353340148925781e+01 4.219749927520751953e+00 -2.187255620956420898e+00
1.057000000000000000e+03 6.696170806884765625e+01 -1.640066909790039062e+01 -2.498920440673828125e+00 2.321305572986602783e-01 -6.800369620323181152e-01 -1.380411237478256226e-01
1.058000000000000000e+03 6.829672241210937500e+01 -1.606779289245605469e+01 -2.342852592468261719e+00 9.140589833259582520e-02 -6.754339933395385742e-01 -5.928599834442138672e-01
1.059000000000000000e+03 6.240302276611328125e+01 -2.681265068054199219e+01 -2.683480739593505859e+00 1.735614657402038574e+00 -2.843598425388336182e-01 -7.909290790557861328e-01
1.060000000000000000e+03 6.602277374267578125e+01 -2.439854240417480469e+01 2.059446334838867188e+00 7.086609363555908203e+00 2.743816852569580078e+00 -4.153403282165527344e+00
1.061000000000000000e+03 6.591835021972656250e+01 -2.773434829711914062e+01 -7.020735740661621094e-01 7.263159275054931641e+00 1.968325734138488770e+00 -2.415159225463867188e+00
1.062000000000000000e+03 5.598533630371093750e+01 -3.313827514648437500e+01 1.087051987648010254e+00 1.231512451171875000e+01 4.020652770996093750e+00 2.751153334975242615e-02
1.063000000000000000e+03 5.269430541992187500e+01 -3.120667266845703125e+01 2.827493429183959961e+00 6.183290481567382812e+00 2.703235149383544922e+00 1.467099487781524658e-01
1.064000000000000000e+03 5.994690704345703125e+01 -2.606880187988281250e+01 -2.075417280197143555e+00 1.319121003150939941e+00 -2.268889248371124268e-01 6.816566586494445801e-01
1.065000000000000000e+03 1.548083400726318359e+01 -1.339288520812988281e+01 -3.719375371932983398e+00 8.877559661865234375e+00 1.547455310821533203e+00 -1.127301454544067383e+00
1.066000000000000000e+03 1.452701282501220703e+01 -1.418893337249755859e+01 -1.097828865051269531e+00 4.240372180938720703e+00 9.427629709243774414e-01 -9.731354713439941406e-01
1.067000000000000000e+03 1.947874450683593750e+01 -1.222150135040283203e+01 5.315825939178466797e-01 4.072990417480468750e+00 1.381371855735778809e+00 -1.797566413879394531e+00
1.068000000000000000e+03 2.048244857788085938e+01 -1.321236515045166016e+01 -1.880523085594177246e+00 1.768536686897277832e+00 -3.359591215848922729e-02 -6.333358287811279297e-01
1.069000000000000000e+03 1.536549091339111328e+01 -1.522720336914062500e+01 7.214691638946533203e-01 9.979513168334960938e+00 3.210294485092163086e+00 -2.605855941772460938e+00
1.070000000000000000e+03 2.064529037475585938e+01 -1.704382705688476562e+01 1.747595906257629395e+00 2.507484436035156250e+00 1.276524066925048828e+00 -2.015805721282958984e+00
1.071000000000000000e+03 2.224671363830566406e+01 -2.603423690795898438e+01 -1.631320953369140625e+00 2.400803089141845703e+00 2.308446168899536133e-01 -1.111092209815979004e+00
1.072000000000000000e+03 2.682926559448242188e+01 -1.931113052368164062e+01 2.070800542831420898e+00 5.727503776550292969e+00 2.339491367340087891e+00 -1.719233766198158264e-02
1.073000000000000000e+03 2.241596984863281250e+01 -1.379384899139404297e+01 -5.430206298828125000e+00 -1.200438141822814941e-01 -1.665075063705444336e+00 -1.373173445463180542e-01
1.074000000000000000e+03 2.963658523559570312e+01 -1.844178962707519531e+01 1.757650136947631836e+00 9.169706344604492188e+00 3.278207063674926758e+00 3.566877365112304688e+00
1.075000000000000000e+03 2.916286277770996094e+01 -1.971491241455078125e+01 1.583166480064392090e+00 1.133394432067871094e+01 3.875133037567138672e+00 2.783087491989135742e+00
1.076000000000000000e+03 2.744883346557617188e+01 -2.200909614562988281e+01 2.163088083267211914e+00 7.836308002471923828e+00 2.999818801879882812e+00 -2.737546563148498535e-01
1.077000000000000000e+03 2.875820922851562500e+01 -2.234341812133789062e+01 1.294684886932373047e+00 1.263148689270019531e+01 4.177851676940917969e+00 -1.058262825012207031e+00
1.078000000000000000e+03 1.591133975982666016e+01 -1.850294113159179688e+01 4.394633173942565918e-01 1.339468383789062500e+01 4.150244235992431641e+00 5.849463939666748047e-01
1.079000000000000000e+03 1.599696636199951172e+01 -1.721450233459472656e+01 1.361581921577453613e+00 1.327397251129150391e+01 4.390666484832763672e+00 -1.546395778656005859e+00
1.080000000000000000e+03 1.758467864990234375e+01 -2.155718421936035156e+01 1.221931099891662598e+00 5.388947963714599609e+00 1.983263731002807617e+00 -1.547853499650955200e-01
1.081000000000000000e+03 1.726363372802734375e+01 -2.686743927001953125e+01 -1.973253369331359863e+00 1.150600194931030273e+00 -2.467959821224212646e-01 6.798769831657409668e-01
1.082000000000000000e+03 1.487958335876464844e+01 -2.861719131469726562e+01 2.176240444183349609e+00 5.115537166595458984e+00 2.187533140182495117e+00 3.258311748504638672e+00
1.083000000000000000e+03 1.407444000244140625e+01 -2.986968040466308594e+01 2.341093778610229492e+00 6.442049980163574219e+00 2.634943246841430664e+00 3.613217592239379883e+00
1.084000000000000000e+03 1.190089511871337891e+01 -2.260881233215332031e+01 -3.393608331680297852e+00 4.423339068889617920e-01 -8.853822946548461914e-01 9.869415313005447388e-02
1.085000000000000000e+03 4.643181610107421875e+01 1.800590324401855469e+01 1.393576860427856445e+00 5.989760875701904297e+00 2.215001344680786133e+00 2.906616210937500000e+00
1.086000000000000000e+03 4.762368774414062500e+01 1.888903045654296875e+01 -2.035261154174804688e+00 2.025285243988037109e+00 -2.992819529026746750e-03 1.646850705146789551e+00
1.087000000000000000e+03 5.080358123779296875e+01 1.791503143310546875e+01 -4.726383388042449951e-01 1.265592098236083984e+00 2.378861308097839355e-01 -4.349621236324310303e-01
1.088000000000000000e+03 5.279817581176757812e+01 1.598481655120849609e+01 1.679976940155029297e+00 3.369592189788818359e+00 1.514870762825012207e+00 -2.169222116470336914e+00
1.089000000000000000e+03 5.369471740722656250e+01 1.493678760528564453e+01 1.757812619209289551e+00 5.179201602935791016e+00 2.081104278564453125e+00 -2.798935651779174805e+00
1.090000000000000000e+03 5.738700103759765625e+01 1.332476711273193359e+01 1.850045442581176758e+00 8.252823829650878906e+00 3.030860900878906250e+00 5.476757287979125977e-01
1.091000000000000000e+03 5.445005416870117188e+01 1.383848476409912109e+01 1.502288222312927246e+00 8.232236862182617188e+00 2.920357465744018555e+00 -2.088326215744018555e+00
1.092000000000000000e+03 5.485446166992187500e+01 1.033401203155517578e+01 3.856614232063293457e-01 1.138152885437011719e+01 3.530157089233398438e+00 7.735190391540527344e-01
1.093000000000000000e+03 6.040000915527343750e+01 7.838514804840087891e+00 7.140731811523437500e-02 5.721429824829101562e+00 1.737851142883300781e+00 -1.310896515846252441e+00
1.094000000000000000e+03 5.433433914184570312e+01 7.715018272399902344e+00 2.547230005264282227e+00 1.003502941131591797e+01 3.774677991867065430e+00 3.724266529083251953e+00
1.095000000000000000e+03 5.768086242675781250e+01 2.284636735916137695e+00 -1.060954809188842773e+00 2.990149021148681641e+00 5.787582993507385254e-01 -1.210625886917114258e+00
1.096000000000000000e+03 5.159860992431640625e+01 3.866060972213745117e+00 -4.502615630626678467e-01 2.627380847930908203e+00 6.531357765197753906e-01 2.172217130661010742e+00
1.097000000000000000e+03 5.813106918334960938e+01 1.105527281761169434e+00 -2.675332546234130859e+00 1.990664243698120117e+00 -2.054004967212677002e-01 -1.685455083847045898e+00
1.098000000000000000e+03 5.558904647827148438e+01 3.798729777336120605e-01 -2.503673791885375977e+00 9.760038256645202637e-01 -4.583009481430053711e-01 6.685539484024047852e-01
1.099000000000000000e+03 5.390407943725585938e+01 -4.218003153800964355e-01 3.260295987129211426e-01 5.216351985931396484e+00 1.662714362144470215e+00 2.128165960311889648e+00
1.100000000000000000e+03 5.296417999267578125e+01 6.188287258148193359e+00 1.718040704727172852e+00 4.251528263092041016e+00 1.790870666503906250e+00 2.766141653060913086e+00
1.101000000000000000e+03 5.076464080810546875e+01 4.917687892913818359e+00 -1.743791341781616211e+00 5.789055824279785156e-01 -3.494657278060913086e-01 7.680498361587524414e-01
1.102000000000000000e+03 5.145221328735351562e+01 1.742854475975036621e+00 -7.486903667449951172e-01 4.495710372924804688e+00 1.124106049537658691e+00 1.078802943229675293e+00
1.103000000000000000e+03 4.760253524780273438e+01 7.321357250213623047e+00 -2.778464555740356445e-01 7.050173878669738770e-01 1.281512826681137085e-01 -3.059853613376617432e-02
1.104000000000000000e+03 4.862731552124023438e+01 6.391049385070800781e+00 -1.817658066749572754e+00 -1.372274756431579590e-01 -5.864656567573547363e-01 4.367274940013885498e-01
1.105000000000000000e+03 4.659303283691406250e+01 8.245681762695312500e+00 1.987300962209701538e-01 1.523379802703857422e+00 5.166329741477966309e-01 -8.814832568168640137e-01
1.106000000000000000e+03 4.442588424682617188e+01 9.728320121765136719e+00 6.354752779006958008e-01 7.754152297973632812e+00 2.516888380050659180e+00 -5.393854379653930664e-01
1.107000000000000000e+03 4.457772445678710938e+01 1.245549678802490234e+01 8.314184546470642090e-01 1.283068084716796875e+01 4.098629951477050781e+00 -1.084940508008003235e-01
1.108000000000000000e+03 4.501202774047851562e+01 1.528476142883300781e+01 1.593205571174621582e+00 1.155239582061767578e+01 3.943680286407470703e+00 3.076421260833740234e+00
1.109000000000000000e+03 4.467775344848632812e+01 1.387508773803710938e+01 8.953531384468078613e-01 1.307230472564697266e+01 4.190297603607177734e+00 1.704321742057800293e+00
1.110000000000000000e+03 4.213109970092773438e+01 2.193015098571777344e+01 -2.023508071899414062e+00 7.329310178756713867e-01 -3.871731162071228027e-01 4.644330441951751709e-01
1.111000000000000000e+03 4.376543426513671875e+01 2.024787330627441406e+01 -1.065426111221313477e+00 5.239172935485839844e+00 1.252124071121215820e+00 2.571026086807250977e+00
1.112000000000000000e+03 3.163166999816894531e+01 -1.576962852478027344e+01 -1.517143249511718750e+00 3.119211673736572266e+00 4.806205630302429199e-01 1.160177469253540039e+00
1.113000000000000000e+03 3.021329879760742188e+01 -1.458787631988525391e+01 -3.202780008316040039e+00 6.136455059051513672e+00 8.801025152206420898e-01 1.814954757690429688e+00
1.114000000000000000e+03 2.693114662170410156e+01 -1.251601696014404297e+01 -1.829728484153747559e+00 1.711603760719299316e+00 -3.543740883469581604e-02 9.578220844268798828e-01
1.115000000000000000e+03 2.499546432495117188e+01 -1.352237129211425781e+01 -4.131501197814941406e+00 3.049142956733703613e-01 -1.147976040840148926e+00 -6.286467313766479492e-01
1.116000000000000000e+03 2.135542869567871094e+01 -1.417951107025146484e+01 -3.015582084655761719e+00 8.881769776344299316e-01 -6.382215619087219238e-01 -7.091858983039855957e-01
1.117000000000000000e+03 3.391628265380859375e+01 -1.480939388275146484e+01 -7.673867702484130859e+00 -4.758486747741699219e-01 -2.444914817810058594e+00 -1.776770949363708496e-01
1.118000000000000000e+03 3.806816101074218750e+01 -1.081716537475585938e+01 3.123008728027343750e+00 7.126565456390380859e+00 3.074872255325317383e+00 -4.035818576812744141e+00
1.119000000000000000e+03 3.786869430541992188e+01 -1.471753311157226562e+01 -3.619647979736328125e+00 5.791439056396484375e+00 6.515373587608337402e-01 -2.377362251281738281e+00
1.120000000000000000e+03 3.790345001220703125e+01 -1.681978988647460938e+01 9.086937308311462402e-01 5.460383892059326172e+00 1.910723209381103516e+00 -2.750300645828247070e+00
1.121000000000000000e+03 4.278607940673828125e+01 -2.506579208374023438e+01 1.972307920455932617e+00 2.937841415405273438e+00 1.473044753074645996e+00 6.440022587776184082e-01
1.122000000000000000e+03 4.594437408447265625e+01 -1.786998939514160156e+01 6.060835719108581543e-01 6.308727264404296875e+00 2.074443340301513672e+00 1.312978386878967285e+00
1.123000000000000000e+03 3.908485794067382812e+01 -1.735642051696777344e+01 8.923699855804443359e-01 5.409308910369873047e+00 1.890503644943237305e+00 -2.519515991210937500e+00
1.124000000000000000e+03 3.979874801635742188e+01 -2.235281562805175781e+01 2.144430577754974365e-01 9.030210494995117188e+00 2.773396015167236328e+00 -1.266467869281768799e-01
1.125000000000000000e+03 4.304175949096679688e+01 -2.182944488525390625e+01 3.094778299331665039e+00 4.651328086853027344e+00 2.323832035064697266e+00 5.600525140762329102e-01
1.126000000000000000e+03 4.123212051391601562e+01 -2.776427459716796875e+01 -2.645291090011596680e+00 4.338842391967773438e+00 5.080653429031372070e-01 1.148995399475097656e+00
1.127000000000000000e+03 3.990817642211914062e+01 -2.773117446899414062e+01 -2.231793880462646484e+00 8.966957092285156250e+00 2.020549058914184570e+00 2.042378187179565430e+00
1.128000000000000000e+03 3.730674743652343750e+01 -2.836062812805175781e+01 -2.627436161041259766e+00 2.721963167190551758e+00 2.835807390511035919e-02 9.628691077232360840e-01
1.129000000000000000e+03 3.368936157226562500e+01 -2.908632278442382812e+01 -2.768933057785034180e+00 -1.581142842769622803e-01 -8.781142234802246094e-01 -4.807806015014648438e-01
1.130000000000000000e+03 3.294441223144531250e+01 -2.811056518554687500e+01 -2.910256147384643555e+00 7.722062617540359497e-02 -8.499106764793395996e-01 2.313983887434005737e-01
1.131000000000000000e+03 3.110336303710937500e+01 -2.633551788330078125e+01 9.821538627147674561e-02 2.384640455245971680e+00 7.448567152023315430e-01 -1.169876217842102051e+00
1.132000000000000000e+03 3.022537040710449219e+01 -1.727808761596679688e+01 1.333881378173828125e+00 6.606955528259277344e+00 2.382251024246215820e+00 2.942820310592651367e+00
1.133000000000000000e+03 3.274451065063476562e+01 -1.518626594543457031e+01 -5.369027137756347656e+00 3.708434998989105225e-01 -1.499455094337463379e+00 -4.165107309818267822e-01
1.134000000000000000e+03 1.449187755584716797e+01 -2.147583198547363281e+01 2.032861232757568359e+00 4.577896595001220703e+00 1.983227372169494629e+00 3.066457033157348633e+00
1.135000000000000000e+03 2.003419494628906250e+01 -2.648805999755859375e+01 -4.894123554229736328e+00 -3.101973533630371094e-01 -1.561296224594116211e+00 4.351225197315216064e-01
1.136000000000000000e+03 1.721761322021484375e+01 -4.028810882568359375e+01 -2.438261032104492188e+00 -3.958826363086700439e-01 -8.502430915832519531e-01 1.221866130828857422e+00
1.137000000000000000e+03 1.886330795288085938e+01 -4.083512115478515625e+01 -3.089926958084106445e+00 -6.164513826370239258e-01 -1.111913561820983887e+00 -3.633783757686614990e-01
1.138000000000000000e+03 1.548197174072265625e+01 -4.063052368164062500e+01 -1.940388441085815430e+00 9.977967292070388794e-02 -5.521826148033142090e-01 3.087974786758422852e-01
1.139000000000000000e+03 1.534555435180664062e+01 -3.894588851928710938e+01 -6.235517263412475586e-01 -1.589976847171783447e-01 -2.347648143768310547e-01 1.000345826148986816e+00
1.140000000000000000e+03 1.258241844177246094e+01 -3.528356552124023438e+01 2.623300850391387939e-01 5.550755023956298828e+00 1.743925452232360840e+00 1.323709189891815186e-01
1.141000000000000000e+03 9.261499404907226562e+00 -3.513957595825195312e+01 6.403526663780212402e-01 4.026203632354736328e+00 1.399966835975646973e+00 1.176766157150268555e+00
1.142000000000000000e+03 1.220631599426269531e+01 -3.069963455200195312e+01 1.842113018035888672e+00 5.121695041656494141e+00 2.089142322540283203e+00 1.850470423698425293e+00
1.143000000000000000e+03 2.873984527587890625e+01 5.252881526947021484e+00 2.061414957046508789e+00 7.385955333709716797e+00 2.834211111068725586e+00 -1.602665066719055176e+00
1.144000000000000000e+03 3.190420722961425781e+01 -2.045168876647949219e+00 7.196063995361328125e-01 4.196747303009033203e+00 1.474906206130981445e+00 -1.141287803649902344e+00
1.145000000000000000e+03 2.936734390258789062e+01 -3.445530414581298828e+00 2.209554195404052734e+00 9.367171287536621094e+00 3.473017692565917969e+00 -3.530639648437500000e+00
1.146000000000000000e+03 3.091626548767089844e+01 -4.562757015228271484e+00 2.193716287612915039e+00 6.769782543182373047e+00 2.689049720764160156e+00 -1.810097098350524902e+00
1.147000000000000000e+03 2.968516921997070312e+01 -4.739946842193603516e+00 1.149882078170776367e+00 1.012252044677734375e+01 3.381720781326293945e+00 -2.280261039733886719e+00
1.148000000000000000e+03 3.054207611083984375e+01 -8.734749794006347656e+00 2.160243272781372070e+00 8.354089736938476562e+00 3.154299974441528320e+00 1.555799603462219238e+00
1.149000000000000000e+03 2.789053535461425781e+01 -1.163337898254394531e+01 1.552461385726928711e+00 3.801840782165527344e+00 1.606290578842163086e+00 2.572917938232421875e+00
1.150000000000000000e+03 2.884235000610351562e+01 -1.065773010253906250e+01 2.720700979232788086e+00 7.154518604278564453e+00 2.962565898895263672e+00 4.085338115692138672e+00
1.151000000000000000e+03 1.650796318054199219e+01 -1.264557170867919922e+01 -2.642283201217651367e+00 9.538036346435546875e+00 2.068726062774658203e+00 -1.004597067832946777e+00
1.152000000000000000e+03 1.810878181457519531e+01 -2.554085016250610352e+00 1.293393373489379883e+00 3.723080158233642578e+00 1.504942059516906738e+00 1.523682713508605957e+00
1.153000000000000000e+03 1.753246307373046875e+01 4.373704433441162109e+00 -1.995428698137402534e-03 2.966475009918212891e+00 8.893438577651977539e-01 3.946719884872436523e+00
1.154000000000000000e+03 2.452955436706542969e+01 1.649371528625488281e+01 -2.834924459457397461e+00 9.409687668085098267e-02 -8.222482800483703613e-01 1.476482152938842773e+00
1.155000000000000000e+03 2.543401145935058594e+01 1.568893337249755859e+01 -5.845168590545654297e+00 -1.278841257095336914e+00 -2.137202978134155273e+00 1.996955156326293945e+00
1.156000000000000000e+03 2.233878135681152344e+01 1.626199722290039062e+01 -3.316923618316650391e+00 8.196907997131347656e+00 1.463995456695556641e+00 7.369673848152160645e-01
1.157000000000000000e+03 2.365334701538085938e+01 1.728149604797363281e+01 -1.271696090698242188e+00 4.347540378570556641e+00 9.227532148361206055e-01 -5.263845324516296387e-01
1.158000000000000000e+03 1.880235099792480469e+01 1.716065216064453125e+01 -3.150807857513427734e+00 1.214318394660949707e+00 -5.809468030929565430e-01 1.274903297424316406e+00
1.159000000000000000e+03 2.213408660888671875e+01 2.155865287780761719e+01 1.083019733428955078e+00 1.580454826354980469e+01 5.066270351409912109e+00 1.959579139947891235e-01
1.160000000000000000e+03 2.318058967590332031e+01 2.777291870117187500e+01 3.258503675460815430e-01 5.053374290466308594e+00 1.613767385482788086e+00 6.868124604225158691e-01
1.161000000000000000e+03 2.334510803222656250e+01 2.661182594299316406e+01 8.347143977880477905e-02 5.462160587310791016e+00 1.663689494132995605e+00 1.094085335731506348e+00
1.162000000000000000e+03 2.292949676513671875e+01 3.768955767154693604e-01 -2.956860542297363281e+00 3.392485082149505615e-01 -7.852836251258850098e-01 2.216595411300659180e-01
1.163000000000000000e+03 1.562807273864746094e+01 2.319442367553710938e+01 2.031564479693770409e-03 -2.987303435802459717e-01 -8.900963515043258667e-02 -4.372936487197875977e-02
1.164000000000000000e+03 1.034212112426757812e+01 2.254821586608886719e+01 -2.652371883392333984e+00 2.734210193157196045e-01 -7.136852741241455078e-01 5.976226180791854858e-02
1.165000000000000000e+03 9.050464630126953125e+00 2.219555282592773438e+01 -1.777372241020202637e+00 1.431998252868652344e+00 -1.036122068762779236e-01 -7.979232072830200195e-01
1.166000000000000000e+03 7.496391773223876953e+00 2.436632919311523438e+01 1.160919308662414551e+00 3.234337806701660156e+00 1.318577170372009277e+00 -1.945664048194885254e+00
1.167000000000000000e+03 1.657583475112915039e+00 2.636029624938964844e+01 2.596273720264434814e-01 3.908805847167968750e+00 1.250529885292053223e+00 1.940847188234329224e-01
1.168000000000000000e+03 6.634754943847656250e+01 2.031488800048828125e+01 -5.389165878295898438e+00 -2.770746350288391113e-01 -1.699872136116027832e+00 6.317319869995117188e-01
1.169000000000000000e+03 6.502865600585937500e+01 2.018316459655761719e+01 -3.998965740203857422e+00 2.904705107212066650e-01 -1.112548589706420898e+00 5.508692264556884766e-01
1.170000000000000000e+03 6.362534332275390625e+01 2.473627090454101562e+01 9.086421132087707520e-01 6.821065425872802734e+00 2.318912267684936523e+00 1.660832762718200684e+00
1.171000000000000000e+03 6.371550369262695312e+01 1.991025352478027344e+01 -2.385350689291954041e-02 2.913929224014282227e+00 8.670227527618408203e-01 2.577974081039428711e+00
1.172000000000000000e+03 6.087823486328125000e+01 1.995015525817871094e+01 1.340214759111404419e-01 6.575635433197021484e+00 2.012897014617919922e+00 2.368594408035278320e+00
1.173000000000000000e+03 5.448399353027343750e+01 1.587837123870849609e+01 1.061186671257019043e+00 5.786154747009277344e+00 2.054202556610107422e+00 -1.680075287818908691e+00
1.174000000000000000e+03 6.148791122436523438e+01 1.744101333618164062e+01 2.547184228897094727e+00 1.079138088226318359e+01 4.001569271087646484e+00 4.515498161315917969e+00
1.175000000000000000e+03 6.070661544799804688e+01 1.339620971679687500e+01 3.952995836734771729e-01 1.071173763275146484e+01 3.332111358642578125e+00 1.761204451322555542e-01
1.176000000000000000e+03 5.675574874877929688e+01 1.225595092773437500e+01 1.540384173393249512e+00 8.420275688171386719e+00 2.988198041915893555e+00 5.957382321357727051e-01
1.177000000000000000e+03 6.158560943603515625e+01 1.011861801147460938e+01 1.919189095497131348e+00 6.183427333831787109e+00 2.430784940719604492e+00 -2.448638916015625000e+00
1.178000000000000000e+03 6.834672546386718750e+01 1.953508186340332031e+01 -2.897757053375244141e+00 4.368915855884552002e-01 -7.382596135139465332e-01 3.719469010829925537e-01
1.179000000000000000e+03 6.926490020751953125e+01 1.857721710205078125e+01 -5.433809757232666016e-01 1.571220159530639648e+00 3.083517253398895264e-01 -3.460786938667297363e-01
1.180000000000000000e+03 6.964589691162109375e+01 2.043819236755371094e+01 -1.986768603324890137e+00 3.853060245513916016e+00 5.598874688148498535e-01 -1.538935303688049316e+00
1.181000000000000000e+03 6.901207733154296875e+01 2.150685119628906250e+01 -1.059550762176513672e+00 2.971367359161376953e+00 5.735450387001037598e-01 -1.567647337913513184e+00
1.182000000000000000e+03 6.400816345214843750e+01 7.447456359863281250e+00 -1.267240047454833984e+00 9.112710952758789062e-01 -1.067906841635704041e-01 -3.931747972965240479e-01
1.183000000000000000e+03 3.242650222778320312e+01 2.403205108642578125e+01 9.261091351509094238e-01 1.005711174011230469e+01 3.294966220855712891e+00 -5.344229936599731445e-01
1.184000000000000000e+03 3.025878524780273438e+01 1.553243064880371094e+01 -8.867568522691726685e-02 3.684204816818237305e+00 1.078658699989318848e+00 3.236902713775634766e+00
1.185000000000000000e+03 2.970321273803710938e+01 1.455032062530517578e+01 -2.107488632202148438e+00 3.130988121032714844e+00 3.070498704910278320e-01 3.128023862838745117e+00
1.186000000000000000e+03 2.727740478515625000e+01 1.491533756256103516e+01 -6.593355655670166016e+00 -7.562841773033142090e-01 -2.204891920089721680e+00 1.504323363304138184e+00
1.187000000000000000e+03 3.790715789794921875e+01 2.178367614746093750e+01 -2.073754668235778809e-01 1.659006953239440918e+00 4.354894459247589111e-01 -1.083485603332519531e+00
1.188000000000000000e+03 3.663403701782226562e+01 2.415706634521484375e+01 1.084629058837890625e+00 3.226187944412231445e+00 1.293245077133178711e+00 -1.776782989501953125e+00
1.189000000000000000e+03 5.307099151611328125e+01 3.210189437866210938e+01 1.538497447967529297e+00 8.761788368225097656e+00 3.090085744857788086e+00 1.619733810424804688e+00
1.190000000000000000e+03 7.237053680419921875e+01 -1.362447261810302734e+00 -1.721150517463684082e+00 6.261235475540161133e-01 -3.285081088542938232e-01 1.066538970917463303e-02
1.191000000000000000e+03 6.780529022216796875e+01 6.870145797729492188e+00 -1.783066391944885254e+00 2.233804315328598022e-01 -4.679057896137237549e-01 4.201390743255615234e-01
1.192000000000000000e+03 7.436113739013671875e+01 -3.478275299072265625e+00 5.517629981040954590e-01 7.291978359222412109e+00 2.353122472763061523e+00 -2.229170083999633789e+00
1.193000000000000000e+03 7.672812652587890625e+01 1.566944837570190430e+00 -5.270880460739135742e-01 7.729372501373291016e+00 2.160685300827026367e+00 -6.265199184417724609e-01
1.194000000000000000e+03 7.691984558105468750e+01 -4.228590011596679688e+00 9.761570394039154053e-02 9.838941574096679688e+00 2.980967044830322266e+00 4.722485840320587158e-01
1.195000000000000000e+03 6.005778503417968750e+01 -9.547599792480468750e+00 7.616104483604431152e-01 5.460746288299560547e+00 1.866707086563110352e+00 2.628398895263671875e+00
1.196000000000000000e+03 6.123861312866210938e+01 -7.591040611267089844e+00 1.859913349151611328e+00 1.085454463958740234e+01 3.814337253570556641e+00 2.200084686279296875e+00
1.197000000000000000e+03 6.770566558837890625e+01 -1.528343200683593750e+00 1.938083291053771973e+00 2.900672197341918945e+00 1.451626658439636230e+00 2.188677549362182617e+00
1.198000000000000000e+03 6.675767517089843750e+01 -2.540259122848510742e+00 2.438874006271362305e+00 4.904596805572509766e+00 2.203041315078735352e+00 3.226485490798950195e+00
1.199000000000000000e+03 6.852503967285156250e+01 -4.102100729942321777e-01 5.676310658454895020e-01 1.937309384346008301e+00 7.514821290969848633e-01 2.008656263351440430e+00
1.200000000000000000e+03 6.979845428466796875e+01 -8.135379552841186523e-01 -4.188054800033569336e-01 5.376480817794799805e-01 3.565279394388198853e-02 9.621948003768920898e-01
1.201000000000000000e+03 4.476160430908203125e+01 -3.828073120117187500e+01 -2.655109643936157227e+00 -2.063659578561782837e-01 -8.584426641464233398e-01 -1.386980563402175903e-01
1.202000000000000000e+03 4.305587768554687500e+01 -3.847545623779296875e+01 -2.539550781250000000e+00 9.883853048086166382e-02 -7.322136759757995605e-01 -9.516727924346923828e-02
1.203000000000000000e+03 4.148714828491210938e+01 -3.776867294311523438e+01 -1.511363387107849121e+00 9.113026857376098633e-01 -1.800182163715362549e-01 -1.014785915613174438e-01
1.204000000000000000e+03 3.957929229736328125e+01 -3.100259590148925781e+01 2.090419054031372070e+00 1.143397712707519531e+01 4.057318687438964844e+00 4.469151020050048828e+00
1.205000000000000000e+03 3.781243133544921875e+01 -2.731949043273925781e+01 -1.100333929061889648e+00 2.997293710708618164e+00 5.690879225730895996e-01 1.280552268028259277e+00
1.206000000000000000e+03 4.021900558471679688e+01 -2.989498138427734375e+01 2.134684562683105469e+00 8.850195884704589844e+00 3.295464038848876953e+00 4.066787719726562500e+00
1.207000000000000000e+03 4.119778823852539062e+01 -2.516844177246093750e+01 2.097235441207885742e+00 5.436008453369140625e+00 2.259973049163818359e+00 2.315248966217041016e+00
1.208000000000000000e+03 4.035365676879882812e+01 -2.450081253051757812e+01 2.636395454406738281e+00 9.862086296081542969e+00 3.749544620513916016e+00 2.724410295486450195e+00
1.209000000000000000e+03 5.682586669921875000e+01 5.458668470382690430e-01 -3.899345874786376953e+00 1.089739277958869934e-01 -1.137111663818359375e+00 -4.011905491352081299e-01
1.210000000000000000e+03 5.874407196044921875e+01 4.858315922319889069e-03 -1.480639934539794922e+00 2.433935403823852539e+00 2.859886288642883301e-01 -1.340796947479248047e+00
1.211000000000000000e+03 5.961020660400390625e+01 -9.982684254646301270e-01 1.572554588317871094e+00 4.370434284210205078e+00 1.782896757125854492e+00 -2.599201679229736328e+00
1.212000000000000000e+03 5.282959747314453125e+01 -2.260909318923950195e+00 1.135115623474121094e+00 8.843685150146484375e+00 2.993640184402465820e+00 2.358542680740356445e+00
1.213000000000000000e+03 5.057656860351562500e+01 -2.847730255126953125e+01 1.152211427688598633e+00 4.755525112152099609e+00 1.772320985794067383e+00 -9.133474230766296387e-01
1.214000000000000000e+03 5.064518356323242188e+01 -2.700938606262207031e+01 -1.145863085985183716e-01 3.161297798156738281e+00 9.140134453773498535e-01 -1.882497429847717285e+00
1.215000000000000000e+03 1.909189796447753906e+01 -1.475355267524719238e+00 1.601566433906555176e+00 1.784492969512939453e+00 1.015817880630493164e+00 1.620210289955139160e+00
1.216000000000000000e+03 1.756496810913085938e+01 5.678392481058835983e-03 1.524569272994995117e+00 3.396998405456542969e+00 1.476470351219177246e+00 1.983735322952270508e+00
1.217000000000000000e+03 3.964023971557617188e+01 4.844242095947265625e+00 1.661122202873229980e+00 1.288501930236816406e+01 4.363842487335205078e+00 2.119240283966064453e+00
1.218000000000000000e+03 4.106020736694335938e+01 5.231048107147216797e+00 1.880530357360839844e+00 8.100143432617187500e+00 2.994202136993408203e+00 5.703131556510925293e-01
1.219000000000000000e+03 2.154763412475585938e+01 1.376390457153320312e-01 -1.274838566780090332e+00 4.602090716361999512e-01 -2.443888485431671143e-01 8.160384893417358398e-01
1.220000000000000000e+03 2.124263381958007812e+01 4.905484676361083984e+00 5.656668543815612793e-01 3.646405935287475586e+00 1.263621807098388672e+00 1.990606307983398438e+00
1.221000000000000000e+03 2.733791923522949219e+01 -3.001272773742675781e+01 -1.995494216680526733e-01 6.825672149658203125e+00 1.987836837768554688e+00 -3.223634958267211914e-01
1.222000000000000000e+03 2.503191566467285156e+01 -3.212580490112304688e+01 9.859547019004821777e-01 9.960289001464843750e+00 3.283873081207275391e+00 -1.338132977485656738e+00
1.223000000000000000e+03 7.096136093139648438e+00 -3.662523651123046875e+01 1.483893394470214844e-01 3.942452907562255859e+00 1.227252721786499023e+00 9.267593026161193848e-01
1.224000000000000000e+03 6.587447357177734375e+01 -3.168968582153320312e+01 9.103025197982788086e-01 1.152640342712402344e+01 3.731011629104614258e+00 -1.742867350578308105e+00
1.225000000000000000e+03 6.908539581298828125e+01 -2.791447830200195312e+01 1.064356565475463867e+00 1.763450384140014648e+00 8.483420610427856445e-01 -7.472936511039733887e-01
1.226000000000000000e+03 7.824614715576171875e+01 -2.626066780090332031e+01 -9.228872507810592651e-02 7.426278591156005859e+00 2.200196981430053711e+00 -4.293508827686309814e-01
1.227000000000000000e+03 7.942889404296875000e+01 -2.368800163269042969e+01 5.925700068473815918e-02 6.274967193603515625e+00 1.900267362594604492e+00 -8.344481885433197021e-02
1.228000000000000000e+03 7.929355621337890625e+01 -3.332344436645507812e+01 5.604291334748268127e-02 7.394686222076416016e+00 2.235218763351440430e+00 -4.754064604640007019e-03
1.229000000000000000e+03 4.781890487670898438e+01 -9.162083625793457031e+00 1.153416275978088379e+00 1.330704498291015625e+01 4.338138580322265625e+00 5.925863981246948242e-01
1.230000000000000000e+03 3.892874526977539062e+01 -1.167187786102294922e+01 1.940523624420166016e+00 4.173863410949707031e+00 1.834316134452819824e+00 -3.495317220687866211e+00
1.231000000000000000e+03 6.897920227050781250e+01 7.340858936309814453e+00 -2.968537062406539917e-02 1.063778281211853027e+00 3.102278709411621094e-01 8.682098984718322754e-01
1.232000000000000000e+03 4.974301910400390625e+01 1.873091888427734375e+01 -3.093623161315917969e+00 2.151472866535186768e-01 -8.635427355766296387e-01 1.796287298202514648e-01
1.233000000000000000e+03 3.331728363037109375e+01 1.719320487976074219e+01 2.535989284515380859e+00 5.897646427154541016e+00 2.530090808868408203e+00 1.312028318643569946e-01
1.234000000000000000e+03 3.183172416687011719e+01 1.798091125488281250e+01 1.700646519660949707e+00 1.264021778106689453e+01 4.302259445190429688e+00 2.107996225357055664e+00
1.235000000000000000e+03 6.598254394531250000e+01 3.190880203247070312e+01 3.858038485050201416e-01 5.742707729339599609e+00 1.838553428649902344e+00 6.147978901863098145e-01
1.236000000000000000e+03 4.641630172729492188e+01 3.048591995239257812e+01 9.144867658615112305e-01 6.674679756164550781e+00 2.276749849319458008e+00 -8.035222291946411133e-01
1.237000000000000000e+03 1.100050544738769531e+01 1.968707847595214844e+01 -8.284310102462768555e-01 1.896303534507751465e+00 3.203617632389068604e-01 4.854866266250610352e-01
1.238000000000000000e+03 2.237201881408691406e+01 2.294034385681152344e+01 3.177774548530578613e-01 1.425717639923095703e+01 4.372486114501953125e+00 1.570346593856811523e+00
1.239000000000000000e+03 1.969313621520996094e+00 1.645282554626464844e+01 -5.271899700164794922e-02 2.627937078475952148e+00 7.725654244422912598e-01 -9.976081848144531250e-01
1.240000000000000000e+03 8.933835029602050781e+00 1.458438873291015625e+01 9.289739727973937988e-01 7.717571735382080078e+00 2.593963623046875000e+00 1.252465099096298218e-01
1.241000000000000000e+03 2.089540100097656250e+01 1.967065429687500000e+01 7.259187102317810059e-01 8.541847229003906250e+00 2.780329942703247070e+00 4.027458727359771729e-01
1.242000000000000000e+03 1.671259522438049316e+00 9.441149711608886719e+00 1.064692661166191101e-01 4.515051543712615967e-01 1.673923283815383911e-01 -1.473544538021087646e-01
1.243000000000000000e+03 3.572956848144531250e+01 -1.011301803588867188e+01 2.592130661010742188e+00 4.907390117645263672e+00 2.249856233596801758e+00 -1.005573868751525879e+00
1.244000000000000000e+03 3.920216751098632812e+01 8.839185714721679688e+00 5.100796222686767578e-01 8.219252586364746094e+00 2.618799686431884766e+00 -1.573349237442016602e+00
1.245000000000000000e+03 4.212017059326171875e+01 1.272998714447021484e+01 1.231995224952697754e+00 7.679555892944335938e+00 2.673465251922607422e+00 4.825577437877655029e-01
1.246000000000000000e+03 5.087566375732421875e+01 -1.498266506195068359e+01 -1.292039155960083008e+00 8.315197825431823730e-01 -1.381558179855346680e-01 -6.840703487396240234e-01
1.247000000000000000e+03 1.823381423950195312e+00 -2.660288810729980469e+01 -2.024415284395217896e-01 5.271703243255615234e+00 1.520778536796569824e+00 -4.550524353981018066e-01
1.248000000000000000e+03 1.411845386028289795e-01 -2.004983901977539062e+00 1.281779841519892216e-03 -2.421744018793106079e-01 -7.226778566837310791e-02 -1.673646457493305206e-02
1.249000000000000000e+03 9.147828221321105957e-01 -1.612425208091735840e+00 -6.630635820329189301e-03 -1.041817814111709595e-01 -3.324372321367263794e-02 -1.206390708684921265e-01
1.250000000000000000e+03 2.506886243820190430e+00 -1.629062652587890625e+00 1.164878811687231064e-02 -4.156784620136022568e-03 2.247601049020886421e-03 -1.610855311155319214e-01
1.251000000000000000e+03 2.881379365921020508e+00 -1.681929707527160645e+00 4.313568398356437683e-02 1.955077052116394043e-02 1.880593597888946533e-02 -1.372203677892684937e-01
1.252000000000000000e+03 2.024908065795898438e+00 -4.165981292724609375e+01 -1.101585477590560913e-01 4.923402309417724609e+00 1.443973183631896973e+00 3.074166364967823029e-02
1.253000000000000000e+03 1.311022639274597168e+00 -4.014006042480468750e+01 3.122816979885101318e-02 4.882967948913574219e+00 1.474258780479431152e+00 9.266332536935806274e-02
1.254000000000000000e+03 2.520093202590942383e+00 -3.816200637817382812e+01 1.972098462283611298e-02 4.634028434753417969e+00 1.396124839782714844e+00 2.920913100242614746e-01
1.255000000000000000e+03 7.175237536430358887e-01 -3.618080902099609375e+01 -2.189812622964382172e-02 4.502448558807373047e+00 1.344165205955505371e+00 3.982029110193252563e-02
1.256000000000000000e+03 6.914995908737182617e-01 -3.484079360961914062e+01 5.078513547778129578e-02 4.439579010009765625e+00 1.347109198570251465e+00 2.662131190299987793e-02
1.257000000000000000e+03 2.173058509826660156e+00 -3.586636352539062500e+01 9.144587069749832153e-02 4.448987483978271484e+00 1.362129926681518555e+00 1.606507748365402222e-01
1.258000000000000000e+03 6.551301479339599609e-01 -3.349290466308593750e+01 -7.794929202646017075e-03 4.431069374084472656e+00 1.326982378959655762e+00 -2.701866626739501953e-02
1.259000000000000000e+03 5.930811166763305664e-01 -2.943180656433105469e+01 5.498816817998886108e-02 5.181621551513671875e+00 1.570982933044433594e+00 -1.966525763273239136e-01
1.260000000000000000e+03 5.964702367782592773e-01 -2.807956886291503906e+01 -5.117376893758773804e-02 5.659852504730224609e+00 1.682603597640991211e+00 -2.143536955118179321e-01
1.261000000000000000e+03 1.799402713775634766e+00 -2.794825363159179688e+01 -1.259838975965976715e-02 4.995257854461669922e+00 1.494797825813293457e+00 -5.574836730957031250e-01
1.262000000000000000e+03 6.011690497398376465e-01 -2.672351455688476562e+01 -1.310843945248052478e-04 6.093753814697265625e+00 1.828086853027343750e+00 -1.518168002367019653e-01
1.263000000000000000e+03 5.710393786430358887e-01 -2.263526153564453125e+01 -5.698690563440322876e-02 5.381608486175537109e+00 1.597386479377746582e+00 5.315335988998413086e-01
1.264000000000000000e+03 5.951750278472900391e-01 -2.127592658996582031e+01 -1.275655180215835571e-01 3.926799058914184570e+00 1.139770030975341797e+00 7.454770803451538086e-01
1.265000000000000000e+03 6.046332120895385742e-01 -1.992029380798339844e+01 1.449665129184722900e-01 2.259951114654541016e+00 7.214753031730651855e-01 7.469119429588317871e-01
1.266000000000000000e+03 2.727939367294311523e+00 -2.259054565429687500e+01 -1.432697892189025879e+00 5.555380821228027344e+00 1.236804842948913574e+00 1.268209099769592285e+00
1.267000000000000000e+03 5.910189151763916016e-01 -1.584608745574951172e+01 1.431298553943634033e-01 5.763700231909751892e-02 6.023005768656730652e-02 -2.028577178716659546e-01
1.268000000000000000e+03 6.258245706558227539e-01 -1.447824573516845703e+01 -1.402740627527236938e-01 5.121212601661682129e-01 1.115541607141494751e-01 -2.048437148332595825e-01
1.269000000000000000e+03 5.844626903533935547e+00 -1.435015678405761719e+01 8.671193718910217285e-01 5.932921409606933594e+00 2.040012121200561523e+00 2.113131046295166016e+00
1.270000000000000000e+03 6.121880412101745605e-01 -1.310930252075195312e+01 7.669056951999664307e-02 8.702287077903747559e-01 2.840757668018341064e-01 -1.340941190719604492e-01
1.271000000000000000e+03 5.145217776298522949e-01 -9.053412437438964844e+00 -6.059743836522102356e-02 7.758005261421203613e-01 2.145609259605407715e-01 1.285261809825897217e-01
1.272000000000000000e+03 5.510904192924499512e-01 -7.704758644104003906e+00 2.602069638669490814e-02 3.859349191188812256e-01 1.235866844654083252e-01 1.643523722887039185e-01
1.273000000000000000e+03 1.804743409156799316e+00 -6.565422058105468750e+00 9.391247481107711792e-02 6.261789202690124512e-01 2.160274088382720947e-01 4.829657971858978271e-01
1.274000000000000000e+03 7.163610076904296875e+01 -4.130997085571289062e+01 -7.422708272933959961e-01 6.319344520568847656e+00 1.673122167587280273e+00 -2.140004783868789673e-01
1.275000000000000000e+03 5.245844650268554688e+01 -4.118584442138671875e+01 -2.830914497375488281e+00 6.740614891052246094e+00 1.172910094261169434e+00 1.077704131603240967e-01
1.276000000000000000e+03 3.244872665405273438e+01 -4.134748840332031250e+01 -1.176731944084167480e+00 5.143879890441894531e+00 1.190144419670104980e+00 7.480508834123611450e-02
1.277000000000000000e+03 1.259043788909912109e+01 -3.804322433471679688e+01 -1.334225535392761230e+00 3.117401599884033203e+00 5.349528193473815918e-01 5.231814980506896973e-01
1.278000000000000000e+03 7.871688079833984375e+01 4.013046264648437500e+01 -3.565483540296554565e-02 7.365246295928955078e+00 2.198877334594726562e+00 -2.762802690267562866e-02
1.279000000000000000e+03 7.909160614013671875e+01 3.879452133178710938e+01 -5.659195594489574432e-03 7.390101432800292969e+00 2.215332746505737305e+00 7.936394773423671722e-03
1.280000000000000000e+03 7.754867553710937500e+01 3.819910049438476562e+01 -5.257369205355644226e-02 7.123894214630126953e+00 2.121396064758300781e+00 6.730092316865921021e-02
1.281000000000000000e+03 7.928739929199218750e+01 3.474288177490234375e+01 1.922086812555789948e-02 7.271607875823974609e+00 2.187248468399047852e+00 3.373013064265251160e-02
1.282000000000000000e+03 7.622937011718750000e+01 3.442224121093750000e+01 4.832758009433746338e-02 6.686235904693603516e+00 2.020369052886962891e+00 1.927535384893417358e-01
1.283000000000000000e+03 7.929180908203125000e+01 3.336460876464843750e+01 -1.917498558759689331e-02 7.217999458312988281e+00 2.159647226333618164e+00 2.918656915426254272e-02
1.284000000000000000e+03 7.934376525878906250e+01 3.060352706909179688e+01 -1.068292651325464249e-02 7.170354843139648438e+00 2.147901535034179688e+00 -6.300474982708692551e-03
1.285000000000000000e+03 7.813710021972656250e+01 2.913309288024902344e+01 3.369998186826705933e-02 6.996905803680419922e+00 2.109181642532348633e+00 -9.342370182275772095e-02
1.286000000000000000e+03 7.938587188720703125e+01 2.647170257568359375e+01 2.685589343309402466e-02 7.487969875335693359e+00 2.254447698593139648e+00 -6.552559137344360352e-02
1.287000000000000000e+03 7.693618774414062500e+01 2.655218315124511719e+01 8.031176775693893433e-02 6.848241329193115234e+00 2.078565835952758789e+00 -2.840675413608551025e-01
1.288000000000000000e+03 7.937014770507812500e+01 2.509090042114257812e+01 -2.431538514792919159e-02 7.655113220214843750e+00 2.289239406585693359e+00 -6.850668042898178101e-02
1.289000000000000000e+03 7.932907867431640625e+01 2.088128852844238281e+01 -4.578349366784095764e-02 7.672972202301025391e+00 2.288156509399414062e+00 1.164455190300941467e-01
1.290000000000000000e+03 7.934294128417968750e+01 1.947257423400878906e+01 -2.551947534084320068e-02 7.378444671630859375e+00 2.205877542495727539e+00 1.917918175458908081e-01
1.291000000000000000e+03 7.798245239257812500e+01 2.084541702270507812e+01 -1.993539184331893921e-01 7.441210746765136719e+00 2.172557115554809570e+00 2.316187322139739990e-01
1.292000000000000000e+03 7.936741638183593750e+01 1.806912422180175781e+01 -3.245674818754196167e-02 6.926073551177978516e+00 2.068085193634033203e+00 2.554469406604766846e-01
1.293000000000000000e+03 7.942902374267578125e+01 1.391969203948974609e+01 6.234375387430191040e-02 5.438955307006835938e+00 1.650389671325683594e+00 1.322559565305709839e-01
1.294000000000000000e+03 7.835195922851562500e+01 1.255149745941162109e+01 2.943098247051239014e-01 6.227666378021240234e+00 1.956592798233032227e+00 4.944552711094729602e-05
1.295000000000000000e+03 7.944596099853515625e+01 1.117704677581787109e+01 7.667575776576995850e-02 5.485438346862792969e+00 1.668634295463562012e+00 -1.526565700769424438e-01
1.296000000000000000e+03 7.935650634765625000e+01 6.994858264923095703e+00 7.287751883268356323e-03 7.480368614196777344e+00 2.246296882629394531e+00 -3.592041730880737305e-01
1.297000000000000000e+03 7.936088562011718750e+01 5.591985225677490234e+00 -1.603361405432224274e-02 8.238009452819824219e+00 2.466592550277709961e+00 -3.485169708728790283e-01
1.298000000000000000e+03 7.809169006347656250e+01 5.631874084472656250e+00 -7.353717833757400513e-02 7.899614810943603516e+00 2.347823381423950195e+00 -8.444230556488037109e-01
1.299000000000000000e+03 7.936495208740234375e+01 4.199700832366943359e+00 -2.105167694389820099e-02 8.948755264282226562e+00 2.678311109542846680e+00 -3.070772886276245117e-01
1.300000000000000000e+03 7.934616088867187500e+01 1.535406708717346191e-02 -2.093508653342723846e-02 1.001092433929443359e+01 2.996996879577636719e+00 8.588834665715694427e-03
1.301000000000000000e+03 7.935214996337890625e+01 -1.385401248931884766e+00 -1.626237183809280396e-01 9.798608779907226562e+00 2.890795469284057617e+00 2.083029896020889282e-01
1.302000000000000000e+03 7.936298370361328125e+01 -2.786060333251953125e+00 3.166745230555534363e-02 9.217208862304687500e+00 2.774662971496582031e+00 3.506634533405303955e-01
1.303000000000000000e+03 7.937003326416015625e+01 -4.188059806823730469e+00 -4.053669795393943787e-02 8.458800315856933594e+00 2.525479078292846680e+00 3.606837391853332520e-01
1.304000000000000000e+03 7.810711669921875000e+01 -5.600885391235351562e+00 3.839609622955322266e-01 9.150270462036132812e+00 2.860269308090209961e+00 4.422664344310760498e-01
1.305000000000000000e+03 7.499737548828125000e+01 -9.483097076416015625e+00 1.309933543205261230e+00 1.218066787719726562e+01 4.047180652618408203e+00 1.984866857528686523e+00
1.306000000000000000e+03 7.933912658691406250e+01 -8.399106025695800781e+00 1.144157024100422859e-03 7.927121162414550781e+00 2.378479719161987305e+00 -3.338068723678588867e-01
1.307000000000000000e+03 7.940989685058593750e+01 -1.114079475402832031e+01 -2.130526751279830933e-01 9.850028991699218750e+00 2.891092777252197266e+00 -4.109519720077514648e-01
1.308000000000000000e+03 7.934789276123046875e+01 -1.529537391662597656e+01 -1.726623624563217163e-01 1.023073101043701172e+01 3.017420768737792969e+00 2.428585141897201538e-01
1.309000000000000000e+03 7.384831237792968750e+01 -1.640690994262695312e+01 -7.390133142471313477e-01 5.550045490264892578e+00 1.443309664726257324e+00 2.703801095485687256e-01
1.310000000000000000e+03 7.939331817626953125e+01 -1.810922431945800781e+01 -5.412128195166587830e-02 8.588259696960449219e+00 2.560241699218750000e+00 4.426195323467254639e-01
1.311000000000000000e+03 7.445716857910156250e+01 -2.317569732666015625e+01 1.389884114265441895e+00 1.170762348175048828e+01 3.929252386093139648e+00 9.387815594673156738e-01
1.312000000000000000e+03 7.819307708740234375e+01 -2.234552192687988281e+01 3.495307564735412598e-01 7.394686222076416016e+00 2.323265075683593750e+00 2.577924430370330811e-01
1.313000000000000000e+03 7.943772888183593750e+01 -2.504769515991210938e+01 3.295460343360900879e-02 6.630460262298583984e+00 1.999024510383605957e+00 -2.001400142908096313e-01
1.314000000000000000e+03 7.719790649414062500e+01 -2.667418289184570312e+01 -3.014821112155914307e-01 7.698217868804931641e+00 2.219020843505859375e+00 -3.141262233257293701e-01
1.315000000000000000e+03 7.935285186767578125e+01 -2.913468933105468750e+01 -4.818331822752952576e-02 7.512515544891357422e+00 2.239299774169921875e+00 -2.326196990907192230e-02
1.316000000000000000e+03 7.793749237060546875e+01 -3.169292640686035156e+01 5.984472483396530151e-02 7.177656173706054688e+00 2.171250343322753906e+00 8.113262802362442017e-02
1.317000000000000000e+03 7.931239318847656250e+01 -3.193486022949218750e+01 -2.473541535437107086e-02 7.432075500488281250e+00 2.222202062606811523e+00 3.867308422923088074e-02
1.318000000000000000e+03 7.926554870605468750e+01 -3.603745651245117188e+01 5.795635655522346497e-02 7.401533126831054688e+00 2.237846851348876953e+00 -2.662853524088859558e-02
1.319000000000000000e+03 7.913053894042968750e+01 -3.737108230590820312e+01 -2.499951422214508057e-02 7.452406883239746094e+00 2.228222131729125977e+00 -3.418594971299171448e-02
1.320000000000000000e+03 7.890895080566406250e+01 -3.870881271362304688e+01 2.896288782358169556e-02 7.514927387237548828e+00 2.263167142868041992e+00 -5.210002884268760681e-02
1.321000000000000000e+03 7.855575561523437500e+01 -4.009518432617187500e+01 -4.079965874552726746e-02 7.551905155181884766e+00 2.253331661224365234e+00 -2.782117016613483429e-02
1.322000000000000000e+03 2.758983039855957031e+01 4.101501846313476562e+01 -1.019296884536743164e+00 4.278288364410400391e+00 9.776973724365234375e-01 2.004523761570453644e-02
1.323000000000000000e+03 4.716338348388671875e+01 3.876239395141601562e+01 -1.361614227294921875e+00 4.426904678344726562e+00 9.195870757102966309e-01 -5.817009806632995605e-01
1.324000000000000000e+03 4.691492557525634766e+00 1.663896441459655762e+00 2.731423079967498779e-01 3.133111000061035156e-01 1.759360134601593018e-01 -2.537346482276916504e-01
1.325000000000000000e+03 1.634356141090393066e+00 6.743956565856933594e+00 3.344763815402984619e-02 1.554056853055953979e-01 5.665599554777145386e-02 -2.151563018560409546e-02
1.326000000000000000e+03 5.588661432266235352e-01 9.336476325988769531e+00 1.978098973631858826e-02 -6.707833409309387207e-01 -1.953007131814956665e-01 -6.131776049733161926e-02
1.327000000000000000e+03 6.170803904533386230e-01 1.215284824371337891e+01 4.070749506354331970e-02 -1.030949130654335022e-01 -1.871622726321220398e-02 -1.962168067693710327e-01
1.328000000000000000e+03 1.850844740867614746e+00 1.223722076416015625e+01 1.981593519449234009e-01 1.138463020324707031e+00 4.009867012500762939e-01 -5.664271116256713867e-01
1.329000000000000000e+03 6.548431515693664551e-01 1.638678169250488281e+01 3.538147732615470886e-02 1.924994349479675293e+00 5.881127715110778809e-01 -3.686643838882446289e-01
1.330000000000000000e+03 6.533616185188293457e-01 1.780042076110839844e+01 -7.820918411016464233e-02 2.679665803909301758e+00 7.804369926452636719e-01 -3.318426311016082764e-01
1.331000000000000000e+03 6.517546772956848145e-01 2.204611015319824219e+01 1.260215323418378830e-02 3.759839057922363281e+00 1.131732344627380371e+00 5.748310312628746033e-02
1.332000000000000000e+03 2.919514656066894531e+00 2.408926582336425781e+01 -2.126633375883102417e-01 4.959233760833740234e+00 1.423971056938171387e+00 2.623760998249053955e-01
1.333000000000000000e+03 3.564279317855834961e+00 2.499477386474609375e+01 3.077646251767873764e-03 5.679479598999023438e+00 1.704767227172851562e+00 2.906671166419982910e-01
1.334000000000000000e+03 1.685129284858703613e+00 2.501260948181152344e+01 1.323099434375762939e-01 4.116324901580810547e+00 1.274590492248535156e+00 4.220324754714965820e-01
1.335000000000000000e+03 1.578757405281066895e+00 2.763489151000976562e+01 2.969320118427276611e-01 3.943075656890869141e+00 1.272002339363098145e+00 -2.477463632822036743e-01
1.336000000000000000e+03 1.998352766036987305e+00 3.018747138977050781e+01 8.762159943580627441e-02 5.046805381774902344e+00 1.540328025817871094e+00 -1.093561410903930664e+00
1.337000000000000000e+03 6.377508640289306641e-01 3.039793968200683594e+01 -4.377320036292076111e-02 4.081395149230957031e+00 1.211286544799804688e+00 -4.164493978023529053e-01
1.338000000000000000e+03 4.407409191131591797e+00 2.943167304992675781e+01 8.067085146903991699e-01 7.301118373870849609e+00 2.432348012924194336e+00 -1.211735606193542480e+00
1.339000000000000000e+03 6.805828809738159180e-01 3.603191757202148438e+01 -1.313027143478393555e-01 6.954474925994873047e+00 2.046951770782470703e+00 -1.081264838576316833e-01
1.340000000000000000e+03 2.118581056594848633e+00 3.719149780273437500e+01 -2.594279050827026367e-01 6.317486763000488281e+00 1.817417621612548828e+00 -9.030294418334960938e-02
1.341000000000000000e+03 8.510685563087463379e-01 3.880480957031250000e+01 1.391817932017147541e-03 6.766462802886962891e+00 2.030356407165527344e+00 1.069118827581405640e-01
1.342000000000000000e+03 1.176717758178710938e+00 4.016169357299804688e+01 -2.014488279819488525e-01 6.420608520507812500e+00 1.865747928619384766e+00 2.964317798614501953e-01
1.343000000000000000e+03 3.123171329498291016e+00 1.619257092475891113e+00 -1.648777909576892853e-02 1.002559363842010498e-01 2.513044700026512146e-02 1.506446748971939087e-01
1.344000000000000000e+03 2.290162563323974609e+00 1.637232065200805664e+00 -5.849902331829071045e-02 1.378869079053401947e-02 -1.341309957206249237e-02 2.344532310962677002e-01
1.345000000000000000e+03 1.913445711135864258e+00 1.640154719352722168e+00 -6.002691760659217834e-02 -2.878173254430294037e-02 -2.664259634912014008e-02 2.462637722492218018e-01
1.346000000000000000e+03 1.317154169082641602e+00 1.661508440971374512e+00 -2.870925515890121460e-02 -1.283611059188842773e-01 -4.712110757827758789e-02 2.271868288516998291e-01
1.347000000000000000e+03 9.319410920143127441e-01 1.625028133392333984e+00 -2.144625037908554077e-02 -1.578162610530853271e-01 -5.377875268459320068e-02 1.699898988008499146e-01
1.348000000000000000e+03 5.698561668395996094e-01 1.678231596946716309e+00 -7.821113802492618561e-03 -2.094450592994689941e-01 -6.517985463142395020e-02 1.055815145373344421e-01
1.349000000000000000e+03 3.871938288211822510e-01 1.697697401046752930e+00 -2.683032862842082977e-02 -1.805282086133956909e-01 -6.220756098628044128e-02 9.613507986068725586e-02
1.350000000000000000e+03 1.153717041015625000e+01 -7.254841327667236328e-01 7.172065734863281250e+00 1.156938171386718750e+01 5.622434139251708984e+00 -3.404394149780273438e+00
1.351000000000000000e+03 1.168685245513916016e+01 -3.080736100673675537e-01 8.692470550537109375e+00 1.033430290222167969e+01 5.708032131195068359e+00 -2.449590682983398438e+00
1.352000000000000000e+03 1.162076473236083984e+01 3.486305177211761475e-01 9.278683662414550781e+00 1.021551036834716797e+01 5.848258018493652344e+00 -2.202578037977218628e-01
1.353000000000000000e+03 1.140506458282470703e+01 9.434450864791870117e-01 6.754488945007324219e+00 1.158672142028808594e+01 5.502363204956054688e+00 9.331694245338439941e-01
1.354000000000000000e+03 1.092462253570556641e+01 1.433740854263305664e+00 3.725881576538085938e+00 1.369338512420654297e+01 5.225780010223388672e+00 -1.976816058158874512e-01
1.355000000000000000e+03 1.052729988098144531e+01 1.572294712066650391e+00 2.344151258468627930e+00 1.391775703430175781e+01 4.878572463989257812e+00 -2.121424436569213867e+00
1.356000000000000000e+03 1.073092842102050781e+01 1.520224332809448242e+00 2.928168058395385742e+00 1.398055744171142578e+01 5.072617530822753906e+00 -1.009884119033813477e+00
1.357000000000000000e+03 5.509589004516601562e+01 -2.326791572570800781e+01 2.035687685012817383e+00 1.035488224029541016e+01 3.717170953750610352e+00 3.338260650634765625e+00
1.358000000000000000e+03 7.347270202636718750e+01 -1.800660896301269531e+01 2.922647595405578613e-01 6.568490505218505859e+00 2.058226585388183594e+00 -9.917266368865966797e-01
1.359000000000000000e+03 6.512480926513671875e+01 -2.308641433715820312e+01 3.052398681640625000e+00 1.131222057342529297e+01 4.309385776519775391e+00 -4.456686973571777344e+00
1.360000000000000000e+03 5.237994003295898438e+01 -7.455667495727539062e+00 1.753131628036499023e+00 7.674576282501220703e+00 2.828312397003173828e+00 -1.406139373779296875e+00
1.361000000000000000e+03 3.980281829833984375e+01 -1.257206153869628906e+01 2.387605011463165283e-01 3.477159261703491211e+00 1.114775896072387695e+00 -1.815572261810302734e+00
1.362000000000000000e+03 3.696188735961914062e+01 -1.035089015960693359e+01 2.867306470870971680e+00 7.404726982116699219e+00 3.081609964370727539e+00 -2.709182977676391602e+00
1.363000000000000000e+03 3.708141326904296875e+01 -7.863154888153076172e+00 9.717589020729064941e-01 9.505367279052734375e+00 3.143137693405151367e+00 1.237280294299125671e-01
1.364000000000000000e+03 3.965118408203125000e+01 -2.904666662216186523e+00 -1.071357727050781250e+00 2.711787462234497070e+00 4.921288788318634033e-01 2.061318397521972656e+00
1.365000000000000000e+03 6.433193969726562500e+01 -3.968721771240234375e+01 -1.455296158790588379e+00 1.881364107131958008e+00 1.278204023838043213e-01 7.254645228385925293e-01
1.366000000000000000e+03 5.626598358154296875e+01 -3.179165267944335938e+01 1.227351307868957520e+00 1.158278942108154297e+01 3.843042373657226562e+00 2.309991836547851562e+00
1.367000000000000000e+03 1.645870590209960938e+01 -1.600988006591796875e+01 1.061930894851684570e+00 1.069320774078369141e+01 3.526541709899902344e+00 -1.384321093559265137e+00
1.368000000000000000e+03 1.372927570343017578e+01 -2.817916488647460938e+01 7.833400368690490723e-01 4.761743068695068359e+00 1.663524985313415527e+00 2.272572278976440430e+00
1.369000000000000000e+03 7.644730567932128906e+00 -1.395041179656982422e+01 2.157054901123046875e+00 3.672086238861083984e+00 1.748742341995239258e+00 2.535761356353759766e+00
1.370000000000000000e+03 5.468789291381835938e+01 8.982593536376953125e+00 1.410086274147033691e+00 1.265623855590820312e+01 4.219897747039794922e+00 2.366913795471191406e+00
1.371000000000000000e+03 4.213697052001953125e+01 6.866656303405761719e+00 9.120196700096130371e-01 7.357600212097167969e+00 2.480885982513427734e+00 5.694648027420043945e-01
1.372000000000000000e+03 1.836772155761718750e+01 1.890490150451660156e+01 -1.432941794395446777e+00 1.601411223411560059e+00 5.054084584116935730e-02 2.812972068786621094e-01
1.373000000000000000e+03 1.666653251647949219e+01 6.787088394165039062e+00 -1.022950291633605957e+00 1.046893119812011719e+00 7.182857953011989594e-03 1.551373958587646484e+00
1.374000000000000000e+03 1.007295417785644531e+01 1.560103702545166016e+01 1.063916087150573730e+00 6.592350959777832031e+00 2.296880006790161133e+00 1.596300005912780762e+00
1.375000000000000000e+03 3.898788452148437500e+01 -1.862630462646484375e+01 1.925855994224548340e+00 6.484856605529785156e+00 2.523213863372802734e+00 -2.983545303344726562e+00
1.376000000000000000e+03 3.969597244262695312e+01 -2.106677246093750000e+01 1.183105826377868652e+00 8.613213539123535156e+00 2.938895940780639648e+00 -1.356837868690490723e+00
1.377000000000000000e+03 3.607956695556640625e+01 -2.831083488464355469e+01 -4.249858379364013672e+00 9.674779325723648071e-02 -1.245933175086975098e+00 -5.276811718940734863e-01
1.378000000000000000e+03 2.427837753295898438e+01 -3.006207847595214844e+01 1.002624750137329102e+00 7.686657428741455078e+00 2.606784582138061523e+00 -2.071854591369628906e+00
1.379000000000000000e+03 2.498941612243652344e+01 -3.631047058105468750e+01 2.868430018424987793e-01 8.449036598205566406e+00 2.620764017105102539e+00 5.014199614524841309e-01
1.380000000000000000e+03 1.264308166503906250e+01 -3.386107635498046875e+01 5.648252964019775391e-01 6.688038825988769531e+00 2.175859212875366211e+00 8.251047730445861816e-01
1.381000000000000000e+03 1.288620758056640625e+01 -3.244757843017578125e+01 1.004425525665283203e+00 7.546184062957763672e+00 2.565182924270629883e+00 1.902233839035034180e+00
1.382000000000000000e+03 1.594995689392089844e+01 -2.753148269653320312e+01 9.557340741157531738e-01 3.650271892547607422e+00 1.381801843643188477e+00 2.414254903793334961e+00
1.383000000000000000e+03 3.214976501464843750e+01 8.618261814117431641e-01 -2.871075153350830078e+00 2.818382501602172852e+00 -1.580773293972015381e-02 -9.260388612747192383e-01
1.384000000000000000e+03 2.987157821655273438e+01 -6.106310844421386719e+00 5.562016367912292480e-01 9.141016006469726562e+00 2.909165382385253906e+00 -8.820888996124267578e-01
1.385000000000000000e+03 2.958642387390136719e+01 -9.582070350646972656e+00 2.200340986251831055e+00 9.765152931213378906e+00 3.589648008346557617e+00 3.085575103759765625e+00
1.386000000000000000e+03 2.633123207092285156e+01 -1.371370601654052734e+01 -2.591860771179199219e+00 1.838532567024230957e+00 -2.259984612464904785e-01 5.944079160690307617e-01
1.387000000000000000e+03 2.368753814697265625e+01 -1.377758216857910156e+01 -5.820159912109375000e+00 -5.965871810913085938e-01 -1.925024151802062988e+00 -8.098423480987548828e-01
1.388000000000000000e+03 1.696365356445312500e+01 -5.880088329315185547e+00 4.497427046298980713e-01 1.053473281860351562e+01 3.295342683792114258e+00 -1.900039166212081909e-01
1.389000000000000000e+03 1.739161109924316406e+01 -3.779522895812988281e+00 7.536498904228210449e-01 6.487872600555419922e+00 2.172456741333007812e+00 1.042381286621093750e+00
1.390000000000000000e+03 2.019924354553222656e+01 -4.440697431564331055e-01 3.621422350406646729e-01 1.270584583282470703e+00 4.898180365562438965e-01 1.266300916671752930e+00
1.391000000000000000e+03 1.251388549804687500e+01 3.512707138061523438e+01 -1.757923483848571777e+00 1.811079382896423340e-01 -4.730446636676788330e-01 6.733228266239166260e-02
1.392000000000000000e+03 1.398111343383789062e+01 3.484820175170898438e+01 -1.650650739669799805e+00 -8.513053506612777710e-02 -5.207343697547912598e-01 -1.344588994979858398e-01
1.393000000000000000e+03 1.510541248321533203e+01 3.415261840820312500e+01 -8.941105604171752930e-01 1.621497571468353271e-01 -2.195882350206375122e-01 3.121631965041160583e-02
1.394000000000000000e+03 1.994141769409179688e+01 3.189390182495117188e+01 8.117305040359497070e-01 7.613762855529785156e+00 2.527647972106933594e+00 -1.119556427001953125e+00
1.395000000000000000e+03 2.299134254455566406e+01 2.547089385986328125e+01 4.998807013034820557e-01 8.783056259155273438e+00 2.784881114959716797e+00 1.753491282463073730e+00
1.396000000000000000e+03 1.436381721496582031e+01 2.187130737304687500e+01 -8.332675099372863770e-01 -1.074445098638534546e-01 -2.822135984897613525e-01 8.755555152893066406e-01
1.397000000000000000e+03 1.302338981628417969e+01 2.273289871215820312e+01 -1.724333286285400391e+00 3.082035109400749207e-02 -5.080538988113403320e-01 3.655652999877929688e-01
1.398000000000000000e+03 5.877135753631591797e+00 2.648721885681152344e+01 1.778989315032958984e+00 1.095818519592285156e+01 3.821152210235595703e+00 -2.403219938278198242e+00
1.399000000000000000e+03 7.115483856201171875e+01 1.647558784484863281e+01 1.420507788658142090e+00 7.458434104919433594e+00 2.663682699203491211e+00 -2.584871053695678711e+00
1.400000000000000000e+03 7.282614135742187500e+01 1.147794437408447266e+01 1.515888929367065430e+00 1.216334247589111328e+01 4.103769302368164062e+00 7.090456485748291016e-01
1.401000000000000000e+03 6.436038208007812500e+01 6.381059646606445312e+00 -1.994670748710632324e+00 1.197581648826599121e+00 -2.391267418861389160e-01 -6.686300635337829590e-01
1.402000000000000000e+03 6.078087615966796875e+01 1.476889801025390625e+01 6.842456459999084473e-01 1.190341281890869141e+01 3.776297569274902344e+00 1.402716755867004395e+00
1.403000000000000000e+03 6.203365325927734375e+01 1.862476348876953125e+01 3.143674135208129883e+00 8.204586982727050781e+00 3.404478311538696289e+00 4.487117767333984375e+00
1.404000000000000000e+03 3.217963027954101562e+01 1.684877395629882812e+01 3.335970640182495117e+00 9.321222305297851562e+00 3.797158002853393555e+00 2.199628114700317383e+00
1.405000000000000000e+03 2.845516204833984375e+01 1.491055297851562500e+01 -4.593616485595703125e+00 8.019284605979919434e-01 -1.137506365776062012e+00 1.402967691421508789e+00
1.406000000000000000e+03 2.248871040344238281e+01 1.885982322692871094e+01 2.252261936664581299e-01 1.210673046112060547e+01 3.699586868286132812e+00 -2.146402120590209961e+00
1.407000000000000000e+03 2.168947219848632812e+01 2.734302330017089844e+01 9.347483515739440918e-02 8.821009635925292969e+00 2.674345254898071289e+00 -3.755957782268524170e-01
1.408000000000000000e+03 4.792259597778320312e+01 3.023785781860351562e+01 9.663107395172119141e-01 6.945573329925537109e+00 2.373565196990966797e+00 4.792392849922180176e-01
1.409000000000000000e+03 4.608703613281250000e+01 2.625942802429199219e+01 1.113054752349853516e+00 1.202696609497070312e+01 3.942006349563598633e+00 1.662088513374328613e+00
1.410000000000000000e+03 4.345285034179687500e+01 2.240798187255859375e+01 9.773960709571838379e-01 2.445528268814086914e+00 1.026877284049987793e+00 2.208483934402465820e+00
1.411000000000000000e+03 3.582917785644531250e+01 2.530836486816406250e+01 1.558748722076416016e+00 8.446752548217773438e+00 3.001650333404541016e+00 -2.568960428237915039e+00
1.412000000000000000e+03 6.568773651123046875e+01 2.757345199584960938e+01 1.941550493240356445e+00 5.301094055175781250e+00 2.172793388366699219e+00 1.323152661323547363e+00
1.413000000000000000e+03 5.973408126831054688e+01 2.352752876281738281e+01 -3.141932010650634766e+00 6.371962428092956543e-01 -7.514207363128662109e-01 3.494576513767242432e-01
1.414000000000000000e+03 5.500599288940429688e+01 3.391900253295898438e+01 1.434148788452148438e+00 4.935908794403076172e+00 1.911017179489135742e+00 2.623034000396728516e+00
1.415000000000000000e+03 7.938711547851562500e+01 -9.780359268188476562e+00 1.501068919897079468e-01 8.774242401123046875e+00 2.677304744720458984e+00 -4.843824803829193115e-01
1.416000000000000000e+03 6.537782287597656250e+01 -8.344537734985351562e+00 1.716429591178894043e+00 1.076645565032958984e+01 3.744865655899047852e+00 -2.061670303344726562e+00
1.417000000000000000e+03 6.391388702392578125e+01 -5.650484085083007812e+00 1.945988178253173828e+00 9.954977035522460938e+00 3.570289611816406250e+00 5.353213846683502197e-02
1.418000000000000000e+03 3.948307800292968750e+01 7.528992176055908203e+00 8.273423314094543457e-01 1.170000839233398438e+01 3.758205175399780273e+00 -9.450593590736389160e-01
1.419000000000000000e+03 2.997647857666015625e+01 4.652498722076416016e+00 1.855238080024719238e+00 6.104980945587158203e+00 2.388065814971923828e+00 -2.736444711685180664e+00
1.420000000000000000e+03 3.111518859863281250e+01 1.182443714141845703e+01 1.464599251747131348e+00 4.860820770263671875e+00 1.897626042366027832e+00 3.797911167144775391e+00
1.421000000000000000e+03 4.712380599975585938e+01 -3.696068191528320312e+01 -6.018059253692626953e-01 1.586945295333862305e+00 2.955418229103088379e-01 3.159945905208587646e-01
1.422000000000000000e+03 4.088186264038085938e+01 -2.886280632019042969e+01 -3.743143677711486816e-01 4.815911293029785156e+00 1.332479119300842285e+00 1.936232209205627441e+00
1.423000000000000000e+03 6.042699432373046875e+01 -2.130902767181396484e+00 2.261997222900390625e+00 8.379258155822753906e+00 3.192376613616943359e+00 -3.682486057281494141e+00
1.424000000000000000e+03 5.444139480590820312e+01 -8.973926544189453125e+00 1.314758181571960449e+00 2.534671068191528320e+00 1.154828786849975586e+00 -2.026397943496704102e+00
1.425000000000000000e+03 5.248992156982421875e+01 -4.881103515625000000e+00 7.922515273094177246e-01 1.246078872680664062e+01 3.975912094116210938e+00 2.389193177223205566e-01
1.426000000000000000e+03 5.260202407836914062e+01 -9.829270839691162109e-01 6.252976655960083008e-01 6.852819919586181641e+00 2.243435144424438477e+00 1.445217013359069824e+00
1.427000000000000000e+03 1.177922439575195312e+01 -1.090076923370361328e+00 5.546189785003662109e+00 1.085593414306640625e+01 4.920637130737304688e+00 -3.229334115982055664e+00
1.428000000000000000e+03 1.075588703155517578e+01 -1.524510622024536133e+00 2.259934902191162109e+00 1.379704475402832031e+01 4.817093849182128906e+00 -1.073887825012207031e+00
1.429000000000000000e+03 1.150134658813476562e+01 7.301874756813049316e-01 7.811889171600341797e+00 1.106079101562500000e+01 5.661803722381591797e+00 7.765588164329528809e-01
1.430000000000000000e+03 1.129824447631835938e+01 -1.097004771232604980e+00 5.055710792541503906e+00 1.286365890502929688e+01 5.375810623168945312e+00 -3.300770282745361328e+00
1.431000000000000000e+03 1.116396236419677734e+01 -1.287826299667358398e+00 3.855987548828125000e+00 1.320985126495361328e+01 5.119751930236816406e+00 -2.729620933532714844e+00
1.432000000000000000e+03 1.162905120849609375e+01 -5.224649906158447266e-01 8.143134117126464844e+00 1.078810214996337891e+01 5.679370880126953125e+00 -3.007618427276611328e+00
1.433000000000000000e+03 1.142618751525878906e+01 -9.167209863662719727e-01 6.091632843017578125e+00 1.228371715545654297e+01 5.512605190277099609e+00 -3.499521017074584961e+00
1.434000000000000000e+03 1.170834064483642578e+01 -7.959259301424026489e-02 8.970124244689941406e+00 9.954138755798339844e+00 5.677278995513916016e+00 -1.666334867477416992e+00
1.435000000000000000e+03 1.169694232940673828e+01 1.532717794179916382e-01 9.240039825439453125e+00 9.935584068298339844e+00 5.752687454223632812e+00 -8.897721767425537109e-01
1.436000000000000000e+03 9.726136207580566406e+00 -1.670711159706115723e+00 2.009806871414184570e+00 9.674483299255371094e+00 3.505287170410156250e+00 3.612643003463745117e+00
1.437000000000000000e+03 1.013232898712158203e+01 -1.633675217628479004e+00 1.455497384071350098e+00 1.249456501007080078e+01 4.185018539428710938e+00 2.264447689056396484e+00
1.438000000000000000e+03 1.040395450592041016e+01 -1.876088619232177734e+00 1.301180601119995117e+00 1.220266532897949219e+01 4.051153659820556641e+00 1.103595137596130371e+00
1.439000000000000000e+03 1.154355907440185547e+01 5.225086212158203125e-01 8.972815513610839844e+00 1.060794258117675781e+01 5.874227523803710938e+00 3.664050102233886719e-01
1.440000000000000000e+03 1.089028549194335938e+01 -1.938192605972290039e+00 1.691698193550109863e+00 1.226152992248535156e+01 4.185968399047851562e+00 -7.901585698127746582e-01
1.441000000000000000e+03 3.794493079185485840e-01 -1.751372337341308594e+00 8.578394539654254913e-03 -1.742641776800155640e-01 -4.970573633909225464e-02 -7.620658725500106812e-02
1.442000000000000000e+03 6.340476274490356445e-01 -2.100126981735229492e+00 3.831228613853454590e-02 -1.561638712882995605e-01 -3.535547479987144470e-02 -1.021914184093475342e-01
1.443000000000000000e+03 5.542285442352294922e-01 -1.640005111694335938e+00 -6.171542685478925705e-03 -1.154846176505088806e-01 -3.649684786796569824e-02 -9.033502638339996338e-02
1.444000000000000000e+03 4.730139672756195068e-01 -2.626052379608154297e+00 -1.441445108503103256e-02 -2.916338741779327393e-01 -9.181450307369232178e-02 -5.003561452031135559e-02
1.445000000000000000e+03 5.691994428634643555e-01 -4.921557426452636719e+00 3.937023878097534180e-02 -2.216856181621551514e-01 -5.469461530447006226e-02 9.622284024953842163e-02
1.446000000000000000e+03 1.101210951805114746e+00 -1.595420718193054199e+00 -1.717097312211990356e-02 -8.418656885623931885e-02 -3.040726296603679657e-02 -1.318598538637161255e-01
1.447000000000000000e+03 1.549108743667602539e+00 -2.125862598419189453e+00 8.755765855312347412e-03 -5.933994799852371216e-02 -1.517525501549243927e-02 -1.563825160264968872e-01
1.448000000000000000e+03 1.914900422096252441e+00 -1.741993546485900879e+00 1.325521618127822876e-02 -1.866016164422035217e-02 -1.621483475901186466e-03 -1.782316118478775024e-01
1.449000000000000000e+03 2.134877681732177734e+00 -1.701261878013610840e+00 1.353080943226814270e-02 7.661765441298484802e-03 6.357772275805473328e-03 -1.614291667938232422e-01
1.450000000000000000e+03 2.684969425201416016e+00 -1.636503934860229492e+00 3.682405129075050354e-02 2.790270932018756866e-02 1.941802911460399628e-02 -1.589760184288024902e-01
1.451000000000000000e+03 6.054326891899108887e-01 -6.327500343322753906e+00 -2.575857331976294518e-03 2.945579588413238525e-02 8.063981309533119202e-03 1.385283023118972778e-01
1.452000000000000000e+03 3.454681396484375000e+00 -1.929067015647888184e+00 1.833833903074264526e-01 3.601562604308128357e-02 6.581970304250717163e-02 -9.382228553295135498e-02
1.453000000000000000e+03 3.107578754425048828e+00 -1.710398793220520020e+00 6.141238287091255188e-02 3.282221779227256775e-02 2.827038057148456573e-02 -1.340922415256500244e-01
1.454000000000000000e+03 1.536990880966186523e+00 -9.154958724975585938e+00 -5.602998659014701843e-02 1.227324962615966797e+00 3.513884842395782471e-01 4.060514271259307861e-01
1.455000000000000000e+03 3.520842075347900391e+00 -1.676740407943725586e+00 9.807771444320678711e-02 4.016850888729095459e-02 4.147386923432350159e-02 -1.164274439215660095e-01
1.456000000000000000e+03 3.320457458496093750e+00 -1.684290885925292969e+00 8.485381305217742920e-02 4.174063727259635925e-02 3.797833621501922607e-02 -1.120151057839393616e-01
1.457000000000000000e+03 4.105057239532470703e+00 -1.637882590293884277e+00 1.808700710535049438e-01 5.218575522303581238e-02 6.991674751043319702e-02 -4.339180141687393188e-02
1.458000000000000000e+03 3.728752374649047852e+00 -1.681005954742431641e+00 1.310276538133621216e-01 5.945941433310508728e-02 5.714612081646919250e-02 -8.093949407339096069e-02
1.459000000000000000e+03 4.347751617431640625e+00 -1.892660140991210938e+00 3.354064524173736572e-01 1.112902462482452393e-01 1.340090185403823853e-01 2.283700928092002869e-02
1.460000000000000000e+03 4.693305492401123047e+00 -1.636793375015258789e+00 2.986045181751251221e-01 6.721464544534683228e-02 1.097457483410835266e-01 -9.339371463283896446e-04
1.461000000000000000e+03 4.888774394989013672e+00 -1.660885810852050781e+00 3.750558197498321533e-01 8.677113801240921021e-02 1.385480761528015137e-01 5.290784686803817749e-02
1.462000000000000000e+03 5.098557472229003906e+00 -1.693160891532897949e+00 4.421161413192749023e-01 9.906345605850219727e-02 1.623538732528686523e-01 7.866424322128295898e-02
1.463000000000000000e+03 5.306359291076660156e+00 -1.670500636100769043e+00 4.896958768367767334e-01 1.111302450299263000e-01 1.802478432655334473e-01 1.296494454145431519e-01
1.464000000000000000e+03 5.495371341705322266e+00 -1.647575736045837402e+00 5.422240495681762695e-01 1.050144433975219727e-01 1.941715329885482788e-01 1.344474554061889648e-01
1.465000000000000000e+03 5.697338581085205078e+00 -1.682143926620483398e+00 6.417925953865051270e-01 1.361050456762313843e-01 2.333692908287048340e-01 2.136386185884475708e-01
1.466000000000000000e+03 6.312651634216308594e+00 -1.637949347496032715e+00 9.261463284492492676e-01 2.009156644344329834e-01 3.381186127662658691e-01 3.536071777343750000e-01
1.467000000000000000e+03 6.508976459503173828e+00 -1.640621900558471680e+00 1.032067656517028809e+00 2.574848234653472900e-01 3.868657350540161133e-01 4.275056421756744385e-01
1.468000000000000000e+03 6.905430793762207031e+00 -1.633604168891906738e+00 1.337643384933471680e+00 3.710282444953918457e-01 5.126014947891235352e-01 6.311814188957214355e-01
1.469000000000000000e+03 6.706646919250488281e+00 -1.642469048500061035e+00 1.149654269218444824e+00 2.670169770717620850e-01 4.250013530254364014e-01 4.866259396076202393e-01
1.470000000000000000e+03 7.499358654022216797e+00 -1.617072343826293945e+00 1.829357147216796875e+00 6.740751862525939941e-01 7.510297298431396484e-01 1.048930525779724121e+00
1.471000000000000000e+03 7.696747303009033203e+00 -1.606601238250732422e+00 2.050266265869140625e+00 8.635030984878540039e-01 8.741308450698852539e-01 1.296700000762939453e+00
1.472000000000000000e+03 7.876892089843750000e+00 -1.606367588043212891e+00 2.189993858337402344e+00 1.064326167106628418e+00 9.762960076332092285e-01 1.460202455520629883e+00
1.473000000000000000e+03 8.954625129699707031e+00 -1.895467281341552734e+00 2.706641912460327148e+00 4.778563976287841797e+00 2.245561838150024414e+00 3.335643291473388672e+00
1.474000000000000000e+03 9.919292449951171875e+00 1.654247760772705078e+00 2.258953571319580078e+00 1.213383007049560547e+01 4.317835330963134766e+00 -4.972745895385742188e+00
1.475000000000000000e+03 9.308190345764160156e+00 1.677786707878112793e+00 3.261688232421875000e+00 7.883370876312255859e+00 3.343517780303955078e+00 -5.934021472930908203e+00
1.476000000000000000e+03 9.513913154602050781e+00 1.674456357955932617e+00 2.866280317306518555e+00 9.402419090270996094e+00 3.680609703063964844e+00 -5.925046920776367188e+00
1.477000000000000000e+03 8.692166328430175781e+00 1.656771063804626465e+00 3.552061796188354492e+00 4.392962455749511719e+00 2.383507251739501953e+00 -4.961457252502441406e+00
1.478000000000000000e+03 8.496239662170410156e+00 1.636588454246520996e+00 3.579844951629638672e+00 3.531706571578979492e+00 2.133465528488159180e+00 -4.511538028717041016e+00
1.479000000000000000e+03 8.302978515625000000e+00 1.623033285140991211e+00 3.389115333557128906e+00 2.818433523178100586e+00 1.862264633178710938e+00 -4.012078762054443359e+00
1.480000000000000000e+03 8.108267784118652344e+00 1.628812789916992188e+00 3.190286874771118164e+00 2.406681060791015625e+00 1.679090380668640137e+00 -3.628035783767700195e+00
1.481000000000000000e+03 7.908644676208496094e+00 1.663192152976989746e+00 2.846536874771118164e+00 2.096053123474121094e+00 1.482776999473571777e+00 -3.240645170211791992e+00
1.482000000000000000e+03 7.698672771453857422e+00 1.669743418693542480e+00 2.628053903579711914e+00 1.796523571014404297e+00 1.327373266220092773e+00 -2.872056961059570312e+00
1.483000000000000000e+03 7.266831398010253906e+00 1.821679592132568359e+00 2.043776750564575195e+00 1.427479743957519531e+00 1.041376948356628418e+00 -2.308261394500732422e+00
1.484000000000000000e+03 7.294222354888916016e+00 1.611335396766662598e+00 2.102540493011474609e+00 1.224930405616760254e+00 9.982412457466125488e-01 -2.158294677734375000e+00
1.485000000000000000e+03 6.922706127166748047e+00 1.801940202713012695e+00 1.744121074676513672e+00 1.108872771263122559e+00 8.558981418609619141e-01 -1.898123383522033691e+00
1.486000000000000000e+03 6.751828193664550781e+00 1.847379326820373535e+00 1.570768237113952637e+00 1.102347970008850098e+00 8.019348382949829102e-01 -1.751872420310974121e+00
1.487000000000000000e+03 6.576814174652099609e+00 1.925096988677978516e+00 1.409800291061401367e+00 1.066576600074768066e+00 7.429130673408508301e-01 -1.601146221160888672e+00
1.488000000000000000e+03 6.381470203399658203e+00 2.010710716247558594e+00 1.282659769058227539e+00 1.015731692314147949e+00 6.895174384117126465e-01 -1.474402904510498047e+00
1.489000000000000000e+03 6.318383216857910156e+00 1.671083688735961914e+00 1.143941640853881836e+00 6.889114975929260254e-01 5.498559474945068359e-01 -1.154378890991210938e+00
1.490000000000000000e+03 6.114377975463867188e+00 1.691645145416259766e+00 1.008775711059570312e+00 6.256720423698425293e-01 4.903343319892883301e-01 -1.009853005409240723e+00
1.491000000000000000e+03 5.293555736541748047e+00 1.677120208740234375e+00 5.315293073654174805e-01 4.195170402526855469e-01 2.853139042854309082e-01 -5.148774981498718262e-01
1.492000000000000000e+03 4.680917263031005859e+00 1.989237904548645020e+00 4.062927961349487305e-01 4.418494105339050293e-01 2.544426620006561279e-01 -3.368092775344848633e-01
1.493000000000000000e+03 4.284487247467041016e+00 1.673746109008789062e+00 1.479287743568420410e-01 2.460110783576965332e-01 1.181819587945938110e-01 -1.100013852119445801e-01
1.494000000000000000e+03 3.889991998672485352e+00 1.631528973579406738e+00 7.489392161369323730e-02 1.985114961862564087e-01 8.202162384986877441e-02 9.726767428219318390e-03
1.495000000000000000e+03 2.723248243331909180e+00 1.724354505538940430e+00 -3.257955983281135559e-02 7.160735130310058594e-02 1.170833781361579895e-02 2.135710865259170532e-01
1.496000000000000000e+03 2.602392673492431641e+00 2.365374326705932617e+00 8.854214102029800415e-02 1.343642920255661011e-01 6.687192618846893311e-02 1.726474165916442871e-01
1.497000000000000000e+03 2.495828151702880859e+00 1.707796931266784668e+00 -2.869842015206813812e-02 4.692208766937255859e-02 5.467100068926811218e-03 2.275937944650650024e-01
1.498000000000000000e+03 2.105646371841430664e+00 1.634860038757324219e+00 -5.355698615312576294e-02 -7.630960084497928619e-03 -1.835638470947742462e-02 2.474574446678161621e-01
1.499000000000000000e+03 1.720732569694519043e+00 1.657048344612121582e+00 -3.997750207781791687e-02 -5.595576018095016479e-02 -2.877997793257236481e-02 2.509559690952301025e-01
1.500000000000000000e+03 1.520564079284667969e+00 1.663888573646545410e+00 -4.157399758696556091e-02 -7.926576584577560425e-02 -3.625192865729331970e-02 2.441705316305160522e-01
1.501000000000000000e+03 7.539581060409545898e-01 1.651224255561828613e+00 -2.367378026247024536e-02 -1.715195477008819580e-01 -5.855799838900566101e-02 1.641282886266708374e-01
1.502000000000000000e+03 2.332938015460968018e-01 1.768455505371093750e+00 -2.049706317484378815e-02 -2.569409310817718506e-01 -8.323139697313308716e-02 3.650201484560966492e-02
1.503000000000000000e+03 1.033252525329589844e+01 -1.605427861213684082e+00 1.451835513114929199e+00 1.325829410552978516e+01 4.413038730621337891e+00 1.262347936630249023e+00
1.504000000000000000e+03 3.987172317504882812e+01 -2.356137466430664062e+01 1.071397542953491211e+00 1.135440635681152344e+01 3.727741241455078125e+00 1.649421811103820801e+00
1.505000000000000000e+03 4.869325637817382812e+01 -3.032172966003417969e+01 3.886594057083129883e+00 7.706735610961914062e+00 3.477998733520507812e+00 -4.317475795745849609e+00
1.506000000000000000e+03 4.811304092407226562e+01 -2.610502433776855469e+01 -1.082574248313903809e+00 4.892470836639404297e+00 1.142969012260437012e+00 -3.321714878082275391e+00
1.507000000000000000e+03 4.731722259521484375e+01 2.622483062744140625e+01 2.410449981689453125e+00 8.396953582763671875e+00 3.242221117019653320e+00 1.929598689079284668e+00
1.508000000000000000e+03 4.757491683959960938e+01 2.886229324340820312e+01 1.426475286483764648e+00 7.375712871551513672e+00 2.640656471252441406e+00 6.236669421195983887e-01
1.509000000000000000e+03 1.861269378662109375e+01 -2.651515579223632812e+01 -5.121705532073974609e+00 -1.931510865688323975e-01 -1.594457030296325684e+00 -3.228031843900680542e-02
1.510000000000000000e+03 2.967481231689453125e+01 2.697838783264160156e+01 6.149423122406005859e-01 1.697584152221679688e+00 6.937579512596130371e-01 -1.041114687919616699e+00
1.511000000000000000e+03 3.205838775634765625e+01 3.185859298706054688e+01 1.254193931818008423e-01 5.748182773590087891e+00 1.762080550193786621e+00 -1.394102692604064941e+00
1.512000000000000000e+03 4.658869171142578125e+01 -1.220425891876220703e+01 1.160820603370666504e+00 6.217263698577880859e+00 2.213425397872924805e+00 3.635490894317626953e+00
1.513000000000000000e+03 5.102442932128906250e+01 -9.504350662231445312e+00 1.619561314582824707e+00 6.366120338439941406e+00 2.395704507827758789e+00 -3.714441657066345215e-01
1.514000000000000000e+03 3.281431961059570312e+01 1.582326793670654297e+01 1.355775952339172363e+00 5.343770980834960938e+00 2.009864091873168945e+00 3.542973697185516357e-01
1.515000000000000000e+03 3.114521980285644531e+01 1.625368881225585938e+01 3.503030300140380859e+00 9.196770668029785156e+00 3.809940099716186523e+00 4.379924774169921875e+00
1.516000000000000000e+03 6.071918869018554688e+01 3.585849380493164062e+01 -1.737220883369445801e+00 9.362874031066894531e-01 -2.402800470590591431e-01 -1.148631125688552856e-01
1.517000000000000000e+03 6.186782073974609375e+01 3.478776550292968750e+01 -8.459036946296691895e-01 1.084613442420959473e+00 7.161291688680648804e-02 -6.675905585289001465e-01
1.518000000000000000e+03 4.932856369018554688e+01 -3.545506668090820312e+01 8.994937539100646973e-01 7.462706565856933594e+00 2.508660078048706055e+00 1.861887335777282715e+00
1.519000000000000000e+03 4.265818023681640625e+01 -4.104067993164062500e+01 -7.261062264442443848e-01 7.311750650405883789e-01 1.520650694146752357e-03 -2.263897508382797241e-01
1.520000000000000000e+03 3.679503631591796875e+01 -4.114456939697265625e+01 -1.318372964859008789e+00 4.010920524597167969e+00 8.077642321586608887e-01 3.164904657751321793e-03
1.521000000000000000e+03 5.335836029052734375e+01 -3.597982406616210938e+01 8.214006423950195312e-01 7.405231952667236328e+00 2.467989683151245117e+00 1.891222298145294189e-01
1.522000000000000000e+03 4.959452819824218750e+01 -2.983369636535644531e+01 2.363701105117797852e+00 6.526800155639648438e+00 2.667150259017944336e+00 -2.143915414810180664e+00
1.523000000000000000e+03 4.764182662963867188e+01 -7.967445850372314453e+00 1.251847028732299805e+00 1.091174316406250000e+01 3.649076938629150391e+00 -1.539467215538024902e+00
1.524000000000000000e+03 5.807897567749023438e+01 4.110410690307617188e+01 -3.337727189064025879e-01 2.298361778259277344e+00 5.893766880035400391e-01 3.081601858139038086e-01
1.525000000000000000e+03 5.894000244140625000e+01 3.617458724975585938e+01 -1.858228802680969238e+00 3.748241066932678223e-01 -4.450213909149169922e-01 3.698130548000335693e-01
1.526000000000000000e+03 2.457087707519531250e+01 3.057623100280761719e+01 8.833484053611755371e-01 2.656025171279907227e+00 1.061812043190002441e+00 1.296548962593078613e+00
1.527000000000000000e+03 1.984210968017578125e+01 2.914707183837890625e+01 4.097612202167510986e-01 1.327114486694335938e+01 4.104271888732910156e+00 -8.328804969787597656e-01
1.528000000000000000e+03 5.729964828491210938e+01 3.579426574707031250e+01 -8.884837031364440918e-01 1.112825393676757812e+00 6.730251759290695190e-02 9.682090878486633301e-01
1.529000000000000000e+03 1.513254928588867188e+01 -2.397056770324707031e+01 -2.003814458847045898e+00 4.751344680786132812e+00 8.242591023445129395e-01 2.484795093536376953e+00
1.530000000000000000e+03 1.845062828063964844e+01 -2.555046463012695312e+01 -2.354763507843017578e+00 5.477325320243835449e-01 -5.421093106269836426e-01 1.111935019493103027e+00
1.531000000000000000e+03 4.374737930297851562e+01 -2.766117286682128906e+01 -6.464693546295166016e+00 -6.238925457000732422e-01 -2.126575708389282227e+00 1.487375646829605103e-01
1.532000000000000000e+03 4.351346969604492188e+01 -3.883731842041015625e+00 -1.587046980857849121e+00 4.751343131065368652e-01 -3.335737884044647217e-01 -1.902731806039810181e-01
1.533000000000000000e+03 4.249299621582031250e+01 -2.185401678085327148e+00 -7.908604741096496582e-01 1.009532332420349121e+00 6.560155004262924194e-02 -7.303670644760131836e-01
1.534000000000000000e+03 3.568255233764648438e+01 -4.099888324737548828e+00 1.053166985511779785e+00 4.627352237701416016e+00 1.704155683517456055e+00 8.519735336303710938e-01
1.535000000000000000e+03 3.822556686401367188e+01 -4.991515636444091797e+00 2.444075822830200195e+00 4.610922813415527344e+00 2.116499662399291992e+00 2.979595422744750977e+00
1.536000000000000000e+03 3.592755889892578125e+01 -9.007753372192382812e+00 3.220958471298217773e+00 5.774879932403564453e+00 2.698751449584960938e+00 -1.180778741836547852e+00
1.537000000000000000e+03 3.715275955200195312e+01 -9.049051284790039062e+00 2.007283926010131836e+00 1.000417518615722656e+01 3.603437900543212891e+00 -2.454216718673706055e+00
1.538000000000000000e+03 2.130755233764648438e+01 1.600520896911621094e+01 -2.923418998718261719e+00 9.493853569030761719e+00 1.971130371093750000e+00 1.471751570701599121e+00
1.539000000000000000e+03 3.195090675354003906e+01 2.293218803405761719e+01 5.044350028038024902e-01 1.142858314514160156e+01 3.579905271530151367e+00 -7.144269943237304688e-01
1.540000000000000000e+03 3.381713867187500000e+01 2.325349807739257812e+01 3.281515538692474365e-01 8.805441856384277344e+00 2.740078210830688477e+00 -2.096866071224212646e-01
1.541000000000000000e+03 4.256268692016601562e+01 -2.773687744140625000e+01 -5.073115348815917969e+00 1.370088309049606323e-01 -1.480831980705261230e+00 -3.840520977973937988e-01
1.542000000000000000e+03 2.139497947692871094e+01 3.151905441284179688e+01 6.738491654396057129e-01 6.719501495361328125e+00 2.218005180358886719e+00 8.293227553367614746e-01
1.543000000000000000e+03 3.179724311828613281e+01 1.374562168121337891e+01 -2.097278356552124023e+00 5.498918533325195312e+00 1.020492076873779297e+00 2.893173694610595703e+00
1.544000000000000000e+03 2.908859252929687500e+01 1.217578125000000000e+01 7.733837962150573730e-01 4.153971195220947266e+00 1.478206515312194824e+00 2.409424543380737305e+00
1.545000000000000000e+03 3.697549438476562500e+01 1.669489669799804688e+01 2.144755363464355469e+00 2.580528259277343750e+00 1.417585134506225586e+00 -2.108961105346679688e+00
1.546000000000000000e+03 2.215295600891113281e+01 2.014892768859863281e+01 1.131518721580505371e+00 1.603536987304687500e+01 5.150066852569580078e+00 -1.676870584487915039e+00
1.547000000000000000e+03 1.986129379272460938e+01 1.904945564270019531e+01 -1.267493605613708496e+00 5.702432632446289062e+00 1.330481648445129395e+00 6.396332979202270508e-01
1.548000000000000000e+03 3.641421127319335938e+01 -1.250844860076904297e+01 -1.299394607543945312e+00 4.450012683868408203e+00 9.451854825019836426e-01 -2.247231721878051758e+00
1.549000000000000000e+03 3.728127670288085938e+01 -4.230958461761474609e+00 3.950070738792419434e-01 5.020703792572021484e+00 1.624713301658630371e+00 1.491734623908996582e+00
1.550000000000000000e+03 3.651550292968750000e+01 -5.027222633361816406e+00 1.809728264808654785e+00 5.105280876159667969e+00 2.074502706527709961e+00 8.183469772338867188e-01
1.551000000000000000e+03 4.444667434692382812e+01 -1.455421447753906250e+01 -2.893458366394042969e+00 2.396924257278442383e+00 -1.489602625370025635e-01 2.059344291687011719e+00
1.552000000000000000e+03 4.405008316040039062e+01 -1.347692108154296875e+01 -5.707836627960205078e+00 3.767171800136566162e-01 -1.599335908889770508e+00 -1.541682630777359009e-01
1.553000000000000000e+03 3.046765327453613281e+01 2.785687446594238281e+01 5.584860444068908691e-01 3.753728628158569336e+00 1.293664455413818359e+00 -1.460439324378967285e+00
1.554000000000000000e+03 3.742054367065429688e+01 2.310030937194824219e+01 -1.281476020812988281e-01 1.762863516807556152e+00 4.904147684574127197e-01 -8.990188241004943848e-01
1.555000000000000000e+03 3.134974479675292969e+01 2.686835670471191406e+01 3.846782445907592773e-01 6.261245727539062500e+00 1.993777275085449219e+00 -1.264121294021606445e+00
1.556000000000000000e+03 4.728205108642578125e+01 -1.419305419921875000e+01 -3.040905475616455078e+00 6.781040191650390625e+00 1.122040390968322754e+00 2.938207864761352539e+00
1.557000000000000000e+03 3.203136825561523438e+01 -2.723706626892089844e+01 -6.397274136543273926e-01 1.101613640785217285e+00 1.385658830404281616e-01 -3.312622383236885071e-02
1.558000000000000000e+03 2.666000556945800781e+01 -3.366271209716796875e+01 8.816590309143066406e-01 7.133991241455078125e+00 2.404695034027099609e+00 -9.772164225578308105e-01
1.559000000000000000e+03 2.057873344421386719e+01 1.298021697998046875e+01 6.430258601903915405e-02 1.188267326354980469e+01 3.584092855453491211e+00 -5.326449871063232422e-01
1.560000000000000000e+03 4.584530258178710938e+01 -1.423847770690917969e+01 -3.024581909179687500e+00 5.106603622436523438e+00 6.246065497398376465e-01 2.898595809936523438e+00
1.561000000000000000e+03 2.264520645141601562e+01 2.423944664001464844e+01 5.638902187347412109e-01 1.189650726318359375e+01 3.738119125366210938e+00 1.789450049400329590e+00
1.562000000000000000e+03 2.096277427673339844e+01 2.173759269714355469e+01 1.327429652214050293e+00 1.033451271057128906e+01 3.498582601547241211e+00 -5.331560969352722168e-01
1.563000000000000000e+03 1.933822631835937500e+01 2.435145950317382812e+01 -4.487887620925903320e-01 5.916482448577880859e+00 1.640308141708374023e+00 2.619576752185821533e-01
1.564000000000000000e+03 4.671669769287109375e+01 -6.222602367401123047e+00 1.552706956863403320e+00 5.627465248107910156e+00 2.154051780700683594e+00 -2.375022649765014648e+00
1.565000000000000000e+03 4.466207885742187500e+01 -2.380765438079833984e+00 -4.951678812503814697e-01 2.426917791366577148e+00 5.795249938964843750e-01 -1.875976562500000000e+00
1.566000000000000000e+03 2.130472946166992188e+01 2.833688545227050781e+01 7.159293889999389648e-01 8.454152107238769531e+00 2.751024484634399414e+00 -3.620319068431854248e-01
1.567000000000000000e+03 2.058241271972656250e+01 1.161994266510009766e+01 9.666464924812316895e-01 1.174756240844726562e+01 3.814262628555297852e+00 5.461485385894775391e-01
1.568000000000000000e+03 4.637823867797851562e+01 -4.276664257049560547e+00 8.940292149782180786e-02 4.461020946502685547e+00 1.365127205848693848e+00 -1.868171691894531250e+00
1.569000000000000000e+03 2.129847335815429688e+01 2.303768157958984375e+01 6.625631451606750488e-01 1.127479076385498047e+01 3.581206321716308594e+00 -2.548273801803588867e-01
1.570000000000000000e+03 3.865425872802734375e+01 -3.051103019714355469e+01 1.052928805351257324e+00 7.477674484252929688e+00 2.559180974960327148e+00 2.296309232711791992e+00
1.571000000000000000e+03 3.293993377685546875e+01 2.026143264770507812e+01 1.991002559661865234e-01 9.533533096313476562e+00 2.919790029525756836e+00 -3.899392858147621155e-02
1.572000000000000000e+03 3.182354545593261719e+01 1.919996643066406250e+01 6.872129440307617188e-02 1.138389492034912109e+01 3.435785055160522461e+00 3.338409066200256348e-01
1.573000000000000000e+03 3.185701179504394531e+01 2.171575927734375000e+01 -2.757490612566471100e-02 1.118824195861816406e+01 3.348200321197509766e+00 -1.133990511298179626e-01
1.574000000000000000e+03 3.328878021240234375e+01 2.236774253845214844e+01 4.796650111675262451e-01 8.867089271545410156e+00 2.804026126861572266e+00 -4.973202645778656006e-01
1.575000000000000000e+03 3.301339340209960938e+01 2.136035537719726562e+01 4.416478574275970459e-01 9.638212203979492188e+00 3.023957967758178711e+00 -4.990581274032592773e-01
1.576000000000000000e+03 3.181163024902343750e+01 2.045591354370117188e+01 1.810520142316818237e-01 1.091913509368896484e+01 3.330056190490722656e+00 2.274291403591632843e-02
1.577000000000000000e+03 5.182736206054687500e+01 -1.006625747680664062e+01 1.448953628540039062e+00 5.286984443664550781e+00 2.020781278610229492e+00 -1.087035059928894043e+00
1.578000000000000000e+03 5.175431823730468750e+01 -8.615259170532226562e+00 1.388424515724182129e+00 6.288915157318115234e+00 2.303201913833618164e+00 -3.896994292736053467e-01
1.579000000000000000e+03 4.126020812988281250e+01 -1.728166222572326660e+00 -4.540103077888488770e-01 2.117755413055419922e+00 4.991235733032226562e-01 1.047594666481018066e+00
1.580000000000000000e+03 4.538484573364257812e+01 -3.507032871246337891e+00 -4.318311512470245361e-01 2.701523542404174805e+00 6.809077262878417969e-01 -1.863661170005798340e+00
1.581000000000000000e+03 3.516159820556640625e+01 -1.260831451416015625e+01 -9.178287386894226074e-01 2.049118280410766602e+00 3.393868803977966309e-01 -1.011115908622741699e+00
1.582000000000000000e+03 3.726497650146484375e+01 -1.289220809936523438e+01 -1.667250633239746094e+00 4.880764007568359375e+00 9.640539884567260742e-01 -1.835504889488220215e+00
1.583000000000000000e+03 3.983960342407226562e+01 -3.988084793090820312e+01 -1.470176577568054199e+00 2.636747121810913086e+00 3.499711751937866211e-01 -2.727152109146118164e-01
1.584000000000000000e+03 3.956509399414062500e+01 -3.536443328857421875e+01 6.364912725985050201e-03 4.719256877899169922e+00 1.417686581611633301e+00 -8.860757350921630859e-01
1.585000000000000000e+03 4.953722000122070312e+01 -2.704250717163085938e+01 -1.234660863876342773e+00 3.874671220779418945e+00 7.920030951499938965e-01 -2.782943725585937500e+00
1.586000000000000000e+03 5.828015136718750000e+01 2.029323005676269531e+01 3.502072691917419434e-01 4.031374931335449219e+00 1.314474582672119141e+00 -5.187008902430534363e-02
1.587000000000000000e+03 3.886382675170898438e+01 -2.769534301757812500e+01 -2.279805898666381836e+00 8.717860221862792969e+00 1.931416273117065430e+00 2.320802450180053711e+00
1.588000000000000000e+03 3.694144439697265625e+01 -3.280207443237304688e+01 2.430164337158203125e+00 4.062664031982421875e+00 1.947848558425903320e+00 1.990868210792541504e+00
1.589000000000000000e+03 3.831589126586914062e+01 -3.333679962158203125e+01 2.023814439773559570e+00 8.414656639099121094e+00 3.131541490554809570e+00 1.332813143730163574e+00
1.590000000000000000e+03 5.328681182861328125e+01 -3.285728836059570312e+01 2.817206621170043945e+00 7.283989906311035156e+00 3.030359029769897461e+00 2.627433650195598602e-02
1.591000000000000000e+03 4.752452468872070312e+01 -2.501318168640136719e+01 -6.480386257171630859e-01 5.046193122863769531e+00 1.319446325302124023e+00 -3.049609661102294922e+00
1.592000000000000000e+03 4.787850952148437500e+01 -2.331087303161621094e+01 2.527313470840454102e+00 4.709482192993164062e+00 2.171038627624511719e+00 -3.432173252105712891e+00
1.593000000000000000e+03 6.657498931884765625e+01 2.906342887878417969e+01 1.392907500267028809e+00 5.480083942413330078e+00 2.061897516250610352e+00 8.344871997833251953e-01
1.594000000000000000e+03 3.944542694091796875e+01 -2.543262290954589844e+01 2.594028711318969727e+00 1.207990360260009766e+01 4.402179718017578125e+00 4.455117702484130859e+00
1.595000000000000000e+03 3.954937744140625000e+01 -2.695408821105957031e+01 -1.845693230628967285e+00 9.071618080139160156e+00 2.167777299880981445e+00 2.113156318664550781e+00
1.596000000000000000e+03 3.488795852661132812e+01 -2.852149772644042969e+01 -5.190407752990722656e+00 -4.205207824707031250e-01 -1.683278560638427734e+00 -2.676997482776641846e-01
1.597000000000000000e+03 3.258295440673828125e+01 -3.006507873535156250e+01 -2.057566195726394653e-01 1.637875914573669434e+00 4.296357929706573486e-01 -1.339000940322875977e+00
1.598000000000000000e+03 2.831819725036621094e+01 -2.364573478698730469e+01 1.551574826240539551e+00 1.000417041778564453e+01 3.466723680496215820e+00 -1.236749529838562012e+00
1.599000000000000000e+03 3.829018783569335938e+01 -2.964167404174804688e+01 -8.212183713912963867e-01 6.460107326507568359e+00 1.691666722297668457e+00 1.670768976211547852e+00
1.600000000000000000e+03 3.592567825317382812e+01 -1.521986484527587891e+01 -4.945125579833984375e+00 1.006337404251098633e+00 -1.181636452674865723e+00 -4.276944696903228760e-01
1.601000000000000000e+03 3.697644424438476562e+01 -1.595858669281005859e+01 -7.372367382049560547e-01 3.360901832580566406e+00 7.870995402336120605e-01 -1.345911860466003418e+00
1.602000000000000000e+03 2.751875114440917969e+01 -2.483805847167968750e+01 3.794816136360168457e-01 7.289630413055419922e+00 2.300733566284179688e+00 -2.933477163314819336e-01
1.603000000000000000e+03 2.485760116577148438e+01 -1.493767070770263672e+01 -1.635783433914184570e+00 9.217153191566467285e-01 -2.142204493284225464e-01 5.968964099884033203e-01
1.604000000000000000e+03 4.862448883056640625e+01 -1.547170829772949219e+01 -3.353927850723266602e+00 5.305146217346191406e+00 5.853655934333801270e-01 2.636234998703002930e+00
1.605000000000000000e+03 5.135191345214843750e+01 -1.606997871398925781e+01 -5.425389289855957031e+00 -4.011625796556472778e-02 -1.639651656150817871e+00 -8.874058127403259277e-01
1.606000000000000000e+03 3.517510604858398438e+01 -1.114795970916748047e+01 1.807350158691406250e+00 3.814383745193481445e+00 1.686520218849182129e+00 -8.033916354179382324e-01
1.607000000000000000e+03 3.041499328613281250e+01 -1.237755584716796875e+01 -1.310475587844848633e+00 5.658239841461181641e+00 1.304329276084899902e+00 1.855649113655090332e+00
1.608000000000000000e+03 3.867525482177734375e+01 -2.643237113952636719e+01 2.129251956939697266e+00 7.486557483673095703e+00 2.884742736816406250e+00 3.882175445556640625e+00
1.609000000000000000e+03 3.816250228881835938e+01 -1.261577987670898438e+01 -1.058919548988342285e+00 5.928072452545166016e+00 1.460745930671691895e+00 -2.458882808685302734e+00
1.610000000000000000e+03 2.814263343811035156e+01 -1.634451866149902344e+01 -1.096881031990051270e+00 6.138985157012939453e+00 1.512631177902221680e+00 1.573780179023742676e+00
1.611000000000000000e+03 3.041411972045898438e+01 -1.597536373138427734e+01 -1.181454420089721680e+00 5.671652793884277344e+00 1.347059607505798340e+00 2.024538040161132812e+00
1.612000000000000000e+03 4.370133972167968750e+01 -2.686953163146972656e+01 -1.484644174575805664e+00 -2.756923437118530273e-01 -5.281009674072265625e-01 -8.529765605926513672e-01
1.613000000000000000e+03 3.851648330688476562e+01 -2.859315872192382812e+01 -1.703289747238159180e+00 7.147381782531738281e+00 1.633227586746215820e+00 2.312270402908325195e+00
1.614000000000000000e+03 2.773021888732910156e+01 -2.077659225463867188e+01 2.164486885070800781e+00 8.705616950988769531e+00 3.261031150817871094e+00 7.872930914163589478e-02
1.615000000000000000e+03 3.974782943725585938e+01 -1.435605621337890625e+01 -3.352584838867187500e+00 4.927574634552001953e+00 4.724969565868377686e-01 -2.712310314178466797e+00
1.616000000000000000e+03 2.887756538391113281e+01 -2.104503822326660156e+01 8.175189495086669922e-01 1.257935905456542969e+01 4.019063472747802734e+00 1.163169741630554199e+00
1.617000000000000000e+03 3.939797210693359375e+01 -1.980828666687011719e+01 1.323546528816223145e+00 7.368312835693359375e+00 2.607557773590087891e+00 -2.519161701202392578e+00
1.618000000000000000e+03 4.054005050659179688e+01 -1.851948356628417969e+01 1.409917473793029785e+00 4.704667091369628906e+00 1.834375381469726562e+00 -1.474506378173828125e+00
1.619000000000000000e+03 2.902489662170410156e+01 -1.693577957153320312e+01 -6.714413762092590332e-01 6.930666923522949219e+00 1.877767682075500488e+00 1.540930509567260742e+00
1.620000000000000000e+03 2.847360992431640625e+01 -1.806425666809082031e+01 1.044010043144226074e+00 7.191544055938720703e+00 2.470666170120239258e+00 1.359296679496765137e+00
1.621000000000000000e+03 5.393063354492187500e+01 2.638172531127929688e+01 1.623425364494323730e+00 8.153946876525878906e+00 2.933211565017700195e+00 -2.166115045547485352e+00
1.622000000000000000e+03 5.146283721923828125e+01 2.830668258666992188e+01 1.592592000961303711e+00 7.522648811340332031e+00 2.734572172164916992e+00 7.310674786567687988e-01
1.623000000000000000e+03 4.472625732421875000e+01 -1.783332443237304688e+01 1.060837030410766602e+00 5.229051113128662109e+00 1.886966466903686523e+00 8.575404882431030273e-01
1.624000000000000000e+03 4.727806854248046875e+01 -1.791747093200683594e+01 1.772491097450256348e+00 8.129053115844726562e+00 2.970463275909423828e+00 3.069804191589355469e+00
1.625000000000000000e+03 3.112447357177734375e+01 -2.816461753845214844e+01 -1.578353881835937500e+00 3.150483608245849609e+00 4.716388881206512451e-01 -9.750710129737854004e-01
1.626000000000000000e+03 2.925042152404785156e+01 -2.672325515747070312e+01 -1.369124054908752441e+00 6.823491096496582031e+00 1.636310219764709473e+00 -1.017057538032531738e+00
1.627000000000000000e+03 6.257405090332031250e+01 2.516527748107910156e+01 3.267874956130981445e+00 7.479279518127441406e+00 3.224146366119384766e+00 4.475479125976562500e+00
1.628000000000000000e+03 6.503718566894531250e+01 2.601991462707519531e+01 2.511109352111816406e+00 5.336855888366699219e+00 2.354389429092407227e+00 1.591401696205139160e+00
1.629000000000000000e+03 1.162465667724609375e+01 -1.270419979095458984e+01 -6.540361404418945312e+00 -4.871830046176910400e-01 -2.108263254165649414e+00 1.457952380180358887e+00
1.630000000000000000e+03 9.826197624206542969e+00 -1.130609321594238281e+01 -1.858396291732788086e+00 8.883728384971618652e-01 -2.910070121288299561e-01 2.598232746124267578e+00
1.631000000000000000e+03 1.372449111938476562e+01 6.671950340270996094e+00 -7.435552120208740234e+00 -6.457881331443786621e-01 -2.424401998519897461e+00 1.541842579841613770e+00
1.632000000000000000e+03 5.327152252197265625e+01 8.456286191940307617e-01 -1.682070732116699219e+00 5.909622192382812500e+00 1.268265485763549805e+00 1.777429938316345215e+00
1.633000000000000000e+03 6.229976272583007812e+01 2.117252159118652344e+01 -1.951718926429748535e+00 5.891443729400634766e+00 1.181917428970336914e+00 3.407735347747802734e+00
1.634000000000000000e+03 6.099311447143554688e+01 2.116244888305664062e+01 -1.067911267280578613e+00 5.649420261383056641e+00 1.374452710151672363e+00 2.789980649948120117e+00
1.635000000000000000e+03 1.624553298950195312e+01 -3.969310379028320312e+01 -3.175302028656005859e+00 -1.209451913833618164e+00 -1.315426111221313477e+00 1.166367650032043457e+00
1.636000000000000000e+03 1.431233787536621094e+01 -3.811954498291015625e+01 -7.177582383155822754e-01 8.949960470199584961e-01 5.317133665084838867e-02 -1.564167439937591553e-01
1.637000000000000000e+03 6.097854232788085938e+01 2.387478446960449219e+01 3.247785270214080811e-01 3.337965250015258789e+00 1.098823189735412598e+00 2.515982389450073242e+00
1.638000000000000000e+03 2.452885818481445312e+01 -3.770760345458984375e+01 4.640144705772399902e-01 5.761556148529052734e+00 1.867671251296997070e+00 6.479616165161132812e-01
1.639000000000000000e+03 5.313299942016601562e+01 3.415916442871093750e+01 -9.582133591175079346e-02 6.821758747100830078e+00 2.017781257629394531e+00 6.386193633079528809e-01
1.640000000000000000e+03 4.717576217651367188e+01 3.199497985839843750e+01 -2.247616089880466461e-02 5.642076492309570312e+00 1.685880184173583984e+00 -1.397451907396316528e-01
1.641000000000000000e+03 5.178904342651367188e+01 3.145558357238769531e+01 1.336464643478393555e+00 7.192549705505371094e+00 2.558704137802124023e+00 9.172390699386596680e-01
1.642000000000000000e+03 5.979018020629882812e+01 2.237216567993164062e+01 -1.615795254707336426e+00 2.708456993103027344e+00 3.277984857559204102e-01 2.393022537231445312e+00
1.643000000000000000e+03 6.000581359863281250e+01 7.171639800071716309e-01 -1.783227443695068359e+00 5.521136283874511719e+00 1.121372580528259277e+00 -2.380469560623168945e+00
1.644000000000000000e+03 5.429257202148437500e+01 2.357105064392089844e+01 -8.235166668891906738e-01 5.157377719879150391e+00 1.300158262252807617e+00 -2.154104709625244141e+00
1.645000000000000000e+03 1.662230110168457031e+01 -4.181064605712890625e+01 -2.458595275878906250e+00 -5.871653556823730469e-01 -9.137281775474548340e-01 1.395055651664733887e-01
1.646000000000000000e+03 6.576541900634765625e+01 -1.697855758666992188e+01 -8.900296688079833984e-01 4.027414321899414062e+00 9.412153959274291992e-01 9.313846230506896973e-01
1.647000000000000000e+03 6.387178039550781250e+01 -1.633031463623046875e+01 -1.465407490730285645e+00 6.351465225219726562e+00 1.465817332267761230e+00 2.062776535749435425e-01
1.648000000000000000e+03 2.542101478576660156e+01 -3.080298995971679688e+01 7.991659641265869141e-01 8.426686286926269531e+00 2.767755508422851562e+00 -1.082708716392517090e+00
1.649000000000000000e+03 6.103431701660156250e+01 2.246235275268554688e+01 -2.280161380767822266e+00 4.949591636657714844e+00 8.008291125297546387e-01 3.301503658294677734e+00
1.650000000000000000e+03 5.642531585693359375e+01 3.769250869750976562e+01 -8.760650157928466797e-01 2.769781351089477539e+00 5.681148767471313477e-01 1.460613846778869629e+00
1.651000000000000000e+03 5.394986343383789062e+01 3.504362487792968750e+01 -6.451846361160278320e-01 6.246751785278320312e+00 1.680470108985900879e+00 1.199800610542297363e+00
1.652000000000000000e+03 6.525948333740234375e+01 2.860735511779785156e+01 1.505978822708129883e+00 6.138486862182617188e+00 2.293339729309082031e+00 1.633691668510437012e+00
1.653000000000000000e+03 6.359310150146484375e+01 2.936755371093750000e+01 2.306509763002395630e-02 7.417077064514160156e+00 2.232042551040649414e+00 2.372387647628784180e-01
1.654000000000000000e+03 6.498425292968750000e+01 2.966853904724121094e+01 7.299969792366027832e-01 7.210331439971923828e+00 2.382098436355590820e+00 9.821189045906066895e-01
1.655000000000000000e+03 2.677276420593261719e+01 -3.513437271118164062e+01 5.495736002922058105e-01 6.858630657196044922e+00 2.222461223602294922e+00 -5.483219027519226074e-01
1.656000000000000000e+03 5.596823120117187500e+01 2.309846496582031250e+01 -1.487391352653503418e+00 2.879408836364746094e+00 4.176052510738372803e-01 -1.821763753890991211e+00
1.657000000000000000e+03 1.337863254547119141e+01 -3.111698341369628906e+01 1.875347018241882324e+00 7.437511444091796875e+00 2.793857574462890625e+00 2.969388961791992188e+00
1.658000000000000000e+03 1.082467174530029297e+01 -3.693778991699218750e+01 -2.753954827785491943e-01 4.274688243865966797e+00 1.199787735939025879e+00 1.070550560951232910e+00
1.659000000000000000e+03 2.681876182556152344e+01 -2.572280311584472656e+01 -6.935223340988159180e-01 7.178971290588378906e+00 1.945634722709655762e+00 3.716082870960235596e-02
1.660000000000000000e+03 2.065199279785156250e+01 -4.061325073242187500e+01 -2.859845161437988281e+00 -7.645743340253829956e-02 -8.808907270431518555e-01 -6.201981306076049805e-01
1.661000000000000000e+03 6.184854507446289062e+01 4.027259349822998047e+00 -1.316274523735046387e+00 4.723395347595214844e+00 1.022136211395263672e+00 -2.075877666473388672e+00
1.662000000000000000e+03 6.252039337158203125e+01 -9.710667729377746582e-01 4.147479683160781860e-02 7.135210514068603516e+00 2.153005599975585938e+00 -3.333401083946228027e-01
1.663000000000000000e+03 6.071646118164062500e+01 1.205647850036621094e+01 6.689824461936950684e-01 9.849830627441406250e+00 3.155643939971923828e+00 -9.705035090446472168e-01
1.664000000000000000e+03 5.547760391235351562e+01 1.293270969390869141e+01 1.523153543472290039e+00 9.094885826110839844e+00 3.185411691665649414e+00 -6.475877165794372559e-01
1.665000000000000000e+03 4.981128692626953125e+00 -4.052378463745117188e+01 -2.912684381008148193e-01 4.665558815002441406e+00 1.312287092208862305e+00 3.214222192764282227e-01
1.666000000000000000e+03 5.942965030670166016e+00 -1.608737945556640625e+01 2.718927860260009766e+00 8.277080535888671875e+00 3.298802614212036133e+00 4.296153545379638672e+00
1.667000000000000000e+03 1.784736275672912598e+00 -2.925981140136718750e+01 4.728380590677261353e-02 4.735743045806884766e+00 1.434908032417297363e+00 -5.120068192481994629e-01
1.668000000000000000e+03 1.683040022850036621e+00 -2.388422775268554688e+01 -6.138929724693298340e-01 5.512871265411376953e+00 1.469693541526794434e+00 3.624325692653656006e-01
1.669000000000000000e+03 9.377011060714721680e-01 -3.882071685791015625e+01 -3.861175477504730225e-02 4.770577430725097656e+00 1.419589757919311523e+00 7.879025489091873169e-02
1.670000000000000000e+03 3.428996801376342773e+00 -3.918240737915039062e+01 -1.317528188228607178e-01 4.652705669403076172e+00 1.356285810470581055e+00 3.046388626098632812e-01
1.671000000000000000e+03 1.971942543983459473e+00 -3.322421646118164062e+01 1.739137917757034302e-01 4.325164318084716797e+00 1.349723458290100098e+00 -6.122068315744400024e-02
1.672000000000000000e+03 6.225857138633728027e-01 -3.213674163818359375e+01 6.519035249948501587e-02 4.538033008575439453e+00 1.380967020988464355e+00 -7.656436413526535034e-02
1.673000000000000000e+03 1.820048689842224121e+00 -3.056961441040039062e+01 1.578778624534606934e-01 4.550249576568603516e+00 1.412438273429870605e+00 -3.834281265735626221e-01
1.674000000000000000e+03 5.125589370727539062e+00 -2.272783279418945312e+01 -3.034686088562011719e+00 4.898039817810058594e+00 5.590060949325561523e-01 -3.117864727973937988e-01
1.675000000000000000e+03 5.874993801116943359e-01 -2.535999107360839844e+01 -7.363229244947433472e-02 6.371483802795410156e+00 1.889355540275573730e+00 -7.388149201869964600e-02
1.676000000000000000e+03 6.088760375976562500e+00 -2.181158065795898438e+01 -1.935822844505310059e+00 1.181703090667724609e+00 -2.262359261512756348e-01 3.533031046390533447e-01
1.677000000000000000e+03 3.114088058471679688e+00 -2.650605773925781250e+01 -3.572436273097991943e-01 4.453047752380371094e+00 1.228741168975830078e+00 -6.494527459144592285e-01
1.678000000000000000e+03 1.695367932319641113e+00 -2.256653785705566406e+01 -6.157359480857849121e-01 5.304788589477539062e+00 1.406715750694274902e+00 1.360010147094726562e+00
1.679000000000000000e+03 4.286951065063476562e+00 -1.796463584899902344e+01 1.842570304870605469e+00 9.828734397888183594e+00 3.501391410827636719e+00 2.002876520156860352e+00
1.680000000000000000e+03 5.900034904479980469e-01 -1.856672859191894531e+01 7.818315178155899048e-02 8.526396155357360840e-01 2.792468369007110596e-01 4.914484024047851562e-01
1.681000000000000000e+03 1.706511139869689941e+00 -1.719021606445312500e+01 8.048893213272094727e-01 2.552358627319335938e+00 1.007174372673034668e+00 2.660727798938751221e-01
1.682000000000000000e+03 1.876343369483947754e+00 -1.305705642700195312e+01 -1.886319220066070557e-01 2.265344858169555664e+00 6.230139136314392090e-01 -2.401106953620910645e-01
1.683000000000000000e+03 5.542225837707519531e-01 -1.174958992004394531e+01 -1.381885558366775513e-01 1.097504854202270508e+00 2.877948880195617676e-01 -6.336331367492675781e-02
1.684000000000000000e+03 3.776953697204589844e+00 -1.362286853790283203e+01 -1.876497566699981689e-01 4.203422546386718750e+00 1.204731822013854980e+00 2.234859019517898560e-01
1.685000000000000000e+03 2.504086256027221680e+00 -1.041860008239746094e+01 -3.100674152374267578e-01 2.088518381118774414e+00 5.335353016853332520e-01 4.917045235633850098e-01
1.686000000000000000e+03 2.321005821228027344e+00 -1.645927190780639648e+00 1.247677579522132874e-02 -1.029954571276903152e-02 6.531691178679466248e-04 -1.657092273235321045e-01
1.687000000000000000e+03 1.273625016212463379e+00 -1.607074141502380371e+00 -4.079212667420506477e-04 -1.057676598429679871e-01 -3.185267373919487000e-02 -1.449344307184219360e-01
1.688000000000000000e+03 4.364575743675231934e-01 -3.596789836883544922e+00 3.201122581958770752e-02 -3.508321642875671387e-01 -9.564627707004547119e-02 -1.220540027134120464e-03
1.689000000000000000e+03 1.305400848388671875e+01 -2.947964477539062500e+01 1.922267317771911621e+00 5.218724250793457031e+00 2.142297506332397461e+00 2.274717807769775391e+00
1.690000000000000000e+03 1.571205043792724609e+01 -1.976003837585449219e+01 2.399178981781005859e+00 1.148957347869873047e+01 4.166625976562500000e+00 2.758273124694824219e+00
1.691000000000000000e+03 7.231095886230468750e+01 -1.235326004028320312e+01 -1.759184122085571289e+00 7.177661657333374023e-01 -3.124254047870635986e-01 -3.379192352294921875e-01
1.692000000000000000e+03 7.216157531738281250e+01 -1.349553871154785156e+01 -7.764136791229248047e-01 1.359185099601745605e+00 1.748314350843429565e-01 -3.106293976306915283e-01
1.693000000000000000e+03 2.137494659423828125e+01 -2.708264160156250000e+01 -2.480900287628173828e+00 2.028466761112213135e-01 -6.834160685539245605e-01 3.823900818824768066e-01
1.694000000000000000e+03 1.113972377777099609e+01 -3.367852020263671875e+01 1.139234900474548340e+00 4.842372894287109375e+00 1.794482350349426270e+00 1.224258899688720703e+00
1.695000000000000000e+03 1.532080841064453125e+01 -2.521067047119140625e+01 -2.270095348358154297e+00 4.694571018218994141e+00 7.273427248001098633e-01 2.618523597717285156e+00
1.696000000000000000e+03 1.211141967773437500e+01 -2.367057037353515625e+01 -2.685457944869995117e+00 1.538807034492492676e+00 -3.439952731132507324e-01 1.553928613662719727e+00
1.697000000000000000e+03 2.328530120849609375e+01 -2.517189025878906250e+01 -2.670985162258148193e-01 3.682976245880126953e+00 1.024763345718383789e+00 -1.279974818229675293e+00
1.698000000000000000e+03 2.506586074829101562e+01 -3.486629104614257812e+01 4.589729905128479004e-01 8.721451759338378906e+00 2.754127264022827148e+00 -1.465724110603332520e-01
1.699000000000000000e+03 2.684567070007324219e+01 -3.117939567565917969e+01 5.278058052062988281e-01 6.785562992095947266e+00 2.194010734558105469e+00 -5.247489213943481445e-01
1.700000000000000000e+03 5.256929016113281250e+01 -6.177908420562744141e+00 1.354475498199462891e+00 1.035107135772705078e+01 3.511663913726806641e+00 -1.658237099647521973e+00
1.701000000000000000e+03 5.260457229614257812e+01 -3.531625032424926758e+00 9.242027997970581055e-01 1.132117938995361328e+01 3.673614740371704102e+00 1.856638908386230469e+00
1.702000000000000000e+03 6.135784149169921875e+01 -6.189849853515625000e+00 6.668993234634399414e-01 1.121042728424072266e+01 3.563197851181030273e+00 4.694963395595550537e-01
1.703000000000000000e+03 6.450801086425781250e+01 -2.852097702026367188e+01 2.484197854995727539e+00 8.080940246582031250e+00 3.169541358947753906e+00 -4.398670673370361328e+00
1.704000000000000000e+03 2.419512176513671875e+01 5.450809597969055176e-01 -3.922816514968872070e+00 -1.495464295148849487e-01 -1.221708893775939941e+00 1.956604719161987305e-01
1.705000000000000000e+03 1.919120407104492188e+01 3.498562812805175781e+00 1.647346019744873047e-01 3.014842271804809570e+00 9.538730978965759277e-01 3.407531738281250000e+00
1.706000000000000000e+03 5.558223342895507812e+01 -9.866429328918457031e+00 2.043436169624328613e-01 1.873942613601684570e+00 6.234858632087707520e-01 -1.412271261215209961e+00
1.707000000000000000e+03 5.642472457885742188e+01 -1.162649440765380859e+01 -2.177385799586772919e-02 2.253085851669311523e+00 6.693935990333557129e-01 -1.765800237655639648e+00
1.708000000000000000e+03 7.360626220703125000e+01 -2.411853981018066406e+01 1.821788549423217773e+00 1.252773284912109375e+01 4.304856300354003906e+00 2.528414726257324219e+00
1.709000000000000000e+03 7.283118438720703125e+01 -2.514215278625488281e+01 1.593362331390380859e+00 6.288178443908691406e+00 2.364462137222290039e+00 2.831073045730590820e+00
1.710000000000000000e+03 5.296037292480468750e+01 2.543400001525878906e+01 1.200743675231933594e+00 6.017502784729003906e+00 2.165473937988281250e+00 -5.802769064903259277e-01
1.711000000000000000e+03 4.882051086425781250e+01 1.964415931701660156e+01 -2.332875251770019531e+00 8.241432905197143555e-01 -4.526195824146270752e-01 5.838613510131835938e-01
1.712000000000000000e+03 2.069973182678222656e+01 3.366072082519531250e+01 -4.840312600135803223e-01 5.355782032012939453e+00 1.461525201797485352e+00 1.649082750082015991e-01
1.713000000000000000e+03 1.968291282653808594e+01 3.040678787231445312e+01 1.732319951057434082e+00 1.100182151794433594e+01 3.820242404937744141e+00 -2.143478631973266602e+00
1.714000000000000000e+03 6.973133850097656250e+01 -1.206144046783447266e+01 -1.134846687316894531e+00 8.169966191053390503e-02 -3.159441053867340088e-01 -6.107726693153381348e-01
1.715000000000000000e+03 6.852391815185546875e+01 -1.164355468750000000e+01 4.790717363357543945e-01 1.040124416351318359e+00 4.557588398456573486e-01 -9.340980052947998047e-01
1.716000000000000000e+03 1.929422569274902344e+01 2.595502281188964844e+01 2.983401417732238770e-01 7.704131126403808594e+00 2.400741338729858398e+00 9.892848730087280273e-01
1.717000000000000000e+03 1.845063972473144531e+01 2.491381263732910156e+01 -3.718171119689941406e-01 1.538278579711914062e+00 3.499384224414825439e-01 3.137320876121520996e-01
1.718000000000000000e+03 6.839192199707031250e+01 -2.613990211486816406e+01 -3.009845972061157227e+00 8.949590325355529785e-01 -6.344661116600036621e-01 -1.133820265531539917e-01
1.719000000000000000e+03 1.225334644317626953e+01 2.018552398681640625e+01 -6.477891802787780762e-01 6.466444730758666992e-01 -3.434210084378719330e-04 1.083805799484252930e+00
1.720000000000000000e+03 8.397871971130371094e+00 2.342162704467773438e+01 -9.309816956520080566e-01 1.552092432975769043e+00 1.863332241773605347e-01 -8.960957527160644531e-01
1.721000000000000000e+03 6.511727142333984375e+01 -6.264175415039062500e+00 8.816106915473937988e-01 1.225720596313476562e+01 3.941645145416259766e+00 3.032422363758087158e-01
1.722000000000000000e+03 7.816492462158203125e+01 1.657617759704589844e+01 3.594340756535530090e-02 6.841437816619873047e+00 2.063214302062988281e+00 6.423216462135314941e-01
1.723000000000000000e+03 7.567232513427734375e+01 1.500957107543945312e+01 6.141930818557739258e-01 7.789254665374755859e+00 2.521034240722656250e+00 6.391718983650207520e-01
1.724000000000000000e+03 5.878128051757812500e+01 3.220354795455932617e+00 -1.223872065544128418e+00 4.110601425170898438e+00 8.660188317298889160e-01 -1.946813702583312988e+00
1.725000000000000000e+03 6.570852661132812500e+01 6.456530094146728516e+00 -2.658583879470825195e+00 1.387775689363479614e-01 -7.559419274330139160e-01 2.321485988795757294e-02
1.726000000000000000e+03 4.446097183227539062e+01 6.795060634613037109e+00 1.878535002470016479e-01 5.375328063964843750e+00 1.668954491615295410e+00 -4.915334880352020264e-01
1.727000000000000000e+03 4.085650634765625000e+01 6.477595329284667969e+00 1.397229313850402832e+00 9.682013511657714844e+00 3.323772907257080078e+00 8.502453565597534180e-01
1.728000000000000000e+03 4.554973220825195312e+01 1.671559906005859375e+01 1.970955610275268555e+00 9.188717842102050781e+00 3.347902059555053711e+00 3.712274789810180664e+00
1.729000000000000000e+03 2.903302764892578125e+01 6.495123863220214844e+00 1.276265859603881836e+00 9.766070365905761719e+00 3.312700986862182617e+00 -1.359219789505004883e+00
1.730000000000000000e+03 2.711440467834472656e+01 9.555255174636840820e-01 -1.789009094238281250e+00 4.184698581695556641e+00 7.187068462371826172e-01 -2.072302579879760742e+00
1.731000000000000000e+03 6.494163513183593750e+01 -1.009418869018554688e+01 -2.113286778330802917e-02 7.896144390106201172e+00 2.362503290176391602e+00 -5.246782898902893066e-01
1.732000000000000000e+03 6.232110214233398438e+01 1.984500312805175781e+01 8.123109340667724609e-01 6.519117355346679688e+00 2.199428558349609375e+00 3.456292867660522461e+00
1.733000000000000000e+03 6.743858814239501953e+00 -2.296052360534667969e+01 -4.026525020599365234e+00 7.255281209945678711e-01 -9.902990460395812988e-01 4.118968844413757324e-01
1.734000000000000000e+03 5.174085140228271484e+00 -2.071649169921875000e+01 -2.480961084365844727e-01 6.242546081542968750e+00 1.798334956169128418e+00 -4.885281324386596680e-01
1.735000000000000000e+03 4.674293518066406250e+00 -1.937354278564453125e+01 1.376496672630310059e+00 1.133091163635253906e+01 3.812222480773925781e+00 1.384882688522338867e+00
1.736000000000000000e+03 7.420684051513671875e+01 -1.067208576202392578e+01 -2.590335607528686523e-01 4.639238357543945312e+00 1.314061403274536133e+00 1.591088175773620605e+00
1.737000000000000000e+03 7.413672447204589844e+00 3.567646408081054688e+01 -1.322961807250976562e+00 2.232913970947265625e+00 2.729856073856353760e-01 6.140828132629394531e-01
1.738000000000000000e+03 7.816895294189453125e+01 -2.750924110412597656e+01 -2.190285921096801758e-01 7.424824237823486328e+00 2.161738634109497070e+00 -1.822039783000946045e-01
1.739000000000000000e+03 5.536256790161132812e+01 -3.444813919067382812e+01 2.153214216232299805e+00 9.693400382995605469e+00 3.553984165191650391e+00 -8.533754944801330566e-01
1.740000000000000000e+03 5.725071334838867188e+01 -3.781000518798828125e+01 -1.306730508804321289e+00 5.113056182861328125e+00 1.141897797584533691e+00 -1.981941580772399902e+00
1.741000000000000000e+03 7.065641784667968750e+01 6.539577007293701172e+00 -4.097335636615753174e-01 4.678821563720703125e+00 1.280726432800292969e+00 1.712597250938415527e+00
1.742000000000000000e+03 7.118020629882812500e+01 8.275024414062500000e+00 1.164342880249023438e+00 6.196364402770996094e+00 2.208212137222290039e+00 2.346374273300170898e+00
1.743000000000000000e+03 7.308290100097656250e+01 8.837556838989257812e+00 4.698680937290191650e-01 8.778113365173339844e+00 2.774394512176513672e+00 -2.292011231184005737e-01
1.744000000000000000e+03 6.166883468627929688e+01 -2.410702133178710938e+01 1.616335868835449219e+00 3.221162796020507812e+00 1.451249599456787109e+00 -9.062928557395935059e-01
1.745000000000000000e+03 5.348624420166015625e+01 -7.994283676147460938e+00 1.897749900817871094e+00 5.178320884704589844e+00 2.122821092605590820e+00 -2.447848796844482422e+00
1.746000000000000000e+03 3.433913803100585938e+01 -2.511155307292938232e-01 -8.397401571273803711e-01 7.432187199592590332e-01 -2.895642258226871490e-02 1.008271813392639160e+00
1.747000000000000000e+03 7.134304809570312500e+01 1.841358757019042969e+01 -1.037198781967163086e+00 6.340188980102539062e+00 1.590897083282470703e+00 -1.106209993362426758e+00
1.748000000000000000e+03 3.171954154968261719e+01 1.267198657989501953e+01 -5.828762650489807129e-01 4.192526817321777344e+00 1.082895278930664062e+00 3.475409030914306641e+00
1.749000000000000000e+03 6.104305267333984375e+01 1.613534355163574219e+01 1.577046394348144531e+00 1.213803672790527344e+01 4.114524841308593750e+00 3.080336570739746094e+00
1.750000000000000000e+03 2.010549545288085938e+01 1.564778232574462891e+01 -1.209095716476440430e+00 9.147012710571289062e+00 2.381375074386596680e+00 -8.459406495094299316e-01
1.751000000000000000e+03 5.921329879760742188e+01 -2.710321044921875000e+01 -2.084022760391235352e+00 1.805462121963500977e+00 -8.356818556785583496e-02 7.441766858100891113e-01
1.752000000000000000e+03 6.726889038085937500e+01 4.061861515045166016e+00 -2.203874588012695312e-01 1.560452818870544434e+00 4.020195901393890381e-01 1.498563766479492188e+00
1.753000000000000000e+03 7.029582214355468750e+01 4.093284606933593750e-01 2.596165984869003296e-02 1.122785925865173340e+00 3.446242511272430420e-01 1.688513875007629395e+00
1.754000000000000000e+03 5.906206893920898438e+01 -1.126772689819335938e+01 -1.003377288579940796e-01 3.569406509399414062e+00 1.040720582008361816e+00 1.940479636192321777e+00
1.755000000000000000e+03 3.704974412918090820e+00 2.335305404663085938e+01 -7.013850808143615723e-01 5.195439815521240234e+00 1.348216414451599121e+00 9.700839221477508545e-02
1.756000000000000000e+03 6.608222484588623047e+00 2.539520454406738281e+01 1.956018209457397461e+00 6.705067157745361328e+00 2.598325490951538086e+00 -3.340181827545166016e+00
1.757000000000000000e+03 7.041697692871093750e+01 1.943626594543457031e+01 -1.956429123878479004e+00 4.489227294921875000e+00 7.598394155502319336e-01 -1.025815963745117188e+00
1.758000000000000000e+03 6.317785739898681641e+00 1.288939285278320312e+01 1.148159742355346680e+00 5.095392227172851562e+00 1.873065590858459473e+00 -1.360005855560302734e+00
1.759000000000000000e+03 1.024775600433349609e+01 9.656115531921386719e+00 1.754886865615844727e+00 8.476544380187988281e+00 3.069429397583007812e+00 -3.603287696838378906e+00
1.760000000000000000e+03 7.326997375488281250e+01 1.312419986724853516e+01 1.296402573585510254e+00 1.101945495605468750e+01 3.694757461547851562e+00 -4.816620424389839172e-02
1.761000000000000000e+03 7.215446472167968750e+01 1.253413295745849609e+01 6.507461071014404297e-01 1.389197635650634766e+01 4.362816810607910156e+00 2.039953172206878662e-01
1.762000000000000000e+03 7.369546508789062500e+01 -2.075323104858398438e+01 4.811884760856628418e-01 1.274513912200927734e+01 3.967898130416870117e+00 -1.139749526977539062e+00
1.763000000000000000e+03 7.937309265136718750e+01 -1.670237731933593750e+01 2.015580236911773682e-02 9.530831336975097656e+00 2.865296125411987305e+00 4.015232324600219727e-01
1.764000000000000000e+03 6.084362030029296875e+01 8.679398536682128906e+00 -1.344800442457199097e-01 5.835641860961914062e+00 1.710348486900329590e+00 -1.025749683380126953e+00
1.765000000000000000e+03 6.240252685546875000e+01 9.337155342102050781e+00 1.451115012168884277e+00 2.287823200225830078e+00 1.121681451797485352e+00 -2.238619089126586914e+00
1.766000000000000000e+03 6.222979736328125000e+01 7.979649066925048828e+00 -4.482688009738922119e-01 3.498714923858642578e+00 9.151338338851928711e-01 -1.499925613403320312e+00
1.767000000000000000e+03 2.616845893859863281e+01 -5.506878346204757690e-02 -2.053193330764770508e+00 1.282119154930114746e+00 -2.313222885131835938e-01 -5.773192048072814941e-01
1.768000000000000000e+03 6.300536632537841797e+00 3.126889228820800781e+01 6.421796679496765137e-01 6.800367355346679688e+00 2.232764244079589844e+00 1.196087718009948730e+00
1.769000000000000000e+03 6.002954101562500000e+01 -3.855031967163085938e+01 -2.309544801712036133e+00 9.715868830680847168e-01 -4.013873934745788574e-01 -2.998790740966796875e-01
1.770000000000000000e+03 4.975204849243164062e+01 5.707390308380126953e+00 -3.054771184921264648e+00 -1.731237769126892090e-01 -9.683684706687927246e-01 6.026394963264465332e-01
1.771000000000000000e+03 4.540967178344726562e+01 -2.628453445434570312e+01 -1.166788816452026367e+00 2.905697345733642578e+00 5.216726064682006836e-01 -2.242238998413085938e+00
1.772000000000000000e+03 4.687626647949218750e+01 -1.919782829284667969e+01 1.219564199447631836e+00 1.022767066955566406e+01 3.434170484542846680e+00 2.683138370513916016e+00
1.773000000000000000e+03 6.549322509765625000e+01 -1.389617621898651123e-01 1.625725924968719482e-01 5.292826652526855469e+00 1.636619806289672852e+00 1.247475862503051758e+00
1.774000000000000000e+03 6.641899108886718750e+01 -1.528425407409667969e+01 -1.213861107826232910e+00 2.558927774429321289e+00 4.035200178623199463e-01 8.424856066703796387e-01
1.775000000000000000e+03 6.478155517578125000e+01 -1.886317825317382812e+01 6.007472276687622070e-01 8.039109230041503906e+00 2.591956853866577148e+00 8.301077485084533691e-01
1.776000000000000000e+03 6.142106246948242188e+01 -2.208847427368164062e+01 3.123583793640136719e+00 4.468591213226318359e+00 2.277652502059936523e+00 -1.023352503776550293e+00
1.777000000000000000e+03 2.865842247009277344e+01 8.704785346984863281e+00 2.125980615615844727e+00 7.843513965606689453e+00 2.990848541259765625e+00 1.458309888839721680e+00
1.778000000000000000e+03 2.011622810363769531e+01 9.620231628417968750e+00 2.411758422851562500e+00 9.563454627990722656e+00 3.592563867568969727e+00 3.108687877655029297e+00
1.779000000000000000e+03 6.147957229614257812e+01 -2.529730987548828125e+01 6.312185525894165039e-01 1.394432187080383301e+00 6.076952219009399414e-01 -8.983287215232849121e-01
1.780000000000000000e+03 4.761864852905273438e+01 2.212968254089355469e+01 6.300558447837829590e-01 5.723111152648925781e+00 1.905950188636779785e+00 1.647480964660644531e+00
1.781000000000000000e+03 7.940710449218750000e+01 -2.230483055114746094e+01 1.214300617575645447e-01 6.335260391235351562e+00 1.937007188796997070e+00 1.296295821666717529e-01
1.782000000000000000e+03 4.607368850708007812e+01 -2.700483322143554688e+00 -2.112212181091308594e-01 4.017905235290527344e+00 1.142005205154418945e+00 -2.263463258743286133e+00
1.783000000000000000e+03 5.102602767944335938e+01 -1.395125269889831543e+00 1.876594722270965576e-01 6.793087482452392578e+00 2.094223976135253906e+00 -1.720649898052215576e-01
1.784000000000000000e+03 1.329073524475097656e+01 1.822294616699218750e+01 1.030741557478904724e-01 4.170371294021606445e-01 1.560333818197250366e-01 5.324510335922241211e-01
1.785000000000000000e+03 1.188512706756591797e+01 2.136896705627441406e+01 -1.268159985542297363e+00 2.918329536914825439e-01 -2.928981184959411621e-01 9.090511202812194824e-01
1.786000000000000000e+03 5.023893737792968750e+01 -4.023394107818603516e+00 1.309561014175415039e+00 7.365763187408447266e+00 2.602597236633300781e+00 -2.599245309829711914e-01
1.787000000000000000e+03 6.669243621826171875e+01 -3.569253158569335938e+01 4.845731556415557861e-01 6.478437423706054688e+00 2.088903188705444336e+00 -3.218186497688293457e-01
1.788000000000000000e+03 6.344622802734375000e+01 -1.913972091674804688e+01 8.033464550971984863e-01 7.169805526733398438e+00 2.391945600509643555e+00 -6.405937671661376953e-01
1.789000000000000000e+03 5.263218688964843750e+01 -9.146491050720214844e+00 8.827023506164550781e-01 5.614114761352539062e+00 1.949045062065124512e+00 -1.244654059410095215e+00
1.790000000000000000e+03 5.579142761230468750e+01 8.664340019226074219e+00 2.155589580535888672e+00 8.661332130432128906e+00 3.245076656341552734e+00 1.477339982986450195e+00
1.791000000000000000e+03 5.180911254882812500e+01 5.674238681793212891e+00 -1.332705497741699219e+00 8.062127828598022461e-01 -1.579478085041046143e-01 1.394006252288818359e+00
1.792000000000000000e+03 7.795003509521484375e+01 -1.381553554534912109e+01 -5.056562423706054688e-01 9.548938751220703125e+00 2.712984800338745117e+00 1.847322434186935425e-01
1.793000000000000000e+03 3.403146505355834961e+00 -1.042540740966796875e+01 -4.502980113029479980e-01 2.541751861572265625e+00 6.274362206459045410e-01 7.223125696182250977e-01
1.794000000000000000e+03 6.069571304321289062e+01 -4.031881713867187500e+01 -9.702413082122802734e-01 1.875902265310287476e-01 -2.347953170537948608e-01 -6.959491372108459473e-01
1.795000000000000000e+03 2.033092498779296875e+01 2.679652976989746094e+01 4.521047472953796387e-01 1.015718746185302734e+01 3.182787656784057617e+00 -2.156393826007843018e-01
1.796000000000000000e+03 6.308535337448120117e-01 3.181778717041015625e+01 9.012147784233093262e-02 5.037246227264404297e+00 1.538210272789001465e+00 -4.827343225479125977e-01
1.797000000000000000e+03 7.827753067016601562e+00 2.157645797729492188e+01 -1.313822507858276367e+00 3.616467475891113281e+00 6.907935142517089844e-01 -1.652054309844970703e+00
1.798000000000000000e+03 1.787348175048828125e+01 2.309807395935058594e+01 7.814559340476989746e-01 1.064921736717224121e+00 5.539132952690124512e-01 2.166637629270553589e-01
1.799000000000000000e+03 5.375512313842773438e+01 -1.309740066528320312e+01 -3.317126333713531494e-01 3.664633035659790039e+00 9.998760819435119629e-01 -3.143214941024780273e+00
1.800000000000000000e+03 1.898916625976562500e+01 3.589318847656250000e+01 -9.527419805526733398e-01 3.941641092300415039e+00 8.966697454452514648e-01 -5.954727530479431152e-01
1.801000000000000000e+03 6.645232677459716797e+00 3.435440826416015625e+01 -1.602264881134033203e+00 3.424410581588745117e+00 5.466437339782714844e-01 1.609466224908828735e-01
1.802000000000000000e+03 3.445211648941040039e+00 3.702561569213867188e+01 -4.629064798355102539e-01 5.340700149536132812e+00 1.463338136672973633e+00 -8.830281347036361694e-02
1.803000000000000000e+03 7.453895568847656250e+01 -1.511207103729248047e+01 -7.410854101181030273e-01 6.234408855438232422e+00 1.647997021675109863e+00 5.811187028884887695e-01
1.804000000000000000e+03 5.347887420654296875e+01 -9.919424057006835938e+00 8.045721650123596191e-01 4.485763072967529297e+00 1.587100505828857422e+00 -2.127344369888305664e+00
1.805000000000000000e+03 2.022837829589843750e+01 7.924694061279296875e+00 1.581326365470886230e+00 6.530305385589599609e+00 2.433489561080932617e+00 2.056102275848388672e+00
1.806000000000000000e+03 1.791102218627929688e+01 3.461073684692382812e+01 -5.124710798263549805e-01 3.328158617019653320e+00 8.447062969207763672e-01 -1.568815112113952637e+00
1.807000000000000000e+03 1.744811058044433594e+01 3.311251831054687500e+01 8.279618620872497559e-01 1.637443542480468750e+00 7.396215796470642090e-01 -1.245682001113891602e+00
1.808000000000000000e+03 6.683668518066406250e+01 -2.653860664367675781e+01 -1.963438630104064941e+00 5.905589580535888672e+00 1.182645320892333984e+00 -2.559004306793212891e+00
1.809000000000000000e+03 1.533494567871093750e+01 3.803958892822265625e+01 -2.453530430793762207e-01 1.271260023117065430e+00 3.077720999717712402e-01 -8.646147251129150391e-01
1.810000000000000000e+03 1.479427909851074219e+01 2.008688545227050781e+01 -4.529553651809692383e-01 -5.100994706153869629e-01 -2.889164686203002930e-01 1.524901032447814941e+00
1.811000000000000000e+03 1.659467506408691406e+01 1.850011062622070312e+01 -4.038456439971923828e+00 -1.216562151908874512e+00 -1.576505541801452637e+00 1.955827236175537109e+00
1.812000000000000000e+03 2.253258705139160156e+01 2.891440010070800781e+01 5.062887668609619141e-01 5.890530109405517578e+00 1.919045686721801758e+00 4.013777673244476318e-01
1.813000000000000000e+03 2.095872306823730469e+01 2.934233093261718750e+01 1.541717290878295898e+00 8.427920341491699219e+00 2.990891218185424805e+00 -3.506956100463867188e-01
1.814000000000000000e+03 1.677892303466796875e+01 2.311590766906738281e+01 2.582696378231048584e-01 -2.142395526170730591e-01 1.320902444422245026e-02 -1.904768794775009155e-01
1.815000000000000000e+03 1.435551738739013672e+01 2.295252990722656250e+01 -4.123114943504333496e-01 4.718991741538047791e-02 -1.095364764332771301e-01 3.092649877071380615e-01
1.816000000000000000e+03 5.703920722007751465e-01 2.900901985168457031e+01 1.129276603460311890e-01 3.195897102355957031e+00 9.926474690437316895e-01 -3.646888136863708496e-01
1.817000000000000000e+03 3.667496442794799805e+00 2.855275917053222656e+01 9.298731684684753418e-01 6.146036624908447266e+00 2.122772932052612305e+00 -9.018168449401855469e-01
1.818000000000000000e+03 4.862420558929443359e+00 2.747776985168457031e+01 1.462118387222290039e+00 9.225725173950195312e+00 3.206353187561035156e+00 -8.906517028808593750e-01
1.819000000000000000e+03 7.802216339111328125e+01 -1.525897598266601562e+01 -4.093738198280334473e-01 9.234033584594726562e+00 2.647397994995117188e+00 6.406580805778503418e-01
1.820000000000000000e+03 1.784510421752929688e+01 2.177367210388183594e+00 1.145341634750366211e+00 2.814850568771362305e+00 1.188057661056518555e+00 3.282775640487670898e+00
1.821000000000000000e+03 1.314926433563232422e+01 2.166132354736328125e+01 -1.219211339950561523e+00 1.098670363426208496e-01 -3.328032791614532471e-01 1.143318057060241699e+00
1.822000000000000000e+03 1.166781711578369141e+01 2.259447669982910156e+01 -2.793417215347290039e+00 -1.304786186665296555e-02 -8.419395089149475098e-01 3.802624642848968506e-01
1.823000000000000000e+03 7.289251804351806641e+00 2.267351531982421875e+01 -1.463605403900146484e+00 4.326553344726562500e+00 8.588844537734985352e-01 -1.625940322875976562e+00
1.824000000000000000e+03 1.556166267395019531e+01 1.925378799438476562e+01 -2.036553382873535156e+00 -9.351415038108825684e-01 -8.915084600448608398e-01 1.608195900917053223e+00
1.825000000000000000e+03 1.773958015441894531e+01 1.786677360534667969e+01 -4.359178066253662109e+00 -1.417993783950805664e+00 -1.733151555061340332e+00 2.472471237182617188e+00
1.826000000000000000e+03 1.532715415954589844e+01 2.082978248596191406e+01 -3.735327124595642090e-01 -7.467125654220581055e-01 -3.360735774040222168e-01 1.333777904510498047e+00
1.827000000000000000e+03 7.102436828613281250e+01 -1.485925674438476562e+01 -2.233972996473312378e-01 1.032210469245910645e+00 2.426439523696899414e-01 -1.317313909530639648e+00
1.828000000000000000e+03 6.878227233886718750e+01 -1.429737949371337891e+01 -4.206267595291137695e-01 2.702829539775848389e-01 -4.510314390063285828e-02 -1.296685695648193359e+00
1.829000000000000000e+03 3.735448074340820312e+01 3.400691223144531250e+01 -5.050705671310424805e-01 2.773076057434082031e+00 6.804016232490539551e-01 1.046928286552429199e+00
1.830000000000000000e+03 3.132273864746093750e+01 2.868511772155761719e+01 5.304942131042480469e-01 5.424666404724121094e+00 1.786548256874084473e+00 -1.414897084236145020e+00
1.831000000000000000e+03 6.400422668457031250e+01 -2.382319450378417969e+01 1.839937090873718262e+00 7.316470623016357422e+00 2.746922254562377930e+00 -2.229881525039672852e+00
1.832000000000000000e+03 6.575215911865234375e+01 -2.656558799743652344e+01 -1.428030371665954590e+00 7.642587184906005859e+00 1.864367008209228516e+00 -2.753722429275512695e+00
1.833000000000000000e+03 3.640586471557617188e+01 2.138935279846191406e+01 5.822585821151733398e-01 4.479325294494628906e+00 1.518475174903869629e+00 -1.620633125305175781e+00
1.834000000000000000e+03 7.729569244384765625e+01 -2.434442138671875000e+01 4.484108984470367432e-01 7.691746711730957031e+00 2.442047357559204102e+00 -3.202210068702697754e-01
1.835000000000000000e+03 7.544830322265625000e+01 -2.426026725769042969e+01 1.151542782783508301e+00 8.815567970275878906e+00 2.990133047103881836e+00 8.906123787164688110e-02
1.836000000000000000e+03 5.388511657714843750e+01 -2.487005043029785156e+01 -1.530081510543823242e+00 4.141124248504638672e+00 7.833128571510314941e-01 2.208630800247192383e+00
1.837000000000000000e+03 6.543623352050781250e+01 -4.984962463378906250e+00 1.234271764755249023e+00 1.140036582946777344e+01 3.790391445159912109e+00 2.215315341949462891e+00
1.838000000000000000e+03 6.598191833496093750e+01 -3.715905427932739258e+00 2.398740768432617188e+00 8.075415611267089844e+00 3.142246961593627930e+00 3.386022329330444336e+00
1.839000000000000000e+03 4.561808776855468750e+01 9.134902954101562500e+00 7.630881071090698242e-01 5.162146568298339844e+00 1.777570486068725586e+00 -1.453141212463378906e+00
1.840000000000000000e+03 4.467134857177734375e+01 1.109797573089599609e+01 5.190819501876831055e-01 1.008825588226318359e+01 3.182201385498046875e+00 -1.170729994773864746e+00
1.841000000000000000e+03 5.573375701904296875e+01 2.698845386505126953e+00 -1.119755387306213379e+00 3.763685703277587891e+00 7.931790947914123535e-01 1.104290008544921875e+00
1.842000000000000000e+03 7.111659240722656250e+01 -9.087091684341430664e-01 -2.592751026153564453e+00 -1.163298338651657104e-01 -8.127242922782897949e-01 3.440472781658172607e-01
1.843000000000000000e+03 3.638013076782226562e+01 3.573014450073242188e+01 -1.848144769668579102e+00 3.971249818801879883e+00 6.369315385818481445e-01 8.409224748611450195e-01
1.844000000000000000e+03 7.279721069335937500e+01 -4.677996635437011719e-01 -1.172892928123474121e+00 2.728199958801269531e+00 4.665921032428741455e-01 -1.062880396842956543e+00
1.845000000000000000e+03 6.913995361328125000e+01 8.227542042732238770e-01 1.498557478189468384e-01 1.826810598373413086e+00 5.929998755455017090e-01 2.055400848388671875e+00
1.846000000000000000e+03 6.290243530273437500e+01 -3.834134674072265625e+01 -2.236426591873168945e+00 2.732217609882354736e-01 -5.889614224433898926e-01 -3.221512436866760254e-01
1.847000000000000000e+03 5.257560729980468750e+01 3.477402925491333008e+00 -1.433507919311523438e+00 4.408366680145263672e+00 8.924576640129089355e-01 2.178841590881347656e+00
1.848000000000000000e+03 5.420422363281250000e+01 6.420105934143066406e+00 1.447983264923095703e+00 7.057956218719482422e+00 2.551781892776489258e+00 2.569171428680419922e+00
1.849000000000000000e+03 7.783815002441406250e+01 3.319192123413085938e+01 4.244418069720268250e-02 6.964282035827636719e+00 2.102017879486083984e+00 8.974020928144454956e-02
1.850000000000000000e+03 7.928910827636718750e+01 3.611609268188476562e+01 -1.298439688980579376e-02 7.331763744354248047e+00 2.195633888244628906e+00 3.538765758275985718e-02
1.851000000000000000e+03 7.941134643554687500e+01 -2.090596389770507812e+01 9.543593972921371460e-03 6.823427677154541016e+00 2.049891471862792969e+00 2.834966182708740234e-01
1.852000000000000000e+03 7.673313903808593750e+01 -2.881934547424316406e+01 -4.004919826984405518e-01 7.372369289398193359e+00 2.091563224792480469e+00 1.249600201845169067e-01
1.853000000000000000e+03 7.939716339111328125e+01 -2.776171875000000000e+01 -2.344455942511558533e-02 7.403044700622558594e+00 2.213880062103271484e+00 -1.060725003480911255e-01
1.854000000000000000e+03 7.702118682861328125e+01 -3.792019271850585938e+01 -3.186544775962829590e-02 7.155240058898925781e+00 2.137012243270874023e+00 -1.590026915073394775e-01
1.855000000000000000e+03 7.930140686035156250e+01 -3.469019699096679688e+01 -4.976819083094596863e-02 7.382938385009765625e+00 2.199950933456420898e+00 6.710045970976352692e-03
1.856000000000000000e+03 7.933477783203125000e+01 -3.053487586975097656e+01 4.694095812737941742e-03 7.501851081848144531e+00 2.251963615417480469e+00 1.374354213476181030e-02
1.857000000000000000e+03 7.790219879150390625e+01 -3.447333145141601562e+01 9.822539985179901123e-02 7.082134246826171875e+00 2.154107809066772461e+00 -1.955786533653736115e-02
1.858000000000000000e+03 7.781712341308593750e+01 -3.312115859985351562e+01 2.472536265850067139e-02 7.101900100708007812e+00 2.137987613677978516e+00 6.482996791601181030e-02
1.859000000000000000e+03 7.467684936523437500e+01 -3.773748016357421875e+01 -1.684062369167804718e-02 6.674283981323242188e+00 1.997233033180236816e+00 -4.119993746280670166e-01
1.860000000000000000e+03 7.616277313232421875e+01 -3.911848449707031250e+01 -3.533285483717918396e-02 7.152860164642333984e+00 2.135258197784423828e+00 -2.829591929912567139e-01
1.861000000000000000e+03 7.820487976074218750e+01 1.521054267883300781e+01 1.544594764709472656e-01 6.548522472381591797e+00 2.010894536972045898e+00 5.096083879470825195e-01
1.862000000000000000e+03 7.940731048583984375e+01 1.529426288604736328e+01 7.185825146734714508e-03 5.840216159820556641e+00 1.754220485687255859e+00 2.128694802522659302e-01
1.863000000000000000e+03 7.933325195312500000e+01 2.229202651977539062e+01 -3.845348954200744629e-02 7.796727657318115234e+00 2.327482223510742188e+00 2.827402018010616302e-02
1.864000000000000000e+03 7.792829895019531250e+01 3.182576179504394531e+01 3.524225577712059021e-02 6.934301376342773438e+00 2.090862989425659180e+00 3.995900228619575500e-02
1.865000000000000000e+03 7.817861938476562500e+01 2.780767059326171875e+01 6.665311008691787720e-02 7.079217433929443359e+00 2.143761157989501953e+00 -1.577433943748474121e-01
1.866000000000000000e+03 7.938912963867187500e+01 2.784717178344726562e+01 -1.748473010957241058e-02 7.332732200622558594e+00 2.194574117660522461e+00 -5.584705621004104614e-02
1.867000000000000000e+03 7.811071014404296875e+01 2.513699340820312500e+01 -2.363886684179306030e-03 7.283729553222656250e+00 2.184409618377685547e+00 -1.877743303775787354e-01
1.868000000000000000e+03 7.805287170410156250e+01 2.374385643005371094e+01 -1.154272928833961487e-01 7.385479927062988281e+00 2.181015729904174805e+00 -1.422676295042037964e-01
1.869000000000000000e+03 7.317752075195312500e+01 1.655927467346191406e+01 1.956717073917388916e-01 8.816003799438476562e+00 2.703502655029296875e+00 1.983612328767776489e-01
1.870000000000000000e+03 7.672118377685546875e+01 1.926929855346679688e+01 -4.233195483684539795e-01 7.456836223602294922e+00 2.110054969787597656e+00 5.102835893630981445e-01
1.871000000000000000e+03 7.428603363037109375e+01 9.573463439941406250e+00 6.748551130294799805e-01 8.530282974243164062e+00 2.761541604995727539e+00 -6.310296058654785156e-01
1.872000000000000000e+03 7.588609313964843750e+01 1.058508396148681641e+01 8.645502924919128418e-01 7.727197170257568359e+00 2.577524185180664062e+00 -6.956917643547058105e-01
1.873000000000000000e+03 7.823915100097656250e+01 9.900082588195800781e+00 1.616896986961364746e-01 6.677874088287353516e+00 2.051869153976440430e+00 -6.431682705879211426e-01
1.874000000000000000e+03 7.941127014160156250e+01 9.791732788085937500e+00 3.231681510806083679e-02 6.029311656951904297e+00 1.818488478660583496e+00 -2.840001583099365234e-01
1.875000000000000000e+03 7.492568206787109375e+01 -1.682728767395019531e+01 -5.792757272720336914e-01 7.348539829254150391e+00 2.030779123306274414e+00 6.180294156074523926e-01
1.876000000000000000e+03 7.933701324462890625e+01 -1.389659595489501953e+01 -4.579077288508415222e-02 1.050102329254150391e+01 3.136569738388061523e+00 4.558017477393150330e-03
1.877000000000000000e+03 7.940550994873046875e+01 -1.950916862487792969e+01 9.004388749599456787e-02 7.621175289154052734e+00 2.313365697860717773e+00 4.015224277973175049e-01
1.878000000000000000e+03 7.707723236083984375e+01 -2.214771842956542969e+01 7.227743864059448242e-01 8.042575836181640625e+00 2.629605054855346680e+00 4.650490581989288330e-01
1.879000000000000000e+03 7.934408569335937500e+01 -6.991337776184082031e+00 2.367531657218933105e-01 7.513257980346679688e+00 2.325003385543823242e+00 -7.423654943704605103e-02
1.880000000000000000e+03 7.936338043212890625e+01 -5.588696002960205078e+00 1.049516648054122925e-01 7.752445220947265625e+00 2.357218980789184570e+00 2.936713397502899170e-01
1.881000000000000000e+03 7.802992248535156250e+01 4.613301157951354980e-02 -3.508413136005401611e-01 9.032506942749023438e+00 2.604499578475952148e+00 1.570297777652740479e-02
1.882000000000000000e+03 7.935056304931640625e+01 1.415331602096557617e+00 -8.199416100978851318e-02 9.903997421264648438e+00 2.946600914001464844e+00 -9.962080419063568115e-02
1.883000000000000000e+03 7.811318206787109375e+01 8.504808425903320312e+00 7.392990589141845703e-02 7.059994220733642578e+00 2.140177249908447266e+00 -8.452635407447814941e-01
1.884000000000000000e+03 7.663056182861328125e+01 3.920098114013671875e+01 -8.319994062185287476e-02 7.138223648071289062e+00 2.116507053375244141e+00 1.297280937433242798e-01
1.885000000000000000e+03 7.539205169677734375e+01 3.774632263183593750e+01 -8.800414204597473145e-02 6.716159820556640625e+00 1.988446593284606934e+00 2.982224225997924805e-01
1.886000000000000000e+03 7.835565185546875000e+01 1.124631118774414062e+01 2.372886985540390015e-01 6.365000247955322266e+00 1.980686664581298828e+00 -3.879998922348022461e-01
1.887000000000000000e+03 7.804689025878906250e+01 1.472397208213806152e+00 -2.565500438213348389e-01 8.854280471801757812e+00 2.579319238662719727e+00 -4.088052511215209961e-01
1.888000000000000000e+03 7.808280944824218750e+01 2.873784303665161133e+00 -1.836450994014739990e-01 8.520880699157714844e+00 2.501170635223388672e+00 -6.130628585815429688e-01
1.889000000000000000e+03 7.553192901611328125e+01 -2.966047286987304688e+00 -4.765682816505432129e-01 8.800960540771484375e+00 2.497317790985107422e+00 -2.879445850849151611e-01
1.890000000000000000e+03 7.546234893798828125e+01 -5.761862546205520630e-02 -1.074234724044799805e+00 7.096569538116455078e+00 1.806700348854064941e+00 -6.811069846153259277e-01
1.891000000000000000e+03 7.566217803955078125e+01 -5.437762260437011719e+00 1.184880733489990234e+00 1.242978572845458984e+01 4.084400177001953125e+00 -1.183520197868347168e+00
1.892000000000000000e+03 7.803902435302734375e+01 -1.239878654479980469e+01 -4.368820190429687500e-01 9.578145980834960938e+00 2.742379188537597656e+00 -4.884035587310791016e-01
1.893000000000000000e+03 7.589794158935546875e+01 -1.817531967163085938e+01 -8.155088126659393311e-02 8.291528701782226562e+00 2.462993144989013672e+00 1.196755766868591309e+00
1.894000000000000000e+03 7.822666931152343750e+01 -1.952394104003906250e+01 6.408884376287460327e-02 8.028998374938964844e+00 2.427926063537597656e+00 9.460216164588928223e-01
1.895000000000000000e+03 7.796204376220703125e+01 -8.515943527221679688e+00 5.776687264442443848e-01 9.318312644958496094e+00 2.968794584274291992e+00 -8.438036441802978516e-01
1.896000000000000000e+03 7.814349365234375000e+01 -9.898713111877441406e+00 2.293948642909526825e-02 9.481695175170898438e+00 2.851390361785888672e+00 -1.165828824043273926e+00
1.897000000000000000e+03 5.416806030273437500e+01 -3.358252716064453125e+01 2.346267223358154297e+00 7.834822177886962891e+00 3.054326772689819336e+00 2.138473242521286011e-01
1.898000000000000000e+03 5.576617813110351562e+01 -2.972784233093261719e+01 1.191959738731384277e+00 7.919684410095214844e+00 2.733493328094482422e+00 1.975453734397888184e+00
1.899000000000000000e+03 5.671648406982421875e+01 -3.044566345214843750e+01 1.882936596870422363e+00 1.013288593292236328e+01 3.604746580123901367e+00 3.577512025833129883e+00
1.900000000000000000e+03 4.496113204956054688e+01 2.143589210510253906e+01 -1.140613555908203125e+00 6.793402671813964844e+00 1.695836782455444336e+00 2.855974435806274414e+00
1.901000000000000000e+03 2.183347702026367188e+01 1.144939613342285156e+01 1.723838329315185547e+00 7.461326122283935547e+00 2.755549192428588867e+00 -4.642139375209808350e-01
1.902000000000000000e+03 4.167051315307617188e+01 3.709178543090820312e+01 -7.188434600830078125e-01 1.434745430946350098e+00 2.147705852985382080e-01 -6.008068919181823730e-01
1.903000000000000000e+03 3.773324584960937500e+01 3.709677505493164062e+01 -1.045542001724243164e+00 2.394526958465576172e+00 4.046954810619354248e-01 1.101956486701965332e+00
1.904000000000000000e+03 7.485597229003906250e+01 -4.751893997192382812e+00 1.065753221511840820e+00 1.190904140472412109e+01 3.892438411712646484e+00 -2.448642492294311523e+00
1.905000000000000000e+03 2.126593017578125000e+01 1.724835777282714844e+01 -3.419601678848266602e+00 1.087424755096435547e+01 2.236393690109252930e+00 9.102621078491210938e-01
1.906000000000000000e+03 2.010734367370605469e+01 1.815996742248535156e+01 -2.648328781127929688e+00 6.876877784729003906e+00 1.268564701080322266e+00 7.878946065902709961e-01
1.907000000000000000e+03 5.944182205200195312e+01 1.237701034545898438e+01 1.527545452117919922e+00 8.765082359313964844e+00 3.087788343429565430e+00 1.318410187959671021e-01
1.908000000000000000e+03 7.541004180908203125e+01 -6.672567844390869141e+00 6.992787718772888184e-01 1.449955654144287109e+01 4.559650421142578125e+00 -8.771274685859680176e-01
1.909000000000000000e+03 7.533666229248046875e+01 -8.069261550903320312e+00 6.647713184356689453e-01 1.473344421386718750e+01 4.619464397430419922e+00 5.455509424209594727e-01
1.910000000000000000e+03 3.286113357543945312e+01 1.241398525238037109e+01 -2.877481222152709961e+00 1.044960618019104004e+00 -5.497561693191528320e-01 1.199020981788635254e+00
1.911000000000000000e+03 6.442843627929687500e+01 -4.504900455474853516e+00 2.079716444015502930e+00 9.491521835327148438e+00 3.471371412277221680e+00 7.239660620689392090e-01
1.912000000000000000e+03 5.737732696533203125e+01 -3.629585647583007812e+01 1.573329329490661621e+00 4.431629657745361328e+00 1.801487684249877930e+00 -2.772765159606933594e+00
1.913000000000000000e+03 6.560366821289062500e+01 -1.112694835662841797e+01 -5.777179002761840820e-01 6.061250209808349609e+00 1.645059704780578613e+00 -1.041649222373962402e+00
1.914000000000000000e+03 6.604491424560546875e+01 -9.467375755310058594e+00 1.449866771697998047e+00 6.367314338684082031e+00 2.345154285430908203e+00 -2.814992666244506836e+00
1.915000000000000000e+03 3.522775268554687500e+01 2.135193252563476562e+01 4.675838053226470947e-01 5.973372936248779297e+00 1.932287096977233887e+00 -1.269192099571228027e+00
1.916000000000000000e+03 9.049386024475097656e+00 1.672714996337890625e+01 -1.193370968103408813e-01 5.163936138153076172e+00 1.513379693031311035e+00 -6.543198823928833008e-01
1.917000000000000000e+03 5.020976257324218750e+01 2.962634086608886719e+01 1.536651253700256348e+00 6.818701267242431641e+00 2.506605625152587891e+00 9.693629145622253418e-01
1.918000000000000000e+03 1.606164169311523438e+01 4.992342472076416016e+00 -8.322691917419433594e-01 1.209903240203857422e+00 1.132902130484580994e-01 3.627991437911987305e+00
1.919000000000000000e+03 1.031339550018310547e+01 7.437809944152832031e+00 -2.441142797470092773e+00 6.475333213806152344e+00 1.210257053375244141e+00 -1.438388347625732422e+00
1.920000000000000000e+03 7.318476867675781250e+01 -1.317494773864746094e+01 -8.852961063385009766e-01 2.481938838958740234e+00 4.789928495883941650e-01 5.361828207969665527e-01
1.921000000000000000e+03 4.461458969116210938e+01 2.303554534912109375e+01 2.643774747848510742e+00 6.682670593261718750e+00 2.797933578491210938e+00 3.791808366775512695e+00
1.922000000000000000e+03 4.419530868530273438e+01 3.200663757324218750e+01 4.396318197250366211e-01 2.315762519836425781e+00 8.266183137893676758e-01 -1.164360642433166504e+00
1.923000000000000000e+03 3.440388870239257812e+01 2.801009178161621094e+01 1.294202446937561035e+00 1.126203918457031250e+01 3.766872406005859375e+00 -4.011905789375305176e-01
1.924000000000000000e+03 5.495941925048828125e+01 1.165228843688964844e+01 5.675661563873291016e-01 1.046362209320068359e+01 3.309356451034545898e+00 -2.840079367160797119e-01
1.925000000000000000e+03 5.611165618896484375e+01 1.600315856933593750e+01 1.406669497489929199e+00 6.219776153564453125e+00 2.287933588027954102e+00 -5.585620403289794922e-01
1.926000000000000000e+03 4.516327285766601562e+01 3.332997131347656250e+01 -7.191130518913269043e-01 4.172214031219482422e+00 1.035930275917053223e+00 -1.175521731376647949e+00
1.927000000000000000e+03 5.656815719604492188e+01 -2.699829292297363281e+01 -1.892716765403747559e+00 7.178055286407470703e+00 1.585601568222045898e+00 2.044941186904907227e+00
1.928000000000000000e+03 4.684690093994140625e+01 2.014677619934082031e+01 -1.385526776313781738e+00 5.536090850830078125e+00 1.245169162750244141e+00 3.097666740417480469e+00
1.929000000000000000e+03 5.794625473022460938e+01 1.166832637786865234e+01 1.664641499519348145e+00 8.447317123413085938e+00 3.033587694168090820e+00 6.222931742668151855e-01
1.930000000000000000e+03 5.182548522949218750e+01 1.697360420227050781e+01 7.132346034049987793e-01 2.031148195266723633e+00 8.233148455619812012e-01 -1.568710327148437500e+00
1.931000000000000000e+03 6.544728851318359375e+01 -3.858827972412109375e+01 -1.681058406829833984e+00 4.008404731750488281e+00 6.982039809226989746e-01 4.190468192100524902e-01
1.932000000000000000e+03 5.013401412963867188e+01 -3.092545509338378906e+01 3.270087480545043945e+00 7.548781871795654297e+00 3.245660781860351562e+00 -1.744830489158630371e+00
1.933000000000000000e+03 6.717596435546875000e+01 -3.291575241088867188e+01 1.155584216117858887e+00 7.935118675231933594e+00 2.727210760116577148e+00 -1.386434078216552734e+00
1.934000000000000000e+03 6.717763519287109375e+01 -3.041834259033203125e+01 2.799766063690185547e+00 6.350346565246582031e+00 2.745033740997314453e+00 -1.993094563484191895e+00
1.935000000000000000e+03 6.264846038818359375e+01 -7.640074729919433594e+00 1.904632687568664551e+00 9.194990158081054688e+00 3.329886913299560547e+00 3.139638006687164307e-01
1.936000000000000000e+03 6.449990081787109375e+01 -7.362626075744628906e+00 1.611449122428894043e+00 1.091552925109863281e+01 3.758093595504760742e+00 -6.831467151641845703e-01
1.937000000000000000e+03 4.071689605712890625e+01 1.154130935668945312e+01 3.355730473995208740e-01 6.889314651489257812e+00 2.167466163635253906e+00 1.496192216873168945e-01
1.938000000000000000e+03 3.411533355712890625e+01 3.331553649902343750e+01 -6.704040765762329102e-01 6.302065849304199219e+00 1.689498543739318848e+00 -3.109807968139648438e-01
1.939000000000000000e+03 2.935381126403808594e+01 3.268005752563476562e+01 4.321547746658325195e-01 3.339849948883056641e+00 1.131601452827453613e+00 -1.173750042915344238e+00
1.940000000000000000e+03 1.356646251678466797e+01 -1.329712772369384766e+01 -4.863727092742919922e+00 8.692300319671630859e-01 -1.198349118232727051e+00 6.171059012413024902e-01
1.941000000000000000e+03 7.812602996826171875e+01 -4.203860282897949219e+00 9.349622577428817749e-02 9.126100540161132812e+00 2.765878915786743164e+00 8.447957038879394531e-01
1.942000000000000000e+03 4.347919082641601562e+01 1.409424400329589844e+01 1.783725976943969727e+00 9.282699584960937500e+00 3.319927692413330078e+00 6.790384650230407715e-01
1.943000000000000000e+03 3.803279495239257812e+01 1.064561939239501953e+01 3.531927764415740967e-01 3.338114738464355469e+00 1.107392311096191406e+00 -1.143715739250183105e+00
1.944000000000000000e+03 6.654106140136718750e+01 -8.310468792915344238e-01 5.142180919647216797e-01 4.535209655761718750e+00 1.514828324317932129e+00 2.060228586196899414e+00
1.945000000000000000e+03 6.327848052978515625e+01 -2.206298828125000000e+00 1.129535079002380371e+00 7.806313037872314453e+00 2.680754423141479492e+00 -2.824198827147483826e-02
1.946000000000000000e+03 3.524544906616210938e+01 2.804861450195312500e+01 4.370253086090087891e-01 1.435115623474121094e+01 4.436454296112060547e+00 1.688449382781982422e-01
1.947000000000000000e+03 5.669402694702148438e+01 -3.696417617797851562e+01 -6.303847432136535645e-01 7.076202392578125000e+00 1.933745265007019043e+00 -1.615815401077270508e+00
1.948000000000000000e+03 5.631981277465820312e+01 -2.837535858154296875e+01 6.302289664745330811e-02 7.653347969055175781e+00 2.314911365509033203e+00 2.121408939361572266e+00
1.949000000000000000e+03 7.408985137939453125e+01 -1.162204861640930176e+00 -1.241364598274230957e+00 5.586459636688232422e+00 1.303528547286987305e+00 -9.432526826858520508e-01
1.950000000000000000e+03 7.350582122802734375e+01 -2.280929565429687500e+00 2.333900034427642822e-01 4.192082881927490234e+00 1.327641844749450684e+00 -1.125783085823059082e+00
1.951000000000000000e+03 6.746017456054687500e+01 -3.393976974487304688e+01 1.041014075279235840e+00 6.784102916717529297e+00 2.347535133361816406e+00 -1.079137444496154785e+00
1.952000000000000000e+03 7.169577026367187500e+01 -2.943952941894531250e+01 7.967544198036193848e-01 3.539546012878417969e+00 1.300890207290649414e+00 1.113290190696716309e+00
1.953000000000000000e+03 6.406384277343750000e+01 -2.637954521179199219e+01 -1.532092332839965820e+00 7.341566562652587891e+00 1.742842316627502441e+00 -2.749515771865844727e+00
1.954000000000000000e+03 3.434928512573242188e+01 -1.062625026702880859e+01 2.342164993286132812e+00 3.699346542358398438e+00 1.812453389167785645e+00 -1.871567964553833008e-01
1.955000000000000000e+03 3.001079940795898438e+01 -7.446279048919677734e+00 7.107708454132080078e-01 9.281311035156250000e+00 2.997624397277832031e+00 4.573802947998046875e-01
1.956000000000000000e+03 3.486473083496093750e+01 2.238644599914550781e+01 1.250150799751281738e-01 7.444587707519531250e+00 2.270880699157714844e+00 -9.229521751403808594e-01
1.957000000000000000e+03 3.595444869995117188e+01 2.272028541564941406e+01 -1.291212141513824463e-01 5.777246475219726562e+00 1.694437623023986816e+00 -1.525148034095764160e+00
1.958000000000000000e+03 4.609302902221679688e+01 3.253030014038085938e+01 -4.797641336917877197e-01 5.278545856475830078e+00 1.439634561538696289e+00 -5.517863631248474121e-01
1.959000000000000000e+03 6.740010833740234375e+01 -1.169433593750000000e+01 2.295765578746795654e-01 2.381721496582031250e+00 7.833893895149230957e-01 -1.021185278892517090e+00
1.960000000000000000e+03 7.086976623535156250e+01 -1.350438594818115234e+01 -3.055189251899719238e-01 2.707347869873046875e-01 -1.043524034321308136e-02 -1.032074928283691406e+00
1.961000000000000000e+03 3.192131233215332031e+01 2.773268699645996094e+00 -9.862447381019592285e-01 1.486608862876892090e+00 1.501092314720153809e-01 -7.992180436849594116e-02
1.962000000000000000e+03 4.384386062622070312e+01 1.557546615600585938e+01 1.727126717567443848e+00 8.731166839599609375e+00 3.137488126754760742e+00 1.325714111328125000e+00
1.963000000000000000e+03 5.163960647583007812e+01 1.871985816955566406e+01 -1.398216247558593750e+00 3.053719282150268555e+00 4.966508746147155762e-01 -1.685081481933593750e+00
1.964000000000000000e+03 5.263954162597656250e+01 1.780373954772949219e+01 -5.466380622237920761e-03 3.595319509506225586e+00 1.076955914497375488e+00 -1.791622281074523926e+00
1.965000000000000000e+03 5.359283828735351562e+01 1.685445785522460938e+01 5.446016788482666016e-01 4.307474613189697266e+00 1.455622911453247070e+00 -2.047294378280639648e+00
1.966000000000000000e+03 3.962523651123046875e+01 1.940721988677978516e+00 -5.296931266784667969e-01 7.145098686218261719e+00 1.984621763229370117e+00 7.420473694801330566e-01
1.967000000000000000e+03 3.784268569946289062e+01 2.068789482116699219e+00 1.159099221229553223e+00 3.414347410202026367e+00 1.372033953666687012e+00 3.079519748687744141e+00
1.968000000000000000e+03 5.634078216552734375e+01 1.111231040954589844e+01 1.470212817192077637e+00 9.086163520812988281e+00 3.166912794113159180e+00 6.410670280456542969e-01
1.969000000000000000e+03 5.917421340942382812e+01 1.117369556427001953e+01 1.423359394073486328e+00 8.031905174255371094e+00 2.836579322814941406e+00 2.132492661476135254e-01
1.970000000000000000e+03 3.715994262695312500e+01 -5.549758076667785645e-01 -1.589409708976745605e+00 3.725366115570068359e+00 6.407868862152099609e-01 3.175571680068969727e+00
1.971000000000000000e+03 3.010197448730468750e+01 1.094963550567626953e+01 3.062173366546630859e+00 6.593908309936523438e+00 2.896824359893798828e+00 3.992908000946044922e+00
1.972000000000000000e+03 2.294042396545410156e+01 1.063971138000488281e+01 2.489590167999267578e+00 5.503478050231933594e+00 2.397920370101928711e+00 -7.160179018974304199e-01
1.973000000000000000e+03 5.249922275543212891e+00 -1.716067504882812500e+01 2.061917781829833984e+00 1.108378410339355469e+01 3.943710565567016602e+00 3.749671697616577148e+00
1.974000000000000000e+03 3.493849182128906250e+01 1.302129840850830078e+01 -2.708948373794555664e+00 4.628727585077285767e-02 -7.987983226776123047e-01 -5.385991334915161133e-01
1.975000000000000000e+03 2.666215133666992188e+01 2.992505788803100586e+00 -6.699522137641906738e-01 3.913251399993896484e+00 9.729897379875183105e-01 -1.097642898559570312e+00
1.976000000000000000e+03 1.838351058959960938e+01 -1.311969661712646484e+01 -1.871893405914306641e+00 7.326703071594238281e+00 1.636442899703979492e+00 -1.773354530334472656e+00
1.977000000000000000e+03 3.998114395141601562e+01 3.589810848236083984e+00 2.631343603134155273e+00 9.628475189208984375e+00 3.677945613861083984e+00 1.808775067329406738e+00
1.978000000000000000e+03 1.809576153755187988e+00 -2.121789741516113281e+01 -8.089517056941986084e-02 4.577860355377197266e+00 1.349089503288269043e+00 1.829822182655334473e+00
1.979000000000000000e+03 4.054322814941406250e+01 1.024083328247070312e+01 -1.009313687682151794e-01 8.028448104858398438e+00 2.378255128860473633e+00 3.496498167514801025e-01
1.980000000000000000e+03 4.479851531982421875e+01 -1.675090980529785156e+01 -2.718207836151123047e-01 4.554072380065917969e+00 1.284675359725952148e+00 1.439799070358276367e+00
1.981000000000000000e+03 2.769345092773437500e+01 6.819055080413818359e+00 2.782949447631835938e+00 5.591873645782470703e+00 2.512446880340576172e+00 -4.011852741241455078e-01
1.982000000000000000e+03 1.727282142639160156e+01 -1.760753250122070312e+01 1.863433718681335449e+00 7.935650825500488281e+00 2.939725399017333984e+00 -9.025208950042724609e-01
1.983000000000000000e+03 1.324019336700439453e+01 -2.210737800598144531e+01 -4.407809674739837646e-01 1.248817563056945801e+00 2.424109578132629395e-01 1.182151317596435547e+00
1.984000000000000000e+03 2.935098266601562500e+01 -2.217859029769897461e+00 1.772803544998168945e+00 7.375894546508789062e+00 2.744609594345092773e+00 -2.863901853561401367e+00
1.985000000000000000e+03 1.753832817077636719e+01 -1.191303920745849609e+01 -1.274982333183288574e+00 1.021812820434570312e+01 2.682943582534790039e+00 -2.553673028945922852e+00
1.986000000000000000e+03 3.021142959594726562e+01 2.940928936004638672e+00 -1.301720499992370605e+00 5.351517200469970703e+00 1.214938998222351074e+00 -1.744390010833740234e+00
1.987000000000000000e+03 2.720363235473632812e+01 -8.610541224479675293e-01 6.397279500961303711e-01 2.872150182723999023e+00 1.053563475608825684e+00 -1.977184891700744629e+00
1.988000000000000000e+03 5.536259460449218750e+01 -1.926980781555175781e+01 1.206394791603088379e+00 9.977055549621582031e+00 3.355035066604614258e+00 -1.753441691398620605e+00
1.989000000000000000e+03 5.624245452880859375e+01 -1.672925567626953125e+01 2.175633758306503296e-01 6.124616622924804688e+00 1.902654051780700684e+00 -5.149968862533569336e-01
1.990000000000000000e+03 5.070180511474609375e+01 -2.540947151184082031e+01 -3.520349025726318359e+00 7.883428335189819336e-01 -8.196018338203430176e-01 -8.791390657424926758e-01
1.991000000000000000e+03 8.896372795104980469e+00 -2.732146453857421875e+01 3.577343821525573730e-01 1.573580741882324219e+00 5.793945789337158203e-01 1.978005021810531616e-01
1.992000000000000000e+03 5.194812011718750000e+01 -2.550934982299804688e+01 -4.147236347198486328e+00 7.341294288635253906e-01 -1.023932099342346191e+00 2.215420603752136230e-01
1.993000000000000000e+03 5.339827728271484375e+01 -1.478434944152832031e+01 -8.447682261466979980e-01 3.218395471572875977e+00 7.120881676673889160e-01 -3.337319850921630859e+00
1.994000000000000000e+03 5.336619567871093750e+01 -1.653891372680664062e+01 -1.061965465545654297e+00 2.006640672683715820e+00 2.834025621414184570e-01 -1.754701614379882812e+00
1.995000000000000000e+03 1.149245262145996094e+01 -1.168698024749755859e+01 -2.087608814239501953e+00 6.644318997859954834e-02 -6.063497066497802734e-01 1.021902441978454590e+00
1.996000000000000000e+03 1.627093315124511719e+01 -2.225602340698242188e+01 -1.297811716794967651e-01 5.344148159027099609e+00 1.564310073852539062e+00 9.883059859275817871e-01
1.997000000000000000e+03 1.578467082977294922e+01 -2.100397872924804688e+01 1.856039881706237793e+00 8.029232978820800781e+00 2.965581893920898438e+00 2.043519496917724609e+00
1.998000000000000000e+03 1.390437507629394531e+01 -2.556991577148437500e+01 -1.944644808769226074e+00 4.295429229736328125e+00 7.052353620529174805e-01 2.532747030258178711e+00
1.999000000000000000e+03 1.350968456268310547e+01 -2.322315406799316406e+01 -1.745826601982116699e+00 3.340070247650146484e+00 4.782730638980865479e-01 2.715245485305786133e+00
2.000000000000000000e+03 1.682607078552246094e+01 -1.972355461120605469e+01 2.175655364990234375e+00 7.604768276214599609e+00 2.934127092361450195e+00 -5.326110497117042542e-02
2.001000000000000000e+03 1.779179573059082031e+01 -1.993610000610351562e+01 2.194470405578613281e+00 6.079696178436279297e+00 2.482249975204467773e+00 -8.729165196418762207e-01
2.002000000000000000e+03 4.097655868530273438e+01 -2.093470764160156250e+01 1.899055004119873047e+00 6.235582351684570312e+00 2.440391302108764648e+00 -4.180773198604583740e-01
2.003000000000000000e+03 4.703007888793945312e+01 -2.673220825195312500e+01 -8.971256017684936523e-01 4.449761867523193359e+00 1.065790891647338867e+00 -3.296926736831665039e+00
2.004000000000000000e+03 5.536288452148437500e+01 -2.198844718933105469e+01 1.378934621810913086e+00 1.305908203125000000e+01 4.331405162811279297e+00 1.944201588630676270e+00
2.005000000000000000e+03 5.678754806518554688e+01 -1.957845306396484375e+01 1.898762583732604980e+00 7.578803539276123047e+00 2.843269824981689453e+00 2.437487803399562836e-02
2.006000000000000000e+03 5.522223281860351562e+01 -2.776269531250000000e+01 -1.051510453224182129e+00 7.076588630676269531e+00 1.807523488998413086e+00 1.738120198249816895e+00
2.007000000000000000e+03 1.757555961608886719e+01 -9.994738578796386719e+00 3.891819715499877930e+00 1.367274093627929688e+01 5.269368171691894531e+00 -5.668835639953613281e+00
2.008000000000000000e+03 1.704985046386718750e+01 -8.629323959350585938e+00 2.638961315155029297e+00 1.711838150024414062e+01 5.927202701568603516e+00 -3.574476957321166992e+00
2.009000000000000000e+03 7.276664972305297852e-01 3.743156051635742188e+01 -5.313405767083168030e-02 6.951274871826171875e+00 2.069442272186279297e+00 6.762634962797164917e-02
2.010000000000000000e+03 6.631428599357604980e-01 3.462091064453125000e+01 2.022710442543029785e-02 6.619276046752929688e+00 1.991850972175598145e+00 -2.525956332683563232e-01
2.011000000000000000e+03 5.280210971832275391e-01 2.764786720275878906e+01 1.268560141324996948e-01 2.641076803207397461e+00 8.303798437118530273e-01 -3.759418055415153503e-02
2.012000000000000000e+03 5.431755185127258301e-01 2.627191543579101562e+01 -4.141251370310783386e-02 2.689128637313842773e+00 7.943148016929626465e-01 6.780166178941726685e-02
2.013000000000000000e+03 6.175448894500732422e-01 2.346776962280273438e+01 -1.385979056358337402e-01 3.519901514053344727e+00 1.014391064643859863e+00 1.806947588920593262e-01
2.014000000000000000e+03 5.415193080902099609e+00 3.484281158447265625e+01 -1.277477741241455078e+00 4.782832622528076172e+00 1.051606416702270508e+00 -6.813565641641616821e-02
2.015000000000000000e+03 2.019110918045043945e+00 3.440795135498046875e+01 -3.332010507583618164e-01 5.977814674377441406e+00 1.693384051322937012e+00 -6.733437776565551758e-01
2.016000000000000000e+03 2.307113170623779297e+00 3.842817687988281250e+01 -2.468469291925430298e-01 6.113064765930175781e+00 1.759865283966064453e+00 3.494682312011718750e-01
2.017000000000000000e+03 6.484719514846801758e-01 2.062243461608886719e+01 -1.437456458806991577e-01 3.706402301788330078e+00 1.068796992301940918e+00 -9.528992325067520142e-02
2.018000000000000000e+03 6.434547305107116699e-01 1.920903396606445312e+01 1.818182063288986683e-03 3.319338321685791016e+00 9.963469505310058594e-01 -2.423413991928100586e-01
2.019000000000000000e+03 6.420844793319702148e-01 1.496991825103759766e+01 -8.354661054909229279e-03 1.147397518157958984e+00 3.417128622531890869e-01 -3.415875136852264404e-01
2.020000000000000000e+03 6.328059434890747070e-01 1.355975437164306641e+01 4.656567424535751343e-02 4.423346221446990967e-01 1.466700881719589233e-01 -2.945454418659210205e-01
2.021000000000000000e+03 5.338271260261535645e-01 7.931349277496337891e+00 2.020213752985000610e-02 -7.493560910224914551e-01 -2.187461853027343750e-01 -8.288360200822353363e-03
2.022000000000000000e+03 5.511949658393859863e-01 6.488911628723144531e+00 -9.901375509798526764e-03 -7.505469918251037598e-01 -2.281345129013061523e-01 8.912947378121316433e-04
2.023000000000000000e+03 4.544787704944610596e-01 5.034832954406738281e+00 1.576088555157184601e-02 -7.313840985298156738e-01 -2.146869599819183350e-01 8.780310861766338348e-03
2.024000000000000000e+03 4.081877708435058594e+00 1.659237980842590332e+00 1.172904819250106812e-01 2.331522703170776367e-01 1.051328256726264954e-01 -4.049202799797058105e-02
2.025000000000000000e+03 5.914600491523742676e-01 1.074356269836425781e+01 2.663560025393962860e-02 -4.606820940971374512e-01 -1.302139461040496826e-01 -1.176277175545692444e-01
2.026000000000000000e+03 1.904800176620483398e+00 1.363626480102539062e+01 1.083163246512413025e-01 1.547131538391113281e+00 4.966343641281127930e-01 -7.386404871940612793e-01
2.027000000000000000e+03 1.918355345726013184e+00 1.928140068054199219e+01 -2.957019805908203125e-01 3.584920406341552734e+00 9.867655038833618164e-01 -6.212416291236877441e-01
2.028000000000000000e+03 1.859396815299987793e+00 2.362544822692871094e+01 -1.707359552383422852e-01 4.246068000793457031e+00 1.222599625587463379e+00 3.579708039760589600e-01
2.029000000000000000e+03 6.123179197311401367e-01 2.678920507431030273e+00 8.366220630705356598e-03 -3.774775564670562744e-01 -1.107334047555923462e-01 1.326337456703186035e-01
2.030000000000000000e+03 4.441190338134765625e+01 -1.896524429321289062e+01 2.230780363082885742e+00 5.081410408020019531e+00 2.193657159805297852e+00 3.229470551013946533e-01
2.031000000000000000e+03 1.376566791534423828e+01 -7.735062122344970703e+00 1.967599153518676758e+00 6.261346340179443359e+00 2.468683719635009766e+00 -1.947662591934204102e+00
2.032000000000000000e+03 5.658878326416015625e+01 -2.080448722839355469e+01 2.029544353485107422e+00 8.859289169311523438e+00 3.266649961471557617e+00 5.927365422248840332e-01
2.033000000000000000e+03 4.676144409179687500e+01 -2.392037010192871094e+01 6.149078607559204102e-01 5.641628742218017578e+00 1.876960992813110352e+00 -2.069769382476806641e+00
2.034000000000000000e+03 2.538246154785156250e+01 8.735594153404235840e-01 -2.609561920166015625e+00 1.020092248916625977e+00 -4.768408834934234619e-01 -5.830577611923217773e-01
2.035000000000000000e+03 2.818358612060546875e+01 -1.732510328292846680e+00 2.188726425170898438e+00 6.075438022613525391e+00 2.479249238967895508e+00 -3.364253759384155273e+00
2.036000000000000000e+03 3.411668777465820312e+01 -3.641158103942871094e+00 1.447018623352050781e+00 3.886208295822143555e+00 1.599968075752258301e+00 1.995509266853332520e-01
2.037000000000000000e+03 2.803904151916503906e+01 -1.318897914886474609e+01 -2.415112495422363281e+00 5.552604198455810547e+00 9.412475228309631348e-01 2.237725496292114258e+00
2.038000000000000000e+03 1.547383785247802734e+01 -5.510733127593994141e+00 1.046129822731018066e+00 9.144195556640625000e+00 3.057097673416137695e+00 -2.108514070510864258e+00
2.039000000000000000e+03 2.868898773193359375e+01 8.339982628822326660e-01 -2.303535223007202148e+00 5.611457824707031250e+00 9.923766851425170898e-01 -1.989461541175842285e+00
2.040000000000000000e+03 3.098434829711914062e+01 -1.323215103149414062e+01 -2.055409193038940430e+00 5.074752330780029297e+00 9.058030247688293457e-01 2.467840671539306641e+00
2.041000000000000000e+03 2.794507789611816406e+01 5.337245389819145203e-02 -1.968034148216247559e+00 5.583831310272216797e+00 1.084739089012145996e+00 -2.081523418426513672e+00
2.042000000000000000e+03 1.577082061767578125e+01 -6.388343334197998047e+00 8.760392069816589355e-01 1.009454536437988281e+01 3.291175365447998047e+00 -2.274219512939453125e+00
2.043000000000000000e+03 2.768625259399414062e+01 -1.433763504028320312e+01 -2.238739013671875000e+00 5.252868175506591797e+00 9.042388200759887695e-01 2.000559329986572266e+00
2.044000000000000000e+03 3.143183517456054688e+01 -7.038638114929199219e+00 2.174881458282470703e+00 6.960371017456054688e+00 2.740575551986694336e+00 1.961012929677963257e-01
2.045000000000000000e+03 1.835286521911621094e+01 -7.194938659667968750e-01 1.294277667999267578e+00 2.749984741210937500e+00 1.213278770446777344e+00 1.692516326904296875e+00
2.046000000000000000e+03 3.185244941711425781e+01 -8.207152366638183594e+00 2.422219514846801758e+00 5.857715129852294922e+00 2.483980417251586914e+00 5.209776759147644043e-01
2.047000000000000000e+03 1.851976966857910156e+01 -1.114345264434814453e+01 1.895478248596191406e+00 6.602491378784179688e+00 2.549390792846679688e+00 -4.225471973419189453e+00
2.048000000000000000e+03 4.337578582763671875e+01 7.016096591949462891e+00 4.237371981143951416e-01 6.799664497375488281e+00 2.167020559310913086e+00 7.296816259622573853e-02
2.049000000000000000e+03 4.167103576660156250e+01 9.045193672180175781e+00 1.911376863718032837e-01 8.557619094848632812e+00 2.624627113342285156e+00 9.522497057914733887e-01
2.050000000000000000e+03 6.678814888000488281e+00 -1.326256370544433594e+01 -5.663006305694580078e-01 4.928993701934814453e+00 1.308807969093322754e+00 1.806201457977294922e+00
2.051000000000000000e+03 1.754225969314575195e+00 -1.587471771240234375e+01 1.949213892221450806e-01 2.519865274429321289e+00 8.144359588623046875e-01 -1.532982438802719116e-01
2.052000000000000000e+03 4.104405593872070312e+01 1.815973663330078125e+01 1.606353878974914551e+00 3.257573366165161133e+00 1.459178209304809570e+00 -4.585255682468414307e-01
2.053000000000000000e+03 2.619095802307128906e+01 1.457832527160644531e+01 -4.549725055694580078e+00 -8.239822983741760254e-01 -1.612112164497375488e+00 1.135264635086059570e+00
2.054000000000000000e+03 2.313583755493164062e+01 1.608488845825195312e+01 -3.537131786346435547e+00 6.535336971282958984e+00 8.994615674018859863e-01 6.404557228088378906e-01
2.055000000000000000e+03 4.595349502563476562e+01 7.256805419921875000e+00 -9.833295643329620361e-02 3.863606452941894531e+00 1.129582047462463379e+00 -1.213490128517150879e+00
2.056000000000000000e+03 4.695739364624023438e+01 6.449487209320068359e+00 -5.971404910087585449e-01 2.029280424118041992e+00 4.296419918537139893e-01 -8.454843163490295410e-01
2.057000000000000000e+03 6.002015686035156250e+01 1.638885688781738281e+01 2.085395812988281250e+00 9.209756851196289062e+00 3.388545751571655273e+00 2.031443119049072266e+00
2.058000000000000000e+03 6.623735046386718750e+01 2.649805450439453125e+01 2.397078752517700195e+00 4.895622730255126953e+00 2.187810420989990234e+00 9.052830934524536133e-01
2.059000000000000000e+03 6.771604919433593750e+01 2.071092033386230469e+01 -3.251312494277954102e+00 4.851734638214111328e-01 -8.298416733741760254e-01 -2.720316946506500244e-01
2.060000000000000000e+03 1.935686492919921875e+01 -1.423282241821289062e+01 -1.629913926124572754e+00 5.640183448791503906e+00 1.203080773353576660e+00 -1.640051126480102539e+00
2.061000000000000000e+03 2.228447151184082031e+01 -1.492855453491210938e+01 -1.244588017463684082e+00 1.941565573215484619e-01 -3.151294291019439697e-01 -1.391054987907409668e+00
2.062000000000000000e+03 4.488739967346191406e+00 1.670632719993591309e+00 2.223791182041168213e-01 2.861720323562622070e-01 1.525653451681137085e-01 -1.683115065097808838e-01
2.063000000000000000e+03 9.969844222068786621e-01 -2.174853801727294922e+00 3.301563486456871033e-02 -1.476723253726959229e-01 -3.439700976014137268e-02 -1.302298903465270996e-01
2.064000000000000000e+03 1.455708861351013184e+00 -1.662609934806823730e+00 -1.299969298997893929e-04 -5.316116288304328918e-02 -1.598734781146049500e-02 -1.631504744291305542e-01
2.065000000000000000e+03 2.321800708770751953e+00 -1.941177487373352051e+00 5.284594744443893433e-02 3.563272301107645035e-03 1.692276634275913239e-02 -1.399537920951843262e-01
2.066000000000000000e+03 3.920476436614990234e+00 -1.635876059532165527e+00 1.485985666513442993e-01 5.289794877171516418e-02 6.044895574450492859e-02 -7.213086634874343872e-02
2.067000000000000000e+03 4.499260425567626953e+00 -1.629223942756652832e+00 2.403199076652526855e-01 6.090603396296501160e-02 9.036777913570404053e-02 -1.258004270493984222e-02
2.068000000000000000e+03 4.301610946655273438e+00 -1.645624160766601562e+00 2.017242759466171265e-01 5.187023058533668518e-02 7.607834786176681519e-02 -5.542001873254776001e-02
2.069000000000000000e+03 5.911247730255126953e+00 -1.677868366241455078e+00 7.388925552368164062e-01 1.462926268577575684e-01 2.655555605888366699e-01 2.406270354986190796e-01
2.070000000000000000e+03 6.719246864318847656e+00 -1.943500518798828125e+00 1.469245672225952148e+00 4.882608354091644287e-01 5.872519612312316895e-01 7.836860418319702148e-01
2.071000000000000000e+03 7.102491378784179688e+00 -1.620261311531066895e+00 1.497203588485717773e+00 4.189228117465972900e-01 5.748379230499267578e-01 7.270386815071105957e-01
2.072000000000000000e+03 7.298094749450683594e+00 -1.609796166419982910e+00 1.646144390106201172e+00 5.422633886337280273e-01 6.565223336219787598e-01 9.100980758666992188e-01
2.073000000000000000e+03 8.573905944824218750e+00 -1.887139797210693359e+00 2.763003110885620117e+00 3.098577499389648438e+00 1.758474111557006836e+00 2.800132751464843750e+00
2.074000000000000000e+03 8.689329147338867188e+00 -1.644999980926513672e+00 2.899587631225585938e+00 3.248321294784545898e+00 1.844372749328613281e+00 2.901398420333862305e+00
2.075000000000000000e+03 8.498438835144042969e+00 -1.639558076858520508e+00 2.806053876876831055e+00 2.362792015075683594e+00 1.550653815269470215e+00 2.541666746139526367e+00
2.076000000000000000e+03 9.081543922424316406e+00 -1.676126599311828613e+00 2.827605485916137695e+00 5.199807643890380859e+00 2.408223867416381836e+00 3.567479133605957031e+00
2.077000000000000000e+03 8.059228897094726562e+00 -2.133227348327636719e+00 2.406393527984619141e+00 2.064562559127807617e+00 1.341286778450012207e+00 2.121793508529663086e+00
2.078000000000000000e+03 8.884741783142089844e+00 -1.653514742851257324e+00 2.937822580337524414e+00 4.003278255462646484e+00 2.082330226898193359e+00 3.297622680664062500e+00
2.079000000000000000e+03 9.422907829284667969e+00 -2.519186258316040039e+00 1.703787088394165039e+00 6.959190368652343750e+00 2.598893404006958008e+00 2.862067222595214844e+00
2.080000000000000000e+03 9.292607307434082031e+00 -1.712126731872558594e+00 2.611130237579345703e+00 6.406963348388671875e+00 2.705428123474121094e+00 3.740165233612060547e+00
2.081000000000000000e+03 9.310545921325683594e+00 -2.151894569396972656e+00 2.123692750930786133e+00 6.555428504943847656e+00 2.603736400604248047e+00 3.211750984191894531e+00
2.082000000000000000e+03 9.929714202880859375e+00 -1.649972915649414062e+00 1.657148838043212891e+00 1.132509040832519531e+01 3.894671678543090820e+00 2.930076122283935547e+00
2.083000000000000000e+03 9.587370872497558594e+00 -2.081791639328002930e+00 1.803073644638061523e+00 8.261234283447265625e+00 3.019292354583740234e+00 3.169581890106201172e+00
2.084000000000000000e+03 1.012016391754150391e+01 1.637242197990417480e+00 2.087719917297363281e+00 1.306137466430664062e+01 4.544728279113769531e+00 -4.177307605743408203e+00
2.085000000000000000e+03 8.894792556762695312e+00 1.669771671295166016e+00 3.572932004928588867e+00 5.367453575134277344e+00 2.682115554809570312e+00 -5.351965904235839844e+00
2.086000000000000000e+03 9.101324081420898438e+00 1.676177263259887695e+00 3.401987552642822266e+00 6.548533916473388672e+00 2.985156536102294922e+00 -5.679069519042968750e+00
2.087000000000000000e+03 8.460975646972656250e+00 1.903700351715087891e+00 2.916558265686035156e+00 3.984367847442626953e+00 2.070277690887451172e+00 -4.534106731414794922e+00
2.088000000000000000e+03 7.441103935241699219e+00 1.888903260231018066e+00 2.226364612579345703e+00 1.745577573776245117e+00 1.191582679748535156e+00 -2.654557704925537109e+00
2.089000000000000000e+03 7.095888614654541016e+00 1.793011069297790527e+00 1.894927263259887695e+00 1.239772558212280273e+00 9.404099583625793457e-01 -2.076376914978027344e+00
2.090000000000000000e+03 5.908444404602050781e+00 1.701901435852050781e+00 8.527789115905761719e-01 5.552683472633361816e-01 4.224141538143157959e-01 -8.686118721961975098e-01
2.091000000000000000e+03 5.496083259582519531e+00 1.686241984367370605e+00 6.024186611175537109e-01 4.580394327640533447e-01 3.181374371051788330e-01 -6.213288903236389160e-01
2.092000000000000000e+03 4.891731739044189453e+00 1.660804152488708496e+00 3.422189652919769287e-01 3.483525812625885010e-01 2.071714699268341064e-01 -3.212388753890991211e-01
2.093000000000000000e+03 5.092810630798339844e+00 1.664473772048950195e+00 4.123265147209167480e-01 3.863452374935150146e-01 2.396015226840972900e-01 -4.293083846569061279e-01
2.094000000000000000e+03 3.704038143157958984e+00 1.646611094474792480e+00 4.709687456488609314e-02 1.874068975448608398e-01 7.035113126039505005e-02 6.032711267471313477e-02
2.095000000000000000e+03 3.498918056488037109e+00 1.655962824821472168e+00 1.790992170572280884e-02 1.494136303663253784e-01 5.019706487655639648e-02 9.212892502546310425e-02
2.096000000000000000e+03 3.806134462356567383e+00 1.862411618232727051e+00 1.367957293987274170e-01 2.480593472719192505e-01 1.154565215110778809e-01 -1.914153574034571648e-03
2.097000000000000000e+03 3.298560380935668945e+00 1.615272760391235352e+00 -7.831251248717308044e-03 1.234229952096939087e-01 3.467752411961555481e-02 1.342037916183471680e-01
2.098000000000000000e+03 2.937628507614135742e+00 1.668724894523620605e+00 -1.793192699551582336e-02 1.054961755871772766e-01 2.626927383244037628e-02 1.826967746019363403e-01
2.099000000000000000e+03 1.434247732162475586e+00 2.620726346969604492e+00 4.099076241254806519e-02 -1.632191985845565796e-01 -3.666852787137031555e-02 2.413631081581115723e-01
2.100000000000000000e+03 1.851472139358520508e+00 1.874373674392700195e+00 -1.387878414243459702e-02 -3.681920468807220459e-02 -1.520939636975526810e-02 2.619314193725585938e-01
2.101000000000000000e+03 1.037327671051025391e+01 1.888819932937622070e+00 1.581252336502075195e+00 1.251683044433593750e+01 4.229424953460693359e+00 -3.032879114151000977e+00
2.102000000000000000e+03 9.995513916015625000e+00 -1.932434201240539551e+00 1.429336547851562500e+00 1.075637149810791016e+01 3.655712366104125977e+00 2.465317726135253906e+00
2.103000000000000000e+03 1.060899257659912109e+01 -1.875640511512756348e+00 1.465479493141174316e+00 1.240848064422607422e+01 4.162188053131103516e+00 1.032814309000968933e-01
2.104000000000000000e+03 1.126134777069091797e+01 1.133107304573059082e+00 5.611346244812011719e+00 1.242331027984619141e+01 5.410397052764892578e+00 8.413637876510620117e-01
2.105000000000000000e+03 1.028863620758056641e+01 -2.220643758773803711e+00 1.169382095336914062e+00 1.072309875488281250e+01 3.567744255065917969e+00 1.354460835456848145e+00
2.106000000000000000e+03 1.098530006408691406e+01 2.588205814361572266e+00 6.618457436561584473e-01 1.024900150299072266e+01 3.273254156112670898e+00 -1.521684050559997559e+00
2.107000000000000000e+03 9.834478378295898438e+00 2.325837850570678711e+00 1.046905159950256348e+00 9.920705795288085938e+00 3.290283441543579102e+00 -4.513040065765380859e+00
2.108000000000000000e+03 1.207219696044921875e+01 -6.232510805130004883e-01 6.958880901336669922e+00 9.344889640808105469e+00 4.891130924224853516e+00 -2.551881313323974609e+00
2.109000000000000000e+03 1.016844940185546875e+01 1.921655535697937012e+00 1.516605615615844727e+00 1.205193614959716797e+01 4.070562839508056641e+00 -3.788740396499633789e+00
2.110000000000000000e+03 1.242738604545593262e+00 2.152749538421630859e+00 5.659118294715881348e-03 -1.870281398296356201e-01 -5.441070720553398132e-02 2.202204018831253052e-01
2.111000000000000000e+03 7.245393395423889160e-01 2.032249689102172852e+00 1.128703728318214417e-02 -2.531511783599853516e-01 -7.255923748016357422e-02 1.636459976434707642e-01
2.112000000000000000e+03 4.181230926513671875e+01 1.018988513946533203e+01 4.812111556529998779e-01 8.091547012329101562e+00 2.571827411651611328e+00 1.134634613990783691e+00
2.113000000000000000e+03 4.050586318969726562e+01 8.976096153259277344e+00 4.054878056049346924e-01 8.468969345092773438e+00 2.662337064743041992e+00 8.382276892662048340e-01
2.114000000000000000e+03 1.999227333068847656e+01 5.005451679229736328e+00 3.207679688930511475e-01 3.875663995742797852e+00 1.258929610252380371e+00 2.714527368545532227e+00
2.115000000000000000e+03 2.358318138122558594e+01 7.640557289123535156e+00 2.716672897338867188e+00 3.962358951568603516e+00 2.003709554672241211e+00 -7.348929345607757568e-02
2.116000000000000000e+03 3.129775619506835938e+01 -1.438793849945068359e+01 -3.909299612045288086e+00 5.111598491668701172e+00 3.606896996498107910e-01 2.112707614898681641e+00
2.117000000000000000e+03 3.966216278076171875e+01 -2.868793869018554688e+01 -2.356314182281494141e+00 9.282258033752441406e+00 2.077783107757568359e+00 1.697890639305114746e+00
2.118000000000000000e+03 4.438550186157226562e+01 1.840072059631347656e+01 9.615390561521053314e-03 6.810984134674072266e+00 2.046179771423339844e+00 1.621547102928161621e+00
2.119000000000000000e+03 3.431194305419921875e+01 2.177464866638183594e+01 3.819808363914489746e-01 8.296566963195800781e+00 2.603564262390136719e+00 -4.110300540924072266e-01
2.120000000000000000e+03 3.234733963012695312e+01 -1.396356105804443359e+01 -2.962355852127075195e+00 2.921843290328979492e+00 -1.215375028550624847e-02 2.578232049942016602e+00
2.121000000000000000e+03 3.294840240478515625e+01 -1.043533802032470703e+01 2.141285419464111328e+00 4.067979812622070312e+00 1.862779498100280762e+00 6.087236404418945312e-01
2.122000000000000000e+03 3.213468170166015625e+01 2.775120544433593750e+01 6.857271194458007812e-01 6.667724609375000000e+00 2.206035614013671875e+00 -7.496936321258544922e-01
2.123000000000000000e+03 3.294882202148437500e+01 2.680304718017578125e+01 9.372042417526245117e-01 8.338983535766601562e+00 2.782856225967407227e+00 -1.799281984567642212e-01
2.124000000000000000e+03 1.096959686279296875e+01 -2.520914077758789062e+01 -1.458914279937744141e+00 1.183123946189880371e+00 -8.273711800575256348e-02 1.445512413978576660e+00
2.125000000000000000e+03 1.150537776947021484e+01 -3.209692764282226562e+01 1.821667432785034180e+00 4.889778614044189453e+00 2.013433694839477539e+00 1.464047193527221680e+00
2.126000000000000000e+03 1.546959638595581055e+00 -2.560045719146728516e+00 7.694788277149200439e-02 -3.735299780964851379e-02 1.187846623361110687e-02 -1.091942414641380310e-01
2.127000000000000000e+03 4.491802215576171875e+01 7.899556636810302734e+00 -3.607095181941986084e-01 5.799094676971435547e+00 1.631515502929687500e+00 -4.467956125736236572e-01
2.128000000000000000e+03 4.740649414062500000e+01 2.755419731140136719e+01 1.613785266876220703e+00 8.529833793640136719e+00 3.043085813522338867e+00 9.560017585754394531e-01
2.129000000000000000e+03 5.240420913696289062e+01 3.048808288574218750e+01 1.321530938148498535e+00 7.872376441955566406e+00 2.758172273635864258e+00 1.459159612655639648e+00
2.130000000000000000e+03 3.299592971801757812e+01 1.913100242614746094e+01 1.318879604339599609e+00 9.354465484619140625e+00 3.202003479003906250e+00 8.599432706832885742e-01
2.131000000000000000e+03 3.973231887817382812e+01 1.925209808349609375e+01 1.346613645553588867e+00 1.813939571380615234e+00 9.481659531593322754e-01 -1.199672102928161621e+00
2.132000000000000000e+03 3.299145126342773438e+01 1.482693767547607422e+01 -2.881234586238861084e-01 5.224133491516113281e+00 1.480802893638610840e+00 1.658379435539245605e+00
2.133000000000000000e+03 5.242727279663085938e+01 2.854877281188964844e+01 1.278948783874511719e+00 7.776044368743896484e+00 2.716497898101806641e+00 1.087633445858955383e-01
2.134000000000000000e+03 3.166274642944335938e+01 -8.808599114418029785e-01 -6.833301782608032227e-01 4.378141880035400391e+00 1.108443498611450195e+00 -1.048497796058654785e+00
2.135000000000000000e+03 4.093401718139648438e+01 -2.214328765869140625e+01 1.847054839134216309e+00 7.866775035858154297e+00 2.914148807525634766e+00 8.555416464805603027e-01
2.136000000000000000e+03 4.099317932128906250e+01 -2.312452697753906250e+01 2.031136274337768555e+00 6.713641166687011719e+00 2.623433351516723633e+00 2.042909622192382812e+00
2.137000000000000000e+03 3.007707786560058594e+01 -2.875987815856933594e+01 -1.304695248603820801e+00 5.122580528259277344e+00 1.145365476608276367e+00 -1.355187296867370605e+00
2.138000000000000000e+03 3.182585906982421875e+01 -2.911581230163574219e+01 -1.298917770385742188e+00 2.702553987503051758e+00 4.210908412933349609e-01 -1.511239767074584961e+00
2.139000000000000000e+03 3.302056121826171875e+01 1.809195327758789062e+01 2.545843362808227539e+00 7.147429466247558594e+00 2.907981872558593750e+00 1.009237885475158691e+00
2.140000000000000000e+03 6.788544464111328125e+01 4.999403476715087891e+00 -1.143790706992149353e-01 1.403050661087036133e+00 3.866014778614044189e-01 1.683728337287902832e+00
2.141000000000000000e+03 6.733898162841796875e+01 2.576020061969757080e-01 4.671775102615356445e-01 3.486951112747192383e+00 1.186238646507263184e+00 2.032247543334960938e+00
2.142000000000000000e+03 4.456977462768554688e+01 -2.675448417663574219e+01 -1.599323987960815430e+00 1.211759567260742188e+00 -1.162693351507186890e-01 -2.397335767745971680e+00
2.143000000000000000e+03 4.149909210205078125e+01 -2.662792587280273438e+01 -1.293987512588500977e+00 4.811506748199462891e+00 1.055255770683288574e+00 1.903560519218444824e+00
2.144000000000000000e+03 3.499856567382812500e+01 -1.428567504882812500e+01 -5.079308509826660156e+00 4.737625718116760254e-01 -1.381663799285888672e+00 -4.570609331130981445e-01
2.145000000000000000e+03 7.151657104492187500e+01 7.108787447214126587e-02 -1.496038734912872314e-01 5.276125669479370117e-01 1.134026125073432922e-01 3.074114024639129639e-01
2.146000000000000000e+03 7.052856445312500000e+01 4.419495582580566406e+00 -1.156330108642578125e-01 3.483561277389526367e+00 1.010378479957580566e+00 1.589784264564514160e+00
2.147000000000000000e+03 6.599038696289062500e+01 3.099075889587402344e+01 7.714304924011230469e-01 5.922711849212646484e+00 2.008242607116699219e+00 9.979640841484069824e-01
2.148000000000000000e+03 6.482592010498046875e+01 3.192778015136718750e+01 6.217303276062011719e-01 5.602913856506347656e+00 1.867393255233764648e+00 5.545933246612548828e-01
2.149000000000000000e+03 2.248257064819335938e+01 1.531291484832763672e+01 -2.767735958099365234e+00 7.915107250213623047e+00 1.544211387634277344e+00 3.319208621978759766e-01
2.150000000000000000e+03 9.638298034667968750e+00 -1.008271503448486328e+01 -2.291647940874099731e-01 1.811704635620117188e+00 4.747619628906250000e-01 2.416370391845703125e+00
2.151000000000000000e+03 4.275170135498046875e+01 -2.963005751371383667e-02 -2.131181955337524414e-02 3.466076850891113281e+00 1.033429503440856934e+00 -1.028327703475952148e+00
2.152000000000000000e+03 6.065653610229492188e+01 2.461830139160156250e+00 -1.671819806098937988e+00 5.135693073272705078e+00 1.039161920547485352e+00 -2.216497898101806641e+00
2.153000000000000000e+03 6.267435836791992188e+01 6.941868782043457031e+00 -1.062404513359069824e+00 3.947286367416381836e+00 8.654645681381225586e-01 -1.655764698982238770e+00
2.154000000000000000e+03 5.218021392822265625e+01 2.617025375366210938e+01 1.888541340827941895e+00 6.188309192657470703e+00 2.423055171966552734e+00 -3.503314852714538574e-01
2.155000000000000000e+03 5.132055282592773438e+01 2.384474945068359375e+01 7.855729460716247559e-01 5.263717174530029297e+00 1.814787030220031738e+00 -7.208118438720703125e-01
2.156000000000000000e+03 4.136598587036132812e+01 -2.381919097900390625e+01 2.189411640167236328e+00 5.627369403839111328e+00 2.345034360885620117e+00 2.132341861724853516e+00
2.157000000000000000e+03 3.411159896850585938e+01 2.928665924072265625e+01 1.019268989562988281e+00 9.435147285461425781e+00 3.136324882507324219e+00 -1.930937170982360840e-01
2.158000000000000000e+03 6.272475051879882812e+01 -5.689460754394531250e+00 1.656816005706787109e+00 1.012315273284912109e+01 3.533990621566772461e+00 4.889022111892700195e-01
2.159000000000000000e+03 4.133989810943603516e+00 -3.146866226196289062e+01 4.667539000511169434e-01 3.775633096694946289e+00 1.272716045379638672e+00 -3.686744272708892822e-01
2.160000000000000000e+03 2.977862358093261719e+00 -2.908325004577636719e+01 2.215850949287414551e-01 4.238378524780273438e+00 1.337989091873168945e+00 -6.686543226242065430e-01
2.161000000000000000e+03 3.749349594116210938e+00 -3.570401382446289062e+01 1.690649539232254028e-01 4.224918842315673828e+00 1.318195104598999023e+00 3.179839849472045898e-01
2.162000000000000000e+03 1.529216289520263672e+00 -1.041935539245605469e+01 -1.717839390039443970e-01 1.477018594741821289e+00 3.915704190731048584e-01 1.938666999340057373e-01
2.163000000000000000e+03 1.785645008087158203e+00 -1.851306724548339844e+01 6.542627811431884766e-01 3.065017938613891602e+00 1.115784168243408203e+00 1.398087382316589355e+00
2.164000000000000000e+03 1.767423748970031738e+00 -2.522798347473144531e+01 -3.034321963787078857e-01 5.425025939941406250e+00 1.536478042602539062e+00 -6.820844113826751709e-02
2.165000000000000000e+03 7.382157325744628906e+00 -2.400937080383300781e+01 -3.277589797973632812e+00 4.563636779785156250e-01 -8.463678359985351562e-01 -8.628246188163757324e-01
2.166000000000000000e+03 3.024366855621337891e+00 -2.788303756713867188e+01 -9.760852158069610596e-02 4.346221446990966797e+00 1.274583935737609863e+00 -7.639800310134887695e-01
2.167000000000000000e+03 1.678413271903991699e+00 -7.873012065887451172e+00 -3.610100969672203064e-02 9.271741509437561035e-01 2.673219442367553711e-01 4.731196165084838867e-01
2.168000000000000000e+03 3.278242349624633789e+00 -7.442202091217041016e+00 6.415323913097381592e-02 1.477445244789123535e+00 4.624795317649841309e-01 9.679902791976928711e-01
2.169000000000000000e+03 2.531567573547363281e+00 -9.325639724731445312e+00 -1.989110708236694336e-01 1.696700334548950195e+00 4.493367969989776611e-01 6.066807508468627930e-01
2.170000000000000000e+03 3.072629928588867188e+00 -3.033751869201660156e+01 2.523420751094818115e-01 4.144668579101562500e+00 1.319103121757507324e+00 -5.198072195053100586e-01
2.171000000000000000e+03 3.084753036499023438e+00 -2.126021385192871094e+01 -6.387295722961425781e-01 5.781034946441650391e+00 1.542691588401794434e+00 2.384110927581787109e+00
2.172000000000000000e+03 1.866500377655029297e+00 -3.189378356933593750e+01 1.058442294597625732e-01 4.389253139495849609e+00 1.348529219627380371e+00 -2.392911761999130249e-01
2.173000000000000000e+03 3.015580892562866211e+00 -1.836307716369628906e+01 1.738837957382202148e+00 5.409718513488769531e+00 2.144567012786865234e+00 1.155166149139404297e+00
2.174000000000000000e+03 3.221972465515136719e+00 -1.976724052429199219e+01 8.677335381507873535e-01 5.447263717651367188e+00 1.894499182701110840e+00 2.336413860321044922e+00
2.175000000000000000e+03 3.599971771240234375e+00 -1.123281478881835938e+01 -6.784268617630004883e-01 3.207993984222412109e+00 7.588701248168945312e-01 6.673987507820129395e-01
2.176000000000000000e+03 1.854592442512512207e+00 -1.985478782653808594e+01 1.783143579959869385e-01 3.940486669540405273e+00 1.235640287399291992e+00 1.806170225143432617e+00
2.177000000000000000e+03 4.380596637725830078e+00 -2.619390106201171875e+01 -7.541179060935974121e-01 3.827959299087524414e+00 9.221524596214294434e-01 -8.806634545326232910e-01
2.178000000000000000e+03 4.494069099426269531e+00 -1.615949821472167969e+01 1.265109300613403320e+00 7.169886112213134766e+00 2.530498743057250977e+00 1.178742170333862305e+00
2.179000000000000000e+03 3.641470432281494141e+00 -3.421947860717773438e+01 3.448251485824584961e-01 4.112250804901123047e+00 1.337122797966003418e+00 1.576055288314819336e-01
2.180000000000000000e+03 4.357498168945312500e+00 -3.243260574340820312e+01 5.606240034103393555e-01 3.791885614395141602e+00 1.305752873420715332e+00 -1.071140021085739136e-01
2.181000000000000000e+03 1.117832088470458984e+01 7.085399150848388672e+00 -3.465410947799682617e+00 5.678212642669677734e+00 6.638405323028564453e-01 -1.420376062393188477e+00
2.182000000000000000e+03 5.942053985595703125e+01 1.880298137664794922e+00 -1.519841432571411133e+00 4.640372753143310547e+00 9.361593127250671387e-01 -2.600055217742919922e+00
2.183000000000000000e+03 5.556217956542968750e+01 7.458250045776367188e+00 1.421784281730651855e+00 7.949206352233886719e+00 2.811297178268432617e+00 6.731982231140136719e-01
2.184000000000000000e+03 6.635339355468750000e+01 -1.342491436004638672e+01 -9.826698303222656250e-01 3.665472269058227539e+00 8.048407435417175293e-01 -1.649511903524398804e-01
2.185000000000000000e+03 6.048205947875976562e+01 1.068916988372802734e+01 1.683883428573608398e+00 8.192894935607910156e+00 2.963033676147460938e+00 -1.288231492042541504e+00
2.186000000000000000e+03 5.641396331787109375e+01 1.414977550506591797e+01 1.744618296623229980e+00 7.340153217315673828e+00 2.725431442260742188e+00 7.785265892744064331e-02
2.187000000000000000e+03 4.761560058593750000e+01 -2.768242645263671875e+01 -5.105561614036560059e-01 4.915277004241943359e+00 1.321416258811950684e+00 -3.492266893386840820e+00
2.188000000000000000e+03 4.841373825073242188e+01 -2.830782508850097656e+01 2.158695757389068604e-01 5.179035186767578125e+00 1.618471503257751465e+00 -3.103797435760498047e+00
2.189000000000000000e+03 6.860947418212890625e+01 5.792041301727294922e+00 -2.463969588279724121e-01 1.560364484786987305e+00 3.941902518272399902e-01 1.997263550758361816e+00
2.190000000000000000e+03 7.215403747558593750e+01 8.569178581237792969e+00 2.501378059387207031e-01 9.001318931579589844e+00 2.775437116622924805e+00 9.742676615715026855e-01
2.191000000000000000e+03 5.070494461059570312e+01 1.958603286743164062e+01 -1.239697813987731934e+00 2.832211732864379883e+00 4.777541458606719971e-01 -1.730274200439453125e+00
2.192000000000000000e+03 6.467428588867187500e+01 3.716022872924804688e+01 -8.354666233062744141e-01 4.271860599517822266e+00 1.030918121337890625e+00 -3.004435300827026367e-01
2.193000000000000000e+03 6.359696578979492188e+01 -2.032878494262695312e+01 1.731929779052734375e+00 8.416617393493652344e+00 3.044564247131347656e+00 -1.402262330055236816e+00
2.194000000000000000e+03 1.698890495300292969e+01 -2.592292785644531250e+01 -2.323990345001220703e+00 2.846330404281616211e+00 1.567020267248153687e-01 2.164345979690551758e+00
2.195000000000000000e+03 2.939160919189453125e+01 3.644112348556518555e+00 -9.947742223739624023e-01 6.073802471160888672e+00 1.523708581924438477e+00 -1.371983885765075684e+00
2.196000000000000000e+03 2.040769386291503906e+01 1.436546802520751953e+01 7.459423542022705078e-01 1.335692405700683594e+01 4.230859756469726562e+00 -1.233552932739257812e+00
2.197000000000000000e+03 7.549269104003906250e+01 1.886562347412109375e+00 -4.904282689094543457e-01 6.772487163543701172e+00 1.884617686271667480e+00 -8.260884284973144531e-01
2.198000000000000000e+03 4.795537948608398438e+01 5.566127777099609375e+00 -1.214700579643249512e+00 1.523936867713928223e+00 9.277090430259704590e-02 -8.983611464500427246e-01
2.199000000000000000e+03 6.068392944335937500e+01 -4.037480354309082031e-01 -8.875636458396911621e-01 6.579619884490966797e+00 1.707616806030273438e+00 -1.602589607238769531e+00
2.200000000000000000e+03 8.538219451904296875e+00 1.172357559204101562e+01 1.920708894729614258e+00 8.726529121398925781e+00 3.194171428680419922e+00 -1.317021608352661133e+00
2.201000000000000000e+03 8.916432380676269531e+00 1.056716346740722656e+01 1.851415634155273438e+00 8.698560714721679688e+00 3.164992809295654297e+00 -1.120732426643371582e+00
2.202000000000000000e+03 7.303483581542968750e+01 -3.835403823852539062e+01 -1.918256282806396484e-01 6.388175010681152344e+00 1.858904838562011719e+00 -6.322718858718872070e-01
2.203000000000000000e+03 7.439880371093750000e+01 -3.458917617797851562e+01 4.667366147041320801e-01 6.197384357452392578e+00 1.999236226081848145e+00 -2.922874391078948975e-01
2.204000000000000000e+03 7.676575469970703125e+01 -3.489597702026367188e+01 1.418642997741699219e-01 6.934282302856445312e+00 2.122843980789184570e+00 -1.213756576180458069e-01
2.205000000000000000e+03 7.803195190429687500e+01 1.939093399047851562e+01 -1.691130101680755615e-01 7.341919898986816406e+00 2.151842117309570312e+00 4.645812809467315674e-01
2.206000000000000000e+03 7.329470062255859375e+01 1.769446945190429688e+01 -7.626983523368835449e-01 7.922063350677490234e+00 2.147809505462646484e+00 9.765291959047317505e-02
2.207000000000000000e+03 7.367773437500000000e+01 -2.594721794128417969e+01 -1.728586077690124512e+00 8.686799049377441406e+00 2.087463855743408203e+00 1.020900845527648926e+00
2.208000000000000000e+03 7.785393524169921875e+01 3.591584777832031250e+01 -3.906047204509377480e-03 7.093981742858886719e+00 2.127022743225097656e+00 8.487907797098159790e-02
2.209000000000000000e+03 7.630825042724609375e+01 3.296438217163085938e+01 8.232279121875762939e-02 6.647683143615722656e+00 2.019001722335815430e+00 1.375604718923568726e-01
2.210000000000000000e+03 7.827376556396484375e+01 -2.372340965270996094e+01 4.256189763545989990e-01 7.255570888519287109e+00 2.304357051849365234e+00 -1.326330453157424927e-01
2.211000000000000000e+03 7.638839721679687500e+01 -2.539049720764160156e+01 -2.448906004428863525e-02 8.210692405700683594e+00 2.455860853195190430e+00 -5.266976356506347656e-01
2.212000000000000000e+03 7.801310729980468750e+01 -2.884843826293945312e+01 -1.193773522973060608e-01 7.365097999572753906e+00 2.173716306686401367e+00 -4.604033008217811584e-02
2.213000000000000000e+03 7.655416107177734375e+01 -3.138101196289062500e+01 1.693318970501422882e-02 6.864301681518554688e+00 2.064370393753051758e+00 1.626412272453308105e-01
2.214000000000000000e+03 7.455625915527343750e+01 -2.512868499755859375e+01 2.160581946372985840e-01 8.685075759887695312e+00 2.670340061187744141e+00 -1.632287353277206421e-01
2.215000000000000000e+03 7.638725280761718750e+01 -2.329202270507812500e+01 1.030959129333496094e+00 8.627128601074218750e+00 2.897426366806030273e+00 1.528100669384002686e-01
2.216000000000000000e+03 7.571434020996093750e+01 -3.695720291137695312e+01 3.733049333095550537e-02 6.900042057037353516e+00 2.081211805343627930e+00 -3.195456564426422119e-01
2.217000000000000000e+03 7.566589355468750000e+01 -3.379331588745117188e+01 2.148011773824691772e-01 6.504362583160400391e+00 2.015749216079711914e+00 -2.831489965319633484e-02
2.218000000000000000e+03 7.219160461425781250e+01 -3.437793731689453125e+01 1.011078715324401855e+00 5.514916419982910156e+00 1.957798480987548828e+00 -6.692849397659301758e-01
2.219000000000000000e+03 7.473006439208984375e+01 -4.045832443237304688e+01 -2.474853545427322388e-01 6.917312622070312500e+00 2.000948190689086914e+00 -2.931596338748931885e-01
2.220000000000000000e+03 7.800125885009765625e+01 2.230544281005859375e+01 -1.528496146202087402e-01 7.456047058105468750e+00 2.190959215164184570e+00 3.630249202251434326e-02
2.221000000000000000e+03 7.660971832275390625e+01 2.081488800048828125e+01 -4.391120970249176025e-01 7.375743389129638672e+00 2.080989360809326172e+00 2.199384421110153198e-01
2.222000000000000000e+03 7.553878021240234375e+01 2.401721382141113281e+01 -2.541617751121520996e-01 6.697951793670654297e+00 1.933137059211730957e+00 -4.087470173835754395e-01
2.223000000000000000e+03 7.667885589599609375e+01 2.236772155761718750e+01 -3.910813629627227783e-01 7.211862087249755859e+00 2.046234369277954102e+00 -1.109792664647102356e-01
2.224000000000000000e+03 7.696883392333984375e+01 1.510467147827148438e+01 3.405576050281524658e-01 7.211066246032714844e+00 2.265487194061279297e+00 6.482496857643127441e-01
2.225000000000000000e+03 7.826538848876953125e+01 1.386262035369873047e+01 1.691878288984298706e-01 6.347841739654541016e+00 1.955108880996704102e+00 2.919227778911590576e-01
2.226000000000000000e+03 7.478092193603515625e+01 1.318560981750488281e+01 1.248835325241088867e+00 8.766226768493652344e+00 3.004518508911132812e+00 1.370797604322433472e-01
2.227000000000000000e+03 7.825694274902343750e+01 -2.091088867187500000e+01 2.941039502620697021e-01 7.602344989776611328e+00 2.368934631347656250e+00 7.487951517105102539e-01
2.228000000000000000e+03 7.680552673339843750e+01 8.692465782165527344e+00 2.252907007932662964e-01 7.445393085479736328e+00 2.301205158233642578e+00 -1.040417075157165527e+00
2.229000000000000000e+03 7.685147857666015625e+01 2.524778366088867188e+01 -6.860246509313583374e-02 6.939486980438232422e+00 2.061265468597412109e+00 -3.157917559146881104e-01
2.230000000000000000e+03 7.815883636474609375e+01 2.648375701904296875e+01 -1.091905310750007629e-02 7.185238838195800781e+00 2.152296066284179688e+00 -2.018849849700927734e-01
2.231000000000000000e+03 7.804060363769531250e+01 3.047071838378906250e+01 7.912303507328033447e-02 6.951096057891845703e+00 2.109065771102905273e+00 -2.490934357047080994e-02
2.232000000000000000e+03 7.695584106445312500e+01 2.900908279418945312e+01 1.581070870161056519e-01 6.724254608154296875e+00 2.064708471298217773e+00 -1.552671939134597778e-01
2.233000000000000000e+03 7.813402557373046875e+01 -1.669463729858398438e+01 -2.351589053869247437e-01 8.892418861389160156e+00 2.597177982330322266e+00 9.901162385940551758e-01
2.234000000000000000e+03 7.584030151367187500e+01 -1.951873397827148438e+01 4.196434319019317627e-01 8.770895004272460938e+00 2.757161617279052734e+00 1.166005611419677734e+00
2.235000000000000000e+03 7.669150543212890625e+01 3.721124267578125000e+01 -7.962389290332794189e-02 6.993183135986328125e+00 2.074067831039428711e+00 1.311212629079818726e-01
2.236000000000000000e+03 7.788592529296875000e+01 3.716357421875000000e+01 -2.475684694945812225e-02 7.151950359344482422e+00 2.138158082962036133e+00 1.000909060239791870e-01
2.237000000000000000e+03 7.809400177001953125e+01 -2.795707464218139648e+00 -2.762717306613922119e-01 9.256358146667480469e+00 2.694025754928588867e+00 6.564115881919860840e-01
2.238000000000000000e+03 7.805345916748046875e+01 -1.381183147430419922e+00 -2.988421022891998291e-01 9.120461463928222656e+00 2.646485805511474609e+00 3.200411498546600342e-01
2.239000000000000000e+03 7.587568664550781250e+01 2.882264137268066406e+01 2.018051445484161377e-01 6.445191860198974609e+00 1.994099020957946777e+00 -1.557524204254150391e-01
2.240000000000000000e+03 7.807247924804687500e+01 7.064188957214355469e+00 9.352959692478179932e-03 7.496334552764892578e+00 2.251706361770629883e+00 -9.075015783309936523e-01
2.241000000000000000e+03 7.715623474121093750e+01 -2.092237091064453125e+01 5.463101267814636230e-01 8.106340408325195312e+00 2.595795154571533203e+00 8.792877197265625000e-01
2.242000000000000000e+03 7.635778808593750000e+01 3.588291549682617188e+01 -3.847028687596321106e-02 6.840018272399902344e+00 2.040464401245117188e+00 2.289027273654937744e-01
2.243000000000000000e+03 7.518775939941406250e+01 3.117006492614746094e+01 2.480268627405166626e-01 6.275057792663574219e+00 1.956925392150878906e+00 5.967486277222633362e-02
2.244000000000000000e+03 7.653413391113281250e+01 3.157781791687011719e+01 1.384005546569824219e-01 6.647232055664062500e+00 2.035689830780029297e+00 5.967408791184425354e-02
2.245000000000000000e+03 7.706792449951171875e+01 1.012153339385986328e+01 3.823975622653961182e-01 7.189861774444580078e+00 2.271677732467651367e+00 -8.246394395828247070e-01
2.246000000000000000e+03 7.541945648193359375e+01 -1.475823044776916504e+00 -9.330134391784667969e-01 7.726162433624267578e+00 2.037944793701171875e+00 -4.412945210933685303e-01
2.247000000000000000e+03 7.781538391113281250e+01 3.456418991088867188e+01 -1.213696505874395370e-02 7.036948680877685547e+00 2.107443571090698242e+00 1.109291836619377136e-01
2.248000000000000000e+03 7.353334808349609375e+01 3.471261978149414062e+00 -2.908507287502288818e-01 5.535174846649169922e+00 1.573297262191772461e+00 -2.628804743289947510e-01
2.249000000000000000e+03 7.681379699707031250e+01 2.972202301025390625e+00 -2.501320838928222656e-01 7.708635330200195312e+00 2.237550973892211914e+00 -8.259625434875488281e-01
2.250000000000000000e+03 7.685557556152343750e+01 5.669692039489746094e+00 -1.501481831073760986e-01 7.592421054840087891e+00 2.232681989669799805e+00 -1.058702826499938965e+00
2.251000000000000000e+03 7.490453338623046875e+01 -1.381929969787597656e+01 -1.435193061828613281e+00 6.788085937500000000e+00 1.605867862701416016e+00 9.451344609260559082e-01
2.252000000000000000e+03 7.661820220947265625e+01 -1.211844158172607422e+01 -1.129526376724243164e+00 9.020576477050781250e+00 2.367315053939819336e+00 -8.936291188001632690e-02
2.253000000000000000e+03 7.609685516357421875e+01 -9.989254951477050781e+00 2.673622779548168182e-02 1.019855785369873047e+01 3.067588090896606445e+00 -7.261715531349182129e-01
2.254000000000000000e+03 7.682919311523437500e+01 -2.839560747146606445e+00 -4.147120714187622070e-01 9.033857345581054688e+00 2.585743665695190430e+00 4.553838074207305908e-01
2.255000000000000000e+03 4.599107360839843750e+01 -1.552957248687744141e+01 -2.476083278656005859e+00 5.904053211212158203e+00 1.028391003608703613e+00 2.652467489242553711e+00
2.256000000000000000e+03 2.151916313171386719e+01 2.431095314025878906e+01 -1.214388906955718994e-01 1.042808628082275391e+01 3.091994047164916992e+00 9.238047897815704346e-02
2.257000000000000000e+03 2.183739471435546875e+01 2.547201919555664062e+01 -5.866737961769104004e-01 9.492513656616210938e+00 2.671751976013183594e+00 -5.722108483314514160e-01
2.258000000000000000e+03 6.495715332031250000e+01 -2.530205726623535156e+01 -1.092888712882995605e+00 7.961072921752929688e+00 2.060455322265625000e+00 -2.791510105133056641e+00
2.259000000000000000e+03 4.417641830444335938e+01 3.433026885986328125e+01 -9.672433137893676758e-01 2.942236423492431641e+00 5.924978852272033691e-01 -1.020593047142028809e+00
2.260000000000000000e+03 6.702897644042968750e+01 -2.773984909057617188e+01 2.172087132930755615e-01 5.953671455383300781e+00 1.851263999938964844e+00 -2.431340932846069336e+00
2.261000000000000000e+03 3.880513763427734375e+01 -1.549007606506347656e+01 -2.150316953659057617e+00 5.024783134460449219e+00 8.623398542404174805e-01 -1.660921692848205566e+00
2.262000000000000000e+03 3.886230468750000000e+01 -1.354986095428466797e+01 -2.826593637466430664e+00 5.142272949218750000e+00 6.947038173675537109e-01 -2.336389541625976562e+00
2.263000000000000000e+03 2.593065643310546875e+01 8.999834060668945312e+00 3.306125164031982422e+00 3.612545490264892578e+00 2.075601100921630859e+00 -7.819588482379913330e-02
2.264000000000000000e+03 2.273955917358398438e+01 1.745487928390502930e+00 -7.885466814041137695e-01 7.246544957160949707e-01 -1.916765607893466949e-02 1.474189639091491699e+00
2.265000000000000000e+03 1.078301525115966797e+01 6.249771118164062500e+00 -3.477361440658569336e+00 6.311772346496582031e+00 8.503233194351196289e-01 -2.253286838531494141e+00
2.266000000000000000e+03 8.080950736999511719e+00 2.298220872879028320e+00 2.180008888244628906e+00 3.594600677490234375e+00 1.732382893562316895e+00 -4.003861904144287109e+00
2.267000000000000000e+03 2.744338798522949219e+01 -2.743558120727539062e+01 -1.330619931221008301e+00 6.956674098968505859e+00 1.687816381454467773e+00 -2.679725587368011475e-01
2.268000000000000000e+03 1.259074449539184570e+00 4.759281158447265625e+00 4.181267321109771729e-02 -2.129053920507431030e-01 -5.132781341671943665e-02 7.148333638906478882e-02
2.269000000000000000e+03 1.880578637123107910e+00 3.171874809265136719e+01 -2.437704056501388550e-02 5.432761192321777344e+00 1.622515201568603516e+00 -1.054665446281433105e+00
2.270000000000000000e+03 3.833543777465820312e+00 3.326767349243164062e+01 -7.355107665061950684e-01 5.745578765869140625e+00 1.503020405769348145e+00 -1.025468707084655762e+00
2.271000000000000000e+03 2.621252536773681641e+00 2.792650604248046875e+01 7.011409401893615723e-01 5.450134277343750000e+00 1.845382571220397949e+00 -5.248512029647827148e-01
2.272000000000000000e+03 4.362157344818115234e+00 2.443983268737792969e+01 -1.046245694160461426e-01 6.036548614501953125e+00 1.779577255249023438e+00 -7.038068771362304688e-02
2.273000000000000000e+03 3.314564228057861328e+00 2.994885063171386719e+01 4.450499713420867920e-01 5.962347984313964844e+00 1.922219395637512207e+00 -1.050887465476989746e+00
2.274000000000000000e+03 3.801215410232543945e+00 3.127136993408203125e+01 -9.189397841691970825e-02 6.023149013519287109e+00 1.779376626014709473e+00 -1.323606371879577637e+00
2.275000000000000000e+03 2.875447750091552734e+00 3.229366683959960938e+01 -1.944173723459243774e-01 5.732743263244628906e+00 1.661497712135314941e+00 -1.176488399505615234e+00
2.276000000000000000e+03 2.007289409637451172e+00 3.584301376342773438e+01 -2.891465425491333008e-01 6.142562866210937500e+00 1.756024956703186035e+00 -2.535917162895202637e-01
2.277000000000000000e+03 4.030731201171875000e+00 2.622699165344238281e+01 1.200666069984436035e+00 6.194780826568603516e+00 2.218634128570556641e+00 -2.117323130369186401e-01
2.278000000000000000e+03 4.520623683929443359e+00 3.233209991455078125e+01 -4.090924263000488281e-01 6.101321220397949219e+00 1.707668662071228027e+00 -9.012092947959899902e-01
2.279000000000000000e+03 5.997647285461425781e+00 3.303345108032226562e+01 -6.048114299774169922e-01 4.802320003509521484e+00 1.259252548217773438e+00 -9.122365713119506836e-02
2.280000000000000000e+03 2.947724819183349609e+00 3.946929931640625000e+01 -1.011464372277259827e-01 6.314585685729980469e+00 1.864031791687011719e+00 1.511394232511520386e-01
2.281000000000000000e+03 6.183145046234130859e+00 2.205962371826171875e+01 -1.338554263114929199e+00 5.014979362487792969e+00 1.102927565574645996e+00 -1.379462122917175293e+00
2.282000000000000000e+03 1.937584757804870605e+00 2.067992210388183594e+01 -2.338966727256774902e-01 3.910275220870971680e+00 1.102913498878479004e+00 -3.504427969455718994e-01
2.283000000000000000e+03 4.429169178009033203e+00 2.189039993286132812e+01 -1.066916704177856445e+00 5.057177543640136719e+00 1.197078227996826172e+00 -5.622180104255676270e-01
2.284000000000000000e+03 5.948731899261474609e+00 1.969089698791503906e+01 -1.058309912681579590e+00 4.529619216918945312e+00 1.041392803192138672e+00 -1.533269762992858887e+00
2.285000000000000000e+03 1.591645717620849609e+00 8.087828636169433594e+00 2.480133064091205597e-02 2.237601280212402344e-01 7.456844300031661987e-02 -8.261988312005996704e-02
2.286000000000000000e+03 4.024613380432128906e+00 1.099245071411132812e+01 5.381880998611450195e-01 2.685098648071289062e+00 9.669860601425170898e-01 -6.491070985794067383e-01
2.287000000000000000e+03 3.468504667282104492e+00 7.297326564788818359e+00 9.116716682910919189e-02 1.801248908042907715e+00 5.677248239517211914e-01 -3.005084991455078125e-01
2.288000000000000000e+03 1.913004636764526367e+00 1.502874374389648438e+01 1.358965039253234863e-01 1.997448563575744629e+00 6.400035619735717773e-01 -9.334957599639892578e-01
2.289000000000000000e+03 4.584569931030273438e+00 1.709265899658203125e+01 -2.839867174625396729e-01 3.863822221755981445e+00 1.073950648307800293e+00 -1.552029013633728027e+00
2.290000000000000000e+03 2.772405862808227539e+00 9.491740226745605469e+00 1.621236056089401245e-01 1.490589141845703125e+00 4.958138167858123779e-01 -3.060423731803894043e-01
2.291000000000000000e+03 2.948430538177490234e+00 1.087801074981689453e+01 3.627559542655944824e-01 1.850713968276977539e+00 6.640409827232360840e-01 -5.097763538360595703e-01
2.292000000000000000e+03 4.870323181152343750e+00 1.089363288879394531e+01 7.262477874755859375e-01 3.555878639221191406e+00 1.284637928009033203e+00 -6.909561753273010254e-01
2.293000000000000000e+03 3.076802253723144531e+00 1.228606319427490234e+01 3.759255707263946533e-01 2.118376493453979492e+00 7.482906579971313477e-01 -8.102242946624755859e-01
2.294000000000000000e+03 3.268986225128173828e+00 2.209025764465332031e+01 -5.880564451217651367e-01 4.738373756408691406e+00 1.245095252990722656e+00 -2.479021251201629639e-01
2.295000000000000000e+03 3.645142793655395508e+00 1.718865966796875000e+01 -2.541115283966064453e-01 3.542355298995971680e+00 9.864731431007385254e-01 -1.428100109100341797e+00
2.296000000000000000e+03 5.360591888427734375e+00 1.634388542175292969e+01 -7.751770317554473877e-02 4.367363452911376953e+00 1.286953687667846680e+00 -1.691205501556396484e+00
2.297000000000000000e+03 1.499526214599609375e+01 -1.085977172851562500e+01 -6.568620204925537109e-01 7.539612770080566406e+00 2.064825296401977539e+00 -1.533867359161376953e+00
2.298000000000000000e+03 2.313246917724609375e+01 -1.967872619628906250e+01 2.618915557861328125e+00 2.113788604736328125e+00 1.419811248779296875e+00 -1.406607866287231445e+00
2.299000000000000000e+03 2.665410804748535156e+01 3.008204841613769531e+01 1.366861611604690552e-01 6.455491781234741211e-01 2.346705943346023560e-01 -6.662514060735702515e-02
2.300000000000000000e+03 7.232445526123046875e+01 1.939416694641113281e+01 -1.658000946044921875e+00 7.141622543334960938e+00 1.645086407661437988e+00 -5.410805940628051758e-01
2.301000000000000000e+03 3.271204757690429688e+01 -6.646915912628173828e+00 2.606984615325927734e+00 5.520127296447753906e+00 2.438133716583251953e+00 -4.624426066875457764e-01
2.302000000000000000e+03 5.759288024902343750e+01 -2.690658760070800781e+01 -2.125644922256469727e+00 6.858198642730712891e+00 1.419766068458557129e+00 1.954106807708740234e+00
2.303000000000000000e+03 5.666110992431640625e+01 -4.128212356567382812e+01 -2.138941526412963867e+00 4.684179306030273438e+00 7.635713219642639160e-01 -3.909345865249633789e-01
2.304000000000000000e+03 2.197246551513671875e+01 2.642396926879882812e+01 -9.232793003320693970e-02 9.227069854736328125e+00 2.740422487258911133e+00 -4.313009083271026611e-01
2.305000000000000000e+03 4.065659332275390625e+01 2.372290372848510742e+00 9.408335089683532715e-01 6.199595928192138672e+00 2.142128705978393555e+00 -1.568560749292373657e-01
2.306000000000000000e+03 4.361604690551757812e+01 -2.579438686370849609e+00 -1.229631304740905762e+00 1.602188467979431152e+00 1.117671355605125427e-01 -1.616905331611633301e+00
2.307000000000000000e+03 3.401504135131835938e+01 2.099777221679687500e+01 3.075903654098510742e-01 8.080478668212890625e+00 2.516420841217041016e+00 -5.909928679466247559e-01
2.308000000000000000e+03 2.918637657165527344e+01 1.648895502090454102e+00 -2.491212606430053711e+00 5.845396518707275391e+00 1.006255149841308594e+00 -1.542335271835327148e+00
2.309000000000000000e+03 5.582493972778320312e+01 1.869890213012695312e+01 3.202840387821197510e-01 4.790187835693359375e+00 1.533141493797302246e+00 -1.632614135742187500e+00
2.310000000000000000e+03 5.355886459350585938e+01 1.877260589599609375e+01 -6.856682896614074707e-01 4.406341075897216797e+00 1.116201758384704590e+00 -2.305811882019042969e+00
2.311000000000000000e+03 5.424448394775390625e+01 -3.806188583374023438e+01 -1.645664691925048828e+00 6.733253479003906250e+00 1.526276707649230957e+00 -3.323659002780914307e-01
2.312000000000000000e+03 2.683213615417480469e+01 1.194171333312988281e+01 2.123312473297119141e+00 1.947328925132751465e+00 1.221192359924316406e+00 7.267513275146484375e-01
2.313000000000000000e+03 3.668165206909179688e+01 1.351248264312744141e+01 -1.447059363126754761e-01 1.763606548309326172e+00 4.856701791286468506e-01 -2.229249477386474609e+00
2.314000000000000000e+03 4.947330093383789062e+01 -9.534620285034179688e+00 2.111589670181274414e+00 7.886167049407958984e+00 2.999327182769775391e+00 3.045399487018585205e-01
2.315000000000000000e+03 2.427777862548828125e+01 -2.801723480224609375e+01 -1.238226532936096191e+00 6.007856845855712891e+00 1.430889129638671875e+00 -7.846853137016296387e-01
2.316000000000000000e+03 2.083809852600097656e+01 -2.355760765075683594e+01 8.481556773185729980e-01 1.313680410385131836e+00 6.485508084297180176e-01 -1.333934426307678223e+00
2.317000000000000000e+03 7.487229156494140625e+01 -2.149417877197265625e+01 1.297417163848876953e+00 1.040523147583007812e+01 3.510794401168823242e+00 4.243291616439819336e-01
2.318000000000000000e+03 7.549098205566406250e+01 -2.236636161804199219e+01 1.312757134437561035e+00 9.468632698059082031e+00 3.234416961669921875e+00 4.255114197731018066e-01
2.319000000000000000e+03 4.220383453369140625e+01 1.707405662536621094e+01 1.486657023429870605e+00 5.068848609924316406e+00 1.966651678085327148e+00 -4.336987435817718506e-02
2.320000000000000000e+03 5.478654861450195312e+01 2.249225616455078125e+01 -1.011145949363708496e+00 4.419659614562988281e+00 1.022554039955139160e+00 -2.567209720611572266e+00
2.321000000000000000e+03 5.366342926025390625e+01 2.454899024963378906e+01 6.697545945644378662e-02 5.832141876220703125e+00 1.769735217094421387e+00 -1.265884399414062500e+00
2.322000000000000000e+03 4.544837570190429688e+01 -1.977388978004455566e+00 -1.544822305440902710e-01 3.247974634170532227e+00 9.280477166175842285e-01 -2.286258459091186523e+00
2.323000000000000000e+03 1.722607421875000000e+01 -1.372620868682861328e+01 -2.803562164306640625e+00 9.472599029541015625e+00 2.000711202621459961e+00 -1.177504777908325195e+00
2.324000000000000000e+03 3.106539535522460938e+01 1.950575232505798340e+00 -2.586119890213012695e+00 3.758240938186645508e+00 3.516363203525543213e-01 -9.928963184356689453e-01
2.325000000000000000e+03 7.553649425506591797e+00 1.373220920562744141e+01 8.641096353530883789e-01 6.431784152984619141e+00 2.188768148422241211e+00 -1.294946670532226562e+00
2.326000000000000000e+03 5.605406188964843750e+01 9.912572860717773438e+00 1.496273040771484375e+00 9.562188148498535156e+00 3.317538261413574219e+00 1.291352391242980957e+00
2.327000000000000000e+03 4.753703689575195312e+01 -9.049494266510009766e-01 8.204585313796997070e-02 4.414300441741943359e+00 1.348903894424438477e+00 -2.076560258865356445e+00
2.328000000000000000e+03 4.726554107666015625e+01 -4.826078414916992188e+00 -1.009352505207061768e-03 5.700179100036621094e+00 1.709751009941101074e+00 -1.255798220634460449e+00
2.329000000000000000e+03 5.250712585449218750e+01 1.958436012268066406e+01 -8.559908270835876465e-01 4.091475486755371094e+00 9.706454873085021973e-01 -2.410380840301513672e+00
2.330000000000000000e+03 4.877898693084716797e+00 3.055829238891601562e+01 2.907466292381286621e-01 7.629680633544921875e+00 2.376128196716308594e+00 -5.771102905273437500e-01
2.331000000000000000e+03 6.403083038330078125e+01 -1.310914134979248047e+01 -1.534065485000610352e+00 6.585129737854003906e+00 1.515319228172302246e+00 6.665172576904296875e-01
2.332000000000000000e+03 6.438667297363281250e+01 -1.387288379669189453e+01 -1.624309301376342773e+00 5.947453498840332031e+00 1.296943306922912598e+00 5.176073908805847168e-01
2.333000000000000000e+03 4.623778915405273438e+01 3.453123474121093750e+01 -1.027052283287048340e+00 4.605516910552978516e+00 1.073539376258850098e+00 -7.812585830688476562e-01
2.334000000000000000e+03 6.636597633361816406e+00 2.366570663452148438e+01 -8.706752061843872070e-01 5.196551322937011719e+00 1.297762751579284668e+00 -1.561591982841491699e+00
2.335000000000000000e+03 5.866811752319335938e+00 2.463131332397460938e+01 -7.301882840692996979e-03 7.096013545989990234e+00 2.126613378524780273e+00 -1.077505469322204590e+00
2.336000000000000000e+03 4.695946121215820312e+01 -3.169616699218750000e+00 -2.093403041362762451e-01 4.710853576660156250e+00 1.350453972816467285e+00 -1.834808826446533203e+00
2.337000000000000000e+03 4.919235610961914062e+01 2.995018577575683594e+01 1.379495143890380859e+00 6.868617534637451172e+00 2.474433660507202148e+00 7.372930049896240234e-01
2.338000000000000000e+03 1.552152919769287109e+01 2.189460945129394531e+01 9.607093036174774170e-02 -6.242256760597229004e-01 -1.584464311599731445e-01 5.932533740997314453e-01
2.339000000000000000e+03 7.299673461914062500e+01 1.530751132965087891e+01 1.157769680023193359e+00 9.669226646423339844e+00 3.248098850250244141e+00 -3.116574883460998535e-01
2.340000000000000000e+03 7.571479797363281250e+01 1.767956542968750000e+01 -2.583670020103454590e-01 7.706498622894287109e+00 2.234439373016357422e+00 7.438356876373291016e-01
2.341000000000000000e+03 2.910807800292968750e+01 -1.586014080047607422e+01 -1.681694746017456055e+00 6.768715381622314453e+00 1.526106119155883789e+00 1.796981573104858398e+00
2.342000000000000000e+03 1.090828037261962891e+01 -3.525828933715820312e+01 7.780175805091857910e-01 4.406517028808593750e+00 1.555360317230224609e+00 1.072943091392517090e+00
2.343000000000000000e+03 3.007837677001953125e+01 -1.335288524627685547e+01 -2.673711538314819336e+00 6.224499225616455078e+00 1.065236210823059082e+00 2.278918981552124023e+00
2.344000000000000000e+03 2.356696319580078125e+01 -1.506742095947265625e+01 -1.085033297538757324e+00 -6.403221189975738525e-02 -3.447196483612060547e-01 -4.128328263759613037e-01
2.345000000000000000e+03 2.656376838684082031e+01 -1.831003952026367188e+01 1.320174336433410645e+00 4.871562957763671875e+00 1.857521176338195801e+00 6.005315855145454407e-02
2.346000000000000000e+03 3.221810531616210938e+01 2.591519355773925781e+01 5.299967527389526367e-01 8.049026489257812500e+00 2.573706865310668945e+00 -4.819446057081222534e-02
2.347000000000000000e+03 3.150316619873046875e+01 3.032635116577148438e+01 4.540568888187408447e-01 5.036067962646484375e+00 1.647037506103515625e+00 -1.600315332412719727e+00
2.348000000000000000e+03 9.241883277893066406e+00 9.457506179809570312e+00 3.582224845886230469e-01 8.863559722900390625e+00 2.766534566879272461e+00 -9.134935736656188965e-01
2.349000000000000000e+03 9.390158653259277344e+00 6.750505924224853516e+00 -2.519859552383422852e+00 7.132872104644775391e+00 1.383903741836547852e+00 -1.968878865242004395e+00
2.350000000000000000e+03 4.691242980957031250e+01 3.368761444091796875e+01 -5.751147270202636719e-01 5.033660411834716797e+00 1.337563633918762207e+00 -6.202163100242614746e-01
2.351000000000000000e+03 5.942732620239257812e+01 -1.915240669250488281e+01 2.009478092193603516e+00 5.817185878753662109e+00 2.347999095916748047e+00 1.073870956897735596e-01
2.352000000000000000e+03 6.236658096313476562e+01 -1.946583366394042969e+01 1.593675732612609863e+00 6.777513027191162109e+00 2.511356592178344727e+00 -1.194488883018493652e+00
2.353000000000000000e+03 9.397225379943847656e+00 2.066823005676269531e+01 -1.233919382095336914e+00 2.258002519607543945e+00 3.072249293327331543e-01 -8.385324478149414062e-01
2.354000000000000000e+03 1.275153827667236328e+01 1.912705993652343750e+01 -7.498797774314880371e-01 8.901138901710510254e-01 4.207023605704307556e-02 1.047348618507385254e+00
2.355000000000000000e+03 5.505013275146484375e+01 -1.129536056518554688e+01 -1.855663508176803589e-01 2.950085639953613281e+00 8.293558359146118164e-01 -2.498293399810791016e+00
2.356000000000000000e+03 3.790096664428710938e+01 -3.328385591506958008e+00 -4.511044323444366455e-01 4.621865749359130859e+00 1.251228332519531250e+00 2.584303617477416992e+00
2.357000000000000000e+03 3.829048919677734375e+01 -2.250525474548339844e+00 -9.568179249763488770e-01 4.152688503265380859e+00 9.587611556053161621e-01 3.032825469970703125e+00
2.358000000000000000e+03 1.486816215515136719e+01 -2.274427795410156250e+01 -1.553012490272521973e+00 5.475747108459472656e+00 1.176820397377014160e+00 2.353104829788208008e+00
2.359000000000000000e+03 7.260673522949218750e+01 -1.611448097229003906e+01 -3.973811566829681396e-01 3.977456331253051758e+00 1.074022531509399414e+00 -5.257742404937744141e-01
2.360000000000000000e+03 4.119768524169921875e+01 -1.574018001556396484e+01 -1.416107773780822754e+00 2.277919769287109375e+00 2.585435807704925537e-01 -1.668109536170959473e+00
2.361000000000000000e+03 7.104204559326171875e+01 -3.550557708740234375e+01 5.563023090362548828e-01 5.576622009277343750e+00 1.839877367019653320e+00 -1.002501606941223145e+00
2.362000000000000000e+03 6.776000976562500000e+01 -3.717284774780273438e+01 -8.441534042358398438e-01 5.629841327667236328e+00 1.435706377029418945e+00 -9.560235738754272461e-01
2.363000000000000000e+03 4.981515884399414062e+01 2.493587112426757812e+01 1.950253248214721680e+00 5.731662750244140625e+00 2.304574966430664062e+00 4.041283726692199707e-01
2.364000000000000000e+03 5.209740829467773438e+01 2.766314125061035156e+01 1.672816991806030273e+00 7.099274158477783203e+00 2.631627321243286133e+00 7.532856613397598267e-02
2.365000000000000000e+03 9.968277931213378906e+00 -3.178387260437011719e+01 1.667217850685119629e+00 3.649260520935058594e+00 1.594943523406982422e+00 1.000930666923522949e+00
2.366000000000000000e+03 1.968636322021484375e+01 6.284262180328369141e+00 4.922175109386444092e-01 4.618254184722900391e+00 1.533141493797302246e+00 2.452566146850585938e+00
2.367000000000000000e+03 1.836729812622070312e+01 5.950097560882568359e+00 -2.564279437065124512e-01 3.790015459060668945e+00 1.060076236724853516e+00 3.311091423034667969e+00
2.368000000000000000e+03 2.882161712646484375e+01 -6.639621853828430176e-01 -1.104536414146423340e+00 6.079191207885742188e+00 1.492396354675292969e+00 -1.778501629829406738e+00
2.369000000000000000e+03 2.968992614746093750e+01 -1.152286648750305176e+00 -2.863429188728332520e-01 6.013504505157470703e+00 1.718148469924926758e+00 -1.551324844360351562e+00
2.370000000000000000e+03 4.336470794677734375e+01 1.260916423797607422e+01 1.303215742111206055e+00 9.280115127563476562e+00 3.174999237060546875e+00 6.050657629966735840e-01
2.371000000000000000e+03 2.743640136718750000e+01 -2.648376274108886719e+01 -1.159800052642822266e+00 7.258084297180175781e+00 1.829485177993774414e+00 -3.814180791378021240e-01
2.372000000000000000e+03 5.944891357421875000e+01 8.311088562011718750e+00 2.310737520456314087e-01 6.563437461853027344e+00 2.038353443145751953e+00 -7.267739772796630859e-01
2.373000000000000000e+03 1.961004447937011719e+01 -1.619178771972656250e+01 6.097135543823242188e-01 4.178776264190673828e+00 1.436546921730041504e+00 -1.793908119201660156e+00
2.374000000000000000e+03 2.044779777526855469e+01 -1.516388702392578125e+01 -3.065611422061920166e-01 2.721847057342529297e+00 7.245857715606689453e-01 -1.947584152221679688e+00
2.375000000000000000e+03 5.079223632812500000e+01 -3.206758880615234375e+01 2.921092987060546875e+00 7.532118320465087891e+00 3.135963439941406250e+00 -8.179583549499511719e-01
2.376000000000000000e+03 5.169277572631835938e+01 -3.344985580444335938e+01 2.403717517852783203e+00 7.302683830261230469e+00 2.911920547485351562e+00 -3.280149996280670166e-01
2.377000000000000000e+03 3.715260696411132812e+01 -2.962512016296386719e+01 -5.737280845642089844e-01 3.417868375778198242e+00 8.532420992851257324e-01 1.474044799804687500e+00
2.378000000000000000e+03 1.400208187103271484e+01 -1.153274536132812500e+01 -1.176799416542053223e+00 4.435451030731201172e+00 9.775955080986022949e-01 -1.412210106849670410e+00
2.379000000000000000e+03 1.587599182128906250e+01 -7.503929138183593750e+00 2.022137165069580078e+00 1.107588768005371094e+01 3.929407358169555664e+00 -3.351556301116943359e+00
2.380000000000000000e+03 4.320638275146484375e+01 -1.484853172302246094e+01 -2.052679061889648438e+00 7.746731638908386230e-01 -3.834017515182495117e-01 2.815305888652801514e-01
2.381000000000000000e+03 2.801511764526367188e+01 -1.941219520568847656e+01 1.707685828208923340e+00 7.886192798614501953e+00 2.878163576126098633e+00 1.027264356613159180e+00
2.382000000000000000e+03 5.537608337402343750e+01 1.496102905273437500e+01 1.323381781578063965e+00 6.801286697387695312e+00 2.437400579452514648e+00 -7.340542674064636230e-01
2.383000000000000000e+03 6.070429229736328125e+01 1.882456398010253906e+01 1.329731702804565430e+00 7.089482307434082031e+00 2.525764226913452148e+00 2.009349346160888672e+00
2.384000000000000000e+03 4.639932632446289062e+01 -2.566049385070800781e+01 -6.337139010429382324e-01 4.272704601287841797e+00 1.091697216033935547e+00 -2.824372768402099609e+00
2.385000000000000000e+03 4.820910644531250000e+01 -4.112347412109375000e+01 -1.663877844810485840e+00 3.446202039718627930e+00 5.346972942352294922e-01 4.953110218048095703e-01
2.386000000000000000e+03 4.769346237182617188e+01 -1.296306991577148438e+01 -1.553199052810668945e+00 7.874517440795898438e+00 1.896395444869995117e+00 1.630003213882446289e+00
2.387000000000000000e+03 7.580641937255859375e+01 -4.291522979736328125e+00 3.481803834438323975e-01 9.670503616333007812e+00 3.005605220794677734e+00 -1.546444743871688843e-01
2.388000000000000000e+03 7.675169372558593750e+01 -1.411585688591003418e+00 -7.096304297447204590e-01 8.729352951049804688e+00 2.405916929244995117e+00 1.558393388986587524e-01
2.389000000000000000e+03 1.384201717376708984e+01 -6.910583496093750000e+00 2.172146797180175781e+00 6.797016620635986328e+00 2.690748929977416992e+00 -2.339554071426391602e+00
2.390000000000000000e+03 3.781569290161132812e+01 -3.151730918884277344e+01 2.282498836517333984e+00 5.623011589050292969e+00 2.371653079986572266e+00 1.583909749984741211e+00
2.391000000000000000e+03 7.218898010253906250e+01 1.727613067626953125e+01 -5.201525688171386719e-01 8.353506088256835938e+00 2.350005865097045898e+00 -5.079556703567504883e-01
2.392000000000000000e+03 7.146939849853515625e+01 2.028809356689453125e+01 -1.618438243865966797e+00 6.040016174316406250e+00 1.326473355293273926e+00 -1.419306159019470215e+00
2.393000000000000000e+03 3.854985809326171875e+01 1.305958843231201172e+01 -2.156928032636642456e-01 3.952079772949218750e+00 1.120916128158569336e+00 -1.653302788734436035e+00
2.394000000000000000e+03 3.849723052978515625e+01 1.193210887908935547e+01 -6.254614591598510742e-01 4.389538764953613281e+00 1.129223108291625977e+00 -9.742662310600280762e-01
2.395000000000000000e+03 6.812934112548828125e+01 -1.263920402526855469e+01 -4.661321341991424561e-01 1.818726301193237305e+00 4.057782292366027832e-01 -8.618208169937133789e-01
2.396000000000000000e+03 6.615822601318359375e+01 -1.222439002990722656e+01 -5.256851911544799805e-01 4.363378047943115234e+00 1.151307821273803711e+00 -5.804369449615478516e-01
2.397000000000000000e+03 3.499798583984375000e+01 -7.887781143188476562e+00 3.267000675201416016e+00 5.113965988159179688e+00 2.514290094375610352e+00 -6.370497345924377441e-01
2.398000000000000000e+03 5.477359390258789062e+01 -3.234660720825195312e+01 2.583568096160888672e+00 8.380318641662597656e+00 3.289165973663330078e+00 4.130673706531524658e-01
2.399000000000000000e+03 5.524500656127929688e+01 -3.105548286437988281e+01 2.074010848999023438e+00 8.986261367797851562e+00 3.318081617355346680e+00 1.376550674438476562e+00
2.400000000000000000e+03 1.757675361633300781e+01 3.743429565429687500e+01 -6.582333445549011230e-01 2.668952465057373047e+00 6.032156944274902344e-01 -8.757889270782470703e-01
2.401000000000000000e+03 1.706877899169921875e+01 5.557774066925048828e+00 -8.318002820014953613e-01 2.534528017044067383e+00 5.108183026313781738e-01 3.695132493972778320e+00
2.402000000000000000e+03 1.513489532470703125e+01 5.399784088134765625e+00 -1.602987885475158691e+00 7.555631399154663086e-01 -2.542274296283721924e-01 2.645229101181030273e+00
2.403000000000000000e+03 1.840192413330078125e+01 2.066563606262207031e+01 9.524233937263488770e-01 2.191267967224121094e+00 9.431073665618896484e-01 2.745891511440277100e-01
2.404000000000000000e+03 1.922710990905761719e+01 1.829361915588378906e+01 -2.475995540618896484e+00 4.262457847595214844e+00 5.359386801719665527e-01 3.167629837989807129e-01
2.405000000000000000e+03 2.521666526794433594e+01 1.381698703765869141e+01 -6.483755707740783691e-01 1.335765123367309570e+00 2.062168717384338379e-01 -7.142297029495239258e-01
2.406000000000000000e+03 2.382923316955566406e+01 1.545303916931152344e+01 -3.701172590255737305e+00 4.888520240783691406e+00 3.562042713165283203e-01 -5.512236356735229492e-01
2.407000000000000000e+03 5.955375289916992188e+01 -2.426866531372070312e+01 8.034090995788574219e-01 3.494169235229492188e+00 1.289273500442504883e+00 1.078620195388793945e+00
2.408000000000000000e+03 2.618257141113281250e+01 -2.955329704284667969e+01 -3.012779057025909424e-01 6.785560131072998047e+00 1.945284724235534668e+00 -1.936028301715850830e-01
2.409000000000000000e+03 2.596161270141601562e+01 -2.786454963684082031e+01 -1.191842436790466309e+00 6.814370155334472656e+00 1.686758399009704590e+00 -2.715587317943572998e-01
2.410000000000000000e+03 3.851553726196289062e+01 -9.955931305885314941e-01 -1.321807026863098145e+00 4.355402946472167969e+00 9.100787043571472168e-01 2.933812141418457031e+00
2.411000000000000000e+03 2.950362396240234375e+01 2.211490720510482788e-01 -1.990003108978271484e+00 5.818764686584472656e+00 1.148628473281860352e+00 -1.674643278121948242e+00
2.412000000000000000e+03 6.377596664428710938e+01 -3.540786504745483398e+00 1.830008387565612793e+00 8.431240081787109375e+00 3.078374624252319336e+00 3.577539026737213135e-01
2.413000000000000000e+03 6.249188232421875000e+01 -4.283380985260009766e+00 1.738307356834411621e+00 9.846480369567871094e+00 3.475436210632324219e+00 -8.427024483680725098e-01
2.414000000000000000e+03 2.798263931274414062e+01 1.187478542327880859e+01 1.563755631446838379e+00 3.323882341384887695e+00 1.466291427612304688e+00 1.518454313278198242e+00
2.415000000000000000e+03 1.928882026672363281e+01 3.582690954208374023e-01 5.939735174179077148e-01 2.149285793304443359e+00 8.229777812957763672e-01 2.201818943023681641e+00
2.416000000000000000e+03 3.550244140625000000e+01 2.385190963745117188e+01 2.207603305578231812e-02 7.327579021453857422e+00 2.204896450042724609e+00 -1.205946564674377441e+00
2.417000000000000000e+03 5.426601409912109375e+00 3.175539970397949219e+01 -2.173268198966979980e-01 6.230884075164794922e+00 1.804067254066467285e+00 -1.672367006540298462e-01
2.418000000000000000e+03 1.793783378601074219e+01 2.181359481811523438e+01 1.062732338905334473e+00 1.333507895469665527e+00 7.188720703125000000e-01 2.403201311826705933e-01
2.419000000000000000e+03 1.665053939819335938e+01 -1.078934764862060547e+01 2.172606289386749268e-01 1.102641010284423828e+01 3.373101234436035156e+00 -1.856594681739807129e+00
2.420000000000000000e+03 4.570788192749023438e+01 -1.911613273620605469e+01 2.184885263442993164e+00 7.035956382751464844e+00 2.766252517700195312e+00 9.925915598869323730e-01
2.421000000000000000e+03 4.265102005004882812e+01 -1.705974197387695312e+01 8.143960237503051758e-01 3.037391185760498047e+00 1.155536174774169922e+00 -8.565137535333633423e-02
2.422000000000000000e+03 5.856683349609375000e+01 -2.186553573608398438e+01 2.408769607543945312e+00 5.578580379486083984e+00 2.396204948425292969e+00 6.008962988853454590e-01
2.423000000000000000e+03 2.870423316955566406e+01 -1.237672424316406250e+01 -1.810729622840881348e+00 6.010983943939208984e+00 1.260076284408569336e+00 2.300140857696533203e+00
2.424000000000000000e+03 6.477915954589843750e+01 2.313870668411254883e+00 -4.535778164863586426e-01 4.051450252532958984e+00 1.079361677169799805e+00 5.984139442443847656e-02
2.425000000000000000e+03 4.887191009521484375e+01 -7.642704486846923828e+00 1.702173471450805664e+00 8.766735076904296875e+00 3.140672445297241211e+00 9.338904023170471191e-01
2.426000000000000000e+03 1.998466682434082031e+01 2.211561393737792969e+01 1.143720507621765137e+00 6.397647380828857422e+00 2.262410402297973633e+00 -2.732112072408199310e-02
2.427000000000000000e+03 4.481174468994140625e+01 -2.358192825317382812e+01 2.118546485900878906e+00 4.011509895324707031e+00 1.839017033576965332e+00 -3.394646644592285156e-01
2.428000000000000000e+03 6.145600509643554688e+01 6.663197040557861328e+00 -7.319503426551818848e-01 4.535141944885253906e+00 1.140957474708557129e+00 -1.934319496154785156e+00
2.429000000000000000e+03 5.138064193725585938e+01 -3.749110460281372070e+00 1.354257345199584961e+00 8.725914001464843750e+00 3.024051427841186523e+00 3.659314513206481934e-01
2.430000000000000000e+03 5.130801010131835938e+01 -2.551266908645629883e+00 9.477022886276245117e-01 7.601854324340820312e+00 2.564867019653320312e+00 -5.159229785203933716e-02
2.431000000000000000e+03 5.475882720947265625e+01 -2.897522544860839844e+01 6.247477531433105469e-01 7.244272232055664062e+00 2.360706090927124023e+00 1.652205824851989746e+00
2.432000000000000000e+03 1.148171806335449219e+01 -2.800712394714355469e+01 6.337981224060058594e-01 3.164069652557373047e+00 1.139360308647155762e+00 1.253023266792297363e+00
2.433000000000000000e+03 3.428388977050781250e+01 -3.014904022216796875e+01 -9.316753596067428589e-02 3.770876526832580566e-01 8.517602831125259399e-02 -5.536121726036071777e-01
2.434000000000000000e+03 3.666559600830078125e+01 4.097760391235351562e+01 -7.930029630661010742e-01 2.987614393234252930e+00 6.583834290504455566e-01 1.850333064794540405e-01
2.435000000000000000e+03 2.960626363754272461e+00 -2.501231765747070312e+01 -9.264958500862121582e-01 4.883842945098876953e+00 1.187204241752624512e+00 -2.149561643600463867e-01
2.436000000000000000e+03 4.973383331298828125e+01 -1.940106272697448730e+00 6.537368297576904297e-01 6.031136035919189453e+00 2.005461692810058594e+00 -9.502434730529785156e-01
2.437000000000000000e+03 6.800833129882812500e+01 1.432240605354309082e+00 2.498860508203506470e-01 2.370530366897583008e+00 7.861249446868896484e-01 2.201150417327880859e+00
2.438000000000000000e+03 9.327324867248535156e+00 -2.443453025817871094e+01 -2.621279716491699219e+00 -4.271675944328308105e-01 -9.145341515541076660e-01 4.624390304088592529e-01
2.439000000000000000e+03 1.124338722229003906e+01 -2.627858161926269531e+01 -5.487816929817199707e-01 2.131257057189941406e+00 4.747426211833953857e-01 1.517528891563415527e+00
2.440000000000000000e+03 5.852981948852539062e+01 2.225570106506347656e+01 -1.223874688148498535e+00 7.323586940765380859e-01 -1.474547982215881348e-01 1.818650811910629272e-01
2.441000000000000000e+03 2.350586700439453125e+01 3.203241729736328125e+01 6.216706037521362305e-01 4.183217525482177734e+00 1.441466450691223145e+00 1.185607314109802246e+00
2.442000000000000000e+03 2.094445228576660156e+01 3.034331703186035156e+01 1.336043834686279297e+00 7.499225616455078125e+00 2.650580883026123047e+00 4.873502850532531738e-01
2.443000000000000000e+03 3.114872169494628906e+01 -5.830379486083984375e+00 1.664019823074340820e+00 7.584469318389892578e+00 2.774546623229980469e+00 -9.728331565856933594e-01
2.444000000000000000e+03 3.479075622558593750e+01 -4.725930213928222656e+00 1.992197871208190918e+00 4.622296333312988281e+00 1.984348297119140625e+00 2.353362441062927246e-01
2.445000000000000000e+03 4.435337829589843750e+01 1.703713607788085938e+01 1.406028628349304199e+00 7.485572814941406250e+00 2.667480468750000000e+00 1.748436331748962402e+00
2.446000000000000000e+03 4.210843276977539062e+01 1.816015625000000000e+01 1.075832843780517578e+00 4.127313137054443359e+00 1.560943841934204102e+00 1.667991429567337036e-01
2.447000000000000000e+03 3.681629180908203125e+01 -1.403236865997314453e+01 -3.083401918411254883e+00 4.603845119476318359e+00 4.561329483985900879e-01 -2.744287252426147461e+00
2.448000000000000000e+03 4.211615371704101562e+01 -1.522430038452148438e+01 -1.859730601310729980e+00 1.447502613067626953e+00 -1.236683949828147888e-01 -9.623654484748840332e-01
2.449000000000000000e+03 2.119725227355957031e+01 1.847777557373046875e+01 -1.973005056381225586e+00 9.610466003417968750e+00 2.291238307952880859e+00 1.127184748649597168e+00
2.450000000000000000e+03 3.320470809936523438e+01 2.500930976867675781e+01 7.076235413551330566e-01 8.796152114868164062e+00 2.851132631301879883e+00 2.728917300701141357e-01
2.451000000000000000e+03 4.326467132568359375e+01 1.127076530456542969e+01 9.352631568908691406e-01 8.888518333435058594e+00 2.947134494781494141e+00 9.561328291893005371e-01
2.452000000000000000e+03 3.871105957031250000e+01 2.473545819520950317e-01 -1.015744686126708984e+00 5.138424873352050781e+00 1.236804008483886719e+00 3.123787641525268555e+00
2.453000000000000000e+03 5.085641098022460938e+01 3.250240707397460938e+01 8.527379035949707031e-01 6.801203727722167969e+00 2.296182394027709961e+00 5.548953413963317871e-01
2.454000000000000000e+03 5.891493225097656250e+01 -1.748941230773925781e+01 9.218744039535522461e-01 6.059992313385009766e+00 2.094560146331787109e+00 1.684315949678421021e-01
2.455000000000000000e+03 5.807835006713867188e+01 -1.997642135620117188e+01 2.295873880386352539e+00 6.452569484710693359e+00 2.624532938003540039e+00 3.618365228176116943e-01
2.456000000000000000e+03 6.348570632934570312e+01 2.372513580322265625e+01 7.303065154701471329e-03 6.368206977844238281e+00 1.912653088569641113e+00 2.713953018188476562e+00
2.457000000000000000e+03 6.359428024291992188e+01 2.125183677673339844e+01 -2.230837583541870117e+00 4.963150501251220703e+00 8.196938633918762207e-01 3.636193752288818359e+00
2.458000000000000000e+03 2.859726142883300781e+01 1.345609378814697266e+01 -7.773124575614929199e-01 1.986852765083312988e+00 3.628621101379394531e-01 3.427920103073120117e+00
2.459000000000000000e+03 2.664707756042480469e+01 1.319819545745849609e+01 2.673817276954650879e-01 6.741822957992553711e-01 2.824692130088806152e-01 1.934836208820343018e-01
2.460000000000000000e+03 5.410925292968750000e+01 2.092679595947265625e+01 -9.295427203178405762e-01 4.658490180969238281e+00 1.118684291839599609e+00 -2.686695575714111328e+00
2.461000000000000000e+03 6.662205505371093750e+01 -3.986802673339843750e+01 -1.520253181457519531e+00 4.770870685577392578e+00 9.751852154731750488e-01 2.646705321967601776e-02
2.462000000000000000e+03 6.024276733398437500e+01 6.714233875274658203e+00 -6.260138154029846191e-01 5.761548042297363281e+00 1.540660262107849121e+00 -1.423042297363281250e+00
2.463000000000000000e+03 5.993421554565429688e+01 9.434939384460449219e+00 9.272146224975585938e-01 6.581310272216796875e+00 2.252557516098022461e+00 -5.083130002021789551e-01
2.464000000000000000e+03 1.624827575683593750e+01 -1.430768394470214844e+01 -2.196648597717285156e+00 9.455183029174804688e+00 2.177560329437255859e+00 1.580637693405151367e-01
2.465000000000000000e+03 1.721611785888671875e+01 -1.486104583740234375e+01 -1.081082344055175781e+00 8.415136337280273438e+00 2.200216293334960938e+00 -8.531284332275390625e-01
2.466000000000000000e+03 5.263739395141601562e+01 2.128208160400390625e+01 -6.674253344535827637e-01 4.620992660522460938e+00 1.186070084571838379e+00 -2.293151617050170898e+00
2.467000000000000000e+03 1.252982234954833984e+01 -2.588265037536621094e+01 -1.211676239967346191e+00 3.245208740234375000e+00 6.100597381591796875e-01 2.103886365890502930e+00
2.468000000000000000e+03 1.549977779388427734e+01 -2.646553039550781250e+01 -1.375378012657165527e+00 4.424083709716796875e+00 9.146116971969604492e-01 2.330081224441528320e+00
2.469000000000000000e+03 5.775349807739257812e+01 -2.339216232299804688e+01 1.173548102378845215e+00 6.377952575683593750e+00 2.265450239181518555e+00 1.255902171134948730e+00
2.470000000000000000e+03 1.118243026733398438e+01 -3.884169387817382812e+01 -9.118194580078125000e-01 3.756115198135375977e+00 8.532887101173400879e-01 5.461180210113525391e-01
2.471000000000000000e+03 3.953240966796875000e+01 1.168238449096679688e+01 -3.064567446708679199e-01 5.559173107147216797e+00 1.575814962387084961e+00 -4.798835813999176025e-01
2.472000000000000000e+03 1.639043045043945312e+01 3.485086441040039062e+01 -6.444266438484191895e-01 1.475441813468933105e+00 2.493045628070831299e-01 -1.005024552345275879e+00
2.473000000000000000e+03 7.137408447265625000e+01 -1.603777122497558594e+01 -2.409872561693191528e-01 1.413085341453552246e+00 3.516294062137603760e-01 -1.177786827087402344e+00
2.474000000000000000e+03 1.019781589508056641e+01 1.775289916992187500e+01 -1.493704468011856079e-01 3.835481166839599609e+00 1.105833172798156738e+00 4.018549919128417969e-01
2.475000000000000000e+03 5.237287044525146484e+00 1.801021194458007812e+01 -6.528624892234802246e-01 4.410542488098144531e+00 1.127303957939147949e+00 -1.637367248535156250e+00
2.476000000000000000e+03 3.485376739501953125e+01 2.045538139343261719e+01 9.640592932701110840e-01 6.289175033569335938e+00 2.175970315933227539e+00 -7.637534141540527344e-01
2.477000000000000000e+03 3.815620422363281250e+01 2.029815673828125000e+01 6.174158453941345215e-01 2.306076765060424805e+00 8.770478367805480957e-01 -1.804335951805114746e+00
2.478000000000000000e+03 4.588795852661132812e+01 -2.272790145874023438e+01 2.557024955749511719e+00 6.010555267333984375e+00 2.570274114608764648e+00 -6.553266048431396484e-01
2.479000000000000000e+03 4.040289688110351562e+01 -2.611141204833984375e+01 3.363913297653198242e-01 7.154275417327880859e+00 2.247200012207031250e+00 1.543240070343017578e+00
2.480000000000000000e+03 4.219604492187500000e+01 1.410817146301269531e+01 1.611146092414855957e+00 7.010290622711181641e+00 2.586431026458740234e+00 8.050861209630966187e-02
2.481000000000000000e+03 4.733943939208984375e+01 2.354042434692382812e+01 1.548983216285705566e+00 7.077229976654052734e+00 2.587863922119140625e+00 1.319254636764526367e+00
2.482000000000000000e+03 1.636935615539550781e+01 -2.156900644302368164e+00 1.645579576492309570e+00 5.724367618560791016e+00 2.210984230041503906e+00 1.546229273080825806e-01
2.483000000000000000e+03 1.739141654968261719e+01 -1.654725909233093262e+00 1.635538458824157715e+00 4.182764053344726562e+00 1.745490670204162598e+00 1.154089212417602539e+00
2.484000000000000000e+03 4.560249710083007812e+01 1.917714309692382812e+01 -1.324137687683105469e+00 6.871672630310058594e+00 1.664260506629943848e+00 2.572531700134277344e+00
2.485000000000000000e+03 1.997438049316406250e+01 -2.530224990844726562e+01 -1.477241992950439453e+00 7.182814925909042358e-02 -4.216241538524627686e-01 -5.299903154373168945e-01
2.486000000000000000e+03 5.232609939575195312e+01 -3.872470474243164062e+01 -1.943062186241149902e+00 6.770499229431152344e+00 1.448231101036071777e+00 3.142738640308380127e-01
2.487000000000000000e+03 5.045969009399414062e+01 -3.766121292114257812e+01 -1.410738110542297363e+00 5.974870204925537109e+00 1.369239687919616699e+00 3.952803611755371094e-01
2.488000000000000000e+03 6.733305358886718750e+01 2.201864433288574219e+01 -6.619579195976257324e-01 1.525573134422302246e+00 2.590845823287963867e-01 -6.060684323310852051e-01
2.489000000000000000e+03 1.919750404357910156e+01 1.980582046508789062e+01 1.064788624644279480e-01 3.909074306488037109e+00 1.204665899276733398e+00 5.459091067314147949e-01
2.490000000000000000e+03 7.466584777832031250e+01 -1.939695358276367188e+01 5.211071372032165527e-01 8.833700180053710938e+00 2.806442260742187500e+00 6.063478589057922363e-01
2.491000000000000000e+03 7.703942108154296875e+01 -1.815880775451660156e+01 -3.073273226618766785e-02 8.484783172607421875e+00 2.536215305328369141e+00 1.298934340476989746e+00
2.492000000000000000e+03 6.625671386718750000e+01 3.304674148559570312e+01 2.828423678874969482e-01 5.422177314758300781e+00 1.711505889892578125e+00 7.495318055152893066e-01
2.493000000000000000e+03 8.351703643798828125e+00 1.890918540954589844e+01 -8.128238916397094727e-01 3.879274845123291016e+00 9.199352860450744629e-01 -1.170317292213439941e+00
2.494000000000000000e+03 4.631599426269531250e+01 5.593712329864501953e+00 -4.153823852539062500e-01 3.387058734893798828e+00 8.915029168128967285e-01 -1.556190252304077148e+00
2.495000000000000000e+03 4.367392730712890625e+01 2.127596664428710938e+01 -7.410787940025329590e-01 4.966757297515869141e+00 1.267703533172607422e+00 3.189147710800170898e+00
2.496000000000000000e+03 3.336780929565429688e+01 -3.097075843811035156e+01 5.309668183326721191e-01 9.323247075080871582e-01 4.389874637126922607e-01 -7.650673389434814453e-01
2.497000000000000000e+03 7.305523681640625000e+01 -2.690145683288574219e+01 -1.395720958709716797e+00 6.782384872436523438e+00 1.615999102592468262e+00 2.462217092514038086e+00
2.498000000000000000e+03 6.140835189819335938e+01 -1.607253909111022949e+00 9.072608947753906250e-01 8.033663749694824219e+00 2.682277441024780273e+00 -1.196925282478332520e+00
2.499000000000000000e+03 4.927778625488281250e+01 2.140363883972167969e+01 2.667552530765533447e-01 3.066418170928955078e+00 9.999520182609558105e-01 -2.201836258172988892e-01
2.500000000000000000e+03 4.848043823242187500e+01 -1.193571758270263672e+01 6.515163779258728027e-01 7.352931022644042969e+00 2.401334285736083984e+00 3.135862946510314941e-01
2.501000000000000000e+03 5.089493560791015625e+01 -8.269622802734375000e+00 1.772026300430297852e+00 7.278303623199462891e+00 2.715099096298217773e+00 1.142195612192153931e-01
2.502000000000000000e+03 3.417353820800781250e+01 3.212167358398437500e+01 -2.680274248123168945e-01 6.907273769378662109e+00 1.991773962974548340e+00 -5.959757566452026367e-01
2.503000000000000000e+03 6.089613914489746094e+00 3.634806060791015625e+01 -8.538487553596496582e-01 3.566494941711425781e+00 8.137938976287841797e-01 3.461583852767944336e-01
2.504000000000000000e+03 6.226134872436523438e+01 2.250647544860839844e+01 -1.929319262504577637e+00 5.833484649658203125e+00 1.171249628067016602e+00 3.400987386703491211e+00
2.505000000000000000e+03 6.359207916259765625e+01 -8.200839996337890625e+00 1.729296565055847168e+00 8.892436981201171875e+00 3.186520099639892578e+00 2.131148874759674072e-01
2.506000000000000000e+03 1.215282344818115234e+01 4.113557434082031250e+01 4.901500940322875977e-01 5.305808186531066895e-01 3.062192797660827637e-01 -1.731502562761306763e-01
2.507000000000000000e+03 5.836413955688476562e+01 1.379810333251953125e+01 1.900440216064453125e+00 8.232541084289550781e+00 3.039894342422485352e+00 8.314830660820007324e-01
2.508000000000000000e+03 7.319434356689453125e+01 9.820808410644531250e+00 1.249511003494262695e+00 8.790839195251464844e+00 3.012105226516723633e+00 -3.033684492111206055e-01
2.509000000000000000e+03 6.316179656982421875e+01 -2.259859848022460938e+01 3.295346498489379883e+00 6.297893524169921875e+00 2.877971887588500977e+00 -1.867484807968139648e+00
2.510000000000000000e+03 6.278264236450195312e+01 -2.566136932373046875e+01 -9.370616078376770020e-01 3.900098800659179688e+00 8.889111280441284180e-01 -2.552820682525634766e+00
2.511000000000000000e+03 7.424424743652343750e+01 -1.250927448272705078e+01 -1.170384049415588379e+00 5.371978282928466797e+00 1.260478258132934570e+00 1.290524363517761230e+00
2.512000000000000000e+03 3.465912246704101562e+01 -3.402900314331054688e+01 1.578216791152954102e+00 2.802891492843627930e+00 1.314332485198974609e+00 1.124061346054077148e+00
2.513000000000000000e+03 4.045975112915039062e+01 -1.745707893371582031e+01 7.720868587493896484e-01 4.432448387145996094e+00 1.561360597610473633e+00 -1.764820933341979980e+00
2.514000000000000000e+03 4.416401672363281250e+01 -2.009266090393066406e+01 3.019853591918945312e+00 4.672110557556152344e+00 2.307589292526245117e+00 5.440084934234619141e-01
2.515000000000000000e+03 3.241154861450195312e+01 -5.525067329406738281e+00 2.602942466735839844e+00 5.556126117706298828e+00 2.447720527648925781e+00 -5.789015293121337891e-01
2.516000000000000000e+03 3.074115562438964844e+01 -3.342993259429931641e+00 1.769719243049621582e+00 6.117073059082031250e+00 2.366037607192993164e+00 -1.581382393836975098e+00
2.517000000000000000e+03 5.205932235717773438e+01 3.344812393188476562e+01 5.108816027641296387e-01 6.561088085174560547e+00 2.121590852737426758e+00 5.810434818267822266e-01
2.518000000000000000e+03 4.982856369018554688e+01 3.129191970825195312e+01 9.256497025489807129e-01 6.518691062927246094e+00 2.233302354812622070e+00 6.812538504600524902e-01
2.519000000000000000e+03 3.047320175170898438e+01 -1.064612293243408203e+01 1.627858757972717285e+00 6.059491157531738281e+00 2.306205034255981445e+00 1.437894582748413086e+00
2.520000000000000000e+03 7.562509918212890625e+01 6.944412231445312500e+00 -2.839429490268230438e-02 7.609994411468505859e+00 2.274480104446411133e+00 -1.113625288009643555e+00
2.521000000000000000e+03 5.576542282104492188e+01 1.673239588737487793e+00 -1.399863243103027344e+00 2.326230764389038086e+00 2.779102623462677002e-01 1.726164340972900391e+00
2.522000000000000000e+03 7.247566223144531250e+01 -2.810737419128417969e+01 3.635666146874427795e-02 4.750924110412597656e+00 1.436184167861938477e+00 1.995425462722778320e+00
2.523000000000000000e+03 7.040001678466796875e+01 -2.860442543029785156e+01 1.093120336532592773e+00 2.426047325134277344e+00 1.055750250816345215e+00 7.457152605056762695e-01
2.524000000000000000e+03 7.342844390869140625e+01 1.886569976806640625e+01 -1.003946900367736816e+00 7.565968036651611328e+00 1.968606352806091309e+00 8.412382006645202637e-02
2.525000000000000000e+03 2.707042503356933594e+01 -2.317470741271972656e+01 1.621493577957153320e+00 7.462196350097656250e+00 2.725106954574584961e+00 -2.734794616699218750e-01
2.526000000000000000e+03 2.590772056579589844e+01 -2.281215286254882812e+01 1.829685091972351074e+00 5.666802406311035156e+00 2.248946189880371094e+00 -5.902745127677917480e-01
2.527000000000000000e+03 2.673607444763183594e+01 1.080810737609863281e+01 2.617045640945434570e+00 3.022595643997192383e+00 1.691892385482788086e+00 2.879106998443603516e-01
2.528000000000000000e+03 2.698460960388183594e+01 8.384573936462402344e+00 3.227180480957031250e+00 4.796612739562988281e+00 2.407138109207153320e+00 8.154191821813583374e-02
2.529000000000000000e+03 2.021688079833984375e+01 2.063423919677734375e+01 1.444461464881896973e+00 7.042239665985107422e+00 2.546010255813598633e+00 -7.411631196737289429e-02
2.530000000000000000e+03 1.240856838226318359e+01 -1.124076747894287109e+01 -1.160368680953979492e+00 1.471001863479614258e+00 9.318993985652923584e-02 6.245012581348419189e-02
2.531000000000000000e+03 1.468776607513427734e+01 -1.245775604248046875e+01 -2.940689325332641602e+00 6.627377510070800781e+00 1.106006503105163574e+00 -1.855119228363037109e+00
2.532000000000000000e+03 4.399527359008789062e+01 1.940227127075195312e+01 -8.850470185279846191e-01 5.898692607879638672e+00 1.504093647003173828e+00 2.051254034042358398e+00
2.533000000000000000e+03 8.006143569946289062e+00 1.560573482513427734e+01 4.620552062988281250e-01 5.510365486145019531e+00 1.791726231575012207e+00 -1.073427081108093262e+00
2.534000000000000000e+03 1.630748939514160156e+01 -3.221052169799804688e+00 1.235228419303894043e+00 6.713484287261962891e+00 2.384613752365112305e+00 -5.638004541397094727e-01
2.535000000000000000e+03 2.661249923706054688e+01 -3.237006378173828125e+01 8.560433387756347656e-01 6.575125217437744141e+00 2.229350566864013672e+00 -8.721251487731933594e-01
2.536000000000000000e+03 6.410707092285156250e+01 2.547028923034667969e+01 2.482776880264282227e+00 5.966359615325927734e+00 2.534740924835205078e+00 1.304188370704650879e+00
2.537000000000000000e+03 3.340728759765625000e+01 -1.345957756042480469e+01 -1.308125972747802734e+00 1.222142934799194336e+00 -2.579492889344692230e-02 1.202250003814697266e+00
2.538000000000000000e+03 3.666250610351562500e+01 -1.157503223419189453e+01 7.342175245285034180e-01 4.783640861511230469e+00 1.655357480049133301e+00 -1.526618003845214844e+00
2.539000000000000000e+03 2.207942581176757812e+01 9.565085411071777344e+00 2.753489255905151367e+00 5.828225612640380859e+00 2.574514389038085938e+00 -5.000008642673492432e-02
2.540000000000000000e+03 6.969804382324218750e+01 -2.991072273254394531e+01 1.992683172225952148e+00 3.291931390762329102e+00 1.585384368896484375e+00 -4.699431955814361572e-01
2.541000000000000000e+03 2.150851631164550781e+01 1.479292964935302734e+01 -6.694768667221069336e-01 8.339036941528320312e+00 2.300868034362792969e+00 1.241989061236381531e-01
2.542000000000000000e+03 2.362597084045410156e+01 1.367953681945800781e+01 -1.100952699780464172e-01 4.582678794860839844e+00 1.341775059700012207e+00 -1.042152881622314453e+00
2.543000000000000000e+03 5.007887649536132812e+01 -6.327805995941162109e+00 1.697060227394104004e+00 7.970235824584960938e+00 2.900188684463500977e+00 6.833169460296630859e-01
2.544000000000000000e+03 2.212966537475585938e+01 3.297760772705078125e+01 2.406903356313705444e-01 5.331041336059570312e+00 1.671519517898559570e+00 8.440824151039123535e-01
2.545000000000000000e+03 3.215378046035766602e+00 -1.479145336151123047e+01 5.780116468667984009e-02 4.295841693878173828e+00 1.306092858314514160e+00 1.524977833032608032e-01
2.546000000000000000e+03 5.522784805297851562e+01 -3.708726501464843750e+01 -7.126289010047912598e-01 7.402983665466308594e+00 2.007106304168701172e+00 -6.877650022506713867e-01
2.547000000000000000e+03 2.518912696838378906e+01 2.023162126541137695e+00 -1.116816759109497070e+00 1.521674036979675293e+00 1.214571744203567505e-01 -6.125217080116271973e-01
2.548000000000000000e+03 4.306700134277343750e+01 1.001163101196289062e+01 1.463400572538375854e-01 8.625812530517578125e+00 2.631645917892456055e+00 8.476633429527282715e-01
2.549000000000000000e+03 1.065677070617675781e+01 -1.167687416076660156e+01 -2.436475038528442383e+00 -9.888460487127304077e-02 -7.606078982353210449e-01 2.166814327239990234e+00
2.550000000000000000e+03 7.601544380187988281e+00 -1.235735034942626953e+01 -1.355220794677734375e+00 4.063024520874023438e+00 8.123411536216735840e-01 2.503764390945434570e+00
2.551000000000000000e+03 6.560559844970703125e+01 -1.996390104293823242e+00 1.264242291450500488e+00 6.386007308959960938e+00 2.295074939727783203e+00 1.666577219963073730e+00
2.552000000000000000e+03 3.367301177978515625e+01 -5.215620994567871094e+00 2.386099100112915039e+00 4.734558105468750000e+00 2.136197090148925781e+00 -3.243966996669769287e-01
2.553000000000000000e+03 5.442323303222656250e+01 7.097854018211364746e-01 -1.238815307617187500e+00 3.604121685028076172e+00 7.095919251441955566e-01 2.237355947494506836e+00
2.554000000000000000e+03 5.486064910888671875e+01 2.036114931106567383e+00 -1.762912511825561523e+00 3.844368219375610352e+00 6.244367361068725586e-01 2.329240083694458008e+00
2.555000000000000000e+03 6.340934753417968750e+01 -1.233671283721923828e+01 -1.417780756950378418e+00 6.874866485595703125e+00 1.637125730514526367e+00 7.683076858520507812e-01
2.556000000000000000e+03 6.091060256958007812e+01 -1.089126396179199219e+01 -1.521524906158447266e+00 6.945911407470703125e+00 1.627315998077392578e+00 1.642002820968627930e+00
2.557000000000000000e+03 3.350345230102539062e+01 3.466822814941406250e+01 -1.061816215515136719e+00 5.330668926239013672e+00 1.280655741691589355e+00 -2.962940335273742676e-01
2.558000000000000000e+03 5.335206604003906250e+01 4.909091949462890625e+00 -1.698863506317138672e+00 5.228783607482910156e+00 1.058976054191589355e+00 2.630815029144287109e+00
2.559000000000000000e+03 6.319154357910156250e+01 -4.143271255493164062e+01 -7.185919284820556641e-01 1.155070185661315918e+00 1.309434622526168823e-01 2.137198448181152344e-01
2.560000000000000000e+03 7.010360717773437500e+01 2.228710556030273438e+01 -9.482525587081909180e-01 4.177888393402099609e+00 9.688908457756042480e-01 -1.446345925331115723e+00
2.561000000000000000e+03 5.175756072998046875e+01 -3.653969192504882812e+01 -1.814023405313491821e-02 7.040784835815429688e+00 2.106793403625488281e+00 5.456969887018203735e-02
2.562000000000000000e+03 1.320184135437011719e+01 5.760441780090332031e+00 -3.002926111221313477e+00 1.401897907257080078e+00 -4.803085029125213623e-01 -3.180201947689056396e-01
2.563000000000000000e+03 1.531340217590332031e+01 4.497104644775390625e+00 8.332163095474243164e-02 1.934427261352539062e+00 6.053246855735778809e-01 2.880681753158569336e+00
2.564000000000000000e+03 5.128586959838867188e+01 -6.223034381866455078e+00 1.819412112236022949e+00 8.348171234130859375e+00 3.050274848937988281e+00 5.001240968704223633e-01
2.565000000000000000e+03 5.170429611206054688e+01 -2.714234924316406250e+01 7.841524481773376465e-01 2.662280321121215820e+00 1.033929824829101562e+00 7.385015487670898438e-02
2.566000000000000000e+03 5.420377349853515625e+01 -2.698003387451171875e+01 -8.869363665580749512e-01 6.597937583923339844e+00 1.713300347328186035e+00 2.674227714538574219e+00
2.567000000000000000e+03 3.977848815917968750e+01 1.407115459442138672e+01 8.455839753150939941e-01 4.704412937164306641e+00 1.664999008178710938e+00 -1.254676938056945801e+00
2.568000000000000000e+03 1.699169731140136719e+01 -2.063610267639160156e+01 1.783740639686584473e+00 6.518849849700927734e+00 2.490777254104614258e+00 -1.250441223382949829e-01
2.569000000000000000e+03 1.900846099853515625e+01 -1.877058219909667969e+01 2.450872659683227539e+00 4.453473567962646484e+00 2.071303844451904297e+00 -1.761994600296020508e+00
2.570000000000000000e+03 7.246409606933593750e+01 -1.472538566589355469e+01 -4.382040500640869141e-01 2.492068529129028320e+00 6.161593794822692871e-01 -3.198132514953613281e-01
2.571000000000000000e+03 4.863698196411132812e+01 -2.644040584564208984e+00 2.653648257255554199e-01 5.603671550750732422e+00 1.760710835456848145e+00 -1.398204684257507324e+00
2.572000000000000000e+03 7.109443664550781250e+01 2.301591300964355469e+01 -3.913887143135070801e-01 4.916070461273193359e+00 1.357404589653015137e+00 -1.366673350334167480e+00
2.573000000000000000e+03 4.950221633911132812e+01 -1.425549507141113281e+01 -1.512533068656921387e+00 4.209008216857910156e+00 8.089426159858703613e-01 1.063214421272277832e+00
2.574000000000000000e+03 1.572217082977294922e+01 -1.167402648925781250e+01 -1.699977874755859375e+00 8.584286689758300781e+00 2.065292596817016602e+00 -1.447812914848327637e+00
2.575000000000000000e+03 5.966567611694335938e+01 1.500580596923828125e+01 1.717990994453430176e+00 9.462010383605957031e+00 3.354000329971313477e+00 1.536366343498229980e+00
2.576000000000000000e+03 6.282613754272460938e+01 -2.431886100769042969e+01 1.184553623199462891e+00 4.866486072540283203e+00 1.815311908721923828e+00 -1.935740947723388672e+00
2.577000000000000000e+03 6.362758255004882812e+01 -2.160691642761230469e+01 2.874491453170776367e+00 7.869146823883056641e+00 3.223091602325439453e+00 -2.308529615402221680e+00
2.578000000000000000e+03 5.617582702636718750e+01 -1.286811256408691406e+01 -1.596264094114303589e-01 3.419807910919189453e+00 9.780544638633728027e-01 -1.656436800956726074e+00
2.579000000000000000e+03 1.776779937744140625e+01 -1.654784011840820312e+01 1.255274057388305664e+00 7.410553932189941406e+00 2.599748373031616211e+00 -1.046757817268371582e+00
2.580000000000000000e+03 5.172580718994140625e+01 4.105948257446289062e+01 -1.627648711204528809e+00 4.762731552124023438e+00 9.405248761177062988e-01 9.113741666078567505e-02
2.581000000000000000e+03 5.308188247680664062e+01 3.748284912109375000e+01 -1.579735875129699707e+00 5.551420211791992188e+00 1.191505312919616699e+00 6.676741242408752441e-01
2.582000000000000000e+03 2.139735412597656250e+01 -2.481720352172851562e+01 -4.142498970031738281e-01 1.469035506248474121e+00 3.164356946945190430e-01 -1.492776989936828613e+00
2.583000000000000000e+03 1.842476272583007812e+01 -2.233718490600585938e+01 9.653322696685791016e-01 3.495180368423461914e+00 1.338153719902038574e+00 -4.356814622879028320e-01
2.584000000000000000e+03 6.502632141113281250e+01 3.317800521850585938e+01 9.853487461805343628e-02 5.482139110565185547e+00 1.674202203750610352e+00 4.820221960544586182e-01
2.585000000000000000e+03 6.465769958496093750e+01 3.436826324462890625e+01 -5.617137551307678223e-01 4.724732398986816406e+00 1.248905539512634277e+00 4.380043745040893555e-01
2.586000000000000000e+03 5.494787597656250000e+01 -1.271622848510742188e+01 -2.206031233072280884e-01 3.517786026000976562e+00 9.891548752784729004e-01 -2.570777893066406250e+00
2.587000000000000000e+03 5.869860839843750000e+01 -1.241400337219238281e+01 -6.474847793579101562e-01 3.969920396804809570e+00 9.967306852340698242e-01 9.631826281547546387e-01
2.588000000000000000e+03 5.152491760253906250e+01 -3.001370048522949219e+01 2.585460662841796875e+00 5.575048446655273438e+00 2.448152780532836914e+00 -3.096899092197418213e-01
2.589000000000000000e+03 3.573983383178710938e+01 -3.854284667968750000e+01 -8.105486035346984863e-01 4.443923950195312500e+00 1.090012550354003906e+00 4.801352918148040771e-01
2.590000000000000000e+03 6.791738891601562500e+01 -2.717528533935546875e+01 -7.254972457885742188e-01 3.778063058853149414e+00 9.157697558403015137e-01 -2.005920648574829102e+00
2.591000000000000000e+03 3.054401016235351562e+01 2.970445632934570312e+01 5.669890046119689941e-01 3.988364458084106445e+00 1.366606116294860840e+00 -1.850301504135131836e+00
2.592000000000000000e+03 4.895451736450195312e+01 4.756248950958251953e+00 -7.305286526679992676e-01 9.246103167533874512e-01 5.822450667619705200e-02 -8.281310200691223145e-01
2.593000000000000000e+03 5.077208328247070312e+01 2.980401039123535156e+00 -6.265537142753601074e-01 2.775635480880737305e+00 6.447245478630065918e-01 8.551179170608520508e-01
2.594000000000000000e+03 6.316260147094726562e+01 -9.696231842041015625e+00 2.955247461795806885e-01 8.477607727050781250e+00 2.631939649581909180e+00 4.934437870979309082e-01
2.595000000000000000e+03 8.193308830261230469e+00 2.031129264831542969e+01 -1.308064937591552734e+00 3.328183412551879883e+00 6.060355305671691895e-01 -1.361473679542541504e+00
2.596000000000000000e+03 2.358944129943847656e+01 2.970214843750000000e+01 1.125370934605598450e-01 4.255324363708496094e+00 1.310358405113220215e+00 1.291188359260559082e+00
2.597000000000000000e+03 3.453054428100585938e+01 -1.729837536811828613e+00 2.547666430473327637e-01 2.851803779602050781e+00 9.319711327552795410e-01 9.950466156005859375e-01
2.598000000000000000e+03 3.687591552734375000e+01 -2.800226211547851562e+00 -1.214463934302330017e-01 4.032278060913085938e+00 1.173249483108520508e+00 2.171945333480834961e+00
2.599000000000000000e+03 5.548700332641601562e+01 6.283020973205566406e+00 2.450051307678222656e-01 7.532216548919677734e+00 2.333166599273681641e+00 7.653073072433471680e-01
2.600000000000000000e+03 5.879113388061523438e+01 1.001245117187500000e+01 1.601100325584411621e+00 7.576304912567138672e+00 2.753221511840820312e+00 5.443688482046127319e-02
2.601000000000000000e+03 5.022974014282226562e+00 2.549253082275390625e+01 6.805411577224731445e-01 7.161171436309814453e+00 2.352513790130615234e+00 -1.003329232335090637e-01
2.602000000000000000e+03 5.886668395996093750e+01 -2.521325683593750000e+01 -1.189403533935546875e-01 4.404918193817138672e+00 1.285793423652648926e+00 1.868463397026062012e+00
2.603000000000000000e+03 5.644961929321289062e+01 -2.452270507812500000e+01 -5.527287125587463379e-01 8.488310813903808594e+00 2.380674600601196289e+00 1.371626019477844238e+00
2.604000000000000000e+03 3.400432205200195312e+01 1.353444576263427734e+01 -4.171024262905120850e-01 1.305300831794738770e+00 2.664595246315002441e-01 4.680618941783905029e-01
2.605000000000000000e+03 6.514823913574218750e+01 -1.586488342285156250e+01 -1.969824671745300293e+00 5.312831878662109375e+00 1.002902150154113770e+00 7.914205789566040039e-01
2.606000000000000000e+03 6.187671661376953125e+01 -1.845898628234863281e+01 1.063834667205810547e+00 6.334495067596435547e+00 2.219498872756958008e+00 -5.195891261100769043e-01
2.607000000000000000e+03 5.055137252807617188e+01 -2.987754058837890625e+01 2.205471038818359375e+00 6.190051555633544922e+00 2.518656730651855469e+00 -1.007289528846740723e+00
2.608000000000000000e+03 3.421872329711914062e+01 1.479357814788818359e+01 5.398652553558349609e-01 2.504812240600585938e+00 9.134032726287841797e-01 -2.214288860559463501e-01
2.609000000000000000e+03 6.718087768554687500e+01 -2.905172920227050781e+01 1.753429889678955078e+00 6.174372196197509766e+00 2.378340721130371094e+00 -1.670495271682739258e+00
2.610000000000000000e+03 3.160687446594238281e+01 -3.109115600585937500e+01 2.507659196853637695e-01 2.827034235000610352e+00 9.233400821685791016e-01 -1.226902246475219727e+00
2.611000000000000000e+03 3.583179855346679688e+01 -3.199873733520507812e+01 2.061469316482543945e+00 2.834718227386474609e+00 1.468856215476989746e+00 1.071075439453125000e+00
2.612000000000000000e+03 2.560413742065429688e+01 3.147952842712402344e+01 1.174961924552917480e+00 2.060142517089843750e+00 9.705313444137573242e-01 6.258620619773864746e-01
2.613000000000000000e+03 8.125929832458496094e+00 -2.503128814697265625e+01 -1.681755423545837402e+00 3.628232777118682861e-01 -3.956796228885650635e-01 -4.166921675205230713e-01
2.614000000000000000e+03 5.549663925170898438e+01 -2.568950462341308594e+01 -2.936334609985351562e+00 7.632591724395751953e+00 1.408877134323120117e+00 2.098642826080322266e+00
2.615000000000000000e+03 5.512461471557617188e+01 -1.621320915222167969e+01 -1.276121258735656738e+00 6.133413791656494141e+00 1.457187771797180176e+00 -1.290890336036682129e+00
2.616000000000000000e+03 5.644473648071289062e+01 -2.334469413757324219e+01 1.004738569259643555e+00 7.767906188964843750e+00 2.631793498992919922e+00 6.141214966773986816e-01
2.617000000000000000e+03 3.079375267028808594e+00 -1.268545150756835938e+01 -4.218875467777252197e-01 3.347132682800292969e+00 8.775735497474670410e-01 1.464694142341613770e-01
2.618000000000000000e+03 4.138290023803710938e+01 4.007383823394775391e+00 1.744070887565612793e+00 7.168424606323242188e+00 2.673748731613159180e+00 -3.447301983833312988e-01
2.619000000000000000e+03 3.228347778320312500e+01 -3.891706085205078125e+01 -6.317620277404785156e-01 4.701031684875488281e+00 1.220780968666076660e+00 -7.671693712472915649e-02
2.620000000000000000e+03 5.504174041748046875e+01 -1.383859062194824219e+01 -5.695112347602844238e-01 4.212200164794921875e+00 1.092806696891784668e+00 -2.502885580062866211e+00
2.621000000000000000e+03 6.515213775634765625e+01 4.864631175994873047e+00 -3.652944266796112061e-01 1.975509881973266602e+00 4.830646514892578125e-01 -4.205428659915924072e-01
2.622000000000000000e+03 6.296585083007812500e+01 2.576134443283081055e+00 -1.113433957099914551e+00 4.900244712829589844e+00 1.136043310165405273e+00 -1.135773062705993652e+00
2.623000000000000000e+03 5.859265518188476562e+01 2.123499107360839844e+01 -2.739077806472778320e-01 2.943030834197998047e+00 8.007369041442871094e-01 2.606246173381805420e-01
2.624000000000000000e+03 5.856469345092773438e+01 1.758245849609375000e+01 1.586651921272277832e+00 6.376468658447265625e+00 2.388936042785644531e+00 4.887986183166503906e-01
2.625000000000000000e+03 5.627019882202148438e+01 2.171263122558593750e+01 -1.449255704879760742e+00 3.017604589462280273e+00 4.705046415328979492e-01 -2.556056499481201172e+00
2.626000000000000000e+03 2.730445671081542969e+01 5.639308452606201172e+00 1.729350447654724121e+00 5.118926525115966797e+00 2.054483175277709961e+00 -3.490561544895172119e-01
2.627000000000000000e+03 2.292612075805664062e+01 5.054354667663574219e+00 1.254228949546813965e+00 2.858965873718261719e+00 1.233958363533020020e+00 9.867533445358276367e-01
2.628000000000000000e+03 7.528188323974609375e+01 -1.146619033813476562e+01 -1.808418869972229004e+00 8.593512535095214844e+00 2.035528182983398438e+00 5.399650931358337402e-01
2.629000000000000000e+03 6.832101440429687500e+01 -3.506886672973632812e+01 4.971070587635040283e-01 6.211600780487060547e+00 2.012612342834472656e+00 -1.360765695571899414e+00
2.630000000000000000e+03 7.183735656738281250e+01 -3.301030731201171875e+01 1.218072652816772461e+00 5.115962982177734375e+00 1.900210738182067871e+00 -3.799355924129486084e-01
2.631000000000000000e+03 4.979155731201171875e+01 -1.528313446044921875e+01 -2.055621385574340820e+00 2.155426025390625000e+00 2.994135022163391113e-02 1.414490818977355957e+00
2.632000000000000000e+03 5.185538101196289062e+01 -1.453561210632324219e+01 -1.287975192070007324e+00 1.726623773574829102e+00 1.315945535898208618e-01 -2.406355857849121094e+00
2.633000000000000000e+03 6.627828979492187500e+01 8.635513782501220703e-01 1.635015569627285004e-02 3.894645214080810547e+00 1.173298597335815430e+00 1.587766528129577637e+00
2.634000000000000000e+03 5.691503524780273438e+00 2.096469402313232422e+00 8.677047491073608398e-01 7.800890207290649414e-01 4.943381547927856445e-01 -9.860160946846008301e-01
2.635000000000000000e+03 5.990820884704589844e+00 2.588795423507690430e+00 9.823248386383056641e-01 1.325987815856933594e+00 6.924937963485717773e-01 -1.440203189849853516e+00
2.636000000000000000e+03 7.298633098602294922e+00 -1.812677264213562012e+00 1.807506799697875977e+00 6.841016411781311035e-01 7.474825382232666016e-01 1.016794204711914062e+00
2.637000000000000000e+03 6.795852661132812500e+00 -2.221037149429321289e+00 1.623120546340942383e+00 6.366047859191894531e-01 6.779175996780395508e-01 9.833451509475708008e-01
2.638000000000000000e+03 6.163562297821044922e+00 -1.915535092353820801e+00 1.034505963325500488e+00 2.646829187870025635e-01 3.897566497325897217e-01 4.588141441345214844e-01
2.639000000000000000e+03 5.996615886688232422e+00 -1.980764031410217285e+00 9.948499202728271484e-01 3.105412125587463379e-01 3.916173279285430908e-01 4.374118149280548096e-01
2.640000000000000000e+03 7.636474132537841797e+00 1.990714788436889648e+00 2.300518512725830078e+00 2.220331430435180664e+00 1.356254935264587402e+00 -3.093299865722656250e+00
2.641000000000000000e+03 5.540437221527099609e+00 -2.296722412109375000e+00 9.996995329856872559e-01 3.139314353466033936e-01 3.940892815589904785e-01 4.497455060482025146e-01
2.642000000000000000e+03 8.319652557373046875e+00 2.700717687606811523e+00 1.492139816284179688e+00 4.818313598632812500e+00 1.893136143684387207e+00 -4.297101497650146484e+00
2.643000000000000000e+03 5.026649951934814453e+00 -2.082782506942749023e+00 6.509157419204711914e-01 1.552906185388565063e-01 2.418619096279144287e-01 2.039434611797332764e-01
2.644000000000000000e+03 8.606039047241210938e+00 2.325305223464965820e+00 2.067785739898681641e+00 5.148284435272216797e+00 2.164821147918701172e+00 -4.722168445587158203e+00
2.645000000000000000e+03 9.215542793273925781e+00 -2.816904306411743164e+00 1.759014248847961426e+00 5.993753433227539062e+00 2.325830221176147461e+00 2.690908670425415039e+00
2.646000000000000000e+03 9.025850296020507812e+00 -2.187354803085327148e+00 2.283960342407226562e+00 5.345212936401367188e+00 2.288752079010009766e+00 3.171025514602661133e+00
2.647000000000000000e+03 4.664182186126708984e+00 -1.881089210510253906e+00 4.053600430488586426e-01 8.681581169366836548e-02 1.476527601480484009e-01 7.000406831502914429e-02
2.648000000000000000e+03 8.854196548461914062e+00 2.338816404342651367e+00 1.959107398986816406e+00 6.059797763824462891e+00 2.405671596527099609e+00 -4.982762813568115234e+00
2.649000000000000000e+03 3.959468126296997070e+00 -6.967644214630126953e+00 2.423447817564010620e-01 1.517052173614501953e+00 5.278190970420837402e-01 1.190848946571350098e+00
2.650000000000000000e+03 4.200158596038818359e+00 -2.027733325958251953e+00 3.542971611022949219e-01 7.299382984638214111e-02 1.281872987747192383e-01 1.136438734829425812e-02
2.651000000000000000e+03 3.638523340225219727e+00 -2.171123266220092773e+00 3.149814903736114502e-01 1.198631972074508667e-01 1.304534077644348145e-01 1.165230199694633484e-02
2.652000000000000000e+03 5.138219833374023438e+00 2.388938665390014648e+00 7.050728201866149902e-01 7.711192369461059570e-01 4.428576231002807617e-01 -7.357875704765319824e-01
2.653000000000000000e+03 4.577296733856201172e+00 2.246059894561767578e+00 4.161950051784515381e-01 5.032213330268859863e-01 2.758249044418334961e-01 -3.817712366580963135e-01
2.654000000000000000e+03 4.249193668365478516e+00 2.039520502090454102e+00 3.090772926807403564e-01 3.891979157924652100e-01 2.094825655221939087e-01 -1.900878995656967163e-01
2.655000000000000000e+03 1.452822017669677734e+01 4.141544818878173828e+00 4.212721586227416992e-01 2.382011175155639648e+00 8.409850001335144043e-01 2.433464765548706055e+00
2.656000000000000000e+03 1.080949211120605469e+01 2.251566886901855469e+00 1.223148345947265625e+00 1.135307121276855469e+01 3.772865772247314453e+00 -1.636501908302307129e+00
2.657000000000000000e+03 1.213928794860839844e+01 2.685663998126983643e-01 7.826168537139892578e+00 8.519900321960449219e+00 4.903820514678955078e+00 -5.094066262245178223e-01
2.658000000000000000e+03 1.178444004058837891e+01 5.258128046989440918e-01 8.285806655883789062e+00 9.793133735656738281e+00 5.423682212829589844e+00 2.816012203693389893e-01
2.659000000000000000e+03 1.121574783325195312e+01 -1.900162220001220703e+00 2.285252809524536133e+00 1.186655712127685547e+01 4.245543003082275391e+00 -1.730970382690429688e+00
2.660000000000000000e+03 1.023409366607666016e+01 2.191779136657714844e+00 1.054542422294616699e+00 1.124075126647949219e+01 3.688587903976440430e+00 -3.498707056045532227e+00
2.661000000000000000e+03 1.058984470367431641e+01 2.146877765655517578e+00 1.312753200531005859e+00 1.166085052490234375e+01 3.892081260681152344e+00 -2.395180463790893555e+00
2.662000000000000000e+03 1.210026454925537109e+01 6.445357322692871094e+00 -4.117491722106933594e+00 3.748284101486206055e+00 -1.107622310519218445e-01 -1.573040962219238281e+00
2.663000000000000000e+03 1.135179805755615234e+01 1.660304546356201172e+00 3.433380603790283203e+00 1.137606906890869141e+01 4.442834854125976562e+00 2.531147599220275879e-01
2.664000000000000000e+03 1.298094987869262695e+00 -1.988709211349487305e+00 9.057567454874515533e-03 -1.256648898124694824e-01 -3.498219698667526245e-02 -1.558866649866104126e-01
2.665000000000000000e+03 1.717337489128112793e+00 -3.063091278076171875e+00 1.416823714971542358e-01 -1.172697916626930237e-02 3.898661956191062927e-02 -4.908755421638488770e-02
2.666000000000000000e+03 1.153887391090393066e+00 -1.778906106948852539e+00 1.552023179829120636e-02 -1.032111421227455139e-01 -2.630727179348468781e-02 -1.268574297428131104e-01
2.667000000000000000e+03 3.372861385345458984e+00 -2.190420389175415039e+00 2.628365457057952881e-01 9.283997863531112671e-02 1.067029610276222229e-01 -4.051915183663368225e-02
2.668000000000000000e+03 1.456267833709716797e+00 1.953043937683105469e+00 1.401871326379477978e-03 -1.125742346048355103e-01 -3.335170820355415344e-02 2.518462538719177246e-01
2.669000000000000000e+03 1.724796175956726074e+00 2.137700557708740234e+00 1.473760115914046764e-03 -6.705632805824279785e-02 -1.967477053403854370e-02 2.555925548076629639e-01
2.670000000000000000e+03 2.861925840377807617e+00 2.150907516479492188e+00 9.778735786676406860e-02 1.535357683897018433e-01 7.539694011211395264e-02 1.448360830545425415e-01
2.671000000000000000e+03 2.177903413772583008e+00 -4.097811222076416016e+00 2.143383771181106567e-01 2.523172497749328613e-01 1.399966925382614136e-01 1.733513623476028442e-01
2.672000000000000000e+03 1.054795980453491211e+00 2.714585781097412109e+00 3.850682824850082397e-02 -2.924044430255889893e-01 -7.616928219795227051e-02 1.854468286037445068e-01
2.673000000000000000e+03 2.058349847793579102e+00 2.006275653839111328e+00 -1.117029041051864624e-02 1.140403794124722481e-03 -3.008965868502855301e-03 2.458972781896591187e-01
2.674000000000000000e+03 1.555414915084838867e+00 -4.813316822052001953e+00 1.385723650455474854e-01 1.386468410491943359e-01 8.316576480865478516e-02 1.828980147838592529e-01
2.675000000000000000e+03 1.634192347526550293e+00 -3.964993238449096680e+00 1.243285387754440308e-01 2.085547521710395813e-02 4.355520382523536682e-02 6.331188976764678955e-02
2.676000000000000000e+03 1.477112960815429688e+01 -7.710581302642822266e+00 2.644369125366210938e+00 7.645339488983154297e+00 3.086912631988525391e+00 -2.791505575180053711e+00
2.677000000000000000e+03 4.885595321655273438e+01 -1.349422550201416016e+01 -1.313126921653747559e+00 5.558148384094238281e+00 1.273506522178649902e+00 9.556899070739746094e-01
2.678000000000000000e+03 4.851294326782226562e+01 -1.438981723785400391e+01 -2.264490842819213867e+00 5.771412372589111328e+00 1.052076458930969238e+00 1.653208017349243164e+00
2.679000000000000000e+03 3.023795318603515625e+01 -4.185711741447448730e-01 -1.494974970817565918e+00 5.787791728973388672e+00 1.287845015525817871e+00 -1.633512020111083984e+00
2.680000000000000000e+03 6.203646087646484375e+01 -2.905815124511718750e+00 1.889877915382385254e+00 8.713838577270507812e+00 3.181114912033081055e+00 -1.040084719657897949e+00
2.681000000000000000e+03 3.319853591918945312e+01 -1.892206430435180664e+00 7.538295388221740723e-01 2.990931034088134766e+00 1.123428225517272949e+00 2.230517007410526276e-02
2.682000000000000000e+03 5.162034606933593750e+01 2.987584304809570312e+01 1.569090843200683594e+00 7.306475639343261719e+00 2.662669897079467773e+00 6.142684221267700195e-01
2.683000000000000000e+03 4.208179855346679688e+01 -2.214042663574218750e+01 2.720910310745239258e+00 5.096272945404052734e+00 2.345155000686645508e+00 9.541849493980407715e-01
2.684000000000000000e+03 5.052209854125976562e+01 2.764429283142089844e+01 2.100452423095703125e+00 6.393766403198242188e+00 2.548265695571899414e+00 7.332828640937805176e-01
2.685000000000000000e+03 2.569644165039062500e+01 -1.615024375915527344e+01 -3.909006118774414062e-01 2.649959564208984375e+00 6.777176856994628906e-01 5.753256678581237793e-01
2.686000000000000000e+03 1.872084045410156250e+01 4.675396442413330078e+00 -6.627326458692550659e-02 3.421311378479003906e+00 1.006511449813842773e+00 3.674913406372070312e+00
2.687000000000000000e+03 4.054906463623046875e+01 -1.507215976715087891e+01 -2.036541223526000977e+00 3.435950756072998047e+00 4.198228716850280762e-01 -2.230967283248901367e+00
2.688000000000000000e+03 4.266559982299804688e+01 -2.679948043823242188e+01 -1.447009921073913574e+00 8.975443243980407715e-01 -1.648396998643875122e-01 1.058867454528808594e+00
2.689000000000000000e+03 4.463228607177734375e+01 -2.531755638122558594e+01 8.897849321365356445e-01 2.412614107131958008e+00 9.907197356224060059e-01 -1.313834547996520996e+00
2.690000000000000000e+03 4.201998901367187500e+01 -2.569530677795410156e+01 1.150113821029663086e+00 3.750001192092895508e+00 1.470034480094909668e+00 1.302594184875488281e+00
2.691000000000000000e+03 4.728110504150390625e+01 2.490596580505371094e+01 2.686818838119506836e+00 7.308212280273437500e+00 2.998509407043457031e+00 1.466419696807861328e+00
2.692000000000000000e+03 5.083808517456054688e+01 2.117500686645507812e+01 -2.958138585090637207e-01 3.876125097274780273e+00 1.074093341827392578e+00 -1.581959128379821777e+00
2.693000000000000000e+03 2.156419181823730469e+01 -1.603214263916015625e+01 4.200613796710968018e-01 1.024652123451232910e+00 4.334140717983245850e-01 -1.572566032409667969e+00
2.694000000000000000e+03 2.412020492553710938e+01 -2.440703773498535156e+01 2.259941399097442627e-01 4.419260025024414062e+00 1.393576264381408691e+00 -1.097123980522155762e+00
2.695000000000000000e+03 6.179183578491210938e+01 1.886127889156341553e-01 -1.009162545204162598e+00 6.839972019195556641e+00 1.749242901802062988e+00 -1.185192227363586426e+00
2.696000000000000000e+03 6.449929046630859375e+01 -1.223144769668579102e+00 4.458729028701782227e-01 6.614397048950195312e+00 2.118080854415893555e+00 9.098757505416870117e-01
2.697000000000000000e+03 2.186779212951660156e+01 5.894297122955322266e+00 1.232698440551757812e+00 4.042736053466796875e+00 1.582630395889282227e+00 1.232024073600769043e+00
2.698000000000000000e+03 1.996904253959655762e+00 5.651239395141601562e+00 4.145152121782302856e-02 2.928256988525390625e-01 1.002831682562828064e-01 -3.732059895992279053e-02
2.699000000000000000e+03 1.964409232139587402e+00 2.821745157241821289e+00 9.192935377359390259e-02 7.046355307102203369e-02 4.871787130832672119e-02 1.962680518627166748e-01
2.700000000000000000e+03 1.009248256683349609e+01 6.594370841979980469e+00 -3.003910541534423828e+00 7.027169704437255859e+00 1.206977725028991699e+00 -2.108380556106567383e+00
2.701000000000000000e+03 4.197381210327148438e+01 1.142708301544189453e+01 4.893445670604705811e-01 8.076039314270019531e+00 2.569615125656127930e+00 7.544788718223571777e-01
2.702000000000000000e+03 9.449995994567871094e+00 7.540772438049316406e+00 -1.747630834579467773e+00 7.250785827636718750e+00 1.650946378707885742e+00 -1.612841367721557617e+00
2.703000000000000000e+03 9.426360130310058594e+00 8.455520629882812500e+00 -9.654087424278259277e-01 8.131252288818359375e+00 2.149753093719482422e+00 -1.580472826957702637e+00
2.704000000000000000e+03 5.164596176147460938e+01 2.046482276916503906e+01 -6.719913482666015625e-01 3.712286710739135742e+00 9.120886325836181641e-01 -2.039112806320190430e+00
2.705000000000000000e+03 3.583112335205078125e+01 -1.184807395935058594e+01 7.634755373001098633e-01 4.051487445831298828e+00 1.444488883018493652e+00 -1.583091497421264648e+00
2.706000000000000000e+03 1.422159099578857422e+01 -5.301189422607421875e+00 1.386049985885620117e+00 8.089914321899414062e+00 2.842789411544799805e+00 -2.443591356277465820e+00
2.707000000000000000e+03 1.455521488189697266e+01 -5.948358535766601562e+00 1.300068497657775879e+00 8.418564796447753906e+00 2.915589809417724609e+00 -2.472168207168579102e+00
2.708000000000000000e+03 2.654724311828613281e+01 -1.667819213867187500e+01 -1.940622329711914062e-01 4.025458335876464844e+00 1.149418830871582031e+00 7.509511709213256836e-01
2.709000000000000000e+03 2.603340911865234375e+01 -1.508868503570556641e+01 -1.875657796859741211e+00 2.845342159271240234e+00 2.909052968025207520e-01 1.045328140258789062e+00
2.710000000000000000e+03 1.573716068267822266e+01 -4.158426284790039062e+00 1.064578533172607422e+00 7.608103275299072266e+00 2.601804494857788086e+00 -1.285108089447021484e+00
2.711000000000000000e+03 1.535167217254638672e+01 -2.997165679931640625e+00 1.855981469154357910e+00 6.849759578704833984e+00 2.611722230911254883e+00 -1.247288346290588379e+00
2.712000000000000000e+03 1.474897098541259766e+01 -6.733176231384277344e+00 1.822251796722412109e+00 8.645080566406250000e+00 3.140199661254882812e+00 -3.079901695251464844e+00
2.713000000000000000e+03 4.271512985229492188e+01 1.994132804870605469e+01 -2.822200655937194824e-01 3.946294784545898438e+00 1.099222421646118164e+00 1.863441824913024902e+00
2.714000000000000000e+03 3.916410064697265625e+01 1.698653221130371094e+01 1.918202280998229980e+00 2.848535060882568359e+00 1.430021166801452637e+00 -1.693679571151733398e+00
2.715000000000000000e+03 3.423592758178710938e+01 1.901288032531738281e+01 1.867629170417785645e+00 5.908677101135253906e+00 2.332891941070556641e+00 -2.691281735897064209e-01
2.716000000000000000e+03 2.653810882568359375e+01 -2.052670669555664062e+01 2.434497833251953125e+00 5.697060585021972656e+00 2.439467430114746094e+00 -2.685114741325378418e-01
2.717000000000000000e+03 4.377352523803710938e+01 8.333969116210937500e+00 -2.378053031861782074e-02 6.871186733245849609e+00 2.054221868515014648e+00 3.565506637096405029e-01
2.718000000000000000e+03 3.200910568237304688e+01 1.530281925201416016e+01 -7.510657310485839844e-01 6.255248069763183594e+00 1.651254773139953613e+00 1.070760011672973633e+00
2.719000000000000000e+03 7.689060974121093750e+01 1.783163070678710938e+01 -1.562578082084655762e-01 7.425807476043701172e+00 2.180865049362182617e+00 8.001868128776550293e-01
2.720000000000000000e+03 1.679771614074707031e+01 -7.369585037231445312e-01 2.043539762496948242e+00 4.165812969207763672e+00 1.862805843353271484e+00 1.029723882675170898e+00
2.721000000000000000e+03 4.212623977661132812e+01 1.921074104309082031e+01 7.746435403823852539e-01 3.317821502685546875e+00 1.227739572525024414e+00 9.356267452239990234e-01
2.722000000000000000e+03 4.318314743041992188e+01 1.819999122619628906e+01 6.591166853904724121e-01 5.765369892120361328e+00 1.927345991134643555e+00 1.087875962257385254e+00
2.723000000000000000e+03 3.289343643188476562e+01 -4.550794363021850586e-01 -1.003150939941406250e+00 2.120177268981933594e+00 3.351079225540161133e-01 -6.958492994308471680e-01
2.724000000000000000e+03 2.131184196472167969e+01 2.818799495697021484e+00 1.016407534480094910e-01 2.092780828475952148e+00 6.583264470100402832e-01 2.542861223220825195e+00
2.725000000000000000e+03 2.131424903869628906e+01 1.526062726974487305e+00 -5.504829287528991699e-01 1.703706622123718262e+00 3.459671139717102051e-01 2.125650167465209961e+00
2.726000000000000000e+03 1.601858901977539062e+01 1.282573342323303223e+00 2.489548921585083008e+00 3.499409914016723633e+00 1.796687602996826172e+00 2.336061477661132812e+00
2.727000000000000000e+03 2.779343605041503906e+01 -2.889389038085937500e+01 -9.036496877670288086e-01 6.588198184967041016e+00 1.705364584922790527e+00 -2.374020665884017944e-01
2.728000000000000000e+03 6.464038848876953125e+00 -2.480010604858398438e+01 -1.948762655258178711e+00 1.716058969497680664e+00 -6.981109082698822021e-02 -1.071653366088867188e+00
2.729000000000000000e+03 3.996757030487060547e+00 -2.843389129638671875e+01 9.821020066738128662e-02 3.743158578872680664e+00 1.152410626411437988e+00 -8.288941979408264160e-01
2.730000000000000000e+03 4.324378490447998047e+00 -2.370702743530273438e+01 -2.161257505416870117e+00 4.959568977355957031e+00 8.394933938980102539e-01 1.138222515583038330e-01
2.731000000000000000e+03 5.487876892089843750e+00 -2.555638504028320312e+01 -1.217262268066406250e+00 2.939056396484375000e+00 5.165382027626037598e-01 -1.089568138122558594e+00
2.732000000000000000e+03 4.059659957885742188e+00 -2.484411621093750000e+01 -1.336451053619384766e+00 4.404493331909179688e+00 9.204127192497253418e-01 -3.736982345581054688e-01
2.733000000000000000e+03 3.064565658569335938e+00 -3.164667892456054688e+01 3.317036926746368408e-01 4.104320049285888672e+00 1.330807089805603027e+00 -3.215549290180206299e-01
2.734000000000000000e+03 4.767795562744140625e+00 -2.940021705627441406e+01 4.957028925418853760e-01 3.367063045501708984e+00 1.158829808235168457e+00 -6.706621050834655762e-01
2.735000000000000000e+03 3.392954111099243164e+00 -3.712955856323242188e+01 5.072320625185966492e-02 4.441714763641357422e+00 1.347731351852416992e+00 3.650239408016204834e-01
2.736000000000000000e+03 3.251219511032104492e+00 -3.289997863769531250e+01 3.063241541385650635e-01 4.054782390594482422e+00 1.308331966400146484e+00 -1.044075861573219299e-01
2.737000000000000000e+03 2.745299339294433594e+00 -8.249977111816406250e+00 -5.341491475701332092e-02 1.490730881690979004e+00 4.311948120594024658e-01 8.039395809173583984e-01
2.738000000000000000e+03 4.999679565429687500e+00 -3.344981384277343750e+01 5.647977590560913086e-01 3.742748260498046875e+00 1.292263746261596680e+00 1.857416778802871704e-01
2.739000000000000000e+03 2.683399438858032227e+00 -1.153204345703125000e+01 -4.027551412582397461e-01 2.513601541519165039e+00 6.332539319992065430e-01 2.291141003370285034e-01
2.740000000000000000e+03 4.240313053131103516e+00 -1.068069267272949219e+01 -7.186954617500305176e-01 3.334895849227905273e+00 7.848601341247558594e-01 1.147557735443115234e+00
2.741000000000000000e+03 4.130012989044189453e+00 -1.207398509979248047e+01 -6.690321564674377441e-01 3.926605939865112305e+00 9.772720932960510254e-01 7.345776557922363281e-01
2.742000000000000000e+03 2.862094640731811523e+00 -6.637855529785156250e+00 1.662592887878417969e-01 1.062164902687072754e+00 3.685272634029388428e-01 7.548036575317382812e-01
2.743000000000000000e+03 3.548278045654296875e+01 1.436296844482421875e+01 8.949190378189086914e-01 1.384617805480957031e+00 6.838610768318176270e-01 -1.395634770393371582e+00
2.744000000000000000e+03 4.683042049407958984e+00 -3.772473907470703125e+01 -3.987248986959457397e-02 4.423766136169433594e+00 1.315168023109436035e+00 5.118679404258728027e-01
2.745000000000000000e+03 5.399061203002929688e+00 -3.601287460327148438e+01 2.344616502523422241e-01 4.106988906860351562e+00 1.302435159683227539e+00 5.870500206947326660e-01
2.746000000000000000e+03 7.153856658935546875e+01 3.363071203231811523e+00 2.321464009582996368e-02 3.710435152053833008e+00 1.120094895362854004e+00 8.776440620422363281e-01
2.747000000000000000e+03 4.255315399169921875e+01 4.370876312255859375e+00 1.285382151603698730e+00 6.182816982269287109e+00 2.240459680557250977e+00 -5.322828888893127441e-01
2.748000000000000000e+03 4.542112350463867188e+01 6.318150520324707031e+00 -3.420607745647430420e-01 4.400909423828125000e+00 1.217654585838317871e+00 -8.775332570075988770e-01
2.749000000000000000e+03 6.381496047973632812e+01 1.713042259216308594e+00 -7.914589643478393555e-01 5.101494312286376953e+00 1.293010592460632324e+00 -4.384166002273559570e-01
2.750000000000000000e+03 1.406767845153808594e+01 5.007461547851562500e+00 -1.156561970710754395e+00 8.770906329154968262e-01 -8.384140580892562866e-02 1.366533756256103516e+00
2.751000000000000000e+03 4.733983993530273438e+01 -1.549608516693115234e+01 -3.110443115234375000e+00 6.059243202209472656e+00 8.846400976181030273e-01 2.618788719177246094e+00
2.752000000000000000e+03 7.733361053466796875e+01 1.135038852691650391e+01 5.384836196899414062e-01 6.913110733032226562e+00 2.235478162765502930e+00 -4.635258913040161133e-01
2.753000000000000000e+03 7.727072143554687500e+01 1.245831394195556641e+01 5.985686182975769043e-01 6.968780040740966797e+00 2.270204544067382812e+00 -3.511433303356170654e-02
2.754000000000000000e+03 7.695436096191406250e+01 -1.676940536499023438e+01 -3.079672455787658691e-01 8.426437377929687500e+00 2.435541152954101562e+00 1.134208202362060547e+00
2.755000000000000000e+03 7.703447723388671875e+01 -1.958456230163574219e+01 3.237746357917785645e-01 8.250529289245605469e+00 2.572291135787963867e+00 1.234864354133605957e+00
2.756000000000000000e+03 7.678016662597656250e+01 7.143255233764648438e+00 -8.768976840656250715e-05 7.506820201873779297e+00 2.252019643783569336e+00 -1.109500050544738770e+00
2.757000000000000000e+03 7.490016937255859375e+01 9.513247013092041016e-01 -6.526319384574890137e-01 6.256832122802734375e+00 1.681260108947753906e+00 -8.288744688034057617e-01
2.758000000000000000e+03 7.703653717041015625e+01 1.371199512481689453e+01 5.064347386360168457e-01 7.096058845520019531e+00 2.280747890472412109e+00 3.115432560443878174e-01
2.759000000000000000e+03 7.401499176025390625e+01 8.604287147521972656e+00 4.826714694499969482e-01 8.095322608947753906e+00 2.573398113250732422e+00 -7.505503296852111816e-01
2.760000000000000000e+03 7.589686584472656250e+01 -1.692728996276855469e+01 -4.070175588130950928e-01 8.206847190856933594e+00 2.339948892593383789e+00 1.154623866081237793e+00
2.761000000000000000e+03 7.394502258300781250e+01 5.656626224517822266e+00 -3.275273442268371582e-01 6.795629978179931641e+00 1.940430879592895508e+00 -4.867823421955108643e-01
2.762000000000000000e+03 7.682296752929687500e+01 4.313998699188232422e+00 -2.141323089599609375e-01 7.645920753479003906e+00 2.229536533355712891e+00 -9.043781161308288574e-01
2.763000000000000000e+03 7.477668762207031250e+01 6.270932197570800781e+00 -3.072597086429595947e-01 7.338525772094726562e+00 2.109379768371582031e+00 -7.670747637748718262e-01
2.764000000000000000e+03 7.640647888183593750e+01 -1.375162887573242188e+01 -1.043112754821777344e+00 8.291366577148437500e+00 2.174476146697998047e+00 4.347639977931976318e-01
2.765000000000000000e+03 7.547628021240234375e+01 9.181369781494140625e+00 5.001227855682373047e-01 7.809615612030029297e+00 2.492921590805053711e+00 -1.036139369010925293e+00
2.766000000000000000e+03 7.645079040527343750e+01 1.180077362060546875e+01 8.677740693092346191e-01 7.581323146820068359e+00 2.534729242324829102e+00 -2.914485931396484375e-01
2.767000000000000000e+03 7.552433013916015625e+01 -1.583360481262207031e+01 -8.929240703582763672e-01 7.368504524230957031e+00 1.942674160003662109e+00 8.218215703964233398e-01
2.768000000000000000e+03 7.453254699707031250e+01 1.761741828918457031e+01 -4.661715030670166016e-01 8.046319961547851562e+00 2.274044513702392578e+00 6.302634477615356445e-01
2.769000000000000000e+03 7.694031524658203125e+01 1.646527671813964844e+01 1.086410358548164368e-01 7.281973838806152344e+00 2.217184543609619141e+00 7.803233861923217773e-01
2.770000000000000000e+03 7.433922576904296875e+01 1.510804080963134766e+01 8.046950697898864746e-01 8.779998779296875000e+00 2.875408172607421875e+00 5.270119309425354004e-01
2.771000000000000000e+03 7.668705749511718750e+01 7.434704899787902832e-02 -6.910393238067626953e-01 8.121791839599609375e+00 2.229225873947143555e+00 -3.934342861175537109e-01
2.772000000000000000e+03 7.521991729736328125e+01 2.096210479736328125e+01 -8.529675006866455078e-01 7.242322921752929688e+00 1.916806697845458984e+00 -7.562152296304702759e-02
2.773000000000000000e+03 7.388459014892578125e+01 1.992956924438476562e+01 -1.267892599105834961e+00 7.340096950531005859e+00 1.821661233901977539e+00 -2.052212357521057129e-01
2.774000000000000000e+03 7.628457641601562500e+01 -2.143566513061523438e+01 9.089616537094116211e-01 8.770697593688964844e+00 2.903897762298583984e+00 7.887634038925170898e-01
2.775000000000000000e+03 7.475563812255859375e+01 3.608405685424804688e+01 -3.848382458090782166e-02 6.420598506927490234e+00 1.914634346961975098e+00 2.872443199157714844e-01
2.776000000000000000e+03 7.573604583740234375e+01 -2.938441658020019531e+01 -2.806763350963592529e-01 6.958798408508300781e+00 2.003436565399169922e+00 4.487171471118927002e-01
2.777000000000000000e+03 7.613697814941406250e+01 -2.748602485656738281e+01 -4.610241949558258057e-01 7.693304538726806641e+00 2.169684171676635742e+00 5.890524387359619141e-02
2.778000000000000000e+03 7.535693359375000000e+01 2.251818466186523438e+01 -4.482470750808715820e-01 6.912005424499511719e+00 1.939127564430236816e+00 -3.297638297080993652e-01
2.779000000000000000e+03 7.438688659667968750e+01 2.712519645690917969e+01 2.643616497516632080e-01 6.053864002227783203e+00 1.895467758178710938e+00 -3.926505148410797119e-01
2.780000000000000000e+03 7.277059936523437500e+01 2.411450004577636719e+01 -1.338075250387191772e-01 5.742071628570556641e+00 1.682479262351989746e+00 -9.215564131736755371e-01
2.781000000000000000e+03 7.700856781005859375e+01 2.779012298583984375e+01 6.358438730239868164e-02 6.804550647735595703e+00 2.060440540313720703e+00 -2.271348237991333008e-01
2.782000000000000000e+03 7.591511535644531250e+01 2.784815597534179688e+01 1.937893182039260864e-01 6.466099739074707031e+00 1.997966647148132324e+00 -3.071581125259399414e-01
2.783000000000000000e+03 7.674947357177734375e+01 -3.007725715637207031e+01 1.959357410669326782e-03 7.002155780792236328e+00 2.101234436035156250e+00 2.200233787298202515e-01
2.784000000000000000e+03 7.506525421142578125e+01 -3.585525512695312500e+01 1.039875000715255737e-01 6.568583965301513672e+00 2.001771450042724609e+00 -3.775207996368408203e-01
2.785000000000000000e+03 7.622630310058593750e+01 -3.597941589355468750e+01 6.348738819360733032e-02 6.829215526580810547e+00 2.067811012268066406e+00 -1.988349258899688721e-01
2.786000000000000000e+03 7.677131652832031250e+01 3.026066589355468750e+01 1.351232528686523438e-01 6.659461021423339844e+00 2.038375139236450195e+00 -3.446094319224357605e-02
2.787000000000000000e+03 7.641722869873046875e+01 -3.275769424438476562e+01 1.606030017137527466e-01 6.832990646362304688e+00 2.098078012466430664e+00 4.130704328417778015e-02
2.788000000000000000e+03 7.527631378173828125e+01 -3.126242065429687500e+01 1.511983573436737061e-01 6.523879051208496094e+00 2.002523183822631836e+00 3.191656470298767090e-01
2.789000000000000000e+03 7.449492645263671875e+01 3.430700683593750000e+01 9.099727123975753784e-02 6.339879989624023438e+00 1.929263234138488770e+00 2.869282066822052002e-01
2.790000000000000000e+03 7.556349945068359375e+01 2.991184806823730469e+01 2.693999111652374268e-01 6.400721073150634766e+00 2.001036167144775391e+00 -8.242840319871902466e-02
2.791000000000000000e+03 1.736065101623535156e+01 1.422810554504394531e+00 1.571163535118103027e+00 3.165956258773803711e+00 1.421135902404785156e+00 2.869832515716552734e+00
2.792000000000000000e+03 7.260089874267578125e+01 -3.655315399169921875e+01 1.350182741880416870e-01 6.007244586944580078e+00 1.842678904533386230e+00 -8.130642175674438477e-01
2.793000000000000000e+03 4.002016067504882812e+01 -1.345592290163040161e-01 -7.918314337730407715e-01 4.742681980133056641e+00 1.185255169868469238e+00 1.454225182533264160e+00
2.794000000000000000e+03 3.988190078735351562e+01 -1.435778141021728516e+00 -1.409354209899902344e+00 3.561137914657592773e+00 6.455351114273071289e-01 2.269867181777954102e+00
2.795000000000000000e+03 3.390145492553710938e+01 -6.298660278320312500e+00 2.886201858520507812e+00 4.951614856719970703e+00 2.351345062255859375e+00 -1.708670854568481445e-01
2.796000000000000000e+03 3.563790130615234375e+01 -5.738421440124511719e+00 2.295769929885864258e+00 5.232971668243408203e+00 2.258622407913208008e+00 4.017962813377380371e-01
2.797000000000000000e+03 2.262093162536621094e+01 1.260567378997802734e+01 1.079089283943176270e+00 6.773435115814208984e+00 2.355757236480712891e+00 -8.936271667480468750e-01
2.798000000000000000e+03 2.798520469665527344e+01 2.766748666763305664e+00 -1.402225255966186523e+00 5.441913604736328125e+00 1.211906552314758301e+00 -1.487682104110717773e+00
2.799000000000000000e+03 4.565759277343750000e+01 -2.459635925292968750e+01 8.163706660270690918e-01 4.399865627288818359e+00 1.564870953559875488e+00 -1.497591018676757812e+00
2.800000000000000000e+03 2.260772323608398438e+01 3.079355621337890625e+01 8.985886573791503906e-01 5.266552925109863281e+00 1.849542498588562012e+00 1.089083075523376465e+00
2.801000000000000000e+03 4.283807373046875000e+01 -1.790395545959472656e+01 1.473019599914550781e+00 3.573724269866943359e+00 1.514023184776306152e+00 4.639709740877151489e-02
2.802000000000000000e+03 2.703541040420532227e+00 2.517548370361328125e+01 1.938732415437698364e-01 4.901014328002929688e+00 1.528466343879699707e+00 4.376942813396453857e-01
2.803000000000000000e+03 3.233143091201782227e+00 2.067451858520507812e+01 -6.753960847854614258e-01 4.296589851379394531e+00 1.086358189582824707e+00 -6.075887680053710938e-01
2.804000000000000000e+03 3.171992063522338867e+00 1.934361267089843750e+01 -4.788017868995666504e-01 3.989444732666015625e+00 1.053192853927612305e+00 -9.691309928894042969e-01
2.805000000000000000e+03 4.728822708129882812e+00 2.293084526062011719e+01 -8.947355151176452637e-01 5.522552013397216797e+00 1.388345003128051758e+00 -5.808833241462707520e-01
2.806000000000000000e+03 6.876907348632812500e+00 1.466062641143798828e+01 7.526485323905944824e-01 5.576847076416015625e+00 1.898848652839660645e+00 -1.360677957534790039e+00
2.807000000000000000e+03 3.273756980895996094e+00 1.813763999938964844e+01 -3.699254393577575684e-01 3.692907810211181641e+00 9.968947172164916992e-01 -1.218759059906005859e+00
2.808000000000000000e+03 4.273416996002197266e+00 1.891047668457031250e+01 -6.080945730209350586e-01 4.113690376281738281e+00 1.051678657531738281e+00 -1.319443821907043457e+00
2.809000000000000000e+03 3.226157426834106445e+00 1.370774650573730469e+01 3.745846748352050781e-01 2.554693698883056641e+00 8.787834644317626953e-01 -1.165089249610900879e+00
2.810000000000000000e+03 6.126310825347900391e+00 1.552438545227050781e+01 2.626824080944061279e-01 4.558650970458984375e+00 1.446400046348571777e+00 -1.706868290901184082e+00
2.811000000000000000e+03 4.776057720184326172e+00 3.681892776489257812e+01 -7.658947706222534180e-01 4.642764091491699219e+00 1.163060784339904785e+00 5.742487683892250061e-02
2.812000000000000000e+03 4.283986568450927734e+00 3.539593124389648438e+01 -8.374267816543579102e-01 5.085733890533447266e+00 1.274492144584655762e+00 -2.820080518722534180e-01
2.813000000000000000e+03 4.310238838195800781e+00 1.225551986694335938e+01 6.916375160217285156e-01 3.168372631072998047e+00 1.158002972602844238e+00 -1.033732891082763672e+00
2.814000000000000000e+03 4.963838100433349609e+00 3.346003341674804688e+01 -9.669420123100280762e-01 5.407248497009277344e+00 1.332091927528381348e+00 -5.277651548385620117e-01
2.815000000000000000e+03 7.024870872497558594e+00 1.205293655395507812e+01 1.553937792778015137e+00 5.763207912445068359e+00 2.195143699645996094e+00 -1.239772319793701172e+00
2.816000000000000000e+03 2.596946954727172852e+00 8.223434448242187500e+00 9.858490526676177979e-02 1.170136332511901855e+00 3.806163668632507324e-01 -1.807935535907745361e-01
2.817000000000000000e+03 5.072820186614990234e+00 9.674946784973144531e+00 4.293445646762847900e-01 3.578292608261108398e+00 1.202291131019592285e+00 -4.716224968433380127e-01
2.818000000000000000e+03 2.618634462356567383e+00 7.093774795532226562e+00 4.320274665951728821e-02 1.037607908248901367e+00 3.242431879043579102e-01 -1.628662347793579102e-01
2.819000000000000000e+03 4.208302974700927734e+00 7.404238700866699219e+00 -1.300680730491876602e-02 2.492780447006225586e+00 7.439320683479309082e-01 -4.278743267059326172e-01
2.820000000000000000e+03 5.155364513397216797e+00 3.853268051147460938e+01 -1.907990872859954834e-01 3.782027482986450195e+00 1.077368497848510742e+00 1.306414604187011719e-01
2.821000000000000000e+03 1.441949462890625000e+01 2.088907623291015625e+01 -5.937652587890625000e-01 -2.875927686691284180e-01 -2.644073963165283203e-01 1.344634175300598145e+00
2.822000000000000000e+03 4.949224853515625000e+01 -2.847288894653320312e+01 1.133563518524169922e+00 5.271064758300781250e+00 1.921388506889343262e+00 -2.150412797927856445e+00
2.823000000000000000e+03 7.556210327148437500e+01 1.244078540802001953e+01 9.928779006004333496e-01 7.979685306549072266e+00 2.691769123077392578e+00 -9.279766678810119629e-02
2.824000000000000000e+03 6.765975475311279297e+00 3.800614929199218750e+01 -2.662511169910430908e-01 2.665866374969482422e+00 7.198845744132995605e-01 3.547614216804504395e-01
2.825000000000000000e+03 6.696328735351562500e+01 2.805959701538085938e+01 1.800363540649414062e+00 5.107323169708251953e+00 2.072306156158447266e+00 9.341245293617248535e-01
2.826000000000000000e+03 6.674497985839843750e+01 2.531524467468261719e+01 1.721606373786926270e+00 3.744897365570068359e+00 1.639951109886169434e+00 4.268940985202789307e-01
2.827000000000000000e+03 1.341306400299072266e+01 2.059681892395019531e+01 -7.964470386505126953e-01 5.358901992440223694e-02 -2.228574007749557495e-01 1.344809174537658691e+00
2.828000000000000000e+03 4.930860519409179688e+01 -1.104876136779785156e+01 2.159726381301879883e+00 6.994137763977050781e+00 2.746159315109252930e+00 2.822973430156707764e-01
2.829000000000000000e+03 1.149648857116699219e+01 1.850377082824707031e+01 1.107628457248210907e-02 1.754693746566772461e+00 5.297310352325439453e-01 7.761729955673217773e-01
2.830000000000000000e+03 2.091169548034667969e+01 6.866491317749023438e+00 1.463316917419433594e+00 4.965602874755859375e+00 1.928675889968872070e+00 1.456384897232055664e+00
2.831000000000000000e+03 2.923682022094726562e+01 2.654659748077392578e+00 -1.629792451858520508e+00 5.455215454101562500e+00 1.147626876831054688e+00 -1.139586210250854492e+00
2.832000000000000000e+03 2.809651565551757812e+01 1.629006743431091309e+00 -1.966377019882202148e+00 5.382102012634277344e+00 1.024717569351196289e+00 -1.547969937324523926e+00
2.833000000000000000e+03 5.971820068359375000e+01 2.118555259704589844e+01 -6.051891446113586426e-01 3.814269542694091797e+00 9.627240896224975586e-01 1.647165179252624512e+00
2.834000000000000000e+03 5.197344970703125000e+01 3.730018138885498047e-01 -8.585971593856811523e-01 5.381075382232666016e+00 1.356743454933166504e+00 7.764548659324645996e-01
2.835000000000000000e+03 5.284197235107421875e+01 2.221333980560302734e+00 -1.274403691291809082e+00 4.676095008850097656e+00 1.020507454872131348e+00 2.171169757843017578e+00
2.836000000000000000e+03 1.941715812683105469e+01 2.132324028015136719e+01 1.265692949295043945e+00 4.983710765838623047e+00 1.874821066856384277e+00 4.244295507669448853e-02
2.837000000000000000e+03 3.353366470336914062e+01 -8.895179748535156250e+00 2.936375856399536133e+00 4.495070934295654297e+00 2.229434013366699219e+00 9.336599707603454590e-02
2.838000000000000000e+03 6.593612670898437500e+01 3.328542470932006836e+00 -1.869345605373382568e-01 2.763417720794677734e+00 7.729449272155761719e-01 5.683446526527404785e-01
2.839000000000000000e+03 6.626299285888671875e+01 4.524617671966552734e+00 -3.496439456939697266e-01 1.366810321807861328e+00 3.051498830318450928e-01 8.243001699447631836e-01
2.840000000000000000e+03 4.484971237182617188e+01 -2.171998596191406250e+01 3.092730522155761719e+00 5.314747810363769531e+00 2.522243499755859375e+00 6.471796333789825439e-02
2.841000000000000000e+03 4.544287109375000000e+01 -2.048833084106445312e+01 2.934253215789794922e+00 6.983592987060546875e+00 2.975353717803955078e+00 2.406904250383377075e-01
2.842000000000000000e+03 4.890991592407226562e+01 -6.469012737274169922e+00 1.248758673667907715e+00 8.220621109008789062e+00 2.840813875198364258e+00 2.748197615146636963e-01
2.843000000000000000e+03 7.426029968261718750e+01 -2.694648361206054688e+01 -7.112982869148254395e-01 7.461919307708740234e+00 2.025186300277709961e+00 9.840470552444458008e-01
2.844000000000000000e+03 5.725402450561523438e+01 9.404706001281738281e+00 1.834612011909484863e+00 7.672861576080322266e+00 2.852242231369018555e+00 6.434278488159179688e-01
2.845000000000000000e+03 2.455749320983886719e+01 -2.357307624816894531e+01 1.159174442291259766e+00 4.483150959014892578e+00 1.692697644233703613e+00 -9.436241388320922852e-01
2.846000000000000000e+03 5.758999252319335938e+01 -2.216432189941406250e+01 2.248930454254150391e+00 6.361525058746337891e+00 2.583136796951293945e+00 4.838487803936004639e-01
2.847000000000000000e+03 6.688093566894531250e+01 2.414832115173339844e+01 1.221756458282470703e+00 3.110615491867065430e+00 1.299711585044860840e+00 1.979063451290130615e-01
2.848000000000000000e+03 6.612819671630859375e+01 2.163845062255859375e+01 -6.828563213348388672e-01 5.842679738998413086e-01 -2.957651019096374512e-02 6.647518277168273926e-01
2.849000000000000000e+03 6.040167999267578125e+01 -2.493860244750976562e+01 3.319232761859893799e-01 1.935222864151000977e+00 6.801438331604003906e-01 8.057591319084167480e-01
2.850000000000000000e+03 1.567523097991943359e+01 -1.004314422607421875e+01 1.626621127128601074e+00 9.051575660705566406e+00 3.203458786010742188e+00 -1.760877966880798340e+00
2.851000000000000000e+03 1.011699676513671875e+01 -3.024462890625000000e+01 1.746904015541076660e+00 3.201236248016357422e+00 1.484442114830017090e+00 8.532623648643493652e-01
2.852000000000000000e+03 4.293656921386718750e+01 -2.358133697509765625e+01 2.628745317459106445e+00 4.014853477478027344e+00 1.993079662322998047e+00 9.680266976356506348e-01
2.853000000000000000e+03 5.450936889648437500e+01 3.852535247802734375e+00 -1.265098214149475098e+00 4.860055923461914062e+00 1.078487277030944824e+00 2.214062452316284180e+00
2.854000000000000000e+03 7.472584533691406250e+01 -1.809921646118164062e+01 -1.776603758335113525e-01 8.228115081787109375e+00 2.415136337280273438e+00 6.907830834388732910e-01
2.855000000000000000e+03 2.258058929443359375e+01 -2.410663223266601562e+01 4.250193536281585693e-01 2.681324005126953125e+00 9.319030046463012695e-01 -1.516101121902465820e+00
2.856000000000000000e+03 1.956272888183593750e+01 -2.411851692199707031e+01 1.949796974658966064e-01 1.294987797737121582e+00 4.469902515411376953e-01 -6.047491431236267090e-01
2.857000000000000000e+03 6.452879333496093750e+01 2.470469856262207031e+01 1.335745811462402344e+00 5.306225776672363281e+00 1.992591381072998047e+00 1.750773787498474121e+00
2.858000000000000000e+03 3.102415275573730469e+01 3.139142799377441406e+01 5.011100172996520996e-01 4.458935737609863281e+00 1.488013744354248047e+00 -1.525971055030822754e+00
2.859000000000000000e+03 3.416462326049804688e+01 -3.175954246520996094e+01 1.667158246040344238e+00 1.492532491683959961e+00 9.479072093963623047e-01 -6.129349395632743835e-02
2.860000000000000000e+03 8.358178138732910156e+00 -1.156098842620849609e+01 -1.526872634887695312e+00 3.021160840988159180e+00 4.482865035533905029e-01 2.915084600448608398e+00
2.861000000000000000e+03 6.719195365905761719e+00 -1.158596324920654297e+01 -1.263401746749877930e+00 4.180724620819091797e+00 8.751968145370483398e-01 2.220369338989257812e+00
2.862000000000000000e+03 2.623954010009765625e+01 1.753592133522033691e+00 -1.328255414962768555e+00 3.207266807556152344e+00 5.637034177780151367e-01 -1.436675786972045898e+00
2.863000000000000000e+03 3.135870933532714844e+01 -9.933954238891601562e+00 2.367982864379882812e+00 5.556879520416259766e+00 2.377458810806274414e+00 1.337998628616333008e+00
2.864000000000000000e+03 3.122031402587890625e+01 -1.168127155303955078e+01 1.722185164690017700e-01 5.226470947265625000e+00 1.619606852531433105e+00 1.596199631690979004e+00
2.865000000000000000e+03 2.190783882141113281e+01 7.715751647949218750e+00 2.115370512008666992e+00 5.066224098205566406e+00 2.154478549957275391e+00 5.300685167312622070e-01
2.866000000000000000e+03 3.580350875854492188e+01 -1.613860368728637695e+00 -1.404513865709304810e-01 2.789905071258544922e+00 7.948361039161682129e-01 2.102752208709716797e+00
2.867000000000000000e+03 5.358652114868164062e+01 3.769133090972900391e+00 -1.043926835060119629e+00 4.770912170410156250e+00 1.118095517158508301e+00 2.517450332641601562e+00
2.868000000000000000e+03 1.251844024658203125e+01 -2.804920768737792969e+01 5.363209843635559082e-01 4.103842735290527344e+00 1.392049193382263184e+00 1.754641175270080566e+00
2.869000000000000000e+03 1.264513206481933594e+01 -2.696002388000488281e+01 -3.455100357532501221e-01 3.668967485427856445e+00 9.970372319221496582e-01 1.931591868400573730e+00
2.870000000000000000e+03 6.350339126586914062e+01 2.252800178527832031e+01 -1.011135101318359375e+00 5.158197402954101562e+00 1.244118690490722656e+00 3.087774515151977539e+00
2.871000000000000000e+03 6.463122558593750000e+01 2.374324798583984375e+01 6.197154521942138672e-01 4.562391281127929688e+00 1.554631948471069336e+00 1.615470767021179199e+00
2.872000000000000000e+03 3.547830581665039062e+01 1.931513977050781250e+01 1.534358978271484375e+00 4.844197273254394531e+00 1.913566946983337402e+00 -1.453482031822204590e+00
2.873000000000000000e+03 3.408763122558593750e+01 1.786101722717285156e+01 2.048284769058227539e+00 6.084645748138427734e+00 2.439879179000854492e+00 -2.628286480903625488e-01
2.874000000000000000e+03 3.083365631103515625e+01 1.394722461700439453e+01 -1.772755742073059082e+00 6.469395160675048828e+00 1.408991694450378418e+00 4.884644508361816406e+00
2.875000000000000000e+03 5.978540420532226562e+01 -1.281906414031982422e+01 -8.341700434684753418e-01 5.220609188079833984e+00 1.315931797027587891e+00 1.424945473670959473e+00
2.876000000000000000e+03 6.010463714599609375e+01 -1.174129199981689453e+01 -1.046468734741210938e+00 5.863807678222656250e+00 1.445201754570007324e+00 2.059876918792724609e+00
2.877000000000000000e+03 1.108731460571289062e+01 -1.101795387268066406e+01 -8.198668956756591797e-01 9.525226354598999023e-01 3.979671746492385864e-02 1.306463956832885742e+00
2.878000000000000000e+03 1.039815521240234375e+01 -1.053457927703857422e+01 -5.602352619171142578e-01 1.149948716163635254e+00 1.769140213727951050e-01 1.945802211761474609e+00
2.879000000000000000e+03 5.236711883544921875e+01 4.559047698974609375e+00 -6.051188707351684570e-01 3.667824745178222656e+00 9.188117980957031250e-01 3.184937477111816406e+00
2.880000000000000000e+03 5.115113830566406250e+01 -7.322460651397705078e+00 1.607452392578125000e+00 8.059644699096679688e+00 2.900129079818725586e+00 3.834773600101470947e-01
2.881000000000000000e+03 7.075363159179687500e+01 2.124795341491699219e+01 -1.219823718070983887e+00 4.779857635498046875e+00 1.068010210990905762e+00 -1.409302592277526855e+00
2.882000000000000000e+03 7.174302673339843750e+01 2.201185607910156250e+01 -1.123135328292846680e+00 5.733812808990478516e+00 1.383203268051147461e+00 -1.292721986770629883e+00
2.883000000000000000e+03 2.373068809509277344e+01 5.890944480895996094e+00 1.944386363029479980e+00 3.463221549987792969e+00 1.622282385826110840e+00 2.254411578178405762e-01
2.884000000000000000e+03 1.865184020996093750e+01 -2.060819053649902344e+01 2.322723388671875000e+00 3.955934047698974609e+00 1.883597254753112793e+00 -1.312607407569885254e+00
2.885000000000000000e+03 5.836918640136718750e+01 1.508987522125244141e+01 1.853066086769104004e+00 7.886500835418701172e+00 2.921869993209838867e+00 9.722706079483032227e-01
2.886000000000000000e+03 5.955774307250976562e+01 1.363618469238281250e+01 1.154148221015930176e+00 9.585231781005859375e+00 3.221813917160034180e+00 7.808364629745483398e-01
2.887000000000000000e+03 5.441076278686523438e+01 5.084803104400634766e+00 -1.010478615760803223e+00 5.854862213134765625e+00 1.453315019607543945e+00 1.595754027366638184e+00
2.888000000000000000e+03 5.403894424438476562e+01 2.813720703125000000e+00 -1.708277344703674316e+00 4.563543319702148438e+00 8.565797805786132812e-01 2.154531002044677734e+00
2.889000000000000000e+03 1.904281616210937500e+01 2.324064636230468750e+01 5.246223807334899902e-01 3.955310821533203125e+00 1.343979954719543457e+00 2.639438211917877197e-01
2.890000000000000000e+03 3.067392539978027344e+01 -3.216275787353515625e+01 6.642025113105773926e-01 3.757594585418701172e+00 1.326539158821105957e+00 -1.066750884056091309e+00
2.891000000000000000e+03 5.670817947387695312e+01 -1.553519058227539062e+01 -5.784307122230529785e-01 5.827017307281494141e+00 1.574576020240783691e+00 -8.767605423927307129e-01
2.892000000000000000e+03 5.760558319091796875e+01 -1.201494026184082031e+01 9.545507282018661499e-02 2.244586706161499023e+00 7.020125389099121094e-01 -5.472147092223167419e-02
2.893000000000000000e+03 5.274121856689453125e+01 -2.751255416870117188e+01 2.576591633260250092e-02 4.003606796264648438e+00 1.208811759948730469e+00 1.359239578247070312e+00
2.894000000000000000e+03 4.857052230834960938e+01 2.625149917602539062e+01 2.491180419921875000e+00 6.614202022552490234e+00 2.731614589691162109e+00 1.024140357971191406e+00
2.895000000000000000e+03 2.720323562622070312e+01 -1.558512973785400391e+01 -1.553676486015319824e+00 4.507918834686279297e+00 8.862727880477905273e-01 1.228487372398376465e+00
2.896000000000000000e+03 5.005222320556640625e+01 1.191411018371582031e+00 -3.108785748481750488e-01 4.021882057189941406e+00 1.113301038742065430e+00 -4.514486193656921387e-01
2.897000000000000000e+03 4.989683532714843750e+01 3.961936950683593750e+00 -3.330908119678497314e-01 1.230854511260986328e+00 2.693291306495666504e-01 2.004541754722595215e-01
2.898000000000000000e+03 6.427016448974609375e+01 -9.086082458496093750e+00 8.457871675491333008e-01 8.393919944763183594e+00 2.771912097930908203e+00 -8.615825325250625610e-03
2.899000000000000000e+03 4.113193511962890625e+01 1.125083088874816895e+00 -8.403217047452926636e-02 5.409615516662597656e+00 1.597675085067749023e+00 1.083979234099388123e-01
2.900000000000000000e+03 6.339904022216796875e+01 -1.505536746978759766e+01 -1.594009280204772949e+00 6.487889289855957031e+00 1.468164086341857910e+00 7.015791535377502441e-01
2.901000000000000000e+03 5.839781570434570312e+01 8.858983039855957031e+00 9.425299167633056641e-01 7.033921241760253906e+00 2.392935514450073242e+00 -3.421735018491744995e-02
2.902000000000000000e+03 1.844243240356445312e+01 -1.538169002532958984e+01 -1.731892973184585571e-01 6.772379398345947266e+00 1.979757070541381836e+00 -1.106850504875183105e+00
2.903000000000000000e+03 4.848662948608398438e+01 -2.720603179931640625e+01 -8.992521762847900391e-01 4.768823146820068359e+00 1.160871267318725586e+00 -3.190274477005004883e+00
2.904000000000000000e+03 7.169123840332031250e+01 7.054099559783935547e+00 -3.954330682754516602e-01 6.265944957733154297e+00 1.761153578758239746e+00 9.674584269523620605e-01
2.905000000000000000e+03 6.801418304443359375e+01 3.363430500030517578e+00 1.549629271030426025e-01 2.012300014495849609e+00 6.501788496971130371e-01 2.003315210342407227e+00
2.906000000000000000e+03 2.961719894409179688e+01 -1.154815101623535156e+01 -2.850514464080333710e-02 6.683187007904052734e+00 1.996404528617858887e+00 1.990998148918151855e+00
2.907000000000000000e+03 2.906268119812011719e+01 -1.336215972900390625e+01 -2.517924547195434570e+00 6.317667484283447266e+00 1.139922857284545898e+00 2.274363756179809570e+00
2.908000000000000000e+03 5.327814865112304688e+01 2.040954780578613281e+01 -8.244432806968688965e-01 4.443514347076416016e+00 1.085721254348754883e+00 -2.524896621704101562e+00
2.909000000000000000e+03 5.454315185546875000e+01 1.785823059082031250e+01 1.912610381841659546e-01 4.885046958923339844e+00 1.522892355918884277e+00 -1.939035058021545410e+00
2.910000000000000000e+03 6.080277633666992188e+01 -1.273907375335693359e+01 -1.434388041496276855e+00 6.561205863952636719e+00 1.538045287132263184e+00 1.324252367019653320e+00
2.911000000000000000e+03 1.400899028778076172e+01 -2.683266830444335938e+01 -6.320152282714843750e-01 4.588222980499267578e+00 1.186862349510192871e+00 2.289115428924560547e+00
2.912000000000000000e+03 7.417424774169921875e+01 2.290829467773437500e+01 -5.860049128532409668e-01 6.543798923492431641e+00 1.787338256835937500e+00 -5.349360108375549316e-01
2.913000000000000000e+03 4.002764511108398438e+01 9.848015904426574707e-01 -1.027626842260360718e-01 5.077180385589599609e+00 1.492325305938720703e+00 1.078795433044433594e+00
2.914000000000000000e+03 5.266635513305664062e+01 -1.066198539733886719e+01 8.880273103713989258e-01 4.596988201141357422e+00 1.645504593849182129e+00 -1.779382705688476562e+00
2.915000000000000000e+03 5.375518798828125000e+01 -2.818359756469726562e+01 8.595134317874908447e-02 5.324533462524414062e+00 1.623145461082458496e+00 1.614434361457824707e+00
2.916000000000000000e+03 6.169089508056640625e+01 5.409376144409179688e+00 -1.361959457397460938e+00 4.738530635833740234e+00 1.012971401214599609e+00 -1.976960897445678711e+00
2.917000000000000000e+03 5.826923370361328125e+00 -2.372769165039062500e+01 -2.618064880371093750e+00 2.706078290939331055e+00 2.640407346189022064e-02 -1.001106142997741699e+00
2.918000000000000000e+03 5.650181579589843750e+01 -2.570609092712402344e+01 -1.786363482475280762e+00 7.591717720031738281e+00 1.741606235504150391e+00 1.971265912055969238e+00
2.919000000000000000e+03 5.006066513061523438e+01 2.862189102172851562e+01 1.970130205154418945e+00 6.802278995513916016e+00 2.631722927093505859e+00 1.032966136932373047e+00
2.920000000000000000e+03 5.045410919189453125e+01 -1.400832843780517578e+01 -8.911532163619995117e-01 3.278150796890258789e+00 7.160992622375488281e-01 -2.088752835988998413e-01
2.921000000000000000e+03 5.122081756591796875e+01 -1.234419155120849609e+01 4.242670834064483643e-01 4.208554267883300781e+00 1.389846444129943848e+00 -1.275792717933654785e+00
2.922000000000000000e+03 4.406905364990234375e+01 3.849755096435546875e+01 -8.600399494171142578e-01 3.044798374176025391e+00 6.554275155067443848e-01 -7.449482083320617676e-01
2.923000000000000000e+03 1.798587036132812500e+01 -2.335239028930664062e+01 -1.798149049282073975e-01 3.440226078033447266e+00 9.781233668327331543e-01 3.281004726886749268e-01
2.924000000000000000e+03 6.758732604980468750e+01 -1.368892860412597656e+01 -4.705156683921813965e-01 1.628960490226745605e+00 3.475334346294403076e-01 -5.712063908576965332e-01
2.925000000000000000e+03 3.301375198364257812e+01 2.866718673706054688e+01 1.072886466979980469e+00 7.739088535308837891e+00 2.643592596054077148e+00 -8.223145604133605957e-01
2.926000000000000000e+03 3.070767593383789062e+01 -3.002831840515136719e+01 -4.236750602722167969e-01 3.868219852447509766e+00 1.033363461494445801e+00 -1.159111618995666504e+00
2.927000000000000000e+03 3.439146041870117188e+01 -1.309530162811279297e+01 -1.220373630523681641e+00 1.459151983261108398e+00 7.163351774215698242e-02 -4.495974481105804443e-01
2.928000000000000000e+03 3.584265518188476562e+01 -1.338798713684082031e+01 -1.581563115119934082e+00 2.847823858261108398e+00 3.798782527446746826e-01 -1.946095466613769531e+00
2.929000000000000000e+03 5.665620422363281250e+01 7.198750495910644531e+00 9.216158986091613770e-01 7.268866539001464844e+00 2.457144737243652344e+00 2.832201421260833740e-01
2.930000000000000000e+03 4.198809432983398438e+01 -2.308216094970703125e+01 2.678063631057739258e+00 5.839020729064941406e+00 2.555125236511230469e+00 1.065337181091308594e+00
2.931000000000000000e+03 4.488330841064453125e+01 4.208384990692138672e+00 5.723975896835327148e-01 4.284233093261718750e+00 1.456989169120788574e+00 -1.716125011444091797e+00
2.932000000000000000e+03 2.481976318359375000e+01 3.298999404907226562e+01 5.708604454994201660e-01 3.541564702987670898e+00 1.233727574348449707e+00 8.278721570968627930e-01
2.933000000000000000e+03 5.095997619628906250e+01 2.909389305114746094e+01 1.830062747001647949e+00 6.786392688751220703e+00 2.584936618804931641e+00 9.913244843482971191e-01
2.934000000000000000e+03 5.083441162109375000e+01 3.059523773193359375e+01 1.368036508560180664e+00 7.086472034454345703e+00 2.536352634429931641e+00 9.716913104057312012e-01
2.935000000000000000e+03 5.114222335815429688e+01 3.488925933837890625e+01 -7.283031940460205078e-01 6.293108940124511719e+00 1.669441819190979004e+00 1.266261190176010132e-01
2.936000000000000000e+03 7.242917633056640625e+01 2.112637519836425781e+01 -1.278240203857421875e+00 6.385853767395019531e+00 1.532284140586853027e+00 -7.928379774093627930e-01
2.937000000000000000e+03 5.530836868286132812e+01 1.685115242004394531e+01 8.208307027816772461e-01 5.450418472290039062e+00 1.881374716758728027e+00 -1.233759164810180664e+00
2.938000000000000000e+03 5.748425292968750000e+01 1.634477424621582031e+01 1.713826656341552734e+00 6.457781314849853516e+00 2.451482295989990234e+00 1.900503039360046387e-01
2.939000000000000000e+03 3.396715545654296875e+01 1.612519264221191406e+01 2.142251253128051758e+00 4.489902019500732422e+00 1.989645957946777344e+00 -1.682409346103668213e-01
2.940000000000000000e+03 5.758792877197265625e+01 1.055709171295166016e+01 1.626184225082397461e+00 8.086875915527343750e+00 2.913918256759643555e+00 8.164836764335632324e-01
2.941000000000000000e+03 3.489921188354492188e+01 -6.504399299621582031e+00 2.717858314514160156e+00 5.403062820434570312e+00 2.436276197433471680e+00 -2.260615974664688110e-01
2.942000000000000000e+03 4.693492889404296875e+01 -1.468452572822570801e+00 2.929248213768005371e-01 4.365492343902587891e+00 1.397525191307067871e+00 -2.301415920257568359e+00
2.943000000000000000e+03 2.422852706909179688e+01 -2.607214355468750000e+01 -1.277068138122558594e+00 5.272733688354492188e+00 1.198699593544006348e+00 -8.891202807426452637e-01
2.944000000000000000e+03 2.513689804077148438e+01 -2.699471855163574219e+01 -1.373493909835815430e+00 6.202418327331542969e+00 1.448677301406860352e+00 -2.161491811275482178e-01
2.945000000000000000e+03 4.781676101684570312e+01 -3.616643190383911133e+00 4.034605920314788818e-01 5.482533931732177734e+00 1.765798449516296387e+00 -1.492846965789794922e+00
2.946000000000000000e+03 4.927226638793945312e+01 -4.220967292785644531e+00 7.272652983665466309e-01 6.847084045410156250e+00 2.272304773330688477e+00 -4.784514904022216797e-01
2.947000000000000000e+03 6.831118011474609375e+01 3.642801284790039062e+01 -4.025723636150360107e-01 5.412810325622558594e+00 1.503071427345275879e+00 3.383356928825378418e-01
2.948000000000000000e+03 6.256642532348632812e+01 4.112180709838867188e+01 -1.423287391662597656e-01 2.717887163162231445e+00 7.726675271987915039e-01 -2.531352937221527100e-01
2.949000000000000000e+03 3.784842300415039062e+01 -3.609853363037109375e+01 -4.466330409049987793e-01 5.198211669921875000e+00 1.425473690032958984e+00 1.117764949798583984e+00
2.950000000000000000e+03 1.272542476654052734e+01 -9.667391777038574219e+00 1.092453002929687500e+00 3.345160961151123047e+00 1.331284165382385254e+00 -5.416529774665832520e-01
2.951000000000000000e+03 3.850014114379882812e+01 1.900298690795898438e+01 1.505662202835083008e+00 2.121343135833740234e+00 1.088101625442504883e+00 -1.817459225654602051e+00
2.952000000000000000e+03 3.677408599853515625e+01 1.991817092895507812e+01 1.134839534759521484e+00 3.232059478759765625e+00 1.310069680213928223e+00 -1.744051694869995117e+00
2.953000000000000000e+03 6.807320404052734375e+01 2.859922218322753906e+01 1.505045413970947266e+00 4.639753818511962891e+00 1.843439698219299316e+00 5.851877927780151367e-01
2.954000000000000000e+03 6.884030151367187500e+01 2.947385406494140625e+01 1.275674581527709961e+00 5.052837371826171875e+00 1.898553609848022461e+00 5.299647450447082520e-01
2.955000000000000000e+03 6.861262512207031250e+01 -3.049491119384765625e+01 2.354427814483642578e+00 4.991362571716308594e+00 2.203737020492553711e+00 -1.429525852203369141e+00
2.956000000000000000e+03 6.445657348632812500e+01 -1.168490409851074219e+01 -1.154659390449523926e+00 6.991773128509521484e+00 1.751134037971496582e+00 3.280076384544372559e-01
2.957000000000000000e+03 4.738566398620605469e+00 -1.299089622497558594e+01 -7.167494893074035645e-01 4.793686389923095703e+00 1.223081111907958984e+00 9.514644742012023926e-01
2.958000000000000000e+03 4.183189010620117188e+01 -1.828013229370117188e+01 1.660101890563964844e+00 4.107546806335449219e+00 1.730294585227966309e+00 -6.698397994041442871e-01
2.959000000000000000e+03 2.742886352539062500e+01 -1.743233680725097656e+01 3.335099518299102783e-01 5.406511783599853516e+00 1.722006440162658691e+00 8.019174337387084961e-01
2.960000000000000000e+03 5.710949897766113281e+00 2.303811645507812500e+01 -1.302702546119689941e+00 5.912022590637207031e+00 1.382796049118041992e+00 -9.181580543518066406e-01
2.961000000000000000e+03 2.113903045654296875e+01 3.703081893920898438e+01 -9.157084226608276367e-01 4.287861347198486328e+00 1.011645913124084473e+00 -1.338497996330261230e-01
2.962000000000000000e+03 1.648554992675781250e+01 4.088418197631835938e+01 -3.286606371402740479e-01 1.979866981506347656e+00 4.953618943691253662e-01 -3.031388521194458008e-01
2.963000000000000000e+03 5.927157402038574219e+00 -3.224462890625000000e+01 9.275314807891845703e-01 3.269386053085327148e+00 1.259075284004211426e+00 2.991212159395217896e-02
2.964000000000000000e+03 4.354535675048828125e+01 4.701792716979980469e+00 9.981288313865661621e-01 5.404110908508300781e+00 1.920671939849853516e+00 -1.088445186614990234e+00
2.965000000000000000e+03 6.157863235473632812e+01 -2.007518196105957031e+01 2.425526857376098633e+00 5.445365905761718750e+00 2.361267805099487305e+00 -8.028575181961059570e-01
2.966000000000000000e+03 9.742013931274414062e+00 -2.568011856079101562e+01 -9.222502708435058594e-01 8.179769515991210938e-01 -3.128199279308319092e-02 5.932425856590270996e-01
2.967000000000000000e+03 3.856287002563476562e+01 1.423966884613037109e+01 9.505041241645812988e-01 3.448082208633422852e+00 1.319575905799865723e+00 -1.950952529907226562e+00
2.968000000000000000e+03 4.422603225708007812e+01 5.842929840087890625e+00 2.942442595958709717e-01 5.508761882781982422e+00 1.740901827812194824e+00 -7.896565794944763184e-01
2.969000000000000000e+03 6.721541595458984375e+01 -3.171665954589843750e+01 2.305508375167846680e+00 7.561222076416015625e+00 2.960019111633300781e+00 -2.471510171890258789e+00
2.970000000000000000e+03 6.869358062744140625e+01 -3.188708305358886719e+01 2.250978708267211914e+00 5.242974281311035156e+00 2.248185873031616211e+00 -1.394321203231811523e+00
2.971000000000000000e+03 5.273059844970703125e+01 2.381321716308593750e+01 1.074317768216133118e-01 5.394611358642578125e+00 1.650612950325012207e+00 -1.325019836425781250e+00
2.972000000000000000e+03 5.515363693237304688e+01 2.127694129943847656e+01 -9.638128876686096191e-01 4.035196304321289062e+00 9.214149713516235352e-01 -2.617502450942993164e+00
2.973000000000000000e+03 4.890621566772460938e+01 2.863346099853515625e+01 1.674033522605895996e+00 7.098232746124267578e+00 2.631680011749267578e+00 1.019687771797180176e+00
2.974000000000000000e+03 2.604421043395996094e+01 -2.629072761535644531e+01 -1.156192660331726074e+00 6.692934036254882812e+00 1.661022424697875977e+00 -3.356898427009582520e-01
2.975000000000000000e+03 2.666110420227050781e+01 -2.703812217712402344e+01 -1.393654465675354004e+00 6.986747264862060547e+00 1.677927732467651367e+00 1.120683830231428146e-02
2.976000000000000000e+03 2.752934455871582031e+01 9.383918762207031250e+00 3.082224130630493164e+00 5.008021831512451172e+00 2.427073955535888672e+00 9.855564236640930176e-01
2.977000000000000000e+03 1.232911109924316406e+01 -2.478191375732421875e+01 -2.116608142852783203e+00 2.585992336273193359e+00 1.408152729272842407e-01 2.362451076507568359e+00
2.978000000000000000e+03 4.187989807128906250e+01 1.533983421325683594e+01 1.820719003677368164e+00 5.995951175689697266e+00 2.345000982284545898e+00 -2.653922438621520996e-01
2.979000000000000000e+03 1.136719799041748047e+01 -2.995266342163085938e+01 1.745554566383361816e+00 3.856611251831054688e+00 1.680649757385253906e+00 1.315015792846679688e+00
2.980000000000000000e+03 5.102231979370117188e+00 -3.158725547790527344e+01 6.973664760589599609e-01 3.452690601348876953e+00 1.245017170906066895e+00 -1.986775100231170654e-01
2.981000000000000000e+03 1.372826671600341797e+01 -2.438181495666503906e+01 -2.366445302963256836e+00 4.137170314788818359e+00 5.312175154685974121e-01 2.630290031433105469e+00
2.982000000000000000e+03 2.622373580932617188e+01 -2.169714546203613281e+01 2.292580366134643555e+00 5.898034572601318359e+00 2.457184553146362305e+00 -4.075329303741455078e-01
2.983000000000000000e+03 3.703855514526367188e+01 -1.791660070419311523e+00 -7.695715427398681641e-01 3.798133611679077148e+00 9.085686206817626953e-01 2.820565938949584961e+00
2.984000000000000000e+03 5.080449104309082031e+00 1.467082500457763672e+01 5.008851885795593262e-01 4.030598640441894531e+00 1.359445214271545410e+00 -1.561438202857971191e+00
2.985000000000000000e+03 5.480316925048828125e+01 -1.472204113006591797e+01 -9.887058734893798828e-01 4.620715141296386719e+00 1.089602828025817871e+00 -2.183531999588012695e+00
2.986000000000000000e+03 5.567091369628906250e+01 -1.513689327239990234e+01 -6.178784370422363281e-01 5.156479358673095703e+00 1.361580371856689453e+00 -1.797978043556213379e+00
2.987000000000000000e+03 4.088262939453125000e+01 1.281119632720947266e+01 6.829109787940979004e-01 6.297405719757080078e+00 2.094094991683959961e+00 -2.535841166973114014e-01
2.988000000000000000e+03 2.899099731445312500e+01 -1.461889076232910156e+01 -2.663225173950195312e+00 6.314072132110595703e+00 1.095254063606262207e+00 1.877487182617187500e+00
2.989000000000000000e+03 3.660980224609375000e+00 -1.674581909179687500e+01 1.347866892814636230e+00 5.915251255035400391e+00 2.178935527801513672e+00 1.166972994804382324e+00
2.990000000000000000e+03 4.378250885009765625e+01 -2.441936683654785156e+01 2.191967487335205078e+00 3.436511754989624023e+00 1.688543796539306641e+00 1.579558998346328735e-01
2.991000000000000000e+03 2.644505119323730469e+01 7.327627182006835938e+00 2.718265771865844727e+00 4.495640754699707031e+00 2.164171934127807617e+00 -1.205875873565673828e-01
2.992000000000000000e+03 2.647811126708984375e+01 9.814765930175781250e+00 3.482758522033691406e+00 3.216754674911499023e+00 2.009853839874267578e+00 -5.873471964150667191e-03
2.993000000000000000e+03 3.969482803344726562e+01 1.293284702301025391e+01 4.278928041458129883e-01 5.139611244201660156e+00 1.670251250267028809e+00 -1.030656218528747559e+00
2.994000000000000000e+03 1.651037216186523438e+01 4.072639942169189453e+00 4.765645563602447510e-01 2.405007600784301758e+00 8.644716143608093262e-01 3.919668912887573242e+00
2.995000000000000000e+03 1.841420745849609375e+01 2.857205390930175781e+00 5.085513591766357422e-01 2.907104253768920898e+00 1.024696707725524902e+00 3.591357946395874023e+00
2.996000000000000000e+03 5.711250305175781250e+01 1.532904815673828125e+01 1.727062106132507324e+00 7.090681076049804688e+00 2.645323038101196289e+00 1.340658515691757202e-01
2.997000000000000000e+03 3.979387664794921875e+01 3.936615753173828125e+01 -2.824189066886901855e-01 1.897369980812072754e+00 4.844852983951568604e-01 1.333086341619491577e-01
2.998000000000000000e+03 4.307963943481445312e+01 3.555585479736328125e+01 -1.309203624725341797e+00 2.163058996200561523e+00 2.561566233634948730e-01 -1.002472400665283203e+00
2.999000000000000000e+03 5.372600936889648438e+01 -3.159465789794921875e+01 2.838083028793334961e+00 7.066595554351806641e+00 2.971403598785400391e+00 4.825821518898010254e-01
3.000000000000000000e+03 5.009325027465820312e+01 -2.951088190078735352e+00 6.613175272941589355e-01 6.945657730102539062e+00 2.282092571258544922e+00 -6.131650805473327637e-01
3.001000000000000000e+03 5.019104766845703125e+01 -1.026490783691406250e+01 2.107237339019775391e+00 6.791135787963867188e+00 2.669511795043945312e+00 2.151037566363811493e-02
3.002000000000000000e+03 1.676860237121582031e+01 -2.481023979187011719e+01 -1.918429732322692871e+00 3.560717821121215820e+00 4.926864504814147949e-01 2.203678846359252930e+00
3.003000000000000000e+03 1.660127639770507812e+01 -2.353911590576171875e+01 -1.173091053962707520e+00 4.548356533050537109e+00 1.012579679489135742e+00 1.730207562446594238e+00
3.004000000000000000e+03 3.493854904174804688e+01 2.491606521606445312e+01 5.371018052101135254e-01 9.001953125000000000e+00 2.861716270446777344e+00 -5.540590286254882812e-01
3.005000000000000000e+03 5.246702575683593750e+01 -2.877334022521972656e+01 1.406807065010070801e+00 4.735691070556640625e+00 1.842749476432800293e+00 2.534252703189849854e-01
3.006000000000000000e+03 7.457398986816406250e+01 1.871639060974121094e+01 -8.692764043807983398e-01 7.797203540802001953e+00 2.078378200531005859e+00 3.332113027572631836e-01
3.007000000000000000e+03 3.319115829467773438e+01 -3.118400335311889648e+00 1.370782375335693359e+00 4.093281269073486328e+00 1.639219045639038086e+00 -8.709506690502166748e-02
3.008000000000000000e+03 3.214584350585937500e+01 -4.361431121826171875e+00 2.008178949356079102e+00 5.418977737426757812e+00 2.228147029876708984e+00 -7.473046779632568359e-01
3.009000000000000000e+03 4.305110168457031250e+01 1.913126754760742188e+01 -6.984573602676391602e-02 5.334881782531738281e+00 1.579510927200317383e+00 1.209026813507080078e+00
3.010000000000000000e+03 4.101078414916992188e+01 1.936215209960937500e+01 9.444737434387207031e-01 2.142583847045898438e+00 9.261172413825988770e-01 -2.057997435331344604e-01
3.011000000000000000e+03 4.851477432250976562e+01 -4.095083713531494141e+00 5.020471215248107910e-01 6.303484916687011719e+00 2.041659593582153320e+00 -1.028980493545532227e+00
3.012000000000000000e+03 4.913007736206054688e+01 -3.396620988845825195e+00 8.804008960723876953e-01 6.221930027008056641e+00 2.130699157714843750e+00 -8.690917491912841797e-01
3.013000000000000000e+03 4.917552947998046875e+01 -8.759498596191406250e-01 1.844097375869750977e-01 5.030583381652832031e+00 1.564497947692871094e+00 -1.329378366470336914e+00
3.014000000000000000e+03 3.052781867980957031e+01 -3.456383895874023438e+01 1.045548915863037109e+00 4.019808292388916016e+00 1.519607067108154297e+00 -7.485841512680053711e-01
3.015000000000000000e+03 4.886806488037109375e+01 3.308646011352539062e+01 -7.236832380294799805e-02 6.121901035308837891e+00 1.814859867095947266e+00 1.870931312441825867e-02
3.016000000000000000e+03 1.831001472473144531e+01 -1.806339645385742188e+01 2.396845340728759766e+00 5.789617061614990234e+00 2.455938816070556641e+00 -1.135829687118530273e+00
3.017000000000000000e+03 6.272201919555664062e+01 -1.136296176910400391e+01 -1.343710184097290039e+00 7.637262821197509766e+00 1.888065814971923828e+00 1.107930302619934082e+00
3.018000000000000000e+03 4.469790267944335938e+01 -1.566652107238769531e+01 -1.239623665809631348e+00 3.886506319046020508e+00 7.940647602081298828e-01 1.740596652030944824e+00
3.019000000000000000e+03 4.351446151733398438e+01 -1.587633037567138672e+01 -7.440636157989501953e-01 2.448649644851684570e+00 5.113758444786071777e-01 8.371145129203796387e-01
3.020000000000000000e+03 2.189261054992675781e+01 1.359778404235839844e+01 6.541510820388793945e-01 8.493543624877929688e+00 2.744308471679687500e+00 -8.905875086784362793e-01
3.021000000000000000e+03 1.388412857055664062e+01 1.961415481567382812e+01 -7.427596449851989746e-01 -7.944715768098831177e-02 -2.466620504856109619e-01 1.657039880752563477e+00
3.022000000000000000e+03 5.934691619873046875e+01 1.886805725097656250e+01 1.084305763244628906e+00 5.992818355560302734e+00 2.123137235641479492e+00 8.363060355186462402e-01
3.023000000000000000e+03 5.945868682861328125e+01 2.000642967224121094e+01 4.807727038860321045e-01 4.881997108459472656e+00 1.608830928802490234e+00 8.983518481254577637e-01
3.024000000000000000e+03 7.968458175659179688e+00 1.755287170410156250e+01 -3.839384913444519043e-01 4.593956947326660156e+00 1.263005495071411133e+00 -1.153205037117004395e+00
3.025000000000000000e+03 3.845328903198242188e+01 1.661161231994628906e+01 2.044377326965332031e+00 2.693503141403198242e+00 1.421364188194274902e+00 -1.990925431251525879e+00
3.026000000000000000e+03 3.518547439575195312e+01 -2.957469558715820312e+01 -5.359323620796203613e-01 -3.840310275554656982e-01 -2.759890258312225342e-01 1.820023655891418457e-01
3.027000000000000000e+03 3.226078033447265625e+01 4.106555557250976562e+01 -1.095571041107177734e+00 4.086896896362304688e+00 8.973977565765380859e-01 -6.555426865816116333e-02
3.028000000000000000e+03 3.238086318969726562e+01 -9.350638389587402344e+00 2.752462148666381836e+00 5.250164031982421875e+00 2.400787830352783203e+00 7.667899727821350098e-01
3.029000000000000000e+03 1.889224052429199219e+01 -1.718816947937011719e+01 1.681359410285949707e+00 5.191736221313476562e+00 2.061928749084472656e+00 -1.521222710609436035e+00
3.030000000000000000e+03 1.062096881866455078e+01 -2.773454284667968750e+01 5.584648847579956055e-01 2.354028701782226562e+00 8.737480640411376953e-01 9.846389889717102051e-01
3.031000000000000000e+03 3.643661880493164062e+01 -3.523179054260253906e+00 6.628413796424865723e-01 4.370163440704345703e+00 1.509901404380798340e+00 1.566953301429748535e+00
3.032000000000000000e+03 6.903003692626953125e+00 1.804972267150878906e+01 -6.708492636680603027e-01 4.464453697204589844e+00 1.138081312179565430e+00 -1.689573645591735840e+00
3.033000000000000000e+03 9.679381370544433594e+00 1.914267730712890625e+01 -7.675146460533142090e-01 3.151713609695434570e+00 7.152597308158874512e-01 -4.622720479965209961e-01
3.034000000000000000e+03 8.979914665222167969e+00 -3.699289321899414062e+01 4.810459166765213013e-02 4.126812458038330078e+00 1.252475142478942871e+00 9.746549725532531738e-01
3.035000000000000000e+03 4.952100753784179688e+00 2.226650714874267578e+00 5.582324266433715820e-01 6.332755684852600098e-01 3.574523925781250000e-01 -5.768857002258300781e-01
3.036000000000000000e+03 8.066037178039550781e+00 -1.659523844718933105e+00 2.467905759811401367e+00 1.425669550895690918e+00 1.168072581291198730e+00 1.829679727554321289e+00
3.037000000000000000e+03 9.100938796997070312e+00 2.023935079574584961e+00 2.477392911911010742e+00 6.924485683441162109e+00 2.820563554763793945e+00 -5.416319370269775391e+00
3.038000000000000000e+03 4.434792995452880859e+00 -2.727885246276855469e+00 6.994855403900146484e-01 2.591264247894287109e-01 2.875835895538330078e-01 2.720689177513122559e-01
3.039000000000000000e+03 9.081439971923828125e+00 2.662598609924316406e+00 1.137776732444763184e+00 7.060083866119384766e+00 2.459358215332031250e+00 -4.801405906677246094e+00
3.040000000000000000e+03 8.137124061584472656e+00 1.856388807296752930e+00 2.912190437316894531e+00 2.920755624771118164e+00 1.749883770942687988e+00 -3.885734081268310547e+00
3.041000000000000000e+03 8.015856742858886719e+00 6.590763568878173828e+00 -1.559099435806274414e+00 6.467898368835449219e+00 1.472639799118041992e+00 -1.803061723709106445e+00
3.042000000000000000e+03 7.695214748382568359e+00 2.491958379745483398e+00 1.789029002189636230e+00 3.096918821334838867e+00 1.465784311294555664e+00 -3.457110643386840820e+00
3.043000000000000000e+03 7.437726497650146484e+00 2.758008003234863281e+00 1.435147047042846680e+00 3.050445556640625000e+00 1.345677733421325684e+00 -3.154073953628540039e+00
3.044000000000000000e+03 6.515830516815185547e+00 -1.926546216011047363e+00 1.288148999214172363e+00 4.036372005939483643e-01 5.075358748435974121e-01 6.252335309982299805e-01
3.045000000000000000e+03 6.515065670013427734e+00 2.347740888595581055e+00 1.337741971015930176e+00 1.480909109115600586e+00 8.455953001976013184e-01 -1.859478473663330078e+00
3.046000000000000000e+03 3.617042064666748047e+00 6.514635562896728516e+00 2.159908786416053772e-02 1.740421533584594727e+00 5.286061763763427734e-01 -3.680288195610046387e-01
3.047000000000000000e+03 6.160834789276123047e+00 2.081511735916137695e+00 1.135378479957580566e+00 9.747426509857177734e-01 6.330363154411315918e-01 -1.326108455657958984e+00
3.048000000000000000e+03 7.612711429595947266e+00 -1.930980682373046875e+00 2.168677330017089844e+00 1.141791820526123047e+00 9.931407570838928223e-01 1.470645189285278320e+00
3.049000000000000000e+03 5.476383686065673828e+00 2.061476230621337891e+00 7.452986836433410645e-01 6.757522821426391602e-01 4.263152778148651123e-01 -7.923694252967834473e-01
3.050000000000000000e+03 5.262190818786621094e+00 2.043289184570312500e+00 6.232157945632934570e-01 5.899896025657653809e-01 3.639616370201110840e-01 -6.754720211029052734e-01
3.051000000000000000e+03 3.648241519927978516e+00 2.105150938034057617e+00 1.755032241344451904e-01 2.872284352779388428e-01 1.388195008039474487e-01 -5.009786225855350494e-03
3.052000000000000000e+03 9.999684333801269531e+00 -2.183135986328125000e+00 1.305616855621337891e+00 9.918910026550292969e+00 3.367357969284057617e+00 2.212754964828491211e+00
3.053000000000000000e+03 1.214585685729980469e+01 -3.484238982200622559e-01 7.480578899383544922e+00 8.778511047363281250e+00 4.877727031707763672e+00 -1.985444188117980957e+00
3.054000000000000000e+03 1.150973033905029297e+01 -1.496358275413513184e+00 3.700631856918334961e+00 1.180272293090820312e+01 4.651006221771240234e+00 -2.797597169876098633e+00
3.055000000000000000e+03 1.053190135955810547e+01 -2.127155303955078125e+00 1.234524607658386230e+00 1.141727924346923828e+01 3.795541048049926758e+00 5.897263288497924805e-01
3.056000000000000000e+03 1.214043712615966797e+01 -4.332755133509635925e-02 7.850049018859863281e+00 8.545972824096679688e+00 4.918806552886962891e+00 -1.313301920890808105e+00
3.057000000000000000e+03 1.379526710510253906e+01 -4.739696502685546875e+00 1.324429154396057129e+00 8.035183906555175781e+00 2.807883739471435547e+00 -2.246633768081665039e+00
3.058000000000000000e+03 1.498715591430664062e+01 -4.829739093780517578e+00 1.103145718574523926e+00 8.449989318847656250e+00 2.865940570831298828e+00 -2.010034799575805664e+00
3.059000000000000000e+03 1.335426235198974609e+01 4.341980934143066406e+00 -3.607216775417327881e-01 3.073808193206787109e+00 8.139259815216064453e-01 2.777087092399597168e-01
3.060000000000000000e+03 9.966459274291992188e+00 -2.470351696014404297e+00 1.278752565383911133e+00 9.125282287597656250e+00 3.121210575103759766e+00 2.090551853179931641e+00
3.061000000000000000e+03 1.084272098541259766e+01 1.916050076484680176e+00 1.904452562332153320e+00 1.231413841247558594e+01 4.265577316284179688e+00 -1.251879215240478516e+00
3.062000000000000000e+03 1.152130889892578125e+01 3.374366521835327148e+00 -1.399020552635192871e-01 8.057335853576660156e+00 2.375230312347412109e+00 -1.128365516662597656e+00
3.063000000000000000e+03 1.162338256835937500e+01 -1.287448883056640625e+00 4.674129486083984375e+00 1.147181797027587891e+01 4.843784332275390625e+00 -3.094009160995483398e+00
3.064000000000000000e+03 1.156091308593750000e+01 -1.823998212814331055e+00 2.960990905761718750e+00 1.130280590057373047e+01 4.279139041900634766e+00 -2.389019489288330078e+00
3.065000000000000000e+03 1.413638401031494141e+01 -2.294935226440429688e+00 2.733847618103027344e+00 7.223740577697753906e+00 2.987276554107666016e+00 -1.993657588958740234e+00
3.066000000000000000e+03 1.050303459167480469e+01 2.327831745147705078e+00 7.661637067794799805e-01 1.118235492706298828e+01 3.584555625915527344e+00 -2.878631353378295898e+00
3.067000000000000000e+03 2.564978122711181641e+00 -5.009627342224121094e+00 3.261725008487701416e-01 4.364921152591705322e-01 2.287993878126144409e-01 4.260726273059844971e-01
3.068000000000000000e+03 3.068062067031860352e+00 1.965464115142822266e+00 7.066003233194351196e-02 1.526143103837966919e-01 6.698229908943176270e-02 1.352393031120300293e-01
3.069000000000000000e+03 7.200453877449035645e-01 -1.822882771492004395e+00 -9.904387407004833221e-03 -1.328004151582717896e-01 -4.281144216656684875e-02 -1.029306128621101379e-01
3.070000000000000000e+03 1.039260268211364746e+00 -2.686537981033325195e+00 1.011650077998638153e-02 -1.771340072154998779e-01 -5.010525137186050415e-02 -1.135501638054847717e-01
3.071000000000000000e+03 1.737196683883666992e+00 3.145534276962280273e+00 6.978187710046768188e-02 -1.659168489277362823e-02 1.595705747604370117e-02 1.962118595838546753e-01
3.072000000000000000e+03 3.856764554977416992e+00 -2.027300596237182617e+00 3.103061020374298096e-01 8.123838156461715698e-02 1.174633502960205078e-01 -1.481503341346979141e-02
3.073000000000000000e+03 2.236151933670043945e+00 -2.390114545822143555e+00 1.436074227094650269e-01 2.896962873637676239e-02 5.177311599254608154e-02 -1.095421910285949707e-01
3.074000000000000000e+03 1.854429364204406738e+00 -2.236569881439208984e+00 7.568974047899246216e-02 -2.667073346674442291e-02 1.470570173114538193e-02 -1.228456497192382812e-01
3.075000000000000000e+03 2.673279285430908203e+00 -2.497414112091064453e+00 2.159453481435775757e-01 5.732465162873268127e-02 8.198099583387374878e-02 -5.816836655139923096e-02
3.076000000000000000e+03 3.427145004272460938e+00 1.939172267913818359e+00 1.061943173408508301e-01 1.921363472938537598e-01 8.949919790029525757e-02 8.540087938308715820e-02
3.077000000000000000e+03 3.051922559738159180e+00 -2.559369325637817383e+00 2.826887369155883789e-01 1.173152178525924683e-01 1.200011819601058960e-01 -1.242580171674489975e-02
3.078000000000000000e+03 9.800402641296386719e+00 5.922984600067138672e+00 -2.754707098007202148e+00 7.090185165405273438e+00 1.300643444061279297e+00 -2.592073440551757812e+00
3.079000000000000000e+03 9.325528144836425781e+00 2.028707504272460938e+00 2.148517847061157227e+00 8.111247062683105469e+00 3.077929735183715820e+00 -5.454774856567382812e+00
3.080000000000000000e+03 3.098504781723022461e+00 2.775937557220458984e+00 2.071754634380340576e-01 3.228919208049774170e-01 1.590202152729034424e-01 2.124215476214885712e-02
3.081000000000000000e+03 1.177785277366638184e+00 -3.431715488433837891e+00 9.896428883075714111e-02 -1.096936613321304321e-01 -3.218811936676502228e-03 -2.108496427536010742e-02
3.082000000000000000e+03 2.656481504440307617e+00 -3.017370939254760742e+00 2.819227278232574463e-01 1.243159323930740356e-01 1.218715906143188477e-01 2.367966249585151672e-02
3.083000000000000000e+03 9.343124389648437500e+00 2.703797101974487305e+00 7.742055654525756836e-01 7.866976737976074219e+00 2.592354774475097656e+00 -4.710046291351318359e+00
3.084000000000000000e+03 1.350597667694091797e+01 -5.646588802337646484e+00 1.408951640129089355e+00 7.574530124664306641e+00 2.695044517517089844e+00 -2.180694103240966797e+00
3.085000000000000000e+03 1.373895931243896484e+01 -6.229795932769775391e+00 1.725483536720275879e+00 7.457181930541992188e+00 2.754799604415893555e+00 -2.578835010528564453e+00
3.086000000000000000e+03 1.600621986389160156e+01 -1.241786241531372070e+00 2.442512989044189453e+00 4.873995304107666016e+00 2.194952487945556641e+00 3.166674673557281494e-01
3.087000000000000000e+03 5.727129745483398438e+01 1.942343521118164062e+01 5.152101516723632812e-01 4.312099933624267578e+00 1.448192954063415527e+00 -1.025898814201354980e+00
3.088000000000000000e+03 2.906991481781005859e+00 -5.815574645996093750e+00 2.813413739204406738e-01 7.936291098594665527e-01 3.224911391735076904e-01 6.662984490394592285e-01
3.089000000000000000e+03 2.097504377365112305e+00 -5.570458889007568359e+00 1.592180579900741577e-01 4.734403491020202637e-01 1.897975206375122070e-01 4.174852371215820312e-01
3.090000000000000000e+03 1.542657184600830078e+01 -2.238537788391113281e+00 2.260231733322143555e+00 6.359746932983398438e+00 2.585993766784667969e+00 -1.031085729598999023e+00
3.091000000000000000e+03 1.224618721008300781e+01 -1.017917156219482422e+00 5.837657928466796875e+00 9.452766418457031250e+00 4.587127208709716797e+00 -2.928867578506469727e+00
3.092000000000000000e+03 1.823726654052734375e+01 9.003666043281555176e-01 1.068983078002929688e+00 2.838380336761474609e+00 1.172209024429321289e+00 2.588555574417114258e+00
3.093000000000000000e+03 1.567965221405029297e+01 3.668241024017333984e+00 9.067190289497375488e-01 2.169684410095214844e+00 9.229210615158081055e-01 3.158779621124267578e+00
3.094000000000000000e+03 1.658380508422851562e+01 2.022676467895507812e+00 1.808759331703186035e+00 3.084619045257568359e+00 1.468013525009155273e+00 2.898576259613037109e+00
3.095000000000000000e+03 1.150136470794677734e+01 -2.717400550842285156e+01 -1.632356829941272736e-02 2.787920951843261719e+00 8.314791917800903320e-01 1.421356678009033203e+00
3.096000000000000000e+03 1.617372703552246094e+01 -1.097009237855672836e-02 2.608119010925292969e+00 4.018910408020019531e+00 1.988108873367309570e+00 1.341505289077758789e+00
3.097000000000000000e+03 1.554214954376220703e+01 -5.466971993446350098e-01 3.013915300369262695e+00 4.833967685699462891e+00 2.354364871978759766e+00 4.100671410560607910e-01
3.098000000000000000e+03 3.665876626968383789e+00 -6.396088600158691406e+00 3.271589577198028564e-01 1.303640842437744141e+00 4.892399609088897705e-01 1.056392788887023926e+00
3.099000000000000000e+03 4.014928340911865234e+00 -7.993240356445312500e+00 -4.731192067265510559e-02 1.960320711135864258e+00 5.739026069641113281e-01 1.263846516609191895e+00
3.100000000000000000e+03 5.003218460083007812e+01 -8.291324615478515625e+00 1.828643560409545898e+00 7.879827022552490234e+00 2.912541151046752930e+00 7.103270888328552246e-01
3.101000000000000000e+03 4.230818557739257812e+01 -1.929713249206542969e+01 2.251881599426269531e+00 4.417819023132324219e+00 2.000910282135009766e+00 -5.092096328735351562e-02
3.102000000000000000e+03 3.497248840332031250e+01 -3.031572580337524414e+00 1.012604832649230957e+00 3.714059352874755859e+00 1.417999267578125000e+00 9.520099163055419922e-01
3.103000000000000000e+03 6.874791717529296875e+01 2.457464790344238281e+01 8.737524747848510742e-01 3.297550916671752930e+00 1.251391053199768066e+00 -7.122036218643188477e-01
3.104000000000000000e+03 6.551976013183593750e+01 2.500543022155761719e+01 1.712822079658508301e+00 4.533188819885253906e+00 1.873803257942199707e+00 9.346761703491210938e-01
3.105000000000000000e+03 6.844701385498046875e+01 2.265161705017089844e+01 -4.457497000694274902e-01 2.314694643020629883e+00 5.606834888458251953e-01 -1.147864699363708496e+00
3.106000000000000000e+03 6.755840301513671875e+01 3.061302566528320312e+01 9.402558207511901855e-01 5.381343841552734375e+00 1.896479964256286621e+00 7.971198558807373047e-01
3.107000000000000000e+03 3.492018461227416992e+00 -9.563446044921875000e+00 -3.747441768646240234e-01 2.372074604034423828e+00 5.991991162300109863e-01 9.344220161437988281e-01
3.108000000000000000e+03 5.155451202392578125e+01 -2.858790588378906250e+01 9.169839620590209961e-01 4.957885742187500000e+00 1.762460947036743164e+00 -3.382163643836975098e-01
3.109000000000000000e+03 2.693422317504882812e+01 4.352984905242919922e+00 1.035943508148193359e+00 4.785979270935058594e+00 1.746576786041259766e+00 -6.208000779151916504e-01
3.110000000000000000e+03 2.585863876342773438e+01 1.198383998870849609e+01 2.053869485855102539e+00 1.788749456405639648e+00 1.152785658836364746e+00 -3.548217117786407471e-01
3.111000000000000000e+03 4.531984329223632812e+01 -1.084763407707214355e+00 -1.398461870849132538e-03 3.203331708908081055e+00 9.605799317359924316e-01 -2.410795211791992188e+00
3.112000000000000000e+03 2.855843305587768555e+00 6.166574478149414062e+00 7.025665789842605591e-02 1.046639800071716309e+00 3.350689411163330078e-01 -1.746029257774353027e-01
3.113000000000000000e+03 4.476486587524414062e+01 2.011086845397949219e+01 -1.509854674339294434e+00 6.283039569854736328e+00 1.431955456733703613e+00 2.750121593475341797e+00
3.114000000000000000e+03 5.771566772460937500e+01 -2.466714477539062500e+01 -2.093604952096939087e-01 6.160711765289306641e+00 1.785405397415161133e+00 1.224233627319335938e+00
3.115000000000000000e+03 5.299345779418945312e+01 -1.218951416015625000e+01 1.441533491015434265e-02 3.564275026321411133e+00 1.073607087135314941e+00 -2.618237972259521484e+00
3.116000000000000000e+03 6.115596771240234375e+01 1.291570782661437988e+00 -1.424463391304016113e+00 5.860504627227783203e+00 1.330812454223632812e+00 -1.850057125091552734e+00
3.117000000000000000e+03 6.253797912597656250e+01 -2.159464454650878906e+01 2.783462047576904297e+00 5.996872425079345703e+00 2.634100437164306641e+00 -1.339585900306701660e+00
3.118000000000000000e+03 4.095833587646484375e+01 1.400506401062011719e+01 1.314042806625366211e+00 5.643239021301269531e+00 2.087184667587280273e+00 -6.669452190399169922e-01
3.119000000000000000e+03 4.323080062866210938e+01 -1.347214102745056152e+00 1.702784448862075806e-01 2.201912403106689453e+00 7.116572856903076172e-01 -1.323092937469482422e+00
3.120000000000000000e+03 1.008405780792236328e+01 -2.687053489685058594e+01 6.351169198751449585e-02 1.671930909156799316e+00 5.206328034400939941e-01 7.480832338333129883e-01
3.121000000000000000e+03 3.279556655883789062e+01 -1.219505405426025391e+01 -7.754986733198165894e-02 3.329288244247436523e+00 9.755215048789978027e-01 1.182878732681274414e+00
3.122000000000000000e+03 3.381583786010742188e+01 -9.913064956665039062e+00 2.753682613372802734e+00 4.029314517974853516e+00 2.034899234771728516e+00 1.187036857008934021e-01
3.123000000000000000e+03 6.590127563476562500e+01 2.283403015136718750e+01 2.877140939235687256e-01 2.520532369613647461e+00 8.424739241600036621e-01 1.027453660964965820e+00
3.124000000000000000e+03 6.685342407226562500e+01 1.950865149497985840e+00 5.250294134020805359e-02 3.020704984664916992e+00 9.219623804092407227e-01 1.509705424308776855e+00
3.125000000000000000e+03 9.938060760498046875e+00 3.338820695877075195e+00 -4.419202804565429688e-01 8.651545524597167969e+00 2.462887525558471680e+00 -3.654346227645874023e+00
3.126000000000000000e+03 1.031568813323974609e+01 5.561375141143798828e+00 -2.662433624267578125e+00 6.963296890258789062e+00 1.290259003639221191e+00 -2.746340990066528320e+00
3.127000000000000000e+03 3.207268142700195312e+01 -1.105525398254394531e+01 1.301344156265258789e+00 4.589653015136718750e+00 1.767299175262451172e+00 1.108756780624389648e+00
3.128000000000000000e+03 5.558427429199218750e+01 3.826459169387817383e+00 -1.227600693702697754e+00 4.869777202606201172e+00 1.092652916908264160e+00 1.077533006668090820e+00
3.129000000000000000e+03 4.291342258453369141e+00 8.143069267272949219e+00 1.052974537014961243e-01 2.773168563842773438e+00 8.635398149490356445e-01 -4.153750538825988770e-01
3.130000000000000000e+03 3.503714799880981445e+00 8.240205764770507812e+00 6.382180750370025635e-02 1.969986081123352051e+00 6.101423501968383789e-01 -2.802104353904724121e-01
3.131000000000000000e+03 7.591483592987060547e+00 1.117228603363037109e+01 1.679247260093688965e+00 6.309687137603759766e+00 2.396680355072021484e+00 -8.060548901557922363e-01
3.132000000000000000e+03 8.474009513854980469e+00 8.320203781127929688e+00 -7.362784147262573242e-01 7.360337257385253906e+00 1.987217664718627930e+00 -7.537964582443237305e-01
3.133000000000000000e+03 5.682663345336914062e+01 2.805476188659667969e+00 -1.203616380691528320e+00 3.715884923934936523e+00 7.536805272102355957e-01 -2.683018147945404053e-02
3.134000000000000000e+03 5.553992080688476562e+01 5.079909324645996094e+00 -4.173692762851715088e-01 6.133818149566650391e+00 1.714934587478637695e+00 9.386665821075439453e-01
3.135000000000000000e+03 4.954739761352539062e+01 -1.262762832641601562e+01 -1.562782227993011475e-01 5.852318286895751953e+00 1.708811998367309570e+00 1.412668824195861816e-01
3.136000000000000000e+03 3.886490631103515625e+01 1.789501762390136719e+01 1.991850972175598145e+00 2.492077112197875977e+00 1.345178484916687012e+00 -1.790633440017700195e+00
3.137000000000000000e+03 6.391789245605468750e+01 5.142878532409667969e+00 -1.298232793807983398e+00 2.660970687866210938e+00 4.088213741779327393e-01 -1.448152780532836914e+00
3.138000000000000000e+03 7.378091430664062500e+01 -2.908212852478027344e+01 -3.579013049602508545e-01 6.223395347595214844e+00 1.759648203849792480e+00 1.247604489326477051e+00
3.139000000000000000e+03 8.276458740234375000e+00 9.234558105468750000e+00 3.330036699771881104e-01 7.204236507415771484e+00 2.261172056198120117e+00 -6.888630390167236328e-01
3.140000000000000000e+03 5.909413909912109375e+01 7.113172531127929688e+00 7.181217521429061890e-02 6.084045886993408203e+00 1.846757411956787109e+00 -1.108573794364929199e+00
3.141000000000000000e+03 5.834804153442382812e+01 1.626304817199707031e+01 1.987189054489135742e+00 7.258144378662109375e+00 2.773600101470947266e+00 9.052395820617675781e-01
3.142000000000000000e+03 5.253786468505859375e+01 -2.995080947875976562e+01 2.178447008132934570e+00 5.920515060424804688e+00 2.429688692092895508e+00 1.668913960456848145e-01
3.143000000000000000e+03 5.802704620361328125e+01 7.702570438385009766e+00 6.652517914772033691e-01 6.576377391815185547e+00 2.172488689422607422e+00 -3.392499685287475586e-01
3.144000000000000000e+03 1.344121837615966797e+01 -8.719530105590820312e+00 1.717162847518920898e+00 4.985371589660644531e+00 2.010760307312011719e+00 -1.554585695266723633e+00
3.145000000000000000e+03 1.461005210876464844e+01 -8.867670059204101562e+00 1.823026418685913086e+00 6.615095615386962891e+00 2.531436681747436523e+00 -2.124488830566406250e+00
3.146000000000000000e+03 3.472083663940429688e+01 -3.268225479125976562e+01 1.968031048774719238e+00 2.105053901672363281e+00 1.221925497055053711e+00 6.271350979804992676e-01
3.147000000000000000e+03 6.173203277587890625e+01 -1.207172107696533203e+01 -1.213113188743591309e+00 6.830988883972167969e+00 1.685362696647644043e+00 1.423824667930603027e+00
3.148000000000000000e+03 1.895042896270751953e+00 4.202572822570800781e+00 1.272216290235519409e-01 1.510047316551208496e-01 8.346790820360183716e-02 5.963888764381408691e-02
3.149000000000000000e+03 1.344395637512207031e+00 3.449787378311157227e+00 4.789803549647331238e-02 -2.108674049377441406e-01 -4.889081418514251709e-02 1.951848566532135010e-01
3.150000000000000000e+03 4.151735305786132812e+01 -1.646514129638671875e+01 1.527757942676544189e-01 2.609548091888427734e+00 8.286971449851989746e-01 -1.091600179672241211e+00
3.151000000000000000e+03 4.391721343994140625e+01 -2.607600784301757812e+01 2.384682297706604004e-01 1.548645853996276855e+00 5.361342430114746094e-01 -7.649416923522949219e-01
3.152000000000000000e+03 2.530369377136230469e+01 -2.023987388610839844e+01 2.466429471969604492e+00 3.990573167800903320e+00 1.937100768089294434e+00 -8.407495021820068359e-01
3.153000000000000000e+03 1.982442855834960938e+01 -1.797221755981445312e+01 2.216231822967529297e+00 3.277874469757080078e+00 1.648231863975524902e+00 -1.653518080711364746e+00
3.154000000000000000e+03 2.506845092773437500e+01 1.227339076995849609e+01 1.456901669502258301e+00 2.319581031799316406e+00 1.132944822311401367e+00 -1.131999373435974121e+00
3.155000000000000000e+03 2.573920631408691406e+01 1.289795684814453125e+01 2.688705027103424072e-01 1.024967193603515625e+00 3.881512880325317383e-01 -4.320172071456909180e-01
3.156000000000000000e+03 1.084403419494628906e+01 5.140356540679931641e+00 -2.325847864151000977e+00 6.946921348571777344e+00 1.386322021484375000e+00 -2.475043058395385742e+00
3.157000000000000000e+03 2.579660987854003906e+01 -1.756846046447753906e+01 1.128634691238403320e+00 3.414084672927856445e+00 1.362815737724304199e+00 -1.100628171116113663e-02
3.158000000000000000e+03 2.153613090515136719e+01 -1.794689750671386719e+01 2.227990627288818359e+00 1.585250973701477051e+00 1.143972396850585938e+00 -1.740897417068481445e+00
3.159000000000000000e+03 4.378940963745117188e+01 -2.104321479797363281e+01 3.380649805068969727e+00 5.080328464508056641e+00 2.538293361663818359e+00 7.082302570343017578e-01
3.160000000000000000e+03 4.219979095458984375e+01 -2.114710617065429688e+01 2.879000425338745117e+00 5.361464977264404297e+00 2.472139596939086914e+00 5.519849658012390137e-01
3.161000000000000000e+03 3.066834831237792969e+01 -2.216476678848266602e+00 8.094779849052429199e-01 6.103965759277343750e+00 2.074033021926879883e+00 -1.477850794792175293e+00
3.162000000000000000e+03 5.789113235473632812e+01 4.497323989868164062e+00 -5.691006183624267578e-01 5.064236640930175781e+00 1.348540782928466797e+00 -1.120381474494934082e+00
3.163000000000000000e+03 6.536292266845703125e+01 1.464862704277038574e+00 -2.858652770519256592e-01 4.409923076629638672e+00 1.237217426300048828e+00 7.205050587654113770e-01
3.164000000000000000e+03 3.788022994995117188e+01 1.583479690551757812e+01 1.784976959228515625e+00 2.712060928344726562e+00 1.349111318588256836e+00 -2.156216144561767578e+00
3.165000000000000000e+03 3.732848358154296875e+01 1.475360488891601562e+01 1.102967619895935059e+00 2.362039804458618164e+00 1.039502263069152832e+00 -2.145112037658691406e+00
3.166000000000000000e+03 1.183400440216064453e+01 -9.019644737243652344e+00 1.038608670234680176e+00 3.174626350402832031e+00 1.263970494270324707e+00 9.717023372650146484e-02
3.167000000000000000e+03 7.076157379150390625e+01 1.559590935707092285e+00 3.302021324634552002e-01 1.879999637603759766e+00 6.630604863166809082e-01 1.222483158111572266e+00
3.168000000000000000e+03 7.198760223388671875e+01 1.245601177215576172e+00 7.480052113533020020e-02 2.551885366439819336e+00 7.880057692527770996e-01 9.986434876918792725e-02
3.169000000000000000e+03 7.381279754638671875e+01 1.667411804199218750e+00 -4.022280871868133545e-01 5.081884860992431641e+00 1.403897047042846680e+00 -6.442914009094238281e-01
3.170000000000000000e+03 3.766740798950195312e+00 9.295584678649902344e+00 2.982673943042755127e-01 2.380451202392578125e+00 8.036156296730041504e-01 -3.971941471099853516e-01
3.171000000000000000e+03 3.676592826843261719e+00 -8.705830574035644531e+00 -2.208421379327774048e-01 2.159980535507202148e+00 5.817415118217468262e-01 1.099274396896362305e+00
3.172000000000000000e+03 1.344499206542968750e+01 -1.052932739257812500e+01 4.732255265116691589e-02 3.369950056076049805e+00 1.025181770324707031e+00 -9.764527678489685059e-01
3.173000000000000000e+03 5.271613597869873047e+00 -3.042066574096679688e+01 6.956374645233154297e-01 3.223589420318603516e+00 1.175768017768859863e+00 -3.819540441036224365e-01
3.174000000000000000e+03 6.133266448974609375e+00 -2.670582771301269531e+01 -4.234643280506134033e-01 2.318280220031738281e+00 5.684447884559631348e-01 -1.032760500907897949e+00
3.175000000000000000e+03 2.684660911560058594e+01 -2.846296691894531250e+01 -1.257062196731567383e+00 7.027853488922119141e+00 1.731237292289733887e+00 -1.505647301673889160e-01
3.176000000000000000e+03 6.361925506591796875e+01 -1.755732595920562744e-01 -2.220468074083328247e-01 6.425477027893066406e+00 1.861029148101806641e+00 -4.952650517225265503e-02
3.177000000000000000e+03 5.014727592468261719e+00 -2.749131202697753906e+01 -6.949644535779953003e-02 3.196118593215942383e+00 9.379866719245910645e-01 -9.403892755508422852e-01
3.178000000000000000e+03 5.822823047637939453e+00 -2.868132019042968750e+01 4.385187625885009766e-01 2.787517786026000977e+00 9.678109288215637207e-01 -7.443501353263854980e-01
3.179000000000000000e+03 7.643607139587402344e+00 -3.483783721923828125e+01 7.843815088272094727e-01 3.764695644378662109e+00 1.364723086357116699e+00 8.479990959167480469e-01
3.180000000000000000e+03 6.960770130157470703e+00 -3.149563217163085938e+01 1.130636572837829590e+00 2.990128755569458008e+00 1.236229658126831055e+00 1.492899060249328613e-01
3.181000000000000000e+03 7.469951629638671875e+01 3.260348892211914062e+01 2.160427570343017578e-01 6.264537811279296875e+00 1.944174170494079590e+00 2.132090628147125244e-01
3.182000000000000000e+03 7.496926116943359375e+01 2.829601669311523438e+01 3.219901919364929199e-01 6.205936908721923828e+00 1.958378076553344727e+00 -2.484914809465408325e-01
3.183000000000000000e+03 1.266752147674560547e+01 4.859515190124511719e+00 -1.509019732475280762e+00 4.273362636566162109e+00 8.293029069900512695e-01 -6.970180273056030273e-01
3.184000000000000000e+03 1.194522953033447266e+01 1.310505151748657227e+00 5.155244350433349609e+00 9.414126396179199219e+00 4.370810985565185547e+00 9.148746728897094727e-01
3.185000000000000000e+03 6.843311786651611328e+00 -3.287400436401367188e+01 1.124157309532165527e+00 3.316738128662109375e+00 1.332268595695495605e+00 4.050855934619903564e-01
3.186000000000000000e+03 7.571199035644531250e+01 1.638497924804687500e+01 1.796653121709823608e-01 7.819944858551025391e+00 2.399883031845092773e+00 8.575264215469360352e-01
3.187000000000000000e+03 7.445867919921875000e+01 1.640969848632812500e+01 2.255787402391433716e-01 8.299335479736328125e+00 2.557474374771118164e+00 6.547126770019531250e-01
3.188000000000000000e+03 7.484024810791015625e+01 -3.013112258911132812e+01 7.146456837654113770e-02 6.500149726867675781e+00 1.971484303474426270e+00 5.462705492973327637e-01
3.189000000000000000e+03 7.414326477050781250e+01 -3.100245285034179688e+01 2.875944674015045166e-01 5.954814910888671875e+00 1.872722864151000977e+00 5.614084601402282715e-01
3.190000000000000000e+03 5.222173213958740234e+00 -1.544132041931152344e+01 1.098143696784973145e+00 7.626598358154296875e+00 2.617422580718994141e+00 2.149909734725952148e+00
3.191000000000000000e+03 7.487803649902343750e+01 -2.817067337036132812e+01 -6.672042608261108398e-01 7.229867458343505859e+00 1.968798995018005371e+00 6.975712180137634277e-01
3.192000000000000000e+03 2.500497245788574219e+01 -2.500434303283691406e+01 -2.189280278980731964e-02 5.482616424560546875e+00 1.638217091560363770e+00 -5.248941779136657715e-01
3.193000000000000000e+03 3.612723922729492188e+01 1.787507820129394531e+01 2.049950599670410156e+00 3.307492494583129883e+00 1.607232928276062012e+00 -1.634200572967529297e+00
3.194000000000000000e+03 4.227299118041992188e+01 5.592139720916748047e+00 1.293475031852722168e+00 7.110517978668212891e+00 2.521198034286499023e+00 -1.613292545080184937e-01
3.195000000000000000e+03 4.302527999877929688e+01 3.135628700256347656e+00 1.185669302940368652e+00 5.042907714843750000e+00 1.868573069572448730e+00 -1.320481896400451660e+00
3.196000000000000000e+03 7.559118652343750000e+01 2.543104934692382812e+01 2.007650583982467651e-02 6.576585292816162109e+00 1.978998541831970215e+00 -4.079995453357696533e-01
3.197000000000000000e+03 7.329679870605468750e+01 2.343434143066406250e+01 -5.056161880493164062e-01 6.131132602691650391e+00 1.687654972076416016e+00 -8.769539594650268555e-01
3.198000000000000000e+03 7.569723510742187500e+01 2.673542594909667969e+01 7.826501131057739258e-02 6.535231113433837891e+00 1.984048843383789062e+00 -3.633686304092407227e-01
3.199000000000000000e+03 6.991999053955078125e+01 2.534861183166503906e+01 9.460609555244445801e-01 4.310705184936523438e+00 1.577029824256896973e+00 -7.694146633148193359e-01
3.200000000000000000e+03 7.308645629882812500e+01 2.035330581665039062e+01 -1.237118124961853027e+00 6.872973442077636719e+00 1.690756678581237793e+00 -6.247766613960266113e-01
3.201000000000000000e+03 7.828091430664062500e+01 -2.497573089599609375e+01 6.866300478577613831e-03 7.269181251525878906e+00 2.182814121246337891e+00 -4.952493607997894287e-01
3.202000000000000000e+03 7.388284301757812500e+01 1.057369804382324219e+01 1.523824334144592285e+00 8.795028686523437500e+00 3.095655679702758789e+00 -2.489513903856277466e-01
3.203000000000000000e+03 7.479401397705078125e+01 1.137541103363037109e+01 1.357203245162963867e+00 8.745020866394042969e+00 3.030667066574096680e+00 -3.742649555206298828e-01
3.204000000000000000e+03 7.492744445800781250e+01 7.975829124450683594e+00 1.184075623750686646e-01 7.793886661529541016e+00 2.373688220977783203e+00 -9.403631687164306641e-01
3.205000000000000000e+03 7.314096832275390625e+01 5.101789474487304688e+00 -4.752470552921295166e-01 5.958176136016845703e+00 1.644878745079040527e+00 8.650976419448852539e-02
3.206000000000000000e+03 7.241146850585937500e+01 4.291340827941894531e+00 -2.523400187492370605e-01 4.956156730651855469e+00 1.411145091056823730e+00 3.973113298416137695e-01
3.207000000000000000e+03 7.546073913574218750e+01 4.408161163330078125e+00 -2.848572731018066406e-01 7.023444652557373047e+00 2.021576166152954102e+00 -8.689551949501037598e-01
3.208000000000000000e+03 7.491392517089843750e+01 1.970381736755371094e+01 -7.745181322097778320e-01 7.468855381011962891e+00 2.008301019668579102e+00 2.062813043594360352e-01
3.209000000000000000e+03 7.557726287841796875e+01 1.893057060241699219e+01 -6.249850392341613770e-01 7.644467353820800781e+00 2.105844736099243164e+00 5.419429540634155273e-01
3.210000000000000000e+03 7.410307312011718750e+01 7.192433834075927734e+00 -7.647302746772766113e-02 7.495326995849609375e+00 2.225656270980834961e+00 -7.038257122039794922e-01
3.211000000000000000e+03 7.324238586425781250e+01 6.195080876350402832e-01 -4.894326329231262207e-01 3.973329305648803711e+00 1.045168995857238770e+00 -8.340677618980407715e-01
3.212000000000000000e+03 7.554666900634765625e+01 3.071743249893188477e+00 -4.102473556995391846e-01 6.864848613739013672e+00 1.936380267143249512e+00 -7.350613474845886230e-01
3.213000000000000000e+03 7.578826141357421875e+01 1.363547801971435547e+01 9.634253382682800293e-01 7.862886905670166016e+00 2.647893667221069336e+00 2.334801852703094482e-01
3.214000000000000000e+03 7.401041412353515625e+01 1.391597843170166016e+01 1.519156098365783691e+00 9.008635520935058594e+00 3.158337354660034180e+00 6.289681792259216309e-02
3.215000000000000000e+03 7.398769378662109375e+01 2.094630813598632812e+01 -9.342390298843383789e-01 6.953586101531982422e+00 1.805804133415222168e+00 -3.231508731842041016e-01
3.216000000000000000e+03 7.297330474853515625e+01 -3.026981544494628906e+01 6.873195767402648926e-01 5.210885524749755859e+00 1.769461631774902344e+00 1.000167965888977051e+00
3.217000000000000000e+03 7.329655456542968750e+01 3.176531600952148438e+01 3.755522370338439941e-01 5.852381706237792969e+00 1.868380188941955566e+00 2.083412855863571167e-01
3.218000000000000000e+03 7.326430511474609375e+01 -3.541151809692382812e+01 4.273991882801055908e-01 5.859375000000000000e+00 1.886032342910766602e+00 -6.632810831069946289e-01
3.219000000000000000e+03 2.009230613708496094e+01 2.862027883529663086e+00 2.132467478513717651e-01 2.607481718063354492e+00 8.462185263633728027e-01 3.056473493576049805e+00
3.220000000000000000e+03 2.118476867675781250e+01 3.896747112274169922e+00 4.384212791919708252e-01 2.880896806716918945e+00 9.957954287528991699e-01 2.367370843887329102e+00
3.221000000000000000e+03 7.396850585937500000e+01 3.050856018066406250e+01 4.389230608940124512e-01 6.010168552398681641e+00 1.934727549552917480e+00 5.879541859030723572e-02
3.222000000000000000e+03 4.334146118164062500e+01 -1.858976173400878906e+01 2.203021526336669922e+00 4.058012485504150391e+00 1.878310203552246094e+00 2.061282545328140259e-01
3.223000000000000000e+03 4.297084426879882812e+01 -2.028685188293457031e+01 2.800772190093994141e+00 4.751831531524658203e+00 2.265781164169311523e+00 1.677214056253433228e-01
3.224000000000000000e+03 5.791035652160644531e+00 -1.238280677795410156e+01 -8.559284806251525879e-01 4.706957817077636719e+00 1.155308842658996582e+00 1.653614163398742676e+00
3.225000000000000000e+03 6.834340572357177734e+00 -1.010639476776123047e+01 -8.331700563430786133e-01 3.449147224426269531e+00 7.847931385040283203e-01 2.481716394424438477e+00
3.226000000000000000e+03 7.263084411621093750e+01 7.517816543579101562e+00 -2.375677414238452911e-02 7.331124782562255859e+00 2.192210435867309570e+00 2.000187039375305176e-01
3.227000000000000000e+03 6.878909301757812500e+01 2.537985801696777344e+00 2.177578508853912354e-01 2.124130010604858398e+00 7.025663852691650391e-01 2.064211368560791016e+00
3.228000000000000000e+03 4.372248172760009766e+00 2.083133888244628906e+01 -8.376857042312622070e-01 4.610424518585205078e+00 1.131821632385253906e+00 -9.923726916313171387e-01
3.229000000000000000e+03 4.963397502899169922e+00 1.990636634826660156e+01 -1.029818296432495117e+00 4.747759819030761719e+00 1.115382432937622070e+00 -1.298323631286621094e+00
3.230000000000000000e+03 5.237194061279296875e+00 2.139247512817382812e+01 -1.375825762748718262e+00 5.295148372650146484e+00 1.175796747207641602e+00 -1.074019193649291992e+00
3.231000000000000000e+03 6.179298400878906250e+00 1.874357795715332031e+01 -8.387596607208251953e-01 4.456204414367675781e+00 1.085233449935913086e+00 -1.687550544738769531e+00
3.232000000000000000e+03 5.737967967987060547e+00 2.057391357421875000e+01 -1.217610120773315430e+00 4.817476749420166016e+00 1.079959988594055176e+00 -1.422221541404724121e+00
3.233000000000000000e+03 4.528866767883300781e+00 1.358886432647705078e+01 6.000423431396484375e-01 3.477385997772216797e+00 1.223228454589843750e+00 -1.309652805328369141e+00
3.234000000000000000e+03 5.725971698760986328e+00 1.382700252532958984e+01 7.693539857864379883e-01 4.440097332000732422e+00 1.562835454940795898e+00 -1.532055735588073730e+00
3.235000000000000000e+03 7.294403076171875000e+01 3.642367935180664062e+01 -9.174445271492004395e-02 6.175050258636474609e+00 1.824991703033447266e+00 3.911357223987579346e-01
3.236000000000000000e+03 7.068658447265625000e+01 3.463752365112304688e+01 9.312295913696289062e-02 5.679395198822021484e+00 1.731755375862121582e+00 5.282288193702697754e-01
3.237000000000000000e+03 6.799491882324218750e+00 1.062450122833251953e+01 1.091846346855163574e+00 5.520955085754394531e+00 1.983840465545654297e+00 -7.320293188095092773e-01
3.238000000000000000e+03 5.187762451171875000e+01 2.321609687805175781e+01 2.471191138029098511e-01 5.038891792297363281e+00 1.585803270339965820e+00 -1.269060492515563965e+00
3.239000000000000000e+03 4.320365905761718750e+00 1.014578342437744141e+01 3.882318437099456787e-01 2.856447219848632812e+00 9.734037518501281738e-01 -5.022068619728088379e-01
3.240000000000000000e+03 6.450314044952392578e+00 8.598189353942871094e+00 8.347756415605545044e-02 4.988632678985595703e+00 1.521633028984069824e+00 -5.471163988113403320e-01
3.241000000000000000e+03 1.984834861755371094e+01 1.651367664337158203e+00 1.588382720947265625e-01 2.131666183471679688e+00 6.871513724327087402e-01 2.667498111724853516e+00
3.242000000000000000e+03 1.866457939147949219e+01 1.899791955947875977e+00 6.987233757972717285e-01 2.887931823730468750e+00 1.075996518135070801e+00 3.156112194061279297e+00
3.243000000000000000e+03 5.669049453735351562e+01 6.169099807739257812e+00 2.573831975460052490e-01 6.403461456298828125e+00 1.998253345489501953e+00 -5.601197108626365662e-02
3.244000000000000000e+03 4.161895370483398438e+01 -1.733430099487304688e+01 8.703348040580749512e-01 3.226836204528808594e+00 1.229151248931884766e+00 -1.113640189170837402e+00
3.245000000000000000e+03 4.718464279174804688e+01 4.671997070312500000e+00 -2.784649133682250977e-01 2.449544429779052734e+00 6.513238549232482910e-01 -1.610010623931884766e+00
3.246000000000000000e+03 4.990381622314453125e+01 2.043135070800781250e+01 -4.377691745758056641e-01 2.577174663543701172e+00 6.418216824531555176e-01 -1.126758694648742676e+00
3.247000000000000000e+03 6.466227722167968750e+01 -1.481099605560302734e+01 -1.718162059783935547e+00 5.488273620605468750e+00 1.131033420562744141e+00 6.657763123512268066e-01
3.248000000000000000e+03 6.498817443847656250e+01 -1.261076831817626953e+01 -1.370969295501708984e+00 6.000885009765625000e+00 1.388974666595458984e+00 4.378150403499603271e-02
3.249000000000000000e+03 2.987446212768554688e+01 3.097553062438964844e+01 7.257432937622070312e-01 3.320686340332031250e+00 1.213928937911987305e+00 -1.573109984397888184e+00
3.250000000000000000e+03 2.780045127868652344e+01 3.162687492370605469e+01 8.832901120185852051e-01 2.199517726898193359e+00 9.248423576354980469e-01 -7.511704564094543457e-01
3.251000000000000000e+03 2.401847457885742188e+01 1.930174231529235840e+00 -3.547808825969696045e-01 1.117758989334106445e+00 2.288934439420700073e-01 2.967502772808074951e-01
3.252000000000000000e+03 6.055923843383789062e+01 -2.387905311584472656e+01 2.165856361389160156e+00 2.965091943740844727e+00 1.539284467697143555e+00 -2.003084570169448853e-01
3.253000000000000000e+03 5.369997024536132812e+01 2.191724395751953125e+01 -8.111217617988586426e-01 4.830759048461914062e+00 1.205891132354736328e+00 -2.408982515335083008e+00
3.254000000000000000e+03 4.585139846801757812e+01 -4.267878234386444092e-01 1.987048238515853882e-01 3.571457862854003906e+00 1.131048798561096191e+00 -2.462419509887695312e+00
3.255000000000000000e+03 5.324537658691406250e+01 2.289107322692871094e+01 -5.295041203498840332e-01 5.144423007965087891e+00 1.384475708007812500e+00 -1.918887615203857422e+00
3.256000000000000000e+03 5.209403228759765625e+01 2.460737800598144531e+01 8.709995746612548828e-01 5.638348102569580078e+00 1.952804207801818848e+00 -6.678561568260192871e-01
3.257000000000000000e+03 5.766128158569335938e+01 2.102432060241699219e+01 -2.804785370826721191e-01 2.642955541610717773e+00 7.087430357933044434e-01 -1.118778824806213379e+00
3.258000000000000000e+03 4.186269760131835938e+01 2.744583368301391602e+00 1.267968893051147461e+00 6.170291900634765625e+00 2.231478214263916016e+00 -7.113946080207824707e-01
3.259000000000000000e+03 1.677918624877929688e+01 3.237729310989379883e+00 8.046100735664367676e-01 2.806164503097534180e+00 1.083232402801513672e+00 3.587599277496337891e+00
3.260000000000000000e+03 6.090923690795898438e+01 -1.912353897094726562e+01 1.834764242172241211e+00 5.772816658020019531e+00 2.282274246215820312e+00 -5.390157699584960938e-01
3.261000000000000000e+03 6.021819686889648438e+01 -2.264359855651855469e+01 2.590369224548339844e+00 3.900354623794555664e+00 1.947217226028442383e+00 2.238928154110908508e-02
3.262000000000000000e+03 8.683647155761718750e+00 -2.616346359252929688e+01 -5.693836212158203125e-01 7.205693125724792480e-01 4.535569623112678528e-02 -5.013728979974985123e-03
3.263000000000000000e+03 3.474580001831054688e+01 -8.829013824462890625e+00 3.071684122085571289e+00 4.765641212463378906e+00 2.351197481155395508e+00 -4.682037532329559326e-01
3.264000000000000000e+03 4.812418746948242188e+01 2.081611633300781250e+01 -1.422051191329956055e-01 3.555284738540649414e+00 1.023923873901367188e+00 1.424836277961730957e+00
3.265000000000000000e+03 2.286565589904785156e+01 8.527175903320312500e+00 2.614474534988403320e+00 4.619755268096923828e+00 2.170269012451171875e+00 -3.140619099140167236e-01
3.266000000000000000e+03 2.063318443298339844e+01 -1.885182762145996094e+01 2.596233367919921875e+00 2.477818012237548828e+00 1.522215485572814941e+00 -2.003373861312866211e+00
3.267000000000000000e+03 5.599637222290039062e+01 -1.403453063964843750e+01 -5.851898789405822754e-01 4.530024051666259766e+00 1.183450222015380859e+00 -1.735086441040039062e+00
3.268000000000000000e+03 5.420574951171875000e+01 -1.408749103546142578e+01 -1.037630558013916016e+00 4.122420310974121094e+00 9.254369735717773438e-01 -2.810317277908325195e+00
3.269000000000000000e+03 4.865218353271484375e+01 2.740204048156738281e+01 2.357741117477416992e+00 6.884675502777099609e+00 2.772724866867065430e+00 1.310801982879638672e+00
3.270000000000000000e+03 2.550511932373046875e+01 4.679852962493896484e+00 1.242577433586120605e+00 3.293795108795166016e+00 1.360911846160888672e+00 -2.149039506912231445e-01
3.271000000000000000e+03 2.423323631286621094e+01 1.002421665191650391e+01 3.102988481521606445e+00 3.573621511459350586e+00 2.002983093261718750e+00 -8.185480833053588867e-01
3.272000000000000000e+03 3.096874427795410156e+01 3.265456008911132812e+01 9.686052054166793823e-02 4.505661487579345703e+00 1.380756616592407227e+00 -1.331500887870788574e+00
3.273000000000000000e+03 5.198543548583984375e+01 -1.153130435943603516e+01 7.989292144775390625e-01 4.385190010070800781e+00 1.555235743522644043e+00 -1.811930298805236816e+00
3.274000000000000000e+03 5.276249313354492188e+01 -1.386519432067871094e+01 -7.286533713340759277e-01 2.573216199874877930e+00 5.533688068389892578e-01 -2.730328559875488281e+00
3.275000000000000000e+03 2.646163368225097656e+01 3.287330627441406250e+01 7.666689753532409668e-01 2.448343276977539062e+00 9.645037055015563965e-01 3.858518227934837341e-02
3.276000000000000000e+03 4.370124435424804688e+01 -1.775278663635253906e+01 1.266589879989624023e+00 3.996698141098022461e+00 1.578986406326293945e+00 3.602924346923828125e-01
3.277000000000000000e+03 4.245741271972656250e+01 -1.615855979919433594e+01 -2.350136041641235352e-01 2.235919952392578125e+00 6.002719402313232422e-01 -4.868495464324951172e-01
3.278000000000000000e+03 5.044184494018554688e+01 2.595413017272949219e+01 2.159326076507568359e+00 5.797090530395507812e+00 2.386924982070922852e+00 5.445713996887207031e-01
3.279000000000000000e+03 4.815079498291015625e+01 3.821217060089111328e+00 -1.866482049226760864e-01 2.187102794647216797e+00 6.001363396644592285e-01 -1.263135194778442383e+00
3.280000000000000000e+03 4.912302780151367188e+01 3.176811933517456055e+00 -2.137961983680725098e-01 2.287035226821899414e+00 6.219717264175415039e-01 -8.213294148445129395e-01
3.281000000000000000e+03 5.049676895141601562e+01 -1.454037725925445557e-01 1.100425496697425842e-01 5.436170101165771484e+00 1.663863897323608398e+00 -4.150390326976776123e-01
3.282000000000000000e+03 2.397015762329101562e+01 3.314027786254882812e+00 3.575393557548522949e-01 1.946879863739013672e+00 6.913257837295532227e-01 5.594041347503662109e-01
3.283000000000000000e+03 2.887857627868652344e+01 -2.899956893920898438e+01 -9.991492629051208496e-01 5.969944953918457031e+00 1.491238713264465332e+00 -5.669839978218078613e-01
3.284000000000000000e+03 5.420931243896484375e+01 -3.025195312500000000e+01 1.962664961814880371e+00 6.660808563232421875e+00 2.587042093276977539e+00 9.245470166206359863e-01
3.285000000000000000e+03 6.023618698120117188e+01 3.835530996322631836e+00 -1.345080852508544922e+00 5.241015911102294922e+00 1.168780446052551270e+00 -2.253921270370483398e+00
3.286000000000000000e+03 7.049129486083984375e+00 2.001222991943359375e+01 -1.207501292228698730e+00 4.398161411285400391e+00 9.571980237960815430e-01 -1.639671802520751953e+00
3.287000000000000000e+03 6.205529403686523438e+01 -1.539976406097412109e+01 -1.213766694068908691e+00 6.736677646636962891e+00 1.656873226165771484e+00 5.523057579994201660e-01
3.288000000000000000e+03 5.384968280792236328e+00 1.190225315093994141e+01 9.851848483085632324e-01 3.911505937576293945e+00 1.469007253646850586e+00 -1.001075983047485352e+00
3.289000000000000000e+03 6.949347686767578125e+01 5.128456115722656250e+00 -1.223039329051971436e-01 2.920544385910034180e+00 8.394721150398254395e-01 2.000771760940551758e+00
3.290000000000000000e+03 7.236023712158203125e+01 5.995332717895507812e+00 -4.131858646869659424e-01 6.020208358764648438e+00 1.682106733322143555e+00 5.020252466201782227e-01
3.291000000000000000e+03 3.729745101928710938e+01 1.855511665344238281e+01 1.817181825637817383e+00 2.886780261993408203e+00 1.411188602447509766e+00 -2.034874916076660156e+00
3.292000000000000000e+03 7.438470458984375000e+01 4.752580076456069946e-02 -1.077083706855773926e+00 5.866765975952148438e+00 1.436904668807983398e+00 -1.029069185256958008e+00
3.293000000000000000e+03 3.566796493530273438e+01 -3.629297256469726562e+01 1.238416209816932678e-01 4.093619823455810547e+00 1.265238404273986816e+00 9.512560367584228516e-01
3.294000000000000000e+03 3.313572311401367188e+01 -7.763606548309326172e+00 3.003829002380371094e+00 5.246188163757324219e+00 2.475005149841308594e+00 -2.987858466804027557e-02
3.295000000000000000e+03 4.651695632934570312e+01 3.674532318115234375e+01 -1.249568462371826172e+00 4.523948192596435547e+00 9.823138713836669922e-01 -8.160372972488403320e-01
3.296000000000000000e+03 5.207315444946289062e+01 -1.302151679992675781e+01 -1.765814609825611115e-03 3.126221179962158203e+00 9.373366236686706543e-01 -2.342276334762573242e+00
3.297000000000000000e+03 2.790616989135742188e+01 -3.242919540405273438e+01 6.272868514060974121e-01 6.064075469970703125e+00 2.007408618927001953e+00 -8.545604348182678223e-01
3.298000000000000000e+03 2.858603668212890625e+01 -3.035413360595703125e+01 -3.260183334350585938e-01 5.686309814453125000e+00 1.608087420463562012e+00 -7.749318480491638184e-01
3.299000000000000000e+03 5.001448440551757812e+01 3.361963272094726562e+01 -7.804961502552032471e-02 6.108688354492187500e+00 1.809191584587097168e+00 -8.178062736988067627e-03
3.300000000000000000e+03 6.532067108154296875e+01 -1.351746082305908203e+01 -1.267302393913269043e+00 5.250242710113525391e+00 1.194882035255432129e+00 2.343886792659759521e-01
3.301000000000000000e+03 2.864344978332519531e+01 -3.511761474609375000e+01 8.097333312034606934e-01 5.044242858886718750e+00 1.756192922592163086e+00 -8.926819562911987305e-01
3.302000000000000000e+03 4.773438262939453125e+01 3.322780609130859375e+01 -2.599286437034606934e-01 5.876782894134521484e+00 1.685056209564208984e+00 -3.381476402282714844e-01
3.303000000000000000e+03 4.268555450439453125e+01 8.783059120178222656e+00 4.146889746189117432e-01 7.840154647827148438e+00 2.476453065872192383e+00 8.844907283782958984e-01
3.304000000000000000e+03 4.185136032104492188e+01 8.018383026123046875e+00 5.103994011878967285e-01 8.258128166198730469e+00 2.630558490753173828e+00 1.047795653343200684e+00
3.305000000000000000e+03 2.368732070922851562e+01 -1.634722328186035156e+01 5.616207718849182129e-01 8.446446061134338379e-01 4.218796193599700928e-01 -6.313858628273010254e-01
3.306000000000000000e+03 2.252676200866699219e+01 -1.701522064208984375e+01 1.472089290618896484e+00 1.139521360397338867e+00 7.834832072257995605e-01 -1.404757976531982422e+00
3.307000000000000000e+03 2.212568855285644531e+01 3.477350997924804688e+01 -6.246095895767211914e-01 4.867873191833496094e+00 1.272979140281677246e+00 5.104052424430847168e-01
3.308000000000000000e+03 3.447306442260742188e+01 -1.205843353271484375e+01 7.412313818931579590e-01 2.287511587142944336e+00 9.086229205131530762e-01 2.363553829491138458e-02
3.309000000000000000e+03 4.650797653198242188e+01 -1.993625760078430176e+00 -5.905554071068763733e-02 4.116474151611328125e+00 1.217225551605224609e+00 -2.104149818420410156e+00
3.310000000000000000e+03 4.722285079956054688e+01 -2.174670696258544922e+00 1.930223554372787476e-01 4.559404373168945312e+00 1.425727963447570801e+00 -2.004043340682983398e+00
3.311000000000000000e+03 4.959627914428710938e+01 3.593979263305664062e+01 -1.161370277404785156e+00 5.675761699676513672e+00 1.354317426681518555e+00 -2.221975922584533691e-01
3.312000000000000000e+03 5.134380340576171875e+01 2.529397010803222656e+01 1.426785111427307129e+00 5.909417629241943359e+00 2.200860738754272461e+00 -4.649666696786880493e-02
3.313000000000000000e+03 5.001758956909179688e+01 2.288202667236328125e+01 1.002660989761352539e+00 4.304465293884277344e+00 1.592137932777404785e+00 -4.954259395599365234e-01
3.314000000000000000e+03 2.440367317199707031e+01 3.520658111572265625e+01 -1.421549618244171143e-01 3.934665679931640625e+00 1.137753248214721680e+00 5.169687867164611816e-01
3.315000000000000000e+03 7.362693023681640625e+01 3.842170333862304688e+01 -2.171673625707626343e-01 6.296306133270263672e+00 1.823741674423217773e+00 2.545172572135925293e-01
3.316000000000000000e+03 5.674602508544921875e+01 1.684065055847167969e+01 1.311905145645141602e+00 6.148618221282958984e+00 2.238157033920288086e+00 -4.657874405384063721e-01
3.317000000000000000e+03 5.800919723510742188e+01 1.846248817443847656e+01 1.211195230484008789e+00 5.347327232360839844e+00 1.967556715011596680e+00 -1.080069169402122498e-01
3.318000000000000000e+03 2.599431610107421875e+01 -2.534857559204101562e+01 -4.182119369506835938e-01 6.365722179412841797e+00 1.784253120422363281e+00 -3.003576993942260742e-01
3.319000000000000000e+03 6.178200721740722656e+00 1.719552612304687500e+01 -3.315827548503875732e-01 4.403218269348144531e+00 1.221490621566772461e+00 -1.728582978248596191e+00
3.320000000000000000e+03 6.745590972900390625e+01 3.268710708618164062e+01 4.407763779163360596e-01 5.355472087860107422e+00 1.738874554634094238e+00 7.192009091377258301e-01
3.321000000000000000e+03 8.123380661010742188e+00 -3.317093658447265625e+01 1.194975495338439941e+00 3.461635351181030273e+00 1.396983265876770020e+00 7.833119034767150879e-01
3.322000000000000000e+03 4.863143539428710938e+01 2.501361465454101562e+01 2.220138549804687500e+00 6.403292655944824219e+00 2.587029457092285156e+00 1.059054374694824219e+00
3.323000000000000000e+03 4.863633346557617188e+01 2.373635864257812500e+01 1.763346433639526367e+00 5.462693691253662109e+00 2.167812108993530273e+00 7.891841530799865723e-01
3.324000000000000000e+03 6.473491668701171875e+01 2.262999343872070312e+01 -4.339891672134399414e-01 3.825551509857177734e+00 1.017468690872192383e+00 2.140103101730346680e+00
3.325000000000000000e+03 6.573770141601562500e+01 2.394458770751953125e+01 9.016890525817871094e-01 3.709990739822387695e+00 1.383503913879394531e+00 1.067985892295837402e+00
3.326000000000000000e+03 9.643415451049804688e+00 -2.709941387176513672e+00 1.386684417724609375e+00 7.549605369567871094e+00 2.680886983871459961e+00 2.401607513427734375e+00
3.327000000000000000e+03 8.917346000671386719e+00 -2.582560539245605469e+00 2.085883855819702148e+00 5.100729942321777344e+00 2.155984163284301758e+00 2.890660524368286133e+00
3.328000000000000000e+03 4.883864879608154297e+00 -2.474325180053710938e+00 7.650370001792907715e-01 2.644402980804443359e-01 3.088431954383850098e-01 2.986020147800445557e-01
3.329000000000000000e+03 8.479813575744628906e+00 -2.632594347000122070e+00 2.279082775115966797e+00 3.724755048751831055e+00 1.801151275634765625e+00 2.657006502151489258e+00
3.330000000000000000e+03 8.347639083862304688e+00 3.109473466873168945e+00 9.384962916374206543e-01 5.219284057617187500e+00 1.847334027290344238e+00 -4.168301105499267578e+00
3.331000000000000000e+03 7.551856517791748047e+00 -2.231646299362182617e+00 2.109311580657958984e+00 1.401963114738464355e+00 1.053382396697998047e+00 1.633152604103088379e+00
3.332000000000000000e+03 7.206837654113769531e+00 1.993307709693908691e+00 1.947608113288879395e+00 1.624423742294311523e+00 1.071609616279602051e+00 -2.403946399688720703e+00
3.333000000000000000e+03 6.083177566528320312e+00 -2.415438175201416016e+00 1.289119958877563477e+00 5.143032670021057129e-01 5.410269498825073242e-01 7.101774215698242188e-01
3.334000000000000000e+03 7.857560157775878906e+00 -2.466739892959594727e+00 2.244279384613037109e+00 2.089883565902709961e+00 1.300248861312866211e+00 2.019780635833740234e+00
3.335000000000000000e+03 6.586167812347412109e+00 -2.389694690704345703e+00 1.550060987472534180e+00 6.892592906951904297e-01 6.717960834503173828e-01 9.561886191368103027e-01
3.336000000000000000e+03 6.951878070831298828e+00 2.106812953948974609e+00 1.712280035018920898e+00 1.494452834129333496e+00 9.620198607444763184e-01 -2.177188873291015625e+00
3.337000000000000000e+03 6.372391223907470703e+00 -2.656484842300415039e+00 1.522531628608703613e+00 6.944504976272583008e-01 6.650946140289306641e-01 9.848140478134155273e-01
3.338000000000000000e+03 5.856695175170898438e+00 -2.949864387512207031e+00 1.350982427597045898e+00 6.308691501617431641e-01 5.945554971694946289e-01 8.875587582588195801e-01
3.339000000000000000e+03 7.194879055023193359e+00 -2.086692094802856445e+00 1.882711529731750488e+00 8.416605591773986816e-01 8.173116445541381836e-01 1.202897667884826660e+00
3.340000000000000000e+03 6.411435127258300781e+00 2.868886470794677734e+00 1.021881341934204102e+00 1.970398306846618652e+00 8.976838588714599609e-01 -1.967740416526794434e+00
3.341000000000000000e+03 8.376158714294433594e+00 -2.370016098022460938e+00 2.358277320861816406e+00 3.141950845718383789e+00 1.650068402290344238e+00 2.541256427764892578e+00
3.342000000000000000e+03 9.526860237121582031e+00 -3.018533706665039062e+00 1.396258234977722168e+00 7.010170459747314453e+00 2.521928548812866211e+00 2.259884834289550781e+00
3.343000000000000000e+03 1.188778972625732422e+01 1.046121001243591309e+00 6.220080852508544922e+00 9.565912246704101562e+00 4.735797882080078125e+00 8.712427616119384766e-01
3.344000000000000000e+03 1.498386573791503906e+01 -3.704238653182983398e+00 1.444536924362182617e+00 7.660562992095947266e+00 2.731529951095581055e+00 -1.740283608436584473e+00
3.345000000000000000e+03 1.253976440429687500e+01 -2.616281621158123016e-02 7.194795608520507812e+00 7.734311580657958984e+00 4.478732109069824219e+00 -1.102816343307495117e+00
3.346000000000000000e+03 1.030977535247802734e+01 -2.870868921279907227e+00 1.006544589996337891e+00 9.082612037658691406e+00 3.026746988296508789e+00 1.122847318649291992e+00
3.347000000000000000e+03 4.073825359344482422e+00 -2.594055414199829102e+00 5.554122924804687500e-01 1.969190984964370728e-01 2.256994098424911499e-01 1.751146316528320312e-01
3.348000000000000000e+03 3.664722919464111328e+00 2.598895788192749023e+00 2.739628255367279053e-01 4.205919206142425537e-01 2.083664238452911377e-01 -9.966471791267395020e-02
3.349000000000000000e+03 1.067857742309570312e+01 2.524469614028930664e+00 4.982366859912872314e-01 1.018953609466552734e+01 3.206331729888916016e+00 -2.338284730911254883e+00
3.350000000000000000e+03 1.462521648406982422e+01 -2.829628944396972656e+00 2.158593416213989258e+00 7.274882316589355469e+00 2.830042839050292969e+00 -1.819470882415771484e+00
3.351000000000000000e+03 1.136509132385253906e+01 2.366990327835083008e+00 1.387437582015991211e+00 1.006645107269287109e+01 3.436166763305664062e+00 -6.238090395927429199e-01
3.352000000000000000e+03 1.153736400604248047e+01 1.414057731628417969e+00 4.623986721038818359e+00 1.093550872802734375e+01 4.667848587036132812e+00 7.582409381866455078e-01
3.353000000000000000e+03 9.950763702392578125e+00 2.663151741027832031e+00 2.828059792518615723e-01 9.534695625305175781e+00 2.945250511169433594e+00 -3.985229969024658203e+00
3.354000000000000000e+03 2.778739452362060547e+00 -3.496727228164672852e+00 3.469612896442413330e-01 2.229007333517074585e-01 1.709586083889007568e-01 1.574073433876037598e-01
3.355000000000000000e+03 3.194903612136840820e+00 -3.403486251831054688e+00 4.487099945545196533e-01 2.432713508605957031e-01 2.075944095849990845e-01 2.010641694068908691e-01
3.356000000000000000e+03 5.713559150695800781e+00 2.733108282089233398e+00 8.628427386283874512e-01 1.297107100486755371e+00 6.479849815368652344e-01 -1.279130697250366211e+00
3.357000000000000000e+03 4.458629131317138672e+00 2.550460338592529297e+00 4.977603852748870850e-01 6.685993075370788574e-01 3.499079048633575439e-01 -4.125150144100189209e-01
3.358000000000000000e+03 2.187260389328002930e+00 -2.967451095581054688e+00 1.938091516494750977e-01 5.323247238993644714e-02 7.411248981952667236e-02 -1.884750276803970337e-02
3.359000000000000000e+03 2.016901254653930664e+00 -3.447207450866699219e+00 2.301631122827529907e-01 7.474922388792037964e-02 9.147369861602783203e-02 3.415162488818168640e-02
3.360000000000000000e+03 1.418816947937011719e+01 3.007820606231689453e+00 1.834677577018737793e+00 3.694411516189575195e+00 1.658726692199707031e+00 2.102310419082641602e+00
3.361000000000000000e+03 3.150609016418457031e+00 2.413362741470336914e+00 1.899800002574920654e-01 2.537882328033447266e-01 1.331304609775543213e-01 6.845526397228240967e-02
3.362000000000000000e+03 2.234843015670776367e+00 -4.590142250061035156e+00 3.171154856681823730e-01 3.573316037654876709e-01 2.023341208696365356e-01 3.308118581771850586e-01
3.363000000000000000e+03 3.094674587249755859e+00 -5.205671787261962891e+00 3.404022753238677979e-01 6.774922013282775879e-01 3.053683340549468994e-01 5.735179781913757324e-01
3.364000000000000000e+03 2.357516765594482422e+00 2.960913419723510742e+00 1.317165642976760864e-01 1.636997908353805542e-01 8.862490206956863403e-02 1.209650412201881409e-01
3.365000000000000000e+03 1.990665793418884277e+00 2.221204280853271484e+00 4.264507442712783813e-02 2.133662439882755280e-02 1.919450983405113220e-02 2.450605034828186035e-01
3.366000000000000000e+03 4.311734199523925781e+00 6.766601085662841797e+00 2.693307958543300629e-02 2.445626497268676758e+00 7.417678236961364746e-01 -5.278114676475524902e-01
3.367000000000000000e+03 1.678784370422363281e+01 6.713269948959350586e-01 2.049789190292358398e+00 3.494926452636718750e+00 1.663414716720581055e+00 2.106845378875732422e+00
3.368000000000000000e+03 4.448987483978271484e+00 -9.855277061462402344e+00 -5.845279693603515625e-01 3.018309831619262695e+00 7.301345467567443848e-01 1.324809074401855469e+00
3.369000000000000000e+03 1.442517948150634766e+01 -4.283205509185791016e+00 1.334907770156860352e+00 7.908033370971679688e+00 2.772882461547851562e+00 -2.167582511901855469e+00
3.370000000000000000e+03 1.734229803085327148e+00 2.508105754852294922e+00 5.056228861212730408e-02 -4.688085615634918213e-02 1.104429131373763084e-03 2.479894906282424927e-01
3.371000000000000000e+03 8.001525878906250000e+00 1.020682048797607422e+01 1.050079941749572754e+00 7.218276977539062500e+00 2.480507135391235352e+00 -5.956346988677978516e-01
3.372000000000000000e+03 8.680352210998535156e+00 6.735803127288818359e+00 -1.880095243453979492e+00 6.937837123870849609e+00 1.517322540283203125e+00 -1.807724237442016602e+00
3.373000000000000000e+03 8.606424331665039062e+00 7.482136249542236328e+00 -1.575417757034301758e+00 7.235994338989257812e+00 1.698172926902770996e+00 -1.396074414253234863e+00
3.374000000000000000e+03 1.295180702209472656e+01 -7.586144447326660156e+00 1.828672409057617188e+00 5.303771018981933594e+00 2.139733076095581055e+00 -1.479883670806884766e+00
3.375000000000000000e+03 1.252885055541992188e+01 -8.286932945251464844e+00 1.538062930107116699e+00 4.339210510253906250e+00 1.763182044029235840e+00 -7.438424229621887207e-01
3.376000000000000000e+03 3.608078956604003906e+00 -5.785415172576904297e+00 3.754064440727233887e-01 1.066186904907226562e+00 4.324780106544494629e-01 8.789722323417663574e-01
3.377000000000000000e+03 1.148053932189941406e+01 5.690180778503417969e+00 -3.066392183303833008e+00 5.498355865478515625e+00 7.295891046524047852e-01 -2.115009784698486328e+00
3.378000000000000000e+03 9.337016105651855469e+00 5.593117237091064453e+00 -2.356675863265991211e+00 7.045190334320068359e+00 1.406554341316223145e+00 -2.876243352890014648e+00
3.379000000000000000e+03 9.296520233154296875e+00 6.114793777465820312e+00 -2.395111083984375000e+00 7.022898197174072266e+00 1.388336181640625000e+00 -2.384334325790405273e+00
3.380000000000000000e+03 3.365064620971679688e+01 -1.143361473083496094e+01 1.176046967506408691e+00 3.237216711044311523e+00 1.323979139328002930e+00 5.474152565002441406e-01
3.381000000000000000e+03 1.468641757965087891e+01 -2.263840198516845703e+00 2.565035820007324219e+00 6.791157722473144531e+00 2.806858062744140625e+00 -1.457011222839355469e+00
3.382000000000000000e+03 1.490729141235351562e+01 3.320428371429443359e+00 1.338754773139953613e+00 2.936765432357788086e+00 1.282656073570251465e+00 2.599138736724853516e+00
3.383000000000000000e+03 5.173260879516601562e+01 -3.137233924865722656e+01 3.014823198318481445e+00 6.491160392761230469e+00 2.851795196533203125e+00 -6.005418300628662109e-01
3.384000000000000000e+03 6.186848449707031250e+01 2.781465530395507812e+00 -1.406641960144042969e+00 5.281205654144287109e+00 1.162369132041931152e+00 -1.857025623321533203e+00
3.385000000000000000e+03 7.311969757080078125e+00 8.973885536193847656e+00 1.194039508700370789e-01 6.112894535064697266e+00 1.869689583778381348e+00 -4.887768030166625977e-01
3.386000000000000000e+03 2.533296585083007812e+01 3.270172834396362305e+00 4.832984507083892822e-01 2.656078577041625977e+00 9.418131709098815918e-01 -3.343040347099304199e-01
3.387000000000000000e+03 5.035795211791992188e+00 -1.139434814453125000e+01 -9.552721977233886719e-01 3.912708044052124023e+00 8.872308135032653809e-01 1.347880601882934570e+00
3.388000000000000000e+03 4.821319580078125000e+01 -1.249735429883003235e-02 2.537168860435485840e-01 4.318794250488281250e+00 1.371753334999084473e+00 -1.815685033798217773e+00
3.389000000000000000e+03 4.417794418334960938e+01 3.915758728981018066e-01 4.060555696487426758e-01 3.397471904754638672e+00 1.141058206558227539e+00 -2.081208705902099609e+00
3.390000000000000000e+03 4.861172866821289062e+01 1.152635216712951660e+00 8.418565988540649414e-02 3.851928949356079102e+00 1.180834412574768066e+00 -1.545785307884216309e+00
3.391000000000000000e+03 2.838150787353515625e+01 -2.788364982604980469e+01 -1.379342079162597656e+00 6.474585056304931641e+00 1.528572916984558105e+00 -4.144998490810394287e-01
3.392000000000000000e+03 6.285161590576171875e+01 8.737607598304748535e-01 -8.803557753562927246e-01 5.997596263885498047e+00 1.535172104835510254e+00 -7.094336152076721191e-01
3.393000000000000000e+03 6.458403015136718750e+01 6.915310621261596680e-01 -3.444447815418243408e-01 5.286250114440917969e+00 1.482541561126708984e+00 5.749306082725524902e-01
3.394000000000000000e+03 7.536000823974609375e+01 -2.623833084106445312e+01 -7.444762587547302246e-01 8.368555068969726562e+00 2.287223577499389648e+00 1.490760147571563721e-01
3.395000000000000000e+03 4.914484500885009766e+00 7.992520809173583984e+00 2.767781727015972137e-02 3.301579952239990234e+00 9.987772703170776367e-01 -5.333661437034606934e-01
3.396000000000000000e+03 4.598587989807128906e+00 8.925211906433105469e+00 2.546377480030059814e-01 3.111544609069824219e+00 1.009854674339294434e+00 -4.382627308368682861e-01
3.397000000000000000e+03 2.013372611999511719e+01 3.864484071731567383e+00 5.573331564664840698e-02 3.025731325149536133e+00 9.244394302368164062e-01 3.051192760467529297e+00
3.398000000000000000e+03 2.581679344177246094e+00 4.895149707794189453e+00 1.309823542833328247e-01 5.890142321586608887e-01 2.159989774227142334e-01 -7.086038589477539062e-02
3.399000000000000000e+03 5.019028854370117188e+01 -5.175129413604736328e+00 1.463660001754760742e+00 7.786818981170654297e+00 2.775143623352050781e+00 4.045594632625579834e-01
3.400000000000000000e+03 2.234145355224609375e+01 -1.887051200866699219e+01 2.603703260421752930e+00 1.693618059158325195e+00 1.289196372032165527e+00 -1.714061260223388672e+00
3.401000000000000000e+03 1.299647235870361328e+01 -6.401745319366455078e+00 1.796438574790954590e+00 6.344867229461669922e+00 2.442391633987426758e+00 -1.742123246192932129e+00
3.402000000000000000e+03 8.915442466735839844e+00 -2.868358421325683594e+01 1.003256678581237793e+00 2.159820556640625000e+00 9.489231705665588379e-01 2.065523415803909302e-01
3.403000000000000000e+03 1.016980266571044922e+01 -2.884231758117675781e+01 1.067131757736206055e+00 2.523338794708251953e+00 1.077141165733337402e+00 7.646293640136718750e-01
3.404000000000000000e+03 2.408210563659667969e+01 4.723910808563232422e+00 1.529706478118896484e+00 2.930056095123291016e+00 1.337928771972656250e+00 4.486449956893920898e-01
3.405000000000000000e+03 7.090818786621093750e+01 -3.085234260559082031e+01 1.860803604125976562e+00 3.986371755599975586e+00 1.754152536392211914e+00 -2.996054291725158691e-02
3.406000000000000000e+03 4.367557144165039062e+01 -1.684569168090820312e+01 4.334606826305389404e-01 3.586844205856323242e+00 1.206091403961181641e+00 5.863560438156127930e-01
3.407000000000000000e+03 7.128701210021972656e+00 -2.587572479248046875e+01 -9.040198326110839844e-01 1.500850796699523926e+00 1.790492832660675049e-01 -8.509479165077209473e-01
3.408000000000000000e+03 4.236406326293945312e+01 1.411586761474609375e+00 4.629627168178558350e-01 4.529790878295898438e+00 1.497826099395751953e+00 -1.135711789131164551e+00
3.409000000000000000e+03 2.261238098144531250e+01 3.083320617675781250e+00 4.846802651882171631e-01 2.076698064804077148e+00 7.684134840965270996e-01 1.417428016662597656e+00
3.410000000000000000e+03 5.674654006958007812e+01 5.056644439697265625e+00 -4.819798171520233154e-01 5.955360412597656250e+00 1.642014145851135254e+00 -2.191715836524963379e-01
3.411000000000000000e+03 7.262625885009765625e+01 2.271925354003906250e+01 -6.166065335273742676e-01 5.945459842681884766e+00 1.598655939102172852e+00 -9.259755015373229980e-01
3.412000000000000000e+03 3.989710998535156250e+01 1.511205863952636719e+01 1.627440810203552246e+00 4.159489154815673828e+00 1.736079096794128418e+00 -1.432557940483093262e+00
3.413000000000000000e+03 3.994170379638671875e+01 1.810270118713378906e+01 1.691747665405273438e+00 2.585954427719116211e+00 1.283310651779174805e+00 -1.185675144195556641e+00
3.414000000000000000e+03 5.736580657958984375e+01 2.206127166748046875e+01 -1.103407502174377441e+00 1.766136646270751953e+00 1.988187581300735474e-01 -1.945851325988769531e+00
3.415000000000000000e+03 1.457153797149658203e+01 -9.990763664245605469e+00 1.453477025032043457e+00 6.463296890258789062e+00 2.375032186508178711e+00 -1.900340676307678223e+00
3.416000000000000000e+03 6.219526672363281250e+01 -2.321191978454589844e+01 2.777329444885253906e+00 4.813156127929687500e+00 2.277145624160766602e+00 -1.234201908111572266e+00
3.417000000000000000e+03 6.509759426116943359e+00 -3.003720664978027344e+01 9.841490983963012695e-01 2.781756877899169922e+00 1.129771709442138672e+00 -2.979899644851684570e-01
3.418000000000000000e+03 4.438700866699218750e+01 -1.040029525756835938e+00 -1.474151611328125000e-01 2.881715774536132812e+00 8.202902078628540039e-01 -2.157678842544555664e+00
3.419000000000000000e+03 4.553235626220703125e+01 3.423413276672363281e+00 4.048753976821899414e-01 3.816730499267578125e+00 1.266481757164001465e+00 -1.961584210395812988e+00
3.420000000000000000e+03 5.693946075439453125e+01 8.248868942260742188e+00 1.215048789978027344e+00 7.564185142517089844e+00 2.633770227432250977e+00 3.236939013004302979e-01
3.421000000000000000e+03 4.507302761077880859e+00 -9.031000137329101562e+00 -3.532993793487548828e-01 2.592890739440917969e+00 6.718773841857910156e-01 1.474213123321533203e+00
3.422000000000000000e+03 4.367378234863281250e+01 1.834658503532409668e+00 6.329919695854187012e-01 4.233019351959228516e+00 1.459803342819213867e+00 -1.846622824668884277e+00
3.423000000000000000e+03 2.653696060180664062e+01 -2.429161262512207031e+01 9.539844393730163574e-01 6.887873172760009766e+00 2.352557182312011719e+00 -3.140229284763336182e-01
3.424000000000000000e+03 2.552325057983398438e+01 -2.389809036254882812e+01 1.054122090339660645e+00 5.577073097229003906e+00 1.989358544349670410e+00 -5.800377726554870605e-01
3.425000000000000000e+03 1.520756626129150391e+01 2.473555803298950195e+00 2.201133489608764648e+00 3.204290866851806641e+00 1.621627330780029297e+00 2.570635080337524414e+00
3.426000000000000000e+03 3.199764442443847656e+01 -3.201414108276367188e+00 1.608681082725524902e+00 4.774488449096679688e+00 1.914950847625732422e+00 -9.822859168052673340e-01
3.427000000000000000e+03 7.055413818359375000e+01 2.605841875076293945e+00 2.932109236717224121e-01 2.519055843353271484e+00 8.436800241470336914e-01 1.357806921005249023e+00
3.428000000000000000e+03 7.265103912353515625e+01 2.424386024475097656e+00 -7.160407304763793945e-02 4.000131130218505859e+00 1.178558111190795898e+00 -1.553363865241408348e-03
3.429000000000000000e+03 7.028776550292968750e+01 -3.248261260986328125e+01 1.740050911903381348e+00 4.773890018463134766e+00 1.954182386398315430e+00 -9.117267727851867676e-01
3.430000000000000000e+03 7.376924133300781250e+01 -3.226499938964843750e+01 6.117969155311584473e-01 5.826716899871826172e+00 1.931554079055786133e+00 2.291474640369415283e-01
3.431000000000000000e+03 6.121446132659912109e+00 -3.433092117309570312e+01 6.900616884231567383e-01 3.663194179534912109e+00 1.305976748466491699e+00 5.483131408691406250e-01
3.432000000000000000e+03 8.393058776855468750e+00 -3.152573013305664062e+01 1.517607569694519043e+00 2.991733312606811523e+00 1.352802276611328125e+00 4.688314795494079590e-01
3.433000000000000000e+03 7.442413330078125000e+01 2.421405982971191406e+01 -1.869769394397735596e-01 6.400474548339843750e+00 1.864049196243286133e+00 -6.179159283638000488e-01
3.434000000000000000e+03 7.432480621337890625e+01 2.562341690063476562e+01 7.081927359104156494e-02 6.103387355804443359e+00 1.852262020111083984e+00 -5.182470679283142090e-01
3.435000000000000000e+03 2.401668357849121094e+01 8.697293281555175781e+00 2.989829778671264648e+00 3.944041013717651367e+00 2.080161094665527344e+00 -5.287178158760070801e-01
3.436000000000000000e+03 2.546499443054199219e+01 9.916559219360351562e+00 3.125663757324218750e+00 3.252960920333862305e+00 1.913587450981140137e+00 -5.278156399726867676e-01
3.437000000000000000e+03 6.868132019042968750e+01 2.768861579895019531e+01 1.619740247726440430e+00 4.568285465240478516e+00 1.856407761573791504e+00 2.657048404216766357e-01
3.438000000000000000e+03 7.245566558837890625e+01 2.619778633117675781e+01 4.073060750961303711e-01 5.428253173828125000e+00 1.750667691230773926e+00 -6.383181214332580566e-01
3.439000000000000000e+03 7.414329528808593750e+01 4.579114437103271484e+00 -3.857124447822570801e-01 6.328043937683105469e+00 1.782699465751647949e+00 -4.394988119602203369e-01
3.440000000000000000e+03 5.540074539184570312e+01 1.996520042419433594e+01 -4.694517254829406738e-01 4.236211299896240234e+00 1.130027890205383301e+00 -2.461043119430541992e+00
3.441000000000000000e+03 5.219224929809570312e+01 2.227999305725097656e+01 -1.779130101203918457e-01 4.810120105743408203e+00 1.389662146568298340e+00 -1.843156933784484863e+00
3.442000000000000000e+03 1.182286262512207031e+01 -1.041721248626708984e+01 -1.482732146978378296e-01 1.721563577651977539e+00 4.719871282577514648e-01 5.646067857742309570e-01
3.443000000000000000e+03 5.752945709228515625e+01 -1.712712478637695312e+01 7.361172437667846680e-01 6.453036308288574219e+00 2.156746149063110352e+00 -1.194169446825981140e-01
3.444000000000000000e+03 6.782222747802734375e+01 2.372628593444824219e+01 8.589183092117309570e-01 2.897074222564697266e+00 1.126797795295715332e+00 -5.373602509498596191e-01
3.445000000000000000e+03 2.276983642578125000e+01 6.789735794067382812e+00 2.112593412399291992e+00 3.936689138412475586e+00 1.814784765243530273e+00 3.712018728256225586e-01
3.446000000000000000e+03 2.209700393676757812e+01 -2.286751937866210938e+01 1.490780234336853027e+00 2.210711240768432617e+00 1.110447406768798828e+00 -1.762358427047729492e+00
3.447000000000000000e+03 2.022543334960937500e+01 -2.245104026794433594e+01 1.528156638145446777e+00 2.032255887985229492e+00 1.068123698234558105e+00 -1.375922441482543945e+00
3.448000000000000000e+03 6.474575805664062500e+01 3.511899709701538086e+00 -7.788884043693542480e-01 3.230855226516723633e+00 7.355900406837463379e-01 -1.812219917774200439e-01
3.449000000000000000e+03 4.333199310302734375e+01 5.810109138488769531e+00 7.627899646759033203e-01 5.951488494873046875e+00 2.014283418655395508e+00 -2.506280839443206787e-01
3.450000000000000000e+03 7.193115234375000000e+00 1.897162055969238281e+01 -9.969350099563598633e-01 4.386713504791259766e+00 1.016933560371398926e+00 -1.596848964691162109e+00
3.451000000000000000e+03 6.074439239501953125e+01 -2.084022140502929688e+01 2.624061822891235352e+00 5.108024597167968750e+00 2.319625854492187500e+00 -5.855004787445068359e-01
3.452000000000000000e+03 5.721340179443359375e+01 1.762936782836914062e+01 1.192605614662170410e+00 5.398372173309326172e+00 1.977293252944946289e+00 -4.647516608238220215e-01
3.453000000000000000e+03 7.391226196289062500e+01 1.229323863983154297e+01 1.496737360954284668e+00 9.706974983215332031e+00 3.361113786697387695e+00 -1.049472615122795105e-01
3.454000000000000000e+03 3.507644653320312500e+01 1.688550758361816406e+01 2.312192201614379883e+00 3.421281099319458008e+00 1.720041990280151367e+00 -1.230849623680114746e+00
3.455000000000000000e+03 3.613504409790039062e+01 1.567224216461181641e+01 1.665146350860595703e+00 2.315414905548095703e+00 1.194168329238891602e+00 -1.909980416297912598e+00
3.456000000000000000e+03 6.010140609741210938e+01 5.339893817901611328e+00 -8.817211389541625977e-01 5.171858310699462891e+00 1.287041187286376953e+00 -2.009846210479736328e+00
3.457000000000000000e+03 4.946817398071289062e+00 6.994321823120117188e+00 -1.047325357794761658e-01 3.124661445617675781e+00 9.059786796569824219e-01 -6.299332976341247559e-01
3.458000000000000000e+03 3.326137161254882812e+01 -4.143234252929687500e+00 2.037311077117919922e+00 4.618758201599121094e+00 1.996820807456970215e+00 -3.622940480709075928e-01
3.459000000000000000e+03 7.221423339843750000e+01 3.266501617431640625e+01 3.982955515384674072e-01 5.776710033416748047e+00 1.852501630783081055e+00 3.749643266201019287e-01
3.460000000000000000e+03 7.203066253662109375e+01 3.115456771850585938e+01 5.538256168365478516e-01 5.582020282745361328e+00 1.840753793716430664e+00 2.509047091007232666e-01
3.461000000000000000e+03 4.959936523437500000e+01 2.679823684692382812e+01 2.201244592666625977e+00 6.561350822448730469e+00 2.628778457641601562e+00 9.415717124938964844e-01
3.462000000000000000e+03 7.141863250732421875e+01 5.308633804321289062e+00 -3.975783288478851318e-01 4.693409919738769531e+00 1.288749575614929199e+00 1.199282765388488770e+00
3.463000000000000000e+03 6.969392395019531250e+01 3.466147184371948242e+00 1.823810338973999023e-01 2.535641193389892578e+00 8.154066801071166992e-01 1.857109904289245605e+00
3.464000000000000000e+03 3.886571884155273438e+01 1.532883548736572266e+01 1.443596363067626953e+00 3.257914066314697266e+00 1.410453081130981445e+00 -1.888098716735839844e+00
3.465000000000000000e+03 7.534340858459472656e+00 -1.088902282714843750e+01 -1.285879135131835938e+00 3.537258148193359375e+00 6.754136681556701660e-01 2.699890375137329102e+00
3.466000000000000000e+03 1.106195926666259766e+01 -9.773255348205566406e+00 5.349534749984741211e-01 2.171504974365234375e+00 8.119375705718994141e-01 1.081790804862976074e+00
3.467000000000000000e+03 7.641684055328369141e+00 -9.619183540344238281e+00 -5.628343224525451660e-01 3.078826904296875000e+00 7.547977566719055176e-01 2.654756307601928711e+00
3.468000000000000000e+03 5.105007553100585938e+01 -1.090813350677490234e+01 1.509382724761962891e+00 5.324287414550781250e+00 2.050101041793823242e+00 -9.533571004867553711e-01
3.469000000000000000e+03 5.236503219604492188e+01 -3.233005142211914062e+01 3.167553186416625977e+00 7.063049316406250000e+00 3.069180727005004883e+00 -2.674667835235595703e-01
3.470000000000000000e+03 7.342430877685546875e+01 2.190037345886230469e+01 -9.509727954864501953e-01 6.606800556182861328e+00 1.696748256683349609e+00 -7.474806904792785645e-01
3.471000000000000000e+03 5.840010452270507812e+01 -1.353061199188232422e+01 -2.730249762535095215e-01 4.317132472991943359e+00 1.213232278823852539e+00 3.669708967208862305e-01
3.472000000000000000e+03 5.585229396820068359e+00 1.044874000549316406e+01 7.147010564804077148e-01 4.020974636077880859e+00 1.420702695846557617e+00 -6.464710235595703125e-01
3.473000000000000000e+03 6.806001281738281250e+01 2.580759429931640625e+01 1.734713554382324219e+00 3.864783763885498047e+00 1.679849267005920410e+00 -3.788480907678604126e-02
3.474000000000000000e+03 4.436931610107421875e+01 5.017663955688476562e+00 4.431140124797821045e-01 4.897228717803955078e+00 1.602102875709533691e+00 -1.061042547225952148e+00
3.475000000000000000e+03 2.512367439270019531e+01 -1.687052917480468750e+01 6.670641899108886719e-01 2.349901676177978516e+00 9.050897359848022461e-01 -1.425452250987291336e-02
3.476000000000000000e+03 2.803587532043457031e+01 -3.144847297668457031e+01 3.729515373706817627e-01 5.816306591033935547e+00 1.856777429580688477e+00 -9.579676389694213867e-01
3.477000000000000000e+03 4.790037155151367188e+01 3.432736206054687500e+01 -8.102508187294006348e-01 5.631014823913574219e+00 1.446229219436645508e+00 -3.698073327541351318e-01
3.478000000000000000e+03 5.900170516967773438e+01 -2.312343978881835938e+01 2.071811676025390625e+00 4.298621654510498047e+00 1.911129951477050781e+00 7.385612726211547852e-01
3.479000000000000000e+03 8.264618873596191406e+00 -1.024701404571533203e+01 -8.011922836303710938e-01 2.912510871887207031e+00 6.333955526351928711e-01 2.969887495040893555e+00
3.480000000000000000e+03 5.838120651245117188e+01 -1.874159622192382812e+01 1.742443323135375977e+00 6.290631771087646484e+00 2.409922599792480469e+00 8.983608335256576538e-02
3.481000000000000000e+03 2.479913139343261719e+01 -1.604516410827636719e+01 -1.692503392696380615e-01 1.538756847381591797e+00 4.108519554138183594e-01 1.445626616477966309e-01
3.482000000000000000e+03 2.472937202453613281e+01 -2.256095314025878906e+01 1.879603505134582520e+00 4.382564544677734375e+00 1.878650426864624023e+00 -9.370039105415344238e-01
3.483000000000000000e+03 4.091447067260742188e+01 1.504306221008300781e+01 1.517951965332031250e+00 5.236643314361572266e+00 2.026378631591796875e+00 -8.703676462173461914e-01
3.484000000000000000e+03 7.199526977539062500e+01 2.363332366943359375e+01 -4.108675420284271240e-01 5.396124362945556641e+00 1.495577096939086914e+00 -1.102779388427734375e+00
3.485000000000000000e+03 2.460084915161132812e+01 1.128262615203857422e+01 2.338127136230468750e+00 3.326910734176635742e+00 1.699511408805847168e+00 -9.574863910675048828e-01
3.486000000000000000e+03 2.821212577819824219e+01 -3.360548019409179688e+01 9.599814414978027344e-01 5.422737121582031250e+00 1.914815664291381836e+00 -7.647261023521423340e-01
3.487000000000000000e+03 3.162619590759277344e+01 -3.651444244384765625e+01 3.965157866477966309e-01 4.035523414611816406e+00 1.329611778259277344e+00 -3.202482163906097412e-01
3.488000000000000000e+03 2.685933685302734375e+01 3.516732025146484375e+01 1.702334880828857422e-01 3.391062498092651367e+00 1.068388819694519043e+00 -1.341567635536193848e-01
3.489000000000000000e+03 3.296390914916992188e+01 3.269172668457031250e+01 -1.791394352912902832e-01 5.895780563354492188e+00 1.714992284774780273e+00 -1.000574946403503418e+00
3.490000000000000000e+03 3.190878677368164062e+01 3.387942123413085938e+01 -4.354695975780487061e-01 5.021757602691650391e+00 1.375886440277099609e+00 -1.126094937324523926e+00
3.491000000000000000e+03 6.696713256835937500e+01 2.311589622497558594e+01 3.919635415077209473e-01 2.129141569137573242e+00 7.563315033912658691e-01 1.000264585018157959e-01
3.492000000000000000e+03 1.966255760192871094e+01 -1.970228767395019531e+01 2.532777309417724609e+00 3.299918889999389648e+00 1.749808788299560547e+00 -1.523388147354125977e+00
3.493000000000000000e+03 6.182013034820556641e+00 1.127255725860595703e+01 1.183652997016906738e+00 4.890407562255859375e+00 1.822218179702758789e+00 -7.889964580535888672e-01
3.494000000000000000e+03 5.730584716796875000e+01 -1.318383312225341797e+01 -2.982825636863708496e-01 3.890493154525756836e+00 1.077663183212280273e+00 -7.528937458992004395e-01
3.495000000000000000e+03 5.863851928710937500e+01 5.777409553527832031e+00 -4.327408075332641602e-01 5.601754665374755859e+00 1.550704121589660645e+00 -1.192686319351196289e+00
3.496000000000000000e+03 5.756702804565429688e+01 6.630850791931152344e+00 3.317031860351562500e-01 6.326806545257568359e+00 1.997552871704101562e+00 -5.182425379753112793e-01
3.497000000000000000e+03 2.326155090332031250e+01 -1.807806205749511719e+01 2.073563098907470703e+00 1.642901420593261719e+00 1.114939332008361816e+00 -1.188455104827880859e+00
3.498000000000000000e+03 2.491948509216308594e+01 -1.838481140136718750e+01 1.954207420349121094e+00 2.910397291183471680e+00 1.459381461143493652e+00 -6.736900210380554199e-01
3.499000000000000000e+03 6.973375701904296875e+01 1.868678808212280273e+00 3.250369727611541748e-01 1.864828228950500488e+00 6.569595932960510254e-01 2.029317378997802734e+00
3.500000000000000000e+03 6.696037292480468750e+01 3.154628372192382812e+01 8.869010806083679199e-01 5.317838191986083984e+00 1.861421823501586914e+00 9.512590765953063965e-01
3.501000000000000000e+03 6.774806976318359375e+01 2.948669242858886719e+01 1.455531716346740723e+00 4.929570198059082031e+00 1.915530681610107422e+00 8.978714346885681152e-01
3.502000000000000000e+03 6.255587005615234375e+01 -1.675893402099609375e+01 -4.740639626979827881e-01 6.671836853027343750e+00 1.859331846237182617e+00 4.911018535494804382e-02
3.503000000000000000e+03 8.711961746215820312e+00 -3.005364227294921875e+01 1.402777910232543945e+00 2.727183103561401367e+00 1.238988280296325684e+00 3.537753820419311523e-01
3.504000000000000000e+03 6.142255020141601562e+01 -1.400648403167724609e+01 -1.227854728698730469e+00 6.525414466857910156e+00 1.589267849922180176e+00 1.164023160934448242e+00
3.505000000000000000e+03 5.027259063720703125e+01 -1.173157882690429688e+01 8.811967968940734863e-01 5.561428070068359375e+00 1.932787418365478516e+00 -7.376485466957092285e-01
3.506000000000000000e+03 6.010531997680664062e+01 -1.815243148803710938e+01 1.240705370903015137e+00 6.026777267456054688e+00 2.180244684219360352e+00 4.035127535462379456e-02
3.507000000000000000e+03 5.416799926757812500e+01 1.986382675170898438e+01 -5.375450253486633301e-01 4.544828891754150391e+00 1.202185273170471191e+00 -2.565964221954345703e+00
3.508000000000000000e+03 7.859362602233886719e+00 -2.691790199279785156e+01 -2.955432282760739326e-03 1.463824033737182617e+00 4.382605850696563721e-01 -4.745309948921203613e-01
3.509000000000000000e+03 7.719365119934082031e+00 -2.919831848144531250e+01 9.954456090927124023e-01 2.261648893356323242e+00 9.771283864974975586e-01 -1.491580754518508911e-01
3.510000000000000000e+03 4.978149795532226562e+01 2.391282463073730469e+01 1.533898234367370605e+00 5.284815311431884766e+00 2.045614242553710938e+00 9.919344633817672729e-02
3.511000000000000000e+03 7.325260925292968750e+01 6.583075523376464844e+00 -4.438974559307098389e-01 7.055329799652099609e+00 1.983429670333862305e+00 -1.182703003287315369e-01
3.512000000000000000e+03 6.338667678833007812e+01 3.820424318313598633e+00 -9.966842532157897949e-01 3.996424198150634766e+00 8.999220132827758789e-01 -1.264778733253479004e+00
3.513000000000000000e+03 5.790434265136718750e+01 1.703408241271972656e+01 1.723304271697998047e+00 6.165892124176025391e+00 2.366758823394775391e+00 3.040518760681152344e-01
3.514000000000000000e+03 6.067741775512695312e+01 -1.596325206756591797e+01 -2.402017265558242798e-01 6.275045871734619141e+00 1.810453295707702637e+00 5.071842074394226074e-01
3.515000000000000000e+03 5.483559036254882812e+01 3.978214263916015625e+01 -1.136277079582214355e+00 3.898717641830444336e+00 8.287321329116821289e-01 6.637572646141052246e-01
3.516000000000000000e+03 6.219500732421875000e+01 1.811410546302795410e+00 -1.385085701942443848e+00 5.809566974639892578e+00 1.327344417572021484e+00 -1.356465220451354980e+00
3.517000000000000000e+03 4.672183990478515625e+01 -4.079858362674713135e-01 2.612633407115936279e-01 3.983332872390747070e+00 1.273378849029541016e+00 -2.330563068389892578e+00
3.518000000000000000e+03 5.117975616455078125e+01 2.205049514770507812e+01 7.547161728143692017e-02 4.202901840209960938e+00 1.283511996269226074e+00 -1.403943777084350586e+00
3.519000000000000000e+03 5.102873992919921875e+01 2.300589752197265625e+01 6.131427884101867676e-01 4.930544376373291016e+00 1.663106203079223633e+00 -9.913920164108276367e-01
3.520000000000000000e+03 2.497576713562011719e+01 -2.144441795349121094e+01 2.326248168945312500e+00 4.018033981323242188e+00 1.903284788131713867e+00 -1.007023096084594727e+00
3.521000000000000000e+03 2.395629882812500000e+01 -1.902667808532714844e+01 2.521368026733398438e+00 2.441067934036254883e+00 1.488730788230895996e+00 -1.158940434455871582e+00
3.522000000000000000e+03 4.008444976806640625e+01 1.704899787902832031e+01 1.977266192436218262e+00 3.303292274475097656e+00 1.584167599678039551e+00 -1.320908188819885254e+00
3.523000000000000000e+03 1.119536495208740234e+01 -8.337727546691894531e+00 1.120859384536743164e+00 3.490132093429565430e+00 1.383297443389892578e+00 5.867379903793334961e-01
3.524000000000000000e+03 8.305909156799316406e+00 -2.868598461151123047e+00 2.125285625457763672e+00 3.407771825790405273e+00 1.659917235374450684e+00 2.470010519027709961e+00
3.525000000000000000e+03 6.136510372161865234e+00 3.042330503463745117e+00 8.979600071907043457e-01 1.887755632400512695e+00 8.357146978378295898e-01 -1.743806123733520508e+00
3.526000000000000000e+03 6.986404895782470703e+00 -2.383501291275024414e+00 1.785845041275024414e+00 9.418613910675048828e-01 8.183119297027587891e-01 1.248361587524414062e+00
3.527000000000000000e+03 7.120323181152343750e+00 2.911088228225708008e+00 1.236314773559570312e+00 2.737061977386474609e+00 1.192013025283813477e+00 -2.770758152008056641e+00
3.528000000000000000e+03 6.843719482421875000e+00 -2.605483770370483398e+00 1.776659369468688965e+00 9.785363674163818359e-01 8.265587091445922852e-01 1.277512550354003906e+00
3.529000000000000000e+03 8.049908638000488281e+00 -2.805606365203857422e+00 2.179533481597900391e+00 2.843364238739013672e+00 1.506869316101074219e+00 2.313542842864990234e+00
3.530000000000000000e+03 1.186045932769775391e+01 -7.779254913330078125e+00 1.378960847854614258e+00 4.285367012023925781e+00 1.699298381805419922e+00 -2.911610007286071777e-01
3.531000000000000000e+03 9.877075195312500000e+00 -3.147969961166381836e+00 1.141538619995117188e+00 7.633577823638916016e+00 2.632534980773925781e+00 1.812575221061706543e+00
3.532000000000000000e+03 8.344325065612792969e+00 2.327965736389160156e+00 2.195564031600952148e+00 4.319325923919677734e+00 1.954466938972473145e+00 -4.379366397857666016e+00
3.533000000000000000e+03 8.712794303894042969e+00 6.084847450256347656e+00 -2.128749847412109375e+00 6.841301441192626953e+00 1.413765549659729004e+00 -2.383786916732788086e+00
3.534000000000000000e+03 1.189657211303710938e+01 -1.783272624015808105e+00 3.471150875091552734e+00 1.047223949432373047e+01 4.183017253875732422e+00 -2.735484838485717773e+00
3.535000000000000000e+03 1.401674747467041016e+01 -4.104607552289962769e-02 4.740890502929687500e+00 5.570261478424072266e+00 3.093345642089843750e+00 -1.064131036400794983e-01
3.536000000000000000e+03 1.029945373535156250e+01 -2.535143375396728516e+00 1.068376541137695312e+00 1.010462951660156250e+01 3.351902008056640625e+00 1.227756023406982422e+00
3.537000000000000000e+03 1.082505512237548828e+01 -2.356370210647583008e+00 1.269761085510253906e+00 1.111500930786132812e+01 3.715431213378906250e+00 -2.140777260065078735e-01
3.538000000000000000e+03 1.287697315216064453e+01 -5.915098190307617188e+00 1.600138783454895020e+00 6.881920337677001953e+00 2.544617891311645508e+00 -1.908249974250793457e+00
3.539000000000000000e+03 1.316455841064453125e+01 -5.120920658111572266e+00 1.413957834243774414e+00 7.599338054656982422e+00 2.703988790512084961e+00 -2.103958606719970703e+00
3.540000000000000000e+03 1.124067592620849609e+01 -2.646521091461181641e+00 1.412696361541748047e+00 1.031150627136230469e+01 3.517260789871215820e+00 -9.679228663444519043e-01
3.541000000000000000e+03 1.282139873504638672e+01 -6.116306185722351074e-01 5.886686801910400391e+00 7.714549541473388672e+00 4.080370903015136719e+00 -1.865429520606994629e+00
3.542000000000000000e+03 4.922042369842529297e+00 2.726405620574951172e+00 6.063830852508544922e-01 9.266954064369201660e-01 4.599235653877258301e-01 -7.549130320549011230e-01
3.543000000000000000e+03 1.017997074127197266e+01 2.554704904556274414e+00 4.119142591953277588e-01 1.004289817810058594e+01 3.136443614959716797e+00 -3.578298330307006836e+00
3.544000000000000000e+03 4.024012565612792969e+00 -2.964575529098510742e+00 6.074832081794738770e-01 2.859431505203247070e-01 2.680279016494750977e-01 2.443927079439163208e-01
3.545000000000000000e+03 3.084249258041381836e+00 -2.991443634033203125e+00 3.793324530124664307e-01 1.741847246885299683e-01 1.660551577806472778e-01 9.411859512329101562e-02
3.546000000000000000e+03 2.879034757614135742e+00 -4.633191585540771484e+00 4.487264454364776611e-01 4.811341762542724609e-01 2.789581716060638428e-01 4.642522633075714111e-01
3.547000000000000000e+03 1.202348804473876953e+01 3.677179336547851562e+00 -1.879173666238784790e-01 6.877948284149169922e+00 2.007009267807006836e+00 -6.161876916885375977e-01
3.548000000000000000e+03 1.208731937408447266e+01 -1.452211141586303711e+00 4.329575538635253906e+00 1.007699012756347656e+01 4.321969985961914062e+00 -2.964197635650634766e+00
3.549000000000000000e+03 1.145953273773193359e+01 -2.331588506698608398e+00 1.797248125076293945e+00 1.077521228790283203e+01 3.771738052368164062e+00 -1.548180222511291504e+00
3.550000000000000000e+03 2.987966299057006836e+00 3.171929836273193359e+00 2.258451581001281738e-01 3.729552030563354492e-01 1.796401143074035645e-01 1.857637055218219757e-02
3.551000000000000000e+03 3.972550868988037109e+00 2.837515830993652344e+00 3.706031143665313721e-01 6.285072565078735352e-01 2.997331023216247559e-01 -2.658220827579498291e-01
3.552000000000000000e+03 1.229437541961669922e+01 1.296063303947448730e+00 5.199518203735351562e+00 8.299377441406250000e+00 4.049668312072753906e+00 1.039076209068298340e+00
3.553000000000000000e+03 5.441692352294921875e+00 2.878056287765502930e+00 7.388966679573059082e-01 1.255444645881652832e+00 5.983024239540100098e-01 -1.114364504814147949e+00
3.554000000000000000e+03 1.227763366699218750e+01 1.727172732353210449e+00 3.822516441345214844e+00 8.286057472229003906e+00 3.632572412490844727e+00 9.227420091629028320e-01
3.555000000000000000e+03 1.263428497314453125e+01 2.155988693237304688e+00 3.054010629653930664e+00 6.959783554077148438e+00 3.004138231277465820e+00 9.200528860092163086e-01
3.556000000000000000e+03 2.574102878570556641e+00 -4.039306640625000000e+00 3.628216683864593506e-01 3.274934887886047363e-01 2.070945501327514648e-01 3.038880228996276855e-01
3.557000000000000000e+03 5.731591701507568359e+00 -2.373827457427978516e+00 1.147763252258300781e+00 3.349680006504058838e-01 4.448193907737731934e-01 5.330824255943298340e-01
3.558000000000000000e+03 8.853426933288574219e+00 2.639712810516357422e+00 1.312616705894470215e+00 6.266642093658447266e+00 2.273777484893798828e+00 -4.728918075561523438e+00
3.559000000000000000e+03 5.179558277130126953e+00 -2.627077817916870117e+00 9.508633613586425781e-01 3.333168029785156250e-01 3.852540552616119385e-01 4.816229939460754395e-01
3.560000000000000000e+03 7.992009162902832031e+00 2.659568548202514648e+00 1.692777276039123535e+00 3.904855966567993164e+00 1.679289937019348145e+00 -3.883470058441162109e+00
3.561000000000000000e+03 7.962030887603759766e+00 3.086585998535156250e+00 1.015399813652038574e+00 4.343966007232666016e+00 1.607809782028198242e+00 -3.798540830612182617e+00
3.562000000000000000e+03 2.384745121002197266e+00 -3.707295894622802734e+00 2.269113659858703613e-01 1.767377108335494995e-01 1.210947185754776001e-01 1.079738214612007141e-01
3.563000000000000000e+03 1.273958206176757812e+01 7.719770669937133789e-01 5.982761859893798828e+00 7.076802730560302734e+00 3.917869329452514648e+00 4.462777376174926758e-01
3.564000000000000000e+03 1.375012207031250000e+01 2.122860670089721680e+00 3.160949707031250000e+00 4.852532863616943359e+00 2.404044628143310547e+00 1.652619957923889160e+00
3.565000000000000000e+03 3.447476625442504883e+00 2.901949644088745117e+00 2.800549268722534180e-01 4.369844198226928711e-01 2.151118069887161255e-01 -5.743469670414924622e-02
3.566000000000000000e+03 4.265616893768310547e+00 -6.168188571929931641e+00 4.652136266231536865e-01 1.356497406959533691e+00 5.465133190155029297e-01 1.193030953407287598e+00
3.567000000000000000e+03 7.385058879852294922e+00 -2.886687755584716797e+00 2.009523153305053711e+00 1.655546784400939941e+00 1.099521040916442871e+00 1.782431244850158691e+00
3.568000000000000000e+03 1.554009437561035156e+01 5.471270680427551270e-01 3.147809743881225586e+00 4.117432117462158203e+00 2.179572582244873047e+00 1.408745884895324707e+00
3.569000000000000000e+03 1.502479362487792969e+01 -1.585451513528823853e-02 3.652047157287597656e+00 4.718816280364990234e+00 2.511258840560913086e+00 6.114922761917114258e-01
3.570000000000000000e+03 4.728545188903808594e+00 -8.374767303466796875e+00 -1.313723176717758179e-01 2.394506931304931641e+00 6.789404153823852539e-01 1.533589363098144531e+00
3.571000000000000000e+03 3.882481575012207031e+00 5.892867088317871094e+00 8.480802923440933228e-02 1.785108804702758789e+00 5.609750747680664062e-01 -4.500225782394409180e-01
3.572000000000000000e+03 1.313338184356689453e+01 -2.720700204372406006e-01 5.708724975585937500e+00 6.684243679046630859e+00 3.717890739440917969e+00 -9.836018085479736328e-01
3.573000000000000000e+03 1.524427795410156250e+01 -1.533666133880615234e+00 2.638554096221923828e+00 5.931207180023193359e+00 2.570928335189819336e+00 -5.399678945541381836e-01
3.574000000000000000e+03 4.179455757141113281e+00 -5.697093009948730469e+00 5.368870496749877930e-01 1.191622138023376465e+00 5.185527801513671875e-01 1.098167657852172852e+00
3.575000000000000000e+03 4.455715656280517578e+00 -7.446250438690185547e+00 1.306941956281661987e-01 1.914825558662414551e+00 6.136559247970581055e-01 1.398564219474792480e+00
3.576000000000000000e+03 1.232920265197753906e+01 -1.923961520195007324e+00 3.387832403182983398e+00 9.369715690612792969e+00 3.827264547348022461e+00 -2.642089605331420898e+00
3.577000000000000000e+03 1.719503784179687500e+01 2.644544124603271484e+00 1.154332995414733887e+00 2.905415534973144531e+00 1.217924594879150391e+00 3.441760301589965820e+00
3.578000000000000000e+03 1.603115653991699219e+01 2.790975809097290039e+00 1.650732159614562988e+00 2.873667001724243164e+00 1.357319712638854980e+00 3.215171098709106445e+00
3.579000000000000000e+03 1.303931522369384766e+01 -6.966643810272216797e+00 1.732032179832458496e+00 6.137633800506591797e+00 2.360899686813354492e+00 -1.712463140487670898e+00
3.580000000000000000e+03 3.245102167129516602e+00 5.465940952301025391e+00 9.356451779603958130e-02 1.136189937591552734e+00 3.689263164997100830e-01 -2.685529887676239014e-01
3.581000000000000000e+03 5.916237354278564453e+00 -1.067329692840576172e+01 -9.692131280899047852e-01 3.832911729812622070e+00 8.591096401214599609e-01 1.968333125114440918e+00
3.582000000000000000e+03 6.345211505889892578e+00 -8.408188819885253906e+00 -1.355025768280029297e-01 2.838704586029052734e+00 8.109605908393859863e-01 2.141295909881591797e+00
3.583000000000000000e+03 1.383197307586669922e+01 3.697559118270874023e+00 8.863453269004821777e-01 3.008062362670898438e+00 1.168322324752807617e+00 1.502352595329284668e+00
3.584000000000000000e+03 1.269630813598632812e+01 2.803504943847656250e+00 1.634080886840820312e+00 6.525869846343994141e+00 2.447985172271728516e+00 6.164090633392333984e-01
3.585000000000000000e+03 9.939992904663085938e+00 4.943126678466796875e+00 -2.043341875076293945e+00 7.303259372711181641e+00 1.577975273132324219e+00 -2.977448940277099609e+00
3.586000000000000000e+03 9.374300003051757812e+00 5.052926540374755859e+00 -1.779309391975402832e+00 7.035741329193115234e+00 1.576929569244384766e+00 -3.120768070220947266e+00
3.587000000000000000e+03 7.109502315521240234e+00 9.860754013061523438e+00 7.801116108894348145e-01 5.680327415466308594e+00 1.938131690025329590e+00 -5.672177076339721680e-01
3.588000000000000000e+03 3.786972427368164062e+01 1.743904495239257812e+01 2.009254932403564453e+00 2.587024450302124023e+00 1.378883838653564453e+00 -1.988624691963195801e+00
3.589000000000000000e+03 1.387890052795410156e+01 -3.818670749664306641e+00 1.572043895721435547e+00 8.003331184387207031e+00 2.872612476348876953e+00 -2.165518045425415039e+00
3.590000000000000000e+03 2.273034095764160156e+00 3.571919918060302734e+00 1.656111925840377808e-01 2.361166924238204956e-01 1.205183714628219604e-01 7.487651705741882324e-02
3.591000000000000000e+03 6.577554321289062500e+01 2.292081832885742188e+00 -2.633940875530242920e-01 3.247437715530395508e+00 8.952131271362304688e-01 9.568693637847900391e-01
3.592000000000000000e+03 1.163683319091796875e+01 -5.400933742523193359e+00 1.180394887924194336e+00 6.633783817291259766e+00 2.344253540039062500e+00 -5.883660316467285156e-01
3.593000000000000000e+03 1.240465354919433594e+01 -7.231036663055419922e+00 1.640787005424499512e+00 5.175687313079833984e+00 2.044942140579223633e+00 -9.045028686523437500e-01
3.594000000000000000e+03 5.814123153686523438e+01 -1.467456245422363281e+01 -4.048266410827636719e-01 5.377399444580078125e+00 1.491771817207336426e+00 -1.213824599981307983e-01
3.595000000000000000e+03 6.248731231689453125e+01 -1.319678497314453125e+01 -1.652338743209838867e+00 6.988305091857910156e+00 1.600789904594421387e+00 1.014111638069152832e+00
3.596000000000000000e+03 5.846655368804931641e+00 9.213993072509765625e+00 3.116113543510437012e-01 4.388300895690917969e+00 1.409973621368408203e+00 -5.251838564872741699e-01
3.597000000000000000e+03 5.294773578643798828e+00 8.566756248474121094e+00 1.440208405256271362e-01 3.749886274337768555e+00 1.168172121047973633e+00 -4.965839982032775879e-01
3.598000000000000000e+03 2.051272773742675781e+01 -2.065340232849121094e+01 2.547230243682861328e+00 2.362080335617065430e+00 1.472793221473693848e+00 -1.765806198120117188e+00
3.599000000000000000e+03 2.343549346923828125e+01 -2.248856353759765625e+01 1.795544624328613281e+00 2.920704364776611328e+00 1.414874672889709473e+00 -1.499473690986633301e+00
3.600000000000000000e+03 1.946638107299804688e+01 -2.148878288269042969e+01 2.058320283889770508e+00 2.983771800994873047e+00 1.512627601623535156e+00 -1.249752998352050781e+00
3.601000000000000000e+03 1.913216972351074219e+01 -2.309627723693847656e+01 7.405905127525329590e-01 2.128891229629516602e+00 8.608444929122924805e-01 -4.302451312541961670e-01
3.602000000000000000e+03 1.384429931640625000e+01 1.575547695159912109e+00 3.904787540435791016e+00 4.976726531982421875e+00 2.664454221725463867e+00 1.411313891410827637e+00
3.603000000000000000e+03 6.946768951416015625e+01 2.341041755676269531e+01 9.862656891345977783e-02 3.736203908920288086e+00 1.150449156761169434e+00 -1.348361730575561523e+00
3.604000000000000000e+03 6.029413604736328125e+01 -1.464159679412841797e+01 -8.751643896102905273e-01 6.153266429901123047e+00 1.583430647850036621e+00 8.312993645668029785e-01
3.605000000000000000e+03 1.020798969268798828e+01 -9.338816642761230469e+00 4.623437225818634033e-01 2.258461952209472656e+00 8.162416815757751465e-01 1.629536986351013184e+00
3.606000000000000000e+03 8.304136276245117188e+00 -9.108328819274902344e+00 -1.233252063393592834e-01 2.925779342651367188e+00 8.407362699508666992e-01 2.688422203063964844e+00
3.607000000000000000e+03 4.724204254150390625e+01 1.521923661231994629e+00 2.403456568717956543e-01 3.506531715393066406e+00 1.124063134193420410e+00 -2.173901557922363281e+00
3.608000000000000000e+03 4.695478057861328125e+01 4.494237601757049561e-01 2.328833192586898804e-01 3.715042352676391602e+00 1.184377670288085938e+00 -2.276477813720703125e+00
3.609000000000000000e+03 2.146840286254882812e+01 -1.977161407470703125e+01 2.719041824340820312e+00 1.920370340347290039e+00 1.391823649406433105e+00 -1.752380013465881348e+00
3.610000000000000000e+03 3.915541076660156250e+01 1.619870948791503906e+01 1.987259030342102051e+00 3.144896745681762695e+00 1.539646744728088379e+00 -1.800323724746704102e+00
3.611000000000000000e+03 4.403227233886718750e+01 3.624156236648559570e+00 8.128143548965454102e-01 4.702260494232177734e+00 1.654522538185119629e+00 -1.509415030479431152e+00
3.612000000000000000e+03 5.704016494750976562e+01 -1.435335254669189453e+01 -2.767660319805145264e-01 4.666366577148437500e+00 1.316880226135253906e+00 -8.255538940429687500e-01
3.613000000000000000e+03 6.748577880859375000e+01 2.700766181945800781e+01 1.816104292869567871e+00 4.228024482727050781e+00 1.813238739967346191e+00 6.010242700576782227e-01
3.614000000000000000e+03 7.057354736328125000e+01 3.102192115783691406e+01 8.043764829635620117e-01 5.276760578155517578e+00 1.824341177940368652e+00 3.817577064037322998e-01
3.615000000000000000e+03 3.320881271362304688e+01 -3.391770935058593750e+01 1.250891208648681641e+00 2.820149183273315430e+00 1.221312046051025391e+00 -2.380519509315490723e-01
3.616000000000000000e+03 3.255505371093750000e+01 -3.201044845581054688e+01 1.121436357498168945e+00 2.227965116500854492e+00 1.004820346832275391e+00 -9.002176523208618164e-01
3.617000000000000000e+03 7.444519805908203125e+01 2.935242843627929688e+01 3.637633919715881348e-01 6.027479171752929688e+00 1.917372822761535645e+00 -1.452885121107101440e-01
3.618000000000000000e+03 7.211138153076171875e+01 2.966086959838867188e+01 7.341710925102233887e-01 5.425230503082275391e+00 1.847820520401000977e+00 1.558168791234493256e-02
3.619000000000000000e+03 5.665444946289062500e+01 2.049604415893554688e+01 -5.731754004955291748e-02 3.430233240127563477e+00 1.011874675750732422e+00 -1.796349883079528809e+00
3.620000000000000000e+03 7.245101165771484375e+01 2.507415199279785156e+01 1.318953633308410645e-01 5.322885036468505859e+00 1.636434197425842285e+00 -8.014179468154907227e-01
3.621000000000000000e+03 7.049401855468750000e+01 2.414707565307617188e+01 9.308300912380218506e-02 4.369742393493652344e+00 1.338847517967224121e+00 -1.127034664154052734e+00
3.622000000000000000e+03 7.096340179443359375e+00 1.644730758666992188e+01 -8.366715162992477417e-02 5.054833889007568359e+00 1.491350054740905762e+00 -1.529244542121887207e+00
3.623000000000000000e+03 6.306764125823974609e+00 9.955689430236816406e+00 6.300513148307800293e-01 4.953966140747070312e+00 1.675205230712890625e+00 -4.940571784973144531e-01
3.624000000000000000e+03 4.974451065063476562e+01 2.370682954788208008e+00 -1.203429847955703735e-01 2.991144895553588867e+00 8.612406253814697266e-01 -3.710670769214630127e-01
3.625000000000000000e+03 4.871308135986328125e+01 2.300378084182739258e+00 -7.375416159629821777e-02 3.012008666992187500e+00 8.814763426780700684e-01 -1.176535844802856445e+00
3.626000000000000000e+03 2.361136817932128906e+01 -2.360755157470703125e+01 1.020954966545104980e+00 3.589763402938842773e+00 1.383215546607971191e+00 -1.371494412422180176e+00
3.627000000000000000e+03 2.589336013793945312e+01 6.093881130218505859e+00 2.478996515274047852e+00 3.944601058959960938e+00 1.927079200744628906e+00 -2.741602957248687744e-01
3.628000000000000000e+03 5.922896575927734375e+01 -2.017114639282226562e+01 2.551332473754882812e+00 5.527078151702880859e+00 2.423523187637329102e+00 1.705769747495651245e-01
3.629000000000000000e+03 6.012308883666992188e+01 -1.982819938659667969e+01 2.387774467468261719e+00 5.273521900177001953e+00 2.298388719558715820e+00 -1.550292968750000000e-01
3.630000000000000000e+03 6.932037353515625000e+01 2.655850791931152344e+01 1.275526285171508789e+00 4.097622394561767578e+00 1.611944556236267090e+00 -2.278445959091186523e-01
3.631000000000000000e+03 5.925353240966796875e+01 -1.489263248443603516e+01 -4.222552776336669922e-01 5.630443096160888672e+00 1.562456250190734863e+00 4.958027005195617676e-01
3.632000000000000000e+03 5.789379119873046875e+01 -1.588616657257080078e+01 9.844006970524787903e-03 5.756983280181884766e+00 1.730048179626464844e+00 -2.888887189328670502e-02
3.633000000000000000e+03 6.340586471557617188e+01 -1.389051532745361328e+01 -1.650996565818786621e+00 6.567764759063720703e+00 1.475030541419982910e+00 9.247387647628784180e-01
3.634000000000000000e+03 6.120734786987304688e+01 -1.730188941955566406e+01 3.623932898044586182e-01 6.327481746673583984e+00 2.006962537765502930e+00 -5.492093414068222046e-02
3.635000000000000000e+03 5.062968444824218750e+01 2.442848014831542969e+01 1.467455863952636719e+00 5.181797027587890625e+00 1.994775891304016113e+00 -1.385748982429504395e-01
3.636000000000000000e+03 6.952663898468017578e+00 -2.788157844543457031e+01 3.971502184867858887e-01 2.134611845016479492e+00 7.595286369323730469e-01 -6.234079599380493164e-01
3.637000000000000000e+03 7.293610382080078125e+01 2.764484596252441406e+01 5.829820632934570312e-01 5.529278755187988281e+00 1.833678245544433594e+00 -3.634357154369354248e-01
3.638000000000000000e+03 7.233489990234375000e+01 -3.158608245849609375e+01 1.159514427185058594e+00 4.735281944274902344e+00 1.768438935279846191e+00 2.385955154895782471e-01
3.639000000000000000e+03 7.395639801025390625e+01 -3.642078018188476562e+01 9.105814993381500244e-02 6.377789020538330078e+00 1.940654158592224121e+00 -4.896826744079589844e-01
3.640000000000000000e+03 7.322104644775390625e+01 -3.350864410400390625e+01 7.254140377044677734e-01 5.587491512298583984e+00 1.893871665000915527e+00 -1.039493978023529053e-01
3.641000000000000000e+03 2.141429519653320312e+01 -2.167499542236328125e+01 2.254640102386474609e+00 1.933444857597351074e+00 1.256425499916076660e+00 -1.700209975242614746e+00
3.642000000000000000e+03 2.410083198547363281e+01 -2.004616355895996094e+01 2.514805316925048828e+00 2.678476333618164062e+00 1.557984471321105957e+00 -1.235658407211303711e+00
3.643000000000000000e+03 5.680716323852539062e+01 3.917579650878906250e+00 -8.246679306030273438e-01 4.576075553894042969e+00 1.125422239303588867e+00 -1.647356301546096802e-01
3.644000000000000000e+03 6.712280273437500000e+01 3.401618194580078125e+01 -3.885035589337348938e-02 5.402357101440429688e+00 1.609051942825317383e+00 7.294729948043823242e-01
3.645000000000000000e+03 4.561611175537109375e+01 5.931466221809387207e-01 2.916042208671569824e-01 3.575817584991455078e+00 1.160226583480834961e+00 -2.455344438552856445e+00
3.646000000000000000e+03 4.590393447875976562e+01 1.860275864601135254e+00 4.314159452915191650e-01 3.495404720306396484e+00 1.178046226501464844e+00 -2.337985038757324219e+00
3.647000000000000000e+03 3.396583175659179688e+01 3.075919342041015625e+01 6.867073774337768555e-01 7.722106933593750000e+00 2.522644281387329102e+00 -4.870395958423614502e-01
3.648000000000000000e+03 7.262769317626953125e+01 3.443094253540039062e+01 1.121022105216979980e-01 5.884632587432861328e+00 1.799020409584045410e+00 4.215704798698425293e-01
3.649000000000000000e+03 2.988755226135253906e+01 3.714717483520507812e+01 -7.145147919654846191e-01 4.118628978729248047e+00 1.021234273910522461e+00 -3.468393087387084961e-01
3.650000000000000000e+03 2.911971473693847656e+01 3.487594985961914062e+01 -9.106974117457866669e-03 3.774995326995849609e+00 1.129766464233398438e+00 -7.506879568099975586e-01
3.651000000000000000e+03 7.058587646484375000e+01 2.735891342163085938e+01 1.083873391151428223e+00 4.856544017791748047e+00 1.782125234603881836e+00 -2.870177626609802246e-01
3.652000000000000000e+03 3.180803680419921875e+01 -3.335792922973632812e+01 1.123718976974487305e+00 2.969979047775268555e+00 1.228109359741210938e+00 -6.712344288825988770e-01
3.653000000000000000e+03 2.888742828369140625e+01 -3.201330566406250000e+01 6.176037192344665527e-01 5.086326122283935547e+00 1.711179018020629883e+00 -7.717787623405456543e-01
3.654000000000000000e+03 4.741091918945312500e+01 4.125400924682617188e+01 -1.469096422195434570e+00 4.510870933532714844e+00 9.125324487686157227e-01 -2.168702334165573120e-01
3.655000000000000000e+03 4.765746688842773438e+01 3.564873504638671875e+01 -1.137267947196960449e+00 5.111454963684082031e+00 1.192256212234497070e+00 -6.360433101654052734e-01
3.656000000000000000e+03 4.757543563842773438e+01 2.707300186157226562e+00 1.231452748179435730e-01 3.071863412857055664e+00 9.585026502609252930e-01 -1.870177268981933594e+00
3.657000000000000000e+03 4.642542266845703125e+01 3.004936218261718750e+00 2.657529413700103760e-01 3.291177988052368164e+00 1.067079305648803711e+00 -2.088590860366821289e+00
3.658000000000000000e+03 9.063501358032226562e+00 -3.249626398086547852e+00 1.602858185768127441e+00 5.432101726531982422e+00 2.110487937927246094e+00 2.414020061492919922e+00
3.659000000000000000e+03 7.517148494720458984e+00 -2.621005058288574219e+00 2.081875085830688477e+00 1.690848946571350098e+00 1.131817221641540527e+00 1.781634926795959473e+00
3.660000000000000000e+03 7.182171344757080078e+00 -3.379504680633544922e+00 1.840756535530090332e+00 1.857841730117797852e+00 1.109579443931579590e+00 1.827201366424560547e+00
3.661000000000000000e+03 7.247833251953125000e+00 -2.488342046737670898e+00 1.957733869552612305e+00 1.217888236045837402e+00 9.526866674423217773e-01 1.506899237632751465e+00
3.662000000000000000e+03 9.353419303894042969e+00 -3.859352588653564453e+00 1.292506694793701172e+00 5.786428928375244141e+00 2.123680591583251953e+00 1.987682938575744629e+00
3.663000000000000000e+03 1.200787925720214844e+01 -5.848731517791748047e+00 1.429685354232788086e+00 6.207654953002929688e+00 2.291202068328857422e+00 -9.969043731689453125e-01
3.664000000000000000e+03 4.720102310180664062e+00 -3.207007646560668945e+00 8.945047855377197266e-01 4.244209825992584229e-01 3.956777155399322510e-01 5.198670029640197754e-01
3.665000000000000000e+03 1.028775596618652344e+01 -3.248914241790771484e+00 9.943301081657409668e-01 8.406357765197753906e+00 2.820206165313720703e+00 1.080904006958007812e+00
3.666000000000000000e+03 1.441395568847656250e+01 2.320079326629638672e+00 2.729555606842041016e+00 3.967538595199584961e+00 2.009128332138061523e+00 2.020992517471313477e+00
3.667000000000000000e+03 1.406819248199462891e+01 -8.037411570549011230e-01 4.275739669799804688e+00 6.059318065643310547e+00 3.100517272949218750e+00 -9.070654511451721191e-01
3.668000000000000000e+03 4.552495479583740234e+00 3.680691242218017578e+00 4.070619940757751465e-01 1.309457182884216309e+00 5.149557590484619141e-01 -6.780382394790649414e-01
3.669000000000000000e+03 5.180480480194091797e+00 2.875073432922363281e+00 6.790867447853088379e-01 1.139104247093200684e+00 5.454573035240173340e-01 -9.128248095512390137e-01
3.670000000000000000e+03 4.351109504699707031e+00 -3.147076129913330078e+00 7.745339870452880859e-01 3.630702793598175049e-01 3.412812948226928711e-01 4.301668107509613037e-01
3.671000000000000000e+03 3.721840858459472656e+00 -3.697679996490478516e+00 6.324598193168640137e-01 4.014966487884521484e-01 3.101869523525238037e-01 4.189136028289794922e-01
3.672000000000000000e+03 1.098295211791992188e+01 -3.046845436096191406e+00 1.042254567146301270e+00 9.627055168151855469e+00 3.200793027877807617e+00 -1.844955384731292725e-01
3.673000000000000000e+03 4.120225906372070312e+00 -3.530045747756958008e+00 7.376106977462768555e-01 4.547920227050781250e-01 3.577208220958709717e-01 4.779089093208312988e-01
3.674000000000000000e+03 3.361930608749389648e+00 3.222765922546386719e+00 2.267495542764663696e-01 5.634462833404541016e-01 2.370587587356567383e-01 -1.049260422587394714e-01
3.675000000000000000e+03 9.676056861877441406e+00 3.288375377655029297e+00 -1.909362524747848511e-01 8.231125831604003906e+00 2.412056922912597656e+00 -3.990100383758544922e+00
3.676000000000000000e+03 1.454027366638183594e+01 -1.713610649108886719e+00 3.188826799392700195e+00 6.438255310058593750e+00 2.888124465942382812e+00 -1.399371504783630371e+00
3.677000000000000000e+03 6.619513511657714844e+00 3.230362176895141602e+00 9.186713099479675293e-01 2.506221771240234375e+00 1.027467966079711914e+00 -2.316391706466674805e+00
3.678000000000000000e+03 1.260067844390869141e+01 -2.153774023056030273e+00 3.054625988006591797e+00 8.989602088928222656e+00 3.613268375396728516e+00 -2.598688840866088867e+00
3.679000000000000000e+03 1.246755695343017578e+01 -1.659718036651611328e+00 4.044472694396972656e+00 9.090694427490234375e+00 3.940550088882446289e+00 -2.800682783126831055e+00
3.680000000000000000e+03 1.043653011322021484e+01 3.102155923843383789e+00 -3.195615708827972412e-01 9.349526405334472656e+00 2.708989381790161133e+00 -2.977414131164550781e+00
3.681000000000000000e+03 1.178731632232666016e+01 2.808845043182373047e+00 9.565652608871459961e-01 8.513485908508300781e+00 2.841015338897705078e+00 -2.853698134422302246e-01
3.682000000000000000e+03 2.907703638076782227e+00 3.714602708816528320e+00 2.026721984148025513e-01 4.652039706707000732e-01 2.003628462553024292e-01 -4.319921880960464478e-02
3.683000000000000000e+03 1.120168113708496094e+01 4.597509860992431641e+00 -1.977298617362976074e+00 6.878932952880859375e+00 1.470490336418151855e+00 -2.330849647521972656e+00
3.684000000000000000e+03 7.581894397735595703e+00 3.123579502105712891e+00 1.088591694831848145e+00 3.717899799346923828e+00 1.441947460174560547e+00 -3.385789394378662109e+00
3.685000000000000000e+03 1.048164081573486328e+01 3.899893999099731445e+00 -1.216844558715820312e+00 8.164813995361328125e+00 2.084390878677368164e+00 -2.866808176040649414e+00
3.686000000000000000e+03 1.239500713348388672e+01 2.418908834457397461e+00 2.142635583877563477e+00 7.537932395935058594e+00 2.904170513153076172e+00 5.523961186408996582e-01
3.687000000000000000e+03 1.238776397705078125e+01 4.123596191406250000e+00 -6.197891831398010254e-01 5.764930725097656250e+00 1.543542504310607910e+00 -4.897376298904418945e-01
3.688000000000000000e+03 1.275078296661376953e+01 1.292422533035278320e+00 4.955950260162353516e+00 6.993513107299804688e+00 3.584838867187500000e+00 9.177846312522888184e-01
3.689000000000000000e+03 1.319717788696289062e+01 1.914701342582702637e+00 3.627796411514282227e+00 5.830885410308837891e+00 2.837604522705078125e+00 1.218515276908874512e+00
3.690000000000000000e+03 4.336251258850097656e+00 3.015274047851562500e+00 4.328240454196929932e-01 8.352588415145874023e-01 3.804248571395874023e-01 -4.747081696987152100e-01
3.691000000000000000e+03 4.169522285461425781e+00 4.006195545196533203e+00 3.084758818149566650e-01 1.222399592399597168e+00 4.592626392841339111e-01 -5.425096750259399414e-01
3.692000000000000000e+03 1.241881465911865234e+01 -6.267080307006835938e+00 1.525190353393554688e+00 6.203375339508056641e+00 2.318569660186767578e+00 -1.228602409362792969e+00
3.693000000000000000e+03 3.023910999298095703e+00 -4.302750110626220703e+00 4.937856495380401611e-01 4.187911450862884521e-01 2.737730443477630615e-01 4.181695878505706787e-01
3.694000000000000000e+03 3.654001712799072266e+00 -4.072177410125732422e+00 6.030489802360534668e-01 4.522975385189056396e-01 3.166039586067199707e-01 4.918053448200225830e-01
3.695000000000000000e+03 4.510998725891113281e+00 -6.593613147735595703e+00 4.024481475353240967e-01 1.637319684028625488e+00 6.119303703308105469e-01 1.361707925796508789e+00
3.696000000000000000e+03 1.328546619415283203e+01 -9.106296300888061523e-01 5.024531841278076172e+00 7.135896682739257812e+00 3.648128509521484375e+00 -1.807130098342895508e+00
3.697000000000000000e+03 7.813066005706787109e+00 7.283399105072021484e+00 -1.115148901939392090e+00 6.426519393920898438e+00 1.593411207199096680e+00 -1.152762532234191895e+00
3.698000000000000000e+03 5.402547359466552734e+00 5.494217395782470703e+00 -2.943292446434497833e-02 3.005826950073242188e+00 8.929181694984436035e-01 -1.107528567314147949e+00
3.699000000000000000e+03 5.384236812591552734e+00 -8.709852218627929688e+00 -3.150783479213714600e-01 2.787170886993408203e+00 7.416278123855590820e-01 1.849672675132751465e+00
3.700000000000000000e+03 5.378026962280273438e+00 -7.325412273406982422e+00 2.377123683691024780e-01 2.229209661483764648e+00 7.400766015052795410e-01 1.748947978019714355e+00
3.701000000000000000e+03 3.207408666610717773e+00 4.356061935424804688e+00 2.327926903963088989e-01 8.008123636245727539e-01 3.100815117359161377e-01 -2.125588208436965942e-01
3.702000000000000000e+03 8.755498886108398438e+00 5.517728805541992188e+00 -1.727397084236145020e+00 6.701437473297119141e+00 1.492212176322937012e+00 -2.798658847808837891e+00
3.703000000000000000e+03 7.981880664825439453e+00 3.518204450607299805e+00 5.532115101814270020e-01 4.752007961273193359e+00 1.591565847396850586e+00 -3.651527404785156250e+00
3.704000000000000000e+03 1.294740581512451172e+01 -2.436230182647705078e+00 2.824667453765869141e+00 8.525497436523437500e+00 3.405049562454223633e+00 -2.496488094329833984e+00
3.705000000000000000e+03 1.409395980834960938e+01 -2.701316356658935547e+00 2.536810874938964844e+00 7.310573577880859375e+00 2.954215288162231445e+00 -1.994850277900695801e+00
3.706000000000000000e+03 3.660432338714599609e+00 3.943803310394287109e+00 3.361639082431793213e-01 9.848160147666931152e-01 3.962939679622650146e-01 -3.240562677383422852e-01
3.707000000000000000e+03 1.039872932434082031e+01 4.643936634063720703e+00 -1.977989554405212402e+00 7.458468437194824219e+00 1.644143700599670410e+00 -2.833014249801635742e+00
3.708000000000000000e+03 1.011486625671386719e+01 4.192106246948242188e+00 -1.404514670372009277e+00 7.849795341491699219e+00 1.933584213256835938e+00 -3.190450429916381836e+00
3.709000000000000000e+03 1.492550659179687500e+01 -9.354717135429382324e-01 3.376781940460205078e+00 5.469085216522216797e+00 2.653759956359863281e+00 -3.571446537971496582e-01
3.710000000000000000e+03 1.333190822601318359e+01 -4.234028816223144531e+00 1.435536503791809082e+00 7.966350078582763672e+00 2.820565938949584961e+00 -2.191539287567138672e+00
3.711000000000000000e+03 8.791529655456542969e+00 5.002495765686035156e+00 -1.556893706321716309e+00 6.608554363250732422e+00 1.515498280525207520e+00 -3.158606767654418945e+00
3.712000000000000000e+03 1.282786369323730469e+01 3.739976882934570312e+00 1.618346124887466431e-01 5.227526664733886719e+00 1.616808414459228516e+00 1.144857704639434814e-01
3.713000000000000000e+03 4.508369445800781250e+00 6.226153850555419922e+00 -3.105798363685607910e-02 2.451467990875244141e+00 7.261229753494262695e-01 -6.394261717796325684e-01
3.714000000000000000e+03 1.255942726135253906e+01 -5.470798969268798828e+00 1.341950893402099609e+00 7.147779464721679688e+00 2.546919107437133789e+00 -1.589440107345581055e+00
3.715000000000000000e+03 6.758530139923095703e+00 7.862204074859619141e+00 -3.756379783153533936e-01 5.415217876434326172e+00 1.511873960494995117e+00 -7.327879667282104492e-01
3.716000000000000000e+03 7.576582908630371094e+00 8.086827278137207031e+00 -5.573816299438476562e-01 6.238770961761474609e+00 1.704416871070861816e+00 -8.489490747451782227e-01
3.717000000000000000e+03 3.683819532394409180e+00 -5.190652370452880859e+00 5.235708355903625488e-01 8.369619250297546387e-01 4.081598222255706787e-01 7.912346720695495605e-01
3.718000000000000000e+03 4.717254638671875000e+00 -5.961247444152832031e+00 5.855360031127929688e-01 1.500542163848876953e+00 6.258234381675720215e-01 1.351832985877990723e+00
3.719000000000000000e+03 1.322753620147705078e+01 3.245515584945678711e+00 1.174467444419860840e+00 4.856703281402587891e+00 1.809351205825805664e+00 7.739214897155761719e-01
3.720000000000000000e+03 1.272345733642578125e+01 1.764719486236572266e+00 3.837056636810302734e+00 6.981861591339111328e+00 3.245675563812255859e+00 1.050567865371704102e+00
3.721000000000000000e+03 5.334656715393066406e+00 -9.840424537658691406e+00 -6.499853730201721191e-01 3.228347539901733398e+00 7.735086679458618164e-01 1.746582150459289551e+00
3.722000000000000000e+03 6.421285152435302734e+00 -9.215752601623535156e+00 -4.839071333408355713e-01 3.224560737609863281e+00 8.221961259841918945e-01 2.267394304275512695e+00
3.723000000000000000e+03 5.295269966125488281e+00 7.709331989288330078e+00 -3.676855936646461487e-02 3.628960132598876953e+00 1.077657461166381836e+00 -5.968142151832580566e-01
3.724000000000000000e+03 5.793189525604248047e+00 8.124520301818847656e+00 -5.260503664612770081e-02 4.216664791107177734e+00 1.249217867851257324e+00 -6.250967383384704590e-01
3.725000000000000000e+03 5.924912643432617188e+01 -1.614291572570800781e+01 1.413160711526870728e-01 6.058674812316894531e+00 1.859997272491455078e+00 2.766093313694000244e-01
3.726000000000000000e+03 7.853036403656005859e+00 -8.589496612548828125e+00 -9.111425839364528656e-03 2.942233324050903320e+00 8.799365758895874023e-01 2.471671104431152344e+00
3.727000000000000000e+03 9.428865432739257812e+00 -8.998264312744140625e+00 3.197690546512603760e-01 2.633606672286987305e+00 8.860127329826354980e-01 2.182548284530639648e+00
3.728000000000000000e+03 2.462235260009765625e+01 6.823977947235107422e+00 2.430311203002929688e+00 3.650998592376708984e+00 1.824392914772033691e+00 -9.071571379899978638e-02
3.729000000000000000e+03 2.364442825317382812e+01 -2.123532676696777344e+01 2.440892934799194336e+00 2.866633415222167969e+00 1.592257976531982422e+00 -1.401995778083801270e+00
3.730000000000000000e+03 4.631288528442382812e+01 4.014231204986572266e+00 1.242305338382720947e-01 3.373227357864379883e+00 1.049237370491027832e+00 -1.905982255935668945e+00
3.731000000000000000e+03 4.478005599975585938e+01 2.555049180984497070e+00 6.563613414764404297e-01 3.963104248046875000e+00 1.385839700698852539e+00 -2.059204816818237305e+00
3.732000000000000000e+03 6.900634002685546875e+01 3.091626358032226562e+01 9.526693224906921387e-01 5.078159332275390625e+00 1.809248566627502441e+00 6.523170471191406250e-01
3.733000000000000000e+03 7.059523010253906250e+01 3.278484344482421875e+01 4.217829108238220215e-01 5.470538139343261719e+00 1.767696261405944824e+00 5.333665609359741211e-01
3.734000000000000000e+03 7.151267242431640625e+01 2.473905372619628906e+01 2.674295604228973389e-01 5.062106132507324219e+00 1.598860740661621094e+00 -1.054046511650085449e+00
3.735000000000000000e+03 7.115981292724609375e+01 2.603455352783203125e+01 6.339155435562133789e-01 4.773911476135253906e+00 1.622348070144653320e+00 -6.278031468391418457e-01
3.736000000000000000e+03 7.164774322509765625e+01 2.833813476562500000e+01 7.876459956169128418e-01 5.101976394653320312e+00 1.766886711120605469e+00 -1.497834622859954834e-01
3.737000000000000000e+03 6.617082214355468750e+01 3.549375152587890625e+01 -6.571609377861022949e-01 5.238762378692626953e+00 1.374480366706848145e+00 3.713437616825103760e-01
3.738000000000000000e+03 6.892743682861328125e+01 3.268827056884765625e+01 5.107416510581970215e-01 5.434144973754882812e+00 1.783465981483459473e+00 7.348568439483642578e-01
3.739000000000000000e+03 3.291265487670898438e+01 3.634379196166992188e+01 -1.196640133857727051e+00 4.719045162200927734e+00 1.056721448898315430e+00 -2.677871882915496826e-01
3.740000000000000000e+03 7.049404907226562500e+01 -3.886907196044921875e+01 -7.437554001808166504e-01 5.877145290374755859e+00 1.540017008781433105e+00 -7.382940053939819336e-01
3.741000000000000000e+03 6.954507446289062500e+01 -3.667311859130859375e+01 8.667254447937011719e-02 6.003746032714843750e+00 1.827125549316406250e+00 -1.063405036926269531e+00
3.742000000000000000e+03 7.102145385742187500e+01 3.887336730957031250e+01 -3.416415750980377197e-01 5.854077339172363281e+00 1.653730750083923340e+00 2.956769764423370361e-01
3.743000000000000000e+03 2.359884262084960938e+01 1.184699344635009766e+01 1.779572129249572754e+00 4.460930824279785156e+00 1.872150897979736328e+00 -1.159185528755187988e+00
3.744000000000000000e+03 1.074817943572998047e+01 -7.670168876647949219e+00 1.042476892471313477e+00 3.942049741744995117e+00 1.495357990264892578e+00 7.166904807090759277e-01
3.745000000000000000e+03 7.895391941070556641e+00 -3.170379161834716797e+00 2.013037919998168945e+00 2.700019598007202148e+00 1.413917183876037598e+00 2.223697185516357422e+00
3.746000000000000000e+03 7.449712753295898438e+00 -3.288065195083618164e+00 1.914620041847229004e+00 2.068120956420898438e+00 1.194822311401367188e+00 1.942673921585083008e+00
3.747000000000000000e+03 7.115701675415039062e+00 -2.753716945648193359e+00 1.899896621704101562e+00 1.351649880409240723e+00 9.754639267921447754e-01 1.548911929130554199e+00
3.748000000000000000e+03 6.559707641601562500e+00 -3.153192520141601562e+00 1.680527567863464355e+00 1.122538208961486816e+00 8.409197330474853516e-01 1.365767359733581543e+00
3.749000000000000000e+03 5.828632354736328125e+00 3.205588579177856445e+00 7.769692540168762207e-01 1.763091206550598145e+00 7.620181441307067871e-01 -1.505676031112670898e+00
3.750000000000000000e+03 1.011989021301269531e+01 -3.957816839218139648e+00 1.063222527503967285e+00 6.994891166687011719e+00 2.417434215545654297e+00 1.089071750640869141e+00
3.751000000000000000e+03 4.214494228363037109e+00 5.395356655120849609e+00 1.040655970573425293e-01 1.875825047492980957e+00 5.939671993255615234e-01 -6.026027202606201172e-01
3.752000000000000000e+03 4.725038051605224609e+00 3.164544820785522461e+00 5.321671962738037109e-01 1.127486586570739746e+00 4.978961348533630371e-01 -7.035710215568542480e-01
3.753000000000000000e+03 1.309336090087890625e+01 1.130634546279907227e-01 5.979826927185058594e+00 6.556012630462646484e+00 3.760751962661743164e+00 -4.624930620193481445e-01
3.754000000000000000e+03 1.357520198822021484e+01 3.882142901420593262e-01 5.203574657440185547e+00 5.815645694732666016e+00 3.305766105651855469e+00 1.498442739248275757e-01
3.755000000000000000e+03 4.894902229309082031e+00 -6.981272697448730469e+00 3.178013861179351807e-01 1.866376399993896484e+00 6.552532911300659180e-01 1.528069615364074707e+00
3.756000000000000000e+03 5.004927635192871094e+00 -2.997657537460327148e+00 9.453854560852050781e-01 4.794233441352844238e-01 4.274426400661468506e-01 5.546912550926208496e-01
3.757000000000000000e+03 8.195033073425292969e+00 5.413239479064941406e+00 -1.428150534629821777e+00 6.171862602233886719e+00 1.423113703727722168e+00 -2.719448566436767578e+00
3.758000000000000000e+03 8.122511863708496094e+00 5.969892024993896484e+00 -1.504652261734008789e+00 6.342312812805175781e+00 1.451298236846923828e+00 -2.229495763778686523e+00
3.759000000000000000e+03 3.236208438873291016e+00 -4.760193824768066406e+00 4.743100702762603760e-01 5.840425491333007812e-01 3.175057768821716309e-01 5.475069880485534668e-01
3.760000000000000000e+03 5.292691230773925781e+00 -3.288748264312744141e+00 1.138002514839172363e+00 5.718770027160644531e-01 5.129638314247131348e-01 7.839100956916809082e-01
3.761000000000000000e+03 4.813326358795166016e+00 -4.308549404144287109e+00 8.836866021156311035e-01 8.924639225006103516e-01 5.328451395034790039e-01 9.324884414672851562e-01
3.762000000000000000e+03 7.651700019836425781e+00 5.260619163513183594e+00 -8.925735950469970703e-01 5.515705585479736328e+00 1.386939525604248047e+00 -2.502044677734375000e+00
3.763000000000000000e+03 1.071136665344238281e+01 -3.449802637100219727e+00 9.452914595603942871e-01 8.579805374145507812e+00 2.857529163360595703e+00 3.561579883098602295e-01
3.764000000000000000e+03 1.110604763031005859e+01 -3.777032136917114258e+00 9.525003433227539062e-01 8.447072029113769531e+00 2.819871664047241211e+00 -2.122007608413696289e-01
3.765000000000000000e+03 1.061289596557617188e+01 -2.716596126556396484e+00 1.045066952705383301e+00 9.841279983520507812e+00 3.265903949737548828e+00 4.659738540649414062e-01
3.766000000000000000e+03 5.856190204620361328e+00 -3.335595130920410156e+00 1.315935134887695312e+00 8.456543087959289551e-01 6.484768390655517578e-01 1.021945118904113770e+00
3.767000000000000000e+03 8.781063079833984375e+00 -3.177869081497192383e+00 1.845447540283203125e+00 4.618627071380615234e+00 1.939222455024719238e+00 2.609457731246948242e+00
3.768000000000000000e+03 1.257612228393554688e+01 -1.151365518569946289e+00 5.140182495117187500e+00 8.498917579650878906e+00 4.091730117797851562e+00 -2.562480449676513672e+00
3.769000000000000000e+03 1.354896831512451172e+01 2.692913055419921875e+00 2.355237007141113281e+00 4.664690017700195312e+00 2.105978012084960938e+00 1.413011193275451660e+00
3.770000000000000000e+03 1.137681865692138672e+01 3.996377706527709961e+00 -1.078300714492797852e+00 7.196735382080078125e+00 1.835530400276184082e+00 -1.820350408554077148e+00
3.771000000000000000e+03 9.719330787658691406e+00 4.409412860870361328e+00 -1.445995211601257324e+00 7.458993434906005859e+00 1.803899526596069336e+00 -3.391279697418212891e+00
3.772000000000000000e+03 1.089234256744384766e+01 3.808974504470825195e+00 -1.168626904487609863e+00 8.070889472961425781e+00 2.070678949356079102e+00 -2.431370258331298828e+00
3.773000000000000000e+03 1.262970447540283203e+01 -2.816365242004394531e+00 2.101555585861206055e+00 8.970430374145507812e+00 3.321595907211303711e+00 -2.289183616638183594e+00
3.774000000000000000e+03 1.203731441497802734e+01 2.350819349288940430e+00 2.193290948867797852e+00 8.476085662841796875e+00 3.200812816619873047e+00 4.531956911087036133e-01
3.775000000000000000e+03 2.968292474746704102e+00 -3.920444726943969727e+00 4.154608547687530518e-01 3.318184018135070801e-01 2.241837829351425171e-01 3.064378201961517334e-01
3.776000000000000000e+03 8.257210731506347656e+00 4.913740158081054688e+00 -1.023551225662231445e+00 6.037568569183349609e+00 1.504205226898193359e+00 -3.016998291015625000e+00
3.777000000000000000e+03 3.696510553359985352e+00 3.132398366928100586e+00 3.335808515548706055e-01 6.692872643470764160e-01 3.008604347705841064e-01 -2.465029060840606689e-01
3.778000000000000000e+03 9.133888244628906250e+00 3.674174308776855469e+00 -4.337569773197174072e-01 7.115282535552978516e+00 2.004457712173461914e+00 -3.989166975021362305e+00
3.779000000000000000e+03 3.733661890029907227e+00 4.912200927734375000e+00 1.729052662849426270e-01 1.311960220336914062e+00 4.454596638679504395e-01 -3.814006447792053223e-01
3.780000000000000000e+03 3.655727624893188477e+00 -4.703783988952636719e+00 5.525350570678710938e-01 6.589604020118713379e-01 3.634486198425292969e-01 6.320950984954833984e-01
3.781000000000000000e+03 4.238910198211669922e+00 -5.178641319274902344e+00 6.166290044784545898e-01 1.034596562385559082e+00 4.953676760196685791e-01 9.598041176795959473e-01
3.782000000000000000e+03 1.001263523101806641e+01 3.018518924713134766e+00 -1.040634363889694214e-01 9.108920097351074219e+00 2.701457023620605469e+00 -3.706437826156616211e+00
3.783000000000000000e+03 1.023643875122070312e+01 3.539623975753784180e+00 -7.618916034698486328e-01 8.573870658874511719e+00 2.343593835830688477e+00 -3.183050394058227539e+00
3.784000000000000000e+03 1.302475261688232422e+01 2.389442443847656250e+00 2.605086326599121094e+00 6.064302921295166016e+00 2.600816965103149414e+00 1.098835587501525879e+00
3.785000000000000000e+03 9.911234855651855469e+00 3.819093227386474609e+00 -1.035976290702819824e+00 7.955659866333007812e+00 2.075905084609985352e+00 -3.507529497146606445e+00
3.786000000000000000e+03 7.178955554962158203e+00 6.907553195953369141e+00 -8.555418252944946289e-01 5.607090473175048828e+00 1.425464630126953125e+00 -1.284018278121948242e+00
3.787000000000000000e+03 1.231940174102783203e+01 3.222940921783447266e+00 6.600390076637268066e-01 6.899018287658691406e+00 2.267717123031616211e+00 -2.237880835309624672e-03
3.788000000000000000e+03 4.331444263458251953e+00 4.539543628692626953e+00 2.741597592830657959e-01 1.570683479309082031e+00 5.534529685974121094e-01 -6.213071346282958984e-01
3.789000000000000000e+03 4.639461040496826172e+00 -5.637039184570312500e+00 6.505796909332275391e-01 1.297877311706542969e+00 5.845370888710021973e-01 1.200980663299560547e+00
3.790000000000000000e+03 5.281622886657714844e+00 -6.557293891906738281e+00 5.190891623497009277e-01 1.916568160057067871e+00 7.306972146034240723e-01 1.650209546089172363e+00
3.791000000000000000e+03 1.434808444976806641e+01 -1.207004785537719727e+00 3.614002466201782227e+00 6.279077053070068359e+00 2.967923879623413086e+00 -1.101721167564392090e+00
3.792000000000000000e+03 6.910883426666259766e+00 3.358152389526367188e+00 8.422223925590515137e-01 2.967121601104736328e+00 1.142803192138671875e+00 -2.554153680801391602e+00
3.793000000000000000e+03 1.370408344268798828e+01 -2.255785465240478516e+00 3.051226377487182617e+00 7.528519630432128906e+00 3.173923730850219727e+00 -2.186093568801879883e+00
3.794000000000000000e+03 7.211831569671630859e+00 -8.959755897521972656e+00 -2.657880783081054688e-01 3.074625730514526367e+00 8.426512479782104492e-01 2.547845125198364258e+00
3.795000000000000000e+03 1.277101898193359375e+01 -4.633283615112304688e+00 1.287465691566467285e+00 7.905755043029785156e+00 2.757966279983520508e+00 -1.871116995811462402e+00
3.796000000000000000e+03 1.339631748199462891e+01 -3.356393575668334961e+00 1.889400005340576172e+00 8.084181785583496094e+00 2.992074489593505859e+00 -2.286403894424438477e+00
3.797000000000000000e+03 1.450875759124755859e+01 -4.480435252189636230e-01 4.043705940246582031e+00 5.495924472808837891e+00 2.861889123916625977e+00 -2.725875079631805420e-01
3.798000000000000000e+03 8.867136001586914062e+00 3.286923885345458984e+00 3.125379681587219238e-01 6.447828292846679688e+00 2.028109788894653320e+00 -4.306300163269042969e+00
3.799000000000000000e+03 5.045372486114501953e+00 -7.838515281677246094e+00 1.403118576854467392e-02 2.270097494125366211e+00 6.852385401725769043e-01 1.644969105720520020e+00
3.800000000000000000e+03 1.492574882507324219e+01 9.186145067214965820e-01 3.491588592529296875e+00 4.245262145996093750e+00 2.321055173873901367e+00 1.476066231727600098e+00
3.801000000000000000e+03 9.784167289733886719e+00 -8.439313888549804688e+00 6.762865781784057617e-01 2.711315155029296875e+00 1.016280531883239746e+00 1.824653506278991699e+00
3.802000000000000000e+03 8.376343727111816406e+00 -8.136317253112792969e+00 3.436270654201507568e-01 3.052038908004760742e+00 1.018699765205383301e+00 2.414684772491455078e+00
3.803000000000000000e+03 1.364938640594482422e+01 -2.682590007781982422e+00 2.549768447875976562e+00 7.856360435485839844e+00 3.121838569641113281e+00 -2.375212192535400391e+00
3.804000000000000000e+03 1.194224357604980469e+01 -6.744429588317871094e+00 1.466726660728454590e+00 5.334939479827880859e+00 2.040499925613403320e+00 -7.073411941528320312e-01
3.805000000000000000e+03 1.522012329101562500e+01 1.629820108413696289e+00 2.901260614395141602e+00 3.641735315322875977e+00 1.962898731231689453e+00 2.150472879409790039e+00
3.806000000000000000e+03 6.080319881439208984e+00 7.614838600158691406e+00 -1.866541057825088501e-01 4.423540115356445312e+00 1.271065831184387207e+00 -7.197903394699096680e-01
3.807000000000000000e+03 5.715267181396484375e+00 -9.274901390075683594e+00 -5.582540631294250488e-01 3.146888017654418945e+00 7.765901684761047363e-01 1.941790699958801270e+00
3.808000000000000000e+03 6.976663208007812500e+01 2.862758636474609375e+01 1.202024817466735840e+00 4.677701950073242188e+00 1.763918042182922363e+00 2.006477266550064087e-01
3.809000000000000000e+03 6.877837371826171875e+01 3.449598312377929688e+01 -6.831898540258407593e-02 5.481088638305664062e+00 1.623830914497375488e+00 5.951318740844726562e-01
3.810000000000000000e+03 2.242778587341308594e+01 -2.068840217590332031e+01 2.575376987457275391e+00 2.028682470321655273e+00 1.381217837333679199e+00 -1.791419267654418945e+00
3.811000000000000000e+03 4.813093948364257812e+01 -1.742207527160644531e+00 3.454867005348205566e-01 5.072379589080810547e+00 1.625359892845153809e+00 -1.881617307662963867e+00
3.812000000000000000e+03 3.235247802734375000e+01 3.845678710937500000e+01 -1.128439545631408691e+00 4.255494117736816406e+00 9.381163716316223145e-01 -6.983029097318649292e-02
3.813000000000000000e+03 3.100619506835937500e+01 3.545098114013671875e+01 -5.896219015121459961e-01 4.372686862945556641e+00 1.134919404983520508e+00 -8.065077662467956543e-01
3.814000000000000000e+03 8.159959793090820312e+00 -3.369778871536254883e+00 1.884024262428283691e+00 3.325494289398193359e+00 1.562855601310729980e+00 2.291364192962646484e+00
3.815000000000000000e+03 8.955745697021484375e+00 -3.960658073425292969e+00 1.427488327026367188e+00 4.924023151397705078e+00 1.905453443527221680e+00 2.177654266357421875e+00
3.816000000000000000e+03 6.867968082427978516e+00 -3.292531013488769531e+00 1.761579275131225586e+00 1.486183166503906250e+00 9.743287563323974609e-01 1.562261343002319336e+00
3.817000000000000000e+03 6.754300594329833984e+00 -3.610139846801757812e+00 1.678424239158630371e+00 1.522922158241271973e+00 9.604039192199707031e-01 1.637381553649902344e+00
3.818000000000000000e+03 6.226165771484375000e+00 -5.371268749237060547e+00 1.069421410560607910e+00 1.931267976760864258e+00 9.002068042755126953e-01 1.770942926406860352e+00
3.819000000000000000e+03 6.167463779449462891e+00 -3.349783182144165039e+00 1.482696413993835449e+00 9.466995596885681152e-01 7.288187742233276367e-01 1.211460351943969727e+00
3.820000000000000000e+03 7.238371372222900391e+00 3.249022960662841797e+00 8.693735003471374512e-01 3.323054790496826172e+00 1.257728457450866699e+00 -2.916184186935424805e+00
3.821000000000000000e+03 9.784520149230957031e+00 -3.515583753585815430e+00 1.173747539520263672e+00 7.095297336578369141e+00 2.480713605880737305e+00 1.660033941268920898e+00
3.822000000000000000e+03 4.474754810333251953e+00 -4.693624019622802734e+00 8.023716807365417480e-01 8.505114316940307617e-01 4.958649277687072754e-01 9.108489751815795898e-01
3.823000000000000000e+03 7.556978702545166016e+00 5.790387630462646484e+00 -1.128555417060852051e+00 5.657522201538085938e+00 1.358690142631530762e+00 -2.148873090744018555e+00
3.824000000000000000e+03 5.991654396057128906e+00 3.727470397949218750e+00 5.562438368797302246e-01 2.421741724014282227e+00 8.933956623077392578e-01 -1.732233643531799316e+00
3.825000000000000000e+03 9.133826255798339844e+00 3.361175060272216797e+00 3.655863180756568909e-02 7.110305786132812500e+00 2.144059419631958008e+00 -4.217810153961181641e+00
3.826000000000000000e+03 5.649571895599365234e+00 -3.936134099960327148e+00 1.247404098510742188e+00 1.033796191215515137e+00 6.843600869178771973e-01 1.190175056457519531e+00
3.827000000000000000e+03 8.462640762329101562e+00 -3.560651063919067383e+00 1.770774960517883301e+00 3.971919059753417969e+00 1.722808241844177246e+00 2.381558656692504883e+00
3.828000000000000000e+03 1.183273696899414062e+01 -4.574710845947265625e+00 1.114694952964782715e+00 7.705289363861083984e+00 2.645995378494262695e+00 -1.006189942359924316e+00
3.829000000000000000e+03 5.544632911682128906e+00 4.453875541687011719e+00 2.888132631778717041e-01 2.530043840408325195e+00 8.456571698188781738e-01 -1.362839341163635254e+00
3.830000000000000000e+03 1.335088539123535156e+01 8.883911967277526855e-01 5.153067111968994141e+00 5.892118453979492188e+00 3.313555479049682617e+00 6.699256300926208496e-01
3.831000000000000000e+03 1.438289356231689453e+01 1.117045402526855469e+00 3.862709999084472656e+00 4.528139114379882812e+00 2.517254829406738281e+00 1.327180981636047363e+00
3.832000000000000000e+03 9.398897171020507812e+00 -3.420059680938720703e+00 1.373506665229797363e+00 6.187128067016601562e+00 2.268190383911132812e+00 2.206030368804931641e+00
3.833000000000000000e+03 1.219898605346679688e+01 -5.017880439758300781e+00 1.285416603088378906e+00 7.254361629486083984e+00 2.561933517456054688e+00 -1.358673930168151855e+00
3.834000000000000000e+03 9.564311981201171875e+00 3.987056493759155273e+00 -1.025963187217712402e+00 7.573837280273437500e+00 1.964362144470214844e+00 -3.589621305465698242e+00
3.835000000000000000e+03 5.532112598419189453e+00 3.865844964981079102e+00 4.488122761249542236e-01 2.124783515930175781e+00 7.720787525177001953e-01 -1.387035489082336426e+00
3.836000000000000000e+03 4.994406223297119141e+00 3.845379590988159180e+00 4.560846686363220215e-01 1.697269678115844727e+00 6.460062861442565918e-01 -9.704324007034301758e-01
3.837000000000000000e+03 1.191165542602539062e+01 -3.747107505798339844e+00 1.216122984886169434e+00 8.593433380126953125e+00 2.942866802215576172e+00 -1.312061071395874023e+00
3.838000000000000000e+03 1.144543170928955078e+01 -3.380681753158569336e+00 1.180405855178833008e+00 8.982713699340820312e+00 3.048935890197753906e+00 -9.174111485481262207e-01
3.839000000000000000e+03 6.246521472930908203e+00 6.207930564880371094e+00 -4.771686196327209473e-01 4.322082042694091797e+00 1.153474092483520508e+00 -1.360895395278930664e+00
3.840000000000000000e+03 5.296784877777099609e+00 6.002526760101318359e+00 -1.660448908805847168e-01 3.181734561920166016e+00 9.047068953514099121e-01 -9.731180667877197266e-01
3.841000000000000000e+03 7.421065330505371094e+00 6.347069263458251953e+00 -1.093920588493347168e+00 5.797101020812988281e+00 1.410953998565673828e+00 -1.645043730735778809e+00
3.842000000000000000e+03 5.094864845275878906e+00 3.303911924362182617e+00 5.787119865417480469e-01 1.376759529113769531e+00 5.866414308547973633e-01 -9.991419315338134766e-01
3.843000000000000000e+03 1.328303909301757812e+01 1.409744620323181152e+00 4.467103958129882812e+00 5.882331371307373047e+00 3.104830741882324219e+00 1.153857827186584473e+00
3.844000000000000000e+03 1.328135871887207031e+01 -2.041793346405029297e+00 3.305387735366821289e+00 8.065723419189453125e+00 3.411333560943603516e+00 -2.417357444763183594e+00
3.845000000000000000e+03 6.360471725463867188e+00 3.484435319900512695e+00 7.228925824165344238e-01 2.544843912124633789e+00 9.803209900856018066e-01 -2.085253000259399414e+00
3.846000000000000000e+03 6.229401588439941406e+00 7.152129173278808594e+00 -3.848108351230621338e-01 4.706871986389160156e+00 1.296618342399597168e+00 -8.233736753463745117e-01
3.847000000000000000e+03 5.515541553497314453e+00 7.281800746917724609e+00 -1.500197798013687134e-01 3.828141212463378906e+00 1.103436470031738281e+00 -7.230861783027648926e-01
3.848000000000000000e+03 8.309144973754882812e+00 4.451538562774658203e+00 -7.858831286430358887e-01 5.903670310974121094e+00 1.535336136817932129e+00 -3.369493722915649414e+00
3.849000000000000000e+03 8.767764091491699219e+00 4.055496692657470703e+00 -6.522452235221862793e-01 6.443217754364013672e+00 1.737291693687438965e+00 -3.749594211578369141e+00
3.850000000000000000e+03 7.018710613250732422e+00 5.571941852569580078e+00 -6.775045990943908691e-01 4.952228546142578125e+00 1.282417178153991699e+00 -1.954709291458129883e+00
3.851000000000000000e+03 9.269833564758300781e+00 4.513257980346679688e+00 -1.426858305931091309e+00 7.093735694885253906e+00 1.700063228607177734e+00 -3.431003093719482422e+00
3.852000000000000000e+03 8.786945343017578125e+00 4.514664173126220703e+00 -1.012870669364929199e+00 6.511795043945312500e+00 1.649677276611328125e+00 -3.436474800109863281e+00
3.853000000000000000e+03 5.295751571655273438e+00 -5.918723106384277344e+00 7.123553156852722168e-01 1.704623699188232422e+00 7.250937223434448242e-01 1.553588628768920898e+00
3.854000000000000000e+03 4.730738639831542969e+00 5.751298904418945312e+00 2.891800925135612488e-02 2.501816034317016602e+00 7.592201828956604004e-01 -7.461265325546264648e-01
3.855000000000000000e+03 5.141026496887207031e+00 6.508098125457763672e+00 -1.093284934759140015e-01 3.224090099334716797e+00 9.344284534454345703e-01 -7.777576446533203125e-01
3.856000000000000000e+03 6.748497009277343750e+00 7.233481407165527344e+00 -6.642461419105529785e-01 5.284940242767333984e+00 1.386208176612854004e+00 -1.026441931724548340e+00
3.857000000000000000e+03 5.701165676116943359e+00 -6.831476688385009766e+00 4.509896337985992432e-01 2.136059522628784180e+00 7.761147618293762207e-01 1.803958892822265625e+00
3.858000000000000000e+03 1.447206115722656250e+01 1.671211242675781250e+00 3.333580732345581055e+00 4.163086891174316406e+00 2.249000310897827148e+00 1.785792589187622070e+00
3.859000000000000000e+03 5.904153347015380859e+00 -7.609819412231445312e+00 1.711114346981048584e-01 2.466381311416625977e+00 7.912478446960449219e-01 1.964426159858703613e+00
3.860000000000000000e+03 1.359776782989501953e+01 -4.791711270809173584e-01 5.048621177673339844e+00 6.332314014434814453e+00 3.414280652999877930e+00 -9.564599394798278809e-01
3.861000000000000000e+03 7.530621528625488281e+00 -8.105680465698242188e+00 1.826323866844177246e-01 2.984465599060058594e+00 9.501293897628784180e-01 2.447187185287475586e+00
3.862000000000000000e+03 1.235398197174072266e+01 -4.170599460601806641e+00 1.299919009208679199e+00 8.081110000610351562e+00 2.814308643341064453e+00 -1.660364508628845215e+00
3.863000000000000000e+03 1.075217437744140625e+01 -4.120804309844970703e+00 9.281034469604492188e-01 7.627888679504394531e+00 2.566797733306884766e+00 3.393073081970214844e-01
3.864000000000000000e+03 5.679256439208984375e+00 -8.203582763671875000e+00 -6.652233004570007324e-02 2.660219669342041016e+00 7.781092524528503418e-01 1.931267023086547852e+00
3.865000000000000000e+03 9.737552642822265625e+00 -3.901510238647460938e+00 1.120431542396545410e+00 6.447956562042236328e+00 2.270516395568847656e+00 1.660736322402954102e+00
3.866000000000000000e+03 1.285816383361816406e+01 -3.736539840698242188e+00 1.542563319206237793e+00 8.387632369995117188e+00 2.979058742523193359e+00 -2.055059194564819336e+00
3.867000000000000000e+03 6.982903003692626953e+00 -8.348993301391601562e+00 -7.700832933187484741e-02 3.005456686019897461e+00 8.785344958305358887e-01 2.331707715988159180e+00
3.868000000000000000e+03 6.896291255950927734e+00 -7.852167606353759766e+00 1.852699369192123413e-01 2.798483371734619141e+00 8.951259851455688477e-01 2.235938072204589844e+00
3.869000000000000000e+03 9.745504379272460938e+00 -7.566975116729736328e+00 9.104149937629699707e-01 3.434920310974121094e+00 1.303600668907165527e+00 1.499188780784606934e+00
3.870000000000000000e+03 9.286673545837402344e+00 -8.052661895751953125e+00 6.598023176193237305e-01 3.123528718948364258e+00 1.134999275207519531e+00 1.974339604377746582e+00
3.871000000000000000e+03 1.133851337432861328e+01 -7.225093364715576172e+00 1.288150787353515625e+00 4.519391536712646484e+00 1.742262721061706543e+00 1.961585879325866699e-01
3.872000000000000000e+03 1.018852329254150391e+01 -8.031977653503417969e+00 9.869118928909301758e-01 3.442113399505615234e+00 1.328707575798034668e+00 1.245340108871459961e+00
3.873000000000000000e+03 7.087461090087890625e+01 2.945859909057617188e+01 9.668264985084533691e-01 5.137439727783203125e+00 1.831279873847961426e+00 1.979184597730636597e-01
3.874000000000000000e+03 6.733448028564453125e+01 4.117121124267578125e+01 -5.708698034286499023e-01 4.726187705993652344e+00 1.246595382690429688e+00 -7.587980479001998901e-03
3.875000000000000000e+03 8.281196594238281250e+00 -3.976217508316040039e+00 1.592370748519897461e+00 3.735597372055053711e+00 1.598390460014343262e+00 2.256929159164428711e+00
3.876000000000000000e+03 5.601463794708251953e+00 -3.529014348983764648e+00 1.217830538749694824e+00 8.370648026466369629e-01 6.164686083793640137e-01 9.714350700378417969e-01
3.877000000000000000e+03 4.462713718414306641e+00 -3.930070638656616211e+00 8.376185297966003418e-01 6.073723435401916504e-01 4.334972798824310303e-01 6.988133192062377930e-01
3.878000000000000000e+03 8.892261505126953125e+00 -4.615309238433837891e+00 1.271593332290649414e+00 4.640996456146240234e+00 1.773776888847351074e+00 1.995632648468017578e+00
3.879000000000000000e+03 6.846547603607177734e+00 -6.832021713256835938e+00 6.278349757194519043e-01 2.625317096710205078e+00 9.759455919265747070e-01 2.129292011260986328e+00
3.880000000000000000e+03 5.215889930725097656e+00 -4.085508823394775391e+00 1.072945237159729004e+00 9.201833009719848633e-01 5.979385375976562500e-01 1.037112355232238770e+00
3.881000000000000000e+03 4.923126220703125000e+00 -3.624022245407104492e+00 1.018307328224182129e+00 6.587451100349426270e-01 5.031157135963439941e-01 7.643393278121948242e-01
3.882000000000000000e+03 7.939309597015380859e+00 3.928366184234619141e+00 -2.568578533828258514e-02 5.041422843933105469e+00 1.504721045494079590e+00 -3.447434425354003906e+00
3.883000000000000000e+03 6.003166198730468750e+00 -4.318056583404541016e+00 1.268353581428527832e+00 1.315744638442993164e+00 7.752294540405273438e-01 1.429109573364257812e+00
3.884000000000000000e+03 8.083931922912597656e+00 -4.373992443084716797e+00 1.518923759460449219e+00 3.347676038742065430e+00 1.459980010986328125e+00 2.181175470352172852e+00
3.885000000000000000e+03 1.147602748870849609e+01 -4.153513431549072266e+00 1.069607734680175781e+00 7.931516647338867188e+00 2.700337409973144531e+00 -7.263233661651611328e-01
3.886000000000000000e+03 1.045253086090087891e+01 -3.818895578384399414e+00 9.478541612625122070e-01 7.708201408386230469e+00 2.596816778182983398e+00 7.219187617301940918e-01
3.887000000000000000e+03 7.223944187164306641e+00 4.567658901214599609e+00 -2.049260586500167847e-01 4.518106460571289062e+00 1.293954133987426758e+00 -2.589125394821166992e+00
3.888000000000000000e+03 4.960875034332275391e+00 4.417852878570556641e+00 2.776571810245513916e-01 1.961031675338745117e+00 6.716066598892211914e-01 -9.999201297760009766e-01
3.889000000000000000e+03 7.124730587005615234e+00 5.071070671081542969e+00 -5.583493709564208984e-01 4.738269329071044922e+00 1.253975987434387207e+00 -2.305375099182128906e+00
3.890000000000000000e+03 6.692033290863037109e+00 6.497242450714111328e+00 -6.600029468536376953e-01 4.861079216003417969e+00 1.260322809219360352e+00 -1.351641416549682617e+00
3.891000000000000000e+03 1.389443874359130859e+01 1.087822437286376953e+00 4.316308021545410156e+00 5.044587135314941406e+00 2.808268547058105469e+00 1.097129225730895996e+00
3.892000000000000000e+03 3.391696214675903320e+00 -4.411772727966308594e+00 5.612106919288635254e-01 5.262249112129211426e-01 3.262306749820709229e-01 5.278066396713256836e-01
3.893000000000000000e+03 7.741292953491210938e+00 4.772565841674804688e+00 -7.045500874519348145e-01 5.337549686431884766e+00 1.389899849891662598e+00 -2.900274991989135742e+00
3.894000000000000000e+03 6.427416324615478516e+00 6.820035457611083984e+00 -5.594749450683593750e-01 4.769501209259033203e+00 1.263007998466491699e+00 -1.164098143577575684e+00
3.895000000000000000e+03 5.721408843994140625e+00 6.833013057708740234e+00 -2.615447342395782471e-01 3.920210838317871094e+00 1.097599864006042480e+00 -8.762390613555908203e-01
3.896000000000000000e+03 5.580038547515869141e+00 -6.162237167358398438e+00 6.981123089790344238e-01 1.858758330345153809e+00 7.670611739158630371e-01 1.685875177383422852e+00
3.897000000000000000e+03 6.596476554870605469e+00 -7.281577587127685547e+00 3.933551609516143799e-01 2.581075429916381836e+00 8.923292160034179688e-01 2.100134134292602539e+00
3.898000000000000000e+03 6.424226760864257812e+00 -7.793889045715332031e+00 1.793547868728637695e-01 2.700050354003906250e+00 8.638215661048889160e-01 2.137408018112182617e+00
3.899000000000000000e+03 7.286240100860595703e+00 -7.707826614379882812e+00 2.523855268955230713e-01 2.921408176422119141e+00 9.521380662918090820e-01 2.258467197418212891e+00
3.900000000000000000e+03 6.436606407165527344e+00 -6.572438240051269531e+00 6.380618214607238770e-01 2.333468437194824219e+00 8.914590477943420410e-01 1.970728039741516113e+00
3.901000000000000000e+03 1.054209423065185547e+01 -4.517747402191162109e+00 9.869819283485412598e-01 6.880640506744384766e+00 2.360286712646484375e+00 5.584653019905090332e-01
3.902000000000000000e+03 1.146894645690917969e+01 -6.266836643218994141e+00 1.262415647506713867e+00 5.649893283843994141e+00 2.073692560195922852e+00 -2.035567760467529297e-01
3.903000000000000000e+03 6.436357498168945312e+00 -4.590000629425048828e+00 1.284363031387329102e+00 1.809887886047363281e+00 9.282752871513366699e-01 1.707357764244079590e+00
3.904000000000000000e+03 7.126669406890869141e+00 -3.678792715072631836e+00 1.744605541229248047e+00 1.978005409240722656e+00 1.116783261299133301e+00 1.818620800971984863e+00
3.905000000000000000e+03 5.746441841125488281e+00 -4.762732505798339844e+00 1.104430675506591797e+00 1.460111737251281738e+00 7.693627476692199707e-01 1.452183961868286133e+00
3.906000000000000000e+03 7.033656120300292969e+00 3.772913694381713867e+00 4.909830093383789062e-01 3.533771276473999023e+00 1.207426309585571289e+00 -2.683948516845703125e+00
3.907000000000000000e+03 7.580730915069580078e+00 3.814665079116821289e+00 3.463951051235198975e-01 4.371388912200927734e+00 1.415335178375244141e+00 -3.190333843231201172e+00
3.908000000000000000e+03 7.448117256164550781e+00 -3.776851654052734375e+00 1.756038427352905273e+00 2.345746517181396484e+00 1.230535507202148438e+00 2.006332159042358398e+00
3.909000000000000000e+03 9.718832015991210938e+00 -4.273948669433593750e+00 1.095792412757873535e+00 6.049292087554931641e+00 2.143525362014770508e+00 1.554918050765991211e+00
3.910000000000000000e+03 7.843704700469970703e+00 4.335326671600341797e+00 -3.240882158279418945e-01 5.214521408081054688e+00 1.467129945755004883e+00 -3.132678747177124023e+00
3.911000000000000000e+03 9.393543243408203125e+00 -4.238784790039062500e+00 1.161050796508789062e+00 5.541985511779785156e+00 2.010910749435424805e+00 1.846632242202758789e+00
3.912000000000000000e+03 6.608929634094238281e+00 4.866570472717285156e+00 -1.513239592313766479e-01 4.016853332519531250e+00 1.159658908843994141e+00 -2.056806087493896484e+00
3.913000000000000000e+03 8.347238540649414062e+00 4.004845619201660156e+00 -2.359562069177627563e-01 5.740789890289306641e+00 1.651450037956237793e+00 -3.617902994155883789e+00
3.914000000000000000e+03 8.768117904663085938e+00 3.621745586395263672e+00 1.732253096997737885e-02 6.325183391571044922e+00 1.902751803398132324e+00 -4.038387298583984375e+00
3.915000000000000000e+03 1.101193714141845703e+01 -4.488622665405273438e+00 9.670750498771667480e-01 7.326815128326416016e+00 2.488167047500610352e+00 2.362250536680221558e-02
3.916000000000000000e+03 1.127488708496093750e+01 -4.944753646850585938e+00 1.093529343605041504e+00 6.881590366363525391e+00 2.392535924911499023e+00 -3.063658773899078369e-01
3.917000000000000000e+03 6.885475158691406250e+00 6.062972068786621094e+00 -7.282184958457946777e-01 4.949773311614990234e+00 1.266466379165649414e+00 -1.648690104484558105e+00
3.918000000000000000e+03 4.926277637481689453e+00 -4.935407161712646484e+00 8.882641196250915527e-01 1.216987013816833496e+00 6.315753459930419922e-01 1.218436479568481445e+00
3.919000000000000000e+03 6.495881557464599609e+00 5.346119880676269531e+00 -3.679881989955902100e-01 4.117117881774902344e+00 1.124738812446594238e+00 -1.789608836174011230e+00
3.920000000000000000e+03 5.889220237731933594e+00 5.628447055816650391e+00 -2.608090341091156006e-01 3.580364942550659180e+00 9.958667755126953125e-01 -1.330366730690002441e+00
3.921000000000000000e+03 5.487983226776123047e+00 4.996402740478515625e+00 3.661733120679855347e-02 2.794592857360839844e+00 8.493630886077880859e-01 -1.279406547546386719e+00
3.922000000000000000e+03 9.252028465270996094e+00 -7.128796100616455078e+00 8.749811649322509766e-01 3.669162750244140625e+00 1.363243103027343750e+00 1.757168054580688477e+00
3.923000000000000000e+03 9.694314956665039062e+00 -6.622190475463867188e+00 1.013275265693664551e+00 4.106199264526367188e+00 1.535842299461364746e+00 1.368610382080078125e+00
3.924000000000000000e+03 5.134979724884033203e+00 -5.282982349395751953e+00 8.340412378311157227e-01 1.399323344230651855e+00 6.700093746185302734e-01 1.332209587097167969e+00
3.925000000000000000e+03 8.371807098388671875e+00 -7.252598285675048828e+00 6.595356464385986328e-01 3.245860576629638672e+00 1.171618819236755371e+00 2.182047367095947266e+00
3.926000000000000000e+03 5.011934280395507812e+00 4.920719146728515625e+00 1.748556047677993774e-01 2.322472810745239258e+00 7.491984963417053223e-01 -9.895868897438049316e-01
3.927000000000000000e+03 4.586609840393066406e+00 5.037940502166748047e+00 1.439770907163619995e-01 2.022805452346801758e+00 6.500347256660461426e-01 -7.360068559646606445e-01
3.928000000000000000e+03 1.085757160186767578e+01 -6.671018600463867188e+00 1.170590996742248535e+00 4.817619323730468750e+00 1.796463012695312500e+00 4.171768128871917725e-01
3.929000000000000000e+03 8.721718788146972656e+00 -6.713192462921142578e+00 8.994407057762145996e-01 3.460944890975952148e+00 1.308115720748901367e+00 1.938597917556762695e+00
3.930000000000000000e+03 8.822921752929687500e+00 -7.639057159423828125e+00 6.726666688919067383e-01 3.080641031265258789e+00 1.125992298126220703e+00 2.082976818084716797e+00
3.931000000000000000e+03 6.627984619140625000e+01 3.006205749511718750e+01 1.338306903839111328e+00 5.324455738067626953e+00 1.998828887939453125e+00 1.061646819114685059e+00
3.932000000000000000e+03 3.511140060424804688e+01 3.505706405639648438e+01 -1.446126461029052734e+00 4.758822441101074219e+00 9.938088655471801758e-01 1.645559221506118774e-01
3.933000000000000000e+03 6.758943939208984375e+01 3.865303039550781250e+01 -6.016368865966796875e-01 4.908446788787841797e+00 1.292042970657348633e+00 6.620745360851287842e-02
3.934000000000000000e+03 9.795418739318847656e+00 3.628470611572265625e+01 -1.585149526596069336e+00 -9.785762429237365723e-02 -5.049021840095520020e-01 -1.249919831752777100e-02
3.935000000000000000e+03 7.869932651519775391e+00 4.121933364868164062e+01 5.016591548919677734e-01 1.832441806793212891e+00 7.002303004264831543e-01 1.711636185646057129e-01
3.936000000000000000e+03 2.808948898315429688e+01 -4.130722045898437500e+01 -1.835904717445373535e+00 5.668887615203857422e+00 1.149894952774047852e+00 -3.344925940036773682e-01
3.937000000000000000e+03 1.277741813659667969e+01 3.719341278076171875e+01 -5.073458552360534668e-01 2.067294716835021973e-01 -9.018491208553314209e-02 -6.790737509727478027e-01
3.938000000000000000e+03 8.421386718750000000e+00 3.895293807983398438e+01 8.031165599822998047e-02 1.427830576896667480e+00 4.524426460266113281e-01 4.179156422615051270e-01
3.939000000000000000e+03 8.616150856018066406e+00 -4.259068965911865234e+00 1.462883949279785156e+00 4.164350509643554688e+00 1.688170433044433594e+00 2.135665178298950195e+00
3.940000000000000000e+03 7.298830032348632812e+00 -4.825238704681396484e+00 1.357111096382141113e+00 2.579725980758666992e+00 1.181051135063171387e+00 2.003201246261596680e+00
3.941000000000000000e+03 7.332240104675292969e+00 -4.405109882354736328e+00 1.503030061721801758e+00 2.430908203125000000e+00 1.180181503295898438e+00 2.010712146759033203e+00
3.942000000000000000e+03 6.690875530242919922e+00 -3.945759057998657227e+00 1.578850030899047852e+00 1.644445657730102539e+00 9.669887423515319824e-01 1.640496015548706055e+00
3.943000000000000000e+03 6.869314670562744141e+00 -4.783685684204101562e+00 1.341428399085998535e+00 2.147995471954345703e+00 1.046827197074890137e+00 1.904521703720092773e+00
3.944000000000000000e+03 6.155401706695556641e+00 -7.074703693389892578e+00 4.406508207321166992e-01 2.408707380294799805e+00 8.548074364662170410e-01 1.974153161048889160e+00
3.945000000000000000e+03 7.619029521942138672e+00 -7.370919704437255859e+00 4.888139367103576660e-01 3.005040407180786133e+00 1.048156380653381348e+00 2.299264669418334961e+00
3.946000000000000000e+03 5.221689701080322266e+00 -4.562426567077636719e+00 1.036540627479553223e+00 1.085339307785034180e+00 6.365639567375183105e-01 1.201118946075439453e+00
3.947000000000000000e+03 6.257247924804687500e+00 -4.958143234252929688e+00 1.213509082794189453e+00 1.751386165618896484e+00 8.894686102867126465e-01 1.718600988388061523e+00
3.948000000000000000e+03 6.647353649139404297e+00 3.942746877670288086e+00 4.399758875370025635e-01 3.232918977737426758e+00 1.101868510246276855e+00 -2.324026823043823242e+00
3.949000000000000000e+03 7.388135910034179688e+00 4.137379169464111328e+00 2.529164962470531464e-02 4.362497329711914062e+00 1.316336750984191895e+00 -2.934098482131958008e+00
3.950000000000000000e+03 1.074123382568359375e+01 -5.336108207702636719e+00 1.037138581275939941e+00 6.152273654937744141e+00 2.156823635101318359e+00 4.333879053592681885e-01
3.951000000000000000e+03 5.657326221466064453e+00 -5.292570114135742188e+00 9.642961025238037109e-01 1.579920649528503418e+00 7.632650136947631836e-01 1.564944028854370117e+00
3.952000000000000000e+03 9.948678016662597656e+00 -4.731229782104492188e+00 1.018703460693359375e+00 5.983900547027587891e+00 2.100781202316284180e+00 1.182240962982177734e+00
3.953000000000000000e+03 6.730158805847167969e+00 4.404516696929931641e+00 3.450194001197814941e-02 3.770283222198486328e+00 1.141435623168945312e+00 -2.319944143295288086e+00
3.954000000000000000e+03 6.750102043151855469e+00 -6.077367305755615234e+00 8.674511313438415527e-01 2.453144311904907227e+00 9.961786270141601562e-01 2.005899429321289062e+00
3.955000000000000000e+03 7.983790397644042969e+00 -7.723080635070800781e+00 4.065808951854705811e-01 2.971964120864868164e+00 1.013563513755798340e+00 2.277424335479736328e+00
3.956000000000000000e+03 6.379053592681884766e+00 5.808245182037353516e+00 -4.220954477787017822e-01 4.272069931030273438e+00 1.154992341995239258e+00 -1.527772665023803711e+00
3.957000000000000000e+03 5.984125137329101562e+00 5.143143177032470703e+00 -6.818688660860061646e-02 3.409461021423339844e+00 1.002382278442382812e+00 -1.509008407592773438e+00
3.958000000000000000e+03 5.683045387268066406e+00 -5.765997409820556641e+00 8.194006085395812988e-01 1.775172948837280273e+00 7.783720493316650391e-01 1.622236609458923340e+00
3.959000000000000000e+03 1.026131725311279297e+01 -7.099806785583496094e+00 1.036261320114135742e+00 4.246049880981445312e+00 1.584693312644958496e+00 1.055833220481872559e+00
3.960000000000000000e+03 9.892205238342285156e+00 -5.347419738769531250e+00 1.072519540786743164e+00 5.351080417633056641e+00 1.927079916000366211e+00 1.174165844917297363e+00
3.961000000000000000e+03 1.029055500030517578e+01 -5.712234973907470703e+00 1.046370744705200195e+00 5.345750808715820312e+00 1.917636394500732422e+00 8.685685992240905762e-01
3.962000000000000000e+03 9.355568885803222656e+00 -4.547155857086181641e+00 1.181669354438781738e+00 5.384291172027587891e+00 1.969788193702697754e+00 1.725902318954467773e+00
3.963000000000000000e+03 3.489644241333007812e+01 3.652267456054687500e+01 -1.480509161949157715e+00 4.273184776306152344e+00 8.378026485443115234e-01 5.729216933250427246e-01
3.964000000000000000e+03 8.363353729248046875e+00 -4.601713657379150391e+00 1.380091309547424316e+00 3.814330339431762695e+00 1.558326482772827148e+00 2.176505088806152344e+00
3.965000000000000000e+03 9.491817474365234375e+00 -5.734094619750976562e+00 1.090718746185302734e+00 4.529037952423095703e+00 1.685927033424377441e+00 1.490720033645629883e+00
3.966000000000000000e+03 6.296824932098388672e+00 4.182553291320800781e+00 3.000680208206176758e-01 3.026458263397216797e+00 9.979578852653503418e-01 -1.904049515724182129e+00
3.967000000000000000e+03 6.658399581909179688e+00 -5.210660457611083984e+00 1.150974750518798828e+00 2.200829267501831055e+00 1.005541205406188965e+00 1.899541258811950684e+00
3.968000000000000000e+03 5.991684436798095703e+00 -6.345891475677490234e+00 6.826628446578979492e-01 2.144517421722412109e+00 8.481540679931640625e-01 1.846095323562622070e+00
3.969000000000000000e+03 7.404576778411865234e+00 -5.224462509155273438e+00 1.258199214935302734e+00 2.747242689132690430e+00 1.201632618904113770e+00 2.068138360977172852e+00
3.970000000000000000e+03 1.031860160827636719e+01 -4.975081920623779297e+00 1.008902072906494141e+00 6.133312225341796875e+00 2.142664432525634766e+00 8.252468109130859375e-01
3.971000000000000000e+03 7.920582294464111328e+00 -6.941816806793212891e+00 6.903887987136840820e-01 3.044358730316162109e+00 1.120424270629882812e+00 2.151708364486694336e+00
3.972000000000000000e+03 7.238459110260009766e+00 -7.089342117309570312e+00 5.383463501930236816e-01 2.815313100814819336e+00 1.006097793579101562e+00 2.167375087738037109e+00
3.973000000000000000e+03 1.055640602111816406e+01 -6.137498855590820312e+00 1.080427885055541992e+00 5.161623477935791016e+00 1.872615456581115723e+00 7.252169847488403320e-01
3.974000000000000000e+03 9.105788230895996094e+00 -6.196293830871582031e+00 9.831845164299011230e-01 4.081238269805908203e+00 1.519326925277709961e+00 1.766319036483764648e+00
3.975000000000000000e+03 5.304156494140625000e+01 -3.416116333007812500e+01 2.217059373855590820e+00 7.670938491821289062e+00 2.966399431228637695e+00 -6.366720795631408691e-02
3.976000000000000000e+03 7.704307556152343750e+00 -4.758935451507568359e+00 1.394800543785095215e+00 3.007266998291015625e+00 1.320620298385620117e+00 2.124021053314208984e+00
3.977000000000000000e+03 8.643266677856445312e+00 -4.957783222198486328e+00 1.260376691818237305e+00 4.012420177459716797e+00 1.581839084625244141e+00 2.005878925323486328e+00
3.978000000000000000e+03 6.089729785919189453e+00 4.623560428619384766e+00 1.180272176861763000e-01 3.117079019546508789e+00 9.705318212509155273e-01 -1.728772640228271484e+00
3.979000000000000000e+03 9.646519660949707031e+00 -4.964367866516113281e+00 1.089504361152648926e+00 5.326051235198974609e+00 1.924666643142700195e+00 1.392102599143981934e+00
3.980000000000000000e+03 7.146930694580078125e+00 -6.434313774108886719e+00 7.976904511451721191e-01 2.668126344680786133e+00 1.039744973182678223e+00 2.086677312850952148e+00
3.981000000000000000e+03 8.149888038635253906e+00 -6.433019161224365234e+00 8.743928074836730957e-01 3.361787319183349609e+00 1.270853996276855469e+00 2.079179525375366211e+00
3.982000000000000000e+03 8.185604095458984375e+00 -5.896867275238037109e+00 1.040803313255310059e+00 3.383767366409301758e+00 1.327371239662170410e+00 2.082135677337646484e+00
3.983000000000000000e+03 8.677210807800292969e+00 -5.718795776367187500e+00 1.071222066879272461e+00 3.823644638061523438e+00 1.468459963798522949e+00 1.894021868705749512e+00
3.984000000000000000e+03 7.580924510955810547e+00 -6.303055763244628906e+00 8.880158662796020508e-01 2.897072315216064453e+00 1.135526418685913086e+00 2.143382549285888672e+00
3.985000000000000000e+03 8.208409309387207031e+00 3.715119552612304688e+01 -4.116750359535217285e-01 1.319644808769226074e+00 2.723909318447113037e-01 6.320267319679260254e-01
3.986000000000000000e+03 7.079314708709716797e+00 -5.581241607666015625e+00 1.109218955039978027e+00 2.469700336456298828e+00 1.073675870895385742e+00 2.030075073242187500e+00
3.987000000000000000e+03 8.390851974487304688e+00 -5.283915996551513672e+00 1.188844919204711914e+00 3.759282588958740234e+00 1.484438180923461914e+00 2.077969789505004883e+00
3.988000000000000000e+03 1.000084018707275391e+01 -6.121138095855712891e+00 1.057566523551940918e+00 4.801960945129394531e+00 1.757858157157897949e+00 1.072107195854187012e+00
3.989000000000000000e+03 7.613985538482666016e+00 -5.835948944091796875e+00 1.002592682838439941e+00 2.987356662750244141e+00 1.196984887123107910e+00 2.081250429153442383e+00
3.990000000000000000e+03 8.082768440246582031e+00 -5.104860782623291016e+00 1.288585543632507324e+00 3.362400054931640625e+00 1.395295739173889160e+00 2.091187715530395508e+00
3.991000000000000000e+03 8.090400695800781250e+00 -5.455262184143066406e+00 1.143291115760803223e+00 3.401544332504272461e+00 1.363450646400451660e+00 2.045242071151733398e+00
3.992000000000000000e+03 8.147031784057617188e+00 -4.141450881958007812e+01 -1.028139352798461914e+00 4.373929023742675781e+00 1.003736853599548340e+00 2.663126587867736816e-01
3.993000000000000000e+03 8.828113555908203125e+00 -3.915552520751953125e+01 -8.105198740959167480e-01 4.102075576782226562e+00 9.874666929244995117e-01 8.155640959739685059e-01
3.994000000000000000e+03 3.357870483398437500e+01 -3.261660766601562500e+01 1.493970513343811035e+00 1.934653282165527344e+00 1.028587102890014648e+00 -1.126462128013372421e-02
3.995000000000000000e+03 1.961090087890625000e+01 3.955234527587890625e+01 -9.070588946342468262e-01 3.427951812744140625e+00 7.562678456306457520e-01 -2.854560911655426025e-01
3.996000000000000000e+03 6.199629974365234375e+01 3.830703735351562500e+01 -6.185756325721740723e-01 2.395383119583129883e+00 5.330421924591064453e-01 -6.356785297393798828e-01
3.997000000000000000e+03 6.366215705871582031e+00 -3.855564880371093750e+01 -3.614397346973419189e-01 4.368825435638427734e+00 1.202215671539306641e+00 6.698293685913085938e-01
3.998000000000000000e+03 1.108748817443847656e+01 3.858806991577148438e+01 2.392959892749786377e-01 4.665697515010833740e-01 2.117597162723541260e-01 -2.220872491598129272e-01
3.999000000000000000e+03 7.503629302978515625e+01 4.047055816650390625e+01 -1.166268661618232727e-01 6.696053028106689453e+00 1.973827838897705078e+00 1.690261363983154297e-01
4.000000000000000000e+03 2.396257019042968750e+01 3.792928695678710938e+01 -7.577930092811584473e-01 4.108572006225585938e+00 1.005233645439147949e+00 1.478747427463531494e-01
4.001000000000000000e+03 2.897574234008789062e+01 -3.694320297241210938e+01 9.235458448529243469e-03 5.296243190765380859e+00 1.591643691062927246e+00 -9.300200343132019043e-01
4.002000000000000000e+03 2.674796485900878906e+01 -3.676194000244140625e+01 4.024586379528045654e-01 5.933035373687744141e+00 1.900648236274719238e+00 -7.430959939956665039e-01
4.003000000000000000e+03 2.308736991882324219e+01 4.092546081542968750e+01 -9.658371806144714355e-01 3.957717895507812500e+00 8.975642323493957520e-01 -4.417095705866813660e-02
4.004000000000000000e+03 1.118467569351196289e+00 1.648824930191040039e+00 -3.473070636391639709e-02 -1.454397588968276978e-01 -5.405114218592643738e-02 1.989092677831649780e-01
4.005000000000000000e+03 2.202461004257202148e+00 1.845449328422546387e+00 -2.761480584740638733e-02 1.591217331588268280e-02 -3.510789945721626282e-03 2.483301460742950439e-01
4.006000000000000000e+03 2.398023128509521484e+00 2.028422594070434570e+00 2.717251703143119812e-02 5.149255320429801941e-02 2.359952032566070557e-02 2.098346501588821411e-01
4.007000000000000000e+03 4.016091346740722656e+00 1.974330663681030273e+00 2.137145251035690308e-01 3.256138563156127930e-01 1.617985069751739502e-01 -9.638943523168563843e-02
4.008000000000000000e+03 4.476819992065429688e+00 2.015489816665649414e+00 3.358879685401916504e-01 4.013364315032958984e-01 2.211673110723495483e-01 -2.688439488410949707e-01
4.009000000000000000e+03 4.877201557159423828e+00 1.978123068809509277e+00 4.443602263927459717e-01 4.887689352035522461e-01 2.799387574195861816e-01 -4.231626093387603760e-01
4.010000000000000000e+03 5.065738677978515625e+00 1.977220892906188965e+00 5.424551367759704590e-01 5.458144545555114746e-01 3.264808952808380127e-01 -5.340820550918579102e-01
4.011000000000000000e+03 5.702183723449707031e+00 1.696475744247436523e+00 7.494442462921142578e-01 5.283504724502563477e-01 3.833384215831756592e-01 -7.454233169555664062e-01
4.012000000000000000e+03 5.922012329101562500e+00 2.130514383316040039e+00 1.023442983627319336e+00 8.989498019218444824e-01 5.767178535461425781e-01 -1.157001495361328125e+00
4.013000000000000000e+03 6.516942024230957031e+00 1.644939184188842773e+00 1.302910566329956055e+00 7.504019737243652344e-01 6.159937381744384766e-01 -1.305391430854797363e+00
4.014000000000000000e+03 6.711374282836914062e+00 1.620365858078002930e+00 1.474258303642272949e+00 8.209828138351440430e-01 6.885723471641540527e-01 -1.470081448554992676e+00
4.015000000000000000e+03 6.905318260192871094e+00 1.604613542556762695e+00 1.689087986946105957e+00 9.075467586517333984e-01 7.789903879165649414e-01 -1.669410347938537598e+00
4.016000000000000000e+03 7.099867343902587891e+00 1.601213097572326660e+00 1.918287515640258789e+00 9.971194267272949219e-01 8.746220469474792480e-01 -1.901177048683166504e+00
4.017000000000000000e+03 7.084323406219482422e+00 1.954525470733642578e+00 1.862575531005859375e+00 1.380425691604614258e+00 9.729003310203552246e-01 -2.177209377288818359e+00
4.018000000000000000e+03 7.490984439849853516e+00 1.634760856628417969e+00 2.316119432449340820e+00 1.426585435867309570e+00 1.122811436653137207e+00 -2.441635847091674805e+00
4.019000000000000000e+03 7.982164859771728516e+00 1.926919221878051758e+00 2.680837392807006836e+00 2.696667194366455078e+00 1.613251447677612305e+00 -3.648047447204589844e+00
4.020000000000000000e+03 8.301059722900390625e+00 1.849509119987487793e+00 3.068271875381469727e+00 3.248283863067626953e+00 1.894966721534729004e+00 -4.199744224548339844e+00
4.021000000000000000e+03 8.875420570373535156e+00 2.008173227310180664e+00 2.620984315872192383e+00 5.838950634002685547e+00 2.537980556488037109e+00 -5.182662963867187500e+00
4.022000000000000000e+03 8.650748252868652344e+00 1.978306651115417480e+00 2.857878208160400391e+00 4.789589881896972656e+00 2.294240474700927734e+00 -4.877607345581054688e+00
4.023000000000000000e+03 9.547869682312011719e+00 2.020668268203735352e+00 1.960746049880981445e+00 9.251701354980468750e+00 3.363734483718872070e+00 -5.334775447845458984e+00
4.024000000000000000e+03 9.763087272644042969e+00 1.997079133987426758e+00 1.660736799240112305e+00 1.031939506530761719e+01 3.594039440155029297e+00 -4.973722457885742188e+00
4.025000000000000000e+03 1.032240676879882812e+01 1.610203146934509277e+00 2.085082530975341797e+00 1.368199729919433594e+01 4.730123996734619141e+00 -3.142846584320068359e+00
4.026000000000000000e+03 9.968128204345703125e+00 1.960991740226745605e+00 1.576698303222656250e+00 1.126746368408203125e+01 3.853248596191406250e+00 -4.489741325378417969e+00
4.027000000000000000e+03 1.059099006652832031e+01 1.881418347358703613e+00 1.708631992340087891e+00 1.267001819610595703e+01 4.313595294952392578e+00 -2.105169534683227539e+00
4.028000000000000000e+03 1.167873477935791016e+01 1.171483397483825684e+00 5.719292163848876953e+00 1.030895805358886719e+01 4.808475017547607422e+00 9.424415230751037598e-01
4.029000000000000000e+03 1.218313026428222656e+01 9.840261340141296387e-01 6.116467475891113281e+00 8.653232574462890625e+00 4.430910110473632812e+00 6.829505562782287598e-01
4.030000000000000000e+03 1.053827095031738281e+01 -1.569613218307495117e+00 1.693074941635131836e+00 1.366833782196044922e+01 4.608423709869384766e+00 1.324949264526367188e-01
4.031000000000000000e+03 5.128858685493469238e-01 2.072516918182373047e+00 2.281170152127742767e-02 -3.131014704704284668e-01 -8.708693832159042358e-02 9.714808315038681030e-02
4.032000000000000000e+03 8.267450332641601562e-01 3.642743349075317383e+00 3.493365272879600525e-02 -4.578182995319366455e-01 -1.268653869628906250e-01 1.218896210193634033e-01
4.033000000000000000e+03 2.732500731945037842e-01 3.662803888320922852e+00 -9.702872484922409058e-03 -6.568328142166137695e-01 -1.999607086181640625e-01 2.091926336288452148e-02
4.034000000000000000e+03 1.020518970489501953e+01 -1.917788863182067871e+00 1.285110831260681152e+00 1.169757747650146484e+01 3.894806385040283203e+00 1.749661803245544434e+00
4.035000000000000000e+03 9.807801246643066406e+00 -1.995654582977294922e+00 1.626197576522827148e+00 9.434797286987304688e+00 3.318298578262329102e+00 2.840494871139526367e+00
4.036000000000000000e+03 8.285606384277343750e+00 -1.676518678665161133e+00 2.690429925918579102e+00 1.879758715629577637e+00 1.371056675910949707e+00 2.182545185089111328e+00
4.037000000000000000e+03 8.325724601745605469e+00 -2.023790597915649414e+00 2.584529161453247070e+00 2.602447509765625000e+00 1.556092977523803711e+00 2.484112977981567383e+00
4.038000000000000000e+03 7.930846214294433594e+00 -1.911881208419799805e+00 2.446392059326171875e+00 1.623134851455688477e+00 1.220858097076416016e+00 1.897979021072387695e+00
4.039000000000000000e+03 7.124770641326904297e+00 -1.856273174285888672e+00 1.711266040802001953e+00 6.165314912796020508e-01 6.983392238616943359e-01 9.590205550193786621e-01
4.040000000000000000e+03 6.931768417358398438e+00 -1.900421380996704102e+00 1.596569895744323730e+00 5.219821929931640625e-01 6.355656385421752930e-01 8.568691611289978027e-01
4.041000000000000000e+03 6.115360736846923828e+00 -1.647176027297973633e+00 8.268840312957763672e-01 1.935972720384597778e-01 3.061443865299224854e-01 3.184164166450500488e-01
4.042000000000000000e+03 5.416519165039062500e+00 -1.902803301811218262e+00 6.607516407966613770e-01 1.355193555355072021e-01 2.388812899589538574e-01 2.249634265899658203e-01
4.043000000000000000e+03 4.501766204833984375e+00 -1.860077977180480957e+00 3.591279387474060059e-01 9.061776846647262573e-02 1.349237114191055298e-01 2.993440255522727966e-02
4.044000000000000000e+03 4.029156208038330078e+00 -1.857840180397033691e+00 2.683398723602294922e-01 8.110894262790679932e-02 1.048346459865570068e-01 -2.618973702192306519e-02
4.045000000000000000e+03 2.571892499923706055e+00 -1.876419544219970703e+00 6.494058668613433838e-02 8.724155835807323456e-03 2.209942229092121124e-02 -1.389987319707870483e-01
4.046000000000000000e+03 1.670072197914123535e+00 -1.709565520286560059e+00 1.021432876586914062e-02 -5.265209078788757324e-02 -1.273132860660552979e-02 -1.620485931634902954e-01
4.047000000000000000e+03 7.247473597526550293e-01 -1.610021114349365234e+00 -3.884408390149474144e-03 -1.118154227733612061e-01 -3.470994904637336731e-02 -1.058855056762695312e-01
4.048000000000000000e+03 7.798764801025390625e+01 4.165800476074218750e+01 3.995940089225769043e-02 7.347953319549560547e+00 2.216373682022094727e+00 -1.114605460315942764e-02
4.049000000000000000e+03 5.510357666015625000e+01 -2.450877761840820312e+01 -3.514213263988494873e-01 7.646738529205322266e+00 2.188595294952392578e+00 2.185517787933349609e+00
4.050000000000000000e+03 1.933074378967285156e+01 3.419240188598632812e+01 -9.458075761795043945e-01 5.304532527923583984e+00 1.307617545127868652e+00 -6.214720606803894043e-01
4.051000000000000000e+03 1.062787723541259766e+01 2.104337120056152344e+01 -1.042275547981262207e+00 1.122452139854431152e+00 2.405297756195068359e-02 -2.350943721830844879e-02
4.052000000000000000e+03 3.900566864013671875e+01 1.271486997604370117e+00 -1.090476632118225098e+00 7.264437675476074219e+00 1.852188348770141602e+00 2.257710218429565430e+00
4.053000000000000000e+03 3.067331695556640625e+01 1.287271308898925781e+01 -9.711035490036010742e-01 6.113024234771728516e+00 1.542576193809509277e+00 4.134414672851562500e+00
4.054000000000000000e+03 5.134954452514648438e+01 -5.017977714538574219e+00 1.794296264648437500e+00 8.889733314514160156e+00 3.205208778381347656e+00 2.670662105083465576e-01
4.055000000000000000e+03 3.028200531005859375e+01 -2.745202636718750000e+01 -9.504474401473999023e-01 4.647497177124023438e+00 1.109114885330200195e+00 -8.909652829170227051e-01
4.056000000000000000e+03 9.322548866271972656e+00 -1.214650726318359375e+01 -3.235369682312011719e+00 1.041575312614440918e+00 -6.581382751464843750e-01 2.210308551788330078e+00
4.057000000000000000e+03 4.903897476196289062e+01 -8.664158821105957031e+00 2.438745737075805664e+00 8.230240821838378906e+00 3.200695991516113281e+00 8.522323369979858398e-01
4.058000000000000000e+03 5.251263809204101562e+01 2.953422164916992188e+01 1.220288515090942383e+00 8.743950843811035156e+00 2.989271879196166992e+00 1.165572285652160645e+00
4.059000000000000000e+03 5.309140396118164062e+01 2.717388343811035156e+01 1.560558795928955078e+00 8.238784790039062500e+00 2.939802885055541992e+00 -7.513336539268493652e-01
4.060000000000000000e+03 5.132201385498046875e+01 2.684625434875488281e+01 1.973863840103149414e+00 6.758286476135253906e+00 2.619645118713378906e+00 2.915494441986083984e-01
4.061000000000000000e+03 6.165044784545898438e+01 9.053170204162597656e+00 6.669140458106994629e-01 5.575936794281005859e+00 1.872855186462402344e+00 -2.027743339538574219e+00
4.062000000000000000e+03 6.044699859619140625e+01 1.766399765014648438e+01 2.462369203567504883e+00 8.122210502624511719e+00 3.175374031066894531e+00 2.337653160095214844e+00
4.063000000000000000e+03 6.954946899414062500e+01 6.186018943786621094e+00 -4.229645431041717529e-01 2.895023345947265625e+00 7.416176199913024902e-01 2.070459365844726562e+00
4.064000000000000000e+03 2.763401985168457031e+01 1.335256958007812500e+01 2.181759476661682129e-01 7.472547888755798340e-01 2.896292209625244141e-01 1.953707814216613770e+00
4.065000000000000000e+03 1.517125034332275391e+01 -3.969079589843750000e+01 -1.878318786621093750e+00 4.784594178199768066e-01 -4.199577867984771729e-01 2.457162886857986450e-01
4.066000000000000000e+03 5.761317062377929688e+01 -3.903377532958984375e+01 -1.645413398742675781e+00 4.618830204010009766e+00 8.920251131057739258e-01 -7.886880636215209961e-01
4.067000000000000000e+03 5.834645843505859375e+01 -2.624384498596191406e+01 -1.619963526725769043e+00 5.636792659759521484e+00 1.205048680305480957e+00 2.112658023834228516e+00
4.068000000000000000e+03 5.594719314575195312e+01 -3.919844818115234375e+01 -2.299687147140502930e+00 6.404241085052490234e+00 1.231366157531738281e+00 -9.613263607025146484e-01
4.069000000000000000e+03 9.460791349411010742e-01 -1.854709625244140625e+00 3.712854231707751751e-04 -1.137453764677047729e-01 -3.401222825050354004e-02 -1.135014519095420837e-01
4.070000000000000000e+03 1.250515270233154297e+01 -4.171274185180664062e+01 -1.807793498039245605e+00 2.818554639816284180e+00 3.032283484935760498e-01 7.186449947766959667e-04
4.071000000000000000e+03 1.293891620635986328e+01 -4.026376724243164062e+01 -1.960995197296142578e+00 2.814367771148681641e+00 2.560117840766906738e-01 1.350448876619338989e-01
4.072000000000000000e+03 2.185015487670898438e+01 2.984881019592285156e+01 7.279408574104309082e-01 6.644993782043457031e+00 2.211880445480346680e+00 8.592951893806457520e-01
4.073000000000000000e+03 6.247681808471679688e+01 -2.046485710144042969e+01 2.507385253906250000e+00 6.010307788848876953e+00 2.555307865142822266e+00 -1.518603801727294922e+00
4.074000000000000000e+03 6.264575195312500000e+01 -8.681592941284179688e+00 1.009051203727722168e+00 8.959797859191894531e+00 2.990654706954956055e+00 6.045329570770263672e-01
4.075000000000000000e+03 4.693949508666992188e+01 -3.843497467041015625e+01 -1.620640516281127930e+00 2.006482601165771484e+00 1.157526373863220215e-01 8.130016326904296875e-01
4.076000000000000000e+03 4.555252838134765625e+01 -4.015552139282226562e+01 -9.833846688270568848e-01 7.002312541007995605e-01 -8.494602888822555542e-02 6.643992662429809570e-01
4.077000000000000000e+03 6.803912353515625000e+01 -3.875637817382812500e+01 -1.001172542572021484e+00 5.443714618682861328e+00 1.332762598991394043e+00 -3.671561479568481445e-01
4.078000000000000000e+03 3.399882888793945312e+01 2.013970375061035156e+01 9.942349195480346680e-01 7.654197216033935547e+00 2.594529628753662109e+00 -3.966905772686004639e-01
4.079000000000000000e+03 6.716624259948730469e+00 2.106004142761230469e+01 -1.477107882499694824e+00 4.546044349670410156e+00 9.206809997558593750e-01 -1.478936195373535156e+00
4.080000000000000000e+03 2.454447746276855469e+01 1.468745231628417969e+01 -2.388185977935791016e+00 2.647431373596191406e+00 7.777361571788787842e-02 -8.463442921638488770e-01
4.081000000000000000e+03 2.434850692749023438e+01 1.291790866851806641e+01 6.117890477180480957e-01 3.553433418273925781e+00 1.249566674232482910e+00 -1.108484983444213867e+00
4.082000000000000000e+03 5.622183609008789062e+01 -3.781935119628906250e+01 -1.501887321472167969e+00 6.826634883880615234e+00 1.597424268722534180e+00 -9.956163763999938965e-01
4.083000000000000000e+03 1.699615287780761719e+01 -1.868505859375000000e+01 2.425419092178344727e+00 8.979832649230957031e+00 3.421575546264648438e+00 -4.154672622680664062e-01
4.084000000000000000e+03 9.608086585998535156e+00 -3.344002151489257812e+01 1.451445341110229492e+00 3.819532632827758789e+00 1.581293344497680664e+00 1.071752667427062988e+00
4.085000000000000000e+03 4.207777023315429688e+01 -2.439637184143066406e+01 2.763837337493896484e+00 4.924522876739501953e+00 2.306508064270019531e+00 1.479630708694458008e+00
4.086000000000000000e+03 3.575555038452148438e+01 -3.030817794799804688e+01 5.173702836036682129e-01 1.461872339248657227e+00 5.937727689743041992e-01 6.582573652267456055e-01
4.087000000000000000e+03 9.011096000671386719e+00 -1.081303119659423828e+01 -1.309135556221008301e+00 1.828523993492126465e+00 1.558165252208709717e-01 2.946747779846191406e+00
4.088000000000000000e+03 4.064385604858398438e+01 -1.647649765014648438e+01 -1.174884885549545288e-01 3.806175231933593750e+00 1.106606006622314453e+00 -2.089258432388305664e+00
4.089000000000000000e+03 5.035548019409179688e+01 -8.958403587341308594e+00 1.892932295799255371e+00 7.161786556243896484e+00 2.716415643692016602e+00 4.290016889572143555e-01
4.090000000000000000e+03 5.129988098144531250e+01 -1.368176841735839844e+01 -2.702351808547973633e-01 2.494372844696044922e+00 6.672412753105163574e-01 -1.211232304573059082e+00
4.091000000000000000e+03 3.500764083862304688e+01 -3.105996322631835938e+01 1.216051220893859863e+00 1.060612201690673828e+00 6.829990148544311523e-01 3.604644536972045898e-01
4.092000000000000000e+03 1.725686669349670410e+00 2.879324340820312500e+01 4.877128303050994873e-01 4.442119598388671875e+00 1.478949666023254395e+00 -7.355066537857055664e-01
4.093000000000000000e+03 5.673540878295898438e+01 1.750872850418090820e+00 -7.602233886718750000e-01 1.635201692581176758e+00 2.624934911727905273e-01 2.307101339101791382e-01
4.094000000000000000e+03 1.368717479705810547e+01 -3.908740615844726562e+01 -1.104470491409301758e+00 2.141024827957153320e+00 3.109663426876068115e-01 1.814669519662857056e-01
4.095000000000000000e+03 7.345570373535156250e+01 7.970526218414306641e+00 2.438442461425438523e-04 8.055886268615722656e+00 2.416838884353637695e+00 -3.024837374687194824e-01
4.096000000000000000e+03 5.482571029663085938e+01 -3.582832336425781250e+01 8.664755225181579590e-01 7.527706623077392578e+00 2.518254518508911133e+00 -1.703584641218185425e-01
4.097000000000000000e+03 5.633456230163574219e+00 -2.005329370498657227e+00 8.292478322982788086e-01 2.402659654617309570e-01 3.208541572093963623e-01 3.339900970458984375e-01
4.098000000000000000e+03 5.297835826873779297e+00 -2.215356826782226562e+00 8.335323333740234375e-01 2.530120611190795898e-01 3.259633183479309082e-01 3.080839216709136963e-01
4.099000000000000000e+03 5.853076934814453125e+00 -2.167722463607788086e+00 1.053598403930664062e+00 2.528800666332244873e-01 3.919435441493988037e-01 4.740712046623229980e-01
4.100000000000000000e+03 3.230123281478881836e+00 1.807828187942504883e+00 4.225813969969749451e-02 1.292086094617843628e-01 5.144002288579940796e-02 1.277940422296524048e-01
4.101000000000000000e+03 3.269785881042480469e+00 2.164353370666503906e+00 1.296374946832656860e-01 1.996128559112548828e-01 9.877510368824005127e-02 7.293409109115600586e-02
4.102000000000000000e+03 1.055342793464660645e+00 1.854384064674377441e+00 -1.444855704903602600e-03 -1.682083159685134888e-01 -5.089595168828964233e-02 2.121582329273223877e-01
4.103000000000000000e+03 6.769488525390625000e+01 -1.486225986480712891e+01 -7.005956768989562988e-01 7.766699790954589844e-01 2.282229065895080566e-02 -4.668643772602081299e-01
4.104000000000000000e+03 2.020801925659179688e+01 2.315807723999023438e+01 5.877357125282287598e-01 8.059633255004882812e+00 2.594210624694824219e+00 -4.966445863246917725e-01
4.105000000000000000e+03 6.502101135253906250e+01 -2.730149841308593750e+01 -1.263243079185485840e+00 8.397915840148925781e+00 2.140401840209960938e+00 -2.458620309829711914e+00
4.106000000000000000e+03 1.904702186584472656e+01 2.214958000183105469e+01 1.063280582427978516e+00 4.049963474273681641e+00 1.533973097801208496e+00 -8.825005032122135162e-03
4.107000000000000000e+03 4.294390487670898438e+01 -2.588070678710937500e+01 8.322670459747314453e-01 2.039363384246826172e+00 8.614891171455383301e-01 4.525544345378875732e-01
4.108000000000000000e+03 7.301939392089843750e+01 1.406245899200439453e+01 1.319807410240173340e+00 1.124295806884765625e+01 3.768829584121704102e+00 -3.882382810115814209e-01
4.109000000000000000e+03 4.538037490844726562e+01 3.546703720092773438e+01 -1.275225162506103516e+00 4.098379135131835938e+00 8.469461202621459961e-01 -1.100427746772766113e+00
4.110000000000000000e+03 2.012727737426757812e+00 2.508859634399414062e+00 6.652432680130004883e-02 5.348341539502143860e-02 3.600232303142547607e-02 1.989689320325851440e-01
4.111000000000000000e+03 8.818225264549255371e-01 1.933747649192810059e+00 1.461552735418081284e-02 -2.086325585842132568e-01 -5.820510908961296082e-02 1.705223768949508667e-01
4.112000000000000000e+03 1.806249237060546875e+01 -1.896417427062988281e+01 2.556708574295043945e+00 5.151391029357910156e+00 2.312429904937744141e+00 -1.035377264022827148e+00
4.113000000000000000e+03 8.766907691955566406e+00 -2.086621522903442383e+00 2.531041145324707031e+00 4.071617603302001953e+00 1.980797648429870605e+00 2.942533731460571289e+00
4.114000000000000000e+03 3.883152961730957031e+00 2.289837598800659180e+00 2.792642414569854736e-01 3.932266533374786377e-01 2.017472684383392334e-01 -1.097963377833366394e-01
4.115000000000000000e+03 5.587060165405273438e+01 -3.625258255004882812e+01 1.098004654049873352e-01 7.961398124694824219e+00 2.421359539031982422e+00 -4.850204288959503174e-01
4.116000000000000000e+03 3.085413694381713867e+00 -2.131744146347045898e+00 2.087198942899703979e-01 5.192978307604789734e-02 7.819490134716033936e-02 -7.364192605018615723e-02
4.117000000000000000e+03 7.769279956817626953e+00 -1.776847839355468750e+00 2.213993072509765625e+00 1.072556972503662109e+00 9.859649538993835449e-01 1.474390268325805664e+00
4.118000000000000000e+03 7.465839862823486328e+00 -2.088896274566650391e+00 2.042034864425659180e+00 1.070140361785888672e+00 9.336525797843933105e-01 1.432040691375732422e+00
4.119000000000000000e+03 7.838788509368896484e+00 -2.251197576522827148e+00 2.291212320327758789e+00 1.850516319274902344e+00 1.242518544197082520e+00 1.926521658897399902e+00
4.120000000000000000e+03 8.102991104125976562e+00 -2.450662612915039062e+00 2.370342016220092773e+00 2.573086023330688477e+00 1.483028411865234375e+00 2.337357521057128906e+00
4.121000000000000000e+03 1.180589199066162109e+01 -1.498242974281311035e+00 4.059599399566650391e+00 1.074332427978515625e+01 4.440876960754394531e+00 -2.927280664443969727e+00
4.122000000000000000e+03 1.173685932159423828e+01 -2.190552949905395508e+00 2.433938503265380859e+00 1.056115150451660156e+01 3.898526906967163086e+00 -2.212453603744506836e+00
4.123000000000000000e+03 1.191660785675048828e+01 -8.614154458045959473e-01 6.320183753967285156e+00 1.008416938781738281e+01 4.921306133270263672e+00 -3.053085803985595703e+00
4.124000000000000000e+03 1.247358322143554688e+01 -8.302426338195800781e-01 5.939473152160644531e+00 8.472846984863281250e+00 4.323696136474609375e+00 -2.405492305755615234e+00
4.125000000000000000e+03 1.256380653381347656e+01 -3.149640262126922607e-01 6.862734794616699219e+00 7.896962642669677734e+00 4.427909374237060547e+00 -1.565240144729614258e+00
4.126000000000000000e+03 1.180411815643310547e+01 7.845592498779296875e-01 7.220718383789062500e+00 9.623320579528808594e+00 5.053211688995361328e+00 7.080161571502685547e-01
4.127000000000000000e+03 1.265445613861083984e+01 3.139406144618988037e-01 6.594777107238769531e+00 7.333888053894042969e+00 4.178599357604980469e+00 -2.690011858940124512e-01
4.128000000000000000e+03 1.209231185913085938e+01 5.391604900360107422e-01 7.422237396240234375e+00 8.694418907165527344e+00 4.834996700286865234e+00 7.374945282936096191e-02
4.129000000000000000e+03 1.230924320220947266e+01 7.622449398040771484e-01 6.692223072052001953e+00 8.279357910156250000e+00 4.491474151611328125e+00 4.636386036872863770e-01
4.130000000000000000e+03 6.828940868377685547e+00 2.027799129486083984e+00 1.674924135208129883e+00 1.327406048774719238e+00 9.006990790367126465e-01 -2.002212285995483398e+00
4.131000000000000000e+03 6.706882953643798828e+00 2.179057121276855469e+00 1.509876608848571777e+00 1.434869527816772461e+00 8.834238052368164062e-01 -1.980789899826049805e+00
4.132000000000000000e+03 7.329593658447265625e+00 2.102177381515502930e+00 1.992667913436889648e+00 1.920276761054992676e+00 1.173883438110351562e+00 -2.706427812576293945e+00
4.133000000000000000e+03 6.260210990905761719e+00 2.478293180465698242e+00 1.170942783355712891e+00 1.423433661460876465e+00 7.783129215240478516e-01 -1.662143588066101074e+00
4.134000000000000000e+03 5.559102058410644531e+00 2.378374576568603516e+00 8.554424643516540527e-01 9.041057825088500977e-01 5.278644561767578125e-01 -9.945360422134399414e-01
4.135000000000000000e+03 4.734911918640136719e+00 2.467337369918823242e+00 5.311654210090637207e-01 7.081820368766784668e-01 3.718042373657226562e-01 -5.273561477661132812e-01
4.136000000000000000e+03 4.157994747161865234e+00 2.432314395904541016e+00 3.620767891407012939e-01 5.208371281623840332e-01 2.648741602897644043e-01 -2.557124197483062744e-01
4.137000000000000000e+03 7.790044403076171875e+01 -3.563035964965820312e+01 -6.068322807550430298e-03 7.187786102294921875e+00 2.154515266418457031e+00 -1.062774434685707092e-01
4.138000000000000000e+03 3.221635055541992188e+01 2.953831100463867188e+01 8.384615778923034668e-01 6.244165420532226562e+00 2.124788045883178711e+00 -1.300799727439880371e+00
4.139000000000000000e+03 3.929550552368164062e+01 -2.964117813110351562e+01 -3.428717851638793945e-01 8.777421951293945312e+00 2.530365228652954102e+00 2.050339937210083008e+00
4.140000000000000000e+03 7.847702980041503906e+00 2.153145313262939453e+00 2.336097717285156250e+00 2.874530315399169922e+00 1.563188433647155762e+00 -3.558848381042480469e+00
4.141000000000000000e+03 8.137638092041015625e+00 2.047841310501098633e+00 2.630748510360717773e+00 3.357580184936523438e+00 1.796498656272888184e+00 -4.027659416198730469e+00
4.142000000000000000e+03 8.328853607177734375e+00 2.051226377487182617e+00 2.650581598281860352e+00 3.879348993301391602e+00 1.958979249000549316e+00 -4.356375217437744141e+00
4.143000000000000000e+03 9.593296051025390625e+00 2.360976457595825195e+00 1.124761343002319336e+00 9.015524864196777344e+00 3.042085886001586914e+00 -4.832270622253417969e+00
4.144000000000000000e+03 1.167233657836914062e+01 2.017881155014038086e+00 2.661638736724853516e+00 9.766936302185058594e+00 3.728572368621826172e+00 3.293136060237884521e-01
4.145000000000000000e+03 1.186604690551757812e+01 1.645682811737060547e+00 3.986485242843627930e+00 9.518348693847656250e+00 4.051450252532958984e+00 8.633396029472351074e-01
4.146000000000000000e+03 5.158684730529785156e+00 2.383753585815429688e+01 -7.927268743515014648e-01 6.080071449279785156e+00 1.586203455924987793e+00 -2.731925249099731445e-01
4.147000000000000000e+03 3.565296554565429688e+01 -7.232701778411865234e+00 2.391991615295410156e+00 6.310338020324707031e+00 2.610698938369750977e+00 -4.422816932201385498e-01
4.148000000000000000e+03 6.185589313507080078e+00 -2.155718326568603516e+00 1.277081251144409180e+00 4.022327959537506104e-01 5.037941932678222656e-01 6.524335145950317383e-01
4.149000000000000000e+03 6.338053226470947266e+00 -1.899019598960876465e+00 1.107110977172851562e+00 2.911750972270965576e-01 4.194858372211456299e-01 5.152956843376159668e-01
4.150000000000000000e+03 6.407074928283691406e+00 -2.138747215270996094e+00 1.361044645309448242e+00 4.198028743267059326e-01 5.342542529106140137e-01 7.068860530853271484e-01
4.151000000000000000e+03 7.000231742858886719e+00 -2.155142545700073242e+00 1.772514581680297852e+00 7.825745344161987305e-01 7.665267586708068848e-01 1.113373756408691406e+00
4.152000000000000000e+03 7.462030887603759766e+00 -1.825222730636596680e+00 2.024752855300903320e+00 8.095649480819702148e-01 8.502953052520751953e-01 1.247582912445068359e+00
4.153000000000000000e+03 4.820814132690429688e+00 -1.962591767311096191e+00 4.973143935203552246e-01 1.479928344488143921e-01 1.935921609401702881e-01 1.178731471300125122e-01
4.154000000000000000e+03 4.653671264648437500e+00 -2.093338727951049805e+00 5.351187586784362793e-01 1.338959634304046631e-01 2.007044106721878052e-01 1.138971969485282898e-01
4.155000000000000000e+03 2.783416032791137695e+00 -2.052460908889770508e+00 1.353180110454559326e-01 4.917404800653457642e-02 5.534761771559715271e-02 -1.124573349952697754e-01
4.156000000000000000e+03 8.641178131103515625e+00 -2.391585111618041992e+00 2.358366489410400391e+00 3.803085327148437500e+00 1.848435521125793457e+00 2.859444141387939453e+00
4.157000000000000000e+03 7.661236286163330078e+00 -2.392178058624267578e+00 2.182912111282348633e+00 1.618416428565979004e+00 1.140398502349853516e+00 1.805091261863708496e+00
4.158000000000000000e+03 3.185864067077636719e+01 -1.276513385772705078e+01 -1.277897834777832031e+00 4.073618412017822266e+00 8.387162685394287109e-01 1.812854290008544922e+00
4.159000000000000000e+03 2.744467020034790039e+00 2.858127593994140625e+00 1.911794394254684448e-01 2.300924807786941528e-01 1.263815760612487793e-01 8.534725755453109741e-02
4.160000000000000000e+03 3.391729116439819336e+00 -2.570043087005615234e+00 3.595466613769531250e-01 1.355980932712554932e-01 1.485434323549270630e-01 5.294972285628318787e-02
4.161000000000000000e+03 3.720450401306152344e+00 -2.550413846969604492e+00 4.182053506374359131e-01 1.481941640377044678e-01 1.699198633432388306e-01 5.982235819101333618e-02
4.162000000000000000e+03 6.578023529052734375e+01 -1.433190631866455078e+01 -1.452903270721435547e+00 3.989284992218017578e+00 7.609145045280456543e-01 2.465831935405731201e-01
4.163000000000000000e+03 3.363195800781250000e+01 2.759798240661621094e+01 1.253527522087097168e+00 8.963230133056640625e+00 3.065027475357055664e+00 -1.052563562989234924e-01
4.164000000000000000e+03 4.788391590118408203e+00 -1.399892997741699219e+01 -2.253762632608413696e-01 5.436930179595947266e+00 1.563466191291809082e+00 7.859593033790588379e-01
4.165000000000000000e+03 2.667994737625122070e+00 -4.384974002838134766e+00 3.915784358978271484e-01 3.231348097324371338e-01 2.144139707088470459e-01 3.255781233310699463e-01
4.166000000000000000e+03 3.229247331619262695e+00 3.574672317504882812e+01 -5.524162650108337402e-01 5.611671924591064453e+00 1.517776727676391602e+00 -3.757402896881103516e-01
4.167000000000000000e+03 5.329619216918945312e+01 -2.936918449401855469e+01 1.705207228660583496e+00 5.761427879333496094e+00 2.239990711212158203e+00 8.637839555740356445e-01
4.168000000000000000e+03 3.776119613647460938e+01 -3.458178710937500000e+01 1.012204766273498535e+00 4.893417358398437500e+00 1.771686673164367676e+00 1.785779237747192383e+00
4.169000000000000000e+03 3.620063400268554688e+01 -3.437962722778320312e+01 1.556178450584411621e+00 4.099459171295166016e+00 1.696691274642944336e+00 1.499978899955749512e+00
4.170000000000000000e+03 3.373213958740234375e+01 -3.546040725708007812e+01 9.389970898628234863e-01 3.651094675064086914e+00 1.377027511596679688e+00 4.650090038776397705e-01
4.171000000000000000e+03 8.910775184631347656e+00 -9.616292953491210938e+00 -1.937952190637588501e-01 2.313207149505615234e+00 6.358236074447631836e-01 2.646522521972656250e+00
4.172000000000000000e+03 3.470755386352539062e+01 -9.817286491394042969e+00 2.841779708862304688e+00 4.273697853088378906e+00 2.134643316268920898e+00 -4.146242737770080566e-01
4.173000000000000000e+03 5.949982070922851562e+01 -1.387131786346435547e+01 -8.263647556304931641e-01 5.585285186767578125e+00 1.427676081657409668e+00 9.636766314506530762e-01
4.174000000000000000e+03 1.819687843322753906e+01 -2.448320007324218750e+01 -1.004695057868957520e+00 2.011377811431884766e+00 3.020048737525939941e-01 1.115951538085937500e+00
4.175000000000000000e+03 7.804006958007812500e+01 -7.008579730987548828e+00 6.907552480697631836e-01 9.245450019836425781e+00 2.980861425399780273e+00 -4.348194051999598742e-04
4.176000000000000000e+03 7.555437469482421875e+01 -2.071648597717285156e+01 1.039841175079345703e+00 8.822980880737304688e+00 2.958846569061279297e+00 9.098836183547973633e-01
4.177000000000000000e+03 7.666807556152343750e+01 -1.534430027008056641e+01 -8.118305206298828125e-01 8.295761108398437500e+00 2.245179176330566406e+00 8.981851935386657715e-01
4.178000000000000000e+03 7.368905639648437500e+01 -1.428843975067138672e+01 -8.759852647781372070e-01 4.336541652679443359e+00 1.038166999816894531e+00 6.746280193328857422e-01
4.179000000000000000e+03 6.704479980468750000e+01 3.063676357269287109e+00 7.349450141191482544e-02 2.080807209014892578e+00 6.462904810905456543e-01 1.613497972488403320e+00
4.180000000000000000e+03 5.830895614624023438e+01 1.271625900268554688e+01 1.528269171714782715e+00 8.559659957885742188e+00 3.026378631591796875e+00 7.252167463302612305e-01
4.181000000000000000e+03 4.349772930145263672e+00 -1.510457420349121094e+01 7.229298353195190430e-01 5.735113620758056641e+00 1.937413096427917480e+00 8.436394333839416504e-01
4.182000000000000000e+03 6.128892898559570312e+01 7.733761310577392578e+00 -4.388336837291717529e-01 5.436819076538085938e+00 1.499395608901977539e+00 -1.677264094352722168e+00
4.183000000000000000e+03 3.594740676879882812e+01 -2.702217340469360352e+00 2.430443316698074341e-01 3.768587350845336914e+00 1.203489542007446289e+00 1.667351603507995605e+00
4.184000000000000000e+03 4.909033966064453125e+01 3.433874130249023438e+01 -6.059105992317199707e-01 5.960737228393554688e+00 1.606447935104370117e+00 -3.018878102302551270e-01
4.185000000000000000e+03 2.576836776733398438e+01 -1.910981941223144531e+01 2.198374986648559570e+00 3.824028968811035156e+00 1.806721210479736328e+00 -5.356549024581909180e-01
4.186000000000000000e+03 4.972184181213378906e+00 -2.447226524353027344e+01 -2.118460416793823242e+00 3.987174510955810547e+00 5.606142282485961914e-01 -8.412483334541320801e-01
4.187000000000000000e+03 3.110094833374023438e+01 1.855442225933074951e-01 -1.767352581024169922e+00 4.545254230499267578e+00 8.333705067634582520e-01 -1.423072457313537598e+00
4.188000000000000000e+03 7.738219261169433594e+00 -2.081433296203613281e+00 2.255266904830932617e+00 1.496505379676818848e+00 1.125531673431396484e+00 1.743500232696533203e+00
4.189000000000000000e+03 2.207178592681884766e+00 2.195664644241333008e+00 4.330995306372642517e-02 6.243225187063217163e-02 3.172266110777854919e-02 2.148776352405548096e-01
4.190000000000000000e+03 5.619326114654541016e+00 -2.534671306610107422e+00 1.120984673500061035e+00 3.886197805404663086e-01 4.528813362121582031e-01 6.013531684875488281e-01
4.191000000000000000e+03 5.860796451568603516e+00 -2.589213371276855469e+00 1.221589446067810059e+00 4.690512418746948242e-01 5.071921944618225098e-01 6.842352151870727539e-01
4.192000000000000000e+03 7.352547645568847656e+00 -1.970534920692443848e+00 2.020416498184204102e+00 9.366130828857421875e-01 8.871088624000549316e-01 1.295712947845458984e+00
4.193000000000000000e+03 8.691384315490722656e+00 -2.856706380844116211e+00 2.017272949218750000e+00 4.345129489898681641e+00 1.908720850944519043e+00 2.649317502975463867e+00
4.194000000000000000e+03 1.206919479370117188e+01 7.660698890686035156e-01 7.283202648162841797e+00 8.908513069152832031e+00 4.857514858245849609e+00 5.919981002807617188e-01
4.195000000000000000e+03 2.564096260070800781e+01 1.099761009216308594e+01 2.839419603347778320e+00 2.414226531982421875e+00 1.576093792915344238e+00 -4.458327293395996094e-01
4.196000000000000000e+03 2.304497957229614258e+00 2.506591320037841797e+00 1.039840355515480042e-01 8.546003699302673340e-02 5.683322250843048096e-02 1.890129595994949341e-01
4.197000000000000000e+03 9.617181420326232910e-01 2.217612504959106445e+00 -1.818147115409374237e-02 -2.392310053110122681e-01 -7.722374051809310913e-02 1.952092647552490234e-01
4.198000000000000000e+03 7.351045608520507812e+00 -2.253250598907470703e+00 2.015074968338012695e+00 1.178424000740051270e+00 9.580497145652770996e-01 1.445558071136474609e+00
4.199000000000000000e+03 4.467772006988525391e+00 -2.038668632507324219e+00 4.747698307037353516e-01 1.199092045426368713e-01 1.784037053585052490e-01 9.195327013731002808e-02
4.200000000000000000e+03 4.345864772796630859e+00 -2.215325355529785156e+00 4.795553088188171387e-01 1.872383803129196167e-01 2.000381052494049072e-01 1.307397186756134033e-01
4.201000000000000000e+03 4.573187828063964844e+00 -2.363530397415161133e+00 6.325388550758361816e-01 1.632139682769775391e-01 2.387258410453796387e-01 2.038369029760360718e-01
4.202000000000000000e+03 9.668944358825683594e+00 -2.426241874694824219e+00 1.549943089485168457e+00 8.082006454467773438e+00 2.889584779739379883e+00 2.630262613296508789e+00
4.203000000000000000e+03 9.944976806640625000e+00 -2.806269884109497070e+00 1.193739295005798340e+00 8.320067405700683594e+00 2.854142189025878906e+00 1.870168447494506836e+00
4.204000000000000000e+03 1.217587757110595703e+01 -1.702072858810424805e+00 3.829056739807128906e+00 9.903371810913085938e+00 4.119728565216064453e+00 -2.750332117080688477e+00
4.205000000000000000e+03 2.525736236572265625e+01 8.048247337341308594e+00 3.275885820388793945e+00 3.703089952468872070e+00 2.093692779541015625e+00 -4.339918196201324463e-01
4.206000000000000000e+03 2.959058952331542969e+01 -3.309571075439453125e+01 7.823688387870788574e-01 4.443062305450439453e+00 1.567629337310791016e+00 -1.089231729507446289e+00
4.207000000000000000e+03 3.443057298660278320e+00 -2.954203367233276367e+00 4.414135217666625977e-01 1.916088163852691650e-01 1.899067014455795288e-01 1.171052753925323486e-01
4.208000000000000000e+03 8.483218193054199219e+00 -2.998728513717651367e+00 2.047839403152465820e+00 3.987934589385986328e+00 1.810732126235961914e+00 2.583336591720581055e+00
4.209000000000000000e+03 5.333542346954345703e+00 2.575525283813476562e+00 7.519931793212890625e-01 9.636540412902832031e-01 5.146941542625427246e-01 -9.563038349151611328e-01
4.210000000000000000e+03 3.022747421264648438e+01 1.089750051498413086e+00 -2.503644943237304688e+00 5.406566143035888672e+00 8.708763122558593750e-01 -1.825421690940856934e+00
4.211000000000000000e+03 3.257414627075195312e+01 3.065576553344726562e+01 4.910485148429870605e-01 6.325718402862548828e+00 2.045030117034912109e+00 -1.317001342773437500e+00
4.212000000000000000e+03 7.776024341583251953e+00 -2.735150814056396484e+00 2.190114974975585938e+00 2.126787900924682617e+00 1.295070886611938477e+00 2.069923639297485352e+00
4.213000000000000000e+03 6.831464385986328125e+01 -3.316510772705078125e+01 1.636327624320983887e+00 6.060069561004638672e+00 2.308919191360473633e+00 -1.894291639328002930e+00
4.214000000000000000e+03 2.423631477355957031e+01 -1.743048286437988281e+01 1.577108979225158691e+00 1.943642616271972656e+00 1.056225419044494629e+00 -7.184115052223205566e-01
4.215000000000000000e+03 3.356284141540527344e+00 3.451470184326171875e+01 -6.260306239128112793e-01 5.720283985137939453e+00 1.528275966644287109e+00 -6.429681777954101562e-01
4.216000000000000000e+03 6.688508510589599609e+00 -2.858614683151245117e+00 1.715828776359558105e+00 1.084533452987670898e+00 8.401086926460266113e-01 1.295306563377380371e+00
4.217000000000000000e+03 5.942607879638671875e+01 1.781162452697753906e+01 1.791911363601684570e+00 7.069856166839599609e+00 2.658530235290527344e+00 9.935569763183593750e-01
4.218000000000000000e+03 5.912406158447265625e+01 1.685095024108886719e+01 2.155967950820922852e+00 7.463568687438964844e+00 2.885860919952392578e+00 1.165859222412109375e+00
4.219000000000000000e+03 3.421124649047851562e+01 -7.240958690643310547e+00 2.988320827484130859e+00 5.024447917938232422e+00 2.403830766677856445e+00 -3.740701377391815186e-01
4.220000000000000000e+03 5.494541645050048828e+00 -2.839206457138061523e+00 1.135438084602355957e+00 5.123176574707031250e-01 4.943267107009887695e-01 6.582676768302917480e-01
4.221000000000000000e+03 1.185165500640869141e+01 -2.546544551849365234e+00 1.925034880638122559e+00 9.852943420410156250e+00 3.533393383026123047e+00 -1.884347438812255859e+00
4.222000000000000000e+03 1.205528640747070312e+01 -2.094089984893798828e+00 2.882666587829589844e+00 1.010210323333740234e+01 3.895431041717529297e+00 -2.493467330932617188e+00
4.223000000000000000e+03 5.627927780151367188e+01 1.761753463745117188e+01 8.853456974029541016e-01 5.410584449768066406e+00 1.888779044151306152e+00 -1.073254942893981934e+00
4.224000000000000000e+03 3.444030523300170898e+00 2.361078023910522461e+00 1.980436742305755615e-01 3.088036775588989258e-01 1.520542055368423462e-01 1.170014683157205582e-02
4.225000000000000000e+03 1.434491443634033203e+01 -3.359405517578125000e+00 1.909029722213745117e+00 7.528387069702148438e+00 2.831225156784057617e+00 -2.058383941650390625e+00
4.226000000000000000e+03 1.387058353424072266e+01 -3.051967144012451172e+00 2.137023448944091797e+00 7.854132652282714844e+00 2.997346878051757812e+00 -2.197164535522460938e+00
4.227000000000000000e+03 1.226330757141113281e+01 -2.452101230621337891e+00 2.385195493698120117e+00 9.357391357421875000e+00 3.522775888442993164e+00 -2.337756156921386719e+00
4.228000000000000000e+03 1.282480430603027344e+01 -1.268111616373062134e-01 6.592817306518554688e+00 7.353328227996826172e+00 4.183843612670898438e+00 -1.062649607658386230e+00
4.229000000000000000e+03 1.210801410675048828e+01 -1.227623224258422852e+00 5.139900684356689453e+00 9.800941467285156250e+00 4.482252597808837891e+00 -2.915630578994750977e+00
4.230000000000000000e+03 6.682065010070800781e+00 2.699415445327758789e+00 1.275803208351135254e+00 2.021043777465820312e+00 9.890540242195129395e-01 -2.243332624435424805e+00
4.231000000000000000e+03 1.186170101165771484e+01 4.921599388122558594e+00 -2.017123699188232422e+00 5.465362548828125000e+00 1.034471631050109863e+00 -1.644874095916748047e+00
4.232000000000000000e+03 7.567752075195312500e+01 5.723918914794921875e+00 -2.855591177940368652e-01 7.285291671752929688e+00 2.099919795989990234e+00 -9.393352866172790527e-01
4.233000000000000000e+03 8.840250968933105469e+00 -8.576827049255371094e+00 3.142811059951782227e-01 2.690987825393676758e+00 9.015806913375854492e-01 2.353818416595458984e+00
4.234000000000000000e+03 3.174177646636962891e+00 1.509670639038085938e+01 1.823883503675460815e-01 2.901453495025634766e+00 9.251525402069091797e-01 -1.310653090476989746e+00
4.235000000000000000e+03 4.373940944671630859e+00 1.553764057159423828e+01 1.769311875104904175e-01 3.612052917480468750e+00 1.136695265769958496e+00 -1.610465288162231445e+00
4.236000000000000000e+03 7.261864185333251953e+00 2.468888521194458008e+00 1.730401039123535156e+00 2.334662437438964844e+00 1.219519019126892090e+00 -2.857028961181640625e+00
4.237000000000000000e+03 7.484524726867675781e+00 2.267287492752075195e+00 1.971850037574768066e+00 2.400582075119018555e+00 1.311729550361633301e+00 -3.022397994995117188e+00
4.238000000000000000e+03 4.495886993408203125e+01 5.526162147521972656e+00 1.877199858427047729e-01 4.544141769409179688e+00 1.419558644294738770e+00 -1.278670310974121094e+00
4.239000000000000000e+03 4.563568115234375000e+01 4.850885868072509766e+00 -3.621517121791839600e-02 3.839814186096191406e+00 1.141079783439636230e+00 -1.517072558403015137e+00
4.240000000000000000e+03 4.108610630035400391e+00 -2.253805160522460938e+00 4.309220612049102783e-01 1.461379677057266235e-01 1.731180101633071899e-01 7.157228887081146240e-02
4.241000000000000000e+03 3.083776235580444336e+00 1.635502052307128906e+01 -6.045444309711456299e-02 3.237366914749145508e+00 9.530737400054931641e-01 -1.354977250099182129e+00
4.242000000000000000e+03 8.329451560974121094e+00 -3.120640993118286133e+00 1.991949677467346191e+00 3.483047962188720703e+00 1.642499327659606934e+00 2.417899370193481445e+00
4.243000000000000000e+03 8.525332450866699219e+00 -3.223851442337036133e+00 1.846438288688659668e+00 4.103360652923583984e+00 1.784939646720886230e+00 2.466326713562011719e+00
4.244000000000000000e+03 1.074478626251220703e+01 4.276103019714355469e+00 -1.623983263969421387e+00 7.606585979461669922e+00 1.794780850410461426e+00 -2.553487300872802734e+00
4.245000000000000000e+03 5.475616931915283203e+00 3.314743518829345703e+00 6.985796689987182617e-01 1.609116554260253906e+00 6.923089027404785156e-01 -1.258318543434143066e+00
4.246000000000000000e+03 5.961422348022460938e+01 -2.135666656494140625e+01 2.929004907608032227e+00 4.762829303741455078e+00 2.307550191879272461e+00 -5.591885372996330261e-02
4.247000000000000000e+03 3.744987010955810547e+00 -2.909643173217773438e+00 5.479512810707092285e-01 2.183889448642730713e-01 2.299020588397979736e-01 2.120085805654525757e-01
4.248000000000000000e+03 7.453046417236328125e+01 2.633362054824829102e+00 -3.637747466564178467e-01 5.892169952392578125e+00 1.658518552780151367e+00 -6.786958575248718262e-01
4.249000000000000000e+03 4.218184471130371094e+00 -3.035591506958007812e+01 4.220120608806610107e-01 3.731929302215576172e+00 1.246182441711425781e+00 -5.405359864234924316e-01
4.250000000000000000e+03 7.097619533538818359e+00 2.088990688323974609e+00 1.811597347259521484e+00 1.628088593482971191e+00 1.031905770301818848e+00 -2.348873853683471680e+00
4.251000000000000000e+03 6.950271606445312500e+00 1.965100288391113281e+00 1.778521656990051270e+00 1.309808254241943359e+00 9.264990091323852539e-01 -2.080116271972656250e+00
4.252000000000000000e+03 6.975692272186279297e+00 2.582029819488525391e+00 1.477052807807922363e+00 2.160902976989746094e+00 1.091386675834655762e+00 -2.527837991714477539e+00
4.253000000000000000e+03 3.556784391403198242e+00 -2.304220581054687500e+01 -1.775921702384948730e+00 5.179164409637451172e+00 1.020972847938537598e+00 6.987260580062866211e-01
4.254000000000000000e+03 1.758652305603027344e+01 3.361762046813964844e+00 4.917814135551452637e-01 2.827199220657348633e+00 9.956941604614257812e-01 3.712882995605468750e+00
4.255000000000000000e+03 3.559154748916625977e+00 -3.321342229843139648e+00 5.704675912857055664e-01 3.010786473751068115e-01 2.614638805389404297e-01 2.777467370033264160e-01
4.256000000000000000e+03 3.350438594818115234e+00 -3.793015956878662109e+00 5.113999843597412109e-01 3.822154402732849121e-01 2.680846154689788818e-01 3.674702346324920654e-01
4.257000000000000000e+03 3.957164287567138672e+00 1.644900321960449219e+01 -2.551172487437725067e-02 3.524103879928588867e+00 1.049577593803405762e+00 -1.570219635963439941e+00
4.258000000000000000e+03 7.514750671386718750e+01 -3.254988479614257812e+01 3.253861367702484131e-01 6.310072898864746094e+00 1.990637660026550293e+00 1.035699695348739624e-01
4.259000000000000000e+03 1.213248825073242188e+01 -2.910718536376953125e+01 1.328013896942138672e+00 4.300855159759521484e+00 1.688660740852355957e+00 1.519240498542785645e+00
4.260000000000000000e+03 1.123557662963867188e+01 -2.895406913757324219e+01 1.120551466941833496e+00 3.353500604629516602e+00 1.342215657234191895e+00 1.173742175102233887e+00
4.261000000000000000e+03 5.775678253173828125e+01 -2.110260200500488281e+01 2.881177186965942383e+00 6.073412418365478516e+00 2.686376810073852539e+00 5.878288745880126953e-01
4.262000000000000000e+03 6.229941844940185547e+00 -3.003800153732299805e+00 1.488095045089721680e+00 8.572912216186523438e-01 7.036158442497253418e-01 1.055649638175964355e+00
4.263000000000000000e+03 4.319152069091796875e+01 1.713958930969238281e+01 1.103417158126831055e+00 6.451433658599853516e+00 2.266455173492431641e+00 7.629687190055847168e-01
4.264000000000000000e+03 4.273965835571289062e+01 1.611359214782714844e+01 1.735954642295837402e+00 6.396842002868652344e+00 2.439839124679565430e+00 1.185008585453033447e-01
4.265000000000000000e+03 4.115552139282226562e+01 1.698660278320312500e+01 1.556784272193908691e+00 4.068437099456787109e+00 1.687566399574279785e+00 -7.099037766456604004e-01
4.266000000000000000e+03 4.056311130523681641e+00 -4.364715576171875000e+00 6.690921187400817871e-01 7.158086895942687988e-01 4.154702425003051758e-01 6.959996819496154785e-01
4.267000000000000000e+03 1.381187057495117188e+01 -1.183853268623352051e+00 4.134737968444824219e+00 6.775887966156005859e+00 3.273187637329101562e+00 -1.635670661926269531e+00
4.268000000000000000e+03 1.284605693817138672e+01 -1.775933504104614258e+00 3.835619211196899414e+00 8.435857772827148438e+00 3.681443214416503906e+00 -2.570384025573730469e+00
4.269000000000000000e+03 4.637081527709960938e+01 -9.846302866935729980e-01 -1.962306536734104156e-02 3.940959930419921875e+00 1.176401019096374512e+00 -2.334364414215087891e+00
4.270000000000000000e+03 4.594311523437500000e+01 -1.511289834976196289e+00 5.504699051380157471e-02 3.900859117507934570e+00 1.186771750450134277e+00 -2.413126230239868164e+00
4.271000000000000000e+03 8.606420516967773438e+00 2.682081460952758789e+00 1.481381058692932129e+00 5.504853248596191406e+00 2.095870256423950195e+00 -4.579861640930175781e+00
4.272000000000000000e+03 9.097373962402343750e+00 2.354843139648437500e+00 1.639313101768493652e+00 7.107315540313720703e+00 2.623988628387451172e+00 -5.082140445709228516e+00
4.273000000000000000e+03 9.342464447021484375e+00 2.368304252624511719e+00 1.452857136726379395e+00 8.042627334594726562e+00 2.848645448684692383e+00 -5.076815128326416016e+00
4.274000000000000000e+03 8.820411682128906250e+00 -3.549527406692504883e+00 1.581640362739562988e+00 4.756333351135253906e+00 1.901392102241516113e+00 2.313564777374267578e+00
4.275000000000000000e+03 1.041169929504394531e+01 2.135163545608520508e+00 1.119266748428344727e+00 1.181513309478759766e+01 3.880319833755493164e+00 -2.926093578338623047e+00
4.276000000000000000e+03 1.004531574249267578e+01 2.261578321456909180e+00 9.795110821723937988e-01 1.059439563751220703e+01 3.472172021865844727e+00 -4.051173210144042969e+00
4.277000000000000000e+03 1.034291553497314453e+01 2.432882070541381836e+00 5.536198019981384277e-01 1.090032863616943359e+01 3.436184406280517578e+00 -3.106381893157958984e+00
4.278000000000000000e+03 9.641829490661621094e+00 2.692650318145751953e+00 5.579481720924377441e-01 8.721983909606933594e+00 2.783979654312133789e+00 -4.448298454284667969e+00
4.279000000000000000e+03 7.639557838439941406e+00 -3.024994373321533203e+00 2.033036947250366211e+00 2.228217840194702148e+00 1.278376460075378418e+00 2.042481184005737305e+00
4.280000000000000000e+03 7.247894287109375000e+00 -3.130067586898803711e+00 1.917117714881896973e+00 1.737892627716064453e+00 1.096503138542175293e+00 1.783789038658142090e+00
4.281000000000000000e+03 7.665559291839599609e+00 -3.495916366577148438e+00 1.853174090385437012e+00 2.537586688995361328e+00 1.317228198051452637e+00 2.102801561355590820e+00
4.282000000000000000e+03 7.660533905029296875e+00 -3.999553203582763672e+00 1.672739982604980469e+00 2.812191963195800781e+00 1.345479607582092285e+00 2.141564607620239258e+00
4.283000000000000000e+03 4.004571914672851562e+01 1.607603073120117188e+01 1.698318839073181152e+00 3.745941638946533203e+00 1.633278131484985352e+00 -1.453669190406799316e+00
4.284000000000000000e+03 4.103829193115234375e+01 1.594806289672851562e+01 1.943308591842651367e+00 4.649823665618896484e+00 1.977939605712890625e+00 -8.968148827552795410e-01
4.285000000000000000e+03 1.229472446441650391e+01 2.102333784103393555e+00 2.988337993621826172e+00 8.272806167602539062e+00 3.378343343734741211e+00 8.649725317955017090e-01
4.286000000000000000e+03 2.218011474609375000e+01 4.216567516326904297e+00 7.274913191795349121e-01 2.952219963073730469e+00 1.103913426399230957e+00 1.510951638221740723e+00
4.287000000000000000e+03 3.781507968902587891e+00 3.506909132003784180e+00 3.353921175003051758e-01 8.484512567520141602e-01 3.551529943943023682e-01 -3.731637299060821533e-01
4.288000000000000000e+03 3.401062726974487305e+00 3.602357149124145508e+00 2.767010331153869629e-01 7.292098999023437500e-01 3.017732799053192139e-01 -1.447017788887023926e-01
4.289000000000000000e+03 6.981279850006103516e+00 -3.012949228286743164e+00 1.854293823242187500e+00 1.387264847755432129e+00 9.724676012992858887e-01 1.566772580146789551e+00
4.290000000000000000e+03 1.237500762939453125e+01 -1.387645244598388672e+00 4.535952091217041016e+00 9.149933815002441406e+00 4.105765819549560547e+00 -2.712862253189086914e+00
4.291000000000000000e+03 1.303630733489990234e+01 -1.333091616630554199e+00 4.509313583374023438e+00 7.933208942413330078e+00 3.732756853103637695e+00 -2.323415279388427734e+00
4.292000000000000000e+03 4.749959945678710938e+00 -2.838140487670898438e+00 8.284514546394348145e-01 2.989819645881652832e-01 3.382300436496734619e-01 4.036888480186462402e-01
4.293000000000000000e+03 6.922495365142822266e+00 2.297664880752563477e+00 1.618702054023742676e+00 1.759698390960693359e+00 1.013520121574401855e+00 -2.299572706222534180e+00
4.294000000000000000e+03 7.639410495758056641e+00 3.497791051864624023e+00 5.960713028907775879e-01 4.231374740600585938e+00 1.448233723640441895e+00 -3.411200284957885742e+00
4.295000000000000000e+03 8.372663497924804688e+00 3.553253173828125000e+00 2.142030894756317139e-01 5.563000679016113281e+00 1.733161091804504395e+00 -3.922174215316772461e+00
4.296000000000000000e+03 1.043191242218017578e+01 -8.612773895263671875e+00 7.794807553291320801e-01 2.960026741027832031e+00 1.121852278709411621e+00 1.218062520027160645e+00
4.297000000000000000e+03 1.096521759033203125e+01 3.197539091110229492e+00 -2.114428430795669556e-01 8.981588363647460938e+00 2.631043672561645508e+00 -1.992885947227478027e+00
4.298000000000000000e+03 1.189393806457519531e+01 4.196005344390869141e+00 -1.005117297172546387e+00 6.389263153076171875e+00 1.615243792533874512e+00 -1.100930690765380859e+00
4.299000000000000000e+03 1.173845577239990234e+01 -2.955381631851196289e+00 1.533178687095642090e+00 9.611574172973632812e+00 3.343425989151000977e+00 -1.534225702285766602e+00
4.300000000000000000e+03 1.231819152832031250e+01 -3.283880233764648438e+00 1.665894627571105957e+00 8.757692337036132812e+00 3.127075910568237305e+00 -1.925813555717468262e+00
4.301000000000000000e+03 7.154958248138427734e+00 2.246800422668457031e+00 1.773440241813659668e+00 1.956586122512817383e+00 1.119007945060729980e+00 -2.566572666168212891e+00
4.302000000000000000e+03 6.838433742523193359e+00 3.032062053680419922e+00 1.088139295578002930e+00 2.546055078506469727e+00 1.090258359909057617e+00 -2.519589424133300781e+00
4.303000000000000000e+03 1.399634647369384766e+01 -1.915480732917785645e+00 3.257196664810180664e+00 7.162064075469970703e+00 3.125778198242187500e+00 -1.877554655075073242e+00
4.304000000000000000e+03 3.860839843750000000e+00 -3.205378293991088867e+00 5.971608161926269531e-01 2.658842802047729492e-01 2.589135169982910156e-01 2.763405144214630127e-01
4.305000000000000000e+03 8.677611351013183594e+00 3.029270887374877930e+00 7.755019664764404297e-01 5.981194019317626953e+00 2.027008771896362305e+00 -4.350883483886718750e+00
4.306000000000000000e+03 1.315537261962890625e+01 -2.849248647689819336e+00 2.322481393814086914e+00 8.280020713806152344e+00 3.180750608444213867e+00 -2.289882183074951172e+00
4.307000000000000000e+03 1.358156490325927734e+01 -1.602860569953918457e+00 3.860712289810180664e+00 7.189781665802001953e+00 3.315148115158081055e+00 -1.983214855194091797e+00
4.308000000000000000e+03 4.180600643157958984e+00 3.517573118209838867e+00 4.453631341457366943e-01 9.247141480445861816e-01 4.110231995582580566e-01 -4.707445204257965088e-01
4.309000000000000000e+03 1.451127624511718750e+01 3.857690691947937012e-01 4.176463603973388672e+00 4.879942417144775391e+00 2.716921806335449219e+00 6.842452883720397949e-01
4.310000000000000000e+03 6.440633296966552734e+00 -3.467240571975708008e+00 1.556416153907775879e+00 1.281413078308105469e+00 8.513487577438354492e-01 1.377581477165222168e+00
4.311000000000000000e+03 6.193204879760742188e+00 -3.681374549865722656e+00 1.479321122169494629e+00 1.156037092208862305e+00 7.906075119972229004e-01 1.341520190238952637e+00
4.312000000000000000e+03 7.941071987152099609e+00 -3.738516092300415039e+00 1.761796355247497559e+00 2.988633155822753906e+00 1.425128936767578125e+00 2.197061300277709961e+00
4.313000000000000000e+03 7.355653285980224609e+00 -4.061457633972167969e+00 1.628039360046386719e+00 2.370884895324707031e+00 1.199677228927612305e+00 1.949689030647277832e+00
4.314000000000000000e+03 5.172335624694824219e+00 -9.199945449829101562e+00 -4.524612426757812500e-01 2.893681526184082031e+00 7.323660850524902344e-01 1.599681019783020020e+00
4.315000000000000000e+03 4.702542781829833984e+00 -5.266453266143798828e+00 7.336250543594360352e-01 1.176797986030578613e+00 5.731269121170043945e-01 1.195139765739440918e+00
4.316000000000000000e+03 4.951020240783691406e+00 -6.259188652038574219e+00 5.592824816703796387e-01 1.605756878852844238e+00 6.495118141174316406e-01 1.456256628036499023e+00
4.317000000000000000e+03 7.350213527679443359e+00 3.583869218826293945e+00 6.493941545486450195e-01 3.824162244796752930e+00 1.342067003250122070e+00 -3.106457233428955078e+00
4.318000000000000000e+03 7.351556396484375000e+01 2.431681823730468750e+01 -1.888180971145629883e-01 5.998928546905517578e+00 1.743033170700073242e+00 -6.776158809661865234e-01
4.319000000000000000e+03 7.328891754150390625e+01 2.543668174743652344e+01 1.550835371017456055e-01 5.870976448059082031e+00 1.807818055152893066e+00 -6.778613328933715820e-01
4.320000000000000000e+03 1.015282154083251953e+01 -3.610230207443237305e+00 1.015059113502502441e+00 7.575730323791503906e+00 2.577236890792846680e+00 1.196298241615295410e+00
4.321000000000000000e+03 1.010451221466064453e+01 -4.351993560791015625e+00 1.013176679611206055e+00 6.468643188476562500e+00 2.244545936584472656e+00 1.125092506408691406e+00
4.322000000000000000e+03 5.872464179992675781e+00 -3.669141530990600586e+00 1.410390973091125488e+00 1.063656449317932129e+00 7.422142028808593750e-01 1.247616410255432129e+00
4.323000000000000000e+03 9.181384086608886719e+00 4.059819221496582031e+00 -7.922504544258117676e-01 7.039508819580078125e+00 1.874177575111389160e+00 -3.757431983947753906e+00
4.324000000000000000e+03 1.110103034973144531e+01 -5.790963649749755859e+00 1.176915884017944336e+00 5.796222209930419922e+00 2.091941356658935547e+00 -3.080793470144271851e-02
4.325000000000000000e+03 1.044537544250488281e+01 2.689812898635864258e+00 2.302331328392028809e-01 1.004929542541503906e+01 3.083858489990234375e+00 -2.928294420242309570e+00
4.326000000000000000e+03 9.672137260437011719e+00 3.005589008331298828e+00 8.030582219362258911e-02 8.485857963562011719e+00 2.569849252700805664e+00 -4.166434288024902344e+00
4.327000000000000000e+03 9.364431381225585938e+00 3.025308370590209961e+00 3.842141628265380859e-01 7.702096462249755859e+00 2.425893306732177734e+00 -4.418861389160156250e+00
4.328000000000000000e+03 8.943110466003417969e+00 2.879090070724487305e+00 8.693797588348388672e-01 6.725340366363525391e+00 2.278415918350219727e+00 -4.668834209442138672e+00
4.329000000000000000e+03 1.409223747253417969e+01 7.135181427001953125e-01 4.369894504547119141e+00 4.989954471588134766e+00 2.807954549789428711e+00 8.470547795295715332e-01
4.330000000000000000e+03 5.020181655883789062e+00 -5.686591148376464844e+00 7.563476562500000000e-01 1.444443583488464355e+00 6.602373719215393066e-01 1.422065019607543945e+00
4.331000000000000000e+03 6.001848220825195312e+00 6.500098228454589844e+00 -4.111554026603698730e-01 4.159020423889160156e+00 1.124359488487243652e+00 -1.049988508224487305e+00
4.332000000000000000e+03 9.652976989746093750e+00 -4.614953517913818359e+00 1.092355847358703613e+00 5.590617656707763672e+00 2.004892110824584961e+00 1.529078245162963867e+00
4.333000000000000000e+03 9.124552726745605469e+00 -4.338842391967773438e+00 1.264891386032104492e+00 5.051382064819335938e+00 1.894881963729858398e+00 1.870258927345275879e+00
4.334000000000000000e+03 6.611462116241455078e+00 -4.259767532348632812e+00 1.419771313667297363e+00 1.752365708351135254e+00 9.516410827636718750e-01 1.689477682113647461e+00
4.335000000000000000e+03 6.337747097015380859e+00 -4.023216724395751953e+00 1.451372265815734863e+00 1.429618358612060547e+00 8.642972111701965332e-01 1.497777342796325684e+00
4.336000000000000000e+03 7.716085910797119141e+00 -4.359152317047119141e+00 1.510276913642883301e+00 2.974198818206787109e+00 1.345342755317687988e+00 2.092386960983276367e+00
4.337000000000000000e+03 4.815629959106445312e+00 7.484477996826171875e+00 -1.738378964364528656e-02 3.142464637756347656e+00 9.375242590904235840e-01 -5.668243765830993652e-01
4.338000000000000000e+03 6.203134059906005859e+00 -5.849135875701904297e+00 8.999702334403991699e-01 2.027945518493652344e+00 8.783747553825378418e-01 1.847367644309997559e+00
4.339000000000000000e+03 8.071802139282226562e+00 -4.748082637786865234e+00 1.372216343879699707e+00 3.394382476806640625e+00 1.429979562759399414e+00 2.103484630584716797e+00
4.340000000000000000e+03 9.242890357971191406e+00 -4.905878067016601562e+00 1.168623208999633789e+00 4.873331546783447266e+00 1.812586426734924316e+00 1.700371146202087402e+00
4.341000000000000000e+03 7.486788749694824219e+00 -6.716744422912597656e+00 7.183035016059875488e-01 2.960744619369506836e+00 1.103714466094970703e+00 2.195651054382324219e+00
4.342000000000000000e+03 9.743432044982910156e+00 3.540051937103271484e+00 -6.016586422920227051e-01 8.097399711608886719e+00 2.248722314834594727e+00 -3.731297731399536133e+00
4.343000000000000000e+03 9.407465934753417969e+00 3.328070640563964844e+00 -1.432838439941406250e-01 7.685545444488525391e+00 2.262678623199462891e+00 -4.099469184875488281e+00
4.344000000000000000e+03 9.460508346557617188e+00 3.638449192047119141e+00 -5.492123961448669434e-01 7.610692501068115234e+00 2.118443965911865234e+00 -3.938990116119384766e+00
4.345000000000000000e+03 5.813935756683349609e+00 6.097256183624267578e+00 -2.444684803485870361e-01 3.763665914535522461e+00 1.055759191513061523e+00 -1.122660756111145020e+00
4.346000000000000000e+03 6.993360042572021484e+00 -7.455732345581054688e+00 3.920071423053741455e-01 2.796314001083374023e+00 9.564963579177856445e-01 2.237307310104370117e+00
4.347000000000000000e+03 9.085512161254882812e+00 3.102144956588745117e+00 4.688149690628051758e-01 7.003179073333740234e+00 2.241598367691040039e+00 -4.407432556152343750e+00
4.348000000000000000e+03 7.737310886383056641e+00 -5.110427856445312500e+00 1.315866112709045410e+00 3.049916505813598633e+00 1.309734821319580078e+00 2.081038951873779297e+00
4.349000000000000000e+03 7.037507057189941406e+00 -4.012796401977539062e+00 1.597601175308227539e+00 2.025269031524658203e+00 1.086861014366149902e+00 1.857082009315490723e+00
4.350000000000000000e+03 9.035762786865234375e+00 -5.327371120452880859e+00 1.106526970863342285e+00 4.513269424438476562e+00 1.685938835144042969e+00 1.781051993370056152e+00
4.351000000000000000e+03 4.938439369201660156e+00 5.335458755493164062e+00 1.692008972167968750e-02 2.523123264312744141e+00 7.620130181312561035e-01 -9.266197681427001953e-01
4.352000000000000000e+03 6.964948654174804688e+00 -4.370367050170898438e+00 1.461729049682617188e+00 2.128072261810302734e+00 1.076940417289733887e+00 1.850833415985107422e+00
4.353000000000000000e+03 7.715554237365722656e+00 -5.434156894683837891e+00 1.166839122772216797e+00 3.000867843627929688e+00 1.250312089920043945e+00 2.067391633987426758e+00
4.354000000000000000e+03 9.900979042053222656e+00 -9.946446865797042847e-03 1.527160835266113281e+01 4.364408493041992188e+00 5.890805244445800781e+00 7.800633907318115234e+00
4.355000000000000000e+03 9.904818534851074219e+00 -2.906142920255661011e-02 1.375484085083007812e+01 1.277293205261230469e+01 7.958331584930419922e+00 1.524099922180175781e+01
4.356000000000000000e+03 9.912311553955078125e+00 -4.706101492047309875e-02 1.306156921386718750e+01 2.135890960693359375e+01 1.032614421844482422e+01 1.738195228576660156e+01
4.357000000000000000e+03 9.923169136047363281e+00 -6.325436383485794067e-02 1.137107467651367188e+01 3.009088897705078125e+01 1.243858909606933594e+01 1.781743431091308594e+01
4.358000000000000000e+03 9.936976432800292969e+00 -7.701997458934783936e-02 1.015728569030761719e+01 3.839657974243164062e+01 1.456616020202636719e+01 1.623764991760253906e+01
4.359000000000000000e+03 9.953202247619628906e+00 -8.782950043678283691e-02 8.910254478454589844e+00 4.557972335815429688e+01 1.634699440002441406e+01 1.303819656372070312e+01
4.360000000000000000e+03 9.971223831176757812e+00 -9.526807069778442383e-02 8.770760536193847656e+00 5.114366912841796875e+01 1.797432899475097656e+01 8.454737663269042969e+00
4.361000000000000000e+03 9.990350723266601562e+00 -9.905018657445907593e-02 9.618307113647460938e+00 5.437691879272460938e+01 1.919856834411621094e+01 3.125946044921875000e+00
4.362000000000000000e+03 1.000984764099121094e+01 -9.903068840503692627e-02 1.207357978820800781e+01 5.528720855712890625e+01 2.020823669433593750e+01 -2.267385244369506836e+00
4.363000000000000000e+03 1.002896595001220703e+01 -9.521032124757766724e-02 1.570055484771728516e+01 5.392668533325195312e+01 2.088817214965820312e+01 -6.904696464538574219e+00
4.364000000000000000e+03 1.004697322845458984e+01 -8.773572742938995361e-02 2.020431327819824219e+01 5.081311035156250000e+01 2.130522727966308594e+01 -1.024201393127441406e+01
4.365000000000000000e+03 1.006317710876464844e+01 -7.689376920461654663e-02 2.510120201110839844e+01 4.687779617309570312e+01 2.159369850158691406e+01 -1.182345771789550781e+01
4.366000000000000000e+03 1.007695674896240234e+01 -6.310057640075683594e-02 2.951817512512207031e+01 4.248059463500976562e+01 2.159963035583496094e+01 -1.179637432098388672e+01
4.367000000000000000e+03 1.008778285980224609e+01 -4.688554257154464722e-02 3.327749633789062500e+01 3.899801254272460938e+01 2.168265151977539062e+01 -1.022270107269287109e+01
4.368000000000000000e+03 1.009523963928222656e+01 -2.887100912630558014e-02 3.575389862060546875e+01 3.608048248291015625e+01 2.155031394958496094e+01 -7.640770912170410156e+00
4.369000000000000000e+03 1.009904003143310547e+01 -9.748386219143867493e-03 3.708066940307617188e+01 3.489315795898437500e+01 2.159214782714843750e+01 -4.525228023529052734e+00
4.370000000000000000e+03 1.009904003143310547e+01 9.748386219143867493e-03 3.702706527709960938e+01 3.477157211303710938e+01 2.153959083557128906e+01 -1.211543679237365723e+00
4.371000000000000000e+03 1.009523963928222656e+01 2.887100912630558014e-02 3.592165756225585938e+01 3.619848632812500000e+01 2.163604354858398438e+01 1.677878856658935547e+00
4.372000000000000000e+03 1.008778285980224609e+01 4.688554257154464722e-02 3.371364974975585938e+01 3.881737518310546875e+01 2.175930786132812500e+01 3.977331638336181641e+00
4.373000000000000000e+03 1.007695674896240234e+01 6.310057640075683594e-02 3.075367164611816406e+01 4.230001449584960938e+01 2.191610527038574219e+01 5.202361583709716797e+00
4.374000000000000000e+03 1.006317710876464844e+01 7.689376920461654663e-02 2.729135131835937500e+01 4.640925598144531250e+01 2.211018180847167969e+01 5.080397129058837891e+00
4.375000000000000000e+03 1.004697322845458984e+01 8.773572742938995361e-02 2.376895141601562500e+01 5.040686035156250000e+01 2.225274276733398438e+01 3.435020685195922852e+00
4.376000000000000000e+03 1.002896595001220703e+01 9.521032124757766724e-02 2.070248222351074219e+01 5.374113082885742188e+01 2.233308410644531250e+01 1.933637857437133789e-01
4.377000000000000000e+03 1.000984764099121094e+01 9.903068840503692627e-02 1.857850265502929688e+01 5.556504058837890625e+01 2.224306297302246094e+01 -4.313428401947021484e+00
4.378000000000000000e+03 9.990350723266601562e+00 9.905018657445907593e-02 1.796767425537109375e+01 5.538764190673828125e+01 2.200659561157226562e+01 -9.634964942932128906e+00
4.379000000000000000e+03 9.971223831176757812e+00 9.526807069778442383e-02 1.891003608703613281e+01 5.276091003417968750e+01 2.150128364562988281e+01 -1.504255867004394531e+01
4.380000000000000000e+03 9.953202247619628906e+00 8.782950043678283691e-02 2.136177062988281250e+01 4.776248550415039062e+01 2.073727607727050781e+01 -1.964450073242187500e+01
4.381000000000000000e+03 9.936976432800292969e+00 7.701997458934783936e-02 2.499170875549316406e+01 4.060824966430664062e+01 1.967998695373535156e+01 -2.279529953002929688e+01
4.382000000000000000e+03 9.923169136047363281e+00 6.325436383485794067e-02 2.893991470336914062e+01 3.215861511230468750e+01 1.832955741882324219e+01 -2.386523628234863281e+01
4.383000000000000000e+03 9.912311553955078125e+00 4.706101492047309875e-02 3.298468399047851562e+01 2.271114540100097656e+01 1.670874977111816406e+01 -2.247155570983886719e+01
4.384000000000000000e+03 9.904818534851074219e+00 2.906142920255661011e-02 3.563395690917968750e+01 1.367051601409912109e+01 1.479134082794189453e+01 -1.877316474914550781e+01
4.385000000000000000e+03 9.900979042053222656e+00 9.946446865797042847e-03 3.795661926269531250e+01 4.548931598663330078e+00 1.275166511535644531e+01 -9.600631713867187500e+00
