# el_label, x, y, sXX, sYY, sZZ, sXY
1.000000000000000000e+00 7.558493804931640625e+01 -1.227423286437988281e+01 -6.600092411041259766e+00 -2.866127967834472656e+00 -2.839866161346435547e+00 -2.881635665893554688e+00
2.000000000000000000e+00 7.538715362548828125e+01 -1.229655075073242188e+01 -2.459671735763549805e+00 1.151096463203430176e+00 -3.925726115703582764e-01 7.268617749214172363e-01
3.000000000000000000e+00 7.518936157226562500e+01 -1.231886768341064453e+01 -3.788501024246215820e+00 -5.248678326606750488e-01 -1.294010639190673828e+00 -8.354363590478897095e-02
4.000000000000000000e+00 7.499157714843750000e+01 -1.234118556976318359e+01 -4.102568149566650391e+00 3.123862445354461670e-01 -1.137054562568664551e+00 7.817557454109191895e-02
5.000000000000000000e+00 7.559712982177734375e+01 -1.233135032653808594e+01 9.129449844360351562e+00 -2.419349193572998047e+00 2.013030290603637695e+00 2.268453836441040039e+00
6.000000000000000000e+00 7.540747833251953125e+01 -1.239174652099609375e+01 1.531344056129455566e+00 4.091833829879760742e-01 5.821582078933715820e-01 1.450071334838867188e+00
7.000000000000000000e+00 7.521781921386718750e+01 -1.245214271545410156e+01 1.263906240463256836e+00 9.941450953483581543e-01 6.774154305458068848e-01 2.156526327133178711e+00
8.000000000000000000e+00 7.502816009521484375e+01 -1.251253795623779297e+01 4.827815666794776917e-02 2.163033783435821533e-01 7.937446236610412598e-02 1.328382372856140137e+00
9.000000000000000000e+00 7.562020874023437500e+01 -1.238500118255615234e+01 1.405518627166748047e+01 3.075818061828613281e+00 5.139301300048828125e+00 9.653802871704101562e+00
1.000000000000000000e+01 7.544594573974609375e+01 -1.248116397857666016e+01 7.408658027648925781e+00 1.881511211395263672e+00 2.787050724029541016e+00 5.526409149169921875e+00
1.100000000000000000e+01 7.527167510986328125e+01 -1.257732772827148438e+01 4.075685977935791016e+00 2.327077627182006836e+00 1.920829057693481445e+00 4.281847476959228516e+00
1.200000000000000000e+01 7.509739685058593750e+01 -1.267349052429199219e+01 3.082781314849853516e+00 2.199934720993041992e+00 1.584814786911010742e+00 3.923012733459472656e+00
1.300000000000000000e+01 7.565329742431640625e+01 -1.243313217163085938e+01 1.536789321899414062e+01 1.061280250549316406e+01 7.794209003448486328e+00 1.516572856903076172e+01
1.400000000000000000e+01 7.550108337402343750e+01 -1.256138229370117188e+01 8.835570335388183594e+00 6.566843509674072266e+00 4.620724201202392578e+00 9.765625953674316406e+00
1.500000000000000000e+01 7.534886169433593750e+01 -1.268963336944580078e+01 6.318288326263427734e+00 5.370617389678955078e+00 3.506671667098999023e+00 7.565248012542724609e+00
1.600000000000000000e+01 7.519664764404296875e+01 -1.281788349151611328e+01 4.362162113189697266e+00 4.802179336547851562e+00 2.749302387237548828e+00 6.323956966400146484e+00
1.700000000000000000e+01 7.569511413574218750e+01 -1.247390174865722656e+01 1.309939193725585938e+01 1.974195480346679688e+01 9.852403640747070312e+00 1.837321853637695312e+01
1.800000000000000000e+01 7.557077789306640625e+01 -1.262933158874511719e+01 8.612387657165527344e+00 1.286430835723876953e+01 6.443008899688720703e+00 1.274554634094238281e+01
1.900000000000000000e+01 7.544644927978515625e+01 -1.278476142883300781e+01 5.960722446441650391e+00 1.014022541046142578e+01 4.830284595489501953e+00 1.001263141632080078e+01
2.000000000000000000e+01 7.532211303710937500e+01 -1.294019126892089844e+01 4.610906600952148438e+00 8.724226951599121094e+00 4.000540256500244141e+00 8.569260597229003906e+00
2.100000000000000000e+01 7.574407196044921875e+01 -1.250574874877929688e+01 1.004073905944824219e+01 2.912458419799804688e+01 1.174959754943847656e+01 1.873620986938476562e+01
2.200000000000000000e+01 7.565237426757812500e+01 -1.268241024017333984e+01 6.517958641052246094e+00 1.980989265441894531e+01 7.898355007171630859e+00 1.375580215454101562e+01
2.300000000000000000e+01 7.556068420410156250e+01 -1.285907173156738281e+01 4.777801513671875000e+00 1.591559410095214844e+01 6.208018779754638672e+00 1.122743129730224609e+01
2.400000000000000000e+01 7.546898651123046875e+01 -1.303573322296142578e+01 3.283599615097045898e+00 1.349446868896484375e+01 5.033420562744140625e+00 9.480399131774902344e+00
2.500000000000000000e+01 7.579829406738281250e+01 -1.252745532989501953e+01 6.638622760772705078e+00 3.743674468994140625e+01 1.322261047363281250e+01 1.639415359497070312e+01
2.600000000000000000e+01 7.574274444580078125e+01 -1.271858882904052734e+01 4.530369758605957031e+00 2.658028793334960938e+01 9.333197593688964844e+00 1.281369686126708984e+01
2.700000000000000000e+01 7.568719482421875000e+01 -1.290972137451171875e+01 2.745063543319702148e+00 2.151767539978027344e+01 7.278821468353271484e+00 1.069520568847656250e+01
2.800000000000000000e+01 7.563164520263671875e+01 -1.310085391998291016e+01 1.837782979011535645e+00 1.877378273010253906e+01 6.183469772338867188e+00 9.271960258483886719e+00
2.900000000000000000e+01 7.585569763183593750e+01 -1.253819179534912109e+01 4.858657360076904297e+00 4.387422561645507812e+01 1.461986541748046875e+01 1.205372810363769531e+01
3.000000000000000000e+01 7.583842468261718750e+01 -1.273648071289062500e+01 2.721492767333984375e+00 3.210715484619140625e+01 1.044859409332275391e+01 1.013978481292724609e+01
3.100000000000000000e+01 7.582115173339843750e+01 -1.293477153778076172e+01 1.357732295989990234e+00 2.655083274841308594e+01 8.372569084167480469e+00 8.709635734558105469e+00
3.200000000000000000e+01 7.580387878417968750e+01 -1.313306140899658203e+01 4.194737672805786133e-01 2.295450973510742188e+01 7.012195110321044922e+00 7.636842727661132812e+00
3.300000000000000000e+01 7.591410064697265625e+01 -1.253754520416259766e+01 4.765604972839355469e+00 4.766632461547851562e+01 1.572957897186279297e+01 6.626889705657958984e+00
3.400000000000000000e+01 7.593576049804687500e+01 -1.273540401458740234e+01 2.253417253494262695e+00 3.606005477905273438e+01 1.149404239654541016e+01 6.408191204071044922e+00
3.500000000000000000e+01 7.595742034912109375e+01 -1.293326282501220703e+01 7.370569109916687012e-01 3.006653594970703125e+01 9.241077423095703125e+00 5.635113716125488281e+00
3.600000000000000000e+01 7.597908020019531250e+01 -1.313112163543701172e+01 -2.183948755264282227e-01 2.624961280822753906e+01 7.809365272521972656e+00 4.888005733489990234e+00
3.700000000000000000e+01 7.597126007080078125e+01 -1.252554130554199219e+01 6.734968662261962891e+00 4.890219116210937500e+01 1.669114875793457031e+01 1.299599051475524902e+00
3.800000000000000000e+01 7.603102874755859375e+01 -1.271539783477783203e+01 3.193613767623901367e+00 3.799539566040039062e+01 1.235670280456542969e+01 2.300648450851440430e+00
3.900000000000000000e+01 7.609078979492187500e+01 -1.290525436401367188e+01 1.336203813552856445e+00 3.200736999511718750e+01 1.000307273864746094e+01 2.094490289688110352e+00
4.000000000000000000e+01 7.615055847167968750e+01 -1.309511089324951172e+01 1.981993615627288818e-01 2.816931533813476562e+01 8.510253906250000000e+00 1.841522932052612305e+00
4.100000000000000000e+01 7.602498626708984375e+01 -1.250263977050781250e+01 1.035335636138916016e+01 4.796605300903320312e+01 1.749582290649414062e+01 -3.012050390243530273e+00
4.200000000000000000e+01 7.612057495117187500e+01 -1.267722892761230469e+01 5.511075973510742188e+00 3.805575180053710938e+01 1.307004833221435547e+01 -1.457612752914428711e+00
4.300000000000000000e+01 7.621615600585937500e+01 -1.285181808471679688e+01 3.179702043533325195e+00 3.232695388793945312e+01 1.065199756622314453e+01 -1.128464221954345703e+00
4.400000000000000000e+01 7.631173706054687500e+01 -1.302640724182128906e+01 1.733755707740783691e+00 2.848889350891113281e+01 9.066794395446777344e+00 -1.071769475936889648e+00
4.500000000000000000e+01 7.607322692871093750e+01 -1.246971702575683594e+01 1.484417438507080078e+01 4.553149795532226562e+01 1.811270141601562500e+01 -5.757403850555419922e+00
4.600000000000000000e+01 7.620097351074218750e+01 -1.262235641479492188e+01 8.914959907531738281e+00 3.667966842651367188e+01 1.367838764190673828e+01 -4.161258220672607422e+00
4.700000000000000000e+01 7.632871246337890625e+01 -1.277499771118164062e+01 5.982891082763671875e+00 3.121864128112792969e+01 1.116046047210693359e+01 -3.565097093582153320e+00
4.800000000000000000e+01 7.645645904541015625e+01 -1.292763805389404297e+01 4.155118942260742188e+00 2.756088256835937500e+01 9.514800071716308594e+00 -3.238474130630493164e+00
4.900000000000000000e+01 7.611413574218750000e+01 -1.242803192138671875e+01 1.951861953735351562e+01 4.258695983886718750e+01 1.863167381286621094e+01 -6.672485828399658203e+00
5.000000000000000000e+01 7.626914978027343750e+01 -1.255288219451904297e+01 1.273876094818115234e+01 3.431570053100585938e+01 1.411633872985839844e+01 -5.496870040893554688e+00
5.100000000000000000e+01 7.642416381835937500e+01 -1.267773246765136719e+01 9.327072143554687500e+00 2.932551383972167969e+01 1.159577560424804688e+01 -4.745007038116455078e+00
5.200000000000000000e+01 7.657918548583984375e+01 -1.280258274078369141e+01 7.038474559783935547e+00 2.577007484436035156e+01 9.842564582824707031e+00 -4.395095348358154297e+00
5.300000000000000000e+01 7.614614868164062500e+01 -1.237918090820312500e+01 2.358824729919433594e+01 3.965841674804687500e+01 1.897399902343750000e+01 -5.981446266174316406e+00
5.400000000000000000e+01 7.632250213623046875e+01 -1.247146320343017578e+01 1.638131141662597656e+01 3.186049652099609375e+01 1.447254276275634766e+01 -5.261230468750000000e+00
5.500000000000000000e+01 7.649885559082031250e+01 -1.256374645233154297e+01 1.251569557189941406e+01 2.705895996093750000e+01 1.187239646911621094e+01 -4.644199848175048828e+00
5.600000000000000000e+01 7.667521667480468750e+01 -1.265602970123291016e+01 9.924972534179687500e+00 2.397188377380371094e+01 1.016905689239501953e+01 -4.290511131286621094e+00
5.700000000000000000e+01 7.616803741455078125e+01 -1.232503223419189453e+01 2.648369407653808594e+01 3.748808670043945312e+01 1.919153404235839844e+01 -4.070673465728759766e+00
5.800000000000000000e+01 7.635898590087890625e+01 -1.238121604919433594e+01 1.924977874755859375e+01 2.977827835083007812e+01 1.470841789245605469e+01 -3.670749664306640625e+00
5.900000000000000000e+01 7.654992675781250000e+01 -1.243739986419677734e+01 1.495495128631591797e+01 2.524518394470214844e+01 1.206004047393798828e+01 -3.352072477340698242e+00
6.000000000000000000e+01 7.674087524414062500e+01 -1.249358367919921875e+01 1.212427043914794922e+01 2.229277229309082031e+01 1.032511329650878906e+01 -2.992264509201049805e+00
6.100000000000000000e+01 7.617896270751953125e+01 -1.226765918731689453e+01 2.805603790283203125e+01 3.647095108032226562e+01 1.935809707641601562e+01 -1.309785008430480957e+00
6.200000000000000000e+01 7.637719726562500000e+01 -1.228559398651123047e+01 2.071719932556152344e+01 2.850821495056152344e+01 1.476762485504150391e+01 -1.270622849464416504e+00
6.300000000000000000e+01 7.657542419433593750e+01 -1.230352878570556641e+01 1.629475021362304688e+01 2.438232231140136719e+01 1.220312118530273438e+01 -1.115318298339843750e+00
6.400000000000000000e+01 7.677365875244140625e+01 -1.232146358489990234e+01 1.327213287353515625e+01 2.113493347167968750e+01 1.032211971282958984e+01 -1.041009426116943359e+00
6.500000000000000000e+01 7.617851257324218750e+01 -1.220925617218017578e+01 2.792006492614746094e+01 3.630235290527343750e+01 1.926672554016113281e+01 1.621144413948059082e+00
6.600000000000000000e+01 7.637644195556640625e+01 -1.218825531005859375e+01 2.069529151916503906e+01 2.878463554382324219e+01 1.484397792816162109e+01 1.493583798408508301e+00
6.700000000000000000e+01 7.657437133789062500e+01 -1.216725540161132812e+01 1.622044372558593750e+01 2.420256805419921875e+01 1.212690353393554688e+01 1.350700974464416504e+00
6.800000000000000000e+01 7.677230072021484375e+01 -1.214625549316406250e+01 1.322899723052978516e+01 2.140685272216796875e+01 1.039075565338134766e+01 1.208364605903625488e+00
6.900000000000000000e+01 7.616669464111328125e+01 -1.215205860137939453e+01 2.638396644592285156e+01 3.776898956298828125e+01 1.924588775634765625e+01 4.245871543884277344e+00
7.000000000000000000e+01 7.635675048828125000e+01 -1.209292697906494141e+01 1.901028823852539062e+01 2.977693748474121094e+01 1.463616752624511719e+01 3.946765899658203125e+00
7.100000000000000000e+01 7.654680633544921875e+01 -1.203379440307617188e+01 1.482279014587402344e+01 2.555397415161132812e+01 1.211302852630615234e+01 3.438784360885620117e+00
7.200000000000000000e+01 7.673686218261718750e+01 -1.197466278076171875e+01 1.196952819824218750e+01 2.220700073242187500e+01 1.025295829772949219e+01 3.207453250885009766e+00
7.300000000000000000e+01 7.614397430419921875e+01 -1.209825515747070312e+01 2.321412086486816406e+01 3.981145858764648438e+01 1.890767288208007812e+01 6.183513641357421875e+00
7.400000000000000000e+01 7.631887817382812500e+01 -1.200325489044189453e+01 1.620666122436523438e+01 3.210634994506835938e+01 1.449390411376953125e+01 5.322849750518798828e+00
7.500000000000000000e+01 7.649378204345703125e+01 -1.190825366973876953e+01 1.221614837646484375e+01 2.723052215576171875e+01 1.183400154113769531e+01 4.822365760803222656e+00
7.600000000000000000e+01 7.666869354248046875e+01 -1.181325340270996094e+01 9.751471519470214844e+00 2.421627807617187500e+01 1.019032478332519531e+01 4.243598461151123047e+00
7.700000000000000000e+01 7.611121368408203125e+01 -1.204990577697753906e+01 1.924473190307617188e+01 4.280174255371093750e+01 1.861394309997558594e+01 6.681165218353271484e+00
7.800000000000000000e+01 7.626428222656250000e+01 -1.192267131805419922e+01 1.239111042022705078e+01 3.453149032592773438e+01 1.407678031921386719e+01 5.519828796386718750e+00
7.900000000000000000e+01 7.641734313964843750e+01 -1.179543685913085938e+01 9.148681640625000000e+00 2.949714279174804688e+01 1.159374713897705078e+01 4.747914791107177734e+00
8.000000000000000000e+01 7.657040405273437500e+01 -1.166820335388183594e+01 6.785494327545166016e+00 2.610301017761230469e+01 9.866551399230957031e+00 4.449451923370361328e+00
8.100000000000000000e+01 7.606966400146484375e+01 -1.200885868072509766e+01 1.445170497894287109e+01 4.575416564941406250e+01 1.806176185607910156e+01 5.634479045867919922e+00
8.200000000000000000e+01 7.619503021240234375e+01 -1.185425949096679688e+01 8.703613281250000000e+00 3.679285812377929688e+01 1.364894104003906250e+01 4.061181068420410156e+00
8.300000000000000000e+01 7.632039642333984375e+01 -1.169966125488281250e+01 5.761085510253906250e+00 3.138463020324707031e+01 1.114371490478515625e+01 3.485683679580688477e+00
8.400000000000000000e+01 7.644576263427734375e+01 -1.154506301879882812e+01 4.040770530700683594e+00 2.767747116088867188e+01 9.515472412109375000e+00 3.207800388336181641e+00
8.500000000000000000e+01 7.602091979980468750e+01 -1.197668552398681641e+01 1.008120822906494141e+01 4.802030181884765625e+01 1.743045234680175781e+01 2.780456781387329102e+00
8.600000000000000000e+01 7.611378479003906250e+01 -1.180063819885253906e+01 5.326408863067626953e+00 3.811692047119140625e+01 1.303299903869628906e+01 1.235557794570922852e+00
8.700000000000000000e+01 7.620665740966796875e+01 -1.162459182739257812e+01 3.102219581604003906e+00 3.231565093994140625e+01 1.062536144256591797e+01 1.001523852348327637e+00
8.800000000000000000e+01 7.629953002929687500e+01 -1.144854450225830078e+01 1.608784437179565430e+00 2.854627227783203125e+01 9.046517372131347656e+00 9.400740265846252441e-01
8.900000000000000000e+01 7.596684265136718750e+01 -1.195461845397949219e+01 6.577757358551025391e+00 4.885504150390625000e+01 1.662984085083007812e+01 -1.692784070968627930e+00
9.000000000000000000e+01 7.602365875244140625e+01 -1.176385974884033203e+01 3.146669149398803711e+00 3.783715820312500000e+01 1.229514789581298828e+01 -2.506706953048706055e+00
9.100000000000000000e+01 7.608048248291015625e+01 -1.157310104370117188e+01 1.334334850311279297e+00 3.192201995849609375e+01 9.976906776428222656e+00 -2.323119878768920898e+00
9.200000000000000000e+01 7.613730621337890625e+01 -1.138234233856201172e+01 2.271748036146163940e-01 2.803774642944335938e+01 8.479475975036621094e+00 -1.921593308448791504e+00
9.300000000000000000e+01 7.590950775146484375e+01 -1.194350051879882812e+01 4.728566169738769531e+00 4.737771987915039062e+01 1.563188552856445312e+01 -7.004691600799560547e+00
9.400000000000000000e+01 7.592810058593750000e+01 -1.174532985687255859e+01 2.396718740463256836e+00 3.575038528442382812e+01 1.144413089752197266e+01 -6.677660942077636719e+00
9.500000000000000000e+01 7.594670104980468750e+01 -1.154716014862060547e+01 7.964463233947753906e-01 2.980235290527343750e+01 9.179639816284179688e+00 -5.738977909088134766e+00
9.600000000000000000e+01 7.596529388427734375e+01 -1.134898948669433594e+01 -3.275414183735847473e-02 2.604376602172851562e+01 7.803303718566894531e+00 -5.055388927459716797e+00
9.700000000000000000e+01 7.585110473632812500e+01 -1.194375801086425781e+01 5.040003776550292969e+00 4.337556076049804688e+01 1.452466869354248047e+01 -1.241216659545898438e+01
9.800000000000000000e+01 7.583076477050781250e+01 -1.174575901031494141e+01 2.930922269821166992e+00 3.165997505187988281e+01 1.037726879119873047e+01 -1.031558799743652344e+01
9.900000000000000000e+01 7.581042480468750000e+01 -1.154776000976562500e+01 1.624306201934814453e+00 2.609850692749023438e+01 8.316843986511230469e+00 -8.787523269653320312e+00
1.000000000000000000e+02 7.579007720947265625e+01 -1.134976100921630859e+01 5.418643355369567871e-01 2.260539054870605469e+01 6.944176673889160156e+00 -7.635197639465332031e+00
1.010000000000000000e+02 7.579386901855468750e+01 -1.195538043975830078e+01 6.945813655853271484e+00 3.676437377929687500e+01 1.311305618286132812e+01 -1.660321426391601562e+01
1.020000000000000000e+02 7.573536682128906250e+01 -1.176513004302978516e+01 4.824257373809814453e+00 2.602400398254394531e+01 9.254478454589843750e+00 -1.288950824737548828e+01
1.030000000000000000e+02 7.567687225341796875e+01 -1.157487964630126953e+01 3.083542585372924805e+00 2.101287651062011719e+01 7.228925704956054688e+00 -1.070021629333496094e+01
1.040000000000000000e+02 7.561837005615234375e+01 -1.138462924957275391e+01 2.090890407562255859e+00 1.815136909484863281e+01 6.072677612304687500e+00 -9.199084281921386719e+00
1.050000000000000000e+02 7.573999023437500000e+01 -1.197792339324951172e+01 1.042588329315185547e+01 2.834194755554199219e+01 1.163034915924072266e+01 -1.876390647888183594e+01
1.060000000000000000e+02 7.564556884765625000e+01 -1.180270195007324219e+01 6.806912422180175781e+00 1.924083328247070312e+01 7.814323902130126953e+00 -1.367051315307617188e+01
1.070000000000000000e+02 7.555115509033203125e+01 -1.162748050689697266e+01 5.103332519531250000e+00 1.539029026031494141e+01 6.148087024688720703e+00 -1.116322612762451172e+01
1.080000000000000000e+02 7.545674133300781250e+01 -1.145225906372070312e+01 3.635656833648681641e+00 1.303813457489013672e+01 5.002137184143066406e+00 -9.440600395202636719e+00
1.090000000000000000e+02 7.569152832031250000e+01 -1.201052474975585938e+01 1.338952922821044922e+01 1.898715591430664062e+01 9.713006019592285156e+00 -1.818896102905273438e+01
1.100000000000000000e+02 7.556481170654296875e+01 -1.185703659057617188e+01 8.891176223754882812e+00 1.232956695556640625e+01 6.366222858428955078e+00 -1.252184391021728516e+01
1.110000000000000000e+02 7.543808746337890625e+01 -1.170354938507080078e+01 6.136049270629882812e+00 9.711606025695800781e+00 4.754296779632568359e+00 -9.848574638366699219e+00
1.120000000000000000e+02 7.531136322021484375e+01 -1.155006217956542969e+01 4.880921840667724609e+00 8.541817665100097656e+00 4.026822090148925781e+00 -8.436029434204101562e+00
1.130000000000000000e+02 7.565034484863281250e+01 -1.205193614959716797e+01 1.550582981109619141e+01 9.995023727416992188e+00 7.650256156921386719e+00 -1.479007244110107422e+01
1.140000000000000000e+02 7.549616241455078125e+01 -1.192605590820312500e+01 8.960379600524902344e+00 6.159937381744384766e+00 4.536095142364501953e+00 -9.478549003601074219e+00
1.150000000000000000e+02 7.534198760986328125e+01 -1.180017566680908203e+01 6.432331562042236328e+00 5.082563877105712891e+00 3.454468488693237305e+00 -7.308859348297119141e+00
1.160000000000000000e+02 7.518780517578125000e+01 -1.167429542541503906e+01 4.382327556610107422e+00 4.547004222869873047e+00 2.678799629211425781e+00 -5.977571487426757812e+00
1.170000000000000000e+02 7.561801147460937500e+01 -1.210057353973388672e+01 1.397924423217773438e+01 2.753206491470336914e+00 5.019735336303710938e+00 -9.187683105468750000e+00
1.180000000000000000e+02 7.544227600097656250e+01 -1.200711822509765625e+01 7.333519935607910156e+00 1.579369544982910156e+00 2.673866748809814453e+00 -5.256075859069824219e+00
1.190000000000000000e+02 7.526653289794921875e+01 -1.191366195678710938e+01 4.088823318481445312e+00 2.223604202270507812e+00 1.893728256225585938e+00 -3.985920906066894531e+00
1.200000000000000000e+02 7.509079742431640625e+01 -1.182020664215087891e+01 3.180400848388671875e+00 1.800144314765930176e+00 1.494163513183593750e+00 -3.675295352935791016e+00
1.210000000000000000e+02 7.559576416015625000e+01 -1.215457439422607422e+01 8.667229652404785156e+00 -2.642156600952148438e+00 1.807521820068359375e+00 -1.901280879974365234e+00
1.220000000000000000e+02 7.540519714355468750e+01 -1.209712028503417969e+01 1.333344459533691406e+00 4.729013144969940186e-01 5.418737530708312988e-01 -1.262967109680175781e+00
1.230000000000000000e+02 7.521463012695312500e+01 -1.203966522216796875e+01 1.223463892936706543e+00 7.330631017684936523e-01 5.869581103324890137e-01 -2.008308172225952148e+00
1.240000000000000000e+02 7.502406311035156250e+01 -1.198221111297607422e+01 1.394886523485183716e-01 2.395281493663787842e-01 1.137050390243530273e-01 -1.236196637153625488e+00
1.250000000000000000e+02 7.558444976806640625e+01 -1.221187400817871094e+01 -7.253232479095458984e+00 -2.604601860046386719e+00 -2.957350254058837891e+00 2.882173061370849609e+00
1.260000000000000000e+02 7.538634490966796875e+01 -1.219261932373046875e+01 -2.696471691131591797e+00 9.732831716537475586e-01 -5.169565081596374512e-01 -7.054364681243896484e-01
1.270000000000000000e+02 7.518824005126953125e+01 -1.217336368560791016e+01 -3.867182731628417969e+00 -4.104761183261871338e-01 -1.283297657966613770e+00 7.120752334594726562e-02
1.280000000000000000e+02 7.499013519287109375e+01 -1.215410900115966797e+01 -4.108204841613769531e+00 1.988305300474166870e-01 -1.172812342643737793e+00 -1.279477775096893311e-01
1.290000000000000000e+02 7.095011138916015625e+01 -1.294940090179443359e+01 -2.111537456512451172e+00 8.867394179105758667e-02 -6.068590879440307617e-01 -5.404148101806640625e-01
1.300000000000000000e+02 7.215828704833984375e+01 -1.297700786590576172e+01 -2.520948171615600586e+00 8.810991793870925903e-02 -7.298514842987060547e-01 -3.044111132621765137e-01
1.310000000000000000e+02 7.274395751953125000e+01 -1.322692775726318359e+01 -1.810255646705627441e+00 1.197964474558830261e-01 -5.071377754211425781e-01 -2.608750015497207642e-02
1.320000000000000000e+02 7.019200897216796875e+01 -1.341584014892578125e+01 -1.375947356224060059e+00 1.522271186113357544e-01 -3.671160638332366943e-01 -8.565972447395324707e-01
1.330000000000000000e+02 7.257202148437500000e+01 -1.362356376647949219e+01 -8.679804205894470215e-01 3.764662444591522217e-01 -1.474542468786239624e-01 8.062655478715896606e-02
1.340000000000000000e+02 7.258597564697265625e+01 -1.239318370819091797e+01 -4.580149650573730469e+00 5.506689101457595825e-02 -1.357524871826171875e+00 -3.673603758215904236e-02
1.350000000000000000e+02 7.270091247558593750e+01 -1.284783077239990234e+01 -2.915360689163208008e+00 1.381924152374267578e-01 -8.331505060195922852e-01 -1.744113415479660034e-01
1.360000000000000000e+02 7.274341583251953125e+01 -1.303535747528076172e+01 -2.163177728652954102e+00 1.432043910026550293e-01 -6.059919595718383789e-01 -1.616642326116561890e-01
1.370000000000000000e+02 7.251468658447265625e+01 -1.325720214843750000e+01 -1.725691556930541992e+00 5.043286085128784180e-02 -5.025776028633117676e-01 -4.928388074040412903e-02
1.380000000000000000e+02 7.220732879638671875e+01 -1.338336086273193359e+01 -1.485461592674255371e+00 3.126610219478607178e-01 -3.518401682376861572e-01 -2.539488673210144043e-01
1.390000000000000000e+02 7.265916442871093750e+01 -1.263685321807861328e+01 -3.558585405349731445e+00 1.651528626680374146e-01 -1.018029689788818359e+00 -2.521638572216033936e-01
1.400000000000000000e+02 7.094324493408203125e+01 -1.344526672363281250e+01 -1.444974422454833984e+00 1.558299213647842407e-01 -3.867433369159698486e-01 -7.182799577713012695e-01
1.410000000000000000e+02 7.024285888671875000e+01 -1.242900466918945312e+01 -2.074631690979003906e+00 4.531627893447875977e-02 -6.087946295738220215e-01 -1.760589033365249634e-01
1.420000000000000000e+02 7.270886993408203125e+01 -1.340976810455322266e+01 -1.283831000328063965e+00 1.320121735334396362e-01 -3.455456495285034180e-01 4.038179665803909302e-02
1.430000000000000000e+02 7.223889923095703125e+01 -1.258632469177246094e+01 -3.743595600128173828e+00 -8.152569085359573364e-02 -1.147536396980285645e+00 -1.743951588869094849e-01
1.440000000000000000e+02 7.169330596923828125e+01 -1.248404216766357422e+01 -3.501955509185791016e+00 4.423590749502182007e-02 -1.037315845489501953e+00 -1.024684458971023560e-01
1.450000000000000000e+02 7.021526336669921875e+01 -1.292260456085205078e+01 -1.633783340454101562e+00 5.274242535233497620e-02 -4.743122756481170654e-01 -6.321951746940612793e-01
1.460000000000000000e+02 7.162014770507812500e+01 -1.296851253509521484e+01 -2.357240200042724609e+00 4.369248822331428528e-02 -6.940643191337585449e-01 -4.695289731025695801e-01
1.470000000000000000e+02 7.166098022460937500e+01 -1.346490573883056641e+01 -1.461721539497375488e+00 2.287926822900772095e-01 -3.698786795139312744e-01 -4.734301865100860596e-01
1.480000000000000000e+02 7.098374938964843750e+01 -1.245547103881835938e+01 -2.807746887207031250e+00 -1.270581595599651337e-02 -8.461357951164245605e-01 -1.460174471139907837e-01
1.490000000000000000e+02 7.250186157226562500e+01 -1.301245975494384766e+01 -2.453953266143798828e+00 3.497731685638427734e-02 -7.256927490234375000e-01 -1.140594929456710815e-01
1.500000000000000000e+02 7.397564697265625000e+01 -1.238778400421142578e+01 -5.005179405212402344e+00 -2.126953750848770142e-02 -1.507934808731079102e+00 -9.777843952178955078e-02
1.510000000000000000e+02 7.376359558105468750e+01 -1.185002231597900391e+01 -2.814321994781494141e+00 1.524005234241485596e-01 -7.985764741897583008e-01 -4.294023383408784866e-03
1.520000000000000000e+02 7.298235321044921875e+01 -1.213841247558593750e+01 -4.116646766662597656e+00 -1.247965544462203979e-01 -1.272433042526245117e+00 9.991819411516189575e-02
1.530000000000000000e+02 7.556908416748046875e+01 -1.089091110229492188e+01 2.457766234874725342e-01 1.561194229125976562e+01 4.757315635681152344e+00 -6.696188926696777344e+00
1.540000000000000000e+02 7.678407287597656250e+01 -1.326389408111572266e+01 1.777385592460632324e+00 2.197606849670410156e+01 7.126036167144775391e+00 -3.167425870895385742e+00
1.550000000000000000e+02 7.479069519042968750e+01 -1.236302280426025391e+01 -4.378046989440917969e+00 -1.462019681930541992e-01 -1.357274651527404785e+00 -3.150555863976478577e-02
1.560000000000000000e+02 7.296257019042968750e+01 -1.366026687622070312e+01 -3.924180865287780762e-01 9.501618146896362305e-01 1.673231273889541626e-01 6.673871278762817383e-01
1.570000000000000000e+02 7.315866088867187500e+01 -1.367024612426757812e+01 -3.642588853836059570e-01 8.267955780029296875e-01 1.387610137462615967e-01 8.004377484321594238e-01
1.580000000000000000e+02 7.397167968750000000e+01 -1.302438259124755859e+01 -8.335331082344055176e-01 5.611073970794677734e-01 -8.172772824764251709e-02 1.034588694572448730e+00
1.590000000000000000e+02 7.546790313720703125e+01 -1.349321746826171875e+01 7.266205549240112305e-01 1.455202674865722656e+01 4.583594322204589844e+00 7.236629486083984375e+00
1.600000000000000000e+02 7.577757263183593750e+01 -1.335465145111083984e+01 -1.912302225828170776e-01 2.024758529663085938e+01 6.016906261444091797e+00 6.664442062377929688e+00
1.610000000000000000e+02 7.577598571777343750e+01 -1.360929584503173828e+01 -8.580497503280639648e-01 1.828793144226074219e+01 5.228964328765869141e+00 5.670217037200927734e+00
1.620000000000000000e+02 7.517921447753906250e+01 -1.312344837188720703e+01 3.323371410369873047e+00 7.643126010894775391e+00 3.289949178695678711e+00 7.234523296356201172e+00
1.630000000000000000e+02 7.415562438964843750e+01 -1.265364456176757812e+01 -2.619577884674072266e+00 1.309631615877151489e-01 -7.465844750404357910e-01 2.931771874427795410e-01
1.640000000000000000e+02 7.437126159667968750e+01 -1.262648010253906250e+01 -2.196794033050537109e+00 3.314744532108306885e-01 -5.595958828926086426e-01 5.690169334411621094e-01
1.650000000000000000e+02 7.689857482910156250e+01 -1.132687187194824219e+01 3.234056234359741211e+00 2.122571563720703125e+01 7.337931156158447266e+00 3.717935085296630859e+00
1.660000000000000000e+02 7.702307128906250000e+01 -1.148101615905761719e+01 4.864547729492187500e+00 1.968422889709472656e+01 7.364632606506347656e+00 3.835693359375000000e+00
1.670000000000000000e+02 7.724005126953125000e+01 -1.213437557220458984e+01 9.016375541687011719e+00 1.662405586242675781e+01 7.692129135131835938e+00 7.546235322952270508e-01
1.680000000000000000e+02 7.660563659667968750e+01 -1.308665657043457031e+01 2.985905885696411133e+00 2.466998100280761719e+01 8.296766281127929688e+00 -3.094004154205322266e+00
1.690000000000000000e+02 7.714232635498046875e+01 -1.284033679962158203e+01 6.392493247985839844e+00 1.876424407958984375e+01 7.547021389007568359e+00 -3.550570487976074219e+00
1.700000000000000000e+02 7.635395812988281250e+01 -1.335581398010253906e+01 -3.719366192817687988e-01 2.442913246154785156e+01 7.217158794403076172e+00 1.238517612218856812e-01
1.710000000000000000e+02 7.300436401367187500e+01 -1.087147426605224609e+01 -3.959428369998931885e-01 7.861844897270202637e-01 1.170725002884864807e-01 -4.441595971584320068e-01
1.720000000000000000e+02 7.320652770996093750e+01 -1.087468910217285156e+01 -1.101328730583190918e-01 1.028832197189331055e+00 2.756097912788391113e-01 -6.289312839508056641e-01
1.730000000000000000e+02 7.321276092529296875e+01 -1.110019493103027344e+01 -5.552864670753479004e-01 5.860428214073181152e-01 9.226914495229721069e-03 -3.649515211582183838e-01
1.740000000000000000e+02 7.341884613037109375e+01 -1.111250591278076172e+01 -2.680110633373260498e-01 8.508098125457763672e-01 1.748396307229995728e-01 -6.379785537719726562e-01
1.750000000000000000e+02 7.399848937988281250e+01 -1.087133789062500000e+01 7.949720621109008789e-01 2.240940570831298828e+00 9.107738137245178223e-01 -2.157431364059448242e+00
1.760000000000000000e+02 7.557691192626953125e+01 -1.116411590576171875e+01 1.161794543266296387e+00 1.653544998168945312e+01 5.309173583984375000e+00 -7.919688701629638672e+00
1.770000000000000000e+02 7.298334503173828125e+01 -1.192801284790039062e+01 -3.290963888168334961e+00 4.270905256271362305e-02 -9.744764566421508789e-01 2.236306816339492798e-01
1.780000000000000000e+02 7.320725250244140625e+01 -1.131964206695556641e+01 -1.146008610725402832e+00 5.096452236175537109e-01 -1.909090280532836914e-01 -9.767870604991912842e-02
1.790000000000000000e+02 7.459189605712890625e+01 -1.212470436096191406e+01 -4.403717517852783203e+00 4.492395091801881790e-03 -1.319767594337463379e+00 -8.448383770883083344e-03
1.800000000000000000e+02 7.479120635986328125e+01 -1.213545036315917969e+01 -4.318138599395751953e+00 -3.402657434344291687e-02 -1.305649518966674805e+00 1.100708823651075363e-02
1.810000000000000000e+02 7.698848724365234375e+01 -1.213659858703613281e+01 1.099167156219482422e+01 1.885703468322753906e+01 8.954611778259277344e+00 1.088099122047424316e+00
1.820000000000000000e+02 7.684130096435546875e+01 -1.166410160064697266e+01 7.284447193145751953e+00 2.176039314270019531e+01 8.713452339172363281e+00 4.168286800384521484e+00
1.830000000000000000e+02 7.617444610595703125e+01 -1.116890239715576172e+01 -6.046077013015747070e-01 2.499813652038574219e+01 7.318058490753173828e+00 -1.917741298675537109e+00
1.840000000000000000e+02 7.597401428222656250e+01 -1.113588809967041016e+01 -7.566206455230712891e-01 2.309906578063964844e+01 6.702733516693115234e+00 -4.484022140502929688e+00
1.850000000000000000e+02 7.519583892822265625e+01 -1.135463142395019531e+01 3.464247703552246094e+00 8.055068969726562500e+00 3.455795049667358398e+00 -7.310928821563720703e+00
1.860000000000000000e+02 7.482104492187500000e+01 -1.191289043426513672e+01 -3.693178594112396240e-01 4.762505888938903809e-01 3.207982331514358521e-02 -1.250193595886230469e+00
1.870000000000000000e+02 7.556679534912109375e+01 -1.330757904052734375e+01 1.033985137939453125e+00 1.636753273010253906e+01 5.220455169677734375e+00 8.115226745605468750e+00
1.880000000000000000e+02 7.700337982177734375e+01 -1.269544124603271484e+01 8.134408950805664062e+00 1.984945106506347656e+01 8.395157814025878906e+00 -3.415304660797119141e+00
1.890000000000000000e+02 7.377678680419921875e+01 -1.237996864318847656e+01 -5.042359352111816406e+00 1.996213011443614960e-02 -1.506719112396240234e+00 -9.979380667209625244e-02
1.900000000000000000e+02 7.298166656494140625e+01 -1.260199260711669922e+01 -3.796032667160034180e+00 -2.392096072435379028e-01 -1.210572719573974609e+00 -1.051912903785705566e-01
1.910000000000000000e+02 7.318185424804687500e+01 -1.238606643676757812e+01 -5.027390480041503906e+00 3.021612064912915230e-03 -1.507310748100280762e+00 -1.430879682302474976e-01
1.920000000000000000e+02 7.298110198974609375e+01 -1.238879394531250000e+01 -5.109983921051025391e+00 -1.588913351297378540e-01 -1.580662608146667480e+00 2.090321853756904602e-03
1.930000000000000000e+02 7.722153472900390625e+01 -1.194782066345214844e+01 8.190568923950195312e+00 1.675470733642578125e+01 7.483582973480224609e+00 1.898486852645874023e+00
1.940000000000000000e+02 7.537809753417968750e+01 -1.122494220733642578e+01 2.509554862976074219e+00 1.227845287322998047e+01 4.436402320861816406e+00 -8.115165710449218750e+00
1.950000000000000000e+02 7.438002777099609375e+01 -1.105817508697509766e+01 1.376314043998718262e+00 2.723175287246704102e+00 1.229846835136413574e+00 -3.121569633483886719e+00
1.960000000000000000e+02 7.672239685058593750e+01 -1.150657653808593750e+01 4.850523948669433594e+00 2.358856582641601562e+01 8.531726837158203125e+00 3.954704761505126953e+00
1.970000000000000000e+02 7.637096405029296875e+01 -1.125543785095214844e+01 4.407711923122406006e-01 2.560346221923828125e+01 7.813270092010498047e+00 6.458060741424560547e-01
1.980000000000000000e+02 7.419153594970703125e+01 -1.086472988128662109e+01 1.163451313972473145e+00 2.821567773818969727e+00 1.195505738258361816e+00 -2.820134401321411133e+00
1.990000000000000000e+02 7.713086700439453125e+01 -1.162294864654541016e+01 6.007815361022949219e+00 1.872012329101562500e+01 7.418381690979003906e+00 3.799268245697021484e+00
2.000000000000000000e+02 7.577505493164062500e+01 -1.113478088378906250e+01 6.920922547578811646e-02 2.032309722900390625e+01 6.117691993713378906e+00 -6.641567707061767578e+00
2.010000000000000000e+02 7.536122131347656250e+01 -1.091493034362792969e+01 1.128977894783020020e+00 1.260938167572021484e+01 4.121508121490478516e+00 -6.937856197357177734e+00
2.020000000000000000e+02 7.597069549560546875e+01 -1.088416576385498047e+01 -1.252900481224060059e+00 2.072791290283203125e+01 5.842503547668457031e+00 -3.970710992813110352e+00
2.030000000000000000e+02 7.457272338867187500e+01 -1.085972213745117188e+01 1.796919107437133789e+00 4.438341140747070312e+00 1.870578169822692871e+00 -4.300438880920410156e+00
2.040000000000000000e+02 7.536907958984375000e+01 -1.322161769866943359e+01 2.520045042037963867e+00 1.205991649627685547e+01 4.373988628387451172e+00 8.356104850769042969e+00
2.050000000000000000e+02 7.674011230468750000e+01 -1.294975662231445312e+01 5.358400821685791016e+00 2.332209014892578125e+01 8.604146957397460938e+00 -4.049878597259521484e+00
2.060000000000000000e+02 7.664013671875000000e+01 -1.338418579101562500e+01 4.362154304981231689e-01 2.224155998229980469e+01 6.803332805633544922e+00 -2.094694137573242188e+00
2.070000000000000000e+02 7.645850372314453125e+01 -1.320162773132324219e+01 8.832873702049255371e-01 2.557717132568359375e+01 7.938137531280517578e+00 -1.364247322082519531e+00
2.080000000000000000e+02 7.461694335937500000e+01 -1.336940479278564453e+01 1.870924234390258789e+00 3.567692279815673828e+00 1.631585001945495605e+00 4.071340560913085938e+00
2.090000000000000000e+02 7.696762847900390625e+01 -1.251344108581542969e+01 1.009234809875488281e+01 1.959779167175292969e+01 8.907041549682617188e+00 -2.627699375152587891e+00
2.100000000000000000e+02 7.484017181396484375e+01 -1.334581947326660156e+01 2.332893133163452148e+00 5.177314281463623047e+00 2.253062248229980469e+00 5.386036872863769531e+00
2.110000000000000000e+02 7.502452087402343750e+01 -1.297268199920654297e+01 3.353890419006347656e+00 4.486958503723144531e+00 2.352254629135131836e+00 5.621485233306884766e+00
2.120000000000000000e+02 7.598413848876953125e+01 -1.335099029541015625e+01 -8.654632568359375000e-01 2.323925971984863281e+01 6.712138652801513672e+00 4.434640884399414062e+00
2.130000000000000000e+02 7.698969268798828125e+01 -1.232843971252441406e+01 1.099832820892333984e+01 1.907882118225097656e+01 9.023144721984863281e+00 -8.335158228874206543e-01
2.140000000000000000e+02 7.577068328857421875e+01 -1.088018226623535156e+01 -6.966831684112548828e-01 1.813592147827148438e+01 5.231771469116210938e+00 -5.494400024414062500e+00
2.150000000000000000e+02 7.661941528320312500e+01 -1.119546508789062500e+01 1.335418820381164551e+00 2.339363479614257812e+01 7.418716430664062500e+00 2.596854448318481445e+00
2.160000000000000000e+02 7.650020599365234375e+01 -1.349186515808105469e+01 -3.600597679615020752e-01 2.293806266784667969e+01 6.773400783538818359e+00 -8.365721702575683594e-01
2.170000000000000000e+02 7.644423675537109375e+01 -1.109633350372314453e+01 -2.988021075725555420e-02 2.386912918090820312e+01 7.151774883270263672e+00 6.464802622795104980e-01
2.180000000000000000e+02 7.635520935058593750e+01 -1.092829132080078125e+01 -1.127720236778259277e+00 2.261960792541503906e+01 6.447566032409667969e+00 -7.342638969421386719e-01
2.190000000000000000e+02 7.724126434326171875e+01 -1.232676982879638672e+01 8.858325004577636719e+00 1.639555168151855469e+01 7.576162815093994141e+00 -5.199074745178222656e-01
2.200000000000000000e+02 7.699443054199218750e+01 -1.177011585235595703e+01 8.095558166503906250e+00 1.975135040283203125e+01 8.354072570800781250e+00 3.331100463867187500e+00
2.210000000000000000e+02 7.691904449462890625e+01 -1.312671279907226562e+01 3.519195079803466797e+00 2.095390129089355469e+01 7.341928958892822266e+00 -3.795557022094726562e+00
2.220000000000000000e+02 7.617272186279296875e+01 -1.091067790985107422e+01 -1.365615248680114746e+00 2.221651458740234375e+01 6.255270004272460938e+00 -2.223216772079467773e+00
2.230000000000000000e+02 7.656053924560546875e+01 -1.137188911437988281e+01 2.556557416915893555e+00 2.508082580566406250e+01 8.291214942932128906e+00 3.054977655410766602e+00
2.240000000000000000e+02 7.495344543457031250e+01 -1.088573265075683594e+01 1.827372550964355469e+00 7.170304775238037109e+00 2.699303150177001953e+00 -5.674998283386230469e+00
2.250000000000000000e+02 7.488911437988281250e+01 -1.114959526062011719e+01 2.619024753570556641e+00 5.512593746185302734e+00 2.439485549926757812e+00 -5.335754394531250000e+00
2.260000000000000000e+02 7.340652465820312500e+01 -1.087653732299804688e+01 1.252498477697372437e-01 1.133292913436889648e+00 3.775628507137298584e-01 -9.799976348876953125e-01
2.270000000000000000e+02 7.392237091064453125e+01 -1.153979015350341797e+01 -6.951116323471069336e-01 5.129428505897521973e-01 -5.465062707662582397e-02 -6.453456282615661621e-01
2.280000000000000000e+02 7.515331268310546875e+01 -1.091094017028808594e+01 1.651759147644042969e+00 9.723168373107910156e+00 3.412478208541870117e+00 -6.393574237823486328e+00
2.290000000000000000e+02 7.398808288574218750e+01 -1.209511280059814453e+01 -4.501387119293212891e+00 4.941373690962791443e-02 -1.335591912269592285e+00 6.378235667943954468e-02
2.300000000000000000e+02 7.439297485351562500e+01 -1.211399078369140625e+01 -4.475918292999267578e+00 1.751959510147571564e-02 -1.337519645690917969e+00 8.855490945279598236e-03
2.310000000000000000e+02 7.317617034912109375e+01 -1.192892551422119141e+01 -3.369616031646728516e+00 -5.159414932131767273e-02 -1.026363015174865723e+00 2.137441784143447876e-01
2.320000000000000000e+02 7.419282531738281250e+01 -1.209724235534667969e+01 -4.512548446655273438e+00 4.884718451648950577e-03 -1.352299094200134277e+00 2.638890035450458527e-02
2.330000000000000000e+02 7.337994384765625000e+01 -1.238179969787597656e+01 -5.061977386474609375e+00 1.435094699263572693e-02 -1.514287948608398438e+00 -1.213181540369987488e-01
2.340000000000000000e+02 7.598471069335937500e+01 -1.360273265838623047e+01 -1.415271282196044922e+00 2.068604278564453125e+01 5.781231403350830078e+00 4.029953956604003906e+00
2.350000000000000000e+02 7.617443847656250000e+01 -1.358261489868164062e+01 -1.513159513473510742e+00 2.172712135314941406e+01 6.064188957214355469e+00 2.296548604965209961e+00
2.360000000000000000e+02 7.376666259765625000e+01 -1.361036014556884766e+01 3.873454630374908447e-01 1.561515569686889648e+00 5.846583247184753418e-01 1.814227700233459473e+00
2.370000000000000000e+02 7.438467407226562500e+01 -1.361879920959472656e+01 1.332229018211364746e+00 3.410728931427001953e+00 1.422887444496154785e+00 3.592385053634643555e+00
2.380000000000000000e+02 7.500655364990234375e+01 -1.361996078491210938e+01 1.567943096160888672e+00 8.066384315490722656e+00 2.890298128128051758e+00 6.088948249816894531e+00
2.390000000000000000e+02 7.520758819580078125e+01 -1.363540840148925781e+01 1.104372739791870117e+00 1.050549411773681641e+01 3.482959985733032227e+00 6.514060020446777344e+00
2.400000000000000000e+02 7.459269714355468750e+01 -1.361889362335205078e+01 1.628343105316162109e+00 4.574571132659912109e+00 1.860874295234680176e+00 4.478281974792480469e+00
2.410000000000000000e+02 7.299255371093750000e+01 -1.324818515777587891e+01 -1.537780165672302246e+00 3.098829686641693115e-01 -3.683691620826721191e-01 8.982278406620025635e-02
2.420000000000000000e+02 7.417990875244140625e+01 -1.361234951019287109e+01 1.048669934272766113e+00 2.671083927154541016e+00 1.115926146507263184e+00 2.927175521850585938e+00
2.430000000000000000e+02 7.333938598632812500e+01 -1.364470291137695312e+01 -2.367170155048370361e-01 1.067059993743896484e+00 2.491028755903244019e-01 1.018403649330139160e+00
2.440000000000000000e+02 7.317494964599609375e+01 -1.172523212432861328e+01 -2.542880058288574219e+00 1.476078480482101440e-01 -7.185816168785095215e-01 2.050684988498687744e-01
2.450000000000000000e+02 7.318020629882812500e+01 -1.213763713836669922e+01 -4.257045745849609375e+00 1.076555028557777405e-01 -1.244817018508911133e+00 1.104056984186172485e-01
2.460000000000000000e+02 7.357918548583984375e+01 -1.212379837036132812e+01 -4.449039459228515625e+00 9.461501240730285645e-02 -1.306327342987060547e+00 5.985872447490692139e-02
2.470000000000000000e+02 7.299979400634765625e+01 -1.130007648468017578e+01 -1.238992452621459961e+00 2.711682319641113281e-01 -2.903472483158111572e-01 1.029933020472526550e-01
2.480000000000000000e+02 7.299343109130859375e+01 -1.303329658508300781e+01 -2.081947803497314453e+00 8.864582329988479614e-02 -5.979905724525451660e-01 -2.650471776723861694e-02
2.490000000000000000e+02 7.298594665527343750e+01 -1.281700801849365234e+01 -2.904129505157470703e+00 -1.159111689776182175e-02 -8.747162222862243652e-01 -1.884239464998245239e-01
2.500000000000000000e+02 7.458457183837890625e+01 -1.237794208526611328e+01 -4.575505733489990234e+00 6.941985338926315308e-02 -1.351825833320617676e+00 1.751177944242954254e-02
2.510000000000000000e+02 7.360413360595703125e+01 -1.087661457061767578e+01 4.637668728828430176e-01 1.394534945487976074e+00 5.574905276298522949e-01 -1.225696563720703125e+00
2.520000000000000000e+02 7.491208648681640625e+01 -1.135771465301513672e+01 3.067644596099853516e+00 4.344272613525390625e+00 2.223575115203857422e+00 -5.138692855834960938e+00
2.530000000000000000e+02 7.490534210205078125e+01 -1.170128917694091797e+01 2.227735519409179688e+00 1.557257890701293945e+00 1.135498046875000000e+00 -3.141485691070556641e+00
2.540000000000000000e+02 7.436981201171875000e+01 -1.154727172851562500e+01 5.488994717597961426e-01 8.769744634628295898e-01 4.277621805667877197e-01 -1.634809136390686035e+00
2.550000000000000000e+02 7.401522827148437500e+01 -1.110783672332763672e+01 8.572255373001098633e-01 1.522872090339660645e+00 7.140292525291442871e-01 -1.947213888168334961e+00
2.560000000000000000e+02 7.337933349609375000e+01 -1.213354396820068359e+01 -4.383241653442382812e+00 -7.424262911081314087e-02 -1.337245225906372070e+00 8.466529101133346558e-02
2.570000000000000000e+02 7.378153228759765625e+01 -1.210896396636962891e+01 -4.479013442993164062e+00 -7.309606671333312988e-02 -1.365632772445678711e+00 4.719682037830352783e-02
2.580000000000000000e+02 7.338085937500000000e+01 -1.258789062500000000e+01 -3.937057495117187500e+00 2.224650979042053223e-02 -1.174443364143371582e+00 -1.221402809023857117e-01
2.590000000000000000e+02 7.354271697998046875e+01 -1.361126708984375000e+01 1.632113754749298096e-02 1.157748699188232422e+00 3.522209525108337402e-01 1.295639634132385254e+00
2.600000000000000000e+02 7.376073455810546875e+01 -1.258681392669677734e+01 -3.712543010711669922e+00 1.241373829543590546e-02 -1.110038757324218750e+00 7.116346154361963272e-03
2.610000000000000000e+02 7.376863861083984375e+01 -1.309140872955322266e+01 -1.001319885253906250e+00 6.845960021018981934e-01 -9.501717239618301392e-02 9.181326627731323242e-01
2.620000000000000000e+02 7.458396911621093750e+01 -1.281576156616210938e+01 3.780688047409057617e-01 8.624557256698608398e-01 3.721573650836944580e-01 1.827410101890563965e+00
2.630000000000000000e+02 7.397646331787109375e+01 -1.360850620269775391e+01 7.167282104492187500e-01 2.016985893249511719e+00 8.201141953468322754e-01 2.316710472106933594e+00
2.640000000000000000e+02 7.482184600830078125e+01 -1.310131835937500000e+01 2.484233856201171875e+00 3.495532989501953125e+00 1.793930053710937500e+00 4.595868110656738281e+00
2.650000000000000000e+02 7.417858123779296875e+01 -1.292249393463134766e+01 -6.627215147018432617e-01 6.750005483627319336e-01 3.683699294924736023e-03 1.162447214126586914e+00
2.660000000000000000e+02 7.443639373779296875e+01 -1.317110347747802734e+01 1.109817981719970703e+00 2.131098031997680664e+00 9.722748398780822754e-01 2.902046680450439453e+00
2.670000000000000000e+02 7.504156494140625000e+01 -1.152568721771240234e+01 3.640766859054565430e+00 4.229184627532958984e+00 2.360985517501831055e+00 -5.503168106079101562e+00
2.680000000000000000e+02 7.490602874755859375e+01 -1.278085803985595703e+01 1.963011384010314941e+00 1.500203013420104980e+00 1.038964390754699707e+00 3.136919021606445312e+00
2.690000000000000000e+02 7.482342529296875000e+01 -1.257721710205078125e+01 -5.977054238319396973e-01 5.550118088722229004e-01 -1.280809473246335983e-02 1.313159108161926270e+00
2.700000000000000000e+02 7.457164001464843750e+01 -1.135652160644531250e+01 1.858761668205261230e+00 2.390237808227539062e+00 1.274699807167053223e+00 -3.214566230773925781e+00
2.710000000000000000e+02 7.461603546142578125e+01 -1.188981437683105469e+01 -1.114963769912719727e+00 3.113346695899963379e-01 -2.410887479782104492e-01 -8.717541694641113281e-01
2.720000000000000000e+02 7.399437713623046875e+01 -1.178890705108642578e+01 -2.043488979339599609e+00 1.388066411018371582e-01 -5.714046359062194824e-01 -2.968336641788482666e-01
2.730000000000000000e+02 7.437709808349609375e+01 -1.238593101501464844e+01 -4.777221202850341797e+00 -3.181180357933044434e-02 -1.442709922790527344e+00 -1.252307463437318802e-02
2.740000000000000000e+02 7.357041168212890625e+01 -1.257807350158691406e+01 -3.939919948577880859e+00 6.233047693967819214e-02 -1.163276910781860352e+00 -5.059673637151718140e-02
2.750000000000000000e+02 7.352707672119140625e+01 -1.332327270507812500e+01 -6.528235077857971191e-01 7.483839392662048340e-01 2.866813540458679199e-02 8.952274322509765625e-01
2.760000000000000000e+02 7.399245452880859375e+01 -1.331090927124023438e+01 2.848129272460937500e-01 1.285748958587646484e+00 4.711685478687286377e-01 1.807464122772216797e+00
2.770000000000000000e+02 7.339444732666015625e+01 -1.278584003448486328e+01 -2.891649723052978516e+00 1.198478788137435913e-01 -8.315405845642089844e-01 2.523589320480823517e-02
2.780000000000000000e+02 7.336980438232421875e+01 -1.192183113098144531e+01 -3.348662614822387695e+00 1.495940387248992920e-01 -9.597205519676208496e-01 1.684672832489013672e-01
2.790000000000000000e+02 7.473233795166015625e+01 -1.152364635467529297e+01 2.073277711868286133e+00 2.144936800003051758e+00 1.265464425086975098e+00 -3.287737131118774414e+00
2.800000000000000000e+02 7.424263763427734375e+01 -1.134249210357666016e+01 7.475317716598510742e-01 1.279441475868225098e+00 6.080919504165649414e-01 -1.888713836669921875e+00
2.810000000000000000e+02 7.383934020996093750e+01 -1.133899879455566406e+01 -3.177149891853332520e-01 7.601876854896545410e-01 1.327418088912963867e-01 -9.930910468101501465e-01
2.820000000000000000e+02 7.318615722656250000e+01 -1.259893989562988281e+01 -3.961046457290649414e+00 -2.582187950611114502e-02 -1.196060538291931152e+00 -7.598962634801864624e-02
2.830000000000000000e+02 7.297644042968750000e+01 -1.345600700378417969e+01 -1.087891221046447754e+00 5.883082151412963867e-01 -1.498748958110809326e-01 3.013126552104949951e-01
2.840000000000000000e+02 7.320182037353515625e+01 -1.349707317352294922e+01 -5.087418556213378906e-01 6.874294281005859375e-01 5.360626801848411560e-02 7.166070342063903809e-01
2.850000000000000000e+02 7.358651733398437500e+01 -1.292574882507324219e+01 -1.911257266998291016e+00 2.008451223373413086e-01 -5.131236314773559570e-01 3.077252805233001709e-01
2.860000000000000000e+02 7.377014160156250000e+01 -1.333058452606201172e+01 -2.095823585987091064e-01 9.176488518714904785e-01 2.124199569225311279e-01 1.262398958206176758e+00
2.870000000000000000e+02 7.320151519775390625e+01 -1.281318950653076172e+01 -2.850755929946899414e+00 -5.631792545318603516e-02 -8.721221685409545898e-01 -3.132467716932296753e-02
2.880000000000000000e+02 7.420309448242187500e+01 -1.332983303070068359e+01 7.370356917381286621e-01 1.764975905418395996e+00 7.506034374237060547e-01 2.374333858489990234e+00
2.890000000000000000e+02 7.440720367431640625e+01 -1.336936664581298828e+01 1.353247165679931641e+00 2.658871173858642578e+00 1.203635573387145996e+00 3.255448102951049805e+00
2.900000000000000000e+02 7.342269134521484375e+01 -1.135446071624755859e+01 -9.811193943023681641e-01 3.918710649013519287e-01 -1.767744868993759155e-01 -2.777223885059356689e-01
2.910000000000000000e+02 7.298593139648437500e+01 -1.171840953826904297e+01 -2.449419498443603516e+00 3.676109015941619873e-02 -7.237975597381591797e-01 3.794943392276763916e-01
2.920000000000000000e+02 7.356258392333984375e+01 -1.189454841613769531e+01 -3.211899757385253906e+00 -1.783073134720325470e-02 -9.689191579818725586e-01 1.170886009931564331e-01
2.930000000000000000e+02 7.299213409423828125e+01 -1.150967216491699219e+01 -1.871819972991943359e+00 2.773818075656890869e-01 -4.783314764499664307e-01 2.360801398754119873e-01
2.940000000000000000e+02 7.300418090820312500e+01 -1.108726310729980469e+01 -8.076952695846557617e-01 7.333438396453857422e-01 -2.230542339384555817e-02 -1.004418954253196716e-01
2.950000000000000000e+02 7.423189544677734375e+01 -1.179501247406005859e+01 -1.708206415176391602e+00 2.389139682054519653e-01 -4.407877624034881592e-01 -4.217268526554107666e-01
2.960000000000000000e+02 7.443145751953125000e+01 -1.187277603149414062e+01 -1.767354607582092285e+00 1.853992938995361328e-01 -4.745865762233734131e-01 -5.801954865455627441e-01
2.970000000000000000e+02 7.361972808837890625e+01 -1.111620903015136719e+01 -1.062415689229965210e-01 9.610472321510314941e-01 2.564417123794555664e-01 -9.911405444145202637e-01
2.980000000000000000e+02 7.357757568359375000e+01 -1.237833595275878906e+01 -5.064047813415527344e+00 -1.139829587191343307e-02 -1.522633790969848633e+00 -1.136569380760192871e-01
2.990000000000000000e+02 7.387582397460937500e+01 -1.282655334472656250e+01 -1.993525624275207520e+00 2.507486343383789062e-01 -5.228331089019775391e-01 3.817784190177917480e-01
3.000000000000000000e+02 7.417401885986328125e+01 -1.239130401611328125e+01 -4.925216674804687500e+00 7.844914495944976807e-02 -1.454030275344848633e+00 -4.547983780503273010e-02
3.010000000000000000e+02 7.380192565917968750e+01 -1.087466239929199219e+01 6.594995856285095215e-01 1.632471323013305664e+00 6.875912547111511230e-01 -1.745263695716857910e+00
3.020000000000000000e+02 7.438293457031250000e+01 -1.085685253143310547e+01 1.493855714797973633e+00 3.560793638229370117e+00 1.516394734382629395e+00 -3.428535938262939453e+00
3.030000000000000000e+02 7.395275115966796875e+01 -1.263306903839111328e+01 -3.075063705444335938e+00 1.258048415184020996e-01 -8.847776651382446289e-01 1.871021687984466553e-01
3.040000000000000000e+02 7.459672546386718750e+01 -1.261264133453369141e+01 -1.400209665298461914e+00 1.897233724594116211e-01 -3.631458878517150879e-01 9.040867090225219727e-01
3.050000000000000000e+02 7.480112457275390625e+01 -1.361543655395507812e+01 1.697521805763244629e+00 6.345057487487792969e+00 2.412773847579956055e+00 5.327613353729248047e+00
3.060000000000000000e+02 7.506435394287109375e+01 -1.336057853698730469e+01 2.393503189086914062e+00 7.620025157928466797e+00 3.004058599472045898e+00 6.501333713531494141e+00
3.070000000000000000e+02 7.420481872558593750e+01 -1.109285831451416016e+01 1.032906174659729004e+00 2.226554393768310547e+00 9.778381586074829102e-01 -2.428378105163574219e+00
3.080000000000000000e+02 7.443395233154296875e+01 -1.122488498687744141e+01 1.558888077735900879e+00 2.401139259338378906e+00 1.188008189201354980e+00 -2.981076478958129883e+00
3.090000000000000000e+02 7.453620910644531250e+01 -1.106681537628173828e+01 1.782288789749145508e+00 3.486875772476196289e+00 1.580749392509460449e+00 -3.742031812667846680e+00
3.100000000000000000e+02 7.470132446289062500e+01 -1.112680149078369141e+01 2.268975019454956055e+00 4.166586875915527344e+00 1.930668592453002930e+00 -4.482030391693115234e+00
3.110000000000000000e+02 7.476091003417968750e+01 -1.087309646606445312e+01 1.858137726783752441e+00 5.846743106842041016e+00 2.311464309692382812e+00 -5.015768051147460938e+00
3.120000000000000000e+02 7.506494903564453125e+01 -1.118795871734619141e+01 2.982038021087646484e+00 7.592963218688964844e+00 3.172500371932983398e+00 -6.567011356353759766e+00
3.130000000000000000e+02 7.651286315917968750e+01 -1.096777820587158203e+01 -3.943719565868377686e-01 2.183880043029785156e+01 6.433328628540039062e+00 1.132089376449584961e+00
3.140000000000000000e+02 7.666486358642578125e+01 -1.105237102508544922e+01 2.222135215997695923e-01 2.239855575561523438e+01 6.786230564117431641e+00 1.972610950469970703e+00
3.150000000000000000e+02 7.678440093994140625e+01 -1.117146682739257812e+01 1.794352054595947266e+00 2.242997360229492188e+01 7.267297267913818359e+00 3.095130920410156250e+00
3.160000000000000000e+02 7.719582366943359375e+01 -1.177368164062500000e+01 7.451341152191162109e+00 1.772668457031250000e+01 7.553407669067382812e+00 2.978645324707031250e+00
3.170000000000000000e+02 7.722537994384765625e+01 -1.251330184936523438e+01 8.011096000671386719e+00 1.680733680725097656e+01 7.445529460906982422e+00 -1.797439694404602051e+00
3.180000000000000000e+02 7.720330047607421875e+01 -1.268802833557128906e+01 7.686247348785400391e+00 1.743444061279296875e+01 7.536206245422363281e+00 -2.772800922393798828e+00
3.190000000000000000e+02 7.703730010986328125e+01 -1.298147392272949219e+01 5.040983200073242188e+00 1.985147285461425781e+01 7.467737197875976562e+00 -3.883627653121948242e+00
3.200000000000000000e+02 7.634915161132812500e+01 -1.355661773681640625e+01 -1.189145803451538086e+00 2.275772285461425781e+01 6.470573425292968750e+00 8.903657793998718262e-01
3.210000000000000000e+02 7.617217254638671875e+01 -1.332439422607421875e+01 -7.418512701988220215e-01 2.506001472473144531e+01 7.295449256896972656e+00 1.930105686187744141e+00
3.220000000000000000e+02 7.557627868652343750e+01 -1.363853740692138672e+01 -1.110807135701179504e-01 1.581852912902832031e+01 4.712234497070312500e+00 6.536931037902832031e+00
3.230000000000000000e+02 7.539677429199218750e+01 -1.365616035461425781e+01 5.745769143104553223e-01 1.288937854766845703e+01 4.039186477661132812e+00 6.676042079925537109e+00
3.240000000000000000e+02 7.696380615234375000e+01 -1.195167064666748047e+01 1.002636432647705078e+01 1.978483581542968750e+01 8.943359375000000000e+00 2.717274904251098633e+00
3.250000000000000000e+02 7.685272216796875000e+01 -1.280122280120849609e+01 7.600569248199462891e+00 2.151404953002929688e+01 8.734385490417480469e+00 -4.095136642456054688e+00
3.260000000000000000e+02 7.527251434326171875e+01 -1.342189884185791016e+01 1.905596971511840820e+00 1.101538181304931641e+01 3.876293659210205078e+00 7.470637321472167969e+00
3.270000000000000000e+02 7.323980712890625000e+01 -1.303782749176025391e+01 -1.874310493469238281e+00 2.077870666980743408e-01 -4.999570250511169434e-01 1.576625257730484009e-01
3.280000000000000000e+02 7.325754547119140625e+01 -1.328507423400878906e+01 -1.112357497215270996e+00 4.500113129615783691e-01 -1.987038701772689819e-01 4.898910820484161377e-01
3.290000000000000000e+02 7.335338592529296875e+01 -1.173056316375732422e+01 -2.545544624328613281e+00 1.345378812402486801e-02 -7.596272230148315430e-01 1.925089955329895020e-01
3.300000000000000000e+02 7.356965637207031250e+01 -1.275877761840820312e+01 -2.829982995986938477e+00 9.784822165966033936e-02 -8.196403980255126953e-01 6.072923913598060608e-02
3.310000000000000000e+02 7.373324584960937500e+01 -1.275778675079345703e+01 -2.752617597579956055e+00 6.795427948236465454e-02 -8.053990006446838379e-01 1.015847697854042053e-01
3.320000000000000000e+02 7.318841552734375000e+01 -1.152552223205566406e+01 -1.711483955383300781e+00 1.822357773780822754e-01 -4.587744772434234619e-01 1.686099022626876831e-01
3.330000000000000000e+02 7.338286590576171875e+01 -1.155908393859863281e+01 -1.704301714897155762e+00 2.442452460527420044e-01 -4.380169510841369629e-01 -6.653040181845426559e-03
3.340000000000000000e+02 7.438304901123046875e+01 -1.284294795989990234e+01 -3.828405737876892090e-01 4.869477748870849609e-01 3.123215772211551666e-02 1.268561959266662598e+00
3.350000000000000000e+02 7.403092193603515625e+01 -1.136180019378662109e+01 8.959434181451797485e-02 8.571304082870483398e-01 2.840174138545989990e-01 -1.222689867019653320e+00
3.360000000000000000e+02 7.364004516601562500e+01 -1.136596870422363281e+01 -5.696787238121032715e-01 5.792704224586486816e-01 2.877506893128156662e-03 -5.786150097846984863e-01
3.370000000000000000e+02 7.381893157958984375e+01 -1.111063385009765625e+01 3.310845792293548584e-01 1.135765433311462402e+00 4.400550127029418945e-01 -1.268774390220642090e+00
3.380000000000000000e+02 7.473468780517578125e+01 -1.290370273590087891e+01 1.478354692459106445e+00 1.780261993408203125e+00 9.775849580764770508e-01 2.991860866546630859e+00
3.390000000000000000e+02 7.461829376220703125e+01 -1.315567493438720703e+01 1.560402393341064453e+00 2.702887773513793945e+00 1.278987050056457520e+00 3.516868114471435547e+00
3.400000000000000000e+02 7.442395019531250000e+01 -1.301553440093994141e+01 6.271606087684631348e-01 1.341499209403991699e+00 5.905979275703430176e-01 2.267251491546630859e+00
3.410000000000000000e+02 7.458589935302734375e+01 -1.298104858398437500e+01 1.110066056251525879e+00 1.821236848831176758e+00 8.793908357620239258e-01 2.804119348526000977e+00
3.420000000000000000e+02 7.343669891357421875e+01 -1.298147106170654297e+01 -1.871062874794006348e+00 1.943997740745544434e-01 -5.029989480972290039e-01 2.925613522529602051e-01
3.430000000000000000e+02 7.428186035156250000e+01 -1.311260795593261719e+01 4.635676741600036621e-01 1.244118332862854004e+00 5.123057961463928223e-01 2.077021837234497070e+00
3.440000000000000000e+02 7.455028533935546875e+01 -1.169599819183349609e+01 1.848216801881790161e-01 5.726739764213562012e-01 2.272486984729766846e-01 -1.449952721595764160e+00
3.450000000000000000e+02 7.369912719726562500e+01 -1.160974407196044922e+01 -1.668696761131286621e+00 1.428136229515075684e-01 -4.577649533748626709e-01 -1.401058733463287354e-01
3.460000000000000000e+02 7.373915863037109375e+01 -1.290805721282958984e+01 -1.685893416404724121e+00 2.330398410558700562e-01 -4.358560740947723389e-01 4.354885220527648926e-01
3.470000000000000000e+02 7.356818389892578125e+01 -1.309500408172607422e+01 -1.279416441917419434e+00 3.853045105934143066e-01 -2.682335674762725830e-01 6.096685528755187988e-01
3.480000000000000000e+02 7.351424407958984375e+01 -1.168367195129394531e+01 -2.102354049682617188e+00 2.811707854270935059e-01 -5.463550090789794922e-01 -1.426841970533132553e-02
3.490000000000000000e+02 7.122941589355468750e+01 -1.154229450225830078e+01 -1.806971907615661621e+00 -7.296166568994522095e-02 -5.639800429344177246e-01 6.633876562118530273e-01
3.500000000000000000e+02 7.234023284912109375e+01 -1.186496925354003906e+01 -3.020984411239624023e+00 2.150205336511135101e-02 -8.998447060585021973e-01 3.492716550827026367e-01
3.510000000000000000e+02 7.179566955566406250e+01 -1.146690559387207031e+01 -1.734886050224304199e+00 1.158928349614143372e-01 -4.856979548931121826e-01 5.977385044097900391e-01
3.520000000000000000e+02 7.137398529052734375e+01 -1.197123908996582031e+01 -2.574040651321411133e+00 7.233942300081253052e-02 -7.505103349685668945e-01 3.059259057044982910e-01
3.530000000000000000e+02 7.259360504150390625e+01 -1.173617935180664062e+01 -2.607594966888427734e+00 1.263723075389862061e-01 -7.443668246269226074e-01 4.149197041988372803e-01
3.540000000000000000e+02 7.257235717773437500e+01 -1.148784160614013672e+01 -2.015601873397827148e+00 2.908722162246704102e-01 -5.174188613891601562e-01 3.360430598258972168e-01
3.550000000000000000e+02 7.270130157470703125e+01 -1.111448097229003906e+01 -1.031785011291503906e+00 1.168817803263664246e-01 -2.744709551334381104e-01 9.446521103382110596e-02
3.560000000000000000e+02 7.230447387695312500e+01 -1.106376743316650391e+01 -1.081774234771728516e+00 4.014664888381958008e-01 -2.040923088788986206e-01 3.939862549304962158e-01
3.570000000000000000e+02 7.033099365234375000e+01 -1.103608036041259766e+01 -1.067044258117675781e+00 -9.437766671180725098e-02 -3.484265506267547607e-01 8.889400362968444824e-01
3.580000000000000000e+02 7.025553131103515625e+01 -1.177372646331787109e+01 -1.213865280151367188e+00 1.511475890874862671e-01 -3.188153207302093506e-01 5.161910653114318848e-01
3.590000000000000000e+02 7.274439239501953125e+01 -1.132441520690917969e+01 -1.466884016990661621e+00 2.316038906574249268e-01 -3.705840408802032471e-01 1.476771682500839233e-01
3.600000000000000000e+02 7.278888702392578125e+01 -1.170671749114990234e+01 -2.469717264175415039e+00 2.370263785123825073e-01 -6.698073148727416992e-01 3.486127555370330811e-01
3.610000000000000000e+02 7.276078033447265625e+01 -1.188994312286376953e+01 -2.997689008712768555e+00 1.391318887472152710e-01 -8.575671315193176270e-01 3.389485776424407959e-01
3.620000000000000000e+02 7.265384674072265625e+01 -1.210455894470214844e+01 -3.768307685852050781e+00 8.903383463621139526e-02 -1.103782176971435547e+00 2.696914374828338623e-01
3.630000000000000000e+02 7.278578948974609375e+01 -1.151289463043212891e+01 -1.975355625152587891e+00 8.941511809825897217e-02 -5.657821297645568848e-01 3.323369622230529785e-01
3.640000000000000000e+02 7.226347351074218750e+01 -1.145535850524902344e+01 -1.859545946121215820e+00 -5.035122856497764587e-02 -5.729691386222839355e-01 4.019826352596282959e-01
3.650000000000000000e+02 7.262074279785156250e+01 -1.087267494201660156e+01 -6.169332861900329590e-01 4.802097082138061523e-01 -4.101707413792610168e-02 5.268472060561180115e-02
3.660000000000000000e+02 7.191094970703125000e+01 -1.195759582519531250e+01 -3.063959598541259766e+00 -9.960325807332992554e-02 -9.490688443183898926e-01 3.352820277214050293e-01
3.670000000000000000e+02 7.177802276611328125e+01 -1.097473907470703125e+01 -1.127047777175903320e+00 1.310623586177825928e-01 -2.987956106662750244e-01 5.658264160156250000e-01
3.680000000000000000e+02 7.085604858398437500e+01 -1.188555145263671875e+01 -1.869035959243774414e+00 -6.826749444007873535e-02 -5.811910629272460938e-01 3.437260389328002930e-01
3.690000000000000000e+02 7.108203887939453125e+01 -1.101086616516113281e+01 -1.107549190521240234e+00 1.837328225374221802e-01 -2.771449089050292969e-01 8.552243113517761230e-01
3.700000000000000000e+02 6.858232116699218750e+01 -1.094031238555908203e+01 3.666167333722114563e-02 -8.094723224639892578e-01 -2.318431884050369263e-01 4.654200375080108643e-01
3.710000000000000000e+02 6.947359466552734375e+01 -1.099150562286376953e+01 -6.372102499008178711e-01 -2.652376592159271240e-01 -2.707343697547912598e-01 8.819662332534790039e-01
3.720000000000000000e+02 6.803719329833984375e+01 -1.107850646972656250e+01 2.170379161834716797e-01 3.635397851467132568e-01 1.741733103990554810e-01 -2.741078138351440430e-01
3.730000000000000000e+02 6.943145751953125000e+01 -1.173042106628417969e+01 -5.231252312660217285e-01 -2.801182866096496582e-01 -2.409730702638626099e-01 2.916628718376159668e-01
3.740000000000000000e+02 6.853952026367187500e+01 -1.167917823791503906e+01 -1.388290971517562866e-01 5.043870583176612854e-02 -2.651711925864219666e-02 6.359802931547164917e-02
3.750000000000000000e+02 6.825370025634765625e+01 -1.315996456146240234e+01 -6.235008835792541504e-01 -4.704419374465942383e-01 -3.281828463077545166e-01 -6.880846619606018066e-01
3.760000000000000000e+02 6.900977325439453125e+01 -1.265451812744140625e+01 -8.314851522445678711e-01 -5.524327605962753296e-02 -2.660185396671295166e-01 -4.279921054840087891e-01
3.770000000000000000e+02 6.885197448730468750e+01 -1.326051998138427734e+01 -8.705815672874450684e-01 -4.133926331996917725e-02 -2.735762596130371094e-01 -8.382880687713623047e-01
3.780000000000000000e+02 6.948571777343750000e+01 -1.336122703552246094e+01 -1.139694333076477051e+00 1.218864787369966507e-02 -3.382517099380493164e-01 -8.559733629226684570e-01
3.790000000000000000e+02 6.839898681640625000e+01 -1.242876243591308594e+01 -2.437177002429962158e-01 5.155852064490318298e-03 -7.156855612993240356e-02 -1.772050112485885620e-01
3.800000000000000000e+02 6.954589843750000000e+01 -1.287160396575927734e+01 -1.339323043823242188e+00 6.956331431865692139e-02 -3.809279203414916992e-01 -6.645104885101318359e-01
3.810000000000000000e+02 6.948641967773437500e+01 -1.238705635070800781e+01 -1.163679242134094238e+00 -1.142518687993288040e-02 -3.525313138961791992e-01 -1.902453601360321045e-01
3.820000000000000000e+02 6.781655120849609375e+01 -1.293324279785156250e+01 -1.108677163720130920e-01 -3.251783251762390137e-01 -1.308138221502304077e-01 -1.521134972572326660e-01
3.830000000000000000e+02 6.748468780517578125e+01 -1.409972000122070312e+01 -5.118113756179809570e-01 -1.380843520164489746e+00 -5.677964687347412109e-01 -8.604000806808471680e-01
3.840000000000000000e+02 6.818261718750000000e+01 -1.407543277740478516e+01 -7.323104739189147949e-01 -5.143355727195739746e-01 -3.739938139915466309e-01 -9.966199994087219238e-01
3.850000000000000000e+02 7.025466156005859375e+01 -1.399114227294921875e+01 -1.003567695617675781e+00 2.186183482408523560e-01 -2.354848235845565796e-01 -8.954200148582458496e-01
3.860000000000000000e+02 7.947581481933593750e+01 -2.224133682250976562e+01 1.052580960094928741e-02 1.187456130981445312e+01 3.565526008605957031e+00 9.498329460620880127e-02
3.870000000000000000e+02 7.792287445068359375e+01 -1.300246715545654297e+01 3.253985643386840820e+00 1.306677055358886719e+01 4.896226882934570312e+00 -2.668803691864013672e+00
3.880000000000000000e+02 7.749382781982421875e+01 -1.231207656860351562e+01 7.472361564636230469e+00 1.468470382690429688e+01 6.647119522094726562e+00 -6.690127849578857422e-01
3.890000000000000000e+02 7.716887664794921875e+01 -1.111751174926757812e+01 2.007742166519165039e+00 1.839711761474609375e+01 6.121458053588867188e+00 3.658823013305664062e+00
3.900000000000000000e+02 6.809933471679687500e+01 -9.892605781555175781e+00 -2.946197092533111572e-01 -1.863677620887756348e+00 -6.474891901016235352e-01 4.486333727836608887e-01
3.910000000000000000e+02 6.889196777343750000e+01 -1.607146835327148438e+01 -7.932074666023254395e-01 9.452895261347293854e-03 -2.351263761520385742e-01 -8.582772016525268555e-01
3.920000000000000000e+02 7.274255371093750000e+01 -2.385073089599609375e+01 -8.255336433649063110e-02 5.364281177520751953e+00 1.584518313407897949e+00 9.079205393791198730e-01
3.930000000000000000e+02 6.243108367919921875e+01 -4.091335678100585938e+01 1.017772197723388672e+00 8.702012896537780762e-01 5.663920640945434570e-01 3.223009034991264343e-02
3.940000000000000000e+02 6.458834838867187500e+01 -3.633106994628906250e+01 7.974688410758972168e-01 1.409140825271606445e+00 6.619828939437866211e-01 1.914722025394439697e-01
3.950000000000000000e+02 6.725407409667968750e+01 -4.093318176269531250e+01 8.101875782012939453e-01 2.619415521621704102e+00 1.028880953788757324e+00 1.077145114541053772e-01
3.960000000000000000e+02 6.747737884521484375e+01 -3.789842224121093750e+01 7.603462934494018555e-01 2.674821853637695312e+00 1.030550360679626465e+00 3.097468316555023193e-01
3.970000000000000000e+02 7.928481292724609375e+01 -3.330711364746093750e+01 -8.475559763610363007e-03 9.116640090942382812e+00 2.732449531555175781e+00 1.174359768629074097e-01
3.980000000000000000e+02 7.794458007812500000e+01 -3.028141212463378906e+01 2.799235284328460693e-02 8.841585159301757812e+00 2.660873174667358398e+00 3.950667977333068848e-01
3.990000000000000000e+02 7.939797210693359375e+01 -2.637951850891113281e+01 -3.310692496597766876e-03 1.071244716644287109e+01 3.212740898132324219e+00 1.385485678911209106e-01
4.000000000000000000e+02 7.836170196533203125e+01 -2.346369743347167969e+01 -2.149164304137229919e-02 1.049637889862060547e+01 3.142466306686401367e+00 3.780415654182434082e-01
4.010000000000000000e+02 6.543217468261718750e+01 -1.812402343750000000e+01 -1.519554018974304199e+00 -2.399345159530639648e+00 -1.175669670104980469e+00 -1.828438401222229004e+00
4.020000000000000000e+02 6.089884948730468750e+01 -2.343498039245605469e+01 -2.086207151412963867e+00 -2.079680919647216797e+00 -1.249766349792480469e+00 -1.985321044921875000e+00
4.030000000000000000e+02 5.606070709228515625e+01 -2.908487510681152344e+01 -1.051266074180603027e+00 -9.283308982849121094e-01 -5.938791036605834961e-01 -9.892216324806213379e-01
4.040000000000000000e+02 5.813691711425781250e+01 -3.810266494750976562e+01 8.714861273765563965e-01 -2.800990939140319824e-01 1.774161010980606079e-01 -1.554129272699356079e-01
4.050000000000000000e+02 6.079513549804687500e+01 -2.543001747131347656e+01 -1.471508741378784180e+00 -1.423666715621948242e+00 -8.685526251792907715e-01 -1.249158382415771484e+00
4.060000000000000000e+02 5.648218917846679688e+01 -2.695463180541992188e+01 -2.022164106369018555e+00 -1.007534384727478027e+00 -9.089095592498779297e-01 -1.398638248443603516e+00
4.070000000000000000e+02 5.523476791381835938e+01 -2.768496322631835938e+01 -1.852462410926818848e+00 -8.476866483688354492e-01 -8.100447058677673340e-01 -1.193492889404296875e+00
4.080000000000000000e+02 5.009007263183593750e+01 -3.011921501159667969e+01 -1.057034134864807129e+00 -3.255786597728729248e-01 -4.147838354110717773e-01 -5.688784718513488770e-01
4.090000000000000000e+02 4.327924346923828125e+01 -3.205920028686523438e+01 -1.785718500614166260e-01 -5.538168922066688538e-02 -7.018606364727020264e-02 -1.004891246557235718e-01
4.100000000000000000e+02 3.903444290161132812e+01 -3.304161071777343750e+01 8.801103569567203522e-03 -2.395574003458023071e-02 -4.546390846371650696e-03 -2.587560564279556274e-02
4.110000000000000000e+02 3.745825195312500000e+01 -3.276556015014648438e+01 3.159251436591148376e-02 -3.096662228927016258e-03 8.548756130039691925e-03 -8.059282787144184113e-03
4.120000000000000000e+02 3.316054153442382812e+01 -3.231827163696289062e+01 3.655304387211799622e-02 6.353109492920339108e-04 1.115650590509176254e-02 -3.004261059686541557e-03
4.130000000000000000e+02 3.174270820617675781e+01 -3.202584838867187500e+01 3.164770081639289856e-02 6.149279070086777210e-04 9.678788483142852783e-03 -3.112071426585316658e-03
4.140000000000000000e+02 3.228969573974609375e+01 -3.610960769653320312e+01 -2.497584791854023933e-03 -4.757990594953298569e-03 -2.176672453060746193e-03 2.223168732598423958e-03
4.150000000000000000e+02 3.724839782714843750e+01 -3.723881912231445312e+01 -1.914689131081104279e-02 -4.122420400381088257e-02 -1.811132766306400299e-02 -3.002335876226425171e-02
4.160000000000000000e+02 3.861394882202148438e+01 -3.540811538696289062e+01 -1.841340772807598114e-02 -3.906644880771636963e-02 -1.724395714700222015e-02 -3.633658215403556824e-02
4.170000000000000000e+02 4.074189376831054688e+01 -3.679512786865234375e+01 -1.976435072720050812e-03 -1.393491625785827637e-01 -4.239768162369728088e-02 -9.602756053209304810e-02
4.180000000000000000e+02 4.756329345703125000e+01 -4.085251235961914062e+01 3.503476381301879883e-01 -5.986897349357604980e-01 -7.450263202190399170e-02 -1.104432865977287292e-01
4.190000000000000000e+02 2.899851989746093750e+01 -3.121264648437500000e+01 2.052276954054832458e-02 6.389938644133508205e-04 6.348529364913702011e-03 -3.681976115331053734e-03
4.200000000000000000e+02 2.508732032775878906e+01 -2.947924804687500000e+01 6.538554094731807709e-03 8.882086840458214283e-04 2.228028839454054832e-03 -1.602583331987261772e-03
4.210000000000000000e+02 2.626404953002929688e+01 -3.853910827636718750e+01 -7.514671888202428818e-03 2.498147776350378990e-03 -1.504957210272550583e-03 5.082748830318450928e-03
4.220000000000000000e+02 2.213564300537109375e+01 -3.632403564453125000e+01 -1.230491325259208679e-03 1.333301072008907795e-03 3.084291893173940480e-05 4.270771052688360214e-03
4.230000000000000000e+02 2.261148643493652344e+01 -2.814470481872558594e+01 3.260730998590588570e-03 7.098288624547421932e-04 1.191167975775897503e-03 -8.655670098960399628e-04
4.240000000000000000e+02 1.724399375915527344e+01 -2.695430755615234375e+01 1.322949421592056751e-03 -2.093591174343600869e-04 3.340770781505852938e-04 5.796081313746981323e-05
4.250000000000000000e+02 1.640195083618164062e+01 -2.571457099914550781e+01 4.493152955546975136e-04 -9.817157115321606398e-05 1.053431187756359577e-04 -1.907712430693209171e-04
4.260000000000000000e+02 1.401471614837646484e+01 -2.079061508178710938e+01 1.488017442170530558e-04 4.662288847612217069e-05 5.862739271833561361e-05 1.453798467991873622e-04
4.270000000000000000e+02 1.207579517364501953e+01 -1.880453300476074219e+01 1.221575657837092876e-04 7.367226498899981380e-05 5.874894850421696901e-05 1.526338455732911825e-04
4.280000000000000000e+02 1.022327613830566406e+01 -1.665113067626953125e+01 1.640464761294424534e-04 3.855972681776620448e-05 6.078185833757743239e-05 1.432783174095675349e-04
4.290000000000000000e+02 8.263912200927734375e+00 -1.552826023101806641e+01 1.386094227200374007e-04 -1.682397123659029603e-05 3.653563544503413141e-05 5.582797166425734758e-05
4.300000000000000000e+02 9.038326263427734375e+00 -1.258101272583007812e+01 -2.811699232552200556e-04 -1.772473915480077267e-04 -1.375251886202022433e-04 -5.375751061365008354e-05
4.310000000000000000e+02 4.185232162475585938e+00 -1.886682868003845215e+00 2.210077036579605192e-05 5.263851562631316483e-06 8.209386578528210521e-06 8.200676347769331187e-06
4.320000000000000000e+02 5.716109275817871094e-01 -1.064579772949218750e+01 -3.838346310658380389e-05 6.327519713522633538e-06 -9.616782335797324777e-06 -1.946257270901696756e-06
4.330000000000000000e+02 1.705540299415588379e+00 -1.054761505126953125e+01 6.184874655446037650e-05 2.312736341991694644e-06 1.924844400491565466e-05 4.560274192044744268e-06
4.340000000000000000e+02 6.158682703971862793e-01 -1.770088195800781250e+01 1.083727765944786370e-04 -1.804163912311196327e-05 2.709934051381424069e-05 1.190482089441502467e-05
4.350000000000000000e+02 1.841054320335388184e+00 -1.760243415832519531e+01 -1.077083798008970916e-04 -4.574482090902165510e-07 -3.244974868721328676e-05 -3.258642391301691532e-05
4.360000000000000000e+02 6.509068012237548828e-01 -2.472769355773925781e+01 -1.452762808185070753e-04 -4.655097654904238880e-05 -5.754817539127543569e-05 -1.795006392057985067e-05
4.370000000000000000e+02 7.787019610404968262e-01 -3.179342460632324219e+01 1.566784339956939220e-04 2.071358758257701993e-04 1.091442900360561907e-04 6.548565579578280449e-05
4.380000000000000000e+02 2.830797195434570312e+00 -3.827172851562500000e+01 7.162809197325259447e-05 4.967719432897865772e-04 1.705200120341032743e-04 1.534732728032395244e-04
4.390000000000000000e+02 8.970856666564941406e-01 -3.740575408935546875e+01 1.252994406968355179e-04 5.697273882105946541e-04 2.085080486722290516e-04 7.237215322675183415e-05
4.400000000000000000e+02 8.033449172973632812e+00 -4.092903137207031250e+01 -3.291633329354226589e-04 7.326084887608885765e-04 1.210335394716821611e-04 -2.978255361085757613e-05
4.410000000000000000e+02 7.911161899566650391e+00 -3.803440093994140625e+01 -4.117761272937059402e-04 8.451375178992748260e-04 1.300084113609045744e-04 3.299778327345848083e-04
4.420000000000000000e+02 6.949173927307128906e+00 -3.164037513732910156e+01 -7.940595423860941082e-06 2.484752621967345476e-04 7.216039375634863973e-05 3.188076952937990427e-04
4.430000000000000000e+02 1.472337055206298828e+01 -2.354871749877929688e+01 2.331674841116182506e-05 -8.995646930998191237e-05 -1.999191772483754903e-05 -1.393508428009226918e-04
4.440000000000000000e+02 1.273845863342285156e+01 -2.329366302490234375e+01 7.398399611702188849e-05 -1.241382124135270715e-04 -1.504626470705261454e-05 -8.549915219191461802e-05
4.450000000000000000e+02 6.403414607048034668e-01 -2.331962585449218750e+01 1.433700235793367028e-04 -4.872433783020824194e-05 2.839370790752582252e-05 2.061085979221388698e-05
4.460000000000000000e+02 2.382346725463867188e+01 -2.883723068237304688e+01 4.433608613908290863e-03 2.211886603618040681e-04 1.396439154632389545e-03 -1.589778345078229904e-03
4.470000000000000000e+02 2.005449104309082031e+01 -2.681219100952148438e+01 1.683054142631590366e-03 4.174922942183911800e-04 6.301639368757605553e-04 -2.355192118557170033e-04
4.480000000000000000e+02 1.021428966522216797e+01 -1.200914573669433594e+01 -1.504367719462607056e-05 1.579770760145038366e-04 4.288001946406438947e-05 3.791947892750613391e-05
4.490000000000000000e+02 1.298956966400146484e+01 -1.180964565277099609e+01 -3.182757154718274251e-06 7.068582817737478763e-06 1.165747676168393809e-06 3.328145567138562910e-06
4.500000000000000000e+02 1.890393257141113281e+01 -7.164852142333984375e+00 2.180606315960176289e-05 3.550773499227943830e-06 7.607050974911544472e-06 7.424928753607673571e-06
4.510000000000000000e+02 1.825339508056640625e+01 -1.160133838653564453e+01 6.505853434646269307e-06 1.849513682827819139e-05 7.500297215301543474e-06 9.903184036375023425e-06
4.520000000000000000e+02 1.970721435546875000e+01 -8.319542884826660156e+00 2.393480644968803972e-05 6.203957241268653888e-07 7.366560566879343241e-06 5.167737981537356973e-06
4.530000000000000000e+02 1.866980552673339844e+01 -8.172302246093750000e+00 2.484046672179829329e-05 1.958591383299790323e-06 8.039717613428365439e-06 4.913605152978561819e-06
4.540000000000000000e+02 2.173892402648925781e+01 -1.401656913757324219e+01 -1.419956151949008927e-05 -3.101031552432687022e-06 -5.190177944314200431e-06 -5.256232270767213777e-06
4.550000000000000000e+02 2.118280982971191406e+01 -1.073555278778076172e+01 2.292427052452694625e-05 -9.785422889763140120e-07 6.583718004549155012e-06 7.794674274919088930e-06
4.560000000000000000e+02 1.898141288757324219e+01 -1.393521881103515625e+01 1.227846405527088791e-05 4.134136361244600266e-06 4.923780124954646453e-06 6.863605449325405061e-06
4.570000000000000000e+02 2.255387687683105469e+01 -1.350710201263427734e+01 1.143668032455025241e-05 4.519167760008713230e-06 4.786754288943484426e-06 4.452821940503781661e-06
4.580000000000000000e+02 2.349221420288085938e+01 -1.482496070861816406e+01 1.653851541050244123e-05 -2.336263605684507638e-06 4.260675268596969545e-06 7.438094598910538480e-06
4.590000000000000000e+02 2.480687522888183594e+01 -1.699405860900878906e+01 -1.369356141367461532e-05 -5.450513071991736069e-06 -5.743222118326229975e-06 -7.178319265221944079e-06
4.600000000000000000e+02 1.722994041442871094e+01 -5.298235416412353516e+00 -2.291414784849621356e-05 -1.929013478729757480e-06 -7.452948466379893944e-06 -6.786617632315028459e-06
4.610000000000000000e+02 1.585747528076171875e+01 -4.269377708435058594e+00 -2.624339867907110602e-05 -4.828208147955592722e-06 -9.321482139057479799e-06 -9.086310456041246653e-06
4.620000000000000000e+02 1.272392272949218750e+01 -2.733582496643066406e+00 -1.425692880729911849e-05 -1.993349360418505967e-05 -1.025712663249578327e-05 -3.815734089585021138e-06
4.630000000000000000e+02 1.103420543670654297e+01 -2.236700296401977539e+00 -1.550603155919816345e-05 -2.192456486227456480e-05 -1.122917910834075883e-05 -1.096335745387477800e-05
4.640000000000000000e+02 9.399816513061523438e+00 -1.920587539672851562e+00 -7.275868938450003043e-06 -2.223466617579106241e-05 -8.853160579747054726e-06 -1.309224808210274205e-05
4.650000000000000000e+02 1.188564872741699219e+01 -1.052493953704833984e+01 9.440240683034062386e-05 4.762569733429700136e-05 4.260842979419976473e-05 5.228380177868530154e-05
4.660000000000000000e+02 8.653604507446289062e+00 -1.886919856071472168e+00 8.163914571923669428e-06 1.953860009962227196e-05 8.310754310514312238e-06 1.323879223491530865e-05
4.670000000000000000e+02 2.063769149780273438e+01 -3.045347785949707031e+01 3.084935946390032768e-03 -4.333338583819568157e-04 7.954806205816566944e-04 1.007716171443462372e-03
4.680000000000000000e+02 7.797145843505859375e+01 -4.163818359375000000e+01 2.352930903434753418e-01 7.777717590332031250e+00 2.403903245925903320e+00 6.600894033908843994e-02
4.690000000000000000e+02 7.784587097167968750e+01 -3.703811264038085938e+01 3.702762722969055176e-02 7.955043792724609375e+00 2.397621393203735352e+00 2.593360543251037598e-01
4.700000000000000000e+02 7.949169921875000000e+01 -5.555398941040039062e+00 -8.876966685056686401e-02 1.245207691192626953e+01 3.708992242813110352e+00 5.859209597110748291e-02
4.710000000000000000e+02 7.310825347900390625e+01 2.636957168579101562e+00 2.621639072895050049e-01 4.911000251770019531e+00 1.551949262619018555e+00 -1.657814502716064453e+00
4.720000000000000000e+02 6.148832321166992188e+01 1.221490192413330078e+01 6.242717504501342773e-01 1.497426986694335938e+00 6.365095973014831543e-01 -3.753637969493865967e-01
4.730000000000000000e+02 5.621406936645507812e+01 1.110563087463378906e+01 2.987205088138580322e-01 1.156766772270202637e+00 4.366461932659149170e-01 1.959309577941894531e-01
4.740000000000000000e+02 5.728116607666015625e+01 1.202128219604492188e+01 3.678797483444213867e-01 1.161841750144958496e+00 4.589164555072784424e-01 -1.232348382472991943e-03
4.750000000000000000e+02 5.530441284179687500e+01 1.007589054107666016e+01 3.716677427291870117e-01 1.143537282943725586e+00 4.545615017414093018e-01 4.492408335208892822e-01
4.760000000000000000e+02 5.344350814819335938e+01 7.847664356231689453e+00 9.261402487754821777e-01 7.104846239089965820e-01 4.909874498844146729e-01 7.206756472587585449e-01
4.770000000000000000e+02 5.221755981445312500e+01 7.082339763641357422e+00 1.001522541046142578e+00 4.494681060314178467e-01 4.352971911430358887e-01 6.062877774238586426e-01
4.780000000000000000e+02 5.097824478149414062e+01 6.479434967041015625e+00 7.260671257972717285e-01 2.259985655546188354e-01 2.856197059154510498e-01 4.058040976524353027e-01
4.790000000000000000e+02 4.986053848266601562e+01 3.825953006744384766e+00 -6.129356101155281067e-02 1.792926639318466187e-01 3.539972752332687378e-02 6.167814731597900391e-01
4.800000000000000000e+02 4.976131820678710938e+01 6.057253360748291016e+00 1.999786496162414551e-01 6.060767173767089844e-02 7.817589491605758667e-02 3.164295554161071777e-01
4.810000000000000000e+02 4.442315673828125000e+01 7.324965000152587891e+00 -4.608705639839172363e-01 -1.163925677537918091e-01 -1.731789410114288330e-01 2.770303487777709961e-01
4.820000000000000000e+02 3.910055923461914062e+01 3.812138557434082031e+00 -3.564898073673248291e-01 1.135079488158226013e-01 -7.289456576108932495e-02 3.249965608119964600e-01
4.830000000000000000e+02 2.660799980163574219e+01 4.525460243225097656e+00 1.662150323390960693e-01 1.468860916793346405e-02 5.427109077572822571e-02 1.807722449302673340e-01
4.840000000000000000e+02 2.401261138916015625e+01 5.840952873229980469e+00 5.714017152786254883e-01 4.072589576244354248e-01 2.935982048511505127e-01 4.248674213886260986e-01
4.850000000000000000e+02 2.497717094421386719e+01 6.707076072692871094e+00 3.895336687564849854e-01 3.503216207027435303e-01 2.219565957784652710e-01 3.651084303855895996e-01
4.860000000000000000e+02 2.167471885681152344e+01 4.559695720672607422e+00 5.533037185668945312e-01 1.649381220340728760e-01 2.154725492000579834e-01 2.767721712589263916e-01
4.870000000000000000e+02 2.351991844177246094e+01 4.124225616455078125e+00 2.329240441322326660e-01 2.548171281814575195e-01 1.463223397731781006e-01 2.094016671180725098e-01
4.880000000000000000e+02 1.945972061157226562e+01 3.526424646377563477e+00 -1.958665847778320312e-01 -1.386362016201019287e-01 -1.003508344292640686e-01 4.374262690544128418e-01
4.890000000000000000e+02 1.746814727783203125e+01 1.871552467346191406e-01 -4.643214941024780273e-01 -6.331825256347656250e-01 -3.292511999607086182e-01 6.233687400817871094e-01
4.900000000000000000e+02 1.940098953247070312e+01 1.962725758552551270e+00 -2.921455502510070801e-01 -3.021217882633209229e-01 -1.782802045345306396e-01 5.725625157356262207e-01
4.910000000000000000e+02 1.549495410919189453e+01 3.378764390945434570e-01 -4.346745908260345459e-01 -5.397914052009582520e-01 -2.923398017883300781e-01 5.496418476104736328e-01
4.920000000000000000e+02 1.472018623352050781e+01 6.565323472023010254e-01 -4.024553000926971436e-01 -4.633780717849731445e-01 -2.597500085830688477e-01 4.771652817726135254e-01
4.930000000000000000e+02 1.426829338073730469e+01 1.753739356994628906e+00 -3.314030766487121582e-01 -5.110905170440673828e-01 -2.527480721473693848e-01 4.425551295280456543e-01
4.940000000000000000e+02 1.066620826721191406e+01 1.744468569755554199e+00 -2.378372102975845337e-01 -9.954513609409332275e-02 -1.012147068977355957e-01 1.516984552145004272e-01
4.950000000000000000e+02 6.680973172187805176e-01 6.494969844818115234e+00 -3.071332117542624474e-03 -2.323221601545810699e-02 -7.891064509749412537e-03 2.223547734320163727e-02
4.960000000000000000e+02 2.521718502044677734e+00 4.096367835998535156e+00 -3.480302169919013977e-02 -3.395090624690055847e-02 -2.062617801129817963e-02 2.663408219814300537e-02
4.970000000000000000e+02 7.688335418701171875e+01 3.866927719116210938e+01 2.933945972472429276e-03 3.933733701705932617e+00 1.181000351905822754e+00 -6.167645379900932312e-02
4.980000000000000000e+02 7.936270141601562500e+01 3.756783294677734375e+01 -1.163167320191860199e-02 4.058539867401123047e+00 1.214072465896606445e+00 -2.043671347200870514e-02
4.990000000000000000e+02 7.924272918701171875e+01 3.057353782653808594e+01 -4.909180570393800735e-04 4.294072628021240234e+00 1.288074493408203125e+00 -3.377022221684455872e-02
5.000000000000000000e+02 7.932473754882812500e+01 2.358639144897460938e+01 4.645884037017822266e-03 4.735234737396240234e+00 1.421964168548583984e+00 -5.388881638646125793e-02
5.010000000000000000e+02 7.935964965820312500e+01 1.662545013427734375e+01 8.022293332032859325e-04 5.504960536956787109e+00 1.651728868484497070e+00 -8.985885977745056152e-02
5.020000000000000000e+02 7.936090087890625000e+01 9.678255081176757812e+00 1.308256853371858597e-02 6.885070323944091797e+00 2.069445848464965820e+00 -1.608951240777969360e-01
5.030000000000000000e+02 7.939011383056640625e+01 2.720926761627197266e+00 -3.746812231838703156e-03 9.317058563232421875e+00 2.793993711471557617e+00 -2.463416904211044312e-01
5.040000000000000000e+02 7.834503936767578125e+01 -1.528957128524780273e+00 -6.560794264078140259e-02 1.012388896942138672e+01 3.017484188079833984e+00 -6.361927390098571777e-01
5.050000000000000000e+02 7.808983612060546875e+01 1.229826831817626953e+01 2.974481694400310516e-02 5.954424858093261719e+00 1.795250892639160156e+00 -3.777627348899841309e-01
5.060000000000000000e+02 7.802221679687500000e+01 2.059592628479003906e+01 1.409210450947284698e-02 4.841881752014160156e+00 1.456792116165161133e+00 -1.970098763704299927e-01
5.070000000000000000e+02 7.658918762207031250e+01 2.313868522644042969e+01 3.819143772125244141e-02 4.438763141632080078e+00 1.343086361885070801e+00 -2.662430107593536377e-01
5.080000000000000000e+02 7.921677398681640625e+01 3.198855400085449219e+01 5.320441443473100662e-03 4.236279964447021484e+00 1.272480130195617676e+00 -2.884113602340221405e-02
5.090000000000000000e+02 7.075897216796875000e+01 3.771219253540039062e+01 1.346911042928695679e-01 3.301222801208496094e+00 1.030774116516113281e+00 -1.158680096268653870e-01
5.100000000000000000e+02 6.706071472167968750e+01 3.796337127685546875e+01 2.330925911664962769e-01 2.870985507965087891e+00 9.312234520912170410e-01 -1.261434704065322876e-01
5.110000000000000000e+02 7.270771789550781250e+01 3.252621078491210938e+01 8.471562713384628296e-02 3.603756666183471680e+00 1.106541633605957031e+00 -2.136901915073394775e-01
5.120000000000000000e+02 7.213323211669921875e+01 2.376019096374511719e+01 1.562049388885498047e-01 3.723085165023803711e+00 1.163787007331848145e+00 -4.674254953861236572e-01
5.130000000000000000e+02 7.262257385253906250e+01 1.822396850585937500e+01 2.070565819740295410e-01 4.031142711639404297e+00 1.271459698677062988e+00 -6.598199009895324707e-01
5.140000000000000000e+02 7.310525512695312500e+01 1.048016929626464844e+01 3.400356471538543701e-01 4.509891510009765625e+00 1.454978227615356445e+00 -1.079604148864746094e+00
5.150000000000000000e+02 7.324152374267578125e+01 4.001725673675537109e+00 3.175113499164581299e-01 4.929774761199951172e+00 1.574185729026794434e+00 -1.548042535781860352e+00
5.160000000000000000e+02 5.783341217041015625e+01 4.079191589355468750e+01 4.680913686752319336e-01 1.802272319793701172e+00 6.811091303825378418e-01 -3.374714031815528870e-02
5.170000000000000000e+02 6.261509323120117188e+01 4.094456481933593750e+01 3.564558923244476318e-01 2.321208477020263672e+00 8.032993078231811523e-01 -3.947437554597854614e-02
5.180000000000000000e+02 6.302499389648437500e+01 3.039422225952148438e+01 3.705964982509613037e-01 2.348529577255249023e+00 8.157378435134887695e-01 -3.258840441703796387e-01
5.190000000000000000e+02 6.061205291748046875e+01 2.448667335510253906e+01 4.557926058769226074e-01 1.909096837043762207e+00 7.094668149948120117e-01 -4.496744871139526367e-01
5.200000000000000000e+02 6.068636703491210938e+01 1.877135848999023438e+01 4.658018350601196289e-01 1.786983966827392578e+00 6.758357286453247070e-01 -4.865401387214660645e-01
5.210000000000000000e+02 6.052912139892578125e+01 1.114953708648681641e+01 6.326168179512023926e-01 1.285083532333374023e+00 5.753101110458374023e-01 -2.360744029283523560e-01
5.220000000000000000e+02 5.739148330688476562e+01 2.776851654052734375e+01 5.233018398284912109e-01 1.553126573562622070e+00 6.229285001754760742e-01 -3.109801113605499268e-01
5.230000000000000000e+02 5.396225738525390625e+01 2.340831184387207031e+01 5.888324379920959473e-01 9.099351167678833008e-01 4.496302604675292969e-01 -2.501054108142852783e-01
5.240000000000000000e+02 5.382284545898437500e+01 1.747869682312011719e+01 3.341311514377593994e-01 4.947794973850250244e-01 2.486732006072998047e-01 -3.774104714393615723e-01
5.250000000000000000e+02 5.515297698974609375e+01 1.858050918579101562e+01 3.703432977199554443e-01 1.016807436943054199e+00 4.161452054977416992e-01 -4.326178431510925293e-01
5.260000000000000000e+02 5.763540649414062500e+01 1.489146804809570312e+01 3.794085085391998291e-01 1.303611516952514648e+00 5.049059987068176270e-01 -2.650761306285858154e-01
5.270000000000000000e+02 5.554605102539062500e+01 1.446630668640136719e+01 1.942933350801467896e-01 1.285091876983642578e+00 4.438155591487884521e-01 -2.895713746547698975e-01
5.280000000000000000e+02 5.542919921875000000e+01 1.328971195220947266e+01 1.072856225073337555e-02 1.143473744392395020e+00 3.462606966495513916e-01 -8.840774744749069214e-02
5.290000000000000000e+02 5.288938522338867188e+01 4.043031311035156250e+01 5.426231026649475098e-01 1.284374833106994629e+00 5.480993986129760742e-01 -2.169343456625938416e-02
5.300000000000000000e+02 4.767770004272460938e+01 4.031084060668945312e+01 5.628750324249267578e-01 8.928635120391845703e-01 4.367215633392333984e-01 -3.393417864572256804e-04
5.310000000000000000e+02 4.872445297241210938e+01 2.923443794250488281e+01 5.808210372924804688e-01 7.762101292610168457e-01 4.071093499660491943e-01 2.814482897520065308e-02
5.320000000000000000e+02 4.784904479980468750e+01 2.244050979614257812e+01 5.767638087272644043e-01 4.558898806571960449e-01 3.097960948944091797e-01 2.194838374853134155e-01
5.330000000000000000e+02 4.916027069091796875e+01 1.904873466491699219e+01 4.994238317012786865e-01 9.525565057992935181e-02 1.784038543701171875e-01 8.317244052886962891e-02
5.340000000000000000e+02 5.183049392700195312e+01 1.869077491760253906e+01 3.660524487495422363e-01 2.180889248847961426e-01 1.752424091100692749e-01 -1.876483708620071411e-01
5.350000000000000000e+02 3.742300415039062500e+01 4.049739837646484375e+01 4.937456250190734863e-01 2.875140905380249023e-01 2.343779206275939941e-01 2.107629366219043732e-02
5.360000000000000000e+02 4.246456909179687500e+01 4.046853637695312500e+01 5.413456559181213379e-01 5.371218919754028320e-01 3.235402703285217285e-01 1.776539161801338196e-02
5.370000000000000000e+02 4.130993652343750000e+01 2.925728034973144531e+01 4.785745143890380859e-01 4.653750061988830566e-01 2.831848561763763428e-01 1.335153579711914062e-01
5.380000000000000000e+02 4.657857513427734375e+01 2.288753128051757812e+01 5.323287844657897949e-01 5.209964513778686523e-01 3.159975707530975342e-01 2.520556151866912842e-01
5.390000000000000000e+02 4.082835388183593750e+01 1.583703327178955078e+01 4.160288870334625244e-01 5.208460688591003418e-01 2.810624837875366211e-01 3.413766026496887207e-01
5.400000000000000000e+02 4.253127670288085938e+01 1.604214859008789062e+01 5.439602136611938477e-01 9.608272314071655273e-01 4.514362215995788574e-01 4.723631739616394043e-01
5.410000000000000000e+02 4.388435745239257812e+01 1.654401588439941406e+01 7.199760675430297852e-01 1.098301053047180176e+00 5.454831719398498535e-01 6.884005665779113770e-01
5.420000000000000000e+02 3.719789123535156250e+01 3.643195343017578125e+01 4.826509952545166016e-01 2.671352326869964600e-01 2.249358743429183960e-01 6.783621758222579956e-02
5.430000000000000000e+02 3.555563354492187500e+01 2.905498695373535156e+01 4.220254123210906982e-01 1.800543665885925293e-01 1.806239336729049683e-01 1.385231316089630127e-01
5.440000000000000000e+02 3.924054336547851562e+01 2.310713577270507812e+01 3.686355352401733398e-01 3.544184267520904541e-01 2.169161885976791382e-01 1.805144250392913818e-01
5.450000000000000000e+02 4.011777114868164062e+01 1.140904808044433594e+01 -7.481862604618072510e-02 4.013854563236236572e-01 9.797005355358123779e-02 5.301533937454223633e-01
5.460000000000000000e+02 3.712741851806640625e+01 1.110402679443359375e+01 -7.316249608993530273e-02 2.009211033582687378e-01 3.832757845520973206e-02 5.393276810646057129e-01
5.470000000000000000e+02 4.149448776245117188e+01 1.162503623962402344e+01 -8.345837891101837158e-02 4.462822377681732178e-01 1.088471561670303345e-01 4.209796488285064697e-01
5.480000000000000000e+02 4.284395217895507812e+01 8.116648674011230469e+00 -3.964014053344726562e-01 6.197177246212959290e-02 -1.003288850188255310e-01 2.770518660545349121e-01
5.490000000000000000e+02 4.520436859130859375e+01 8.059344291687011719e+00 -4.013023376464843750e-01 -3.196254074573516846e-01 -2.162783145904541016e-01 3.695763647556304932e-01
5.500000000000000000e+02 3.246437454223632812e+01 4.063249588012695312e+01 4.348697364330291748e-01 8.156343549489974976e-02 1.549299508333206177e-01 2.547098696231842041e-02
5.510000000000000000e+02 2.766661453247070312e+01 3.735916519165039062e+01 3.506386876106262207e-01 -9.780588001012802124e-02 7.584983855485916138e-02 9.083987772464752197e-02
5.520000000000000000e+02 3.197617149353027344e+01 2.901889801025390625e+01 3.872147500514984131e-01 -1.568658091127872467e-02 1.114584505558013916e-01 1.740191280841827393e-01
5.530000000000000000e+02 2.840610504150390625e+01 2.225994491577148438e+01 2.830292880535125732e-01 -2.918539941310882568e-01 -2.647408051416277885e-03 2.675859928131103516e-01
5.540000000000000000e+02 2.759425926208496094e+01 1.645492935180664062e+01 -1.210298687219619751e-01 -4.427802860736846924e-01 -1.691430509090423584e-01 2.708786129951477051e-01
5.550000000000000000e+02 2.706359291076660156e+01 1.019138240814208984e+01 -5.100189149379730225e-02 -3.917612731456756592e-01 -1.328289508819580078e-01 5.177572965621948242e-01
5.560000000000000000e+02 2.690718460083007812e+01 1.310163116455078125e+01 -4.801185131072998047e-01 -5.190726518630981445e-01 -2.997573614120483398e-01 4.449200034141540527e-01
5.570000000000000000e+02 1.836756896972656250e+01 4.049303817749023438e+01 1.653791517019271851e-01 -3.440534472465515137e-01 -5.360228568315505981e-02 3.691291809082031250e-02
5.580000000000000000e+02 2.285298156738281250e+01 4.075907135009765625e+01 2.622146904468536377e-01 -2.227558493614196777e-01 1.183764915913343430e-02 3.217345848679542542e-02
5.590000000000000000e+02 2.679063224792480469e+01 3.109582901000976562e+01 3.408170342445373535e-01 -1.602786928415298462e-01 5.416150391101837158e-02 2.101700305938720703e-01
5.600000000000000000e+02 2.406493759155273438e+01 2.085916900634765625e+01 2.488389611244201660e-01 -4.268237352371215820e-01 -5.339543148875236511e-02 4.201669394969940186e-01
5.610000000000000000e+02 1.924712371826171875e+01 1.761017799377441406e+01 3.681649863719940186e-01 6.125048920512199402e-02 1.288246363401412964e-01 4.230430722236633301e-01
5.620000000000000000e+02 2.133402061462402344e+01 1.813110733032226562e+01 1.251916438341140747e-01 -3.424873948097229004e-01 -6.518872827291488647e-02 5.823413729667663574e-01
5.630000000000000000e+02 2.246560478210449219e+01 1.564669990539550781e+01 -6.564576029777526855e-01 -4.714500010013580322e-01 -3.383722901344299316e-01 5.171710848808288574e-01
5.640000000000000000e+02 2.425233268737792969e+01 1.599315452575683594e+01 -3.011597096920013428e-01 -7.390875220298767090e-01 -3.120741546154022217e-01 4.645135104656219482e-01
5.650000000000000000e+02 2.358482933044433594e+01 1.489976596832275391e+01 -7.224080562591552734e-01 -7.051024436950683594e-01 -4.282531440258026123e-01 6.666566133499145508e-01
5.660000000000000000e+02 2.549072265625000000e+01 1.274183082580566406e+01 -5.019803047180175781e-01 -1.238131284713745117e+00 -5.220335125923156738e-01 5.621957182884216309e-01
5.670000000000000000e+02 2.571560096740722656e+01 1.129365444183349609e+01 -1.062557771801948547e-01 -9.327158927917480469e-01 -3.116914927959442139e-01 3.134211897850036621e-01
5.680000000000000000e+02 2.576767539978027344e+01 9.932621955871582031e+00 -3.902621939778327942e-02 -4.593188464641571045e-01 -1.495035290718078613e-01 1.803132295608520508e-01
5.690000000000000000e+02 2.578988838195800781e+01 8.652187347412109375e+00 1.339145898818969727e-01 -2.932535484433174133e-02 3.137676790356636047e-02 2.618397176265716553e-01
5.700000000000000000e+02 2.617177581787109375e+01 7.385824680328369141e+00 2.730879485607147217e-01 4.824100807309150696e-02 9.639868140220642090e-02 3.273302018642425537e-01
5.710000000000000000e+02 1.487834739685058594e+01 3.883024978637695312e+01 1.060304567217826843e-01 -4.299014806747436523e-01 -9.716130793094635010e-02 5.406073108315467834e-02
5.720000000000000000e+02 1.584942340850830078e+01 3.173628044128417969e+01 1.075579971075057983e-01 -3.410554528236389160e-01 -7.004924118518829346e-02 1.867399662733078003e-01
5.730000000000000000e+02 1.640373229980468750e+01 2.165756797790527344e+01 1.019835174083709717e-01 -6.227699667215347290e-02 1.191195659339427948e-02 3.270933628082275391e-01
5.740000000000000000e+02 1.809743881225585938e+01 1.666426277160644531e+01 7.440473437309265137e-01 2.039874643087387085e-01 2.844104468822479248e-01 3.824577331542968750e-01
5.750000000000000000e+02 1.757841682434082031e+01 1.795726203918457031e+01 2.367850840091705322e-01 2.909280061721801758e-01 1.583139300346374512e-01 4.125358462333679199e-01
5.760000000000000000e+02 1.161610698699951172e+01 4.079150009155273438e+01 6.762909144163131714e-02 -5.397806763648986816e-01 -1.416454762220382690e-01 1.947693526744842529e-02
5.770000000000000000e+02 7.374400138854980469e+00 4.114365386962890625e+01 1.554009411484003067e-02 -7.272960543632507324e-01 -2.135267853736877441e-01 8.410328999161720276e-03
5.780000000000000000e+02 8.081827163696289062e+00 3.063380432128906250e+01 2.370941638946533203e-02 -6.206294298171997070e-01 -1.790760159492492676e-01 7.994396984577178955e-02
5.790000000000000000e+02 7.951540470123291016e+00 2.297543334960937500e+01 7.818835973739624023e-02 -5.290847420692443848e-01 -1.352689117193222046e-01 1.281597465276718140e-01
5.800000000000000000e+02 1.317169666290283203e+01 9.749181747436523438e+00 -2.324939519166946411e-01 -6.924055814743041992e-01 -2.774698734283447266e-01 5.134260654449462891e-01
5.810000000000000000e+02 1.194581031799316406e+01 9.819853782653808594e+00 -2.334635555744171143e-01 -4.204099178314208984e-01 -1.961620450019836426e-01 5.299757719039916992e-01
5.820000000000000000e+02 1.275001525878906250e+01 1.356501293182373047e+01 3.230322301387786865e-01 -3.106020689010620117e-01 3.729043528437614441e-03 4.378254115581512451e-01
5.830000000000000000e+02 1.437403583526611328e+01 1.095556163787841797e+01 -3.262173756957054138e-02 -5.724630355834960938e-01 -1.815254241228103638e-01 1.530130952596664429e-01
5.840000000000000000e+02 1.448875141143798828e+01 8.369680404663085938e+00 -4.001116752624511719e-01 -1.402137041091918945e+00 -5.406746268272399902e-01 5.528143644332885742e-01
5.850000000000000000e+02 1.513679695129394531e+01 1.484323740005493164e+00 -3.414611518383026123e-01 -5.776526927947998047e-01 -2.757341563701629639e-01 5.241897106170654297e-01
5.860000000000000000e+02 1.295895695686340332e+00 4.036409378051757812e+01 7.830817252397537231e-03 -1.030894160270690918e+00 -3.069190084934234619e-01 -2.311094291508197784e-02
5.870000000000000000e+02 2.529955863952636719e+00 3.603564453125000000e+01 -2.432201523333787918e-03 -9.672653079032897949e-01 -2.909092605113983154e-01 9.485798887908458710e-03
5.880000000000000000e+02 1.923894882202148438e+00 2.918336105346679688e+01 1.498373574577271938e-03 -9.419320821762084961e-01 -2.821300923824310303e-01 1.668167859315872192e-02
5.890000000000000000e+02 1.899055600166320801e+00 2.220184135437011719e+01 8.932067081332206726e-03 -8.402783274650573730e-01 -2.494038790464401245e-01 4.512038826942443848e-02
5.900000000000000000e+02 1.849468469619750977e+00 1.792890930175781250e+01 1.233313046395778656e-02 -7.037385702133178711e-01 -2.074216306209564209e-01 8.826639503240585327e-02
5.910000000000000000e+02 1.738198518753051758e+00 9.574369430541992188e+00 -1.459850929677486420e-02 -2.136279791593551636e-01 -6.846794486045837402e-02 1.132288277149200439e-01
5.920000000000000000e+02 5.904852390289306641e+00 1.888062834739685059e+00 -5.683376640081405640e-02 -6.078308448195457458e-03 -1.887362264096736908e-02 2.066557295620441437e-02
5.930000000000000000e+02 1.229862308502197266e+01 1.377766251564025879e+00 -3.004507422447204590e-01 -2.119091600179672241e-01 -1.537079662084579468e-01 2.570074200630187988e-01
5.940000000000000000e+02 1.768183517456054688e+01 -9.049896597862243652e-01 -6.418640017509460449e-01 -6.353179216384887695e-01 -3.831545710563659668e-01 6.486360430717468262e-01
5.950000000000000000e+02 1.969262504577636719e+01 -2.394290685653686523e+00 -7.810334563255310059e-01 -5.847754478454589844e-01 -4.097426533699035645e-01 6.009340286254882812e-01
5.960000000000000000e+02 2.189115715026855469e+01 -4.884989738464355469e+00 -6.791408658027648926e-01 -4.830464422702789307e-01 -3.486561775207519531e-01 5.320997834205627441e-01
5.970000000000000000e+02 2.724785995483398438e+01 -1.089410686492919922e+01 -3.050031661987304688e-01 -1.078477576375007629e-01 -1.238552778959274292e-01 2.613402605056762695e-01
5.980000000000000000e+02 2.719087409973144531e+01 -1.246876335144042969e+01 -2.164722532033920288e-01 -1.129594519734382629e-01 -9.882951527833938599e-02 2.117085754871368408e-01
5.990000000000000000e+02 3.392449951171875000e+01 -1.799930381774902344e+01 -2.048944979906082153e-01 7.331375498324632645e-03 -5.926893651485443115e-02 5.889156460762023926e-02
6.000000000000000000e+02 3.644598007202148438e+01 -1.847167778015136719e+01 -2.429876923561096191e-01 7.093382067978382111e-03 -7.076829671859741211e-02 1.076997909694910049e-02
6.010000000000000000e+02 3.517974472045898438e+01 -1.273549747467041016e+01 -3.961648643016815186e-01 6.752741336822509766e-02 -9.859123826026916504e-02 1.403535902500152588e-01
6.020000000000000000e+02 4.091286468505859375e+01 -4.164260864257812500e+00 -5.511603355407714844e-01 1.410232335329055786e-01 -1.230411306023597717e-01 2.701263427734375000e-01
6.030000000000000000e+02 4.052827453613281250e+01 5.052481651306152344e+00 -3.719933927059173584e-01 1.041137427091598511e-01 -8.036389946937561035e-02 3.091497719287872314e-01
6.040000000000000000e+02 2.244100379943847656e+01 -4.425998687744140625e+00 -6.753935813903808594e-01 -3.566648066043853760e-01 -3.096175193786621094e-01 4.725109040737152100e-01
6.050000000000000000e+02 2.280047225952148438e+01 -6.215901374816894531e+00 -5.610026121139526367e-01 -4.356845915317535400e-01 -2.990061640739440918e-01 4.851214289665222168e-01
6.060000000000000000e+02 2.552663040161132812e+01 -1.090182495117187500e+01 -2.416269332170486450e-01 -2.099213302135467529e-01 -1.354644745588302612e-01 2.621307671070098877e-01
6.070000000000000000e+02 3.473889160156250000e+01 -1.645041847229003906e+01 -2.708089351654052734e-01 2.045940980315208435e-02 -7.510485500097274780e-02 7.511376589536666870e-02
6.080000000000000000e+02 3.907490539550781250e+01 -1.845952606201171875e+01 -2.862885892391204834e-01 7.826087996363639832e-03 -8.353874832391738892e-02 -1.222873292863368988e-02
6.090000000000000000e+02 4.437524032592773438e+01 -1.737388610839843750e+01 -4.290125668048858643e-01 -2.226369641721248627e-02 -1.353828758001327515e-01 -1.114607751369476318e-01
6.100000000000000000e+02 4.291518402099609375e+01 -1.653003120422363281e+01 -4.275397062301635742e-01 2.305090054869651794e-02 -1.213466450572013855e-01 -5.517753586173057556e-02
6.110000000000000000e+02 4.306808471679687500e+01 -1.776772308349609375e+01 -3.656663894653320312e-01 -1.582903042435646057e-02 -1.144486293196678162e-01 -8.439482003450393677e-02
6.120000000000000000e+02 5.317425918579101562e+01 -1.356642913818359375e+01 -8.186907172203063965e-01 -2.062884271144866943e-01 -3.074937462806701660e-01 -3.886368870735168457e-01
6.130000000000000000e+02 5.727214813232421875e+01 -9.640702247619628906e+00 -1.582111120223999023e+00 -1.928746551275253296e-01 -5.324957370758056641e-01 -6.336987614631652832e-01
6.140000000000000000e+02 6.711687469482421875e+01 -7.248086452484130859e+00 -5.617466926574707031e+00 -2.331591844558715820e+00 -2.384717464447021484e+00 2.347590208053588867e+00
6.150000000000000000e+02 6.791313934326171875e+01 -8.118201255798339844e+00 -2.330690622329711914e+00 -2.576170682907104492e+00 -1.472058296203613281e+00 2.216686248779296875e+00
6.160000000000000000e+02 7.240780639648437500e+01 -1.000262069702148438e+01 -5.857205018401145935e-02 1.306941986083984375e+00 3.745110034942626953e-01 -3.223216235637664795e-01
6.170000000000000000e+02 7.109009552001953125e+01 -1.041531467437744141e+01 -8.331525325775146484e-01 2.831026613712310791e-01 -1.650149673223495483e-01 7.507330775260925293e-01
6.180000000000000000e+02 6.871962738037109375e+01 -1.004893398284912109e+01 -5.690690279006958008e-01 -1.022709846496582031e+00 -4.775336682796478271e-01 1.013850927352905273e+00
6.190000000000000000e+02 3.454869079589843750e+01 -1.878648567199707031e+01 -1.862679868936538696e-01 -8.458090596832334995e-04 -5.613414198160171509e-02 1.350265182554721832e-02
6.200000000000000000e+02 7.240408325195312500e+01 -1.398316669464111328e+01 -4.746138751506805420e-01 7.721898555755615234e-01 8.927279710769653320e-02 2.183937132358551025e-01
6.210000000000000000e+02 7.098405456542968750e+01 -1.397279262542724609e+01 -9.856749773025512695e-01 3.425638973712921143e-01 -1.929333060979843140e-01 -7.112423181533813477e-01
6.220000000000000000e+02 1.442528533935546875e+01 1.232526683807373047e+01 1.323969215154647827e-01 -1.611902862787246704e-01 -8.638006635010242462e-03 2.015590071678161621e-01
6.230000000000000000e+02 1.480223083496093750e+01 1.364187240600585938e+01 2.460796236991882324e-01 2.004709094762802124e-01 1.339651644229888916e-01 3.314951658248901367e-01
6.240000000000000000e+02 1.563462448120117188e+01 1.606235313415527344e+01 6.426539421081542969e-01 3.045302033424377441e-01 2.841552495956420898e-01 3.572363853454589844e-01
6.250000000000000000e+02 1.543996047973632812e+01 1.477916049957275391e+01 5.860582590103149414e-01 4.329254627227783203e-01 3.056951165199279785e-01 4.466837942600250244e-01
6.260000000000000000e+02 1.404197978973388672e+01 1.524777317047119141e+01 5.117715001106262207e-01 -1.367476433515548706e-01 1.125071495771408081e-01 2.695192992687225342e-01
6.270000000000000000e+02 4.282095718383789062e+01 1.180897998809814453e+01 5.614669993519783020e-03 5.595047473907470703e-01 1.695358306169509888e-01 1.428159922361373901e-01
6.280000000000000000e+02 4.280325698852539062e+01 1.459165382385253906e+01 3.241879045963287354e-01 1.191668391227722168e+00 4.547568857669830322e-01 4.512403309345245361e-01
6.290000000000000000e+02 4.487070083618164062e+01 1.734366607666015625e+01 8.414547443389892578e-01 6.418688893318176270e-01 4.449971020221710205e-01 6.836352944374084473e-01
6.300000000000000000e+02 4.486062240600585938e+01 2.010881423950195312e+01 4.754302799701690674e-01 6.119067668914794922e-01 3.262011110782623291e-01 3.885265290737152100e-01
6.310000000000000000e+02 4.780363464355468750e+01 1.902864074707031250e+01 6.436640620231628418e-01 2.053435593843460083e-01 2.547022700309753418e-01 2.660387456417083740e-01
6.320000000000000000e+02 4.377709579467773438e+01 -3.582338714599609375e+01 4.069655667990446091e-03 -2.511906623840332031e-01 -7.413630187511444092e-02 -2.292626500129699707e-01
6.330000000000000000e+02 4.606032180786132812e+01 -3.138312339782714844e+01 -4.124647676944732666e-01 -8.615624159574508667e-02 -1.495863050222396851e-01 -2.100315839052200317e-01
6.340000000000000000e+02 7.810655212402343750e+01 5.379654884338378906e+00 4.695312678813934326e-02 7.599135398864746094e+00 2.293826580047607422e+00 -6.411670446395874023e-01
6.350000000000000000e+02 6.854830932617187500e+01 -2.304682922363281250e+01 -3.251244425773620605e-01 1.784013628959655762e+00 4.376667439937591553e-01 2.862573266029357910e-01
6.360000000000000000e+02 6.287240600585937500e+01 -3.420187377929687500e+01 6.532952189445495605e-01 4.944763779640197754e-01 3.443314731121063232e-01 8.460889011621475220e-02
6.370000000000000000e+02 7.307209777832031250e+01 -3.217478942871093750e+01 2.676483988761901855e-01 5.562379360198974609e+00 1.749008417129516602e+00 7.354196906089782715e-01
6.380000000000000000e+02 6.186562728881835938e+01 -2.241779708862304688e+01 -1.867766499519348145e+00 -2.197896003723144531e+00 -1.219698667526245117e+00 -1.958638668060302734e+00
6.390000000000000000e+02 7.362248897552490234e-01 -3.037543487548828125e+01 -1.465748646296560764e-04 1.249474880751222372e-04 -6.488212875410681590e-06 2.163054705306421965e-05
6.400000000000000000e+02 6.198908329010009766e+00 -3.378589630126953125e+01 -8.859056106302887201e-05 3.743047709576785564e-04 8.571426587877795100e-05 3.442482557147741318e-04
6.410000000000000000e+02 1.882231521606445312e+01 -2.593092346191406250e+01 6.544752395711839199e-04 -6.810119543843029533e-07 1.961382804438471794e-04 -5.078107933513820171e-04
6.420000000000000000e+02 6.637767791748046875e+01 -6.155844211578369141e+00 -5.392100811004638672e+00 -1.865414142608642578e+00 -2.177254438400268555e+00 7.282013893127441406e-01
6.430000000000000000e+02 6.126442718505859375e+01 3.098089694976806641e+00 2.741409838199615479e-01 3.522510528564453125e-01 1.879176050424575806e-01 -7.610432803630828857e-03
6.440000000000000000e+02 5.452553558349609375e+01 8.870640754699707031e+00 6.891003847122192383e-01 9.787698984146118164e-01 5.003610849380493164e-01 6.643848419189453125e-01
6.450000000000000000e+02 5.439462280273437500e+01 5.938917160034179688e+00 4.224887490272521973e-01 5.530427098274230957e-01 2.926594316959381104e-01 4.045684337615966797e-01
6.460000000000000000e+02 5.279620361328125000e+01 6.127308845520019531e+00 5.274064540863037109e-01 5.460779666900634766e-01 3.220453262329101562e-01 4.971016347408294678e-01
6.470000000000000000e+02 5.818652725219726562e+01 -6.029676437377929688e+00 -2.038140535354614258e+00 1.386611461639404297e-01 -5.698438286781311035e-01 -5.574573203921318054e-02
6.480000000000000000e+02 6.391260910034179688e+01 -7.003612995147705078e+00 -5.884659290313720703e+00 -7.849818468093872070e-01 -2.000892400741577148e+00 -1.500691294670104980e+00
6.490000000000000000e+02 6.328540039062500000e+01 -5.965583324432373047e+00 -4.276877403259277344e+00 -5.920057892799377441e-01 -1.460664868354797363e+00 1.308679282665252686e-01
6.500000000000000000e+02 5.906561660766601562e+01 -9.884008407592773438e+00 -1.727682232856750488e+00 -5.058476924896240234e-01 -6.700589656829833984e-01 -9.712180495262145996e-01
6.510000000000000000e+02 5.777091217041015625e+01 -7.870261669158935547e+00 -1.908808708190917969e+00 -7.080968003720045090e-03 -5.747668743133544922e-01 -4.364608228206634521e-01
6.520000000000000000e+02 4.807194519042968750e+01 -6.462807178497314453e+00 -8.764694929122924805e-01 2.351881414651870728e-01 -1.923844069242477417e-01 2.279358357191085815e-01
6.530000000000000000e+02 4.753688812255859375e+01 -1.278036236763000488e+00 -5.573197603225708008e-01 1.613162606954574585e-01 -1.188010498881340027e-01 4.687811136245727539e-01
6.540000000000000000e+02 4.750489807128906250e+01 -4.327268123626708984e+00 -7.587914466857910156e-01 2.142739593982696533e-01 -1.633552461862564087e-01 3.429753780364990234e-01
6.550000000000000000e+02 4.599369049072265625e+01 7.159426689147949219e+00 -5.259408950805664062e-01 -3.454842567443847656e-01 -2.614275515079498291e-01 3.864005506038665771e-01
6.560000000000000000e+02 4.857184982299804688e+01 -1.319778728485107422e+01 -7.086400985717773438e-01 4.843639209866523743e-02 -1.980611085891723633e-01 -1.556162387132644653e-01
6.570000000000000000e+02 5.075424957275390625e+01 -1.491170501708984375e+01 -6.017642021179199219e-01 -1.133114844560623169e-01 -2.145227044820785522e-01 -2.656133770942687988e-01
6.580000000000000000e+02 4.151974105834960938e+01 -1.424940013885498047e+01 -4.811324775218963623e-01 6.826681643724441528e-02 -1.238596960902214050e-01 2.234503813087940216e-02
6.590000000000000000e+02 4.366262054443359375e+01 -1.179804706573486328e+01 -6.144930124282836914e-01 1.156473681330680847e-01 -1.496536880731582642e-01 4.275897890329360962e-02
6.600000000000000000e+02 4.308520889282226562e+01 -6.641289710998535156e+00 -6.459589004516601562e-01 1.673672646284103394e-01 -1.435774862766265869e-01 2.245146185159683228e-01
6.610000000000000000e+02 3.736294555664062500e+01 -3.428682565689086914e+00 -4.831623136997222900e-01 1.249087825417518616e-01 -1.074760556221008301e-01 2.529039978981018066e-01
6.620000000000000000e+02 2.700353050231933594e+01 -4.310010910034179688e+00 -5.429751873016357422e-01 1.042959000915288925e-02 -1.597636938095092773e-01 2.734027802944183350e-01
6.630000000000000000e+02 2.687493705749511719e+01 -5.377276420593261719e+00 -5.411556363105773926e-01 -2.030026353895664215e-02 -1.684367656707763672e-01 2.985390126705169678e-01
6.640000000000000000e+02 2.709430503845214844e+01 -1.346291255950927734e+01 -1.695998013019561768e-01 -1.062116175889968872e-01 -8.274342119693756104e-02 1.730325073003768921e-01
6.650000000000000000e+02 3.459610366821289062e+01 -1.342483139038085938e+01 -3.630102276802062988e-01 5.464565381407737732e-02 -9.250936657190322876e-02 1.319563239812850952e-01
6.660000000000000000e+02 6.700951385498046875e+01 -4.370361328125000000e+00 -2.188060283660888672e+00 -9.436435699462890625e-01 -9.395111799240112305e-01 -6.413228511810302734e-01
6.670000000000000000e+02 2.138207244873046875e+01 -4.237949848175048828e+00 -7.214841842651367188e-01 -5.061549544334411621e-01 -3.682917356491088867e-01 5.602445006370544434e-01
6.680000000000000000e+02 2.889903450012207031e+01 5.612315654754638672e+00 1.166434362530708313e-01 -1.248893961310386658e-01 -2.473787637427449226e-03 3.297240138053894043e-01
6.690000000000000000e+02 6.020859527587890625e+01 5.524526596069335938e+00 5.359516143798828125e-01 6.012286543846130371e-01 3.411540687084197998e-01 -3.997750207781791687e-02
6.700000000000000000e+02 7.312528991699218750e+01 1.174816894531250000e+01 3.062962293624877930e-01 4.453425407409667969e+00 1.427916526794433594e+00 -9.934732913970947266e-01
6.710000000000000000e+02 7.253152465820312500e+01 1.959766197204589844e+01 1.898238658905029297e-01 3.938828229904174805e+00 1.238595604896545410e+00 -6.099028587341308594e-01
6.720000000000000000e+02 5.958197784423828125e+01 1.733116149902343750e+01 4.526997506618499756e-01 1.577062368392944336e+00 6.089286208152770996e-01 -4.078101515769958496e-01
6.730000000000000000e+02 2.652823829650878906e+01 1.840048980712890625e+01 9.210640192031860352e-02 -5.009682178497314453e-01 -1.226585432887077332e-01 2.913321256637573242e-01
6.740000000000000000e+02 1.831364631652832031e+00 1.651884269714355469e+01 1.453800033777952194e-02 -6.375873088836669922e-01 -1.869147866964340210e-01 1.071757450699806213e-01
6.750000000000000000e+02 7.186062622070312500e+01 2.657269477844238281e+01 1.412155181169509888e-01 3.618895530700683594e+00 1.128033280372619629e+00 -3.887934088706970215e-01
6.760000000000000000e+02 6.001454544067382812e+01 2.652085876464843750e+01 4.770308434963226318e-01 1.851794004440307617e+00 6.986474394798278809e-01 -3.900510668754577637e-01
6.770000000000000000e+02 4.317263793945312500e+01 2.231371688842773438e+01 4.174602329730987549e-01 5.703681111335754395e-01 2.963485121726989746e-01 2.584567070007324219e-01
6.780000000000000000e+02 3.939061355590820312e+01 2.809660911560058594e+01 4.352293312549591064e-01 3.373924195766448975e-01 2.317865192890167236e-01 1.512201577425003052e-01
6.790000000000000000e+02 3.228585815429687500e+01 2.320705413818359375e+01 3.185157179832458496e-01 -6.287781894207000732e-02 7.669136673212051392e-02 2.037051022052764893e-01
6.800000000000000000e+02 1.944673347473144531e+01 2.242240905761718750e+01 1.444858163595199585e-01 -1.420293897390365601e-01 7.369274389930069447e-04 4.668414592742919922e-01
6.810000000000000000e+02 7.424930095672607422e+00 2.415600204467773438e+01 5.557444691658020020e-02 -5.704877376556396484e-01 -1.544739902019500732e-01 1.138820350170135498e-01
6.820000000000000000e+02 1.914982199668884277e+00 2.781045913696289062e+01 1.128905452787876129e-03 -9.289107918739318848e-01 -2.783345580101013184e-01 1.804889179766178131e-02
6.830000000000000000e+02 7.110033416748046875e+01 3.066556167602539062e+01 1.413661390542984009e-01 3.396163702011108398e+00 1.061258912086486816e+00 -2.941397726535797119e-01
6.840000000000000000e+02 5.598894119262695312e+01 2.987805366516113281e+01 5.472997426986694336e-01 1.441202044486999512e+00 5.965505242347717285e-01 -2.154220193624496460e-01
6.850000000000000000e+02 5.256256866455078125e+01 3.020694541931152344e+01 5.860127806663513184e-01 1.097354531288146973e+00 5.050101876258850098e-01 -8.436838537454605103e-02
6.860000000000000000e+02 4.506774902343750000e+01 2.808211135864257812e+01 5.259885787963867188e-01 5.901919007301330566e-01 3.348541557788848877e-01 1.177067905664443970e-01
6.870000000000000000e+02 2.737699890136718750e+01 3.407535552978515625e+01 3.470301628112792969e-01 -1.233840957283973694e-01 6.709381937980651855e-02 1.505352556705474854e-01
6.880000000000000000e+02 7.712886810302734375e+00 3.345200729370117188e+01 2.276839874684810638e-02 -6.720817089080810547e-01 -1.947939842939376831e-01 5.984020605683326721e-02
6.890000000000000000e+02 1.969670176506042480e+00 3.055395698547363281e+01 7.726217154413461685e-05 -9.522523283958435059e-01 -2.856525182723999023e-01 1.627803593873977661e-02
6.900000000000000000e+02 6.691110229492187500e+01 -1.595897006988525391e+01 -9.124920964241027832e-01 -1.948760271072387695e+00 -8.583757281303405762e-01 -1.336425185203552246e+00
6.910000000000000000e+02 6.621308135986328125e+01 -1.701312446594238281e+01 -1.232332348823547363e+00 -2.376939296722412109e+00 -1.082781434059143066e+00 -1.640640020370483398e+00
6.920000000000000000e+02 6.458119201660156250e+01 -1.921814155578613281e+01 -1.646687269210815430e+00 -2.238961696624755859e+00 -1.165694713592529297e+00 -1.875721812248229980e+00
6.930000000000000000e+02 6.278502273559570312e+01 -2.136024475097656250e+01 -1.686595320701599121e+00 -2.155064821243286133e+00 -1.152498006820678711e+00 -1.896728515625000000e+00
6.940000000000000000e+02 6.182594299316406250e+01 -2.446615219116210938e+01 -1.446617722511291504e+00 -1.441534638404846191e+00 -8.664457201957702637e-01 -1.250324964523315430e+00
6.950000000000000000e+02 5.879602813720703125e+01 -2.529835510253906250e+01 -2.281779527664184570e+00 -1.559964179992675781e+00 -1.152523159980773926e+00 -1.797747015953063965e+00
6.960000000000000000e+02 5.767372131347656250e+01 -2.616347503662109375e+01 -2.230560064315795898e+00 -1.276591181755065918e+00 -1.052145361900329590e+00 -1.603291869163513184e+00
6.970000000000000000e+02 5.744006729125976562e+01 -2.830917930603027344e+01 -1.133895397186279297e+00 -1.080504536628723145e+00 -6.643199920654296875e-01 -1.045281529426574707e+00
6.980000000000000000e+02 5.268973922729492188e+01 -2.898274612426757812e+01 -1.415728330612182617e+00 -5.365456342697143555e-01 -5.856821537017822266e-01 -8.629642128944396973e-01
6.990000000000000000e+02 5.140362167358398438e+01 -2.957718467712402344e+01 -1.255718231201171875e+00 -4.547102749347686768e-01 -5.131285190582275391e-01 -7.179231643676757812e-01
7.000000000000000000e+02 4.741284942626953125e+01 -3.103374671936035156e+01 -6.176366209983825684e-01 -1.461665630340576172e-01 -2.291409522294998169e-01 -2.919390201568603516e-01
7.010000000000000000e+02 4.296319580078125000e+01 -3.345985412597656250e+01 -1.070150882005691528e-01 -1.002928614616394043e-01 -6.219238415360450745e-02 -1.636761575937271118e-01
7.020000000000000000e+02 4.063809967041015625e+01 -3.286545562744140625e+01 -2.001980505883693695e-02 -8.900624699890613556e-03 -8.676129393279552460e-03 -4.154691472649574280e-02
7.030000000000000000e+02 3.602456283569335938e+01 -3.258528137207031250e+01 3.933924064040184021e-02 -1.711963210254907608e-03 1.128818374127149582e-02 -3.697000443935394287e-03
7.040000000000000000e+02 3.459766006469726562e+01 -3.248854827880859375e+01 4.006529971957206726e-02 9.165430092252790928e-04 1.229455228894948959e-02 -2.204243792220950127e-03
7.050000000000000000e+02 3.113820838928222656e+01 -3.367829513549804688e+01 1.567513681948184967e-02 -7.863841019570827484e-04 4.466625861823558807e-03 3.458346938714385033e-03
7.060000000000000000e+02 3.035722923278808594e+01 -3.165525436401367188e+01 2.675501070916652679e-02 1.350391190499067307e-03 8.431620895862579346e-03 -3.426007926464080811e-03
7.070000000000000000e+02 2.637957572937011719e+01 -3.009572792053222656e+01 8.868483826518058777e-03 3.556530573405325413e-04 2.767241094261407852e-03 -2.861639717593789101e-03
7.080000000000000000e+02 2.421748924255371094e+01 -3.082767677307128906e+01 6.235338281840085983e-03 -7.306024199351668358e-04 1.651420723646879196e-03 1.120483721024356782e-04
7.090000000000000000e+02 2.169882965087890625e+01 -2.934249877929687500e+01 3.508787369355559349e-03 -6.376102683134377003e-04 8.613531244918704033e-04 -2.364781976211816072e-04
7.100000000000000000e+02 2.139332389831542969e+01 -2.745609092712402344e+01 2.089561661705374718e-03 -9.713065082905814052e-05 5.977293476462364197e-04 -1.001436263322830200e-03
7.110000000000000000e+02 1.688154220581054688e+01 -2.379084587097167969e+01 -5.146061084815301001e-05 -7.011788693489506841e-05 -3.647354969871230423e-05 -2.024174900725483894e-04
7.120000000000000000e+02 1.557025146484375000e+01 -2.459899520874023438e+01 5.942346761003136635e-04 2.290968950546812266e-05 1.851433189585804939e-04 7.081572675815550610e-06
7.130000000000000000e+02 1.498275279998779297e+01 -2.177954864501953125e+01 -1.676376123214140534e-04 -1.095398474717512727e-04 -8.315323793794959784e-05 -1.010486812447197735e-04
7.140000000000000000e+02 1.304005622863769531e+01 -1.980449295043945312e+01 -1.932618033606559038e-04 -1.208419707836583257e-04 -9.423113078810274601e-05 -7.837696466594934464e-05
7.150000000000000000e+02 1.115479850769042969e+01 -1.776442337036132812e+01 -1.950795121956616640e-04 -1.138094812631607056e-04 -9.266669803764671087e-05 -1.113377511501312256e-04
7.160000000000000000e+02 9.252163887023925781e+00 -1.395527267456054688e+01 3.149124386254698038e-04 5.842066457262262702e-05 1.119999287766404450e-04 1.177200683741830289e-04
7.170000000000000000e+02 1.560236072540283203e+01 -1.276558494567871094e+01 1.799459994344942970e-07 3.122378757325350307e-06 9.906974582918337546e-07 1.460302428313298151e-06
7.180000000000000000e+02 1.802797126770019531e+01 -8.627676010131835938e+00 -2.655008029250893742e-05 -1.480460355196555611e-06 -8.409161637246143073e-06 -1.333225668531667907e-06
7.190000000000000000e+02 1.953007507324218750e+01 -1.472355175018310547e+01 -1.264137426915112883e-05 -1.001637792796827853e-05 -6.797326022933702916e-06 -6.683704214083263651e-06
7.200000000000000000e+02 2.067353248596191406e+01 -1.518578529357910156e+01 1.830747692110890057e-06 7.905791790108196437e-06 2.920962060670717619e-06 5.091465027362573892e-06
7.210000000000000000e+02 2.314871406555175781e+01 -1.538630580902099609e+01 -2.279247837577713653e-06 -3.799118303504656069e-06 -1.823509819587343372e-06 -7.584649210912175477e-06
7.220000000000000000e+02 2.684943008422851562e+01 -1.795527076721191406e+01 8.916577826312277466e-06 4.923371761833550408e-06 4.151984740019543096e-06 -6.458509687945479527e-06
7.230000000000000000e+02 2.594019126892089844e+01 -1.770586013793945312e+01 1.005766989692347124e-05 -1.713017809379380196e-06 2.503395535313757136e-06 3.644597654783865437e-06
7.240000000000000000e+02 2.298209571838378906e+01 -1.421347713470458984e+01 -1.408806019753683358e-05 -1.169756046692782547e-06 -4.577344952849671245e-06 -4.220941264065913856e-06
7.250000000000000000e+02 2.389757919311523438e+01 -1.544478702545166016e+01 -1.804968087526503950e-05 5.289857199386460707e-06 -3.827946784440428019e-06 -5.687273187504615635e-06
7.260000000000000000e+02 2.419014739990234375e+01 -1.624908828735351562e+01 1.529363726149313152e-05 2.139836624337476678e-06 5.230042461334960535e-06 4.798777354153571650e-06
7.270000000000000000e+02 2.184833526611328125e+01 -1.205038070678710938e+01 1.653466642892453820e-05 2.021467253143782727e-06 5.566840172832598910e-06 7.179701697168638930e-06
7.280000000000000000e+02 2.151264381408691406e+01 -1.137827968597412109e+01 -2.044360553554724902e-05 -6.966586738599289674e-07 -6.342079359455965459e-06 -7.869727596698794514e-06
7.290000000000000000e+02 2.048092842102050781e+01 -9.488051414489746094e+00 2.579054307716432959e-05 -1.468260052206460387e-06 7.296684998436830938e-06 5.278027856547851115e-06
7.300000000000000000e+02 2.084004974365234375e+01 -1.010482120513916016e+01 -2.529579433030448854e-05 1.965820956684183329e-06 -6.998991921136621386e-06 -6.908962859597522765e-06
7.310000000000000000e+02 1.930807876586914062e+01 -7.743047237396240234e+00 -2.279260297655127943e-05 -1.964673174370545894e-06 -7.427182936226017773e-06 -6.707463853672379628e-06
7.320000000000000000e+02 1.680941772460937500e+01 -1.333562755584716797e+01 -1.598961034687818028e-07 -3.560070808816817589e-06 -1.115990130529098678e-06 1.883958447024269844e-07
7.330000000000000000e+02 1.841831207275390625e+01 -6.554410457611083984e+00 -1.913394225994125009e-05 -2.755097739282064140e-06 -6.566711817868053913e-06 -5.740425876865629107e-06
7.340000000000000000e+02 1.657004928588867188e+01 -4.750654697418212891e+00 2.676324220374226570e-05 2.652928742463700473e-06 8.824851647659670562e-06 8.402880666835699230e-06
7.350000000000000000e+02 1.538754177093505859e+01 -4.997390270233154297e+00 2.914397555286996067e-05 3.706291636262903921e-06 9.855079952103551477e-06 7.228622052934952080e-06
7.360000000000000000e+02 1.513268280029296875e+01 -3.803811550140380859e+00 2.026114998443517834e-05 9.644445526646450162e-06 8.971678653324488550e-06 7.793357326590921730e-06
7.370000000000000000e+02 1.188378906250000000e+01 -2.459496736526489258e+00 1.657717439229600132e-05 2.073845644190441817e-05 1.119468925026012585e-05 7.166858267737552524e-06
7.380000000000000000e+02 1.161919498443603516e+01 -3.268847465515136719e+00 -1.712797529762610793e-05 -2.100967321894131601e-05 -1.144129419117234647e-05 -9.936722562997601926e-06
7.390000000000000000e+02 7.855202674865722656e+00 -2.600108146667480469e+00 1.277459068660391495e-05 1.950670048245228827e-05 9.684386895969510078e-06 2.009372110478579998e-05
7.400000000000000000e+02 7.160516262054443359e+00 -1.859054803848266602e+00 9.186224815493915230e-06 1.718738712952472270e-05 7.912083674455061555e-06 1.731402880977839231e-05
7.410000000000000000e+02 6.414592742919921875e+00 -1.858395934104919434e+00 -7.048422958177980036e-06 -1.738941136864013970e-05 -7.331349934247555211e-06 -1.515194071544101462e-05
7.420000000000000000e+02 5.670521259307861328e+00 -1.862654685974121094e+00 1.439931202185107395e-05 1.544510087114758790e-05 8.953324140748009086e-06 7.722327609371859580e-06
7.430000000000000000e+02 4.927842617034912109e+00 -1.870888233184814453e+00 -2.285357004438992590e-05 -1.022730339172994718e-05 -9.924261576088611037e-06 -4.191585958324139938e-06
7.440000000000000000e+02 3.440172672271728516e+00 -1.921061873435974121e+00 -1.189748854812933132e-05 -7.206394911918323487e-06 -5.731164947064826265e-06 -7.984730473253875971e-06
7.450000000000000000e+02 3.559505939483642578e+00 -2.730522632598876953e+00 1.864776277216151357e-05 6.440820925490697846e-06 7.526574790972517803e-06 1.198025256599066779e-05
7.460000000000000000e+02 1.935314416885375977e+00 -2.082147598266601562e+00 -1.349104650216759183e-06 -1.165768571809167042e-05 -3.902036951330956072e-06 -1.014557801681803539e-05
7.470000000000000000e+02 1.174187421798706055e+00 -2.161802291870117188e+00 1.201964460051385686e-05 7.846048902138136327e-06 5.959708232694538310e-06 4.219831225782399997e-06
7.480000000000000000e+02 3.944895565509796143e-01 -2.198036670684814453e+00 -1.999726191570516676e-05 -1.738410219331854023e-06 -6.520701845147414133e-06 3.466493581072427332e-06
7.490000000000000000e+02 2.015947341918945312e+00 -4.167746353149414062e+01 -9.363258141092956066e-05 7.294792449101805687e-04 1.907539990497753024e-04 2.924905129475519061e-05
7.500000000000000000e+02 5.206843852996826172e+00 -3.868627929687500000e+01 8.824215183267369866e-05 2.949495392385870218e-04 1.149575036833994091e-04 5.721571506001055241e-05
7.510000000000000000e+02 1.022739410400390625e+00 -3.876507568359375000e+01 -1.304930920014157891e-04 6.460838485509157181e-04 1.546772255096584558e-04 3.106843723799102008e-05
7.520000000000000000e+02 8.564574718475341797e-01 -3.463182830810546875e+01 1.372445985907688737e-04 3.867950581479817629e-04 1.572118926560506225e-04 5.705602234229445457e-05
7.530000000000000000e+02 8.221794366836547852e-01 -3.321479034423828125e+01 -1.478846825193613768e-04 3.057859139516949654e-04 4.737036942970007658e-05 4.358363003120757639e-05
7.540000000000000000e+02 7.023445367813110352e-01 -2.895944595336914062e+01 1.578735827933996916e-04 5.428809163277037442e-05 6.364849832607433200e-05 4.840671681449748576e-05
7.550000000000000000e+02 6.791924834251403809e-01 -2.754553031921386719e+01 -1.489311252953484654e-04 4.347024514572694898e-06 -4.337522841524332762e-05 -2.225932576038758270e-06
7.560000000000000000e+02 6.631281971931457520e-01 -2.613553810119628906e+01 1.552666944917291403e-04 -2.780252179945819080e-05 3.823925362667068839e-05 3.286460196250118315e-05
7.570000000000000000e+02 6.289520263671875000e-01 -2.191324806213378906e+01 -1.352189283352345228e-04 -4.837701271753758192e-05 -5.507878086064010859e-05 -2.225621756224427372e-05
7.580000000000000000e+02 6.177562475204467773e-01 -2.050978851318359375e+01 1.298170245718210936e-04 -3.726497016032226384e-05 2.776561814243905246e-05 1.264857110072625801e-05
7.590000000000000000e+02 1.848784446716308594e+00 -2.036191749572753906e+01 -1.191557676065713167e-04 -1.528416214569006115e-05 -4.033197910757735372e-05 -2.643648076627869159e-05
7.600000000000000000e+02 6.251912713050842285e-01 -1.629479980468750000e+01 -9.134634456131607294e-05 -8.734037692192941904e-06 -3.002411540364846587e-05 -1.985900235013104975e-05
7.610000000000000000e+02 6.310130357742309570e-01 -1.488613700866699219e+01 6.957452569622546434e-05 1.434065239891424426e-07 2.091538044624030590e-05 1.183956737804692239e-05
7.620000000000000000e+02 6.207966804504394531e-01 -1.347365188598632812e+01 -5.267702726996503770e-05 -2.136233376859308919e-07 -1.586719554325100034e-05 -1.116114344767993316e-05
7.630000000000000000e+02 1.866420269012451172e+00 -1.337515449523925781e+01 6.336994556477293372e-05 1.680949026194866747e-05 2.405383020231965929e-05 1.466917456127703190e-05
7.640000000000000000e+02 5.545561909675598145e-01 -9.236313819885253906e+00 3.582483259378932416e-05 4.643816282623447478e-06 1.214059466292383149e-05 2.432165501886629499e-06
7.650000000000000000e+02 5.399039983749389648e-01 -7.834212779998779297e+00 -3.236655902583152056e-05 5.161449280421948060e-06 -8.161533514794427902e-06 -2.033513737842440605e-06
7.660000000000000000e+02 4.264923095703125000e+00 -2.652497291564941406e+00 -2.344553831790108234e-05 -8.300790796056389809e-06 -9.523898370389360934e-06 -9.105314347834791988e-06
7.670000000000000000e+02 5.192997455596923828e-01 -6.434707164764404297e+00 2.680320721992757171e-05 2.723326588238705881e-06 8.857959983288310468e-06 3.019734549525310285e-06
7.680000000000000000e+02 7.181028747558593750e+01 -4.106661987304687500e+01 4.485067129135131836e-01 4.962612152099609375e+00 1.623335719108581543e+00 9.613158553838729858e-02
7.690000000000000000e+02 5.759346771240234375e+01 -4.092237854003906250e+01 9.569705724716186523e-01 -3.700919449329376221e-01 1.760635823011398315e-01 -6.673556566238403320e-02
7.700000000000000000e+02 2.904777717590332031e+01 -3.731267166137695312e+01 -6.888286210596561432e-03 -9.681169176474213600e-04 -2.356921089813113213e-03 8.257456123828887939e-03
7.710000000000000000e+02 1.277263641357421875e+01 -4.093731689453125000e+01 -1.055244239978492260e-03 1.233547693118453026e-03 5.349105049390345812e-05 6.214211462065577507e-04
7.720000000000000000e+02 7.877692413330078125e+01 3.998083877563476562e+01 -1.878082007169723511e-02 3.956365823745727539e+00 1.181275486946105957e+00 -3.872929140925407410e-02
7.730000000000000000e+02 7.925207519531250000e+01 3.874949645996093750e+01 9.104058146476745605e-03 4.008294105529785156e+00 1.205219507217407227e+00 -1.914761401712894440e-02
7.740000000000000000e+02 7.924636840820312500e+01 3.624152374267578125e+01 8.093195967376232147e-03 4.095781326293945312e+00 1.231162428855895996e+00 -1.720093935728073120e-02
7.750000000000000000e+02 7.753804016113281250e+01 3.488755416870117188e+01 3.440468572080135345e-03 4.021192073822021484e+00 1.207389712333679199e+00 -6.582292914390563965e-02
7.760000000000000000e+02 7.919259643554687500e+01 3.341430282592773438e+01 -3.786527086049318314e-03 4.185062885284423828e+00 1.254382848739624023e+00 -2.799841016530990601e-02
7.770000000000000000e+02 7.780035400390625000e+01 2.895828628540039062e+01 1.027596648782491684e-02 4.241210937500000000e+00 1.275446057319641113e+00 -1.117211207747459412e-01
7.780000000000000000e+02 7.930161285400390625e+01 2.637189292907714844e+01 4.353706724941730499e-03 4.528058052062988281e+00 1.359723567962646484e+00 -4.476339742541313171e-02
7.790000000000000000e+02 7.647936248779296875e+01 2.591333007812500000e+01 3.463745117187500000e-02 4.254854679107666016e+00 1.286847710609436035e+00 -2.197122722864151001e-01
7.800000000000000000e+02 7.933455657958984375e+01 2.219470024108886719e+01 2.780808717943727970e-04 4.857038974761962891e+00 1.457195162773132324e+00 -5.978000536561012268e-02
7.810000000000000000e+02 7.934221649169921875e+01 2.080212020874023438e+01 5.625083576887845993e-03 4.993035316467285156e+00 1.499598026275634766e+00 -6.521125882863998413e-02
7.820000000000000000e+02 7.934934997558593750e+01 1.940908432006835938e+01 5.159007268957793713e-04 5.144551753997802734e+00 1.543520331382751465e+00 -7.268445193767547607e-02
7.830000000000000000e+02 7.936251068115234375e+01 1.523550224304199219e+01 9.335506707429885864e-03 5.719085216522216797e+00 1.718526124954223633e+00 -9.971629083156585693e-02
7.840000000000000000e+02 7.936372375488281250e+01 1.384709167480468750e+01 1.689069787971675396e-03 5.960294246673583984e+00 1.788595080375671387e+00 -1.131922975182533264e-01
7.850000000000000000e+02 7.936298370361328125e+01 1.245805549621582031e+01 1.145759038627147675e-02 6.232503890991210938e+00 1.873188376426696777e+00 -1.264115124940872192e-01
7.860000000000000000e+02 7.936171722412109375e+01 1.106858348846435547e+01 3.273919690400362015e-03 6.538952827453613281e+00 1.962668061256408691e+00 -1.440053135156631470e-01
7.870000000000000000e+02 7.936140441894531250e+01 8.288184165954589844e+00 5.096029955893754959e-03 7.274673461914062500e+00 2.183930873870849609e+00 -1.822917014360427856e-01
7.880000000000000000e+02 7.936391448974609375e+01 6.897667407989501953e+00 1.236455049365758896e-02 7.713095188140869141e+00 2.317637920379638672e+00 -2.009695470333099365e-01
7.890000000000000000e+02 7.936903381347656250e+01 5.505217552185058594e+00 3.169979201629757881e-03 8.199320793151855469e+00 2.460747003555297852e+00 -2.199385315179824829e-01
7.900000000000000000e+02 7.940768432617187500e+01 1.328517794609069824e+00 6.769236642867326736e-03 9.939223289489746094e+00 2.983797788619995117e+00 -2.496068179607391357e-01
7.910000000000000000e+02 7.942922973632812500e+01 -5.777776241302490234e-02 -2.076092548668384552e-02 1.058574581146240234e+01 3.169495344161987305e+00 -2.374358624219894409e-01
7.920000000000000000e+02 7.945169830322265625e+01 -1.440289855003356934e+00 6.755863432772457600e-04 1.122631072998046875e+01 3.368095636367797852e+00 -2.115083932876586914e-01
7.930000000000000000e+02 7.840608978271484375e+01 -2.876215696334838867e+00 -8.267915993928909302e-02 1.063456058502197266e+01 3.165564298629760742e+00 -5.304043889045715332e-01
7.940000000000000000e+02 7.947366333007812500e+01 -2.818582534790039062e+00 -4.422559961676597595e-02 1.181273651123046875e+01 3.530553340911865234e+00 -1.600479632616043091e-01
7.950000000000000000e+02 7.658492279052734375e+01 -1.074609661102294922e+01 -1.043925762176513672e+00 2.078506278991699219e+01 5.922341346740722656e+00 8.929363489151000977e-01
7.960000000000000000e+02 7.743643951416015625e+01 -1.170191574096679688e+01 5.908365726470947266e+00 1.565820598602294922e+01 6.469971179962158203e+00 2.915586233139038086e+00
7.970000000000000000e+02 7.751295471191406250e+01 -1.249439525604248047e+01 6.850294589996337891e+00 1.465973186492919922e+01 6.453008174896240234e+00 -1.488286137580871582e+00
7.980000000000000000e+02 7.647871398925781250e+01 -1.388592147827148438e+01 -1.807522416114807129e+00 1.979665374755859375e+01 5.396739482879638672e+00 2.011740505695343018e-01
7.990000000000000000e+02 7.847791290283203125e+01 -1.936234283447265625e+01 -2.230050265789031982e-01 1.130973815917968750e+01 3.326020002365112305e+00 -1.275796443223953247e-02
8.000000000000000000e+02 7.953969573974609375e+01 -1.806909942626953125e+01 -8.548279106616973877e-02 1.215519618988037109e+01 3.620913982391357422e+00 -2.122046053409576416e-01
8.010000000000000000e+02 7.945269775390625000e+01 -2.361617088317871094e+01 -2.163384854793548584e-02 1.149937534332275391e+01 3.443322420120239258e+00 1.126983165740966797e-01
8.020000000000000000e+02 7.828157806396484375e+01 -2.480643844604492188e+01 -2.034836821258068085e-02 1.014539623260498047e+01 3.037514448165893555e+00 4.016938507556915283e-01
8.030000000000000000e+02 7.942617034912109375e+01 -2.499478912353515625e+01 3.393923980183899403e-04 1.110424995422363281e+01 3.331376791000366211e+00 1.349763274192810059e-01
8.040000000000000000e+02 7.934416961669921875e+01 -2.915006065368652344e+01 1.325725205242633820e-02 9.982499122619628906e+00 2.998726844787597656e+00 1.367862671613693237e-01
8.050000000000000000e+02 7.787501525878906250e+01 -3.165566825866699219e+01 2.778416126966476440e-02 8.592482566833496094e+00 2.586080074310302734e+00 3.711355924606323242e-01
8.060000000000000000e+02 7.929871368408203125e+01 -3.192070960998535156e+01 1.939167268574237823e-02 9.373727798461914062e+00 2.817935705184936523e+00 1.237247139215469360e-01
8.070000000000000000e+02 7.927841949462890625e+01 -3.606824874877929688e+01 2.743295393884181976e-02 8.630948066711425781e+00 2.597514152526855469e+00 9.833598881959915161e-02
8.080000000000000000e+02 7.923727416992187500e+01 -3.742838287353515625e+01 -5.235341563820838928e-02 8.380957603454589844e+00 2.498581409454345703e+00 1.416022926568984985e-01
8.090000000000000000e+02 7.906243896484375000e+01 -3.875139236450195312e+01 2.418801374733448029e-02 8.121424674987792969e+00 2.443683862686157227e+00 1.448971778154373169e-01
8.100000000000000000e+02 7.868395233154296875e+01 -4.008853912353515625e+01 -7.221268862485885620e-02 7.874820232391357422e+00 2.340782165527343750e+00 2.042905688285827637e-01
8.110000000000000000e+02 1.256866931915283203e+01 3.620342636108398438e+01 6.044375523924827576e-02 -4.999988675117492676e-01 -1.318665295839309692e-01 8.402349054813385010e-02
8.120000000000000000e+02 2.759589004516601562e+01 4.078155136108398438e+01 3.557913303375244141e-01 -9.432608634233474731e-02 7.843957096338272095e-02 3.030029498040676117e-02
8.130000000000000000e+02 4.023802280426025391e-01 2.184830665588378906e+00 5.362719457480125129e-05 1.920471340417861938e-02 5.777501966804265976e-03 -4.877941217273473740e-03
8.140000000000000000e+02 2.927690982818603516e+00 2.857300281524658203e+00 -2.585711702704429626e-02 -1.992728188633918762e-02 -1.373531948775053024e-02 8.077506907284259796e-03
8.150000000000000000e+02 5.467537879943847656e+00 4.642269611358642578e+00 -1.392491906881332397e-01 -5.647838860750198364e-02 -5.871827527880668640e-02 1.074885651469230652e-01
8.160000000000000000e+02 5.823260545730590820e-01 9.370808601379394531e+00 7.512103184126317501e-04 -1.686595678329467773e-01 -5.037250742316246033e-02 3.902092576026916504e-02
8.170000000000000000e+02 5.851904153823852539e-01 1.218277263641357422e+01 3.810829017311334610e-03 -3.790527880191802979e-01 -1.125725880265235901e-01 4.667353630065917969e-02
8.180000000000000000e+02 1.755047440528869629e+00 1.233402633666992188e+01 -2.716585528105497360e-03 -3.877516984939575195e-01 -1.171404793858528137e-01 1.309009343385696411e-01
8.190000000000000000e+02 6.084156036376953125e-01 1.640936851501464844e+01 -3.116682346444576979e-04 -6.889299750328063965e-01 -2.067725062370300293e-01 3.650708869099617004e-02
8.200000000000000000e+02 6.147386431694030762e-01 1.782206153869628906e+01 4.889779724180698395e-03 -7.692583203315734863e-01 -2.293105572462081909e-01 3.175147622823715210e-02
8.210000000000000000e+02 6.304003596305847168e-01 2.207361984252929688e+01 1.750493305735290051e-03 -9.265551567077636719e-01 -2.774414122104644775e-01 1.432966254651546478e-02
8.220000000000000000e+02 6.339768767356872559e-01 2.348697662353515625e+01 7.989862351678311825e-04 -9.564089775085449219e-01 -2.866829931735992432e-01 1.135369297116994858e-02
8.230000000000000000e+02 1.913728833198547363e+00 2.361746025085449219e+01 6.703635677695274353e-03 -8.696173429489135742e-01 -2.588740885257720947e-01 3.377307951450347900e-02
8.240000000000000000e+02 6.360396742820739746e-01 2.489744949340820312e+01 2.050426322966814041e-03 -9.794633984565734863e-01 -2.932238876819610596e-01 8.367329835891723633e-03
8.250000000000000000e+02 6.433364152908325195e-01 2.911303138732910156e+01 -1.231754664331674576e-03 -1.023265242576599121e+00 -3.073490858078002930e-01 4.785392899066209793e-03
8.260000000000000000e+02 6.606220602989196777e-01 3.051664924621582031e+01 1.617039553821086884e-03 -1.034042119979858398e+00 -3.097275495529174805e-01 4.584744572639465332e-03
8.270000000000000000e+02 6.940906643867492676e-01 3.192193222045898438e+01 -1.691142679192125797e-03 -1.043978095054626465e+00 -3.137007951736450195e-01 4.462375771254301071e-03
8.280000000000000000e+02 8.690369725227355957e-01 3.613560485839843750e+01 2.080680569633841515e-03 -1.055036425590515137e+00 -3.158867359161376953e-01 1.305903890170156956e-03
8.290000000000000000e+02 1.232959866523742676e+00 3.897291183471679688e+01 1.508229319006204605e-02 -1.048570871353149414e+00 -3.100465536117553711e-01 -1.052106264978647232e-02
8.300000000000000000e+02 9.855616569519042969e+00 1.846429705619812012e+00 -2.031476497650146484e-01 -7.614203542470932007e-02 -8.378690481185913086e-02 1.153805926442146301e-01
8.310000000000000000e+02 9.059327125549316406e+00 1.869250416755676270e+00 -1.678631752729415894e-01 -3.598919510841369629e-02 -6.115571409463882446e-02 8.228467404842376709e-02
8.320000000000000000e+02 9.161361694335937500e+00 2.617211103439331055e+00 -2.249297946691513062e-01 -7.868666946887969971e-02 -9.108494222164154053e-02 1.227600127458572388e-01
8.330000000000000000e+02 7.484098911285400391e+00 1.881362438201904297e+00 -1.027181670069694519e-01 -1.318591088056564331e-02 -3.477122262120246887e-02 4.265911504626274109e-02
8.340000000000000000e+02 5.121710300445556641e+00 1.882671475410461426e+00 -3.812653943896293640e-02 -1.244363933801651001e-02 -1.517105288803577423e-02 1.496189739555120468e-02
8.350000000000000000e+02 4.341701030731201172e+00 1.880029201507568359e+00 -2.620443701744079590e-02 -7.216429337859153748e-03 -1.002625934779644012e-02 4.910885822027921677e-03
8.360000000000000000e+02 3.562074184417724609e+00 1.905062675476074219e+00 -1.460665557533502579e-02 -1.198340021073818207e-02 -7.977016270160675049e-03 1.513831284682964906e-05
8.370000000000000000e+02 1.997070550918579102e+00 2.044897794723510742e+00 -3.311049658805131912e-03 -2.372229006141424179e-03 -1.704983646050095558e-03 -1.079545076936483383e-02
8.380000000000000000e+02 1.203434467315673828e+00 2.125144720077514648e+00 -1.108305994421243668e-03 8.073901757597923279e-03 2.089678542688488960e-03 -1.175694726407527924e-02
8.390000000000000000e+02 1.148345661163330078e+01 1.566174030303955078e+00 -2.646971046924591064e-01 -1.644891798496246338e-01 -1.287558823823928833e-01 2.014342248439788818e-01
8.400000000000000000e+02 1.311812400817871094e+01 1.182228922843933105e+00 -3.258226811885833740e-01 -3.072822391986846924e-01 -1.899314820766448975e-01 3.244738876819610596e-01
8.410000000000000000e+02 1.392948913574218750e+01 9.454334974288940430e-01 -3.672566115856170654e-01 -3.691256642341613770e-01 -2.209146767854690552e-01 4.086209535598754883e-01
8.420000000000000000e+02 1.610930442810058594e+01 3.319678306579589844e+00 -3.392095863819122314e-01 -7.814005613327026367e-01 -3.361830413341522217e-01 5.761443972587585449e-01
8.430000000000000000e+02 1.625426101684570312e+01 -8.834352716803550720e-03 -5.014815330505371094e-01 -5.943512320518493652e-01 -3.287498354911804199e-01 5.804145932197570801e-01
8.440000000000000000e+02 1.837167549133300781e+01 -1.375392317771911621e+00 -6.927067637443542480e-01 -6.351929306983947754e-01 -3.983699083328247070e-01 6.400889158248901367e-01
8.450000000000000000e+02 1.905668258666992188e+01 -1.851569294929504395e+00 -7.518696188926696777e-01 -6.074408292770385742e-01 -4.077931344509124756e-01 6.199163198471069336e-01
8.460000000000000000e+02 2.083042907714843750e+01 -3.612670898437500000e+00 -7.768843173980712891e-01 -5.295746326446533203e-01 -3.919377028942108154e-01 5.857836604118347168e-01
8.470000000000000000e+02 2.324303436279296875e+01 -6.885715007781982422e+00 -4.910693168640136719e-01 -4.051719903945922852e-01 -2.688723802566528320e-01 4.495862126350402832e-01
8.480000000000000000e+02 2.365773773193359375e+01 -7.561717033386230469e+00 -4.433841705322265625e-01 -3.749839961528778076e-01 -2.455104589462280273e-01 4.133608043193817139e-01
8.490000000000000000e+02 2.443113327026367188e+01 -8.915303230285644531e+00 -3.474925458431243896e-01 -3.103805482387542725e-01 -1.973619312047958374e-01 3.511850535869598389e-01
8.500000000000000000e+02 2.481179618835449219e+01 -9.588023185729980469e+00 -3.014989495277404785e-01 -2.758953869342803955e-01 -1.732183098793029785e-01 3.185406923294067383e-01
8.510000000000000000e+02 2.586896324157714844e+01 -1.154860687255859375e+01 -2.178841680288314819e-01 -1.860201656818389893e-01 -1.211712956428527832e-01 2.379225790500640869e-01
8.520000000000000000e+02 2.620585250854492188e+01 -1.218786430358886719e+01 -1.920912414789199829e-01 -1.577990651130676270e-01 -1.049670875072479248e-01 2.141427546739578247e-01
8.530000000000000000e+02 2.761718750000000000e+01 -1.406624031066894531e+01 -1.647596955299377441e-01 -8.556791394948959351e-02 -7.509828358888626099e-02 1.550881713628768921e-01
8.540000000000000000e+02 2.821615028381347656e+01 -1.338537406921386719e+01 -2.143848389387130737e-01 -7.321748882532119751e-02 -8.628069609403610229e-02 1.852642595767974854e-01
8.550000000000000000e+02 2.960926628112792969e+01 -1.541055965423583984e+01 -1.865239590406417847e-01 -4.431967437267303467e-02 -6.925308704376220703e-02 1.219616308808326721e-01
8.560000000000000000e+02 3.033326911926269531e+01 -1.581454753875732422e+01 -1.973446756601333618e-01 -3.360113129019737244e-02 -6.928374618291854858e-02 1.086263880133628845e-01
8.570000000000000000e+02 3.107061195373535156e+01 -1.621629714965820312e+01 -2.030394375324249268e-01 -1.574780605733394623e-02 -6.563617289066314697e-02 9.754799306392669678e-02
8.580000000000000000e+02 3.180578804016113281e+01 -1.662569808959960938e+01 -2.085736393928527832e-01 -7.869115099310874939e-03 -6.493282318115234375e-02 8.795186132192611694e-02
8.590000000000000000e+02 3.321418762207031250e+01 -1.749191856384277344e+01 -2.145632654428482056e-01 1.158821210265159607e-02 -6.089251488447189331e-02 6.180234998464584351e-02
8.600000000000000000e+02 3.379686355590820312e+01 -1.535381889343261719e+01 -2.878173887729644775e-01 2.368369698524475098e-02 -7.924010604619979858e-02 1.048677340149879456e-01
8.610000000000000000e+02 3.773401641845703125e+01 -1.849657821655273438e+01 -2.744252979755401611e-01 3.904246725142002106e-03 -8.115631341934204102e-02 -1.787814398994669318e-04
8.620000000000000000e+02 4.041990661621093750e+01 -1.834404182434082031e+01 -2.908840477466583252e-01 6.608590018004179001e-03 -8.528263121843338013e-02 -3.157147020101547241e-02
8.630000000000000000e+02 4.158398818969726562e+01 -1.552093029022216797e+01 -4.400689899921417236e-01 5.331858247518539429e-02 -1.160251274704933167e-01 -1.136898715049028397e-02
8.640000000000000000e+02 4.568632125854492188e+01 -1.697073936462402344e+01 -4.717321097850799561e-01 -3.696561232209205627e-02 -1.526093184947967529e-01 -1.210635304450988770e-01
8.650000000000000000e+02 4.699114227294921875e+01 -1.656074905395507812e+01 -4.673041105270385742e-01 -2.099451981484889984e-02 -1.464895904064178467e-01 -1.471239477396011353e-01
8.660000000000000000e+02 4.951567840576171875e+01 -1.550969791412353516e+01 -5.550425648689270020e-01 -7.001744210720062256e-02 -1.875180006027221680e-01 -2.274172157049179077e-01
8.670000000000000000e+02 5.142597579956054688e+01 -1.313057327270507812e+01 -8.103663921356201172e-01 -5.879705399274826050e-02 -2.607490420341491699e-01 -2.638688981533050537e-01
8.680000000000000000e+02 5.438326644897460938e+01 -1.288602352142333984e+01 -8.733178973197937012e-01 -2.014702111482620239e-01 -3.224364519119262695e-01 -4.673992097377777100e-01
8.690000000000000000e+02 5.672856903076171875e+01 -1.140753173828125000e+01 -1.186152696609497070e+00 -3.588696122169494629e-01 -4.635066986083984375e-01 -6.880275011062622070e-01
8.700000000000000000e+02 5.789499282836914062e+01 -1.064354228973388672e+01 -1.453586697578430176e+00 -4.771873056888580322e-01 -5.792321562767028809e-01 -7.878522872924804688e-01
8.710000000000000000e+02 6.024594879150390625e+01 -9.137686729431152344e+00 -2.148964405059814453e+00 -6.408791542053222656e-01 -8.369530439376831055e-01 -1.091325283050537109e+00
8.720000000000000000e+02 6.144000625610351562e+01 -8.408690452575683594e+00 -2.592431068420410156e+00 -6.527908444404602051e-01 -9.735665917396545410e-01 -1.348698973655700684e+00
8.730000000000000000e+02 6.265194320678710938e+01 -7.682172775268554688e+00 -3.635569334030151367e+00 -8.626683950424194336e-01 -1.349471330642700195e+00 -1.556088924407958984e+00
8.740000000000000000e+02 6.519684600830078125e+01 -6.606622219085693359e+00 -7.578233242034912109e+00 -1.181834578514099121e+00 -2.628020286560058594e+00 2.663302421569824219e-01
8.750000000000000000e+02 7.038263702392578125e+01 -1.035617160797119141e+01 -7.833917140960693359e-01 6.024724617600440979e-02 -2.169433534145355225e-01 1.017973423004150391e+00
8.760000000000000000e+02 7.179253387451171875e+01 -1.045609378814697266e+01 -5.911415219306945801e-01 4.637830555438995361e-01 -3.820753470063209534e-02 4.699864685535430908e-01
8.770000000000000000e+02 7.248360443115234375e+01 -1.050661945343017578e+01 -3.573243021965026855e-01 7.884238958358764648e-01 1.293298751115798950e-01 -9.732528775930404663e-02
8.780000000000000000e+02 7.316407775878906250e+01 -1.060788536071777344e+01 1.746850013732910156e-01 1.281143665313720703e+00 4.367486238479614258e-01 -9.274336695671081543e-01
8.790000000000000000e+02 7.380921936035156250e+01 -1.053199195861816406e+01 8.366329073905944824e-01 2.662805080413818359e+00 1.049831390380859375e+00 -2.136244058609008789e+00
8.800000000000000000e+02 7.402445983886718750e+01 -1.055792903900146484e+01 1.083693265914916992e+00 3.151046514511108398e+00 1.270421862602233887e+00 -2.686827898025512695e+00
8.810000000000000000e+02 7.536650085449218750e+01 -1.053463459014892578e+01 -1.628687232732772827e-01 1.266892528533935547e+01 3.751816987991333008e+00 -5.450917243957519531e+00
8.820000000000000000e+02 7.580039978027343750e+01 -1.060239410400390625e+01 -1.322189331054687500e+00 1.728938484191894531e+01 4.790158748626708984e+00 -4.508156299591064453e+00
8.830000000000000000e+02 7.598235321044921875e+01 -1.061720657348632812e+01 -1.679037928581237793e+00 1.858362960815429688e+01 5.071377754211425781e+00 -3.582159996032714844e+00
8.840000000000000000e+02 7.640274047851562500e+01 -1.066255187988281250e+01 -1.641515612602233887e+00 2.034043121337890625e+01 5.609674453735351562e+00 -5.423079729080200195e-01
8.850000000000000000e+02 7.861950683593750000e+01 -8.628115653991699219e+00 -7.448477149009704590e-01 1.116299915313720703e+01 3.125445365905761719e+00 1.894158840179443359e+00
8.860000000000000000e+02 7.727565765380859375e+01 -1.131433582305908203e+01 3.264604568481445312e+00 1.774540519714355469e+01 6.303002834320068359e+00 3.877829074859619141e+00
8.870000000000000000e+02 7.748139953613281250e+01 -1.190406990051269531e+01 6.585576057434082031e+00 1.543503952026367188e+01 6.606184482574462891e+00 1.971447467803955078e+00
8.880000000000000000e+02 7.750116729736328125e+01 -1.211212921142578125e+01 7.031501770019531250e+00 1.486418628692626953e+01 6.568706512451171875e+00 5.664771199226379395e-01
8.890000000000000000e+02 7.752333831787109375e+01 -1.270437431335449219e+01 5.998549461364746094e+00 1.503601837158203125e+01 6.310370445251464844e+00 -2.422973632812500000e+00
8.900000000000000000e+02 7.961262512207031250e+01 -1.537126159667968750e+01 -1.212641447782516479e-01 9.013277053833007812e+00 2.667603731155395508e+00 -8.433816432952880859e-01
8.910000000000000000e+02 7.848444366455078125e+01 -2.078641319274902344e+01 -9.866656363010406494e-02 1.110864162445068359e+01 3.302992582321166992e+00 2.289885133504867554e-01
8.920000000000000000e+02 7.287477111816406250e+01 -1.400045680999755859e+01 -1.239543557167053223e-01 1.024992227554321289e+00 2.703113555908203125e-01 7.676990032196044922e-01
8.930000000000000000e+02 7.170861816406250000e+01 -1.396863269805908203e+01 -8.018603324890136719e-01 4.365806281566619873e-01 -1.095839142799377441e-01 -3.726639151573181152e-01
8.940000000000000000e+02 6.888020324707031250e+01 -1.404249477386474609e+01 -9.011405706405639648e-01 -1.139589995145797729e-01 -3.045298755168914795e-01 -9.877479076385498047e-01
8.950000000000000000e+02 6.844308471679687500e+01 -1.513345718383789062e+01 -8.467755913734436035e-01 -3.323723971843719482e-01 -3.537443876266479492e-01 -1.063099265098571777e+00
8.960000000000000000e+02 2.133396148681640625e+01 1.626721954345703125e+01 -3.151488304138183594e-01 -2.129763364791870117e-01 -1.584375500679016113e-01 3.143344521522521973e-01
8.970000000000000000e+02 2.470762252807617188e+01 1.398704433441162109e+01 -6.607680320739746094e-01 -1.014803290367126465e+00 -5.026713609695434570e-01 6.943711042404174805e-01
8.980000000000000000e+02 2.047789001464843750e+01 4.123003005981445312e+00 1.805737614631652832e-01 5.833360180258750916e-02 7.167220860719680786e-02 2.576115727424621582e-01
8.990000000000000000e+02 1.434768295288085938e+01 7.184947967529296875e+00 -6.524272561073303223e-01 -1.151785850524902344e+00 -5.412639379501342773e-01 5.992236137390136719e-01
9.000000000000000000e+02 5.053086853027343750e+01 1.891714286804199219e+01 3.788320124149322510e-01 7.492545247077941895e-02 1.361272484064102173e-01 -5.266205593943595886e-02
9.010000000000000000e+02 5.478867340087890625e+01 1.652553176879882812e+01 3.894871771335601807e-01 9.109501242637634277e-01 3.901311755180358887e-01 -4.430877268314361572e-01
9.020000000000000000e+02 4.620416641235351562e+01 5.869716167449951172e+00 -4.162638485431671143e-01 -2.657425403594970703e-01 -2.046019136905670166e-01 3.291191756725311279e-01
9.030000000000000000e+02 4.312372207641601562e+01 9.234365463256835938e+00 -3.403997719287872314e-01 -1.694250479340553284e-02 -1.072026789188385010e-01 2.603720724582672119e-01
9.040000000000000000e+02 4.637620544433593750e+01 1.941950035095214844e+01 6.234470009803771973e-01 4.077189266681671143e-01 3.093497753143310547e-01 3.885373175144195557e-01
9.050000000000000000e+02 7.559994506835937500e+01 -1.053265285491943359e+01 -7.859363555908203125e-01 1.482094192504882812e+01 4.210501670837402344e+00 -5.115761280059814453e+00
9.060000000000000000e+02 7.680578613281250000e+01 -1.079498100280761719e+01 -3.221673369407653809e-01 2.007905387878417969e+01 5.927066326141357422e+00 2.055847883224487305e+00
9.070000000000000000e+02 7.701898956298828125e+01 -1.092140197753906250e+01 6.877256035804748535e-01 1.932141685485839844e+01 6.002742767333984375e+00 3.161507844924926758e+00
9.080000000000000000e+02 7.945561218261718750e+01 -6.962724208831787109e+00 -1.578027456998825073e-01 1.196989440917968750e+01 3.543627262115478516e+00 4.034984707832336426e-01
9.090000000000000000e+02 7.735576629638671875e+01 -1.316934299468994141e+01 3.190544605255126953e+00 1.691942596435546875e+01 6.032990932464599609e+00 -3.582839965820312500e+00
9.100000000000000000e+02 7.807688140869140625e+01 -1.077349185943603516e+01 1.223133563995361328e+00 1.296714210510253906e+01 4.257082939147949219e+00 3.546728610992431641e+00
9.110000000000000000e+02 7.801667785644531250e+01 -1.237388515472412109e+01 4.749922752380371094e+00 1.203936290740966797e+01 5.036786079406738281e+00 -4.413911402225494385e-01
9.120000000000000000e+02 7.609948730468750000e+01 -1.426728916168212891e+01 -1.992721199989318848e+00 1.696600914001464844e+01 4.491986274719238281e+00 2.366704463958740234e+00
9.130000000000000000e+02 7.719050598144531250e+01 -1.334339332580566406e+01 1.854960918426513672e+00 1.828936004638671875e+01 6.043295860290527344e+00 -3.678277492523193359e+00
9.140000000000000000e+02 7.871932983398437500e+01 -1.330353450775146484e+01 5.623837709426879883e-01 8.624189376831054688e+00 2.755971908569335938e+00 -2.116330862045288086e+00
9.150000000000000000e+02 7.960083007812500000e+01 -1.107689094543457031e+01 1.587920337915420532e-01 3.512823343276977539e+00 1.101484656333923340e+00 9.890564680099487305e-01
9.160000000000000000e+02 7.766364288330078125e+01 -1.139781188964843750e+01 3.561655044555664062e+00 1.455056285858154297e+01 5.433665275573730469e+00 3.333344697952270508e+00
9.170000000000000000e+02 7.703527069091796875e+01 -1.350032520294189453e+01 8.350507020950317383e-01 1.925974273681640625e+01 6.028438091278076172e+00 -3.321504831314086914e+00
9.180000000000000000e+02 7.686877441406250000e+01 -1.364553165435791016e+01 -1.642167717218399048e-01 1.992307472229003906e+01 5.927657127380371094e+00 -2.488740682601928711e+00
9.190000000000000000e+02 7.772129058837890625e+01 -1.343239593505859375e+01 1.620382547378540039e+00 1.445877456665039062e+01 4.823747158050537109e+00 -3.532639980316162109e+00
9.200000000000000000e+02 7.796566009521484375e+01 -1.269847488403320312e+01 4.574802398681640625e+00 1.251910495758056641e+01 5.128172397613525391e+00 -1.689033985137939453e+00
9.210000000000000000e+02 7.669291687011718750e+01 -1.380041980743408203e+01 -1.216054081916809082e+00 1.997311973571777344e+01 5.627119541168212891e+00 -1.267031311988830566e+00
9.220000000000000000e+02 7.879136657714843750e+01 -9.755661964416503906e+00 -4.831374585628509521e-01 1.002894115447998047e+01 2.863741159439086914e+00 2.742921829223632812e+00
9.230000000000000000e+02 7.658733367919921875e+01 -1.046298503875732422e+01 -1.784115791320800781e+00 1.925861167907714844e+01 5.242348670959472656e+00 2.847668230533599854e-01
9.240000000000000000e+02 7.581686401367187500e+01 -1.393541908264160156e+01 -1.438603520393371582e+00 1.694676208496093750e+01 4.652447223663330078e+00 4.287286758422851562e+00
9.250000000000000000e+02 7.526489257812500000e+01 -1.421400928497314453e+01 -3.029492497444152832e-01 1.132439994812011719e+01 3.306435108184814453e+00 5.168272972106933594e+00
9.260000000000000000e+02 7.515878295898437500e+01 -1.061097049713134766e+01 6.595049500465393066e-01 1.025884628295898438e+01 3.275505542755126953e+00 -5.686867713928222656e+00
9.270000000000000000e+02 7.336449432373046875e+01 -1.057941246032714844e+01 3.771095573902130127e-01 1.578964233398437500e+00 5.868221521377563477e-01 -1.173958063125610352e+00
9.280000000000000000e+02 7.294669342041015625e+01 -1.057704353332519531e+01 2.012882847338914871e-03 1.138629913330078125e+00 3.421928584575653076e-01 -6.117205619812011719e-01
9.290000000000000000e+02 7.415383911132812500e+01 -1.025494098663330078e+01 8.679811954498291016e-01 4.372974872589111328e+00 1.572286844253540039e+00 -3.142242670059204102e+00
9.300000000000000000e+02 7.440798187255859375e+01 -1.063466835021972656e+01 1.494509100914001465e+00 4.279803752899169922e+00 1.732293844223022461e+00 -3.801076650619506836e+00
9.310000000000000000e+02 7.479534912109375000e+01 -1.062565612792968750e+01 1.372320055961608887e+00 6.877395629882812500e+00 2.474914789199829102e+00 -5.116662025451660156e+00
9.320000000000000000e+02 7.498192596435546875e+01 -1.063251018524169922e+01 1.284812927246093750e+00 8.272015571594238281e+00 2.867048501968383789e+00 -5.667879104614257812e+00
9.330000000000000000e+02 7.460103607177734375e+01 -1.391420936584472656e+01 1.192271590232849121e+00 5.862774848937988281e+00 2.116513967514038086e+00 4.611582279205322266e+00
9.340000000000000000e+02 7.747202301025390625e+01 -1.945923042297363281e+01 -4.322341680526733398e-01 1.043904685974121094e+01 3.002043724060058594e+00 1.851367056369781494e-01
9.350000000000000000e+02 7.419765472412109375e+01 -1.395465850830078125e+01 1.088548898696899414e+00 3.647632837295532227e+00 1.420854449272155762e+00 3.325871706008911133e+00
9.360000000000000000e+02 7.378459167480468750e+01 -1.396793842315673828e+01 7.295489311218261719e-01 2.463690280914306641e+00 9.579717516899108887e-01 2.288524627685546875e+00
9.370000000000000000e+02 7.357394409179687500e+01 -1.398090171813964844e+01 5.477554798126220703e-01 2.025444507598876953e+00 7.719600200653076172e-01 1.865414619445800781e+00
9.380000000000000000e+02 7.538079833984375000e+01 -1.393687629699707031e+01 -1.599749028682708740e-01 1.260862445831298828e+01 3.734594821929931641e+00 5.759828090667724609e+00
9.390000000000000000e+02 7.479190063476562500e+01 -1.389220619201660156e+01 1.098743915557861328e+00 6.834936618804931641e+00 2.380104064941406250e+00 5.084915161132812500e+00
9.400000000000000000e+02 7.440000152587890625e+01 -1.393303775787353516e+01 1.202851533889770508e+00 4.650695323944091797e+00 1.756064057350158691e+00 3.901970148086547852e+00
9.410000000000000000e+02 7.399307250976562500e+01 -1.396282196044921875e+01 9.273287653923034668e-01 3.077591657638549805e+00 1.201476097106933594e+00 2.831311464309692383e+00
9.420000000000000000e+02 1.699989318847656250e+01 -1.223430442810058594e+01 2.612172465887852013e-06 1.579775562277063727e-05 5.522978426597546786e-06 5.152595349500188604e-06
9.430000000000000000e+02 1.781510734558105469e+01 -7.026502609252929688e+00 2.256398875033482909e-05 1.626626271900022402e-06 7.257184279296780005e-06 8.138575140037573874e-06
9.440000000000000000e+02 1.985808753967285156e+01 -9.850860595703125000e+00 -2.957816286652814597e-05 3.660746187961194664e-06 -7.775225640216376632e-06 -3.916041805496206507e-06
9.450000000000000000e+02 2.010240745544433594e+01 -8.895406723022460938e+00 -2.534869236114900559e-05 4.046167845217496506e-08 -7.592469501105370000e-06 -5.171396423975238577e-06
9.460000000000000000e+02 1.798286247253417969e+01 -1.382521343231201172e+01 -1.468404889237717725e-06 3.065046257688663900e-06 4.789924332726513967e-07 4.188101456747972406e-07
9.470000000000000000e+02 2.687936592102050781e+01 -1.186132335662841797e+01 -2.386199533939361572e-01 -1.288401186466217041e-01 -1.102380231022834778e-01 2.307649552822113037e-01
9.480000000000000000e+02 2.660350036621093750e+01 -1.283335208892822266e+01 -1.834461092948913574e-01 -1.331496685743331909e-01 -9.497873485088348389e-02 1.930224895477294922e-01
9.490000000000000000e+02 2.655211639404296875e+01 -1.121867084503173828e+01 -2.612153887748718262e-01 -1.430672109127044678e-01 -1.212847828865051270e-01 2.524667978286743164e-01
9.500000000000000000e+02 2.620362663269042969e+01 -1.055683994293212891e+01 -2.922465205192565918e-01 -1.666774600744247437e-01 -1.376771926879882812e-01 2.765169441699981689e-01
9.510000000000000000e+02 2.517755126953125000e+01 -1.025064945220947266e+01 -2.734994888305664062e-01 -2.438498884439468384e-01 -1.552048176527023315e-01 2.877463400363922119e-01
9.520000000000000000e+02 2.584046745300292969e+01 -9.883252143859863281e+00 -3.199358582496643066e-01 -1.866709887981414795e-01 -1.519820541143417358e-01 3.005062639713287354e-01
9.530000000000000000e+02 1.806108856201171875e+01 -1.262346649169921875e+01 2.185911625929293223e-06 -1.303709723288193345e-05 -3.255355750297894701e-06 -3.096443833783268929e-06
9.540000000000000000e+02 1.925749015808105469e+01 -1.026798439025878906e+01 2.996898001583758742e-05 -2.390579084021737799e-06 8.273519597423728555e-06 4.090171387360896915e-06
9.550000000000000000e+02 2.053363609313964844e+01 -1.101919460296630859e+01 -2.665678584889974445e-05 5.840048743266379461e-06 -6.245021268114214763e-06 -8.058296771196182817e-06
9.560000000000000000e+02 2.079911804199218750e+01 -1.166653442382812500e+01 2.179613147745840251e-05 -1.042235680870362557e-06 6.226168807188514620e-06 7.969408216013107449e-06
9.570000000000000000e+02 7.286229705810546875e+01 -1.000708103179931641e+01 1.739045977592468262e-01 1.650141239166259766e+00 5.472137928009033203e-01 -8.515456914901733398e-01
9.580000000000000000e+02 6.990687561035156250e+01 -9.475023269653320312e+00 -9.970862865447998047e-01 -4.960022866725921631e-02 -3.140059411525726318e-01 1.058573961257934570e+00
9.590000000000000000e+02 7.113169097900390625e+01 -9.837359428405761719e+00 -5.180862545967102051e-01 5.704690217971801758e-01 1.571482419967651367e-02 6.174457669258117676e-01
9.600000000000000000e+02 4.974267482757568359e+00 -2.619510173797607422e+00 2.839933222276158631e-05 6.751252840331289917e-06 1.054517542797839269e-05 1.063443323801038787e-05
9.610000000000000000e+02 7.907358646392822266e+00 -1.867420792579650879e+00 -7.508021553803700954e-06 -1.822586273192428052e-05 -7.720164830971043557e-06 -1.620725743123330176e-05
9.620000000000000000e+02 2.688941240310668945e+00 -1.987322092056274414e+00 5.570213488681474701e-06 1.040544157149270177e-05 4.792696472577517852e-06 7.472756806237157434e-06
9.630000000000000000e+02 1.639305353164672852e+00 -7.768362045288085938e+00 5.257228986010886729e-05 5.779086222901241854e-07 1.594505920365918428e-05 7.877753887441940606e-06
9.640000000000000000e+02 2.802445411682128906e+00 -7.688386917114257812e+00 -7.396194268949329853e-05 8.190628250304143876e-06 -1.973139296751469374e-05 -1.046513443725416437e-05
9.650000000000000000e+02 4.443596005439758301e-01 -3.603051662445068359e+00 1.996967330342158675e-05 3.471214427008817438e-08 6.001315341563895345e-06 -1.068941401172196493e-06
9.660000000000000000e+02 4.917826950550079346e-01 -5.021934986114501953e+00 -2.167888851545285434e-05 -2.195292170270590759e-09 -6.504325483547290787e-06 -7.180881311796838418e-08
9.670000000000000000e+02 1.059568691253662109e+01 -3.852310895919799805e+00 -2.336656871193554252e-05 -1.922972114698495716e-05 -1.277888713957509026e-05 -1.575418900756631047e-05
9.680000000000000000e+02 8.577481269836425781e+00 -2.648831605911254883e+00 -1.094864273909479380e-05 -2.174431028834078461e-05 -9.807886272028554231e-06 -1.993206387851387262e-05
9.690000000000000000e+02 6.408300876617431641e+00 -2.584324836730957031e+00 1.809844252420589328e-05 1.571281245560385287e-05 1.014337703963974491e-05 1.867967330326791853e-05
9.700000000000000000e+02 5.689110755920410156e+00 -2.599241495132446289e+00 -2.388003849773667753e-05 -1.100911322282627225e-05 -1.046674515237100422e-05 -1.422397144779097289e-05
9.710000000000000000e+02 9.301218986511230469e+00 -2.732239007949829102e+00 1.496387631050311029e-05 2.205409509770106524e-05 1.110539142246125266e-05 1.791788054106291384e-05
9.720000000000000000e+02 1.019141292572021484e+01 -2.035498857498168945e+00 1.255498409591382369e-05 2.120694989571347833e-05 1.012858047033660114e-05 1.040442839439492673e-05
9.730000000000000000e+02 7.010798645019531250e+01 -1.553361320495605469e+01 -4.890034198760986328e-01 6.230062246322631836e-01 4.020083323121070862e-02 -6.615328192710876465e-01
9.740000000000000000e+02 7.312775421142578125e+01 -1.400214576721191406e+01 7.225403934717178345e-02 1.406244039535522461e+00 4.435494244098663330e-01 1.061609983444213867e+00
9.750000000000000000e+02 7.109422302246093750e+01 -1.456291866302490234e+01 -5.126934051513671875e-01 6.048462986946105957e-01 2.764585427939891815e-02 -5.126463174819946289e-01
9.760000000000000000e+02 7.043951416015625000e+01 -1.466115093231201172e+01 -6.397070288658142090e-01 4.540131986141204834e-01 -5.570813640952110291e-02 -7.754296064376831055e-01
9.770000000000000000e+02 2.465432548522949219e+01 -7.857549667358398438e+00 -4.405706226825714111e-01 -2.607407569885253906e-01 -2.103934139013290405e-01 3.754104673862457275e-01
9.780000000000000000e+02 2.404643058776855469e+01 -8.240188598632812500e+00 -3.891907930374145508e-01 -3.397912085056304932e-01 -2.186945974826812744e-01 3.826687633991241455e-01
9.790000000000000000e+02 2.546134567260742188e+01 -9.205094337463378906e+00 -3.599048256874084473e-01 -2.119783014059066772e-01 -1.715649366378784180e-01 3.258414268493652344e-01
9.800000000000000000e+02 2.506411552429199219e+01 -8.532964706420898438e+00 -3.930253982543945312e-01 -2.341680973768234253e-01 -1.881580501794815063e-01 3.507845401763916016e-01
9.810000000000000000e+02 2.142005157470703125e+01 -1.311118412017822266e+01 1.748648537613917142e-05 -4.371872819319833070e-07 5.114789473736891523e-06 5.260049420030554757e-06
9.820000000000000000e+02 2.188217544555664062e+01 -1.574509334564208984e+01 -2.414605887679499574e-06 -6.639575531153241172e-06 -2.716254357437719591e-06 -1.982893536478513852e-06
9.830000000000000000e+02 2.219224929809570312e+01 -1.276649951934814453e+01 -1.349315425613895059e-05 -2.966160764117375948e-06 -4.937794528814265504e-06 -6.439488061005249619e-06
9.840000000000000000e+02 2.035796737670898438e+01 -1.261782741546630859e+01 2.107261025230400264e-05 2.367289653193438426e-06 7.031970199022907764e-06 6.752160970791010186e-06
9.850000000000000000e+02 2.066443252563476562e+01 -1.330506896972656250e+01 -1.203754527523415163e-05 2.108120042976224795e-06 -2.978827524202642962e-06 -3.649816335382638499e-06
9.860000000000000000e+02 9.263402938842773438e+00 3.392754793167114258e+00 -2.716035246849060059e-01 -9.736610949039459229e-02 -1.106908917427062988e-01 1.561046242713928223e-01
9.870000000000000000e+02 8.357845306396484375e+00 2.636522531509399414e+00 -1.916396468877792358e-01 -4.218717664480209351e-02 -7.014805078506469727e-02 9.469331055879592896e-02
9.880000000000000000e+02 6.694316864013671875e+00 1.885788321495056152e+00 -7.567330449819564819e-02 -1.646631211042404175e-02 -2.764188498258590698e-02 3.182899206876754761e-02
9.890000000000000000e+02 5.954797744750976562e+00 2.668059110641479492e+00 -9.539620578289031982e-02 -2.391332760453224182e-02 -3.579286113381385803e-02 4.514224454760551453e-02
9.900000000000000000e+02 1.948437929153442383e+00 6.824743270874023438e+00 -2.489796094596385956e-02 -8.556697517633438110e-02 -3.313948214054107666e-02 7.289446890354156494e-02
9.910000000000000000e+02 3.836420536041259766e+00 3.327637910842895508e+00 -5.404685810208320618e-02 -3.096630237996578217e-02 -2.550394833087921143e-02 2.962321788072586060e-02
9.920000000000000000e+02 1.337015151977539062e+00 3.375210523605346680e+00 -8.106677792966365814e-03 3.198175923898816109e-03 -1.472550560720264912e-03 -2.477844012901186943e-03
9.930000000000000000e+02 2.782228469848632812e+00 1.965050458908081055e+00 -7.899965159595012665e-03 -6.207589991390705109e-03 -4.232266452163457870e-03 -8.589718490839004517e-03
9.940000000000000000e+02 2.157745599746704102e+00 3.109474182128906250e+00 -1.641609333455562592e-02 -1.055730134248733521e-02 -8.092017844319343567e-03 -7.049447740428149700e-04
9.950000000000000000e+02 7.564940452575683594e+00 2.640071392059326172e+00 -1.555726826190948486e-01 -4.006103426218032837e-02 -5.869011580944061279e-02 7.722841948270797729e-02
9.960000000000000000e+02 8.270620346069335938e+00 1.877717614173889160e+00 -1.327565461397171021e-01 -3.160231932997703552e-02 -4.930765926837921143e-02 6.126787140965461731e-02
9.970000000000000000e+02 8.454150199890136719e+00 4.252058029174804688e+00 -2.717979550361633301e-01 -8.984506875276565552e-02 -1.084929108619689941e-01 1.706638336181640625e-01
9.980000000000000000e+02 5.166065216064453125e+00 2.644905805587768555e+00 -7.477498054504394531e-02 -1.470950618386268616e-02 -2.684534713625907898e-02 3.024944476783275604e-02
9.990000000000000000e+02 2.235182952880859375e+01 -5.549469947814941406e+00 -6.187044382095336914e-01 -4.549498558044433594e-01 -3.220962882041931152e-01 5.100848078727722168e-01
1.000000000000000000e+03 2.395631027221679688e+01 -5.366890430450439453e+00 -6.037495136260986328e-01 -2.334240972995758057e-01 -2.511520683765411377e-01 4.058972299098968506e-01
1.001000000000000000e+03 2.424136543273925781e+01 -7.169145107269287109e+00 -4.827784001827239990e-01 -2.819463312625885010e-01 -2.294174283742904663e-01 4.004024267196655273e-01
1.002000000000000000e+03 2.381950378417968750e+01 -6.477590560913085938e+00 -5.399107336997985840e-01 -3.054944872856140137e-01 -2.536215782165527344e-01 4.247951805591583252e-01
1.003000000000000000e+03 2.137657737731933594e+01 -3.085190773010253906e+00 -7.269095778465270996e-01 -3.945905268192291260e-01 -3.364500403404235840e-01 4.946106076240539551e-01
1.004000000000000000e+03 1.698245811462402344e+01 -4.275604188442230225e-01 -5.502097010612487793e-01 -6.299672722816467285e-01 -3.540531098842620850e-01 6.273009777069091797e-01
1.005000000000000000e+03 1.679851722717285156e+01 4.167026996612548828e+00 -4.922405183315277100e-01 -7.289249300956726074e-01 -3.663496375083923340e-01 5.572598576545715332e-01
1.006000000000000000e+03 1.596362400054931641e+01 1.113058209419250488e+00 -3.607790470123291016e-01 -6.288937330245971680e-01 -2.969018518924713135e-01 5.575615167617797852e-01
1.007000000000000000e+03 1.549401950836181641e+01 6.607799530029296875e+00 -7.730202674865722656e-01 -1.203714370727539062e+00 -5.930203795433044434e-01 8.308973312377929688e-01
1.008000000000000000e+03 1.642953300476074219e+01 5.770576000213623047e+00 -7.889443039894104004e-01 -8.267463445663452148e-01 -4.847072064876556396e-01 8.181142807006835938e-01
1.009000000000000000e+03 1.338458251953125000e+01 1.946668863296508789e+00 -3.415865004062652588e-01 -3.930516242980957031e-01 -2.203914374113082886e-01 3.679162859916687012e-01
1.010000000000000000e+03 1.167547130584716797e+01 2.297457218170166016e+00 -3.103916049003601074e-01 -2.164088785648345947e-01 -1.580401510000228882e-01 2.409635633230209351e-01
1.011000000000000000e+03 2.192164230346679688e+01 -3.750179529190063477e+00 -7.138835787773132324e-01 -3.781790733337402344e-01 -3.276188075542449951e-01 4.879311323165893555e-01
1.012000000000000000e+03 2.080898475646972656e+01 -2.437876939773559570e+00 -7.202935218811035156e-01 -4.236605465412139893e-01 -3.431862294673919678e-01 5.096246600151062012e-01
1.013000000000000000e+03 2.026974487304687500e+01 -2.997663974761962891e+00 -7.967725992202758789e-01 -5.465337634086608887e-01 -4.029919207096099854e-01 5.922665596008300781e-01
1.014000000000000000e+03 2.020188903808593750e+01 -1.811853170394897461e+00 -6.919385790824890137e-01 -4.590898156166076660e-01 -3.453085124492645264e-01 5.316622257232666016e-01
1.015000000000000000e+03 3.250811386108398438e+01 -1.705776596069335938e+01 -2.003577053546905518e-01 1.008280273526906967e-02 -5.708247050642967224e-02 7.409178465604782104e-02
1.016000000000000000e+03 3.154934883117675781e+01 -1.553879261016845703e+01 -2.362362593412399292e-01 -8.681934326887130737e-03 -7.347545772790908813e-02 1.135546937584877014e-01
1.017000000000000000e+03 2.890081214904785156e+01 -1.500157928466796875e+01 -1.788876503705978394e-01 -5.724564939737319946e-02 -7.083999365568161011e-02 1.327140480279922485e-01
1.018000000000000000e+03 2.781189537048339844e+01 -1.228234863281250000e+01 -2.508726716041564941e-01 -8.745975792407989502e-02 -1.014997288584709167e-01 2.186776995658874512e-01
1.019000000000000000e+03 3.008489227294921875e+01 -1.473597335815429688e+01 -2.196158021688461304e-01 -3.594235703349113464e-02 -7.666745036840438843e-02 1.386198103427886963e-01
1.020000000000000000e+03 3.362480926513671875e+01 -1.692414665222167969e+01 -2.329789549112319946e-01 1.340735331177711487e-02 -6.587147712707519531e-02 7.580263912677764893e-02
1.021000000000000000e+03 3.236780548095703125e+01 -1.594263076782226562e+01 -2.390007674694061279e-01 8.710277266800403595e-03 -6.908714771270751953e-02 9.920705854892730713e-02
1.022000000000000000e+03 1.885021209716796875e+01 -7.729366421699523926e-01 -5.896044373512268066e-01 -5.519992709159851074e-01 -3.424811065196990967e-01 5.998949408531188965e-01
1.023000000000000000e+03 1.816240119934082031e+01 -3.164425790309906006e-01 -5.031656622886657715e-01 -6.087004542350769043e-01 -3.335598111152648926e-01 6.189719438552856445e-01
1.024000000000000000e+03 2.883352851867675781e+01 -1.282836818695068359e+01 -2.575092613697052002e-01 -5.821690335869789124e-02 -9.471785277128219604e-02 2.003194689750671387e-01
1.025000000000000000e+03 2.304486274719238281e+01 -1.628260421752929688e+01 -1.249004867531766649e-06 4.355778855824610218e-06 9.320321510131179821e-07 2.127909965565777384e-06
1.026000000000000000e+03 2.233412933349609375e+01 -1.485397720336914062e+01 1.320321462117135525e-05 4.326099315221654251e-06 5.258794317342108116e-06 5.114926807436859235e-06
1.027000000000000000e+03 1.436491680145263672e+01 -3.401652812957763672e+00 -1.570491258462425321e-05 -1.450979198125423864e-05 -9.064410733117256314e-06 -5.576735020440537483e-06
1.028000000000000000e+03 1.467616748809814453e+01 -4.588762760162353516e+00 -2.817005770339164883e-05 -7.809067028574645519e-06 -1.079373760148882866e-05 -4.230645117786480114e-06
1.029000000000000000e+03 1.378654289245605469e+01 -6.259662628173828125e+00 -4.160444950684905052e-05 -3.660464699350995943e-06 -1.357947439828421921e-05 -2.083237404804094695e-06
1.030000000000000000e+03 1.670677947998046875e+01 -5.911647319793701172e+00 2.735227099037729204e-05 1.576869294694915880e-06 8.678742233314551413e-06 8.575580068281851709e-06
1.031000000000000000e+03 1.783755683898925781e+01 -5.917822360992431641e+00 2.149966894648969173e-05 6.525145295199763495e-07 6.645655048487242311e-06 6.964977274037664756e-06
1.032000000000000000e+03 1.562412834167480469e+01 -6.121159076690673828e+00 3.195737735950388014e-05 2.342667585253366269e-06 1.029001396091189235e-05 8.659635568619705737e-06
1.033000000000000000e+03 1.821827888488769531e+01 -1.021585178375244141e+01 3.417035622987896204e-05 -7.893583642726298422e-06 7.883031685196328908e-06 6.608535386476432905e-06
1.034000000000000000e+03 1.004871559143066406e+01 -2.863698244094848633e+00 -1.776186218194197863e-05 -2.019779094553086907e-05 -1.138789593824185431e-05 -1.577575858391355723e-05
1.035000000000000000e+03 1.318864059448242188e+01 -3.858774662017822266e+00 -1.638418689253740013e-05 -1.982123467314522713e-05 -1.086162683350266889e-05 -1.876025862657115795e-06
1.036000000000000000e+03 1.133648777008056641e+01 -4.059537410736083984e+00 1.972754398593679070e-05 2.201523602707311511e-05 1.252283345820615068e-05 1.426815651939250529e-05
1.037000000000000000e+03 1.241186141967773438e+01 -3.537390708923339844e+00 1.476460329286055639e-05 2.284458969370462000e-05 1.128275835071690381e-05 4.927443569613387808e-06
1.038000000000000000e+03 1.354996490478515625e+01 -3.059944391250610352e+00 1.308434366364963353e-05 1.989734300877898932e-05 9.894505637930706143e-06 2.911005140049383044e-06
1.039000000000000000e+03 7.193269348144531250e+01 -9.299097061157226562e+00 -3.446220457553863525e-01 1.496296763420104980e+00 3.455024361610412598e-01 -2.026399672031402588e-01
1.040000000000000000e+03 6.858113098144531250e+01 -8.751792907714843750e+00 -1.747745871543884277e+00 -1.785316348075866699e+00 -1.059918642044067383e+00 1.273862600326538086e+00
1.041000000000000000e+03 1.848038291931152344e+01 4.281559467315673828e+00 -5.595476031303405762e-01 -3.304896950721740723e-01 -2.670111954212188721e-01 4.751718044281005859e-01
1.042000000000000000e+03 1.741497230529785156e+01 4.937806129455566406e+00 -8.888279199600219727e-01 -7.236990928649902344e-01 -4.837581217288970947e-01 7.047019004821777344e-01
1.043000000000000000e+03 6.796585083007812500e+01 -6.451105594635009766e+00 -3.487217426300048828e+00 -5.393308997154235840e-01 -1.207964539527893066e+00 -1.869990676641464233e-01
1.044000000000000000e+03 2.845481872558593750e+01 9.279850006103515625e+00 1.002971548587083817e-02 -2.701642811298370361e-01 -7.804036885499954224e-02 5.503647327423095703e-01
1.045000000000000000e+03 6.459608459472656250e+01 -5.304924488067626953e+00 -3.219448328018188477e+00 -1.508895635604858398e+00 -1.418503284454345703e+00 4.202795028686523438e-01
1.046000000000000000e+03 1.695099067687988281e+01 1.618927383422851562e+01 8.370404839515686035e-01 3.943430185317993164e-01 3.694150447845458984e-01 4.811123013496398926e-01
1.047000000000000000e+03 1.362870502471923828e+01 1.419584369659423828e+01 4.448269009590148926e-01 -1.798369586467742920e-01 7.949697971343994141e-02 3.718734681606292725e-01
1.048000000000000000e+03 2.020990753173828125e+01 1.676538467407226562e+01 2.284951210021972656e-01 -5.500742048025131226e-02 5.204631015658378601e-02 2.974639832973480225e-01
1.049000000000000000e+03 1.626976203918457031e+01 1.888008117675781250e+01 2.151115387678146362e-01 1.027319505810737610e-01 9.535304456949234009e-02 3.061279058456420898e-01
1.050000000000000000e+03 2.031214714050292969e+01 1.896763229370117188e+01 1.372254043817520142e-01 -1.498422324657440186e-01 -3.785045351833105087e-03 5.691590905189514160e-01
1.051000000000000000e+03 1.357829284667968750e+01 2.704655170440673828e+00 -3.380717933177947998e-01 -4.943602681159973145e-01 -2.497296184301376343e-01 3.827152252197265625e-01
1.052000000000000000e+03 2.361863517761230469e+01 1.911450767517089844e+01 1.604668945074081421e-01 -5.311460494995117188e-01 -1.112037450075149536e-01 4.573104977607727051e-01
1.053000000000000000e+03 1.554598331451416016e+01 2.393815994262695312e+00 -3.119709193706512451e-01 -6.786090135574340820e-01 -2.971739768981933594e-01 5.099782943725585938e-01
1.054000000000000000e+03 2.582462882995605469e+01 5.560028076171875000e+00 3.209898471832275391e-01 3.636157140135765076e-02 1.072054281830787659e-01 1.998675316572189331e-01
1.055000000000000000e+03 2.117962265014648438e+01 3.095225572586059570e+00 -9.654282033443450928e-02 9.216959774494171143e-02 -1.311967382207512856e-03 3.758365511894226074e-01
1.056000000000000000e+03 2.288566970825195312e+01 5.116605758666992188e+00 6.338133811950683594e-01 2.819520533084869385e-01 2.747296392917633057e-01 3.827693760395050049e-01
1.057000000000000000e+03 2.474333000183105469e+01 4.806736469268798828e+00 2.705555856227874756e-01 2.167241126298904419e-01 1.461839079856872559e-01 1.761342883110046387e-01
1.058000000000000000e+03 6.858987426757812500e+01 -7.224918842315673828e+00 -3.631338834762573242e+00 -1.412077695131301880e-01 -1.131763935089111328e+00 6.983255743980407715e-01
1.059000000000000000e+03 1.535589694976806641e+01 1.747333908081054688e+01 3.981607556343078613e-01 9.964819252490997314e-02 1.493426859378814697e-01 2.062347233295440674e-01
1.060000000000000000e+03 2.697751808166503906e+01 1.155196380615234375e+01 -3.442758023738861084e-01 -5.487439036369323730e-01 -2.679059207439422607e-01 5.635983347892761230e-01
1.061000000000000000e+03 1.313045215606689453e+01 1.103338146209716797e+01 7.771085947751998901e-03 -5.025121569633483887e-01 -1.484223157167434692e-01 4.280721545219421387e-01
1.062000000000000000e+03 2.558474731445312500e+01 1.528092575073242188e+01 -3.283682763576507568e-01 -7.538745999336242676e-01 -3.246728479862213135e-01 3.571613729000091553e-01
1.063000000000000000e+03 2.221114349365234375e+01 1.730224037170410156e+01 5.221903324127197266e-02 -5.046932697296142578e-01 -1.357422620058059692e-01 4.749565422534942627e-01
1.064000000000000000e+03 2.756952667236328125e+01 7.815392017364501953e+00 1.876798421144485474e-01 -2.424539625644683838e-01 -1.643223688006401062e-02 4.346009790897369385e-01
1.065000000000000000e+03 2.722341728210449219e+01 8.971837997436523438e+00 8.735148608684539795e-02 -2.986343801021575928e-01 -6.338486820459365845e-02 5.016356706619262695e-01
1.066000000000000000e+03 1.252116966247558594e+01 2.123942375183105469e+00 -3.201043009757995605e-01 -3.154587149620056152e-01 -1.906688958406448364e-01 3.008641302585601807e-01
1.067000000000000000e+03 1.728933143615722656e+01 1.372631549835205078e+00 -3.457329571247100830e-01 -6.425542831420898438e-01 -2.964861690998077393e-01 6.208947896957397461e-01
1.068000000000000000e+03 2.075707244873046875e+01 -1.201025485992431641e+00 -6.072117090225219727e-01 -3.360653519630432129e-01 -2.829831242561340332e-01 4.708184003829956055e-01
1.069000000000000000e+03 1.316685390472412109e+01 8.554205894470214844e+00 -4.457282423973083496e-01 -6.145421862602233887e-01 -3.180811107158660889e-01 5.170577764511108398e-01
1.070000000000000000e+03 1.437988185882568359e+01 9.627702713012695312e+00 -4.079975560307502747e-02 -1.015226244926452637e+00 -3.168078064918518066e-01 2.361977398395538330e-01
1.071000000000000000e+03 1.154629325866699219e+01 -1.162003707885742188e+01 -2.746181235124822706e-05 -2.317877442692406476e-05 -1.519217585155274719e-05 -2.132382542185951024e-05
1.072000000000000000e+03 3.134642362594604492e+00 -1.324385833740234375e+01 -8.123695442918688059e-05 -3.561398989404551685e-05 -3.505528366076759994e-05 -2.491758641554042697e-05
1.073000000000000000e+03 6.797832489013671875e+00 -1.311772251129150391e+01 -1.261107681784778833e-04 -5.852071990375407040e-05 -5.538944606087170541e-05 7.260531219799304381e-06
1.074000000000000000e+03 5.546524810791015625e+01 1.216274547576904297e+01 9.360063821077346802e-02 1.125852823257446289e+00 3.658360242843627930e-01 9.614653885364532471e-02
1.075000000000000000e+03 5.686117553710937500e+01 2.102165603637695312e+01 4.569163322448730469e-01 1.277253031730651855e+00 5.202507972717285156e-01 -4.082634449005126953e-01
1.076000000000000000e+03 1.249234390258789062e+01 -9.486355781555175781e+00 -7.896299939602613449e-05 -5.610003427136689425e-06 -2.537190084694884717e-05 -9.786378541321028024e-06
1.077000000000000000e+03 4.308491897583007812e+01 1.049073600769042969e+01 -2.022592276334762573e-01 1.084927320480346680e-01 -2.812995016574859619e-02 1.978757977485656738e-01
1.078000000000000000e+03 9.505625724792480469e+00 -1.535512256622314453e+01 -2.371305308770388365e-04 -2.325613422726746649e-05 -7.811599789420142770e-05 -9.112994302995502949e-05
1.079000000000000000e+03 9.347258567810058594e+00 -1.747540473937988281e+01 -8.895932114683091640e-05 -1.217404351336881518e-04 -6.320992542896419764e-05 -9.468738426221534610e-05
1.080000000000000000e+03 4.586194610595703125e+01 1.811688232421875000e+01 7.453824877738952637e-01 4.061142802238464355e-01 3.454490303993225098e-01 4.846986830234527588e-01
1.081000000000000000e+03 1.459761714935302734e+01 -1.129860877990722656e+01 1.292531487706582993e-05 3.023976751137524843e-05 1.294952471653232351e-05 2.296245838806498796e-05
1.082000000000000000e+03 5.987332534790039062e+01 -2.439054489135742188e+01 -2.220184087753295898e+00 -1.831118106842041016e+00 -1.215390682220458984e+00 -1.924161076545715332e+00
1.083000000000000000e+03 4.468114852905273438e+01 -3.182862281799316406e+01 -2.728928327560424805e-01 -7.868381589651107788e-02 -1.054729968309402466e-01 -1.501716822385787964e-01
1.084000000000000000e+03 4.875648117065429688e+01 -3.061974334716796875e+01 -8.474156260490417480e-01 -2.361595779657363892e-01 -3.250725567340850830e-01 -4.243587553501129150e-01
1.085000000000000000e+03 3.706970977783203125e+01 -3.451679229736328125e+01 8.648180519230663776e-04 -1.214955560863018036e-02 -3.385421121492981911e-03 -1.381875853985548019e-02
1.086000000000000000e+03 4.659494018554687500e+01 -3.286077880859375000e+01 -3.012266457080841064e-01 -2.449983954429626465e-01 -1.638675034046173096e-01 -3.376873433589935303e-01
1.087000000000000000e+03 1.095896911621093750e+01 -1.957387924194335938e+01 -1.248321641469374299e-04 -1.068745841621421278e-04 -6.951202522031962872e-05 -8.563275332562625408e-05
1.088000000000000000e+03 4.927649307250976562e+01 -3.205028915405273438e+01 -4.678242206573486328e-01 -4.126581549644470215e-01 -2.641447186470031738e-01 -5.020772814750671387e-01
1.089000000000000000e+03 1.198243999481201172e+01 -2.056703758239746094e+01 1.383619819534942508e-04 1.036993417073972523e-04 7.261840073624625802e-05 1.171370677184313536e-04
1.090000000000000000e+03 1.677929687500000000e+01 -6.981979370117187500e+00 2.868684168788604438e-05 -5.454755296341318171e-07 8.442410035058856010e-06 1.148895080405054614e-05
1.091000000000000000e+03 1.433683490753173828e+01 -1.223001289367675781e+01 -7.454897854586306494e-07 -4.620398158294847235e-06 -1.609766400179069024e-06 -2.804235236908425577e-06
1.092000000000000000e+03 2.767631721496582031e+01 -3.069096946716308594e+01 1.406906265765428543e-02 1.678570639342069626e-03 4.724289756268262863e-03 -2.915881341323256493e-03
1.093000000000000000e+03 7.664659881591796875e+01 -3.701747894287109375e+01 8.721697144210338593e-03 7.554434776306152344e+00 2.268946886062622070e+00 3.976109325885772705e-01
1.094000000000000000e+03 7.928112030029296875e+01 -3.469124984741210938e+01 -3.741927677765488625e-03 8.859468460083007812e+00 2.656718015670776367e+00 1.286886483430862427e-01
1.095000000000000000e+03 7.937033081054687500e+01 -2.776515007019042969e+01 -5.837346427142620087e-03 1.033259105682373047e+01 3.098026275634765625e+00 1.483598649501800537e-01
1.096000000000000000e+03 7.949008178710937500e+01 -2.085859107971191406e+01 -4.708689823746681213e-02 1.220162200927734375e+01 3.646360635757446289e+00 5.107363685965538025e-02
1.097000000000000000e+03 7.810699462890625000e+01 -2.754150199890136719e+01 1.589398086071014404e-02 9.438891410827636719e+00 2.836435556411743164e+00 4.213311970233917236e-01
1.098000000000000000e+03 7.819433593750000000e+01 -2.617138099670410156e+01 1.519491896033287048e-03 9.777124404907226562e+00 2.933593273162841797e+00 4.383616447448730469e-01
1.099000000000000000e+03 7.931975555419921875e+01 -3.053549194335937500e+01 -1.091399043798446655e-02 9.661862373352050781e+00 2.895284414291381836e+00 1.377161443233489990e-01
1.100000000000000000e+03 7.781404876708984375e+01 -3.442095184326171875e+01 5.534367635846138000e-03 8.245096206665039062e+00 2.475189208984375000e+00 2.993659973144531250e-01
1.101000000000000000e+03 7.782599639892578125e+01 -3.303836441040039062e+01 2.867111749947071075e-02 8.368726730346679688e+00 2.519219160079956055e+00 3.484622538089752197e-01
1.102000000000000000e+03 7.298181152343750000e+01 -3.589789962768554688e+01 3.189127445220947266e-01 5.487457275390625000e+00 1.741910934448242188e+00 4.752057492733001709e-01
1.103000000000000000e+03 7.748633575439453125e+01 -3.807054901123046875e+01 -3.951240703463554382e-02 7.691020488739013672e+00 2.295452356338500977e+00 3.318995535373687744e-01
1.104000000000000000e+03 7.655307769775390625e+01 -3.905172348022460938e+01 5.507005378603935242e-02 7.556571960449218750e+00 2.283492565155029297e+00 2.274270802736282349e-01
1.105000000000000000e+03 7.799604034423828125e+01 2.198406982421875000e+01 1.706334203481674194e-02 4.714972019195556641e+00 1.419610619544982910e+00 -1.789468377828598022e-01
1.106000000000000000e+03 7.808812713623046875e+01 1.505285358428955078e+01 2.273161523044109344e-02 5.505780696868896484e+00 1.658553600311279297e+00 -2.996884584426879883e-01
1.107000000000000000e+03 7.764650726318359375e+01 3.184310722351074219e+01 1.140527520328760147e-02 4.103474140167236328e+00 1.234463810920715332e+00 -8.866207301616668701e-02
1.108000000000000000e+03 7.756008911132812500e+01 3.335134124755859375e+01 9.067650884389877319e-03 4.049371242523193359e+00 1.217531681060791016e+00 -7.625387609004974365e-02
1.109000000000000000e+03 7.928546142578125000e+01 2.776741790771484375e+01 -6.514105480164289474e-04 4.439877986907958984e+00 1.331767916679382324e+00 -4.181613773107528687e-02
1.110000000000000000e+03 7.789905548095703125e+01 2.615284156799316406e+01 1.056981366127729416e-02 4.402635097503662109e+00 1.323961496353149414e+00 -1.354148536920547485e-01
1.111000000000000000e+03 7.793350219726562500e+01 2.476044082641601562e+01 1.504626777023077011e-02 4.496180534362792969e+00 1.353368043899536133e+00 -1.483847945928573608e-01
1.112000000000000000e+03 7.931327056884765625e+01 2.497826194763183594e+01 -2.073832911264616996e-05 4.625790596008300781e+00 1.387730956077575684e+00 -4.985057562589645386e-02
1.113000000000000000e+03 7.804541778564453125e+01 1.920714378356933594e+01 2.118836157023906708e-02 4.983292579650878906e+00 1.501344323158264160e+00 -2.171506434679031372e-01
1.114000000000000000e+03 7.935541534423828125e+01 1.801682662963867188e+01 7.190440315753221512e-03 5.314532279968261719e+00 1.596516847610473633e+00 -7.999500632286071777e-02
1.115000000000000000e+03 7.806510925292968750e+01 1.782030296325683594e+01 1.783428341150283813e-02 5.139452934265136719e+00 1.547186136245727539e+00 -2.405299991369247437e-01
1.116000000000000000e+03 7.809214782714843750e+01 1.367620944976806641e+01 3.414092212915420532e-02 5.718181610107421875e+00 1.725696802139282227e+00 -3.350321650505065918e-01
1.117000000000000000e+03 7.682328033447265625e+01 1.215150547027587891e+01 8.833158016204833984e-02 5.622067928314208984e+00 1.713119864463806152e+00 -5.921276211738586426e-01
1.118000000000000000e+03 7.808268737792968750e+01 9.536982536315917969e+00 3.733854368329048157e-02 6.510190010070800781e+00 1.964258551597595215e+00 -4.770085811614990234e-01
1.119000000000000000e+03 7.949800109863281250e+01 -1.946198463439941406e+01 -2.862599119544029236e-02 1.235004997253417969e+01 3.696427106857299805e+00 -5.575409531593322754e-02
1.120000000000000000e+03 7.954854583740234375e+01 -1.410644817352294922e+01 -6.970836967229843140e-02 5.501355171203613281e+00 1.629493951797485352e+00 -1.188341259956359863e+00
1.121000000000000000e+03 7.928966522216796875e+01 -1.319294834136962891e+01 4.351402223110198975e-01 4.618485450744628906e+00 1.516087651252746582e+00 -1.476569771766662598e+00
1.122000000000000000e+03 7.960197448730468750e+01 -1.234712982177734375e+01 4.426117539405822754e-01 2.272183418273925781e+00 8.144385814666748047e-01 -8.703117817640304565e-02
1.123000000000000000e+03 7.959970855712890625e+01 -9.745965957641601562e+00 -3.405254334211349487e-02 7.400379180908203125e+00 2.209897994995117188e+00 1.218623042106628418e+00
1.124000000000000000e+03 7.926560211181640625e+01 2.916712379455566406e+01 4.721720237284898758e-03 4.362227439880371094e+00 1.310084700584411621e+00 -3.712693974375724792e-02
1.125000000000000000e+03 7.773117828369140625e+01 3.038567924499511719e+01 1.461022906005382538e-02 4.169744491577148438e+00 1.255306482315063477e+00 -9.940776228904724121e-02
1.126000000000000000e+03 7.808542633056640625e+01 8.156354904174804688e+00 4.960918053984642029e-02 6.835000991821289062e+00 2.065382957458496094e+00 -5.299718976020812988e-01
1.127000000000000000e+03 7.821673583984375000e+01 1.205871224403381348e+00 -1.115428283810615540e-03 9.039427757263183594e+00 2.711493730545043945e+00 -7.256466746330261230e-01
1.128000000000000000e+03 7.376729583740234375e+01 3.724667358398437500e+01 6.194482371211051941e-02 3.596434831619262695e+00 1.097513914108276367e+00 -9.074699133634567261e-02
1.129000000000000000e+03 7.919317626953125000e+01 3.483879852294921875e+01 3.981488756835460663e-03 4.136599063873291016e+00 1.242174148559570312e+00 -2.778511494398117065e-02
1.130000000000000000e+03 7.808506011962890625e+01 1.091818714141845703e+01 4.256223142147064209e-02 6.217244625091552734e+00 1.877942085266113281e+00 -4.236806929111480713e-01
1.131000000000000000e+03 7.701069641113281250e+01 1.102215409278869629e+00 3.045371919870376587e-02 8.090172767639160156e+00 2.436187744140625000e+00 -1.107792019844055176e+00
1.132000000000000000e+03 7.937765502929687500e+01 4.113790988922119141e+00 1.094564795494079590e-02 8.735099792480468750e+00 2.623813629150390625e+00 -2.354150861501693726e-01
1.133000000000000000e+03 7.812995910644531250e+01 3.989725828170776367e+00 2.903862670063972473e-02 8.039303779602050781e+00 2.420502662658691406e+00 -6.850436329841613770e-01
1.134000000000000000e+03 7.827986145019531250e+01 -1.687212139368057251e-01 -1.210546586662530899e-02 9.582504272460937500e+00 2.871119499206542969e+00 -7.097494602203369141e-01
1.135000000000000000e+03 7.949058532714843750e+01 -4.186935424804687500e+00 -1.213140878826379776e-02 1.226975631713867188e+01 3.677287340164184570e+00 -8.286195993423461914e-02
1.136000000000000000e+03 7.845365142822265625e+01 -4.186741352081298828e+00 -1.749449223279953003e-01 1.105566310882568359e+01 3.264215469360351562e+00 -3.363118469715118408e-01
1.137000000000000000e+03 7.959975433349609375e+01 -1.670124244689941406e+01 -6.914969533681869507e-02 1.124899768829345703e+01 3.353954315185546875e+00 -4.766593277454376221e-01
1.138000000000000000e+03 7.950423431396484375e+01 -8.382069587707519531e+00 -1.829605698585510254e-01 1.063952541351318359e+01 3.136969566345214844e+00 8.256248235702514648e-01
1.139000000000000000e+03 2.831836700439453125e+01 -3.255475616455078125e+01 1.390302926301956177e-02 1.236807383975246921e-05 4.174618981778621674e-03 3.213232615962624550e-03
1.140000000000000000e+03 6.280733108520507812e+01 -2.342584419250488281e+01 -1.405449151992797852e+00 -1.383052468299865723e+00 -8.365505337715148926e-01 -1.270436763763427734e+00
1.141000000000000000e+03 5.396455764770507812e+01 -2.835667419433593750e+01 -1.630505919456481934e+00 -6.511666178703308105e-01 -6.845017671585083008e-01 -1.012382388114929199e+00
1.142000000000000000e+03 5.472905349731445312e+01 -2.982486724853515625e+01 -9.296138286590576172e-01 -8.442809581756591797e-01 -5.321684479713439941e-01 -9.313243627548217773e-01
1.143000000000000000e+03 6.696083068847656250e+01 -1.792350578308105469e+01 -1.106102228164672852e+00 -1.061908602714538574e+00 -6.504032611846923828e-01 -1.041555523872375488e+00
1.144000000000000000e+03 1.584513378143310547e+01 -1.176100730895996094e+01 -9.935994967236183584e-06 -2.110213245032355189e-05 -9.311438589065801352e-06 -1.141809480031952262e-05
1.145000000000000000e+03 4.792672729492187500e+01 -3.256746673583984375e+01 -3.623447418212890625e-01 -3.268331587314605713e-01 -2.067533731460571289e-01 -4.346349537372589111e-01
1.146000000000000000e+03 6.623780822753906250e+01 -1.898614311218261719e+01 -1.160596132278442383e+00 -1.279063463211059570e+00 -7.318978905677795410e-01 -1.102784156799316406e+00
1.147000000000000000e+03 5.201589202880859375e+01 -3.104484558105468750e+01 -7.088494300842285156e-01 -6.318542957305908203e-01 -4.022111296653747559e-01 -7.123504877090454102e-01
1.148000000000000000e+03 1.783539772033691406e+01 -2.841798973083496094e+01 1.391210244037210941e-03 -3.791874405578710139e-05 4.059874336235225201e-04 1.599814131623134017e-04
1.149000000000000000e+03 1.782825660705566406e+01 -2.483133888244628906e+01 6.400240235961973667e-04 1.566190039739012718e-04 2.389929140917956829e-04 -2.732118900894420221e-06
1.150000000000000000e+03 2.562171173095703125e+01 -3.141732597351074219e+01 9.003165178000926971e-03 -5.962057621218264103e-04 2.522087888792157173e-03 9.618410840630531311e-04
1.151000000000000000e+03 6.473097991943359375e+01 -2.333455276489257812e+01 -9.057191014289855957e-01 -5.408269166946411133e-01 -4.339638054370880127e-01 -6.871734261512756348e-01
1.152000000000000000e+03 6.368668746948242188e+01 -2.029072189331054688e+01 -1.633957624435424805e+00 -2.113218307495117188e+00 -1.124152779579162598e+00 -1.857434630393981934e+00
1.153000000000000000e+03 4.198353195190429688e+01 -3.228121566772460938e+01 -7.475207746028900146e-02 -2.376470901072025299e-02 -2.955503761768341064e-02 -5.122841149568557739e-02
1.154000000000000000e+03 1.916892051696777344e+01 -1.193808841705322266e+01 7.873918548284564167e-06 -1.320002047577872872e-05 -1.597830646460352000e-06 -5.785827852378133684e-06
1.155000000000000000e+03 2.022617340087890625e+01 -1.041691780090332031e+01 2.955576019303407520e-05 -6.326379661913961172e-06 6.968813977437093854e-06 5.930471161263994873e-06
1.156000000000000000e+03 3.271137619018554688e+01 -3.409850311279296875e+01 1.453774794936180115e-02 -1.066219294443726540e-03 4.041458480060100555e-03 3.253802657127380371e-03
1.157000000000000000e+03 6.545731353759765625e+01 -2.010131263732910156e+01 -1.168673276901245117e+00 -1.347151637077331543e+00 -7.547474503517150879e-01 -1.179425835609436035e+00
1.158000000000000000e+03 6.766089630126953125e+01 -1.534921264648437500e+01 -8.729877471923828125e-01 -1.214901328086853027e+00 -6.263666749000549316e-01 -1.082450389862060547e+00
1.159000000000000000e+03 4.440518188476562500e+01 -3.438262176513671875e+01 -1.292990148067474365e-01 -1.835228502750396729e-01 -9.384655952453613281e-02 -2.413143664598464966e-01
1.160000000000000000e+03 3.432572174072265625e+01 -3.423390579223632812e+01 1.364399958401918411e-02 -1.740165520459413528e-03 3.571150358766317368e-03 -2.415239396214019507e-05
1.161000000000000000e+03 5.338740921020507812e+01 -3.048576354980468750e+01 -8.323880434036254883e-01 -7.158190608024597168e-01 -4.644621312618255615e-01 -8.270563483238220215e-01
1.162000000000000000e+03 6.461620330810546875e+01 -2.122449684143066406e+01 -1.215697169303894043e+00 -1.369750022888183594e+00 -7.756341695785522461e-01 -1.271993398666381836e+00
1.163000000000000000e+03 2.288737487792968750e+01 -3.013474464416503906e+01 4.912235774099826813e-03 -1.594549539731815457e-04 1.425834256224334240e-03 2.108611370204016566e-04
1.164000000000000000e+03 2.063309097290039062e+01 -2.856243705749511719e+01 2.562116365879774094e-03 2.061664999928325415e-04 8.304848452098667622e-04 -1.907955629576463252e-05
1.165000000000000000e+03 5.063554382324218750e+01 -3.152367782592773438e+01 -5.950250029563903809e-01 -5.267156958580017090e-01 -3.365222215652465820e-01 -6.101013422012329102e-01
1.166000000000000000e+03 5.973131561279296875e+01 -2.635466003417968750e+01 -1.418243050575256348e+00 -1.330773949623107910e+00 -8.247051239013671875e-01 -1.202735066413879395e+00
1.167000000000000000e+03 3.577740478515625000e+01 -3.418621063232421875e+01 1.360361929982900620e-02 -3.448949428275227547e-03 3.046400845050811768e-03 -2.698176074773073196e-03
1.168000000000000000e+03 6.373336029052734375e+01 -2.233721351623535156e+01 -1.313208222389221191e+00 -1.349481225013732910e+00 -7.988067865371704102e-01 -1.287745356559753418e+00
1.169000000000000000e+03 1.593697643280029297e+01 -2.277858924865722656e+01 2.661609614733606577e-04 6.731892062816768885e-05 1.000439660856500268e-04 1.082344097085297108e-04
1.170000000000000000e+03 1.385121536254882812e+01 -2.253456687927246094e+01 2.684290811885148287e-04 7.268121407832950354e-05 1.023330914904363453e-04 8.186738705262541771e-05
1.171000000000000000e+03 4.584613037109375000e+01 4.320791721343994141e+00 -1.983930021524429321e-01 -1.531285643577575684e-01 -1.054564639925956726e-01 3.323600292205810547e-01
1.172000000000000000e+03 4.483525466918945312e+01 5.626081943511962891e+00 -3.315534591674804688e-01 -1.377837955951690674e-01 -1.408011764287948608e-01 2.556939125061035156e-01
1.173000000000000000e+03 6.203926467895507812e+01 -6.760055541992187500e+00 -3.675851345062255859e+00 -2.590463161468505859e-01 -1.180469274520874023e+00 -7.977568507194519043e-01
1.174000000000000000e+03 6.081040573120117188e+01 -7.452845573425292969e+00 -2.896893501281738281e+00 -3.058318793773651123e-01 -9.608175754547119141e-01 -8.335849046707153320e-01
1.175000000000000000e+03 4.875642013549804688e+01 5.081050395965576172e+00 -9.398307651281356812e-02 -1.260401587933301926e-02 -3.197612613439559937e-02 4.325860142707824707e-01
1.176000000000000000e+03 5.171752548217773438e+01 5.402668952941894531e+00 2.289035469293594360e-01 4.418932199478149414e-01 2.012390345335006714e-01 5.115486383438110352e-01
1.177000000000000000e+03 4.756564712524414062e+01 5.904739379882812500e+00 -3.297415375709533691e-01 -1.755244582891464233e-01 -1.515797972679138184e-01 3.477453887462615967e-01
1.178000000000000000e+03 4.174954223632812500e+01 -1.810125541687011719e+01 -3.213171660900115967e-01 1.527573913335800171e-03 -9.593687951564788818e-02 -5.922355875372886658e-02
1.179000000000000000e+03 3.792865371704101562e+01 -1.710600471496582031e+01 -3.074969649314880371e-01 2.335073426365852356e-02 -8.524387329816818237e-02 2.114472724497318268e-02
1.180000000000000000e+03 5.038515472412109375e+01 2.072547149658203125e+01 6.276280879974365234e-01 2.790854871273040771e-01 2.720140516757965088e-01 1.890188781544566154e-03
1.181000000000000000e+03 4.780944061279296875e+01 2.084354400634765625e+01 5.678418278694152832e-01 3.906323611736297607e-01 2.875422537326812744e-01 2.898369729518890381e-01
1.182000000000000000e+03 4.826279830932617188e+01 -1.606655883789062500e+01 -5.070734620094299316e-01 -6.308181583881378174e-02 -1.710465848445892334e-01 -1.799484789371490479e-01
1.183000000000000000e+03 3.915987777709960938e+01 -1.710122108459472656e+01 -3.309989273548126221e-01 2.459140494465827942e-02 -9.192225337028503418e-02 -5.305245285853743553e-04
1.184000000000000000e+03 4.166257095336914062e+01 -1.680132865905761719e+01 -3.887117803096771240e-01 2.512686513364315033e-02 -1.090754717588424683e-01 -3.223906829953193665e-02
1.185000000000000000e+03 5.163750457763671875e+01 2.079789161682128906e+01 6.064156889915466309e-01 4.007693231105804443e-01 3.021554946899414062e-01 -1.456496268510818481e-01
1.186000000000000000e+03 4.416649627685546875e+01 -1.619234657287597656e+01 -4.610969424247741699e-01 1.221060520038008690e-03 -1.379627734422683716e-01 -6.826381385326385498e-02
1.187000000000000000e+03 4.784347915649414062e+01 -1.488174343109130859e+01 -5.833398699760437012e-01 5.302237812429666519e-03 -1.734112948179244995e-01 -1.614067703485488892e-01
1.188000000000000000e+03 5.196654891967773438e+01 -1.425097274780273438e+01 -6.919298768043518066e-01 -1.432383954524993896e-01 -2.505504786968231201e-01 -3.424837887287139893e-01
1.189000000000000000e+03 5.556473541259765625e+01 -1.216588973999023438e+01 -1.002741813659667969e+00 -3.057406246662139893e-01 -3.925447165966033936e-01 -5.404671430587768555e-01
1.190000000000000000e+03 5.261565399169921875e+01 -1.247323799133300781e+01 -8.799823522567749023e-01 -7.401438802480697632e-02 -2.861990332603454590e-01 -3.354710042476654053e-01
1.191000000000000000e+03 3.442743301391601562e+01 -1.735155487060546875e+01 -2.307434231042861938e-01 1.432846020907163620e-02 -6.492448598146438599e-02 5.801441892981529236e-02
1.192000000000000000e+03 4.541359329223632812e+01 -1.580081844329833984e+01 -4.891596436500549316e-01 3.812792245298624039e-03 -1.456040591001510620e-01 -1.077762246131896973e-01
1.193000000000000000e+03 5.206781005859375000e+01 -1.139264202117919922e+01 -9.924002289772033691e-01 1.362917665392160416e-02 -2.936313152313232422e-01 -2.447746247053146362e-01
1.194000000000000000e+03 5.321756362915039062e+01 -1.073456764221191406e+01 -1.095864892005920410e+00 2.216055803000926971e-02 -3.221113085746765137e-01 -3.033516108989715576e-01
1.195000000000000000e+03 4.663920974731445312e+01 -1.536752796173095703e+01 -5.456016063690185547e-01 -6.267178803682327271e-03 -1.655606478452682495e-01 -1.327122747898101807e-01
1.196000000000000000e+03 5.495730209350585938e+01 -1.110648632049560547e+01 -1.162682294845581055e+00 -1.098972484469413757e-01 -3.817738890647888184e-01 -4.771600067615509033e-01
1.197000000000000000e+03 5.611303710937500000e+01 -1.038245773315429688e+01 -1.372274637222290039e+00 -1.765419244766235352e-01 -4.646449685096740723e-01 -5.182001590728759766e-01
1.198000000000000000e+03 4.904065704345703125e+01 -1.434019374847412109e+01 -6.387022733688354492e-01 -2.625117450952529907e-02 -1.994860321283340454e-01 -1.901210695505142212e-01
1.199000000000000000e+03 5.843817138671875000e+01 -8.895937919616699219e+00 -1.920862436294555664e+00 -2.600209414958953857e-01 -6.542649865150451660e-01 -6.835563182830810547e-01
1.200000000000000000e+03 5.379581832885742188e+01 -1.180134201049804688e+01 -1.025500535964965820e+00 -1.185364276170730591e-01 -3.432110846042633057e-01 -3.931961655616760254e-01
1.201000000000000000e+03 4.468382263183593750e+01 1.901710128784179688e+01 5.175082087516784668e-01 6.810933947563171387e-01 3.595804870128631592e-01 4.518325626850128174e-01
1.202000000000000000e+03 4.274572753906250000e+01 1.321702861785888672e+01 6.092823296785354614e-02 9.464420676231384277e-01 3.022111058235168457e-01 2.190455049276351929e-01
1.203000000000000000e+03 4.132064056396484375e+01 1.301407337188720703e+01 1.670558899641036987e-01 6.005721092224121094e-01 2.302883863449096680e-01 4.679862558841705322e-01
1.204000000000000000e+03 4.110802841186523438e+01 1.438930320739746094e+01 3.642490506172180176e-01 5.261172652244567871e-01 2.671099007129669189e-01 4.563667774200439453e-01
1.205000000000000000e+03 5.473341369628906250e+01 1.982441139221191406e+01 4.505478143692016602e-01 9.107905626296997070e-01 4.084015190601348877e-01 -4.096681773662567139e-01
1.206000000000000000e+03 5.390619659423828125e+01 6.822900772094726562e+00 6.390377879142761230e-01 6.411459445953369141e-01 3.840551376342773438e-01 4.862314462661743164e-01
1.207000000000000000e+03 5.498326873779296875e+01 6.857014179229736328e+00 6.009637117385864258e-01 6.477367281913757324e-01 3.746101260185241699e-01 4.029452800750732422e-01
1.208000000000000000e+03 4.644575119018554688e+01 2.119339942932128906e+01 5.149796605110168457e-01 4.808019101619720459e-01 2.987344861030578613e-01 3.184257447719573975e-01
1.209000000000000000e+03 5.323135375976562500e+01 1.902501678466796875e+01 4.210077226161956787e-01 4.697526395320892334e-01 2.672280967235565186e-01 -2.891763448715209961e-01
1.210000000000000000e+03 4.322878646850585938e+01 1.776651000976562500e+01 4.674771428108215332e-01 7.853741049766540527e-01 3.758553564548492432e-01 3.395110368728637695e-01
1.211000000000000000e+03 5.695176315307617188e+01 1.383239078521728516e+01 3.179688155651092529e-01 1.224454522132873535e+00 4.627269804477691650e-01 -2.039015442132949829e-01
1.212000000000000000e+03 4.430527114868164062e+01 8.872179031372070312e+00 -3.583047091960906982e-01 -2.093917876482009888e-01 -1.703089475631713867e-01 3.019214272499084473e-01
1.213000000000000000e+03 5.087810134887695312e+01 2.737670421600341797e+00 -2.421516776084899902e-01 3.023394346237182617e-01 1.805632375180721283e-02 6.225597858428955078e-01
1.214000000000000000e+03 4.483886337280273438e+01 6.635087490081787109e+00 -4.032272994518280029e-01 -1.265441626310348511e-01 -1.589314341545104980e-01 2.470966577529907227e-01
1.215000000000000000e+03 1.330308318138122559e+00 -4.014776611328125000e+01 9.649519051890820265e-05 6.949626258574426174e-04 2.374373434577137232e-04 4.705196988652460277e-05
1.216000000000000000e+03 1.037057876586914062e+00 3.754397201538085938e+01 6.176021415740251541e-04 -1.055541157722473145e+00 -3.164770603179931641e-01 -8.396374178119003773e-04
1.217000000000000000e+03 1.890328288078308105e+00 4.176446533203125000e+01 -3.072012774646282196e-02 -1.013514280319213867e+00 -3.132703304290771484e-01 -8.673763833940029144e-03
1.218000000000000000e+03 7.938076853752136230e-01 3.472880935668945312e+01 -2.997969510033726692e-03 -1.053309917449951172e+00 -3.168923556804656982e-01 4.459294723346829414e-04
1.219000000000000000e+03 7.419231534004211426e-01 3.332593154907226562e+01 4.463220015168190002e-03 -1.050782203674316406e+00 -3.138956725597381592e-01 1.960066147148609161e-03
1.220000000000000000e+03 6.373316645622253418e-01 2.770968055725097656e+01 1.729250885546207428e-03 -1.011116147041320801e+00 -3.028160631656646729e-01 5.612357519567012787e-03
1.221000000000000000e+03 6.364879012107849121e-01 2.630393600463867188e+01 -6.706567946821451187e-04 -9.968771934509277344e-01 -2.992643713951110840e-01 6.522001698613166809e-03
1.222000000000000000e+03 8.734764456748962402e-01 -3.602977752685546875e+01 -1.257820258615538478e-04 4.745593760162591934e-04 1.046332035912200809e-04 4.674719457398168743e-05
1.223000000000000000e+03 2.474866390228271484e+00 -3.299091339111328125e+01 1.431216660421341658e-04 2.773020241875201464e-04 1.261271099792793393e-04 1.611059997230768204e-04
1.224000000000000000e+03 3.240645647048950195e+00 2.513786125183105469e+01 1.187878753989934921e-02 -8.114814758300781250e-01 -2.398808002471923828e-01 4.634932428598403931e-02
1.225000000000000000e+03 3.226669788360595703e+00 2.371289443969726562e+01 1.667720265686511993e-02 -7.879608273506164551e-01 -2.313850820064544678e-01 5.866032093763351440e-02
1.226000000000000000e+03 2.077497720718383789e+00 3.192673492431640625e+01 2.836417173966765404e-03 -9.561451077461242676e-01 -2.859926223754882812e-01 1.424539461731910706e-02
1.227000000000000000e+03 2.240421295166015625e+00 3.330455017089843750e+01 2.862517023459076881e-03 -9.601988792419433594e-01 -2.872008979320526123e-01 1.555220503360033035e-02
1.228000000000000000e+03 3.808340311050415039e+00 3.887802886962890625e+01 1.749423146247863770e-02 -9.131915569305419922e-01 -2.687091827392578125e-01 1.062019914388656616e-02
1.229000000000000000e+03 2.193882703781127930e+00 -3.013239097595214844e+01 1.661101996432989836e-04 1.382761402055621147e-04 9.131590195465832949e-05 1.203639767481945455e-04
1.230000000000000000e+03 2.026917934417724609e+00 -2.731725692749023438e+01 1.628011668799445033e-04 3.641310468083247542e-05 5.976428292342461646e-05 6.855109677417203784e-05
1.231000000000000000e+03 2.597442865371704102e+00 -3.714761352539062500e+01 -1.195502627524547279e-04 4.868410178460180759e-04 1.101872258004732430e-04 1.418979518348351121e-04
1.232000000000000000e+03 1.885022640228271484e+00 -2.174130439758300781e+01 1.284596655750647187e-04 -1.922534102050121874e-05 3.277029827586375177e-05 1.037165839079534635e-05
1.233000000000000000e+03 1.736789822578430176e+00 1.094852447509765625e+01 -3.320210846140980721e-03 -2.993079125881195068e-01 -9.078843891620635986e-02 1.252288818359375000e-01
1.234000000000000000e+03 6.015021800994873047e-01 7.959322452545166016e+00 -5.699539557099342346e-03 -8.386076986789703369e-02 -2.686809375882148743e-02 3.204254806041717529e-02
1.235000000000000000e+03 6.261906027793884277e-01 2.065659332275390625e+01 3.035294124856591225e-03 -8.866438865661621094e-01 -2.650825679302215576e-01 1.982169784605503082e-02
1.236000000000000000e+03 6.212054491043090820e-01 1.923741340637207031e+01 1.220520003698766232e-03 -8.351070284843444824e-01 -2.501659691333770752e-01 2.445545792579650879e-02
1.237000000000000000e+03 6.009768247604370117e-01 1.499776649475097656e+01 5.368817131966352463e-03 -5.947964191436767578e-01 -1.768282800912857056e-01 4.292182251811027527e-02
1.238000000000000000e+03 5.924606323242187500e-01 1.358931827545166016e+01 -2.925150329247117043e-03 -4.897417724132537842e-01 -1.478000730276107788e-01 4.488258063793182373e-02
1.239000000000000000e+03 3.456533193588256836e+00 -3.943635177612304688e+01 -1.100825029425323009e-04 6.482931785285472870e-04 1.614632055861875415e-04 2.197204448748379946e-04
1.240000000000000000e+03 4.160416126251220703e+00 -3.740567398071289062e+01 -7.108906720532104373e-05 6.186824757605791092e-04 1.642780262045562267e-04 1.175990691990591586e-04
1.241000000000000000e+03 2.613247156143188477e+00 -3.444588851928710938e+01 -1.426020899089053273e-04 4.063894739374518394e-04 7.913621084298938513e-05 1.777357101673260331e-04
1.242000000000000000e+03 2.325093746185302734e+00 -3.155075073242187500e+01 -1.191034243674948812e-04 2.255689323646947742e-04 3.193965312675572932e-05 1.242329744854941964e-04
1.243000000000000000e+03 3.346283674240112305e+00 -2.708110046386718750e+01 -9.281489474233239889e-05 8.142200385918840766e-05 -3.417866764721111394e-06 6.933522672625258565e-05
1.244000000000000000e+03 1.920087337493896484e+00 -2.313221549987792969e+01 -1.216460441355593503e-04 -1.260756562260212377e-05 -4.027608156320638955e-05 -1.791720751498360187e-05
1.245000000000000000e+03 1.983500003814697266e+00 -2.592229080200195312e+01 -1.249080523848533630e-04 2.074153417197521776e-05 -3.124995782854966819e-05 1.260148565052077174e-05
1.246000000000000000e+03 3.066660881042480469e+00 -2.022422218322753906e+01 1.199557955260388553e-04 -6.417292752303183079e-06 3.406155155971646309e-05 -3.480587906778964680e-07
1.247000000000000000e+03 6.122703552246093750e-01 -1.910603904724121094e+01 -1.211461349157616496e-04 -2.788481106108520180e-05 -4.470928251976147294e-05 -2.065190528810489923e-05
1.248000000000000000e+03 1.830542445182800293e+00 -1.898410606384277344e+01 1.138426014222204685e-04 -1.946057636814657599e-05 2.831460733432322741e-05 5.595004495262401178e-06
1.249000000000000000e+03 1.871719121932983398e+00 -1.621293258666992188e+01 9.182201029034331441e-05 -1.017579870676854625e-05 2.449386374792084098e-05 1.950801015482284129e-05
1.250000000000000000e+03 5.956965088844299316e-01 -1.205922126770019531e+01 4.178996459813788533e-05 7.597021067340392619e-06 1.481609524489613250e-05 3.882607416016981006e-06
1.251000000000000000e+03 1.777981638908386230e+00 -1.195437431335449219e+01 -6.524148921016603708e-05 -4.668516794481547549e-06 -2.097300239256583154e-05 -8.438923941866960377e-06
1.252000000000000000e+03 5.017756938934326172e+00 -3.392785310745239258e+00 -3.591993299778550863e-05 -5.657395377056673169e-06 -1.247319869435159490e-05 -1.182011510536540300e-05
1.253000000000000000e+03 2.138847827911376953e+00 -3.249595642089843750e+00 -2.436973773001227528e-06 7.496348189306445420e-06 1.517812279416830279e-06 1.068898018274921924e-05
1.254000000000000000e+03 1.335344076156616211e+00 -3.530546426773071289e+00 -2.505088014004286379e-05 -4.487996250190917635e-07 -7.649903636774979532e-06 -7.335587270063115284e-06
1.255000000000000000e+03 6.099159121513366699e-01 4.996924400329589844e+00 -6.868100259453058243e-03 1.107069011777639389e-02 1.260776887647807598e-03 1.255108322948217392e-02
1.256000000000000000e+03 3.723704099655151367e+00 4.293035507202148438e+00 -7.000076025724411011e-02 -4.646207764744758606e-02 -3.493885323405265808e-02 5.268231034278869629e-02
1.257000000000000000e+03 5.803637504577636719e-01 1.077637481689453125e+01 -5.223064217716455460e-03 -2.691582441329956055e-01 -8.231438696384429932e-02 4.371538385748863220e-02
1.258000000000000000e+03 1.780331969261169434e+00 1.372188186645507812e+01 8.451710455119609833e-03 -4.781026542186737061e-01 -1.408952772617340088e-01 1.293939054012298584e-01
1.259000000000000000e+03 1.866623282432556152e+00 1.934799385070800781e+01 1.387646794319152832e-02 -7.586854696273803711e-01 -2.234426885843276978e-01 7.343801110982894897e-02
1.260000000000000000e+03 7.445458984375000000e+01 -1.041475296020507812e+01 1.096938252449035645e+00 5.146332263946533203e+00 1.872981190681457520e+00 -3.883950710296630859e+00
1.261000000000000000e+03 7.317345428466796875e+01 -9.928906440734863281e+00 4.348934888839721680e-01 2.455200672149658203e+00 8.670282363891601562e-01 -1.421292901039123535e+00
1.262000000000000000e+03 7.231507873535156250e+01 -1.447776794433593750e+01 -8.122091740369796753e-02 1.228806495666503906e+00 3.442756533622741699e-01 3.761119842529296875e-01
1.263000000000000000e+03 7.335710144042968750e+01 -1.399376010894775391e+01 3.319626450538635254e-01 1.603032946586608887e+00 5.804986953735351562e-01 1.453903079032897949e+00
1.264000000000000000e+03 7.446813964843750000e+01 -1.427506637573242188e+01 7.286522984504699707e-01 5.898697853088378906e+00 1.988205075263977051e+00 4.019832134246826172e+00
1.265000000000000000e+03 7.276165008544921875e+01 -1.497034168243408203e+01 3.174504041671752930e-01 2.232141494750976562e+00 7.648775577545166016e-01 1.146434903144836426e+00
1.266000000000000000e+03 7.559553527832031250e+01 -1.395880985260009766e+01 -8.622399568557739258e-01 1.490342235565185547e+01 4.212354660034179688e+00 5.324378967285156250e+00
1.267000000000000000e+03 7.497988128662109375e+01 -1.391158866882324219e+01 7.561824917793273926e-01 8.816326141357421875e+00 2.871752738952636719e+00 5.537090301513671875e+00
1.268000000000000000e+03 7.588254547119140625e+01 -1.429735088348388672e+01 -1.855386972427368164e+00 1.576300716400146484e+01 4.172286033630371094e+00 3.434930086135864258e+00
1.269000000000000000e+03 7.523748016357421875e+01 -1.016350841522216797e+01 -4.382298588752746582e-01 1.112086868286132812e+01 3.204791545867919922e+00 -4.667562007904052734e+00
1.270000000000000000e+03 7.631833648681640625e+01 -1.425438404083251953e+01 -2.289819002151489258e+00 1.799013710021972656e+01 4.710095405578613281e+00 1.430468559265136719e+00
1.271000000000000000e+03 7.771359252929687500e+01 -1.234062099456787109e+01 6.299795627593994141e+00 1.354016017913818359e+01 5.951986789703369141e+00 -5.682923793792724609e-01
1.272000000000000000e+03 7.715930175781250000e+01 -1.394024753570556641e+01 -6.304781436920166016e-01 1.752522277832031250e+01 5.068423271179199219e+00 -2.756191015243530273e+00
1.273000000000000000e+03 7.735643005371093750e+01 -1.378380489349365234e+01 2.583325803279876709e-01 1.707352638244628906e+01 5.199557781219482422e+00 -3.343893289566040039e+00
1.274000000000000000e+03 7.760325622558593750e+01 -1.118393421173095703e+01 2.241750717163085938e+00 1.538976669311523438e+01 5.289454936981201172e+00 3.702814340591430664e+00
1.275000000000000000e+03 7.619742584228515625e+01 -1.060093212127685547e+01 -1.771219134330749512e+00 1.951154136657714844e+01 5.322096824645996094e+00 -2.064810752868652344e+00
1.276000000000000000e+03 7.618074035644531250e+01 -1.026920795440673828e+01 -2.118381023406982422e+00 1.747829437255859375e+01 4.607974052429199219e+00 -2.121280670166015625e+00
1.277000000000000000e+03 7.178314208984375000e+01 -9.875166893005371094e+00 -3.836270570755004883e-01 8.853240609169006348e-01 1.505091041326522827e-01 2.115212529897689819e-01
1.278000000000000000e+03 7.327232360839843750e+01 -1.024460124969482422e+01 3.551928699016571045e-01 1.994092702865600586e+00 7.047856450080871582e-01 -1.358027577400207520e+00
1.279000000000000000e+03 1.947078132629394531e+01 -9.294385910034179688e+00 2.802777453325688839e-05 -1.549402782075048890e-06 7.943511263874825090e-06 3.197778596586431377e-06
1.280000000000000000e+03 1.907382011413574219e+01 -8.734716415405273438e+00 -2.596701051515992731e-05 -1.301945502518719877e-07 -7.829161404515616596e-06 -4.293486654205480590e-06
1.281000000000000000e+03 6.913383483886718750e+01 -1.494693183898925781e+01 -7.613315582275390625e-01 2.988799009472131729e-03 -2.275028377771377563e-01 -1.029798984527587891e+00
1.282000000000000000e+03 2.797088241577148438e+01 -1.057211780548095703e+01 -3.364579081535339355e-01 -6.963292509317398071e-02 -1.218272447586059570e-01 2.625980973243713379e-01
1.283000000000000000e+03 1.826290512084960938e+01 -7.607558250427246094e+00 -2.293073885084595531e-05 -3.409931196074467152e-06 -7.902201105025596917e-06 -6.461064913310110569e-06
1.284000000000000000e+03 1.844865036010742188e+01 -9.178353309631347656e+00 2.981884426844771951e-05 -2.716129301916225813e-06 8.130814421747345477e-06 3.500383854770916514e-06
1.285000000000000000e+03 1.729183006286621094e+01 -6.447953224182128906e+00 -2.321059946552850306e-05 -1.487418330725631677e-06 -7.409405498037813231e-06 -8.433649782091379166e-06
1.286000000000000000e+03 1.724494171142578125e+01 -1.118018913269042969e+01 -1.019698538584634662e-05 -2.060104452539235353e-05 -9.239409337169490755e-06 -1.612841697351541370e-05
1.287000000000000000e+03 1.607163429260253906e+01 -5.432465076446533203e+00 -2.909350951085798442e-05 -2.118280917784431949e-06 -9.363537174067460001e-06 -8.213040018745232373e-06
1.288000000000000000e+03 1.748350334167480469e+01 -1.028570079803466797e+01 2.378282260906416923e-05 8.077414349827449769e-06 9.558070814819075167e-06 1.848015745053999126e-05
1.289000000000000000e+03 1.494654464721679688e+01 -5.750217437744140625e+00 -3.298794763395562768e-05 -2.967806949527584948e-06 -1.078672630683286116e-05 -7.768164323351811618e-06
1.290000000000000000e+03 1.394463920593261719e+01 -4.210354804992675781e+00 2.200914786953944713e-05 1.545630766486283392e-05 1.123963647842174396e-05 1.353753646071709227e-06
1.291000000000000000e+03 2.689406967163085938e+01 -1.019941997528076172e+01 -3.309789896011352539e-01 -1.185679808259010315e-01 -1.348640918731689453e-01 2.819849848747253418e-01
1.292000000000000000e+03 2.756944084167480469e+01 -1.158126163482666016e+01 -2.752901315689086914e-01 -9.331589192152023315e-02 -1.105818077921867371e-01 2.386518567800521851e-01
1.293000000000000000e+03 1.930500602722167969e+01 -1.120507144927978516e+01 8.831770173856057227e-06 1.177301692223409191e-05 6.181436219776514918e-06 1.785032691259402782e-05
1.294000000000000000e+03 2.002970504760742188e+01 -1.192436885833740234e+01 -2.215324821008834988e-05 4.931835974275600165e-06 -5.166423761693295091e-06 -6.419626515707932413e-06
1.295000000000000000e+03 7.040089416503906250e+01 -8.823842048645019531e+00 -9.946383833885192871e-01 6.483612060546875000e-01 -1.038831621408462524e-01 7.085876464843750000e-01
1.296000000000000000e+03 7.097847747802734375e+01 -8.340077400207519531e+00 -1.230599641799926758e+00 1.403419375419616699e+00 5.184594541788101196e-02 1.339048594236373901e-01
1.297000000000000000e+03 2.110352706909179688e+01 -1.234957218170166016e+01 -1.935475302161648870e-05 -5.718100055673858151e-07 -5.977969067316735163e-06 -5.550881269300589338e-06
1.298000000000000000e+03 7.140660095214843750e+01 -8.896231651306152344e+00 -5.522735118865966797e-01 1.378036856651306152e+00 2.477289885282516479e-01 1.323751509189605713e-01
1.299000000000000000e+03 6.955504608154296875e+01 -1.401598834991455078e+01 -9.616363048553466797e-01 1.080243587493896484e-01 -2.560835778713226318e-01 -1.020763635635375977e+00
1.300000000000000000e+03 3.705313205718994141e+00 -3.463728666305541992e+00 -1.464296474296133965e-05 -1.461537613067775965e-05 -8.777502443990670145e-06 -1.942315248015802354e-05
1.301000000000000000e+03 2.851505041122436523e+00 -2.905062913894653320e+00 -9.427617442270275205e-06 -3.589837660911143757e-06 -3.905236553691793233e-06 -9.439082532480824739e-06
1.302000000000000000e+03 2.448097705841064453e+00 -5.021500110626220703e+00 -4.604579225997440517e-05 -3.484766466499422677e-06 -1.485916709498269483e-05 -1.019789033307461068e-05
1.303000000000000000e+03 7.131172657012939453e+00 -2.581167697906494141e+00 -1.219246951222885400e-05 -1.873915243777446449e-05 -9.279487130697816610e-06 -2.098105869663413614e-05
1.304000000000000000e+03 5.014336109161376953e+00 -4.226458072662353516e+00 4.537255881587043405e-05 3.609299710660707206e-06 1.469455764890881255e-05 1.111684650823008269e-05
1.305000000000000000e+03 1.483627557754516602e+00 -4.974221229553222656e+00 3.736000871867872775e-05 1.589299699844559655e-06 1.168479229818331078e-05 8.405702828895300627e-06
1.306000000000000000e+03 7.788234233856201172e+00 -3.323929786682128906e+00 -1.595173853274900466e-05 -2.057003439404070377e-05 -1.095653260563267395e-05 -2.442883851472288370e-05
1.307000000000000000e+03 5.710725307464599609e+00 -3.366792678833007812e+00 3.381631540833041072e-05 7.636121154064312577e-06 1.243573024112265557e-05 2.086985114146955311e-05
1.308000000000000000e+03 8.361217498779296875e+00 -4.088355064392089844e+00 -2.962269900308456272e-05 -1.371273356198798865e-05 -1.300062922382494435e-05 -2.812577986333053559e-05
1.309000000000000000e+03 6.405907630920410156e+00 -3.331829309463500977e+00 -2.344041422475129366e-05 -1.517337386758299544e-05 -1.158413670054869726e-05 -2.533995575504377484e-05
1.310000000000000000e+03 6.762844848632812500e+01 -1.705124092102050781e+01 -1.036683320999145508e+00 -6.544098854064941406e-01 -5.073279142379760742e-01 -1.001403689384460449e+00
1.311000000000000000e+03 2.524762725830078125e+01 -7.442675113677978516e+00 -4.729663133621215820e-01 -1.870304197072982788e-01 -1.979990154504776001e-01 3.633112311363220215e-01
1.312000000000000000e+03 2.337996482849121094e+01 -5.789355754852294922e+00 -5.862259864807128906e-01 -3.202651441097259521e-01 -2.719473540782928467e-01 4.433350265026092529e-01
1.313000000000000000e+03 2.613697624206542969e+01 -8.781364440917968750e+00 -3.997586965560913086e-01 -1.503111720085144043e-01 -1.650209575891494751e-01 3.246723711490631104e-01
1.314000000000000000e+03 2.078263473510742188e+01 -1.420073795318603516e+01 2.942358378277276643e-06 7.814962259544699918e-07 1.117156443797284737e-06 -1.569748519614222459e-06
1.315000000000000000e+03 1.990984725952148438e+01 -1.315867710113525391e+01 1.776857970980927348e-06 -9.039817086886614561e-06 -2.178887598347500898e-06 3.809100235230289400e-06
1.316000000000000000e+03 3.666071891784667969e+00 2.673802375793457031e+00 -3.863663226366043091e-02 -1.435184944421052933e-02 -1.589654572308063507e-02 1.086368039250373840e-02
1.317000000000000000e+03 4.404975891113281250e+00 2.611500263214111328e+00 -5.198731645941734314e-02 -2.186746150255203247e-02 -2.215643413364887238e-02 2.258707024157047272e-02
1.318000000000000000e+03 5.146645545959472656e+00 3.425639629364013672e+00 -9.803792089223861694e-02 -3.470629453659057617e-02 -3.982326388359069824e-02 5.816676840186119080e-02
1.319000000000000000e+03 1.681171178817749023e+00 4.652620315551757812e+00 -1.868039928376674652e-02 -1.934110000729560852e-02 -1.140644960105419159e-02 2.002066001296043396e-02
1.320000000000000000e+03 4.568446278572082520e-01 3.562138795852661133e+00 -2.221661852672696114e-03 2.910816296935081482e-02 8.065950125455856323e-03 -1.154637662693858147e-03
1.321000000000000000e+03 6.832497596740722656e+00 3.403105974197387695e+00 -1.608024686574935913e-01 -4.802458733320236206e-02 -6.264811754226684570e-02 9.354447573423385620e-02
1.322000000000000000e+03 6.762434959411621094e+00 2.652604818344116211e+00 -1.252486109733581543e-01 -2.175679616630077362e-02 -4.410162195563316345e-02 5.665053799748420715e-02
1.323000000000000000e+03 8.432167053222656250e+00 3.413464784622192383e+00 -2.356863468885421753e-01 -7.832472026348114014e-02 -9.420331567525863647e-02 1.352778077125549316e-01
1.324000000000000000e+03 9.984052658081054688e+00 2.562117576599121094e+00 -2.564547955989837646e-01 -1.009504795074462891e-01 -1.072215884923934937e-01 1.498436182737350464e-01
1.325000000000000000e+03 1.082683563232421875e+01 2.453062295913696289e+00 -2.836079001426696777e-01 -1.691002845764160156e-01 -1.358124613761901855e-01 1.952562779188156128e-01
1.326000000000000000e+03 1.011822795867919922e+01 3.322029352188110352e+00 -3.048184216022491455e-01 -1.593076586723327637e-01 -1.392378211021423340e-01 1.930309087038040161e-01
1.327000000000000000e+03 3.534114074707031250e+01 -1.802585411071777344e+01 -2.301717698574066162e-01 5.770444869995117188e-03 -6.732039898633956909e-02 3.225468844175338745e-02
1.328000000000000000e+03 2.292395591735839844e+01 -5.106082916259765625e+00 -6.389694213867187500e-01 -3.411126732826232910e-01 -2.940246164798736572e-01 4.599335789680480957e-01
1.329000000000000000e+03 1.207598590850830078e+01 -4.316226959228515625e+00 -1.385382347507402301e-05 -2.487132223905064166e-05 -1.161754335043951869e-05 -8.923656423576176167e-06
1.330000000000000000e+03 1.082681274414062500e+01 -3.047021389007568359e+00 1.885830715764313936e-05 1.976314342755358666e-05 1.158643499366007745e-05 1.137455274147214368e-05
1.331000000000000000e+03 1.281055068969726562e+01 6.446655750274658203e+00 -5.646826624870300293e-01 -6.205433607101440430e-01 -3.555678129196166992e-01 3.996657133102416992e-01
1.332000000000000000e+03 1.674029350280761719e+01 6.751884222030639648e-01 -3.821829557418823242e-01 -6.594920158386230469e-01 -3.125025033950805664e-01 6.104565858840942383e-01
1.333000000000000000e+03 1.647177505493164062e+01 1.904370665550231934e+00 -2.965497672557830811e-01 -7.115044593811035156e-01 -3.024162650108337402e-01 6.004357933998107910e-01
1.334000000000000000e+03 1.184873008728027344e+01 3.039948701858520508e+00 -3.374663293361663818e-01 -3.047759234905242920e-01 -1.926726698875427246e-01 2.749856114387512207e-01
1.335000000000000000e+03 1.490342426300048828e+01 5.587895870208740234e+00 -5.097435712814331055e-01 -8.984243869781494141e-01 -4.224503934383392334e-01 5.103425979614257812e-01
1.336000000000000000e+03 2.089695358276367188e+01 1.616738915443420410e+00 -3.177813589572906494e-01 -8.581279218196868896e-02 -1.210782453417778015e-01 4.371179640293121338e-01
1.337000000000000000e+03 2.137169837951660156e+01 -1.891651034355163574e+00 -6.581852436065673828e-01 -3.070082962512969971e-01 -2.895580530166625977e-01 4.428262114524841309e-01
1.338000000000000000e+03 1.954131126403808594e+01 -1.243467450141906738e+00 -6.378179192543029785e-01 -5.164064168930053711e-01 -3.462672829627990723e-01 5.599309206008911133e-01
1.339000000000000000e+03 2.247416305541992188e+01 -3.284824371337890625e+00 -6.812531352043151855e-01 -2.699733376502990723e-01 -2.853679358959197998e-01 4.224868118762969971e-01
1.340000000000000000e+03 2.878242111206054688e+01 -1.389589118957519531e+01 -2.124717831611633301e-01 -6.039177626371383667e-02 -8.185906708240509033e-02 1.672210097312927246e-01
1.341000000000000000e+03 2.941232109069824219e+01 -1.432350826263427734e+01 -2.112648934125900269e-01 -4.639983922243118286e-02 -7.729941606521606445e-02 1.531725972890853882e-01
1.342000000000000000e+03 3.218200302124023438e+01 -1.419024658203125000e+01 -2.917982637882232666e-01 1.451243460178375244e-02 -8.318574726581573486e-02 1.385139226913452148e-01
1.343000000000000000e+03 3.079360008239746094e+01 -1.514472579956054688e+01 -2.258229851722717285e-01 -1.956730335950851440e-02 -7.361708581447601318e-02 1.256931275129318237e-01
1.344000000000000000e+03 3.302540206909179688e+01 -1.645693588256835938e+01 -2.434449344873428345e-01 1.027579605579376221e-02 -6.995073705911636353e-02 9.108033031225204468e-02
1.345000000000000000e+03 3.278517913818359375e+01 -1.517204380035400391e+01 -2.743236720561981201e-01 1.762866415083408356e-02 -7.700850069522857666e-02 1.150892004370689392e-01
1.346000000000000000e+03 1.791717338562011719e+01 2.068709373474121094e+00 -2.712242305278778076e-01 -6.267798542976379395e-01 -2.694012224674224854e-01 6.164098978042602539e-01
1.347000000000000000e+03 1.929343795776367188e+01 -9.805735945701599121e-02 -4.866752922534942627e-01 -4.529745578765869141e-01 -2.818949520587921143e-01 5.741279721260070801e-01
1.348000000000000000e+03 2.481278419494628906e+01 -6.758933067321777344e+00 -5.207501649856567383e-01 -2.074017077684402466e-01 -2.184455543756484985e-01 3.815958499908447266e-01
1.349000000000000000e+03 2.439364814758300781e+01 -6.063727378845214844e+00 -5.590053796768188477e-01 -2.178400158882141113e-01 -2.330536097288131714e-01 3.947727978229522705e-01
1.350000000000000000e+03 6.987750244140625000e+01 -8.273730278015136719e+00 -1.806845426559448242e+00 4.205377995967864990e-01 -4.158922731876373291e-01 6.459341645240783691e-01
1.351000000000000000e+03 7.053413391113281250e+01 -9.762050628662109375e+00 -7.989488244056701660e-01 2.945352196693420410e-01 -1.513240784406661987e-01 9.126072525978088379e-01
1.352000000000000000e+03 2.764807701110839844e+01 -1.292820072174072266e+01 -2.158993929624557495e-01 -9.199128299951553345e-02 -9.236720949411392212e-02 1.958088725805282593e-01
1.353000000000000000e+03 1.422484970092773438e+01 -5.396630764007568359e+00 3.504755295580253005e-05 6.129155735834501684e-06 1.235301260749110952e-05 1.992984380194684491e-06
1.354000000000000000e+03 9.871482849121093750e+00 -3.650848627090454102e+00 2.145511825801804662e-05 1.953466562554240227e-05 1.229693498316919431e-05 1.657326356507837772e-05
1.355000000000000000e+03 2.299571228027343750e+01 -3.980367183685302734e+00 -6.674055457115173340e-01 -2.590275406837463379e-01 -2.779299318790435791e-01 4.200318753719329834e-01
1.356000000000000000e+03 2.193564414978027344e+01 -2.585666418075561523e+00 -6.792466044425964355e-01 -2.898152172565460205e-01 -2.907185554504394531e-01 4.319556355476379395e-01
1.357000000000000000e+03 1.454128265380859375e+01 2.631139039993286133e+00 -3.484464883804321289e-01 -5.970335006713867188e-01 -2.836439907550811768e-01 4.634855687618255615e-01
1.358000000000000000e+03 1.171773338317871094e+01 -5.031727790832519531e+00 8.880240784492343664e-06 2.914455399150028825e-05 1.140743825089884922e-05 6.422908882086630911e-06
1.359000000000000000e+03 1.098433876037597656e+01 3.201586008071899414e+00 -3.298129737377166748e-01 -2.056971192359924316e-01 -1.606530249118804932e-01 2.231616675853729248e-01
1.360000000000000000e+03 1.801560020446777344e+01 8.090215921401977539e-01 -3.691365718841552734e-01 -6.111564040184020996e-01 -2.940878868103027344e-01 6.146499514579772949e-01
1.361000000000000000e+03 3.678639984130859375e+01 -1.700555992126464844e+01 -2.977744042873382568e-01 2.068330533802509308e-02 -8.312732726335525513e-02 4.257958754897117615e-02
1.362000000000000000e+03 2.005511474609375000e+01 -5.233327746391296387e-01 -5.457496643066406250e-01 -3.870901763439178467e-01 -2.798519432544708252e-01 5.165795683860778809e-01
1.363000000000000000e+03 2.856707763671875000e+01 -1.210829544067382812e+01 -2.753604054450988770e-01 -6.159333512187004089e-02 -1.010861247777938843e-01 2.201767712831497192e-01
1.364000000000000000e+03 3.923054122924804688e+01 -1.575813770294189453e+01 -3.832897841930389404e-01 5.100901052355766296e-02 -9.968423098325729370e-02 2.426111325621604919e-02
1.365000000000000000e+03 4.041166305541992188e+01 -1.699723243713378906e+01 -3.613589107990264893e-01 3.253415971994400024e-02 -9.864742308855056763e-02 -1.955042779445648193e-02
1.366000000000000000e+03 1.044699287414550781e+01 -2.485044097900390625e+01 1.635691733099520206e-04 -1.220835692947730422e-04 1.244567920366534963e-05 6.420991121558472514e-05
1.367000000000000000e+03 1.293997573852539062e+01 -2.153904342651367188e+01 -8.859848458087071776e-05 -1.072758605005219579e-04 -5.876230352441780269e-05 -1.049784768838435411e-04
1.368000000000000000e+03 3.015755653381347656e+01 6.218837738037109375e+00 3.773975372314453125e-02 -1.201180592179298401e-01 -2.471349202096462250e-02 4.147553443908691406e-01
1.369000000000000000e+03 2.694834327697753906e+01 6.168633937835693359e+00 2.872971296310424805e-01 -7.050824165344238281e-02 6.503666937351226807e-02 3.039212524890899658e-01
1.370000000000000000e+03 5.073316955566406250e+01 4.692202091217041016e+00 2.788652852177619934e-02 3.162352740764617920e-01 1.032365411520004272e-01 6.160186529159545898e-01
1.371000000000000000e+03 5.170712280273437500e+01 3.585394144058227539e+00 -8.890126645565032959e-02 3.752891421318054199e-01 8.591636270284652710e-02 5.846083164215087891e-01
1.372000000000000000e+03 2.822315216064453125e+01 1.166211414337158203e+01 -3.141341507434844971e-01 -2.662598490715026855e-01 -1.741181910037994385e-01 5.574824810028076172e-01
1.373000000000000000e+03 4.741992950439453125e+01 -1.372371959686279297e+01 -6.489540338516235352e-01 3.308332338929176331e-02 -1.847612112760543823e-01 -1.213013529777526855e-01
1.374000000000000000e+03 5.023496627807617188e+01 -1.375599670410156250e+01 -7.140675783157348633e-01 -2.254066243767738342e-02 -2.209824770689010620e-01 -2.445731461048126221e-01
1.375000000000000000e+03 4.395846176147460938e+01 -1.501184272766113281e+01 -5.011743903160095215e-01 4.338511079549789429e-02 -1.373367905616760254e-01 -5.349804461002349854e-02
1.376000000000000000e+03 5.040407562255859375e+01 -1.094739437103271484e+01 -9.376762509346008301e-01 9.204953163862228394e-02 -2.536880373954772949e-01 -1.299344897270202637e-01
1.377000000000000000e+03 4.040229034423828125e+01 -1.567467975616455078e+01 -4.086492359638214111e-01 4.773125424981117249e-02 -1.082753986120223999e-01 9.532923810184001923e-03
1.378000000000000000e+03 7.184243774414062500e+01 -8.477548599243164062e+00 -7.284005284309387207e-01 2.229202747344970703e+00 4.502406418323516846e-01 -4.617992341518402100e-01
1.379000000000000000e+03 7.062966156005859375e+01 -7.700111389160156250e+00 -1.441572904586791992e+00 1.499959588050842285e+00 1.751598343253135681e-02 -5.608860775828361511e-02
1.380000000000000000e+03 1.972636222839355469e+01 -2.935240745544433594e+01 2.380189951509237289e-03 -4.555626364890486002e-04 5.773881566710770130e-04 3.341961128171533346e-04
1.381000000000000000e+03 2.335548782348632812e+01 -3.231322479248046875e+01 5.590960849076509476e-03 -6.958450539968907833e-04 1.468534697778522968e-03 2.271395409479737282e-03
1.382000000000000000e+03 2.493787574768066406e+01 -3.278330612182617188e+01 6.412316113710403442e-03 -8.801159565337002277e-04 1.659660018049180508e-03 2.768019679933786392e-03
1.383000000000000000e+03 4.984718322753906250e+01 -3.349539566040039062e+01 -1.409199237823486328e-01 -5.523476004600524902e-01 -2.079802602529525757e-01 -5.093577504158020020e-01
1.384000000000000000e+03 6.560182189941406250e+01 -2.216766738891601562e+01 -8.573271632194519043e-01 -4.384528100490570068e-01 -3.887339830398559570e-01 -6.575635671615600586e-01
1.385000000000000000e+03 5.498320770263671875e+01 -3.419149017333984375e+01 2.316702306270599365e-01 -7.551321983337402344e-01 -1.570385843515396118e-01 -5.234867930412292480e-01
1.386000000000000000e+03 5.818008041381835938e+01 -3.358427047729492188e+01 3.852732777595520020e-01 -5.215201973915100098e-01 -4.087407514452934265e-02 -3.378012478351593018e-01
1.387000000000000000e+03 1.078076648712158203e+01 -9.895191192626953125e+00 -9.534880518913269043e-05 -8.261365564976586029e-07 -2.885248250095173717e-05 -1.286719361814903095e-05
1.388000000000000000e+03 8.620378494262695312e+00 -1.131211566925048828e+01 1.440096530131995678e-04 2.312827746209222823e-05 5.014138150727376342e-05 9.163590584648773074e-05
1.389000000000000000e+03 7.889996051788330078e+00 -1.287923717498779297e+01 1.351503742625936866e-04 8.178992720786482096e-05 6.508208753075450659e-05 -8.720736332179512829e-06
1.390000000000000000e+03 4.396695327758789062e+01 6.585277080535888672e+00 -3.502003252506256104e-01 -7.231839001178741455e-02 -1.267556250095367432e-01 2.294230461120605469e-01
1.391000000000000000e+03 3.613111877441406250e+01 -1.313182353973388672e+01 -3.999137282371520996e-01 6.817803531885147095e-02 -9.952070564031600952e-02 1.235671415925025940e-01
1.392000000000000000e+03 1.305350208282470703e+01 1.236332988739013672e+01 1.464539021253585815e-01 -3.564529418945312500e-01 -6.299971044063568115e-02 4.273141920566558838e-01
1.393000000000000000e+03 1.186355113983154297e+01 1.101318073272705078e+01 -5.547174066305160522e-02 -4.553741216659545898e-01 -1.532537490129470825e-01 5.494418740272521973e-01
1.394000000000000000e+03 5.815014648437500000e+01 1.301109886169433594e+01 4.187638163566589355e-01 1.293345093727111816e+00 5.136326551437377930e-01 -1.430784761905670166e-01
1.395000000000000000e+03 1.564242935180664062e+01 -2.763055419921875000e+01 8.587851189076900482e-04 -1.667129836278036237e-04 2.076216478599235415e-04 1.400587352691218257e-04
1.396000000000000000e+03 4.542292785644531250e+01 -3.334916305541992188e+01 -1.945362091064453125e-01 -1.765704303979873657e-01 -1.113319918513298035e-01 -2.559104561805725098e-01
1.397000000000000000e+03 4.675341796875000000e+01 -3.437215805053710938e+01 -1.094244867563247681e-01 -3.537233173847198486e-01 -1.389443427324295044e-01 -3.703058362007141113e-01
1.398000000000000000e+03 7.464124298095703125e+01 -3.408516693115234375e+01 1.715036779642105103e-01 6.484776973724365234e+00 1.996884226799011230e+00 5.489010810852050781e-01
1.399000000000000000e+03 7.783804321289062500e+01 -3.577749633789062500e+01 3.738850587978959084e-03 8.087741851806640625e+00 2.427444219589233398e+00 3.382554948329925537e-01
1.400000000000000000e+03 7.611923980712890625e+01 -2.310037231445312500e+01 -8.019666373729705811e-02 8.441368103027343750e+00 2.508351564407348633e+00 7.524025440216064453e-01
1.401000000000000000e+03 7.802375793457031250e+01 -2.891004943847656250e+01 1.934500224888324738e-02 9.128939628601074219e+00 2.744485378265380859e+00 4.201713800430297852e-01
1.402000000000000000e+03 7.354844665527343750e+01 -3.804498672485351562e+01 2.875582277774810791e-01 5.663820266723632812e+00 1.785413622856140137e+00 2.798538506031036377e-01
1.403000000000000000e+03 7.532640838623046875e+01 2.013624000549316406e+01 8.134312182664871216e-02 4.447930812835693359e+00 1.358782172203063965e+00 -4.303092062473297119e-01
1.404000000000000000e+03 7.807905578613281250e+01 1.643486022949218750e+01 2.710838988423347473e-02 5.312911033630371094e+00 1.602005839347839355e+00 -2.681105434894561768e-01
1.405000000000000000e+03 7.769898223876953125e+01 3.641515350341796875e+01 3.884877543896436691e-03 3.995431423187255859e+00 1.199794888496398926e+00 -7.327742129564285278e-02
1.406000000000000000e+03 7.589960479736328125e+01 3.323814010620117188e+01 3.357245773077011108e-02 3.890935897827148438e+00 1.177352547645568848e+00 -1.246171295642852783e-01
1.407000000000000000e+03 7.843544769287109375e+01 -2.213625526428222656e+01 -3.418087214231491089e-02 1.083426094055175781e+01 3.240024089813232422e+00 3.178938627243041992e-01
1.408000000000000000e+03 7.726499176025390625e+01 -2.329264831542968750e+01 -3.308653831481933594e-02 9.510231018066406250e+00 2.843143224716186523e+00 5.819959640502929688e-01
1.409000000000000000e+03 7.654595947265625000e+01 -2.999415397644042969e+01 7.554995268583297729e-02 7.949448108673095703e+00 2.407499313354492188e+00 6.014115214347839355e-01
1.410000000000000000e+03 7.669281005859375000e+01 -2.863575363159179688e+01 4.999724403023719788e-02 8.211835861206054688e+00 2.478549957275390625e+00 6.298612356185913086e-01
1.411000000000000000e+03 7.699692535400390625e+01 -2.592956542968750000e+01 5.473163444548845291e-03 8.820492744445800781e+00 2.647789955139160156e+00 6.328642368316650391e-01
1.412000000000000000e+03 7.629954528808593750e+01 -3.277803039550781250e+01 7.929211854934692383e-02 7.541268348693847656e+00 2.286168098449707031e+00 5.118663311004638672e-01
1.413000000000000000e+03 7.627116394042968750e+01 -3.421747970581054688e+01 7.935938984155654907e-02 7.378106594085693359e+00 2.237239837646484375e+00 4.566749632358551025e-01
1.414000000000000000e+03 7.636361694335937500e+01 -3.566261291503906250e+01 2.540252916514873505e-02 7.434862613677978516e+00 2.238079547882080078e+00 3.379532992839813232e-01
1.415000000000000000e+03 7.496653747558593750e+01 -4.031102752685546875e+01 2.516616284847259521e-01 6.564278602600097656e+00 2.044782161712646484e+00 3.191187232732772827e-02
1.416000000000000000e+03 7.796636962890625000e+01 2.337147521972656250e+01 1.193181704729795456e-02 4.599857330322265625e+00 1.383536696434020996e+00 -1.635523438453674316e-01
1.417000000000000000e+03 7.668763732910156250e+01 2.037464141845703125e+01 4.539807513356208801e-02 4.661149024963378906e+00 1.411964058876037598e+00 -3.190493881702423096e-01
1.418000000000000000e+03 7.518362426757812500e+01 2.289333534240722656e+01 6.811378151178359985e-02 4.249600410461425781e+00 1.295314192771911621e+00 -3.594604432582855225e-01
1.419000000000000000e+03 7.663965606689453125e+01 2.175556755065917969e+01 3.738964721560478210e-02 4.544363021850585938e+00 1.374525904655456543e+00 -2.912926375865936279e-01
1.420000000000000000e+03 7.682434082031250000e+01 1.351215171813964844e+01 7.115302234888076782e-02 5.427457809448242188e+00 1.649583339691162109e+00 -5.313544869422912598e-01
1.421000000000000000e+03 7.555812835693359375e+01 9.330099105834960938e+00 1.749019920825958252e-01 5.583958148956298828e+00 1.727658033370971680e+00 -9.393734335899353027e-01
1.422000000000000000e+03 7.681658935546875000e+01 1.487495899200439453e+01 7.125168293714523315e-02 5.246248245239257812e+00 1.595250010490417480e+00 -4.767158031463623047e-01
1.423000000000000000e+03 7.653612518310546875e+01 2.452496719360351562e+01 3.374145179986953735e-02 4.341636657714843750e+00 1.312613487243652344e+00 -2.427680790424346924e-01
1.424000000000000000e+03 7.785446166992187500e+01 2.754990577697753906e+01 1.353023946285247803e-02 4.318629264831542969e+00 1.299647808074951172e+00 -1.221699044108390808e-01
1.425000000000000000e+03 7.739498138427734375e+01 -2.202843284606933594e+01 -1.135934665799140930e-01 9.844471931457519531e+00 2.919263362884521484e+00 5.103126764297485352e-01
1.426000000000000000e+03 7.633042907714843750e+01 2.871648216247558594e+01 3.146400675177574158e-02 4.102169990539550781e+00 1.240090250968933105e+00 -1.804102659225463867e-01
1.427000000000000000e+03 7.681671142578125000e+01 8.051934242248535156e+00 1.027937605977058411e-01 6.322809696197509766e+00 1.927681088447570801e+00 -8.146885633468627930e-01
1.428000000000000000e+03 7.817079925537109375e+01 3.782952499389648438e+01 2.415383933112025261e-03 3.975919246673583984e+00 1.193500399589538574e+00 -5.017784237861633301e-02
1.429000000000000000e+03 7.730771636962890625e+01 -2.919451475143432617e+00 -2.206515371799468994e-01 9.510987281799316406e+00 2.787100791931152344e+00 -8.439435958862304688e-01
1.430000000000000000e+03 7.809318542480468750e+01 6.771658420562744141e+00 3.923390805721282959e-02 7.194646358489990234e+00 2.170164108276367188e+00 -5.878413319587707520e-01
1.431000000000000000e+03 7.688082122802734375e+01 3.895236015319824219e+00 9.616585075855255127e-02 7.276262760162353516e+00 2.211728572845458984e+00 -1.042746067047119141e+00
1.432000000000000000e+03 7.683197784423828125e+01 6.675608634948730469e+00 1.168206855654716492e-01 6.609795093536376953e+00 2.017984628677368164e+00 -8.958133459091186523e-01
1.433000000000000000e+03 7.721822357177734375e+01 -1.607348680496215820e+00 -1.160832121968269348e-01 9.041567802429199219e+00 2.677645444869995117e+00 -1.001971721649169922e+00
1.434000000000000000e+03 7.860145568847656250e+01 -1.793590736389160156e+01 -3.884537518024444580e-01 1.143212223052978516e+01 3.313100337982177734e+00 -4.462684690952301025e-01
1.435000000000000000e+03 7.750460052490234375e+01 -2.076200103759765625e+01 -1.697206795215606689e-01 1.017160320281982422e+01 3.000564575195312500e+00 3.829489350318908691e-01
1.436000000000000000e+03 7.838451385498046875e+01 -6.759869098663330078e+00 -5.882899761199951172e-01 1.141389179229736328e+01 3.247680664062500000e+00 5.624590516090393066e-01
1.437000000000000000e+03 7.846355438232421875e+01 -5.472247123718261719e+00 -2.608621418476104736e-01 1.128940486907958984e+01 3.308562994003295898e+00 -2.838436514139175415e-02
1.438000000000000000e+03 7.476041412353515625e+01 -1.008380889892578125e+01 2.656379342079162598e-01 7.905025005340576172e+00 2.451198816299438477e+00 -4.350139141082763672e+00
1.439000000000000000e+03 7.880701446533203125e+01 -1.662624359130859375e+01 -4.357347190380096436e-01 1.119317054748535156e+01 3.227230787277221680e+00 -1.153155684471130371e+00
1.440000000000000000e+03 7.576431274414062500e+01 3.496730422973632812e+01 2.466974966228008270e-02 3.839730262756347656e+00 1.159319996833801270e+00 -9.552771598100662231e-02
1.441000000000000000e+03 7.373980712890625000e+01 3.487898635864257812e+01 7.326065748929977417e-02 3.632627725601196289e+00 1.111766576766967773e+00 -1.437733620405197144e-01
1.442000000000000000e+03 7.607490539550781250e+01 3.163806343078613281e+01 3.262573853135108948e-02 3.960708141326904297e+00 1.198000192642211914e+00 -1.483530104160308838e-01
1.443000000000000000e+03 7.673085021972656250e+01 1.899580764770507812e+01 4.607276991009712219e-02 4.787879467010498047e+00 1.450185656547546387e+00 -3.505673706531524658e-01
1.444000000000000000e+03 7.676876068115234375e+01 1.762057495117187500e+01 5.654610693454742432e-02 4.928356170654296875e+00 1.495470762252807617e+00 -3.876284658908843994e-01
1.445000000000000000e+03 7.681607055664062500e+01 1.078773212432861328e+01 8.929271996021270752e-02 5.835121154785156250e+00 1.777324199676513672e+00 -6.625936031341552734e-01
1.446000000000000000e+03 7.816567230224609375e+01 2.597937345504760742e+00 3.225104510784149170e-02 8.521849632263183594e+00 2.566230297088623047e+00 -7.190750837326049805e-01
1.447000000000000000e+03 7.711536407470703125e+01 -2.680039703845977783e-01 -4.924746230244636536e-02 8.553555488586425781e+00 2.551292419433593750e+00 -1.075877666473388672e+00
1.448000000000000000e+03 7.685205078125000000e+01 5.288763523101806641e+00 9.355976432561874390e-02 6.922172546386718750e+00 2.104719638824462891e+00 -9.740715622901916504e-01
1.449000000000000000e+03 7.741457366943359375e+01 -5.346285820007324219e+00 -6.141993403434753418e-01 1.036508464813232422e+01 2.925265789031982422e+00 -3.063668310642242432e-01
1.450000000000000000e+03 7.737820434570312500e+01 -4.167135715484619141e+00 -3.512258827686309814e-01 9.940501213073730469e+00 2.876782655715942383e+00 -6.385875940322875977e-01
1.451000000000000000e+03 6.139779281616210938e+01 -5.858392715454101562e+00 -3.245670080184936523e+00 -1.301084905862808228e-01 -1.012733578681945801e+00 9.652427397668361664e-03
1.452000000000000000e+03 5.961487197875976562e+01 -8.162691116333007812e+00 -2.247146606445312500e+00 -2.562397718429565430e-01 -7.510159611701965332e-01 -8.109290003776550293e-01
1.453000000000000000e+03 1.501269245147705078e+01 -2.641293525695800781e+01 9.010181529447436333e-04 -1.091408921638503671e-04 2.375631738686934114e-04 8.446817810181528330e-05
1.454000000000000000e+03 5.561324310302734375e+01 8.002463340759277344e+00 6.410121917724609375e-01 7.373515963554382324e-01 4.135091304779052734e-01 3.901775181293487549e-01
1.455000000000000000e+03 1.583839511871337891e+01 4.906210899353027344e+00 -5.972164869308471680e-01 -8.957713246345520020e-01 -4.478963315486907959e-01 6.400373578071594238e-01
1.456000000000000000e+03 3.607017135620117188e+01 -3.563496398925781250e+01 -8.859777823090553284e-03 -1.458318438380956650e-02 -7.032888941466808319e-03 -1.190004870295524597e-02
1.457000000000000000e+03 1.389520549774169922e+01 6.107636928558349609e+00 -5.698584914207458496e-01 -7.481333017349243164e-01 -3.953975439071655273e-01 4.327426552772521973e-01
1.458000000000000000e+03 6.641669464111328125e+01 -2.101266288757324219e+01 -8.447889089584350586e-01 -3.595989644527435303e-01 -3.613163530826568604e-01 -6.189954280853271484e-01
1.459000000000000000e+03 2.610813522338867188e+01 1.684869384765625000e+01 -7.439370453357696533e-02 -5.570059418678283691e-01 -1.894198954105377197e-01 2.884936332702636719e-01
1.460000000000000000e+03 2.308431625366210938e+01 1.657145118713378906e+01 -2.220910489559173584e-01 -5.965769290924072266e-01 -2.456004023551940918e-01 4.273217320442199707e-01
1.461000000000000000e+03 5.662014007568359375e+01 -8.612770080566406250e+00 -1.684107422828674316e+00 -1.319645904004573822e-02 -5.091911554336547852e-01 -3.886078298091888428e-01
1.462000000000000000e+03 5.548344421386718750e+01 -9.344133377075195312e+00 -1.431910037994384766e+00 1.004694681614637375e-02 -4.265589416027069092e-01 -3.865877985954284668e-01
1.463000000000000000e+03 5.435292053222656250e+01 -1.005331707000732422e+01 -1.274509549140930176e+00 -8.570114732719957829e-04 -3.826099932193756104e-01 -3.276261389255523682e-01
1.464000000000000000e+03 3.808319854736328125e+01 -1.575656890869140625e+01 -3.626016974449157715e-01 4.417371004819869995e-02 -9.552840143442153931e-02 4.335387423634529114e-02
1.465000000000000000e+03 2.404628276824951172e+00 3.469293975830078125e+01 6.009752862155437469e-03 -9.681638479232788086e-01 -2.886462509632110596e-01 1.204971037805080414e-02
1.466000000000000000e+03 4.155447006225585938e+00 3.622101211547851562e+01 1.504676602780818939e-02 -8.722701072692871094e-01 -2.571670114994049072e-01 2.310183644294738770e-02
1.467000000000000000e+03 3.196041584014892578e+00 2.923402404785156250e+01 2.183753531426191330e-03 -8.656000494956970215e-01 -2.590248882770538330e-01 2.895665541291236877e-02
1.468000000000000000e+03 1.919879436492919922e+00 2.642341232299804688e+01 3.981752786785364151e-03 -9.130206108093261719e-01 -2.727116644382476807e-01 2.162033878266811371e-02
1.469000000000000000e+03 3.232371330261230469e+00 2.654360580444335938e+01 8.812727406620979309e-03 -8.308192491531372070e-01 -2.466019541025161743e-01 3.893653303384780884e-02
1.470000000000000000e+03 5.817009925842285156e+00 2.953432273864746094e+01 1.290598046034574509e-02 -7.211560010910034180e-01 -2.124750018119812012e-01 6.140006706118583679e-02
1.471000000000000000e+03 3.238243103027343750e+00 3.053351974487304688e+01 2.421905286610126495e-03 -8.728908300399780273e-01 -2.611406743526458740e-01 2.719211205840110779e-02
1.472000000000000000e+03 1.921562671661376953e+00 2.502604103088378906e+01 4.497628659009933472e-03 -8.925165534019470215e-01 -2.664056718349456787e-01 2.764895930886268616e-02
1.473000000000000000e+03 3.208888053894042969e+00 2.790993118286132812e+01 5.006742663681507111e-03 -8.507477641105651855e-01 -2.537223100662231445e-01 3.258344158530235291e-02
1.474000000000000000e+03 6.854371070861816406e+00 3.855892181396484375e+01 2.491762116551399231e-02 -7.537516355514526367e-01 -2.186502069234848022e-01 2.827738597989082336e-02
1.475000000000000000e+03 3.088372468948364258e+00 3.730199813842773438e+01 1.160917803645133972e-02 -9.292725324630737305e-01 -2.752990126609802246e-01 6.970042362809181213e-03
1.476000000000000000e+03 3.750653982162475586e+00 3.315182876586914062e+01 4.711321089416742325e-03 -8.683056831359863281e-01 -2.590782940387725830e-01 2.739727310836315155e-02
1.477000000000000000e+03 3.421593666076660156e+00 3.182096290588378906e+01 4.399653058499097824e-03 -8.762842416763305664e-01 -2.615653872489929199e-01 2.786611020565032959e-02
1.478000000000000000e+03 4.648753643035888672e+00 -3.593691253662109375e+01 -1.796115830074995756e-04 4.820465983357280493e-04 9.073050023289397359e-05 3.408219199627637863e-04
1.479000000000000000e+03 4.425662517547607422e+00 -3.423379516601562500e+01 1.338766160188242793e-04 3.100105386693030596e-04 1.331661478616297245e-04 2.681004407349973917e-04
1.480000000000000000e+03 3.611511468887329102e+00 -2.983426666259765625e+01 -8.886493742465972900e-05 1.642761635594069958e-04 2.262336784042418003e-05 1.472045260015875101e-04
1.481000000000000000e+03 2.094112157821655273e+00 -2.872228813171386719e+01 -1.225641317432746291e-04 9.757181396707892418e-05 -7.497694241465069354e-06 6.409761408576741815e-05
1.482000000000000000e+03 3.190463066101074219e+00 2.228705787658691406e+01 2.082741260528564453e-02 -7.636173367500305176e-01 -2.228369861841201782e-01 7.065366953611373901e-02
1.483000000000000000e+03 8.151451110839843750e+00 -1.021208953857421875e+01 -4.681110658566467464e-05 -5.309437256073579192e-05 -2.997164301632437855e-05 -8.335452002938836813e-05
1.484000000000000000e+03 1.666102051734924316e+00 -9.150794029235839844e+00 -5.804498141515068710e-05 6.864164333819644526e-06 -1.535424416942987591e-05 -4.303033620089991018e-06
1.485000000000000000e+03 5.410483360290527344e+00 -1.765692520141601562e+01 9.153770224656909704e-05 -5.471115946420468390e-05 1.104796319850720465e-05 1.926439472299534827e-05
1.486000000000000000e+03 1.882338047027587891e+00 2.077756309509277344e+01 1.049562543630599976e-02 -8.044605851173400879e-01 -2.381894886493682861e-01 5.595312640070915222e-02
1.487000000000000000e+03 3.149367809295654297e+00 2.085453987121582031e+01 2.701555751264095306e-02 -7.332364916801452637e-01 -2.118662744760513306e-01 9.067098796367645264e-02
1.488000000000000000e+03 1.787473559379577637e+00 8.210834503173828125e+00 -1.457168906927108765e-02 -1.432043462991714478e-01 -4.733280837535858154e-02 9.356509894132614136e-02
1.489000000000000000e+03 2.880342006683349609e+00 1.110871124267578125e+01 -1.519117597490549088e-02 -3.146432042121887207e-01 -9.895031899213790894e-02 1.957543045282363892e-01
1.490000000000000000e+03 4.338300704956054688e+00 1.661940765380859375e+01 5.961016193032264709e-02 -5.631570219993591309e-01 -1.510640531778335571e-01 2.134434282779693604e-01
1.491000000000000000e+03 3.119503974914550781e+00 1.941857147216796875e+01 3.140619397163391113e-02 -6.963581442832946777e-01 -1.994855701923370361e-01 1.112638264894485474e-01
1.492000000000000000e+03 8.720165252685546875e+00 -1.993705749511718750e+01 3.958102388423867524e-05 -9.017618140205740929e-05 -1.517854798294138163e-05 -3.852045119856484234e-05
1.493000000000000000e+03 1.900395035743713379e+00 -1.480121326446533203e+01 -7.932621520012617111e-05 -4.883282144874101505e-06 -2.526284879422746599e-05 -3.582921999623067677e-05
1.494000000000000000e+03 7.173860549926757812e+00 -1.063163089752197266e+01 1.291432417929172516e-04 6.297860181803116575e-06 4.063233063789084554e-05 4.856188024859875441e-05
1.495000000000000000e+03 3.104577064514160156e+00 7.326138019561767578e+00 -5.249511823058128357e-02 -1.364113837480545044e-01 -5.667195096611976624e-02 1.300205141305923462e-01
1.496000000000000000e+03 1.808498263359069824e+00 1.511457157135009766e+01 7.627218496054410934e-03 -5.612014532089233398e-01 -1.660722792148590088e-01 1.188495382666587830e-01
1.497000000000000000e+03 3.034345149993896484e+00 1.519529438018798828e+01 2.716130949556827545e-02 -5.358814597129821777e-01 -1.526160389184951782e-01 1.855313181877136230e-01
1.498000000000000000e+03 4.352464675903320312e+00 -4.152128219604492188e+00 -2.981638681376352906e-05 -1.592544504092074931e-05 -1.372254973830422387e-05 -1.214096414514642674e-06
1.499000000000000000e+03 1.568278789520263672e+00 -6.397159576416015625e+00 -4.721373625216074288e-05 2.679408225958468392e-06 -1.336029799858806655e-05 -4.946926765114767477e-06
1.500000000000000000e+03 2.927536249160766602e+00 8.519258499145507812e+00 -4.148795828223228455e-02 -1.796312034130096436e-01 -6.633575260639190674e-02 1.570273488759994507e-01
1.501000000000000000e+03 3.447817564010620117e+00 -2.845640563964843750e+01 1.880275085568428040e-04 8.467767474940046668e-05 8.181155862985178828e-05 1.261668658116832376e-04
1.502000000000000000e+03 3.138205051422119141e+00 -2.157187843322753906e+01 -1.058757843566127121e-04 5.697379947378067300e-06 -3.005352300533559173e-05 -1.982907269848510623e-05
1.503000000000000000e+03 2.808012723922729492e+00 -1.043690204620361328e+01 -8.500319381710141897e-05 1.592231342328886967e-06 -2.502328970876988024e-05 -4.773228283738717437e-06
1.504000000000000000e+03 2.769353151321411133e+00 -9.073978424072265625e+00 8.027722651604562998e-05 -9.186364877677988261e-06 2.132725785486400127e-05 7.472816832887474447e-06
1.505000000000000000e+03 3.099727392196655273e+00 -1.618669509887695312e+01 -1.051315048243850470e-04 1.966925265151076019e-05 -2.563867565186228603e-05 -4.039028135593980551e-05
1.506000000000000000e+03 4.314524173736572266e+00 -1.627223014831542969e+01 8.013797923922538757e-05 -2.787072662613354623e-05 1.568017614772543311e-05 2.231340113212354481e-05
1.507000000000000000e+03 2.668283224105834961e+00 -3.586536407470703125e+01 1.084404721041209996e-04 4.600911343004554510e-04 1.705594768282026052e-04 1.261140860151499510e-04
1.508000000000000000e+03 3.199344396591186523e+00 -2.294829559326171875e+01 1.349745434708893299e-04 8.974971592579095159e-07 4.076161349075846374e-05 2.006109207286499441e-05
1.509000000000000000e+03 4.102165222167968750e+00 -3.268168258666992188e+01 -9.769030293682590127e-05 3.043695178348571062e-04 6.200376083143055439e-05 2.373129973420873284e-04
1.510000000000000000e+03 5.622398853302001953e+00 -3.223464202880859375e+01 2.136279799742624164e-04 1.936487969942390919e-04 1.221830316353589296e-04 3.226001572329550982e-04
1.511000000000000000e+03 1.950845241546630859e+00 -2.452829360961914062e+01 1.459903287468478084e-04 -9.786125701793935150e-06 4.086126136826351285e-05 3.205474422429688275e-05
1.512000000000000000e+03 3.291600704193115234e+00 -2.571307754516601562e+01 1.692589285084977746e-04 1.901542782434262335e-05 5.648230580845847726e-05 6.188118277350440621e-05
1.513000000000000000e+03 4.588349819183349609e+00 -2.552918052673339844e+01 -6.220781506272032857e-05 7.303179154405370355e-05 3.247192580602131784e-06 5.075131775811314583e-05
1.514000000000000000e+03 3.200879573822021484e+00 -1.474028015136718750e+01 8.158992568496614695e-05 1.302342411690915469e-07 2.451604632369708270e-05 2.728687832131981850e-05
1.515000000000000000e+03 2.871142864227294922e+00 9.788084030151367188e+00 -2.500525116920471191e-02 -2.454019933938980103e-01 -8.112217485904693604e-02 1.772850006818771362e-01
1.516000000000000000e+03 3.991422891616821289e+00 1.123049736022949219e+01 -2.014099992811679840e-02 -3.267505168914794922e-01 -1.040674522519111633e-01 2.536732554435729980e-01
1.517000000000000000e+03 2.920804738998413086e+00 1.246363353729248047e+01 3.744275076314806938e-03 -3.937946856021881104e-01 -1.170151233673095703e-01 2.018075287342071533e-01
1.518000000000000000e+03 3.096380472183227539e+00 1.799570274353027344e+01 3.426452353596687317e-02 -6.500032544136047363e-01 -1.847216188907623291e-01 1.395745128393173218e-01
1.519000000000000000e+03 5.816630554199218750e+01 -2.971540451049804688e+01 -5.216575860977172852e-01 -9.798773527145385742e-01 -4.504604935646057129e-01 -7.524248957633972168e-01
1.520000000000000000e+03 5.988439559936523438e+01 -2.831469535827636719e+01 -6.492656469345092773e-01 -9.770388603210449219e-01 -4.878913760185241699e-01 -7.479242086410522461e-01
1.521000000000000000e+03 5.867277526855468750e+01 -2.736981582641601562e+01 -1.209303140640258789e+00 -1.210108995437622070e+00 -7.258236408233642578e-01 -1.106810212135314941e+00
1.522000000000000000e+03 1.609754753112792969e+01 -2.908910751342773438e+01 1.369598787277936935e-03 -4.654210060834884644e-04 2.712533168960362673e-04 5.100528942421078682e-04
1.523000000000000000e+03 1.941547393798828125e+01 -2.813353729248046875e+01 1.884131343103945255e-03 -5.635001580230891705e-04 3.961893380619585514e-04 -1.542892132420092821e-04
1.524000000000000000e+03 1.015611648559570312e+01 -1.846957397460937500e+01 9.836037497734650970e-05 9.401468560099601746e-05 5.771251744590699673e-05 1.539317891001701355e-04
1.525000000000000000e+03 9.972408294677734375e+00 -2.056463050842285156e+01 6.430420762626454234e-05 1.583132543601095676e-04 6.678523641312494874e-05 4.823731433134526014e-05
1.526000000000000000e+03 2.184709548950195312e+01 -3.150333404541015625e+01 3.993635997176170349e-03 -1.008936553262174129e-03 8.954097866080701351e-04 1.497852965258061886e-03
1.527000000000000000e+03 1.170473957061767578e+01 1.222274684906005859e+01 1.246003583073616028e-01 -4.216125011444091797e-01 -8.910363912582397461e-02 5.055307745933532715e-01
1.528000000000000000e+03 6.380846786499023438e+01 -2.448832702636718750e+01 -9.210657477378845215e-01 -6.354082822799682617e-01 -4.669421911239624023e-01 -6.901415586471557617e-01
1.529000000000000000e+03 5.254008865356445312e+01 -3.274049377441406250e+01 -2.253677695989608765e-01 -7.304658889770507812e-01 -2.867500782012939453e-01 -6.527276635169982910e-01
1.530000000000000000e+03 2.970430946350097656e+01 -3.310442352294921875e+01 1.588459312915802002e-02 -1.849142136052250862e-03 4.210635088384151459e-03 3.673344617709517479e-03
1.531000000000000000e+03 3.033087921142578125e+01 -3.545864868164062500e+01 3.259578952565789223e-03 -4.497519228607416153e-03 -3.713820478878915310e-04 7.149847690016031265e-03
1.532000000000000000e+03 4.992801666259765625e+01 -9.895700454711914062e+00 -9.454428553581237793e-01 1.541438847780227661e-01 -2.373896837234497070e-01 -6.124697253108024597e-02
1.533000000000000000e+03 5.553271102905273438e+01 -3.137722396850585938e+01 -3.332398533821105957e-01 -8.378201127052307129e-01 -3.513179719448089600e-01 -7.621432542800903320e-01
1.534000000000000000e+03 6.713046264648437500e+01 -1.987683296203613281e+01 -8.579232692718505859e-01 -2.106896936893463135e-01 -3.205838799476623535e-01 -5.839317440986633301e-01
1.535000000000000000e+03 2.697532081604003906e+01 -3.200169372558593750e+01 1.163333188742399216e-02 -1.014065812341868877e-03 3.185779787600040436e-03 1.455831574276089668e-03
1.536000000000000000e+03 2.281023216247558594e+01 2.618174552917480469e+00 -1.249954849481582642e-01 1.724342554807662964e-01 1.423163246363401413e-02 2.560020387172698975e-01
1.537000000000000000e+03 2.227371978759765625e+01 3.603669404983520508e+00 9.253811836242675781e-02 2.131156027317047119e-01 9.169611334800720215e-02 2.560539841651916504e-01
1.538000000000000000e+03 1.429783439636230469e+01 -2.531399154663085938e+01 3.163070068694651127e-04 -1.321916643064469099e-04 5.523459913092665374e-05 -6.980457692407071590e-05
1.539000000000000000e+03 1.503428459167480469e+01 -9.128590583801269531e+00 1.943412644322961569e-05 2.933704990937258117e-06 6.710349225613754243e-06 2.545591269154101610e-05
1.540000000000000000e+03 2.023445129394531250e+01 2.547770977020263672e+00 -1.962447315454483032e-01 -1.024635508656501770e-01 -8.961248397827148438e-02 4.943448007106781006e-01
1.541000000000000000e+03 2.197704124450683594e+01 -1.385946512222290039e+00 -5.990571975708007812e-01 -2.060101330280303955e-01 -2.415201961994171143e-01 3.879984915256500244e-01
1.542000000000000000e+03 6.999295806884765625e+01 -1.756208801269531250e+01 -4.237605631351470947e-01 1.372379302978515625e+00 2.845856249332427979e-01 -1.192413866519927979e-01
1.543000000000000000e+03 2.754876136779785156e+01 -3.400330352783203125e+01 7.245625834912061691e-03 -6.624397356063127518e-04 1.974955899640917778e-03 5.647231359034776688e-03
1.544000000000000000e+03 2.891297531127929688e+01 -3.454844665527343750e+01 5.978605244308710098e-03 -6.340867257677018642e-04 1.603355514816939831e-03 8.080736733973026276e-03
1.545000000000000000e+03 4.697615051269531250e+01 4.095557689666748047e+00 -1.285198032855987549e-01 -1.565829068422317505e-01 -8.553081750869750977e-02 4.718926846981048584e-01
1.546000000000000000e+03 4.513066101074218750e+01 -1.463859176635742188e+01 -5.494417548179626465e-01 3.360817208886146545e-02 -1.547500789165496826e-01 -6.980858743190765381e-02
1.547000000000000000e+03 4.264175415039062500e+01 -1.409823799133300781e+01 -5.084491372108459473e-01 7.345486432313919067e-02 -1.304982900619506836e-01 -4.280637018382549286e-03
1.548000000000000000e+03 2.816833114624023438e+01 6.686626434326171875e+00 1.877131760120391846e-01 -1.485169231891632080e-01 1.175887230783700943e-02 3.794207274913787842e-01
1.549000000000000000e+03 2.875473785400390625e+01 8.211824417114257812e+00 6.522779166698455811e-02 -2.100558131933212280e-01 -4.344840720295906067e-02 5.239004492759704590e-01
1.550000000000000000e+03 4.842272567749023438e+01 -3.433606719970703125e+01 -1.005498021841049194e-01 -4.593615531921386719e-01 -1.679733991622924805e-01 -4.203606247901916504e-01
1.551000000000000000e+03 1.982295417785644531e+01 -1.398601627349853516e+01 3.893063876603264362e-06 -3.729098580151912756e-06 4.918967277944830130e-08 -6.672803010587813333e-06
1.552000000000000000e+03 1.099747753143310547e+01 -2.142317199707031250e+01 -2.266461524413898587e-05 -1.240700366906821728e-04 -4.402039849082939327e-05 -8.470743341604247689e-05
1.553000000000000000e+03 2.337611007690429688e+01 1.767550468444824219e+01 7.719542831182479858e-02 -6.082425117492675781e-01 -1.593141257762908936e-01 4.795187115669250488e-01
1.554000000000000000e+03 1.326178646087646484e+01 -1.089545059204101562e+01 -3.076112625421956182e-05 -4.814819112652912736e-05 -2.367279557802248746e-05 -4.036002064822241664e-05
1.555000000000000000e+03 2.510076332092285156e+01 2.149701356887817383e+00 -1.633900701999664307e-01 1.314746290445327759e-01 -9.574632160365581512e-03 1.330650895833969116e-01
1.556000000000000000e+03 4.197629928588867188e+01 1.760716629028320312e+01 4.800410866737365723e-01 6.345095634460449219e-01 3.343651890754699707e-01 2.975137829780578613e-01
1.557000000000000000e+03 5.436741638183593750e+01 4.303159236907958984e+00 9.614873677492141724e-02 4.762525260448455811e-01 1.717203855514526367e-01 4.670346975326538086e-01
1.558000000000000000e+03 5.687187957763671875e+01 5.447042465209960938e+00 3.898081481456756592e-01 5.266408920288085938e-01 2.749347090721130371e-01 2.634516954421997070e-01
1.559000000000000000e+03 2.471957969665527344e+01 1.731449317932128906e+01 1.398467109538614750e-03 -6.666235327720642090e-01 -1.995675116777420044e-01 3.500014841556549072e-01
1.560000000000000000e+03 6.014960861206054688e+01 -6.423963069915771484e+00 -2.651296377182006836e+00 -2.576781436800956726e-02 -8.031193017959594727e-01 -3.252860605716705322e-01
1.561000000000000000e+03 3.774139404296875000e+01 1.537665462493896484e+01 2.441381067037582397e-01 2.418169081211090088e-01 1.457865089178085327e-01 4.006281495094299316e-01
1.562000000000000000e+03 4.164160537719726562e+01 1.030562114715576172e+01 -2.479205727577209473e-01 3.753691613674163818e-01 3.823457658290863037e-02 4.023256301879882812e-01
1.563000000000000000e+03 6.961252689361572266e+00 -1.424298858642578125e+01 9.955765563063323498e-05 2.070036862278357148e-05 3.607740654842928052e-05 2.384319850534666330e-05
1.564000000000000000e+03 6.825757026672363281e+00 -1.666797828674316406e+01 9.387073805555701256e-05 -6.655052857240661979e-05 8.196064300136640668e-06 3.189971175743266940e-05
1.565000000000000000e+03 5.606075668334960938e+01 1.773709487915039062e+01 3.083777427673339844e-01 1.138978481292724609e+00 4.342068731784820557e-01 -3.415679335594177246e-01
1.566000000000000000e+03 5.600673294067382812e+01 1.975451469421386719e+01 4.232673048973083496e-01 1.121272802352905273e+00 4.633620381355285645e-01 -3.668103218078613281e-01
1.567000000000000000e+03 5.905076026916503906e+00 -2.541566848754882812e+01 2.132584486389532685e-04 4.420391178427962586e-06 6.530365499202162027e-05 8.014289051061496139e-05
1.568000000000000000e+03 1.373986816406250000e+01 -2.701538085937500000e+01 5.929361796006560326e-04 -2.060822444036602974e-04 1.160561805590987206e-04 9.886214684229344130e-05
1.569000000000000000e+03 5.296001434326171875e+01 2.105824851989746094e+01 5.471051335334777832e-01 6.043753623962402344e-01 3.454441428184509277e-01 -2.581636607646942139e-01
1.570000000000000000e+03 5.258806228637695312e+01 2.293681716918945312e+01 6.075329184532165527e-01 7.146701812744140625e-01 3.966609239578247070e-01 -1.610125303268432617e-01
1.571000000000000000e+03 1.510605144500732422e+01 1.874136161804199219e+01 2.387893795967102051e-01 6.481297314167022705e-02 9.108070284128189087e-02 2.131799161434173584e-01
1.572000000000000000e+03 1.653714370727539062e+01 1.763084220886230469e+01 3.098897337913513184e-01 2.432572394609451294e-01 1.659440845251083374e-01 2.387571483850479126e-01
1.573000000000000000e+03 5.214562988281250000e+01 2.463155555725097656e+01 6.292188167572021484e-01 7.816410064697265625e-01 4.232579469680786133e-01 -1.224915981292724609e-01
1.574000000000000000e+03 5.005169677734375000e+01 2.257628822326660156e+01 6.412350535392761230e-01 4.720602631568908691e-01 3.339885771274566650e-01 4.706742241978645325e-02
1.575000000000000000e+03 3.948649978637695312e+01 1.404540348052978516e+01 2.236483693122863770e-01 3.751357793807983398e-01 1.796352416276931763e-01 4.567971825599670410e-01
1.576000000000000000e+03 1.280338954925537109e+01 1.568597030639648438e+01 3.981605768203735352e-01 -2.630516290664672852e-01 4.053268581628799438e-02 2.907392382621765137e-01
1.577000000000000000e+03 1.428269767761230469e+01 1.629654502868652344e+01 4.626107811927795410e-01 -3.150090202689170837e-02 1.293329596519470215e-01 2.020221203565597534e-01
1.578000000000000000e+03 5.721023559570312500e+01 1.689107131958007812e+01 3.902516067028045654e-01 1.260373473167419434e+00 4.951875209808349609e-01 -3.258165419101715088e-01
1.579000000000000000e+03 1.930177116394042969e+01 1.999780082702636719e+01 1.585364341735839844e-01 -1.739240996539592743e-02 4.234321042895317078e-02 5.033236742019653320e-01
1.580000000000000000e+03 5.650085830688476562e+01 9.115773200988769531e+00 6.276512742042541504e-01 8.626523613929748535e-01 4.470911026000976562e-01 2.985065579414367676e-01
1.581000000000000000e+03 5.741379165649414062e+01 1.011619472503662109e+01 5.527649521827697754e-01 9.865858554840087891e-01 4.618052542209625244e-01 1.871542781591415405e-01
1.582000000000000000e+03 4.910040664672851562e+01 2.071891784667968750e+01 6.219791769981384277e-01 2.698393762111663818e-01 2.675455808639526367e-01 1.751017868518829346e-01
1.583000000000000000e+03 1.776454925537109375e+01 3.472214460372924805e+00 -3.104819059371948242e-01 -6.788148880004882812e-01 -2.967890501022338867e-01 6.151568889617919922e-01
1.584000000000000000e+03 4.177065277099609375e+01 9.092431068420410156e+00 -3.464936017990112305e-01 2.701788842678070068e-01 -2.289441414177417755e-02 3.159071207046508789e-01
1.585000000000000000e+03 4.043207550048828125e+01 1.745914840698242188e+01 4.330181479454040527e-01 5.191210508346557617e-01 2.856417596340179443e-01 2.905845940113067627e-01
1.586000000000000000e+03 1.117772102355957031e+01 -5.553810119628906250e+00 -1.111014898924622685e-05 3.126544015685794875e-06 -2.395081537542864680e-06 6.462336841650540009e-06
1.587000000000000000e+03 4.315343856811523438e+01 1.887375068664550781e+01 4.589375257492065430e-01 6.536257266998291016e-01 3.337689936161041260e-01 3.116662800312042236e-01
1.588000000000000000e+03 4.177479171752929688e+01 1.927562713623046875e+01 3.955720961093902588e-01 6.013196706771850586e-01 2.990675270557403564e-01 2.652400434017181396e-01
1.589000000000000000e+03 1.864056587219238281e+01 2.766753196716308594e+00 -3.287710547447204590e-01 -4.618864655494689941e-01 -2.371972501277923584e-01 6.441316008567810059e-01
1.590000000000000000e+03 3.890258407592773438e+01 1.177777671813964844e+01 -1.397810876369476318e-02 2.994014620780944824e-01 8.562700450420379639e-02 5.126171112060546875e-01
1.591000000000000000e+03 4.021705245971679688e+01 1.005524444580078125e+01 -2.064022868871688843e-01 3.233062624931335449e-01 3.507118672132492065e-02 4.573163390159606934e-01
1.592000000000000000e+03 6.587145996093750000e+01 -4.857391357421875000e+00 -2.684776306152343750e+00 -1.454744100570678711e+00 -1.241856098175048828e+00 -2.513837814331054688e-01
1.593000000000000000e+03 5.596289062500000000e+01 6.196351051330566406e+00 4.729494452476501465e-01 5.843498110771179199e-01 3.171897828578948975e-01 3.164061605930328369e-01
1.594000000000000000e+03 1.257175827026367188e+01 1.461153888702392578e+01 3.928782939910888672e-01 -3.337987959384918213e-01 1.772385276854038239e-02 3.445893824100494385e-01
1.595000000000000000e+03 4.478534698486328125e+00 -1.494035434722900391e+01 -6.170629785628989339e-05 2.962470352940727025e-05 -9.624477570469025522e-06 -4.329495277488604188e-05
1.596000000000000000e+03 5.853660202026367188e+01 1.604968070983886719e+01 4.455337524414062500e-01 1.414451360702514648e+00 5.579955577850341797e-01 -3.500645160675048828e-01
1.597000000000000000e+03 4.762732505798339844e+00 -4.057923889160156250e+01 -1.400126202497631311e-04 3.224218962714076042e-04 5.472278644447214901e-05 1.788195513654500246e-04
1.598000000000000000e+03 3.901371240615844727e+00 4.078556060791015625e+01 2.243334427475929260e-03 -9.475265741348266602e-01 -2.835849821567535400e-01 2.374597638845443726e-02
1.599000000000000000e+03 7.499446868896484375e+01 -9.880062103271484375e+00 -3.305080831050872803e-01 9.508628845214843750e+00 2.753436088562011719e+00 -4.168530941009521484e+00
1.600000000000000000e+03 7.392524719238281250e+01 -9.496971130371093750e+00 2.037255614995956421e-01 4.779100418090820312e+00 1.494847774505615234e+00 -2.600259304046630859e+00
1.601000000000000000e+03 7.437195587158203125e+01 -9.805395126342773438e+00 3.193242549896240234e-01 6.342182159423828125e+00 1.998451948165893555e+00 -3.470221996307373047e+00
1.602000000000000000e+03 7.554183959960937500e+01 -9.847228050231933594e+00 -1.409886837005615234e+00 1.287706470489501953e+01 3.440153360366821289e+00 -3.543655395507812500e+00
1.603000000000000000e+03 7.575709533691406250e+01 -1.018340969085693359e+01 -1.652371764183044434e+00 1.514853286743164062e+01 4.048848152160644531e+00 -3.734762191772460938e+00
1.604000000000000000e+03 7.466657257080078125e+01 -1.423526191711425781e+01 6.179650425910949707e-01 7.228891849517822266e+00 2.354057073593139648e+00 4.467375278472900391e+00
1.605000000000000000e+03 7.504325103759765625e+01 -1.440685081481933594e+01 -8.098601549863815308e-02 9.612109184265136719e+00 2.859337091445922852e+00 4.719586849212646484e+00
1.606000000000000000e+03 7.674507141113281250e+01 -8.754375457763671875e+00 -2.280687808990478516e+00 1.338640117645263672e+01 3.331714153289794922e+00 7.531084865331649780e-02
1.607000000000000000e+03 7.657026672363281250e+01 -1.434331893920898438e+01 -2.275182723999023438e+00 1.754274177551269531e+01 4.580267906188964844e+00 9.455633908510208130e-02
1.608000000000000000e+03 7.694890594482421875e+01 -1.455817222595214844e+01 -2.003973960876464844e+00 1.627507591247558594e+01 4.281331062316894531e+00 -1.115316510200500488e+00
1.609000000000000000e+03 7.653994750976562500e+01 -9.332906723022460938e+00 -2.406064987182617188e+00 1.455996704101562500e+01 3.646170616149902344e+00 -4.045577645301818848e-01
1.610000000000000000e+03 7.650651550292968750e+01 -1.010657787322998047e+01 -2.157403945922851562e+00 1.719644927978515625e+01 4.511713504791259766e+00 -2.920985817909240723e-01
1.611000000000000000e+03 7.802692413330078125e+01 -1.464054298400878906e+01 -7.960968613624572754e-01 1.297240543365478516e+01 3.652892589569091797e+00 -2.942518234252929688e+00
1.612000000000000000e+03 7.701059722900390625e+01 -1.414457511901855469e+01 -1.544060826301574707e+00 1.757202148437500000e+01 4.808388233184814453e+00 -1.880383968353271484e+00
1.613000000000000000e+03 7.393789672851562500e+01 -1.467840480804443359e+01 6.178053021430969238e-01 4.393980979919433594e+00 1.503535866737365723e+00 2.970805168151855469e+00
1.614000000000000000e+03 7.830159759521484375e+01 -1.308134937286376953e+01 1.732123613357543945e+00 1.131395339965820312e+01 3.913822889328002930e+00 -2.780238389968872070e+00
1.615000000000000000e+03 7.805191040039062500e+01 -9.739839553833007812e+00 -1.044357538223266602e+00 1.287685680389404297e+01 3.549749851226806641e+00 2.998481035232543945e+00
1.616000000000000000e+03 7.860977935791015625e+01 -1.164428329467773438e+01 1.987040281295776367e+00 9.071681976318359375e+00 3.317616701126098633e+00 1.633522868156433105e+00
1.617000000000000000e+03 7.878970336914062500e+01 -1.086941242218017578e+01 6.808540821075439453e-01 8.943964004516601562e+00 2.887445449829101562e+00 2.704326868057250977e+00
1.618000000000000000e+03 7.803202819824218750e+01 -1.208528804779052734e+01 4.945105075836181641e+00 1.137992858886718750e+01 4.897510051727294922e+00 7.534011006355285645e-01
1.619000000000000000e+03 7.173255920410156250e+01 -1.449969577789306641e+01 -3.148159086704254150e-01 8.433068394660949707e-01 1.585472822189331055e-01 -1.184366643428802490e-01
1.620000000000000000e+03 1.763258743286132812e+01 -8.069065093994140625e+00 2.211916944361291826e-05 4.079076916241319850e-06 7.859473953431006521e-06 4.703736976807704195e-06
1.621000000000000000e+03 1.723964309692382812e+01 -7.504666328430175781e+00 -2.251730438729282469e-05 -1.988593339774524793e-06 -7.351769454544410110e-06 -9.800932275538798422e-06
1.622000000000000000e+03 2.873302078247070312e+01 -1.023463439941406250e+01 -3.707725405693054199e-01 -3.829269483685493469e-02 -1.227195709943771362e-01 2.620149254798889160e-01
1.623000000000000000e+03 7.245535278320312500e+01 -9.513476371765136719e+00 -4.273666068911552429e-02 1.859897136688232422e+00 5.451481342315673828e-01 -5.972267985343933105e-01
1.624000000000000000e+03 1.885086631774902344e+01 -9.732725143432617188e+00 -2.920384213211946189e-05 1.066576828634424601e-06 -8.441179488727357239e-06 -4.858101874560816213e-06
1.625000000000000000e+03 1.610346794128417969e+01 -8.960144996643066406e+00 1.748465001583099365e-05 -5.052938377048121765e-06 3.729513537109596655e-06 -1.092204274755204096e-05
1.626000000000000000e+03 1.350012683868408203e+01 -5.034037590026855469e+00 -2.867886360036209226e-05 -1.419370892108418047e-05 -1.286177212023176253e-05 4.692524271376896650e-06
1.627000000000000000e+03 1.457222652435302734e+01 -6.521747112274169922e+00 3.829554771073162556e-05 2.490215592843014747e-06 1.223572962771868333e-05 8.278558198071550578e-06
1.628000000000000000e+03 6.888388824462890625e+01 -1.733007621765136719e+01 -7.158553004264831543e-01 4.181687235832214355e-01 -8.930597454309463501e-02 -5.500456690788269043e-01
1.629000000000000000e+03 6.826169586181640625e+01 -1.646288871765136719e+01 -9.050698280334472656e-01 -3.497594594955444336e-01 -3.764487802982330322e-01 -9.781622886657714844e-01
1.630000000000000000e+03 2.761175346374511719e+01 -9.839246749877929688e+00 -3.706090152263641357e-01 -7.969917356967926025e-02 -1.350924670696258545e-01 2.830086946487426758e-01
1.631000000000000000e+03 2.652476692199707031e+01 -9.491690635681152344e+00 -3.684926331043243408e-01 -1.360305696725845337e-01 -1.513569504022598267e-01 3.047165572643280029e-01
1.632000000000000000e+03 1.990755462646484375e+01 -1.124594497680664062e+01 2.942978062492329627e-05 -1.535154115117620677e-05 4.223472387820947915e-06 3.504148025967879221e-06
1.633000000000000000e+03 1.966938018798828125e+01 -1.074000167846679688e+01 -3.420350549276918173e-05 8.838636858854442835e-06 -7.609460681123891845e-06 -7.196817477961303666e-06
1.634000000000000000e+03 1.866831970214843750e+01 -1.081230640411376953e+01 -2.957960896310396492e-05 -4.417255695443600416e-06 -1.019905903376638889e-05 -1.253177924809278920e-05
1.635000000000000000e+03 6.926766967773437500e+01 -7.771727561950683594e+00 -2.177850484848022461e+00 1.120669618248939514e-01 -6.197350621223449707e-01 9.375218749046325684e-01
1.636000000000000000e+03 2.570595169067382812e+01 -8.104104995727539062e+00 -4.392427504062652588e-01 -1.690713614225387573e-01 -1.824942380189895630e-01 3.435819149017333984e-01
1.637000000000000000e+03 9.164360046386718750e+00 -3.489943265914916992e+00 -1.941979462571907789e-05 -2.023052729782648385e-05 -1.189509657706366852e-05 -2.406090061413124204e-05
1.638000000000000000e+03 9.651555061340332031e+00 -4.389822006225585938e+00 -2.446893995511345565e-05 -1.718932435323949903e-05 -1.249747947440482676e-05 -2.571690856711938977e-05
1.639000000000000000e+03 7.098537921905517578e+00 -3.309577703475952148e+00 1.809236891858745366e-05 1.920740760397166014e-05 1.118993350246455520e-05 2.518690598662942648e-05
1.640000000000000000e+03 8.251255989074707031e+00 -4.793650150299072266e+00 5.153751408215612173e-05 -3.427646106501924805e-06 1.443295968783786520e-05 3.009819556609727442e-05
1.641000000000000000e+03 6.426847934722900391e+00 -4.110309600830078125e+00 2.863263762264978141e-05 1.524645540484925732e-05 1.316372799919918180e-05 3.562773417797870934e-05
1.642000000000000000e+03 5.740523338317871094e+00 -4.178871631622314453e+00 -4.442540739546529949e-05 -4.475064542930340394e-06 -1.467014135414501652e-05 -2.390916961303446442e-05
1.643000000000000000e+03 4.346396923065185547e+00 -3.404677867889404297e+00 3.024793295480776578e-05 8.834484106046147645e-06 1.172472457255935296e-05 7.823337000445462763e-06
1.644000000000000000e+03 3.976767063140869141e+00 -7.811608314514160156e+00 8.769742271397262812e-05 -2.386169217061251402e-05 1.915072061819955707e-05 -7.203746918094111606e-06
1.645000000000000000e+03 3.218272209167480469e+00 -4.237005233764648438e+00 -2.897763624787330627e-05 -1.416595478076487780e-05 -1.294307730859145522e-05 -4.965451080352067947e-05
1.646000000000000000e+03 4.446305274963378906e+00 -6.724702358245849609e+00 -6.751894397893920541e-05 3.077588917221873999e-05 -1.102291662391507998e-05 2.401159690634813160e-05
1.647000000000000000e+03 2.606463193893432617e+00 -4.054249286651611328e+00 4.921035724692046642e-05 -1.907445493998238817e-06 1.419087311660405248e-05 -6.517364454339258373e-06
1.648000000000000000e+03 2.665058612823486328e+00 -6.324294090270996094e+00 5.890556349186226726e-05 -4.981216079613659531e-07 1.752223215589765459e-05 2.041894367721397430e-05
1.649000000000000000e+03 3.054812240600585938e+01 -1.406644821166992188e+01 -2.522159814834594727e-01 -2.112360671162605286e-02 -8.200187981128692627e-02 1.561539471149444580e-01
1.650000000000000000e+03 3.033590698242187500e+01 -1.289853382110595703e+01 -2.912291884422302246e-01 -1.663155853748321533e-02 -9.235822409391403198e-02 1.876509487628936768e-01
1.651000000000000000e+03 2.580666160583496094e+01 -6.988623619079589844e+00 -5.062823295593261719e-01 -1.296985447406768799e-01 -1.907942593097686768e-01 3.475582003593444824e-01
1.652000000000000000e+03 7.069676971435546875e+01 -1.533963298797607422e+01 -3.534685969352722168e-01 8.485655188560485840e-01 1.485290676355361938e-01 -4.647103548049926758e-01
1.653000000000000000e+03 7.630050659179687500e+01 -1.882369041442871094e+01 -7.181559801101684570e-01 9.553332328796386719e+00 2.650552988052368164e+00 5.437422990798950195e-01
1.654000000000000000e+03 9.361177444458007812e+00 4.207168102264404297e+00 -3.134352266788482666e-01 -1.450901031494140625e-01 -1.375575959682464600e-01 2.026917040348052979e-01
1.655000000000000000e+03 2.636273574829101562e+01 -7.599028110504150391e+00 -4.694458842277526855e-01 -1.067696809768676758e-01 -1.728646606206893921e-01 3.314665257930755615e-01
1.656000000000000000e+03 6.978819274902343750e+01 -1.479132652282714844e+01 -7.307808995246887207e-01 2.814230620861053467e-01 -1.348073631525039673e-01 -9.190115928649902344e-01
1.657000000000000000e+03 2.724648857116699219e+01 -9.093027114868164062e+00 -3.990719318389892578e-01 -8.420268446207046509e-02 -1.449823826551437378e-01 2.993419468402862549e-01
1.658000000000000000e+03 2.686745452880859375e+01 -8.306180000305175781e+00 -4.418233335018157959e-01 -9.360914677381515503e-02 -1.606297343969345093e-01 3.168834149837493896e-01
1.659000000000000000e+03 5.985703945159912109e+00 3.481483936309814453e+00 -1.291306912899017334e-01 -3.246428072452545166e-02 -4.847849160432815552e-02 7.152131944894790649e-02
1.660000000000000000e+03 7.634434700012207031e+00 3.391165494918823242e+00 -2.015759497880935669e-01 -4.895869642496109009e-02 -7.516039162874221802e-02 1.084460467100143433e-01
1.661000000000000000e+03 7.259359359741210938e+00 4.718003749847412109e+00 -2.239526063203811646e-01 -9.043754637241363525e-02 -9.431704133749008179e-02 1.666852533817291260e-01
1.662000000000000000e+03 5.033974647521972656e+00 5.201436996459960938e+00 -1.177142262458801270e-01 -8.063027262687683105e-02 -5.950335040688514709e-02 1.172766461968421936e-01
1.663000000000000000e+03 4.429301261901855469e+00 3.261770009994506836e+00 -7.162057608366012573e-02 -2.507059089839458466e-02 -2.900734916329383850e-02 3.432113304734230042e-02
1.664000000000000000e+03 3.126444339752197266e+00 4.905351638793945312e+00 -5.653709918260574341e-02 -4.765890166163444519e-02 -3.125879913568496704e-02 5.867146700620651245e-02
1.665000000000000000e+03 3.228843688964843750e+00 3.650817155838012695e+00 -4.754313826560974121e-02 -2.443846873939037323e-02 -2.159448154270648956e-02 2.602700330317020416e-02
1.666000000000000000e+03 4.212933540344238281e+00 3.789746999740600586e+00 -7.680520415306091309e-02 -3.291778638958930969e-02 -3.291689977049827576e-02 4.873114451766014099e-02
1.667000000000000000e+03 7.127402496337890625e+01 -1.518768024444580078e+01 -1.877783089876174927e-01 1.073736906051635742e+00 2.657875716686248779e-01 -1.781356930732727051e-01
1.668000000000000000e+03 2.455312347412109375e+01 -4.936704635620117188e+00 -6.001030206680297852e-01 -1.533043980598449707e-01 -2.260222285985946655e-01 3.664276301860809326e-01
1.669000000000000000e+03 1.106400871276855469e+01 -4.848164558410644531e+00 -1.562677425681613386e-05 -2.828106516972184181e-05 -1.317235182796139270e-05 -2.317773214599583298e-05
1.670000000000000000e+03 1.300006580352783203e+01 -5.903606891632080078e+00 3.097682565567083657e-05 2.016988401010166854e-05 1.534401235403493047e-05 -9.542704901832621545e-06
1.671000000000000000e+03 1.447079467773437500e+01 3.472619533538818359e+00 -3.546802699565887451e-01 -6.773385405540466309e-01 -3.096056580543518066e-01 4.608103632926940918e-01
1.672000000000000000e+03 2.394167137145996094e+01 3.019348144531250000e+00 -3.953595831990242004e-02 1.924503445625305176e-01 4.587431624531745911e-02 1.616351306438446045e-01
1.673000000000000000e+03 1.392016696929931641e+01 4.043952941894531250e+00 -3.860242962837219238e-01 -6.422709822654724121e-01 -3.084885776042938232e-01 3.912596106529235840e-01
1.674000000000000000e+03 1.270265960693359375e+01 2.862296104431152344e+00 -3.540682196617126465e-01 -3.661433756351470947e-01 -2.160634845495223999e-01 3.241051733493804932e-01
1.675000000000000000e+03 3.089041709899902344e+01 -1.219571876525878906e+01 -3.345446288585662842e-01 4.046402871608734131e-03 -9.914946556091308594e-02 1.979369819164276123e-01
1.676000000000000000e+03 2.304270362854003906e+01 -2.845879316329956055e+00 -6.460474133491516113e-01 -1.880624443292617798e-01 -2.502329647541046143e-01 3.726496100425720215e-01
1.677000000000000000e+03 7.153424072265625000e+01 -8.004645347595214844e+00 -9.150798320770263672e-01 2.231262683868408203e+00 3.948548734188079834e-01 -4.610764086246490479e-01
1.678000000000000000e+03 3.121019363403320312e+01 -1.449585437774658203e+01 -2.587788999080657959e-01 -1.045102998614311218e-02 -8.076898008584976196e-02 1.414746195077896118e-01
1.679000000000000000e+03 3.193341064453125000e+01 -1.486249828338623047e+01 -2.619117498397827148e-01 3.868075087666511536e-03 -7.741310447454452515e-02 1.255718022584915161e-01
1.680000000000000000e+03 3.294132614135742188e+01 -1.432483005523681641e+01 -2.998408079147338867e-01 2.047020196914672852e-02 -8.381117880344390869e-02 1.322924792766571045e-01
1.681000000000000000e+03 3.377584838867187500e+01 -1.622995948791503906e+01 -2.589814662933349609e-01 2.261657826602458954e-02 -7.090947031974792480e-02 8.578381687402725220e-02
1.682000000000000000e+03 1.863359451293945312e+01 2.575161159038543701e-01 -4.510302841663360596e-01 -5.538566112518310547e-01 -3.014660775661468506e-01 6.168889999389648438e-01
1.683000000000000000e+03 2.349114227294921875e+01 -4.672155380249023438e+00 -6.357318162918090820e-01 -2.419652044773101807e-01 -2.633091211318969727e-01 4.120217561721801758e-01
1.684000000000000000e+03 1.438805770874023438e+01 4.724619865417480469e+00 -5.054696202278137207e-01 -7.097711563110351562e-01 -3.645722568035125732e-01 4.534827172756195068e-01
1.685000000000000000e+03 6.920477294921875000e+01 -6.525804519653320312e+00 -2.425072669982910156e+00 6.238010525703430176e-01 -5.403814315795898438e-01 -4.502972662448883057e-01
1.686000000000000000e+03 1.287992095947265625e+01 3.610743284225463867e+00 -3.668603003025054932e-01 -4.703865945339202881e-01 -2.511740624904632568e-01 3.438420593738555908e-01
1.687000000000000000e+03 1.279066371917724609e+01 -4.660031795501708984e+00 1.544813130749389529e-05 2.604289693408645689e-05 1.244730901817092672e-05 -1.409458604939572979e-06
1.688000000000000000e+03 2.251888084411621094e+01 -2.123488187789916992e+00 -6.344705820083618164e-01 -1.924816817045211792e-01 -2.480856776237487793e-01 3.742137849330902100e-01
1.689000000000000000e+03 1.171777534484863281e+01 -6.143736362457275391e+00 2.464566387061495334e-05 1.322821208304958418e-05 1.136216269514989108e-05 -7.472136076103197411e-06
1.690000000000000000e+03 1.159743499755859375e+01 -7.458944797515869141e+00 3.111525802523829043e-05 2.395382398390211165e-05 1.652072569413576275e-05 -1.014331974147353321e-05
1.691000000000000000e+03 1.623495483398437500e+01 -6.527206420898437500e+00 -3.107364682364277542e-05 -3.075924439599475591e-07 -9.414371561433654279e-06 -9.052885616256389767e-06
1.692000000000000000e+03 1.604288482666015625e+01 -8.109888076782226562e+00 1.573751978867221624e-05 9.757053703651763499e-06 7.648372047697193921e-06 1.939112007676158100e-05
1.693000000000000000e+03 6.833496093750000000e+01 -1.794662284851074219e+01 -8.036646246910095215e-01 1.636656075716018677e-01 -1.919997185468673706e-01 -5.832479596138000488e-01
1.694000000000000000e+03 7.919154167175292969e+00 6.826356887817382812e+00 -2.622722983360290527e-01 -1.603646874427795410e-01 -1.267911046743392944e-01 2.890386283397674561e-01
1.695000000000000000e+03 2.070792007446289062e+01 1.688040345907211304e-01 -4.661067724227905273e-01 -2.480593919754028320e-01 -2.142498493194580078e-01 4.640616178512573242e-01
1.696000000000000000e+03 1.707019996643066406e+01 2.695218563079833984e+00 -3.259505033493041992e-01 -6.739671230316162109e-01 -2.999752759933471680e-01 5.967125296592712402e-01
1.697000000000000000e+03 1.203376102447509766e+01 3.815217494964599609e+00 -3.866014182567596436e-01 -3.454424142837524414e-01 -2.196131497621536255e-01 2.892153561115264893e-01
1.698000000000000000e+03 1.115313625335693359e+01 3.993366241455078125e+00 -3.715442121028900146e-01 -2.786119282245635986e-01 -1.950468420982360840e-01 2.625343203544616699e-01
1.699000000000000000e+03 2.138467407226562500e+01 -6.271420121192932129e-01 -5.493017435073852539e-01 -2.180971801280975342e-01 -2.302196770906448364e-01 4.165853857994079590e-01
1.700000000000000000e+03 1.865690994262695312e+01 1.395237684249877930e+00 -3.430643081665039062e-01 -5.041157007217407227e-01 -2.541539967060089111e-01 6.349319815635681152e-01
1.701000000000000000e+03 3.927433776855468750e+01 -1.442265796661376953e+01 -4.296839833259582520e-01 6.762266904115676880e-02 -1.086184009909629822e-01 5.294633656740188599e-02
1.702000000000000000e+03 9.115525245666503906e+00 -9.681370735168457031e+00 -3.519694655551575124e-05 6.143196515040472150e-05 7.870506124163512141e-06 5.024188430979847908e-05
1.703000000000000000e+03 5.876583099365234375e+00 -9.916588783264160156e+00 8.884316775947809219e-05 1.519163015473168343e-05 3.121044210274703801e-05 3.120124893030151725e-05
1.704000000000000000e+03 9.745644569396972656e+00 -1.075296497344970703e+01 5.250156027614139020e-05 -5.416688873083330691e-05 -4.995979452360188589e-07 -8.244820492109283805e-05
1.705000000000000000e+03 6.923484802246093750e+01 -9.113202095031738281e+00 -1.272587776184082031e+00 -5.589188337326049805e-01 -5.494520068168640137e-01 1.279244899749755859e+00
1.706000000000000000e+03 7.791868591308593750e+01 -8.981158256530761719e+00 -1.566158890724182129e+00 1.256516551971435547e+01 3.299701929092407227e+00 2.179272174835205078e+00
1.707000000000000000e+03 7.736997985839843750e+01 -6.442173004150390625e+00 -1.019874811172485352e+00 1.085173416137695312e+01 2.949557781219482422e+00 2.898050844669342041e-02
1.708000000000000000e+03 3.924114227294921875e+01 1.559466743469238281e+01 3.255606889724731445e-01 3.568677604198455811e-01 2.047285437583923340e-01 4.029981791973114014e-01
1.709000000000000000e+03 1.062396240234375000e+01 1.092824459075927734e+01 -7.244276255369186401e-02 -3.763016462326049805e-01 -1.346233189105987549e-01 5.264372825622558594e-01
1.710000000000000000e+03 4.943305015563964844e+00 -1.386365985870361328e+01 -2.091358510369900614e-05 -7.700915011810138822e-05 -2.937682074843905866e-05 -6.157679308671504259e-06
1.711000000000000000e+03 5.760794448852539062e+01 8.204876899719238281e+00 6.246289610862731934e-01 7.577565312385559082e-01 4.147156476974487305e-01 1.766561418771743774e-01
1.712000000000000000e+03 8.474623680114746094e+00 -3.382954835891723633e+00 1.972171594388782978e-05 1.926894947246182710e-05 1.169719962490489706e-05 2.424016747681889683e-05
1.713000000000000000e+03 4.277048492431640625e+01 -1.530454921722412109e+01 -4.694841802120208740e-01 4.070434346795082092e-02 -1.286339610815048218e-01 -2.090134844183921814e-02
1.714000000000000000e+03 4.039092254638671875e+01 -1.435634613037109375e+01 -4.544570446014404297e-01 7.514887303113937378e-02 -1.137924492359161377e-01 3.309852629899978638e-02
1.715000000000000000e+03 7.771810054779052734e+00 -1.825657844543457031e+01 1.122686899179825559e-05 -4.323567918618209660e-05 -9.602642421668861061e-06 -3.427686533541418612e-05
1.716000000000000000e+03 2.928556251525878906e+01 -1.329092407226562500e+01 -2.452791482210159302e-01 -4.517339542508125305e-02 -8.713576197624206543e-02 1.820950061082839966e-01
1.717000000000000000e+03 4.973411178588867188e+01 -1.263175773620605469e+01 -7.930039763450622559e-01 2.897660620510578156e-02 -2.292082160711288452e-01 -1.690330803394317627e-01
1.718000000000000000e+03 4.698696899414062500e+01 -1.257236862182617188e+01 -6.881354451179504395e-01 8.870713412761688232e-02 -1.798284947872161865e-01 -7.790154963731765747e-02
1.719000000000000000e+03 5.516585922241210938e+01 -6.524429321289062500e+00 -1.557692050933837891e+00 2.308861166238784790e-01 -3.980417847633361816e-01 1.459774374961853027e-02
1.720000000000000000e+03 4.811366653442382812e+01 -1.207108306884765625e+01 -7.658873796463012695e-01 8.364462107419967651e-02 -2.046728283166885376e-01 -8.700406551361083984e-02
1.721000000000000000e+03 4.375295257568359375e+01 -1.386434745788574219e+01 -5.472779870033264160e-01 6.691280007362365723e-02 -1.441095620393753052e-01 -1.233407296240329742e-02
1.722000000000000000e+03 1.904815864562988281e+01 -1.287585639953613281e+01 -9.340287761006038636e-06 1.154026631411397830e-05 6.599936455131683033e-07 3.767598286685824860e-07
1.723000000000000000e+03 5.135778808593750000e+01 -6.529239654541015625e+00 -1.119705557823181152e+00 2.731005549430847168e-01 -2.539815008640289307e-01 1.508588641881942749e-01
1.724000000000000000e+03 3.380896377563476562e+01 -1.358794975280761719e+01 -3.432902097702026367e-01 3.929981961846351624e-02 -9.119711816310882568e-02 1.405644863843917847e-01
1.725000000000000000e+03 5.373541259765625000e+01 -9.008024215698242188e+00 -1.283658623695373535e+00 1.240420490503311157e-01 -3.478849828243255615e-01 -2.041129916906356812e-01
1.726000000000000000e+03 1.353253650665283203e+01 -2.428425979614257812e+01 4.636388330254703760e-04 3.757249578484334052e-05 1.503633975517004728e-04 3.382709837751463056e-05
1.727000000000000000e+03 6.578833007812500000e+01 -2.434455299377441406e+01 -5.639379024505615234e-01 3.111021816730499268e-01 -7.585071027278900146e-02 -1.921308338642120361e-01
1.728000000000000000e+03 5.090380859375000000e+01 -1.202843761444091797e+01 -8.649446964263916016e-01 3.234209120273590088e-02 -2.497807890176773071e-01 -2.196964621543884277e-01
1.729000000000000000e+03 1.521082592010498047e+01 4.041920185089111328e+00 -3.983707427978515625e-01 -7.492140531539916992e-01 -3.442754447460174561e-01 4.566435813903808594e-01
1.730000000000000000e+03 2.253981018066406250e+01 -3.409835052490234375e+01 2.510023536160588264e-03 -5.883299163542687893e-04 5.765081150457262993e-04 3.830749774351716042e-03
1.731000000000000000e+03 1.427798748016357422e+01 -2.808055686950683594e+01 9.073817636817693710e-04 -1.529200380900874734e-04 2.263385104015469551e-04 3.132222918793559074e-04
1.732000000000000000e+03 5.258960723876953125e+01 4.380543708801269531e+00 5.191080272197723389e-02 4.730437397956848145e-01 1.574863642454147339e-01 5.589127540588378906e-01
1.733000000000000000e+03 7.555165100097656250e+01 1.469793128967285156e+01 1.192380040884017944e-01 4.954673767089843750e+00 1.522173643112182617e+00 -6.255581974983215332e-01
1.734000000000000000e+03 7.578913879394531250e+01 1.018024802207946777e+00 2.727264910936355591e-02 7.111989498138427734e+00 2.141778707504272461e+00 -1.394293665885925293e+00
1.735000000000000000e+03 7.197992706298828125e+01 3.399731445312500000e+01 1.167190521955490112e-01 3.448680400848388672e+00 1.069619774818420410e+00 -1.847441196441650391e-01
1.736000000000000000e+03 7.451336669921875000e+01 3.135150146484375000e+01 5.872350931167602539e-02 3.815044403076171875e+00 1.162130355834960938e+00 -1.993155181407928467e-01
1.737000000000000000e+03 7.681056976318359375e+01 9.420470237731933594e+00 1.071772500872612000e-01 6.067389488220214844e+00 1.852370023727416992e+00 -7.361909151077270508e-01
1.738000000000000000e+03 7.556154632568359375e+01 1.067522621154785156e+01 1.704823970794677734e-01 5.412202358245849609e+00 1.674805521965026855e+00 -8.502278923988342285e-01
1.739000000000000000e+03 7.525482940673828125e+01 2.151272773742675781e+01 7.709032297134399414e-02 4.344521045684814453e+00 1.326483368873596191e+00 -3.932864665985107422e-01
1.740000000000000000e+03 7.679811096191406250e+01 1.624624633789062500e+01 5.694167688488960266e-02 5.081121921539306641e+00 1.541419029235839844e+00 -4.280528128147125244e-01
1.741000000000000000e+03 7.551345825195312500e+01 1.605296707153320312e+01 1.143795773386955261e-01 4.813764572143554688e+00 1.478443264961242676e+00 -5.687755942344665527e-01
1.742000000000000000e+03 7.692890167236328125e+01 2.497073888778686523e+00 5.564456805586814880e-02 7.658602237701416016e+00 2.314274072647094727e+00 -1.087062597274780273e+00
1.743000000000000000e+03 7.567484283447265625e+01 2.428310632705688477e+00 1.245472207665443420e-01 6.759424209594726562e+00 2.065191507339477539e+00 -1.377236723899841309e+00
1.744000000000000000e+03 7.557441711425781250e+01 7.981268405914306641e+00 1.929128915071487427e-01 5.781976222991943359e+00 1.792466640472412109e+00 -1.030653238296508789e+00
1.745000000000000000e+03 7.557118988037109375e+01 1.201490211486816406e+01 1.472332626581192017e-01 5.251072406768798828e+00 1.619491696357727051e+00 -7.689487338066101074e-01
1.746000000000000000e+03 7.432612609863281250e+01 1.057300472259521484e+01 2.451547533273696899e-01 4.963948726654052734e+00 1.562731027603149414e+00 -9.920272827148437500e-01
1.747000000000000000e+03 7.412352752685546875e+01 1.717114448547363281e+01 1.610608994960784912e-01 4.410002708435058594e+00 1.371319055557250977e+00 -6.277232766151428223e-01
1.748000000000000000e+03 7.545804595947265625e+01 1.740930747985839844e+01 9.858334809541702271e-02 4.682829856872558594e+00 1.434424042701721191e+00 -5.147944688796997070e-01
1.749000000000000000e+03 7.561842346191406250e+01 5.245295524597167969e+00 1.909581720829010010e-01 6.211915493011474609e+00 1.920862078666687012e+00 -1.215621113777160645e+00
1.750000000000000000e+03 7.559637451171875000e+01 6.619525432586669922e+00 1.835478097200393677e-01 5.988736152648925781e+00 1.851685166358947754e+00 -1.116979241371154785e+00
1.751000000000000000e+03 7.442097473144531250e+01 3.868846654891967773e+00 2.458875328302383423e-01 5.653336048126220703e+00 1.769767045974731445e+00 -1.468641400337219238e+00
1.752000000000000000e+03 7.332260894775390625e+01 2.818043136596679688e+01 9.756977111101150513e-02 3.751676321029663086e+00 1.154773831367492676e+00 -3.034548461437225342e-01
1.753000000000000000e+03 7.363749694824218750e+01 2.402295303344726562e+01 1.048778370022773743e-01 3.956412315368652344e+00 1.218387007713317871e+00 -4.022310078144073486e-01
1.754000000000000000e+03 7.641071319580078125e+01 2.730714988708496094e+01 3.036398813128471375e-02 4.174695491790771484e+00 1.261517882347106934e+00 -1.997168362140655518e-01
1.755000000000000000e+03 7.494278717041015625e+01 2.704878616333007812e+01 6.244162842631340027e-02 4.007984638214111328e+00 1.221127867698669434e+00 -2.703894376754760742e-01
1.756000000000000000e+03 7.622113037109375000e+01 3.015092277526855469e+01 3.085894882678985596e-02 4.031521320343017578e+00 1.218714118003845215e+00 -1.642375588417053223e-01
1.757000000000000000e+03 7.469768524169921875e+01 2.987660217285156250e+01 5.568490549921989441e-02 3.876924991607666016e+00 1.179782986640930176e+00 -2.217583507299423218e-01
1.758000000000000000e+03 7.483786773681640625e+01 2.845443916320800781e+01 5.734722316265106201e-02 3.940238952636718750e+00 1.199275851249694824e+00 -2.434315532445907593e-01
1.759000000000000000e+03 7.471357727050781250e+01 -3.250419616699218750e+01 1.525471508502960205e-01 6.555843353271484375e+00 2.012516975402832031e+00 6.418424844741821289e-01
1.760000000000000000e+03 7.478503417968750000e+01 -3.576860427856445312e+01 1.768285334110260010e-01 6.428663730621337891e+00 1.981647729873657227e+00 4.268341958522796631e-01
1.761000000000000000e+03 7.683680725097656250e+01 -2.728108024597167969e+01 3.850575163960456848e-02 8.515861511230468750e+00 2.566309928894042969e+00 6.498253941535949707e-01
1.762000000000000000e+03 7.513287353515625000e+01 -2.965709877014160156e+01 1.118746921420097351e-01 7.030594348907470703e+00 2.142740726470947266e+00 7.471624612808227539e-01
1.763000000000000000e+03 7.381120300292968750e+01 -2.340337562561035156e+01 -9.079004079103469849e-02 6.204766750335693359e+00 1.834192991256713867e+00 9.175056219100952148e-01
1.764000000000000000e+03 7.618042755126953125e+01 -2.953201293945312500e+00 -3.558161556720733643e-01 8.401173591613769531e+00 2.413607358932495117e+00 -1.184966087341308594e+00
1.765000000000000000e+03 7.370777893066406250e+01 -2.923268318176269531e+01 1.611103862524032593e-01 6.080393314361572266e+00 1.872451186180114746e+00 8.459187746047973633e-01
1.766000000000000000e+03 7.490009307861328125e+01 -3.103492355346679688e+01 1.494682133197784424e-01 6.781974315643310547e+00 2.079432725906372070e+00 7.050963640213012695e-01
1.767000000000000000e+03 7.640488433837890625e+01 -3.137023735046386719e+01 7.387334108352661133e-02 7.711909770965576172e+00 2.335734844207763672e+00 5.629626512527465820e-01
1.768000000000000000e+03 7.536529541015625000e+01 -2.832948875427246094e+01 9.386403113603591919e-02 7.285076618194580078e+00 2.213682174682617188e+00 7.700790166854858398e-01
1.769000000000000000e+03 7.580674743652343750e+01 -2.564068412780761719e+01 6.870309822261333466e-03 7.831535816192626953e+00 2.351521968841552734e+00 7.936320900917053223e-01
1.770000000000000000e+03 7.714929199218750000e+01 -2.459367752075195312e+01 -3.423000499606132507e-02 9.149274826049804688e+00 2.734513282775878906e+00 6.286934018135070801e-01
1.771000000000000000e+03 7.632273101806640625e+01 -2.187954521179199219e+01 -1.592407524585723877e-01 8.781075477600097656e+00 2.586550474166870117e+00 7.034701704978942871e-01
1.772000000000000000e+03 7.554947662353515625e+01 -2.697636413574218750e+01 5.332702025771141052e-02 7.518837928771972656e+00 2.271649599075317383e+00 7.867071628570556641e-01
1.773000000000000000e+03 7.607975006103515625e+01 -1.676360845565795898e+00 -1.812735646963119507e-01 7.936951637268066406e+00 2.326703548431396484e+00 -1.298735737800598145e+00
1.774000000000000000e+03 7.594832611083984375e+01 -3.546150624752044678e-01 -6.194722652435302734e-02 7.523046970367431641e+00 2.238329887390136719e+00 -1.360355734825134277e+00
1.775000000000000000e+03 7.626344299316406250e+01 -4.150992393493652344e+00 -5.626506805419921875e-01 8.857918739318847656e+00 2.488580465316772461e+00 -9.750047922134399414e-01
1.776000000000000000e+03 6.664383697509765625e+01 -2.313387107849121094e+01 -5.710031390190124512e-01 5.024145841598510742e-01 -2.057656086981296539e-02 -1.672997325658798218e-01
1.777000000000000000e+03 7.656681823730468750e+01 -2.075025749206542969e+01 -2.908536791801452637e-01 9.289223670959472656e+00 2.699511051177978516e+00 5.829069018363952637e-01
1.778000000000000000e+03 7.773373413085937500e+01 -1.754059982299804688e+01 -8.702363371849060059e-01 1.123523807525634766e+01 3.109500646591186523e+00 -4.535705149173736572e-01
1.779000000000000000e+03 7.425958251953125000e+01 -1.437189388275146484e+01 7.545445561408996582e-01 5.075951576232910156e+00 1.749148845672607422e+00 3.578677892684936523e+00
1.780000000000000000e+03 3.709603500366210938e+01 -1.441378879547119141e+01 -3.867040276527404785e-01 5.933957174420356750e-02 -9.820933640003204346e-02 8.500837534666061401e-02
1.781000000000000000e+03 3.698270416259765625e+01 -1.567816638946533203e+01 -3.405234813690185547e-01 4.363540932536125183e-02 -8.906642347574234009e-02 6.004134938120841980e-02
1.782000000000000000e+03 5.893703079223632812e+01 -7.136466026306152344e+00 -2.303536653518676758e+00 -2.090405486524105072e-02 -6.973322629928588867e-01 -4.018998146057128906e-01
1.783000000000000000e+03 3.040853023529052734e+00 -1.754865837097167969e+01 1.075753098120912910e-04 -2.404128463240340352e-05 2.506020609871484339e-05 8.400619663007091731e-06
1.784000000000000000e+03 4.435008049011230469e+00 2.087970924377441406e+01 4.865000769495964050e-02 -6.700541973114013672e-01 -1.864212602376937866e-01 1.168806478381156921e-01
1.785000000000000000e+03 3.025309562683105469e+00 -1.888897323608398438e+01 -1.145234346040524542e-04 1.545787563372869045e-05 -2.971966750919818878e-05 -2.721174314501695335e-05
1.786000000000000000e+03 4.400332927703857422e+00 -2.138946342468261719e+01 1.211038470501080155e-04 1.209479523822665215e-05 3.995959195890463889e-05 5.141410383657785133e-06
1.787000000000000000e+03 4.297907829284667969e+00 1.522889041900634766e+01 4.541429132223129272e-02 -5.108243227005004883e-01 -1.396230012178421021e-01 2.374195605516433716e-01
1.788000000000000000e+03 4.356164932250976562e+00 1.802916336059570312e+01 6.094685569405555725e-02 -6.068330407142639160e-01 -1.637658625841140747e-01 1.750182062387466431e-01
1.789000000000000000e+03 3.071982383728027344e+00 1.658764648437500000e+01 3.029925562441349030e-02 -5.963931679725646973e-01 -1.698281764984130859e-01 1.613407433032989502e-01
1.790000000000000000e+03 7.363574981689453125e+00 -1.960078430175781250e+01 -2.936542114184703678e-05 1.054634703905321658e-04 2.282941568410024047e-05 3.544349601725116372e-05
1.791000000000000000e+03 5.273913860321044922e+00 -1.880921173095703125e+01 -1.291041262447834015e-04 9.230124851455911994e-05 -1.104086368286516517e-05 -1.789754969649948180e-05
1.792000000000000000e+03 2.977648735046386719e+00 1.382526683807373047e+01 1.280881650745868683e-02 -4.653702080249786377e-01 -1.357684135437011719e-01 1.972000449895858765e-01
1.793000000000000000e+03 4.580045223236083984e+00 2.377882957458496094e+01 2.918330952525138855e-02 -7.119223475456237793e-01 -2.048217058181762695e-01 7.908639311790466309e-02
1.794000000000000000e+03 4.538948535919189453e+00 2.804476356506347656e+01 1.241256762295961380e-02 -7.722944617271423340e-01 -2.279645651578903198e-01 5.037420988082885742e-02
1.795000000000000000e+03 4.740472316741943359e+00 -2.817413520812988281e+01 -4.745404658024199307e-05 1.207255918416194618e-04 2.198146466980688274e-05 1.503298844909295440e-04
1.796000000000000000e+03 3.247622728347778320e+00 -2.433467674255371094e+01 -9.675343608250841498e-05 2.963127371913287789e-05 -2.013664743572007865e-05 6.699025107081979513e-06
1.797000000000000000e+03 4.486178398132324219e+00 -2.276431846618652344e+01 -7.645679579582065344e-05 3.272236426710151136e-05 -1.312032873101998121e-05 -4.753957909997552633e-06
1.798000000000000000e+03 4.067821025848388672e+00 1.254710578918457031e+01 2.752187428995966911e-03 -3.897888660430908203e-01 -1.161110028624534607e-01 2.644393444061279297e-01
1.799000000000000000e+03 5.912104606628417969e+00 2.231162452697753906e+01 5.961509048938751221e-02 -6.222271323204040527e-01 -1.687836199998855591e-01 1.163562536239624023e-01
1.800000000000000000e+03 4.591230392456054688e+00 2.524593734741210938e+01 2.324252389371395111e-02 -7.304964661598205566e-01 -2.121761739253997803e-01 6.570984423160552979e-02
1.801000000000000000e+03 4.520280838012695312e+00 2.232472229003906250e+01 3.765681758522987366e-02 -6.918913125991821289e-01 -1.962703466415405273e-01 9.643913805484771729e-02
1.802000000000000000e+03 4.543705940246582031e+00 -2.415625762939453125e+01 1.627499586902558804e-04 1.197810888697858900e-05 5.241842154646292329e-05 4.427032399689778686e-05
1.803000000000000000e+03 3.829398393630981445e+00 -9.061455726623535156e+00 -9.204757952829822898e-05 1.165813500847434625e-05 -2.411683453829027712e-05 1.210647951666032895e-05
1.804000000000000000e+03 2.926771402359008789e+00 -1.180852699279785156e+01 7.962473318912088871e-05 1.811210495361592621e-05 2.932105235231574625e-05 8.434795745415613055e-06
1.805000000000000000e+03 7.556150436401367188e+00 -1.171298980712890625e+01 -2.016440848819911480e-04 -4.845049261348322034e-05 -7.502837252104654908e-05 9.611505447537638247e-06
1.806000000000000000e+03 6.056392669677734375e+00 1.131157398223876953e+01 -2.962592244148254395e-02 -3.436419069766998291e-01 -1.119803413748741150e-01 3.556093573570251465e-01
1.807000000000000000e+03 3.826162576675415039e+00 -3.122828102111816406e+01 1.844591897679492831e-04 1.821871701395139098e-04 1.099939108826220036e-04 2.061610721284523606e-04
1.808000000000000000e+03 4.985141277313232422e+00 -2.947982978820800781e+01 2.206944627687335014e-04 1.215086813317611814e-04 1.026609461405314505e-04 2.018929662881419063e-04
1.809000000000000000e+03 5.261045455932617188e+00 3.272516250610351562e+01 8.242717012763023376e-03 -7.853295207023620605e-01 -2.331260442733764648e-01 4.173203557729721069e-02
1.810000000000000000e+03 6.315393447875976562e+00 3.623707962036132812e+01 1.981147006154060364e-02 -7.632372975349426270e-01 -2.230277359485626221e-01 3.295516222715377808e-02
1.811000000000000000e+03 4.072880268096923828e+00 3.460840225219726562e+01 7.970213890075683594e-03 -8.596627712249755859e-01 -2.555077672004699707e-01 3.099410794675350189e-02
1.812000000000000000e+03 5.118876934051513672e+00 -1.129346847534179688e+01 6.680369551759213209e-05 4.484297460294328630e-05 3.349400139995850623e-05 2.510520005216676509e-07
1.813000000000000000e+03 6.171322822570800781e+00 -1.097928905487060547e+01 -1.201592895085923374e-04 -3.524794374243356287e-05 -4.662217179429717362e-05 9.403077456227038056e-06
1.814000000000000000e+03 3.964752435684204102e+00 9.974584579467773438e+00 -4.471455141901969910e-02 -2.612620294094085693e-01 -9.179297089576721191e-02 2.378792762756347656e-01
1.815000000000000000e+03 4.957238674163818359e+00 -5.864087104797363281e+00 6.414897507056593895e-05 -1.341609549854183570e-05 1.521986268926411867e-05 -7.255897799041122198e-06
1.816000000000000000e+03 6.624879837036132812e+00 -3.038956260681152344e+01 2.677323936950415373e-04 8.793885353952646255e-05 1.067013727151788771e-04 2.827353600878268480e-04
1.817000000000000000e+03 5.249224662780761719e+00 -3.082009315490722656e+01 -4.442081262823194265e-05 2.109977795043960214e-04 4.997308860765770078e-05 2.274458820465952158e-04
1.818000000000000000e+03 5.879544258117675781e+00 3.427731323242187500e+01 1.114483084529638290e-02 -7.646729946136474609e-01 -2.260584533214569092e-01 3.591596335172653198e-02
1.819000000000000000e+03 4.483501911163330078e+00 2.932213592529296875e+01 5.293660331517457962e-03 -7.930368185043334961e-01 -2.363229393959045410e-01 4.172905534505844116e-02
1.820000000000000000e+03 4.149239540100097656e+00 7.716702938079833984e+00 -8.632972091436386108e-02 -1.579064428806304932e-01 -7.327084988355636597e-02 1.887309551239013672e-01
1.821000000000000000e+03 3.896856546401977539e+00 5.496342658996582031e+00 -7.612170279026031494e-02 -8.214191347360610962e-02 -4.747908189892768860e-02 9.662406146526336670e-02
1.822000000000000000e+03 4.856513977050781250e+00 4.144078731536865234e+00 -1.060626953840255737e-01 -4.814364388585090637e-02 -4.626190289855003357e-02 7.207120954990386963e-02
1.823000000000000000e+03 4.006266593933105469e+00 -4.718067169189453125e+00 1.680333298281766474e-05 -2.289415351697243750e-05 -1.827245796448551118e-06 -2.262132511532399803e-05
1.824000000000000000e+03 5.409980392456054688e+01 -3.219914627075195312e+01 -2.440188825130462646e-01 -8.309636712074279785e-01 -3.224947750568389893e-01 -7.075608372688293457e-01
1.825000000000000000e+03 5.482207870483398438e+01 -8.300399780273437500e+00 -1.474438428878784180e+00 1.240259334444999695e-01 -4.051237404346466064e-01 -1.901631206274032593e-01
1.826000000000000000e+03 6.240893173217773438e+01 -5.154762744903564453e+00 -2.969130992889404297e+00 -5.594134926795959473e-01 -1.058563351631164551e+00 3.277604579925537109e-01
1.827000000000000000e+03 1.444870948791503906e+01 -2.929230880737304688e+01 9.030280634760856628e-04 5.348092236090451479e-05 2.869527088478207588e-04 5.771280848421156406e-04
1.828000000000000000e+03 1.490143680572509766e+01 -1.024426841735839844e+01 -2.709465115913189948e-05 -1.933578641910571605e-05 -1.392913145537022501e-05 -3.209900387446396053e-05
1.829000000000000000e+03 1.362752056121826172e+01 -9.915469169616699219e+00 5.204126500757411122e-05 1.143186727858847007e-05 1.904193959489930421e-05 3.366139208083041012e-05
1.830000000000000000e+03 5.654203796386718750e+01 -3.295775222778320312e+01 1.755834370851516724e-01 -7.165944576263427734e-01 -1.623033136129379272e-01 -5.482190251350402832e-01
1.831000000000000000e+03 7.035649776458740234e+00 -2.247445678710937500e+01 8.366650035895872861e-06 2.088493783958256245e-05 8.775476089795120060e-06 3.203985761501826346e-05
1.832000000000000000e+03 4.482966232299804688e+01 -1.349819183349609375e+01 -5.852735042572021484e-01 7.737418264150619507e-02 -1.523697972297668457e-01 -4.188107699155807495e-02
1.833000000000000000e+03 5.264436721801757812e+01 -9.684575080871582031e+00 -1.168903827667236328e+00 1.062292903661727905e-01 -3.188023567199707031e-01 -1.727031469345092773e-01
1.834000000000000000e+03 6.742921447753906250e+01 -5.480864524841308594e+00 -2.659179210662841797e+00 -9.197899103164672852e-01 -1.073690772056579590e+00 -4.017656445503234863e-01
1.835000000000000000e+03 5.351212310791015625e+01 5.176637649536132812e+00 2.255342006683349609e-01 5.440768003463745117e-01 2.308833003044128418e-01 4.548442661762237549e-01
1.836000000000000000e+03 8.134056091308593750e+00 -1.692819404602050781e+01 -9.822388528846204281e-05 1.307999045820906758e-04 9.772806151886470616e-06 4.967381391907110810e-05
1.837000000000000000e+03 6.961074829101562500e+00 -1.543885803222656250e+01 -1.085952753783203661e-04 1.997281833610031754e-05 -2.658673656696919352e-05 -5.374550164560787380e-05
1.838000000000000000e+03 5.898886489868164062e+01 -3.095466995239257812e+01 -4.603992775082588196e-02 -7.369744777679443359e-01 -2.349043190479278564e-01 -4.962192773818969727e-01
1.839000000000000000e+03 5.953747940063476562e+01 -2.962444686889648438e+01 -3.930906057357788086e-01 -8.549670577049255371e-01 -3.744173049926757812e-01 -6.001955270767211914e-01
1.840000000000000000e+03 4.907764053344726562e+01 2.717381238937377930e+00 -2.393682748079299927e-01 1.095924600958824158e-01 -3.893274441361427307e-02 5.984309911727905273e-01
1.841000000000000000e+03 4.802149200439453125e+01 3.557465791702270508e+00 -2.205647528171539307e-01 -5.131465569138526917e-02 -8.156382292509078979e-02 5.620846152305603027e-01
1.842000000000000000e+03 3.438711547851562500e+01 -3.613407516479492188e+01 -6.934742908924818039e-03 -9.058259427547454834e-03 -4.797901026904582977e-03 -3.477189224213361740e-03
1.843000000000000000e+03 4.351855087280273438e+01 -3.793825149536132812e+01 8.418233692646026611e-02 -2.943504452705383301e-01 -6.305043399333953857e-02 -1.492954492568969727e-01
1.844000000000000000e+03 1.190443611145019531e+01 -2.232211112976074219e+01 2.014236233662813902e-04 1.140665845014154911e-04 9.464706090511754155e-05 8.082402200670912862e-05
1.845000000000000000e+03 6.550616455078125000e+01 -3.655919790267944336e+00 -1.646371483802795410e+00 -1.090245962142944336e+00 -8.209851980209350586e-01 -9.944929182529449463e-02
1.846000000000000000e+03 1.313324928283691406e+01 4.380780696868896484e+00 -4.442062675952911377e-01 -5.151532292366027832e-01 -2.878078520298004150e-01 3.540526926517486572e-01
1.847000000000000000e+03 5.608307647705078125e+01 4.488565921783447266e+00 2.003260850906372070e-01 4.772146344184875488e-01 2.032622247934341431e-01 3.643088936805725098e-01
1.848000000000000000e+03 4.695713043212890625e+01 -3.780160903930664062e+01 1.945530474185943604e-01 -5.006703138351440430e-01 -9.183517843484878540e-02 -2.665491104125976562e-01
1.849000000000000000e+03 5.092183685302734375e+01 -3.454088211059570312e+01 8.714240044355392456e-02 -6.776897311210632324e-01 -1.771641969680786133e-01 -5.196872353553771973e-01
1.850000000000000000e+03 2.059785079956054688e+01 -3.300421905517578125e+01 2.265774877741932869e-03 -3.076932625845074654e-04 5.874244961887598038e-04 2.694653347134590149e-03
1.851000000000000000e+03 4.319961547851562500e+01 6.889055252075195312e+00 -4.160475432872772217e-01 1.444984879344701767e-02 -1.204793080687522888e-01 2.661588788032531738e-01
1.852000000000000000e+03 4.215128707885742188e+01 4.908138275146484375e+00 -3.783072531223297119e-01 4.496592283248901367e-02 -1.000023931264877319e-01 2.876705825328826904e-01
1.853000000000000000e+03 1.044321727752685547e+01 1.209130954742431641e+01 5.187074095010757446e-02 -4.217785000801086426e-01 -1.109723299741744995e-01 5.125822424888610840e-01
1.854000000000000000e+03 1.148428630828857422e+01 1.343680953979492188e+01 2.284494042396545410e-01 -4.209513962268829346e-01 -5.775060132145881653e-02 4.537358880043029785e-01
1.855000000000000000e+03 6.281613922119140625e+01 -2.559671592712402344e+01 -8.962892293930053711e-01 -7.736971378326416016e-01 -5.009958744049072266e-01 -7.050259113311767578e-01
1.856000000000000000e+03 5.838493728637695312e+01 1.109472751617431641e+01 5.103206634521484375e-01 1.148980975151062012e+00 4.977904856204986572e-01 -2.987958956509828568e-03
1.857000000000000000e+03 5.686462402343750000e+01 -3.051516914367675781e+01 -4.601905047893524170e-01 -9.095666408538818359e-01 -4.109271466732025146e-01 -7.914663553237915039e-01
1.858000000000000000e+03 4.189508056640625000e+01 7.986416816711425781e+00 -3.868117034435272217e-01 1.267766356468200684e-01 -7.801052182912826538e-02 2.951584458351135254e-01
1.859000000000000000e+03 1.735835075378417969e+01 -9.143651962280273438e+00 2.759548624453600496e-05 2.466007799739600159e-06 9.018447599373757839e-06 -7.131171514629386365e-06
1.860000000000000000e+03 1.258549499511718750e+01 -2.763519096374511719e+01 6.806622259318828583e-04 -8.846782293403521180e-05 1.776583085302263498e-04 4.077981575392186642e-04
1.861000000000000000e+03 5.281763458251953125e+01 -3.479184341430664062e+01 2.030558884143829346e-01 -7.702884674072265625e-01 -1.701697856187820435e-01 -5.376474857330322266e-01
1.862000000000000000e+03 4.570860290527343750e+01 -3.565582275390625000e+01 -2.057884447276592255e-02 -3.454872369766235352e-01 -1.098198220133781433e-01 -3.247641026973724365e-01
1.863000000000000000e+03 2.712735176086425781e+01 1.478173255920410156e+01 -3.347469866275787354e-01 -5.010360479354858398e-01 -2.507349252700805664e-01 3.097874820232391357e-01
1.864000000000000000e+03 1.840195846557617188e+01 -2.996908950805664062e+01 2.131395274773240089e-03 -5.182165186852216721e-04 4.839536268264055252e-04 7.300528232008218765e-04
1.865000000000000000e+03 6.269797515869140625e+01 -2.799633407592773438e+01 -3.039678931236267090e-01 -3.164714872837066650e-01 -1.861318200826644897e-01 -2.967242896556854248e-01
1.866000000000000000e+03 6.488314056396484375e+01 -2.558090782165527344e+01 -5.105021595954895020e-01 1.339162439107894897e-01 -1.129757687449455261e-01 -2.146244198083877563e-01
1.867000000000000000e+03 6.175830078125000000e+01 -2.658305740356445312e+01 -8.725414276123046875e-01 -9.311020970344543457e-01 -5.410930514335632324e-01 -7.166054248809814453e-01
1.868000000000000000e+03 4.369346618652343750e+01 5.648015499114990234e+00 -3.868272304534912109e-01 -3.954143822193145752e-02 -1.279105991125106812e-01 2.693288922309875488e-01
1.869000000000000000e+03 6.750615692138671875e+01 -2.195954513549804688e+01 -5.564659833908081055e-01 7.784542441368103027e-01 6.659648567438125610e-02 -9.632104635238647461e-02
1.870000000000000000e+03 6.775621032714843750e+01 -1.880823898315429688e+01 -8.654776215553283691e-01 1.526841055601835251e-02 -2.550627589225769043e-01 -5.851054787635803223e-01
1.871000000000000000e+03 5.897239685058593750e+01 1.405165290832519531e+01 4.658766388893127441e-01 1.382895231246948242e+00 5.546315312385559082e-01 -2.716014385223388672e-01
1.872000000000000000e+03 9.007208824157714844e+00 -1.863628196716308594e+01 -2.777703775791451335e-05 4.298469502828083932e-05 4.562296908261487260e-06 -4.127376996621023864e-06
1.873000000000000000e+03 9.218926429748535156e+00 -2.172374343872070312e+01 1.430598149454453960e-05 -9.494618279859423637e-05 -2.419206066406331956e-05 -1.761453131621237844e-05
1.874000000000000000e+03 7.505894470214843750e+01 3.997391510009765625e+01 4.885890334844589233e-02 3.736777067184448242e+00 1.135690808296203613e+00 -2.130525931715965271e-02
1.875000000000000000e+03 6.127974700927734375e+01 -4.894316196441650391e+00 -2.408861637115478516e+00 -2.004358321428298950e-01 -7.827892899513244629e-01 2.559162080287933350e-01
1.876000000000000000e+03 6.942773437500000000e+01 -1.687472534179687500e+01 -5.999190807342529297e-01 6.833015680313110352e-01 2.501474320888519287e-02 -5.223313570022583008e-01
1.877000000000000000e+03 2.760293769836425781e+01 -3.555804824829101562e+01 1.795725314877927303e-03 9.523889748379588127e-04 8.244342752732336521e-04 6.843154784291982651e-03
1.878000000000000000e+03 5.128439712524414062e+01 2.271798706054687500e+01 6.245453357696533203e-01 5.564866662025451660e-01 3.543096184730529785e-01 -5.575016885995864868e-02
1.879000000000000000e+03 4.507801437377929688e+01 2.343196487426757812e+01 4.789917767047882080e-01 5.476270318031311035e-01 3.079856336116790771e-01 2.444394230842590332e-01
1.880000000000000000e+03 2.314362907409667969e+01 -1.703129649162292480e+00 -5.891246199607849121e-01 -1.181531250476837158e-01 -2.121833264827728271e-01 3.256442844867706299e-01
1.881000000000000000e+03 2.180258560180664062e+01 2.140369892120361328e+00 -2.176809608936309814e-01 5.868728831410408020e-02 -4.769809916615486145e-02 3.487433493137359619e-01
1.882000000000000000e+03 1.694746208190917969e+01 -8.537268638610839844e+00 -1.586947291798423976e-05 -7.608041869389126077e-06 -7.043254754535155371e-06 -4.018423624074785039e-06
1.883000000000000000e+03 1.613190269470214844e+01 -1.068573665618896484e+01 2.602052336442284286e-05 1.967838943528477103e-05 1.370967402181122452e-05 1.595931462361477315e-05
1.884000000000000000e+03 2.561135864257812500e+01 3.855458259582519531e+00 1.076589301228523254e-01 8.461625128984451294e-02 5.768255516886711121e-02 1.294424086809158325e-01
1.885000000000000000e+03 2.422631072998046875e+01 1.952065944671630859e+00 -2.119864523410797119e-01 1.123713627457618713e-01 -2.988452836871147156e-02 1.733961254358291626e-01
1.886000000000000000e+03 5.932748794555664062e+01 1.210305309295654297e+01 5.320160984992980957e-01 1.270983695983886719e+00 5.408999323844909668e-01 -1.715773344039916992e-01
1.887000000000000000e+03 6.593106269836425781e+00 -1.790589141845703125e+01 -7.228894537547603250e-05 1.002829521894454956e-04 8.398202226089779288e-06 1.192735453514615074e-06
1.888000000000000000e+03 6.251859664916992188e+00 -1.913290405273437500e+01 -3.661851451397524215e-06 -7.227350579341873527e-05 -2.278060856042429805e-05 -3.378992914804257452e-05
1.889000000000000000e+03 4.239852142333984375e+01 7.269876480102539062e+00 -3.881968259811401367e-01 7.987482100725173950e-02 -9.249660372734069824e-02 2.794436514377593994e-01
1.890000000000000000e+03 2.252360153198242188e+01 2.091474533081054688e+01 2.183663249015808105e-01 -3.893370330333709717e-01 -5.129121243953704834e-02 4.933531284332275391e-01
1.891000000000000000e+03 2.509719848632812500e+01 1.879013442993164062e+01 1.458129286766052246e-01 -5.435080528259277344e-01 -1.193085387349128723e-01 3.603491187095642090e-01
1.892000000000000000e+03 6.894969940185546875e+00 1.805537414550781250e+01 1.320250481367111206e-01 -5.307807326316833496e-01 -1.196267083287239075e-01 2.239154577255249023e-01
1.893000000000000000e+03 5.605392074584960938e+01 2.239591789245605469e+01 5.044351220130920410e-01 1.181548118591308594e+00 5.057950019836425781e-01 -3.737246692180633545e-01
1.894000000000000000e+03 5.447657012939453125e+01 2.157478904724121094e+01 5.050419569015502930e-01 8.875945210456848145e-01 4.177909493446350098e-01 -3.283411264419555664e-01
1.895000000000000000e+03 5.091397094726562500e+01 2.459338760375976562e+01 6.200413703918457031e-01 6.973006129264831543e-01 3.952026069164276123e-01 -2.220556698739528656e-02
1.896000000000000000e+03 3.644940567016601562e+01 1.391190910339355469e+01 8.300386369228363037e-02 1.779950708150863647e-01 7.829967886209487915e-02 4.703726768493652344e-01
1.897000000000000000e+03 2.973935317993164062e+01 8.556750297546386719e+00 8.101973682641983032e-03 -1.906038373708724976e-01 -5.475056171417236328e-02 5.450736880302429199e-01
1.898000000000000000e+03 2.829190063476562500e+01 1.041525650024414062e+01 -1.487272828817367554e-01 -3.173004686832427979e-01 -1.398083269596099854e-01 6.193881034851074219e-01
1.899000000000000000e+03 2.799708175659179688e+01 1.808256149291992188e+01 5.754372850060462952e-02 -3.788541257381439209e-01 -9.639312326908111572e-02 2.617852389812469482e-01
1.900000000000000000e+03 2.130077552795410156e+01 2.015573501586914062e+01 1.968306154012680054e-01 -2.742149531841278076e-01 -2.321529574692249298e-02 5.441071391105651855e-01
1.901000000000000000e+03 4.486104583740234375e+01 2.167852973937988281e+01 4.585630893707275391e-01 5.656234622001647949e-01 3.072559535503387451e-01 3.116916120052337646e-01
1.902000000000000000e+03 1.739810943603515625e+01 1.913695526123046875e+01 1.800259500741958618e-01 1.227432936429977417e-01 9.083077311515808105e-02 3.612189888954162598e-01
1.903000000000000000e+03 3.820413970947265625e+01 1.062010383605957031e+01 -1.134219765663146973e-01 2.529613375663757324e-01 4.186180606484413147e-02 5.402310490608215332e-01
1.904000000000000000e+03 7.568523406982421875e+01 -8.417778968811035156e+00 -1.777932882308959961e+00 1.108158683776855469e+01 2.791096210479736328e+00 -1.696751475334167480e+00
1.905000000000000000e+03 7.600421142578125000e+01 -9.151968955993652344e+00 -2.119088172912597656e+00 1.310095596313476562e+01 3.294560194015502930e+00 -1.770375013351440430e+00
1.906000000000000000e+03 7.596613311767578125e+01 -1.460627365112304688e+01 -2.042027950286865234e+00 1.478295612335205078e+01 3.822278261184692383e+00 2.823997735977172852e+00
1.907000000000000000e+03 7.487478637695312500e+01 -1.415977382659912109e+01 5.241566300392150879e-01 8.435804367065429688e+00 2.687988281250000000e+00 5.068397521972656250e+00
1.908000000000000000e+03 7.688375091552734375e+01 -1.004267978668212891e+01 -2.140973567962646484e+00 1.667401313781738281e+01 4.359911918640136719e+00 1.059647798538208008e+00
1.909000000000000000e+03 7.382192993164062500e+01 -1.436200904846191406e+01 7.234992980957031250e-01 3.366505622863769531e+00 1.227001428604125977e+00 2.622885465621948242e+00
1.910000000000000000e+03 7.336424255371093750e+01 -1.444751453399658203e+01 5.199204087257385254e-01 2.516839742660522461e+00 9.110280871391296387e-01 1.814071893692016602e+00
1.911000000000000000e+03 7.630633544921875000e+01 -9.757414817810058594e+00 -2.400515556335449219e+00 1.545719242095947266e+01 3.917002916336059570e+00 -1.065286517143249512e+00
1.912000000000000000e+03 7.283541107177734375e+01 -9.626766204833984375e+00 1.715363711118698120e-01 2.142256259918212891e+00 6.941377520561218262e-01 -9.949786067008972168e-01
1.913000000000000000e+03 7.308939361572265625e+01 -1.447363471984863281e+01 4.011208713054656982e-01 2.014946460723876953e+00 7.248201966285705566e-01 1.406307101249694824e+00
1.914000000000000000e+03 7.233219909667968750e+01 -1.500706958770751953e+01 1.650095432996749878e-01 1.762174963951110840e+00 5.781553387641906738e-01 6.278743743896484375e-01
1.915000000000000000e+03 7.334944152832031250e+01 -1.588234329223632812e+01 1.543899178504943848e-01 4.469819068908691406e+00 1.387262701988220215e+00 1.868886828422546387e+00
1.916000000000000000e+03 7.463116455078125000e+01 -1.452398777008056641e+01 2.933462560176849365e-01 7.322190761566162109e+00 2.284661054611206055e+00 4.166093349456787109e+00
1.917000000000000000e+03 7.414384460449218750e+01 -1.506753349304199219e+01 2.108770310878753662e-01 5.815957069396972656e+00 1.808050155639648438e+00 3.046370267868041992e+00
1.918000000000000000e+03 7.565811920166015625e+01 -1.435682678222656250e+01 -1.462022900581359863e+00 1.401070117950439453e+01 3.764603376388549805e+00 4.037323951721191406e+00
1.919000000000000000e+03 7.839665985107421875e+01 -1.370649147033691406e+01 6.591211557388305664e-01 1.116707897186279297e+01 3.547859907150268555e+00 -3.346199274063110352e+00
1.920000000000000000e+03 7.755723571777343750e+01 -1.090212345123291016e+01 1.551815867424011230e+00 1.584911060333251953e+01 5.220277786254882812e+00 3.905606508255004883e+00
1.921000000000000000e+03 7.592263793945312500e+01 -9.642732620239257812e+00 -2.118818283081054688e+00 1.394744205474853516e+01 3.548587083816528320e+00 -2.306905746459960938e+00
1.922000000000000000e+03 7.343516540527343750e+01 -9.860664367675781250e+00 4.899442493915557861e-01 2.878099679946899414e+00 1.010413169860839844e+00 -1.880889058113098145e+00
1.923000000000000000e+03 7.610044860839843750e+01 -1.486499309539794922e+01 -2.210391998291015625e+00 1.432114791870117188e+01 3.633226633071899414e+00 1.927718877792358398e+00
1.924000000000000000e+03 7.369465637207031250e+01 -1.480936622619628906e+01 5.978183746337890625e-01 4.007171630859375000e+00 1.381497025489807129e+00 2.521384954452514648e+00
1.925000000000000000e+03 7.718016815185546875e+01 -1.026682567596435547e+01 -1.269624948501586914e+00 1.654605484008789062e+01 4.582928657531738281e+00 2.208600521087646484e+00
1.926000000000000000e+03 7.885341644287109375e+01 -1.282521152496337891e+01 9.562087655067443848e-01 6.438110351562500000e+00 2.218295574188232422e+00 -1.499012351036071777e+00
1.927000000000000000e+03 7.772453308105468750e+01 -1.410260391235351562e+01 -3.693125247955322266e-01 1.433984279632568359e+01 4.191159248352050781e+00 -3.373490810394287109e+00
1.928000000000000000e+03 2.830526542663574219e+01 -1.131673908233642578e+01 -3.109752833843231201e-01 -6.585357338190078735e-02 -1.130486503243446350e-01 2.433330267667770386e-01
1.929000000000000000e+03 2.801594924926757812e+01 -8.728196144104003906e+00 -4.296159446239471436e-01 -4.451414570212364197e-02 -1.422390192747116089e-01 2.923976182937622070e-01
1.930000000000000000e+03 1.667238998413085938e+01 -7.936995029449462891e+00 2.618820872157812119e-05 -7.474643552995985374e-06 5.614069777948316187e-06 9.840945494943298399e-06
1.931000000000000000e+03 1.785637283325195312e+01 -9.653469085693359375e+00 -4.134571281610988081e-05 1.201692884933436289e-05 -8.798635462881065905e-06 -3.787289642787072808e-06
1.932000000000000000e+03 7.803585815429687500e+01 -7.786610126495361328e+00 -1.075202465057373047e+00 1.163929367065429688e+01 3.169227123260498047e+00 1.055758476257324219e+00
1.933000000000000000e+03 7.755969238281250000e+01 -8.423444747924804688e+00 -1.688000082969665527e+00 1.224752902984619141e+01 3.167858600616455078e+00 1.272386193275451660e+00
1.934000000000000000e+03 7.135865020751953125e+01 -7.422760486602783203e+00 -1.253526926040649414e+00 2.422598361968994141e+00 3.507214486598968506e-01 -5.788654088973999023e-01
1.935000000000000000e+03 2.836493682861328125e+01 -9.484666824340820312e+00 -3.950040042400360107e-01 -3.966733813285827637e-02 -1.304014027118682861e-01 2.766649425029754639e-01
1.936000000000000000e+03 1.924850463867187500e+01 6.550260782241821289e-01 -4.068795144557952881e-01 -4.235394895076751709e-01 -2.491257041692733765e-01 5.736920237541198730e-01
1.937000000000000000e+03 5.061872959136962891e+00 -5.066960811614990234e+00 -5.523299842025153339e-05 1.323040237366512883e-06 -1.617298767087049782e-05 -2.811692411341937259e-06
1.938000000000000000e+03 3.656318902969360352e+00 -5.964421272277832031e+00 2.259592974951374345e-07 -2.511576894903555512e-05 -7.466942861356073990e-06 -2.644103551574517041e-05
1.939000000000000000e+03 7.642588806152343750e+01 -6.285292625427246094e+00 -1.183894872665405273e+00 9.955406188964843750e+00 2.631453275680541992e+00 -6.392284631729125977e-01
1.940000000000000000e+03 1.358094596862792969e+01 -7.096708297729492188e+00 5.218399019213393331e-05 -1.420344324287725613e-05 1.139416326623177156e-05 6.592812496819533408e-06
1.941000000000000000e+03 6.996706390380859375e+01 -1.652247047424316406e+01 -4.782902300357818604e-01 9.247966408729553223e-01 1.339519172906875610e-01 -4.092862308025360107e-01
1.942000000000000000e+03 7.382460784912109375e+01 -1.523552322387695312e+01 2.162246853113174438e-01 5.078521251678466797e+00 1.588423728942871094e+00 2.500969171524047852e+00
1.943000000000000000e+03 3.159944534301757812e+01 -1.389871692657470703e+01 -2.850299775600433350e-01 3.824288723990321159e-03 -8.436170965433120728e-02 1.513958722352981567e-01
1.944000000000000000e+03 1.547675418853759766e+01 -7.839421749114990234e+00 -3.236291377106681466e-05 -7.115571406757226214e-06 -1.184354550787247717e-05 -4.423261088959407061e-06
1.945000000000000000e+03 7.141342639923095703e+00 -4.753313064575195312e+00 -8.206995516957249492e-06 4.052985605085268617e-05 9.696858796814922243e-06 2.945534106402192265e-05
1.946000000000000000e+03 1.099457073211669922e+01 -6.801337242126464844e+00 -3.058628863072954118e-05 -1.615679138922132552e-06 -9.660590876592323184e-06 1.312449057877529413e-06
1.947000000000000000e+03 7.726482391357421875e+00 -4.030864715576171875e+00 2.382993989158421755e-05 1.808275192161090672e-05 1.257380790775641799e-05 2.266819137730635703e-05
1.948000000000000000e+03 5.800831794738769531e+00 -5.057354450225830078e+00 6.591003329958766699e-05 -9.956900612451136112e-06 1.678593980614095926e-05 2.584063076938036829e-05
1.949000000000000000e+03 6.523988246917724609e+00 -4.949297904968261719e+00 -2.189613405789714307e-05 -2.031270196312107146e-05 -1.266265098820440471e-05 -5.025857171858660877e-05
1.950000000000000000e+03 1.299678802490234375e+01 -8.591341018676757812e+00 6.581882917089387774e-05 4.799804628419224173e-06 2.118558950314763933e-05 7.350216947088483721e-06
1.951000000000000000e+03 1.033538150787353516e+01 -4.684921741485595703e+00 2.780893919407390058e-05 2.018218219745904207e-05 1.439733659935882315e-05 1.488342513766838238e-05
1.952000000000000000e+03 7.224961853027343750e+01 -8.829824447631835938e+00 -2.590214312076568604e-01 2.365746259689331055e+00 6.320174336433410645e-01 -6.422663927078247070e-01
1.953000000000000000e+03 7.242511749267578125e+01 -7.812830448150634766e+00 -7.797541618347167969e-01 3.544492244720458984e+00 8.294214010238647461e-01 -1.137640714645385742e+00
1.954000000000000000e+03 5.757228851318359375e+00 5.369146823883056641e+00 -1.575380861759185791e-01 -8.974885195493698120e-02 -7.418607920408248901e-02 1.574220359325408936e-01
1.955000000000000000e+03 3.447672128677368164e+00 6.311022281646728516e+00 -6.706635653972625732e-02 -9.806831181049346924e-02 -4.954040050506591797e-02 1.127380356192588806e-01
1.956000000000000000e+03 6.950910186767578125e+01 -1.577440929412841797e+01 -6.426671147346496582e-01 4.043381512165069580e-01 -7.149869203567504883e-02 -8.048144578933715820e-01
1.957000000000000000e+03 4.414546012878417969e+00 6.758374691009521484e+00 -9.850603342056274414e-02 -1.283047348260879517e-01 -6.804323196411132812e-02 1.603117883205413818e-01
1.958000000000000000e+03 7.688353538513183594e+00 5.338854312896728516e+00 -2.556760609149932861e-01 -9.925185889005661011e-02 -1.064783707261085510e-01 2.047445774078369141e-01
1.959000000000000000e+03 6.934381484985351562e+00 4.110165119171142578e+00 -1.859143227338790894e-01 -5.622314661741256714e-02 -7.264124602079391479e-02 1.196740046143531799e-01
1.960000000000000000e+03 7.642452716827392578e+00 4.144920825958251953e+00 -2.278181463479995728e-01 -7.962206751108169556e-02 -9.223206341266632080e-02 1.537700295448303223e-01
1.961000000000000000e+03 6.526685714721679688e+00 5.131286621093750000e+00 -1.932384371757507324e-01 -8.450172841548919678e-02 -8.332205563783645630e-02 1.649496257305145264e-01
1.962000000000000000e+03 2.683440780639648438e+01 -6.951789855957031250e+00 -5.024927854537963867e-01 -6.424785405397415161e-02 -1.700221896171569824e-01 3.208239376544952393e-01
1.963000000000000000e+03 2.537480926513671875e+01 -6.337030887603759766e+00 -5.367595553398132324e-01 -1.397730559110641479e-01 -2.029597759246826172e-01 3.595016896724700928e-01
1.964000000000000000e+03 2.595619392395019531e+01 -5.953294277191162109e+00 -5.451304912567138672e-01 -8.877922594547271729e-02 -1.901729106903076172e-01 3.332855701446533203e-01
1.965000000000000000e+03 2.944147682189941406e+01 -1.183021068572998047e+01 -3.151237368583679199e-01 -3.075288608670234680e-02 -1.037629842758178711e-01 2.200864851474761963e-01
1.966000000000000000e+03 2.498729705810546875e+01 -5.643243789672851562e+00 -5.730782747268676758e-01 -1.501783728599548340e-01 -2.169769853353500366e-01 3.653913438320159912e-01
1.967000000000000000e+03 2.375212860107421875e+01 6.895610690116882324e-01 -3.709863424301147461e-01 4.482778534293174744e-02 -9.784756600856781006e-02 2.277510762214660645e-01
1.968000000000000000e+03 3.294502258300781250e+01 -1.345324420928955078e+01 -3.326728940010070801e-01 3.322973474860191345e-02 -8.983294665813446045e-02 1.490355879068374634e-01
1.969000000000000000e+03 8.835815429687500000e+00 -4.831522941589355469e+00 -3.353197462274692953e-05 -9.709300684335175902e-06 -1.297238304687198251e-05 -4.503483796725049615e-05
1.970000000000000000e+03 2.407438087463378906e+01 -4.234912395477294922e+00 -6.285888552665710449e-01 -1.652563214302062988e-01 -2.381535619497299194e-01 3.687720000743865967e-01
1.971000000000000000e+03 1.524517726898193359e+01 -6.821305274963378906e+00 -3.410188219277188182e-05 -2.326788262507761829e-06 -1.092860111384652555e-05 -1.135580441768979654e-05
1.972000000000000000e+03 1.367760372161865234e+01 3.415339708328247070e+00 -3.810297250747680664e-01 -5.178126692771911621e-01 -2.696527242660522461e-01 3.894351124763488770e-01
1.973000000000000000e+03 1.582430076599121094e+01 -7.160785675048828125e+00 3.207474583177827299e-05 3.130940967821516097e-06 1.056170640367781743e-05 8.922100278141442686e-06
1.974000000000000000e+03 1.025845527648925781e+01 4.124484062194824219e+00 -3.472900688648223877e-01 -1.853881627321243286e-01 -1.598034650087356567e-01 2.235906720161437988e-01
1.975000000000000000e+03 8.546006202697753906e+00 5.129508495330810547e+00 -2.904798388481140137e-01 -1.345937848091125488e-01 -1.275220811367034912e-01 2.243845015764236450e-01
1.976000000000000000e+03 2.356540298461914062e+01 -3.545174360275268555e+00 -6.432577967643737793e-01 -1.714038252830505371e-01 -2.443984746932983398e-01 3.696238100528717041e-01
1.977000000000000000e+03 2.362928581237792969e+01 -2.433088541030883789e+00 -6.086003184318542480e-01 -1.097503602504730225e-01 -2.155051976442337036e-01 3.255671262741088867e-01
1.978000000000000000e+03 1.225899887084960938e+01 4.636756896972656250e+00 -4.264490902423858643e-01 -4.416708350181579590e-01 -2.604359686374664307e-01 3.294622898101806641e-01
1.979000000000000000e+03 1.134106349945068359e+01 4.831283092498779297e+00 -4.136329293251037598e-01 -3.121501505374908447e-01 -2.177349179983139038e-01 2.836225330829620361e-01
1.980000000000000000e+03 7.786079406738281250e+01 -1.028835201263427734e+01 -3.587144911289215088e-01 1.368591976165771484e+01 3.998161554336547852e+00 3.261651992797851562e+00
1.981000000000000000e+03 7.752793121337890625e+01 -9.904595375061035156e+00 -1.391561031341552734e+00 1.481279945373535156e+01 4.026371479034423828e+00 2.463447332382202148e+00
1.982000000000000000e+03 3.592025756835937500e+01 -1.554709720611572266e+01 -3.249363899230957031e-01 3.581206128001213074e-02 -8.673729747533798218e-02 8.025819808244705200e-02
1.983000000000000000e+03 1.393368530273437500e+01 -8.962944984436035156e+00 -5.013510599383153021e-05 2.227910044894088060e-06 -1.437215814803494141e-05 -1.832635643950197846e-05
1.984000000000000000e+03 1.287047481536865234e+01 -7.340522766113281250e+00 2.701840639929287136e-05 1.713186429697088897e-05 1.324508139077806845e-05 -1.122638332162750885e-05
1.985000000000000000e+03 3.103189659118652344e+01 -1.340953159332275391e+01 -2.910786867141723633e-01 -5.236642435193061829e-03 -8.889459818601608276e-02 1.691191047430038452e-01
1.986000000000000000e+03 2.989950942993164062e+01 -1.364642715454101562e+01 -2.501745223999023438e-01 -3.516918793320655823e-02 -8.560311049222946167e-02 1.701757907867431641e-01
1.987000000000000000e+03 7.823240756988525391e+00 6.075216293334960938e+00 -2.601335048675537109e-01 -1.417985707521438599e-01 -1.205796226859092712e-01 2.635726332664489746e-01
1.988000000000000000e+03 6.170890426635742188e+01 -2.801093816757202148e+00 -1.454427123069763184e+00 -3.507364690303802490e-01 -5.415490865707397461e-01 4.403433501720428467e-01
1.989000000000000000e+03 6.158383941650390625e+01 -3.853049993515014648e+00 -2.046247482299804688e+00 -2.960001826286315918e-01 -7.026743292808532715e-01 4.050239920616149902e-01
1.990000000000000000e+03 4.275471878051757812e+01 5.955204963684082031e+00 -3.632789850234985352e-01 2.621912397444248199e-02 -1.011179536581039429e-01 2.561739683151245117e-01
1.991000000000000000e+03 4.325027084350585938e+01 4.458714008331298828e+00 -3.384398221969604492e-01 -1.111528929322957993e-02 -1.048665344715118408e-01 2.744327187538146973e-01
1.992000000000000000e+03 6.841661071777343750e+01 -4.925775527954101562e+00 -2.114647150039672852e+00 2.695247530937194824e-01 -5.535367131233215332e-01 -9.327598214149475098e-01
1.993000000000000000e+03 5.013227939605712891e+00 1.010421085357666016e+01 -5.637937784194946289e-02 -2.792756855487823486e-01 -1.006965190172195435e-01 2.866025865077972412e-01
1.994000000000000000e+03 1.074311923980712891e+01 9.808449745178222656e+00 -1.967864334583282471e-01 -3.921248912811279297e-01 -1.766733974218368530e-01 5.210801959037780762e-01
1.995000000000000000e+03 4.741280364990234375e+01 2.205363273620605469e+00 -2.580151259899139404e-01 1.396649749949574471e-03 -7.698553800582885742e-02 5.038630366325378418e-01
1.996000000000000000e+03 3.214177703857421875e+01 -1.349334430694580078e+01 -3.161635100841522217e-01 1.658105105161666870e-02 -8.987473696470260620e-02 1.592838019132614136e-01
1.997000000000000000e+03 2.632146072387695312e+01 1.676720261573791504e+00 -1.951739042997360229e-01 7.729133218526840210e-02 -3.536477312445640564e-02 1.308731436729431152e-01
1.998000000000000000e+03 9.001345634460449219e+00 -4.193867683410644531e+00 2.970267632917966694e-05 1.239360699401004240e-05 1.262888508790638298e-05 2.986965773743577302e-05
1.999000000000000000e+03 2.956299400329589844e+01 -1.263245105743408203e+01 -2.865294516086578369e-01 -3.275538608431816101e-02 -9.578545391559600830e-02 2.009063363075256348e-01
2.000000000000000000e+03 1.305107879638671875e+01 7.464535713195800781e+00 -5.314012765884399414e-01 -6.295339465141296387e-01 -3.482805490493774414e-01 4.227940142154693604e-01
2.001000000000000000e+03 1.194980049133300781e+01 8.692038536071777344e+00 -3.628459572792053223e-01 -4.840790331363677979e-01 -2.540774941444396973e-01 4.859210848808288574e-01
2.002000000000000000e+03 7.709851074218750000e+01 -1.837299728393554688e+01 -7.489331960678100586e-01 1.055737686157226562e+01 2.942533016204833984e+00 9.894613176584243774e-02
2.003000000000000000e+03 7.747117614746093750e+01 -1.537419795989990234e+01 -1.743761897087097168e+00 1.358019447326660156e+01 3.550929546356201172e+00 -1.647385835647583008e+00
2.004000000000000000e+03 4.925351333618164062e+01 -1.153013038635253906e+01 -8.303270936012268066e-01 9.806086122989654541e-02 -2.196798622608184814e-01 -1.204843595623970032e-01
2.005000000000000000e+03 4.879977035522460938e+01 -1.045357513427734375e+01 -8.757457733154296875e-01 1.369881033897399902e-01 -2.216272950172424316e-01 -3.841962665319442749e-02
2.006000000000000000e+03 3.927378082275390625e+01 8.307950973510742188e+00 -2.943468987941741943e-01 2.466774284839630127e-01 -1.430084276944398880e-02 4.327147305011749268e-01
2.007000000000000000e+03 5.987540435791015625e+01 1.518334484100341797e+01 4.893272519111633301e-01 1.523658633232116699e+00 6.038957834243774414e-01 -3.618845045566558838e-01
2.008000000000000000e+03 2.339225769042968750e+01 -5.346398353576660156e-01 -4.958105981349945068e-01 -3.843149542808532715e-02 -1.602726280689239502e-01 2.786738574504852295e-01
2.009000000000000000e+03 1.665480804443359375e+01 -9.780272483825683594e+00 -4.360786624602042139e-05 -2.479805061739170924e-06 -1.382630216539837420e-05 -2.867999683076050133e-06
2.010000000000000000e+03 5.711922454833984375e+01 1.897396087646484375e+01 4.370859563350677490e-01 1.303548455238342285e+00 5.221903324127197266e-01 -4.069871008396148682e-01
2.011000000000000000e+03 3.385591506958007812e+01 -1.441827201843261719e+01 -3.190573453903198242e-01 3.611399978399276733e-02 -8.488299697637557983e-02 1.234853342175483704e-01
2.012000000000000000e+03 5.185365676879882812e+01 1.739385843276977539e+00 -3.590142428874969482e-01 3.449071943759918213e-01 -4.232107661664485931e-03 6.078293323516845703e-01
2.013000000000000000e+03 1.348625469207763672e+01 5.193444728851318359e+00 -4.659760892391204834e-01 -6.611797213554382324e-01 -3.381467461585998535e-01 4.039915502071380615e-01
2.014000000000000000e+03 1.252735996246337891e+01 5.507830142974853516e+00 -4.795016348361968994e-01 -4.914382398128509521e-01 -2.912819683551788330e-01 3.385167121887207031e-01
2.015000000000000000e+03 1.157686328887939453e+01 -8.921461105346679688e+00 6.328026211122050881e-05 3.336349254823289812e-05 2.899312858062330633e-05 -6.416430551325902343e-06
2.016000000000000000e+03 1.002820491790771484e+01 -9.004503250122070312e+00 6.418523844331502914e-05 -3.275935159763321280e-05 9.427766599401365966e-06 -1.096286086976760998e-05
2.017000000000000000e+03 2.236573982238769531e+01 1.212584495544433594e+00 -3.439603447914123535e-01 2.852938696742057800e-02 -9.462928771972656250e-02 3.146315813064575195e-01
2.018000000000000000e+03 5.206887817382812500e+01 -8.654306411743164062e+00 -1.143427610397338867e+00 1.828375309705734253e-01 -2.881770431995391846e-01 -6.873139739036560059e-02
2.019000000000000000e+03 7.813108062744140625e+01 -1.546334266662597656e+01 -1.196261167526245117e+00 1.230345726013183594e+01 3.332158803939819336e+00 -2.287758350372314453e+00
2.020000000000000000e+03 9.611167907714843750e+00 5.926807880401611328e+00 -3.596538305282592773e-01 -2.077660858631134033e-01 -1.702259778976440430e-01 3.051102161407470703e-01
2.021000000000000000e+03 6.667084503173828125e+01 -3.239706277847290039e+00 -1.110947728157043457e+00 -5.869532823562622070e-01 -5.093702673912048340e-01 -7.295817732810974121e-01
2.022000000000000000e+03 5.101957702636718750e+01 -9.282575607299804688e+00 -1.067446112632751465e+00 1.622272729873657227e-01 -2.715656757354736328e-01 -5.715985968708992004e-02
2.023000000000000000e+03 4.077809524536132812e+01 2.207354354858398438e+01 3.838293254375457764e-01 4.797289669513702393e-01 2.590674757957458496e-01 2.163369208574295044e-01
2.024000000000000000e+03 4.233557891845703125e+01 2.086540222167968750e+01 3.930391371250152588e-01 5.662879347801208496e-01 2.877981364727020264e-01 2.498792409896850586e-01
2.025000000000000000e+03 1.133223342895507812e+01 1.472336006164550781e+01 3.168908059597015381e-01 -3.878324031829833984e-01 -2.128247544169425964e-02 3.729226291179656982e-01
2.026000000000000000e+03 1.022022628784179688e+01 1.330996990203857422e+01 1.663610339164733887e-01 -4.213386774063110352e-01 -7.649329304695129395e-02 4.605571329593658447e-01
2.027000000000000000e+03 1.040958118438720703e+01 4.967070579528808594e+00 -3.902450203895568848e-01 -2.406440377235412598e-01 -1.892667114734649658e-01 2.683698534965515137e-01
2.028000000000000000e+03 6.691401672363281250e+01 -2.534849739074707031e+01 -2.792220115661621094e-01 1.172968387603759766e+00 2.681239247322082520e-01 1.903420239686965942e-01
2.029000000000000000e+03 6.984077453613281250e+01 -1.920219612121582031e+01 -4.376360476016998291e-01 1.753006100654602051e+00 3.946110010147094727e-01 1.282937526702880859e-01
2.030000000000000000e+03 7.047410583496093750e+01 -1.720227432250976562e+01 -3.162404000759124756e-01 1.604126334190368652e+00 3.863657712936401367e-01 -2.941883541643619537e-02
2.031000000000000000e+03 7.164301300048828125e+01 -2.440752792358398438e+01 -5.541068315505981445e-02 4.374083995819091797e+00 1.295601963996887207e+00 8.449136614799499512e-01
2.032000000000000000e+03 3.573847579956054688e+01 -1.676380920410156250e+01 -2.850226163864135742e-01 2.646985091269016266e-02 -7.756582647562026978e-02 5.477312207221984863e-02
2.033000000000000000e+03 2.438660621643066406e+00 5.680903911590576172e+00 -3.498895093798637390e-02 -6.510245800018310547e-02 -3.002742305397987366e-02 6.051057949662208557e-02
2.034000000000000000e+03 2.004919624328613281e+01 1.058695077896118164e+00 -3.804610073566436768e-01 -2.651997506618499756e-01 -1.936982274055480957e-01 5.307338833808898926e-01
2.035000000000000000e+03 1.318234634399414062e+01 -2.868168830871582031e+01 6.695225602015852928e-04 -3.241178055759519339e-04 1.036214234773069620e-04 2.925356966443359852e-04
2.036000000000000000e+03 1.311606407165527344e+01 -2.599620437622070312e+01 6.512532127089798450e-04 -3.445122638368047774e-05 1.850405969889834523e-04 1.252292131539434195e-04
2.037000000000000000e+03 6.976017761230468750e+01 -6.919565200805664062e+00 -2.488118171691894531e+00 1.152277112007141113e+00 -4.007523059844970703e-01 -3.043292760848999023e-01
2.038000000000000000e+03 6.817083740234375000e+01 -2.072483444213867188e+01 -5.647271275520324707e-01 9.286516904830932617e-01 1.091773733496665955e-01 -9.574607014656066895e-02
2.039000000000000000e+03 5.308646011352539062e+01 -7.977839469909667969e+00 -1.295127868652343750e+00 2.020889520645141602e-01 -3.279116451740264893e-01 -4.219639673829078674e-02
2.040000000000000000e+03 5.880775451660156250e+00 -1.423721694946289062e+01 -1.110196899389848113e-04 3.074505002587102354e-05 -2.408239197393413633e-05 -3.287582512712106109e-05
2.041000000000000000e+03 5.781752109527587891e+00 -1.334429359436035156e+01 8.910295582609251142e-05 4.597068618750199676e-05 4.052209260407835245e-05 -3.300455864518880844e-05
2.042000000000000000e+03 5.153733825683593750e+01 -1.032971000671386719e+01 -1.020608663558959961e+00 1.058224886655807495e-01 -2.744358479976654053e-01 -1.664940118789672852e-01
2.043000000000000000e+03 4.037873077392578125e+01 -1.303219699859619141e+01 -4.940129220485687256e-01 9.050031751394271851e-02 -1.210537850856781006e-01 6.848212331533432007e-02
2.044000000000000000e+03 4.148554229736328125e+01 -1.298144435882568359e+01 -5.211986303329467773e-01 9.838180989027023315e-02 -1.268450468778610229e-01 4.429161548614501953e-02
2.045000000000000000e+03 2.328177070617675781e+01 1.631886124610900879e+00 -2.706171572208404541e-01 1.016136556863784790e-01 -5.070105195045471191e-02 2.285264879465103149e-01
2.046000000000000000e+03 3.818042373657226562e+01 -1.444432640075683594e+01 -4.047751128673553467e-01 6.782738864421844482e-02 -1.010843217372894287e-01 6.680247932672500610e-02
2.047000000000000000e+03 7.424263763427734375e+01 3.298373794555664062e+01 6.003444269299507141e-02 3.733254671096801758e+00 1.137986660003662109e+00 -1.841292381286621094e-01
2.048000000000000000e+03 2.958305358886718750e+01 4.545349597930908203e+00 1.184321101754903793e-02 -7.696376740932464600e-02 -1.953616738319396973e-02 2.880448698997497559e-01
2.049000000000000000e+03 2.770038795471191406e+01 5.083129405975341797e+00 1.515522599220275879e-01 -7.235798239707946777e-02 2.375828474760055542e-02 2.367628961801528931e-01
2.050000000000000000e+03 7.336662292480468750e+01 -3.061920738220214844e+01 1.952758729457855225e-01 5.785819053649902344e+00 1.794328451156616211e+00 8.185451030731201172e-01
2.051000000000000000e+03 7.478696441650390625e+01 -2.515718841552734375e+01 -8.690602146089076996e-03 7.058094501495361328e+00 2.114821195602416992e+00 8.795230984687805176e-01
2.052000000000000000e+03 7.604993438720703125e+01 -2.437185478210449219e+01 -2.507960982620716095e-02 8.206899642944335938e+00 2.454546213150024414e+00 7.746687531471252441e-01
2.053000000000000000e+03 5.556690216064453125e+00 -1.645051002502441406e+01 -9.150303230853751302e-05 5.209929440752603114e-05 -1.182112282549496740e-05 -4.877449464402161539e-05
2.054000000000000000e+03 4.184010028839111328e+00 -1.882593345642089844e+01 1.198309691972099245e-04 -2.834688893926795572e-05 2.744522498687729239e-05 -6.951718660275219008e-06
2.055000000000000000e+03 1.210348987579345703e+01 -2.668796920776367188e+01 3.571955021470785141e-04 -1.609782630112022161e-04 5.886517465114593506e-05 1.355631975457072258e-04
2.056000000000000000e+03 7.374613952636718750e+01 2.263525772094726562e+01 1.156457960605621338e-01 4.031678676605224609e+00 1.244197368621826172e+00 -4.417054355144500732e-01
2.057000000000000000e+03 7.510716247558593750e+01 2.427772521972656250e+01 6.728711724281311035e-02 4.163340568542480469e+00 1.269188284873962402e+00 -3.296094238758087158e-01
2.058000000000000000e+03 7.556986999511718750e+01 1.335265636444091797e+01 1.409730911254882812e-01 5.096702575683593750e+00 1.571302652359008789e+00 -6.929691433906555176e-01
2.059000000000000000e+03 7.402848815917968750e+01 1.851247978210449219e+01 1.454268246889114380e-01 4.303228378295898438e+00 1.334596514701843262e+00 -5.728530883789062500e-01
2.060000000000000000e+03 7.421968078613281250e+01 1.583902931213378906e+01 1.704014241695404053e-01 4.520366668701171875e+00 1.407230496406555176e+00 -6.791214346885681152e-01
2.061000000000000000e+03 7.438478088378906250e+01 2.400786876678466797e+00 1.736501306295394897e-01 5.788220405578613281e+00 1.788561224937438965e+00 -1.559328198432922363e+00
2.062000000000000000e+03 7.563851928710937500e+01 3.847310781478881836e+00 1.471637040376663208e-01 6.457993507385253906e+00 1.981547236442565918e+00 -1.305300235748291016e+00
2.063000000000000000e+03 7.454892730712890625e+01 9.218361377716064453e-01 7.573019713163375854e-02 6.060222148895263672e+00 1.840785741806030273e+00 -1.613014578819274902e+00
2.064000000000000000e+03 7.432844543457031250e+01 9.258339881896972656e+00 2.690960168838500977e-01 5.087634086608886719e+00 1.607018947601318359e+00 -1.082892298698425293e+00
2.065000000000000000e+03 7.352963256835937500e+01 2.541036224365234375e+01 1.018979772925376892e-01 3.889282941818237305e+00 1.197354316711425781e+00 -3.714961409568786621e-01
2.066000000000000000e+03 7.343407440185546875e+01 2.679099082946777344e+01 1.019472479820251465e-01 3.822174549102783203e+00 1.177236557006835938e+00 -3.393045365810394287e-01
2.067000000000000000e+03 7.502728271484375000e+01 2.566227722167968750e+01 6.442520022392272949e-02 4.081532478332519531e+00 1.243787288665771484e+00 -3.000421822071075439e-01
2.068000000000000000e+03 7.433892822265625000e+01 1.188157653808593750e+01 2.325967550277709961e-01 4.855763435363769531e+00 1.526508092880249023e+00 -9.010569453239440918e-01
2.069000000000000000e+03 7.325197601318359375e+01 5.315585613250732422e+00 3.508773446083068848e-01 4.849539756774902344e+00 1.560125231742858887e+00 -1.464547395706176758e+00
2.070000000000000000e+03 7.539449310302734375e+01 1.876783752441406250e+01 9.283387660980224609e-02 4.563055515289306641e+00 1.396766781806945801e+00 -4.714989662170410156e-01
2.071000000000000000e+03 7.312256622314453125e+01 2.957125282287597656e+01 9.131656587123870850e-02 3.690378904342651367e+00 1.134508609771728516e+00 -2.668057680130004883e-01
2.072000000000000000e+03 7.435455322265625000e+01 7.934713363647460938e+00 2.726799845695495605e-01 5.217607021331787109e+00 1.647086024284362793e+00 -1.175737738609313965e+00
2.073000000000000000e+03 6.999813079833984375e+01 3.491984939575195312e+01 1.504628956317901611e-01 3.242552280426025391e+00 1.017904520034790039e+00 -1.933745890855789185e-01
2.074000000000000000e+03 7.330361938476562500e+01 -2.488159942626953125e+01 -2.628304995596408844e-03 5.821807861328125000e+00 1.745753884315490723e+00 9.360027909278869629e-01
2.075000000000000000e+03 7.433303833007812500e+01 -2.679629707336425781e+01 6.409707665443420410e-02 6.643949985504150391e+00 2.012414216995239258e+00 8.926250338554382324e-01
2.076000000000000000e+03 7.373981475830078125e+01 -5.674813985824584961e-01 -1.150975003838539124e-01 5.639859199523925781e+00 1.657428503036499023e+00 -1.709082007408142090e+00
2.077000000000000000e+03 7.503911590576171875e+01 -2.977249383926391602e+00 -4.508931040763854980e-01 7.181256771087646484e+00 2.019109010696411133e+00 -1.444197058677673340e+00
2.078000000000000000e+03 7.429538726806640625e+01 1.450682735443115234e+01 1.943698376417160034e-01 4.629811763763427734e+00 1.447254419326782227e+00 -7.470940947532653809e-01
2.079000000000000000e+03 7.441893768310546875e+01 5.255238533020019531e+00 2.604719102382659912e-01 5.520700454711914062e+00 1.734351754188537598e+00 -1.364060401916503906e+00
2.080000000000000000e+03 7.384513092041015625e+01 2.125300788879394531e+01 1.202571690082550049e-01 4.116451740264892578e+00 1.271012663841247559e+00 -4.839984178543090820e-01
2.081000000000000000e+03 7.393733215332031250e+01 1.987654495239257812e+01 1.334667950868606567e-01 4.210061073303222656e+00 1.303058385848999023e+00 -5.261698961257934570e-01
2.082000000000000000e+03 7.635720825195312500e+01 -5.263751506805419922e+00 -8.443096876144409180e-01 9.342143058776855469e+00 2.549350023269653320e+00 -7.900822758674621582e-01
2.083000000000000000e+03 7.291080474853515625e+01 3.100080871582031250e+01 8.915693312883377075e-02 3.642035484313964844e+00 1.119357705116271973e+00 -2.404374331235885620e-01
2.084000000000000000e+03 6.684642314910888672e+00 3.181719398498535156e+01 1.157314702868461609e-02 -7.018533349037170410e-01 -2.070840448141098022e-01 5.777714774012565613e-02
2.085000000000000000e+03 6.383476257324218750e+00 -2.905094146728515625e+01 2.112912261509336531e-05 1.164051864179782569e-04 4.126029307371936738e-05 2.095937379635870457e-04
2.086000000000000000e+03 5.806178665161132812e+01 -3.917158603668212891e+00 -1.622346520423889160e+00 1.566751748323440552e-01 -4.397014081478118896e-01 3.404204249382019043e-01
2.087000000000000000e+03 5.704189682006835938e+01 -6.819524765014648438e+00 -1.859608650207519531e+00 1.451280564069747925e-01 -5.143442153930664062e-01 -1.410942226648330688e-01
2.088000000000000000e+03 4.590770244598388672e+00 2.668763542175292969e+01 1.216614805161952972e-02 -7.523682713508605957e-01 -2.220606356859207153e-01 5.593751370906829834e-02
2.089000000000000000e+03 5.911847114562988281e+00 2.825549888610839844e+01 1.477080956101417542e-02 -6.930744051933288574e-01 -2.034910768270492554e-01 6.594984233379364014e-02
2.090000000000000000e+03 4.619445800781250000e+00 -2.686296272277832031e+01 2.175982663175091147e-04 2.420808050374034792e-05 7.254190131789073348e-05 1.002405624603852630e-04
2.091000000000000000e+03 3.869369029998779297e+00 -1.031962966918945312e+01 8.317834726767614484e-05 9.756589861353859305e-06 2.788048186630476266e-05 1.710114588604483288e-06
2.092000000000000000e+03 4.032882690429687500e+00 -1.158491230010986328e+01 -8.561667345929890871e-05 -3.335507426527328789e-05 -3.569152249838225543e-05 -1.392052399751264602e-05
2.093000000000000000e+03 7.481411743164062500e+01 -4.508218467235565186e-01 -1.120136752724647522e-01 6.555565357208251953e+00 1.933065414428710938e+00 -1.603624224662780762e+00
2.094000000000000000e+03 7.405529022216796875e+01 -2.797146797180175781e+01 1.231985762715339661e-01 6.381541728973388672e+00 1.951422095298767090e+00 8.748061656951904297e-01
2.095000000000000000e+03 7.494686889648437500e+01 -1.732069373130798340e+00 -2.249964773654937744e-01 6.925344467163085938e+00 2.010104417800903320e+00 -1.513116598129272461e+00
2.096000000000000000e+03 7.459330749511718750e+01 -2.202780532836914062e+01 -1.583630889654159546e-01 7.124608993530273438e+00 2.089873790740966797e+00 8.828457593917846680e-01
2.097000000000000000e+03 5.773630142211914062e+00 -2.259166336059570312e+01 1.506521803094074130e-04 7.716313120909035206e-06 4.751054802909493446e-05 1.727534981910139322e-05
2.098000000000000000e+03 5.987562656402587891e+00 2.383967781066894531e+01 4.555521160364151001e-02 -6.344189047813415527e-01 -1.766591072082519531e-01 9.690862149000167847e-02
2.099000000000000000e+03 4.265369892120361328e+00 -2.008663940429687500e+01 -1.121797977248206735e-04 1.721660373732447624e-05 -2.848895928764250129e-05 -1.302919645240763202e-05
2.100000000000000000e+03 4.220322608947753906e+00 -1.755838966369628906e+01 -1.159728126367554069e-04 5.211030293139629066e-05 -1.915875327540561557e-05 -3.484473563730716705e-05
2.101000000000000000e+03 5.713580131530761719e+00 -1.527274513244628906e+01 7.723335147602483630e-05 -2.844002847268711776e-05 1.463799799239495769e-05 4.791180617758072913e-05
2.102000000000000000e+03 1.202152538299560547e+01 1.739994621276855469e+01 3.285429775714874268e-01 -2.937139272689819336e-01 1.044871564954519272e-02 2.184068411588668823e-01
2.103000000000000000e+03 5.424261093139648438e+00 -1.238707447052001953e+01 -8.152291411533951759e-05 -6.599076732527464628e-05 -4.425410588737577200e-05 1.834404429246205837e-05
2.104000000000000000e+03 9.340538024902343750e+00 1.681998443603515625e+01 2.299672514200210571e-01 -4.496766626834869385e-01 -6.591282039880752563e-02 2.851861119270324707e-01
2.105000000000000000e+03 5.627030372619628906e+00 1.663301849365234375e+01 9.520751982927322388e-02 -5.358192920684814453e-01 -1.321835368871688843e-01 2.465357035398483276e-01
2.106000000000000000e+03 4.192518711090087891e+00 1.387839508056640625e+01 3.191828727722167969e-02 -4.602330029010772705e-01 -1.284944117069244385e-01 2.580974996089935303e-01
2.107000000000000000e+03 4.382699012756347656e+00 1.944751930236816406e+01 5.583553761243820190e-02 -6.402386426925659180e-01 -1.753209233283996582e-01 1.466245055198669434e-01
2.108000000000000000e+03 5.925743103027343750e+00 2.535226631164550781e+01 2.998515032231807709e-02 -6.564888954162597656e-01 -1.879511177539825439e-01 8.327535539865493774e-02
2.109000000000000000e+03 4.329174995422363281e+00 -1.287182998657226562e+01 5.015551141696050763e-05 8.238496957346796989e-05 3.976214429712854326e-05 1.527170570625457913e-05
2.110000000000000000e+03 5.147691726684570312e+00 1.253586387634277344e+01 5.366794299334287643e-03 -3.902027308940887451e-01 -1.154507845640182495e-01 3.151654303073883057e-01
2.111000000000000000e+03 5.436821460723876953e+00 1.381487941741943359e+01 4.694144800305366516e-02 -4.415504634380340576e-01 -1.183827072381973267e-01 3.141185045242309570e-01
2.112000000000000000e+03 5.588081359863281250e+00 3.077400016784667969e+01 7.985382340848445892e-03 -7.438606619834899902e-01 -2.207625806331634521e-01 5.107974633574485779e-02
2.113000000000000000e+03 4.433734893798828125e+00 3.049184417724609375e+01 3.299219533801078796e-03 -8.078785538673400879e-01 -2.413737922906875610e-01 3.987123444676399231e-02
2.114000000000000000e+03 5.728926658630371094e+00 2.084108352661132812e+01 7.224806398153305054e-02 -6.083886027336120605e-01 -1.608421653509140015e-01 1.415059566497802734e-01
2.115000000000000000e+03 5.623101234436035156e+00 1.804412078857421875e+01 9.439243376255035400e-02 -5.673168897628784180e-01 -1.418773382902145386e-01 2.087680548429489136e-01
2.116000000000000000e+03 5.652673721313476562e+00 1.943789863586425781e+01 8.528228104114532471e-02 -5.936592221260070801e-01 -1.525130718946456909e-01 1.680730730295181274e-01
2.117000000000000000e+03 7.048431396484375000e+00 -2.103276252746582031e+01 8.538678230252116919e-05 -8.766793143877293915e-06 2.298599611094687134e-05 -3.882408418576233089e-05
2.118000000000000000e+03 4.662104606628417969e+00 3.153800773620605469e+01 6.794993299990892410e-03 -8.014994263648986816e-01 -2.384113371372222900e-01 3.944943472743034363e-02
2.119000000000000000e+03 1.206780052185058594e+01 -3.432631683349609375e+01 3.053573891520500183e-05 2.256131410831585526e-04 7.684466254431754351e-05 7.068263948895037174e-04
2.120000000000000000e+03 7.776138305664062500e+00 -3.293227386474609375e+01 1.982498215511441231e-04 2.296244783792644739e-04 1.283622841583564878e-04 4.767212667502462864e-04
2.121000000000000000e+03 6.019109249114990234e+00 2.687475967407226562e+01 2.157515473663806915e-02 -6.738364100456237793e-01 -1.956783831119537354e-01 7.371246814727783203e-02
2.122000000000000000e+03 5.919139385223388672e+00 -2.786157417297363281e+01 2.646505308803170919e-04 6.571919220732524991e-05 9.911091910907998681e-05 1.556829520268365741e-04
2.123000000000000000e+03 5.565883255004882812e+01 1.776387453079223633e+00 -3.024296760559082031e-01 3.605435490608215332e-01 1.743416115641593933e-02 4.923953413963317871e-01
2.124000000000000000e+03 7.405467987060546875e+01 -2.014786529541015625e+01 -3.636825978755950928e-01 6.481974601745605469e+00 1.835487604141235352e+00 9.818884730339050293e-01
2.125000000000000000e+03 7.489888000488281250e+01 -1.996750450134277344e+01 -4.334114789962768555e-01 7.547573566436767578e+00 2.134248495101928711e+00 9.397761821746826172e-01
2.126000000000000000e+03 4.003068923950195312e+00 8.801738739013671875e+00 -6.174719706177711487e-02 -2.112916707992553711e-01 -8.191166073083877563e-02 2.110857814550399780e-01
2.127000000000000000e+03 7.069371700286865234e+00 1.143277263641357422e+01 -3.254697099328041077e-02 -3.410620987415313721e-01 -1.120827272534370422e-01 3.990449309349060059e-01
2.128000000000000000e+03 5.410638427734375000e+01 -7.253159523010253906e+00 -1.396919012069702148e+00 2.229272127151489258e-01 -3.521975278854370117e-01 -3.378750383853912354e-02
2.129000000000000000e+03 5.592226409912109375e+01 -7.571324825286865234e+00 -1.622794985771179199e+00 1.381243616342544556e-01 -4.454011917114257812e-01 -1.962137222290039062e-01
2.130000000000000000e+03 5.097651481628417969e+00 8.023806571960449219e+00 -1.093634366989135742e-01 -1.856903433799743652e-01 -8.851613849401473999e-02 2.356028705835342407e-01
2.131000000000000000e+03 5.004718303680419922e+00 9.017213821411132812e+00 -8.871235698461532593e-02 -2.228397130966186523e-01 -9.346561878919601440e-02 2.680883109569549561e-01
2.132000000000000000e+03 3.789439773559570312e+01 1.386707019805908203e+01 1.460714638233184814e-01 2.351159751415252686e-01 1.143562272191047668e-01 4.907154142856597900e-01
2.133000000000000000e+03 3.720913314819335938e+01 1.002839851379394531e+01 -1.486018449068069458e-01 2.068068236112594604e-01 1.746149547398090363e-02 5.296503901481628418e-01
2.134000000000000000e+03 1.021045303344726562e+01 -7.483551502227783203e+00 3.848231790470890701e-05 -1.330772829533088952e-05 7.552377155661815777e-06 -8.653884833620395511e-06
2.135000000000000000e+03 7.526892852783203125e+01 -8.137324333190917969e+00 -1.468460559844970703e+00 9.691158294677734375e+00 2.466809272766113281e+00 -1.928010106086730957e+00
2.136000000000000000e+03 5.013035297393798828e+00 -8.159447669982910156e+00 -9.193574078381061554e-05 4.098535646335221827e-05 -1.528511529613751918e-05 4.323669054429046810e-05
2.137000000000000000e+03 6.019383621215820312e+01 -4.673784732818603516e+00 -2.249088287353515625e+00 -7.592543214559555054e-02 -6.975041031837463379e-01 2.758922874927520752e-01
2.138000000000000000e+03 4.388945579528808594e+00 -5.358283042907714844e+00 -8.894854545360431075e-06 1.701549990684725344e-05 2.436193653920781799e-06 8.468823580187745392e-06
2.139000000000000000e+03 6.879253387451171875e+01 -5.819011688232421875e+00 -2.244513511657714844e+00 2.911507487297058105e-01 -5.860088467597961426e-01 -5.644291043281555176e-01
2.140000000000000000e+03 5.591595840454101562e+01 -3.659566497802734375e+01 6.585617661476135254e-01 -6.385632753372192383e-01 5.999553482979536057e-03 -3.276129364967346191e-01
2.141000000000000000e+03 6.062205123901367188e+01 -2.756840467453002930e+00 -1.472247958183288574e+00 -1.306573748588562012e-01 -4.808715879917144775e-01 4.662356078624725342e-01
2.142000000000000000e+03 6.387622070312500000e+01 -2.681946754455566406e+01 -4.117543995380401611e-01 -4.772773757576942444e-02 -1.378446519374847412e-01 -2.388218194246292114e-01
2.143000000000000000e+03 6.771161651611328125e+01 -2.412886428833007812e+01 -3.327747285366058350e-01 1.395328760147094727e+00 3.187662065029144287e-01 2.302691489458084106e-01
2.144000000000000000e+03 1.012054538726806641e+01 -2.240199470520019531e+01 1.430786651326343417e-04 1.200234473799355328e-04 7.893063593655824661e-05 5.706900628865696490e-05
2.145000000000000000e+03 1.238074874877929688e+01 -2.502902984619140625e+01 2.253246930195018649e-04 -1.342607720289379358e-04 2.731917811615858227e-05 1.440087635273812339e-05
2.146000000000000000e+03 4.050163650512695312e+01 8.756995201110839844e+00 -3.205264508724212646e-01 2.709296047687530518e-01 -1.487905066460371017e-02 4.126656055450439453e-01
2.147000000000000000e+03 4.079730987548828125e+01 7.551720142364501953e+00 -3.744042515754699707e-01 2.135551571846008301e-01 -4.825473204255104065e-02 3.375722467899322510e-01
2.148000000000000000e+03 2.931336212158203125e+01 7.203864574432373047e+00 9.147337824106216431e-02 -1.877404153347015381e-01 -2.888010814785957336e-02 4.743450582027435303e-01
2.149000000000000000e+03 2.959500503540039062e+01 9.522449493408203125e+00 -7.160425931215286255e-02 -1.967508643865585327e-01 -8.050654083490371704e-02 6.030180454254150391e-01
2.150000000000000000e+03 2.834967041015625000e+01 1.301942634582519531e+01 -3.337241411209106445e-01 -2.875655293464660645e-01 -1.863868981599807739e-01 4.521839320659637451e-01
2.151000000000000000e+03 4.627679061889648438e+01 -1.420462417602539062e+01 -5.866920351982116699e-01 4.430802911520004272e-02 -1.627152115106582642e-01 -1.007794290781021118e-01
2.152000000000000000e+03 2.527972793579101562e+01 -3.616250991821289062e+01 -3.445057955104857683e-04 3.531528345774859190e-04 2.594107400000211783e-06 6.262066774070262909e-03
2.153000000000000000e+03 5.277476119995117188e+01 -3.744715881347656250e+01 5.136814713478088379e-01 -7.342138886451721191e-01 -6.615972518920898438e-02 -3.219253718852996826e-01
2.154000000000000000e+03 1.378534698486328125e+01 1.871053504943847656e+01 2.717578113079071045e-01 -1.107583492994308472e-01 4.829983413219451904e-02 1.733932644128799438e-01
2.155000000000000000e+03 1.408095169067382812e+01 1.740454483032226562e+01 4.097468256950378418e-01 -3.829823806881904602e-02 1.114345788955688477e-01 1.784714907407760620e-01
2.156000000000000000e+03 4.645854187011718750e+01 2.661781787872314453e+00 -3.014322817325592041e-01 -2.538284659385681152e-02 -9.804453700780868530e-02 4.495892524719238281e-01
2.157000000000000000e+03 5.009066772460937500e+01 1.757626295089721680e+00 -3.402505517005920410e-01 2.335873991250991821e-01 -3.199894726276397705e-02 6.242077946662902832e-01
2.158000000000000000e+03 2.918761634826660156e+01 1.615015220642089844e+01 -1.214658245444297791e-01 -2.674027979373931885e-01 -1.166605874896049500e-01 2.894024550914764404e-01
2.159000000000000000e+03 1.713409233093261719e+01 2.042484474182128906e+01 1.274660974740982056e-01 4.543062299489974976e-02 5.186901614069938660e-02 3.702091872692108154e-01
2.160000000000000000e+03 3.632564926147460938e+01 1.520307064056396484e+01 1.558109968900680542e-01 1.575749367475509644e-01 9.401577711105346680e-02 4.288393557071685791e-01
2.161000000000000000e+03 7.113816738128662109e+00 -2.385859107971191406e+01 1.709545613266527653e-04 1.988352960324846208e-05 5.725142545998096466e-05 6.669562571914866567e-05
2.162000000000000000e+03 1.830822944641113281e+01 2.119178390502929688e+01 1.188246607780456543e-01 -3.719905391335487366e-02 2.448768168687820435e-02 4.391855895519256592e-01
2.163000000000000000e+03 5.915591430664062500e+01 -4.409709930419921875e+00 -1.862279653549194336e+00 8.348847925662994385e-02 -5.336373448371887207e-01 2.688435018062591553e-01
2.164000000000000000e+03 6.862168121337890625e+01 -1.954939079284667969e+01 -6.029494404792785645e-01 9.157806634902954102e-01 9.384934604167938232e-02 -1.565842330455780029e-01
2.165000000000000000e+03 4.540991592407226562e+01 -1.184879493713378906e+01 -6.627684831619262695e-01 1.176671832799911499e-01 -1.635303944349288940e-01 -6.410622969269752502e-03
2.166000000000000000e+03 4.945301055908203125e+01 2.458072090148925781e+01 6.064184904098510742e-01 6.146367192268371582e-01 3.663165569305419922e-01 7.185331732034683228e-02
2.167000000000000000e+03 4.827350997924804688e+01 2.379384803771972656e+01 5.969184041023254395e-01 5.433130860328674316e-01 3.420694470405578613e-01 1.479189544916152954e-01
2.168000000000000000e+03 4.365346145629882812e+01 3.007188415527343750e+01 5.107523202896118164e-01 5.564133524894714355e-01 3.201496899127960205e-01 1.017765104770660400e-01
2.169000000000000000e+03 3.887765121459960938e+01 1.720340919494628906e+01 3.592228293418884277e-01 3.270754218101501465e-01 2.058894783258438110e-01 3.055065870285034180e-01
2.170000000000000000e+03 1.319971370697021484e+01 1.679617881774902344e+01 4.036313593387603760e-01 -2.155489176511764526e-01 5.642472952604293823e-02 2.308066636323928833e-01
2.171000000000000000e+03 6.929340362548828125e+00 1.940349578857421875e+01 1.171471029520034790e-01 -5.423433780670166016e-01 -1.275588870048522949e-01 1.906530559062957764e-01
2.172000000000000000e+03 4.002466583251953125e+01 1.931928253173828125e+01 3.737768530845642090e-01 4.421164691448211670e-01 2.447680085897445679e-01 2.312177419662475586e-01
2.173000000000000000e+03 3.183268737792968750e+01 -3.842876815795898438e+01 -1.241415739059448242e-02 -1.149434037506580353e-02 -7.172549143433570862e-03 2.386327367275953293e-03
2.174000000000000000e+03 4.142258071899414062e+01 5.643825054168701172e+00 -3.679105937480926514e-01 9.450235217809677124e-02 -8.202247321605682373e-02 2.925465404987335205e-01
2.175000000000000000e+03 8.261494636535644531e+00 -2.118616676330566406e+01 5.134610546519979835e-06 9.432803199160844088e-05 2.983879312523640692e-05 4.333348988438956439e-05
2.176000000000000000e+03 3.939699172973632812e+01 -3.943289566040039062e+01 1.246300525963306427e-02 -1.335497349500656128e-01 -3.632601723074913025e-02 -3.767901659011840820e-02
2.177000000000000000e+03 1.682840538024902344e+01 -3.487214279174804688e+01 -1.243786246050149202e-04 5.488679744303226471e-04 1.273468078579753637e-04 2.014410449191927910e-03
2.178000000000000000e+03 1.881682014465332031e+01 -3.604217147827148438e+01 -5.392676685005426407e-04 6.101423059590160847e-04 2.126239451172295958e-05 2.456428715959191322e-03
2.179000000000000000e+03 6.014849853515625000e+01 -3.331612396240234375e+01 4.655264616012573242e-01 -2.440597712993621826e-01 6.644000113010406494e-02 -1.771491616964340210e-01
2.180000000000000000e+03 5.778563308715820312e+01 -3.190814590454101562e+01 5.457625165581703186e-02 -7.373138666152954102e-01 -2.048212885856628418e-01 -5.109883546829223633e-01
2.181000000000000000e+03 6.497383117675781250e+00 -1.204291534423828125e+01 1.005263693514280021e-04 5.362056253943592310e-05 4.624408029485493898e-05 -2.605134977784473449e-05
2.182000000000000000e+03 6.023843765258789062e+01 1.315081787109375000e+01 5.515726804733276367e-01 1.440684080123901367e+00 5.976770520210266113e-01 -2.982599735260009766e-01
2.183000000000000000e+03 2.987510871887207031e+01 1.950907516479492188e+01 1.632431149482727051e-01 -2.352290749549865723e-01 -2.159578725695610046e-02 2.472880333662033081e-01
2.184000000000000000e+03 2.837788009643554688e+01 1.963277626037597656e+01 1.707747131586074829e-01 -3.411528468132019043e-01 -5.111344531178474426e-02 2.602478563785552979e-01
2.185000000000000000e+03 7.180365753173828125e+01 4.088078308105468750e+01 1.023652032017707825e-01 3.408149957656860352e+00 1.053154587745666504e+00 -2.900582179427146912e-02
2.186000000000000000e+03 2.556556892395019531e+01 2.034698104858398438e+01 2.209127694368362427e-01 -4.662318527698516846e-01 -7.359572499990463257e-02 3.491592109203338623e-01
2.187000000000000000e+03 3.501094055175781250e+01 -3.828689956665039062e+01 -1.548705901950597763e-02 -3.117115423083305359e-02 -1.399746350944042206e-02 -1.471688877791166306e-02
2.188000000000000000e+03 7.473802185058593750e+01 -1.509845066070556641e+01 -3.907848298549652100e-01 8.242519378662109375e+00 2.355520248413085938e+00 3.553530454635620117e+00
2.189000000000000000e+03 7.710047912597656250e+01 -9.565736770629882812e+00 -2.061789512634277344e+00 1.514572811126708984e+01 3.925181627273559570e+00 1.245350480079650879e+00
2.190000000000000000e+03 7.731652832031250000e+01 -8.987687110900878906e+00 -2.103804588317871094e+00 1.360054779052734375e+01 3.449023008346557617e+00 1.384625315666198730e+00
2.191000000000000000e+03 7.522805786132812500e+01 -9.486408233642578125e+00 -1.163965225219726562e+00 1.073449039459228516e+01 2.871157646179199219e+00 -3.356866121292114258e+00
2.192000000000000000e+03 7.413662719726562500e+01 -8.811356544494628906e+00 -4.353868961334228516e-01 6.443786144256591797e+00 1.802519798278808594e+00 -2.560415267944335938e+00
2.193000000000000000e+03 7.641011047363281250e+01 -1.503116607666015625e+01 -2.349597454071044922e+00 1.462148666381835938e+01 3.681566715240478516e+00 7.975999712944030762e-01
2.194000000000000000e+03 7.340762329101562500e+01 -9.547223091125488281e+00 4.059628248214721680e-01 3.533236742019653320e+00 1.181759834289550781e+00 -1.946146607398986816e+00
2.195000000000000000e+03 7.283887481689453125e+01 -1.545335102081298828e+01 3.154953420162200928e-01 2.985993146896362305e+00 9.904465675354003906e-01 1.344344973564147949e+00
2.196000000000000000e+03 7.746031188964843750e+01 -1.470169353485107422e+01 -1.529595732688903809e+00 1.475487327575683594e+01 3.967583179473876953e+00 -2.304320096969604492e+00
2.197000000000000000e+03 7.585575103759765625e+01 -1.497547340393066406e+01 -1.953670740127563477e+00 1.346343898773193359e+01 3.452930450439453125e+00 2.404564857482910156e+00
2.198000000000000000e+03 7.870810699462890625e+01 -1.441723918914794922e+01 -8.031298220157623291e-02 1.040279197692871094e+01 3.096743583679199219e+00 -3.054802179336547852e+00
2.199000000000000000e+03 7.788475036621093750e+01 -1.378952884674072266e+01 4.087499082088470459e-01 1.359323978424072266e+01 4.200596809387207031e+00 -3.601349353790283203e+00
2.200000000000000000e+03 7.152738952636718750e+01 -1.580842685699462891e+01 -2.748156338930130005e-02 1.719834089279174805e+00 5.077057480812072754e-01 2.127504348754882812e-01
2.201000000000000000e+03 2.915083122253417969e+01 -9.117030143737792969e+00 -4.235261380672454834e-01 -6.974060554057359695e-03 -1.291500627994537354e-01 2.703150212764739990e-01
2.202000000000000000e+03 7.320514678955078125e+01 -1.539915084838867188e+01 3.381797075271606445e-01 3.526426792144775391e+00 1.159381985664367676e+00 1.817836046218872070e+00
2.203000000000000000e+03 7.311485290527343750e+01 -1.493472003936767578e+01 4.441403150558471680e-01 2.728029727935791016e+00 9.516510367393493652e-01 1.625376820564270020e+00
2.204000000000000000e+03 2.769336509704589844e+01 -7.928003787994384766e+00 -4.595018923282623291e-01 -4.116180911660194397e-02 -1.501991003751754761e-01 3.015998005867004395e-01
2.205000000000000000e+03 7.052559661865234375e+01 -6.890861988067626953e+00 -1.774060249328613281e+00 1.822098016738891602e+00 1.441132742911577225e-02 -3.635178208351135254e-01
2.206000000000000000e+03 7.257599639892578125e+01 -8.429167747497558594e+00 -5.211103558540344238e-01 3.245202064514160156e+00 8.172275424003601074e-01 -1.104785203933715820e+00
2.207000000000000000e+03 5.834010601043701172e+00 -6.061736583709716797e+00 -9.054377005668357015e-05 1.426622384315123782e-05 -2.288326322741340846e-05 -2.081101956719066948e-05
2.208000000000000000e+03 2.881530189514160156e+01 -8.381607055664062500e+00 -4.459530413150787354e-01 -3.583091078326106071e-03 -1.348608434200286865e-01 2.793141007423400879e-01
2.209000000000000000e+03 6.194240570068359375e+00 7.469519138336181641e+00 -1.529551744461059570e-01 -1.762373596429824829e-01 -9.875775873661041260e-02 2.573973834514617920e-01
2.210000000000000000e+03 4.736264705657958984e+00 5.930079936981201172e+00 -1.128628030419349670e-01 -9.448869526386260986e-02 -6.220544874668121338e-02 1.416496038436889648e-01
2.211000000000000000e+03 7.968833446502685547e+00 -7.780694484710693359e+00 -4.192063715890981257e-05 5.803526801173575222e-05 4.834389073948841542e-06 5.400506779551506042e-05
2.212000000000000000e+03 7.094373321533203125e+01 -1.689154243469238281e+01 -2.097637951374053955e-01 1.884121179580688477e+00 5.023072361946105957e-01 1.390891373157501221e-01
2.213000000000000000e+03 7.102080535888671875e+01 -1.600215721130371094e+01 -1.672107875347137451e-01 1.426660656929016113e+00 3.778349459171295166e-01 -6.732811033725738525e-02
2.214000000000000000e+03 5.645293712615966797e+00 6.226032733917236328e+00 -1.505993753671646118e-01 -1.176026090979576111e-01 -8.046060055494308472e-02 1.810980439186096191e-01
2.215000000000000000e+03 6.571786880493164062e+00 6.615749835968017578e+00 -1.955826878547668457e-01 -1.297568380832672119e-01 -9.760186076164245605e-02 2.388131916522979736e-01
2.216000000000000000e+03 9.479799270629882812e+00 5.055130958557128906e+00 -3.468042016029357910e-01 -1.585124135017395020e-01 -1.515949815511703491e-01 2.435829490423202515e-01
2.217000000000000000e+03 9.878675460815429688e+00 -5.455757617950439453e+00 -3.560501863830722868e-05 6.228781785466708243e-06 -8.812870873953215778e-06 -6.471985216194298118e-06
2.218000000000000000e+03 7.047752380371093750e+00 5.841822147369384766e+00 -2.146681547164916992e-01 -1.231830045580863953e-01 -1.013553515076637268e-01 2.115917503833770752e-01
2.219000000000000000e+03 2.853304290771484375e+01 -7.646277427673339844e+00 -4.734658598899841309e-01 -1.068678218871355057e-03 -1.423603594303131104e-01 2.851047515869140625e-01
2.220000000000000000e+03 2.756042861938476562e+01 -7.100068092346191406e+00 -4.929701685905456543e-01 -3.189142048358917236e-02 -1.574584841728210449e-01 3.043214380741119385e-01
2.221000000000000000e+03 1.043846225738525391e+01 -6.086286544799804688e+00 2.619447332108393312e-05 -7.119409019651357085e-06 5.722519290429772809e-06 -1.441796825929486658e-06
2.222000000000000000e+03 1.084810638427734375e+01 -8.231698036193847656e+00 -4.444739533937536180e-05 -4.869519671046873555e-06 -1.479507409385405481e-05 -4.752018412546021864e-06
2.223000000000000000e+03 2.519020271301269531e+01 -4.487988948822021484e+00 -5.930811166763305664e-01 -8.793679624795913696e-02 -2.043053805828094482e-01 3.296440839767456055e-01
2.224000000000000000e+03 6.961301422119140625e+01 -5.388979911804199219e+00 -1.879805564880371094e+00 1.408321022987365723e+00 -1.414453685283660889e-01 -1.068824648857116699e+00
2.225000000000000000e+03 7.640778350830078125e+01 -7.172552585601806641e+00 -1.525926351547241211e+00 1.067312622070312500e+01 2.744159936904907227e+00 -5.058187842369079590e-01
2.226000000000000000e+03 7.695941162109375000e+01 -8.109633445739746094e+00 -1.871677279472351074e+00 1.212976551055908203e+01 3.077426433563232422e+00 3.776758909225463867e-01
2.227000000000000000e+03 2.627364349365234375e+01 -6.521462440490722656e+00 -5.178076624870300293e-01 -8.914344012737274170e-02 -1.820853203535079956e-01 3.320362567901611328e-01
2.228000000000000000e+03 6.906936645507812500e+01 -1.866293907165527344e+01 -6.148293614387512207e-01 9.945228099822998047e-01 1.139080449938774109e-01 -1.792625039815902710e-01
2.229000000000000000e+03 9.349533081054687500e+00 -5.025724887847900391e+00 3.537754309945739806e-05 -5.648651040246477351e-06 8.918667845136951655e-06 1.868052459030877799e-05
2.230000000000000000e+03 1.173048496246337891e+01 6.656735420227050781e+00 -4.908508062362670898e-01 -3.804430961608886719e-01 -2.613881826400756836e-01 3.777768909931182861e-01
2.231000000000000000e+03 2.565400886535644531e+01 -5.231619358062744141e+00 -5.682727694511413574e-01 -8.063726872205734253e-02 -1.946730017662048340e-01 3.302602469921112061e-01
2.232000000000000000e+03 2.420980072021484375e+01 -1.981418728828430176e-01 -4.440729916095733643e-01 2.409731037914752960e-02 -1.259927004575729370e-01 2.309214472770690918e-01
2.233000000000000000e+03 2.468960189819335938e+01 -3.768558740615844727e+00 -6.083617806434631348e-01 -9.415066987276077271e-02 -2.107537388801574707e-01 3.266360461711883545e-01
2.234000000000000000e+03 2.289728736877441406e+01 3.166926503181457520e-01 -4.293305277824401855e-01 -8.874197490513324738e-03 -1.314614117145538330e-01 2.876333296298980713e-01
2.235000000000000000e+03 7.268218994140625000e+01 -1.729162788391113281e+01 -1.172548756003379822e-01 4.235586166381835938e+00 1.235499501228332520e+00 1.175109148025512695e+00
2.236000000000000000e+03 2.264687728881835938e+01 -9.324977397918701172e-01 -5.501658916473388672e-01 -1.096803396940231323e-01 -1.979538798332214355e-01 3.343114256858825684e-01
2.237000000000000000e+03 2.463742256164550781e+01 1.000603795051574707e+00 -3.129063844680786133e-01 8.586701750755310059e-02 -6.811180710792541504e-02 1.797958314418792725e-01
2.238000000000000000e+03 3.111402320861816406e+01 -1.098118782043457031e+01 -3.818957805633544922e-01 2.317593060433864594e-02 -1.076159551739692688e-01 2.179840058088302612e-01
2.239000000000000000e+03 2.415306663513183594e+01 -3.102636098861694336e+00 -6.136042475700378418e-01 -1.069292053580284119e-01 -2.161600291728973389e-01 3.269306123256683350e-01
2.240000000000000000e+03 2.383755302429199219e+01 -1.334752559661865234e+00 -5.457127094268798828e-01 -4.723665118217468262e-02 -1.778848022222518921e-01 2.832814157009124756e-01
2.241000000000000000e+03 1.234596347808837891e+01 -6.717140674591064453e+00 -3.074932465096935630e-05 -1.579823765496257693e-05 -1.396426887367852032e-05 1.408732350682839751e-05
2.242000000000000000e+03 3.486861419677734375e+01 -1.542773914337158203e+01 -3.100703060626983643e-01 3.781161457300186157e-02 -8.167760819196701050e-02 9.096696972846984863e-02
2.243000000000000000e+03 7.734256744384765625e+01 -1.617925262451171875e+01 -1.715676903724670410e+00 1.250711345672607422e+01 3.237431049346923828e+00 -8.657550811767578125e-01
2.244000000000000000e+03 7.884946441650390625e+01 -1.544622802734375000e+01 -5.692374706268310547e-01 1.022905540466308594e+01 2.897945404052734375e+00 -2.162286758422851562e+00
2.245000000000000000e+03 7.557289886474609375e+01 -6.286665916442871094e+00 -1.236546039581298828e+00 8.940527915954589844e+00 2.311194658279418945e+00 -1.127577781677246094e+00
2.246000000000000000e+03 6.932996368408203125e+01 -2.116088676452636719e+01 -3.826943933963775635e-01 1.962607622146606445e+00 4.739739894866943359e-01 2.703328728675842285e-01
2.247000000000000000e+03 3.598334121704101562e+01 -1.431669139862060547e+01 -3.664323687553405762e-01 5.822168663144111633e-02 -9.246320277452468872e-02 1.004293560981750488e-01
2.248000000000000000e+03 9.743481636047363281e+00 7.739178657531738281e+00 -3.304871320724487305e-01 -2.517705857753753662e-01 -1.746773123741149902e-01 4.200322628021240234e-01
2.249000000000000000e+03 1.223728656768798828e+01 -8.072189331054687500e+00 -5.057821545051410794e-05 -1.790090209397021681e-05 -2.054373544524423778e-05 1.020960189634934068e-05
2.250000000000000000e+03 1.154145526885986328e+01 5.717651367187500000e+00 -4.718114137649536133e-01 -3.812036812305450439e-01 -2.559045255184173584e-01 3.293752968311309814e-01
2.251000000000000000e+03 1.187530708312988281e+01 7.645668506622314453e+00 -4.565256834030151367e-01 -4.349381327629089355e-01 -2.674391567707061768e-01 4.730860888957977295e-01
2.252000000000000000e+03 7.252915191650390625e+01 -7.356903553009033203e+00 -8.002893924713134766e-01 3.908291339874267578e+00 9.324005842208862305e-01 -1.293489098548889160e+00
2.253000000000000000e+03 7.392233276367187500e+01 -2.963513851165771484e+00 -4.833168089389801025e-01 6.132458686828613281e+00 1.694742560386657715e+00 -1.636761307716369629e+00
2.254000000000000000e+03 2.948498916625976562e+01 1.060068225860595703e+01 -1.742971986532211304e-01 -1.708627045154571533e-01 -1.035479679703712463e-01 5.771049261093139648e-01
2.255000000000000000e+03 2.956769943237304688e+01 1.270739078521728516e+01 -2.531686425209045410e-01 -1.695458292961120605e-01 -1.268143504858016968e-01 4.975604414939880371e-01
2.256000000000000000e+03 7.509252166748046875e+01 -4.180943012237548828e+00 -6.928920745849609375e-01 7.578952312469482422e+00 2.065818071365356445e+00 -1.377938747406005859e+00
2.257000000000000000e+03 4.727885818481445312e+01 -9.842597961425781250e+00 -8.226323127746582031e-01 1.633692532777786255e-01 -1.977789103984832764e-01 3.393835574388504028e-02
2.258000000000000000e+03 9.985480308532714844e+00 1.460804843902587891e+01 2.314732223749160767e-01 -4.391482174396514893e-01 -6.230249255895614624e-02 3.947779834270477295e-01
2.259000000000000000e+03 2.909829139709472656e+01 -1.100811958312988281e+01 -3.400347828865051270e-01 -3.193891420960426331e-02 -1.115921065211296082e-01 2.415840327739715576e-01
2.260000000000000000e+03 2.151144409179687500e+01 7.242491245269775391e-01 -4.045015275478363037e-01 -9.389324486255645752e-02 -1.495184302330017090e-01 3.982968032360076904e-01
2.261000000000000000e+03 4.255955505371093750e+01 -1.290527725219726562e+01 -5.512523651123046875e-01 9.208873659372329712e-02 -1.377490907907485962e-01 3.299916163086891174e-02
2.262000000000000000e+03 4.038374328613281250e+01 -1.172136592864990234e+01 -5.277487039566040039e-01 1.163666918873786926e-01 -1.234146058559417725e-01 9.365858137607574463e-02
2.263000000000000000e+03 3.019559669494628906e+01 7.799967765808105469e+00 1.398052182048559189e-02 -1.468194425106048584e-01 -3.985167294740676880e-02 5.112789869308471680e-01
2.264000000000000000e+03 6.808860778808593750e+01 -3.891502857208251953e+00 -1.362421751022338867e+00 2.693094015121459961e-01 -3.279336988925933838e-01 -1.145687699317932129e+00
2.265000000000000000e+03 8.538990974426269531e+00 -8.707682609558105469e+00 3.826453030342236161e-05 -6.615849997615441680e-05 -8.368189810425974429e-06 -5.244089334155432880e-05
2.266000000000000000e+03 8.493614196777343750e+00 -2.375583457946777344e+01 1.121962195611558855e-04 4.128085492993704975e-06 3.489729351713322103e-05 3.108199598500505090e-05
2.267000000000000000e+03 3.069268226623535156e+01 9.616879463195800781e+00 -1.008496508002281189e-01 -1.059638187289237976e-01 -6.204404309391975403e-02 5.690296292304992676e-01
2.268000000000000000e+03 4.588840103149414062e+01 -1.304538059234619141e+01 -6.407147049903869629e-01 7.275518029928207397e-02 -1.703878492116928101e-01 -5.325382202863693237e-02
2.269000000000000000e+03 1.543626117706298828e+01 2.101664352416992188e+01 1.239110678434371948e-01 -4.370206966996192932e-02 2.406269870698451996e-02 2.727542221546173096e-01
2.270000000000000000e+03 1.386256694793701172e+01 2.018337440490722656e+01 1.783221513032913208e-01 -1.090288534760475159e-01 2.078798599541187286e-02 2.028321325778961182e-01
2.271000000000000000e+03 1.495929050445556641e+01 -7.502635955810546875e+00 3.551578993210569024e-05 -3.214066452983388444e-07 1.055831489793490618e-05 2.248550663352943957e-05
2.272000000000000000e+03 2.210282897949218750e+01 -1.234687566757202148e-01 -4.888485074043273926e-01 -1.056700646877288818e-01 -1.783555746078491211e-01 3.539161384105682373e-01
2.273000000000000000e+03 3.821457290649414062e+01 -1.314761257171630859e+01 -4.467036426067352295e-01 8.289743959903717041e-02 -1.091418564319610596e-01 9.408961236476898193e-02
2.274000000000000000e+03 5.776021194458007812e+01 4.675999164581298828e+00 3.028948903083801270e-01 4.691185653209686279e-01 2.316040396690368652e-01 2.480184733867645264e-01
2.275000000000000000e+03 5.520064163208007812e+01 5.222547531127929688e+00 2.967716157436370850e-01 5.403447151184082031e-01 2.511349022388458252e-01 3.744990229606628418e-01
2.276000000000000000e+03 7.055945587158203125e+01 -5.991521835327148438e+00 -1.690062403678894043e+00 2.152634143829345703e+00 1.387714892625808716e-01 -1.051365256309509277e+00
2.277000000000000000e+03 5.329586029052734375e+01 -6.202935695648193359e+00 -1.305273294448852539e+00 2.787396311759948730e-01 -3.079600930213928223e-01 1.346057057380676270e-01
2.278000000000000000e+03 5.048569488525390625e+01 -8.239072799682617188e+00 -1.037988185882568359e+00 2.122146189212799072e-01 -2.477320879697799683e-01 3.375189751386642456e-02
2.279000000000000000e+03 3.627441787719726562e+01 1.265702438354492188e+01 1.242214348167181015e-02 1.596259474754333496e-01 5.161442980170249939e-02 5.178527235984802246e-01
2.280000000000000000e+03 4.507051467895507812e+01 1.878067612648010254e+00 -3.389146029949188232e-01 -3.953428938984870911e-03 -1.028604060411453247e-01 3.823973536491394043e-01
2.281000000000000000e+03 2.647317123413085938e+01 3.016876220703125000e+00 -4.479428008198738098e-02 5.165409296751022339e-02 2.057943725958466530e-03 1.403349936008453369e-01
2.282000000000000000e+03 2.502535820007324219e+01 3.022387266159057617e+00 -1.591712608933448792e-02 1.383951604366302490e-01 3.674340993165969849e-02 1.172333583235740662e-01
2.283000000000000000e+03 5.352819824218750000e+01 3.417125701904296875e+00 -8.496480435132980347e-02 4.481065571308135986e-01 1.089425310492515564e-01 5.148125886917114258e-01
2.284000000000000000e+03 5.268503189086914062e+01 2.576000213623046875e+00 -2.429998219013214111e-01 4.057489633560180664e-01 4.882474243640899658e-02 5.872811675071716309e-01
2.285000000000000000e+03 1.431506538391113281e+01 -7.299393653869628906e+00 -4.918168269796296954e-05 9.283612598665058613e-06 -1.196942139358725399e-05 -9.339423741039354354e-06
2.286000000000000000e+03 3.922494888305664062e+01 -1.166556739807128906e+01 -5.024848580360412598e-01 1.065773889422416687e-01 -1.187722459435462952e-01 1.158754378557205200e-01
2.287000000000000000e+03 3.927869033813476562e+01 -1.307354068756103516e+01 -4.664483070373535156e-01 9.180148690938949585e-02 -1.123940497636795044e-01 7.824030518531799316e-02
2.288000000000000000e+03 5.044312953948974609e+00 1.128846263885498047e+01 -3.139955922961235046e-02 -3.267913460731506348e-01 -1.074572727084159851e-01 3.055251538753509521e-01
2.289000000000000000e+03 7.019447326660156250e+01 -2.352363777160644531e+01 -1.684112846851348877e-01 3.175306558609008789e+00 9.020686149597167969e-01 6.508833765983581543e-01
2.290000000000000000e+03 6.958789062500000000e+01 -2.241149902343750000e+01 -2.898500263690948486e-01 2.425436496734619141e+00 6.406759619712829590e-01 4.381898641586303711e-01
2.291000000000000000e+03 1.413706874847412109e+01 -8.095119476318359375e+00 5.808378409710712731e-05 -1.416653594787931070e-05 1.317517399002099410e-05 1.566660102980677038e-05
2.292000000000000000e+03 1.492314338684082031e+01 -8.200701713562011719e+00 -1.665630588831845671e-05 4.093434199603507295e-06 -3.768861688513425179e-06 -3.254178591305390000e-05
2.293000000000000000e+03 1.386296844482421875e+01 -3.073243141174316406e+01 7.357050199061632156e-04 -2.677677548490464687e-04 1.403811766067519784e-04 6.385214510373771191e-04
2.294000000000000000e+03 1.779990768432617188e+01 -3.229995727539062500e+01 1.565504004247486591e-03 -3.267819411121308804e-04 3.716166247613728046e-04 1.665025483816862106e-03
2.295000000000000000e+03 2.735667037963867188e+01 3.554387331008911133e+00 1.289750915020704269e-02 -3.282673424109816551e-03 2.884450834244489670e-03 1.548408269882202148e-01
2.296000000000000000e+03 7.137039947509765625e+01 -3.172396278381347656e+01 3.238978385925292969e-01 4.511003017425537109e+00 1.450470328330993652e+00 7.881243824958801270e-01
2.297000000000000000e+03 7.054765319824218750e+01 -1.817702674865722656e+01 -3.231716752052307129e-01 2.143333196640014648e+00 5.460484623908996582e-01 2.205455750226974487e-01
2.298000000000000000e+03 7.504601287841796875e+01 -2.420986366271972656e+01 -1.695474982261657715e-02 7.399699211120605469e+00 2.214823484420776367e+00 8.441284894943237305e-01
2.299000000000000000e+03 7.119662475585937500e+01 -2.319626045227050781e+01 -1.763642132282257080e-01 3.813956022262573242e+00 1.091277480125427246e+00 7.773309350013732910e-01
2.300000000000000000e+03 4.906833267211914062e+01 -8.081810951232910156e+00 -9.452525377273559570e-01 2.134321630001068115e-01 -2.195461094379425049e-01 7.829442620277404785e-02
2.301000000000000000e+03 7.289965820312500000e+01 -3.392819595336914062e+01 2.769514024257659912e-01 5.388020992279052734e+00 1.699491739273071289e+00 6.185484528541564941e-01
2.302000000000000000e+03 8.198242187500000000e+00 2.805378913879394531e+01 2.838199026882648468e-02 -5.804927945137023926e-01 -1.656332463026046753e-01 9.714256972074508667e-02
2.303000000000000000e+03 9.381876945495605469e+00 3.224816894531250000e+01 2.808733284473419189e-02 -5.837837457656860352e-01 -1.667089164257049561e-01 9.189780801534652710e-02
2.304000000000000000e+03 7.114450836181640625e+01 1.792217636108398438e+01 2.790927588939666748e-01 3.685026884078979492e+00 1.189235925674438477e+00 -7.210819125175476074e-01
2.305000000000000000e+03 7.275090789794921875e+01 1.688651847839355469e+01 2.252738773822784424e-01 4.105792045593261719e+00 1.299319744110107422e+00 -7.047628164291381836e-01
2.306000000000000000e+03 7.197232818603515625e+01 2.517087554931640625e+01 1.465028673410415649e-01 3.659229516983032227e+00 1.141719698905944824e+00 -4.227011203765869141e-01
2.307000000000000000e+03 7.186939239501953125e+01 1.040691471099853516e+01 4.184750914573669434e-01 4.042644977569580078e+00 1.338336110115051270e+00 -1.126414060592651367e+00
2.308000000000000000e+03 7.310307312011718750e+01 9.199302673339843750e+00 3.529336154460906982e-01 4.569948673248291016e+00 1.476864695549011230e+00 -1.176011085510253906e+00
2.309000000000000000e+03 7.347101593017578125e+01 5.520754456520080566e-01 6.463553756475448608e-02 5.291803836822509766e+00 1.606931686401367188e+00 -1.721516728401184082e+00
2.310000000000000000e+03 7.211459350585937500e+01 4.210532665252685547e+00 4.108437299728393555e-01 4.195794105529785156e+00 1.381991267204284668e+00 -1.592277526855468750e+00
2.311000000000000000e+03 7.438869476318359375e+01 6.600135803222656250e+00 2.790895998477935791e-01 5.369522094726562500e+00 1.694583535194396973e+00 -1.279098629951477051e+00
2.312000000000000000e+03 7.433444976806640625e+01 1.318786430358886719e+01 2.049288302659988403e-01 4.749246597290039062e+00 1.486252665519714355e+00 -8.203457593917846680e-01
2.313000000000000000e+03 8.239624977111816406e+00 1.936185073852539062e+01 1.535366773605346680e-01 -4.938116967678070068e-01 -1.020825058221817017e-01 1.980386525392532349e-01
2.314000000000000000e+03 6.433557987213134766e+00 -8.588624954223632812e+00 9.552577830618247390e-05 -1.856811309153272305e-06 2.810069054248742759e-05 3.814551382674835622e-05
2.315000000000000000e+03 4.900145053863525391e+00 -1.016460514068603516e+01 -8.412374154431745410e-05 -2.222140392404980958e-05 -3.190354254911653697e-05 3.530612275426392443e-06
2.316000000000000000e+03 7.182394409179687500e+01 2.792396163940429688e+01 1.399446576833724976e-01 3.578651189804077148e+00 1.115578770637512207e+00 -3.607925474643707275e-01
2.317000000000000000e+03 6.284473037719726562e+01 -4.038873672485351562e+00 -2.178214311599731445e+00 -6.702268719673156738e-01 -8.545323610305786133e-01 3.707904517650604248e-01
2.318000000000000000e+03 5.726649093627929688e+01 -4.957823753356933594e+00 -1.754550099372863770e+00 2.218415141105651855e-01 -4.598125517368316650e-01 2.007149308919906616e-01
2.319000000000000000e+03 7.343276977539062500e+01 -2.233162498474121094e+01 -1.354990154504776001e-01 5.884163379669189453e+00 1.724599242210388184e+00 9.036644697189331055e-01
2.320000000000000000e+03 7.493934631347656250e+01 -2.310967445373535156e+01 -1.003834083676338196e-01 7.366519927978515625e+00 2.179841041564941406e+00 8.543837666511535645e-01
2.321000000000000000e+03 5.609641075134277344e+00 -8.865039825439453125e+00 -4.480516872717998922e-05 -3.352543353685177863e-05 -2.349918031541164964e-05 -4.718218769994564354e-05
2.322000000000000000e+03 5.833786010742187500e+00 -2.672842979431152344e+01 -2.691075451366486959e-06 1.371134567307308316e-04 4.032671495224349201e-05 1.507969864178448915e-04
2.323000000000000000e+03 9.644111633300781250e+00 -2.806360435485839844e+01 3.499246377032250166e-04 1.497515477240085602e-04 1.499028585385531187e-04 3.068424994125962257e-04
2.324000000000000000e+03 6.814152526855468750e+01 -2.631311225891113281e+01 -4.484578594565391541e-02 2.098726511001586914e+00 6.161642074584960938e-01 5.141472816467285156e-01
2.325000000000000000e+03 5.829372406005859375e+00 -2.400230407714843750e+01 -3.598277180572040379e-05 5.779213461210019886e-05 6.542808478116057813e-06 2.957297510874923319e-05
2.326000000000000000e+03 5.640544414520263672e+00 1.518972206115722656e+01 7.954503595829010010e-02 -4.942022264003753662e-01 -1.243971586227416992e-01 2.935453057289123535e-01
2.327000000000000000e+03 6.918472766876220703e+00 1.668059730529785156e+01 1.367810666561126709e-01 -5.108175873756408691e-01 -1.122109517455101013e-01 2.750534713268280029e-01
2.328000000000000000e+03 7.529496765136718750e+01 -5.304634571075439453e+00 -9.418924450874328613e-01 8.165592193603515625e+00 2.167109966278076172e+00 -1.267232060432434082e+00
2.329000000000000000e+03 9.586152076721191406e+00 1.577444458007812500e+01 2.440594732761383057e-01 -4.470757842063903809e-01 -6.090489029884338379e-02 3.322016000747680664e-01
2.330000000000000000e+03 6.081277370452880859e+00 1.241471576690673828e+01 5.708527751266956329e-03 -3.824000060558319092e-01 -1.130074486136436462e-01 3.502922058105468750e-01
2.331000000000000000e+03 7.407576560974121094e+00 1.399435424804687500e+01 9.510202705860137939e-02 -4.438839852809906006e-01 -1.046345904469490051e-01 3.780687749385833740e-01
2.332000000000000000e+03 4.426758193969726562e+01 3.115834951400756836e+00 -2.851324975490570068e-01 -5.648791044950485229e-02 -1.024861261248588562e-01 3.304730057716369629e-01
2.333000000000000000e+03 4.837825775146484375e+01 1.545189142227172852e+00 -3.437035977840423584e-01 8.104649186134338379e-02 -7.879713177680969238e-02 5.725375413894653320e-01
2.334000000000000000e+03 5.716860294342041016e+00 -2.113464927673339844e+01 -8.075798541540279984e-05 3.218835627194494009e-05 -1.457088819734053686e-05 -1.411366793035995215e-05
2.335000000000000000e+03 1.148098564147949219e+01 -2.763334655761718750e+01 4.848206008318811655e-04 1.295714901061728597e-04 1.843176287366077304e-04 2.308448310941457748e-04
2.336000000000000000e+03 7.864972591400146484e+00 -3.065648460388183594e+01 2.251450932817533612e-04 2.036163496086373925e-04 1.286284386878833175e-04 4.090198781341314316e-04
2.337000000000000000e+03 7.330439567565917969e+00 2.674587059020996094e+01 2.743938937783241272e-02 -6.092210412025451660e-01 -1.745344996452331543e-01 9.341119974851608276e-02
2.338000000000000000e+03 7.967199325561523438e+00 7.545036792755126953e+00 -2.500549256801605225e-01 -1.865812242031097412e-01 -1.309908479452133179e-01 3.456028699874877930e-01
2.339000000000000000e+03 5.768786621093750000e+01 6.385142803192138672e+00 5.142748951911926270e-01 5.943390727043151855e-01 3.325842022895812988e-01 1.906275600194931030e-01
2.340000000000000000e+03 5.951546478271484375e+01 -3.524022102355957031e+00 -1.689218044281005859e+00 1.505278144031763077e-02 -5.022495985031127930e-01 4.029248356819152832e-01
2.341000000000000000e+03 5.877062988281250000e+01 -3.048160791397094727e+00 -1.463426828384399414e+00 1.276460886001586914e-01 -4.007342159748077393e-01 4.264144301414489746e-01
2.342000000000000000e+03 5.337823867797851562e+00 7.108752250671386719e+00 -1.378355473279953003e-01 -1.404667794704437256e-01 -8.349069952964782715e-02 2.154171317815780640e-01
2.343000000000000000e+03 5.924500465393066406e+00 8.269698143005371094e+00 -1.388101726770401001e-01 -1.883645355701446533e-01 -9.815241396427154541e-02 2.776275873184204102e-01
2.344000000000000000e+03 9.436580657958984375e+00 1.077868843078613281e+01 -8.264721930027008057e-02 -3.684777915477752686e-01 -1.353375017642974854e-01 4.959589540958404541e-01
2.345000000000000000e+03 7.143065643310546875e+01 -5.837336540222167969e+00 -1.241055965423583984e+00 3.127233266830444336e+00 5.658531785011291504e-01 -1.254515409469604492e+00
2.346000000000000000e+03 8.688856124877929688e+00 8.570811271667480469e+00 -2.381897866725921631e-01 -2.371213734149932861e-01 -1.425933539867401123e-01 4.158417880535125732e-01
2.347000000000000000e+03 5.948805332183837891e+00 9.111276626586914062e+00 -1.118332073092460632e-01 -2.379998713731765747e-01 -1.049499213695526123e-01 3.084122538566589355e-01
2.348000000000000000e+03 7.422672271728515625e+01 -2.106311607360839844e+01 -2.894564270973205566e-01 6.772566795349121094e+00 1.944933056831359863e+00 9.258970022201538086e-01
2.349000000000000000e+03 7.544263458251953125e+01 -2.148185729980468750e+01 -2.160833477973937988e-01 7.983042240142822266e+00 2.330087661743164062e+00 7.989438176155090332e-01
2.350000000000000000e+03 7.382664489746093750e+01 -1.941471862792968750e+01 -3.427221179008483887e-01 6.304364204406738281e+00 1.788492679595947266e+00 1.055797815322875977e+00
2.351000000000000000e+03 7.559366607666015625e+01 -1.913419723510742188e+01 -6.575317978858947754e-01 8.736778259277343750e+00 2.423774003982543945e+00 7.995331287384033203e-01
2.352000000000000000e+03 5.550523281097412109e+00 -7.170316219329833984e+00 1.074524552677758038e-04 -4.617235754267312586e-05 1.838402931753080338e-05 -8.384633474634028971e-06
2.353000000000000000e+03 5.858971405029296875e+01 7.289110660552978516e+00 6.050534844398498535e-01 6.986250877380371094e-01 3.911035656929016113e-01 8.266899734735488892e-02
2.354000000000000000e+03 5.672963714599609375e+01 7.211733341217041016e+00 5.824032425880432129e-01 6.497478485107421875e-01 3.696453273296356201e-01 2.527668774127960205e-01
2.355000000000000000e+03 1.094411754608154297e+01 1.913323783874511719e+01 2.264749854803085327e-01 -3.539996445178985596e-01 -3.825739771127700806e-02 1.917490512132644653e-01
2.356000000000000000e+03 3.337184906005859375e+01 1.270514678955078125e+01 -6.970451027154922485e-02 3.205386549234390259e-02 -1.129519287496805191e-02 5.183722376823425293e-01
2.357000000000000000e+03 3.764628982543945312e+01 1.239395618438720703e+01 2.006656490266323090e-02 2.479638755321502686e-01 8.040913194417953491e-02 5.314196348190307617e-01
2.358000000000000000e+03 4.264133071899414062e+01 -1.053652667999267578e+01 -6.113256812095642090e-01 1.340756714344024658e-01 -1.431749910116195679e-01 1.001546755433082581e-01
2.359000000000000000e+03 4.443667984008789062e+01 -1.239985370635986328e+01 -6.239319443702697754e-01 1.006286293268203735e-01 -1.569910049438476562e-01 8.880075998604297638e-03
2.360000000000000000e+03 6.605696868896484375e+01 -2.666777610778808594e+01 -1.713193058967590332e-01 9.515949487686157227e-01 2.340826839208602905e-01 1.718443185091018677e-01
2.361000000000000000e+03 6.944120788574218750e+01 -2.408586311340332031e+01 -1.492670774459838867e-01 2.664888858795166016e+00 7.546865344047546387e-01 5.464327931404113770e-01
2.362000000000000000e+03 5.105812072753906250e+01 8.124913573265075684e-01 -4.742699861526489258e-01 2.961382567882537842e-01 -5.343952402472496033e-02 6.034889817237854004e-01
2.363000000000000000e+03 4.149790954589843750e+01 -1.173602008819580078e+01 -5.566210746765136719e-01 1.138674616813659668e-01 -1.328260898590087891e-01 8.282694965600967407e-02
2.364000000000000000e+03 5.253174972534179688e+01 2.663340187072753906e+01 6.078427433967590332e-01 9.198547005653381348e-01 4.583092331886291504e-01 -1.100283712148666382e-01
2.365000000000000000e+03 5.034994888305664062e+01 2.767406463623046875e+01 6.063393950462341309e-01 8.326419591903686523e-01 4.316944181919097900e-01 -1.529336906969547272e-02
2.366000000000000000e+03 3.889109802246093750e+01 9.566846847534179688e+00 -2.086514383554458618e-01 2.923867702484130859e-01 2.512060292065143585e-02 5.034435987472534180e-01
2.367000000000000000e+03 5.956015396118164062e+01 1.012973594665527344e+01 6.369116902351379395e-01 1.072811841964721680e+00 5.129170417785644531e-01 -8.019837737083435059e-02
2.368000000000000000e+03 5.857132720947265625e+01 9.158437728881835938e+00 6.431128382682800293e-01 9.149894714355468750e-01 4.674307107925415039e-01 4.927369579672813416e-02
2.369000000000000000e+03 3.740494918823242188e+01 1.687553405761718750e+01 2.743892669677734375e-01 2.336112260818481445e-01 1.524001508951187134e-01 3.416349291801452637e-01
2.370000000000000000e+03 6.075670242309570312e+01 9.107583999633789062e+00 6.940456628799438477e-01 1.064982175827026367e+00 5.277083516120910645e-01 -2.027606666088104248e-01
2.371000000000000000e+03 2.221597480773925781e+01 -3.882196044921875000e+01 -4.320123698562383652e-03 1.939930487424135208e-03 -7.140579982660710812e-04 3.003086429089307785e-03
2.372000000000000000e+03 6.507894897460937500e+01 -2.805835151672363281e+01 -5.934886261820793152e-02 7.062508463859558105e-01 1.940705925226211548e-01 1.256203800439834595e-01
2.373000000000000000e+03 6.877610015869140625e+01 -2.862380599975585938e+01 1.706930100917816162e-01 2.805805921554565430e+00 8.929496407508850098e-01 6.841509938240051270e-01
2.374000000000000000e+03 6.758528900146484375e+01 3.230504989624023438e+01 2.364786416292190552e-01 2.936139106750488281e+00 9.517853260040283203e-01 -2.992025613784790039e-01
2.375000000000000000e+03 6.112538528442382812e+01 -3.015356636047363281e+01 -5.023214966058731079e-02 -4.708116352558135986e-01 -1.563131362199783325e-01 -3.095318675041198730e-01
2.376000000000000000e+03 6.391097259521484375e+01 -2.948760223388671875e+01 8.173023909330368042e-02 3.897997140884399414e-01 1.414589881896972656e-01 2.343455888330936432e-02
2.377000000000000000e+03 2.948549461364746094e+01 1.786399459838867188e+01 4.551522433757781982e-02 -2.703859806060791016e-01 -6.746122241020202637e-02 2.580014765262603760e-01
2.378000000000000000e+03 4.290932464599609375e+01 3.078299760818481445e+00 -3.664893507957458496e-01 6.321289110928773880e-03 -1.080504208803176880e-01 3.021562993526458740e-01
2.379000000000000000e+03 4.544474029541015625e+01 2.987160444259643555e+00 -2.841686010360717773e-01 -7.563577592372894287e-02 -1.079413145780563354e-01 4.208863675594329834e-01
2.380000000000000000e+03 1.152958106994628906e+01 1.606047821044921875e+01 3.386797606945037842e-01 -3.690166473388671875e-01 -9.101073257625102997e-03 2.980466783046722412e-01
2.381000000000000000e+03 6.406497955322265625e+01 -2.732899665832519531e+00 -1.143385529518127441e+00 -7.204341292381286621e-01 -5.591459274291992188e-01 1.469248980283737183e-01
2.382000000000000000e+03 6.048274612426757812e+01 -3.703052043914794922e+00 -1.804078459739685059e+00 -1.138583198189735413e-01 -5.753810405731201172e-01 3.682182431221008301e-01
2.383000000000000000e+03 5.734439468383789062e+01 -2.092731237411499023e+00 -1.146589875221252441e+00 1.984519064426422119e-01 -2.844413816928863525e-01 4.888025522232055664e-01
2.384000000000000000e+03 5.437777328491210938e+01 -5.447366237640380859e+00 -1.383383274078369141e+00 2.954198122024536133e-01 -3.263890445232391357e-01 1.916845142841339111e-01
2.385000000000000000e+03 4.371572113037109375e+01 1.987941932678222656e+01 4.269103705883026123e-01 6.874772310256958008e-01 3.343162834644317627e-01 3.321046829223632812e-01
2.386000000000000000e+03 3.961559677124023438e+01 -9.242132186889648438e+00 -5.494985580444335938e-01 1.341143548488616943e-01 -1.246152669191360474e-01 1.652002036571502686e-01
2.387000000000000000e+03 8.338074684143066406e+00 -2.520248985290527344e+01 1.605854631634429097e-04 -4.378845187602564692e-05 3.503910193103365600e-05 7.915824971860274673e-05
2.388000000000000000e+03 8.700623512268066406e+00 -2.934979057312011719e+01 1.978551736101508141e-04 -2.210562342952471226e-06 5.869338201591745019e-05 2.366600238019600511e-04
2.389000000000000000e+03 5.539414596557617188e+01 2.413246917724609375e+01 5.501251220703125000e-01 1.137555003166198730e+00 5.063040256500244141e-01 -3.028726279735565186e-01
2.390000000000000000e+03 7.677104949951171875e+00 -9.207688331604003906e+00 2.035911347775254399e-05 4.274277671356685460e-05 1.893056651169899851e-05 5.762008731835521758e-05
2.391000000000000000e+03 8.258375167846679688e+00 -2.236714935302734375e+01 1.445587549824267626e-04 6.211431173142045736e-05 6.200192001415416598e-05 -2.545359166106209159e-05
2.392000000000000000e+03 5.627519607543945312e+01 2.821111202239990234e+00 -8.099451661109924316e-02 3.810742497444152832e-01 9.002391993999481201e-02 4.383985996246337891e-01
2.393000000000000000e+03 8.993503570556640625e+00 1.309920883178710938e+01 9.959198534488677979e-02 -4.257851243019104004e-01 -9.785794466733932495e-02 4.502126276493072510e-01
2.394000000000000000e+03 4.551839828491210938e+01 2.514334487915039062e+01 5.079192519187927246e-01 5.685600638389587402e-01 3.229438066482543945e-01 1.918842047452926636e-01
2.395000000000000000e+03 4.183308410644531250e+01 2.352886199951171875e+01 4.007924795150756836e-01 5.039847493171691895e-01 2.714331746101379395e-01 2.030202895402908325e-01
2.396000000000000000e+03 3.957508850097656250e+01 7.034454822540283203e+00 -3.405128717422485352e-01 1.986034065485000610e-01 -4.257284104824066162e-02 3.901460170745849609e-01
2.397000000000000000e+03 6.117702484130859375e+01 1.427465438842773438e+01 5.550858378410339355e-01 1.626012682914733887e+00 6.543295383453369141e-01 -4.125558137893676758e-01
2.398000000000000000e+03 6.088925170898437500e+01 1.643982124328613281e+01 5.022094845771789551e-01 1.713459610939025879e+00 6.647007465362548828e-01 -4.556483924388885498e-01
2.399000000000000000e+03 1.934473609924316406e+01 -3.145161247253417969e+01 2.143878489732742310e-03 -4.524354881141334772e-04 5.074329092167317867e-04 1.277457922697067261e-03
2.400000000000000000e+03 1.679252624511718750e+01 -3.068429374694824219e+01 1.264148624613881111e-03 -1.825239160098135471e-04 3.244873951189219952e-04 8.193815592676401138e-04
2.401000000000000000e+03 6.522647094726562500e+01 -2.492151737213134766e+00 -9.322615861892700195e-01 -6.681046485900878906e-01 -4.801098704338073730e-01 -2.757448256015777588e-01
2.402000000000000000e+03 6.421059417724609375e+01 -4.007491111755371094e+00 -2.222768306732177734e+00 -9.923549890518188477e-01 -9.645369648933410645e-01 2.265311330556869507e-01
2.403000000000000000e+03 5.800607299804687500e+01 2.030684852600097656e+01 4.381955862045288086e-01 1.454512834548950195e+00 5.678125023841857910e-01 -4.211025536060333252e-01
2.404000000000000000e+03 6.082006454467773438e+01 -3.534464263916015625e+01 7.046359181404113770e-01 7.477962970733642578e-02 2.338246554136276245e-01 -2.517640218138694763e-02
2.405000000000000000e+03 2.629806137084960938e+01 2.187190628051757812e+01 2.741595804691314697e-01 -3.819677233695983887e-01 -3.234244138002395630e-02 3.271569907665252686e-01
2.406000000000000000e+03 8.601973533630371094e+00 -2.712918090820312500e+01 1.715519028948619962e-04 -6.657299672951921821e-05 3.149367330479435623e-05 1.528542925370857120e-04
2.407000000000000000e+03 7.352063751220703125e+01 -1.529988861083984375e+01 3.201676011085510254e-01 3.998700380325317383e+00 1.295660376548767090e+00 2.123477458953857422e+00
2.408000000000000000e+03 7.478214263916015625e+01 -9.280471801757812500e+00 -6.517508625984191895e-01 8.418662071228027344e+00 2.330073356628417969e+00 -3.172942399978637695e+00
2.409000000000000000e+03 7.375608825683593750e+01 -8.516165733337402344e+00 -4.560338854789733887e-01 5.499673843383789062e+00 1.513091921806335449e+00 -2.090947866439819336e+00
2.410000000000000000e+03 7.489791107177734375e+01 -1.471431446075439453e+01 -2.677997052669525146e-01 8.797860145568847656e+00 2.559018135070800781e+00 4.090299129486083984e+00
2.411000000000000000e+03 7.575981140136718750e+01 -1.534948444366455078e+01 -1.874971508979797363e+00 1.229333686828613281e+01 3.125509500503540039e+00 2.174498319625854492e+00
2.412000000000000000e+03 7.517998504638671875e+01 -1.471662425994873047e+01 -7.627660036087036133e-01 1.039757728576660156e+01 2.890443325042724609e+00 3.987174034118652344e+00
2.413000000000000000e+03 7.592155456542968750e+01 -1.613337326049804688e+01 -1.782848119735717773e+00 1.138056850433349609e+01 2.879316091537475586e+00 1.327782750129699707e+00
2.414000000000000000e+03 7.559883880615234375e+01 -1.481739997863769531e+01 -1.539829492568969727e+00 1.267435932159423828e+01 3.340358972549438477e+00 3.223446846008300781e+00
2.415000000000000000e+03 7.470887756347656250e+01 -9.760786056518554688e+00 -6.044814363121986389e-02 7.978721618652343750e+00 2.375482082366943359e+00 -3.819531917572021484e+00
2.416000000000000000e+03 7.547532653808593750e+01 -8.967398643493652344e+00 -1.653626561164855957e+00 1.119176769256591797e+01 2.861442565917968750e+00 -2.442757368087768555e+00
2.417000000000000000e+03 7.689101409912109375e+01 -1.518952465057373047e+01 -2.207642793655395508e+00 1.452309989929199219e+01 3.694637298583984375e+00 -4.962306022644042969e-01
2.418000000000000000e+03 7.200215911865234375e+01 -1.564668846130371094e+01 1.130238845944404602e-01 2.012568712234497070e+00 6.376777887344360352e-01 5.353382229804992676e-01
2.419000000000000000e+03 7.414215087890625000e+01 -1.597882843017578125e+01 -2.536165714263916016e-01 6.425121784210205078e+00 1.851451635360717773e+00 2.328227043151855469e+00
2.420000000000000000e+03 7.185776519775390625e+01 -1.638397026062011719e+01 2.836595661938190460e-02 2.457484245300292969e+00 7.457550168037414551e-01 5.977289080619812012e-01
2.421000000000000000e+03 2.994707679748535156e+01 -8.697585105895996094e+00 -4.401119947433471680e-01 2.652747370302677155e-02 -1.240753605961799622e-01 2.598027884960174561e-01
2.422000000000000000e+03 2.960171699523925781e+01 -7.990689277648925781e+00 -4.630991518497467041e-01 2.541977353394031525e-02 -1.313038170337677002e-01 2.675191462039947510e-01
2.423000000000000000e+03 7.226725769042968750e+01 -1.616606140136718750e+01 1.100025177001953125e-01 2.779957056045532227e+00 8.669878840446472168e-01 8.679177761077880859e-01
2.424000000000000000e+03 7.487611389160156250e+01 -6.443238735198974609e+00 -1.122605800628662109e+00 8.086848258972167969e+00 2.089272975921630859e+00 -1.478787660598754883e+00
2.425000000000000000e+03 7.201129913330078125e+01 -7.801978588104248047e+00 -8.742718696594238281e-01 2.929528713226318359e+00 6.165770292282104492e-01 -8.298932313919067383e-01
2.426000000000000000e+03 7.221276855468750000e+01 -8.155544281005859375e+00 -5.913746356964111328e-01 2.945109844207763672e+00 7.061206102371215820e-01 -8.909323811531066895e-01
2.427000000000000000e+03 6.803135871887207031e+00 -5.894579887390136719e+00 9.724017218104563653e-06 2.782943374768365175e-05 1.126603547163540497e-05 6.148491956992074847e-05
2.428000000000000000e+03 7.387377929687500000e+01 -4.120600700378417969e+00 -7.364618778228759766e-01 6.192885398864746094e+00 1.636927008628845215e+00 -1.593294501304626465e+00
2.429000000000000000e+03 7.443376922607421875e+01 -5.658672809600830078e+00 -1.022068142890930176e+00 7.100649833679199219e+00 1.823574542999267578e+00 -1.480633974075317383e+00
2.430000000000000000e+03 8.698679924011230469e+00 5.984375476837158203e+00 -3.138931691646575928e-01 -1.551756858825683594e-01 -1.407206654548645020e-01 2.712951302528381348e-01
2.431000000000000000e+03 7.566493988037109375e+01 -7.148688316345214844e+00 -1.420402884483337402e+00 9.693227767944335938e+00 2.481847524642944336e+00 -1.225493550300598145e+00
2.432000000000000000e+03 3.071954917907714844e+01 -8.206988334655761719e+00 -4.595852494239807129e-01 4.992674291133880615e-02 -1.228975504636764526e-01 2.508231997489929199e-01
2.433000000000000000e+03 7.151007843017578125e+01 -1.890630912780761719e+01 -2.527924478054046631e-01 3.298994779586791992e+00 9.138607382774353027e-01 6.187760829925537109e-01
2.434000000000000000e+03 7.308707427978515625e+01 -1.692671012878417969e+01 -1.068623512983322144e-01 4.615477085113525391e+00 1.352584362030029297e+00 1.419701457023620605e+00
2.435000000000000000e+03 9.592439651489257812e+00 9.712244987487792969e+00 -1.888552010059356689e-01 -3.023180365562438965e-01 -1.473519802093505859e-01 4.867061078548431396e-01
2.436000000000000000e+03 9.170755386352539062e+00 -6.025964260101318359e+00 2.140525066351983696e-05 -2.465194302203599364e-05 -9.740074347064364702e-07 -2.180588126066140831e-05
2.437000000000000000e+03 9.386400222778320312e+00 -8.132411003112792969e+00 -4.665005690185353160e-05 4.218833782942965627e-05 -1.338515971838205587e-06 2.229308120149653405e-05
2.438000000000000000e+03 6.951857757568359375e+01 -1.802518081665039062e+01 -5.218809843063354492e-01 1.148687005043029785e+00 1.880417913198471069e-01 -1.919354051351547241e-01
2.439000000000000000e+03 2.585884284973144531e+01 -4.018742084503173828e+00 -5.716227889060974121e-01 -3.075825981795787811e-02 -1.807143241167068481e-01 2.941099703311920166e-01
2.440000000000000000e+03 2.422267532348632812e+01 -2.056351661682128906e+00 -5.748810768127441406e-01 -5.938776955008506775e-02 -1.902806609869003296e-01 2.864843606948852539e-01
2.441000000000000000e+03 2.735047149658203125e+01 -5.842499732971191406e+00 -5.297987461090087891e-01 -1.077342312783002853e-02 -1.621716469526290894e-01 2.953217625617980957e-01
2.442000000000000000e+03 2.653451156616210938e+01 -5.962144374847412109e+00 -5.397825241088867188e-01 -5.119318142533302307e-02 -1.772927194833755493e-01 3.170959055423736572e-01
2.443000000000000000e+03 2.578888320922851562e+01 2.476217985153198242e+00 -8.262911438941955566e-02 8.008069545030593872e-02 -7.645261939615011215e-04 1.192652359604835510e-01
2.444000000000000000e+03 2.491570663452148438e+01 -1.900195002555847168e+00 -5.416705012321472168e-01 -1.219376269727945328e-02 -1.661592870950698853e-01 2.562196850776672363e-01
2.445000000000000000e+03 6.953923034667968750e+01 -2.004699516296386719e+01 -4.503205418586730957e-01 1.769802808761596680e+00 3.958446681499481201e-01 1.724481135606765747e-01
2.446000000000000000e+03 6.445300102233886719e+00 1.337690830230712891e+01 5.357364192605018616e-02 -4.315680563449859619e-01 -1.133983209729194641e-01 3.555231094360351562e-01
2.447000000000000000e+03 2.473591613769531250e+01 -2.601270675659179688e+00 -5.766796469688415527e-01 -4.324937611818313599e-02 -1.859787106513977051e-01 2.856951057910919189e-01
2.448000000000000000e+03 3.488014602661132812e+01 -1.434401512145996094e+01 -3.444632887840270996e-01 4.397182166576385498e-02 -9.014744311571121216e-02 1.163932010531425476e-01
2.449000000000000000e+03 3.069001960754394531e+01 1.081818103790283203e+01 -1.446263194084167480e-01 -1.122673600912094116e-01 -7.706810534000396729e-02 5.749385952949523926e-01
2.450000000000000000e+03 7.029871940612792969e+00 1.527951240539550781e+01 1.212500855326652527e-01 -4.786283671855926514e-01 -1.072134897112846375e-01 3.240996897220611572e-01
2.451000000000000000e+03 7.863736629486083984e+00 1.282574176788330078e+01 4.968699812889099121e-02 -4.001399874687194824e-01 -1.051359027624130249e-01 4.176353514194488525e-01
2.452000000000000000e+03 1.056263160705566406e+01 5.850151062011718750e+00 -4.199885427951812744e-01 -2.502007782459259033e-01 -2.010567933320999146e-01 3.132042884826660156e-01
2.453000000000000000e+03 1.069185733795166016e+01 6.772906303405761719e+00 -4.161836504936218262e-01 -3.048028945922851562e-01 -2.162959575653076172e-01 3.869231939315795898e-01
2.454000000000000000e+03 2.550626945495605469e+01 1.299993395805358887e+00 -2.568730413913726807e-01 8.924112468957901001e-02 -5.028957128524780273e-02 1.442977339029312134e-01
2.455000000000000000e+03 2.840051651000976562e+01 4.053655147552490234e+00 3.827691078186035156e-02 -5.265371873974800110e-02 -4.313042387366294861e-03 2.225656658411026001e-01
2.456000000000000000e+03 3.945915222167968750e+01 5.040586471557617188e+00 -3.657644689083099365e-01 1.420487761497497559e-01 -6.711471080780029297e-02 3.449516892433166504e-01
2.457000000000000000e+03 7.133348846435546875e+01 -6.707788467407226562e+00 -1.316740989685058594e+00 2.746375560760498047e+00 4.288903474807739258e-01 -9.335929155349731445e-01
2.458000000000000000e+03 1.340548992156982422e+01 -7.828180313110351562e+00 -6.610326818190515041e-05 1.439169136574491858e-05 -1.551347304484806955e-05 -3.397256932657910511e-06
2.459000000000000000e+03 7.599796295166015625e+01 -1.707765960693359375e+01 -1.420703291893005371e+00 1.038500118255615234e+01 2.689289331436157227e+00 7.964491248130798340e-01
2.460000000000000000e+03 7.642588806152343750e+01 -1.652832412719726562e+01 -1.766771078109741211e+00 1.159341907501220703e+01 2.947994470596313477e+00 5.180296301841735840e-01
2.461000000000000000e+03 7.655119323730468750e+01 -1.970649719238281250e+01 -5.252159237861633301e-01 9.572498321533203125e+00 2.714184761047363281e+00 5.056107640266418457e-01
2.462000000000000000e+03 7.586474609375000000e+01 -1.812344360351562500e+01 -8.963066339492797852e-01 9.412373542785644531e+00 2.554820299148559570e+00 7.600594758987426758e-01
2.463000000000000000e+03 3.223847961425781250e+01 -1.217053031921386719e+01 -3.609359264373779297e-01 3.234576061367988586e-02 -9.857704490423202515e-02 1.844328790903091431e-01
2.464000000000000000e+03 3.824707412719726562e+01 5.340003967285156250e+00 -3.246403932571411133e-01 1.423531621694564819e-01 -5.468616634607315063e-02 3.780796825885772705e-01
2.465000000000000000e+03 7.673065948486328125e+01 -1.588278770446777344e+01 -2.040473699569702148e+00 1.284119319915771484e+01 3.240215778350830078e+00 1.826109364628791809e-02
2.466000000000000000e+03 9.243013381958007812e+00 1.190679645538330078e+01 1.119998656213283539e-02 -3.770268559455871582e-01 -1.097480654716491699e-01 4.811016917228698730e-01
2.467000000000000000e+03 6.883744812011718750e+01 -2.508413696289062500e+01 -1.348978430032730103e-01 2.347481966018676758e+00 6.637752056121826172e-01 5.415695309638977051e-01
2.468000000000000000e+03 4.502915191650390625e+01 -1.056352424621582031e+01 -6.916137933731079102e-01 1.388406753540039062e-01 -1.658319383859634399e-01 5.871787667274475098e-02
2.469000000000000000e+03 4.837804412841796875e+01 -9.407505989074707031e+00 -8.683081269264221191e-01 1.745377480983734131e-01 -2.081311196088790894e-01 1.766474917531013489e-02
2.470000000000000000e+03 4.767811584472656250e+01 -1.095402050018310547e+01 -7.866290211677551270e-01 1.339815706014633179e-01 -1.957942396402359009e-01 -3.658021613955497742e-02
2.471000000000000000e+03 7.193122863769531250e+01 1.282034778594970703e+01 3.633961975574493408e-01 4.025074005126953125e+00 1.316541075706481934e+00 -9.621759057044982910e-01
2.472000000000000000e+03 7.291931915283203125e+01 1.558223533630371094e+01 2.488112896680831909e-01 4.195220470428466797e+00 1.333209514617919922e+00 -7.717484235763549805e-01
2.473000000000000000e+03 6.936249542236328125e+01 -4.510731220245361328e+00 -1.370817542076110840e+00 1.246381044387817383e+00 -3.733095526695251465e-02 -1.266950249671936035e+00
2.474000000000000000e+03 3.159684562683105469e+01 8.320898056030273438e+00 -7.586530596017837524e-02 -6.916194409132003784e-02 -4.350817576050758362e-02 5.445688962936401367e-01
2.475000000000000000e+03 3.717684173583984375e+01 -1.321327877044677734e+01 -4.212218225002288818e-01 8.025170862674713135e-02 -1.022910401225090027e-01 1.064179018139839172e-01
2.476000000000000000e+03 3.164075088500976562e+01 -1.281969261169433594e+01 -3.212523758411407471e-01 1.450381334871053696e-02 -9.202456474304199219e-02 1.736648380756378174e-01
2.477000000000000000e+03 5.530036544799804688e+01 3.507474422454833984e+00 -1.048188307322561741e-03 4.447144269943237305e-01 1.330998688936233521e-01 4.361798465251922607e-01
2.478000000000000000e+03 5.856240081787109375e+01 5.549737930297851562e+00 4.637558758258819580e-01 5.413461327552795410e-01 3.015305995941162109e-01 1.341033279895782471e-01
2.479000000000000000e+03 8.177076339721679688e+00 1.676316070556640625e+01 1.832132637500762939e-01 -4.797667860984802246e-01 -8.896605670452117920e-02 2.804806232452392578e-01
2.480000000000000000e+03 4.258435440063476562e+01 -1.173205089569091797e+01 -5.850409865379333496e-01 1.217527315020561218e-01 -1.389864832162857056e-01 5.759686976671218872e-02
2.481000000000000000e+03 7.314031219482421875e+01 7.902766704559326172e+00 3.709839880466461182e-01 4.662043571472167969e+00 1.509908199310302734e+00 -1.273682117462158203e+00
2.482000000000000000e+03 3.775315093994140625e+01 9.009920120239257812e+00 -2.063774019479751587e-01 1.976158916950225830e-01 -2.628453541547060013e-03 5.001630187034606934e-01
2.483000000000000000e+03 1.079204845428466797e+01 8.742525100708007812e+00 -3.201165795326232910e-01 -3.262648284435272217e-01 -1.939144283533096313e-01 4.986596703529357910e-01
2.484000000000000000e+03 5.148443222045898438e+01 -7.643258571624755859e+00 -1.141333460807800293e+00 2.280940413475036621e-01 -2.739718258380889893e-01 5.491451546549797058e-02
2.485000000000000000e+03 7.329456329345703125e+01 -2.643007659912109375e+01 5.568756535649299622e-02 5.757772922515869141e+00 1.744038224220275879e+00 9.173504710197448730e-01
2.486000000000000000e+03 5.964024353027343750e+01 -2.750144481658935547e+00 -1.359057784080505371e+00 -1.066010259091854095e-02 -4.109153747558593750e-01 4.457003176212310791e-01
2.487000000000000000e+03 7.233390808105468750e+01 -2.108449935913085938e+01 -1.982594877481460571e-01 4.736594676971435547e+00 1.361500501632690430e+00 8.430789709091186523e-01
2.488000000000000000e+03 7.171895027160644531e+00 2.205209159851074219e+01 8.154486864805221558e-02 -5.597243905067443848e-01 -1.434538513422012329e-01 1.370794177055358887e-01
2.489000000000000000e+03 8.807102203369140625e+00 2.477829742431640625e+01 6.080594658851623535e-02 -4.960466921329498291e-01 -1.305722147226333618e-01 1.255814880132675171e-01
2.490000000000000000e+03 2.462139511108398438e+01 -1.052861094474792480e+00 -4.977665543556213379e-01 2.362537197768688202e-03 -1.486212015151977539e-01 2.377527058124542236e-01
2.491000000000000000e+03 4.356070709228515625e+01 -1.280008220672607422e+01 -5.721876025199890137e-01 9.649946540594100952e-02 -1.427064388990402222e-01 5.614674650132656097e-03
2.492000000000000000e+03 4.382604980468750000e+01 -1.061015701293945312e+01 -6.455833911895751953e-01 1.420847922563552856e-01 -1.510495692491531372e-01 6.801304966211318970e-02
2.493000000000000000e+03 7.159669494628906250e+01 2.067880630493164062e+00 3.059847652912139893e-01 3.843399524688720703e+00 1.244815230369567871e+00 -1.706892251968383789e+00
2.494000000000000000e+03 7.262441253662109375e+01 1.447719097137451172e+00 1.893816143274307251e-01 4.632637977600097656e+00 1.446605920791625977e+00 -1.736843466758728027e+00
2.495000000000000000e+03 7.311892700195312500e+01 1.300832271575927734e+01 2.888543009757995605e-01 4.380358695983886719e+00 1.400763988494873047e+00 -9.127938151359558105e-01
2.496000000000000000e+03 7.320059204101562500e+01 6.604788780212402344e+00 3.608800768852233887e-01 4.746896743774414062e+00 1.532333135604858398e+00 -1.361580014228820801e+00
2.497000000000000000e+03 7.210603332519531250e+01 5.390566349029541016e+00 4.240303933620452881e-01 4.198461532592773438e+00 1.386747598648071289e+00 -1.491464972496032715e+00
2.498000000000000000e+03 2.901737403869628906e+01 3.028572559356689453e+00 -8.417185395956039429e-02 -1.811376772820949554e-02 -3.068568743765354156e-02 2.044501900672912598e-01
2.499000000000000000e+03 8.172819137573242188e+00 1.805682945251464844e+01 1.711242645978927612e-01 -4.861222505569458008e-01 -9.449940174818038940e-02 2.399609237909317017e-01
2.500000000000000000e+03 5.699182510375976562e+01 3.772786855697631836e+00 1.340713053941726685e-01 4.169806241989135742e-01 1.653155833482742310e-01 3.288468718528747559e-01
2.501000000000000000e+03 9.451122283935546875e+00 1.799555397033691406e+01 2.128808200359344482e-01 -4.394116699695587158e-01 -6.795924901962280273e-02 2.371200323104858398e-01
2.502000000000000000e+03 7.037122344970703125e+01 -2.116249275207519531e+01 -2.669842541217803955e-01 2.915115118026733398e+00 7.944393157958984375e-01 5.111268758773803711e-01
2.503000000000000000e+03 6.390432357788085938e+01 -1.538387298583984375e+00 -6.783920526504516602e-01 -4.186343848705291748e-01 -3.291079103946685791e-01 -2.559651434421539307e-02
2.504000000000000000e+03 6.287654113769531250e+01 -2.822728395462036133e+00 -1.443473577499389648e+00 -5.745005011558532715e-01 -6.053922176361083984e-01 3.529560863971710205e-01
2.505000000000000000e+03 3.348472213745117188e+01 -1.181988048553466797e+01 -3.953994214534759521e-01 5.813277140259742737e-02 -1.011799946427345276e-01 1.766438931226730347e-01
2.506000000000000000e+03 7.070764160156250000e+01 -2.212874984741210938e+01 -1.871338486671447754e-01 3.331563234329223633e+00 9.433288574218750000e-01 6.700477004051208496e-01
2.507000000000000000e+03 3.831241989135742188e+01 6.650284290313720703e+00 -3.136681020259857178e-01 1.804581731557846069e-01 -3.996298462152481079e-02 4.084606170654296875e-01
2.508000000000000000e+03 5.830658340454101562e+01 1.817940330505371094e+01 4.108362197875976562e-01 1.451632261276245117e+00 5.587405562400817871e-01 -4.066690802574157715e-01
2.509000000000000000e+03 7.185845184326171875e+01 1.402205276489257812e+01 3.367792665958404541e-01 3.967359066009521484e+00 1.291241526603698730e+00 -8.974351882934570312e-01
2.510000000000000000e+03 7.191746520996093750e+01 1.162601470947265625e+01 3.951072394847869873e-01 4.034074783325195312e+00 1.328754663467407227e+00 -1.041988611221313477e+00
2.511000000000000000e+03 6.964290142059326172e+00 7.917694568634033203e+00 -1.922020912170410156e-01 -1.799092441797256470e-01 -1.116334050893783569e-01 3.140482604503631592e-01
2.512000000000000000e+03 7.345113372802734375e+01 -6.505956649780273438e+00 -9.788857102394104004e-01 5.554701328277587891e+00 1.372744679450988770e+00 -1.727918744087219238e+00
2.513000000000000000e+03 7.380391693115234375e+01 -1.757093310356140137e+00 -2.900964617729187012e-01 5.799070358276367188e+00 1.652692198753356934e+00 -1.700177073478698730e+00
2.514000000000000000e+03 6.076282501220703125e+00 1.015187358856201172e+01 -8.202640712261199951e-02 -2.765092551708221436e-01 -1.075607016682624817e-01 3.421558141708374023e-01
2.515000000000000000e+03 6.551317214965820312e+00 -7.617402553558349609e+00 -1.080152214854024351e-04 5.149893695488572121e-05 -1.695488572295289487e-05 1.949207398865837604e-05
2.516000000000000000e+03 6.792844772338867188e+00 -9.601000785827636719e+00 -8.425545820500701666e-05 -2.747356302279513329e-05 -3.351870691403746605e-05 -4.918869308312423527e-05
2.517000000000000000e+03 1.235082817077636719e+01 1.885801506042480469e+01 2.730285823345184326e-01 -2.309860587120056152e-01 1.261276099830865860e-02 1.822421699762344360e-01
2.518000000000000000e+03 1.108746051788330078e+01 2.062798118591308594e+01 1.768378913402557373e-01 -3.240900039672851562e-01 -4.417563229799270630e-02 1.728766411542892456e-01
2.519000000000000000e+03 8.119604110717773438e+00 1.167051029205322266e+01 -1.185213960707187653e-02 -3.738902509212493896e-01 -1.157227158546447754e-01 4.475997984409332275e-01
2.520000000000000000e+03 4.045303344726562500e+01 -1.047243309020996094e+01 -5.521975755691528320e-01 1.257402151823043823e-01 -1.279372125864028931e-01 1.276325583457946777e-01
2.521000000000000000e+03 3.636503601074218750e+01 -1.211266517639160156e+01 -4.354600906372070312e-01 8.737738430500030518e-02 -1.044248118996620178e-01 1.389506012201309204e-01
2.522000000000000000e+03 5.278313064575195312e+01 7.900748252868652344e-01 -5.032761096954345703e-01 3.551033735275268555e-01 -4.445181414484977722e-02 5.833236575126647949e-01
2.523000000000000000e+03 6.778962707519531250e+01 -2.783540725708007812e+00 -9.019575119018554688e-01 2.147218585014343262e-01 -2.061707079410552979e-01 -1.175928473472595215e+00
2.524000000000000000e+03 6.634641265869140625e+01 -2.137067317962646484e+00 -6.846699714660644531e-01 -2.784269452095031738e-01 -2.889290750026702881e-01 -6.717669963836669922e-01
2.525000000000000000e+03 7.242498016357421875e+01 2.097443199157714844e+01 1.799371540546417236e-01 3.864683389663696289e+00 1.213386178016662598e+00 -5.535328388214111328e-01
2.526000000000000000e+03 7.112805938720703125e+01 1.932813262939453125e+01 2.510853707790374756e-01 3.660803079605102539e+00 1.173566579818725586e+00 -6.526303887367248535e-01
2.527000000000000000e+03 7.188774585723876953e+00 1.029548168182373047e+01 -8.804750442504882812e-02 -3.061298727989196777e-01 -1.182532161474227905e-01 3.940607309341430664e-01
2.528000000000000000e+03 7.227627563476562500e+01 -2.867209815979003906e+01 1.791719496250152588e-01 5.067278861999511719e+00 1.573935270309448242e+00 9.070685505867004395e-01
2.529000000000000000e+03 6.901831817626953125e+01 -3.300002288818359375e+01 4.828094840049743652e-01 3.256992578506469727e+00 1.121940612792968750e+00 6.535241007804870605e-01
2.530000000000000000e+03 4.142430877685546875e+01 2.864988327026367188e+00 -3.635425269603729248e-01 5.519592761993408203e-02 -9.250397980213165283e-02 3.012667000293731689e-01
2.531000000000000000e+03 5.173612594604492188e+01 -2.777114868164062500e+00 -8.995260596275329590e-01 3.121433556079864502e-01 -1.762148141860961914e-01 4.545928239822387695e-01
2.532000000000000000e+03 5.368062973022460938e+01 1.574516534805297852e+00 -3.835257887840270996e-01 3.845284283161163330e-01 3.008005733136087656e-04 5.549464821815490723e-01
2.533000000000000000e+03 7.277937316894531250e+01 -1.914949655532836914e+00 -3.135934174060821533e-01 4.894555091857910156e+00 1.374288439750671387e+00 -1.773156762123107910e+00
2.534000000000000000e+03 7.117971038818359375e+01 -4.035533905029296875e+00 -9.039882421493530273e-01 3.190236568450927734e+00 6.858745217323303223e-01 -1.607955217361450195e+00
2.535000000000000000e+03 4.932600021362304688e+01 6.742691397666931152e-01 -4.473259449005126953e-01 1.891882717609405518e-01 -7.744130492210388184e-02 5.853610634803771973e-01
2.536000000000000000e+03 4.898620986938476562e+01 -7.289769649505615234e+00 -9.514589905738830566e-01 2.386309057474136353e-01 -2.138484120368957520e-01 1.581821888685226440e-01
2.537000000000000000e+03 3.024207878112792969e+01 1.384356307983398438e+01 -1.956605166196823120e-01 -1.382665038108825684e-01 -1.001781076192855835e-01 4.278872013092041016e-01
2.538000000000000000e+03 3.039487075805664062e+01 1.197439479827880859e+01 -1.873451173305511475e-01 -1.043855547904968262e-01 -8.751919865608215332e-02 5.265908241271972656e-01
2.539000000000000000e+03 6.368428039550781250e+01 1.243066692352294922e+01 6.540998220443725586e-01 1.847674012184143066e+00 7.505321502685546875e-01 -5.788317322731018066e-01
2.540000000000000000e+03 6.606742095947265625e+01 2.846329879760742188e+01 2.999501526355743408e-01 2.744771718978881836e+00 9.134165644645690918e-01 -4.041053652763366699e-01
2.541000000000000000e+03 7.086355590820312500e+01 2.205933952331542969e+01 2.207246273756027222e-01 3.546427726745605469e+00 1.130145668983459473e+00 -5.614258050918579102e-01
2.542000000000000000e+03 5.454158782958984375e+01 2.485178470611572266e+00 -2.226353138685226440e-01 4.009112417697906494e-01 5.348277837038040161e-02 5.264131426811218262e-01
2.543000000000000000e+03 3.834783935546875000e+01 1.892319107055664062e+01 3.442353904247283936e-01 3.183735907077789307e-01 1.987826973199844360e-01 2.456309646368026733e-01
2.544000000000000000e+03 5.623738861083984375e+01 -5.783411502838134766e+00 -1.651238560676574707e+00 2.320955991744995117e-01 -4.257428646087646484e-01 7.203587144613265991e-02
2.545000000000000000e+03 7.161607742309570312e+00 -2.520480155944824219e+01 1.351781429548282176e-05 6.604704685742035508e-05 2.386945925536565483e-05 2.470217259542550892e-05
2.546000000000000000e+03 6.820998191833496094e+00 -2.718386077880859375e+01 8.983562292996793985e-05 -1.284394693357171491e-05 2.309750198037363589e-05 9.589295950718224049e-05
2.547000000000000000e+03 7.201212310791015625e+01 6.605302333831787109e+00 4.629054963588714600e-01 4.150316715240478516e+00 1.383966565132141113e+00 -1.411351203918457031e+00
2.548000000000000000e+03 1.622125053405761719e+01 -3.303604888916015625e+01 6.064789486117660999e-04 2.439057716401293874e-04 2.551154175307601690e-04 1.378698856569826603e-03
2.549000000000000000e+03 1.229463005065917969e+01 -2.985728263854980469e+01 5.386393168009817600e-04 1.803999330149963498e-04 2.157117705792188644e-04 6.033592508174479008e-04
2.550000000000000000e+03 5.966725540161132812e+01 8.146075248718261719e+00 6.579537391662597656e-01 8.516603708267211914e-01 4.528842270374298096e-01 -5.281920358538627625e-02
2.551000000000000000e+03 6.173891067504882812e+01 1.018589305877685547e+01 7.001112699508666992e-01 1.309210300445556641e+00 6.027964353561401367e-01 -3.459479808807373047e-01
2.552000000000000000e+03 7.632724285125732422e+00 -2.826169776916503906e+01 2.826401905622333288e-04 1.434526493540033698e-04 1.278278505196794868e-04 2.857545332517474890e-04
2.553000000000000000e+03 1.131568717956542969e+01 -2.584427452087402344e+01 4.756454436574131250e-04 6.523204501718282700e-05 1.622632407816126943e-04 1.220882986672222614e-04
2.554000000000000000e+03 7.086667633056640625e+01 -2.797451400756835938e+01 1.485666185617446899e-01 4.064878940582275391e+00 1.264033555984497070e+00 8.365756869316101074e-01
2.555000000000000000e+03 7.156471729278564453e+00 2.547584724426269531e+01 3.872218728065490723e-02 -6.016933321952819824e-01 -1.688913404941558838e-01 9.625826776027679443e-02
2.556000000000000000e+03 7.043254089355468750e+01 1.475976657867431641e+01 3.831089735031127930e-01 3.605440378189086914e+00 1.196564793586730957e+00 -8.747597336769104004e-01
2.557000000000000000e+03 3.933443832397460938e+01 2.126934051513671875e+01 3.606934845447540283e-01 3.875647485256195068e-01 2.244774699211120605e-01 2.037375271320343018e-01
2.558000000000000000e+03 3.068088912963867188e+01 1.613659477233886719e+01 -7.354509830474853516e-02 -1.474438309669494629e-01 -6.629668176174163818e-02 3.254712522029876709e-01
2.559000000000000000e+03 7.099721527099609375e+01 -3.361220169067382812e+01 4.191731810569763184e-01 4.332928180694580078e+00 1.425630450248718262e+00 6.815153360366821289e-01
2.560000000000000000e+03 7.229122161865234375e+01 2.235929870605468750e+01 1.634545028209686279e-01 3.796789169311523438e+00 1.188073158264160156e+00 -5.070964097976684570e-01
2.561000000000000000e+03 6.169392395019531250e+01 -1.734076857566833496e+00 -9.898786544799804688e-01 -2.806732356548309326e-01 -3.811655640602111816e-01 3.961861729621887207e-01
2.562000000000000000e+03 6.158030700683593750e+01 -6.676144003868103027e-01 -5.554474592208862305e-01 -1.667550653219223022e-01 -2.166607528924942017e-01 2.947392463684082031e-01
2.563000000000000000e+03 1.043944740295410156e+01 -2.685407447814941406e+01 3.224244283046573400e-04 -1.881545031210407615e-04 4.028097828268073499e-05 1.706321781966835260e-04
2.564000000000000000e+03 1.141096973419189453e+01 -3.140916442871093750e+01 3.650673315860331059e-04 -4.752697350340895355e-05 9.526210487820208073e-05 5.134487291797995567e-04
2.565000000000000000e+03 5.542518615722656250e+01 -4.779201984405517578e+00 -1.480444073677062988e+00 2.903009951114654541e-01 -3.570429086685180664e-01 2.513303756713867188e-01
2.566000000000000000e+03 9.440214157104492188e+00 -2.589249229431152344e+01 3.194830496795475483e-04 1.183856657007709146e-04 1.313606189796701074e-04 1.235847012139856815e-04
2.567000000000000000e+03 5.333551406860351562e+01 2.513799667358398438e+01 5.993511080741882324e-01 9.280321598052978516e-01 4.582149684429168701e-01 -1.638913154602050781e-01
2.568000000000000000e+03 5.133561325073242188e+01 2.597249221801757812e+01 6.113519668579101562e-01 8.101476430892944336e-01 4.264498949050903320e-01 -5.750244855880737305e-02
2.569000000000000000e+03 1.089753723144531250e+01 -2.893965148925781250e+01 4.163558769505470991e-04 -1.809537789085879922e-04 7.062062650220468640e-05 2.973895752802491188e-04
2.570000000000000000e+03 4.111620712280273438e+01 4.066596508026123047e+00 -3.708199560642242432e-01 7.897682487964630127e-02 -8.755293488502502441e-02 2.924650013446807861e-01
2.571000000000000000e+03 6.432389068603515625e+01 -3.255429077148437500e+01 5.258339047431945801e-01 9.844954609870910645e-01 4.530988037586212158e-01 1.869484633207321167e-01
2.572000000000000000e+03 1.082309150695800781e+01 3.406729125976562500e+01 4.471826925873756409e-02 -5.405479669570922852e-01 -1.487489044666290283e-01 8.990179002285003662e-02
2.573000000000000000e+03 8.771000862121582031e+00 3.540708160400390625e+01 2.656896598637104034e-02 -6.409647464752197266e-01 -1.843187361955642700e-01 6.270798295736312866e-02
2.574000000000000000e+03 5.236480712890625000e+01 -6.991227149963378906e+00 -1.208210945129394531e+00 2.537155747413635254e-01 -2.863486111164093018e-01 8.047409355640411377e-02
2.575000000000000000e+03 8.924389839172363281e+00 -3.455133819580078125e+01 -1.137128638220019639e-04 4.675942182075232267e-04 1.061643997672945261e-04 4.267840995453298092e-04
2.576000000000000000e+03 6.892642974853515625e+00 -3.566209030151367188e+01 6.424063030863180757e-05 3.387920442037284374e-04 1.209098045364953578e-04 3.948246012441813946e-04
2.577000000000000000e+03 6.244308853149414062e+01 1.334692955017089844e+01 6.147711873054504395e-01 1.727070569992065430e+00 7.025525569915771484e-01 -4.851183593273162842e-01
2.578000000000000000e+03 6.199558258056640625e+01 1.784298896789550781e+01 4.861911833286285400e-01 1.921536445617675781e+00 7.223182916641235352e-01 -5.168861746788024902e-01
2.579000000000000000e+03 3.061695480346679688e+01 8.592987060546875000e+00 -4.699125885963439941e-02 -1.371197253465652466e-01 -5.523329228162765503e-02 5.660199522972106934e-01
2.580000000000000000e+03 7.143064117431640625e+01 2.919085884094238281e+01 1.440289467573165894e-01 3.466916084289550781e+00 1.083283424377441406e+00 -3.274761438369750977e-01
2.581000000000000000e+03 7.036553955078125000e+01 2.812204170227050781e+01 1.822355389595031738e-01 3.359770774841308594e+00 1.062601923942565918e+00 -3.703096508979797363e-01
2.582000000000000000e+03 8.322754859924316406e+00 2.190403938293457031e+01 1.052410304546356201e-01 -4.980933368206024170e-01 -1.178556904196739197e-01 1.479383111000061035e-01
2.583000000000000000e+03 5.933802032470703125e+01 1.965471458435058594e+01 4.616104662418365479e-01 1.617469429969787598e+00 6.237239837646484375e-01 -4.503487646579742432e-01
2.584000000000000000e+03 4.698325729370117188e+01 2.454578590393066406e+01 5.587144494056701660e-01 5.621719956398010254e-01 3.362659215927124023e-01 1.662365645170211792e-01
2.585000000000000000e+03 5.443776321411132812e+01 5.158201456069946289e-01 -5.413137674331665039e-01 3.579685091972351074e-01 -5.500358343124389648e-02 5.510818958282470703e-01
2.586000000000000000e+03 7.149571228027343750e+01 -2.663021659851074219e+01 7.595715671777725220e-02 4.427038192749023438e+00 1.350898623466491699e+00 8.786365985870361328e-01
2.587000000000000000e+03 7.180965423583984375e+01 -3.009210205078125000e+01 2.518419623374938965e-01 4.775191307067871094e+00 1.508109927177429199e+00 8.445959687232971191e-01
2.588000000000000000e+03 9.453516006469726562e+00 2.938504028320312500e+01 3.132089972496032715e-02 -5.387876033782958984e-01 -1.522400081157684326e-01 1.105904355645179749e-01
2.589000000000000000e+03 2.695447921752929688e+01 1.989909934997558594e+01 1.982004940509796143e-01 -4.184856414794921875e-01 -6.608554720878601074e-02 2.961544692516326904e-01
2.590000000000000000e+03 7.123968505859375000e+01 3.238404083251953125e+01 1.362860202789306641e-01 3.347144365310668945e+00 1.045029044151306152e+00 -2.389047145843505859e-01
2.591000000000000000e+03 6.903113555908203125e+01 3.078495407104492188e+01 2.006755620241165161e-01 3.104774951934814453e+00 9.916352033615112305e-01 -3.307290673255920410e-01
2.592000000000000000e+03 3.619470214843750000e+01 9.484963417053222656e+00 -1.524393260478973389e-01 1.515584588050842285e-01 -2.642612671479582787e-04 5.350809097290039062e-01
2.593000000000000000e+03 1.737691497802734375e+01 2.233120155334472656e+01 1.039324700832366943e-01 -7.540275156497955322e-02 8.558914996683597565e-03 3.765489161014556885e-01
2.594000000000000000e+03 5.814317321777343750e+01 2.172135925292968750e+01 4.703288376331329346e-01 1.485060214996337891e+00 5.866166949272155762e-01 -4.211935102939605713e-01
2.595000000000000000e+03 7.329521942138671875e+01 -8.284050941467285156e+00 -4.990818798542022705e-01 4.672708034515380859e+00 1.252087831497192383e+00 -1.723839759826660156e+00
2.596000000000000000e+03 7.511145782470703125e+01 -1.541449356079101562e+01 -1.010916233062744141e+00 9.665074348449707031e+00 2.596247196197509766e+00 3.043460607528686523e+00
2.597000000000000000e+03 7.427290344238281250e+01 -7.494473934173583984e+00 -9.406980872154235840e-01 6.967222213745117188e+00 1.807957291603088379e+00 -1.924692749977111816e+00
2.598000000000000000e+03 7.432501983642578125e+01 -9.308463096618652344e+00 -2.153770774602890015e-01 6.714951515197753906e+00 1.949872374534606934e+00 -2.973858118057250977e+00
2.599000000000000000e+03 7.260783386230468750e+01 -1.597417736053466797e+01 1.857290118932723999e-01 3.057419538497924805e+00 9.729445576667785645e-01 1.144839167594909668e+00
2.600000000000000000e+03 7.621426391601562500e+01 -1.559819221496582031e+01 -2.092913627624511719e+00 1.290535831451416016e+01 3.243733644485473633e+00 1.104762554168701172e+00
2.601000000000000000e+03 7.572303009033203125e+01 -7.860833644866943359e+00 -1.715610980987548828e+00 1.039241504669189453e+01 2.603041172027587891e+00 -1.333282709121704102e+00
2.602000000000000000e+03 7.284276580810546875e+01 -8.010651588439941406e+00 -5.623586773872375488e-01 4.000729084014892578e+00 1.031511068344116211e+00 -1.388435721397399902e+00
2.603000000000000000e+03 2.952659797668457031e+01 -9.861165046691894531e+00 -3.938855528831481934e-01 -3.837622003629803658e-03 -1.193169504404067993e-01 2.546822726726531982e-01
2.604000000000000000e+03 7.451126098632812500e+01 -1.679300498962402344e+01 -7.253397703170776367e-01 7.657897472381591797e+00 2.079767227172851562e+00 1.858852982521057129e+00
2.605000000000000000e+03 7.444843292236328125e+01 -1.548980140686035156e+01 -3.407426476478576660e-01 7.293853282928466797e+00 2.085933208465576172e+00 2.945246458053588867e+00
2.606000000000000000e+03 7.448465728759765625e+01 -6.885369300842285156e+00 -1.080110549926757812e+00 7.389103412628173828e+00 1.892697930335998535e+00 -1.698748707771301270e+00
2.607000000000000000e+03 7.496666717529296875e+01 -8.703221321105957031e+00 -1.094604253768920898e+00 8.951763153076171875e+00 2.357147693634033203e+00 -2.583643674850463867e+00
2.608000000000000000e+03 7.619288635253906250e+01 -8.564936637878417969e+00 -2.113334655761718750e+00 1.223251724243164062e+01 3.035754680633544922e+00 -9.951865077018737793e-01
2.609000000000000000e+03 7.224937438964843750e+01 -5.921148300170898438e+00 -1.086346268653869629e+00 4.053339958190917969e+00 8.900980949401855469e-01 -1.389451265335083008e+00
2.610000000000000000e+03 9.644023895263671875e+00 -6.727291584014892578e+00 -2.629779919516295195e-05 1.838677053456194699e-05 -2.373308689129771665e-06 1.095574953069444746e-05
2.611000000000000000e+03 7.101708984375000000e+01 -1.784495735168457031e+01 -2.371922135353088379e-01 2.421647548675537109e+00 6.553366184234619141e-01 3.695819377899169922e-01
2.612000000000000000e+03 7.184271240234375000e+01 -1.716112899780273438e+01 -7.287377864122390747e-02 2.961592197418212891e+00 8.666155338287353516e-01 6.900219321250915527e-01
2.613000000000000000e+03 7.430504608154296875e+01 -1.894307899475097656e+01 -4.739067852497100830e-01 6.911758422851562500e+00 1.931355476379394531e+00 1.109323620796203613e+00
2.614000000000000000e+03 7.297550964355468750e+01 -1.892813491821289062e+01 -2.952237129211425781e-01 5.189929485321044922e+00 1.468411684036254883e+00 1.047574639320373535e+00
2.615000000000000000e+03 2.991818618774414062e+01 -1.063170909881591797e+01 -3.726174235343933105e-01 -5.620547570288181305e-03 -1.134713962674140930e-01 2.401781082153320312e-01
2.616000000000000000e+03 3.309904861450195312e+01 -1.260558605194091797e+01 -3.591169118881225586e-01 4.071313887834548950e-02 -9.552112966775894165e-02 1.675650775432586670e-01
2.617000000000000000e+03 7.375636291503906250e+01 -7.243505001068115234e+00 -8.653628230094909668e-01 6.038814544677734375e+00 1.552035450935363770e+00 -1.790269017219543457e+00
2.618000000000000000e+03 7.289185333251953125e+01 -1.626405334472656250e+01 1.106089577078819275e-01 3.755949020385742188e+00 1.159967422485351562e+00 1.377955794334411621e+00
2.619000000000000000e+03 7.302854537963867188e+00 7.180299758911132812e+00 -2.150553762912750244e-01 -1.782470494508743286e-01 -1.179907247424125671e-01 2.915617227554321289e-01
2.620000000000000000e+03 8.790232658386230469e+00 6.820068359375000000e+00 -3.065806031227111816e-01 -1.909094452857971191e-01 -1.492470055818557739e-01 3.357206284999847412e-01
2.621000000000000000e+03 7.309139251708984375e+01 -1.957316589355468750e+01 -2.741894423961639404e-01 5.433364868164062500e+00 1.547752618789672852e+00 1.035817384719848633e+00
2.622000000000000000e+03 2.756024360656738281e+01 -6.377420902252197266e+00 -5.140265226364135742e-01 -1.363798510283231735e-02 -1.582993566989898682e-01 2.975966334342956543e-01
2.623000000000000000e+03 2.534442138671875000e+01 -3.220938205718994141e+00 -5.776654481887817383e-01 -3.682847321033477783e-02 -1.843481808900833130e-01 2.845478951930999756e-01
2.624000000000000000e+03 2.634483909606933594e+01 -4.771281242370605469e+00 -5.617811083793640137e-01 -3.209623321890830994e-02 -1.781632006168365479e-01 2.998610138893127441e-01
2.625000000000000000e+03 3.031087112426757812e+01 -1.145451831817626953e+01 -3.451245725154876709e-01 -1.579067204147577286e-03 -1.040110886096954346e-01 2.193099707365036011e-01
2.626000000000000000e+03 2.809601211547851562e+01 -4.556191444396972656e+00 -5.226417779922485352e-01 3.814948722720146179e-02 -1.453476995229721069e-01 2.597416043281555176e-01
2.627000000000000000e+03 2.746382141113281250e+01 -4.929398536682128906e+00 -5.417167544364929199e-01 1.228024158626794815e-02 -1.588309556245803833e-01 2.790092527866363525e-01
2.628000000000000000e+03 7.368126678466796875e+01 -5.061474800109863281e+00 -9.129260182380676270e-01 6.030341148376464844e+00 1.535224556922912598e+00 -1.613970756530761719e+00
2.629000000000000000e+03 9.709666252136230469e+00 6.818163871765136719e+00 -3.636073172092437744e-01 -2.236713618040084839e-01 -1.761836111545562744e-01 3.424803912639617920e-01
2.630000000000000000e+03 7.764901638031005859e+00 8.322190284729003906e+00 -2.037514001131057739e-01 -2.303804457187652588e-01 -1.302395462989807129e-01 3.594486415386199951e-01
2.631000000000000000e+03 8.502410888671875000e+00 9.527442932128906250e+00 -1.603488028049468994e-01 -3.000218868255615234e-01 -1.381112039089202881e-01 4.348641335964202881e-01
2.632000000000000000e+03 7.013620758056640625e+01 -1.856689262390136719e+01 -4.176564216613769531e-01 1.860272526741027832e+00 4.327848553657531738e-01 1.214237213134765625e-01
2.633000000000000000e+03 7.289899444580078125e+01 -2.942652225494384766e+00 -5.369653105735778809e-01 5.039038658142089844e+00 1.350622057914733887e+00 -1.755110383033752441e+00
2.634000000000000000e+03 7.204356384277343750e+01 -6.679391384124755859e+00 -1.059676527976989746e+00 3.543691635131835938e+00 7.452045679092407227e-01 -1.184746146202087402e+00
2.635000000000000000e+03 2.655233764648437500e+01 -3.592777013778686523e+00 -5.518689155578613281e-01 5.222668405622243881e-03 -1.639938652515411377e-01 2.647281587123870850e-01
2.636000000000000000e+03 2.611484718322753906e+01 -2.750574111938476562e+00 -5.395655035972595215e-01 1.210692990571260452e-02 -1.582375764846801758e-01 2.507553398609161377e-01
2.637000000000000000e+03 2.705046653747558594e+01 -6.290013313293457031e+00 -5.217840671539306641e-01 -3.067663311958312988e-02 -1.657382100820541382e-01 3.063775897026062012e-01
2.638000000000000000e+03 4.051520156860351562e+01 -9.305012702941894531e+00 -5.637885332107543945e-01 1.409337669610977173e-01 -1.268564313650131226e-01 1.488540470600128174e-01
2.639000000000000000e+03 4.153402328491210938e+01 -1.051922988891601562e+01 -5.772478580474853516e-01 1.355351358652114868e-01 -1.325138211250305176e-01 1.082335412502288818e-01
2.640000000000000000e+03 5.199104690551757812e+01 -6.490972638130187988e-02 -5.963656306266784668e-01 3.287914991378784180e-01 -8.027224242687225342e-02 5.782021880149841309e-01
2.641000000000000000e+03 7.526136016845703125e+01 -1.859225082397460938e+01 -7.255920767784118652e-01 8.383440971374511719e+00 2.297354698181152344e+00 1.012139678001403809e+00
2.642000000000000000e+03 7.514083862304687500e+01 -1.615144729614257812e+01 -1.190735101699829102e+00 9.404994964599609375e+00 2.464277982711791992e+00 2.182406663894653320e+00
2.643000000000000000e+03 7.367298889160156250e+01 -1.882076835632324219e+01 -3.944688141345977783e-01 6.055435180664062500e+00 1.698289990425109863e+00 1.180155038833618164e+00
2.644000000000000000e+03 7.404064178466796875e+01 -1.794983863830566406e+01 -4.804256260395050049e-01 6.551228523254394531e+00 1.821240901947021484e+00 1.362784743309020996e+00
2.645000000000000000e+03 1.077303409576416016e+01 7.734159469604492188e+00 -3.881220221519470215e-01 -3.255875408649444580e-01 -2.141128629446029663e-01 4.174025058746337891e-01
2.646000000000000000e+03 2.549844741821289062e+01 -8.170170783996582031e-01 -4.566271603107452393e-01 4.206040129065513611e-02 -1.243700236082077026e-01 2.057737857103347778e-01
2.647000000000000000e+03 2.508334541320800781e+01 9.692694246768951416e-02 -3.932609260082244873e-01 5.554946884512901306e-02 -1.013134419918060303e-01 1.899396032094955444e-01
2.648000000000000000e+03 2.597746086120605469e+01 4.101872444152832031e-01 -3.355227410793304443e-01 7.352422177791595459e-02 -7.859955728054046631e-02 1.602986603975296021e-01
2.649000000000000000e+03 2.683283996582031250e+01 8.062707185745239258e-01 -2.800256907939910889e-01 5.929438397288322449e-02 -6.621938943862915039e-02 1.438920646905899048e-01
2.650000000000000000e+03 8.806329727172851562e+00 -7.273490905761718750e+00 3.040118281205650419e-05 -3.939211092074401677e-05 -2.697278205232578330e-06 -4.286423063604161143e-05
2.651000000000000000e+03 3.527318954467773438e+01 1.026667308807373047e+01 -1.141255348920822144e-01 1.206722334027290344e-01 1.964008901268243790e-03 5.425542593002319336e-01
2.652000000000000000e+03 3.586320877075195312e+01 1.142219066619873047e+01 -6.076199933886528015e-02 1.555809974670410156e-01 2.844570018351078033e-02 5.501819252967834473e-01
2.653000000000000000e+03 4.690024566650390625e+01 -8.699419021606445312e+00 -8.037514090538024902e-01 1.898186653852462769e-01 -1.841798275709152222e-01 1.002732142806053162e-01
2.654000000000000000e+03 4.489356994628906250e+01 -9.262139320373535156e+00 -7.083202004432678223e-01 1.711560040712356567e-01 -1.611492633819580078e-01 1.075345501303672791e-01
2.655000000000000000e+03 7.046018981933593750e+01 -5.125518321990966797e+00 -1.303689479827880859e+00 2.180485010147094727e+00 2.630386352539062500e-01 -1.245264649391174316e+00
2.656000000000000000e+03 6.997817993164062500e+01 -2.193145275115966797e+00 -5.302491784095764160e-01 2.135508775711059570e+00 4.815779030323028564e-01 -1.638934135437011719e+00
2.657000000000000000e+03 7.035092926025390625e+01 3.793498575687408447e-01 1.208530962467193604e-01 2.816789388656616211e+00 8.812927603721618652e-01 -1.706673741340637207e+00
2.658000000000000000e+03 4.041170501708984375e+01 -8.194797515869140625e+00 -5.746882557868957520e-01 1.443378478288650513e-01 -1.291051208972930908e-01 1.855221539735794067e-01
2.659000000000000000e+03 3.934888076782226562e+01 -1.032489490509033203e+01 -5.279345512390136719e-01 1.258826702833175659e-01 -1.206155642867088318e-01 1.385139375925064087e-01
2.660000000000000000e+03 9.700231552124023438e+00 8.702222824096679688e+00 -2.618407309055328369e-01 -3.027899861335754395e-01 -1.693892180919647217e-01 4.450218081474304199e-01
2.661000000000000000e+03 4.723471832275390625e+01 -6.940046310424804688e+00 -8.197516202926635742e-01 2.184049934148788452e-01 -1.804039925336837769e-01 1.984795928001403809e-01
2.662000000000000000e+03 4.982492828369140625e+01 -7.482083797454833984e+00 -1.021138668060302734e+00 2.405839860439300537e-01 -2.341663986444473267e-01 1.099375560879707336e-01
2.663000000000000000e+03 7.212684631347656250e+00 -8.295888900756835938e+00 3.196156831108964980e-05 -6.397606193786486983e-05 -9.604348633729387075e-06 -3.712277248268947005e-05
2.664000000000000000e+03 3.090243339538574219e+01 5.080651283264160156e+00 -3.097479976713657379e-02 -7.677932083606719971e-02 -3.232623636722564697e-02 3.668421208858489990e-01
2.665000000000000000e+03 3.238694000244140625e+01 6.727288722991943359e+00 -8.209461718797683716e-02 -4.171114042401313782e-02 -3.714172542095184326e-02 4.717544913291931152e-01
2.666000000000000000e+03 7.325059509277343750e+01 -2.126172637939453125e+01 -2.123197317123413086e-01 5.663612842559814453e+00 1.635387897491455078e+00 9.092465043067932129e-01
2.667000000000000000e+03 6.853062438964843750e+01 -1.157871127128601074e+00 -2.195930778980255127e-01 1.261972069740295410e+00 3.127137124538421631e-01 -1.428794622421264648e+00
2.668000000000000000e+03 7.087712860107421875e+01 3.467977046966552734e+00 4.539614021778106689e-01 3.474791049957275391e+00 1.178625702857971191e+00 -1.599959254264831543e+00
2.669000000000000000e+03 6.613211631774902344e+00 8.715637207031250000e+00 -1.390797942876815796e-01 -2.327820360660552979e-01 -1.115585491061210632e-01 3.310989141464233398e-01
2.670000000000000000e+03 7.014466094970703125e+01 -2.585032463073730469e+01 8.223564364016056061e-03 3.448578596115112305e+00 1.037040710449218750e+00 7.574750185012817383e-01
2.671000000000000000e+03 7.447362899780273438e+00 9.231364250183105469e+00 -1.584402173757553101e-01 -2.418218255043029785e-01 -1.200786158442497253e-01 3.812600672245025635e-01
2.672000000000000000e+03 3.034003829956054688e+01 -9.424197196960449219e+00 -4.236579537391662598e-01 2.409590594470500946e-02 -1.198686137795448303e-01 2.495278865098953247e-01
2.673000000000000000e+03 3.399350357055664062e+01 4.442880153656005859e+00 -2.023852914571762085e-01 3.408429399132728577e-02 -5.049029737710952759e-02 3.844755887985229492e-01
2.674000000000000000e+03 2.801027107238769531e+01 2.592381238937377930e+00 -1.014924570918083191e-01 8.916016668081283569e-03 -2.777293324470520020e-02 1.722848117351531982e-01
2.675000000000000000e+03 5.017564773559570312e+01 -6.426783561706542969e+00 -1.016266226768493652e+00 2.570410966873168945e-01 -2.277675271034240723e-01 1.975222676992416382e-01
2.676000000000000000e+03 4.377195739746093750e+01 -9.205397605895996094e+00 -6.710475087165832520e-01 1.573112457990646362e-01 -1.541208773851394653e-01 1.305198669433593750e-01
2.677000000000000000e+03 7.069705200195312500e+01 1.156752967834472656e+01 4.679297804832458496e-01 3.640098810195922852e+00 1.232408642768859863e+00 -1.035420894622802734e+00
2.678000000000000000e+03 7.184704589843750000e+01 9.154330253601074219e+00 4.590983688831329346e-01 4.055180549621582031e+00 1.354283690452575684e+00 -1.213952541351318359e+00
2.679000000000000000e+03 7.067326354980468750e+01 2.565152883529663086e+00 3.950915932655334473e-01 3.275849819183349609e+00 1.101282477378845215e+00 -1.632174968719482422e+00
2.680000000000000000e+03 7.195026397705078125e+01 3.078778266906738281e+00 3.626661896705627441e-01 4.072914600372314453e+00 1.330674171447753906e+00 -1.669745206832885742e+00
2.681000000000000000e+03 6.868402862548828125e+01 1.842360115051269531e+01 3.674843609333038330e-01 3.163327693939208984e+00 1.059243559837341309e+00 -7.149138450622558594e-01
2.682000000000000000e+03 7.001519012451171875e+01 1.589010047912597656e+01 3.798873126506805420e-01 3.479485273361206055e+00 1.157811760902404785e+00 -8.251501917839050293e-01
2.683000000000000000e+03 5.354135894775390625e+01 -4.561790466308593750e+00 -1.236297965049743652e+00 3.189568817615509033e-01 -2.752023339271545410e-01 3.054843544960021973e-01
2.684000000000000000e+03 4.901462554931640625e+01 -5.187281608581542969e+00 -9.001339673995971680e-01 2.554968595504760742e-01 -1.933911293745040894e-01 2.987396419048309326e-01
2.685000000000000000e+03 5.720906829833984375e+01 2.227943181991577148e+00 -1.431410312652587891e-01 3.163709938526153564e-01 5.196898803114891052e-02 4.043271541595458984e-01
2.686000000000000000e+03 5.942937850952148438e+01 4.715497493743896484e+00 3.873106837272644043e-01 4.790376126766204834e-01 2.599044740200042725e-01 1.033017635345458984e-01
2.687000000000000000e+03 5.941158294677734375e+01 6.380364418029785156e+00 5.625532865524291992e-01 6.530750393867492676e-01 3.646884858608245850e-01 3.235858306288719177e-02
2.688000000000000000e+03 6.981722259521484375e+01 -6.154614448547363281e+00 -1.775396227836608887e+00 1.285379290580749512e+00 -1.470050811767578125e-01 -6.862247586250305176e-01
2.689000000000000000e+03 7.047543334960937500e+01 -2.461107826232910156e+01 -5.739908665418624878e-02 3.542319536209106445e+00 1.045476198196411133e+00 7.445251345634460449e-01
2.690000000000000000e+03 1.014502525329589844e+01 2.551937294006347656e+01 5.509489402174949646e-02 -4.439533650875091553e-01 -1.166575402021408081e-01 1.427644938230514526e-01
2.691000000000000000e+03 9.312362670898437500e+00 2.689324569702148438e+01 4.090147837996482849e-02 -5.025680065155029297e-01 -1.384999603033065796e-01 1.218825802206993103e-01
2.692000000000000000e+03 7.305394744873046875e+01 1.428490924835205078e+01 2.631616592407226562e-01 4.302277565002441406e+00 1.369631767272949219e+00 -8.366438150405883789e-01
2.693000000000000000e+03 7.075700378417968750e+01 1.268012905120849609e+01 4.400613009929656982e-01 3.661588907241821289e+00 1.230495095252990723e+00 -9.852070212364196777e-01
2.694000000000000000e+03 7.233083343505859375e+01 -2.557151985168457031e+01 4.776855930685997009e-02 5.014094352722167969e+00 1.518558859825134277e+00 9.036692976951599121e-01
2.695000000000000000e+03 8.354660987854003906e+00 1.551466941833496094e+01 1.824733167886734009e-01 -4.687782526016235352e-01 -8.589147776365280151e-02 3.462397456169128418e-01
2.696000000000000000e+03 6.743424987792968750e+01 -1.686686158180236816e+00 -3.393480479717254639e-01 3.711229562759399414e-01 9.532477706670761108e-03 -1.101500391960144043e+00
2.697000000000000000e+03 8.310562133789062500e+00 -6.413160800933837891e+00 5.885009613848524168e-06 2.635413511598017067e-05 9.671743100625462830e-06 4.795525092049501836e-05
2.698000000000000000e+03 3.220828628540039062e+01 1.745174980163574219e+01 7.552810013294219971e-02 -6.588340550661087036e-02 2.893406664952635765e-03 3.008272647857666016e-01
2.699000000000000000e+03 5.644895935058593750e+01 3.052344918251037598e-01 -5.454081892967224121e-01 2.930462062358856201e-01 -7.570859044790267944e-02 4.983495473861694336e-01
2.700000000000000000e+03 4.293083953857421875e+01 1.645448088645935059e+00 -3.554936349391937256e-01 2.224749140441417694e-02 -9.997384250164031982e-02 3.376379311084747314e-01
2.701000000000000000e+03 7.003588199615478516e+00 2.073550224304199219e+01 9.961218386888504028e-02 -5.594752430915832520e-01 -1.379589140415191650e-01 1.575208157300949097e-01
2.702000000000000000e+03 8.146019935607910156e+00 -5.566556453704833984e+00 -5.635033448925241828e-05 -1.000159136310685426e-05 -1.990557757380884141e-05 -5.046489604865200818e-05
2.703000000000000000e+03 1.071322441101074219e+01 1.777479743957519531e+01 2.726439237594604492e-01 -3.768974244594573975e-01 -3.127605468034744263e-02 2.392893731594085693e-01
2.704000000000000000e+03 5.314391326904296875e+01 -2.303912878036499023e+00 -9.379613399505615234e-01 3.244381844997406006e-01 -1.840569376945495605e-01 4.744001626968383789e-01
2.705000000000000000e+03 3.602610397338867188e+01 1.651864433288574219e+01 2.071388512849807739e-01 1.435217112302780151e-01 1.051981747150421143e-01 3.557924032211303711e-01
2.706000000000000000e+03 4.685959243774414062e+01 9.600500464439392090e-01 -3.943957388401031494e-01 6.153652444481849670e-02 -9.985776245594024658e-02 4.870635569095611572e-01
2.707000000000000000e+03 4.771510696411132812e+01 4.827782213687896729e-01 -4.272004663944244385e-01 1.134057790040969849e-01 -9.413841366767883301e-02 5.162713527679443359e-01
2.708000000000000000e+03 1.037643337249755859e+01 1.652928733825683594e+01 2.798247337341308594e-01 -4.003351926803588867e-01 -3.615314140915870667e-02 2.894217967987060547e-01
2.709000000000000000e+03 3.522207641601562500e+01 1.390226268768310547e+01 3.404907882213592529e-02 1.092192381620407104e-01 4.298049584031105042e-02 4.743151962757110596e-01
2.710000000000000000e+03 7.097509765625000000e+01 5.384371280670166016e+00 5.307264924049377441e-01 3.546916961669921875e+00 1.223293066024780273e+00 -1.487359881401062012e+00
2.711000000000000000e+03 6.264734649658203125e+01 -5.275046229362487793e-01 -4.375395476818084717e-01 -1.805870234966278076e-01 -1.854379773139953613e-01 1.224880665540695190e-01
2.712000000000000000e+03 6.052590179443359375e+01 -7.776077389717102051e-01 -7.328816056251525879e-01 -6.723884493112564087e-02 -2.400361448526382446e-01 4.120616912841796875e-01
2.713000000000000000e+03 6.844320678710937500e+01 2.861884689331054688e+01 2.312327325344085693e-01 3.077031135559082031e+00 9.924791455268859863e-01 -4.016624093055725098e-01
2.714000000000000000e+03 3.810688400268554688e+01 -1.181672286987304688e+01 -4.726546108722686768e-01 1.031997501850128174e-01 -1.108364611864089966e-01 1.221231296658515930e-01
2.715000000000000000e+03 6.600491333007812500e+01 -1.085857152938842773e+00 -2.108940631151199341e-01 -2.747762203216552734e-02 -7.151150703430175781e-02 -6.719276905059814453e-01
2.716000000000000000e+03 6.497040557861328125e+01 -1.369527101516723633e+00 -4.593315720558166504e-01 -3.139108121395111084e-01 -2.319727092981338501e-01 -2.627705633640289307e-01
2.717000000000000000e+03 3.179549980163574219e+01 9.527993202209472656e+00 -1.017493531107902527e-01 -6.763083487749099731e-02 -5.081405490636825562e-02 5.739192962646484375e-01
2.718000000000000000e+03 7.130610656738281250e+01 1.652762222290039062e+01 3.083453774452209473e-01 3.769125938415527344e+00 1.223241448402404785e+00 -7.837968468666076660e-01
2.719000000000000000e+03 5.671728515625000000e+01 1.321121931076049805e+00 -3.740951716899871826e-01 2.951388359069824219e-01 -2.368690446019172668e-02 4.880122840404510498e-01
2.720000000000000000e+03 3.136945343017578125e+01 1.279784774780273438e+01 -1.445034742355346680e-01 -6.417602300643920898e-02 -6.260385364294052124e-02 5.092790126800537109e-01
2.721000000000000000e+03 3.685829925537109375e+01 1.840747070312500000e+01 2.920667827129364014e-01 1.963428556919097900e-01 1.465228945016860962e-01 2.751369178295135498e-01
2.722000000000000000e+03 1.087616252899169922e+01 3.079792594909667969e+01 4.043161496520042419e-02 -4.972477555274963379e-01 -1.370448470115661621e-01 1.205162107944488525e-01
2.723000000000000000e+03 6.037333679199218750e+01 7.108198165893554688e+00 6.499709486961364746e-01 8.016523122787475586e-01 4.354869723320007324e-01 -1.092368364334106445e-01
2.724000000000000000e+03 6.965869140625000000e+01 -3.108177757263183594e+01 3.507550358772277832e-01 3.514039039611816406e+00 1.159438252449035645e+00 7.479559183120727539e-01
2.725000000000000000e+03 7.101848602294921875e+01 2.068008232116699219e+01 2.352968752384185791e-01 3.618746042251586914e+00 1.156212806701660156e+00 -6.079155802726745605e-01
2.726000000000000000e+03 6.962010192871093750e+01 2.037971305847167969e+01 2.892066538333892822e-01 3.354756116867065430e+00 1.093188762664794922e+00 -6.466375589370727539e-01
2.727000000000000000e+03 7.026750183105468750e+01 -2.943088912963867188e+01 2.497501075267791748e-01 3.770879507064819336e+00 1.206188917160034180e+00 8.135809302330017090e-01
2.728000000000000000e+03 5.515438842773437500e+01 -3.676810979843139648e+00 -1.254645228385925293e+00 3.060188591480255127e-01 -2.845879197120666504e-01 3.784622251987457275e-01
2.729000000000000000e+03 7.021702575683593750e+01 2.647286987304687500e+01 1.941533237695693970e-01 3.350655078887939453e+00 1.063442468643188477e+00 -4.202413260936737061e-01
2.730000000000000000e+03 7.037322998046875000e+01 2.493418502807617188e+01 2.021860182285308838e-01 3.407164812088012695e+00 1.082805275917053223e+00 -4.719321131706237793e-01
2.731000000000000000e+03 3.127669143676757812e+01 1.490449333190917969e+01 -1.044934540987014771e-01 -9.393057972192764282e-02 -5.952721089124679565e-02 3.948056697845458984e-01
2.732000000000000000e+03 3.197327232360839844e+01 1.603452110290527344e+01 1.971888123080134392e-03 -6.841862201690673828e-02 -1.993402093648910522e-02 3.543052673339843750e-01
2.733000000000000000e+03 3.580759429931640625e+01 8.567287445068359375e+00 -1.742411106824874878e-01 1.204123049974441528e-01 -1.614864356815814972e-02 5.200490951538085938e-01
2.734000000000000000e+03 3.415327072143554688e+01 1.076609230041503906e+01 -9.258632361888885498e-02 6.863632053136825562e-02 -7.185002323240041733e-03 5.566707253456115723e-01
2.735000000000000000e+03 1.825878524780273438e+01 2.353625297546386719e+01 1.151423305273056030e-01 -1.370439231395721436e-01 -6.570477504283189774e-03 3.931198120117187500e-01
2.736000000000000000e+03 1.532139396667480469e+01 2.511888504028320312e+01 8.271728456020355225e-02 -2.307568192481994629e-01 -4.441186040639877319e-02 2.657398581504821777e-01
2.737000000000000000e+03 8.305294036865234375e+00 1.056323146820068359e+01 -9.892755746841430664e-02 -3.101153671741485596e-01 -1.227128803730010986e-01 4.492213428020477295e-01
2.738000000000000000e+03 6.217816543579101562e+01 1.550284576416015625e+01 5.475261211395263672e-01 1.836450695991516113e+00 7.151930332183837891e-01 -5.037044286727905273e-01
2.739000000000000000e+03 6.182396316528320312e+01 2.044903945922851562e+01 4.509002566337585449e-01 2.008190631866455078e+00 7.377272248268127441e-01 -5.154279470443725586e-01
2.740000000000000000e+03 6.973972320556640625e+01 1.787987136840820312e+01 3.382139503955841064e-01 3.395357370376586914e+00 1.120071411132812500e+00 -7.424706220626831055e-01
2.741000000000000000e+03 6.908452606201171875e+01 1.659264755249023438e+01 4.005515575408935547e-01 3.243956327438354492e+00 1.093352317810058594e+00 -7.906048893928527832e-01
2.742000000000000000e+03 4.617429351806640625e+01 -1.025690746307373047e+01 -7.459262013435363770e-01 1.577475965023040771e-01 -1.764535754919052124e-01 3.885120153427124023e-02
2.743000000000000000e+03 4.587910461425781250e+01 -9.158072471618652344e+00 -7.615247368812561035e-01 1.723425984382629395e-01 -1.767546534538269043e-01 9.832506626844406128e-02
2.744000000000000000e+03 5.947430801391601562e+01 -8.860869407653808594e-01 -7.909408211708068848e-01 3.439246863126754761e-02 -2.269645184278488159e-01 4.544567465782165527e-01
2.745000000000000000e+03 5.954280853271484375e+01 -1.875480175018310547e+00 -1.150903940200805664e+00 1.557589229196310043e-02 -3.405984044075012207e-01 4.901680946350097656e-01
2.746000000000000000e+03 2.864871978759765625e+01 -1.863455653190612793e+00 -4.360833466053009033e-01 6.816086173057556152e-02 -1.103767454624176025e-01 2.002876102924346924e-01
2.747000000000000000e+03 5.874372100830078125e+01 2.253335952758789062e+00 -4.609397426247596741e-02 2.616539597511291504e-01 6.466799974441528320e-02 3.026099801063537598e-01
2.748000000000000000e+03 7.058735656738281250e+01 1.041973876953125000e+01 5.090218186378479004e-01 3.552365064620971680e+00 1.218416094779968262e+00 -1.125401973724365234e+00
2.749000000000000000e+03 7.049115753173828125e+01 9.147831916809082031e+00 5.436894297599792480e-01 3.507378816604614258e+00 1.215320467948913574e+00 -1.193600296974182129e+00
2.750000000000000000e+03 5.625159072875976562e+01 -4.032003879547119141e+00 -1.431960463523864746e+00 2.593027949333190918e-01 -3.517973124980926514e-01 3.386290371417999268e-01
2.751000000000000000e+03 2.486870193481445312e+01 2.261726760864257812e+01 2.744287550449371338e-01 -3.725562095642089844e-01 -2.943822741508483887e-02 3.813122808933258057e-01
2.752000000000000000e+03 2.389502334594726562e+01 2.646369361877441406e+01 2.751177251338958740e-01 -2.715401947498321533e-01 1.073256833478808403e-03 3.359145522117614746e-01
2.753000000000000000e+03 3.591547775268554688e+01 7.551760673522949219e+00 -2.059842795133590698e-01 1.176515817642211914e-01 -2.649980969727039337e-02 4.876909852027893066e-01
2.754000000000000000e+03 3.676140594482421875e+01 8.634883880615234375e+00 -2.022140622138977051e-01 1.774508208036422729e-01 -7.428972050547599792e-03 5.055062174797058105e-01
2.755000000000000000e+03 7.169725036621093750e+01 -2.172300338745117188e+01 -1.574110388755798340e-01 4.214983463287353516e+00 1.217271804809570312e+00 7.982355356216430664e-01
2.756000000000000000e+03 2.745960807800292969e+01 2.124911308288574219e+01 2.471062391996383667e-01 -3.666397333145141602e-01 -3.586004674434661865e-02 2.888810932636260986e-01
2.757000000000000000e+03 2.046563720703125000e+01 2.124487495422363281e+01 1.605608761310577393e-01 -2.129316031932830811e-01 -1.571121625602245331e-02 5.325836539268493652e-01
2.758000000000000000e+03 1.535280323028564453e+01 -3.165991401672363281e+01 1.069812686182558537e-03 -4.880256892647594213e-05 3.063030308112502098e-04 1.143278204835951328e-03
2.759000000000000000e+03 1.296975326538085938e+01 -3.240081024169921875e+01 3.632536972872912884e-04 3.590283449739217758e-04 2.166846097679808736e-04 9.521291358396410942e-04
2.760000000000000000e+03 3.594345474243164062e+01 6.552719593048095703e+00 -2.332752346992492676e-01 1.087846755981445312e-01 -3.734716773033142090e-02 4.497342705726623535e-01
2.761000000000000000e+03 1.035742473602294922e+01 -3.303126525878906250e+01 1.715334074106067419e-04 3.263741673436015844e-04 1.493722666054964066e-04 7.690355996601283550e-04
2.762000000000000000e+03 9.021102905273437500e+00 -3.174355888366699219e+01 1.303471508435904980e-04 1.475248282076790929e-04 8.336159226018935442e-05 3.665355325210839510e-04
2.763000000000000000e+03 6.341374206542968750e+01 1.455224609375000000e+01 5.858518481254577637e-01 1.974951863288879395e+00 7.682411074638366699e-01 -5.720382332801818848e-01
2.764000000000000000e+03 3.111471748352050781e+01 7.142303943634033203e+00 -2.465132623910903931e-02 -1.055126339197158813e-01 -3.904918953776359558e-02 4.939944744110107422e-01
2.765000000000000000e+03 3.279582977294921875e+01 8.068346023559570312e+00 -1.047596484422683716e-01 -2.174923568964004517e-02 -3.795266523957252502e-02 5.341503620147705078e-01
2.766000000000000000e+03 8.219595909118652344e+00 2.596432113647460938e+01 3.911637142300605774e-02 -5.446088314056396484e-01 -1.516477316617965698e-01 1.119256913661956787e-01
2.767000000000000000e+03 4.017363357543945312e+01 3.131689310073852539e+00 -3.763497173786163330e-01 9.019731730222702026e-02 -8.584572374820709229e-02 3.170368671417236328e-01
2.768000000000000000e+03 4.941717910766601562e+01 -1.452768683433532715e+00 -6.524239182472229004e-01 2.342757582664489746e-01 -1.254444569349288940e-01 5.091469883918762207e-01
2.769000000000000000e+03 1.001729965209960938e+01 -3.036514282226562500e+01 3.402490110602229834e-04 1.988125877687707543e-04 1.617184752831235528e-04 5.433495971374213696e-04
2.770000000000000000e+03 9.327988624572753906e+00 2.348201560974121094e+01 7.725520431995391846e-02 -4.594458639621734619e-01 -1.146572008728981018e-01 1.407840698957443237e-01
2.771000000000000000e+03 1.224559497833251953e+01 2.479527282714843750e+01 7.381651550531387329e-02 -3.294732272624969482e-01 -7.669701427221298218e-02 1.833599358797073364e-01
2.772000000000000000e+03 1.250470447540283203e+01 2.044555664062500000e+01 1.729097664356231689e-01 -2.280205190181732178e-01 -1.653322577476501465e-02 1.796149760484695435e-01
2.773000000000000000e+03 9.679373741149902344e+00 2.067049026489257812e+01 1.555316448211669922e-01 -4.240507781505584717e-01 -8.055574446916580200e-02 1.716810166835784912e-01
2.774000000000000000e+03 7.063236999511718750e+01 2.347885322570800781e+01 2.077776044607162476e-01 3.478177547454833984e+00 1.105786561965942383e+00 -5.117465853691101074e-01
2.775000000000000000e+03 5.755181503295898438e+01 2.327153587341308594e+01 4.927558004856109619e-01 1.451329469680786133e+00 5.832256078720092773e-01 -3.929786682128906250e-01
2.776000000000000000e+03 5.460557937622070312e+01 2.586472702026367188e+01 5.754781961441040039e-01 1.129601478576660156e+00 5.115239024162292480e-01 -2.285021245479583740e-01
2.777000000000000000e+03 4.672294616699218750e+01 2.639216232299804688e+01 5.483667254447937012e-01 6.028791666030883789e-01 3.453737497329711914e-01 1.303079575300216675e-01
2.778000000000000000e+03 4.139759063720703125e+01 2.694580078125000000e+01 4.427904486656188965e-01 4.650547802448272705e-01 2.723535597324371338e-01 1.597042083740234375e-01
2.779000000000000000e+03 6.710699462890625000e+01 3.498021316528320312e+01 2.375406771898269653e-01 2.864171028137207031e+00 9.305135011672973633e-01 -2.091034352779388428e-01
2.780000000000000000e+03 1.002532196044921875e+01 3.777677917480468750e+01 4.431697353720664978e-02 -5.961666107177734375e-01 -1.655548810958862305e-01 5.350755527615547180e-02
2.781000000000000000e+03 3.648819351196289062e+01 -4.096932983398437500e+01 -4.113207571208477020e-03 -7.753373682498931885e-02 -2.449408359825611115e-02 -7.985765114426612854e-03
2.782000000000000000e+03 7.373315429687500000e+01 -9.002772331237792969e+00 -6.547509133815765381e-02 4.977904319763183594e+00 1.473728775978088379e+00 -2.291079998016357422e+00
2.783000000000000000e+03 7.389430236816406250e+01 -1.657402420043945312e+01 -2.865225970745086670e-01 5.981004714965820312e+00 1.708344578742980957e+00 1.896862983703613281e+00
2.784000000000000000e+03 7.401702880859375000e+01 -8.034368515014648438e+00 -7.547838687896728516e-01 6.334872245788574219e+00 1.674026489257812500e+00 -2.049800872802734375e+00
2.785000000000000000e+03 7.448520660400390625e+01 -8.372737884521484375e+00 -8.472441434860229492e-01 7.539235115051269531e+00 2.007597208023071289e+00 -2.400972604751586914e+00
2.786000000000000000e+03 7.353338623046875000e+01 -7.768907546997070312e+00 -7.063236236572265625e-01 5.488974571228027344e+00 1.434795260429382324e+00 -1.796495079994201660e+00
2.787000000000000000e+03 7.262995910644531250e+01 -1.658498191833496094e+01 4.806766286492347717e-02 3.621591567993164062e+00 1.100897789001464844e+00 1.205408692359924316e+00
2.788000000000000000e+03 2.849869728088378906e+01 -5.202112674713134766e+00 -5.221008062362670898e-01 3.715049102902412415e-02 -1.454850882291793823e-01 2.658488452434539795e-01
2.789000000000000000e+03 7.333921813964843750e+01 -1.640525245666503906e+01 -3.681282326579093933e-02 4.812789440155029297e+00 1.432793021202087402e+00 1.704857110977172852e+00
2.790000000000000000e+03 7.290884399414062500e+01 -6.215028762817382812e+00 -9.503878951072692871e-01 5.054685115814208984e+00 1.231289148330688477e+00 -1.561612844467163086e+00
2.791000000000000000e+03 7.330956268310546875e+01 -5.670946121215820312e+00 -9.817519783973693848e-01 5.614606857299804688e+00 1.389856457710266113e+00 -1.662289619445800781e+00
2.792000000000000000e+03 7.161168670654296875e+01 -1.830533218383789062e+01 -2.272180020809173584e-01 3.205065965652465820e+00 8.933544158935546875e-01 6.129698157310485840e-01
2.793000000000000000e+03 7.077773284912109375e+01 -1.881626701354980469e+01 -2.970515489578247070e-01 2.556607723236083984e+00 6.778668165206909180e-01 4.095416963100433350e-01
2.794000000000000000e+03 3.078657341003417969e+01 -1.018927669525146484e+01 -3.979462981224060059e-01 2.685852535068988800e-02 -1.113263294100761414e-01 2.328919321298599243e-01
2.795000000000000000e+03 3.112633323669433594e+01 -8.905299186706542969e+00 -4.406268000602722168e-01 5.170808359980583191e-02 -1.166756078600883484e-01 2.417724281549453735e-01
2.796000000000000000e+03 7.383835601806640625e+01 -6.102644920349121094e+00 -9.768627285957336426e-01 6.196442604064941406e+00 1.565873980522155762e+00 -1.721933841705322266e+00
2.797000000000000000e+03 2.786815834045410156e+01 -5.528569698333740234e+00 -5.240547060966491699e-01 1.366071868687868118e-02 -1.531181931495666504e-01 2.815585136413574219e-01
2.798000000000000000e+03 2.832558822631835938e+01 -6.907894134521484375e+00 -4.898913800716400146e-01 5.402475595474243164e-03 -1.453466713428497314e-01 2.860909998416900635e-01
2.799000000000000000e+03 7.481112670898437500e+01 -7.782851219177246094e+00 -1.222666382789611816e+00 8.425219535827636719e+00 2.160765886306762695e+00 -1.951134562492370605e+00
2.800000000000000000e+03 7.230495452880859375e+01 -1.760647201538085938e+01 -1.282659024000167847e-01 3.765730381011962891e+00 1.091239333152770996e+00 9.058774709701538086e-01
2.801000000000000000e+03 2.792843055725097656e+01 -3.075379133224487305e+00 -5.024114251136779785e-01 5.345182865858078003e-02 -1.346878707408905029e-01 2.280108630657196045e-01
2.802000000000000000e+03 2.725654029846191406e+01 -3.273708581924438477e+00 -5.243097543716430664e-01 3.708763420581817627e-02 -1.461666375398635864e-01 2.429621070623397827e-01
2.803000000000000000e+03 8.799193382263183594e+00 7.672726631164550781e+00 -2.784805297851562500e-01 -2.250103205442428589e-01 -1.510472595691680908e-01 3.631077110767364502e-01
2.804000000000000000e+03 7.464212036132812500e+01 -1.825315856933593750e+01 -6.196874976158142090e-01 7.596504688262939453e+00 2.093045234680175781e+00 1.222768783569335938e+00
2.805000000000000000e+03 2.579329299926757812e+01 -1.788894295692443848e+00 -5.092718601226806641e-01 2.213035151362419128e-02 -1.461424529552459717e-01 2.275431305170059204e-01
2.806000000000000000e+03 3.433023834228515625e+01 -1.222137451171875000e+01 -3.904480338096618652e-01 6.117233261466026306e-02 -9.878271073102951050e-02 1.612547188997268677e-01
2.807000000000000000e+03 6.096901702880859375e+01 6.265830516815185547e+00 6.098558306694030762e-01 7.187787890434265137e-01 3.985903859138488770e-01 -1.509038656949996948e-01
2.808000000000000000e+03 6.146763229370117188e+01 7.129689693450927734e+00 6.820785999298095703e-01 9.020302295684814453e-01 4.752326607704162598e-01 -2.416158914566040039e-01
2.809000000000000000e+03 7.112046813964843750e+01 -2.086804962158203125e+01 -2.459367066621780396e-01 3.476033926010131836e+00 9.690291881561279297e-01 7.083919644355773926e-01
2.810000000000000000e+03 7.027956390380859375e+01 -4.234339714050292969e+00 -1.176002144813537598e+00 2.213352203369140625e+00 3.112050294876098633e-01 -1.482440114021301270e+00
2.811000000000000000e+03 2.697160148620605469e+01 -2.485435247421264648e+00 -5.077276229858398438e-01 4.102877154946327209e-02 -1.400096565485000610e-01 2.250526249408721924e-01
2.812000000000000000e+03 4.151333236694335938e+01 -9.313803672790527344e+00 -5.926126837730407715e-01 1.411856710910797119e-01 -1.354281157255172729e-01 1.487632393836975098e-01
2.813000000000000000e+03 3.794111251831054688e+01 4.146694660186767578e+00 -3.374940752983093262e-01 1.223292499780654907e-01 -6.454944610595703125e-02 3.541546165943145752e-01
2.814000000000000000e+03 3.845185470581054688e+01 2.808874607086181641e+00 -3.633027076721191406e-01 1.045757159590721130e-01 -7.761809229850769043e-02 3.252704441547393799e-01
2.815000000000000000e+03 7.203553771972656250e+01 -3.848413228988647461e+00 -8.113884925842285156e-01 3.960268259048461914e+00 9.446639418601989746e-01 -1.658620238304138184e+00
2.816000000000000000e+03 3.152205657958984375e+01 -1.163136005401611328e+01 -3.593433499336242676e-01 2.286629006266593933e-02 -1.009431183338165283e-01 2.020045965909957886e-01
2.817000000000000000e+03 3.387176132202148438e+01 -1.104887390136718750e+01 -4.169850647449493408e-01 6.998305022716522217e-02 -1.041006073355674744e-01 1.853284388780593872e-01
2.818000000000000000e+03 2.814355659484863281e+01 -6.187631130218505859e+00 -5.134209990501403809e-01 9.188497439026832581e-03 -1.512697488069534302e-01 2.842045128345489502e-01
2.819000000000000000e+03 2.929450988769531250e+01 -7.300307273864746094e+00 -4.766321480274200439e-01 2.938730455935001373e-02 -1.341734528541564941e-01 2.707321047782897949e-01
2.820000000000000000e+03 6.976679229736328125e+01 3.812179803848266602e+00 5.257129073143005371e-01 2.783382177352905273e+00 9.927285313606262207e-01 -1.479060888290405273e+00
2.821000000000000000e+03 6.976195526123046875e+01 2.727796554565429688e+00 4.744596183300018311e-01 2.675110578536987305e+00 9.448710083961486816e-01 -1.511278510093688965e+00
2.822000000000000000e+03 3.307551574707031250e+01 -1.065482234954833984e+01 -4.193596541881561279e-01 6.506764888763427734e-02 -1.062875986099243164e-01 1.978632062673568726e-01
2.823000000000000000e+03 7.175051116943359375e+01 -2.045524787902832031e+01 -2.077653110027313232e-01 3.942184686660766602e+00 1.120325803756713867e+00 7.465615868568420410e-01
2.824000000000000000e+03 7.044784545898437500e+01 -2.033686447143554688e+01 -3.545442223548889160e-01 2.738700866699218750e+00 7.152470350265502930e-01 4.714898169040679932e-01
2.825000000000000000e+03 4.783152008056640625e+01 -5.476745128631591797e+00 -8.188695907592773438e-01 2.354866713285446167e-01 -1.750148832798004150e-01 2.798448503017425537e-01
2.826000000000000000e+03 3.888619995117187500e+01 -8.849179267883300781e+00 -5.412660241127014160e-01 1.352190524339675903e-01 -1.218140944838523865e-01 1.744320392608642578e-01
2.827000000000000000e+03 3.470853042602539062e+01 -1.142005634307861328e+01 -4.244741201400756836e-01 7.873668521642684937e-02 -1.037212312221527100e-01 1.670067608356475830e-01
2.828000000000000000e+03 7.153597259521484375e+01 -1.966851806640625000e+01 -2.723510265350341797e-01 3.599481105804443359e+00 9.981390237808227539e-01 6.696390509605407715e-01
2.829000000000000000e+03 7.226203918457031250e+01 -1.897226333618164062e+01 -2.443708032369613647e-01 4.325634479522705078e+00 1.224379062652587891e+00 8.929120898246765137e-01
2.830000000000000000e+03 7.278560638427734375e+01 -2.456080466508865356e-01 -5.597202479839324951e-02 4.680883884429931641e+00 1.387473583221435547e+00 -1.796817183494567871e+00
2.831000000000000000e+03 6.891714477539062500e+01 -2.336527347564697266e+00 -5.632799267768859863e-01 1.333565473556518555e+00 2.310856729745864868e-01 -1.504140496253967285e+00
2.832000000000000000e+03 6.911945343017578125e+01 -3.501094341278076172e+00 -1.115916728973388672e+00 1.188542366027832031e+00 2.178769744932651520e-02 -1.426347494125366211e+00
2.833000000000000000e+03 6.985866546630859375e+01 1.311010646820068359e+01 4.794532954692840576e-01 3.401082515716552734e+00 1.164160728454589844e+00 -9.693493247032165527e-01
2.834000000000000000e+03 6.959203338623046875e+01 1.105841541290283203e+01 5.542449355125427246e-01 3.260973691940307617e+00 1.144565582275390625e+00 -1.062853693962097168e+00
2.835000000000000000e+03 7.138111114501953125e+01 -4.929286003112792969e+00 -1.109979987144470215e+00 3.277397394180297852e+00 6.502252221107482910e-01 -1.511615276336669922e+00
2.836000000000000000e+03 7.217142486572265625e+01 -1.105525612831115723e+00 -1.927073448896408081e-01 4.196402549743652344e+00 1.201108574867248535e+00 -1.845862507820129395e+00
2.837000000000000000e+03 4.592768478393554688e+01 1.357175111770629883e+00 -3.304039239883422852e-01 3.052618121728301048e-03 -9.820539504289627075e-02 4.532055854797363281e-01
2.838000000000000000e+03 4.802508544921875000e+01 -8.350947380065917969e+00 -8.911361098289489746e-01 2.058607637882232666e-01 -2.055826038122177124e-01 1.032638549804687500e-01
2.839000000000000000e+03 4.533895492553710938e+01 -8.282612800598144531e+00 -7.240297198295593262e-01 1.791663765907287598e-01 -1.634590029716491699e-01 1.475257575511932373e-01
2.840000000000000000e+03 4.259639358520507812e+01 -9.280656814575195312e+00 -6.221756935119628906e-01 1.544963419437408447e-01 -1.403038054704666138e-01 1.317640393972396851e-01
2.841000000000000000e+03 7.227684783935546875e+01 -2.273324775695800781e+01 -1.492521017789840698e-01 4.809624671936035156e+00 1.398111701011657715e+00 8.402291536331176758e-01
2.842000000000000000e+03 3.508968353271484375e+01 1.293679237365722656e+01 -1.168664731085300446e-02 1.124209538102149963e-01 3.022029250860214233e-02 5.103399753570556641e-01
2.843000000000000000e+03 3.235032272338867188e+01 5.414988040924072266e+00 -1.011493802070617676e-01 -3.396568447351455688e-02 -4.053451865911483765e-02 4.134970307350158691e-01
2.844000000000000000e+03 7.191170501708984375e+01 4.919830262660980225e-01 8.299674093723297119e-02 4.016077041625976562e+00 1.229722142219543457e+00 -1.808266043663024902e+00
2.845000000000000000e+03 6.108025360107421875e+01 4.727582931518554688e+00 4.800357520580291748e-01 5.428909659385681152e-01 3.068780004978179932e-01 -9.165489673614501953e-02
2.846000000000000000e+03 5.789570236206054688e+01 3.058064222335815430e+00 5.617438629269599915e-02 3.507575690746307373e-01 1.220795810222625732e-01 3.294406235218048096e-01
2.847000000000000000e+03 3.469854736328125000e+01 8.482885360717773438e+00 -1.502612680196762085e-01 7.234589010477066040e-02 -2.337461523711681366e-02 5.222614407539367676e-01
2.848000000000000000e+03 8.675061225891113281e+00 1.431177616119384766e+01 1.522068679332733154e-01 -4.476027786731719971e-01 -8.861877769231796265e-02 3.910211622714996338e-01
2.849000000000000000e+03 6.807357025146484375e+01 3.227775812149047852e+00 5.610367059707641602e-01 1.903494238853454590e+00 7.393593192100524902e-01 -1.270481348037719727e+00
2.850000000000000000e+03 5.363216400146484375e+01 -1.560427397489547729e-01 -6.333232522010803223e-01 3.565885722637176514e-01 -8.302040398120880127e-02 5.531828999519348145e-01
2.851000000000000000e+03 3.835583496093750000e+01 -9.788771629333496094e+00 -5.123400688171386719e-01 1.230674609541893005e-01 -1.167817860841751099e-01 1.594865620136260986e-01
2.852000000000000000e+03 7.191629791259765625e+01 7.874493598937988281e+00 4.538591802120208740e-01 4.074742317199707031e+00 1.358580470085144043e+00 -1.307795286178588867e+00
2.853000000000000000e+03 7.078044891357421875e+01 6.532462596893310547e+00 5.470432043075561523e-01 3.506640195846557617e+00 1.216104984283447266e+00 -1.389667987823486328e+00
2.854000000000000000e+03 2.766209793090820312e+01 1.255545854568481445e+00 -2.326031774282455444e-01 4.773047193884849548e-02 -5.546181276440620422e-02 1.531401574611663818e-01
2.855000000000000000e+03 2.854942512512207031e+01 1.650171875953674316e+00 -1.933711469173431396e-01 2.377595193684101105e-02 -5.087855830788612366e-02 1.712754219770431519e-01
2.856000000000000000e+03 3.240634155273437500e+01 1.180665302276611328e+01 -1.124687939882278442e-01 -1.177807431668043137e-02 -3.727406263351440430e-02 5.326734781265258789e-01
2.857000000000000000e+03 6.754943084716796875e+01 2.092817497253417969e+01 3.462850451469421387e-01 2.966160297393798828e+00 9.937336444854736328e-01 -6.369805335998535156e-01
2.858000000000000000e+03 5.027079772949218750e+01 -2.505945563316345215e-01 -5.718804597854614258e-01 2.608568072319030762e-01 -9.330710768699645996e-02 5.752031803131103516e-01
2.859000000000000000e+03 4.882429122924804688e+01 -3.821932315826416016e+00 -7.976232171058654785e-01 2.489175349473953247e-01 -1.646116971969604492e-01 3.795034289360046387e-01
2.860000000000000000e+03 7.068828582763671875e+01 7.816875934600830078e+00 5.563080310821533203e-01 3.520025014877319336e+00 1.222899913787841797e+00 -1.290552616119384766e+00
2.861000000000000000e+03 7.076318359375000000e+01 1.371735000610351562e+01 3.955106437206268311e-01 3.677973747253417969e+00 1.222045302391052246e+00 -9.100758433341979980e-01
2.862000000000000000e+03 6.039394378662109375e+01 2.651388943195343018e-01 -3.885879814624786377e-01 1.799541153013706207e-02 -1.111777722835540771e-01 3.353031873703002930e-01
2.863000000000000000e+03 6.507468414306640625e+01 9.409539222717285156e+00 7.451902627944946289e-01 1.799888372421264648e+00 7.635235786437988281e-01 -7.347348928451538086e-01
2.864000000000000000e+03 6.272531127929687500e+01 1.127787590026855469e+01 6.890519857406616211e-01 1.584889173507690430e+00 6.821823120117187500e-01 -4.774771928787231445e-01
2.865000000000000000e+03 8.307521820068359375e+00 2.066685104370117188e+01 1.280625760555267334e-01 -4.885418117046356201e-01 -1.081437766551971436e-01 1.703783124685287476e-01
2.866000000000000000e+03 5.623505401611328125e+01 -8.291333913803100586e-01 -8.272542357444763184e-01 2.718730568885803223e-01 -1.666143536567687988e-01 5.188586115837097168e-01
2.867000000000000000e+03 1.623835372924804688e+01 2.292959403991699219e+01 9.237223118543624878e-02 -1.241139844059944153e-01 -9.522526524960994720e-03 3.140247762203216553e-01
2.868000000000000000e+03 1.083142089843750000e+01 2.398943328857421875e+01 8.050341159105300903e-02 -3.779863417148590088e-01 -8.924487978219985962e-02 1.592461615800857544e-01
2.869000000000000000e+03 4.141129302978515625e+01 1.308696031570434570e+00 -4.065820574760437012e-01 6.641171127557754517e-02 -1.020511016249656677e-01 3.177632987499237061e-01
2.870000000000000000e+03 6.477108764648437500e+01 -2.823248505592346191e-01 -1.252480745315551758e-01 -1.980393007397651672e-02 -4.351560026407241821e-02 -3.731544911861419678e-01
2.871000000000000000e+03 6.280543899536132812e+01 -1.660792350769042969e+00 -7.822280526161193848e-01 -3.981609642505645752e-01 -3.541167080402374268e-01 2.294142544269561768e-01
2.872000000000000000e+03 6.874596405029296875e+01 2.459974861145019531e+01 2.525019645690917969e-01 3.154409646987915039e+00 1.022073507308959961e+00 -5.077961087226867676e-01
2.873000000000000000e+03 1.251196956634521484e+01 3.235289001464843750e+01 5.854547396302223206e-02 -4.613567590713500977e-01 -1.208433806896209717e-01 1.305295974016189575e-01
2.874000000000000000e+03 1.063020610809326172e+01 2.796285820007324219e+01 4.229682311415672302e-02 -4.602646529674530029e-01 -1.253903508186340332e-01 1.388246268033981323e-01
2.875000000000000000e+03 5.735365295410156250e+01 -9.593260288238525391e-01 -8.480561375617980957e-01 2.201413512229919434e-01 -1.883744299411773682e-01 4.911119937896728516e-01
2.876000000000000000e+03 5.842359924316406250e+01 -9.792068600654602051e-01 -8.649985194206237793e-01 1.375912874937057495e-01 -2.182221710681915283e-01 4.911562502384185791e-01
2.877000000000000000e+03 4.634473800659179688e+01 -7.623895645141601562e+00 -7.927981615066528320e-01 2.008531391620635986e-01 -1.775835007429122925e-01 1.711124479770660400e-01
2.878000000000000000e+03 2.781316375732421875e+01 -2.401983976364135742e+00 -4.849696457386016846e-01 5.832275003194808960e-02 -1.279940605163574219e-01 2.152446657419204712e-01
2.879000000000000000e+03 5.146701431274414062e+01 -5.252308845520019531e+00 -1.081882834434509277e+00 2.919024527072906494e-01 -2.369941174983978271e-01 2.763104438781738281e-01
2.880000000000000000e+03 5.147038650512695312e+01 -3.958418846130371094e+00 -9.845713973045349121e-01 3.122095465660095215e-01 -2.017085552215576172e-01 3.818566501140594482e-01
2.881000000000000000e+03 2.071086692810058594e+01 2.379330444335937500e+01 1.891617029905319214e-01 -2.375990003347396851e-01 -1.453118864446878433e-02 4.414687752723693848e-01
2.882000000000000000e+03 1.932020950317382812e+01 2.509203147888183594e+01 1.535574048757553101e-01 -2.002709209918975830e-01 -1.401405408978462219e-02 3.868043422698974609e-01
2.883000000000000000e+03 6.952545928955078125e+01 2.175334739685058594e+01 2.756154835224151611e-01 3.318022727966308594e+00 1.078091502189636230e+00 -5.935287475585937500e-01
2.884000000000000000e+03 5.865713500976562500e+01 3.880121707916259766e+00 2.412042319774627686e-01 3.988877832889556885e-01 1.920275986194610596e-01 2.063377201557159424e-01
2.885000000000000000e+03 5.517636108398437500e+01 -3.933922648429870605e-01 -7.276999950408935547e-01 3.222142755985260010e-01 -1.216457113623619080e-01 5.258557796478271484e-01
2.886000000000000000e+03 4.908216476440429688e+01 -6.335054397583007812e+00 -9.154450297355651855e-01 2.451504468917846680e-01 -2.010883837938308716e-01 2.146898955106735229e-01
2.887000000000000000e+03 5.021534729003906250e+01 -5.140996456146240234e+00 -9.681165218353271484e-01 2.791866958141326904e-01 -2.066789418458938599e-01 2.844907343387603760e-01
2.888000000000000000e+03 6.801356506347656250e+01 -3.022966194152832031e+01 3.150908052921295166e-01 2.532854080200195312e+00 8.543834686279296875e-01 6.214295625686645508e-01
2.889000000000000000e+03 3.758032608032226562e+01 3.152152061462402344e+00 -3.365469872951507568e-01 1.021868512034416199e-01 -7.030804455280303955e-02 3.321245014667510986e-01
2.890000000000000000e+03 3.195962524414062500e+01 2.108009147644042969e+01 2.546799778938293457e-01 -9.697021543979644775e-02 4.731293395161628723e-02 2.223913967609405518e-01
2.891000000000000000e+03 5.939903259277343750e+01 1.465238630771636963e-01 -5.194328427314758301e-01 8.063874393701553345e-02 -1.316382288932800293e-01 4.163066744804382324e-01
2.892000000000000000e+03 1.425965309143066406e+01 2.168413734436035156e+01 1.128515452146530151e-01 -1.362720429897308350e-01 -7.026151288300752640e-03 2.345482259988784790e-01
2.893000000000000000e+03 3.707243728637695312e+01 6.548510074615478516e+00 -2.658249139785766602e-01 1.469517499208450317e-01 -3.566195070743560791e-02 4.444893002510070801e-01
2.894000000000000000e+03 5.540340042114257812e+01 6.512737274169921875e-01 -5.297964811325073242e-01 3.313153982162475586e-01 -5.954432114958763123e-02 5.398947000503540039e-01
2.895000000000000000e+03 4.850781250000000000e+01 -4.011976420879364014e-01 -5.189790129661560059e-01 1.618999093770980835e-01 -1.071237251162528992e-01 5.324212908744812012e-01
2.896000000000000000e+03 4.688137817382812500e+01 -1.850929558277130127e-01 -4.702218472957611084e-01 9.706176072359085083e-02 -1.119480207562446594e-01 4.859132170677185059e-01
2.897000000000000000e+03 3.725217056274414062e+01 2.396439933776855469e+01 3.671028316020965576e-01 2.504176497459411621e-01 1.852561384439468384e-01 1.752844154834747314e-01
2.898000000000000000e+03 4.366448211669921875e+01 2.614923667907714844e+01 4.693818092346191406e-01 5.309588909149169922e-01 3.001022040843963623e-01 1.772657483816146851e-01
2.899000000000000000e+03 6.035416793823242188e+01 2.109499168395996094e+01 4.453947544097900391e-01 1.791493535041809082e+00 6.710665225982666016e-01 -4.699048399925231934e-01
2.900000000000000000e+03 6.715121459960937500e+01 -3.204487991333007812e+01 4.551654458045959473e-01 2.252424955368041992e+00 8.122771382331848145e-01 5.409374833106994629e-01
2.901000000000000000e+03 6.325469589233398438e+01 1.681279563903808594e+01 5.146052241325378418e-01 2.089506387710571289e+00 7.812334895133972168e-01 -5.729058980941772461e-01
2.902000000000000000e+03 3.497207641601562500e+01 1.498216247558593750e+01 8.556412160396575928e-02 9.957268089056015015e-02 5.554103851318359375e-02 4.185208678245544434e-01
2.903000000000000000e+03 1.216191005706787109e+01 2.912046623229980469e+01 5.396321415901184082e-02 -4.201673567295074463e-01 -1.098612397909164429e-01 1.578656584024429321e-01
2.904000000000000000e+03 1.449707126617431641e+01 -3.521191406250000000e+01 -2.743410295806825161e-04 9.037416893988847733e-04 1.888201950350776315e-04 1.201983192004263401e-03
2.905000000000000000e+03 1.464162445068359375e+01 -3.313035202026367188e+01 4.364146152511239052e-04 -7.738890417385846376e-06 1.286027109017595649e-04 1.247127540409564972e-03
2.906000000000000000e+03 9.586201667785644531e+00 1.929207992553710938e+01 1.915955841541290283e-01 -4.218591153621673584e-01 -6.907906383275985718e-02 2.040082216262817383e-01
2.907000000000000000e+03 6.841013336181640625e+01 2.636446571350097656e+01 2.492405474185943604e-01 3.089729309082031250e+00 1.001690983772277832e+00 -4.682133793830871582e-01
2.908000000000000000e+03 6.919385528564453125e+01 2.312985420227050781e+01 2.614974379539489746e-01 3.239834547042846680e+00 1.050399661064147949e+00 -5.501629710197448730e-01
2.909000000000000000e+03 5.949687957763671875e+01 2.224762725830078125e+01 4.586040973663330078e-01 1.690349578857421875e+00 6.446861028671264648e-01 -4.481308460235595703e-01
2.910000000000000000e+03 5.288249588012695312e+01 -8.801831007003784180e-01 -7.282723188400268555e-01 3.323958218097686768e-01 -1.187629476189613342e-01 5.563703179359436035e-01
2.911000000000000000e+03 5.396654510498046875e+01 -3.571491718292236328e+00 -1.151446938514709473e+00 3.183284699916839600e-01 -2.499355375766754150e-01 3.898445665836334229e-01
2.912000000000000000e+03 3.392031097412109375e+01 7.733111858367919922e+00 -1.408906131982803345e-01 3.659085556864738464e-02 -3.128992766141891479e-02 5.127018690109252930e-01
2.913000000000000000e+03 3.369794845581054688e+01 6.614340782165527344e+00 -1.456901133060455322e-01 1.646790094673633575e-02 -3.876666352152824402e-02 4.721643030643463135e-01
2.914000000000000000e+03 3.756526565551757812e+01 2.074343299865722656e+01 3.321317434310913086e-01 2.616040706634521484e-01 1.781207472085952759e-01 2.034287899732589722e-01
2.915000000000000000e+03 2.878070068359375000e+01 1.449518203735351562e+01 -2.592754960060119629e-01 -2.633746564388275146e-01 -1.567950397729873657e-01 3.720940947532653809e-01
2.916000000000000000e+03 5.903649520874023438e+01 2.395323753356933594e+01 4.836824536323547363e-01 1.651743531227111816e+00 6.406278014183044434e-01 -4.128077328205108643e-01
2.917000000000000000e+03 4.294362258911132812e+01 -4.086648941040039062e+01 9.281433373689651489e-02 -2.882660329341888428e-01 -5.863551050424575806e-02 -4.589433223009109497e-02
2.918000000000000000e+03 5.592316436767578125e+01 2.680016326904296875e+01 5.549618601799011230e-01 1.325506806373596191e+00 5.641406178474426270e-01 -2.721576094627380371e-01
2.919000000000000000e+03 4.619539642333984375e+01 3.010683250427246094e+01 5.497240424156188965e-01 6.656362414360046387e-01 3.646080791950225830e-01 6.980860978364944458e-02
2.920000000000000000e+03 6.831710052490234375e+01 -3.523089981079101562e+01 5.946503281593322754e-01 3.008797883987426758e+00 1.081034421920776367e+00 5.384963750839233398e-01
2.921000000000000000e+03 7.077984619140625000e+01 -3.580505752563476562e+01 4.574517011642456055e-01 4.198816776275634766e+00 1.396880507469177246e+00 5.242468714714050293e-01
2.922000000000000000e+03 6.780195617675781250e+01 1.716628265380859375e+01 4.324128627777099609e-01 2.944744825363159180e+00 1.013147354125976562e+00 -7.355741262435913086e-01
2.923000000000000000e+03 6.884846496582031250e+01 1.533222866058349609e+01 4.524833858013153076e-01 3.141873121261596680e+00 1.078306913375854492e+00 -8.333553075790405273e-01
2.924000000000000000e+03 7.266880035400390625e+01 -6.809618949890136719e+00 -9.948084354400634766e-01 4.376040935516357422e+00 1.014369845390319824e+00 -1.416939258575439453e+00
2.925000000000000000e+03 7.396149444580078125e+01 -6.671308517456054688e+00 -9.363729357719421387e-01 6.425755500793457031e+00 1.646814823150634766e+00 -1.688990235328674316e+00
2.926000000000000000e+03 7.349099731445312500e+01 -1.774331474304199219e+01 -3.650154471397399902e-01 5.620181560516357422e+00 1.576549887657165527e+00 1.355475425720214844e+00
2.927000000000000000e+03 7.244522094726562500e+01 -2.033979797363281250e+01 -2.165942192077636719e-01 4.837506294250488281e+00 1.386273622512817383e+00 8.796957135200500488e-01
2.928000000000000000e+03 7.466551208496093750e+01 -1.623017120361328125e+01 -7.839654684066772461e-01 8.096113204956054688e+00 2.193644285202026367e+00 2.235862255096435547e+00
2.929000000000000000e+03 3.035342407226562500e+01 -7.523006916046142578e+00 -4.708732068538665771e-01 5.375327914953231812e-02 -1.251359730958938599e-01 2.562378346920013428e-01
2.930000000000000000e+03 2.873822402954101562e+01 -4.148632049560546875e+00 -5.124870538711547852e-01 5.863126739859580994e-02 -1.361567378044128418e-01 2.441544830799102783e-01
2.931000000000000000e+03 7.366148376464843750e+01 -1.718045043945312500e+01 -3.095905184745788574e-01 5.721506595611572266e+00 1.623574852943420410e+00 1.546061396598815918e+00
2.932000000000000000e+03 2.764705848693847656e+01 -3.941999673843383789e+00 -5.306663513183593750e-01 3.538856655359268188e-02 -1.485833376646041870e-01 2.550649642944335938e-01
2.933000000000000000e+03 7.194561004638671875e+01 -1.793744659423828125e+01 -2.017215788364410400e-01 3.487167596817016602e+00 9.856338500976562500e-01 7.718234658241271973e-01
2.934000000000000000e+03 7.287560272216796875e+01 -1.832894706726074219e+01 -2.854032516479492188e-01 4.900034427642822266e+00 1.384389400482177734e+00 1.089652299880981445e+00
2.935000000000000000e+03 7.428140258789062500e+01 -1.738817024230957031e+01 -5.799044966697692871e-01 7.059428691864013672e+00 1.943857312202453613e+00 1.496805429458618164e+00
2.936000000000000000e+03 7.489141082763671875e+01 -1.761716842651367188e+01 -7.843273878097534180e-01 8.151890754699707031e+00 2.210268974304199219e+00 1.371334910392761230e+00
2.937000000000000000e+03 7.233394622802734375e+01 -1.962929344177246094e+01 -2.599481344223022461e-01 4.576315879821777344e+00 1.294910311698913574e+00 8.901053667068481445e-01
2.938000000000000000e+03 7.323313140869140625e+01 -7.021030902862548828e+00 -8.524474501609802246e-01 5.231423854827880859e+00 1.313692808151245117e+00 -1.642858624458312988e+00
2.939000000000000000e+03 2.780741310119628906e+01 -1.578737378120422363e+00 -4.406527876853942871e-01 6.323581188917160034e-02 -1.132250949740409851e-01 1.944776028394699097e-01
2.940000000000000000e+03 2.647912788391113281e+01 -5.437169075012207031e-01 -4.090026617050170898e-01 5.647096037864685059e-02 -1.057595089077949524e-01 1.791417896747589111e-01
2.941000000000000000e+03 2.679541015625000000e+01 -1.549895882606506348e+00 -4.629703462123870850e-01 5.120496079325675964e-02 -1.235296130180358887e-01 2.038132101297378540e-01
2.942000000000000000e+03 2.878587341308593750e+01 -5.903266906738281250e+00 -5.070608258247375488e-01 3.705026581883430481e-02 -1.410031616687774658e-01 2.708172500133514404e-01
2.943000000000000000e+03 2.902284812927246094e+01 -6.612764835357666016e+00 -4.965291023254394531e-01 3.192994743585586548e-02 -1.393797397613525391e-01 2.726424634456634521e-01
2.944000000000000000e+03 6.856478118896484375e+01 4.334811687469482422e+00 6.164523363113403320e-01 2.268383264541625977e+00 8.654506206512451172e-01 -1.307030558586120605e+00
2.945000000000000000e+03 6.791943359375000000e+01 -9.071243554353713989e-02 1.279633194208145142e-01 1.129668712615966797e+00 3.772895932197570801e-01 -1.250445842742919922e+00
2.946000000000000000e+03 5.842166900634765625e+01 3.632576018571853638e-02 -5.676307082176208496e-01 1.655652374029159546e-01 -1.206196397542953491e-01 4.533560276031494141e-01
2.947000000000000000e+03 3.228071212768554688e+01 -1.020839309692382812e+01 -4.170730113983154297e-01 5.622934550046920776e-02 -1.082530990242958069e-01 2.145092338323593140e-01
2.948000000000000000e+03 3.555901718139648438e+01 -1.179025077819824219e+01 -4.229759275913238525e-01 7.873278111219406128e-02 -1.032729446887969971e-01 1.517500728368759155e-01
2.949000000000000000e+03 7.232575225830078125e+01 -4.586473464965820312e+00 -9.376090764999389648e-01 4.351492881774902344e+00 1.024165153503417969e+00 -1.611034870147705078e+00
2.950000000000000000e+03 7.341124057769775391e+00 -6.861643314361572266e+00 3.320184259791858494e-05 -4.839567918679676950e-05 -4.558151431410806254e-06 -6.567509262822568417e-05
2.951000000000000000e+03 2.953684997558593750e+01 1.999386906623840332e+00 -1.733662635087966919e-01 9.620457887649536133e-03 -4.912374168634414673e-02 2.052736431360244751e-01
2.952000000000000000e+03 6.913580322265625000e+01 8.877894401550292969e+00 6.285131573677062988e-01 3.006577014923095703e+00 1.090527057647705078e+00 -1.158452153205871582e+00
2.953000000000000000e+03 3.267407608032226562e+01 -1.140734004974365234e+01 -3.909444212913513184e-01 4.935797676444053650e-02 -1.024759337306022644e-01 1.933313012123107910e-01
2.954000000000000000e+03 4.830454635620117188e+01 -2.452762603759765625e+00 -6.955999732017517090e-01 2.133883982896804810e-01 -1.446634680032730103e-01 4.466367065906524658e-01
2.955000000000000000e+03 7.103143310546875000e+01 -3.095451116561889648e+00 -7.307524681091308594e-01 3.085596084594726562e+00 7.064530253410339355e-01 -1.704126238822937012e+00
2.956000000000000000e+03 7.185097503662109375e+01 -1.994313716888427734e+00 -3.967665731906890869e-01 3.813352346420288086e+00 1.024975657463073730e+00 -1.821857929229736328e+00
2.957000000000000000e+03 7.120940399169921875e+01 -4.266200959682464600e-01 -4.885285347700119019e-02 3.406720876693725586e+00 1.007360458374023438e+00 -1.776530504226684570e+00
2.958000000000000000e+03 6.698876953125000000e+01 -6.438546776771545410e-01 -8.156029134988784790e-02 4.969119131565093994e-01 1.246054843068122864e-01 -1.003802776336669922e+00
2.959000000000000000e+03 6.053970718383789062e+01 2.267172336578369141e+00 1.032634079456329346e-01 2.117900103330612183e-01 9.451602399349212646e-02 1.324249058961868286e-01
2.960000000000000000e+03 5.758042907714843750e+01 9.740807414054870605e-01 -3.807758986949920654e-01 2.483715862035751343e-01 -3.972129151225090027e-02 4.490644335746765137e-01
2.961000000000000000e+03 3.677038192749023438e+01 -1.131292915344238281e+01 -4.554266929626464844e-01 9.643008559942245483e-02 -1.076989769935607910e-01 1.469549834728240967e-01
2.962000000000000000e+03 3.594816207885742188e+01 -1.086156368255615234e+01 -4.605272412300109863e-01 9.897453337907791138e-02 -1.084658131003379822e-01 1.622203290462493896e-01
2.963000000000000000e+03 3.716607284545898438e+01 -1.212921810150146484e+01 -4.496168196201324463e-01 8.897884190082550049e-02 -1.081913933157920837e-01 1.309216469526290894e-01
2.964000000000000000e+03 4.137276840209960938e+01 -8.138154029846191406e+00 -5.919027924537658691e-01 1.544054001569747925e-01 -1.312492191791534424e-01 1.709808409214019775e-01
2.965000000000000000e+03 3.792633056640625000e+01 1.334439277648925781e+00 -3.762242197990417480e-01 9.780514985322952271e-02 -8.352571725845336914e-02 3.058446943759918213e-01
2.966000000000000000e+03 3.749344635009765625e+01 2.255805253982543945e+00 -3.637269139289855957e-01 1.019117012619972229e-01 -7.854456454515457153e-02 3.167972862720489502e-01
2.967000000000000000e+03 3.138957405090332031e+01 3.855171203613281250e+00 -1.188567951321601868e-01 -2.514546923339366913e-02 -4.320067912340164185e-02 3.135371506214141846e-01
2.968000000000000000e+03 3.015138626098632812e+01 3.452865839004516602e+00 -8.113454282283782959e-02 -3.697774186730384827e-02 -3.543368726968765259e-02 2.639476060867309570e-01
2.969000000000000000e+03 6.842350006103515625e+01 1.016529178619384766e+01 6.303876042366027832e-01 2.818984270095825195e+00 1.034811615943908691e+00 -1.043040513992309570e+00
2.970000000000000000e+03 5.798104476928710938e+01 1.659322023391723633e+00 -2.322632819414138794e-01 2.496805936098098755e-01 5.225191824138164520e-03 4.185461103916168213e-01
2.971000000000000000e+03 6.908298492431640625e+01 5.538527011871337891e+00 6.315045356750488281e-01 2.682458400726318359e+00 9.941889047622680664e-01 -1.315516471862792969e+00
2.972000000000000000e+03 6.466210937500000000e+01 2.064606285095214844e+01 4.173021912574768066e-01 2.436581850051879883e+00 8.561652302742004395e-01 -5.920443534851074219e-01
2.973000000000000000e+03 6.202926635742187500e+01 8.190642356872558594e+00 7.144108414649963379e-01 1.091938018798828125e+00 5.419046878814697266e-01 -3.345829546451568604e-01
2.974000000000000000e+03 6.115655517578125000e+01 1.443582534790039062e+00 -1.304025109857320786e-02 1.129574403166770935e-01 2.997515723109245300e-02 1.468179821968078613e-01
2.975000000000000000e+03 6.623030090332031250e+01 4.014328956604003906e+00 6.319999098777770996e-01 1.327832579612731934e+00 5.879497528076171875e-01 -8.966627717018127441e-01
2.976000000000000000e+03 3.189649391174316406e+01 -1.097707271575927734e+01 -3.940325081348419189e-01 4.150604084134101868e-02 -1.057579368352890015e-01 2.091484963893890381e-01
2.977000000000000000e+03 4.333004760742187500e+01 -5.100126266479492188e+00 -6.240590810775756836e-01 1.636154949665069580e-01 -1.381330639123916626e-01 2.661813199520111084e-01
2.978000000000000000e+03 4.443709182739257812e+01 1.115084528923034668e+00 -3.486253917217254639e-01 9.714646264910697937e-03 -1.016732230782508850e-01 3.921933174133300781e-01
2.979000000000000000e+03 3.997093963623046875e+01 -4.722288250923156738e-01 -4.418410658836364746e-01 9.824296087026596069e-02 -1.030794307589530945e-01 2.984031438827514648e-01
2.980000000000000000e+03 4.352847671508789062e+01 -7.831691741943359375e+00 -6.577262878417968750e-01 1.714830994606018066e-01 -1.458729505538940430e-01 1.721292734146118164e-01
2.981000000000000000e+03 5.124532318115234375e+01 -1.068999648094177246e+00 -6.877596974372863770e-01 2.985469698905944824e-01 -1.167638078331947327e-01 5.506531596183776855e-01
2.982000000000000000e+03 5.222909545898437500e+01 -1.744472384452819824e+00 -8.249596953392028809e-01 3.292919993400573730e-01 -1.487003266811370850e-01 5.054939389228820801e-01
2.983000000000000000e+03 4.704083251953125000e+01 -3.140390157699584961e+00 -6.715352535247802734e-01 1.931539922952651978e-01 -1.435143798589706421e-01 3.815679550170898438e-01
2.984000000000000000e+03 3.361690139770507812e+01 1.459557914733886719e+01 -7.187428418546915054e-03 2.656370587646961212e-02 5.812882911413908005e-03 4.358665645122528076e-01
2.985000000000000000e+03 3.469609069824218750e+01 1.616895866394042969e+01 1.235282123088836670e-01 7.558494061231613159e-02 5.973394587635993958e-02 3.780817985534667969e-01
2.986000000000000000e+03 6.394183349609375000e+01 1.035673618316650391e+01 7.263284921646118164e-01 1.680606484413146973e+00 7.220804691314697266e-01 -6.038182973861694336e-01
2.987000000000000000e+03 5.284280395507812500e+01 -3.194084167480468750e+00 -1.004894137382507324e+00 3.291895389556884766e-01 -2.027113735675811768e-01 4.203194677829742432e-01
2.988000000000000000e+03 3.185356330871582031e+01 1.077324581146240234e+01 -1.358639746904373169e-01 -3.549695760011672974e-02 -5.140827968716621399e-02 5.583994984626770020e-01
2.989000000000000000e+03 1.274536609649658203e+01 2.215302467346191406e+01 1.181749776005744934e-01 -2.367227375507354736e-01 -3.556432947516441345e-02 1.951102167367935181e-01
2.990000000000000000e+03 1.481043529510498047e+01 2.330285072326660156e+01 9.119770675897598267e-02 -1.688890755176544189e-01 -2.330741100013256073e-02 2.603683769702911377e-01
2.991000000000000000e+03 5.366798019409179688e+01 -1.657746195793151855e+00 -8.935660719871520996e-01 3.374387323856353760e-01 -1.668381989002227783e-01 5.046324133872985840e-01
2.992000000000000000e+03 4.511791992187500000e+01 2.949939370155334473e-01 -4.403003752231597900e-01 6.627911329269409180e-02 -1.122063770890235901e-01 4.162644445896148682e-01
2.993000000000000000e+03 4.342684555053710938e+01 5.240870118141174316e-01 -4.202329814434051514e-01 5.872122943401336670e-02 -1.084535270929336548e-01 3.527086377143859863e-01
2.994000000000000000e+03 3.238994216918945312e+01 1.383651161193847656e+01 -8.723556250333786011e-02 -1.827246695756912231e-02 -3.165240958333015442e-02 4.529892802238464355e-01
2.995000000000000000e+03 5.053747940063476562e+01 -2.281638383865356445e+00 -7.859300971031188965e-01 2.854743003845214844e-01 -1.501367390155792236e-01 4.778797626495361328e-01
2.996000000000000000e+03 5.744169998168945312e+01 7.720918208360671997e-02 -6.054412722587585449e-01 2.220584154129028320e-01 -1.150148659944534302e-01 4.923125207424163818e-01
2.997000000000000000e+03 3.269862365722656250e+01 4.174269676208496094e+00 -1.522432714700698853e-01 -4.026308190077543259e-03 -4.688087105751037598e-02 3.545274436473846436e-01
2.998000000000000000e+03 3.693064117431640625e+01 5.386388778686523438e+00 -2.920709252357482910e-01 1.292018294334411621e-01 -4.886072874069213867e-02 4.038183391094207764e-01
2.999000000000000000e+03 3.489195251464843750e+01 7.521211147308349609e+00 -1.770018488168716431e-01 7.541655004024505615e-02 -3.047559224069118500e-02 4.886561334133148193e-01
3.000000000000000000e+03 6.505961608886718750e+01 5.873761177062988281e-01 1.692429482936859131e-01 2.444222867488861084e-01 1.240995675325393677e-01 -5.172355175018310547e-01
3.001000000000000000e+03 6.294251251220703125e+01 9.264627456665039062e+00 7.354465126991271973e-01 1.378530383110046387e+00 6.341930627822875977e-01 -4.719845056533813477e-01
3.002000000000000000e+03 6.515731048583984375e+01 7.470176696777343750e+00 7.566851973533630371e-01 1.575916767120361328e+00 6.997805833816528320e-01 -7.586637139320373535e-01
3.003000000000000000e+03 1.503808593750000000e+01 1.994785308837890625e+01 1.711752116680145264e-01 -3.324677422642707825e-02 4.137853160500526428e-02 2.381195873022079468e-01
3.004000000000000000e+03 3.923725509643554688e+01 2.044836282730102539e+00 -3.873600959777832031e-01 1.012056618928909302e-01 -8.584632724523544312e-02 3.086032271385192871e-01
3.005000000000000000e+03 3.981439590454101562e+01 9.037296175956726074e-01 -3.996478021144866943e-01 9.292063862085342407e-02 -9.201814979314804077e-02 3.016081750392913818e-01
3.006000000000000000e+03 6.839091491699218750e+01 2.147458457946777344e+01 3.114797770977020264e-01 3.148048400878906250e+00 1.037858486175537109e+00 -6.231468915939331055e-01
3.007000000000000000e+03 5.019331741333007812e+01 -3.714387655258178711e+00 -8.792044520378112793e-01 2.750589847564697266e-01 -1.812436431646347046e-01 4.017866551876068115e-01
3.008000000000000000e+03 2.342171669006347656e+01 2.373429489135742188e+01 2.638050615787506104e-01 -3.247892260551452637e-01 -1.829524897038936615e-02 4.061934053897857666e-01
3.009000000000000000e+03 2.189039611816406250e+01 2.240846633911132812e+01 2.286743521690368652e-01 -3.010773956775665283e-01 -2.172091417014598846e-02 4.694849550724029541e-01
3.010000000000000000e+03 3.136447143554687500e+01 1.931120300292968750e+01 1.643367707729339600e-01 -1.421328186988830566e-01 6.661182735115289688e-03 2.416137158870697021e-01
3.011000000000000000e+03 3.090940666198730469e+01 1.769847106933593750e+01 4.737741500139236450e-02 -1.644936203956604004e-01 -3.513486310839653015e-02 2.682018876075744629e-01
3.012000000000000000e+03 3.647114181518554688e+01 3.302224159240722656e+00 -3.154202699661254883e-01 9.535415470600128174e-02 -6.601983308792114258e-02 3.457282483577728271e-01
3.013000000000000000e+03 3.372273635864257812e+01 5.516030788421630859e+00 -1.640585362911224365e-01 2.231331169605255127e-02 -4.252356663346290588e-02 4.300876259803771973e-01
3.014000000000000000e+03 4.027953338623046875e+01 2.490786933898925781e+01 4.057238698005676270e-01 4.214154481887817383e-01 2.481417953968048096e-01 1.829247474670410156e-01
3.015000000000000000e+03 3.811504745483398438e+01 2.612995719909667969e+01 4.080445766448974609e-01 2.786504328250885010e-01 2.060084939002990723e-01 1.535269170999526978e-01
3.016000000000000000e+03 9.642093658447265625e+00 2.210161209106445312e+01 1.151095554232597351e-01 -4.287509918212890625e-01 -9.409242868423461914e-02 1.538411974906921387e-01
3.017000000000000000e+03 4.673263168334960938e+01 -5.971693992614746094e+00 -7.778518199920654297e-01 2.077761292457580566e-01 -1.710226982831954956e-01 2.554424703121185303e-01
3.018000000000000000e+03 5.836355590820312500e+01 9.513384699821472168e-01 -3.647399246692657471e-01 2.032625377178192139e-01 -4.844322055578231812e-02 4.194744527339935303e-01
3.019000000000000000e+03 6.819908905029296875e+01 1.345248603820800781e+01 5.455693602561950684e-01 2.933005094528198242e+00 1.043572306632995605e+00 -9.013239741325378418e-01
3.020000000000000000e+03 6.322692108154296875e+01 1.942201042175292969e+01 4.558797478675842285e-01 2.189669370651245117e+00 7.936646938323974609e-01 -5.696772336959838867e-01
3.021000000000000000e+03 7.104613494873046875e+01 1.186471462249755859e+00 2.423235774040222168e-01 3.413500308990478516e+00 1.096747159957885742e+00 -1.703606009483337402e+00
3.022000000000000000e+03 3.484884262084960938e+01 6.576244354248046875e+00 -1.918302774429321289e-01 7.144388556480407715e-02 -3.611591458320617676e-02 4.652248919010162354e-01
3.023000000000000000e+03 4.463599777221679688e+01 -7.295897960662841797e+00 -7.117925286293029785e-01 1.825375109910964966e-01 -1.587765067815780640e-01 1.949473917484283447e-01
3.024000000000000000e+03 1.321532630920410156e+01 2.727932357788085938e+01 6.122805178165435791e-02 -3.354955315589904785e-01 -8.228024095296859741e-02 1.981141120195388794e-01
3.025000000000000000e+03 1.155313014984130859e+01 2.639605140686035156e+01 5.515605211257934570e-02 -3.907572925090789795e-01 -1.006803736090660095e-01 1.607231050729751587e-01
3.026000000000000000e+03 6.457917785644531250e+01 1.363302040100097656e+01 6.225649714469909668e-01 2.108707904815673828e+00 8.193818330764770508e-01 -6.661012172698974609e-01
3.027000000000000000e+03 6.445392608642578125e+01 1.578492736816406250e+01 5.487835407257080078e-01 2.246272087097167969e+00 8.385167121887207031e-01 -6.470935940742492676e-01
3.028000000000000000e+03 3.426981735229492188e+01 9.562920570373535156e+00 -1.322151720523834229e-01 6.415608525276184082e-02 -2.041772380471229553e-02 5.504721999168395996e-01
3.029000000000000000e+03 3.554249954223632812e+01 1.784685134887695312e+01 2.193295061588287354e-01 1.197372376918792725e-01 1.017200276255607605e-01 3.021160960197448730e-01
3.030000000000000000e+03 6.440282440185546875e+01 3.019690752029418945e+00 4.658682644367218018e-01 6.617419123649597168e-01 3.382830321788787842e-01 -5.231255888938903809e-01
3.031000000000000000e+03 6.609740447998046875e+01 -3.406652832031250000e+01 6.165460348129272461e-01 1.994356751441955566e+00 7.832708358764648438e-01 3.717516958713531494e-01
3.032000000000000000e+03 6.275573348999023438e+01 -3.107333755493164062e+01 2.637644410133361816e-01 1.632096916437149048e-01 1.280922293663024902e-01 -1.747545786201953888e-02
3.033000000000000000e+03 6.085424423217773438e+01 2.261460876464843750e+01 4.565748870372772217e-01 1.898871421813964844e+00 7.066338658332824707e-01 -4.756208360195159912e-01
3.034000000000000000e+03 6.956338500976562500e+01 7.683066844940185547e+00 6.169053912162780762e-01 3.108851671218872070e+00 1.117727160453796387e+00 -1.251134753227233887e+00
3.035000000000000000e+03 7.015971374511718750e+01 4.860086441040039062e+00 5.573268532752990723e-01 3.097577095031738281e+00 1.096471190452575684e+00 -1.458016514778137207e+00
3.036000000000000000e+03 6.790093231201171875e+01 2.261277580261230469e+01 3.168294131755828857e-01 3.048492431640625000e+00 1.009596586227416992e+00 -5.933047533035278320e-01
3.037000000000000000e+03 6.183304214477539062e+01 2.717934799194335938e+01 4.231498539447784424e-01 2.133953571319580078e+00 7.671310305595397949e-01 -4.071157574653625488e-01
3.038000000000000000e+03 1.061465358734130859e+01 -3.650090408325195312e+01 -2.232757105957716703e-04 5.488031893037259579e-04 9.765824506757780910e-05 8.251257240772247314e-04
3.039000000000000000e+03 5.906667709350585938e+01 2.867127990722656250e+01 4.898863732814788818e-01 1.763747692108154297e+00 6.760902404785156250e-01 -3.390503227710723877e-01
3.040000000000000000e+03 5.201911163330078125e+01 2.824159431457519531e+01 6.030092239379882812e-01 9.643562436103820801e-01 4.702096283435821533e-01 -7.610618323087692261e-02
3.041000000000000000e+03 5.836952209472656250e+01 2.579103088378906250e+01 5.031041502952575684e-01 1.614172935485839844e+00 6.351831555366516113e-01 -3.769154250621795654e-01
3.042000000000000000e+03 5.685115814208984375e+01 2.498045349121093750e+01 5.224927663803100586e-01 1.390078544616699219e+00 5.737714171409606934e-01 -3.471704721450805664e-01
3.043000000000000000e+03 3.160964584350585938e+01 -9.613768577575683594e+00 -4.286806881427764893e-01 5.018391460180282593e-02 -1.135490313172340393e-01 2.296147644519805908e-01
3.044000000000000000e+03 3.000255584716796875e+01 -6.867643833160400391e+00 -4.872668981552124023e-01 5.127783864736557007e-02 -1.307967156171798706e-01 2.606307566165924072e-01
3.045000000000000000e+03 2.922769355773925781e+01 -2.318033456802368164e+00 -4.494850337505340576e-01 7.641743868589401245e-02 -1.119202822446823120e-01 2.083621472120285034e-01
3.046000000000000000e+03 2.899812698364257812e+01 -1.261151432991027832e+00 -4.087580442428588867e-01 6.975211948156356812e-02 -1.017017811536788940e-01 1.937247812747955322e-01
3.047000000000000000e+03 3.014723968505859375e+01 -5.745637416839599609e+00 -4.981970787048339844e-01 6.988728791475296021e-02 -1.284929364919662476e-01 2.508776187896728516e-01
3.048000000000000000e+03 3.504851150512695312e+01 -1.057306480407714844e+01 -4.454614818096160889e-01 8.838435262441635132e-02 -1.071231365203857422e-01 1.798564493656158447e-01
3.049000000000000000e+03 3.349555587768554688e+01 -9.928953170776367188e+00 -4.390017986297607422e-01 7.787393778562545776e-02 -1.083383560180664062e-01 2.047340273857116699e-01
3.050000000000000000e+03 3.185142707824707031e+01 -8.338781356811523438e+00 -4.610588848590850830e-01 7.066480815410614014e-02 -1.171182245016098022e-01 2.358553260564804077e-01
3.051000000000000000e+03 3.144938850402832031e+01 -7.670011520385742188e+00 -4.689039289951324463e-01 7.395044714212417603e-02 -1.184860467910766602e-01 2.424391508102416992e-01
3.052000000000000000e+03 2.739527893066406250e+01 -8.902367204427719116e-02 -3.508928120136260986e-01 6.346993893384933472e-02 -8.622686564922332764e-02 1.674406230449676514e-01
3.053000000000000000e+03 5.957505798339843750e+01 3.017021417617797852e+00 1.439197659492492676e-01 3.138870298862457275e-01 1.373420506715774536e-01 1.994434446096420288e-01
3.054000000000000000e+03 3.065457534790039062e+01 -6.331868171691894531e+00 -4.877320230007171631e-01 7.565800845623016357e-02 -1.236222013831138611e-01 2.484592497348785400e-01
3.055000000000000000e+03 2.823092269897460938e+01 -3.607203483581542969e+00 -5.088688135147094727e-01 5.556483939290046692e-02 -1.359912008047103882e-01 2.390366792678833008e-01
3.056000000000000000e+03 4.142790985107421875e+01 -2.872395515441894531e-01 -4.309812486171722412e-01 8.599254488945007324e-02 -1.034966185688972473e-01 3.133416175842285156e-01
3.057000000000000000e+03 2.813652992248535156e+01 4.590867161750793457e-01 -2.925495803356170654e-01 4.960878565907478333e-02 -7.288224250078201294e-02 1.621692627668380737e-01
3.058000000000000000e+03 3.284088516235351562e+01 -9.498889923095703125e+00 -4.459201395511627197e-01 7.417047023773193359e-02 -1.115249022841453552e-01 2.166423499584197998e-01
3.059000000000000000e+03 3.296424865722656250e+01 1.073681068420410156e+01 -1.002742722630500793e-01 1.116009708493947983e-02 -2.673425339162349701e-02 5.594410300254821777e-01
3.060000000000000000e+03 3.455116271972656250e+01 1.192887687683105469e+01 -6.059846282005310059e-02 7.755264639854431152e-02 5.086254794150590897e-03 5.314225554466247559e-01
3.061000000000000000e+03 3.581600189208984375e+01 5.566646575927734375e+00 -2.461410164833068848e-01 9.544347226619720459e-02 -4.520926624536514282e-02 4.213230013847351074e-01
3.062000000000000000e+03 3.757781600952148438e+01 -9.005009651184082031e+00 -5.112975835800170898e-01 1.240478232502937317e-01 -1.161749213933944702e-01 1.811563223600387573e-01
3.063000000000000000e+03 3.693987274169921875e+01 -9.766208648681640625e+00 -4.869962036609649658e-01 1.150754392147064209e-01 -1.115762293338775635e-01 1.727615743875503540e-01
3.064000000000000000e+03 3.615863037109375000e+01 -9.967190742492675781e+00 -4.765114784240722656e-01 1.046506389975547791e-01 -1.115582510828971863e-01 1.789593547582626343e-01
3.065000000000000000e+03 3.757902145385742188e+01 -1.064964962005615234e+01 -4.939943850040435791e-01 1.114772260189056396e-01 -1.147551462054252625e-01 1.532206833362579346e-01
3.066000000000000000e+03 1.115360832214355469e+01 2.229853057861328125e+01 1.120511442422866821e-01 -3.401763737201690674e-01 -6.843756884336471558e-02 1.690892428159713745e-01
3.067000000000000000e+03 7.009800720214843750e+01 -3.260019779205322266e+00 -8.188429474830627441e-01 2.186698198318481445e+00 4.103565812110900879e-01 -1.602687001228332520e+00
3.068000000000000000e+03 2.894449615478515625e+01 7.269295454025268555e-01 -2.709116339683532715e-01 4.375153034925460815e-02 -6.814803183078765869e-02 1.789459288120269775e-01
3.069000000000000000e+03 2.994466781616210938e+01 9.349983334541320801e-01 -2.636740505695343018e-01 3.792342916131019592e-02 -6.772518157958984375e-02 1.987010091543197632e-01
3.070000000000000000e+03 3.954290771484375000e+01 -8.336260795593261719e+00 -5.478163957595825195e-01 1.405546069145202637e-01 -1.221785396337509155e-01 1.755754798650741577e-01
3.071000000000000000e+03 6.957550048828125000e+01 1.257443428039550781e+00 3.146984279155731201e-01 2.419908285140991211e+00 8.203819990158081055e-01 -1.576543331146240234e+00
3.072000000000000000e+03 5.924858474731445312e+01 1.240768313407897949e+00 -2.227548211812973022e-01 1.569960564374923706e-01 -1.972763054072856903e-02 3.491170704364776611e-01
3.073000000000000000e+03 7.025963592529296875e+01 1.866791248321533203e+00 3.254324793815612793e-01 2.872292757034301758e+00 9.593175649642944336e-01 -1.632791161537170410e+00
3.074000000000000000e+03 4.116251373291015625e+01 -6.997748851776123047e+00 -5.903266668319702148e-01 1.510788649320602417e-01 -1.317743360996246338e-01 2.125491201877593994e-01
3.075000000000000000e+03 2.961876106262207031e+01 -1.783396720886230469e+00 -4.215431809425354004e-01 7.214071601629257202e-02 -1.048207432031631470e-01 2.049290239810943604e-01
3.076000000000000000e+03 6.581652832031250000e+01 1.212911009788513184e+00 2.677167057991027832e-01 6.152683496475219727e-01 2.648955285549163818e-01 -7.528412938117980957e-01
3.077000000000000000e+03 6.735475158691406250e+01 2.438232898712158203e+00 4.724366664886474609e-01 1.412550687789916992e+00 5.654962062835693359e-01 -1.140246987342834473e+00
3.078000000000000000e+03 6.727663421630859375e+01 9.004632234573364258e-01 2.547955811023712158e-01 1.038725018501281738e+00 3.880561590194702148e-01 -1.118190288543701172e+00
3.079000000000000000e+03 4.643225860595703125e+01 -1.975083708763122559e+00 -5.946473479270935059e-01 1.543193012475967407e-01 -1.320984214544296265e-01 4.226872324943542480e-01
3.080000000000000000e+03 1.771360397338867188e+01 2.593632125854492188e+01 1.226064264774322510e-01 -2.106478363275527954e-01 -2.641242370009422302e-02 3.253054618835449219e-01
3.081000000000000000e+03 6.886112976074218750e+01 1.224415969848632812e+01 5.496910810470581055e-01 3.068772077560424805e+00 1.085538983345031738e+00 -9.739724397659301758e-01
3.082000000000000000e+03 4.440329742431640625e+01 -3.328500986099243164e+00 -5.995361208915710449e-01 1.513013094663619995e-01 -1.344704329967498779e-01 3.369951546192169189e-01
3.083000000000000000e+03 4.579358291625976562e+01 -7.747642993927001953e-01 -4.760048687458038330e-01 1.013311147689819336e-01 -1.124021187424659729e-01 4.261200129985809326e-01
3.084000000000000000e+03 4.568931961059570312e+01 -6.586416244506835938e+00 -7.314754724502563477e-01 1.978547275066375732e-01 -1.600862294435501099e-01 2.229111641645431519e-01
3.085000000000000000e+03 4.533145141601562500e+01 -2.652264595031738281e+00 -5.801647901535034180e-01 1.488444358110427856e-01 -1.293961107730865479e-01 3.686593472957611084e-01
3.086000000000000000e+03 3.566728591918945312e+01 3.930985689163208008e+00 -2.788230478763580322e-01 8.339112997055053711e-02 -5.862957239151000977e-02 3.669725060462951660e-01
3.087000000000000000e+03 4.240840530395507812e+01 -8.045177459716796875e+00 -6.264078617095947266e-01 1.555497944355010986e-01 -1.412574201822280884e-01 1.797388195991516113e-01
3.088000000000000000e+03 3.532563781738281250e+01 -9.715555191040039062e+00 -4.699238538742065430e-01 1.037305444478988647e-01 -1.098579987883567810e-01 1.856143325567245483e-01
3.089000000000000000e+03 6.878905487060546875e+01 5.667616128921508789e-01 1.936691105365753174e-01 1.760839581489562988e+00 5.863526463508605957e-01 -1.450744509696960449e+00
3.090000000000000000e+03 3.062854766845703125e+01 2.360381841659545898e+00 -1.794856935739517212e-01 5.085027310997247696e-03 -5.232019722461700439e-02 2.395258843898773193e-01
3.091000000000000000e+03 6.798083496093750000e+01 8.213611602783203125e+00 6.975930333137512207e-01 2.475973367691040039e+00 9.520699381828308105e-01 -1.090153574943542480e+00
3.092000000000000000e+03 6.138764953613281250e+01 3.902848362922668457e-01 -2.909898757934570312e-01 -7.836320437490940094e-03 -8.964785933494567871e-02 2.059781253337860107e-01
3.093000000000000000e+03 6.339472961425781250e+01 8.312702178955078125e-01 4.722696542739868164e-02 9.287983924150466919e-02 4.203204065561294556e-02 -1.841372400522232056e-01
3.094000000000000000e+03 6.373658752441406250e+01 -3.338675498962402344e-01 -2.107675075531005859e-01 -1.443590074777603149e-01 -1.065379530191421509e-01 -9.675633162260055542e-02
3.095000000000000000e+03 4.251314163208007812e+01 -4.488607406616210938e+00 -5.693668723106384277e-01 1.442572176456451416e-01 -1.275328993797302246e-01 2.806568443775177002e-01
3.096000000000000000e+03 5.510070037841796875e+01 -2.362999916076660156e+00 -1.056016325950622559e+00 3.003309965133666992e-01 -2.267055809497833252e-01 4.576325416564941406e-01
3.097000000000000000e+03 3.473737716674804688e+01 2.214278221130371094e+00 -2.987308800220489502e-01 7.051777839660644531e-02 -6.846392899751663208e-02 3.135026693344116211e-01
3.098000000000000000e+03 3.336133956909179688e+01 1.718845939636230469e+01 1.110443398356437683e-01 -1.030993647873401642e-02 3.022032231092453003e-02 3.255775570869445801e-01
3.099000000000000000e+03 6.770597839355468750e+01 1.922424507141113281e+01 3.731113076210021973e-01 2.982440948486328125e+00 1.006665706634521484e+00 -6.772760152816772461e-01
3.100000000000000000e+03 2.865611267089843750e+01 2.105433082580566406e+01 2.434594333171844482e-01 -2.963824272155761719e-01 -1.587689481675624847e-02 2.639316320419311523e-01
3.101000000000000000e+03 6.716391754150390625e+01 9.332878112792968750e+00 7.112805247306823730e-01 2.357686519622802734e+00 9.206900596618652344e-01 -9.768030047416687012e-01
3.102000000000000000e+03 3.331368637084960938e+01 1.590273189544677734e+01 4.324556514620780945e-02 5.119756329804658890e-03 1.450959593057632446e-02 3.703877925872802734e-01
3.103000000000000000e+03 6.554951477050781250e+01 1.480752086639404297e+01 5.637509226799011230e-01 2.403988122940063477e+00 8.903217315673828125e-01 -7.206119298934936523e-01
3.104000000000000000e+03 3.271414947509765625e+01 1.886711311340332031e+01 1.658992469310760498e-01 -5.758530274033546448e-02 3.249418362975120544e-02 2.571909129619598389e-01
3.105000000000000000e+03 6.288595581054687500e+01 1.813121318817138672e+00 2.012658715248107910e-01 2.473124712705612183e-01 1.345735043287277222e-01 -1.512669473886489868e-01
3.106000000000000000e+03 6.556806182861328125e+01 1.697533226013183594e+01 4.897527396678924561e-01 2.505486011505126953e+00 8.985716104507446289e-01 -6.800488829612731934e-01
3.107000000000000000e+03 6.441077423095703125e+01 1.810692405700683594e+01 4.788464009761810303e-01 2.343681335449218750e+00 8.467583060264587402e-01 -6.237850785255432129e-01
3.108000000000000000e+03 4.630519485473632812e+01 -4.883736610412597656e+00 -7.160435318946838379e-01 2.014913409948348999e-01 -1.543656587600708008e-01 3.006199002265930176e-01
3.109000000000000000e+03 6.708591461181640625e+01 2.393349075317382812e+01 3.153371810913085938e-01 2.883083820343017578e+00 9.595263004302978516e-01 -5.495130419731140137e-01
3.110000000000000000e+03 6.254399490356445312e+01 6.435106277465820312e+00 6.702078580856323242e-01 9.489793777465820312e-01 4.857561588287353516e-01 -3.640196621417999268e-01
3.111000000000000000e+03 6.869737243652343750e+01 7.215475559234619141e+00 6.768265962600708008e-01 2.676378011703491211e+00 1.005961418151855469e+00 -1.206680297851562500e+00
3.112000000000000000e+03 6.760505676269531250e+01 1.474903869628906250e+01 5.180593729019165039e-01 2.824828386306762695e+00 1.002866387367248535e+00 -8.186256885528564453e-01
3.113000000000000000e+03 2.150590324401855469e+01 2.861094856262207031e+01 2.274642735719680786e-01 -2.530302405357360840e-01 -7.669784594327211380e-03 3.038145899772644043e-01
3.114000000000000000e+03 3.784566116333007812e+01 3.013669204711914062e+01 4.415502548217773438e-01 2.540241479873657227e-01 2.086723148822784424e-01 1.227113381028175354e-01
3.115000000000000000e+03 2.478709220886230469e+01 2.510517120361328125e+01 2.951614558696746826e-01 -2.958199679851531982e-01 -1.975549239432439208e-04 3.454294204711914062e-01
3.116000000000000000e+03 6.165320968627929688e+01 -3.256942749023437500e+01 4.486539661884307861e-01 1.566497795283794403e-02 1.392956823110580444e-01 -4.932467266917228699e-02
3.117000000000000000e+03 1.503259849548339844e+01 2.837891197204589844e+01 8.426117151975631714e-02 -3.065538406372070312e-01 -6.668779999017715454e-02 2.255973964929580688e-01
3.118000000000000000e+03 6.399876022338867188e+01 3.434811401367187500e+01 3.342142999172210693e-01 2.470917463302612305e+00 8.415395617485046387e-01 -2.266059964895248413e-01
3.119000000000000000e+03 6.953514862060546875e+01 3.268373107910156250e+01 1.763136535882949829e-01 3.183958292007446289e+00 1.008081555366516113e+00 -2.505007684230804443e-01
3.120000000000000000e+03 6.731560516357421875e+01 4.101058959960937500e+01 2.185629606246948242e-01 2.891796112060546875e+00 9.331077337265014648e-01 -4.250327497720718384e-02
3.121000000000000000e+03 1.389002227783203125e+01 3.039943122863769531e+01 7.229514420032501221e-02 -3.805795311927795410e-01 -9.248531609773635864e-02 1.757120639085769653e-01
3.122000000000000000e+03 1.444984436035156250e+01 3.403551483154296875e+01 9.083656221628189087e-02 -4.122489690780639648e-01 -9.642372280359268188e-02 1.313528716564178467e-01
3.123000000000000000e+03 3.106614303588867188e+01 -6.988230705261230469e+00 -4.819432795047760010e-01 7.173740863800048828e-02 -1.230617612600326538e-01 2.470920532941818237e-01
3.124000000000000000e+03 3.068313598632812500e+01 -5.041157722473144531e+00 -4.891391396522521973e-01 8.559077233076095581e-02 -1.210645139217376709e-01 2.397801280021667480e-01
3.125000000000000000e+03 2.966244697570800781e+01 -6.271619796752929688e+00 -4.935501813888549805e-01 5.251665413379669189e-02 -1.323100626468658447e-01 2.608778178691864014e-01
3.126000000000000000e+03 3.254322433471679688e+01 -7.785836696624755859e+00 -4.700222015380859375e-01 8.940723538398742676e-02 -1.141844913363456726e-01 2.300604730844497681e-01
3.127000000000000000e+03 3.423730468750000000e+01 -1.026780700683593750e+01 -4.438195228576660156e-01 8.549430966377258301e-02 -1.074975654482841492e-01 1.890624910593032837e-01
3.128000000000000000e+03 2.948768806457519531e+01 -5.613187789916992188e+00 -5.042309761047363281e-01 5.834067612886428833e-02 -1.337670832872390747e-01 2.565204203128814697e-01
3.129000000000000000e+03 3.139140319824218750e+01 -4.332219600677490234e+00 -4.795112609863281250e-01 9.469932317733764648e-02 -1.154435798525810242e-01 2.314911186695098877e-01
3.130000000000000000e+03 6.715348052978515625e+01 3.812751531600952148e+00 6.284042596817016602e-01 1.668452620506286621e+00 6.890570521354675293e-01 -1.085550069808959961e+00
3.131000000000000000e+03 2.861686325073242188e+01 -2.494515657424926758e+00 -4.648337960243225098e-01 6.942012906074523926e-02 -1.186240985989570618e-01 2.098926007747650146e-01
3.132000000000000000e+03 3.140901756286621094e+01 2.638552784919738770e-01 -3.165213465690612793e-01 5.760134756565093994e-02 -7.767600566148757935e-02 2.232088446617126465e-01
3.133000000000000000e+03 3.103277778625488281e+01 1.293468594551086426e+00 -2.495267838239669800e-01 3.336004540324211121e-02 -6.485002487897872925e-02 2.303287833929061890e-01
3.134000000000000000e+03 3.263093185424804688e+01 -5.861928939819335938e+00 -4.844268560409545898e-01 1.004269719123840332e-01 -1.151999607682228088e-01 2.334984093904495239e-01
3.135000000000000000e+03 2.931592369079589844e+01 -3.586436510086059570e+00 -4.878470301628112793e-01 7.541902363300323486e-02 -1.237283945083618164e-01 2.279623448848724365e-01
3.136000000000000000e+03 6.238222122192382812e+01 5.614094734191894531e-01 -1.214964985847473145e-01 -3.436680138111114502e-02 -4.675899073481559753e-02 7.236667722463607788e-02
3.137000000000000000e+03 6.205892944335937500e+01 1.599764347076416016e+00 7.315704226493835449e-02 1.535762846469879150e-01 6.801999360322952271e-02 1.813667477108538151e-03
3.138000000000000000e+03 3.682615280151367188e+01 -8.422477722167968750e+00 -5.012788176536560059e-01 1.218713819980621338e-01 -1.138222292065620422e-01 1.949478089809417725e-01
3.139000000000000000e+03 3.561219406127929688e+01 -8.864570617675781250e+00 -4.846500754356384277e-01 1.108697578310966492e-01 -1.121340990066528320e-01 1.987160444259643555e-01
3.140000000000000000e+03 3.230194854736328125e+01 -8.957915306091308594e+00 -4.485234320163726807e-01 7.339069992303848267e-02 -1.125398203730583191e-01 2.258057892322540283e-01
3.141000000000000000e+03 5.624395370483398438e+01 -2.095362663269042969e+00 -1.058625102043151855e+00 2.826411128044128418e-01 -2.327951937913894653e-01 4.706160724163055420e-01
3.142000000000000000e+03 3.367322540283203125e+01 -5.590073585510253906e+00 -4.836220145225524902e-01 1.145913377404212952e-01 -1.107092052698135376e-01 2.291016280651092529e-01
3.143000000000000000e+03 3.841672897338867188e+01 3.293018341064453125e-01 -4.131652116775512695e-01 1.042530164122581482e-01 -9.267365187406539917e-02 2.957639098167419434e-01
3.144000000000000000e+03 4.280819320678710938e+01 -5.209884047508239746e-01 -4.535947144031524658e-01 7.863830775022506714e-02 -1.124869212508201599e-01 3.521600663661956787e-01
3.145000000000000000e+03 6.450482940673828125e+01 4.715728282928466797e+00 6.250221729278564453e-01 1.002449989318847656e+00 4.882416427135467529e-01 -6.234507560729980469e-01
3.146000000000000000e+03 4.401173782348632812e+01 -4.555305242538452148e-01 -4.475083053112030029e-01 7.947482913732528687e-02 -1.104100421071052551e-01 3.739739358425140381e-01
3.147000000000000000e+03 6.808148956298828125e+01 1.556988000869750977e+00 4.038725197315216064e-01 1.561522960662841797e+00 5.896186232566833496e-01 -1.273369669914245605e+00
3.148000000000000000e+03 4.213056945800781250e+01 -6.916234493255615234e+00 -6.099806427955627441e-01 1.631252914667129517e-01 -1.340565979480743408e-01 2.025629431009292603e-01
3.149000000000000000e+03 4.513591766357421875e+01 -5.437469482421875000e+00 -6.923292279243469238e-01 1.820623278617858887e-01 -1.530800610780715942e-01 2.721421420574188232e-01
3.150000000000000000e+03 2.816974258422851562e+01 -7.729982733726501465e-01 -3.920129537582397461e-01 6.254411488771438599e-02 -9.884065389633178711e-02 1.819264590740203857e-01
3.151000000000000000e+03 6.645874786376953125e+01 3.341468572616577148e-01 1.864436417818069458e-01 5.420265197753906250e-01 2.185410559177398682e-01 -8.777218461036682129e-01
3.152000000000000000e+03 3.181090545654296875e+01 2.713241577148437500e+00 -1.854004710912704468e-01 7.187174633145332336e-03 -5.346398800611495972e-02 2.815964818000793457e-01
3.153000000000000000e+03 4.459130096435546875e+01 -1.563628315925598145e+00 -5.263738036155700684e-01 1.145065054297447205e-01 -1.235601902008056641e-01 3.805742859840393066e-01
3.154000000000000000e+03 4.120690155029296875e+01 -1.745475530624389648e+00 -4.867131710052490234e-01 1.099355742335319519e-01 -1.130332723259925842e-01 3.094955980777740479e-01
3.155000000000000000e+03 4.480819320678710938e+01 -4.284181118011474609e+00 -6.326895356178283691e-01 1.706860065460205078e-01 -1.386010646820068359e-01 3.068132996559143066e-01
3.156000000000000000e+03 4.588134765625000000e+01 -3.760955572128295898e+00 -6.673449873924255371e-01 1.772429496049880981e-01 -1.470306217670440674e-01 3.435943722724914551e-01
3.157000000000000000e+03 7.039136505126953125e+01 -1.258561968803405762e+00 -2.209564298391342163e-01 2.650880575180053711e+00 7.289772629737854004e-01 -1.760516762733459473e+00
3.158000000000000000e+03 7.091663360595703125e+01 -2.090324401855468750e+00 -4.089698493480682373e-01 3.132960796356201172e+00 8.171972632408142090e-01 -1.758858919143676758e+00
3.159000000000000000e+03 3.444001388549804688e+01 3.353106498718261719e+00 -2.466182410717010498e-01 5.249153450131416321e-02 -5.823801085352897644e-02 3.448890447616577148e-01
3.160000000000000000e+03 6.197511672973632812e+01 3.959134340286254883e+00 4.717281162738800049e-01 5.106999874114990234e-01 2.947284281253814697e-01 -1.703135967254638672e-01
3.161000000000000000e+03 6.325614547729492188e+01 7.381991863250732422e+00 7.356837987899780273e-01 1.182519555091857910e+00 5.754610300064086914e-01 -4.885600507259368896e-01
3.162000000000000000e+03 3.480694580078125000e+01 1.115253448486328125e+00 -3.306117355823516846e-01 7.881488651037216187e-02 -7.553905993700027466e-02 2.860761880874633789e-01
3.163000000000000000e+03 6.794893646240234375e+01 6.389880180358886719e+00 6.890003681182861328e-01 2.273056268692016602e+00 8.886170387268066406e-01 -1.142617940902709961e+00
3.164000000000000000e+03 6.752785491943359375e+01 1.144812488555908203e+01 6.382675766944885254e-01 2.638059616088867188e+00 9.828981757164001465e-01 -9.262384772300720215e-01
3.165000000000000000e+03 6.560412597656250000e+01 1.920749473571777344e+01 4.319845438003540039e-01 2.565030097961425781e+00 8.991044163703918457e-01 -6.376188993453979492e-01
3.166000000000000000e+03 6.670162200927734375e+01 2.009695816040039062e+01 3.795993924140930176e-01 2.782681226730346680e+00 9.486841559410095215e-01 -6.261193752288818359e-01
3.167000000000000000e+03 6.499435424804687500e+01 1.154467010498046875e+01 6.853331327438354492e-01 2.035665035247802734e+00 8.162994384765625000e-01 -7.120059132575988770e-01
3.168000000000000000e+03 6.409539031982421875e+01 8.372804641723632812e+00 7.464979887008666992e-01 1.456618666648864746e+00 6.609349846839904785e-01 -6.089157462120056152e-01
3.169000000000000000e+03 6.032847595214843750e+01 3.893713951110839844e+00 3.534582555294036865e-01 4.123372733592987061e-01 2.297386527061462402e-01 3.834798559546470642e-02
3.170000000000000000e+03 6.698358917236328125e+01 1.275743675231933594e+01 6.017697453498840332e-01 2.581448316574096680e+00 9.549654126167297363e-01 -8.418788909912109375e-01
3.171000000000000000e+03 2.613800621032714844e+01 2.418706512451171875e+01 3.036187589168548584e-01 -3.002549409866333008e-01 1.009147148579359055e-03 3.198339045047760010e-01
3.172000000000000000e+03 6.671192932128906250e+01 1.593558883666992188e+01 5.032248497009277344e-01 2.707107543945312500e+00 9.630997180938720703e-01 -7.400768399238586426e-01
3.173000000000000000e+03 4.017372512817382812e+01 -7.074007511138916016e+00 -5.630434751510620117e-01 1.497839391231536865e-01 -1.239778697490692139e-01 1.986275464296340942e-01
3.174000000000000000e+03 4.192950820922851562e+01 -5.959994792938232422e+00 -6.023795604705810547e-01 1.556392461061477661e-01 -1.340221017599105835e-01 2.421802133321762085e-01
3.175000000000000000e+03 3.516201019287109375e+01 4.829138278961181641e+00 -2.366535216569900513e-01 7.173645496368408203e-02 -4.947511851787567139e-02 4.016584157943725586e-01
3.176000000000000000e+03 3.485095596313476562e+01 5.652768611907958984e+00 -2.066434919834136963e-01 6.224991753697395325e-02 -4.331807047128677368e-02 4.328656494617462158e-01
3.177000000000000000e+03 6.666716003417968750e+01 1.810497856140136719e+01 4.388563334941864014e-01 2.740392923355102539e+00 9.537748098373413086e-01 -6.845865845680236816e-01
3.178000000000000000e+03 3.441680145263671875e+01 1.732753181457519531e+01 1.584519743919372559e-01 5.815165862441062927e-02 6.498108804225921631e-02 3.185078501701354980e-01
3.179000000000000000e+03 4.404760742187500000e+01 -6.069878578186035156e+00 -6.513323783874511719e-01 1.755475252866744995e-01 -1.427354514598846436e-01 2.414839714765548706e-01
3.180000000000000000e+03 3.423469543457031250e+01 1.354092121124267578e+01 -1.853231340646743774e-02 6.598863005638122559e-02 1.423689536750316620e-02 4.791675508022308350e-01
3.181000000000000000e+03 6.639646911621093750e+01 2.586236763000488281e+01 3.108152449131011963e-01 2.791837215423583984e+00 9.307957291603088379e-01 -4.898198544979095459e-01
3.182000000000000000e+03 6.431203460693359375e+01 2.524876403808593750e+01 3.749069571495056152e-01 2.471268177032470703e+00 8.538525700569152832e-01 -4.828040599822998047e-01
3.183000000000000000e+03 6.246662139892578125e+01 2.253529739379882812e+01 4.309593737125396729e-01 2.147516012191772461e+00 7.735426425933837891e-01 -5.112397074699401855e-01
3.184000000000000000e+03 3.863817596435546875e+01 -8.065060377120971680e-01 -4.300457537174224854e-01 1.095726415514945984e-01 -9.614192694425582886e-02 2.830963730812072754e-01
3.185000000000000000e+03 1.687410545349121094e+01 2.438713073730468750e+01 1.028435081243515015e-01 -1.646394431591033936e-01 -1.853878237307071686e-02 3.307442367076873779e-01
3.186000000000000000e+03 1.621990013122558594e+01 2.676437568664550781e+01 9.292365610599517822e-02 -2.464136928319931030e-01 -4.604700952768325806e-02 2.678776085376739502e-01
3.187000000000000000e+03 4.658408737182617188e+01 3.294108963012695312e+01 5.604916214942932129e-01 7.434871196746826172e-01 3.911936283111572266e-01 3.336019441485404968e-02
3.188000000000000000e+03 4.277577209472656250e+01 3.301147460937500000e+01 5.255577564239501953e-01 5.352694988250732422e-01 3.182481825351715088e-01 7.585914433002471924e-02
3.189000000000000000e+03 3.178650283813476562e+01 -6.419678688049316406e+00 -4.830166399478912354e-01 9.141165018081665039e-02 -1.174814999103546143e-01 2.389474958181381226e-01
3.190000000000000000e+03 3.455815887451171875e+01 -9.457426071166992188e+00 -4.610161483287811279e-01 9.414552897214889526e-02 -1.100611910223960876e-01 2.001768648624420166e-01
3.191000000000000000e+03 3.336951065063476562e+01 -8.894125938415527344e+00 -4.588558673858642578e-01 8.873952180147171021e-02 -1.110349074006080627e-01 2.157213985919952393e-01
3.192000000000000000e+03 3.215748596191406250e+01 -7.135803699493408203e+00 -4.800981581211090088e-01 8.807100355625152588e-02 -1.176081448793411255e-01 2.360902428627014160e-01
3.193000000000000000e+03 3.296511459350585938e+01 -8.365023612976074219e+00 -4.679026007652282715e-01 8.695909380912780762e-02 -1.142830476164817810e-01 2.245241254568099976e-01
3.194000000000000000e+03 2.924299812316894531e+01 -4.844067096710205078e+00 -5.056759119033813477e-01 6.333643943071365356e-02 -1.327018439769744873e-01 2.493881434202194214e-01
3.195000000000000000e+03 3.132126808166503906e+01 -5.713063716888427734e+00 -4.887713491916656494e-01 8.670361340045928955e-02 -1.206203177571296692e-01 2.402354180812835693e-01
3.196000000000000000e+03 3.010304450988769531e+01 -1.359167695045471191e+00 -3.964525163173675537e-01 7.595601677894592285e-02 -9.614895284175872803e-02 2.064185142517089844e-01
3.197000000000000000e+03 3.636366271972656250e+01 -9.193226814270019531e+00 -4.935625195503234863e-01 1.166789680719375610e-01 -1.130650639533996582e-01 1.859389692544937134e-01
3.198000000000000000e+03 3.479891204833984375e+01 -8.564769744873046875e+00 -4.811420738697052002e-01 1.093115732073783875e-01 -1.115491539239883423e-01 2.049138993024826050e-01
3.199000000000000000e+03 6.702033233642578125e+01 7.414478302001953125e+00 7.299101948738098145e-01 2.089366674423217773e+00 8.457830548286437988e-01 -9.964619278907775879e-01
3.200000000000000000e+03 3.822500228881835938e+01 -8.061971664428710938e+00 -5.236631631851196289e-01 1.336265802383422852e-01 -1.170109808444976807e-01 1.906634122133255005e-01
3.201000000000000000e+03 3.912582778930664062e+01 -7.349741935729980469e+00 -5.520962476730346680e-01 1.422004401683807373e-01 -1.229687482118606567e-01 2.049860060214996338e-01
3.202000000000000000e+03 2.879234313964843750e+01 -7.377269864082336426e-02 -3.298230171203613281e-01 5.874528363347053528e-02 -8.132331818342208862e-02 1.802158653736114502e-01
3.203000000000000000e+03 6.741210937500000000e+01 4.728268146514892578e+00 6.543740630149841309e-01 1.882850885391235352e+00 7.611674666404724121e-01 -1.115673184394836426e+00
3.204000000000000000e+03 6.511318206787109375e+01 2.079805135726928711e+00 4.215252995491027832e-01 6.506845355033874512e-01 3.216629624366760254e-01 -6.301823258399963379e-01
3.205000000000000000e+03 6.664755249023437500e+01 3.181949853897094727e+00 5.778555870056152344e-01 1.309966564178466797e+00 5.663466453552246094e-01 -9.672389030456542969e-01
3.206000000000000000e+03 6.953188323974609375e+01 -4.444461464881896973e-01 -3.536692121997475624e-03 2.132712602615356445e+00 6.387527585029602051e-01 -1.603974580764770508e+00
3.207000000000000000e+03 6.534941864013671875e+01 5.632924556732177734e+00 7.114606499671936035e-01 1.354785561561584473e+00 6.198738813400268555e-01 -7.753363847732543945e-01
3.208000000000000000e+03 3.474695205688476562e+01 1.910686302185058594e+01 2.345280349254608154e-01 7.377079874277114868e-02 9.248965233564376831e-02 2.552890777587890625e-01
3.209000000000000000e+03 6.620027923583984375e+01 1.050858116149902344e+01 6.962601542472839355e-01 2.217058897018432617e+00 8.739957213401794434e-01 -8.409265279769897461e-01
3.210000000000000000e+03 4.248293685913085938e+01 -1.922469377517700195e+00 -5.017792582511901855e-01 1.156991273164749146e-01 -1.158240363001823425e-01 3.174068927764892578e-01
3.211000000000000000e+03 3.601565170288085938e+01 1.179557681083679199e+00 -3.576406538486480713e-01 9.113377332687377930e-02 -7.995206117630004883e-02 2.981308400630950928e-01
3.212000000000000000e+03 3.617890930175781250e+01 2.231357574462890625e+00 -3.277783989906311035e-01 8.846960961818695068e-02 -7.179263979196548462e-02 3.177714645862579346e-01
3.213000000000000000e+03 4.385409927368164062e+01 -4.186007976531982422e+00 -6.012566089630126953e-01 1.525632739067077637e-01 -1.346080005168914795e-01 2.982943654060363770e-01
3.214000000000000000e+03 6.959635925292968750e+01 6.614455223083496094e+00 6.203445792198181152e-01 3.015277862548828125e+00 1.090686678886413574e+00 -1.320550799369812012e+00
3.215000000000000000e+03 6.707650756835937500e+01 5.688941001892089844e+00 7.133798599243164062e-01 1.890180945396423340e+00 7.810682654380798340e-01 -1.059537410736083984e+00
3.216000000000000000e+03 4.000099182128906250e+01 -5.809823989868164062e+00 -5.589421987533569336e-01 1.457796841859817505e-01 -1.239487528800964355e-01 2.358920127153396606e-01
3.217000000000000000e+03 4.263830566406250000e+01 -5.734244346618652344e+00 -6.042525768280029297e-01 1.603452861309051514e-01 -1.331721842288970947e-01 2.412918210029602051e-01
3.218000000000000000e+03 6.430844879150390625e+01 1.384101629257202148e+00 2.118355035781860352e-01 3.143194019794464111e-01 1.578464806079864502e-01 -3.901024162769317627e-01
3.219000000000000000e+03 3.307614135742187500e+01 3.029790163040161133e+00 -2.190239727497100830e-01 2.698093093931674957e-02 -5.761291086673736572e-02 3.152961730957031250e-01
3.220000000000000000e+03 3.603369903564453125e+01 1.991473960876464844e+01 2.824139297008514404e-01 1.513201445341110229e-01 1.301202178001403809e-01 2.278567403554916382e-01
3.221000000000000000e+03 6.608876037597656250e+01 8.415856361389160156e+00 7.335258126258850098e-01 1.948486804962158203e+00 8.046038150787353516e-01 -8.602827787399291992e-01
3.222000000000000000e+03 6.362063598632812500e+01 3.938235282897949219e+00 5.582894086837768555e-01 6.904872655868530273e-01 3.746330142021179199e-01 -4.290607869625091553e-01
3.223000000000000000e+03 6.432503509521484375e+01 6.522295951843261719e+00 7.226545214653015137e-01 1.243606805801391602e+00 5.898783802986145020e-01 -6.230237483978271484e-01
3.224000000000000000e+03 4.359244918823242188e+01 -2.506877660751342773e+00 -5.313394069671630859e-01 1.229294091463088989e-01 -1.225229948759078979e-01 3.373279571533203125e-01
3.225000000000000000e+03 4.203387832641601562e+01 -3.148114204406738281e+00 -5.373012423515319824e-01 1.302124857902526855e-01 -1.221266165375709534e-01 3.026795089244842529e-01
3.226000000000000000e+03 3.724391174316406250e+01 -1.588328927755355835e-01 -4.014140069484710693e-01 1.046761944890022278e-01 -8.902134746313095093e-02 2.820144593715667725e-01
3.227000000000000000e+03 4.133586502075195312e+01 -4.887811660766601562e+00 -5.557419061660766602e-01 1.417505294084548950e-01 -1.241974160075187683e-01 2.634615898132324219e-01
3.228000000000000000e+03 1.369367504119873047e+01 2.542333412170410156e+01 7.387209683656692505e-02 -2.752260267734527588e-01 -6.040618196129798889e-02 2.201154977083206177e-01
3.229000000000000000e+03 2.955832862854003906e+01 -6.189240217208862305e-01 -3.638421297073364258e-01 6.252580136060714722e-02 -9.039489924907684326e-02 1.905997693538665771e-01
3.230000000000000000e+03 3.038859176635742188e+01 -9.595661610364913940e-02 -3.268498182296752930e-01 5.928147584199905396e-02 -8.027050644159317017e-02 2.025951296091079712e-01
3.231000000000000000e+03 6.274486923217773438e+01 4.776837348937988281e+00 5.633797049522399902e-01 7.270429134368896484e-01 3.871267735958099365e-01 -3.252029418945312500e-01
3.232000000000000000e+03 6.218987655639648438e+01 2.477330923080444336e+00 2.720183730125427246e-01 2.864057421684265137e-01 1.675272285938262939e-01 -9.838567674160003662e-02
3.233000000000000000e+03 6.598279571533203125e+01 2.121888351440429688e+01 3.763079047203063965e-01 2.665999174118041992e+00 9.126921296119689941e-01 -5.899194478988647461e-01
3.234000000000000000e+03 2.745806503295898438e+01 2.327032089233398438e+01 2.968949377536773682e-01 -3.024040460586547852e-01 -1.652732142247259617e-03 2.927801012992858887e-01
3.235000000000000000e+03 2.737352371215820312e+01 2.581676864624023438e+01 3.292838335037231445e-01 -2.316078096628189087e-01 2.930280752480030060e-02 2.722629606723785400e-01
3.236000000000000000e+03 3.686014938354492188e+01 7.269310951232910156e-01 -3.820161223411560059e-01 1.005122959613800049e-01 -8.445114642381668091e-02 2.931635081768035889e-01
3.237000000000000000e+03 1.691222000122070312e+01 2.957740402221679688e+01 1.200139522552490234e-01 -2.897433638572692871e-01 -5.091882497072219849e-02 2.397937029600143433e-01
3.238000000000000000e+03 6.436460113525390625e+01 2.271647644042968750e+01 3.955359756946563721e-01 2.446692466735839844e+00 8.526685237884521484e-01 -5.453971624374389648e-01
3.239000000000000000e+03 1.810601615905761719e+01 3.291814804077148438e+01 1.555512547492980957e-01 -3.078608512878417969e-01 -4.569287970662117004e-02 1.862860471010208130e-01
3.240000000000000000e+03 6.647041320800781250e+01 1.387250995635986328e+01 5.718659758567810059e-01 2.543153047561645508e+00 9.345057010650634766e-01 -7.676276564598083496e-01
3.241000000000000000e+03 6.384217834472656250e+01 2.780926895141601562e+01 3.650417923927307129e-01 2.421951055526733398e+00 8.360978364944458008e-01 -4.082413017749786377e-01
3.242000000000000000e+03 3.058278656005859375e+01 2.662864685058593750e+01 3.594806194305419922e-01 -1.081364005804061890e-01 7.540327310562133789e-02 2.055664211511611938e-01
3.243000000000000000e+03 3.357597732543945312e+01 2.030307197570800781e+01 2.472702115774154663e-01 1.105203060433268547e-03 7.451262325048446655e-02 2.272220104932785034e-01
3.244000000000000000e+03 6.532952880859375000e+01 3.131547927856445312e+01 3.001571893692016602e-01 2.653754949569702148e+00 8.861736655235290527e-01 -3.273033499717712402e-01
3.245000000000000000e+03 6.096536254882812500e+01 2.951428985595703125e+01 4.432470202445983887e-01 2.018582582473754883e+00 7.385489344596862793e-01 -3.259009420871734619e-01
3.246000000000000000e+03 7.092269134521484375e+01 -3.830996322631835938e+01 5.132848024368286133e-01 4.438035011291503906e+00 1.485395908355712891e+00 3.247686326503753662e-01
3.247000000000000000e+03 7.533267211914062500e+01 -3.748364639282226562e+01 9.805951267480850220e-02 6.836694240570068359e+00 2.080426216125488281e+00 1.974864751100540161e-01
3.248000000000000000e+03 3.287392425537109375e+01 -6.686283111572265625e+00 -4.817302525043487549e-01 1.029332578182220459e-01 -1.136391013860702515e-01 2.325958013534545898e-01
3.249000000000000000e+03 3.211425018310546875e+01 -5.032213687896728516e+00 -4.809470176696777344e-01 1.017665490508079529e-01 -1.137541383504867554e-01 2.330996692180633545e-01
3.250000000000000000e+03 3.319850158691406250e+01 -7.272367000579833984e+00 -4.840668141841888428e-01 1.011043414473533630e-01 -1.148887351155281067e-01 2.266454398632049561e-01
3.251000000000000000e+03 3.600125503540039062e+01 -8.028042793273925781e+00 -4.992798864841461182e-01 1.216935664415359497e-01 -1.132758930325508118e-01 2.020584195852279663e-01
3.252000000000000000e+03 3.387601089477539062e+01 -9.239622116088867188e+00 -4.603469669818878174e-01 9.206499904394149780e-02 -1.104845851659774780e-01 2.051579803228378296e-01
3.253000000000000000e+03 6.614927673339843750e+01 6.574805259704589844e+00 7.343910932540893555e-01 1.737812995910644531e+00 7.416612505912780762e-01 -8.960914611816406250e-01
3.254000000000000000e+03 2.999571228027343750e+01 -4.308267116546630859e+00 -4.925609827041625977e-01 7.806323468685150146e-02 -1.243493258953094482e-01 2.361473441123962402e-01
3.255000000000000000e+03 3.281000518798828125e+01 -4.181962013244628906e+00 -4.724101722240447998e-01 1.065624728798866272e-01 -1.097543165087699890e-01 2.308571785688400269e-01
3.256000000000000000e+03 2.989793014526367188e+01 -2.898827075958251953e+00 -4.584526717662811279e-01 7.964683324098587036e-02 -1.136417537927627563e-01 2.177574783563613892e-01
3.257000000000000000e+03 3.736817550659179688e+01 -7.454165935516357422e+00 -5.195086002349853516e-01 1.338656842708587646e-01 -1.156928837299346924e-01 2.030039131641387939e-01
3.258000000000000000e+03 3.026698684692382812e+01 -2.134868860244750977e+00 -4.321044087409973145e-01 8.223087340593338013e-02 -1.049620658159255981e-01 2.113645225763320923e-01
3.259000000000000000e+03 3.084914398193359375e+01 -1.058556437492370605e+00 -3.857285380363464355e-01 7.564529776573181152e-02 -9.302496910095214844e-02 2.106699496507644653e-01
3.260000000000000000e+03 3.559582901000976562e+01 -6.891066074371337891e+00 -4.989129304885864258e-01 1.231898814439773560e-01 -1.127169132232666016e-01 2.159648090600967407e-01
3.261000000000000000e+03 3.744710922241210938e+01 -1.144333243370056152e+00 -4.342800974845886230e-01 1.099870353937149048e-01 -9.728791564702987671e-02 2.768234610557556152e-01
3.262000000000000000e+03 3.509425735473632812e+01 -8.766732811927795410e-01 -3.975513279438018799e-01 9.945192188024520874e-02 -8.942981809377670288e-02 2.560240328311920166e-01
3.263000000000000000e+03 6.590158081054687500e+01 2.675787687301635742e+00 4.878906309604644775e-01 9.740762710571289062e-01 4.385900795459747314e-01 -8.299636840820312500e-01
3.264000000000000000e+03 6.637258148193359375e+01 4.970045089721679688e+00 6.679933071136474609e-01 1.481019377708435059e+00 6.447038054466247559e-01 -9.239235520362854004e-01
3.265000000000000000e+03 4.098476791381835938e+01 -3.022345781326293945e+00 -5.096701979637145996e-01 1.275227516889572144e-01 -1.146442368626594543e-01 2.823530733585357666e-01
3.266000000000000000e+03 3.983946228027343750e+01 -3.145341634750366211e+00 -5.082833766937255859e-01 1.276260316371917725e-01 -1.141972094774246216e-01 2.762214541435241699e-01
3.267000000000000000e+03 6.659442901611328125e+01 1.800836324691772461e+00 4.407447278499603271e-01 9.755834937095642090e-01 4.248984456062316895e-01 -9.504608511924743652e-01
3.268000000000000000e+03 3.216826629638671875e+01 1.633864760398864746e+00 -2.581431865692138672e-01 3.844903036952018738e-02 -6.590824574232101440e-02 2.596834599971771240e-01
3.269000000000000000e+03 3.338452529907226562e+01 1.943127989768981934e+00 -2.640535235404968262e-01 4.713136702775955200e-02 -6.507664918899536133e-02 2.894888520240783691e-01
3.270000000000000000e+03 3.450247573852539062e+01 2.293984222412109375e+01 3.304511606693267822e-01 7.730762660503387451e-02 1.223276332020759583e-01 1.917350143194198608e-01
3.271000000000000000e+03 6.361626052856445312e+01 2.360468864440917969e+00 3.531339168548583984e-01 4.012580811977386475e-01 2.263175994157791138e-01 -3.300503492355346680e-01
3.272000000000000000e+03 3.749595260620117188e+01 -2.249051809310913086e+00 -4.545263051986694336e-01 1.198441460728645325e-01 -1.004046499729156494e-01 2.611049115657806396e-01
3.273000000000000000e+03 4.298041915893554688e+01 -3.575733184814453125e+00 -5.724608302116394043e-01 1.472799926996231079e-01 -1.275542527437210083e-01 2.971137166023254395e-01
3.274000000000000000e+03 6.353560256958007812e+01 5.618739128112792969e+00 6.802467107772827148e-01 9.776799082756042480e-01 4.973779916763305664e-01 -4.815230667591094971e-01
3.275000000000000000e+03 3.882769012451171875e+01 -6.101345062255859375e+00 -5.315804481506347656e-01 1.418455839157104492e-01 -1.169204637408256531e-01 2.201585173606872559e-01
3.276000000000000000e+03 6.931172943115234375e+01 1.414705181121826172e+01 4.704673290252685547e-01 3.219818115234375000e+00 1.107085704803466797e+00 -8.987582325935363770e-01
3.277000000000000000e+03 3.386547088623046875e+01 2.760194206237792969e+01 3.899793028831481934e-01 6.415166705846786499e-02 1.362392902374267578e-01 1.698780655860900879e-01
3.278000000000000000e+03 2.618391799926757812e+01 2.853949737548828125e+01 3.237420916557312012e-01 -2.111554145812988281e-01 3.377600386738777161e-02 2.577342092990875244e-01
3.279000000000000000e+03 6.597724151611328125e+01 2.265575218200683594e+01 3.657048940658569336e-01 2.707354784011840820e+00 9.219179153442382812e-01 -5.720883607864379883e-01
3.280000000000000000e+03 3.514052581787109375e+01 -7.659668922424316406e+00 -4.894472360610961914e-01 1.152463480830192566e-01 -1.122602671384811401e-01 2.146556079387664795e-01
3.281000000000000000e+03 3.616455078125000000e+01 -5.528872013092041016e-01 -4.054478406906127930e-01 1.022743806242942810e-01 -9.095203876495361328e-02 2.734290063381195068e-01
3.282000000000000000e+03 3.992613983154296875e+01 -1.835229873657226562e+00 -4.644704461097717285e-01 1.127068325877189636e-01 -1.055290848016738892e-01 2.859119474887847900e-01
3.283000000000000000e+03 6.284324264526367188e+01 3.201933860778808594e+00 3.904252052307128906e-01 4.815092384815216064e-01 2.615803480148315430e-01 -2.493625134229660034e-01
3.284000000000000000e+03 3.248196792602539062e+01 5.846587419509887695e-01 -3.087790012359619141e-01 5.964203551411628723e-02 -7.474109530448913574e-02 2.464406341314315796e-01
3.285000000000000000e+03 1.777047348022460938e+01 2.764215660095214844e+01 1.290185004472732544e-01 -2.493105381727218628e-01 -3.608760982751846313e-02 2.912988662719726562e-01
3.286000000000000000e+03 6.235494995117187500e+01 2.486829566955566406e+01 4.249643683433532715e-01 2.171837568283081055e+00 7.790406346321105957e-01 -4.678382873535156250e-01
3.287000000000000000e+03 4.185388183593750000e+01 -3.478878021240234375e+01 -5.131157860159873962e-02 -1.135220676660537720e-01 -4.945009574294090271e-02 -1.402354240417480469e-01
3.288000000000000000e+03 6.163672256469726562e+01 3.302087783813476562e+01 3.926182687282562256e-01 2.172600030899047852e+00 7.695654630661010742e-01 -2.313517332077026367e-01
3.289000000000000000e+03 4.861324691772460938e+01 2.688360404968261719e+01 5.797156691551208496e-01 6.760111451148986816e-01 3.767180442810058594e-01 7.045689225196838379e-02
3.290000000000000000e+03 2.240633392333984375e+01 -4.129171752929687500e+01 -5.903666839003562927e-03 3.883145749568939209e-03 -6.061563617549836636e-04 1.604984048753976822e-03
3.291000000000000000e+03 2.722410202026367188e+01 -4.115521621704101562e+01 -1.198224537074565887e-02 9.692381718195974827e-04 -3.303902223706245422e-03 1.349481870420277119e-03
3.292000000000000000e+03 3.576607894897460938e+01 -5.292567729949951172e+00 -4.944336712360382080e-01 1.291221380233764648e-01 -1.095934584736824036e-01 2.263233959674835205e-01
3.293000000000000000e+03 3.866030120849609375e+01 -4.727368354797363281e+00 -5.215981006622314453e-01 1.358136832714080811e-01 -1.157353296875953674e-01 2.464355826377868652e-01
3.294000000000000000e+03 3.462398147583007812e+01 -3.213273286819458008e+00 -4.588390886783599854e-01 1.137576848268508911e-01 -1.035244166851043701e-01 2.395231425762176514e-01
3.295000000000000000e+03 3.356899642944335938e+01 -3.534882307052612305e+00 -4.566731750965118408e-01 1.109385490417480469e-01 -1.037203893065452576e-01 2.299975305795669556e-01
3.296000000000000000e+03 3.400315475463867188e+01 -8.520211219787597656e+00 -4.750030338764190674e-01 9.858982264995574951e-02 -1.129239574074745178e-01 2.154669612646102905e-01
3.297000000000000000e+03 3.228033447265625000e+01 -2.729258537292480469e+00 -4.394542872905731201e-01 1.001723930239677429e-01 -1.017845645546913147e-01 2.245212197303771973e-01
3.298000000000000000e+03 3.068422508239746094e+01 -3.584442615509033203e+00 -4.685064554214477539e-01 9.094015508890151978e-02 -1.132698953151702881e-01 2.255830615758895874e-01
3.299000000000000000e+03 3.590114593505859375e+01 -4.263585090637207031e+00 -4.824400246143341064e-01 1.236835494637489319e-01 -1.076269373297691345e-01 2.398032248020172119e-01
3.300000000000000000e+03 3.111781501770019531e+01 -2.048861980438232422e+00 -4.225804209709167480e-01 8.732064068317413330e-02 -1.005779355764389038e-01 2.177570760250091553e-01
3.301000000000000000e+03 3.595793533325195312e+01 3.029576539993286133e-01 -3.738657534122467041e-01 9.336920082569122314e-02 -8.414896577596664429e-02 2.776618599891662598e-01
3.302000000000000000e+03 3.476547622680664062e+01 -5.441769123077392578e+00 -4.899240136146545410e-01 1.191115826368331909e-01 -1.112437322735786438e-01 2.297621071338653564e-01
3.303000000000000000e+03 3.634718704223632812e+01 -1.458454251289367676e+00 -4.265469014644622803e-01 1.119588091969490051e-01 -9.437642991542816162e-02 2.604402303695678711e-01
3.304000000000000000e+03 3.641365814208984375e+01 -7.163203716278076172e+00 -5.038246512413024902e-01 1.256588548421859741e-01 -1.134497374296188354e-01 2.149016559123992920e-01
3.305000000000000000e+03 3.369876861572265625e+01 -7.818137168884277344e+00 -4.748831093311309814e-01 1.015740633010864258e-01 -1.119927093386650085e-01 2.193240225315093994e-01
3.306000000000000000e+03 3.361462020874023438e+01 8.799913525581359863e-01 -3.226372897624969482e-01 6.996142864227294922e-02 -7.580275833606719971e-02 2.699435353279113770e-01
3.307000000000000000e+03 4.173621368408203125e+01 -4.123031616210937500e+00 -5.585263967514038086e-01 1.469679623842239380e-01 -1.234675273299217224e-01 2.702116370201110840e-01
3.308000000000000000e+03 3.436677932739257812e+01 -7.079895019531250000e+00 -4.902954995632171631e-01 1.129270717501640320e-01 -1.132105290889739990e-01 2.221341133117675781e-01
3.309000000000000000e+03 3.866460800170898438e+01 -2.059813499450683594e+00 -4.677927494049072266e-01 1.166964471340179443e-01 -1.053288877010345459e-01 2.757232189178466797e-01
3.310000000000000000e+03 3.988166427612304688e+01 -4.454572200775146484e+00 -5.251004099845886230e-01 1.384485960006713867e-01 -1.159955486655235291e-01 2.511695325374603271e-01
3.311000000000000000e+03 3.767184448242187500e+01 -6.290372848510742188e+00 -5.204338431358337402e-01 1.335758715867996216e-01 -1.160573884844779968e-01 2.225841432809829712e-01
3.312000000000000000e+03 3.630171203613281250e+01 2.228913879394531250e+01 3.381464183330535889e-01 1.973043233156204224e-01 1.606352329254150391e-01 1.841437518596649170e-01
3.313000000000000000e+03 3.508897781372070312e+01 2.482295417785644531e+01 3.638949394226074219e-01 1.162145212292671204e-01 1.440328359603881836e-01 1.680474281311035156e-01
3.314000000000000000e+03 6.527448272705078125e+01 3.682721376419067383e+00 6.063396930694580078e-01 1.013300776481628418e+00 4.858921468257904053e-01 -7.253633141517639160e-01
3.315000000000000000e+03 4.986524581909179688e+01 3.175077056884765625e+01 5.793813467025756836e-01 9.058906435966491699e-01 4.455815851688385010e-01 -1.480180490761995316e-02
3.316000000000000000e+03 5.982150268554687500e+01 3.180929565429687500e+01 4.583872854709625244e-01 1.897961735725402832e+00 7.069047093391418457e-01 -2.780626416206359863e-01
3.317000000000000000e+03 3.368142318725585938e+01 -4.491038322448730469e+00 -4.771039783954620361e-01 1.127493381500244141e-01 -1.093063876032829285e-01 2.326889932155609131e-01
3.318000000000000000e+03 3.205670166015625000e+01 -1.753080368041992188e+00 -4.133602976799011230e-01 9.000051766633987427e-02 -9.700793027877807617e-02 2.259771227836608887e-01
3.319000000000000000e+03 3.142801284790039062e+01 -2.969463348388671875e+00 -4.508186578750610352e-01 9.159675240516662598e-02 -1.077665686607360840e-01 2.219869941473007202e-01
3.320000000000000000e+03 3.277048873901367188e+01 -4.541561007499694824e-01 -3.654359877109527588e-01 8.002692461013793945e-02 -8.562272042036056519e-02 2.388152778148651123e-01
3.321000000000000000e+03 3.491180801391601562e+01 9.322406351566314697e-02 -3.737860321998596191e-01 9.085755795240402222e-02 -8.487854152917861938e-02 2.699061632156372070e-01
3.322000000000000000e+03 3.405292129516601562e+01 -1.190796017646789551e+00 -4.039084017276763916e-01 9.667222201824188232e-02 -9.217084944248199463e-02 2.465560138225555420e-01
3.323000000000000000e+03 3.363429260253906250e+01 -6.597543239593505859e+00 -4.854918420314788818e-01 1.080002710223197937e-01 -1.132474690675735474e-01 2.281208336353302002e-01
3.324000000000000000e+03 3.669094467163085938e+01 -5.322794914245605469e+00 -5.003198385238647461e-01 1.273450106382369995e-01 -1.118924468755722046e-01 2.315389513969421387e-01
3.325000000000000000e+03 3.647135162353515625e+01 -2.372194766998291016e+00 -4.518854320049285889e-01 1.152429506182670593e-01 -1.009927392005920410e-01 2.581914961338043213e-01
3.326000000000000000e+03 3.176462554931640625e+01 -7.492051124572753906e-01 -3.665151596069335938e-01 7.646948099136352539e-02 -8.701370656490325928e-02 2.213418781757354736e-01
3.327000000000000000e+03 3.279292678833007812e+01 2.550749588012695312e+01 3.640034794807434082e-01 -1.241040416061878204e-02 1.054779291152954102e-01 1.898398846387863159e-01
3.328000000000000000e+03 3.326159667968750000e+01 -2.551041841506958008e+00 -4.396093189716339111e-01 1.033738851547241211e-01 -1.008706316351890564e-01 2.339968234300613403e-01
3.329000000000000000e+03 3.626712799072265625e+01 -3.272597789764404297e+00 -4.680980145931243896e-01 1.225039437413215637e-01 -1.036782190203666687e-01 2.438730746507644653e-01
3.330000000000000000e+03 3.531027984619140625e+01 -1.814213275909423828e+00 -4.302790462970733643e-01 1.070933416485786438e-01 -9.695570915937423706e-02 2.525166571140289307e-01
3.331000000000000000e+03 3.382831573486328125e+01 -1.692769229412078857e-01 -3.601338565349578857e-01 8.378268778324127197e-02 -8.290535211563110352e-02 2.534242570400238037e-01
3.332000000000000000e+03 3.664814758300781250e+01 -6.238699913024902344e+00 -5.054521560668945312e-01 1.325275748968124390e-01 -1.118773818016052246e-01 2.190745472908020020e-01
3.333000000000000000e+03 3.758304977416992188e+01 -5.118463039398193359e+00 -5.051793456077575684e-01 1.354590952396392822e-01 -1.109160631895065308e-01 2.329277098178863525e-01
3.334000000000000000e+03 3.477612686157226562e+01 -4.308497905731201172e+00 -4.746653139591217041e-01 1.205236241221427917e-01 -1.062425002455711365e-01 2.332925796508789062e-01
3.335000000000000000e+03 3.303379821777343750e+01 -1.486808776855468750e+00 -4.002432823181152344e-01 9.375340491533279419e-02 -9.194695949554443359e-02 2.326278239488601685e-01
3.336000000000000000e+03 3.586722946166992188e+01 2.688183975219726562e+01 3.946026265621185303e-01 1.764932125806808472e-01 1.713287532329559326e-01 1.481041610240936279e-01
3.337000000000000000e+03 3.558996200561523438e+01 -2.736709117889404297e+00 -4.497812092304229736e-01 1.172864139080047607e-01 -9.974844008684158325e-02 2.448332011699676514e-01
3.338000000000000000e+03 3.500865173339843750e+01 -6.372581481933593750e+00 -4.897764921188354492e-01 1.211148947477340698e-01 -1.105984821915626526e-01 2.216559499502182007e-01
3.339000000000000000e+03 3.430212402343750000e+01 -2.193241834640502930e+00 -4.275153875350952148e-01 1.071346625685691833e-01 -9.611421823501586914e-02 2.398217767477035522e-01
3.340000000000000000e+03 3.017266654968261719e+01 2.119398689270019531e+01 2.505653500556945801e-01 -2.060006409883499146e-01 1.336941495537757874e-02 2.342378050088882446e-01
3.341000000000000000e+03 2.905401992797851562e+01 2.468944168090820312e+01 3.312828242778778076e-01 -1.994246095418930054e-01 3.955746442079544067e-02 2.434672415256500244e-01
3.342000000000000000e+03 3.711145782470703125e+01 3.284502029418945312e+01 4.673043787479400635e-01 2.465733736753463745e-01 2.141633331775665283e-01 1.000915616750717163e-01
3.343000000000000000e+03 3.007234001159667969e+01 2.304205322265625000e+01 3.064129948616027832e-01 -1.857333779335021973e-01 3.620387986302375793e-02 2.337606400251388550e-01
3.344000000000000000e+03 2.961932754516601562e+01 3.032280731201171875e+01 3.743084371089935303e-01 -9.325954318046569824e-02 8.431466668844223022e-02 1.855906844139099121e-01
3.345000000000000000e+03 2.847307968139648438e+01 2.782759094238281250e+01 3.481164276599884033e-01 -1.639814674854278564e-01 5.524048954248428345e-02 2.294266670942306519e-01
3.346000000000000000e+03 2.385290908813476562e+01 3.419346237182617188e+01 2.808669507503509521e-01 -2.077966332435607910e-01 2.192109078168869019e-02 1.693399697542190552e-01
3.347000000000000000e+03 5.405218887329101562e+01 3.211114120483398438e+01 5.614603757858276367e-01 1.309243917465209961e+00 5.612112879753112793e-01 -1.236244812607765198e-01
3.348000000000000000e+03 5.459054565429687500e+01 2.861043930053710938e+01 5.767785906791687012e-01 1.257937431335449219e+00 5.504148006439208984e-01 -1.932206302881240845e-01
3.349000000000000000e+03 6.299670410156250000e+01 3.765177917480468750e+01 3.483227193355560303e-01 2.363272905349731445e+00 8.134787082672119141e-01 -1.330016851425170898e-01
3.350000000000000000e+03 3.114061927795410156e+01 3.331966781616210938e+01 4.046518206596374512e-01 3.637714544311165810e-03 1.224868595600128174e-01 1.301074475049972534e-01
3.351000000000000000e+03 5.921450424194335938e+01 3.421726989746093750e+01 4.576506912708282471e-01 1.895974040031433105e+00 7.060874104499816895e-01 -1.902310401201248169e-01
3.352000000000000000e+03 5.136788177490234375e+01 3.460181808471679688e+01 5.715090632438659668e-01 1.105166912078857422e+00 5.030027627944946289e-01 -4.262999072670936584e-02
3.353000000000000000e+03 2.375733566284179688e+01 2.863193130493164062e+01 2.777980268001556396e-01 -2.392026782035827637e-01 1.157860644161701202e-02 2.936163842678070068e-01
3.354000000000000000e+03 2.217971611022949219e+01 2.531150817871093750e+01 2.362272441387176514e-01 -2.615256011486053467e-01 -7.589507382363080978e-03 3.896562755107879639e-01
3.355000000000000000e+03 1.958366012573242188e+01 2.828318405151367188e+01 1.676150858402252197e-01 -2.445993721485137939e-01 -2.309528551995754242e-02 3.039731383323669434e-01
3.356000000000000000e+03 1.762017250061035156e+01 -4.119895935058593750e+01 -2.429165644571185112e-03 1.797401928342878819e-03 -1.895290915854275227e-04 9.319014498032629490e-05
3.357000000000000000e+03 1.376765060424804688e+01 -3.790011978149414062e+01 -6.176016759127378464e-04 7.317004492506384850e-04 3.422962254262529314e-05 7.307121413759887218e-04
3.358000000000000000e+03 1.802085113525390625e+01 -3.852423477172851562e+01 -2.064910950139164925e-03 2.125489059835672379e-03 1.817342672438826412e-05 1.816977397538721561e-03
3.359000000000000000e+03 1.682592582702636719e+01 3.567518234252929688e+01 1.427212059497833252e-01 -3.536249697208404541e-01 -6.327113509178161621e-02 1.234477534890174866e-01
3.360000000000000000e+03 5.259198379516601562e+01 -4.073636245727539062e+01 6.742368340492248535e-01 -6.991052031517028809e-01 -7.460520137101411819e-03 -1.236031204462051392e-01
3.361000000000000000e+03 4.970399475097656250e+01 -3.636875152587890625e+01 2.321950346231460571e-01 -6.231173276901245117e-01 -1.172766759991645813e-01 -3.843742907047271729e-01
3.362000000000000000e+03 5.831945419311523438e+01 -3.572521591186523438e+01 6.838360428810119629e-01 -2.998780310153961182e-01 1.151873990893363953e-01 -2.430621385574340820e-01
3.363000000000000000e+03 2.566643142700195312e+01 2.653809547424316406e+01 3.076790273189544678e-01 -2.474923729896545410e-01 1.805599406361579895e-02 2.935976088047027588e-01
3.364000000000000000e+03 2.128978347778320312e+01 3.106663513183593750e+01 2.247139811515808105e-01 -2.508150637149810791e-01 -7.830322720110416412e-03 2.441345602273941040e-01
3.365000000000000000e+03 3.203955459594726562e+01 -4.108491897583007812e+01 -1.873537525534629822e-02 -1.121129747480154037e-02 -8.984001353383064270e-03 2.498722169548273087e-03
3.366000000000000000e+03 6.180563354492187500e+01 -3.790041351318359375e+01 9.046987295150756836e-01 5.871698856353759766e-01 4.475605785846710205e-01 5.304627120494842529e-02
3.367000000000000000e+03 5.869705581665039062e+01 3.729880142211914062e+01 4.501590430736541748e-01 1.869365930557250977e+00 6.958574652671813965e-01 -1.101487725973129272e-01
3.368000000000000000e+03 5.777908325195312500e+01 3.097702598571777344e+01 5.022831559181213379e-01 1.686372518539428711e+00 6.565967202186584473e-01 -2.521717250347137451e-01
3.369000000000000000e+03 4.232348251342773438e+01 3.652930831909179688e+01 5.349305868148803711e-01 5.270941853523254395e-01 3.186074197292327881e-01 5.184472352266311646e-02
3.370000000000000000e+03 3.223138046264648438e+01 3.685422515869140625e+01 4.232744574546813965e-01 5.636306107044219971e-02 1.438912600278854370e-01 7.900435477495193481e-02
3.371000000000000000e+03 1.980975532531738281e+01 3.684092712402343750e+01 1.953455209732055664e-01 -2.949329614639282227e-01 -2.987623028457164764e-02 1.160623207688331604e-01
3.372000000000000000e+03 2.347961616516113281e+01 3.735622024536132812e+01 2.672925293445587158e-01 -2.119516879320144653e-01 1.660224609076976776e-02 1.038967818021774292e-01
3.373000000000000000e+03 2.074384117126464844e+01 3.378061294555664062e+01 2.156940400600433350e-01 -2.676109969615936279e-01 -1.557508297264575958e-02 1.785625666379928589e-01
3.374000000000000000e+03 2.071222114562988281e+01 2.670547103881835938e+01 1.975495964288711548e-01 -2.440255880355834961e-01 -1.394279580563306808e-02 3.525652885437011719e-01
3.375000000000000000e+03 3.990009689331054688e+01 3.173060417175292969e+01 4.793282449245452881e-01 3.935616910457611084e-01 2.618669867515563965e-01 1.147708818316459656e-01
3.376000000000000000e+03 5.629354476928710938e+01 3.354230880737304688e+01 5.274938344955444336e-01 1.551735162734985352e+00 6.237686872482299805e-01 -1.535203903913497925e-01
3.377000000000000000e+03 5.440165328979492188e+01 3.663817977905273438e+01 5.369048714637756348e-01 1.384348869323730469e+00 5.763761401176452637e-01 -7.533122599124908447e-02
3.378000000000000000e+03 1.897751617431640625e+01 3.047473907470703125e+01 1.662731319665908813e-01 -2.764472663402557373e-01 -3.305223584175109863e-02 2.461894601583480835e-01
3.379000000000000000e+03 4.732896041870117188e+01 3.630234146118164062e+01 5.669816136360168457e-01 8.435195684432983398e-01 4.231503605842590332e-01 6.120184436440467834e-03
3.380000000000000000e+03 2.640732383728027344e+01 -1.767584419250488281e+01 -4.428992724569980055e-06 1.545563804938865360e-06 -8.650286531519668642e-07 -6.531551207444863394e-06
3.381000000000000000e+03 2.569843482971191406e+01 -1.739976501464843750e+01 1.503056182627915405e-06 3.262095106038032100e-06 1.429545363862416707e-06 1.206065826409030706e-05
3.382000000000000000e+03 2.821483802795410156e+01 -1.458171653747558594e+01 -1.672141849994659424e-01 -6.848485767841339111e-02 -7.070971280336380005e-02 1.448841243982315063e-01
3.383000000000000000e+03 7.276444244384765625e+01 -1.448067569732666016e+01 2.168217599391937256e-01 1.526479125022888184e+00 5.229902863502502441e-01 8.991276025772094727e-01
3.384000000000000000e+03 7.360749053955078125e+01 -1.440983772277832031e+01 6.196899414062500000e-01 2.910158634185791016e+00 1.058954596519470215e+00 2.248383045196533203e+00
3.385000000000000000e+03 7.517845153808593750e+01 -1.392376708984375000e+01 4.911568462848663330e-01 1.019957447052001953e+01 3.207219362258911133e+00 5.839814662933349609e+00
3.386000000000000000e+03 7.602862548828125000e+01 -1.391775417327880859e+01 -1.923102259635925293e+00 1.846926879882812500e+01 4.963850021362304688e+00 3.247359752655029297e+00
3.387000000000000000e+03 7.624341583251953125e+01 -1.389886760711669922e+01 -2.006120443344116211e+00 1.939378356933593750e+01 5.216299057006835938e+00 1.906223058700561523e+00
3.388000000000000000e+03 7.751690673828125000e+01 -1.359660339355468750e+01 9.731955528259277344e-01 1.637821006774902344e+01 5.205421924591064453e+00 -3.570399522781372070e+00
3.389000000000000000e+03 7.747440338134765625e+01 -1.295327758789062500e+01 4.587505817413330078e+00 1.586066341400146484e+01 6.134450435638427734e+00 -3.303405761718750000e+00
3.390000000000000000e+03 7.736442565917968750e+01 -1.150744533538818359e+01 4.801250457763671875e+00 1.677618026733398438e+01 6.473228931427001953e+00 3.541510343551635742e+00
3.391000000000000000e+03 7.739631652832031250e+01 -1.059088802337646484e+01 2.585469186305999756e-01 1.625370407104492188e+01 4.953675270080566406e+00 3.136013984680175781e+00
3.392000000000000000e+03 7.593231201171875000e+01 -1.039236259460449219e+01 -1.749364256858825684e+00 1.719970703125000000e+01 4.635103225708007812e+00 -3.522005081176757812e+00
3.393000000000000000e+03 7.461850738525390625e+01 -1.041050910949707031e+01 1.024497032165527344e+00 6.275924205780029297e+00 2.190126419067382812e+00 -4.363178253173828125e+00
3.394000000000000000e+03 7.460018157958984375e+01 -1.063531208038330078e+01 1.470352292060852051e+00 5.579309940338134766e+00 2.114898681640625000e+00 -4.387326717376708984e+00
3.395000000000000000e+03 7.429743957519531250e+01 -1.036723423004150391e+01 1.099112153053283691e+00 4.579323291778564453e+00 1.703530669212341309e+00 -3.564997434616088867e+00
3.396000000000000000e+03 7.421808624267578125e+01 -1.061270141601562500e+01 1.302277207374572754e+00 3.675343513488769531e+00 1.493286252021789551e+00 -3.215190887451171875e+00
3.397000000000000000e+03 7.405335998535156250e+01 -9.948487281799316406e+00 6.867536306381225586e-01 4.673259735107421875e+00 1.608003973960876465e+00 -2.926712036132812500e+00
3.398000000000000000e+03 7.378122711181640625e+01 -1.009972476959228516e+01 7.146943807601928711e-01 3.424284934997558594e+00 1.241693854331970215e+00 -2.409081220626831055e+00
3.399000000000000000e+03 7.352599334716796875e+01 -1.018080615997314453e+01 6.213226914405822754e-01 2.605263948440551758e+00 9.679760336875915527e-01 -1.819953203201293945e+00
3.400000000000000000e+03 7.358183288574218750e+01 -1.055617046356201172e+01 5.500333905220031738e-01 2.024590730667114258e+00 7.723872661590576172e-01 -1.641340613365173340e+00
3.401000000000000000e+03 7.301778411865234375e+01 -1.033407020568847656e+01 1.867612153291702271e-01 1.467034101486206055e+00 4.961385726928710938e-01 -8.615485429763793945e-01
3.402000000000000000e+03 6.958744049072265625e+01 -1.022778129577636719e+01 -7.641773223876953125e-01 -2.935106456279754639e-01 -3.173063695430755615e-01 1.113684773445129395e+00
3.403000000000000000e+03 7.799376678466796875e+01 4.158145141601562500e+01 4.055827111005783081e-02 3.940491914749145508e+00 1.194315075874328613e+00 -1.137540861964225769e-02
3.404000000000000000e+03 8.110431671142578125e+00 -1.414361572265625000e+01 -1.432819699402898550e-04 -6.122883496573194861e-05 -6.135323928901925683e-05 -4.535960033535957336e-05
3.405000000000000000e+03 4.369505691528320312e+01 7.811639785766601562e+00 -3.885808587074279785e-01 -4.813500493764877319e-02 -1.310147643089294434e-01 2.631434500217437744e-01
3.406000000000000000e+03 4.406427383422851562e+01 1.825437927246093750e+01 4.817723929882049561e-01 8.373769521713256836e-01 3.957448005676269531e-01 4.393034577369689941e-01
3.407000000000000000e+03 5.610640716552734375e+01 1.567006015777587891e+01 3.802426159381866455e-01 1.206491231918334961e+00 4.760201573371887207e-01 -3.466388285160064697e-01
3.408000000000000000e+03 7.182665252685546875e+01 -1.507573223114013672e+01 -2.117930725216865540e-02 1.388718724250793457e+00 4.102618396282196045e-01 1.932563781738281250e-01
3.409000000000000000e+03 7.597007751464843750e+01 3.682281112670898438e+01 1.462546270340681076e-02 3.871355295181274414e+00 1.165794253349304199e+00 -6.275348365306854248e-02
3.410000000000000000e+03 7.090908813476562500e+01 -9.305184364318847656e+00 -7.777383327484130859e-01 7.191089987754821777e-01 -1.758880913257598877e-02 5.286129713058471680e-01
3.411000000000000000e+03 7.542815399169921875e+01 -1.450472736358642578e+01 -1.098123192787170410e+00 1.225170421600341797e+01 3.346074342727661133e+00 4.127878189086914062e+00
3.412000000000000000e+03 7.538202667236328125e+01 -1.507223320007324219e+01 -1.268188357353210449e+00 1.115738582611083984e+01 2.966759204864501953e+00 3.342913389205932617e+00
3.413000000000000000e+03 7.341996002197265625e+01 -1.487962150573730469e+01 5.412158966064453125e-01 3.340517997741699219e+00 1.164520144462585449e+00 2.061447620391845703e+00
3.414000000000000000e+03 7.403263854980468750e+01 -1.437744045257568359e+01 7.528834939002990723e-01 4.211487293243408203e+00 1.489311218261718750e+00 3.088608503341674805e+00
3.415000000000000000e+03 7.442700195312500000e+01 -1.477545738220214844e+01 2.211212962865829468e-01 6.564764976501464844e+00 2.035765886306762695e+00 3.640739679336547852e+00
3.416000000000000000e+03 7.577732086181640625e+01 -1.467867946624755859e+01 -1.922477483749389648e+00 1.410846519470214844e+01 3.655796527862548828e+00 3.121110200881958008e+00
3.417000000000000000e+03 7.641101837158203125e+01 -1.458416938781738281e+01 -2.291752099990844727e+00 1.631002044677734375e+01 4.205480575561523438e+00 6.736748218536376953e-01
3.418000000000000000e+03 7.736625671386718750e+01 -1.424063205718994141e+01 -1.143395304679870605e+00 1.573172187805175781e+01 4.376498222351074219e+00 -2.619102716445922852e+00
3.419000000000000000e+03 7.805259704589843750e+01 -1.330586814880371094e+01 1.910246253013610840e+00 1.259681606292724609e+01 4.352118968963623047e+00 -3.449011325836181641e+00
3.420000000000000000e+03 7.831375122070312500e+01 -1.197353458404541016e+01 4.003848552703857422e+00 1.000950527191162109e+01 4.204006195068359375e+00 7.619233727455139160e-01
3.421000000000000000e+03 7.436674499511718750e+01 -1.014189910888671875e+01 7.734924554824829102e-01 5.776623249053955078e+00 1.965034723281860352e+00 -3.796647548675537109e+00
3.422000000000000000e+03 7.482486724853515625e+01 -1.035643386840820312e+01 7.985000014305114746e-01 7.940858840942382812e+00 2.621807813644409180e+00 -4.889259815216064453e+00
3.423000000000000000e+03 7.504114532470703125e+01 -1.040333366394042969e+01 4.858970046043395996e-01 9.295845031738281250e+00 2.934522390365600586e+00 -5.209018707275390625e+00
3.424000000000000000e+03 7.603522491455078125e+01 -9.977785110473632812e+00 -2.066547870635986328e+00 1.572051906585693359e+01 4.096191406250000000e+00 -2.431184291839599609e+00
3.425000000000000000e+03 7.687296295166015625e+01 -1.042561912536621094e+01 -1.305399894714355469e+00 1.841185188293457031e+01 5.131935596466064453e+00 1.495735168457031250e+00
3.426000000000000000e+03 4.457065200805664062e+01 4.380854606628417969e+00 -3.361913859844207764e-01 -1.123924106359481812e-01 -1.345751285552978516e-01 2.897119224071502686e-01
3.427000000000000000e+03 7.774158477783203125e+01 -1.161174678802490234e+01 4.534902572631835938e+00 1.424004936218261719e+01 5.632485866546630859e+00 2.861813306808471680e+00
3.428000000000000000e+03 7.775688171386718750e+01 -1.209251499176025391e+01 5.469033241271972656e+00 1.322140312194824219e+01 5.607131004333496094e+00 5.188315510749816895e-01
3.429000000000000000e+03 7.776090240478515625e+01 -1.184995555877685547e+01 4.865877628326416016e+00 1.342212677001953125e+01 5.486401557922363281e+00 1.775901079177856445e+00
3.430000000000000000e+03 7.805785369873046875e+01 -1.183420181274414062e+01 3.689848899841308594e+00 1.138197135925292969e+01 4.521546363830566406e+00 1.125296354293823242e+00
3.431000000000000000e+03 7.811534118652343750e+01 -1.151216411590576172e+01 2.599815845489501953e+00 1.163046836853027344e+01 4.269085407257080078e+00 2.406550407409667969e+00
3.432000000000000000e+03 7.840462493896484375e+01 -1.272960948944091797e+01 2.212819576263427734e+00 1.025929069519042969e+01 3.741632938385009766e+00 -1.003095269203186035e+00
3.433000000000000000e+03 7.892686462402343750e+01 -1.221760082244873047e+01 2.052214860916137695e+00 7.154849529266357422e+00 2.762119293212890625e+00 -2.781147360801696777e-01
3.434000000000000000e+03 7.843383789062500000e+01 -1.232275772094726562e+01 3.740303039550781250e+00 9.456880569458007812e+00 3.959155082702636719e+00 2.461765408515930176e-01
3.435000000000000000e+03 5.634970855712890625e+01 1.285213088989257812e+01 1.914944946765899658e-01 1.294560194015502930e+00 4.458163976669311523e-01 -4.856757819652557373e-02
3.436000000000000000e+03 7.365097045898437500e+01 -9.709379196166992188e+00 4.629871845245361328e-01 3.820125818252563477e+00 1.284933924674987793e+00 -2.277985334396362305e+00
3.437000000000000000e+03 1.841280746459960938e+01 1.875828361511230469e+01 2.208334207534790039e-01 1.171165928244590759e-01 1.013850048184394836e-01 4.881917834281921387e-01
3.438000000000000000e+03 3.988059997558593750e+01 1.267899894714355469e+01 1.046556308865547180e-01 3.554710149765014648e-01 1.380379945039749146e-01 5.264112353324890137e-01
3.439000000000000000e+03 2.622571563720703125e+01 -3.342098999023437500e+01 7.018845528364181519e-03 -5.848879227414727211e-04 1.930187223479151726e-03 4.897186066955327988e-03
3.440000000000000000e+03 7.243775177001953125e+01 -1.552488231658935547e+01 2.261711508035659790e-01 2.427437305450439453e+00 7.960824966430664062e-01 9.006677865982055664e-01
3.441000000000000000e+03 7.616078948974609375e+01 -1.458183288574218750e+01 -2.203761816024780273e+00 1.550778579711914062e+01 3.991207122802734375e+00 1.840400576591491699e+00
3.442000000000000000e+03 7.455223083496093750e+01 -1.021778964996337891e+01 8.479124307632446289e-01 6.333147048950195312e+00 2.154317855834960938e+00 -4.142732620239257812e+00
3.443000000000000000e+03 7.804573822021484375e+01 -1.645105934143066406e+01 -1.103093504905700684e+00 1.168874645233154297e+01 3.175695896148681641e+00 -1.423071742057800293e+00
3.444000000000000000e+03 7.702084350585937500e+01 -1.698536109924316406e+01 -1.500060796737670898e+00 1.140862655639648438e+01 2.972569704055786133e+00 -2.128126472234725952e-01
3.445000000000000000e+03 7.795256805419921875e+01 -1.122834587097167969e+01 2.260747194290161133e+00 1.289271640777587891e+01 4.546039104461669922e+00 3.263534069061279297e+00
3.446000000000000000e+03 3.101678133010864258e+00 -3.623430490493774414e+00 1.074635929398937151e-05 4.201818228466436267e-06 4.484453256736742333e-06 3.499994636513292789e-05
3.447000000000000000e+03 7.085413932800292969e+00 -4.039800167083740234e+00 -1.374879229842917994e-05 -2.510387093934696168e-05 -1.165579942608019337e-05 -2.979182863782625645e-05
3.448000000000000000e+03 7.719863128662109375e+01 -7.365974903106689453e+00 -1.352067708969116211e+00 1.134446716308593750e+01 2.997720003128051758e+00 2.348762601613998413e-01
3.449000000000000000e+03 4.334011077880859375e+01 2.400247383117675781e+01 4.305471181869506836e-01 5.337134003639221191e-01 2.892781496047973633e-01 2.224422693252563477e-01
3.450000000000000000e+03 2.391516685485839844e+01 3.130716705322265625e+01 2.836035192012786865e-01 -2.205387502908706665e-01 1.891943253576755524e-02 2.276938706636428833e-01
3.451000000000000000e+03 4.413497543334960938e+01 1.990890622138977051e+00 -3.630332648754119873e-01 -4.802930634468793869e-04 -1.090540662407875061e-01 3.668986260890960693e-01
3.452000000000000000e+03 7.049800109863281250e+01 -1.623734664916992188e+01 -3.164767324924468994e-01 1.177218437194824219e+00 2.582225203514099121e-01 -2.903797328472137451e-01
3.453000000000000000e+03 7.140804290771484375e+01 -1.662179565429687500e+01 -7.565168291330337524e-02 2.175077438354492188e+00 6.298277378082275391e-01 3.378216922283172607e-01
3.454000000000000000e+03 4.894055938720703125e+01 2.235014724731445312e+01 6.130263209342956543e-01 4.599706530570983887e-01 3.218990862369537354e-01 1.366409361362457275e-01
3.455000000000000000e+03 7.483422851562500000e+01 -1.578947257995605469e+01 -8.301045298576354980e-01 8.571043014526367188e+00 2.322281599044799805e+00 2.706416845321655273e+00
3.456000000000000000e+03 7.549621582031250000e+01 -1.577125549316406250e+01 -1.545182466506958008e+00 1.087810420989990234e+01 2.799876451492309570e+00 2.155265569686889648e+00
3.457000000000000000e+03 2.225717163085937500e+01 1.944066619873046875e+01 1.994213461875915527e-01 -4.218028485774993896e-01 -6.671445071697235107e-02 5.145186781883239746e-01
3.458000000000000000e+03 7.294075775146484375e+01 -1.589389705657958984e+01 2.150414437055587769e-01 3.574066162109375000e+00 1.136732220649719238e+00 1.428607463836669922e+00
3.459000000000000000e+03 7.373522186279296875e+01 -1.566615486145019531e+01 1.010658591985702515e-01 5.106547355651855469e+00 1.562283992767333984e+00 2.296505212783813477e+00
3.460000000000000000e+03 3.300542354583740234e+00 -5.006774902343750000e+00 1.237268588738515973e-05 2.503026189515367150e-05 1.122088451666058972e-05 3.378113251528702676e-05
3.461000000000000000e+03 1.632448005676269531e+01 -7.500497341156005859e+00 -3.377772009116597474e-05 3.967932570958510041e-06 -8.942935892264358699e-06 -1.120669821830233559e-05
3.462000000000000000e+03 1.232067489624023438e+01 -5.442875862121582031e+00 -1.800211066438350827e-05 -2.285636219312436879e-05 -1.225754203915130347e-05 2.550455519667593762e-06
3.463000000000000000e+03 3.792334079742431641e+00 -4.128254413604736328e+00 3.544047331160982139e-06 2.612494972709100693e-05 8.900698958314023912e-06 3.603072764235548675e-05
3.464000000000000000e+03 4.193567657470703125e+01 6.429016113281250000e+00 -3.881210386753082275e-01 9.132301807403564453e-02 -8.903940767049789429e-02 2.878212332725524902e-01
3.465000000000000000e+03 4.365830898284912109e+00 4.792505264282226562e+00 -9.663251787424087524e-02 -5.929197371006011963e-02 -4.677734896540641785e-02 8.895628154277801514e-02
3.466000000000000000e+03 7.632804870605468750e+01 -7.921091079711914062e+00 -1.825208544731140137e+00 1.142622566223144531e+01 2.880305290222167969e+00 -6.272069811820983887e-01
3.467000000000000000e+03 2.480110549926757812e+01 -3.426778030395507812e+01 4.163923207670450211e-03 7.666232704650610685e-05 1.272175693884491920e-03 4.892482887953519821e-03
3.468000000000000000e+03 6.647525787353515625e+01 -2.920935249328613281e+01 1.652379333972930908e-01 1.579099535942077637e+00 5.233012437820434570e-01 4.157333672046661377e-01
3.469000000000000000e+03 6.546958160400390625e+01 -3.083609580993652344e+01 3.371794819831848145e-01 1.340343594551086426e+00 5.032569169998168945e-01 3.233861327171325684e-01
3.470000000000000000e+03 1.880543708801269531e+01 -3.403302383422851562e+01 8.408355643041431904e-04 2.003472473006695509e-04 3.123548522125929594e-04 2.454424742609262466e-03
3.471000000000000000e+03 7.651268005371093750e+01 -1.764034271240234375e+01 -1.197780370712280273e+00 1.051274967193603516e+01 2.794490814208984375e+00 3.296574354171752930e-01
3.472000000000000000e+03 4.781556606292724609e+00 -9.093542098999023438e+00 8.047193114180117846e-05 -4.440925067683565430e-07 2.400835001026280224e-05 -1.091895956051303074e-05
3.473000000000000000e+03 3.395262145996093750e+01 3.145049858093261719e+01 4.322091937065124512e-01 1.063030585646629333e-01 1.615536808967590332e-01 1.359506696462631226e-01
3.474000000000000000e+03 7.298479461669921875e+01 -9.338129997253417969e+00 9.405866265296936035e-02 2.828269958496093750e+00 8.766985535621643066e-01 -1.279356718063354492e+00
3.475000000000000000e+03 7.331739044189453125e+01 -9.131959915161132812e+00 -4.417656734585762024e-02 3.790759801864624023e+00 1.123974919319152832e+00 -1.822164773941040039e+00
3.476000000000000000e+03 2.712604713439941406e+01 2.133114576339721680e+00 -1.341580897569656372e-01 3.375357389450073242e-02 -3.012135624885559082e-02 1.387073397636413574e-01
3.477000000000000000e+03 1.603706169128417969e+01 2.003085517883300781e+01 1.510778516530990601e-01 4.631057754158973694e-02 5.921652913093566895e-02 2.872385382652282715e-01
3.478000000000000000e+03 7.299130249023437500e+01 -8.723954200744628906e+00 -1.457513123750686646e-01 3.678061485290527344e+00 1.059693098068237305e+00 -1.462244868278503418e+00
3.479000000000000000e+03 7.311814117431640625e+01 -9.614590644836425781e+00 2.387131601572036743e-01 2.733557939529418945e+00 8.916813135147094727e-01 -1.482920289039611816e+00
3.480000000000000000e+03 4.104727554321289062e+01 6.484164714813232422e+00 -3.808090686798095703e-01 1.347883343696594238e-01 -7.380621880292892456e-02 3.099914789199829102e-01
3.481000000000000000e+03 5.107933807373046875e+01 -3.298495864868164062e+01 -2.160711437463760376e-01 -6.443910598754882812e-01 -2.581386566162109375e-01 -5.933493375778198242e-01
3.482000000000000000e+03 2.936631774902343750e+01 1.168283271789550781e+01 -2.289958596229553223e-01 -2.038475573062896729e-01 -1.298530250787734985e-01 5.548358559608459473e-01
3.483000000000000000e+03 7.143119812011718750e+01 -1.747129631042480469e+01 -1.272971630096435547e-01 2.680658817291259766e+00 7.660084962844848633e-01 5.066436529159545898e-01
3.484000000000000000e+03 7.225308990478515625e+01 -1.687619018554687500e+01 1.455832738429307938e-03 3.337127447128295898e+00 1.001574993133544922e+00 9.263493418693542480e-01
3.485000000000000000e+03 4.004914093017578125e+01 5.983104705810546875e+00 -3.621406555175781250e-01 1.611448824405670166e-01 -6.029873341321945190e-02 3.348575830459594727e-01
3.486000000000000000e+03 7.266761779785156250e+01 -9.094824790954589844e+00 -1.589361727237701416e-01 2.587931871414184570e+00 7.286987304687500000e-01 -1.026770949363708496e+00
3.487000000000000000e+03 6.130849838256835938e+01 -2.860380744934082031e+01 -3.121704459190368652e-01 -5.882393717765808105e-01 -2.701229453086853027e-01 -4.204619526863098145e-01
3.488000000000000000e+03 6.068956375122070312e+01 -2.737450599670410156e+01 -8.252657055854797363e-01 -9.930190443992614746e-01 -5.454854369163513184e-01 -7.870129346847534180e-01
3.489000000000000000e+03 3.492190170288085938e+01 2.134018325805664062e+01 2.946404218673706055e-01 8.672935515642166138e-02 1.144109293818473816e-01 2.067777514457702637e-01
3.490000000000000000e+03 3.810234451293945312e+01 7.895493984222412109e+00 -2.649515271186828613e-01 2.126506567001342773e-01 -1.569026336073875427e-02 4.714494943618774414e-01
3.491000000000000000e+03 3.698223114013671875e+01 7.643229961395263672e+00 -2.381713688373565674e-01 1.575056612491607666e-01 -2.419971302151679993e-02 4.717860221862792969e-01
3.492000000000000000e+03 7.501905059814453125e+01 -7.127874374389648438e+00 -1.292641401290893555e+00 8.652785301208496094e+00 2.208043336868286133e+00 -1.601929187774658203e+00
3.493000000000000000e+03 5.356549453735351562e+01 2.739895057678222656e+01 5.853166580200195312e-01 1.093616247177124023e+00 5.036798715591430664e-01 -1.451256573200225830e-01
3.494000000000000000e+03 6.736006164550781250e+01 -2.769260025024414062e+01 5.176120251417160034e-02 1.853798031806945801e+00 5.716677904129028320e-01 4.668809473514556885e-01
3.495000000000000000e+03 6.061101150512695312e+01 -1.785188198089599609e+00 -1.043266177177429199e+00 -1.293446570634841919e-01 -3.517832458019256592e-01 4.547524750232696533e-01
3.496000000000000000e+03 6.565041351318359375e+01 -1.361431181430816650e-01 -1.672034338116645813e-02 1.978997439146041870e-01 5.435381829738616943e-02 -6.273958086967468262e-01
3.497000000000000000e+03 7.068019866943359375e+01 -1.956242752075195312e+01 -3.125587999820709229e-01 2.720159530639648438e+00 7.222802042961120605e-01 4.607304930686950684e-01
3.498000000000000000e+03 1.329873085021972656e+01 2.378412437438964844e+01 8.282345533370971680e-02 -2.509429454803466797e-01 -5.043584480881690979e-02 2.138464003801345825e-01
3.499000000000000000e+03 6.173288822174072266e+00 4.309186458587646484e+00 -1.564221382141113281e-01 -6.096405535936355591e-02 -6.521585583686828613e-02 1.101316958665847778e-01
3.500000000000000000e+03 7.679637908935546875e+00 -4.711653709411621094e+00 -3.354414729983545840e-05 -1.171552503365091980e-05 -1.357790188194485381e-05 -6.909543571964604780e-06
3.501000000000000000e+03 5.448907852172851562e+00 -1.987526893615722656e+01 1.541959063615649939e-04 2.590694020909722894e-05 5.403085378929972649e-05 -9.065306585398502648e-07
3.502000000000000000e+03 7.548162841796875000e+01 -1.752586364746093750e+01 -1.104590654373168945e+00 9.256592750549316406e+00 2.445600748062133789e+00 1.116332411766052246e+00
3.503000000000000000e+03 7.550688934326171875e+01 -1.660090827941894531e+01 -1.359495520591735840e+00 9.921849250793457031e+00 2.568706274032592773e+00 1.556465148925781250e+00
3.504000000000000000e+03 6.035123825073242188e+01 -3.169361495971679688e+01 2.078725248575210571e-01 -4.040766358375549316e-01 -5.886123701930046082e-02 -2.620147764682769775e-01
3.505000000000000000e+03 7.164056396484375000e+01 1.524692630767822266e+01 3.210714459419250488e-01 3.889655828475952148e+00 1.263218164443969727e+00 -8.348345756530761719e-01
3.506000000000000000e+03 7.030047893524169922e+00 2.912467384338378906e+01 1.550818048417568207e-02 -6.531537175178527832e-01 -1.912936568260192871e-01 7.684468477964401245e-02
3.507000000000000000e+03 7.195521545410156250e+01 -2.976370811462402344e+00 -5.598610639572143555e-01 3.914835453033447266e+00 1.006492257118225098e+00 -1.765188694000244141e+00
3.508000000000000000e+03 7.222425842285156250e+01 -1.839841270446777344e+01 -2.239716053009033203e-01 4.057426452636718750e+00 1.150036334991455078e+00 9.001012444496154785e-01
3.509000000000000000e+03 7.285958862304687500e+01 -1.776034164428710938e+01 -2.236694991588592529e-01 4.674495220184326172e+00 1.335247635841369629e+00 1.171458959579467773e+00
3.510000000000000000e+03 3.379764938354492188e+01 1.822352218627929688e+01 1.721113771200180054e-01 2.043788880109786987e-02 5.776477977633476257e-02 2.863306701183319092e-01
3.511000000000000000e+03 7.197621154785156250e+01 -7.306827068328857422e+00 -1.010482788085937500e+00 3.200933933258056641e+00 6.571353077888488770e-01 -1.021524429321289062e+00
3.512000000000000000e+03 7.509303283691406250e+01 -1.706557464599609375e+01 -1.069002628326416016e+00 8.855332374572753906e+00 2.335898876190185547e+00 1.601718544960021973e+00
3.513000000000000000e+03 7.571636199951171875e+01 -1.986336898803710938e+01 -4.984135925769805908e-01 8.630600929260253906e+00 2.439656257629394531e+00 7.404024600982666016e-01
3.514000000000000000e+03 3.394906234741210938e+01 -1.290818309783935547e+01 -3.735739588737487793e-01 5.364692211151123047e-02 -9.597811102867126465e-02 1.506112664937973022e-01
3.515000000000000000e+03 6.888526153564453125e+01 2.290652513504028320e+00 4.536401033401489258e-01 2.114910840988159180e+00 7.705652713775634766e-01 -1.421661972999572754e+00
3.516000000000000000e+03 5.266358566284179688e+01 -5.155433177947998047e+00 -1.184770345687866211e+00 3.093369901180267334e-01 -2.626300156116485596e-01 2.502210140228271484e-01
3.517000000000000000e+03 5.258448791503906250e+01 -4.152300357818603516e+00 -1.074480772018432617e+00 3.194417953491210938e-01 -2.265117019414901733e-01 3.721318244934082031e-01
3.518000000000000000e+03 5.939520645141601562e+01 -5.399576187133789062e+00 -2.305344104766845703e+00 8.305186033248901367e-02 -6.666876673698425293e-01 1.068409979343414307e-01
3.519000000000000000e+03 4.655222702026367188e+01 -1.141559219360351562e+01 -7.338373661041259766e-01 1.186670437455177307e-01 -1.845510900020599365e-01 -1.250322069972753525e-02
3.520000000000000000e+03 3.299225997924804688e+01 9.419182777404785156e+00 -1.190537661314010620e-01 1.458810921758413315e-02 -3.133969753980636597e-02 5.548677444458007812e-01
3.521000000000000000e+03 3.677347183227539062e+01 4.286945819854736328e+00 -2.971658706665039062e-01 1.075742393732070923e-01 -5.687749385833740234e-02 3.753944635391235352e-01
3.522000000000000000e+03 6.574267578125000000e+01 1.281248664855957031e+01 6.389755606651306152e-01 2.297124624252319336e+00 8.808300495147705078e-01 -7.662693858146667480e-01
3.523000000000000000e+03 7.468464374542236328e+00 -5.354760169982910156e+00 6.363233842421323061e-05 -2.654607487784232944e-05 1.112587870011338964e-05 -9.733225851960014552e-06
3.524000000000000000e+03 1.093594264984130859e+01 -2.311492347717285156e+01 1.316257257713004947e-04 -1.395737490383908153e-04 -2.384406343480804935e-06 -5.782175503554753959e-05
3.525000000000000000e+03 1.162096881866455078e+01 -2.407081604003906250e+01 3.183650551363825798e-04 9.748650336405262351e-05 1.247554755536839366e-04 3.298218507552519441e-05
3.526000000000000000e+03 6.948015594482421875e+01 -2.718830490112304688e+01 8.965291827917098999e-02 3.117204904556274414e+00 9.620573520660400391e-01 7.283719182014465332e-01
3.527000000000000000e+03 6.183831405639648438e+01 5.556639671325683594e+00 6.121353507041931152e-01 7.233704328536987305e-01 4.006517231464385986e-01 -2.287366390228271484e-01
3.528000000000000000e+03 7.649839401245117188e+00 -2.626273345947265625e+01 2.980336430482566357e-04 8.138529665302485228e-05 1.138256848207674921e-04 1.903808297356590629e-04
3.529000000000000000e+03 7.304322052001953125e+01 -7.534486770629882812e+00 -7.692056298255920410e-01 4.664397716522216797e+00 1.168557643890380859e+00 -1.535549402236938477e+00
3.530000000000000000e+03 5.448050689697265625e+01 -1.144757032394409180e+00 -8.189502358436584473e-01 3.289866745471954346e-01 -1.469890624284744263e-01 5.274089574813842773e-01
3.531000000000000000e+03 7.356456756591796875e+01 -1.826411437988281250e+01 -3.651542067527770996e-01 5.880170822143554688e+00 1.654505014419555664e+00 1.243956446647644043e+00
3.532000000000000000e+03 7.285150909423828125e+01 -3.889549970626831055e+00 -7.124744057655334473e-01 4.985083580017089844e+00 1.281782746315002441e+00 -1.765104413032531738e+00
3.533000000000000000e+03 7.493057250976562500e+01 -1.919910812377929688e+01 -5.288679003715515137e-01 7.663928508758544922e+00 2.140518188476562500e+00 1.018041372299194336e+00
3.534000000000000000e+03 5.403955841064453125e+01 -2.523835897445678711e+00 -1.010317921638488770e+00 3.315678536891937256e-01 -2.036250382661819458e-01 4.532256126403808594e-01
3.535000000000000000e+03 6.691486358642578125e+01 2.185188484191894531e+01 3.527609407901763916e-01 2.885763883590698242e+00 9.715574383735656738e-01 -6.021227836608886719e-01
3.536000000000000000e+03 6.976467895507812500e+01 1.910718536376953125e+01 3.051434755325317383e-01 3.397784233093261719e+00 1.110878348350524902e+00 -6.871548295021057129e-01
3.537000000000000000e+03 7.279032897949218750e+01 -5.212656021118164062e+00 -8.699555397033691406e-01 4.886141777038574219e+00 1.204855799674987793e+00 -1.596462368965148926e+00
3.538000000000000000e+03 6.916807174682617188e+00 1.250197696685791016e+01 2.666712179780006409e-02 -3.956581056118011475e-01 -1.106972917914390564e-01 3.958948850631713867e-01
3.539000000000000000e+03 6.023442459106445312e+01 1.342633247375488281e+00 -1.575807034969329834e-01 1.399000883102416992e-01 -5.304182413965463638e-03 2.646452486515045166e-01
3.540000000000000000e+03 7.574741363525390625e+01 -2.068507003784179688e+01 -3.619892895221710205e-01 8.532423019409179688e+00 2.451130151748657227e+00 7.371950149536132812e-01
3.541000000000000000e+03 7.502937316894531250e+01 -2.078070640563964844e+01 -3.466646671295166016e-01 7.516159057617187500e+00 2.150848388671875000e+00 8.715862035751342773e-01
3.542000000000000000e+03 9.849416732788085938e+00 -2.361711502075195312e+01 1.920152135426178575e-04 6.135079456726089120e-05 7.600980461575090885e-05 4.691198410000652075e-05
3.543000000000000000e+03 8.860280036926269531e+00 -5.416270256042480469e+00 -4.524713403952773660e-06 3.187127731507644057e-05 8.203968718589749187e-06 3.446168193477205932e-05
3.544000000000000000e+03 7.107458496093750000e+01 4.412495613098144531e+00 4.726367294788360596e-01 3.581153631210327148e+00 1.216137170791625977e+00 -1.570100784301757812e+00
3.545000000000000000e+03 5.845151519775390625e+01 -2.082092046737670898e+00 -1.155058741569519043e+00 1.321628987789154053e-01 -3.068687617778778076e-01 4.665840566158294678e-01
3.546000000000000000e+03 6.839177703857421875e+01 2.036693572998046875e+01 3.289553225040435791e-01 3.137748241424560547e+00 1.040011048316955566e+00 -6.544846892356872559e-01
3.547000000000000000e+03 5.695573425292968750e+01 -3.108042001724243164e+00 -1.328567862510681152e+00 2.410728782415390015e-01 -3.262484967708587646e-01 3.948392570018768311e-01
3.548000000000000000e+03 4.946994400024414062e+01 -8.914408683776855469e+00 -9.646883010864257812e-01 1.881470978260040283e-01 -2.329623550176620483e-01 2.958366461098194122e-02
3.549000000000000000e+03 7.321667480468750000e+01 -2.032849311828613281e+01 -2.957826256752014160e-01 5.590480327606201172e+00 1.588409304618835449e+00 9.789224863052368164e-01
3.550000000000000000e+03 3.696836471557617188e+01 -4.455175876617431641e+00 -4.974196553230285645e-01 1.320107132196426392e-01 -1.096226871013641357e-01 2.382029742002487183e-01
3.551000000000000000e+03 3.859321212768554688e+01 -3.378856182098388672e+00 -4.889515340328216553e-01 1.282997429370880127e-01 -1.081955358386039734e-01 2.571515142917633057e-01
3.552000000000000000e+03 7.276902008056640625e+01 -2.743384742736816406e+01 1.213863864541053772e-01 5.431627750396728516e+00 1.665904164314270020e+00 9.067472815513610840e-01
3.553000000000000000e+03 4.802384185791015625e+01 -7.357260227203369141e+00 -8.706605434417724609e-01 2.188272774219512939e-01 -1.955499798059463501e-01 1.573874950408935547e-01
3.554000000000000000e+03 7.403549194335937500e+01 -2.579589271545410156e+01 3.781002014875411987e-02 6.458495616912841797e+00 1.948891758918762207e+00 8.974883556365966797e-01
3.555000000000000000e+03 7.417511749267578125e+01 -2.437830352783203125e+01 -2.646670490503311157e-02 6.520721912384033203e+00 1.948276638984680176e+00 9.254445433616638184e-01
3.556000000000000000e+03 2.860294532775878906e+01 -3.137680053710937500e+00 -4.886217415332794189e-01 6.643050163984298706e-02 -1.266573816537857056e-01 2.248736917972564697e-01
3.557000000000000000e+03 4.207521438598632812e+01 -5.214462280273437500e+00 -5.948739051818847656e-01 1.588177382946014404e-01 -1.308168470859527588e-01 2.470784038305282593e-01
3.558000000000000000e+03 4.105347824096679688e+01 -5.830688476562500000e+00 -5.765218138694763184e-01 1.558089703321456909e-01 -1.262138634920120239e-01 2.277626246213912964e-01
3.559000000000000000e+03 3.577658081054687500e+01 -6.166315078735351562e+00 -4.972379803657531738e-01 1.225845664739608765e-01 -1.123960241675376892e-01 2.254516631364822388e-01
3.560000000000000000e+03 3.206114196777343750e+01 -3.594557523727416992e+00 -4.628623723983764648e-01 1.013090610504150391e-01 -1.084659919142723083e-01 2.286720573902130127e-01
3.561000000000000000e+03 1.707021331787109375e+01 -4.268254280090332031e+00 -3.452856981311924756e-05 1.664525825617602095e-06 -9.859212696028407663e-06 2.210340880992589518e-06
3.562000000000000000e+03 1.621372604370117188e+01 -3.519178628921508789e+00 1.509360845375340432e-05 8.893415724742226303e-06 7.196107162599219009e-06 9.839457561611197889e-06
3.563000000000000000e+03 1.551975250244140625e+01 -3.071315765380859375e+00 -1.347305897070327774e-05 -1.075013915396993980e-05 -7.266959528351435438e-06 -7.520455710618989542e-06
3.564000000000000000e+03 1.743298530578613281e+01 -3.927525758743286133e+00 7.624288627994246781e-06 1.181683273898670450e-05 5.832336228195345029e-06 4.010137217846931890e-07
3.565000000000000000e+03 1.686964225769042969e+01 -3.746908664703369141e+00 2.837138026734464802e-06 -1.363489900541026145e-05 -3.239328407289576717e-06 -1.262906971533084288e-05
3.566000000000000000e+03 1.770870399475097656e+01 -3.523030519485473633e+00 -8.105382221401669085e-06 -1.656531094340607524e-05 -7.401207767543382943e-06 -1.002211774903116748e-05
3.567000000000000000e+03 1.647576141357421875e+01 -2.802853107452392578e+00 -9.570681868353858590e-06 -7.469426691386615857e-06 -5.112032795295817778e-06 -7.516607638535788283e-06
3.568000000000000000e+03 1.583880043029785156e+01 -2.393620014190673828e+00 5.037730716139776632e-06 5.309554126142757013e-06 3.104185452684760094e-06 3.842146725219208747e-06
3.569000000000000000e+03 1.709996223449707031e+01 -3.162671089172363281e+00 7.798601473041344434e-06 1.328754387941444293e-05 6.325843514787266031e-06 1.318616432399721816e-05
3.570000000000000000e+03 1.831673240661621094e+01 -5.410979747772216797e+00 -1.708334275463130325e-05 -8.046201401157304645e-06 -7.538863428635522723e-06 -6.685577318421564996e-06
3.571000000000000000e+03 1.916439056396484375e+01 -5.026451110839843750e+00 1.783717380021698773e-05 3.133412292299908586e-06 6.291175850492436439e-06 7.639260729774832726e-06
3.572000000000000000e+03 1.766269302368164062e+01 -4.787173271179199219e+00 2.117823350999969989e-05 4.748967512568924576e-06 7.778160579618997872e-06 2.740953050306416117e-06
3.573000000000000000e+03 1.960504913330078125e+01 -5.639448642730712891e+00 -1.309141316596651450e-05 -2.336942543479381129e-06 -4.628506758308503777e-06 -5.335724836186273023e-06
3.574000000000000000e+03 1.899693298339843750e+01 -6.071344852447509766e+00 1.580200660100672394e-05 7.347890914388699457e-06 6.944969300093362108e-06 8.784535566519480199e-06
3.575000000000000000e+03 1.877602386474609375e+01 -4.501259326934814453e+00 -1.773672011040616781e-05 -7.894947884778957814e-06 -7.689500307606067508e-06 -6.306959676294354722e-06
3.576000000000000000e+03 1.796581268310546875e+01 -4.379739761352539062e+00 -1.160243482445366681e-05 -9.267739187635015696e-06 -6.261052021727664396e-06 2.756913772827829234e-06
3.577000000000000000e+03 1.826732254028320312e+01 -3.990119457244873047e+00 1.003057604975765571e-05 1.284925747313536704e-05 6.863950147817377001e-06 6.499533810711000115e-06
3.578000000000000000e+03 1.856897354125976562e+01 -4.905802249908447266e+00 9.709169717098120600e-06 3.848949745588470250e-06 4.067435838805977255e-06 -2.169102344851125963e-06
3.579000000000000000e+03 2.053260231018066406e+01 -6.879840850830078125e+00 -1.592196895217057317e-05 -5.778050763183273375e-06 -6.510006187454564497e-06 -9.014619536173995584e-06
3.580000000000000000e+03 1.993260192871093750e+01 -7.313529014587402344e+00 1.990614691749215126e-05 2.817385393427684903e-06 6.817059784225421026e-06 8.010324563656467944e-06
3.581000000000000000e+03 1.952820014953613281e+01 -6.721570968627929688e+00 -2.036282239714637399e-05 -4.588995579979382455e-06 -7.485545665986137465e-06 -1.035966761264717206e-05
3.582000000000000000e+03 2.073616981506347656e+01 -8.501105308532714844e+00 2.162836244679056108e-05 2.495798753443523310e-06 7.237248155433917418e-06 7.613889465574175119e-06
3.583000000000000000e+03 2.033558845520019531e+01 -7.906519412994384766e+00 -2.035937541222665459e-05 -3.407108124520163983e-06 -7.129945061024045572e-06 -7.583680144307436422e-06
3.584000000000000000e+03 2.136049652099609375e+01 -8.103272438049316406e+00 -1.824853097787126899e-05 -5.466733909997856244e-06 -7.114579602784942836e-06 -9.721185051603242755e-06
3.585000000000000000e+03 2.011603736877441406e+01 -6.269954204559326172e+00 1.445313318981789052e-05 2.902211463151616044e-06 5.206603418628219515e-06 8.328710464411415160e-06
3.586000000000000000e+03 2.094775009155273438e+01 -7.490758895874023438e+00 1.723776949802413583e-05 5.490051535161910579e-06 6.818346719228429720e-06 9.439791028853505850e-06
3.587000000000000000e+03 2.211177825927734375e+01 -9.384786605834960938e+00 -1.916916880873031914e-05 -4.990848992747487500e-06 -7.248005658766487613e-06 -9.986142686102539301e-06
3.588000000000000000e+03 2.111507797241210938e+01 -9.119487762451171875e+00 -2.136203875124920160e-05 -2.511785851311287843e-06 -7.162147085182368755e-06 -7.893106158007867634e-06
3.589000000000000000e+03 2.147401618957519531e+01 -9.760485649108886719e+00 2.069564652629196644e-05 2.435786427668062970e-06 6.939430022612214088e-06 8.577910193707793951e-06
3.590000000000000000e+03 2.247536849975585938e+01 -1.003463172912597656e+01 1.863219040387775749e-05 5.228815098234917969e-06 7.158301741583272815e-06 9.942135875462554395e-06
3.591000000000000000e+03 2.219019126892089844e+01 -1.104334068298339844e+01 1.791905560821760446e-05 4.077353423781460151e-06 6.598922936973394826e-06 9.294190931541379541e-06
3.592000000000000000e+03 2.283775901794433594e+01 -1.068520069122314453e+01 -1.723661625874228776e-05 -5.062986019765958190e-06 -6.689880592603003606e-06 -9.446279364055953920e-06
3.593000000000000000e+03 2.174793815612792969e+01 -8.735008239746093750e+00 1.889698614832013845e-05 5.293297817843267694e-06 7.257085144374286756e-06 9.643184966989792883e-06
3.594000000000000000e+03 2.183270454406738281e+01 -1.040155124664306641e+01 -1.944471841852646321e-05 -3.007567102031316608e-06 -6.735685929015744478e-06 -9.095921086554881185e-06
3.595000000000000000e+03 2.319392776489257812e+01 -1.134591865539550781e+01 1.505045111116487533e-05 4.704554612544598058e-06 5.926501671638106927e-06 8.477852134092245251e-06
3.596000000000000000e+03 2.326423454284667969e+01 -1.306139087677001953e+01 -1.466255616833223030e-05 -3.749814140974194743e-06 -5.523711024579824880e-06 -5.956177119514904916e-06
3.597000000000000000e+03 2.254657173156738281e+01 -1.170469474792480469e+01 -1.597824848431628197e-05 -4.356563295004889369e-06 -6.100443442846881226e-06 -8.558351510146167129e-06
3.598000000000000000e+03 2.362532424926757812e+01 -1.373823738098144531e+01 1.458746010030154139e-05 2.019088469751295634e-06 4.981964593753218651e-06 6.232084160728845745e-06
3.599000000000000000e+03 2.390093421936035156e+01 -1.268251132965087891e+01 1.264558977709384635e-05 3.724173893715487793e-06 4.910928964818594977e-06 7.044961421343032271e-06
3.600000000000000000e+03 2.354633140563964844e+01 -1.201502132415771484e+01 -1.371337384625803679e-05 -4.411140707816230133e-06 -5.437354502646485344e-06 -7.419262601615628228e-06
3.601000000000000000e+03 2.425669479370117188e+01 -1.334930610656738281e+01 -1.231173428095644340e-05 -3.885091246047522873e-06 -4.859047294303309172e-06 -6.489491170214023441e-06
3.602000000000000000e+03 2.290430450439453125e+01 -1.238384914398193359e+01 1.452954165870323777e-05 4.682609869632869959e-06 5.763645731349242851e-06 7.635562724317423999e-06
3.603000000000000000e+03 2.466052436828613281e+01 -1.399974441528320312e+01 9.035029506776481867e-06 3.294150019428343512e-06 3.698753971548285335e-06 7.336480393860256299e-06
3.604000000000000000e+03 2.453465080261230469e+01 -1.509176063537597656e+01 1.221718321176012978e-05 4.534706931735854596e-06 5.025567133998265490e-06 1.066390268533723429e-05
3.605000000000000000e+03 2.502702331542968750e+01 -1.576423931121826172e+01 -1.092711045203031972e-05 -9.917170245898887515e-06 -6.253284027479821816e-06 -7.602115601912373677e-06
3.606000000000000000e+03 2.404776763916015625e+01 -1.441548252105712891e+01 -1.384892493661027402e-05 -8.989472917164675891e-07 -4.424361577548552305e-06 -8.184004400391131639e-06
3.607000000000000000e+03 2.511550712585449219e+01 -1.463246059417724609e+01 -7.146715233830036595e-06 -5.347085789253469557e-06 -3.748140443349257112e-06 -5.479841092892456800e-06
3.608000000000000000e+03 2.552395820617675781e+01 -1.643102645874023438e+01 1.018600414681714028e-05 4.795172571903094649e-06 4.494353106565540656e-06 4.590021944750333205e-06
3.609000000000000000e+03 2.604132461547851562e+01 -1.588424587249755859e+01 -8.542417162971105427e-06 -4.196343070361763239e-06 -3.821628069999860600e-06 -5.575073828367749229e-06
3.610000000000000000e+03 2.557597732543945312e+01 -1.526137638092041016e+01 6.891547400300623849e-06 3.991293397120898589e-06 3.264852239226456732e-06 4.906335107079939917e-06
3.611000000000000000e+03 2.685541343688964844e+01 -1.736337089538574219e+01 5.913378572586225346e-06 6.817283065174706280e-06 3.819198354904074222e-06 5.026038252253783867e-06
3.612000000000000000e+03 2.962472152709960938e+01 -1.787146186828613281e+01 3.615591822381247766e-06 8.844755029713269323e-06 3.738104169315192848e-06 7.193005785666173324e-06
3.613000000000000000e+03 2.734983825683593750e+01 -1.678857994079589844e+01 -4.474511570151662454e-06 -7.087252015480771661e-06 -3.468529030214995146e-06 -4.204351625958224759e-06
3.614000000000000000e+03 3.080405235290527344e+01 -1.850280952453613281e+01 3.059833716179127805e-06 1.033736339195456821e-06 1.228071027981059160e-06 6.767680815755738877e-07
3.615000000000000000e+03 3.130167770385742188e+01 -1.882423973083496094e+01 -4.216149989133555209e-07 6.239845333766425028e-07 6.071086033898609458e-08 5.614177212009963114e-07
3.616000000000000000e+03 3.019455528259277344e+01 -1.864775276184082031e+01 -4.334475306677632034e-06 -1.724793946777936071e-06 -1.817780685087200254e-06 -1.794395075194188394e-06
3.617000000000000000e+03 2.885134124755859375e+01 -1.756889533996582031e+01 -4.708865162683650851e-06 -5.145849627297138795e-06 -2.956414391519501805e-06 -5.913506811339175329e-06
3.618000000000000000e+03 2.758355712890625000e+01 -1.776513671875000000e+01 -8.411332601099275053e-06 -6.251239028642885387e-06 -4.398771579872118309e-06 -2.668966772034764290e-06
3.619000000000000000e+03 2.663327598571777344e+01 -1.639202117919921875e+01 3.958432444051140919e-06 5.698624136130092666e-06 2.897116928579634987e-06 7.524608918174635619e-06
3.620000000000000000e+03 2.613398170471191406e+01 -1.696289443969726562e+01 -2.386364485573722050e-06 -1.330197278548439499e-06 -1.114968540605332237e-06 -8.861163223627954721e-06
3.621000000000000000e+03 2.855906486511230469e+01 -1.814636802673339844e+01 2.332613576072617434e-06 1.391200754596866318e-07 7.415200684590672608e-07 2.801466962409904227e-06
3.622000000000000000e+03 3.022897911071777344e+01 -1.815928840637207031e+01 -5.257647444523172453e-06 -7.840681973902974278e-06 -3.929499143850989640e-06 -3.930443199351429939e-06
3.623000000000000000e+03 2.958772468566894531e+01 -1.828534126281738281e+01 4.335911398811731488e-06 3.438625526541727595e-06 2.332361191292875446e-06 -7.921859719317581039e-07
3.624000000000000000e+03 2.807311248779296875e+01 -1.718642997741699219e+01 6.036609647708246484e-06 4.822730261366814375e-06 3.257802063671988435e-06 4.413213446241570637e-06
3.625000000000000000e+03 2.805256843566894531e+01 -1.599539375305175781e+01 -1.317982077598571777e-01 -5.860622972249984741e-02 -5.712133273482322693e-02 9.433179348707199097e-02
3.626000000000000000e+03 2.771710586547851562e+01 -1.629158973693847656e+01 -1.281211376190185547e-01 -4.608368501067161560e-02 -5.226144939661026001e-02 7.898824661970138550e-02
3.627000000000000000e+03 3.209578704833984375e+01 -1.767966651916503906e+01 -1.836099177598953247e-01 -5.723111797124147415e-03 -5.679990723729133606e-02 7.049778848886489868e-02
3.628000000000000000e+03 2.906910705566406250e+01 -1.685614395141601562e+01 -1.552238762378692627e-01 -4.837571084499359131e-02 -6.107987463474273682e-02 8.970990777015686035e-02
3.629000000000000000e+03 3.341270828247070312e+01 -1.870440673828125000e+01 -1.499620676040649414e-01 2.147684805095195770e-03 -4.434431344270706177e-02 2.326941676437854767e-02
3.630000000000000000e+03 2.706196594238281250e+01 -1.589187431335449219e+01 -8.813777565956115723e-02 -4.328517615795135498e-02 -3.942688554525375366e-02 6.770671159029006958e-02
3.631000000000000000e+03 2.923283767700195312e+01 -1.609536933898925781e+01 -1.640391796827316284e-01 -5.204910039901733398e-02 -6.482648104429244995e-02 1.018921583890914917e-01
3.632000000000000000e+03 2.999985885620117188e+01 -1.651846694946289062e+01 -1.730731725692749023e-01 -3.767606616020202637e-02 -6.322477012872695923e-02 9.445039927959442139e-02
3.633000000000000000e+03 3.072626876831054688e+01 -1.692644691467285156e+01 -1.755068600177764893e-01 -3.054557554423809052e-02 -6.181573122739791870e-02 8.484493941068649292e-02
3.634000000000000000e+03 3.143663406372070312e+01 -1.732215881347656250e+01 -1.746003329753875732e-01 -1.019920781254768372e-02 -5.543986335396766663e-02 7.245131582021713257e-02
3.635000000000000000e+03 2.774296760559082031e+01 -1.514274120330810547e+01 -1.332767456769943237e-01 -7.191720604896545410e-02 -6.155818700790405273e-02 1.220436841249465942e-01
3.636000000000000000e+03 2.846567535400390625e+01 -1.561615467071533203e+01 -1.475463807582855225e-01 -6.104526296257972717e-02 -6.257749348878860474e-02 1.133238747715950012e-01
3.637000000000000000e+03 3.260166549682617188e+01 -1.817698669433593750e+01 -1.433053463697433472e-01 4.217541776597499847e-03 -4.172633960843086243e-02 5.419571697711944580e-02
3.638000000000000000e+03 2.739274024963378906e+01 -1.552256393432617188e+01 -1.107529923319816589e-01 -6.392569094896316528e-02 -5.240360647439956665e-02 1.041429787874221802e-01
3.639000000000000000e+03 2.835108566284179688e+01 -1.656591796875000000e+01 -1.487960368394851685e-01 -5.323613062500953674e-02 -6.060964986681938171e-02 8.813370764255523682e-02
3.640000000000000000e+03 3.125172996520996094e+01 -1.807483100891113281e+01 -1.381743848323822021e-01 -3.066930361092090607e-02 -5.065310746431350708e-02 6.669478863477706909e-02
3.641000000000000000e+03 3.190382575988769531e+01 -1.842963600158691406e+01 -1.157190725207328796e-01 -5.517396144568920135e-03 -3.637094050645828247e-02 4.655846580862998962e-02
3.642000000000000000e+03 2.982906913757324219e+01 -1.727654266357421875e+01 -1.569118648767471313e-01 -4.506726562976837158e-02 -6.059373915195465088e-02 8.602246642112731934e-02
3.643000000000000000e+03 3.054842185974121094e+01 -1.768181991577148438e+01 -1.511666625738143921e-01 -3.646559268236160278e-02 -5.628967657685279846e-02 7.828637212514877319e-02
3.644000000000000000e+03 2.535528373718261719e+01 -1.361763191223144531e+01 -9.249918162822723389e-02 -1.554522961378097534e-01 -7.438544183969497681e-02 1.245676353573799133e-01
3.645000000000000000e+03 2.599957847595214844e+01 -1.324495983123779297e+01 -1.325564682483673096e-01 -1.501553803682327271e-01 -8.481355756521224976e-02 1.617776900529861450e-01
3.646000000000000000e+03 2.628301239013671875e+01 -1.444043636322021484e+01 -1.069682613015174866e-01 -1.071554794907569885e-01 -6.423712521791458130e-02 1.158074289560317993e-01
3.647000000000000000e+03 2.572153282165527344e+01 -1.427359294891357422e+01 -9.442570060491561890e-02 -1.395786255598068237e-01 -7.020130008459091187e-02 1.146732047200202942e-01
3.648000000000000000e+03 2.649452018737792969e+01 -1.539540863037109375e+01 -6.241722032427787781e-02 -6.826657801866531372e-02 -3.920513764023780823e-02 7.369078695774078369e-02
3.649000000000000000e+03 2.713354682922363281e+01 -1.460084247589111328e+01 -1.323734223842620850e-01 -8.004151284694671631e-02 -6.372448056936264038e-02 1.316988766193389893e-01
3.650000000000000000e+03 2.657628631591796875e+01 -1.394268703460693359e+01 -1.351690292358398438e-01 -1.117639765143394470e-01 -7.407990097999572754e-02 1.412576884031295776e-01
3.651000000000000000e+03 2.681144523620605469e+01 -1.500777053833007812e+01 -1.063955500721931458e-01 -7.880160212516784668e-02 -5.555914714932441711e-02 1.117926016449928284e-01
3.652000000000000000e+03 2.604991912841796875e+01 -1.483973693847656250e+01 -7.481709122657775879e-02 -1.118997484445571899e-01 -5.601505190134048462e-02 9.135375916957855225e-02
3.653000000000000000e+03 2.387622833251953125e+01 -1.096773529052734375e+01 -1.499392688274383545e-01 -3.641391992568969727e-01 -1.542235463857650757e-01 2.307013124227523804e-01
3.654000000000000000e+03 2.422143554687500000e+01 -1.162815856933593750e+01 -1.231527775526046753e-01 -3.069632947444915771e-01 -1.290348172187805176e-01 1.973924785852432251e-01
3.655000000000000000e+03 2.456985282897949219e+01 -1.228557014465332031e+01 -1.073590591549873352e-01 -2.552846968173980713e-01 -1.087931320071220398e-01 1.660921871662139893e-01
3.656000000000000000e+03 2.520655250549316406e+01 -1.190669059753417969e+01 -1.635601222515106201e-01 -2.168103456497192383e-01 -1.141111403703689575e-01 2.103080898523330688e-01
3.657000000000000000e+03 2.492157745361328125e+01 -1.293985366821289062e+01 -8.886320888996124268e-02 -1.956545561552047729e-01 -8.535532653331756592e-02 1.424239128828048706e-01
3.658000000000000000e+03 2.555294799804687500e+01 -1.255092239379882812e+01 -1.473051458597183228e-01 -1.865650266408920288e-01 -1.001610532402992249e-01 1.877528280019760132e-01
3.659000000000000000e+03 2.452358436584472656e+01 -1.060895919799804688e+01 -2.120645344257354736e-01 -3.002590239048004150e-01 -1.536970585584640503e-01 2.659772336483001709e-01
3.660000000000000000e+03 2.486346435546875000e+01 -1.125933074951171875e+01 -1.888699233531951904e-01 -2.615290880203247070e-01 -1.351197063922882080e-01 2.351439595222473145e-01
3.661000000000000000e+03 2.278476524353027344e+01 -8.988129615783691406e+00 -2.324136197566986084e-01 -5.450463294982910156e-01 -2.332379966974258423e-01 3.569602668285369873e-01
3.662000000000000000e+03 2.241554069519042969e+01 -8.329325675964355469e+00 -3.013769388198852539e-01 -6.313723921775817871e-01 -2.798247933387756348e-01 4.193059206008911133e-01
3.663000000000000000e+03 2.379572296142578125e+01 -9.280672073364257812e+00 -2.746810019016265869e-01 -3.935945034027099609e-01 -2.004826515913009644e-01 3.395838737487792969e-01
3.664000000000000000e+03 2.315305709838867188e+01 -9.647591590881347656e+00 -2.030957192182540894e-01 -4.764729440212249756e-01 -2.038705945014953613e-01 3.079234361648559570e-01
3.665000000000000000e+03 2.352040100097656250e+01 -1.030764293670654297e+01 -1.733364164829254150e-01 -4.183617234230041504e-01 -1.775094419717788696e-01 2.696285843849182129e-01
3.666000000000000000e+03 2.416796875000000000e+01 -9.949502944946289062e+00 -2.448231726884841919e-01 -3.462880849838256836e-01 -1.773333847522735596e-01 2.980900108814239502e-01
3.667000000000000000e+03 2.304839897155761719e+01 -7.944846630096435547e+00 -3.837220370769500732e-01 -4.760956764221191406e-01 -2.579452991485595703e-01 4.212580621242523193e-01
3.668000000000000000e+03 2.342252731323242188e+01 -8.612430572509765625e+00 -3.314202427864074707e-01 -4.401586949825286865e-01 -2.314736843109130859e-01 3.837469518184661865e-01
3.669000000000000000e+03 2.176358604431152344e+01 -5.991405963897705078e+00 -5.879293084144592285e-01 -6.108439564704895020e-01 -3.596319854259490967e-01 5.795231461524963379e-01
3.670000000000000000e+03 2.073557853698730469e+01 -5.794119834899902344e+00 -6.134389042854309082e-01 -8.911248445510864258e-01 -4.513691365718841553e-01 6.972629427909851074e-01
3.671000000000000000e+03 2.159106254577636719e+01 -7.055338859558105469e+00 -4.112728834152221680e-01 -7.206660509109497070e-01 -3.395816981792449951e-01 5.363799333572387695e-01
3.672000000000000000e+03 2.201800537109375000e+01 -7.684557914733886719e+00 -3.634364902973175049e-01 -6.830037832260131836e-01 -3.139320909976959229e-01 4.854836165904998779e-01
3.673000000000000000e+03 2.264233016967773438e+01 -7.286725521087646484e+00 -4.358249008655548096e-01 -5.312880277633666992e-01 -2.901338636875152588e-01 4.604898691177368164e-01
3.674000000000000000e+03 2.132341575622558594e+01 -5.342503070831298828e+00 -6.689802408218383789e-01 -6.233341693878173828e-01 -3.876943290233612061e-01 5.991612076759338379e-01
3.675000000000000000e+03 2.116358566284179688e+01 -6.425094127655029297e+00 -4.645791053771972656e-01 -7.921310067176818848e-01 -3.770130276679992676e-01 6.047018766403198242e-01
3.676000000000000000e+03 2.220322418212890625e+01 -6.639578342437744141e+00 -4.844072163105010986e-01 -5.820351839065551758e-01 -3.199327290058135986e-01 5.230688452720642090e-01
3.677000000000000000e+03 1.974656295776367188e+01 -3.537436008453369141e+00 -8.930526971817016602e-01 -6.878472566604614258e-01 -4.742699861526489258e-01 7.359810471534729004e-01
3.678000000000000000e+03 1.870244216918945312e+01 -3.497282505035400391e+00 -1.062137603759765625e+00 -9.347783327102661133e-01 -5.990747809410095215e-01 9.208024740219116211e-01
3.679000000000000000e+03 1.974456596374511719e+01 -4.629005432128906250e+00 -7.876498699188232422e-01 -8.483412265777587891e-01 -4.907973408699035645e-01 8.045522570610046387e-01
3.680000000000000000e+03 2.026276969909667969e+01 -5.195233345031738281e+00 -7.374526858329772949e-01 -8.897306919097900391e-01 -4.881550073623657227e-01 7.747822403907775879e-01
3.681000000000000000e+03 2.083261680603027344e+01 -4.721695899963378906e+00 -7.200422286987304688e-01 -6.779961585998535156e-01 -4.194115102291107178e-01 6.300410628318786621e-01
3.682000000000000000e+03 1.920084571838378906e+01 -2.946005821228027344e+00 -9.198427200317382812e-01 -6.788438558578491211e-01 -4.796059727668762207e-01 6.848584413528442383e-01
3.683000000000000000e+03 1.922434425354003906e+01 -4.062799930572509766e+00 -8.448736667633056641e-01 -8.773469328880310059e-01 -5.166661739349365234e-01 8.584144115447998047e-01
3.684000000000000000e+03 2.029059791564941406e+01 -4.129554748535156250e+00 -7.717556953430175781e-01 -7.078185677528381348e-01 -4.438722729682922363e-01 7.066625356674194336e-01
3.685000000000000000e+03 1.724629974365234375e+01 -1.505973219871520996e+00 -8.336861133575439453e-01 -5.928025841712951660e-01 -4.279465973377227783e-01 6.935173273086547852e-01
3.686000000000000000e+03 1.620514488220214844e+01 -1.697480440139770508e+00 -1.010503172874450684e+00 -5.058529376983642578e-01 -4.549068510532379150e-01 6.734765768051147461e-01
3.687000000000000000e+03 1.748624420166015625e+01 -2.562495470046997070e+00 -1.089053630828857422e+00 -5.987935662269592285e-01 -5.063541531562805176e-01 8.054484128952026367e-01
3.688000000000000000e+03 1.812313652038574219e+01 -2.997157573699951172e+00 -1.185880661010742188e+00 -7.942842245101928711e-01 -5.940494537353515625e-01 9.003052115440368652e-01
3.689000000000000000e+03 1.859226417541503906e+01 -2.421155929565429688e+00 -8.599038124084472656e-01 -7.309543490409851074e-01 -4.772574603557586670e-01 6.946173906326293945e-01
3.690000000000000000e+03 1.657006454467773438e+01 -1.050868153572082520e+00 -7.335813641548156738e-01 -5.705084800720214844e-01 -3.912269473075866699e-01 6.033464670181274414e-01
3.691000000000000000e+03 1.792063713073730469e+01 -1.962957024574279785e+00 -8.588625788688659668e-01 -6.863051652908325195e-01 -4.635503292083740234e-01 7.474468350410461426e-01
3.692000000000000000e+03 1.684664344787597656e+01 -2.129048585891723633e+00 -1.011768460273742676e+00 -5.480711460113525391e-01 -4.679518938064575195e-01 7.400068640708923340e-01
3.693000000000000000e+03 1.437439537048339844e+01 -8.830149471759796143e-02 -4.841262698173522949e-01 -2.963158190250396729e-01 -2.341326177120208740e-01 4.153400659561157227e-01
3.694000000000000000e+03 1.338726615905761719e+01 -4.958960413932800293e-01 -4.220436811447143555e-01 -1.163767501711845398e-01 -1.615261286497116089e-01 2.286645770072937012e-01
3.695000000000000000e+03 1.481616306304931641e+01 -1.058209896087646484e+00 -6.967120170593261719e-01 -2.043160200119018555e-01 -2.703084051609039307e-01 3.921633064746856689e-01
3.696000000000000000e+03 1.552819252014160156e+01 -1.340840697288513184e+00 -9.218886494636535645e-01 -3.687853515148162842e-01 -3.872022032737731934e-01 5.291002988815307617e-01
3.697000000000000000e+03 1.586064529418945312e+01 -6.765008568763732910e-01 -6.130902171134948730e-01 -5.296180248260498047e-01 -3.428124785423278809e-01 5.749390125274658203e-01
3.698000000000000000e+03 1.362912273406982422e+01 2.041978091001510620e-01 -3.920527100563049316e-01 -2.605366706848144531e-01 -1.957768201828002930e-01 3.243319094181060791e-01
3.699000000000000000e+03 1.511841678619384766e+01 -3.819521367549896240e-01 -5.737255215644836426e-01 -4.172269701957702637e-01 -2.972857654094696045e-01 5.078961849212646484e-01
3.700000000000000000e+03 1.410233974456787109e+01 -7.764772772789001465e-01 -5.388318896293640137e-01 -1.756346523761749268e-01 -2.143399566411972046e-01 2.922145426273345947e-01
3.701000000000000000e+03 1.131013679504394531e+01 8.408998847007751465e-01 -2.152349948883056641e-01 -7.725139707326889038e-02 -8.774591982364654541e-02 1.387201249599456787e-01
3.702000000000000000e+03 1.042135906219482422e+01 2.992311716079711914e-01 -8.345071971416473389e-02 -1.206307392567396164e-02 -2.865413948893547058e-02 4.300705716013908386e-02
3.703000000000000000e+03 1.191366195678710938e+01 -7.340838760137557983e-02 -2.014983892440795898e-01 -3.593482449650764465e-02 -7.122996449470520020e-02 9.891993552446365356e-02
3.704000000000000000e+03 1.265766906738281250e+01 -2.614961266517639160e-01 -3.094887435436248779e-01 -9.459517896175384521e-02 -1.212251782417297363e-01 1.510244905948638916e-01
3.705000000000000000e+03 1.286749935150146484e+01 4.488001465797424316e-01 -3.235508799552917480e-01 -1.807998120784759521e-01 -1.513052135705947876e-01 2.622626423835754395e-01
3.706000000000000000e+03 1.052962684631347656e+01 1.034987807273864746e+00 -1.721654534339904785e-01 -6.608548760414123535e-02 -7.147528231143951416e-02 1.046296134591102600e-01
3.707000000000000000e+03 1.116801452636718750e+01 1.136300638318061829e-01 -1.308748573064804077e-01 -3.966474533081054688e-02 -5.116188153624534607e-02 6.284815073013305664e-02
3.708000000000000000e+03 1.208963775634765625e+01 6.453746557235717773e-01 -2.649452686309814453e-01 -1.402518898248672485e-01 -1.215591430664062500e-01 1.941549777984619141e-01
3.709000000000000000e+03 8.889401435852050781e+00 3.921107649803161621e-01 1.731495023705065250e-03 1.614905893802642822e-03 1.003920333459973335e-03 1.353804673999547958e-02
3.710000000000000000e+03 8.116916656494140625e+00 3.926678001880645752e-01 2.339480631053447723e-02 -6.315074861049652100e-03 5.123919341713190079e-03 7.784524466842412949e-03
3.711000000000000000e+03 6.570821762084960938e+00 3.927459418773651123e-01 4.304064810276031494e-02 -3.992243669927120209e-03 1.171452086418867111e-02 2.410074695944786072e-03
3.712000000000000000e+03 7.343883514404296875e+00 3.927603960037231445e-01 3.570578619837760925e-02 2.397391945123672485e-03 1.143095362931489944e-02 4.639202728867530823e-03
3.713000000000000000e+03 5.070312023162841797e+00 1.132621407508850098e+00 8.236990543082356453e-04 -7.914759335108101368e-04 9.666950063547119498e-06 1.835459726862609386e-03
3.714000000000000000e+03 5.024641513824462891e+00 3.926214277744293213e-01 4.689475893974304199e-02 -2.884790068492293358e-03 1.320299133658409119e-02 -3.247334971092641354e-04
3.715000000000000000e+03 2.729459524154663086e+00 1.132232308387756348e+00 1.068022660911083221e-02 -3.683139570057392120e-03 2.099126344546675682e-03 -1.020609680563211441e-02
3.716000000000000000e+03 2.704867601394653320e+00 3.922322988510131836e-01 2.803989127278327942e-02 -6.761581607861444354e-05 8.391682058572769165e-03 -5.500643979758024216e-03
3.717000000000000000e+03 1.949102401733398438e+00 1.132174730300903320e+00 8.487086743116378784e-03 1.103844260796904564e-03 2.877279184758663177e-03 -1.294562406837940216e-02
3.718000000000000000e+03 1.931536912918090820e+00 3.921746909618377686e-01 1.696339808404445648e-02 1.202138664666563272e-04 5.125083494931459427e-03 -5.433246959000825882e-03
3.719000000000000000e+03 1.158940911293029785e+00 3.918712735176086426e-01 6.978893186897039413e-03 1.203635009005665779e-03 2.454758388921618462e-03 -4.064013250172138214e-03
3.720000000000000000e+03 3.899181485176086426e-01 1.130777001380920410e+00 9.944837074726819992e-04 6.531876046210527420e-03 2.257907763123512268e-03 -4.056490957736968994e-03
3.721000000000000000e+03 3.864050507545471191e-01 3.907769918441772461e-01 1.565081649459898472e-03 1.354581094346940517e-03 8.758988115005195141e-04 -1.400368986651301384e-03
3.722000000000000000e+03 4.251531124114990234e+00 3.925212025642395020e-01 4.379931837320327759e-02 6.756141665391623974e-04 1.334248017519712448e-02 -2.401807345449924469e-03
3.723000000000000000e+03 3.478284358978271484e+00 3.923543989658355713e-01 3.772734850645065308e-02 -1.772146439179778099e-03 1.078656129539012909e-02 -3.647608216851949692e-03
3.724000000000000000e+03 4.290175437927246094e+00 1.132521271705627441e+00 7.611566688865423203e-03 -6.200001575052738190e-03 4.234695516061037779e-04 -1.204889267683029175e-03
3.725000000000000000e+03 5.797791481018066406e+00 3.927051424980163574e-01 4.615028575062751770e-02 2.041232306510210037e-03 1.445745583623647690e-02 8.861352689564228058e-04
3.726000000000000000e+03 6.630544662475585938e+00 1.132745981216430664e+00 -2.068205364048480988e-02 -4.998450749553740025e-04 -6.354569457471370697e-03 1.169171836227178574e-02
3.727000000000000000e+03 8.190691947937011719e+00 1.132667779922485352e+00 -6.199673935770988464e-02 -5.306915380060672760e-03 -2.019109576940536499e-02 2.892927266657352448e-02
3.728000000000000000e+03 8.970203399658203125e+00 1.132110714912414551e+00 -9.426769614219665527e-02 -2.312389388680458069e-02 -3.521747887134552002e-02 4.692062363028526306e-02
3.729000000000000000e+03 9.661880493164062500e+00 3.908598423004150391e-01 -3.706981614232063293e-02 -1.514292322099208832e-02 -1.566382125020027161e-02 2.553137578070163727e-02
3.730000000000000000e+03 9.749707221984863281e+00 1.130859851837158203e+00 -1.348781138658523560e-01 -2.841638959944248199e-02 -4.898835346102714539e-02 7.214564085006713867e-02
3.731000000000000000e+03 7.410632610321044922e+00 1.132760405540466309e+00 -3.734483569860458374e-02 -1.087810285389423370e-02 -1.446688175201416016e-02 1.941629871726036072e-02
3.732000000000000000e+03 1.169480204582214355e+00 1.131871223449707031e+00 4.910819698125123978e-03 4.213892854750156403e-03 2.737413626164197922e-03 -9.994525462388992310e-03
3.733000000000000000e+03 5.850488185882568359e+00 1.132705092430114746e+00 -6.930662784725427628e-03 -6.739638745784759521e-03 -4.101090598851442337e-03 7.622198667377233505e-03
3.734000000000000000e+03 3.509902238845825195e+00 1.132354378700256348e+00 9.939844720065593719e-03 -2.307041082531213760e-03 2.289841184392571449e-03 -7.732755970209836960e-03
3.735000000000000000e+03 1.445141410827636719e+01 -1.738320231437683105e+00 4.294664449844276533e-06 1.160907777375541627e-05 4.771122348756762221e-06 3.118659151368774474e-06
3.736000000000000000e+03 1.399005413055419922e+01 -2.351786375045776367e+00 -1.303443696087924764e-05 -1.384708139084978029e-05 -8.064455869316589087e-06 -4.635488949134014547e-06
3.737000000000000000e+03 1.315893840789794922e+01 -1.124567389488220215e+00 6.086627763579599559e-06 2.879894236684776843e-05 1.046567103912821040e-05 7.129345704015577212e-06
3.738000000000000000e+03 1.286564445495605469e+01 -2.057386875152587891e+00 2.111364301526919007e-05 1.018082002701703459e-05 9.388339094584807754e-06 -3.144926495224353857e-06
3.739000000000000000e+03 1.515422248840332031e+01 -2.034060716629028320e+00 -4.083437488588970155e-06 -5.822428192914230749e-06 -2.971759613501490094e-06 -3.470132014626869932e-06
3.740000000000000000e+03 1.476873493194580078e+01 -2.677469968795776367e+00 1.140563381341053173e-05 1.171103849628707394e-05 6.935001692909281701e-06 7.617251867486629635e-06
3.741000000000000000e+03 1.380067443847656250e+01 -1.425752282142639160e+00 -2.559381073297117837e-06 -2.103020415233913809e-05 -7.076875590428244323e-06 -6.600410870305495337e-06
3.742000000000000000e+03 1.296116638183593750e+01 -1.574859380722045898e+00 -1.729451287246774882e-05 -5.509688890015240759e-06 -6.841260528744896874e-06 9.543069836581707932e-07
3.743000000000000000e+03 1.342884063720703125e+01 -1.939940571784973145e+00 6.659253813268151134e-06 1.164318109658779576e-05 5.490730472956784070e-06 7.741205990896560252e-06
3.744000000000000000e+03 1.109471797943115234e+01 -1.421144604682922363e+00 9.389468687004409730e-06 2.181282434321474284e-05 9.360687727166805416e-06 4.848796834266977385e-06
3.745000000000000000e+03 1.178201866149902344e+01 -7.772919535636901855e-01 1.275931708732969128e-06 3.437434133957140148e-05 1.069508198270341381e-05 8.371887815883383155e-06
3.746000000000000000e+03 1.027668380737304688e+01 -1.233754158020019531e+00 -7.690354323131032288e-06 -2.245215910079423338e-05 -9.042753845278639346e-06 -5.229629095993004739e-06
3.747000000000000000e+03 1.217507266998291016e+01 -1.835481405258178711e+00 -3.014923458977136761e-05 -7.784221452311612666e-06 -1.138003699452383444e-05 -2.402316795269143768e-06
3.748000000000000000e+03 1.247813129425048828e+01 -9.059029817581176758e-01 -5.461105956783285365e-06 -3.457490311120636761e-05 -1.201080249302322045e-05 -6.665265573246870190e-06
3.749000000000000000e+03 1.107212448120117188e+01 -6.525825858116149902e-01 -4.116908257856266573e-06 -2.486747143848333508e-05 -8.695314136275555938e-06 -6.502441465272568166e-06
3.750000000000000000e+03 1.033004570007324219e+01 -4.842335283756256104e-01 3.990171990153612569e-06 2.073836913041304797e-05 7.418562290695263073e-06 2.228275207016849890e-06
3.751000000000000000e+03 1.178715801239013672e+01 -1.412433624267578125e+00 5.946114015387138352e-06 -1.895229070214554667e-05 -3.901852778653847054e-06 -3.317958316984004341e-07
3.752000000000000000e+03 1.237739849090576172e+01 -1.387354135513305664e+00 1.513119786977767944e-05 7.501543223042972386e-06 6.789822236896725371e-06 -7.196880687843076885e-06
3.753000000000000000e+03 8.700727462768554688e+00 -1.117709517478942871e+00 -4.846566753258230165e-06 -1.731223892420530319e-05 -6.647641384915914387e-06 -9.143233910435810685e-06
3.754000000000000000e+03 8.733464241027832031e+00 -3.777095377445220947e-01 3.285448656242806464e-06 1.792204420780763030e-05 6.362247859215131029e-06 3.892255790560739115e-06
3.755000000000000000e+03 9.545720100402832031e+00 -3.852295279502868652e-01 -1.522968915423916769e-07 -2.000656058953609318e-05 -6.047657279850682244e-06 -3.068086698476690799e-06
3.756000000000000000e+03 7.920477867126464844e+00 -3.782893717288970947e-01 -6.255822313505632337e-07 -1.307617822021711618e-05 -4.110528152523329481e-06 -4.172547960479278117e-06
3.757000000000000000e+03 6.325181007385253906e+00 -4.120943248271942139e-01 2.683897037059068680e-06 3.392715825611958280e-06 1.822983904276043177e-06 -7.482196906494209543e-06
3.758000000000000000e+03 5.626715183258056641e+00 -6.589151620864868164e-01 -1.463704120396869257e-05 -1.166143465525237843e-05 -7.889542757766321301e-06 5.762046839663526043e-06
3.759000000000000000e+03 5.109978199005126953e+00 -1.194857835769653320e+00 2.786695768008939922e-05 1.295395759370876476e-05 1.224627430929103866e-05 -4.102829791463591391e-07
3.760000000000000000e+03 4.560545921325683594e+00 -3.007295429706573486e-01 5.872264864592580125e-06 -2.503890027583111078e-05 -5.749990577896824107e-06 -4.567059022519970313e-06
3.761000000000000000e+03 3.814361572265625000e+00 -3.559346497058868408e-01 5.525058440980501473e-06 1.406009687343612313e-05 5.875546776223927736e-06 7.278080829564714804e-06
3.762000000000000000e+03 3.024296522140502930e+00 -3.709946572780609131e-01 -1.375709189233020879e-06 -3.237098326280829497e-06 -1.383842231916787568e-06 -3.300411208329023793e-06
3.763000000000000000e+03 2.217694997787475586e+00 -3.767684400081634521e-01 -2.505523525542230345e-06 -2.815179186654859222e-06 -1.596210836396494415e-06 6.117386874393559992e-06
3.764000000000000000e+03 1.421629071235656738e+00 -3.827523589134216309e-01 1.040119741446687840e-06 9.194628546538297087e-06 3.070424554607598111e-06 -8.788357263256330043e-06
3.765000000000000000e+03 3.660075068473815918e-01 -9.624075293540954590e-01 2.437005423416849226e-05 1.388665805279742926e-05 1.147701368608977646e-05 -1.232815066032344475e-05
3.766000000000000000e+03 1.049754977226257324e+00 -1.145848751068115234e+00 5.905760190216824412e-06 -6.887077233841409907e-06 -2.943951358247431926e-07 -8.349988092959392816e-06
3.767000000000000000e+03 9.473914146423339844e+00 -1.125229477882385254e+00 4.340665782365249470e-06 2.113091613864526153e-05 7.641474439878948033e-06 7.671904313610866666e-06
3.768000000000000000e+03 7.926810741424560547e+00 -1.118289351463317871e+00 5.433140358945820481e-06 1.471254199714167044e-05 6.043704615876777098e-06 1.043758766172686592e-05
3.769000000000000000e+03 7.156938076019287109e+00 -1.128846406936645508e+00 -3.276702273069531657e-06 -1.254823200724786147e-05 -4.747480033984174952e-06 -1.235982563230209053e-05
3.770000000000000000e+03 6.409653186798095703e+00 -1.152094364166259766e+00 2.044329221462248825e-06 1.371992857457371429e-05 4.729277407022891566e-06 1.481559047533664852e-05
3.771000000000000000e+03 5.709451675415039062e+00 -1.214052677154541016e+00 2.581556145742069930e-06 -1.783212974260095507e-05 -4.575172170007135719e-06 -9.031789886648766696e-06
3.772000000000000000e+03 4.692424297332763672e+00 -8.555920124053955078e-01 -1.143034023698419333e-05 -1.084823270502965897e-05 -6.683571882604155689e-06 8.238247573899570853e-06
3.773000000000000000e+03 4.016042709350585938e+00 -1.095934629440307617e+00 -1.068899109668564051e-05 2.850783630492514931e-06 -2.351462171645835042e-06 -1.209170204674592242e-05
3.774000000000000000e+03 3.265047311782836914e+00 -1.110994696617126465e+00 5.710989171348046511e-06 2.994403985212557018e-06 2.611617901493445970e-06 8.913544661481864750e-06
3.775000000000000000e+03 2.497515201568603516e+00 -1.116768479347229004e+00 1.543675580251147039e-06 -3.251660018577240407e-06 -5.123952746544091497e-07 -7.957649359013885260e-06
3.776000000000000000e+03 1.740518808364868164e+00 -1.122752308845520020e+00 1.176444015982269775e-06 1.622667241463204846e-06 8.397333886023261584e-07 1.242308826476801187e-05
3.777000000000000000e+03 5.208349704742431641e+00 -3.231946229934692383e-01 7.973993888299446553e-06 1.768567926774267107e-05 7.697901310166344047e-06 3.740529734841402387e-07
3.778000000000000000e+03 6.917955279350280762e-01 -4.058488011360168457e-01 -2.315675374120473862e-05 -1.974864244402851909e-05 -1.287161921936785802e-05 2.122664773196447641e-05
3.779000000000000000e+03 7.111535072326660156e+00 -3.888463973999023438e-01 2.420536247882409953e-06 6.291130830504698679e-06 2.613500100778765045e-06 4.836238076677545905e-06
3.780000000000000000e+03 7.578272247314453125e+01 -1.225191497802734375e+01 3.356652450561523438e+01 6.981605529785156250e+00 1.216443920135498047e+01 1.309516906738281250e+01
3.781000000000000000e+03 7.578678131103515625e+01 -1.227095413208007812e+01 3.032248878479003906e+01 2.009009552001953125e+01 1.512377548217773438e+01 2.475469970703125000e+01
3.782000000000000000e+03 7.579447937011718750e+01 -1.228883743286132812e+01 2.760074615478515625e+01 3.286400222778320312e+01 1.813942527770996094e+01 2.875805854797363281e+01
3.783000000000000000e+03 7.580551147460937500e+01 -1.230488109588623047e+01 2.329935836791992188e+01 4.592362594604492188e+01 2.076689529418945312e+01 2.980369377136230469e+01
3.784000000000000000e+03 7.581945037841796875e+01 -1.231847095489501953e+01 1.957020568847656250e+01 5.785069274902343750e+01 2.322626876831054688e+01 2.764637184143066406e+01
3.785000000000000000e+03 7.583576965332031250e+01 -1.232908725738525391e+01 1.602562141418457031e+01 6.784479522705078125e+01 2.516112518310546875e+01 2.292384910583496094e+01
3.786000000000000000e+03 7.585384368896484375e+01 -1.233632278442382812e+01 1.438828945159912109e+01 7.515065002441406250e+01 2.686168098449707031e+01 1.625610542297363281e+01
3.787000000000000000e+03 7.587297821044921875e+01 -1.233990097045898438e+01 1.435297203063964844e+01 7.903349304199218750e+01 2.801593971252441406e+01 8.561371803283691406e+00
3.788000000000000000e+03 7.589244842529296875e+01 -1.233968544006347656e+01 1.668046760559082031e+01 7.960108947753906250e+01 2.888446807861328125e+01 1.038096070289611816e+00
3.789000000000000000e+03 7.591149902343750000e+01 -1.233568477630615234e+01 2.082322883605957031e+01 7.715752410888671875e+01 2.939422607421875000e+01 -5.384533882141113281e+00
3.790000000000000000e+03 7.592940521240234375e+01 -1.232805061340332031e+01 2.621623992919921875e+01 7.253453063964843750e+01 2.962523078918457031e+01 -9.900997161865234375e+00
3.791000000000000000e+03 7.594548797607421875e+01 -1.231707668304443359e+01 3.215914535522460938e+01 6.682526397705078125e+01 2.969532203674316406e+01 -1.209935092926025391e+01
3.792000000000000000e+03 7.595912170410156250e+01 -1.230318164825439453e+01 3.774580001831054688e+01 6.090382385253906250e+01 2.959488677978515625e+01 -1.204518222808837891e+01
3.793000000000000000e+03 7.596979522705078125e+01 -1.228689765930175781e+01 4.241453933715820312e+01 5.587893676757812500e+01 2.948804283142089844e+01 -1.000845909118652344e+01
3.794000000000000000e+03 7.597708892822265625e+01 -1.226884841918945312e+01 4.575697326660156250e+01 5.219118881225585938e+01 2.938444900512695312e+01 -6.470716476440429688e+00
3.795000000000000000e+03 7.598073577880859375e+01 -1.224972343444824219e+01 4.734119415283203125e+01 5.017977523803710938e+01 2.925629043579101562e+01 -2.156972885131835938e+00
3.796000000000000000e+03 7.598058319091796875e+01 -1.223025608062744141e+01 4.735941696166992188e+01 5.046210861206054688e+01 2.934645652770996094e+01 2.504073381423950195e+00
3.797000000000000000e+03 7.597663879394531250e+01 -1.221119022369384766e+01 4.544532012939453125e+01 5.224831771850585938e+01 2.930809211730957031e+01 6.855141639709472656e+00
3.798000000000000000e+03 7.596907043457031250e+01 -1.219325542449951172e+01 4.217560195922851562e+01 5.623346328735351562e+01 2.952271842956542969e+01 1.018448925018310547e+01
3.799000000000000000e+03 7.595814514160156250e+01 -1.217713928222656250e+01 3.724972915649414062e+01 6.128459930419921875e+01 2.956029891967773438e+01 1.215342807769775391e+01
3.800000000000000000e+03 7.594429779052734375e+01 -1.216345691680908203e+01 3.173533058166503906e+01 6.716654205322265625e+01 2.967056083679199219e+01 1.202513027191162109e+01
3.801000000000000000e+03 7.592805480957031250e+01 -1.215273284912109375e+01 2.574438667297363281e+01 7.287511444091796875e+01 2.958584976196289062e+01 9.620918273925781250e+00
3.802000000000000000e+03 7.591002655029296875e+01 -1.214537715911865234e+01 2.042967987060546875e+01 7.728267669677734375e+01 2.931370735168457031e+01 4.999389648437500000e+00
3.803000000000000000e+03 7.589091491699218750e+01 -1.214167118072509766e+01 1.645084190368652344e+01 7.954906463623046875e+01 2.879997253417968750e+01 -1.578177332878112793e+00
3.804000000000000000e+03 7.587144470214843750e+01 -1.214175701141357422e+01 1.422920036315917969e+01 7.869934082031250000e+01 2.787856101989746094e+01 -9.107753753662109375e+00
3.805000000000000000e+03 7.585236358642578125e+01 -1.214563083648681641e+01 1.441212558746337891e+01 7.453866577148437500e+01 2.668523788452148438e+01 -1.675838279724121094e+01
3.806000000000000000e+03 7.583440399169921875e+01 -1.215314483642578125e+01 1.611376571655273438e+01 6.701250457763671875e+01 2.493787956237792969e+01 -2.327106475830078125e+01
3.807000000000000000e+03 7.581825256347656250e+01 -1.216401195526123047e+01 1.970273208618164062e+01 5.685504913330078125e+01 2.296733474731445312e+01 -2.779417419433593750e+01
3.808000000000000000e+03 7.580452728271484375e+01 -1.217781639099121094e+01 2.332561874389648438e+01 4.486835861206054688e+01 2.045819282531738281e+01 -2.974174308776855469e+01
3.809000000000000000e+03 7.579374694824218750e+01 -1.219402885437011719e+01 2.738455581665039062e+01 3.181020355224609375e+01 1.775842857360839844e+01 -2.851377296447753906e+01
3.810000000000000000e+03 7.578633117675781250e+01 -1.221202850341796875e+01 2.994241714477539062e+01 1.937753868103027344e+01 1.479598712921142578e+01 -2.434160614013671875e+01
3.811000000000000000e+03 7.578256225585937500e+01 -1.223112869262695312e+01 3.266973495483398438e+01 6.375789642333984375e+00 1.171365737915039062e+01 -1.251915073394775391e+01
