# el_label, x, y, sXX, sYY, sZZ, sXY
1.000000000000000000e+00 2.459959793090820312e+01 -1.322714710235595703e+01 -1.833132863044738770e+00 2.335261851549148560e-01 -4.798820018768310547e-01 4.235809743404388428e-01
2.000000000000000000e+00 2.448851776123046875e+01 -1.306198596954345703e+01 8.530445098876953125e-01 9.730897545814514160e-01 5.478402972221374512e-01 -5.623210668563842773e-01
3.000000000000000000e+00 2.437743568420410156e+01 -1.289682483673095703e+01 6.937884539365768433e-02 6.973759531974792480e-01 2.300264388322830200e-01 -5.282815098762512207e-01
4.000000000000000000e+00 2.426635360717773438e+01 -1.273166370391845703e+01 3.850085139274597168e-01 5.681898593902587891e-01 2.859595119953155518e-01 -3.541600406169891357e-01
5.000000000000000000e+00 2.455455589294433594e+01 -1.326432514190673828e+01 6.112359762191772461e-01 3.289874553680419922e+00 1.170333147048950195e+00 -2.570336818695068359e+00
6.000000000000000000e+00 2.441344642639160156e+01 -1.312395000457763672e+01 7.302214503288269043e-01 1.527205944061279297e+00 6.772282123565673828e-01 -1.179019212722778320e+00
7.000000000000000000e+00 2.427233505249023438e+01 -1.298357391357421875e+01 1.303254842758178711e+00 1.187742114067077637e+00 7.472991347312927246e-01 -1.169215202331542969e+00
8.000000000000000000e+00 2.413122558593750000e+01 -1.284319877624511719e+01 7.354463934898376465e-01 7.872172594070434570e-01 4.567990899085998535e-01 -9.617591500282287598e-01
9.000000000000000000e+00 2.451761245727539062e+01 -1.330956172943115234e+01 4.104262828826904297e+00 2.942077875137329102e+00 2.113902091979980469e+00 -3.992025136947631836e+00
1.000000000000000000e+01 2.435187339782714844e+01 -1.319934272766113281e+01 2.519024610519409180e+00 1.977887034416198730e+00 1.349073529243469238e+00 -2.432249784469604492e+00
1.100000000000000000e+01 2.418613433837890625e+01 -1.308912467956542969e+01 2.073083162307739258e+00 1.109104156494140625e+00 9.546561837196350098e-01 -1.664382219314575195e+00
1.200000000000000000e+01 2.402039718627929688e+01 -1.297890663146972656e+01 2.032284259796142578e+00 6.904705166816711426e-01 8.168264627456665039e-01 -1.373711705207824707e+00
1.300000000000000000e+01 2.449018287658691406e+01 -1.336112403869628906e+01 7.685291767120361328e+00 2.357478618621826172e+00 3.012831211090087891e+00 -4.213726043701171875e+00
1.400000000000000000e+01 2.430615806579589844e+01 -1.328528118133544922e+01 4.717725753784179688e+00 1.310225129127502441e+00 1.808385372161865234e+00 -2.796148061752319336e+00
1.500000000000000000e+01 2.412213325500488281e+01 -1.320943737030029297e+01 3.775641441345214844e+00 8.376809358596801758e-01 1.383996725082397461e+00 -2.034140348434448242e+00
1.600000000000000000e+01 2.393810844421386719e+01 -1.313359451293945312e+01 3.092345714569091797e+00 2.342443168163299561e-01 9.979769587516784668e-01 -1.548663139343261719e+00
1.700000000000000000e+01 2.447331619262695312e+01 -1.341704082489013672e+01 1.072406005859375000e+01 1.329501509666442871e+00 3.616068363189697266e+00 -3.349429130554199219e+00
1.800000000000000000e+01 2.427804756164550781e+01 -1.337847423553466797e+01 7.077445983886718750e+00 8.400930762290954590e-01 2.375261783599853516e+00 -2.359195470809936523e+00
1.900000000000000000e+01 2.408277893066406250e+01 -1.333990859985351562e+01 5.330700874328613281e+00 1.538448482751846313e-01 1.645363807678222656e+00 -1.789736628532409668e+00
2.000000000000000000e+01 2.388750839233398438e+01 -1.330134296417236328e+01 4.537821292877197266e+00 -2.287018895149230957e-01 1.292735815048217773e+00 -1.293493628501892090e+00
2.100000000000000000e+01 2.446765899658203125e+01 -1.347517013549804688e+01 1.314249515533447266e+01 1.078155159950256348e+00 4.266195297241210938e+00 -1.637179017066955566e+00
2.200000000000000000e+01 2.426861763000488281e+01 -1.347535800933837891e+01 8.850698471069335938e+00 3.006568849086761475e-01 2.745406389236450195e+00 -1.282067894935607910e+00
2.300000000000000000e+01 2.406957626342773438e+01 -1.347554492950439453e+01 6.845606803894042969e+00 -9.617409855127334595e-02 2.024829864501953125e+00 -9.073278903961181641e-01
2.400000000000000000e+01 2.387053680419921875e+01 -1.347573280334472656e+01 5.480959415435791016e+00 -7.526080608367919922e-01 1.418505311012268066e+00 -6.416606307029724121e-01
2.500000000000000000e+01 2.447342681884765625e+01 -1.353328895568847656e+01 1.443957233428955078e+01 1.311991333961486816e+00 4.725469112396240234e+00 5.208683013916015625e-01
2.600000000000000000e+01 2.427823066711425781e+01 -1.357222270965576172e+01 1.006297302246093750e+01 5.147745013236999512e-01 3.173324346542358398e+00 2.183510065078735352e-01
2.700000000000000000e+01 2.408303451538085938e+01 -1.361115646362304688e+01 7.756640434265136719e+00 -2.009248435497283936e-01 2.266714572906494141e+00 3.171801567077636719e-01
2.800000000000000000e+01 2.388783836364746094e+01 -1.365009021759033203e+01 6.262592792510986328e+00 -6.616271734237670898e-01 1.680289626121520996e+00 5.049312710762023926e-01
2.900000000000000000e+01 2.449039840698242188e+01 -1.358917331695556641e+01 1.473874568939208984e+01 2.533455133438110352e+00 5.181660175323486328e+00 2.663698196411132812e+00
3.000000000000000000e+01 2.430651664733886719e+01 -1.366536331176757812e+01 1.045586967468261719e+01 1.191541910171508789e+00 3.494223356246948242e+00 1.811605453491210938e+00
3.100000000000000000e+01 2.412263488769531250e+01 -1.374155235290527344e+01 8.095653533935546875e+00 3.550945222377777100e-01 2.535224437713623047e+00 1.685715436935424805e+00
3.200000000000000000e+01 2.393875312805175781e+01 -1.381774234771728516e+01 6.590227603912353516e+00 -2.748354673385620117e-01 1.894617557525634766e+00 1.651865482330322266e+00
3.300000000000000000e+01 2.451792526245117188e+01 -1.364068508148193359e+01 1.410647487640380859e+01 4.373067378997802734e+00 5.543862819671630859e+00 4.360566616058349609e+00
3.400000000000000000e+01 2.435239410400390625e+01 -1.375121498107910156e+01 1.016577625274658203e+01 2.515079736709594727e+00 3.804256916046142578e+00 3.233723402023315430e+00
3.500000000000000000e+01 2.418686294555664062e+01 -1.386174488067626953e+01 7.852512359619140625e+00 1.376304745674133301e+00 2.768645048141479492e+00 2.863589763641357422e+00
3.600000000000000000e+01 2.402133369445800781e+01 -1.397227478027343750e+01 6.138843536376953125e+00 6.505640745162963867e-01 2.036822319030761719e+00 2.685425758361816406e+00
3.700000000000000000e+01 2.455495262145996094e+01 -1.368585109710693359e+01 1.288723659515380859e+01 6.785444736480712891e+00 5.901804447174072266e+00 5.345432281494140625e+00
3.800000000000000000e+01 2.441410827636718750e+01 -1.382649230957031250e+01 9.337691307067871094e+00 4.106139659881591797e+00 4.033149242401123047e+00 4.193122386932373047e+00
3.900000000000000000e+01 2.427326202392578125e+01 -1.396713352203369141e+01 7.089560985565185547e+00 2.908323287963867188e+00 2.999365329742431641e+00 3.673820018768310547e+00
4.000000000000000000e+01 2.413241577148437500e+01 -1.410777473449707031e+01 5.424303054809570312e+00 1.893365383148193359e+00 2.195300340652465820e+00 3.497687101364135742e+00
4.100000000000000000e+01 2.460006523132324219e+01 -1.372294425964355469e+01 1.134964370727539062e+01 9.008209228515625000e+00 6.107356071472167969e+00 5.592747688293457031e+00
4.200000000000000000e+01 2.448929595947265625e+01 -1.388831520080566406e+01 8.316871643066406250e+00 6.092752456665039062e+00 4.322887420654296875e+00 4.454913616180419922e+00
4.300000000000000000e+01 2.437852478027343750e+01 -1.405368518829345703e+01 6.010031700134277344e+00 4.394371509552001953e+00 3.121320962905883789e+00 4.089850425720214844e+00
4.400000000000000000e+01 2.426775550842285156e+01 -1.421905517578125000e+01 4.593965530395507812e+00 3.455940008163452148e+00 2.414971590042114258e+00 3.697317838668823242e+00
4.500000000000000000e+01 2.465153694152832031e+01 -1.375054550170898438e+01 1.021533298492431641e+01 1.116612911224365234e+01 6.414438724517822266e+00 4.973155975341796875e+00
4.600000000000000000e+01 2.457508087158203125e+01 -1.393431663513183594e+01 7.041590690612792969e+00 7.780010223388671875e+00 4.446480274200439453e+00 4.250683307647705078e+00
4.700000000000000000e+01 2.449862480163574219e+01 -1.411808776855468750e+01 5.197873115539550781e+00 6.008290767669677734e+00 3.361849069595336914e+00 3.755183935165405273e+00
4.800000000000000000e+01 2.442216873168945312e+01 -1.430185890197753906e+01 3.403181076049804688e+00 4.718456745147705078e+00 2.436491250991821289e+00 3.545372247695922852e+00
4.900000000000000000e+01 2.470739555358886719e+01 -1.376759815216064453e+01 9.179244995117187500e+00 1.263653469085693359e+01 6.544734001159667969e+00 3.888861179351806641e+00
5.000000000000000000e+01 2.466817855834960938e+01 -1.396273803710937500e+01 6.339514732360839844e+00 9.225750923156738281e+00 4.669579982757568359e+00 3.417805194854736328e+00
5.100000000000000000e+01 2.462896347045898438e+01 -1.415787696838378906e+01 4.267196655273437500e+00 7.246201515197753906e+00 3.454019308090209961e+00 3.042580604553222656e+00
5.200000000000000000e+01 2.458974647521972656e+01 -1.435301685333251953e+01 2.834191799163818359e+00 5.916853904724121094e+00 2.625313520431518555e+00 2.855834007263183594e+00
5.300000000000000000e+01 2.476550674438476562e+01 -1.377344989776611328e+01 8.881209373474121094e+00 1.349710655212402344e+01 6.713494777679443359e+00 2.547816991806030273e+00
5.400000000000000000e+01 2.476502990722656250e+01 -1.397249031066894531e+01 5.891583919525146484e+00 1.009819030761718750e+01 4.796932220458984375e+00 2.243298053741455078e+00
5.500000000000000000e+01 2.476455497741699219e+01 -1.417153072357177734e+01 3.918441057205200195e+00 8.071592330932617188e+00 3.597010135650634766e+00 2.001973628997802734e+00
5.600000000000000000e+01 2.476407814025878906e+01 -1.437057113647460938e+01 2.533026695251464844e+00 6.640325546264648438e+00 2.752005577087402344e+00 1.870745182037353516e+00
5.700000000000000000e+01 2.482364463806152344e+01 -1.376787662506103516e+01 9.157856941223144531e+00 1.368347358703613281e+01 6.852398872375488281e+00 1.174905419349670410e+00
5.800000000000000000e+01 2.486192703247070312e+01 -1.396320152282714844e+01 5.941286087036132812e+00 1.037907123565673828e+01 4.896107196807861328e+00 9.792447090148925781e-01
5.900000000000000000e+01 2.490020942687988281e+01 -1.415852642059326172e+01 4.115200519561767578e+00 8.338981628417968750e+00 3.736254692077636719e+00 8.550669550895690918e-01
6.000000000000000000e+01 2.493849182128906250e+01 -1.435385036468505859e+01 2.596451044082641602e+00 6.840514659881591797e+00 2.831089735031127930e+00 7.152449488639831543e-01
6.100000000000000000e+01 2.487958526611328125e+01 -1.375109100341796875e+01 9.751749038696289062e+00 1.323319625854492188e+01 6.895483970642089844e+00 1.382782217115163803e-02
6.200000000000000000e+01 2.495516204833984375e+01 -1.393522548675537109e+01 6.655166625976562500e+00 1.011234188079833984e+01 5.030252456665039062e+00 -1.062909960746765137e-01
6.300000000000000000e+01 2.503073692321777344e+01 -1.411935997009277344e+01 4.616714000701904297e+00 8.045709609985351562e+00 3.798727035522460938e+00 -2.375010848045349121e-01
6.400000000000000000e+01 2.510631370544433594e+01 -1.430349445343017578e+01 3.265292882919311523e+00 6.667929172515869141e+00 2.979966640472412109e+00 -2.595774233341217041e-01
6.500000000000000000e+01 2.493118667602539062e+01 -1.372373580932617188e+01 1.089325332641601562e+01 1.245951080322265625e+01 7.005829334259033203e+00 -7.007331252098083496e-01
6.600000000000000000e+01 2.504116630554199219e+01 -1.388963413238525391e+01 7.550410270690917969e+00 9.278012275695800781e+00 5.048526763916015625e+00 -9.092633724212646484e-01
6.700000000000000000e+01 2.515114402770996094e+01 -1.405553245544433594e+01 5.651824951171875000e+00 7.436797142028808594e+00 3.926586627960205078e+00 -9.134741425514221191e-01
6.800000000000000000e+01 2.526112174987792969e+01 -1.422143077850341797e+01 4.116719245910644531e+00 6.030583381652832031e+00 3.044190645217895508e+00 -1.021181225776672363e+00
6.900000000000000000e+01 2.497647666931152344e+01 -1.368685913085937500e+01 1.200988292694091797e+01 1.124535083770751953e+01 6.976570129394531250e+00 -1.006339073181152344e+00
7.000000000000000000e+01 2.511664772033691406e+01 -1.382817173004150391e+01 8.807705879211425781e+00 8.326087951660156250e+00 5.140138149261474609e+00 -1.112445354461669922e+00
7.100000000000000000e+01 2.525681877136230469e+01 -1.396948528289794922e+01 6.687768936157226562e+00 6.442247390747070312e+00 3.939004898071289062e+00 -1.224825263023376465e+00
7.200000000000000000e+01 2.539698982238769531e+01 -1.411079788208007812e+01 5.280051708221435547e+00 5.312701702117919922e+00 3.177825927734375000e+00 -1.230795502662658691e+00
7.300000000000000000e+01 2.501372146606445312e+01 -1.364186954498291016e+01 1.323494243621826172e+01 1.015876197814941406e+01 7.018111705780029297e+00 -6.912979483604431152e-01
7.400000000000000000e+01 2.517872047424316406e+01 -1.375319099426269531e+01 9.880135536193847656e+00 7.137279987335205078e+00 5.105224609375000000e+00 -8.458086252212524414e-01
7.500000000000000000e+01 2.534372138977050781e+01 -1.386451148986816406e+01 7.789313793182373047e+00 5.598872661590576172e+00 4.016456127166748047e+00 -9.164245128631591797e-01
7.600000000000000000e+01 2.550872039794921875e+01 -1.397583103179931641e+01 6.265711784362792969e+00 4.364953517913818359e+00 3.189199686050415039e+00 -1.051342248916625977e+00
7.700000000000000000e+01 2.504149436950683594e+01 -1.359049129486083984e+01 1.413065624237060547e+01 8.997016906738281250e+00 6.938302040100097656e+00 1.179604902863502502e-01
7.800000000000000000e+01 2.522500801086425781e+01 -1.366755962371826172e+01 1.072358608245849609e+01 6.332365512847900391e+00 5.116785526275634766e+00 -2.304103411734104156e-02
7.900000000000000000e+01 2.540852355957031250e+01 -1.374462795257568359e+01 8.562056541442871094e+00 4.740338802337646484e+00 3.990718603134155273e+00 -1.971216648817062378e-01
8.000000000000000000e+01 2.559203910827636719e+01 -1.382169532775878906e+01 7.047401428222656250e+00 3.768735408782958984e+00 3.244841098785400391e+00 -3.702863752841949463e-01
8.100000000000000000e+01 2.505873107910156250e+01 -1.353468894958496094e+01 1.460508632659912109e+01 8.333166122436523438e+00 6.881475448608398438e+00 1.383226156234741211e+00
8.200000000000000000e+01 2.525374031066894531e+01 -1.357455539703369141e+01 1.101748561859130859e+01 5.759606838226318359e+00 5.033127784729003906e+00 1.154834389686584473e+00
8.300000000000000000e+01 2.544874763488769531e+01 -1.361442184448242188e+01 8.901335716247558594e+00 4.369907379150390625e+00 3.981372833251953125e+00 8.443712592124938965e-01
8.400000000000000000e+01 2.564375495910644531e+01 -1.365428829193115234e+01 7.423365116119384766e+00 3.379252910614013672e+00 3.240785360336303711e+00 5.999841690063476562e-01
8.500000000000000000e+01 2.506477737426757812e+01 -1.347659778594970703e+01 1.437775993347167969e+01 8.078025817871093750e+00 6.736735820770263672e+00 2.942341327667236328e+00
8.600000000000000000e+01 2.526381492614746094e+01 -1.347773742675781250e+01 1.070477962493896484e+01 5.793183326721191406e+00 4.949388980865478516e+00 2.452492475509643555e+00
8.700000000000000000e+01 2.546285247802734375e+01 -1.347887611389160156e+01 8.640967369079589844e+00 4.358598232269287109e+00 3.899869680404663086e+00 2.003570556640625000e+00
8.800000000000000000e+01 2.566189002990722656e+01 -1.348001575469970703e+01 7.272899627685546875e+00 3.466102361679077148e+00 3.221700668334960938e+00 1.654435515403747559e+00
8.900000000000000000e+01 2.505939865112304688e+01 -1.341844177246093750e+01 1.338749790191650391e+01 8.520435333251953125e+00 6.572380065917968750e+00 4.483211040496826172e+00
9.000000000000000000e+01 2.525484848022460938e+01 -1.338081073760986328e+01 9.696797370910644531e+00 6.278867244720458984e+00 4.792699337005615234e+00 3.645193576812744141e+00
9.100000000000000000e+01 2.545030021667480469e+01 -1.334317874908447266e+01 7.816382408142089844e+00 4.861703395843505859e+00 3.803425788879394531e+00 3.008117675781250000e+00
9.200000000000000000e+01 2.564575004577636719e+01 -1.330554676055908203e+01 6.564075469970703125e+00 3.873327016830444336e+00 3.131220817565917969e+00 2.602672576904296875e+00
9.300000000000000000e+01 2.504279899597167969e+01 -1.336244583129882812e+01 1.157407188415527344e+01 9.529980659484863281e+00 6.331215858459472656e+00 5.724483966827392578e+00
9.400000000000000000e+01 2.522718429565429688e+01 -1.328748321533203125e+01 8.146883964538574219e+00 7.216160774230957031e+00 4.608913421630859375e+00 4.433609962463378906e+00
9.500000000000000000e+01 2.541156959533691406e+01 -1.321252059936523438e+01 6.466411113739013672e+00 5.680092811584472656e+00 3.643951177597045898e+00 3.682665348052978516e+00
9.600000000000000000e+01 2.559595489501953125e+01 -1.313755893707275391e+01 5.443232059478759766e+00 4.608201503753662109e+00 3.015430212020874023e+00 3.183117389678955078e+00
9.700000000000000000e+01 2.501561546325683594e+01 -1.331075286865234375e+01 9.155511856079101562e+00 1.099001693725585938e+01 6.043658733367919922e+00 6.316288471221923828e+00
9.800000000000000000e+01 2.518187904357910156e+01 -1.320132732391357422e+01 6.185258388519287109e+00 8.340739250183105469e+00 4.357799053192138672e+00 4.648845672607421875e+00
9.900000000000000000e+01 2.534814262390136719e+01 -1.309190273284912109e+01 4.863852024078369141e+00 6.651453495025634766e+00 3.454591512680053711e+00 3.835094928741455078e+00
1.000000000000000000e+02 2.551440620422363281e+01 -1.298247909545898438e+01 4.018060684204101562e+00 5.493033409118652344e+00 2.853328227996826172e+00 3.315269947052001953e+00
1.010000000000000000e+02 2.497888946533203125e+01 -1.326533985137939453e+01 6.403551101684570312e+00 1.248506927490234375e+01 5.666585922241210938e+00 6.040717124938964844e+00
1.020000000000000000e+02 2.512066841125488281e+01 -1.312564086914062500e+01 4.153246402740478516e+00 9.421403884887695312e+00 4.072395324707031250e+00 4.211240768432617188e+00
1.030000000000000000e+02 2.526244926452636719e+01 -1.298594093322753906e+01 3.171808481216430664e+00 7.511610031127929688e+00 3.205025434494018555e+00 3.390415430068969727e+00
1.040000000000000000e+02 2.540422821044921875e+01 -1.284624195098876953e+01 2.622262954711914062e+00 6.252439975738525391e+00 2.662410974502563477e+00 2.958033561706542969e+00
1.050000000000000000e+02 2.493402481079101562e+01 -1.322794628143310547e+01 3.763967275619506836e+00 1.372549438476562500e+01 5.246838569641113281e+00 4.828551769256591797e+00
1.060000000000000000e+02 2.504589462280273438e+01 -1.306331825256347656e+01 2.303547143936157227e+00 9.999240875244140625e+00 3.690836429595947266e+00 3.151192665100097656e+00
1.070000000000000000e+02 2.515776443481445312e+01 -1.289869022369384766e+01 1.728777408599853516e+00 8.101874351501464844e+00 2.949195623397827148e+00 2.476922273635864258e+00
1.080000000000000000e+02 2.526963424682617188e+01 -1.273406124114990234e+01 1.378950119018554688e+00 6.681301593780517578e+00 2.418075561523437500e+00 2.109896183013916016e+00
1.090000000000000000e+02 2.488274002075195312e+01 -1.320000267028808594e+01 1.595292448997497559e+00 1.401616954803466797e+01 4.683438777923583984e+00 2.909381151199340820e+00
1.100000000000000000e+02 2.496041870117187500e+01 -1.301674556732177734e+01 9.590424895286560059e-01 1.004022312164306641e+01 3.299779653549194336e+00 1.617081761360168457e+00
1.110000000000000000e+02 2.503809738159179688e+01 -1.283348846435546875e+01 6.992319822311401367e-01 7.937263488769531250e+00 2.590948581695556641e+00 1.264872312545776367e+00
1.120000000000000000e+02 2.511577606201171875e+01 -1.265023040771484375e+01 5.898718237876892090e-01 6.818660259246826172e+00 2.222559690475463867e+00 1.110478043556213379e+00
1.130000000000000000e+02 2.482699584960937500e+01 -1.318257808685302734e+01 2.870184183120727539e-01 1.328153419494628906e+01 4.070565700531005859e+00 4.968734383583068848e-01
1.140000000000000000e+02 2.486750984191894531e+01 -1.298770427703857422e+01 2.288449257612228394e-01 9.025794029235839844e+00 2.776391744613647461e+00 3.765079006552696228e-02
1.150000000000000000e+02 2.490802574157714844e+01 -1.279283046722412109e+01 2.578472495079040527e-01 7.291996002197265625e+00 2.264952898025512695e+00 5.511551629751920700e-03
1.160000000000000000e+02 2.494854164123535156e+01 -1.259795665740966797e+01 2.501224279403686523e-01 6.095378398895263672e+00 1.903650283813476562e+00 1.087764203548431396e-01
1.170000000000000000e+02 2.476892471313476562e+01 -1.317634010314941406e+01 -1.511868536472320557e-01 1.096829032897949219e+01 3.245131015777587891e+00 -1.638099551200866699e+00
1.180000000000000000e+02 2.477072715759277344e+01 -1.297730731964111328e+01 2.007310688495635986e-01 7.336587905883789062e+00 2.261195659637451172e+00 -1.365381956100463867e+00
1.190000000000000000e+02 2.477252769470214844e+01 -1.277827358245849609e+01 3.280318081378936768e-01 5.795297145843505859e+00 1.836998701095581055e+00 -8.475282788276672363e-01
1.200000000000000000e+02 2.477433013916015625e+01 -1.257924079895019531e+01 2.094695866107940674e-01 5.191446781158447266e+00 1.620274901390075684e+00 -6.783028244972229004e-01
1.210000000000000000e+02 2.471075057983398438e+01 -1.318152618408203125e+01 3.077912628650665283e-01 7.244833469390869141e+00 2.265787363052368164e+00 -3.344605445861816406e+00
1.220000000000000000e+02 2.467377090454101562e+01 -1.298595046997070312e+01 6.522886157035827637e-01 4.737237453460693359e+00 1.616857767105102539e+00 -1.628326892852783203e+00
1.230000000000000000e+02 2.463678932189941406e+01 -1.279037475585937500e+01 4.717701673507690430e-01 4.643392086029052734e+00 1.534548640251159668e+00 -1.260113477706909180e+00
1.240000000000000000e+02 2.459980964660644531e+01 -1.259479904174804688e+01 3.399937152862548828e-01 3.752273559570312500e+00 1.227680206298828125e+00 -1.205629587173461914e+00
1.250000000000000000e+02 2.465469932556152344e+01 -1.319793796539306641e+01 6.475625634193420410e-01 1.685503125190734863e+00 6.999197006225585938e-01 -2.226537704467773438e+00
1.260000000000000000e+02 2.458035087585449219e+01 -1.301330375671386719e+01 8.701189160346984863e-01 3.818926811218261719e+00 1.406713724136352539e+00 -1.347565531730651855e+00
1.270000000000000000e+02 2.450600433349609375e+01 -1.282866954803466797e+01 5.047782063484191895e-01 2.756131649017333984e+00 9.782729744911193848e-01 -1.410544633865356445e+00
1.280000000000000000e+02 2.443165588378906250e+01 -1.264403533935546875e+01 5.856658816337585449e-01 2.581525087356567383e+00 9.501572847366333008e-01 -1.114355802536010742e+00
1.290000000000000000e+02 1.707021331787109375e+01 -4.268254280090332031e+00 -1.110915541648864746e+00 -6.784734129905700684e-01 -5.368167161941528320e-01 1.097921371459960938e+00
1.300000000000000000e+02 1.621372604370117188e+01 -3.519178628921508789e+00 -1.349096298217773438e+00 -5.082827210426330566e-01 -5.572137236595153809e-01 1.020197749137878418e+00
1.310000000000000000e+02 1.551975250244140625e+01 -3.071315765380859375e+00 -1.550853967666625977e+00 -3.438216149806976318e-01 -5.684027075767517090e-01 9.935664534568786621e-01
1.320000000000000000e+02 1.743298530578613281e+01 -3.927525758743286133e+00 -1.189986705780029297e+00 -7.810741066932678223e-01 -5.913182497024536133e-01 1.129184246063232422e+00
1.330000000000000000e+02 1.686964225769042969e+01 -3.746908664703369141e+00 -1.234575986862182617e+00 -7.021132111549377441e-01 -5.810067653656005859e-01 1.064449191093444824e+00
1.340000000000000000e+02 1.770870399475097656e+01 -3.523030519485473633e+00 -1.257817029953002930e+00 -7.230818271636962891e-01 -5.942696332931518555e-01 1.009869098663330078e+00
1.350000000000000000e+02 1.647576141357421875e+01 -2.802853107452392578e+00 -1.606706857681274414e+00 -6.792825460433959961e-01 -6.857967972755432129e-01 1.062261819839477539e+00
1.360000000000000000e+02 1.583880043029785156e+01 -2.393620014190673828e+00 -1.574138402938842773e+00 -4.656222760677337646e-01 -6.119282245635986328e-01 9.701092243194580078e-01
1.370000000000000000e+02 1.709996223449707031e+01 -3.162671089172363281e+00 -1.541886568069458008e+00 -7.113612294197082520e-01 -6.759743094444274902e-01 1.083503127098083496e+00
1.380000000000000000e+02 1.831673240661621094e+01 -5.410979747772216797e+00 -8.501307368278503418e-01 -9.779047966003417969e-01 -5.484106540679931641e-01 1.071871876716613770e+00
1.390000000000000000e+02 1.916439056396484375e+01 -5.026451110839843750e+00 -1.021578073501586914e+00 -1.234684467315673828e+00 -6.768787503242492676e-01 1.146585583686828613e+00
1.400000000000000000e+02 1.766269302368164062e+01 -4.787173271179199219e+00 -9.989637732505798340e-01 -7.976686954498291016e-01 -5.389897227287292480e-01 1.121528744697570801e+00
1.410000000000000000e+02 1.960504913330078125e+01 -5.639448642730712891e+00 -8.427404165267944336e-01 -1.206692099571228027e+00 -6.148297190666198730e-01 1.062932133674621582e+00
1.420000000000000000e+02 1.899693298339843750e+01 -6.071344852447509766e+00 -6.925130486488342285e-01 -1.146682143211364746e+00 -5.517585873603820801e-01 1.057437777519226074e+00
1.430000000000000000e+02 1.877602386474609375e+01 -4.501259326934814453e+00 -1.096955895423889160e+00 -1.185732722282409668e+00 -6.848065853118896484e-01 1.147650599479675293e+00
1.440000000000000000e+02 1.796581268310546875e+01 -4.379739761352539062e+00 -1.100369215011596680e+00 -8.372798562049865723e-01 -5.812947154045104980e-01 1.120284914970397949e+00
1.450000000000000000e+02 1.826732254028320312e+01 -3.990119457244873047e+00 -1.046533465385437012e+00 -9.089583754539489746e-01 -5.866475105285644531e-01 1.041241765022277832e+00
1.460000000000000000e+02 1.856897354125976562e+01 -4.905802249908447266e+00 -9.879772663116455078e-01 -1.005968451499938965e+00 -5.981836915016174316e-01 1.062569499015808105e+00
1.470000000000000000e+02 2.053260231018066406e+01 -6.879840850830078125e+00 -6.679869890213012695e-01 -1.443210601806640625e+00 -6.333592534065246582e-01 9.987564682960510254e-01
1.480000000000000000e+02 1.993260192871093750e+01 -7.313529014587402344e+00 -5.038512349128723145e-01 -1.274215817451477051e+00 -5.334201455116271973e-01 9.294126629829406738e-01
1.490000000000000000e+02 1.952820014953613281e+01 -6.721570968627929688e+00 -6.014381051063537598e-01 -1.228057980537414551e+00 -5.488488078117370605e-01 1.016602993011474609e+00
1.500000000000000000e+02 2.073616981506347656e+01 -8.501105308532714844e+00 -2.804321050643920898e-01 -1.392606258392333984e+00 -5.019115209579467773e-01 7.916052341461181641e-01
1.510000000000000000e+02 2.033558845520019531e+01 -7.906519412994384766e+00 -3.785971105098724365e-01 -1.359479308128356934e+00 -5.214229226112365723e-01 8.490542769432067871e-01
1.520000000000000000e+02 2.136049652099609375e+01 -8.103272438049316406e+00 -4.840604364871978760e-01 -1.369372725486755371e+00 -5.560299158096313477e-01 8.592399954795837402e-01
1.530000000000000000e+02 2.011603736877441406e+01 -6.269954204559326172e+00 -6.924078464508056641e-01 -1.303432226181030273e+00 -5.987520217895507812e-01 1.022310256958007812e+00
1.540000000000000000e+02 2.094775009155273438e+01 -7.490758895874023438e+00 -6.007580161094665527e-01 -1.434029102325439453e+00 -6.104361414909362793e-01 9.570462703704833984e-01
1.550000000000000000e+02 2.175327110290527344e+01 -8.746680259704589844e+00 -3.709217309951782227e-01 -1.337424635887145996e+00 -5.125039219856262207e-01 7.566328048706054688e-01
1.560000000000000000e+02 2.110262489318847656e+01 -9.099308967590332031e+00 -1.788551211357116699e-01 -1.378365159034729004e+00 -4.671660661697387695e-01 7.018353939056396484e-01
1.570000000000000000e+02 2.255355262756347656e+01 -9.960243225097656250e+00 -2.607944011688232422e-01 -1.134050130844116211e+00 -4.184533655643463135e-01 5.634611248970031738e-01
1.580000000000000000e+02 2.213368797302246094e+01 -1.023264026641845703e+01 -6.273709982633590698e-02 -1.271249771118164062e+00 -4.001960456371307373e-01 4.507298171520233154e-01
1.590000000000000000e+02 2.296421432495117188e+01 -1.087253475189208984e+01 -1.566197164356708527e-02 -8.756406903266906738e-01 -2.673907876014709473e-01 2.952474057674407959e-01
1.600000000000000000e+02 2.206832695007324219e+01 -1.091864681243896484e+01 1.927737295627593994e-01 -1.311539530754089355e+00 -3.356297612190246582e-01 2.803544700145721436e-01
1.610000000000000000e+02 2.203308868408203125e+01 -1.128071784973144531e+01 4.085207879543304443e-01 -1.373981475830078125e+00 -2.896381914615631104e-01 2.525439858436584473e-01
1.620000000000000000e+02 2.236227035522460938e+01 -1.063271236419677734e+01 6.076846644282341003e-02 -1.179751276969909668e+00 -3.356948494911193848e-01 3.783243298530578613e-01
1.630000000000000000e+02 2.272523498535156250e+01 -1.045806121826171875e+01 -1.643942445516586304e-01 -1.001285672187805176e+00 -3.497039973735809326e-01 4.417861104011535645e-01
1.640000000000000000e+02 2.281993484497070312e+01 -1.098900794982910156e+01 4.139636829495429993e-02 -9.320549368858337402e-01 -2.671975791454315186e-01 2.429645806550979614e-01
1.650000000000000000e+02 2.309173393249511719e+01 -1.065087509155273438e+01 -2.161110937595367432e-01 -8.720072507858276367e-01 -3.264355063438415527e-01 4.174715578556060791e-01
1.660000000000000000e+02 2.131570243835449219e+01 -9.663964271545410156e+00 -8.148256689310073853e-02 -1.388749480247497559e+00 -4.410696029663085938e-01 5.823126435279846191e-01
1.670000000000000000e+02 2.246890449523925781e+01 -1.113221931457519531e+01 2.238732874393463135e-01 -1.114056110382080078e+00 -2.670548558235168457e-01 2.179385125637054443e-01
1.680000000000000000e+02 2.178603744506835938e+01 -1.058686923980712891e+01 1.824932247400283813e-01 -1.345919847488403320e+00 -3.490279912948608398e-01 3.857595920562744141e-01
1.690000000000000000e+02 2.253106117248535156e+01 -1.088889312744140625e+01 5.322482436895370483e-02 -1.074927449226379395e+00 -3.065107762813568115e-01 2.598332166671752930e-01
1.700000000000000000e+02 2.216602897644042969e+01 -9.378917694091796875e+00 -3.375099897384643555e-01 -1.305823683738708496e+00 -4.930001199245452881e-01 6.674498915672302246e-01
1.710000000000000000e+02 2.150545501708984375e+01 -1.014295578002929688e+01 6.366790086030960083e-02 -1.382740497589111328e+00 -3.957217931747436523e-01 4.970760643482208252e-01
1.720000000000000000e+02 2.179067039489746094e+01 -9.789484024047851562e+00 -1.066008210182189941e-01 -1.286450743675231934e+00 -4.179154932498931885e-01 5.461888313293457031e-01
1.730000000000000000e+02 2.274778938293457031e+01 -1.078081512451171875e+01 1.577401161193847656e-02 -9.946042895317077637e-01 -2.936490774154663086e-01 2.908243238925933838e-01
1.740000000000000000e+02 2.265058517456054688e+01 -1.107823085784912109e+01 1.625973582267761230e-01 -9.952410459518432617e-01 -2.497930973768234253e-01 2.038565278053283691e-01
1.750000000000000000e+02 2.226787567138671875e+01 -1.120549964904785156e+01 3.246120810508728027e-01 -1.226653099060058594e+00 -2.706122994422912598e-01 2.140167504549026489e-01
1.760000000000000000e+02 2.329743385314941406e+01 -1.097457599639892578e+01 -1.218704953789710999e-01 -6.225376725196838379e-01 -2.233224511146545410e-01 3.311404585838317871e-01
1.770000000000000000e+02 2.386101722717285156e+01 -1.203953552246093750e+01 1.395239830017089844e-01 -3.705274686217308044e-02 3.074137121438980103e-02 -4.629135876893997192e-02
1.780000000000000000e+02 2.517650222778320312e+01 -1.483898639678955078e+01 3.096830099821090698e-02 3.966734647750854492e+00 1.199310898780822754e+00 1.116352677345275879e-01
1.790000000000000000e+02 2.356845474243164062e+01 -1.376280593872070312e+01 4.735305309295654297e+00 -1.250236153602600098e+00 1.045520663261413574e+00 1.000642895698547363e+00
1.800000000000000000e+02 2.218364143371582031e+01 -1.157892322540283203e+01 6.026237607002258301e-01 -1.354417800903320312e+00 -2.255382239818572998e-01 1.258341968059539795e-01
1.810000000000000000e+02 2.236996841430664062e+01 -1.147850608825683594e+01 4.151399731636047363e-01 -1.225808620452880859e+00 -2.432006001472473145e-01 1.524079591035842896e-01
1.820000000000000000e+02 2.237398147583007812e+01 -1.193152332305908203e+01 7.982822656631469727e-01 -1.355096936225891113e+00 -1.670444011688232422e-01 4.731807112693786621e-02
1.830000000000000000e+02 2.399208068847656250e+01 -1.269526672363281250e+01 8.565663695335388184e-01 4.820370078086853027e-01 4.015810191631317139e-01 -7.083030939102172852e-01
1.840000000000000000e+02 2.291644287109375000e+01 -1.263171577453613281e+01 1.506926774978637695e+00 -1.172526955604553223e+00 1.003199443221092224e-01 -2.537780702114105225e-01
1.850000000000000000e+02 2.373265457153320312e+01 -1.391996955871582031e+01 5.244898796081542969e+00 -8.767476677894592285e-01 1.310445308685302734e+00 1.733064770698547363e+00
1.860000000000000000e+02 2.351535797119140625e+01 -1.290409851074218750e+01 2.089226961135864258e+00 -5.643609762191772461e-01 4.574598371982574463e-01 -9.010170698165893555e-01
1.870000000000000000e+02 2.325810241699218750e+01 -1.352272987365722656e+01 3.402413845062255859e+00 -1.709130525588989258e+00 5.079849958419799805e-01 2.666271924972534180e-01
1.880000000000000000e+02 2.373554420471191406e+01 -1.304169750213623047e+01 2.693601131439208984e+00 -1.316216737031936646e-01 7.685938477516174316e-01 -1.176496267318725586e+00
1.890000000000000000e+02 2.273339843750000000e+01 -1.264737319946289062e+01 1.514501094818115234e+00 -1.480154871940612793e+00 1.030386611819267273e-02 -1.239489689469337463e-01
1.900000000000000000e+02 2.227832603454589844e+01 -1.175529479980468750e+01 5.736363530158996582e-01 -1.329548597335815430e+00 -2.267736643552780151e-01 1.170497685670852661e-01
1.910000000000000000e+02 2.585473251342773438e+01 -1.372441482543945312e+01 6.184390544891357422e+00 2.663372993469238281e+00 2.654329061508178711e+00 2.571849524974822998e-01
1.920000000000000000e+02 2.553066635131835938e+01 -1.428477859497070312e+01 3.866701602935791016e+00 4.255993843078613281e+00 2.436808586120605469e+00 -1.352261781692504883e+00
1.930000000000000000e+02 2.500625801086425781e+01 -1.487674045562744141e+01 -9.828742593526840210e-02 4.036421775817871094e+00 1.181440353393554688e+00 7.991821765899658203e-01
1.940000000000000000e+02 2.435114479064941406e+01 -1.450717926025390625e+01 2.295200109481811523e+00 3.961577177047729492e+00 1.877033233642578125e+00 3.394488096237182617e+00
1.950000000000000000e+02 2.453843498229980469e+01 -1.456131553649902344e+01 1.658508777618408203e+00 4.692944526672363281e+00 1.905435919761657715e+00 2.767886161804199219e+00
1.960000000000000000e+02 2.399608993530273438e+01 -1.440951251983642578e+01 3.127354383468627930e+00 1.690324544906616211e+00 1.445303678512573242e+00 3.355933666229248047e+00
1.970000000000000000e+02 2.461835289001464844e+01 -1.026439666748046875e+01 -1.771551817655563354e-01 1.907485604286193848e+00 5.190991163253784180e-01 -2.705922536551952362e-02
1.980000000000000000e+02 2.382119941711425781e+01 -1.136137294769287109e+01 2.730230093002319336e-01 1.351774811744689941e+00 4.874393641948699951e-01 -5.719649195671081543e-01
1.990000000000000000e+02 2.478408050537109375e+01 -1.235565280914306641e+01 8.716148883104324341e-02 4.426789760589599609e+00 1.354185461997985840e+00 -5.852996110916137695e-01
2.000000000000000000e+02 2.524506187438964844e+01 -1.242388629913330078e+01 4.792588949203491211e-01 5.585203647613525391e+00 1.819338798522949219e+00 1.146362781524658203e+00
2.010000000000000000e+02 2.582055282592773438e+01 -1.256828022003173828e+01 2.130738496780395508e+00 4.249761104583740234e+00 1.914149880409240723e+00 2.466554880142211914e+00
2.020000000000000000e+02 2.352001762390136719e+01 -1.085164642333984375e+01 2.389000058174133301e-01 1.018748521804809570e+00 3.772945702075958252e-01 -4.788838922977447510e-01
2.030000000000000000e+02 2.371512985229492188e+01 -1.119513607025146484e+01 2.615454196929931641e-01 1.198549032211303711e+00 4.380283355712890625e-01 -5.429520606994628906e-01
2.040000000000000000e+02 2.470554733276367188e+01 -1.045633697509765625e+01 -1.798633337020874023e-01 2.021582841873168945e+00 5.525158643722534180e-01 -3.165436908602714539e-02
2.050000000000000000e+02 2.407904434204101562e+01 -1.053511524200439453e+01 -2.646384993568062782e-03 1.519869565963745117e+00 4.551669359207153320e-01 -2.927124500274658203e-01
2.060000000000000000e+02 2.442101478576660156e+01 -1.035146522521972656e+01 -1.345612853765487671e-01 1.756789445877075195e+00 4.866684675216674805e-01 -1.573421061038970947e-01
2.070000000000000000e+02 2.412391471862792969e+01 -1.190098953247070312e+01 3.264312744140625000e-01 1.785398364067077637e+00 6.335489153861999512e-01 -7.659598588943481445e-01
2.080000000000000000e+02 2.478727531433105469e+01 -1.210087013244628906e+01 6.214211136102676392e-02 3.943836927413940430e+00 1.201793670654296875e+00 -4.020777046680450439e-01
2.090000000000000000e+02 2.456648635864257812e+01 -1.238845825195312500e+01 3.183207511901855469e-01 3.425783395767211914e+00 1.123231291770935059e+00 -9.479731917381286621e-01
2.100000000000000000e+02 2.435843849182128906e+01 -1.245687007904052734e+01 4.354991912841796875e-01 2.274439334869384766e+00 8.129815459251403809e-01 -1.067253470420837402e+00
2.110000000000000000e+02 2.588604354858398438e+01 -1.352921295166015625e+01 6.191759109497070312e+00 2.645804405212402344e+00 2.651268959045410156e+00 1.234124422073364258e+00
2.120000000000000000e+02 2.608586692810058594e+01 -1.309583854675292969e+01 4.366466045379638672e+00 2.740418195724487305e+00 2.132065296173095703e+00 2.182878255844116211e+00
2.130000000000000000e+02 2.579216384887695312e+01 -1.304057121276855469e+01 4.594434261322021484e+00 3.876359701156616211e+00 2.541238307952880859e+00 2.810165643692016602e+00
2.140000000000000000e+02 2.558299064636230469e+01 -1.270356273651123047e+01 2.291080236434936523e+00 5.263333320617675781e+00 2.266324043273925781e+00 2.653099775314331055e+00
2.150000000000000000e+02 2.415762329101562500e+01 -1.256492328643798828e+01 1.543393582105636597e-01 3.742330968379974365e-01 1.585717350244522095e-01 -3.485176265239715576e-01
2.160000000000000000e+02 2.384786224365234375e+01 -1.285280227661132812e+01 1.512938618659973145e+00 2.502002418041229248e-01 5.289416909217834473e-01 -1.124208092689514160e+00
2.170000000000000000e+02 2.382849693298339844e+01 -1.408400917053222656e+01 4.925084114074707031e+00 -1.047619283199310303e-01 1.446096658706665039e+00 2.571204662322998047e+00
2.180000000000000000e+02 2.394215583801269531e+01 -1.460198116302490234e+01 1.763802647590637207e+00 1.644217371940612793e+00 1.022405982017517090e+00 3.298039913177490234e+00
2.190000000000000000e+02 2.473859786987304688e+01 -1.458727645874023438e+01 1.217859268188476562e+00 5.416128158569335938e+00 1.990196347236633301e+00 1.769483327865600586e+00
2.200000000000000000e+02 2.264937210083007812e+01 -1.155669593811035156e+01 3.845157027244567871e-01 -1.058002352714538574e+00 -2.020460069179534912e-01 7.309991121292114258e-02
2.210000000000000000e+02 2.329499816894531250e+01 -1.144794273376464844e+01 5.213744938373565674e-02 -5.990740656852722168e-01 -1.640809923410415649e-01 1.094558760523796082e-01
2.220000000000000000e+02 2.517374992370605469e+01 -1.468907260894775391e+01 1.021424531936645508e+00 4.804037094116210938e+00 1.747638583183288574e+00 -7.854901254177093506e-02
2.230000000000000000e+02 2.495141029357910156e+01 -1.456050586700439453e+01 1.363079190254211426e+00 5.729076385498046875e+00 2.127646684646606445e+00 8.744473457336425781e-01
2.240000000000000000e+02 2.393973350524902344e+01 -1.423395729064941406e+01 4.143138408660888672e+00 1.016775846481323242e+00 1.547974228858947754e+00 3.146675825119018555e+00
2.250000000000000000e+02 2.303779411315917969e+01 -1.313213539123535156e+01 2.365076780319213867e+00 -1.518736839294433594e+00 2.539019882678985596e-01 -1.731919497251510620e-01
2.260000000000000000e+02 2.365809249877929688e+01 -1.361518383026123047e+01 5.072026252746582031e+00 -1.233577728271484375e+00 1.151534438133239746e+00 3.737354874610900879e-01
2.270000000000000000e+02 2.330921554565429688e+01 -1.320257282257080078e+01 2.978507041931152344e+00 -1.370295524597167969e+00 4.824634790420532227e-01 -3.468478024005889893e-01
2.280000000000000000e+02 2.497636604309082031e+01 -1.473523235321044922e+01 5.180774331092834473e-01 4.865318775177001953e+00 1.615018963813781738e+00 8.308581113815307617e-01
2.290000000000000000e+02 2.499269676208496094e+01 -1.170391368865966797e+01 -5.612657219171524048e-02 3.622300148010253906e+00 1.069852113723754883e+00 2.141607925295829773e-02
2.300000000000000000e+02 2.544007873535156250e+01 -1.255058383941650391e+01 1.274363398551940918e+00 5.597722053527832031e+00 2.061625719070434570e+00 2.038642644882202148e+00
2.310000000000000000e+02 2.614603996276855469e+01 -1.326158523559570312e+01 4.833289623260498047e+00 2.417141914367675781e+00 2.175129413604736328e+00 1.804757237434387207e+00
2.320000000000000000e+02 2.513565444946289062e+01 -1.186740398406982422e+01 1.251952536404132843e-02 4.011297702789306641e+00 1.207145214080810547e+00 2.523617744445800781e-01
2.330000000000000000e+02 2.597162246704101562e+01 -1.336192703247070312e+01 5.552120685577392578e+00 2.678008556365966797e+00 2.469038963317871094e+00 1.733819603919982910e+00
2.340000000000000000e+02 2.566347885131835938e+01 -1.411362743377685547e+01 4.899168491363525391e+00 3.732594013214111328e+00 2.589528799057006836e+00 -1.214594244956970215e+00
2.350000000000000000e+02 2.570038795471191406e+01 -1.286681175231933594e+01 3.487792015075683594e+00 4.606410026550292969e+00 2.428260564804077148e+00 2.930580854415893555e+00
2.360000000000000000e+02 2.577523231506347656e+01 -1.392021274566650391e+01 5.841711997985839844e+00 2.957045793533325195e+00 2.639627218246459961e+00 -5.565873980522155762e-01
2.370000000000000000e+02 2.501133155822753906e+01 -1.236014938354492188e+01 1.314253658056259155e-01 5.225477695465087891e+00 1.607070922851562500e+00 2.063508033752441406e-01
2.380000000000000000e+02 2.516719818115234375e+01 -1.450222206115722656e+01 1.947049379348754883e+00 5.471040725708007812e+00 2.225426912307739258e+00 -3.297522366046905518e-01
2.390000000000000000e+02 2.360543251037597656e+01 -1.420070266723632812e+01 3.583766698837280273e+00 -8.958989381790161133e-01 8.063603043556213379e-01 2.580471992492675781e+00
2.400000000000000000e+02 2.371170425415039062e+01 -1.435514163970947266e+01 3.049469947814941406e+00 -4.168948829174041748e-01 7.897725105285644531e-01 2.994529247283935547e+00
2.410000000000000000e+02 2.532552909851074219e+01 -1.475836467742919922e+01 7.714452743530273438e-01 4.323384284973144531e+00 1.528448939323425293e+00 -6.507743597030639648e-01
2.420000000000000000e+02 2.536301040649414062e+01 -1.441596889495849609e+01 2.827466249465942383e+00 5.057851314544677734e+00 2.365595340728759766e+00 -9.587914943695068359e-01
2.430000000000000000e+02 2.410221672058105469e+01 -1.467620658874511719e+01 1.574872374534606934e+00 2.537954092025756836e+00 1.233847975730895996e+00 3.424979686737060547e+00
2.440000000000000000e+02 2.484353637695312500e+01 -1.486985588073730469e+01 -1.549329757690429688e-01 4.490362167358398438e+00 1.300628781318664551e+00 1.506696224212646484e+00
2.450000000000000000e+02 2.606823730468750000e+01 -1.398804664611816406e+01 4.743726253509521484e+00 2.092939853668212891e+00 2.050999879837036133e+00 -5.468074679374694824e-01
2.460000000000000000e+02 2.427626037597656250e+01 -1.474726867675781250e+01 8.961964845657348633e-01 2.855914115905761719e+00 1.125633120536804199e+00 3.060622930526733398e+00
2.470000000000000000e+02 2.613298225402832031e+01 -1.360227584838867188e+01 5.143382549285888672e+00 1.904420614242553711e+00 2.114341020584106445e+00 6.430809497833251953e-01
2.480000000000000000e+02 2.601394081115722656e+01 -1.292145156860351562e+01 3.858112573623657227e+00 3.226298570632934570e+00 2.125323295593261719e+00 2.496515989303588867e+00
2.490000000000000000e+02 2.580430793762207031e+01 -1.421951198577880859e+01 4.148011207580566406e+00 3.150241374969482422e+00 2.189475774765014648e+00 -1.214611530303955078e+00
2.500000000000000000e+02 2.616092300415039062e+01 -1.342565631866455078e+01 5.109977722167968750e+00 2.044388055801391602e+00 2.146309852600097656e+00 1.175917029380798340e+00
2.510000000000000000e+02 2.381569862365722656e+01 -1.449723815917968750e+01 2.611661434173583984e+00 2.645313143730163574e-01 8.628578186035156250e-01 3.099500656127929688e+00
2.520000000000000000e+02 2.548108482360839844e+01 -1.463811397552490234e+01 1.500145554542541504e+00 4.033625602722167969e+00 1.660131335258483887e+00 -1.031998634338378906e+00
2.530000000000000000e+02 2.290980911254882812e+01 -1.240044212341308594e+01 1.202815532684326172e+00 -1.094614744186401367e+00 3.246022760868072510e-02 -2.939049303531646729e-01
2.540000000000000000e+02 2.332761001586914062e+01 -1.371373844146728516e+01 4.118933677673339844e+00 -1.871802210807800293e+00 6.741394400596618652e-01 6.451444029808044434e-01
2.550000000000000000e+02 2.247306442260742188e+01 -1.210826587677001953e+01 8.260170817375183105e-01 -1.314856886863708496e+00 -1.466519385576248169e-01 -1.998433470726013184e-02
2.560000000000000000e+02 2.314067268371582031e+01 -1.332427883148193359e+01 3.061216354370117188e+00 -1.671092867851257324e+00 4.170370995998382568e-01 -1.273437030613422394e-02
2.570000000000000000e+02 2.257507133483886719e+01 -1.228637313842773438e+01 1.110747814178466797e+00 -1.377316594123840332e+00 -7.997061312198638916e-02 -8.213569968938827515e-02
2.580000000000000000e+02 2.340139389038085938e+01 -1.387627315521240234e+01 3.934069871902465820e+00 -1.502726793289184570e+00 7.294028997421264648e-01 1.393753528594970703e+00
2.590000000000000000e+02 2.341044425964355469e+01 -1.308515739440917969e+01 2.811314582824707031e+00 -8.939753174781799316e-01 5.752017498016357422e-01 -7.599168419837951660e-01
2.600000000000000000e+02 2.266686820983886719e+01 -1.246864795684814453e+01 1.214655041694641113e+00 -1.380348205566406250e+00 -4.970795661211013794e-02 -8.505792170763015747e-02
2.610000000000000000e+02 2.350641822814941406e+01 -1.403683567047119141e+01 3.901685953140258789e+00 -1.258273124694824219e+00 7.930238246917724609e-01 1.982949972152709961e+00
2.620000000000000000e+02 2.367571830749511719e+01 -1.168523597717285156e+01 4.245262220501899719e-02 -2.886897623538970947e-01 -7.387114316225051880e-02 9.491676837205886841e-02
2.630000000000000000e+02 2.358017730712890625e+01 -1.150982475280761719e+01 -5.821205303072929382e-02 -4.069854617118835449e-01 -1.395592540502548218e-01 1.339537650346755981e-01
2.640000000000000000e+02 2.357573699951171875e+01 -1.197587585449218750e+01 3.169689476490020752e-01 -2.874071300029754639e-01 8.868548087775707245e-03 -1.109750345349311829e-01
2.650000000000000000e+02 2.395431137084960938e+01 -1.221832752227783203e+01 1.222643405199050903e-01 6.284800916910171509e-02 5.553370714187622070e-02 -1.775935292243957520e-01
2.660000000000000000e+02 2.339111328125000000e+01 -1.115420627593994141e+01 -1.186957359313964844e-01 -5.891211032867431641e-01 -2.123450487852096558e-01 2.559022009372711182e-01
2.670000000000000000e+02 2.311085891723632812e+01 -1.107822704315185547e+01 -3.971467912197113037e-02 -8.258168697357177734e-01 -2.596594691276550293e-01 2.587085664272308350e-01
2.680000000000000000e+02 2.320273780822753906e+01 -1.126342964172363281e+01 5.026374012231826782e-02 -6.708837151527404785e-01 -1.861859858036041260e-01 2.029439806938171387e-01
2.690000000000000000e+02 2.395146942138671875e+01 -1.152002143859863281e+01 2.723530530929565430e-01 1.522269606590270996e+00 5.383867621421813965e-01 -6.247947812080383301e-01
2.700000000000000000e+02 2.420391273498535156e+01 -1.208600902557373047e+01 3.494009375572204590e-01 1.933513760566711426e+00 6.848744153976440430e-01 -8.662048578262329102e-01
2.710000000000000000e+02 2.428341293334960938e+01 -1.226949214935302734e+01 4.344867169857025146e-01 2.113667249679565430e+00 7.644461989402770996e-01 -9.341862201690673828e-01
2.720000000000000000e+02 2.499561882019042969e+01 -1.097233295440673828e+01 -1.643298268318176270e-01 2.676788568496704102e+00 7.537376284599304199e-01 7.626176625490188599e-02
2.730000000000000000e+02 2.405487251281738281e+01 -1.170173072814941406e+01 2.687199711799621582e-01 1.634632229804992676e+00 5.710056424140930176e-01 -6.967179179191589355e-01
2.740000000000000000e+02 2.570532226562500000e+01 -1.238878631591796875e+01 1.360218644142150879e+00 4.545092582702636719e+00 1.771593332290649414e+00 2.098365783691406250e+00
2.750000000000000000e+02 2.592383193969726562e+01 -1.274467945098876953e+01 2.990576505661010742e+00 3.777539253234863281e+00 2.030434608459472656e+00 2.579545736312866211e+00
2.760000000000000000e+02 2.507247352600097656e+01 -1.115683555603027344e+01 -1.526186466217041016e-01 2.953910827636718750e+00 8.403876423835754395e-01 1.512578278779983521e-01
2.770000000000000000e+02 2.486541938781738281e+01 -1.150192642211914062e+01 -6.250283122062683105e-02 3.096953392028808594e+00 9.103351831436157227e-01 -1.639579087495803833e-01
2.780000000000000000e+02 2.563184547424316406e+01 -1.220093536376953125e+01 8.344343304634094238e-01 4.502421379089355469e+00 1.601056694984436035e+00 1.668057918548583984e+00
2.790000000000000000e+02 2.546445083618164062e+01 -1.186829757690429688e+01 2.637517750263214111e-01 4.067863464355468750e+00 1.299484491348266602e+00 1.005207777023315430e+00
2.800000000000000000e+02 2.446009826660156250e+01 -1.134267234802246094e+01 5.430601164698600769e-02 2.297031164169311523e+00 7.054011225700378418e-01 -4.596829116344451904e-01
2.810000000000000000e+02 2.274019622802734375e+01 -1.127867412567138672e+01 1.867838501930236816e-01 -9.739583134651184082e-01 -2.361523360013961792e-01 1.572159230709075928e-01
2.820000000000000000e+02 2.255531311035156250e+01 -1.137841224670410156e+01 3.602710366249084473e-01 -1.093588113784790039e+00 -2.199951261281967163e-01 1.221558824181556702e-01
2.830000000000000000e+02 2.301645469665527344e+01 -1.136505031585693359e+01 1.354985386133193970e-01 -8.150662183761596680e-01 -2.038703113794326782e-01 1.254171729087829590e-01
2.840000000000000000e+02 2.389547920227050781e+01 -1.064183235168457031e+01 1.049442291259765625e-01 1.337811946868896484e+00 4.328268468379974365e-01 -3.956302404403686523e-01
2.850000000000000000e+02 2.425050354003906250e+01 -1.042563629150390625e+01 -7.901617884635925293e-02 1.660191893577575684e+00 4.743527173995971680e-01 -2.510443925857543945e-01
2.860000000000000000e+02 2.386045265197753906e+01 -1.253095912933349609e+01 5.474934577941894531e-01 2.121525555849075317e-01 2.278937995433807373e-01 -5.787469744682312012e-01
2.870000000000000000e+02 2.347136116027832031e+01 -1.324658107757568359e+01 3.222484350204467773e+00 -1.048389196395874023e+00 6.522285938262939453e-01 -5.412212610244750977e-01
2.880000000000000000e+02 2.460816001892089844e+01 -1.078639125823974609e+01 -1.021325662732124329e-01 2.156501293182373047e+00 6.163105964660644531e-01 -1.527821570634841919e-01
2.890000000000000000e+02 2.439581489562988281e+01 -1.179726600646972656e+01 1.623941063880920410e-01 2.457641124725341797e+00 7.860105633735656738e-01 -7.265961766242980957e-01
2.900000000000000000e+02 2.525919723510742188e+01 -1.202650356292724609e+01 1.116389781236648560e-01 4.636369705200195312e+00 1.424402594566345215e+00 6.875532269477844238e-01
2.910000000000000000e+02 2.446775436401367188e+01 -1.197701454162597656e+01 2.232498675584793091e-01 2.713052511215209961e+00 8.808907270431518555e-01 -7.658292651176452637e-01
2.920000000000000000e+02 2.246564865112304688e+01 -1.165578460693359375e+01 5.838940739631652832e-01 -1.207925915718078613e+00 -1.872095465660095215e-01 5.442473664879798889e-02
2.930000000000000000e+02 2.400173759460449219e+01 -1.079728126525878906e+01 8.777522295713424683e-02 1.504777073860168457e+00 4.777657091617584229e-01 -4.119082689285278320e-01
2.940000000000000000e+02 2.420515060424804688e+01 -1.110626411437988281e+01 8.827267587184906006e-02 1.883589863777160645e+00 5.915587544441223145e-01 -5.039443969726562500e-01
2.950000000000000000e+02 2.452738380432128906e+01 -1.217546939849853516e+01 2.203162610530853271e-01 3.010167598724365234e+00 9.691451787948608398e-01 -8.684188127517700195e-01
2.960000000000000000e+02 2.317367744445800781e+01 -1.209755802154541016e+01 6.486811637878417969e-01 -7.095493078231811523e-01 -1.826044917106628418e-02 -2.590378224849700928e-01
2.970000000000000000e+02 2.327463912963867188e+01 -1.258913707733154297e+01 1.407129883766174316e+00 -7.046599984169006348e-01 2.107409834861755371e-01 -5.632557272911071777e-01
2.980000000000000000e+02 2.317956352233886719e+01 -1.234533405303955078e+01 9.312636852264404297e-01 -6.943527460098266602e-01 7.107329368591308594e-02 -3.683656156063079834e-01
2.990000000000000000e+02 2.283234214782714844e+01 -1.146058177947998047e+01 3.136654794216156006e-01 -9.095116257667541504e-01 -1.787538379430770874e-01 7.099942862987518311e-02
3.000000000000000000e+02 2.438688850402832031e+01 -1.159851932525634766e+01 1.279490888118743896e-01 2.331245183944702148e+00 7.377582788467407227e-01 -6.010443568229675293e-01
3.010000000000000000e+02 2.436009407043457031e+01 -1.052765083312988281e+01 -7.744766771793365479e-02 1.785888791084289551e+00 5.125323534011840820e-01 -2.102818191051483154e-01
3.020000000000000000e+02 2.361698913574218750e+01 -1.102506542205810547e+01 2.386375665664672852e-01 1.097269415855407715e+00 4.007720947265625000e-01 -5.136890411376953125e-01
3.030000000000000000e+02 2.410727310180664062e+01 -1.094777393341064453e+01 9.944661706686019897e-02 1.673731923103332520e+00 5.319535732269287109e-01 -4.473393261432647705e-01
3.040000000000000000e+02 2.461610031127929688e+01 -1.167185878753662109e+01 4.683467373251914978e-02 2.845166683197021484e+00 8.676003813743591309e-01 -4.362525343894958496e-01
3.050000000000000000e+02 2.391623115539550781e+01 -1.106823062896728516e+01 1.904275566339492798e-01 1.442514300346374512e+00 4.898825585842132568e-01 -5.167986750602722168e-01
3.060000000000000000e+02 2.292040252685546875e+01 -1.164253425598144531e+01 3.365149497985839844e-01 -8.566648960113525391e-01 -1.560449898242950439e-01 9.616671130061149597e-03
3.070000000000000000e+02 2.374755287170410156e+01 -1.234956359863281250e+01 5.314438343048095703e-01 5.174762010574340820e-02 1.749574244022369385e-01 -3.879112005233764648e-01
3.080000000000000000e+02 2.352184677124023438e+01 -1.248869132995605469e+01 9.213148951530456543e-01 -2.777421176433563232e-01 1.930718272924423218e-01 -5.835993885993957520e-01
3.090000000000000000e+02 2.402057266235351562e+01 -1.121280670166015625e+01 2.053127735853195190e-01 1.525174736976623535e+00 5.191462635993957520e-01 -5.464842915534973145e-01
3.100000000000000000e+02 2.429963493347167969e+01 -1.081489181518554688e+01 -5.342395044863224030e-03 1.837021827697753906e+00 5.495038628578186035e-01 -3.385482430458068848e-01
3.110000000000000000e+02 2.481061363220214844e+01 -1.062528419494628906e+01 -1.629377603530883789e-01 2.229541778564453125e+00 6.199811697006225586e-01 1.285843923687934875e-02
3.120000000000000000e+02 2.449398040771484375e+01 -1.063873672485351562e+01 -9.930800646543502808e-02 1.992645978927612305e+00 5.680013895034790039e-01 -1.891047060489654541e-01
3.130000000000000000e+02 2.490871047973632812e+01 -1.079481697082519531e+01 -1.658637374639511108e-01 2.422450542449951172e+00 6.769760847091674805e-01 1.808940246701240540e-02
3.140000000000000000e+02 2.370891571044921875e+01 -1.074719810485839844e+01 1.616712063550949097e-01 1.181154727935791016e+00 4.028477668762207031e-01 -4.525976181030273438e-01
3.150000000000000000e+02 2.471588706970214844e+01 -1.092416191101074219e+01 -1.023676469922065735e-01 2.325876712799072266e+00 6.670527458190917969e-01 -1.099263355135917664e-01
3.160000000000000000e+02 2.515667915344238281e+01 -1.134115791320800781e+01 -1.115461289882659912e-01 3.258634567260742188e+00 9.441265463829040527e-01 2.728090584278106689e-01
3.170000000000000000e+02 2.525418472290039062e+01 -1.152218151092529297e+01 -4.557184129953384399e-02 3.503509998321533203e+00 1.037381410598754883e+00 4.085549116134643555e-01
3.180000000000000000e+02 2.535993957519531250e+01 -1.169646930694580078e+01 5.811505950987339020e-03 3.848188638687133789e+00 1.156200051307678223e+00 6.281120181083679199e-01
3.190000000000000000e+02 2.381260108947753906e+01 -1.091180133819580078e+01 1.884347051382064819e-01 1.301434755325317383e+00 4.469608366489410400e-01 -4.885157346725463867e-01
3.200000000000000000e+02 2.417961502075195312e+01 -1.130857658386230469e+01 1.623782813549041748e-01 1.828949093818664551e+00 5.973982214927673340e-01 -5.670105218887329102e-01
3.210000000000000000e+02 2.540076637268066406e+01 -1.218817615509033203e+01 4.918136298656463623e-01 4.821328163146972656e+00 1.593942523002624512e+00 1.218732953071594238e+00
3.220000000000000000e+02 2.292517089843750000e+01 -1.117904281616210938e+01 1.210884749889373779e-01 -8.548471927642822266e-01 -2.201276123523712158e-01 1.743091940879821777e-01
3.230000000000000000e+02 2.348529243469238281e+01 -1.133278560638427734e+01 -5.112069100141525269e-02 -4.961547255516052246e-01 -1.641826182603836060e-01 2.138022035360336304e-01
3.240000000000000000e+02 2.338859176635742188e+01 -1.162937831878662109e+01 1.657908409833908081e-01 -5.015076398849487305e-01 -1.007150411605834961e-01 4.731143638491630554e-02
3.250000000000000000e+02 2.348557853698730469e+01 -1.180236434936523438e+01 1.438373923301696777e-01 -3.945071697235107422e-01 -7.520093023777008057e-02 -4.294179007411003113e-02
3.260000000000000000e+02 2.266921806335449219e+01 -1.200778961181640625e+01 7.918827533721923828e-01 -1.156136155128479004e+00 -1.092760190367698669e-01 -5.282269418239593506e-02
3.270000000000000000e+02 2.280125808715820312e+01 -1.218583106994628906e+01 8.372641205787658691e-01 -1.044506072998046875e+00 -6.217260286211967468e-02 -1.934060603380203247e-01
3.280000000000000000e+02 2.256251144409179688e+01 -1.183177471160888672e+01 5.935044288635253906e-01 -1.174419283866882324e+00 -1.742744594812393188e-01 1.224600709974765778e-02
3.290000000000000000e+02 2.281556510925292969e+01 -1.279863834381103516e+01 1.688676476478576660e+00 -1.430275201797485352e+00 7.752038538455963135e-02 -2.059707641601562500e-01
3.300000000000000000e+02 2.293547058105468750e+01 -1.294801235198974609e+01 2.102404594421386719e+00 -1.465681076049804688e+00 1.910170614719390869e-01 -1.888519376516342163e-01
3.310000000000000000e+02 2.328654289245605469e+01 -1.282336425781250000e+01 1.866696834564208984e+00 -7.989742755889892578e-01 3.203167617321014404e-01 -5.626566410064697266e-01
3.320000000000000000e+02 2.309125137329101562e+01 -1.273929595947265625e+01 1.672123312950134277e+00 -1.143317818641662598e+00 1.586416363716125488e-01 -4.395271241664886475e-01
3.330000000000000000e+02 2.367972183227539062e+01 -1.325199031829833984e+01 3.706364393234252930e+00 -6.593859195709228516e-01 9.140935540199279785e-01 -9.199143648147583008e-01
3.340000000000000000e+02 2.367574691772460938e+01 -1.345125675201416016e+01 4.832312107086181641e+00 -9.982358813285827637e-01 1.150222778320312500e+00 -3.614937067031860352e-01
3.350000000000000000e+02 2.418034553527832031e+01 -1.443082237243652344e+01 2.836995124816894531e+00 2.680599927902221680e+00 1.655278563499450684e+00 3.626361131668090820e+00
3.360000000000000000e+02 2.446403312683105469e+01 -1.480172348022460938e+01 1.279698461294174194e-01 3.814236879348754883e+00 1.182662010192871094e+00 2.519937753677368164e+00
3.370000000000000000e+02 2.466387557983398438e+01 -1.483420944213867188e+01 -9.267847985029220581e-02 4.312469959259033203e+00 1.265937447547912598e+00 2.123017787933349609e+00
3.380000000000000000e+02 2.565302658081054688e+01 -1.451163864135742188e+01 2.485060453414916992e+00 3.760701179504394531e+00 1.873728513717651367e+00 -1.332219958305358887e+00
3.390000000000000000e+02 2.592638206481933594e+01 -1.429708290100097656e+01 3.401912212371826172e+00 2.716165304183959961e+00 1.835423231124877930e+00 -1.254334807395935059e+00
3.400000000000000000e+02 2.580641365051269531e+01 -1.440766048431396484e+01 3.013823270797729492e+00 3.206386804580688477e+00 1.866062998771667480e+00 -1.467633843421936035e+00
3.410000000000000000e+02 2.601966667175292969e+01 -1.414974212646484375e+01 3.926747083663940430e+00 2.407520294189453125e+00 1.900280237197875977e+00 -1.007660627365112305e+00
3.420000000000000000e+02 2.609547042846679688e+01 -1.379719257354736328e+01 5.095405101776123047e+00 1.987864732742309570e+00 2.124980926513671875e+00 1.735113002359867096e-02
3.430000000000000000e+02 2.591108131408691406e+01 -1.404734134674072266e+01 4.844259738922119141e+00 2.696508169174194336e+00 2.262230396270751953e+00 -8.412798643112182617e-01
3.440000000000000000e+02 2.585758399963378906e+01 -1.321654796600341797e+01 5.529892921447753906e+00 3.197259664535522461e+00 2.618145942687988281e+00 2.344782352447509766e+00
3.450000000000000000e+02 2.556685447692871094e+01 -1.202999401092529297e+01 4.760769903659820557e-01 4.144406795501708984e+00 1.386145234107971191e+00 1.238507747650146484e+00
3.460000000000000000e+02 2.376956748962402344e+01 -1.186135292053222656e+01 1.412948407232761383e-02 -1.865673065185546875e-01 -5.173134803771972656e-02 -1.610613428056240082e-02
3.470000000000000000e+02 2.337969589233398438e+01 -1.207510185241699219e+01 4.739031791687011719e-01 -4.199284017086029053e-01 1.619243249297142029e-02 -2.607067525386810303e-01
3.480000000000000000e+02 2.405327033996582031e+01 -1.239415073394775391e+01 2.349016815423965454e-01 2.387709319591522217e-01 1.421017795801162720e-01 -2.230016589164733887e-01
3.490000000000000000e+02 2.366633987426757812e+01 -1.269254875183105469e+01 1.373545408248901367e+00 -5.838991701602935791e-02 3.945466279983520508e-01 -7.895485758781433105e-01
3.500000000000000000e+02 2.349091148376464844e+01 -1.345489692687988281e+01 4.115263462066650391e+00 -1.335593938827514648e+00 8.339008688926696777e-01 -1.202558055520057678e-01
3.510000000000000000e+02 2.418655586242675781e+01 -1.067576980590820312e+01 7.349058985710144043e-03 1.684839129447937012e+00 5.076564550399780273e-01 -3.305529952049255371e-01
3.520000000000000000e+02 2.456419372558593750e+01 -1.109380817413330078e+01 -1.937943324446678162e-02 2.267858743667602539e+00 6.745437979698181152e-01 -2.843798995018005371e-01
3.530000000000000000e+02 2.477710533142089844e+01 -1.108259868621826172e+01 -1.029324233531951904e-01 2.529510736465454102e+00 7.279735207557678223e-01 -1.504363566637039185e-01
3.540000000000000000e+02 2.310576248168945312e+01 -1.155357265472412109e+01 2.588438093662261963e-01 -7.180008888244628906e-01 -1.377471238374710083e-01 5.515003949403762817e-02
3.550000000000000000e+02 2.329515457153320312e+01 -1.192101097106933594e+01 4.508803188800811768e-01 -5.704084038734436035e-01 -3.585842624306678772e-02 -1.084948703646659851e-01
3.560000000000000000e+02 2.343463516235351562e+01 -1.226942443847656250e+01 7.140417098999023438e-01 -3.717291653156280518e-01 1.026937663555145264e-01 -3.609721660614013672e-01
3.570000000000000000e+02 2.365696334838867188e+01 -1.216024208068847656e+01 3.460988700389862061e-01 -1.517336815595626831e-01 5.830955877900123596e-02 -2.893166244029998779e-01
3.580000000000000000e+02 2.324054718017578125e+01 -1.303976821899414062e+01 2.521678924560546875e+00 -1.237383961677551270e+00 3.852885067462921143e-01 -5.684839487075805664e-01
3.590000000000000000e+02 2.479124259948730469e+01 -1.128945255279541016e+01 -6.376334279775619507e-02 2.787096500396728516e+00 8.169999718666076660e-01 -1.810072660446166992e-01
3.600000000000000000e+02 2.504230308532714844e+01 -1.208955287933349609e+01 4.267743974924087524e-02 4.445905685424804688e+00 1.346575021743774414e+00 1.703273206949234009e-01
3.610000000000000000e+02 2.297305870056152344e+01 -1.202783584594726562e+01 7.081094980239868164e-01 -8.384441733360290527e-01 -3.910040110349655151e-02 -1.350648850202560425e-01
3.620000000000000000e+02 2.283376312255859375e+01 -1.189886093139648438e+01 6.008890271186828613e-01 -1.002983927726745605e+00 -1.206284612417221069e-01 -9.819550067186355591e-02
3.630000000000000000e+02 2.274141120910644531e+01 -1.173172283172607422e+01 5.532946586608886719e-01 -1.015591263771057129e+00 -1.386889666318893433e-01 -2.353906072676181793e-02
3.640000000000000000e+02 2.473115921020507812e+01 -1.186506557464599609e+01 2.468024939298629761e-02 3.380483865737915039e+00 1.021549224853515625e+00 -3.990240097045898438e-01
3.650000000000000000e+02 2.319034004211425781e+01 -1.175258922576904297e+01 2.827198505401611328e-01 -6.397590041160583496e-01 -1.071117520332336426e-01 -4.013672098517417908e-02
3.660000000000000000e+02 2.299699592590332031e+01 -1.182911872863769531e+01 4.897581636905670166e-01 -7.779989838600158691e-01 -8.647225052118301392e-02 -1.159903034567832947e-01
3.670000000000000000e+02 2.440919113159179688e+01 -1.097391128540039062e+01 -9.981540963053703308e-03 2.073107481002807617e+00 6.189377903938293457e-01 -3.263168334960937500e-01
3.680000000000000000e+02 2.332975959777832031e+01 -8.507303237915039062e+00 -2.223241329193115234e-01 6.840262413024902344e-01 1.385106295347213745e-01 2.755932323634624481e-02
3.690000000000000000e+02 2.375115585327148438e+01 -1.005139446258544922e+01 -2.123594284057617188e-02 1.098294258117675781e+00 3.231174647808074951e-01 -2.285083234310150146e-01
3.700000000000000000e+02 2.412470626831054688e+01 -1.023111724853515625e+01 -9.084898233413696289e-02 1.504680395126342773e+00 4.241494238376617432e-01 -2.097128331661224365e-01
3.710000000000000000e+02 2.274834251403808594e+01 -8.983891487121582031e+00 -2.099953405559062958e-02 3.988992571830749512e-01 1.133699193596839905e-01 -1.030025929212570190e-01
3.720000000000000000e+02 2.431722831726074219e+01 -1.011918449401855469e+01 -1.593121141195297241e-01 1.641289472579956055e+00 4.445932209491729736e-01 -1.506713628768920898e-01
3.730000000000000000e+02 2.446824455261230469e+01 -9.955760955810546875e+00 -2.150706648826599121e-01 1.652421236038208008e+00 4.312051832675933838e-01 -4.813139885663986206e-02
3.740000000000000000e+02 2.301399612426757812e+01 -7.905782222747802734e+00 -2.826029062271118164e-01 4.827490746974945068e-01 6.004384905099868774e-02 1.136373206973075867e-01
3.750000000000000000e+02 2.239991950988769531e+01 -8.323890686035156250e+00 -9.425000846385955811e-02 1.986681520938873291e-01 3.132544457912445068e-02 2.573347464203834534e-02
3.760000000000000000e+02 2.303833961486816406e+01 -9.681060791015625000e+00 5.616212636232376099e-02 5.643520951271057129e-01 1.861542761325836182e-01 -2.236450165510177612e-01
3.770000000000000000e+02 2.378370857238769531e+01 -1.030433177947998047e+01 3.400512784719467163e-02 1.176576972007751465e+00 3.631746172904968262e-01 -2.960048913955688477e-01
3.780000000000000000e+02 2.395886993408203125e+01 -1.037138843536376953e+01 -7.873773574829101562e-03 1.342129468917846680e+00 4.002767205238342285e-01 -2.803665697574615479e-01
3.790000000000000000e+02 2.398145294189453125e+01 -9.959114074707031250e+00 -1.043346300721168518e-01 1.310115814208984375e+00 3.617343306541442871e-01 -1.711745113134384155e-01
3.800000000000000000e+02 2.421674919128417969e+01 -9.811043739318847656e+00 -1.808668971061706543e-01 1.472982287406921387e+00 3.876346349716186523e-01 -8.939943462610244751e-02
3.810000000000000000e+02 2.345110511779785156e+01 -9.584634780883789062e+00 -4.971959441900253296e-02 8.581077456474304199e-01 2.425164431333541870e-01 -1.731941401958465576e-01
3.820000000000000000e+02 2.404852485656738281e+01 -9.429016113281250000e+00 -2.050227969884872437e-01 1.259603619575500488e+00 3.163742721080780029e-01 -6.181989982724189758e-02
3.830000000000000000e+02 2.369517898559570312e+01 -9.014897346496582031e+00 -2.045649886131286621e-01 9.340115785598754883e-01 2.188339680433273315e-01 -4.326417297124862671e-02
3.840000000000000000e+02 2.379169654846191406e+01 -9.727608680725097656e+00 -1.050438508391380310e-01 1.110917448997497559e+00 3.017620742321014404e-01 -1.564109474420547485e-01
3.850000000000000000e+02 2.381119728088378906e+01 -1.048260974884033203e+01 7.872951030731201172e-02 1.234039306640625000e+00 3.938306570053100586e-01 -3.711656033992767334e-01
3.860000000000000000e+02 2.364659500122070312e+01 -1.056200599670410156e+01 1.571107506752014160e-01 1.124130845069885254e+00 3.843724727630615234e-01 -4.058753252029418945e-01
3.870000000000000000e+02 2.349200630187988281e+01 -1.060169315338134766e+01 1.997659057378768921e-01 9.689904451370239258e-01 3.506269156932830811e-01 -4.409603476524353027e-01
3.880000000000000000e+02 2.349711608886718750e+01 -1.010333633422851562e+01 6.842435151338577271e-02 8.938765525817871094e-01 2.886902689933776855e-01 -2.920959889888763428e-01
3.890000000000000000e+02 2.328385734558105469e+01 -1.032049751281738281e+01 1.728679388761520386e-01 8.037283420562744141e-01 2.929788827896118164e-01 -3.811407685279846191e-01
3.900000000000000000e+02 2.359542465209960938e+01 -1.038302898406982422e+01 1.042215749621391296e-01 1.002223372459411621e+00 3.319334983825683594e-01 -3.545512557029724121e-01
3.910000000000000000e+02 2.176358604431152344e+01 -5.991405963897705078e+00 -5.141876935958862305e-01 -4.567952826619148254e-02 -1.679601669311523438e-01 3.721410036087036133e-01
3.920000000000000000e+02 2.073557853698730469e+01 -5.794119834899902344e+00 -4.868366718292236328e-01 -5.333759188652038574e-01 -3.060637712478637695e-01 4.994115531444549561e-01
3.930000000000000000e+02 2.159106254577636719e+01 -7.055338859558105469e+00 -2.517418563365936279e-01 -1.902433186769485474e-01 -1.325955390930175781e-01 2.527705430984497070e-01
3.940000000000000000e+02 2.201800537109375000e+01 -7.684557914733886719e+00 -1.766038388013839722e-01 -6.235474720597267151e-03 -5.485179275274276733e-02 1.392870247364044189e-01
3.950000000000000000e+02 2.264233016967773438e+01 -7.286725521087646484e+00 -3.498515486717224121e-01 3.084722757339477539e-01 -1.241378299891948700e-02 1.947010755538940430e-01
3.960000000000000000e+02 2.132341575622558594e+01 -5.342503070831298828e+00 -6.081088185310363770e-01 -1.643291562795639038e-01 -2.317313849925994873e-01 4.284954965114593506e-01
3.970000000000000000e+02 2.116358566284179688e+01 -6.425094127655029297e+00 -3.354853391647338867e-01 -3.624211549758911133e-01 -2.093719542026519775e-01 3.666675090789794922e-01
3.980000000000000000e+02 2.220322418212890625e+01 -6.639578342437744141e+00 -4.133402705192565918e-01 1.094673871994018555e-01 -9.116186201572418213e-02 2.786832153797149658e-01
3.990000000000000000e+02 1.974656295776367188e+01 -3.537436008453369141e+00 -8.431123495101928711e-01 -4.818844497203826904e-01 -3.974990248680114746e-01 6.405261158943176270e-01
4.000000000000000000e+02 1.870244216918945312e+01 -3.497282505035400391e+00 -9.950752258300781250e-01 -8.304734230041503906e-01 -5.476645827293395996e-01 8.467031717300415039e-01
4.010000000000000000e+02 1.974456596374511719e+01 -4.629005432128906250e+00 -6.986744999885559082e-01 -6.683645248413085938e-01 -4.101116955280303955e-01 6.845853328704833984e-01
4.020000000000000000e+02 2.026276969909667969e+01 -5.195233345031738281e+00 -6.278275251388549805e-01 -6.272696256637573242e-01 -3.765291571617126465e-01 6.111046671867370605e-01
4.030000000000000000e+02 2.083261680603027344e+01 -4.721695899963378906e+00 -6.684030294418334961e-01 -3.027621805667877197e-01 -2.913495600223541260e-01 4.916690289974212646e-01
4.040000000000000000e+02 1.920084571838378906e+01 -2.946005821228027344e+00 -8.777120709419250488e-01 -5.289815068244934082e-01 -4.220080673694610596e-01 6.083304882049560547e-01
4.050000000000000000e+02 1.922434425354003906e+01 -4.062799930572509766e+00 -7.761868834495544434e-01 -7.468993663787841797e-01 -4.569258689880371094e-01 7.622238993644714355e-01
4.060000000000000000e+02 2.029059791564941406e+01 -4.129554748535156250e+00 -7.247358560562133789e-01 -4.255040884017944336e-01 -3.450720012187957764e-01 5.842937827110290527e-01
4.070000000000000000e+02 1.724629974365234375e+01 -1.505973219871520996e+00 -8.502761125564575195e-01 -5.352790355682373047e-01 -4.156665503978729248e-01 6.488955616950988770e-01
4.080000000000000000e+02 1.620514488220214844e+01 -1.697480440139770508e+00 -1.037427663803100586e+00 -4.912196695804595947e-01 -4.585942029953002930e-01 6.604807376861572266e-01
4.090000000000000000e+02 1.748624420166015625e+01 -2.562495470046997070e+00 -1.056300282478332520e+00 -5.601698756217956543e-01 -4.849410355091094971e-01 7.677834033966064453e-01
4.100000000000000000e+02 1.812313652038574219e+01 -2.997157573699951172e+00 -1.130119919776916504e+00 -7.300503849983215332e-01 -5.580511093139648438e-01 8.421909809112548828e-01
4.110000000000000000e+02 1.859226417541503906e+01 -2.421155929565429688e+00 -8.337569236755371094e-01 -6.157463788986206055e-01 -4.348509907722473145e-01 6.335877180099487305e-01
4.120000000000000000e+02 1.657006454467773438e+01 -1.050868153572082520e+00 -7.690495848655700684e-01 -5.268960595130920410e-01 -3.887836933135986328e-01 5.699890255928039551e-01
4.130000000000000000e+02 1.792063713073730469e+01 -1.962957024574279785e+00 -8.405429720878601074e-01 -6.137849688529968262e-01 -4.362983703613281250e-01 6.947377324104309082e-01
4.140000000000000000e+02 1.684664344787597656e+01 -2.129048585891723633e+00 -9.995563030242919922e-01 -5.230132341384887695e-01 -4.567708373069763184e-01 7.177248597145080566e-01
4.150000000000000000e+02 1.437439537048339844e+01 -8.830149471759796143e-02 -6.169514656066894531e-01 -2.850152552127838135e-01 -2.705900073051452637e-01 4.019760191440582275e-01
4.160000000000000000e+02 1.338726615905761719e+01 -4.958960413932800293e-01 -5.998085141181945801e-01 -1.451400518417358398e-01 -2.234845608472824097e-01 2.653050422668457031e-01
4.170000000000000000e+02 1.481616306304931641e+01 -1.058209896087646484e+00 -7.985077500343322754e-01 -2.141863703727722168e-01 -3.038082420825958252e-01 4.038318693637847900e-01
4.180000000000000000e+02 1.552819252014160156e+01 -1.340840697288513184e+00 -9.809789657592773438e-01 -3.561971783638000488e-01 -4.011528491973876953e-01 5.395748019218444824e-01
4.190000000000000000e+02 1.586064529418945312e+01 -6.765008568763732910e-01 -6.952289938926696777e-01 -4.903787970542907715e-01 -3.556823432445526123e-01 5.371443033218383789e-01
4.200000000000000000e+02 1.362912273406982422e+01 2.041978091001510620e-01 -5.463085174560546875e-01 -2.341053038835525513e-01 -2.341241389513015747e-01 3.353468477725982666e-01
4.210000000000000000e+02 1.511841678619384766e+01 -3.819521367549896240e-01 -6.726851463317871094e-01 -3.838551044464111328e-01 -3.169620633125305176e-01 5.053858757019042969e-01
4.220000000000000000e+02 1.410233974456787109e+01 -7.764772772789001465e-01 -6.702434420585632324e-01 -1.668246686458587646e-01 -2.511204183101654053e-01 3.325520157814025879e-01
4.230000000000000000e+02 1.131013679504394531e+01 8.408998847007751465e-01 -4.049496948719024658e-01 -9.615773707628250122e-02 -1.503322273492813110e-01 1.698904335498809814e-01
4.240000000000000000e+02 1.042135906219482422e+01 2.992311716079711914e-01 -3.366853594779968262e-01 -4.297245293855667114e-02 -1.138973459601402283e-01 8.930687606334686279e-02
4.250000000000000000e+02 1.191366195678710938e+01 -7.340838760137557983e-02 -4.216858148574829102e-01 -6.175512447953224182e-02 -1.450322866439819336e-01 1.446308791637420654e-01
4.260000000000000000e+02 1.265766906738281250e+01 -2.614961266517639160e-01 -5.176579356193542480e-01 -9.041012078523635864e-02 -1.824204176664352417e-01 2.022811919450759888e-01
4.270000000000000000e+02 1.286749935150146484e+01 4.488001465797424316e-01 -4.873782098293304443e-01 -1.928917318582534790e-01 -2.040809839963912964e-01 2.750100493431091309e-01
4.280000000000000000e+02 1.052962684631347656e+01 1.034987807273864746e+00 -3.498653173446655273e-01 -6.926823407411575317e-02 -1.257400661706924438e-01 1.382930427789688110e-01
4.290000000000000000e+02 1.116801452636718750e+01 1.136300638318061829e-01 -3.626248538494110107e-01 -3.678432479500770569e-02 -1.198227554559707642e-01 1.176442801952362061e-01
4.300000000000000000e+02 1.208963775634765625e+01 6.453746557235717773e-01 -4.493167102336883545e-01 -1.243282631039619446e-01 -1.720934957265853882e-01 2.250896096229553223e-01
4.310000000000000000e+02 9.769897460937500000e+00 1.127334952354431152e+00 -3.007164001464843750e-01 -5.845008790493011475e-02 -1.077499464154243469e-01 1.189976111054420471e-01
4.320000000000000000e+02 8.908253669738769531e+00 3.834950029850006104e-01 -1.951432675123214722e-01 -8.864571340382099152e-03 -6.120235100388526917e-02 2.903977036476135254e-02
4.330000000000000000e+02 8.148585319519042969e+00 3.813146948814392090e-01 -1.410040557384490967e-01 1.614575041458010674e-03 -4.181684181094169617e-02 2.321318909525871277e-02
4.340000000000000000e+02 7.554188251495361328e+00 1.119702935218811035e+00 -1.628677845001220703e-01 -5.358973983675241470e-03 -5.046802759170532227e-02 5.819676071405410767e-02
4.350000000000000000e+02 5.871814727783203125e+00 3.743358254432678223e-01 -3.714893758296966553e-02 -4.352104850113391876e-03 -1.245031319558620453e-02 1.161110773682594299e-02
4.360000000000000000e+02 5.112776756286621094e+00 3.704028129577636719e-01 -1.491019222885370255e-02 1.051192986778914928e-03 -4.157699644565582275e-03 9.563875384628772736e-03
4.370000000000000000e+02 4.353713035583496094e+00 3.684068620204925537e-01 2.279612701386213303e-03 -2.628684975206851959e-03 -1.047216428560204804e-04 6.694626994431018829e-03
4.380000000000000000e+02 2.836367130279541016e+00 3.604523241519927979e-01 1.731908507645130157e-02 -1.910841092467308044e-03 4.622473381459712982e-03 8.927396265789866447e-04
4.390000000000000000e+02 2.079849958419799805e+00 3.577947616577148438e-01 1.437441818416118622e-02 -1.019872841425240040e-03 4.006363451480865479e-03 -2.192981773987412453e-03
4.400000000000000000e+02 2.391217708587646484e+00 1.097794771194458008e+00 -3.343620803207159042e-03 -7.678795605897903442e-03 -3.306724829599261284e-03 9.599103359505534172e-04
4.410000000000000000e+02 1.668007969856262207e+00 1.106352806091308594e+00 1.215815427713096142e-03 -3.382273018360137939e-03 -6.499372539110481739e-04 -4.799748770892620087e-03
4.420000000000000000e+02 3.545288145542144775e-01 9.535720348358154297e-01 -1.074275001883506775e-03 3.822137834504246712e-03 8.243588381446897984e-04 -3.066752105951309204e-03
4.430000000000000000e+02 1.335685014724731445e+00 3.663527369499206543e-01 7.193217985332012177e-03 -5.569754866883158684e-04 1.990872668102383614e-03 -3.641938557848334312e-03
4.440000000000000000e+02 3.126780033111572266e+00 1.100452303886413574e+00 -1.241136528551578522e-02 -6.190598476678133011e-03 -5.580589175224304199e-03 8.580064401030540466e-03
4.450000000000000000e+02 3.594501495361328125e+00 3.669418096542358398e-01 1.294288598001003265e-02 -4.493185260798782110e-04 3.748070448637008667e-03 3.992409911006689072e-03
4.460000000000000000e+02 5.340324878692626953e+00 1.110402822494506836e+00 -6.381360441446304321e-02 -8.972840383648872375e-03 -2.183593437075614929e-02 3.319013491272926331e-02
4.470000000000000000e+02 6.630899906158447266e+00 3.767811954021453857e-01 -6.541353464126586914e-02 2.583147026598453522e-03 -1.884911581873893738e-02 1.531139761209487915e-02
4.480000000000000000e+02 6.816537857055664062e+00 1.116781234741210938e+00 -1.237986683845520020e-01 -1.026060152798891068e-02 -4.021777957677841187e-02 4.825435206294059753e-02
4.490000000000000000e+02 7.389504909515380859e+00 3.797029256820678711e-01 -9.940582513809204102e-02 -6.028094794601202011e-03 -3.163017705082893372e-02 1.699493639171123505e-02
4.500000000000000000e+02 8.292314529418945312e+00 1.121314764022827148e+00 -2.064567357301712036e-01 -1.720700599253177643e-02 -6.709912419319152832e-02 6.967070698738098145e-02
4.510000000000000000e+02 9.031026840209960938e+00 1.123494982719421387e+00 -2.606707513332366943e-01 -2.260749787092208862e-02 -8.498347550630569458e-02 9.413045644760131836e-02
4.520000000000000000e+02 9.668079376220703125e+00 3.873349428176879883e-01 -2.795320153236389160e-01 -1.683596707880496979e-02 -8.891039341688156128e-02 5.486860126256942749e-02
4.530000000000000000e+02 1.010643720626831055e+00 1.130747556686401367e+00 2.225930802524089813e-04 2.092280425131320953e-03 6.944620399735867977e-04 -6.730385590344667435e-03
4.540000000000000000e+02 6.573658585548400879e-01 3.907475173473358154e-01 3.689755452796816826e-03 1.914613530971109867e-03 1.681310706771910191e-03 -8.961971034295856953e-04
4.550000000000000000e+02 6.078407764434814453e+00 1.114335775375366211e+00 -9.262841939926147461e-02 -2.953251125290989876e-03 -2.867450006306171417e-02 4.018096253275871277e-02
4.560000000000000000e+02 4.602215766906738281e+00 1.108406901359558105e+00 -4.283943399786949158e-02 -4.296969156712293625e-03 -1.414092164486646652e-02 2.447439730167388916e-02
4.570000000000000000e+02 3.863959550857543945e+00 1.106941819190979004e+00 -2.518558315932750702e-02 -8.113038726150989532e-03 -9.989586658775806427e-03 1.753006316721439362e-02
4.580000000000000000e+02 1.445141410827636719e+01 -1.738320231437683105e+00 -2.048213005065917969e+00 -3.142135143280029297e-01 -7.087278962135314941e-01 8.533159494400024414e-01
4.590000000000000000e+02 1.399005413055419922e+01 -2.351786375045776367e+00 -1.743708848953247070e+00 -1.942823380231857300e-01 -5.813973546028137207e-01 8.074361681938171387e-01
4.600000000000000000e+02 1.315893840789794922e+01 -1.124567389488220215e+00 -2.082797765731811523e+00 -1.914765089750289917e-01 -6.822822690010070801e-01 7.256209254264831543e-01
4.610000000000000000e+02 1.342884063720703125e+01 -1.939940571784973145e+00 -1.912068009376525879e+00 -1.348215490579605103e-01 -6.140668392181396484e-01 7.189314365386962891e-01
4.620000000000000000e+02 1.515422248840332031e+01 -2.034060716629028320e+00 -1.757925629615783691e+00 -3.258605003356933594e-01 -6.251358389854431152e-01 8.655784726142883301e-01
4.630000000000000000e+02 1.476873493194580078e+01 -2.677469968795776367e+00 -1.640614748001098633e+00 -2.658623158931732178e-01 -5.719431042671203613e-01 9.634882211685180664e-01
4.640000000000000000e+02 1.380067443847656250e+01 -1.425752282142639160e+00 -2.146074533462524414e+00 -2.995443046092987061e-01 -7.336856722831726074e-01 8.241227865219116211e-01
4.650000000000000000e+02 1.296116638183593750e+01 -1.574859380722045898e+00 -2.071303844451904297e+00 -1.020120009779930115e-01 -6.519947052001953125e-01 6.735582351684570312e-01
4.660000000000000000e+02 1.286564445495605469e+01 -2.057386875152587891e+00 -1.865325927734375000e+00 -1.300033088773488998e-02 -5.634979009628295898e-01 6.577813029289245605e-01
4.670000000000000000e+02 9.399393081665039062e+00 -1.916799783706665039e+00 -1.764038562774658203e+00 3.313168883323669434e-01 -4.298165142536163330e-01 -8.245841600000858307e-03
4.680000000000000000e+02 4.215750217437744141e+00 -1.839565753936767578e+00 -7.533738017082214355e-01 -4.614034667611122131e-02 -2.398542463779449463e-01 -6.088933348655700684e-01
4.690000000000000000e+02 5.334719419479370117e-01 -1.068523216247558594e+01 -1.469968818128108978e-02 -5.089805603027343750e+00 -1.531351566314697266e+00 -3.158892095088958740e-01
4.700000000000000000e+02 1.036286354064941406e+01 -1.186113071441650391e+01 4.123703479766845703e+00 3.825258970260620117e+00 2.384688615798950195e+00 3.168587684631347656e+00
4.710000000000000000e+02 1.113071155548095703e+01 -1.095221233367919922e+01 2.808393239974975586e+00 2.335144996643066406e+00 1.543061494827270508e+00 1.515321969985961914e+00
4.720000000000000000e+02 1.379697036743164062e+01 -1.047092914581298828e+01 1.473928928375244141e+00 1.327545642852783203e-01 4.820050299167633057e-01 8.881351947784423828e-01
4.730000000000000000e+02 1.630824279785156250e+01 -1.306510543823242188e+01 -2.306710928678512573e-02 -2.702251970767974854e-01 -8.798769116401672363e-02 1.568634063005447388e-01
4.740000000000000000e+02 1.973254013061523438e+01 -8.332508087158203125e+00 -2.133278697729110718e-01 -1.294313788414001465e+00 -4.522925019264221191e-01 8.345259428024291992e-01
4.750000000000000000e+02 2.106601524353027344e+01 -1.045808410644531250e+01 2.401514351367950439e-01 -1.487524747848510742e+00 -3.742119967937469482e-01 4.913395047187805176e-01
4.760000000000000000e+02 2.344421386718750000e+01 -1.452134895324707031e+01 1.937249541282653809e+00 -1.060662746429443359e+00 2.629760205745697021e-01 2.840102672576904297e+00
4.770000000000000000e+02 2.442470741271972656e+01 -1.512939643859863281e+01 -1.292229294776916504e+00 2.997717142105102539e+00 5.116463303565979004e-01 2.737014055252075195e+00
4.780000000000000000e+02 3.068564224243164062e+01 -1.818089675903320312e+01 -3.073991298675537109e+00 -2.048636600375175476e-02 -9.283432960510253906e-01 1.283073276281356812e-01
4.790000000000000000e+02 3.934407043457031250e+01 4.536511898040771484e+00 -2.356085777282714844e-01 7.117511630058288574e-01 1.428427845239639282e-01 4.297857582569122314e-01
4.800000000000000000e+02 3.775745010375976562e+01 1.105837821960449219e+01 1.937388926744461060e-01 1.008256673812866211e+00 3.605986833572387695e-01 6.587459444999694824e-01
4.810000000000000000e+02 3.582387161254882812e+01 2.181580162048339844e+01 2.978176176548004150e-01 8.962868452072143555e-01 3.582313358783721924e-01 2.410567104816436768e-01
4.820000000000000000e+02 3.257245635986328125e+01 3.262540054321289062e+01 4.517217576503753662e-01 5.735365152359008789e-01 3.075774908065795898e-01 1.615336686372756958e-01
4.830000000000000000e+02 3.852927780151367188e+01 4.044217300415039062e+01 5.927280187606811523e-01 9.686765074729919434e-01 4.684213697910308838e-01 3.294661268591880798e-02
4.840000000000000000e+02 3.534047698974609375e+01 3.857507705688476562e+01 5.400580763816833496e-01 7.648537158966064453e-01 3.914735317230224609e-01 5.811635032296180725e-02
4.850000000000000000e+02 3.179243087768554688e+01 4.042892456054687500e+01 4.904074966907501221e-01 5.610928535461425781e-01 3.154501020908355713e-01 3.595191240310668945e-02
4.860000000000000000e+02 2.965065765380859375e+01 3.057315063476562500e+01 3.995106816291809082e-01 3.732530772686004639e-01 2.318291366100311279e-01 2.034677118062973022e-01
4.870000000000000000e+02 2.748471069335937500e+01 1.630825805664062500e+01 -1.677496731281280518e-01 4.619024693965911865e-02 -3.646782785654067993e-02 2.751241624355316162e-01
4.880000000000000000e+02 2.698125648498535156e+01 1.017503643035888672e+01 7.057034969329833984e-02 3.890585005283355713e-01 1.378886550664901733e-01 6.523199081420898438e-01
4.890000000000000000e+02 2.572482299804687500e+01 5.714222431182861328e+00 3.482405245304107666e-01 7.785245180130004883e-01 3.380295038223266602e-01 3.625868856906890869e-01
4.900000000000000000e+02 2.288287353515625000e+01 5.150645732879638672e+00 6.207525730133056641e-01 4.400225877761840820e-01 3.182325363159179688e-01 4.868053793907165527e-01
4.910000000000000000e+02 1.959082984924316406e+01 3.484301090240478516e+00 -4.203231036663055420e-01 -1.271274238824844360e-01 -1.642351597547531128e-01 3.972346186637878418e-01
4.920000000000000000e+02 1.734644699096679688e+01 3.640752434730529785e-01 -4.946033656597137451e-01 -5.650609135627746582e-01 -3.178992867469787598e-01 5.500108599662780762e-01
4.930000000000000000e+02 1.972474670410156250e+01 1.872690439224243164e+00 -3.991100490093231201e-01 -1.773062795400619507e-01 -1.729248911142349243e-01 5.170732140541076660e-01
4.940000000000000000e+02 1.694327163696289062e+01 -3.701354861259460449e-01 -6.145666241645812988e-01 -5.544367432594299316e-01 -3.507010042667388916e-01 5.608898401260375977e-01
4.950000000000000000e+02 1.974238014221191406e+01 -2.379899740219116211e+00 -7.652421593666076660e-01 -3.653137981891632080e-01 -3.391667902469635010e-01 5.296279788017272949e-01
4.960000000000000000e+02 2.139722061157226562e+01 -4.297620296478271484e+00 -7.092345952987670898e-01 -5.535712838172912598e-02 -2.293775230646133423e-01 4.425658583641052246e-01
4.970000000000000000e+02 2.169243049621582031e+01 4.575794696807861328e+00 3.622691035270690918e-01 1.989424228668212891e-01 1.683634519577026367e-01 2.736909091472625732e-01
4.980000000000000000e+02 1.598148941993713379e+00 -1.067646408081054688e+01 1.214859485626220703e-01 -3.677840948104858398e+00 -1.066906452178955078e+00 -9.511346220970153809e-01
4.990000000000000000e+02 6.216424703598022461e-01 -1.771654129028320312e+01 1.827684417366981506e-02 -6.057069778442382812e+00 -1.811637878417968750e+00 2.220858931541442871e-01
5.000000000000000000e+02 1.169673252105712891e+01 -1.841154670715332031e+01 2.272229194641113281e+00 3.654102563858032227e+00 1.777899503707885742e+00 -2.942567586898803711e+00
5.010000000000000000e+02 9.963575363159179688e+00 -1.613021850585937500e+01 2.201203584671020508e+00 7.751209735870361328e+00 2.985723972320556641e+00 -3.961678028106689453e+00
5.020000000000000000e+02 9.325760841369628906e+00 -1.486208915710449219e+01 2.192240238189697266e+00 1.210817146301269531e+01 4.290123462677001953e+00 -1.987975955009460449e+00
5.030000000000000000e+02 9.496846199035644531e+00 -1.271406459808349609e+01 3.266148567199707031e+00 1.028433227539062500e+01 4.065144062042236328e+00 2.935407161712646484e+00
5.040000000000000000e+02 1.852405905723571777e+00 -1.765194129943847656e+01 1.950136572122573853e-01 -4.137000560760498047e+00 -1.182596087455749512e+00 5.798243880271911621e-01
5.050000000000000000e+02 6.409317851066589355e-01 -2.331303405761718750e+01 -4.529629275202751160e-02 -3.718094348907470703e+00 -1.129017233848571777e+00 2.413980364799499512e-01
5.060000000000000000e+02 6.280817031860351562e+00 -3.185989189147949219e+01 -2.302261292934417725e-01 -1.420830637216567993e-01 -1.116927564144134521e-01 4.214404523372650146e-01
5.070000000000000000e+02 1.758927917480468750e+01 -4.096378707885742188e+01 -2.770439386367797852e-01 7.946220040321350098e-01 1.552734225988388062e-01 -2.957724034786224365e-02
5.080000000000000000e+02 2.712675285339355469e+01 -4.104309463500976562e+01 1.148454546928405762e-01 4.584975838661193848e-01 1.720029115676879883e-01 -4.088951274752616882e-02
5.090000000000000000e+02 2.612266349792480469e+01 -3.822109222412109375e+01 1.217694878578186035e-01 4.927789866924285889e-01 1.843645423650741577e-01 -1.752851158380508423e-01
5.100000000000000000e+02 3.031109237670898438e+01 -3.634077453613281250e+01 2.963388562202453613e-01 2.057823538780212402e-01 1.506363600492477417e-01 -1.678714156150817871e-01
5.110000000000000000e+02 3.283311080932617188e+01 -3.208250045776367188e+01 3.171576559543609619e-01 -5.368067882955074310e-03 9.353687614202499390e-02 -6.187460198998451233e-02
5.120000000000000000e+02 2.784288978576660156e+01 -3.310673141479492188e+01 3.514506518840789795e-01 2.635437548160552979e-01 1.844983249902725220e-01 -2.697250247001647949e-01
5.130000000000000000e+02 2.856322860717773438e+01 -3.129095458984375000e+01 4.736439287662506104e-01 1.579095274209976196e-01 1.894660443067550659e-01 -2.228008508682250977e-01
5.140000000000000000e+02 2.496039390563964844e+01 -3.132434463500976562e+01 4.571516513824462891e-01 3.882739245891571045e-01 2.536276578903198242e-01 -4.324605464935302734e-01
5.150000000000000000e+02 2.718703651428222656e+01 -3.069222450256347656e+01 5.074920058250427246e-01 1.812128871679306030e-01 2.066114693880081177e-01 -2.954360842704772949e-01
5.160000000000000000e+02 1.789888763427734375e+01 -2.659701538085937500e+01 8.870254158973693848e-01 1.258284807205200195e+00 6.435930728912353516e-01 -9.673294425010681152e-01
5.170000000000000000e+02 1.874137306213378906e+01 -2.547163772583007812e+01 1.274585008621215820e+00 1.290924787521362305e+00 7.696529626846313477e-01 -1.199997305870056152e+00
5.180000000000000000e+02 1.565600109100341797e+01 -2.249734115600585938e+01 1.423935532569885254e+00 1.716662645339965820e+00 9.421794414520263672e-01 -1.609444141387939453e+00
5.190000000000000000e+02 1.465324211120605469e+01 -2.149061393737792969e+01 1.637440204620361328e+00 2.050481557846069336e+00 1.106376528739929199e+00 -1.745878458023071289e+00
5.200000000000000000e+02 1.069026947021484375e+01 -1.923599052429199219e+01 1.135495662689208984e+00 4.258062362670898438e+00 1.618067502975463867e+00 -1.847926855087280273e+00
5.210000000000000000e+02 1.471457672119140625e+01 -2.565718460083007812e+01 5.144235491752624512e-01 1.703574180603027344e+00 6.653993129730224609e-01 -8.943058848381042480e-01
5.220000000000000000e+02 1.161917495727539062e+01 -2.453897476196289062e+01 1.094791218638420105e-01 1.966506719589233398e+00 6.227957606315612793e-01 -6.239262819290161133e-01
5.230000000000000000e+02 6.546728610992431641e-01 -2.471488761901855469e+01 2.277891896665096283e-02 -3.216975212097167969e+00 -9.582589268684387207e-01 2.288377881050109863e-01
5.240000000000000000e+02 7.781791090965270996e-01 -3.037725067138671875e+01 9.894977323710918427e-03 -1.781406044960021973e+00 -5.314533114433288574e-01 1.402521580457687378e-01
5.250000000000000000e+02 8.398526906967163086e-01 -3.180793571472167969e+01 -3.171996772289276123e-02 -1.560331821441650391e+00 -4.776155650615692139e-01 1.165516749024391174e-01
5.260000000000000000e+02 8.073098063468933105e-01 -3.741661071777343750e+01 -9.376730304211378098e-04 -9.978703260421752930e-01 -2.996423840522766113e-01 6.068800017237663269e-02
5.270000000000000000e+02 2.612146377563476562e+00 -3.821512603759765625e+01 -1.698702201247215271e-02 -8.252139687538146973e-01 -2.526603043079376221e-01 1.584513187408447266e-01
5.280000000000000000e+02 3.687087249755859375e+01 -3.711948394775390625e+01 3.229604363441467285e-01 -2.042785286903381348e-02 9.075977653264999390e-02 -6.633883714675903320e-02
5.290000000000000000e+02 3.844776535034179688e+01 -3.284556198120117188e+01 2.233197689056396484e-01 -1.309244520962238312e-02 6.306819617748260498e-02 -3.470996394753456116e-02
5.300000000000000000e+02 3.705725860595703125e+01 -3.262574768066406250e+01 2.685975134372711182e-01 5.160328466445207596e-03 8.212734758853912354e-02 -2.528640069067478180e-02
5.310000000000000000e+02 4.287778472900390625e+01 -3.850575256347656250e+01 4.411182999610900879e-01 -1.800693273544311523e-01 7.831469178199768066e-02 -1.277763247489929199e-01
5.320000000000000000e+02 4.723499298095703125e+01 -3.110247230529785156e+01 -4.968949854373931885e-01 -8.535967022180557251e-02 -1.746764034032821655e-01 -2.581809163093566895e-01
5.330000000000000000e+02 4.302762985229492188e+01 -3.223929977416992188e+01 -3.489664942026138306e-02 -6.873493641614913940e-02 -3.108947537839412689e-02 -9.790960699319839478e-02
5.340000000000000000e+02 4.205179595947265625e+01 -3.486276626586914062e+01 2.170428782701492310e-01 -1.145678609609603882e-01 3.074250556528568268e-02 -1.576701253652572632e-01
5.350000000000000000e+02 4.819582366943359375e+01 -3.882026672363281250e+01 6.294993162155151367e-01 -1.939830332994461060e-01 1.306548714637756348e-01 -1.377994269132614136e-01
5.360000000000000000e+02 5.229832458496093750e+01 -3.893844604492187500e+01 7.385699152946472168e-01 2.648984789848327637e-01 3.010405302047729492e-01 -1.016124989837408066e-02
5.370000000000000000e+02 4.993996429443359375e+01 -3.027053833007812500e+01 -8.224643468856811523e-01 -2.091708183288574219e-01 -3.094905614852905273e-01 -4.021472632884979248e-01
5.380000000000000000e+02 4.858318710327148438e+01 -3.071112823486328125e+01 -7.130950093269348145e-01 -1.669382154941558838e-01 -2.640099823474884033e-01 -3.166057169437408447e-01
5.390000000000000000e+02 5.650114822387695312e+01 -3.864402770996093750e+01 6.885396838188171387e-01 1.159070849418640137e+00 5.542831420898437500e-01 9.176997095346450806e-02
5.400000000000000000e+02 5.722038650512695312e+01 -4.123823928833007812e+01 7.209424376487731934e-01 1.400130271911621094e+00 6.363217830657958984e-01 4.929885268211364746e-02
5.410000000000000000e+02 6.137379074096679688e+01 -2.905159950256347656e+01 -1.848159432411193848e-01 2.536516904830932617e+00 7.055103182792663574e-01 6.901946067810058594e-01
5.420000000000000000e+02 6.175790023803710938e+01 -2.259564018249511719e+01 5.441140532493591309e-01 1.638894557952880859e+00 6.549025774002075195e-01 9.448511600494384766e-01
5.430000000000000000e+02 6.076072311401367188e+01 -2.362690162658691406e+01 1.946218758821487427e-01 9.995839595794677734e-01 3.582617342472076416e-01 5.878115892410278320e-01
5.440000000000000000e+02 5.855334472656250000e+01 -2.541134452819824219e+01 -4.760367274284362793e-01 1.122129261493682861e-01 -1.091471388936042786e-01 -1.199702024459838867e-01
5.450000000000000000e+02 5.619501876831054688e+01 -2.696726036071777344e+01 -8.722810745239257812e-01 -2.164618521928787231e-01 -3.266228735446929932e-01 -4.324123859405517578e-01
5.460000000000000000e+02 5.691774749755859375e+01 -2.812294769287109375e+01 -5.035739541053771973e-01 2.282367795705795288e-01 -8.260114490985870361e-02 -3.972314670681953430e-02
5.470000000000000000e+02 6.207651519775390625e+01 -4.092502212524414062e+01 4.708050489425659180e-01 3.217371463775634766e+00 1.106452941894531250e+00 8.074799180030822754e-02
5.480000000000000000e+02 6.064357376098632812e+01 -3.792124557495117188e+01 4.482917189598083496e-01 2.684647083282470703e+00 9.398816823959350586e-01 2.601140737533569336e-01
5.490000000000000000e+02 7.253860473632812500e+01 -3.249842453002929688e+01 -2.387405931949615479e-01 7.586431026458740234e+00 2.204307079315185547e+00 -3.409008681774139404e-02
5.500000000000000000e+02 6.722329711914062500e+01 -2.205191993713378906e+01 -4.986121952533721924e-01 7.481696605682373047e+00 2.094925403594970703e+00 1.196820616722106934e+00
5.510000000000000000e+02 7.933340454101562500e+01 -2.221713447570800781e+01 3.119585849344730377e-02 8.162715911865234375e+00 2.458173513412475586e+00 -2.816427052021026611e-01
5.520000000000000000e+02 7.800711822509765625e+01 -1.646060943603515625e+01 7.190960645675659180e-02 6.588345050811767578e+00 1.998076438903808594e+00 -8.223033547401428223e-01
5.530000000000000000e+02 7.930141448974609375e+01 -1.240998268127441406e+01 1.027675718069076538e-01 4.198729038238525391e+00 1.290449023246765137e+00 -3.949123993515968323e-02
5.540000000000000000e+02 7.803583526611328125e+01 -9.352431297302246094e+00 1.450306624174118042e-01 6.073337078094482422e+00 1.865510344505310059e+00 6.021783351898193359e-01
5.550000000000000000e+02 7.940702819824218750e+01 -5.523764610290527344e+00 -1.109238192439079285e-01 6.520174980163574219e+00 1.922775387763977051e+00 3.776869773864746094e-01
5.560000000000000000e+02 7.308159637451171875e+01 2.148263931274414062e+00 -8.132994771003723145e-01 7.969292163848876953e+00 2.146797895431518555e+00 -3.767313659191131592e-01
5.570000000000000000e+02 5.548110198974609375e+01 1.173258972167968750e+01 1.982053518295288086e-01 3.570153713226318359e+00 1.130507707595825195e+00 1.195900738239288330e-01
5.580000000000000000e+02 5.703030014038085938e+01 1.251771926879882812e+01 5.177951455116271973e-01 3.498301506042480469e+00 1.204828977584838867e+00 -5.153697729110717773e-01
5.590000000000000000e+02 5.520103073120117188e+01 1.034336280822753906e+01 3.641283512115478516e-01 3.013322353363037109e+00 1.013235211372375488e+00 5.614346861839294434e-01
5.600000000000000000e+02 5.361650466918945312e+01 7.824568271636962891e+00 5.856345891952514648e-01 9.305459260940551758e-01 4.548541605472564697e-01 5.622989535331726074e-01
5.610000000000000000e+02 5.233395385742187500e+01 7.027628421783447266e+00 5.925186872482299805e-01 3.568566441535949707e-01 2.848125994205474854e-01 3.860868513584136963e-01
5.620000000000000000e+02 5.104251480102539062e+01 6.437841415405273438e+00 4.774150550365447998e-01 1.518313288688659668e-01 1.887739151716232300e-01 2.343044131994247437e-01
5.630000000000000000e+02 4.989585876464843750e+01 3.780783891677856445e+00 1.428261697292327881e-01 1.800323426723480225e-01 9.685755521059036255e-02 3.225086033344268799e-01
5.640000000000000000e+02 4.979647445678710938e+01 6.029271602630615234e+00 2.692911028861999512e-01 5.487727001309394836e-02 9.725051373243331909e-02 1.483336389064788818e-01
5.650000000000000000e+02 4.431320953369140625e+01 7.277878761291503906e+00 -1.039895042777061462e-01 5.142189264297485352e-01 1.230688244104385376e-01 -8.346711844205856323e-02
5.660000000000000000e+02 4.225513839721679688e+01 -4.915184974670410156e+00 -6.772783398628234863e-01 2.721811234951019287e-01 -1.215291693806648254e-01 2.232021838426589966e-01
5.670000000000000000e+02 3.708457946777343750e+01 -6.874778866767883301e-01 -3.858309984207153320e-01 5.435651540756225586e-01 4.732024297118186951e-02 4.891597032546997070e-01
5.680000000000000000e+02 3.752262115478515625e+01 -1.410128116607666016e+01 -1.081894516944885254e+00 3.356606140732765198e-02 -3.144985437393188477e-01 -2.477664649486541748e-01
5.690000000000000000e+02 4.466794967651367188e+01 -1.493762111663818359e+01 -1.340518951416015625e+00 -1.957645826041698456e-02 -4.080286026000976562e-01 -3.697392046451568604e-01
5.700000000000000000e+02 4.423851394653320312e+01 -1.745001792907714844e+01 -1.431516885757446289e+00 -1.227748990058898926e-01 -4.662875533103942871e-01 -4.243965744972229004e-01
5.710000000000000000e+02 5.062152481079101562e+01 -1.498143291473388672e+01 -1.423476457595825195e+00 -2.816817164421081543e-01 -5.115474462509155273e-01 -6.831646561622619629e-01
5.720000000000000000e+02 5.424311065673828125e+01 -1.295440006256103516e+01 -1.799233198165893555e+00 -4.898501932621002197e-01 -6.867250204086303711e-01 -9.706770181655883789e-01
5.730000000000000000e+02 5.892604827880859375e+01 -9.960479736328125000e+00 -2.991920709609985352e+00 -9.879994392395019531e-01 -1.193976044654846191e+00 -1.688668966293334961e+00
5.740000000000000000e+02 5.529269790649414062e+01 -6.574724197387695312e+00 -1.963939189910888672e+00 1.704240292310714722e-01 -5.380545854568481445e-01 -2.339663505554199219e-01
5.750000000000000000e+02 5.502547836303710938e+01 5.266489028930664062e+00 2.206046730279922485e-01 1.229937314987182617e+00 4.351626038551330566e-01 1.912215501070022583e-01
5.760000000000000000e+02 5.462303543090820312e+01 8.961338043212890625e+00 5.027387738227844238e-01 1.746181845664978027e+00 6.746761798858642578e-01 6.955767273902893066e-01
5.770000000000000000e+02 6.703397369384765625e+01 -4.085689163208007812e+01 2.038424462080001831e-01 5.134717941284179688e+00 1.601568102836608887e+00 1.071848422288894653e-01
5.780000000000000000e+02 7.480031585693359375e+01 -4.020765304565429688e+01 6.770320236682891846e-02 8.466854095458984375e+00 2.560367345809936523e+00 -8.579098433256149292e-02
5.790000000000000000e+02 7.929107666015625000e+01 -3.334395599365234375e+01 3.974607679992914200e-03 1.004317474365234375e+01 3.014144659042358398e+00 -2.979237772524356842e-02
5.800000000000000000e+02 7.792488861083984375e+01 -3.036147308349609375e+01 -7.533075660467147827e-02 9.402590751647949219e+00 2.798177957534790039e+00 -1.626162976026535034e-01
5.810000000000000000e+02 7.933212280273437500e+01 -2.640340423583984375e+01 -5.008109286427497864e-02 9.381107330322265625e+00 2.799308061599731445e+00 -1.544551253318786621e-01
5.820000000000000000e+02 7.799341583251953125e+01 -2.348470115661621094e+01 -6.552024930715560913e-02 8.547768592834472656e+00 2.544674396514892578e+00 -5.998648405075073242e-01
5.830000000000000000e+02 7.793508911132812500e+01 -4.162064743041992188e+01 1.504486352205276489e-01 9.573843955993652344e+00 2.917287826538085938e+00 4.219810292124748230e-02
5.840000000000000000e+02 7.790932464599609375e+01 -3.684970855712890625e+01 -5.865872371941804886e-03 9.536481857299804688e+00 2.859184741973876953e+00 5.143241584300994873e-02
5.850000000000000000e+02 7.813057708740234375e+01 -2.758490324020385742e+00 -7.204075902700424194e-02 8.091648101806640625e+00 2.405882120132446289e+00 7.245892286300659180e-01
5.860000000000000000e+02 7.934169006347656250e+01 2.839975118637084961e+00 -3.560877963900566101e-02 9.237690925598144531e+00 2.760624885559082031e+00 5.300063267350196838e-02
5.870000000000000000e+02 7.299750518798828125e+01 1.014285564422607422e+01 -1.640198566019535065e-02 6.818487644195556641e+00 2.040625572204589844e+00 -7.279267907142639160e-01
5.880000000000000000e+02 6.047507476806640625e+01 1.960584068298339844e+01 4.302861094474792480e-01 3.635609149932861328e+00 1.219768524169921875e+00 -5.775332450866699219e-01
5.890000000000000000e+02 5.544432830810546875e+01 1.867668914794921875e+01 2.506970167160034180e-01 2.986776351928710938e+00 9.712420105934143066e-01 -8.281745314598083496e-01
5.900000000000000000e+02 5.390035247802734375e+01 1.751431274414062500e+01 6.339179873466491699e-01 1.515987038612365723e+00 6.449714899063110352e-01 -1.023219227790832520e+00
5.910000000000000000e+02 7.803695678710937500e+01 4.353106498718261719e+00 -8.883084356784820557e-02 8.799757957458496094e+00 2.613278150558471680e+00 -3.661898896098136902e-02
5.920000000000000000e+02 7.934660339355468750e+01 8.413014411926269531e+00 5.557206925004720688e-03 8.893682479858398438e+00 2.669771909713745117e+00 -6.531826406717300415e-02
5.930000000000000000e+02 7.273690795898437500e+01 1.830785942077636719e+01 1.396351754665374756e-01 6.271239757537841797e+00 1.923262476921081543e+00 -5.449457168579101562e-01
5.940000000000000000e+02 6.315512847900390625e+01 2.065450096130371094e+01 3.658813238143920898e-01 4.193095684051513672e+00 1.367693066596984863e+00 -5.718249678611755371e-01
5.950000000000000000e+02 5.426159667968750000e+01 3.043932914733886719e+01 6.250217556953430176e-01 2.446854352951049805e+00 9.215628504753112793e-01 -2.911294102668762207e-01
5.960000000000000000e+02 4.760284423828125000e+01 4.084094238281250000e+01 6.826620697975158691e-01 1.787015199661254883e+00 7.409031987190246582e-01 -1.714841928333044052e-03
5.970000000000000000e+02 4.290501785278320312e+01 4.074707031250000000e+01 6.624090075492858887e-01 1.327712297439575195e+00 5.970363616943359375e-01 1.388068497180938721e-02
5.980000000000000000e+02 4.099605941772460938e+01 3.332081604003906250e+01 5.917297005653381348e-01 1.139265894889831543e+00 5.192986726760864258e-01 1.409696936607360840e-01
5.990000000000000000e+02 4.816482162475585938e+01 2.234738922119140625e+01 6.809510588645935059e-01 8.217541575431823730e-01 4.508115649223327637e-01 2.434512972831726074e-01
6.000000000000000000e+02 5.394491195678710938e+01 2.321352386474609375e+01 5.618116259574890137e-01 1.989646434783935547e+00 7.654374241828918457e-01 -6.244334578514099121e-01
6.010000000000000000e+02 7.806118774414062500e+01 1.127323532104492188e+01 -1.181044057011604309e-02 8.152406692504882812e+00 2.442178964614868164e+00 -2.430312484502792358e-01
6.020000000000000000e+02 7.934948730468750000e+01 1.674450302124023438e+01 1.512331794947385788e-02 7.809726238250732422e+00 2.347454786300659180e+00 -6.585884839296340942e-02
6.030000000000000000e+02 7.239718627929687500e+01 2.472507286071777344e+01 9.895762801170349121e-02 5.913700580596923828e+00 1.803797483444213867e+00 -3.847357630729675293e-01
6.040000000000000000e+02 6.278328323364257812e+01 3.234716415405273438e+01 3.497866094112396240e-01 4.111276626586914062e+00 1.338318943977355957e+00 -3.249057233333587646e-01
6.050000000000000000e+02 5.215157699584960938e+01 3.734236907958984375e+01 6.541779041290283203e-01 2.326063632965087891e+00 8.940724730491638184e-01 -6.808020919561386108e-02
6.060000000000000000e+02 7.803755950927734375e+01 1.955144309997558594e+01 1.788145746104419231e-03 7.284860610961914062e+00 2.185994625091552734e+00 -1.728209853172302246e-01
6.070000000000000000e+02 7.932376098632812500e+01 2.369360542297363281e+01 -7.579159922897815704e-03 7.173139572143554688e+00 2.149668216705322266e+00 -4.193923622369766235e-02
6.080000000000000000e+02 7.184847259521484375e+01 2.879067230224609375e+01 1.103298440575599670e-01 5.732566833496093750e+00 1.752869009971618652e+00 -3.089490234851837158e-01
6.090000000000000000e+02 6.261278152465820312e+01 4.055509185791015625e+01 3.763960599899291992e-01 3.988657951354980469e+00 1.309516191482543945e+00 -6.540860980749130249e-02
6.100000000000000000e+02 5.747972106933593750e+01 4.047349166870117188e+01 5.221617221832275391e-01 3.204474925994873047e+00 1.117990970611572266e+00 -6.536518037319183350e-02
6.110000000000000000e+02 7.533319091796875000e+01 2.357889747619628906e+01 5.723540112376213074e-02 6.526588916778564453e+00 1.975147247314453125e+00 -2.892408072948455811e-01
6.120000000000000000e+02 7.926106262207031250e+01 2.928411674499511719e+01 -5.443919450044631958e-03 6.847341537475585938e+00 2.052569389343261719e+00 -3.378087282180786133e-02
6.130000000000000000e+02 6.788616943359375000e+01 3.787539291381835938e+01 2.045495063066482544e-01 4.922226905822753906e+00 1.538032889366149902e+00 -1.146093904972076416e-01
6.140000000000000000e+02 7.919785308837890625e+01 3.210169601440429688e+01 -3.219314618036150932e-03 6.721279621124267578e+00 2.015418052673339844e+00 -2.779326587915420532e-02
6.150000000000000000e+02 7.900832366943359375e+01 3.763792800903320312e+01 2.576224505901336670e-02 6.542535781860351562e+00 1.970489382743835449e+00 -1.278820075094699860e-02
6.160000000000000000e+02 7.708338928222656250e+01 3.754914474487304688e+01 1.820907369256019592e-02 6.338235855102539062e+00 1.906933546066284180e+00 -7.151042670011520386e-02
6.170000000000000000e+02 1.761171531677246094e+01 4.039601135253906250e+01 1.886065751314163208e-01 -1.880826801061630249e-01 1.571716857142746449e-04 4.461388289928436279e-02
6.180000000000000000e+02 2.257547950744628906e+01 4.041353988647460938e+01 2.853755056858062744e-01 4.254399240016937256e-02 9.837584942579269409e-02 4.531927779316902161e-02
6.190000000000000000e+02 1.908507919311523438e+01 3.148618888854980469e+01 1.887423247098922729e-01 -1.065513268113136292e-01 2.465729974210262299e-02 2.487340122461318970e-01
6.200000000000000000e+02 1.994982719421386719e+01 2.284463882446289062e+01 1.919808685779571533e-01 -4.222554713487625122e-02 4.492659866809844971e-02 5.085558891296386719e-01
6.210000000000000000e+02 1.930284690856933594e+01 1.770413398742675781e+01 3.196689486503601074e-01 7.420353591442108154e-02 1.181617453694343567e-01 4.928951263427734375e-01
6.220000000000000000e+02 2.125039100646972656e+01 1.816030693054199219e+01 1.480707526206970215e-01 -2.921069264411926270e-01 -4.321085661649703979e-02 5.986778736114501953e-01
6.230000000000000000e+02 2.248011970520019531e+01 1.568148612976074219e+01 -7.466681599617004395e-01 -4.587214291095733643e-01 -3.616168797016143799e-01 5.510995984077453613e-01
6.240000000000000000e+02 2.429905891418457031e+01 1.599796104431152344e+01 -3.544081449508666992e-01 -4.986302852630615234e-01 -2.559115290641784668e-01 3.846548497676849365e-01
6.250000000000000000e+02 2.358931732177734375e+01 1.490498256683349609e+01 -7.601027488708496094e-01 -6.311594247817993164e-01 -4.173786640167236328e-01 6.389611959457397461e-01
6.260000000000000000e+02 2.545278358459472656e+01 1.270975875854492188e+01 -4.496892690658569336e-01 -6.537851691246032715e-01 -3.310423195362091064e-01 4.784046411514282227e-01
6.270000000000000000e+02 2.567971038818359375e+01 1.127517509460449219e+01 -3.828841447830200195e-02 -1.475063860416412354e-01 -5.573843792080879211e-02 2.959165275096893311e-01
6.280000000000000000e+02 2.573873138427734375e+01 9.925784111022949219e+00 -2.559957094490528107e-02 4.185096919536590576e-01 1.178730353713035583e-01 2.323182672262191772e-01
6.290000000000000000e+02 2.576725196838378906e+01 8.653508186340332031e+00 2.729510068893432617e-01 9.799690246582031250e-01 3.758760094642639160e-01 4.563111066818237305e-01
6.300000000000000000e+02 2.612338447570800781e+01 7.430881977081298828e+00 4.784787297248840332e-01 9.224928021430969238e-01 4.202914535999298096e-01 5.418897867202758789e-01
6.310000000000000000e+02 2.494775390625000000e+01 6.757502555847167969e+00 6.106578707695007324e-01 1.138404488563537598e+00 5.247187018394470215e-01 6.985987424850463867e-01
6.320000000000000000e+02 2.399303054809570312e+01 5.889082431793212891e+00 7.324883937835693359e-01 7.873194217681884766e-01 4.559423625469207764e-01 6.884195208549499512e-01
6.330000000000000000e+02 1.705718612670898438e+01 3.626016616821289062e+01 1.668232977390289307e-01 -2.025774270296096802e-01 -1.072623766958713531e-02 1.240539997816085815e-01
6.340000000000000000e+02 1.372497272491455078e+01 3.221252441406250000e+01 9.498903900384902954e-02 -3.278598189353942871e-01 -6.986124068498611450e-02 1.750233620405197144e-01
6.350000000000000000e+02 1.453266906738281250e+01 2.175080108642578125e+01 9.771622717380523682e-02 5.122001748532056808e-03 3.085146844387054443e-02 3.056600391864776611e-01
6.360000000000000000e+02 1.812097930908203125e+01 1.672377014160156250e+01 7.022252082824707031e-01 2.313487231731414795e-01 2.800721824169158936e-01 4.602573812007904053e-01
6.370000000000000000e+02 1.764043807983398438e+01 1.812916946411132812e+01 2.148829400539398193e-01 3.846392929553985596e-01 1.798566728830337524e-01 5.477883815765380859e-01
6.380000000000000000e+02 1.279566574096679688e+01 4.075103759765625000e+01 9.650554507970809937e-02 -4.502047300338745117e-01 -1.061097607016563416e-01 2.567553147673606873e-02
6.390000000000000000e+02 7.589346408843994141e+00 3.300049972534179688e+01 3.385634347796440125e-02 -7.200634479522705078e-01 -2.058621197938919067e-01 7.978853583335876465e-02
6.400000000000000000e+02 6.615074634552001953e+00 2.992491149902343750e+01 1.777741685509681702e-02 -7.373127341270446777e-01 -2.158605903387069702e-01 8.363740891218185425e-02
6.410000000000000000e+02 7.471229076385498047e+00 2.295050239562988281e+01 7.338714599609375000e-02 -5.696847438812255859e-01 -1.488892734050750732e-01 1.467634737491607666e-01
6.420000000000000000e+02 1.321670055389404297e+01 9.692544937133789062e+00 -1.898001134395599365e-01 -4.450849294662475586e-01 -1.904655098915100098e-01 5.119003653526306152e-01
6.430000000000000000e+02 5.458292007446289062e+00 1.849649548530578613e+00 -1.039348766207695007e-01 -1.287151966243982315e-02 -3.504191711544990540e-02 5.916681513190269470e-02
6.440000000000000000e+02 1.061755752563476562e+01 1.746854305267333984e+00 -3.703968524932861328e-01 -1.144010722637176514e-01 -1.454393714666366577e-01 1.883544027805328369e-01
6.450000000000000000e+02 1.222653484344482422e+01 1.401350855827331543e+00 -4.433473944664001465e-01 -2.041990458965301514e-01 -1.942639350891113281e-01 2.621101737022399902e-01
6.460000000000000000e+02 1.399931812286376953e+01 1.901826620101928711e+00 -4.668974876403808594e-01 -4.118309319019317627e-01 -2.636185288429260254e-01 3.963209688663482666e-01
6.470000000000000000e+02 1.485326004028320312e+01 1.664658784866333008e+00 -4.508564174175262451e-01 -4.926329553127288818e-01 -2.830468118190765381e-01 4.324885010719299316e-01
6.480000000000000000e+02 1.451070785522460938e+01 8.344738960266113281e+00 -3.592105209827423096e-01 -1.064879536628723145e+00 -4.272270202636718750e-01 4.865379631519317627e-01
6.490000000000000000e+02 1.439044475555419922e+01 1.093574142456054688e+01 -2.514742314815521240e-02 -1.956523358821868896e-01 -6.623993068933486938e-02 1.725189685821533203e-01
6.500000000000000000e+02 1.444865131378173828e+01 1.230519485473632812e+01 1.862363815307617188e-01 2.522470057010650635e-01 1.315450221300125122e-01 2.775530517101287842e-01
6.510000000000000000e+02 1.482740497589111328e+01 1.362349891662597656e+01 3.422561585903167725e-01 5.843827128410339355e-01 2.779916524887084961e-01 4.692935943603515625e-01
6.520000000000000000e+02 1.565608310699462891e+01 1.608278465270996094e+01 7.095746397972106934e-01 5.164265036582946777e-01 3.678003549575805664e-01 4.656922519207000732e-01
6.530000000000000000e+02 1.546233654022216797e+01 1.476643180847167969e+01 6.942895054817199707e-01 7.076585292816162109e-01 4.205844104290008545e-01 6.008208394050598145e-01
6.540000000000000000e+02 1.409622287750244141e+01 1.518908405303955078e+01 5.635915398597717285e-01 1.326749920845031738e-01 2.088799625635147095e-01 3.305305242538452148e-01
6.550000000000000000e+02 2.054663658142089844e+00 4.161193847656250000e+01 -2.612523920834064484e-02 -1.208932995796203613e+00 -3.705174624919891357e-01 -7.406707387417554855e-03
6.560000000000000000e+02 4.952839374542236328e+00 3.699313735961914062e+01 2.255779318511486053e-02 -9.801177978515625000e-01 -2.872680127620697021e-01 4.466830193996429443e-02
6.570000000000000000e+02 2.101123332977294922e+00 3.569084930419921875e+01 1.054199226200580597e-02 -1.178898692131042480e+00 -3.505070209503173828e-01 -3.201772226020693779e-03
6.580000000000000000e+02 2.038030624389648438e+00 2.896143341064453125e+01 3.450850024819374084e-03 -1.117046833038330078e+00 -3.340787887573242188e-01 2.377725765109062195e-02
6.590000000000000000e+02 1.956245899200439453e+00 2.328115653991699219e+01 7.837271317839622498e-03 -1.033466696739196777e+00 -3.076888322830200195e-01 3.824811056256294250e-02
6.600000000000000000e+02 1.885503768920898438e+00 1.765055084228515625e+01 1.510792504996061325e-02 -8.608474731445312500e-01 -2.537218630313873291e-01 9.423504024744033813e-02
6.610000000000000000e+02 5.997810363769531250e-01 6.433000564575195312e+00 -4.143890459090471268e-03 -1.047102212905883789e-01 -3.265623375773429871e-02 3.116913139820098877e-02
6.620000000000000000e+02 1.731203198432922363e+00 9.313423156738281250e+00 -1.056798174977302551e-02 -3.194350898265838623e-01 -9.900091588497161865e-02 1.393287330865859985e-01
6.630000000000000000e+02 5.469570636749267578e+00 2.553092479705810547e+00 -1.262418180704116821e-01 -3.141764923930168152e-02 -4.729783907532691956e-02 9.160932153463363647e-02
6.640000000000000000e+02 1.383872127532958984e+01 9.930387139320373535e-01 -4.944595098495483398e-01 -3.359057307243347168e-01 -2.491095662117004395e-01 3.730541467666625977e-01
6.650000000000000000e+02 1.462397766113281250e+01 7.161943316459655762e-01 -5.234432816505432129e-01 -4.032177925109863281e-01 -2.779983282089233398e-01 4.483666419982910156e-01
6.660000000000000000e+02 2.188668060302734375e+01 -4.952797889709472656e+00 -6.656439900398254395e-01 7.326693087816238403e-02 -1.777131110429763794e-01 3.986311852931976318e-01
6.670000000000000000e+02 2.679388999938964844e+01 -4.027723789215087891e+00 -7.064250707626342773e-01 9.856967926025390625e-01 8.378151804208755493e-02 5.659775137901306152e-01
6.680000000000000000e+02 2.244468688964843750e+01 -4.627086639404296875e+00 -7.057830691337585449e-01 2.695510685443878174e-01 -1.308695971965789795e-01 3.822769820690155029e-01
6.690000000000000000e+02 2.364545249938964844e+01 -6.677751064300537109e+00 -5.587467551231384277e-01 6.895489692687988281e-01 3.924065455794334412e-02 2.990056872367858887e-01
6.700000000000000000e+02 2.647351074218750000e+01 -1.299239540100097656e+01 3.538482666015625000e+00 1.875396847724914551e+00 1.624163866043090820e+00 1.725061893463134766e+00
6.710000000000000000e+02 2.640795898437500000e+01 -1.391288661956787109e+01 3.920029878616333008e+00 1.313623070716857910e+00 1.570095896720886230e+00 -1.714992821216583252e-01
6.720000000000000000e+02 1.723205184936523438e+01 -5.315258026123046875e+00 -8.569759130477905273e-01 -7.126950621604919434e-01 -4.709012806415557861e-01 1.097030878067016602e+00
6.730000000000000000e+02 1.657482719421386719e+01 -4.756755352020263672e+00 -9.980624318122863770e-01 -5.715184807777404785e-01 -4.708742499351501465e-01 1.106320500373840332e+00
6.740000000000000000e+02 1.355805015563964844e+01 -3.046351432800292969e+00 -1.590944528579711914e+00 4.110900219529867172e-03 -4.760501086711883545e-01 7.905212640762329102e-01
6.750000000000000000e+02 1.103810882568359375e+01 -2.237707853317260742e+00 -1.800886869430541992e+00 2.798317074775695801e-01 -4.563165307044982910e-01 3.059920370578765869e-01
6.760000000000000000e+02 1.019281196594238281e+01 -2.033317565917968750e+00 -1.806788325309753418e+00 3.217082619667053223e-01 -4.455240070819854736e-01 1.631997972726821899e-01
6.770000000000000000e+02 6.690769195556640625e+01 -7.024565696716308594e+00 1.517241597175598145e+00 7.320056438446044922e+00 2.651189327239990234e+00 -4.389459133148193359e+00
6.780000000000000000e+02 6.819001007080078125e+01 -7.267081737518310547e+00 1.384535312652587891e+00 1.418937397003173828e+01 4.672173023223876953e+00 -3.530170440673828125e+00
6.790000000000000000e+02 6.858501434326171875e+01 -9.961958885192871094e+00 1.302834987640380859e+00 2.370335960388183594e+01 7.501858234405517578e+00 -1.855150580406188965e+00
6.800000000000000000e+02 6.937931060791015625e+01 -1.268423366546630859e+01 2.870513200759887695e+00 1.899778366088867188e+01 6.560489177703857422e+00 1.512244343757629395e+00
6.810000000000000000e+02 7.049961090087890625e+01 -1.405177497863769531e+01 1.922714829444885254e+00 1.326501274108886719e+01 4.556318283081054688e+00 4.941423237323760986e-02
6.820000000000000000e+02 6.704192352294921875e+01 -1.796841049194335938e+01 1.099153518676757812e+00 9.479032516479492188e+00 3.173455715179443359e+00 2.785654306411743164e+00
6.830000000000000000e+02 6.621382141113281250e+01 -1.706459999084472656e+01 2.494926691055297852e+00 8.635586738586425781e+00 3.339154005050659180e+00 4.485949993133544922e+00
6.840000000000000000e+02 6.269363403320312500e+01 -2.375026893615722656e+01 7.916251569986343384e-02 2.792529821395874023e+00 8.615077137947082520e-01 1.100380897521972656e+00
6.850000000000000000e+02 6.817654418945312500e+01 -2.293744850158691406e+01 -7.100340127944946289e-01 7.616252422332763672e+00 2.071865558624267578e+00 7.078053951263427734e-01
6.860000000000000000e+02 2.263562393188476562e+01 -2.969882392883300781e+01 6.102586388587951660e-01 5.367769002914428711e-01 3.441106677055358887e-01 -5.994346737861633301e-01
6.870000000000000000e+02 2.104265022277832031e+01 -2.714872932434082031e+01 1.206505417823791504e+00 6.855087280273437500e-01 5.676042437553405762e-01 -8.311089873313903809e-01
6.880000000000000000e+02 1.985000038146972656e+01 -2.637300491333007812e+01 1.326453566551208496e+00 1.024272561073303223e+00 7.052178382873535156e-01 -1.092866659164428711e+00
6.890000000000000000e+02 3.240484619140625000e+01 -1.728846359252929688e+01 -2.132305145263671875e+00 5.708261579275131226e-02 -6.225667595863342285e-01 -2.651098668575286865e-01
6.900000000000000000e+02 3.368630599975585938e+01 -1.746885108947753906e+01 -1.932082653045654297e+00 9.174951165914535522e-02 -5.520999431610107422e-01 -1.949846446514129639e-01
6.910000000000000000e+02 3.892633056640625000e+01 -1.855644226074218750e+01 -1.476312637329101562e+00 1.017267163842916489e-02 -4.398419857025146484e-01 -1.428741812705993652e-01
6.920000000000000000e+02 3.886760711669921875e+01 -1.738018417358398438e+01 -1.414864659309387207e+00 3.508103266358375549e-02 -4.139350652694702148e-01 -2.493932694196701050e-01
6.930000000000000000e+02 3.533074188232421875e+01 -1.424916172027587891e+01 -9.960675835609436035e-01 -2.278721705079078674e-02 -3.056564331054687500e-01 -2.851795256137847900e-01
6.940000000000000000e+02 5.804719924926757812e+01 -9.120148658752441406e+00 -2.831132173538208008e+00 -5.004348754882812500e-01 -9.994701147079467773e-01 -1.213161110877990723e+00
6.950000000000000000e+02 6.279509735107421875e+01 -5.089489936828613281e+00 -1.916821718215942383e+00 -3.883472383022308350e-01 -6.915506720542907715e-01 -1.224767446517944336e+00
6.960000000000000000e+02 6.115068817138671875e+01 2.768612623214721680e+00 4.998490586876869202e-02 2.243562221527099609e+00 6.880641579627990723e-01 -1.003332853317260742e+00
6.970000000000000000e+02 5.940758514404296875e+01 4.499385356903076172e+00 1.581823676824569702e-01 2.111746549606323242e+00 6.809786558151245117e-01 -6.378658413887023926e-01
6.980000000000000000e+02 4.784582901000976562e+01 1.900794982910156250e+01 2.674438655376434326e-01 2.250162661075592041e-01 1.477380394935607910e-01 2.932646274566650391e-01
6.990000000000000000e+02 4.487778472900390625e+01 1.735234260559082031e+01 1.016603589057922363e+00 1.022199511528015137e+00 6.116409301757812500e-01 9.813417792320251465e-01
7.000000000000000000e+02 4.099731063842773438e+01 1.589340400695800781e+01 5.891767740249633789e-01 1.601138949394226074e+00 6.570947170257568359e-01 3.814932405948638916e-01
7.010000000000000000e+02 4.258673858642578125e+01 1.606786346435546875e+01 7.736517786979675293e-01 2.157611131668090820e+00 8.793788552284240723e-01 7.120954990386962891e-01
7.020000000000000000e+02 4.284669494628906250e+01 1.461320304870605469e+01 5.347700715065002441e-01 2.727596282958984375e+00 9.787099361419677734e-01 7.537962794303894043e-01
7.030000000000000000e+02 4.284667205810546875e+01 1.184635639190673828e+01 1.639674305915832520e-01 2.269954204559326172e+00 7.301765084266662598e-01 -2.543731778860092163e-02
7.040000000000000000e+02 4.158458709716796875e+01 1.174847412109375000e+01 2.461112737655639648e-01 1.663855552673339844e+00 5.729900598526000977e-01 3.627392053604125977e-01
7.050000000000000000e+02 4.516644287109375000e+01 8.048265457153320312e+00 -2.624250575900077820e-02 1.289272904396057129e-01 3.080543689429759979e-02 -5.319274961948394775e-02
7.060000000000000000e+02 5.786537170410156250e+01 1.475400733947753906e+01 7.256287932395935059e-01 3.373430252075195312e+00 1.229717731475830078e+00 -5.187156200408935547e-01
7.070000000000000000e+02 5.562950134277343750e+01 1.309416866302490234e+01 1.445758938789367676e-01 3.942621469497680664e+00 1.226159214973449707e+00 -2.381259202957153320e-01
7.080000000000000000e+02 4.499250411987304688e+01 2.016871070861816406e+01 4.098076820373535156e-01 1.164094567298889160e+00 4.721706807613372803e-01 6.989123821258544922e-01
7.090000000000000000e+02 1.306513690948486328e+01 -3.270762252807617188e+01 -2.706270515918731689e-01 9.370988607406616211e-01 1.999415457248687744e-01 -5.659293383359909058e-02
7.100000000000000000e+02 1.966776657104492188e+01 -2.936758422851562500e+01 4.810982942581176758e-01 1.045756578445434570e+00 4.580564796924591064e-01 -6.714987754821777344e-01
7.110000000000000000e+02 6.298467254638671875e+01 -2.930286026000976562e+01 -2.442038208246231079e-01 3.525903224945068359e+00 9.845097661018371582e-01 7.677972912788391113e-01
7.120000000000000000e+02 7.410455322265625000e+01 -3.194400978088378906e+01 -1.937437504529953003e-01 8.245234489440917969e+00 2.415446996688842773e+00 -9.092807024717330933e-02
7.130000000000000000e+02 6.696647644042968750e+01 -1.587940502166748047e+01 2.562331438064575195e+00 1.165345287322998047e+01 4.264735221862792969e+00 4.745727062225341797e+00
7.140000000000000000e+02 6.844473266601562500e+01 -4.548271656036376953e+00 -2.601385354995727539e+00 9.836747169494628906e+00 2.170608520507812500e+00 -2.782853603363037109e+00
7.150000000000000000e+02 6.346870803833007812e+01 -6.961645126342773438e+00 -5.825689792633056641e+00 -1.264095067977905273e+00 -2.126935482025146484e+00 -2.273759126663208008e+00
7.160000000000000000e+02 4.871111297607421875e+01 -6.471192359924316406e+00 -1.198151826858520508e+00 2.414136826992034912e-01 -2.870214581489562988e-01 4.244895279407501221e-02
7.170000000000000000e+02 5.811009597778320312e+01 -5.957375526428222656e+00 -2.181753873825073242e+00 4.406211525201797485e-02 -6.413075327873229980e-01 -3.531786501407623291e-01
7.180000000000000000e+02 4.209309387207031250e+01 -1.448551559448242188e+01 -1.261814594268798828e+00 5.091599002480506897e-02 -3.632695972919464111e-01 -2.826883792877197266e-01
7.190000000000000000e+02 4.423243331909179688e+01 -1.393812561035156250e+01 -1.289523720741271973e+00 2.568173222243785858e-02 -3.791525959968566895e-01 -3.199194967746734619e-01
7.200000000000000000e+02 4.826506423950195312e+01 -4.114181995391845703e+00 -8.731783032417297363e-01 2.477498948574066162e-01 -1.876285225152969360e-01 1.957191228866577148e-01
7.210000000000000000e+02 4.596989440917968750e+01 7.151442527770996094e+00 -7.234445959329605103e-02 4.480132088065147400e-02 -8.262942545115947723e-03 2.611283026635646820e-02
7.220000000000000000e+02 5.033163070678710938e+01 -1.227423954010009766e+01 -1.605835556983947754e+00 -6.761189550161361694e-02 -5.020342469215393066e-01 -5.456750988960266113e-01
7.230000000000000000e+02 4.763718414306640625e+01 -1.334541320800781250e+00 -4.916616082191467285e-01 2.392359375953674316e-01 -7.572770118713378906e-02 2.970052659511566162e-01
7.240000000000000000e+02 4.373555374145507812e+01 -5.812229156494140625e+00 -8.092392683029174805e-01 2.361799180507659912e-01 -1.719178110361099243e-01 1.487353742122650146e-01
7.250000000000000000e+02 5.349090194702148438e+01 3.082575559616088867e+00 4.604928195476531982e-02 6.682420969009399414e-01 2.142874151468276978e-01 3.085505068302154541e-01
7.260000000000000000e+02 2.639006423950195312e+01 4.775727272033691406e+00 1.656824350357055664e-01 7.153381705284118652e-01 2.643061578273773193e-01 3.595837652683258057e-01
7.270000000000000000e+02 2.857499694824218750e+01 5.699218750000000000e+00 1.960396021604537964e-01 5.570098757743835449e-01 2.259148508310317993e-01 4.763715863227844238e-01
7.280000000000000000e+02 7.315182495117187500e+01 4.888298034667968750e+00 -4.281893372535705566e-01 7.469092845916748047e+00 2.112271070480346680e+00 -5.864731669425964355e-01
7.290000000000000000e+02 7.287433624267578125e+01 1.145588970184326172e+01 2.168723009526729584e-02 6.696080684661865234e+00 2.015330314636230469e+00 -7.359791994094848633e-01
7.300000000000000000e+02 6.151460647583007812e+01 1.168472290039062500e+01 5.391547083854675293e-01 3.581544876098632812e+00 1.236209869384765625e+00 -8.092079162597656250e-01
7.310000000000000000e+02 7.269692993164062500e+01 1.967439651489257812e+01 1.202453374862670898e-01 6.186167240142822266e+00 1.891923785209655762e+00 -5.069110393524169922e-01
7.320000000000000000e+02 6.049595642089843750e+01 1.649133872985839844e+01 6.239864826202392578e-01 3.631968975067138672e+00 1.276786684989929199e+00 -5.742393732070922852e-01
7.330000000000000000e+02 4.919097900390625000e+01 1.902230072021484375e+01 2.432812191545963287e-02 1.223047524690628052e-01 4.398986324667930603e-02 6.748721003532409668e-02
7.340000000000000000e+02 5.184095001220703125e+01 1.866407585144042969e+01 3.702221512794494629e-01 6.119349598884582520e-01 2.946471273899078369e-01 -4.837585091590881348e-01
7.350000000000000000e+02 4.359806442260742188e+01 2.254334068298339844e+01 3.758618533611297607e-01 1.258786320686340332e+00 4.903944432735443115e-01 4.982348978519439697e-01
7.360000000000000000e+02 4.083275985717773438e+01 2.818356132507324219e+01 4.809100627899169922e-01 1.119019985198974609e+00 4.799790084362030029e-01 2.524475455284118652e-01
7.370000000000000000e+02 4.257539749145507812e+01 2.116586685180664062e+01 2.958671152591705322e-01 1.346891403198242188e+00 4.928275644779205322e-01 4.648360311985015869e-01
7.380000000000000000e+02 2.656521224975585938e+01 1.846958541870117188e+01 6.856007128953933716e-02 -8.179103583097457886e-02 -3.969289362430572510e-03 2.515092790126800537e-01
7.390000000000000000e+02 2.963348770141601562e+01 2.278524589538574219e+01 3.020700514316558838e-01 3.014547526836395264e-01 1.810574382543563843e-01 2.299441695213317871e-01
7.400000000000000000e+02 1.203680038452148438e+01 9.737738609313964844e+00 -1.809158474206924438e-01 -2.566040754318237305e-01 -1.312559843063354492e-01 5.691040754318237305e-01
7.410000000000000000e+02 3.900042724609375000e+01 1.136092376708984375e+01 2.591285109519958496e-01 1.116979718208312988e+00 4.128324687480926514e-01 5.985601544380187988e-01
7.420000000000000000e+02 2.679363822937011719e+01 1.300975418090820312e+01 -4.387982487678527832e-01 2.946160733699798584e-02 -1.228009909391403198e-01 5.066010355949401855e-01
7.430000000000000000e+02 1.881608128547668457e+00 1.625717163085937500e+01 1.737215556204319000e-02 -7.908427119255065918e-01 -2.320411652326583862e-01 1.163770183920860291e-01
7.440000000000000000e+02 7.230265045166015625e+01 2.598575592041015625e+01 1.155668869614601135e-01 5.869572639465332031e+00 1.795541882514953613e+00 -3.612518310546875000e-01
7.450000000000000000e+02 6.453954315185546875e+01 2.697820091247558594e+01 2.774629592895507812e-01 4.444917678833007812e+00 1.416714191436767578e+00 -4.705968797206878662e-01
7.460000000000000000e+02 5.092347335815429688e+01 2.843618011474609375e+01 7.074984908103942871e-01 1.829754710197448730e+00 7.611759305000305176e-01 -1.587565541267395020e-01
7.470000000000000000e+02 4.809611129760742188e+01 3.102537155151367188e+01 7.099059820175170898e-01 1.643832564353942871e+00 7.061215639114379883e-01 1.577339135110378265e-02
7.480000000000000000e+02 2.716294288635253906e+01 3.077695465087890625e+01 3.721335530281066895e-01 2.353430241346359253e-01 1.822429597377777100e-01 2.172287851572036743e-01
7.490000000000000000e+02 3.600204849243164062e+01 3.372513198852539062e+01 5.076125860214233398e-01 8.051326870918273926e-01 3.938235938549041748e-01 1.561999917030334473e-01
7.500000000000000000e+02 2.234809303283691406e+01 2.270483207702636719e+01 2.710367739200592041e-01 -1.044001877307891846e-01 4.999097064137458801e-02 4.557455480098724365e-01
7.510000000000000000e+02 1.870644950866699219e+01 2.161449432373046875e+01 1.504436433315277100e-01 3.898781538009643555e-02 5.682943761348724365e-02 5.219700336456298828e-01
7.520000000000000000e+02 6.093135833740234375e+01 3.021809387207031250e+01 3.895356953144073486e-01 3.720960378646850586e+00 1.233148813247680664e+00 -3.754162788391113281e-01
7.530000000000000000e+02 5.667596817016601562e+01 3.665047836303710938e+01 5.453265905380249023e-01 3.049033880233764648e+00 1.078308105468750000e+00 -1.659803092479705811e-01
7.540000000000000000e+02 2.463281440734863281e+01 3.357528686523437500e+01 3.416932225227355957e-01 1.422920823097229004e-01 1.451955884695053101e-01 1.893457919359207153e-01
7.550000000000000000e+02 5.908007144927978516e+00 3.160691070556640625e+01 2.161344699561595917e-02 -8.285160660743713379e-01 -2.420707792043685913e-01 6.663639843463897705e-02
7.560000000000000000e+02 2.029990196228027344e+00 3.175754737854003906e+01 3.500720253214240074e-03 -1.152185440063476562e+00 -3.446054160594940186e-01 1.687519811093807220e-02
7.570000000000000000e+02 6.714350891113281250e+01 -5.629650115966796875e+00 -3.273028373718261719e+00 8.690592765808105469e+00 1.625269174575805664e+00 -4.313755989074707031e+00
7.580000000000000000e+02 8.651407241821289062e+00 -1.883366823196411133e+00 -1.679424762725830078e+00 2.900248169898986816e-01 -4.168199896812438965e-01 -1.203832775354385376e-01
7.590000000000000000e+02 7.160166740417480469e+00 -1.847048759460449219e+00 -1.434105634689331055e+00 1.596609801054000854e-01 -3.823333978652954102e-01 -4.122567176818847656e-01
7.600000000000000000e+02 6.422004222869873047e+00 -1.831736803054809570e+00 -1.304359555244445801e+00 1.268289387226104736e-01 -3.532591760158538818e-01 -5.187446475028991699e-01
7.610000000000000000e+02 5.689432144165039062e+00 -1.818917751312255859e+00 -1.123320102691650391e+00 4.258520528674125671e-02 -3.242204785346984863e-01 -5.665588378906250000e-01
7.620000000000000000e+02 3.480360984802246094e+00 -1.881476640701293945e+00 -5.716311931610107422e-01 -9.262748807668685913e-02 -1.992776095867156982e-01 -5.677345991134643555e-01
7.630000000000000000e+02 4.953937530517578125e+00 -1.819184899330139160e+00 -9.240669012069702148e-01 2.166656963527202606e-02 -2.707200944423675537e-01 -6.219565272331237793e-01
7.640000000000000000e+02 3.349419593811035156e+00 -3.549774408340454102e+00 -4.500661790370941162e-01 -3.185093104839324951e-01 -2.305726408958435059e-01 -8.930630087852478027e-01
7.650000000000000000e+02 2.742600202560424805e+00 -1.948060393333435059e+00 -4.072293639183044434e-01 -1.673296540975570679e-01 -1.723677068948745728e-01 -4.978508949279785156e-01
7.660000000000000000e+02 1.991631865501403809e+00 -2.040287494659423828e+00 -2.357241958379745483e-01 -2.593610286712646484e-01 -1.485255658626556396e-01 -3.941769897937774658e-01
7.670000000000000000e+02 1.218287825584411621e+00 -2.142434835433959961e+00 -1.083442717790603638e-01 -2.783878743648529053e-01 -1.160196438431739807e-01 -2.252711802721023560e-01
7.680000000000000000e+02 2.002826213836669922e+00 -4.163872528076171875e+01 -8.219990134239196777e-02 -7.881690859794616699e-01 -2.611106932163238525e-01 2.316746674478054047e-02
7.690000000000000000e+02 8.954404830932617188e+00 -3.818617248535156250e+01 -2.528988122940063477e-01 1.585889309644699097e-01 -2.829296328127384186e-02 1.285788565874099731e-01
7.700000000000000000e+02 9.555779099464416504e-01 -3.875507736206054688e+01 -9.634665213525295258e-03 -9.090250134468078613e-01 -2.755979001522064209e-01 4.958913475275039673e-02
7.710000000000000000e+02 8.576471209526062012e-01 -3.467046356201171875e+01 -1.024950854480266571e-02 -1.249918699264526367e+00 -3.780504465103149414e-01 8.712896704673767090e-02
7.720000000000000000e+02 8.832845687866210938e-01 -3.324562454223632812e+01 1.304709701798856258e-03 -1.392566919326782227e+00 -4.173786640167236328e-01 9.430860728025436401e-02
7.730000000000000000e+02 7.275100350379943848e-01 -2.895528793334960938e+01 -3.170003369450569153e-02 -2.055673360824584961e+00 -6.262120008468627930e-01 1.549926698207855225e-01
7.740000000000000000e+02 6.951605677604675293e-01 -2.753681564331054688e+01 1.284999586641788483e-02 -2.384885072708129883e+00 -7.116105556488037109e-01 1.806678771972656250e-01
7.750000000000000000e+02 6.723569631576538086e-01 -2.612292671203613281e+01 -4.019722715020179749e-02 -2.770046472549438477e+00 -8.430731296539306641e-01 1.995990574359893799e-01
7.760000000000000000e+02 6.284551620483398438e-01 -2.191642951965332031e+01 2.813614532351493835e-02 -4.271296501159667969e+00 -1.272948026657104492e+00 2.707143723964691162e-01
7.770000000000000000e+02 6.164324879646301270e-01 -2.052149009704589844e+01 -4.310799017548561096e-02 -4.872840881347656250e+00 -1.474784612655639648e+00 2.778142988681793213e-01
7.780000000000000000e+02 1.842635393142700195e+00 -2.038717460632324219e+01 -2.042487030848860741e-03 -3.550247907638549805e+00 -1.065687060356140137e+00 7.090721130371093750e-01
7.790000000000000000e+02 6.366750597953796387e-01 -1.631100273132324219e+01 5.925226211547851562e-02 -6.413969516754150391e+00 -1.906415224075317383e+00 1.374758481979370117e-01
7.800000000000000000e+02 6.318792700767517090e-01 -1.490484142303466797e+01 4.322625696659088135e-02 -6.532111644744873047e+00 -1.946665644645690918e+00 2.314256504178047180e-02
7.810000000000000000e+02 6.018985509872436523e-01 -1.349447917938232422e+01 5.432988703250885010e-02 -6.388933181762695312e+00 -1.900381088256835938e+00 -8.556981384754180908e-02
7.820000000000000000e+02 1.800521731376647949e+00 -1.342749786376953125e+01 3.466752171516418457e-01 -4.313985824584960938e+00 -1.190193176269531250e+00 -4.324511885643005371e-01
7.830000000000000000e+02 5.217224955558776855e-01 -9.295749664306640625e+00 4.319251328706741333e-02 -4.105922222137451172e+00 -1.218818902969360352e+00 -3.471529483795166016e-01
7.840000000000000000e+02 5.194377303123474121e-01 -7.909994125366210938e+00 -4.118362069129943848e-02 -3.097077369689941406e+00 -9.414783120155334473e-01 -3.364879190921783447e-01
7.850000000000000000e+02 4.360476970672607422e+00 -2.511114358901977539e+00 -7.297316193580627441e-01 -4.825868085026741028e-02 -2.333970814943313599e-01 -7.664785981178283691e-01
7.860000000000000000e+02 5.275668501853942871e-01 -6.522453784942626953e+00 2.995658479630947113e-02 -2.149352550506591797e+00 -6.358187794685363770e-01 -3.212580978870391846e-01
7.870000000000000000e+02 7.265673065185546875e+01 -3.564786148071289062e+01 -7.877583801746368408e-02 7.556077480316162109e+00 2.243190526962280273e+00 2.772385254502296448e-02
7.880000000000000000e+02 4.879143524169921875e+01 -3.657146453857421875e+01 4.875986874103546143e-01 -1.759069859981536865e-01 9.350751340389251709e-02 -1.890646219253540039e-01
7.890000000000000000e+02 3.082918357849121094e+01 -3.817096710205078125e+01 2.524007260799407959e-01 2.264402210712432861e-01 1.436522901058197021e-01 -1.111892089247703552e-01
7.900000000000000000e+02 7.612057495117187500e+01 4.065430450439453125e+01 3.241775557398796082e-02 6.266838550567626953e+00 1.889776825904846191e+00 2.293774858117103577e-02
7.910000000000000000e+02 7.812197113037109375e+01 4.177251434326171875e+01 9.372148662805557251e-02 6.401682376861572266e+00 1.948621153831481934e+00 -2.617337740957736969e-02
7.920000000000000000e+02 7.886050415039062500e+01 3.902761840820312500e+01 -5.255482345819473267e-02 6.513861656188964844e+00 1.938392043113708496e+00 -2.923953160643577576e-02
7.930000000000000000e+02 7.731819152832031250e+01 3.623453140258789062e+01 1.581968739628791809e-02 6.387737274169921875e+00 1.921067118644714355e+00 -4.417419061064720154e-02
7.940000000000000000e+02 7.912402343750000000e+01 3.487682723999023438e+01 -1.733634807169437408e-02 6.633877277374267578e+00 1.984962344169616699e+00 -2.637450397014617920e-02
7.950000000000000000e+02 7.731164550781250000e+01 3.358246231079101562e+01 7.035299669951200485e-03 6.432085037231445312e+00 1.931736111640930176e+00 -8.579936623573303223e-02
7.960000000000000000e+02 7.913874053955078125e+01 3.350310516357421875e+01 1.043582055717706680e-02 6.674770355224609375e+00 2.005561828613281250e+00 -2.255285531282424927e-02
7.970000000000000000e+02 7.924075317382812500e+01 3.068866920471191406e+01 7.501973304897546768e-03 6.780179500579833984e+00 2.036304473876953125e+00 -3.196552768349647522e-02
7.980000000000000000e+02 7.641750335693359375e+01 2.780545234680175781e+01 2.738295122981071472e-02 6.505877494812011719e+00 1.959978103637695312e+00 -1.650410741567611694e-01
7.990000000000000000e+02 7.929252624511718750e+01 2.648202514648437500e+01 -5.596542265266180038e-03 6.995891094207763672e+00 2.097088336944580078e+00 -3.610908612608909607e-02
8.000000000000000000e+02 7.659132385253906250e+01 2.500560760498046875e+01 3.222949802875518799e-02 6.666311264038085938e+00 2.009562253952026367e+00 -1.975042670965194702e-01
8.010000000000000000e+02 7.930882263183593750e+01 2.508756446838378906e+01 9.389004670083522797e-03 7.080117225646972656e+00 2.126852035522460938e+00 -3.970718383789062500e-02
8.020000000000000000e+02 7.934000396728515625e+01 2.091631889343261719e+01 -9.318258613348007202e-03 7.391261577606201172e+00 2.214583158493041992e+00 -5.038427934050559998e-02
8.030000000000000000e+02 7.934426116943359375e+01 1.952620887756347656e+01 1.453916914761066437e-02 7.518187522888183594e+00 2.259818077087402344e+00 -5.610749498009681702e-02
8.040000000000000000e+02 7.934706878662109375e+01 1.813555717468261719e+01 -1.045168936252593994e-02 7.657389640808105469e+00 2.294081449508666992e+00 -6.045426428318023682e-02
8.050000000000000000e+02 7.935070037841796875e+01 1.396731472015380859e+01 1.562441606074571609e-02 8.148618698120117188e+00 2.449272871017456055e+00 -7.442399114370346069e-02
8.060000000000000000e+02 7.935205841064453125e+01 1.257861328125000000e+01 -1.372136827558279037e-02 8.332493782043457031e+00 2.495631933212280273e+00 -7.589347660541534424e-02
8.070000000000000000e+02 7.935169219970703125e+01 1.119051456451416016e+01 1.360046118497848511e-02 8.522976875305175781e+00 2.560973167419433594e+00 -7.688790559768676758e-02
8.080000000000000000e+02 7.934414672851562500e+01 7.022918701171875000e+00 -1.357371546328067780e-02 9.055440902709960938e+00 2.712560176849365234e+00 -5.643799901008605957e-02
8.090000000000000000e+02 7.934358978271484375e+01 5.631383895874023438e+00 -1.267935428768396378e-02 9.181516647338867188e+00 2.750651121139526367e+00 -2.768554538488388062e-02
8.100000000000000000e+02 7.934228515625000000e+01 4.237768650054931641e+00 -1.287071779370307922e-02 9.250140190124511719e+00 2.771180868148803711e+00 -1.658167457208037376e-03
8.110000000000000000e+02 7.935021972656250000e+01 3.540761768817901611e-02 -6.277998536825180054e-02 8.875232696533203125e+00 2.643735885620117188e+00 1.782062053680419922e-01
8.120000000000000000e+02 7.936134338378906250e+01 -1.370261907577514648e+00 1.203705556690692902e-02 8.479681968688964844e+00 2.547515630722045898e+00 2.298472374677658081e-01
8.130000000000000000e+02 7.816416931152343750e+01 -4.121942520141601562e+00 -1.166233047842979431e-01 7.651042938232421875e+00 2.260325908660888672e+00 8.875696659088134766e-01
8.140000000000000000e+02 7.939054870605468750e+01 -4.148663043975830078e+00 6.916356086730957031e-02 7.279823303222656250e+00 2.204696178436279297e+00 3.139926791191101074e-01
8.150000000000000000e+02 7.938746643066406250e+01 -8.257699966430664062e+00 -8.510218560695648193e-02 5.012684822082519531e+00 1.478274822235107422e+00 3.038996458053588867e-01
8.160000000000000000e+02 7.795160675048828125e+01 -1.073023891448974609e+01 3.738210797309875488e-01 5.901372432708740234e+00 1.882558107376098633e+00 3.421472907066345215e-01
8.170000000000000000e+02 7.932008361816406250e+01 -1.101235103607177734e+01 1.677338033914566040e-03 4.217934608459472656e+00 1.265883564949035645e+00 8.414714783430099487e-02
8.180000000000000000e+02 7.931163024902343750e+01 -1.522175121307373047e+01 1.831838302314281464e-02 4.911966800689697266e+00 1.479085564613342285e+00 -2.606314718723297119e-01
8.190000000000000000e+02 7.806342315673828125e+01 -1.786401939392089844e+01 2.781719714403152466e-02 6.959923267364501953e+00 2.096322059631347656e+00 -8.861893415451049805e-01
8.200000000000000000e+02 7.934550476074218750e+01 -1.802259445190429688e+01 -4.500303417444229126e-02 6.225235462188720703e+00 1.854069709777832031e+00 -3.361008763313293457e-01
8.210000000000000000e+02 7.932778930664062500e+01 -2.361356353759765625e+01 -6.476610153913497925e-02 8.657400131225585938e+00 2.577790260314941406e+00 -2.331703752279281616e-01
8.220000000000000000e+02 7.798693847656250000e+01 -2.489393234252929688e+01 -1.206048429012298584e-01 8.836922645568847656e+00 2.614895343780517578e+00 -4.914728403091430664e-01
8.230000000000000000e+02 7.932770538330078125e+01 -2.501132011413574219e+01 1.943449489772319794e-02 9.057359695434570312e+00 2.723038196563720703e+00 -1.952284574508666992e-01
8.240000000000000000e+02 7.932436370849609375e+01 -2.916671562194824219e+01 -2.723876200616359711e-02 9.809351921081542969e+00 2.934633970260620117e+00 -9.285801649093627930e-02
8.250000000000000000e+02 7.783467102050781250e+01 -3.176397705078125000e+01 -3.668846189975738525e-02 9.457556724548339844e+00 2.826260566711425781e+00 -1.078002899885177612e-01
8.260000000000000000e+02 7.928253936767578125e+01 -3.195188522338867188e+01 -1.627566292881965637e-02 1.000241851806640625e+01 2.995842933654785156e+00 -3.834345191717147827e-02
8.270000000000000000e+02 7.933934783935546875e+01 -3.608290863037109375e+01 1.610113307833671570e-02 9.999487876892089844e+00 3.004676818847656250e+00 1.521622110158205032e-02
8.280000000000000000e+02 7.923944091796875000e+01 -3.739746093750000000e+01 -4.250088706612586975e-02 9.898557662963867188e+00 2.956817150115966797e+00 5.875485017895698547e-02
8.290000000000000000e+02 7.899175262451171875e+01 -3.868887329101562500e+01 5.050555337220430374e-03 9.775352478027343750e+00 2.934120893478393555e+00 7.353126257658004761e-02
8.300000000000000000e+02 7.860450744628906250e+01 -4.003822326660156250e+01 -6.019997224211692810e-02 9.632831573486328125e+00 2.871789455413818359e+00 1.281736940145492554e-01
8.310000000000000000e+02 2.735295486450195312e+01 4.064253997802734375e+01 3.947576880455017090e-01 2.973858714103698730e-01 2.076430767774581909e-01 3.540974482893943787e-02
8.320000000000000000e+02 4.777893447875976562e+01 3.747772216796875000e+01 6.850838661193847656e-01 1.780071139335632324e+00 7.395465373992919922e-01 -1.803650637157261372e-03
8.330000000000000000e+02 6.756478118896484375e+01 4.094369125366210938e+01 2.143854349851608276e-01 4.889021396636962891e+00 1.531022071838378906e+00 -4.014591127634048462e-02
8.340000000000000000e+02 3.834281563758850098e-01 2.184669494628906250e+00 3.397502296138554811e-04 1.292501110583543777e-02 3.979428671300411224e-03 -1.414344646036624908e-03
8.350000000000000000e+02 2.670151472091674805e+00 2.721803903579711914e+00 -3.911862522363662720e-02 -3.025738708674907684e-02 -2.081280387938022614e-02 3.274451568722724915e-02
8.360000000000000000e+02 4.758757114410400391e+00 2.565994262695312500e+00 -1.003514453768730164e-01 -2.753141149878501892e-02 -3.836485743522644043e-02 7.311956584453582764e-02
8.370000000000000000e+02 1.802823424339294434e+00 6.419691562652587891e+00 -2.584183961153030396e-02 -1.426660269498825073e-01 -5.055235698819160461e-02 9.823649376630783081e-02
8.380000000000000000e+02 5.847504138946533203e-01 9.281062126159667969e+00 2.429969841614365578e-03 -3.076904118061065674e-01 -9.157813340425491333e-02 4.938386753201484680e-02
8.390000000000000000e+02 6.017010211944580078e-01 1.208891773223876953e+01 4.480491857975721359e-03 -5.598338246345520020e-01 -1.666059941053390503e-01 5.371078848838806152e-02
8.400000000000000000e+02 1.800346255302429199e+00 1.206768226623535156e+01 2.385888656135648489e-04 -5.190978646278381348e-01 -1.556577831506729126e-01 1.524576544761657715e-01
8.410000000000000000e+02 6.317203044891357422e-01 1.630989456176757812e+01 1.516970340162515640e-03 -8.929057121276855469e-01 -2.674166262149810791e-01 3.970976546406745911e-02
8.420000000000000000e+02 6.338658928871154785e-01 1.771829795837402344e+01 4.609366878867149353e-03 -9.749852418899536133e-01 -2.911127507686614990e-01 3.273178637027740479e-02
8.430000000000000000e+02 6.502228975296020508e-01 2.195490264892578125e+01 1.769937342032790184e-03 -1.130992650985717773e+00 -3.387668132781982422e-01 1.536031346768140793e-02
8.440000000000000000e+02 6.588453650474548340e-01 2.336932945251464844e+01 1.267392188310623169e-03 -1.161956071853637695e+00 -3.482066094875335693e-01 1.211996097117662430e-02
8.450000000000000000e+02 6.698837280273437500e-01 2.478616142272949219e+01 1.352006453089416027e-03 -1.185723066329956055e+00 -3.553113341331481934e-01 9.344915859401226044e-03
8.460000000000000000e+02 6.842430233955383301e-01 2.902724075317382812e+01 -1.273140311241149902e-03 -1.241804957389831543e+00 -3.729234039783477783e-01 7.611171808093786240e-03
8.470000000000000000e+02 6.835913062095642090e-01 3.043764114379882812e+01 2.828901866450905800e-03 -1.256252288818359375e+00 -3.760270178318023682e-01 5.769154988229274750e-03
8.480000000000000000e+02 2.033216476440429688e+00 3.036697578430175781e+01 3.665304742753505707e-03 -1.133788108825683594e+00 -3.390368521213531494e-01 1.948376931250095367e-02
8.490000000000000000e+02 6.801626682281494141e-01 3.184347724914550781e+01 -4.855228762608021498e-04 -1.266621708869934082e+00 -3.801321685314178467e-01 3.545205574482679367e-03
8.500000000000000000e+02 7.091859579086303711e-01 3.599516677856445312e+01 -4.037687089294195175e-03 -1.274356126785278320e+00 -3.835181295871734619e-01 -2.123090205714106560e-03
8.510000000000000000e+02 3.528501033782958984e+00 3.664700317382812500e+01 1.803364977240562439e-02 -1.089238524436950684e+00 -3.213614523410797119e-01 6.711220368742942810e-03
8.520000000000000000e+02 9.887048602104187012e-01 3.867400360107421875e+01 -1.561574405059218407e-03 -1.243273854255676270e+00 -3.734506368637084961e-01 -1.230901852250099182e-02
8.530000000000000000e+02 1.370828986167907715e+00 4.002537155151367188e+01 1.129746716469526291e-02 -1.218997478485107422e+00 -3.623099923133850098e-01 -2.226966619491577148e-02
8.540000000000000000e+02 9.839337348937988281e+00 1.842894315719604492e+00 -3.311767280101776123e-01 -7.267593592405319214e-02 -1.211557984352111816e-01 1.603289097547531128e-01
8.550000000000000000e+02 9.094919204711914062e+00 1.861008048057556152e+00 -2.873958349227905273e-01 -5.880939960479736328e-02 -1.038615703582763672e-01 1.411952972412109375e-01
8.560000000000000000e+02 8.362372398376464844e+00 1.863274574279785156e+00 -2.515148818492889404e-01 -2.884759753942489624e-02 -8.410874754190444946e-02 1.195316314697265625e-01
8.570000000000000000e+02 7.634867191314697266e+00 1.859508752822875977e+00 -2.058933675289154053e-01 -2.652478218078613281e-02 -6.972544640302658081e-02 1.013703048229217529e-01
8.580000000000000000e+02 6.182654380798339844e+00 1.850804328918457031e+00 -1.323896050453186035e-01 -1.921042054891586304e-02 -4.548000544309616089e-02 7.451599836349487305e-02
8.590000000000000000e+02 4.735582828521728516e+00 1.853079438209533691e+00 -7.589689642190933228e-02 -1.943184249103069305e-02 -2.859862148761749268e-02 5.097145214676856995e-02
8.600000000000000000e+02 4.011655807495117188e+00 1.863670825958251953e+00 -5.461833998560905457e-02 -1.552616246044635773e-02 -2.104335092008113861e-02 3.401751071214675903e-02
8.610000000000000000e+02 3.290382862091064453e+00 1.883091807365417480e+00 -3.855446726083755493e-02 -1.766978576779365540e-02 -1.686727628111839294e-02 2.599204145371913910e-02
8.620000000000000000e+02 1.860863089561462402e+00 2.010521650314331055e+00 -1.227304711937904358e-02 -1.388035342097282410e-02 -7.846020162105560303e-03 4.783084150403738022e-03
8.630000000000000000e+02 1.137256383895874023e+00 2.116826772689819336e+00 -4.010758828371763229e-03 -3.991516772657632828e-03 -2.400682540610432625e-03 -2.335632452741265297e-03
8.640000000000000000e+02 1.142098331451416016e+01 1.578527927398681641e+00 -4.104042947292327881e-01 -1.414535790681838989e-01 -1.655573546886444092e-01 2.207404077053070068e-01
8.650000000000000000e+02 1.303844642639160156e+01 1.216986536979675293e+00 -4.739951491355895996e-01 -2.592630088329315186e-01 -2.199774384498596191e-01 3.181658089160919189e-01
8.660000000000000000e+02 1.571361160278320312e+01 1.303746700286865234e+00 -4.552809000015258789e-01 -5.490483641624450684e-01 -3.012987673282623291e-01 4.942802786827087402e-01
8.670000000000000000e+02 1.541039752960205078e+01 4.014304578304290771e-01 -5.373799204826354980e-01 -4.805545806884765625e-01 -3.053803443908691406e-01 4.873457252979278564e-01
8.680000000000000000e+02 1.619365882873535156e+01 5.235664919018745422e-02 -5.660889148712158203e-01 -5.368804335594177246e-01 -3.308908045291900635e-01 5.365152955055236816e-01
8.690000000000000000e+02 1.836950492858886719e+01 -1.331766366958618164e+00 -6.924375891685485840e-01 -5.225071907043457031e-01 -3.644834458827972412e-01 5.805352330207824707e-01
8.700000000000000000e+02 1.908729934692382812e+01 -1.817803859710693359e+00 -7.335507273674011230e-01 -4.517171978950500488e-01 -3.555803894996643066e-01 5.556467771530151367e-01
8.710000000000000000e+02 2.086357879638671875e+01 -3.659526348114013672e+00 -7.605168223381042480e-01 -1.636135876178741455e-01 -2.772391140460968018e-01 4.889566004276275635e-01
8.720000000000000000e+02 2.275679397583007812e+01 -6.288241863250732422e+00 -5.402301549911499023e-01 3.543175756931304932e-01 -5.577377974987030029e-02 3.061673343181610107e-01
8.730000000000000000e+02 2.317784881591796875e+01 -6.949611186981201172e+00 -4.679726660251617432e-01 5.232301354408264160e-01 1.657724566757678986e-02 2.432355284690856934e-01
8.740000000000000000e+02 2.412745094299316406e+01 -8.653594970703125000e+00 -3.443781733512878418e-01 1.082509040832519531e+00 2.214392572641372681e-01 1.257179528474807739e-01
8.750000000000000000e+02 2.354040336608886719e+01 -7.557446002960205078e+00 -4.270359575748443604e-01 7.272763252258300781e-01 9.007212519645690918e-02 1.901168227195739746e-01
8.760000000000000000e+02 2.440872573852539062e+01 -9.185256004333496094e+00 -3.006895184516906738e-01 1.352126479148864746e+00 3.154310882091522217e-01 7.671447098255157471e-02
8.770000000000000000e+02 2.488025283813476562e+01 -1.005849933624267578e+01 -2.690784037113189697e-01 1.967996001243591309e+00 5.096752643585205078e-01 1.165285035967826843e-01
8.780000000000000000e+02 2.522402954101562500e+01 -1.081837081909179688e+01 -1.862951368093490601e-01 2.696134567260742188e+00 7.529518604278564453e-01 3.075287342071533203e-01
8.790000000000000000e+02 2.545034790039062500e+01 -1.114303779602050781e+01 -8.158380538225173950e-02 3.040590286254882812e+00 8.877019882202148438e-01 5.931916236877441406e-01
8.800000000000000000e+02 2.532931900024414062e+01 -1.098410034179687500e+01 -1.663640588521957397e-01 2.858981609344482422e+00 8.077852725982666016e-01 4.044418334960937500e-01
8.810000000000000000e+02 2.626189994812011719e+01 -1.218716430664062500e+01 1.573330044746398926e+00 3.038845777511596680e+00 1.383652687072753906e+00 2.016717195510864258e+00
8.820000000000000000e+02 2.647743988037109375e+01 -1.092386817932128906e+01 2.365219593048095703e-01 2.365129947662353516e+00 7.804955244064331055e-01 1.277492046356201172e+00
8.830000000000000000e+02 2.596348190307617188e+01 -1.465048980712890625e+01 1.808688282966613770e+00 2.727333545684814453e+00 1.360806584358215332e+00 -1.509496688842773438e+00
8.840000000000000000e+02 2.654120826721191406e+01 -1.752881622314453125e+01 -7.161368846893310547e+00 -1.410025060176849365e-01 -2.190711259841918945e+00 1.324894309043884277e+00
8.850000000000000000e+02 2.266868782043457031e+01 -1.307017993927001953e+01 2.029827356338500977e+00 -1.806250929832458496e+00 6.707295775413513184e-02 9.622808545827865601e-02
8.860000000000000000e+02 2.004039955139160156e+01 -1.486054897308349609e+01 -2.173062801361083984e+00 -1.132855772972106934e+00 -9.917755722999572754e-01 1.655514717102050781e+00
8.870000000000000000e+02 2.215969085693359375e+01 -1.207997703552246094e+01 8.359535932540893555e-01 -1.512348890304565430e+00 -2.029186040163040161e-01 1.037256419658660889e-01
8.880000000000000000e+02 2.267471504211425781e+01 -1.380617904663085938e+01 2.368927478790283203e+00 -2.379906654357910156e+00 -3.293794346973299980e-03 1.221168279647827148e+00
8.890000000000000000e+02 2.169993209838867188e+01 -1.143467807769775391e+01 5.384335517883300781e-01 -1.511768817901611328e+00 -2.920005917549133301e-01 2.692320048809051514e-01
8.900000000000000000e+02 2.137744522094726562e+01 -1.096510028839111328e+01 3.490217328071594238e-01 -1.507134437561035156e+00 -3.474338054656982422e-01 3.880459964275360107e-01
8.910000000000000000e+02 1.967267990112304688e+01 -1.084073066711425781e+01 3.305242955684661865e-01 -1.504227757453918457e+00 -3.521110415458679199e-01 6.969240903854370117e-01
8.920000000000000000e+02 2.045108413696289062e+01 -9.448289871215820312e+00 1.186256669461727142e-02 -1.418213963508605957e+00 -4.219053983688354492e-01 6.736468076705932617e-01
8.930000000000000000e+02 2.075651741027832031e+01 -9.953330993652343750e+00 8.291218429803848267e-02 -1.442833185195922852e+00 -4.079762995243072510e-01 6.052353382110595703e-01
8.940000000000000000e+02 2.019230651855468750e+01 -1.036449241638183594e+01 2.727265059947967529e-01 -1.489024281501770020e+00 -3.648893535137176514e-01 6.048369407653808594e-01
8.950000000000000000e+02 1.818324851989746094e+01 -8.682159423828125000e+00 3.322720527648925781e-02 -1.101703882217407227e+00 -3.205429911613464355e-01 8.845530748367309570e-01
8.960000000000000000e+02 1.843212127685546875e+01 -6.564484119415283203e+00 -5.435985326766967773e-01 -1.020587921142578125e+00 -4.692559242248535156e-01 1.034409523010253906e+00
8.970000000000000000e+02 1.606637382507324219e+01 -5.442016124725341797e+00 -8.042263388633728027e-01 -4.183820486068725586e-01 -3.667825162410736084e-01 1.091468095779418945e+00
8.980000000000000000e+02 1.586746406555175781e+01 -4.257403373718261719e+00 -1.158589243888854980e+00 -4.025301933288574219e-01 -4.683358073234558105e-01 1.053374528884887695e+00
8.990000000000000000e+02 1.514508342742919922e+01 -3.781193971633911133e+00 -1.328787684440612793e+00 -2.548277676105499268e-01 -4.750846326351165771e-01 1.004361629486083984e+00
9.000000000000000000e+02 1.188868045806884766e+01 -2.461943149566650391e+00 -1.769576549530029297e+00 2.046729922294616699e-01 -4.694710969924926758e-01 4.894806146621704102e-01
9.010000000000000000e+02 1.243799495697021484e+01 -3.539604663848876953e+00 -1.506505966186523438e+00 3.182164132595062256e-01 -3.564868569374084473e-01 6.115080118179321289e-01
9.020000000000000000e+02 8.566429138183593750e+00 -2.649126052856445312e+00 -1.538833498954772949e+00 4.624132812023162842e-01 -3.229260444641113281e-01 -2.745073139667510986e-01
9.030000000000000000e+02 2.132678985595703125e+01 1.630231285095214844e+01 -4.614180624485015869e-01 -2.460601776838302612e-01 -2.122434675693511963e-01 3.591173589229583740e-01
9.040000000000000000e+02 2.468589591979980469e+01 1.396323680877685547e+01 -6.352500915527343750e-01 -7.150545716285705566e-01 -4.050914049148559570e-01 6.229862570762634277e-01
9.050000000000000000e+02 2.052275085449218750e+01 4.121089935302734375e+00 -1.193484440445899963e-01 6.089731305837631226e-02 -1.753534004092216492e-02 2.237700074911117554e-01
9.060000000000000000e+02 1.439446353912353516e+01 7.119493961334228516e+00 -5.890153646469116211e-01 -9.147911071777343750e-01 -4.511419534683227539e-01 5.426728129386901855e-01
9.070000000000000000e+02 6.785881805419921875e+01 -1.685251998901367188e+01 1.157574772834777832e+00 1.108444499969482422e+01 3.672605991363525391e+00 2.957721948623657227e+00
9.080000000000000000e+02 6.539241790771484375e+01 -1.821960067749023438e+01 2.323285818099975586e+00 6.296172142028808594e+00 2.585837364196777344e+00 3.551114320755004883e+00
9.090000000000000000e+02 6.450973510742187500e+01 -1.933443641662597656e+01 1.730836033821105957e+00 4.179849147796630859e+00 1.773205518722534180e+00 2.746328353881835938e+00
9.100000000000000000e+02 6.269199371337890625e+01 -2.151434135437011719e+01 8.109385371208190918e-01 2.202241897583007812e+00 9.039541482925415039e-01 1.407661199569702148e+00
9.110000000000000000e+02 5.968599319458007812e+01 -2.456025886535644531e+01 -1.363595575094223022e-01 5.459299683570861816e-01 1.228711158037185669e-01 1.823214739561080933e-01
9.120000000000000000e+02 5.738597106933593750e+01 -2.620979881286621094e+01 -7.204758524894714355e-01 -9.392531961202621460e-02 -2.443203479051589966e-01 -3.390368521213531494e-01
9.130000000000000000e+02 5.498361587524414062e+01 -2.769213676452636719e+01 -9.959201812744140625e-01 -2.438310682773590088e-01 -3.719253540039062500e-01 -4.896869063377380371e-01
9.140000000000000000e+02 5.249374008178710938e+01 -2.905412483215332031e+01 -9.586519598960876465e-01 -2.590159177780151367e-01 -3.653003573417663574e-01 -5.337557196617126465e-01
9.150000000000000000e+02 4.588588714599609375e+01 -3.151516532897949219e+01 -3.292676210403442383e-01 -1.031341627240180969e-01 -1.297205388545989990e-01 -1.768866926431655884e-01
9.160000000000000000e+02 3.999449157714843750e+01 -3.287594604492187500e+01 1.569406539201736450e-01 -1.984399929642677307e-02 4.112899675965309143e-02 -5.162024497985839844e-02
9.170000000000000000e+02 3.570819091796875000e+01 -3.264669418334960938e+01 2.958171069622039795e-01 1.674397732131183147e-03 8.924745023250579834e-02 -3.004062734544277191e-02
9.180000000000000000e+02 3.154891204833984375e+01 -3.189025688171386719e+01 3.530349135398864746e-01 7.246764749288558960e-02 1.276507675647735596e-01 -9.483164548873901367e-02
9.190000000000000000e+02 3.008669662475585938e+01 -3.173415946960449219e+01 4.124273657798767090e-01 7.834524661302566528e-02 1.472317874431610107e-01 -1.631049215793609619e-01
9.200000000000000000e+02 2.467759323120117188e+01 -2.924660301208496094e+01 6.627560853958129883e-01 2.630320787429809570e-01 2.777364552021026611e-01 -4.397781193256378174e-01
9.210000000000000000e+02 2.225872039794921875e+01 -2.785062980651855469e+01 9.418057203292846680e-01 4.229715168476104736e-01 4.094331562519073486e-01 -6.618614792823791504e-01
9.220000000000000000e+02 2.345990371704101562e+01 -2.855088233947753906e+01 8.147562742233276367e-01 3.844482600688934326e-01 3.597613573074340820e-01 -5.163912177085876465e-01
9.230000000000000000e+02 1.365434169769287109e+01 -2.048483848571777344e+01 1.782367110252380371e+00 2.352889776229858398e+00 1.240577101707458496e+00 -2.097443819046020508e+00
9.240000000000000000e+02 1.266720867156982422e+01 -1.945907211303710938e+01 2.079687356948852539e+00 2.978133440017700195e+00 1.517346262931823730e+00 -2.325338125228881836e+00
9.250000000000000000e+02 1.077798175811767578e+01 -1.731726646423339844e+01 2.689781188964843750e+00 5.576097488403320312e+00 2.479763746261596680e+00 -3.276667594909667969e+00
9.260000000000000000e+02 1.933427238464355469e+01 -7.755390167236328125e+00 -3.153709173202514648e-01 -1.222451567649841309e+00 -4.613467454910278320e-01 9.060726165771484375e-01
9.270000000000000000e+02 1.950588607788085938e+01 -9.328115463256835938e+00 7.170016318559646606e-02 -1.350071191787719727e+00 -3.835113048553466797e-01 7.554022669792175293e-01
9.280000000000000000e+02 2.288174247741699219e+01 -1.423488712310791016e+01 1.713974833488464355e+00 -2.304585456848144531e+00 -1.771832257509231567e-01 2.026980876922607422e+00
9.290000000000000000e+02 2.317479133605957031e+01 -1.478882122039794922e+01 2.841543219983577728e-02 -1.439163565635681152e+00 -4.232244491577148438e-01 3.165439367294311523e+00
9.300000000000000000e+02 2.356643104553222656e+01 -1.468105316162109375e+01 7.910475134849548340e-01 -5.155824422836303711e-01 8.263952285051345825e-02 3.250020027160644531e+00
9.310000000000000000e+02 2.423966407775878906e+01 -1.601622009277343750e+01 -5.007532596588134766e+00 5.240275263786315918e-01 -1.345051407814025879e+00 2.613817691802978516e+00
9.320000000000000000e+02 2.924841117858886719e+01 -1.797767448425292969e+01 -3.810330629348754883e+00 8.925595879554748535e-02 -1.116322398185729980e+00 2.833313941955566406e-01
9.330000000000000000e+02 3.208464050292968750e+01 -1.844378471374511719e+01 -2.515089035034179688e+00 -7.256240118294954300e-03 -7.567036151885986328e-01 1.248902231454849243e-01
9.340000000000000000e+02 3.345402908325195312e+01 -1.862162208557128906e+01 -2.054368734359741211e+00 4.704404249787330627e-02 -6.021974086761474609e-01 6.003018841147422791e-02
9.350000000000000000e+02 3.756003570556640625e+01 -1.863189125061035156e+01 -1.642014265060424805e+00 -1.332173997070640326e-04 -4.926442503929138184e-01 -1.179480701684951782e-01
9.360000000000000000e+02 3.497863769531250000e+01 -1.754118728637695312e+01 -1.732569813728332520e+00 6.656333804130554199e-02 -4.998019635677337646e-01 -1.626849472522735596e-01
9.370000000000000000e+02 4.027880096435546875e+01 -1.842660140991210938e+01 -1.316529512405395508e+00 1.433149538934230804e-02 -3.906593918800354004e-01 -2.059356272220611572e-01
9.380000000000000000e+02 4.555007553100585938e+01 -1.704193687438964844e+01 -1.466719746589660645e+00 -1.310017704963684082e-01 -4.793164432048797607e-01 -4.301757812500000000e-01
9.390000000000000000e+02 4.387498092651367188e+01 -1.638016128540039062e+01 -1.362509846687316895e+00 -5.734333768486976624e-02 -4.259559512138366699e-01 -3.470518887042999268e-01
9.400000000000000000e+02 4.685599517822265625e+01 -1.663110160827636719e+01 -1.350372195243835449e+00 -1.093355789780616760e-01 -4.379123151302337646e-01 -4.542089998722076416e-01
9.410000000000000000e+02 4.812984848022460938e+01 -1.613668251037597656e+01 -1.354258179664611816e+00 -1.740062534809112549e-01 -4.584793448448181152e-01 -5.311226844787597656e-01
9.420000000000000000e+02 5.226382827758789062e+01 -1.264074993133544922e+01 -1.704884052276611328e+00 -2.592450380325317383e-01 -5.892387032508850098e-01 -7.248315215110778809e-01
9.430000000000000000e+02 5.303724670410156250e+01 -1.363601303100585938e+01 -1.737822055816650391e+00 -4.605039060115814209e-01 -6.594977378845214844e-01 -8.912948966026306152e-01
9.440000000000000000e+02 5.542637252807617188e+01 -1.223574924468994141e+01 -1.927890777587890625e+00 -6.016534566879272461e-01 -7.588632702827453613e-01 -1.118481636047363281e+00
9.450000000000000000e+02 5.775969696044921875e+01 -1.072145462036132812e+01 -2.563866853713989258e+00 -8.714240193367004395e-01 -1.030587196350097656e+00 -1.496208429336547852e+00
9.460000000000000000e+02 6.124616622924804688e+01 -8.446814537048339844e+00 -4.024912834167480469e+00 -1.182023286819458008e+00 -1.562080860137939453e+00 -2.123625278472900391e+00
9.470000000000000000e+02 6.422319030761718750e+01 -6.000434398651123047e+00 -4.184120178222656250e+00 -7.613611817359924316e-01 -1.483644485473632812e+00 -1.852906227111816406e+00
9.480000000000000000e+02 5.055291748046875000e+01 1.888659095764160156e+01 6.546013057231903076e-02 1.394192725419998169e-01 6.146382167935371399e-02 -1.351229697465896606e-01
9.490000000000000000e+02 5.619498443603515625e+01 1.554458904266357422e+01 9.382365942001342773e-01 3.615005254745483398e+00 1.365972518920898438e+00 -8.696236014366149902e-01
9.500000000000000000e+02 4.620077896118164062e+01 5.870393753051757812e+00 -2.745009399950504303e-02 8.743124455213546753e-02 1.799434609711170197e-02 4.484483599662780762e-02
9.510000000000000000e+02 4.305987930297851562e+01 9.293304443359375000e+00 6.773530971258878708e-03 1.022071957588195801e+00 3.086536526679992676e-01 -7.109556347131729126e-02
9.520000000000000000e+02 4.645220565795898438e+01 1.941888999938964844e+01 4.496803283691406250e-01 6.232756376266479492e-01 3.218868076801300049e-01 5.562497377395629883e-01
9.530000000000000000e+02 2.322539329528808594e+01 -1.416619014739990234e+01 2.577849149703979492e+00 -1.699307560920715332e+00 2.635625302791595459e-01 2.162177801132202148e+00
9.540000000000000000e+02 2.578915023803710938e+01 -1.477033805847167969e+01 9.854999184608459473e-01 2.964125633239746094e+00 1.184887647628784180e+00 -1.402817249298095703e+00
9.550000000000000000e+02 2.560643005371093750e+01 -1.486005973815917969e+01 5.285711884498596191e-01 3.308805465698242188e+00 1.151213049888610840e+00 -1.084097385406494141e+00
9.560000000000000000e+02 2.505777359008789062e+01 -1.507139492034912109e+01 -8.245888948440551758e-01 3.191762208938598633e+00 7.101519703865051270e-01 6.093811392784118652e-01
9.570000000000000000e+02 2.486503791809082031e+01 -1.512727451324462891e+01 -1.140564918518066406e+00 3.405494689941406250e+00 6.794789433479309082e-01 1.545152902603149414e+00
9.580000000000000000e+02 2.646681022644042969e+01 -1.370541667938232422e+01 4.211275100708007812e+00 1.238594889640808105e+00 1.634961009025573730e+00 2.714759707450866699e-01
9.590000000000000000e+02 2.652151107788085938e+01 -1.323532962799072266e+01 3.907687187194824219e+00 1.492299556732177734e+00 1.619996070861816406e+00 1.354516863822937012e+00
9.600000000000000000e+02 2.392300224304199219e+01 -1.508113765716552734e+01 -7.265874743461608887e-01 1.034632444381713867e+00 9.241349995136260986e-02 3.244753122329711914e+00
9.610000000000000000e+02 2.368806457519531250e+01 -1.488256168365478516e+01 1.286968141794204712e-01 9.538646787405014038e-02 6.722498685121536255e-02 3.408442974090576172e+00
9.620000000000000000e+02 2.594326591491699219e+01 -1.545652389526367188e+01 -1.809766411781311035e+00 2.116108894348144531e+00 9.190277755260467529e-02 -9.427978992462158203e-01
9.630000000000000000e+02 2.542555999755859375e+01 -1.493742179870605469e+01 -1.325628459453582764e-01 3.603656768798828125e+00 1.041328191757202148e+00 -5.980653762817382812e-01
9.640000000000000000e+02 2.649834251403808594e+01 -1.348006343841552734e+01 4.198009490966796875e+00 1.272604346275329590e+00 1.641184091567993164e+00 7.917227745056152344e-01
9.650000000000000000e+02 2.330685043334960938e+01 -1.435801887512207031e+01 2.533396244049072266e+00 -1.374559044837951660e+00 3.476511538028717041e-01 2.688137531280517578e+00
9.660000000000000000e+02 2.632767295837402344e+01 -1.411396312713623047e+01 3.549768209457397461e+00 1.589435338973999023e+00 1.541761040687561035e+00 -7.413737773895263672e-01
9.670000000000000000e+02 2.568501091003417969e+01 -1.509572601318359375e+01 -5.152952671051025391e-01 2.573604583740234375e+00 6.174927949905395508e-01 -9.602522850036621094e-01
9.680000000000000000e+02 2.563416671752929688e+01 -1.533447074890136719e+01 -1.710225343704223633e+00 2.393744945526123047e+00 2.050559073686599731e-01 -6.368961930274963379e-01
9.690000000000000000e+02 2.493385887145996094e+01 -1.603279304504394531e+01 -5.157156944274902344e+00 8.947444558143615723e-01 -1.278723835945129395e+00 1.251153469085693359e+00
9.700000000000000000e+02 2.599000549316406250e+01 -1.227910327911376953e+01 1.578147768974304199e+00 3.643328666687011719e+00 1.566442966461181641e+00 2.119204759597778320e+00
9.710000000000000000e+02 2.230676078796386719e+01 -1.552104282379150391e+01 -3.592025041580200195e+00 -1.802664518356323242e+00 -1.618406891822814941e+00 3.262895345687866211e+00
9.720000000000000000e+02 2.253292274475097656e+01 -1.269212245941162109e+01 1.419337511062622070e+00 -1.585541129112243652e+00 -4.986108094453811646e-02 1.080647483468055725e-01
9.730000000000000000e+02 2.205620384216308594e+01 -1.189023876190185547e+01 8.121019601821899414e-01 -1.519198536872863770e+00 -2.121289670467376709e-01 1.635168492794036865e-01
9.740000000000000000e+02 2.278929138183593750e+01 -1.325358867645263672e+01 2.321933031082153320e+00 -1.881697893142700195e+00 1.320705711841583252e-01 1.967151910066604614e-01
9.750000000000000000e+02 2.293664741516113281e+01 -1.361644363403320312e+01 2.856826066970825195e+00 -2.088570356369018555e+00 2.304767221212387085e-01 7.414663434028625488e-01
9.760000000000000000e+02 2.311362266540527344e+01 -1.399502944946289062e+01 2.980172872543334961e+00 -2.091114282608032227e+00 2.667175829410552979e-01 1.585567593574523926e+00
9.770000000000000000e+02 2.285791587829589844e+01 -1.343222427368164062e+01 2.567215681076049805e+00 -1.960386991500854492e+00 1.820485740900039673e-01 5.439039468765258789e-01
9.780000000000000000e+02 2.257758331298828125e+01 -1.287031555175781250e+01 1.794465184211730957e+00 -1.765745520591735840e+00 8.615895174443721771e-03 3.151494264602661133e-02
9.790000000000000000e+02 2.257642555236816406e+01 -1.338927841186523438e+01 2.112150430679321289e+00 -2.182148218154907227e+00 -2.099933661520481110e-02 6.118444204330444336e-01
9.800000000000000000e+02 2.246594429016113281e+01 -1.253612518310546875e+01 1.242953181266784668e+00 -1.548856019973754883e+00 -9.177083522081375122e-02 -2.106977393850684166e-03
9.810000000000000000e+02 2.192415809631347656e+01 -1.230701351165771484e+01 1.041632652282714844e+00 -1.733565568923950195e+00 -2.075798511505126953e-01 2.650025784969329834e-01
9.820000000000000000e+02 2.228960800170898438e+01 -1.223139858245849609e+01 1.041814923286437988e+00 -1.560374140739440918e+00 -1.555677652359008789e-01 9.114497900009155273e-02
9.830000000000000000e+02 2.174391937255859375e+01 -1.269687652587890625e+01 1.076833963394165039e+00 -2.033797502517700195e+00 -2.870890498161315918e-01 4.920683205127716064e-01
9.840000000000000000e+02 2.582046318054199219e+01 -1.191522407531738281e+01 6.116344332695007324e-01 3.830972671508789062e+00 1.332782149314880371e+00 1.513453841209411621e+00
9.850000000000000000e+02 2.495514488220214844e+01 -1.029215526580810547e+01 -2.374931424856185913e-01 2.124042987823486328e+00 5.659649372100830078e-01 1.502711474895477295e-01
9.860000000000000000e+02 2.503524398803710938e+01 -1.047729969024658203e+01 -2.338480502367019653e-01 2.302680730819702148e+00 6.206497550010681152e-01 1.560462415218353271e-01
9.870000000000000000e+02 2.595965766906738281e+01 -1.078583049774169922e+01 -4.763530194759368896e-02 2.641284465789794922e+00 7.780947685241699219e-01 9.173648953437805176e-01
9.880000000000000000e+02 2.535804176330566406e+01 -1.059683513641357422e+01 -2.243353724479675293e-01 2.573865413665771484e+00 7.048589587211608887e-01 4.174550473690032959e-01
9.890000000000000000e+02 2.558365821838378906e+01 -1.131156539916992188e+01 -9.693778119981288910e-03 3.263602972030639648e+00 9.761728048324584961e-01 7.738579511642456055e-01
9.900000000000000000e+02 2.607477760314941406e+01 -1.136231327056884766e+01 3.122965097427368164e-01 2.990912675857543945e+00 9.909627437591552734e-01 1.285576224327087402e+00
9.910000000000000000e+02 2.611556816101074219e+01 -1.182902050018310547e+01 7.937124371528625488e-01 3.191991567611694336e+00 1.195711135864257812e+00 1.661325693130493164e+00
9.920000000000000000e+02 2.468553161621093750e+01 -9.691102027893066406e+00 -2.742056250572204590e-01 1.689197540283203125e+00 4.244975745677947998e-01 8.890083432197570801e-02
9.930000000000000000e+02 2.011457824707031250e+01 -8.907669067382812500e+00 -8.720719069242477417e-02 -1.366038680076599121e+00 -4.359737634658813477e-01 7.455958127975463867e-01
9.940000000000000000e+02 1.782973289489746094e+01 -1.274458122253417969e+01 -1.871398538351058960e-01 -8.114389181137084961e-01 -2.995736300945281982e-01 6.764255166053771973e-01
9.950000000000000000e+02 1.983427429199218750e+01 -9.870704650878906250e+00 1.560000330209732056e-01 -1.418027043342590332e+00 -3.786080777645111084e-01 6.855219602584838867e-01
9.960000000000000000e+02 1.878374099731445312e+01 -1.425706100463867188e+01 -1.190875053405761719e+00 -7.663691639900207520e-01 -5.871732831001281738e-01 8.934752941131591797e-01
9.970000000000000000e+02 2.055958175659179688e+01 -1.084674167633056641e+01 3.215472996234893799e-01 -1.555778264999389648e+00 -3.702692985534667969e-01 5.729920268058776855e-01
9.980000000000000000e+02 2.177648353576660156e+01 -1.199513244628906250e+01 8.099337816238403320e-01 -1.657162547111511230e+00 -2.541686296463012695e-01 2.914460897445678711e-01
9.990000000000000000e+02 2.384026527404785156e+01 -8.110456466674804688e+00 -3.892213404178619385e-01 9.007041454315185547e-01 1.534448415040969849e-01 1.585624217987060547e-01
1.000000000000000000e+03 2.427724456787109375e+01 -7.883465290069580078e+00 -4.674150645732879639e-01 1.036092996597290039e+00 1.706033945083618164e-01 2.446068674325942993e-01
1.001000000000000000e+03 2.454324913024902344e+01 -8.435070991516113281e+00 -4.325789809226989746e-01 1.237823367118835449e+00 2.415733188390731812e-01 2.194100469350814819e-01
1.002000000000000000e+03 1.892555236816406250e+01 -7.176290035247802734e+00 -4.252370297908782959e-01 -1.139486789703369141e+00 -4.694171547889709473e-01 9.641314744949340820e-01
1.003000000000000000e+03 1.783411026000976562e+01 -1.043953609466552734e+01 3.410387337207794189e-01 -1.059625387191772461e+00 -2.155760079622268677e-01 7.851625680923461914e-01
1.004000000000000000e+03 1.832970046997070312e+01 -7.639691352844238281e+00 -2.639889121055603027e-01 -1.051082134246826172e+00 -3.945213258266448975e-01 9.416521787643432617e-01
1.005000000000000000e+03 1.751791954040527344e+01 -1.371137809753417969e+01 -4.381403028964996338e-01 -2.381995320320129395e-01 -2.029019445180892944e-01 4.518055617809295654e-01
1.006000000000000000e+03 9.104316711425781250e+00 3.324145317077636719e+00 -3.271337747573852539e-01 -9.790632873773574829e-02 -1.275120228528976440e-01 2.183844000101089478e-01
1.007000000000000000e+03 8.355895996093750000e+00 2.589036226272583008e+00 -2.704616487026214600e-01 -5.798725411295890808e-02 -9.853467345237731934e-02 1.608095914125442505e-01
1.008000000000000000e+03 6.908889770507812500e+00 1.854482769966125488e+00 -1.692179888486862183e-01 -1.456104125827550888e-02 -5.513370782136917114e-02 8.459214866161346436e-02
1.009000000000000000e+03 1.741207599639892578e+00 7.910156726837158203e+00 -1.372469961643218994e-02 -2.299100607633590698e-01 -7.309042662382125854e-02 1.202833652496337891e-01
1.010000000000000000e+03 9.871970176696777344e+00 2.547411441802978516e+00 -3.486163318157196045e-01 -1.072947680950164795e-01 -1.367733329534530640e-01 2.009184211492538452e-01
1.011000000000000000e+03 6.184281349182128906e+00 2.552370548248291016e+00 -1.603805422782897949e-01 -2.638248726725578308e-02 -5.602890625596046448e-02 1.026799976825714111e-01
1.012000000000000000e+03 6.905226707458496094e+00 2.561295986175537109e+00 -1.929650157690048218e-01 -3.645489737391471863e-02 -6.882597506046295166e-02 1.234718784689903259e-01
1.013000000000000000e+03 1.350727438926696777e+00 3.391640901565551758e+00 -1.511135417968034744e-02 -2.543575502932071686e-02 -1.216413266956806183e-02 1.979641616344451904e-02
1.014000000000000000e+03 6.194457530975341797e+00 3.253953218460083008e+00 -1.737844049930572510e-01 -5.014198273420333862e-02 -6.717791408300399780e-02 1.404316276311874390e-01
1.015000000000000000e+03 2.572716474533081055e+00 1.922539353370666504e+00 -2.381069213151931763e-02 -1.709409058094024658e-02 -1.227143500000238419e-02 1.377235911786556244e-02
1.016000000000000000e+03 2.069630861282348633e+00 3.013288974761962891e+00 -2.545009925961494446e-02 -3.024961054325103760e-02 -1.670991256833076477e-02 2.520743012428283691e-02
1.017000000000000000e+03 5.047735691070556641e+00 -2.453545808792114258e+00 -8.933515548706054688e-01 1.695631258189678192e-02 -2.629185616970062256e-01 -7.596936225891113281e-01
1.018000000000000000e+03 1.577127337455749512e+00 -8.027915000915527344e+00 -1.734684221446514130e-02 -2.424767255783081055e+00 -7.326342463493347168e-01 -9.806278347969055176e-01
1.019000000000000000e+03 2.679998636245727539e+00 -8.172401428222656250e+00 -4.783903434872627258e-02 -1.596871733665466309e+00 -4.934132397174835205e-01 -1.450756311416625977e+00
1.020000000000000000e+03 1.593736767768859863e+00 -6.722525119781494141e+00 -6.025039404630661011e-02 -1.785250782966613770e+00 -5.536503791809082031e-01 -9.175965189933776855e-01
1.021000000000000000e+03 5.345243811607360840e-01 -3.635160684585571289e+00 -4.711487144231796265e-02 -6.759472489356994629e-01 -2.169186323881149292e-01 -2.155433446168899536e-01
1.022000000000000000e+03 4.127453863620758057e-01 -2.199599027633666992e+00 -3.464078158140182495e-02 -1.880830526351928711e-01 -6.681714951992034912e-02 -8.179216831922531128e-02
1.023000000000000000e+03 5.779249668121337891e-01 -5.099987983703613281e+00 -2.808339335024356842e-02 -1.282778620719909668e+00 -3.932586014270782471e-01 -3.074342310428619385e-01
1.024000000000000000e+03 7.904301643371582031e+00 -1.862594127655029297e+00 -1.553310275077819824e+00 2.336492538452148438e-01 -3.958983123302459717e-01 -2.884243726730346680e-01
1.025000000000000000e+03 1.060574913024902344e+01 -3.881293535232543945e+00 -1.461240887641906738e+00 7.439346313476562500e-01 -2.151918858289718628e-01 1.811670958995819092e-01
1.026000000000000000e+03 6.411891460418701172e+00 -2.518888235092163086e+00 -1.184041142463684082e+00 1.778413653373718262e-01 -3.018599152565002441e-01 -6.436328291893005371e-01
1.027000000000000000e+03 5.729203701019287109e+00 -2.466515779495239258e+00 -1.054867148399353027e+00 1.333088874816894531e-01 -2.764674723148345947e-01 -7.363260388374328613e-01
1.028000000000000000e+03 1.004785919189453125e+01 -2.863536119461059570e+00 -1.642118334770202637e+00 5.307716727256774902e-01 -3.334039747714996338e-01 5.999385565519332886e-02
1.029000000000000000e+03 2.232801246643066406e+01 -5.621902465820312500e+00 -6.045163869857788086e-01 2.054644376039505005e-01 -1.197155937552452087e-01 3.491413891315460205e-01
1.030000000000000000e+03 2.380018234252929688e+01 -5.733438968658447266e+00 -6.672886610031127930e-01 6.828599572181701660e-01 4.671400878578424454e-03 3.662044703960418701e-01
1.031000000000000000e+03 2.398421478271484375e+01 -7.304482460021972656e+00 -5.093296170234680176e-01 8.541528582572937012e-01 1.034469753503799438e-01 2.672229111194610596e-01
1.032000000000000000e+03 2.326699829101562500e+01 -6.006283283233642578e+00 -6.108421087265014648e-01 5.308102369308471680e-01 -2.400956489145755768e-02 3.260295391082763672e-01
1.033000000000000000e+03 2.148294830322265625e+01 -3.236846208572387695e+00 -7.523274421691894531e-01 4.579078033566474915e-02 -2.119610011577606201e-01 4.279798567295074463e-01
1.034000000000000000e+03 1.745957374572753906e+01 4.898981571197509766e+00 -9.217650890350341797e-01 -6.516405344009399414e-01 -4.720216989517211914e-01 6.798774003982543945e-01
1.035000000000000000e+03 1.551850509643554688e+01 6.555426120758056641e+00 -6.933376193046569824e-01 -9.839511513710021973e-01 -5.031866431236267090e-01 7.326192259788513184e-01
1.036000000000000000e+03 1.647891998291015625e+01 3.149554491043090820e+00 -4.424494206905364990e-01 -6.597418189048767090e-01 -3.306573927402496338e-01 5.058007240295410156e-01
1.037000000000000000e+03 1.645841407775878906e+01 5.722958087921142578e+00 -7.554086446762084961e-01 -7.359507679939270020e-01 -4.474078118801116943e-01 7.325713038444519043e-01
1.038000000000000000e+03 1.314818668365478516e+01 2.056328058242797852e+00 -4.553608596324920654e-01 -3.387760221958160400e-01 -2.382410764694213867e-01 3.349004685878753662e-01
1.039000000000000000e+03 1.148700523376464844e+01 2.339282751083374023e+00 -4.159286022186279297e-01 -1.978783160448074341e-01 -1.841420829296112061e-01 2.569966316223144531e-01
1.040000000000000000e+03 9.100286483764648438e+00 2.585047483444213867e+00 -3.135450184345245361e-01 -6.847587972879409790e-02 -1.146062687039375305e-01 1.779309809207916260e-01
1.041000000000000000e+03 2.198042869567871094e+01 -3.930412054061889648e+00 -7.403506040573120117e-01 1.528754979372024536e-01 -1.762425303459167480e-01 4.153521955013275146e-01
1.042000000000000000e+03 2.095271492004394531e+01 -2.528702735900878906e+00 -7.391773462295532227e-01 -5.589533969759941101e-02 -2.385218143463134766e-01 4.535691738128662109e-01
1.043000000000000000e+03 2.031625366210937500e+01 -3.018780469894409180e+00 -7.770965099334716797e-01 -2.623861730098724365e-01 -3.118447959423065186e-01 5.065973401069641113e-01
1.044000000000000000e+03 2.036305999755859375e+01 -1.770974040031433105e+00 -6.954019665718078613e-01 -1.709186285734176636e-01 -2.598961889743804932e-01 4.684190154075622559e-01
1.045000000000000000e+03 1.765700531005859375e+01 -8.510861992835998535e-01 -6.503999829292297363e-01 -5.623815655708312988e-01 -3.638344705104827881e-01 5.845927596092224121e-01
1.046000000000000000e+03 1.808663177490234375e+01 -1.576630622148513794e-01 -5.501639842987060547e-01 -5.142569541931152344e-01 -3.193262815475463867e-01 5.477440953254699707e-01
1.047000000000000000e+03 1.882214164733886719e+01 -6.647484302520751953e-01 -5.838015675544738770e-01 -4.389150440692901611e-01 -3.068149685859680176e-01 5.394172668457031250e-01
1.048000000000000000e+03 1.437675571441650391e+01 -3.379348039627075195e+00 -1.476468324661254883e+00 -1.246404126286506653e-01 -4.803326129913330078e-01 9.085782170295715332e-01
1.049000000000000000e+03 1.471997451782226562e+01 -4.495156764984130859e+00 -1.137671470642089844e+00 -9.000229835510253906e-02 -3.683021366596221924e-01 9.890559911727905273e-01
1.050000000000000000e+03 1.450320339202880859e+01 -6.122208595275878906e+00 -6.445499062538146973e-01 5.407295003533363342e-02 -1.771430820226669312e-01 1.070679903030395508e+00
1.051000000000000000e+03 1.669566345214843750e+01 -5.973705291748046875e+00 -6.558637619018554688e-01 -5.991861224174499512e-01 -3.765149712562561035e-01 1.101974844932556152e+00
1.052000000000000000e+03 1.784320640563964844e+01 -5.932021617889404297e+00 -6.907235383987426758e-01 -8.733524680137634277e-01 -4.692228138446807861e-01 1.080630183219909668e+00
1.053000000000000000e+03 1.555036067962646484e+01 -6.097733020782470703e+00 -6.020838022232055664e-01 -2.712219059467315674e-01 -2.619917094707489014e-01 1.118601322174072266e+00
1.054000000000000000e+03 1.648538970947265625e+01 -9.065695762634277344e+00 2.503974437713623047e-01 -6.814085245132446289e-01 -1.293033212423324585e-01 9.407461881637573242e-01
1.055000000000000000e+03 1.163711357116699219e+01 -3.288206338882446289e+00 -1.572769999504089355e+00 4.122748672962188721e-01 -3.481485545635223389e-01 4.268304705619812012e-01
1.056000000000000000e+03 1.399932479858398438e+01 -4.125063419342041016e+00 -1.270121693611145020e+00 5.205069854855537415e-02 -3.654212951660156250e-01 9.038935303688049316e-01
1.057000000000000000e+03 1.272860622406005859e+01 -2.731211662292480469e+00 -1.696950078010559082e+00 1.059033051133155823e-01 -4.773140251636505127e-01 6.335742473602294922e-01
1.058000000000000000e+03 1.137458610534667969e+01 -4.131142139434814453e+00 -1.412481784820556641e+00 6.398820281028747559e-01 -2.317799180746078491e-01 4.184615612030029297e-01
1.059000000000000000e+03 1.854703521728515625e+01 4.246371269226074219e+00 -7.843794226646423340e-01 -3.195127844810485840e-01 -3.311676681041717529e-01 4.587774872779846191e-01
1.060000000000000000e+03 2.838083076477050781e+01 9.307083129882812500e+00 1.691492050886154175e-01 4.098979830741882324e-01 1.737141609191894531e-01 6.971964836120605469e-01
1.061000000000000000e+03 1.696222877502441406e+01 1.623834228515625000e+01 9.028220772743225098e-01 5.342839360237121582e-01 4.311318099498748779e-01 5.829023122787475586e-01
1.062000000000000000e+03 1.369481945037841797e+01 1.413448047637939453e+01 5.197041630744934082e-01 8.397026360034942627e-02 1.811023205518722534e-01 4.242955148220062256e-01
1.063000000000000000e+03 2.020287704467773438e+01 1.679533767700195312e+01 1.173694282770156860e-01 -4.961153119802474976e-02 2.032737061381340027e-02 3.562348484992980957e-01
1.064000000000000000e+03 1.629084205627441406e+01 1.918329811096191406e+01 1.900261640548706055e-01 2.225189805030822754e-01 1.237635463476181030e-01 4.086860120296478271e-01
1.065000000000000000e+03 2.044128417968750000e+01 1.909749412536621094e+01 1.491208523511886597e-01 -1.207351163029670715e-01 8.515720255672931671e-03 6.281571984291076660e-01
1.066000000000000000e+03 1.319269847869873047e+01 2.893906116485595703e+00 -4.626093208789825439e-01 -3.634478151798248291e-01 -2.478171288967132568e-01 3.467153310775756836e-01
1.067000000000000000e+03 2.229575347900390625e+01 1.921101188659667969e+01 1.797620356082916260e-01 -2.989721894264221191e-01 -3.576304763555526733e-02 5.004135370254516602e-01
1.068000000000000000e+03 1.605933380126953125e+01 2.226970195770263672e+00 -4.264402091503143311e-01 -5.987470746040344238e-01 -3.075561821460723877e-01 4.680183231830596924e-01
1.069000000000000000e+03 2.129828834533691406e+01 3.120040178298950195e+00 -2.122022509574890137e-01 2.127102762460708618e-01 1.524069084553048015e-04 4.420366287231445312e-01
1.070000000000000000e+03 2.468958282470703125e+01 4.969529151916503906e+00 2.467920929193496704e-01 8.490875959396362305e-01 3.287639021873474121e-01 4.217692613601684570e-01
1.071000000000000000e+03 1.535928440093994141e+01 1.755773162841796875e+01 3.774285316467285156e-01 2.794720530509948730e-01 1.970701664686203003e-01 2.789220511913299561e-01
1.072000000000000000e+03 2.687798309326171875e+01 1.150326061248779297e+01 -2.478186339139938354e-01 1.201661080121994019e-01 -3.829575702548027039e-02 6.094699501991271973e-01
1.073000000000000000e+03 1.318216705322265625e+01 1.098131275177001953e+01 5.697283893823623657e-02 -2.228507995605468750e-01 -4.976338520646095276e-02 4.646153748035430908e-01
1.074000000000000000e+03 1.284311866760253906e+01 1.349145984649658203e+01 4.055824875831604004e-01 -8.887406438589096069e-02 9.501253068447113037e-02 4.826826155185699463e-01
1.075000000000000000e+03 2.352965354919433594e+01 4.244257926940917969e+00 1.707630604505538940e-01 6.308681964874267578e-01 2.404893785715103149e-01 4.133534729480743408e-01
1.076000000000000000e+03 2.555866622924804688e+01 1.522144412994384766e+01 -3.992460668087005615e-01 -3.421424329280853271e-01 -2.224165499210357666e-01 3.219993412494659424e-01
1.077000000000000000e+03 2.212815093994140625e+01 1.739094352722167969e+01 6.099810823798179626e-02 -4.326533079147338867e-01 -1.114965602755546570e-01 4.670004248619079590e-01
1.078000000000000000e+03 2.751048660278320312e+01 7.852974891662597656e+00 3.598174452781677246e-01 4.559099376201629639e-01 2.447182089090347290e-01 5.775408148765563965e-01
1.079000000000000000e+03 2.716851806640625000e+01 8.974903106689453125e+00 2.557191848754882812e-01 4.089264571666717529e-01 1.993937045335769653e-01 6.772975921630859375e-01
1.080000000000000000e+03 1.230733203887939453e+01 2.199635744094848633e+00 -4.451588392257690430e-01 -2.454146146774291992e-01 -2.071720361709594727e-01 2.935647368431091309e-01
1.081000000000000000e+03 1.696909332275390625e+01 1.690921783447265625e+00 -4.077945053577423096e-01 -5.997056365013122559e-01 -3.022500276565551758e-01 5.259191989898681641e-01
1.082000000000000000e+03 2.111376190185546875e+01 -1.300203800201416016e+00 -6.582968235015869141e-01 2.104473486542701721e-02 -1.911756247282028198e-01 4.455604851245880127e-01
1.083000000000000000e+03 1.322382640838623047e+01 8.488698959350585938e+00 -3.926834464073181152e-01 -4.215440452098846436e-01 -2.442682534456253052e-01 5.207296013832092285e-01
1.084000000000000000e+03 1.439543533325195312e+01 9.607266426086425781e+00 -1.740233972668647766e-02 -6.445037722587585449e-01 -1.985718309879302979e-01 2.221279442310333252e-01
1.085000000000000000e+03 8.633238792419433594e+00 -1.160708713531494141e+01 1.518705964088439941e+00 5.258727550506591797e+00 2.033230066299438477e+00 -9.831951260566711426e-01
1.086000000000000000e+03 7.752629280090332031e+00 -1.233266067504882812e+01 2.365923881530761719e+00 4.161917686462402344e+00 1.958352565765380859e+00 -9.096207618713378906e-01
1.087000000000000000e+03 6.833339691162109375e+01 -8.652390480041503906e+00 3.720240592956542969e+00 2.072242927551269531e+01 7.332800865173339844e+00 -4.609544277191162109e+00
1.088000000000000000e+03 6.871128082275390625e+01 -1.130057811737060547e+01 1.617294907569885254e+00 2.284707450866699219e+01 7.339311122894287109e+00 1.096341490745544434e+00
1.089000000000000000e+03 5.569684982299804688e+01 1.436882400512695312e+01 5.773951411247253418e-01 4.235333919525146484e+00 1.443818688392639160e+00 -8.418167829513549805e-01
1.090000000000000000e+03 1.236012935638427734e+01 -1.149314022064208984e+01 2.930564165115356445e+00 6.606506109237670898e-01 1.077364444732666016e+00 7.274401783943176270e-01
1.091000000000000000e+03 1.011351108551025391e+01 -1.013447475433349609e+01 7.118338942527770996e-01 3.834476947784423828e+00 1.363893270492553711e+00 1.387092351913452148e+00
1.092000000000000000e+03 6.332815170288085938e+01 -4.042031288146972656e+00 -1.429483056068420410e+00 1.950729638338088989e-01 -3.703230321407318115e-01 -1.714446425437927246e+00
1.093000000000000000e+03 6.565615081787109375e+01 -6.609419345855712891e+00 -3.874140262603759766e+00 4.579759389162063599e-02 -1.148502826690673828e+00 -2.162836790084838867e+00
1.094000000000000000e+03 4.264534378051757812e+01 8.135590553283691406e+00 -1.567048281431198120e-01 8.884209394454956055e-01 2.195148319005966187e-01 1.156817823648452759e-01
1.095000000000000000e+03 4.309487533569335938e+01 1.054037380218505859e+01 1.091845855116844177e-01 1.511480331420898438e+00 4.861994683742523193e-01 -2.156453281641006470e-01
1.096000000000000000e+03 4.389059448242187500e+01 1.655359458923339844e+01 1.020748019218444824e+00 2.079586982727050781e+00 9.301005005836486816e-01 1.104055404663085938e+00
1.097000000000000000e+03 4.588090515136718750e+01 1.812288475036621094e+01 6.242913603782653809e-01 5.858420729637145996e-01 3.630400300025939941e-01 6.174014806747436523e-01
1.098000000000000000e+03 7.726045989990234375e+01 -3.779222106933593750e+01 -6.622379273176193237e-02 9.323633193969726562e+00 2.777222633361816406e+00 9.910226613283157349e-02
1.099000000000000000e+03 7.932492065429687500e+01 -3.472713088989257812e+01 -3.369637206196784973e-02 1.004354953765869141e+01 3.002955913543701172e+00 6.146663334220647812e-03
1.100000000000000000e+03 7.933383178710937500e+01 -2.778558540344238281e+01 8.947966620326042175e-03 9.624789237976074219e+00 2.890121221542358398e+00 -1.181379929184913635e-01
1.101000000000000000e+03 7.762525177001953125e+01 3.212472915649414062e+01 1.751707121729850769e-02 6.522938728332519531e+00 1.962136745452880859e+00 -8.525503426790237427e-02
1.102000000000000000e+03 7.909772491455078125e+01 3.624859237670898438e+01 6.116246338933706284e-03 6.580972194671630859e+00 1.976126551628112793e+00 -3.601313382387161255e-02
1.103000000000000000e+03 7.934262847900390625e+01 -2.082316780090332031e+01 -6.310636550188064575e-02 7.585474967956542969e+00 2.256710767745971680e+00 -3.041877448558807373e-01
1.104000000000000000e+03 7.799468231201171875e+01 -2.628246307373046875e+01 -5.220488086342811584e-02 9.045159339904785156e+00 2.697886466979980469e+00 -3.788833022117614746e-01
1.105000000000000000e+03 7.930226135253906250e+01 -3.055834197998046875e+01 -6.010439246892929077e-03 9.931557655334472656e+00 2.977663993835449219e+00 -6.243641674518585205e-02
1.106000000000000000e+03 7.797456359863281250e+01 -3.457675552368164062e+01 -3.565241023898124695e-02 9.565719604492187500e+00 2.859020233154296875e+00 -1.040802616626024246e-02
1.107000000000000000e+03 7.784397888183593750e+01 -3.318468856811523438e+01 -5.686302110552787781e-02 9.500618934631347656e+00 2.833126783370971680e+00 -4.092177376151084900e-02
1.108000000000000000e+03 7.489176177978515625e+01 -3.721397781372070312e+01 -8.798445761203765869e-02 8.542479515075683594e+00 2.536348581314086914e+00 -1.093582063913345337e-01
1.109000000000000000e+03 7.630562591552734375e+01 -3.887859344482421875e+01 -4.861338436603546143e-02 9.191802978515625000e+00 2.742956876754760742e+00 3.320001065731048584e-02
1.110000000000000000e+03 7.805867767333984375e+01 1.402379512786865234e+01 -3.211661241948604584e-03 7.834522247314453125e+00 2.349393129348754883e+00 -2.295764088630676270e-01
1.111000000000000000e+03 7.935024261474609375e+01 1.535526084899902344e+01 -1.168793253600597382e-02 7.973235130310058594e+00 2.388464212417602539e+00 -6.941901892423629761e-02
1.112000000000000000e+03 7.802797698974609375e+01 2.093091392517089844e+01 2.221979387104511261e-02 7.170799255371093750e+00 2.157905578613281250e+00 -1.583063602447509766e-01
1.113000000000000000e+03 7.933392333984375000e+01 2.230434226989746094e+01 1.249414961785078049e-02 7.276769161224365234e+00 2.186779022216796875e+00 -4.685860872268676758e-02
1.114000000000000000e+03 7.774430847167968750e+01 3.070001792907714844e+01 2.424892270937561989e-03 6.597188472747802734e+00 1.979883909225463867e+00 -9.129998087882995605e-02
1.115000000000000000e+03 7.783996582031250000e+01 2.787369155883789062e+01 1.157096470706164837e-03 6.718727111816406250e+00 2.015965223312377930e+00 -1.031155809760093689e-01
1.116000000000000000e+03 7.927648162841796875e+01 2.788095664978027344e+01 6.577572319656610489e-03 6.919283390045166016e+00 2.077758312225341797e+00 -3.485660627484321594e-02
1.117000000000000000e+03 7.793956756591796875e+01 2.507114601135253906e+01 2.277801046147942543e-03 6.876468658447265625e+00 2.063623905181884766e+00 -1.199043020606040955e-01
1.118000000000000000e+03 7.798212432861328125e+01 2.368316650390625000e+01 1.901184208691120148e-02 6.968805313110351562e+00 2.096345186233520508e+00 -1.327154934406280518e-01
1.119000000000000000e+03 7.804418182373046875e+01 1.816834449768066406e+01 2.279807068407535553e-02 7.408907413482666016e+00 2.229511737823486328e+00 -1.879495084285736084e-01
1.120000000000000000e+03 7.805512237548828125e+01 1.540161418914794922e+01 2.116699144244194031e-02 7.685561656951904297e+00 2.312018632888793945e+00 -2.175056636333465576e-01
1.121000000000000000e+03 7.805052185058593750e+01 1.678359794616699219e+01 5.482205306179821491e-04 7.541503906250000000e+00 2.262615680694580078e+00 -2.034306377172470093e-01
1.122000000000000000e+03 7.806262207031250000e+01 1.264712333679199219e+01 1.583366841077804565e-02 7.993154525756835938e+00 2.402696371078491211e+00 -2.370242923498153687e-01
1.123000000000000000e+03 7.677880859375000000e+01 1.134862518310546875e+01 8.892251178622245789e-03 7.786468982696533203e+00 2.338608264923095703e+00 -3.792091608047485352e-01
1.124000000000000000e+03 7.804913330078125000e+01 8.517943382263183594e+00 -2.763173170387744904e-02 8.463087081909179688e+00 2.530636548995971680e+00 -2.271570116281509399e-01
1.125000000000000000e+03 7.934996032714843750e+01 9.802099227905273438e+00 -1.499525550752878189e-02 8.712649345397949219e+00 2.609296083450317383e+00 -7.452748715877532959e-02
1.126000000000000000e+03 7.934906768798828125e+01 -1.942408180236816406e+01 4.078957810997962952e-02 6.927899360656738281e+00 2.090606689453125000e+00 -3.436869382858276367e-01
1.127000000000000000e+03 7.929934692382812500e+01 -1.381458950042724609e+01 5.824026092886924744e-02 4.455104351043701172e+00 1.354003310203552246e+00 -1.926173716783523560e-01
1.128000000000000000e+03 7.941043853759765625e+01 -6.891925811767578125e+00 1.342618465423583984e-01 5.717862129211425781e+00 1.755637168884277344e+00 3.263880312442779541e-01
1.129000000000000000e+03 7.807140350341796875e+01 8.706979453563690186e-02 -1.256231516599655151e-01 8.669116020202636719e+00 2.563047885894775391e+00 3.683468997478485107e-01
1.130000000000000000e+03 7.934358978271484375e+01 1.438873648643493652e+00 -8.364567533135414124e-03 9.121056556701660156e+00 2.733807563781738281e+00 9.689951688051223755e-02
1.131000000000000000e+03 7.676892089843750000e+01 7.248656272888183594e+00 -8.291797339916229248e-02 8.203207015991210938e+00 2.436086654663085938e+00 -3.272150456905364990e-01
1.132000000000000000e+03 7.779465484619140625e+01 2.929110527038574219e+01 1.057993620634078979e-02 6.656013965606689453e+00 1.999978184700012207e+00 -9.543189406394958496e-02
1.133000000000000000e+03 7.875267028808593750e+01 4.038167572021484375e+01 -2.228021249175071716e-02 6.456361770629882812e+00 1.930224537849426270e+00 -7.185800373554229736e-02
1.134000000000000000e+03 7.511606597900390625e+01 3.765547943115234375e+01 2.146730944514274597e-02 6.101534843444824219e+00 1.836900591850280762e+00 -6.241341307759284973e-02
1.135000000000000000e+03 7.805589294433593750e+01 9.897589683532714844e+00 6.655534380115568638e-04 8.309350013732910156e+00 2.493004560470581055e+00 -2.333452254533767700e-01
1.136000000000000000e+03 7.684154510498046875e+01 1.050727367401123047e-01 -3.586955368518829346e-01 8.600687026977539062e+00 2.472597360610961914e+00 4.871923625469207764e-01
1.137000000000000000e+03 7.803673553466796875e+01 2.942991018295288086e+00 -9.442586451768875122e-02 8.828636169433593750e+00 2.620263099670410156e+00 5.459275841712951660e-02
1.138000000000000000e+03 7.810466766357421875e+01 -1.348646044731140137e+00 -1.818965822458267212e-01 8.441123008728027344e+00 2.477767944335937500e+00 5.994459986686706543e-01
1.139000000000000000e+03 7.937480926513671875e+01 -2.767031669616699219e+00 -7.831325381994247437e-02 7.938027858734130859e+00 2.357914447784423828e+00 3.081797063350677490e-01
1.140000000000000000e+03 7.816439056396484375e+01 -8.041637420654296875e+00 2.300848513841629028e-01 6.259531974792480469e+00 1.946884989738464355e+00 8.078366518020629883e-01
1.141000000000000000e+03 7.821623992919921875e+01 -5.458011150360107422e+00 1.549024414271116257e-02 7.167195320129394531e+00 2.154805660247802734e+00 8.769202828407287598e-01
1.142000000000000000e+03 7.935069274902343750e+01 -9.629362106323242188e+00 1.393175423145294189e-01 4.482573032379150391e+00 1.386567234992980957e+00 2.045004814863204956e-01
1.143000000000000000e+03 7.789858245849609375e+01 -1.359172153472900391e+01 3.176589608192443848e-01 6.014333724975585938e+00 1.899597883224487305e+00 -3.860037028789520264e-01
1.144000000000000000e+03 7.789748382568359375e+01 -1.215133857727050781e+01 2.927277982234954834e-01 5.932262897491455078e+00 1.867497205734252930e+00 -9.921827912330627441e-02
1.145000000000000000e+03 7.933005523681640625e+01 -1.662421417236328125e+01 5.532573908567428589e-02 5.528222084045410156e+00 1.675064325332641602e+00 -3.427030146121978760e-01
1.146000000000000000e+03 7.804280853271484375e+01 -2.067701339721679688e+01 -3.726514428853988647e-02 7.827386379241943359e+00 2.337036371231079102e+00 -8.028458952903747559e-01
1.147000000000000000e+03 7.807145690917968750e+01 -1.927216529846191406e+01 -5.567859485745429993e-02 7.403420925140380859e+00 2.204322576522827148e+00 -8.414361476898193359e-01
1.148000000000000000e+03 4.465744781494140625e+01 4.377811431884765625e+00 -1.178250387310981750e-01 3.061510324478149414e-01 5.649780109524726868e-02 1.019236966967582703e-01
1.149000000000000000e+03 4.483340454101562500e+01 5.595519065856933594e+00 -8.953198790550231934e-02 3.089055716991424561e-01 6.581207364797592163e-02 2.579119615256786346e-02
1.150000000000000000e+03 5.669421005249023438e+01 1.125487327575683594e+01 4.231561124324798584e-01 3.211302757263183594e+00 1.090337634086608887e+00 -1.363590210676193237e-01
1.151000000000000000e+03 6.969612884521484375e+01 -8.407805442810058594e+00 2.199315071105957031e+00 1.463813304901123047e+01 5.051234722137451172e+00 4.321514964103698730e-01
1.152000000000000000e+03 6.830669403076171875e+01 -5.839104175567626953e+00 -2.558283329010009766e+00 1.102245426177978516e+01 2.539251327514648438e+00 -2.038567781448364258e+00
1.153000000000000000e+03 4.877842712402343750e+01 5.061774253845214844e+00 1.205190569162368774e-01 4.306757450103759766e-02 4.907599091529846191e-02 1.844315975904464722e-01
1.154000000000000000e+03 5.186423873901367188e+01 5.277892112731933594e+00 3.097816407680511475e-01 3.765937089920043945e-01 2.059126049280166626e-01 3.347011804580688477e-01
1.155000000000000000e+03 1.371595478057861328e+01 -1.177707386016845703e+01 1.242795825004577637e+00 -1.784372031688690186e-01 3.193075954914093018e-01 -6.815943121910095215e-02
1.156000000000000000e+03 1.261528015136718750e+01 -1.027934551239013672e+01 1.447550058364868164e+00 9.505572915077209473e-01 7.194322347640991211e-01 1.331061601638793945e+00
1.157000000000000000e+03 4.756673812866210938e+01 5.906278133392333984e+00 3.738526999950408936e-02 -3.096401458606123924e-03 1.028666086494922638e-02 9.729634970426559448e-02
1.158000000000000000e+03 6.833617401123046875e+01 -1.354827117919921875e+01 2.437726736068725586e+00 1.925045013427734375e+01 6.506453037261962891e+00 4.169952869415283203e+00
1.159000000000000000e+03 6.767033386230468750e+01 -1.469255542755126953e+01 2.144612789154052734e+00 1.403631210327148438e+01 4.854277133941650391e+00 5.257666587829589844e+00
1.160000000000000000e+03 5.048457717895507812e+01 2.061033821105957031e+01 6.816326975822448730e-01 5.830764174461364746e-01 3.794127106666564941e-01 -3.019233644008636475e-01
1.161000000000000000e+03 4.795465087890625000e+01 2.078662872314453125e+01 5.943087935447692871e-01 5.851789712905883789e-01 3.538463413715362549e-01 3.964879512786865234e-01
1.162000000000000000e+03 5.169263839721679688e+01 2.068312072753906250e+01 5.800673961639404297e-01 9.951638579368591309e-01 4.725693762302398682e-01 -5.761872529983520508e-01
1.163000000000000000e+03 6.211610031127929688e+01 -5.983298778533935547e+00 -2.911116123199462891e+00 -3.261673748493194580e-01 -9.711850881576538086e-01 -7.552528977394104004e-01
1.164000000000000000e+03 4.161034774780273438e+01 -1.818345832824707031e+01 -1.296358227729797363e+00 -3.136841207742691040e-02 -3.983179926872253418e-01 -2.925160825252532959e-01
1.165000000000000000e+03 4.013785171508789062e+01 -1.722605323791503906e+01 -1.385834336280822754e+00 4.813609272241592407e-02 -4.013094902038574219e-01 -2.712838053703308105e-01
1.166000000000000000e+03 4.474187469482421875e+01 1.906104087829589844e+01 3.951457440853118896e-01 1.292918443679809570e+00 5.064192414283752441e-01 8.020052313804626465e-01
1.167000000000000000e+03 3.482081604003906250e+01 -1.869496536254882812e+01 -1.849135756492614746e+00 2.938890270888805389e-02 -5.459240674972534180e-01 -4.044542089104652405e-02
1.168000000000000000e+03 2.033622360229492188e+01 -2.822744941711425781e+01 7.314656972885131836e-01 9.307149648666381836e-01 4.986541867256164551e-01 -8.068175911903381348e-01
1.169000000000000000e+03 4.277993011474609375e+01 1.324456596374511719e+01 1.550015658140182495e-01 2.636895895004272461e+00 8.375692367553710938e-01 3.119708597660064697e-01
1.170000000000000000e+03 4.143292617797851562e+01 1.310976791381835938e+01 4.474348127841949463e-01 1.879192829132080078e+00 6.979882717132568359e-01 5.261875987052917480e-01
1.171000000000000000e+03 4.126271057128906250e+01 1.446746540069580078e+01 6.376366615295410156e-01 1.653422117233276367e+00 6.873176693916320801e-01 5.143550038337707520e-01
1.172000000000000000e+03 5.486923980712890625e+01 2.001574325561523438e+01 3.959606587886810303e-01 2.385376930236816406e+00 8.344012498855590820e-01 -8.956684470176696777e-01
1.173000000000000000e+03 5.482369232177734375e+01 1.650381660461425781e+01 9.926561713218688965e-01 2.951958656311035156e+00 1.183384418487548828e+00 -1.226326704025268555e+00
1.174000000000000000e+03 5.444096755981445312e+01 6.610427379608154297e+00 3.629761040210723877e-01 1.208646178245544434e+00 4.714866876602172852e-01 3.686758279800415039e-01
1.175000000000000000e+03 5.592958831787109375e+01 6.956054687500000000e+00 2.928105890750885010e-01 1.781770944595336914e+00 6.223744750022888184e-01 1.287152767181396484e-01
1.176000000000000000e+03 3.422458267211914062e+01 -3.256726837158203125e+01 3.088011443614959717e-01 2.951466478407382965e-02 1.014947444200515747e-01 -4.284651577472686768e-02
1.177000000000000000e+03 3.114600944519042969e+01 -1.695125007629394531e+01 -2.290455579757690430e+00 6.128829345107078552e-02 -6.687502264976501465e-01 -3.635627329349517822e-01
1.178000000000000000e+03 3.390952682495117188e+01 -1.635164833068847656e+01 -1.582829475402832031e+00 3.946262970566749573e-02 -4.630100429058074951e-01 -3.431691229343414307e-01
1.179000000000000000e+03 5.517021656036376953e+00 -1.770513916015625000e+01 8.074479699134826660e-01 7.567230463027954102e-01 4.692513048648834229e-01 6.933305859565734863e-01
1.180000000000000000e+03 9.798202514648437500e+00 -1.805006027221679688e+01 1.230388522148132324e+00 4.943472862243652344e+00 1.852158427238464355e+00 -1.917543768882751465e+00
1.181000000000000000e+03 7.020271301269531250e+01 -1.087929725646972656e+01 3.199961185455322266e+00 1.604579544067382812e+01 5.773726940155029297e+00 1.577775180339813232e-01
1.182000000000000000e+03 1.506592178344726562e+01 -1.232678127288818359e+01 6.117535233497619629e-01 4.035064019262790680e-03 1.847365647554397583e-01 1.198782250285148621e-01
1.183000000000000000e+03 1.489408302307128906e+01 -1.022247028350830078e+01 8.442561626434326172e-01 -3.546014726161956787e-01 1.468964070081710815e-01 7.270857095718383789e-01
1.184000000000000000e+03 1.166970920562744141e+01 -2.035130119323730469e+01 1.099781513214111328e+00 3.087623596191406250e+00 1.256221532821655273e+00 -1.851199507713317871e+00
1.185000000000000000e+03 4.665409469604492188e+01 2.118505859375000000e+01 5.013234019279479980e-01 8.080327510833740234e-01 3.928068280220031738e-01 5.316184759140014648e-01
1.186000000000000000e+03 5.923245620727539062e+01 -2.653702926635742188e+01 -3.225549161434173584e-01 9.510264992713928223e-01 1.885414868593215942e-01 2.925965785980224609e-01
1.187000000000000000e+03 5.328260040283203125e+01 1.904850959777832031e+01 4.780559837818145752e-01 1.346914768218994141e+00 5.474911928176879883e-01 -7.440697550773620605e-01
1.188000000000000000e+03 3.627557373046875000e+01 -1.753822135925292969e+01 -1.596437931060791016e+00 3.048418462276458740e-02 -4.697861373424530029e-01 -1.787111759185791016e-01
1.189000000000000000e+03 5.068741226196289062e+01 -3.188531684875488281e+01 -2.609954178333282471e-01 -2.573423385620117188e-01 -1.555013209581375122e-01 -2.818245589733123779e-01
1.190000000000000000e+03 5.124463272094726562e+01 -2.971284294128417969e+01 -9.079168438911437988e-01 -2.854092419147491455e-01 -3.579978346824645996e-01 -4.696845412254333496e-01
1.191000000000000000e+03 4.263267135620117188e+01 -1.672858238220214844e+01 -1.358394145965576172e+00 -1.006619539111852646e-02 -4.105381071567535400e-01 -3.226494193077087402e-01
1.192000000000000000e+03 4.292913818359375000e+01 -1.784859085083007812e+01 -1.334545731544494629e+00 -7.463078200817108154e-02 -4.227529466152191162e-01 -3.684629201889038086e-01
1.193000000000000000e+03 4.447564315795898438e+01 -3.188378715515136719e+01 -1.835343688726425171e-01 -4.316974431276321411e-02 -6.801123917102813721e-02 -1.544110774993896484e-01
1.194000000000000000e+03 4.796834945678710938e+01 -3.254103469848632812e+01 -1.436719894409179688e-01 -2.152960151433944702e-01 -1.076904013752937317e-01 -2.970201373100280762e-01
1.195000000000000000e+03 4.666725921630859375e+01 -3.321817779541015625e+01 -3.360261023044586182e-02 -1.701197922229766846e-01 -6.111671775579452515e-02 -2.819367349147796631e-01
1.196000000000000000e+03 4.325035858154296875e+01 1.780822181701660156e+01 3.811725974082946777e-01 1.732594847679138184e+00 6.341302394866943359e-01 5.101581811904907227e-01
1.197000000000000000e+03 2.591680717468261719e+01 -2.996426200866699219e+01 5.616744756698608398e-01 2.413999885320663452e-01 2.409223318099975586e-01 -3.421950340270996094e-01
1.198000000000000000e+03 2.623049545288085938e+01 -3.238312530517578125e+01 3.930712938308715820e-01 3.525942265987396240e-01 2.236996591091156006e-01 -3.226260244846343994e-01
1.199000000000000000e+03 4.990701675415039062e+01 -1.391745948791503906e+01 -1.528508901596069336e+00 -1.541454046964645386e-01 -5.047962665557861328e-01 -6.177660226821899414e-01
1.200000000000000000e+03 5.183227539062500000e+01 -1.432036304473876953e+01 -1.557480812072753906e+00 -3.859325349330902100e-01 -5.830239653587341309e-01 -7.967471480369567871e-01
1.201000000000000000e+03 5.373963165283203125e+01 -2.837361907958984375e+01 -1.015509486198425293e+00 -2.469934821128845215e-01 -3.787508904933929443e-01 -5.150240063667297363e-01
1.202000000000000000e+03 5.776272583007812500e+01 -2.930310249328613281e+01 -2.238725721836090088e-01 6.810265779495239258e-01 1.371462047100067139e-01 2.537501156330108643e-01
1.203000000000000000e+03 6.991478729248046875e+01 -9.661994934082031250e+00 3.536516666412353516e+00 1.643906211853027344e+01 5.992673397064208984e+00 -3.062916696071624756e-01
1.204000000000000000e+03 4.633869171142578125e+01 -1.554304599761962891e+01 -1.395027399063110352e+00 -8.522972464561462402e-02 -4.440771341323852539e-01 -4.745779931545257568e-01
1.205000000000000000e+03 3.206677246093750000e+01 -3.316093826293945312e+01 3.507545292377471924e-01 6.974279135465621948e-02 1.261491924524307251e-01 -1.098794788122177124e-01
1.206000000000000000e+03 2.914456748962402344e+01 -1.682953071594238281e+01 -3.013926744461059570e+00 1.678578108549118042e-01 -8.538206219673156738e-01 -5.037932991981506348e-01
1.207000000000000000e+03 5.739165878295898438e+01 1.366568374633789062e+01 7.333884239196777344e-01 3.230396747589111328e+00 1.189135551452636719e+00 -5.988725423812866211e-01
1.208000000000000000e+03 6.868605804443359375e+01 -1.579995918273925781e+01 8.819549679756164551e-01 1.418126964569091797e+01 4.518967151641845703e+00 2.300503015518188477e+00
1.209000000000000000e+03 4.425543212890625000e+01 8.868493080139160156e+00 6.534297764301300049e-02 5.463672280311584473e-01 1.835130602121353149e-01 -1.664462685585021973e-01
1.210000000000000000e+03 6.124639511108398438e+01 -6.798823833465576172e+00 -3.856638669967651367e+00 -3.590473234653472900e-01 -1.264705777168273926e+00 -1.111718893051147461e+00
1.211000000000000000e+03 6.237934875488281250e+01 -7.681266784667968750e+00 -4.811284065246582031e+00 -1.284042835235595703e+00 -1.828598141670227051e+00 -2.427325010299682617e+00
1.212000000000000000e+03 5.460071945190429688e+01 -1.128671360015869141e+01 -2.052211284637451172e+00 -3.155613839626312256e-01 -7.103317975997924805e-01 -9.196541905403137207e-01
1.213000000000000000e+03 6.621421813964843750e+01 -1.911446762084960938e+01 8.592070937156677246e-01 7.311431407928466797e+00 2.451191663742065430e+00 2.657137632369995117e+00
1.214000000000000000e+03 5.087990951538085938e+01 2.688254117965698242e+00 -7.527079433202743530e-03 3.010654151439666748e-01 8.806150406599044800e-02 3.553875982761383057e-01
1.215000000000000000e+03 2.285660552978515625e+01 -1.626602172851562500e+01 -6.675481796264648438e+00 -1.380461812019348145e+00 -2.416783094406127930e+00 3.625179052352905273e+00
1.216000000000000000e+03 2.121593475341796875e+01 -1.545390987396240234e+01 -3.777078390121459961e+00 -1.843213915824890137e+00 -1.686087727546691895e+00 2.644693374633789062e+00
1.217000000000000000e+03 2.091051673889160156e+01 -1.138256168365478516e+01 5.495805740356445312e-01 -1.702362298965454102e+00 -3.458345234394073486e-01 5.074310302734375000e-01
1.218000000000000000e+03 4.477232742309570312e+01 6.591658115386962891e+00 -7.084888964891433716e-02 3.303770422935485840e-01 7.785844057798385620e-02 -6.236231699585914612e-02
1.219000000000000000e+03 4.154758834838867188e+01 -3.263713073730468750e+01 7.532403618097305298e-02 -1.848850958049297333e-02 1.705065742135047913e-02 -6.633944064378738403e-02
1.220000000000000000e+03 4.360526657104492188e+01 -3.392232131958007812e+01 1.095080897212028503e-01 -1.070563048124313354e-01 7.355347624979913235e-04 -1.798686385154724121e-01
1.221000000000000000e+03 1.926725006103515625e+01 -1.145159912109375000e+01 3.949702680110931396e-01 -1.458041310310363770e+00 -3.189212977886199951e-01 7.508460283279418945e-01
1.222000000000000000e+03 1.676204299926757812e+01 -1.210721588134765625e+01 2.512637078762054443e-01 -5.029032826423645020e-01 -7.549186795949935913e-02 4.940381646156311035e-01
1.223000000000000000e+03 5.209767532348632812e+01 -3.123435020446777344e+01 -3.114339709281921387e-01 -1.870555579662322998e-01 -1.495468616485595703e-01 -2.966624200344085693e-01
1.224000000000000000e+03 1.680701446533203125e+01 -7.129720687866210938e+00 -2.676953971385955811e-01 -6.382073760032653809e-01 -2.717708349227905273e-01 1.086261272430419922e+00
1.225000000000000000e+03 6.374749374389648438e+01 -2.490943527221679688e+01 -2.563761472702026367e-01 4.024916172027587891e+00 1.130561947822570801e+00 1.081415057182312012e+00
1.226000000000000000e+03 6.363331222534179688e+01 -2.258653831481933594e+01 2.851537466049194336e-01 3.655259847640991211e+00 1.182124018669128418e+00 1.429231524467468262e+00
1.227000000000000000e+03 2.785860633850097656e+01 -1.779931259155273438e+01 -5.355282306671142578e+00 8.404426276683807373e-03 -1.604063391685485840e+00 7.210591435432434082e-01
1.228000000000000000e+03 3.999441909790039062e+01 -3.534746551513671875e+01 2.651809155941009521e-01 -6.353440135717391968e-02 6.049394980072975159e-02 -1.166081130504608154e-01
1.229000000000000000e+03 4.753749084472656250e+01 -1.504719352722167969e+01 -1.411662578582763672e+00 -7.817150652408599854e-02 -4.469502270221710205e-01 -4.912601709365844727e-01
1.230000000000000000e+03 4.511635208129882812e+01 -1.598330211639404297e+01 -1.344466924667358398e+00 -9.428220987319946289e-02 -4.316247403621673584e-01 -4.117731451988220215e-01
1.231000000000000000e+03 6.009014511108398438e+01 -9.203024864196777344e+00 -3.458270311355590820e+00 -1.078739881515502930e+00 -1.361103057861328125e+00 -1.917980194091796875e+00
1.232000000000000000e+03 5.806511688232421875e+01 -2.730589866638183594e+01 -4.101910293102264404e-01 4.262813031673431396e-01 4.827083554118871689e-03 9.450155496597290039e-02
1.233000000000000000e+03 3.757582092285156250e+01 -1.748241996765136719e+01 -1.492266654968261719e+00 1.775687374174594879e-02 -4.423529505729675293e-01 -2.086952328681945801e-01
1.234000000000000000e+03 3.618950653076171875e+01 -1.868374061584472656e+01 -1.753255486488342285e+00 1.064190454781055450e-02 -5.227840542793273926e-01 -9.488549828529357910e-02
1.235000000000000000e+03 6.360011672973632812e+01 -2.042389488220214844e+01 1.218427062034606934e+00 3.028121948242187500e+00 1.273964762687683105e+00 1.905144929885864258e+00
1.236000000000000000e+03 2.397333335876464844e+01 -1.673253250122070312e+01 -9.102335929870605469e+00 -7.873129844665527344e-01 -2.966894626617431641e+00 3.269929647445678711e+00
1.237000000000000000e+03 2.524090385437011719e+01 -1.716067886352539062e+01 -8.895206451416015625e+00 -3.721681237220764160e-01 -2.780212402343750000e+00 2.277253627777099609e+00
1.238000000000000000e+03 5.264612960815429688e+01 -1.100825309753417969e+01 -1.842426896095275879e+00 -1.067897528409957886e-01 -5.847650170326232910e-01 -6.343647837638854980e-01
1.239000000000000000e+03 5.493128585815429688e+01 -9.677610397338867188e+00 -2.198873996734619141e+00 -1.306148618459701538e-01 -6.988466382026672363e-01 -7.384438514709472656e-01
1.240000000000000000e+03 2.238175964355468750e+01 -1.237506484985351562e+01 1.115870952606201172e+00 -1.538256764411926270e+00 -1.267157196998596191e-01 1.661759614944458008e-02
1.241000000000000000e+03 2.150482177734375000e+01 -2.897406196594238281e+01 7.080684900283813477e-01 7.202683687210083008e-01 4.285010397434234619e-01 -6.850741505622863770e-01
1.242000000000000000e+03 6.536791229248046875e+01 -2.027106475830078125e+01 6.271603107452392578e-01 5.910228729248046875e+00 1.961216688156127930e+00 2.229852914810180664e+00
1.243000000000000000e+03 2.378255844116210938e+01 -3.044886779785156250e+01 5.302376747131347656e-01 4.876497089862823486e-01 3.053662180900573730e-01 -4.986599981784820557e-01
1.244000000000000000e+03 3.631929397583007812e+01 -3.409857177734375000e+01 2.902805209159851074e-01 5.320026539266109467e-03 8.868016302585601807e-02 -4.934431612491607666e-02
1.245000000000000000e+03 4.938391113281250000e+01 -1.557999515533447266e+01 -1.407908916473388672e+00 -2.346582114696502686e-01 -4.927701354026794434e-01 -6.019185185432434082e-01
1.246000000000000000e+03 3.341670227050781250e+01 -3.425807571411132812e+01 3.159711956977844238e-01 5.656270310282707214e-02 1.117601767182350159e-01 -8.362313359975814819e-02
1.247000000000000000e+03 6.953946685791015625e+01 -1.486384105682373047e+01 9.977884888648986816e-01 1.401440525054931641e+01 4.503658294677734375e+00 4.163796007633209229e-01
1.248000000000000000e+03 5.659341049194335938e+01 -1.148232078552246094e+01 -2.227041959762573242e+00 -7.604354023933410645e-01 -8.962432146072387695e-01 -1.298154950141906738e+00
1.249000000000000000e+03 5.575881195068359375e+01 -1.058197975158691406e+01 -2.251553297042846680e+00 -3.755190968513488770e-01 -7.881217002868652344e-01 -1.004733443260192871e+00
1.250000000000000000e+03 5.328431320190429688e+01 -3.039442443847656250e+01 -4.269416630268096924e-01 -6.384183466434478760e-02 -1.472350507974624634e-01 -2.840509712696075439e-01
1.251000000000000000e+03 1.769290161132812500e+01 -2.450124931335449219e+01 1.233626723289489746e+00 1.379926919937133789e+00 7.840660810470581055e-01 -1.318204879760742188e+00
1.252000000000000000e+03 1.910378074645996094e+01 -2.746327972412109375e+01 8.301159143447875977e-01 1.156937241554260254e+00 5.961159467697143555e-01 -8.351980447769165039e-01
1.253000000000000000e+03 5.447618103027343750e+01 -2.961334419250488281e+01 -4.960703253746032715e-01 -8.231393992900848389e-03 -1.512905210256576538e-01 -2.278102785348892212e-01
1.254000000000000000e+03 6.450950622558593750e+01 -2.142745018005371094e+01 4.329777061939239502e-01 4.509026527404785156e+00 1.482601284980773926e+00 1.913612842559814453e+00
1.255000000000000000e+03 4.919076538085937500e+01 -3.215984344482421875e+01 -2.040448337793350220e-01 -1.694906055927276611e-01 -1.120606362819671631e-01 -3.293567597866058350e-01
1.256000000000000000e+03 3.018275833129882812e+01 -1.630070877075195312e+01 -2.168562889099121094e+00 6.797624379396438599e-02 -6.301759481430053711e-01 -6.074690222740173340e-01
1.257000000000000000e+03 5.916098785400390625e+01 -8.366559982299804688e+00 -3.199406385421752930e+00 -5.246381163597106934e-01 -1.117213368415832520e+00 -1.277227163314819336e+00
1.258000000000000000e+03 5.108398437500000000e+01 -1.329130744934082031e+01 -1.622102022171020508e+00 -1.841179728507995605e-01 -5.418660044670104980e-01 -6.562482118606567383e-01
1.259000000000000000e+03 1.365162658691406250e+01 -2.247376251220703125e+01 1.001283407211303711e+00 2.169836521148681641e+00 9.513359665870666504e-01 -1.511379837989807129e+00
1.260000000000000000e+03 1.466018581390380859e+01 -2.351785659790039062e+01 9.571162462234497070e-01 1.940592288970947266e+00 8.693125844001770020e-01 -1.310055375099182129e+00
1.261000000000000000e+03 1.666765785217285156e+01 -2.350469207763671875e+01 1.336446046829223633e+00 1.586176276206970215e+00 8.767867088317871094e-01 -1.401521801948547363e+00
1.262000000000000000e+03 1.676596450805664062e+01 -2.561665344238281250e+01 8.981554508209228516e-01 1.487249135971069336e+00 7.156214118003845215e-01 -1.069836974143981934e+00
1.263000000000000000e+03 1.569402503967285156e+01 -2.457402038574218750e+01 8.949737548828125000e-01 1.622410535812377930e+00 7.552152872085571289e-01 -1.222097754478454590e+00
1.264000000000000000e+03 1.281837463378906250e+00 -4.009990310668945312e+01 2.818267233669757843e-02 -8.231909871101379395e-01 -2.385025024414062500e-01 7.146702706813812256e-02
1.265000000000000000e+03 7.895529866218566895e-01 3.734629440307617188e+01 8.465648628771305084e-03 -1.262198567390441895e+00 -3.761198818683624268e-01 -9.338200092315673828e-03
1.266000000000000000e+03 6.774820685386657715e-01 3.462788772583007812e+01 5.790807306766510010e-03 -1.278313755989074707e+00 -3.817568719387054443e-01 -1.944725983776152134e-03
1.267000000000000000e+03 6.741306185722351074e-01 3.324045562744140625e+01 -4.048770642839372158e-04 -1.275624513626098633e+00 -3.828088343143463135e-01 4.504223354160785675e-03
1.268000000000000000e+03 6.824150085449218750e-01 2.761833763122558594e+01 1.795733231119811535e-03 -1.224684953689575195e+00 -3.668667674064636230e-01 7.978512905538082123e-03
1.269000000000000000e+03 6.779163479804992676e-01 2.620529174804687500e+01 -9.104621713049709797e-04 -1.206151843070983887e+00 -3.621186912059783936e-01 9.014914743602275848e-03
1.270000000000000000e+03 7.900446653366088867e-01 -3.606104278564453125e+01 -1.006168872117996216e-02 -1.117161154747009277e+00 -3.381668627262115479e-01 6.902165710926055908e-02
1.271000000000000000e+03 2.735106706619262695e+00 -3.311247634887695312e+01 -7.430840283632278442e-02 -1.001480340957641602e+00 -3.227366209030151367e-01 2.777812480926513672e-01
1.272000000000000000e+03 3.367860794067382812e+00 2.606902694702148438e+01 5.412125028669834137e-03 -9.583888053894042969e-01 -2.858929932117462158e-01 5.015468224883079529e-02
1.273000000000000000e+03 3.275181531906127930e+00 2.460966873168945312e+01 1.091583725064992905e-02 -9.387333393096923828e-01 -2.783452570438385010e-01 5.574987828731536865e-02
1.274000000000000000e+03 2.015287160873413086e+00 3.444207000732421875e+01 6.279493682086467743e-03 -1.174561500549316406e+00 -3.504845798015594482e-01 1.033462211489677429e-02
1.275000000000000000e+03 2.016673326492309570e+00 3.311782836914062500e+01 2.775430213660001755e-03 -1.162694096565246582e+00 -3.479756116867065430e-01 8.425295352935791016e-03
1.276000000000000000e+03 2.659936666488647461e+00 3.788984298706054688e+01 1.843261159956455231e-02 -1.143004298210144043e+00 -3.373715281486511230e-01 -1.158199552446603775e-02
1.277000000000000000e+03 3.623332500457763672e+00 3.885433578491210938e+01 1.048811804503202438e-02 -1.123167157173156738e+00 -3.338037133216857910e-01 8.911118842661380768e-03
1.278000000000000000e+03 2.168254613876342773e+00 -2.868766212463378906e+01 -4.605436325073242188e-02 -1.616002559661865234e+00 -4.986170828342437744e-01 4.074537456035614014e-01
1.279000000000000000e+03 2.007536649703979492e+00 -2.586831855773925781e+01 -4.136258363723754883e-02 -2.145818233489990234e+00 -6.561542153358459473e-01 5.302339792251586914e-01
1.280000000000000000e+03 1.577302098274230957e+00 -9.348880767822265625e+00 8.978318423032760620e-03 -3.065700054168701172e+00 -9.170165657997131348e-01 -1.009125113487243652e+00
1.281000000000000000e+03 1.924490213394165039e+00 -1.625883674621582031e+01 2.417102009057998657e-01 -4.267876625061035156e+00 -1.207849979400634766e+00 2.813394069671630859e-01
1.282000000000000000e+03 2.293707132339477539e+00 -3.712375640869140625e+01 -1.918733678758144379e-02 -9.140320420265197754e-01 -2.799658179283142090e-01 1.294519603252410889e-01
1.283000000000000000e+03 6.429321169853210449e-01 2.054253387451171875e+01 2.452534157782793045e-03 -1.091530323028564453e+00 -3.267233073711395264e-01 1.989354006946086884e-02
1.284000000000000000e+03 6.364922523498535156e-01 1.913017654418945312e+01 2.348303562030196190e-03 -1.040364027023315430e+00 -3.114047050476074219e-01 2.518808469176292419e-02
1.285000000000000000e+03 6.249682307243347168e-01 1.490197372436523438e+01 5.084124859422445297e-03 -7.949465513229370117e-01 -2.369587272405624390e-01 4.683404043316841125e-02
1.286000000000000000e+03 6.142057180404663086e-01 1.349383926391601562e+01 -1.735500874929130077e-03 -6.821672320365905762e-01 -2.051708251237869263e-01 5.088289082050323486e-02
1.287000000000000000e+03 5.907832384109497070e-01 7.866570949554443359e+00 -6.655475590378046036e-03 -1.940693259239196777e-01 -6.021744012832641602e-02 4.413842409849166870e-02
1.288000000000000000e+03 3.286716222763061523e+00 -3.921097564697265625e+01 -3.802222386002540588e-02 -7.877764105796813965e-01 -2.477395981550216675e-01 1.120979934930801392e-01
1.289000000000000000e+03 5.379591941833496094e+00 -3.412233352661132812e+01 -1.554837226867675781e-01 -3.786197006702423096e-01 -1.602310240268707275e-01 3.232369720935821533e-01
1.290000000000000000e+03 2.655915498733520508e+00 -3.467774581909179688e+01 -4.132174327969551086e-02 -9.314985275268554688e-01 -2.918460965156555176e-01 2.053394466638565063e-01
1.291000000000000000e+03 2.516199350357055664e+00 -3.156547546386718750e+01 -5.440593138337135315e-02 -1.185727715492248535e+00 -3.720400929450988770e-01 3.174242675304412842e-01
1.292000000000000000e+03 2.071423530578613281e+00 -2.727428245544433594e+01 -8.314485847949981689e-02 -1.858357787132263184e+00 -5.824508070945739746e-01 4.690016210079193115e-01
1.293000000000000000e+03 3.415620803833007812e+00 -2.696257209777832031e+01 -1.366117447614669800e-01 -1.263092160224914551e+00 -4.199111759662628174e-01 6.354652047157287598e-01
1.294000000000000000e+03 1.885905027389526367e+00 -2.173857307434082031e+01 -6.089563667774200439e-02 -3.171128988265991211e+00 -9.696073532104492188e-01 6.812464594841003418e-01
1.295000000000000000e+03 1.962173819541931152e+00 -2.447593116760253906e+01 -7.810214161872863770e-02 -2.453108787536621094e+00 -7.593632936477661133e-01 5.937434434890747070e-01
1.296000000000000000e+03 3.049640178680419922e+00 -2.023195648193359375e+01 -1.542492117732763290e-02 -2.238962411880493164e+00 -6.763162016868591309e-01 9.125215411186218262e-01
1.297000000000000000e+03 6.114911437034606934e-01 -1.912184143066406250e+01 3.788649663329124451e-02 -5.500996589660644531e+00 -1.638932943344116211e+00 2.903901040554046631e-01
1.298000000000000000e+03 1.817205786705017090e+00 -1.902836799621582031e+01 1.616476476192474365e-02 -3.878102779388427734e+00 -1.158581376075744629e+00 6.739487051963806152e-01
1.299000000000000000e+03 5.741365909576416016e+00 -1.371570110321044922e+01 2.121100902557373047e+00 1.136348605155944824e+00 9.772348403930664062e-01 -6.737080216407775879e-01
1.300000000000000000e+03 5.618850588798522949e-01 -1.208559226989746094e+01 7.575573772192001343e-02 -5.909733772277832031e+00 -1.750193357467651367e+00 -2.398367375135421753e-01
1.301000000000000000e+03 1.673070788383483887e+00 -1.203294944763183594e+01 2.064251750707626343e-01 -4.096519470214843750e+00 -1.167028307914733887e+00 -7.417284846305847168e-01
1.302000000000000000e+03 5.132225036621093750e+00 -3.051151275634765625e+00 -8.443015813827514648e-01 4.442999139428138733e-02 -2.399614751338958740e-01 -8.800695538520812988e-01
1.303000000000000000e+03 3.680798768997192383e+00 -2.624022245407104492e+00 -5.833934545516967773e-01 -1.506889462471008301e-01 -2.202247232198715210e-01 -7.458282113075256348e-01
1.304000000000000000e+03 2.998018503189086914e+00 -2.800921678543090820e+00 -4.256725013256072998e-01 -2.489912509918212891e-01 -2.023991197347640991e-01 -7.093068361282348633e-01
1.305000000000000000e+03 1.491848230361938477e+00 -3.432837247848510742e+00 -1.253847926855087280e-01 -6.016129255294799805e-01 -2.180993109941482544e-01 -5.127527713775634766e-01
1.306000000000000000e+03 5.565470457077026367e-01 4.987938880920410156e+00 -4.205176141113042831e-03 -4.228264093399047852e-02 -1.394634507596492767e-02 2.141954377293586731e-02
1.307000000000000000e+03 6.216486930847167969e+00 3.951907873153686523e+00 -1.872469484806060791e-01 -6.521137058734893799e-02 -7.573749125003814697e-02 1.703846454620361328e-01
1.308000000000000000e+03 1.757126092910766602e+00 1.069133090972900391e+01 -1.259083044715225697e-03 -4.195600748062133789e-01 -1.262457519769668579e-01 1.487651467323303223e-01
1.309000000000000000e+03 5.896493792533874512e-01 1.068629550933837891e+01 -5.220297258347272873e-03 -4.319172501564025879e-01 -1.311412602663040161e-01 5.292093008756637573e-02
1.310000000000000000e+03 1.839006781578063965e+00 1.345448017120361328e+01 1.248355768620967865e-02 -6.191810369491577148e-01 -1.820092350244522095e-01 1.477879881858825684e-01
1.311000000000000000e+03 1.892256140708923340e+00 1.905313301086425781e+01 1.502745598554611206e-02 -9.197286963462829590e-01 -2.714103758335113525e-01 7.615573704242706299e-02
1.312000000000000000e+03 1.992750406265258789e+00 2.470476341247558594e+01 3.881384618580341339e-03 -1.058015346527099609e+00 -3.162401914596557617e-01 3.221977129578590393e-02
1.313000000000000000e+03 2.230071640014648438e+01 -1.262491416931152344e+01 1.221435904502868652e+00 -1.756996393203735352e+00 -1.606681495904922485e-01 1.587591171264648438e-01
1.314000000000000000e+03 2.301793670654296875e+01 -1.381228446960449219e+01 2.900516271591186523e+00 -2.099173307418823242e+00 2.404029220342636108e-01 1.182544231414794922e+00
1.315000000000000000e+03 2.242454338073730469e+01 -1.414435577392578125e+01 1.359844446182250977e+00 -2.360671997070312500e+00 -3.002482950687408447e-01 1.884918332099914551e+00
1.316000000000000000e+03 2.289671134948730469e+01 -1.458645343780517578e+01 4.801141619682312012e-01 -1.987111210823059082e+00 -4.520991146564483643e-01 2.685362815856933594e+00
1.317000000000000000e+03 2.574880218505859375e+01 -1.172247600555419922e+01 3.344609737396240234e-01 3.619097232818603516e+00 1.186067461967468262e+00 1.215216517448425293e+00
1.318000000000000000e+03 2.618617820739746094e+01 -1.260499477386474609e+01 2.541176080703735352e+00 2.958806276321411133e+00 1.649994730949401855e+00 2.245245933532714844e+00
1.319000000000000000e+03 2.560609817504882812e+01 -1.061342906951904297e+01 -1.838403344154357910e-01 2.603218078613281250e+00 7.258133292198181152e-01 6.162823438644409180e-01
1.320000000000000000e+03 2.315650367736816406e+01 -1.520905876159667969e+01 -1.550341010093688965e+00 -1.356696844100952148e+00 -8.721113204956054688e-01 3.606661558151245117e+00
1.321000000000000000e+03 2.524269485473632812e+01 -1.500769901275634766e+01 -5.947818756103515625e-01 3.668833732604980469e+00 9.222155213356018066e-01 -6.897481530904769897e-02
1.322000000000000000e+03 2.465040397644042969e+01 -1.515537166595458984e+01 -1.237717628479003906e+00 3.293312311172485352e+00 6.166783571243286133e-01 2.226760149002075195e+00
1.323000000000000000e+03 2.419407653808593750e+01 -1.513526439666748047e+01 -1.194261908531188965e+00 1.969714403152465820e+00 2.326357215642929077e-01 2.929976940155029297e+00
1.324000000000000000e+03 2.689034652709960938e+01 -1.388466930389404297e+01 3.011644601821899414e+00 7.058755159378051758e-01 1.115255951881408691e+00 -2.182069271802902222e-01
1.325000000000000000e+03 2.502034378051757812e+01 -1.543474864959716797e+01 -2.611744165420532227e+00 2.015319824218750000e+00 -1.789273023605346680e-01 8.391708135604858398e-01
1.326000000000000000e+03 2.623303794860839844e+01 -1.431262302398681641e+01 2.980436563491821289e+00 1.900104045867919922e+00 1.464162111282348633e+00 -1.146916508674621582e+00
1.327000000000000000e+03 2.586053466796875000e+01 -1.593648910522460938e+01 -3.660917997360229492e+00 1.669630646705627441e+00 -5.973861813545227051e-01 -2.629941701889038086e-01
1.328000000000000000e+03 2.669927978515625000e+01 -1.671784591674804688e+01 -5.306136131286621094e+00 5.189982056617736816e-01 -1.436141371726989746e+00 -2.185335457324981689e-01
1.329000000000000000e+03 2.638645172119140625e+01 -1.185834217071533203e+01 1.087457180023193359e+00 2.736454248428344727e+00 1.147173404693603516e+00 1.779607295989990234e+00
1.330000000000000000e+03 2.634195709228515625e+01 -1.277424335479736328e+01 3.032756567001342773e+00 2.398215293884277344e+00 1.629291534423828125e+00 2.050043344497680664e+00
1.331000000000000000e+03 2.135197448730468750e+01 -1.184376621246337891e+01 6.353140473365783691e-01 -1.781468391418457031e+00 -3.438462913036346436e-01 3.938999772071838379e-01
1.332000000000000000e+03 2.352787017822265625e+01 -1.565648078918457031e+01 -3.268930435180664062e+00 -7.463206052780151367e-01 -1.204575300216674805e+00 3.482874631881713867e+00
1.333000000000000000e+03 2.478649139404296875e+01 -8.953433990478515625e+00 -3.938350677490234375e-01 1.451080322265625000e+00 3.171735703945159912e-01 2.378596216440200806e-01
1.334000000000000000e+03 2.504036903381347656e+01 -9.417782783508300781e+00 -3.577969670295715332e-01 1.725388169288635254e+00 4.102773666381835938e-01 2.824660539627075195e-01
1.335000000000000000e+03 2.040452194213867188e+01 -1.170378112792968750e+01 4.876461029052734375e-01 -1.703791260719299316e+00 -3.648435473442077637e-01 6.691676378250122070e-01
1.336000000000000000e+03 1.915488815307617188e+01 -8.763489723205566406e+00 -3.282213583588600159e-02 -1.244205474853515625e+00 -3.831082880496978760e-01 8.319936990737915039e-01
1.337000000000000000e+03 1.887643432617187500e+01 -9.733120918273925781e+00 2.123603969812393188e-01 -1.249986052513122559e+00 -3.112877011299133301e-01 7.824569940567016602e-01
1.338000000000000000e+03 1.986791992187500000e+01 -1.325771331787109375e+01 -1.531197577714920044e-01 -1.777392268180847168e+00 -5.791535973548889160e-01 1.215667128562927246e+00
1.339000000000000000e+03 2.473412513732910156e+01 -7.654208660125732422e+00 -5.368314385414123535e-01 1.139159440994262695e+00 1.806984096765518188e-01 3.379988670349121094e-01
1.340000000000000000e+03 2.445738792419433594e+01 -7.059397220611572266e+00 -5.780525803565979004e-01 9.780371189117431641e-01 1.199953630566596985e-01 3.448674678802490234e-01
1.341000000000000000e+03 2.538920974731445312e+01 -9.129858016967773438e+00 -4.155880212783813477e-01 1.731944084167480469e+00 3.949068188667297363e-01 4.266445040702819824e-01
1.342000000000000000e+03 9.294805526733398438e+00 -2.730044603347778320e+00 -1.607552051544189453e+00 4.879906177520751953e-01 -3.358684480190277100e-01 -8.035255223512649536e-02
1.343000000000000000e+03 1.785925483703613281e+01 -7.054541110992431641e+00 -3.573708236217498779e-01 -9.253574013710021973e-01 -3.848184645175933838e-01 1.029054164886474609e+00
1.344000000000000000e+03 1.568365573883056641e+01 -1.129669570922851562e+01 5.812557935714721680e-01 -4.029482603073120117e-01 5.349226295948028564e-02 4.476960599422454834e-01
1.345000000000000000e+03 1.875212097167968750e+01 -8.206136703491210938e+00 -1.652055531740188599e-01 -1.143761754035949707e+00 -3.926901817321777344e-01 8.902183175086975098e-01
1.346000000000000000e+03 1.552677726745605469e+01 -7.350597858428955078e+00 -1.797070801258087158e-01 -2.966825067996978760e-01 -1.429168730974197388e-01 1.122728943824768066e+00
1.347000000000000000e+03 1.494916057586669922e+01 -5.574729442596435547e+00 -7.985791563987731934e-01 -6.635535508394241333e-02 -2.594803571701049805e-01 1.056973814964294434e+00
1.348000000000000000e+03 4.797299385070800781e+00 3.292187452316284180e+00 -1.160794794559478760e-01 -4.797202721238136292e-02 -4.921545460820198059e-02 1.069751456379890442e-01
1.349000000000000000e+03 6.901948928833007812e+00 3.264018774032592773e+00 -2.142968177795410156e-01 -4.741715267300605774e-02 -7.851418852806091309e-02 1.560235470533370972e-01
1.350000000000000000e+03 4.092660427093505859e+00 3.332498550415039062e+00 -9.117609262466430664e-02 -4.842382669448852539e-02 -4.187997430562973022e-02 8.767551183700561523e-02
1.351000000000000000e+03 3.380291938781738281e+00 3.428396224975585938e+00 -6.124435737729072571e-02 -6.122130900621414185e-02 -3.673969954252243042e-02 7.630513608455657959e-02
1.352000000000000000e+03 3.337128400802612305e+00 2.653525352478027344e+00 -5.037054046988487244e-02 -3.133686631917953491e-02 -2.451222203671932220e-02 4.062117263674736023e-02
1.353000000000000000e+03 4.043892860412597656e+00 2.598349094390869141e+00 -7.251958549022674561e-02 -3.594337031245231628e-02 -3.253888711333274841e-02 6.294801831245422363e-02
1.354000000000000000e+03 5.494681358337402344e+00 3.268436670303344727e+00 -1.459364444017410278e-01 -4.211516678333282471e-02 -5.641548335552215576e-02 1.171076595783233643e-01
1.355000000000000000e+03 7.491616249084472656e+00 4.782833099365234375e+00 -2.561567723751068115e-01 -9.576042741537094116e-02 -1.055751591920852661e-01 2.565026879310607910e-01
1.356000000000000000e+03 8.346868515014648438e+00 3.321316480636596680e+00 -2.925544083118438721e-01 -6.658614426851272583e-02 -1.077421680092811584e-01 1.964903622865676880e-01
1.357000000000000000e+03 7.627656936645507812e+00 2.576437711715698242e+00 -2.357157915830612183e-01 -3.563398122787475586e-02 -8.140493184328079224e-02 1.392333805561065674e-01
1.358000000000000000e+03 1.067291164398193359e+01 2.462299823760986328e+00 -3.878417611122131348e-01 -1.366703510284423828e-01 -1.573536396026611328e-01 2.231166064739227295e-01
1.359000000000000000e+03 1.070848846435546875e+01 3.218757867813110352e+00 -4.003370702266693115e-01 -1.762941181659698486e-01 -1.729893535375595093e-01 2.595999240875244141e-01
1.360000000000000000e+03 3.939275503158569336e+00 -3.310580968856811523e+00 -5.827468633651733398e-01 -1.535002440214157104e-01 -2.208741307258605957e-01 -9.248013496398925781e-01
1.361000000000000000e+03 2.109224319458007812e+00 -4.454396247863769531e+00 -2.070809453725814819e-01 -7.675471305847167969e-01 -2.923884093761444092e-01 -8.032503724098205566e-01
1.362000000000000000e+03 7.118419170379638672e+00 -2.560973167419433594e+00 -1.317068576812744141e+00 3.002456426620483398e-01 -3.050468564033508301e-01 -5.586770176887512207e-01
1.363000000000000000e+03 2.284342050552368164e+00 -3.061925649642944336e+00 -2.869647443294525146e-01 -4.001489579677581787e-01 -2.061341106891632080e-01 -6.464807391166687012e-01
1.364000000000000000e+03 4.313289642333984375e+00 -4.461134433746337891e+00 -5.562103986740112305e-01 -1.686517000198364258e-01 -2.174586355686187744e-01 -1.177672028541564941e+00
1.365000000000000000e+03 1.695894479751586914e+00 -5.435969829559326172e+00 -8.162762224674224854e-02 -1.210343003273010254e+00 -3.875912129878997803e-01 -8.119733333587646484e-01
1.366000000000000000e+03 7.840370178222656250e+00 -2.597619056701660156e+00 -1.436983823776245117e+00 3.644164800643920898e-01 -3.217701911926269531e-01 -4.042704105377197266e-01
1.367000000000000000e+03 7.048072338104248047e+00 -3.316533803939819336e+00 -1.208680152893066406e+00 4.077974259853363037e-01 -2.402648031711578369e-01 -6.924521327018737793e-01
1.368000000000000000e+03 5.695520401000976562e+00 -3.126169443130493164e+00 -9.633151888847351074e-01 1.498458534479141235e-01 -2.440408021211624146e-01 -8.716074228286743164e-01
1.369000000000000000e+03 6.335408210754394531e+00 -3.272066593170166016e+00 -1.082517743110656738e+00 3.114698827266693115e-01 -2.313143461942672729e-01 -8.256197571754455566e-01
1.370000000000000000e+03 6.939169406890869141e+00 -4.996284484863281250e+00 -1.006536364555358887e+00 7.251598238945007324e-01 -8.441297709941864014e-02 -1.000227332115173340e+00
1.371000000000000000e+03 2.466828727722167969e+01 -6.170557022094726562e+00 -6.664183735847473145e-01 9.310073852539062500e-01 7.937669754028320312e-02 4.139382839202880859e-01
1.372000000000000000e+03 2.286974143981933594e+01 -5.320795059204101562e+00 -6.647935509681701660e-01 3.963001072406768799e-01 -8.054803311824798584e-02 3.610045611858367920e-01
1.373000000000000000e+03 1.216193103790283203e+01 -4.361476421356201172e+00 -1.313149929046630859e+00 5.435908436775207520e-01 -2.308677285909652710e-01 5.776019692420959473e-01
1.374000000000000000e+03 1.293036270141601562e+01 6.345114707946777344e+00 -5.478113293647766113e-01 -4.905268251895904541e-01 -3.115014433860778809e-01 4.123008549213409424e-01
1.375000000000000000e+03 1.655490112304687500e+01 8.618435859680175781e-01 -4.701956808567047119e-01 -5.694849491119384766e-01 -3.119041919708251953e-01 5.171310305595397949e-01
1.376000000000000000e+03 1.744417190551757812e+01 2.521486043930053711e+00 -4.323928654193878174e-01 -5.651706457138061523e-01 -2.992690503597259521e-01 5.149914026260375977e-01
1.377000000000000000e+03 1.234872055053710938e+01 2.993747949600219727e+00 -4.412251710891723633e-01 -3.029728233814239502e-01 -2.232593894004821777e-01 3.154025077819824219e-01
1.378000000000000000e+03 1.498318481445312500e+01 5.431041717529296875e+00 -5.412465929985046387e-01 -7.211074233055114746e-01 -3.787062168121337891e-01 4.755559563636779785e-01
1.379000000000000000e+03 1.152839756011962891e+01 3.114628314971923828e+00 -4.290960133075714111e-01 -2.218069732189178467e-01 -1.952708959579467773e-01 2.797957062721252441e-01
1.380000000000000000e+03 2.114927291870117188e+01 1.683966040611267090e+00 -3.954900503158569336e-01 1.412038654088973999e-01 -7.628585398197174072e-02 4.732810854911804199e-01
1.381000000000000000e+03 2.163442039489746094e+01 -2.105504989624023438e+00 -7.198829054832458496e-01 1.253240704536437988e-01 -1.783676445484161377e-01 4.182664752006530762e-01
1.382000000000000000e+03 1.962291717529296875e+01 -1.143742203712463379e+00 -6.384750008583068848e-01 -2.937966883182525635e-01 -2.796815037727355957e-01 5.091052055358886719e-01
1.383000000000000000e+03 2.260042762756347656e+01 -3.582941532135009766e+00 -7.510794997215270996e-01 3.336289525032043457e-01 -1.252351701259613037e-01 3.924925327301025391e-01
1.384000000000000000e+03 1.921861267089843750e+01 -3.791112219914793968e-03 -5.293826460838317871e-01 -3.653948903083801270e-01 -2.684332728385925293e-01 5.247892737388610840e-01
1.385000000000000000e+03 1.540723991394042969e+01 -4.938005447387695312e+00 -9.747424721717834473e-01 -2.569102048873901367e-01 -3.694958090782165527e-01 1.074751973152160645e+00
1.386000000000000000e+03 1.431789398193359375e+01 -5.165634632110595703e+00 -9.554483890533447266e-01 7.183678448200225830e-02 -2.650834918022155762e-01 9.936638474464416504e-01
1.387000000000000000e+03 1.730361747741699219e+01 -6.500176429748535156e+00 -5.158943533897399902e-01 -7.540407180786132812e-01 -3.809805512428283691e-01 1.078649044036865234e+00
1.388000000000000000e+03 1.083591079711914062e+01 -3.057592153549194336e+00 -1.634702444076538086e+00 4.751442372798919678e-01 -3.478674888610839844e-01 2.732987701892852783e-01
1.389000000000000000e+03 1.643864631652832031e+01 -1.051020717620849609e+01 4.598805308341979980e-01 -6.602089405059814453e-01 -6.009852141141891479e-02 7.443879246711730957e-01
1.390000000000000000e+03 9.861281394958496094e+00 -3.664582967758178711e+00 -1.492301940917968750e+00 7.178107500076293945e-01 -2.323473691940307617e-01 9.807161986827850342e-03
1.391000000000000000e+03 2.303591728210449219e+01 -4.310931682586669922e+00 -7.368369698524475098e-01 4.419357180595397949e-01 -8.847037702798843384e-02 3.897032737731933594e-01
1.392000000000000000e+03 1.389016819000244141e+01 3.792357444763183594e+00 -4.817052483558654785e-01 -4.863768219947814941e-01 -2.904246151447296143e-01 3.683066070079803467e-01
1.393000000000000000e+03 1.193915653228759766e+01 -5.233969688415527344e+00 -1.121880888938903809e+00 8.003227114677429199e-01 -9.646746516227722168e-02 6.029290556907653809e-01
1.394000000000000000e+03 1.323283672332763672e+01 -3.813077211380004883e+00 -1.406477332115173340e+00 1.956188827753067017e-01 -3.632575571537017822e-01 7.645981311798095703e-01
1.395000000000000000e+03 1.073832702636718750e+01 4.016485214233398438e+00 -4.157775938510894775e-01 -1.894984692335128784e-01 -1.815828233957290649e-01 2.885736823081970215e-01
1.396000000000000000e+03 1.996601867675781250e+01 -3.199327290058135986e-01 -5.608710050582885742e-01 -1.854954063892364502e-01 -2.239099293947219849e-01 4.969777166843414307e-01
1.397000000000000000e+03 1.159202384948730469e+01 1.579780673980712891e+01 3.825753331184387207e-01 -2.304911166429519653e-01 4.562526941299438477e-02 3.337936401367187500e-01
1.398000000000000000e+03 3.999570465087890625e+01 -1.605307769775390625e+01 -1.319459438323974609e+00 5.687330290675163269e-02 -3.787758350372314453e-01 -2.811131477355957031e-01
1.399000000000000000e+03 4.138914489746093750e+01 -1.701065063476562500e+01 -1.346460223197937012e+00 3.326442092657089233e-02 -3.939587175846099854e-01 -2.877695560455322266e-01
1.400000000000000000e+03 1.265843391418457031e+01 -2.143028068542480469e+01 1.077452301979064941e+00 2.679320812225341797e+00 1.127031922340393066e+00 -1.576626062393188477e+00
1.401000000000000000e+03 2.976517868041992188e+01 6.181401252746582031e+00 1.701846569776535034e-01 5.392817258834838867e-01 2.128399163484573364e-01 5.716708898544311523e-01
1.402000000000000000e+03 2.681652259826660156e+01 6.284825325012207031e+00 3.892529904842376709e-01 6.372483968734741211e-01 3.079504072666168213e-01 4.472520351409912109e-01
1.403000000000000000e+03 1.892667579650878906e+01 -1.320620918273925781e+01 -2.765764594078063965e-01 -1.133739590644836426e+00 -4.230948090553283691e-01 1.026636362075805664e+00
1.404000000000000000e+03 5.080466842651367188e+01 4.617577552795410156e+00 2.003172039985656738e-01 2.568929791450500488e-01 1.371630579233169556e-01 3.417412638664245605e-01
1.405000000000000000e+03 5.174024581909179688e+01 3.473878145217895508e+00 1.229536160826683044e-01 3.824078142642974854e-01 1.516084223985671997e-01 3.566390872001647949e-01
1.406000000000000000e+03 2.807141304016113281e+01 1.158787822723388672e+01 -1.952161788940429688e-01 3.578209877014160156e-01 4.878143966197967529e-02 7.052628993988037109e-01
1.407000000000000000e+03 4.693238067626953125e+01 -1.399464225769042969e+01 -1.398784875869750977e+00 -3.052054345607757568e-02 -4.287916123867034912e-01 -4.508517980575561523e-01
1.408000000000000000e+03 4.918645858764648438e+01 -1.287771415710449219e+01 -1.519386291503906250e+00 -4.075328633189201355e-02 -4.680418968200683594e-01 -5.013573765754699707e-01
1.409000000000000000e+03 3.639228439331054688e+01 -1.528752994537353516e+01 -1.241298556327819824e+00 2.690058760344982147e-02 -3.643193840980529785e-01 -2.896930575370788574e-01
1.410000000000000000e+03 5.143566131591796875e+01 -3.386655807495117188e+01 2.415189743041992188e-01 -6.340378522872924805e-02 5.343455821275711060e-02 -1.615261137485504150e-01
1.411000000000000000e+03 5.071680831909179688e+01 -1.067652320861816406e+01 -1.655534267425537109e+00 3.161667287349700928e-02 -4.871752560138702393e-01 -4.409591257572174072e-01
1.412000000000000000e+03 4.526759719848632812e+01 -1.348855495452880859e+01 -1.329502701759338379e+00 2.742184512317180634e-02 -3.906242847442626953e-01 -3.495030999183654785e-01
1.413000000000000000e+03 3.275465393066406250e+01 -1.618428230285644531e+01 -1.618850588798522949e+00 2.180936560034751892e-02 -4.791123867034912109e-01 -4.352115094661712646e-01
1.414000000000000000e+03 4.567160904407501221e-01 3.567318916320800781e+00 -5.447620525956153870e-03 1.203396968776360154e-04 -1.598184346221387386e-03 8.041854947805404663e-03
1.415000000000000000e+03 2.789643669128417969e+01 -1.683768272399902344e+01 -4.043735504150390625e+00 3.928586840629577637e-01 -1.095263004302978516e+00 -4.887363910675048828e-01
1.416000000000000000e+03 2.591527557373046875e+01 -1.507639408111572266e+01 -1.063292771577835083e-01 2.603121042251586914e+00 7.490375638008117676e-01 -1.332211613655090332e+00
1.417000000000000000e+03 6.465456390380859375e+01 -2.360774230957031250e+01 -1.962709724903106689e-01 4.707011222839355469e+00 1.353222131729125977e+00 1.354167342185974121e+00
1.418000000000000000e+03 6.547504425048828125e+01 -2.237166786193847656e+01 -1.226516589522361755e-01 5.736899375915527344e+00 1.684274315834045410e+00 1.508648157119750977e+00
1.419000000000000000e+03 3.642274475097656250e+01 -1.420179271697998047e+01 -1.047973394393920898e+00 7.288899738341569901e-03 -3.122053444385528564e-01 -2.607654333114624023e-01
1.420000000000000000e+03 2.385025024414062500e+01 -3.245834732055664062e+01 3.696798086166381836e-01 5.482995510101318359e-01 2.753938138484954834e-01 -4.550169110298156738e-01
1.421000000000000000e+03 2.476009178161621094e+01 -3.363921356201171875e+01 2.530470192432403564e-01 5.136481523513793945e-01 2.300085574388504028e-01 -3.727701902389526367e-01
1.422000000000000000e+03 5.522609710693359375e+01 -3.076225471496582031e+01 -1.593840420246124268e-01 2.434592992067337036e-01 2.522257529199123383e-02 6.745025981217622757e-03
1.423000000000000000e+03 4.383111953735351562e+01 6.478281497955322266e+00 -1.633535325527191162e-01 5.696671009063720703e-01 1.218940764665603638e-01 4.619011282920837402e-02
1.424000000000000000e+03 8.605623245239257812e+00 -1.357390117645263672e+01 3.329883098602294922e+00 9.568449020385742188e+00 3.869499444961547852e+00 2.258815336972475052e-03
1.425000000000000000e+03 7.532139301300048828e+00 -1.425279331207275391e+01 2.993141889572143555e+00 4.553993701934814453e+00 2.264140605926513672e+00 -4.663125276565551758e-01
1.426000000000000000e+03 7.151036071777343750e+01 -1.045654296875000000e+01 3.145688772201538086e+00 1.263478279113769531e+01 4.734141349792480469e+00 1.811826378107070923e-01
1.427000000000000000e+03 1.312386226654052734e+01 1.231192207336425781e+01 2.212585210800170898e-01 -1.025506183505058289e-01 3.561236709356307983e-02 4.796868860721588135e-01
1.428000000000000000e+03 1.196972084045410156e+01 1.093973922729492188e+01 1.382553204894065857e-02 -2.904679775238037109e-01 -8.299273252487182617e-02 5.868265032768249512e-01
1.429000000000000000e+03 5.884024047851562500e+01 1.298688316345214844e+01 6.384340524673461914e-01 3.391745567321777344e+00 1.209053874015808105e+00 -5.768103003501892090e-01
1.430000000000000000e+03 5.343763732910156250e+01 -1.197347164154052734e+01 -1.851534843444824219e+00 -3.066327869892120361e-01 -6.474502682685852051e-01 -8.436189889907836914e-01
1.431000000000000000e+03 4.235071182250976562e+01 -1.561136150360107422e+01 -1.316403031349182129e+00 2.755283750593662262e-02 -3.866550326347351074e-01 -2.952177822589874268e-01
1.432000000000000000e+03 7.479211425781250000e+01 -3.343774032592773438e+01 -1.782838702201843262e-01 8.366678237915039062e+00 2.456518173217773438e+00 -8.385664969682693481e-02
1.433000000000000000e+03 7.708927154541015625e+01 -3.594954681396484375e+01 -5.153518915176391602e-02 9.235721588134765625e+00 2.755255937576293945e+00 3.821324557065963745e-02
1.434000000000000000e+03 7.539266967773437500e+01 -2.186348342895507812e+01 -3.432379066944122314e-01 8.692499160766601562e+00 2.504778623580932617e+00 -1.054083943367004395e+00
1.435000000000000000e+03 7.799259948730468750e+01 -2.898628425598144531e+01 -4.086390882730484009e-02 9.334865570068359375e+00 2.788200378417968750e+00 -2.160207927227020264e-01
1.436000000000000000e+03 7.811222839355468750e+01 -3.582901382446289062e+01 -6.087046489119529724e-02 9.609303474426269531e+00 2.864529848098754883e+00 5.592643842101097107e-02
1.437000000000000000e+03 7.323070526123046875e+01 -3.785343170166015625e+01 -7.351250946521759033e-02 7.631511211395263672e+00 2.267399549484252930e+00 -2.188948169350624084e-02
1.438000000000000000e+03 7.545556640625000000e+01 1.547202491760253906e+01 5.579474568367004395e-02 7.071100234985351562e+00 2.138068437576293945e+00 -4.553240537643432617e-01
1.439000000000000000e+03 7.676104736328125000e+01 1.543572807312011719e+01 1.799618080258369446e-02 7.382203102111816406e+00 2.220059633255004883e+00 -3.453215062618255615e-01
1.440000000000000000e+03 7.729366302490234375e+01 3.495707702636718750e+01 -2.405342878773808479e-03 6.389769554138183594e+00 1.916209220886230469e+00 -7.577012479305267334e-02
1.441000000000000000e+03 7.575325012207031250e+01 3.319753646850585938e+01 3.286628052592277527e-02 6.256624221801757812e+00 1.886847257614135742e+00 -1.072203889489173889e-01
1.442000000000000000e+03 7.801128387451171875e+01 -2.207531356811523438e+01 -1.162467077374458313e-01 8.226218223571777344e+00 2.432991504669189453e+00 -7.066147923469543457e-01
1.443000000000000000e+03 7.668188476562500000e+01 -2.339156723022460938e+01 -2.433388978242874146e-01 8.594982147216796875e+00 2.505492925643920898e+00 -8.224200010299682617e-01
1.444000000000000000e+03 7.661366271972656250e+01 -3.015255928039550781e+01 -9.864141792058944702e-02 8.981167793273925781e+00 2.664757966995239258e+00 -2.079599350690841675e-01
1.445000000000000000e+03 7.800625610351562500e+01 -2.764042472839355469e+01 -9.445893764495849609e-02 9.224939346313476562e+00 2.739144086837768555e+00 -3.065527677536010742e-01
1.446000000000000000e+03 7.671025085449218750e+01 -2.884580993652343750e+01 -1.781036406755447388e-01 8.982309341430664062e+00 2.641261577606201172e+00 -3.126774430274963379e-01
1.447000000000000000e+03 7.667599487304687500e+01 -2.755948257446289062e+01 -1.410860717296600342e-01 8.906134605407714844e+00 2.629514455795288086e+00 -4.065569341182708740e-01
1.448000000000000000e+03 7.664470672607421875e+01 -2.482075119018554688e+01 -1.979671418666839600e-01 8.705578804016113281e+00 2.552283525466918945e+00 -6.587686538696289062e-01
1.449000000000000000e+03 7.528546905517578125e+01 -2.476331520080566406e+01 -3.765691518783569336e-01 8.645102500915527344e+00 2.480559825897216797e+00 -7.299926877021789551e-01
1.450000000000000000e+03 7.631876373291015625e+01 -3.313025665283203125e+01 -1.055144220590591431e-01 8.958091735839843750e+00 2.655773162841796875e+00 -1.046914383769035339e-01
1.451000000000000000e+03 7.665116119384765625e+01 -3.465308380126953125e+01 -1.203017607331275940e-01 9.097851753234863281e+00 2.693264961242675781e+00 -1.138626597821712494e-03
1.452000000000000000e+03 7.538299560546875000e+01 -3.501582717895507812e+01 -1.242480278015136719e-01 8.646595001220703125e+00 2.556704044342041016e+00 -6.224702671170234680e-02
1.453000000000000000e+03 7.801116943359375000e+01 2.230570411682128906e+01 1.662973780184984207e-03 7.065992355346679688e+00 2.120296716690063477e+00 -1.431116461753845215e-01
1.454000000000000000e+03 7.673168182373046875e+01 1.956813240051269531e+01 4.103964567184448242e-02 7.034303188323974609e+00 2.122602939605712891e+00 -2.750791311264038086e-01
1.455000000000000000e+03 7.538076782226562500e+01 2.226335525512695312e+01 4.425140842795372009e-02 6.606980800628662109e+00 1.995369672775268555e+00 -3.077506422996520996e-01
1.456000000000000000e+03 7.672348785400390625e+01 2.093194580078125000e+01 2.066954970359802246e-02 6.937276363372802734e+00 2.087383747100830078e+00 -2.519348263740539551e-01
1.457000000000000000e+03 7.677585601806640625e+01 1.270488452911376953e+01 3.731893142685294151e-03 7.650715827941894531e+00 2.296334266662597656e+00 -3.779659569263458252e-01
1.458000000000000000e+03 7.551916503906250000e+01 8.719648361206054688e+00 -7.538832724094390869e-02 7.696669101715087891e+00 2.286384105682373047e+00 -4.973447024822235107e-01
1.459000000000000000e+03 7.676947021484375000e+01 1.406593704223632812e+01 2.989596873521804810e-02 7.515815258026123047e+00 2.263713359832763672e+00 -3.624534606933593750e-01
1.460000000000000000e+03 7.788958740234375000e+01 2.646452331542968750e+01 1.493491046130657196e-02 6.793916225433349609e+00 2.042655467987060547e+00 -1.122083961963653564e-01
1.461000000000000000e+03 7.670664978027343750e+01 -2.195701408386230469e+01 -1.853110045194625854e-01 8.386941909790039062e+00 2.460489273071289062e+00 -9.815584421157836914e-01
1.462000000000000000e+03 7.365462493896484375e+01 -1.759637641906738281e+01 8.651976287364959717e-02 9.565862655639648438e+00 2.895714759826660156e+00 -1.245281219482421875e+00
1.463000000000000000e+03 7.676650238037109375e+01 -2.054406547546386719e+01 -1.542593687772750854e-01 8.198625564575195312e+00 2.413309812545776367e+00 -1.076145529747009277e+00
1.464000000000000000e+03 7.527978515625000000e+01 -8.806884765625000000e+00 8.259207606315612793e-01 8.574063301086425781e+00 2.819995164871215820e+00 1.114655852317810059e+00
1.465000000000000000e+03 7.794488525390625000e+01 -1.503702640533447266e+01 1.959218233823776245e-01 6.252362251281738281e+00 1.934485197067260742e+00 -7.378588318824768066e-01
1.466000000000000000e+03 7.581230926513671875e+01 -1.370457291603088379e+00 -5.861020088195800781e-01 8.675844192504882812e+00 2.426922559738159180e+00 7.911644577980041504e-01
1.467000000000000000e+03 7.694998168945312500e+01 -7.756616115570068359e+00 2.770731747150421143e-01 7.451903820037841797e+00 2.318693161010742188e+00 1.193421363830566406e+00
1.468000000000000000e+03 7.804132080078125000e+01 5.747800350189208984e+00 -5.622529238462448120e-02 8.719159126281738281e+00 2.598880052566528320e+00 -1.440089046955108643e-01
1.469000000000000000e+03 7.553118133544921875e+01 5.986433982849121094e+00 -2.007721066474914551e-01 7.986969947814941406e+00 2.335859298706054688e+00 -3.931508362293243408e-01
1.470000000000000000e+03 7.804432678222656250e+01 7.134857654571533203e+00 -3.053511492908000946e-02 8.599439620971679688e+00 2.570671319961547852e+00 -1.798788607120513916e-01
1.471000000000000000e+03 7.676582336425781250e+01 5.867062091827392578e+00 -1.209020242094993591e-01 8.321069717407226562e+00 2.460050344467163086e+00 -2.284835427999496460e-01
1.472000000000000000e+03 7.689680480957031250e+01 -2.788182735443115234e+00 -3.198624253273010254e-01 8.386772155761718750e+00 2.420073032379150391e+00 1.057943701744079590e+00
1.473000000000000000e+03 7.666750335693359375e+01 -8.994565963745117188e+00 5.259002447128295898e-01 7.331460952758789062e+00 2.357208251953125000e+00 1.015398025512695312e+00
1.474000000000000000e+03 7.671125030517578125e+01 -1.637532806396484375e+01 1.390191167593002319e-01 7.530405998229980469e+00 2.300827503204345703e+00 -1.141171693801879883e+00
1.475000000000000000e+03 7.501082611083984375e+01 3.210907745361328125e+01 4.102288559079170227e-02 6.142501354217529297e+00 1.855057239532470703e+00 -1.307064145803451538e-01
1.476000000000000000e+03 7.425984191894531250e+01 3.443902206420898438e+01 4.174827039241790771e-02 5.981368064880371094e+00 1.806934952735900879e+00 -1.317636370658874512e-01
1.477000000000000000e+03 7.623976898193359375e+01 3.198342132568359375e+01 1.463705766946077347e-02 6.362907886505126953e+00 1.913263559341430664e+00 -1.246070638298988342e-01
1.478000000000000000e+03 7.673884582519531250e+01 1.819291305541992188e+01 2.259455621242523193e-02 7.141006469726562500e+00 2.149080276489257812e+00 -3.012039661407470703e-01
1.479000000000000000e+03 7.677762603759765625e+01 9.989188194274902344e+00 -2.680749259889125824e-02 7.929498672485351562e+00 2.370807170867919922e+00 -3.836913704872131348e-01
1.480000000000000000e+03 7.659825134277343750e+01 -1.492616558074951172e+01 4.761337339878082275e-01 7.457545757293701172e+00 2.380103826522827148e+00 -9.184004664421081543e-01
1.481000000000000000e+03 7.824288177490234375e+01 -6.763199329376220703e+00 -1.844811812043190002e-02 6.712891101837158203e+00 2.008332729339599609e+00 9.311164021492004395e-01
1.482000000000000000e+03 7.804586029052734375e+01 1.518596768379211426e+00 -1.469921171665191650e-01 8.788975715637207031e+00 2.592595100402832031e+00 2.294821143150329590e-01
1.483000000000000000e+03 7.690344238281250000e+01 -1.360799908638000488e+00 -3.313179612159729004e-01 8.544774055480957031e+00 2.464036941528320312e+00 7.129421234130859375e-01
1.484000000000000000e+03 7.676398468017578125e+01 4.470499992370605469e+00 -1.788563281297683716e-01 8.444801330566406250e+00 2.479783535003662109e+00 -1.605570614337921143e-01
1.485000000000000000e+03 7.676493072509765625e+01 3.043078422546386719e+00 -2.588243186473846436e-01 8.540189743041992188e+00 2.484409570693969727e+00 4.510068893432617188e-02
1.486000000000000000e+03 7.691277313232421875e+01 -4.160126686096191406e+00 -1.421647071838378906e-01 8.123606681823730469e+00 2.394432783126831055e+00 1.183973431587219238e+00
1.487000000000000000e+03 7.701256561279296875e+01 -5.481937408447265625e+00 -8.000446856021881104e-02 7.807025909423828125e+00 2.318106412887573242e+00 1.285940766334533691e+00
1.488000000000000000e+03 7.510043334960937500e+01 -1.152098464965820312e+01 1.413116216659545898e+00 8.588856697082519531e+00 3.000591754913330078e+00 4.196435958147048950e-02
1.489000000000000000e+03 7.648781585693359375e+01 -1.342683410644531250e+01 7.240151166915893555e-01 7.381546020507812500e+00 2.431668281555175781e+00 -5.543422102928161621e-01
1.490000000000000000e+03 7.659113311767578125e+01 -1.044317722320556641e+01 7.138655781745910645e-01 7.326864719390869141e+00 2.412219047546386719e+00 4.925319850444793701e-01
1.491000000000000000e+03 7.684955596923828125e+01 -1.914707374572753906e+01 -7.327190041542053223e-02 7.914999961853027344e+00 2.352518320083618164e+00 -1.180878996849060059e+00
1.492000000000000000e+03 3.879360580444335938e+01 -1.621556282043457031e+01 -1.345589995384216309e+00 5.025919899344444275e-02 -3.885992467403411865e-01 -2.719740569591522217e-01
1.493000000000000000e+03 6.085895919799804688e+01 -5.154025554656982422e+00 -2.177584648132324219e+00 -1.734265238046646118e-01 -7.053033709526062012e-01 -7.741336226463317871e-01
1.494000000000000000e+03 5.595341110229492188e+01 8.444978713989257812e+00 3.149363398551940918e-01 2.179468393325805664e+00 7.483214139938354492e-01 1.348872780799865723e-01
1.495000000000000000e+03 1.594714736938476562e+01 4.758714199066162109e+00 -6.454510688781738281e-01 -7.293662428855895996e-01 -4.124452173709869385e-01 5.725243687629699707e-01
1.496000000000000000e+03 5.690990447998046875e+01 -9.859169006347656250e+00 -2.541321992874145508e+00 -4.569943547248840332e-01 -8.994948863983154297e-01 -1.103032827377319336e+00
1.497000000000000000e+03 5.379462051391601562e+01 -1.034866333007812500e+01 -1.989121198654174805e+00 -1.279896497726440430e-01 -6.351332664489746094e-01 -7.009248137474060059e-01
1.498000000000000000e+03 8.269515991210937500e+00 -1.549968719482421875e+01 2.311399221420288086e+00 6.240891933441162109e+00 2.565687417984008789e+00 3.032430633902549744e-02
1.499000000000000000e+03 1.581249618530273438e+01 -2.681285095214843750e+01 5.151467919349670410e-01 1.434578180313110352e+00 5.849174857139587402e-01 -8.293887972831726074e-01
1.500000000000000000e+03 2.042794227600097656e+01 -1.406331729888916016e+01 -7.040866017341613770e-01 -1.955598115921020508e+00 -7.979054450988769531e-01 1.672591090202331543e+00
1.501000000000000000e+03 5.981387710571289062e+01 -2.773065376281738281e+01 -2.414230704307556152e-01 1.479860901832580566e+00 3.715313673019409180e-01 5.031451582908630371e-01
1.502000000000000000e+03 6.023756790161132812e+01 -7.595510005950927734e+00 -3.515538692474365234e+00 -4.909597337245941162e-01 -1.201949477195739746e+00 -1.338344931602478027e+00
1.503000000000000000e+03 5.571693038940429688e+01 -2.889201164245605469e+01 -5.213505029678344727e-01 5.772025510668754578e-02 -1.390890628099441528e-01 -1.283511072397232056e-01
1.504000000000000000e+03 5.878817367553710938e+01 -2.836880683898925781e+01 -2.667972445487976074e-01 1.021941661834716797e+00 2.265433073043823242e-01 3.294269442558288574e-01
1.505000000000000000e+03 1.263358306884765625e+01 -2.347884559631347656e+01 4.851046204566955566e-01 2.282124996185302734e+00 8.301689028739929199e-01 -1.042348384857177734e+00
1.506000000000000000e+03 1.366243457794189453e+01 -2.454688835144042969e+01 4.988253414630889893e-01 1.886398673057556152e+00 7.155672311782836914e-01 -1.014591693878173828e+00
1.507000000000000000e+03 1.398964691162109375e+01 5.982923507690429688e+00 -5.666377544403076172e-01 -5.912585258483886719e-01 -3.473688960075378418e-01 4.370460212230682373e-01
1.508000000000000000e+03 2.612945747375488281e+01 1.681029891967773438e+01 -1.271329373121261597e-01 -1.395803391933441162e-01 -8.001398295164108276e-02 2.522799372673034668e-01
1.509000000000000000e+03 2.377325057983398438e+01 1.775196647644042969e+01 5.736606940627098083e-02 -4.259394705295562744e-01 -1.105720177292823792e-01 3.817876577377319336e-01
1.510000000000000000e+03 2.039862155914306641e+00 2.755665016174316406e+01 1.148881856352090836e-03 -1.098409533500671387e+00 -3.291782140731811523e-01 2.742727287113666534e-02
1.511000000000000000e+03 3.336167573928833008e+00 3.033665084838867188e+01 6.491282023489475250e-03 -1.020874142646789551e+00 -3.043148517608642578e-01 3.765220940113067627e-02
1.512000000000000000e+03 2.026306390762329102e+00 2.613773727416992188e+01 1.479636761359870434e-03 -1.078609466552734375e+00 -3.231389522552490234e-01 2.809239737689495087e-02
1.513000000000000000e+03 3.394522666931152344e+00 2.752062606811523438e+01 3.098674584180116653e-03 -9.766023755073547363e-01 -2.920511066913604736e-01 4.546909779310226440e-02
1.514000000000000000e+03 5.727704524993896484e+00 2.921330261230468750e+01 1.568382233381271362e-02 -8.082099556922912598e-01 -2.377578318119049072e-01 7.606667280197143555e-02
1.515000000000000000e+03 3.350743055343627930e+00 3.171502685546875000e+01 8.595676161348819733e-03 -1.037388086318969727e+00 -3.086377382278442383e-01 3.185328468680381775e-02
1.516000000000000000e+03 3.353576183319091797e+00 2.893756294250488281e+01 8.211301639676094055e-03 -9.972147941589355469e-01 -2.967010438442230225e-01 4.178351163864135742e-02
1.517000000000000000e+03 3.271988391876220703e+00 3.430508804321289062e+01 1.085844077169895172e-02 -1.078603744506835938e+00 -3.203236162662506104e-01 1.544291712343692780e-02
1.518000000000000000e+03 3.344791173934936523e+00 3.305673980712890625e+01 8.894074708223342896e-03 -1.063612818717956543e+00 -3.164156377315521240e-01 2.868980541825294495e-02
1.519000000000000000e+03 3.530907392501831055e+00 -3.655120086669921875e+01 -5.694975331425666809e-02 -6.802118420600891113e-01 -2.211484760046005249e-01 1.681189835071563721e-01
1.520000000000000000e+03 2.319185733795166016e+00 -3.010916519165039062e+01 -7.431780546903610229e-02 -1.388806462287902832e+00 -4.389372766017913818e-01 3.592679500579833984e-01
1.521000000000000000e+03 3.575974941253662109e+00 -2.833678436279296875e+01 -1.517357230186462402e-01 -1.092558860778808594e+00 -3.732883632183074951e-01 5.691046118736267090e-01
1.522000000000000000e+03 3.321061849594116211e+00 -2.558310508728027344e+01 -1.589660644531250000e-01 -1.408707022666931152e+00 -4.703018963336944580e-01 7.363675832748413086e-01
1.523000000000000000e+03 1.932025432586669922e+00 2.186668205261230469e+01 8.664214052259922028e-03 -1.003506660461425781e+00 -2.984527349472045898e-01 4.901495575904846191e-02
1.524000000000000000e+03 3.203450441360473633e+00 2.318742942810058594e+01 1.628824323415756226e-02 -9.179661273956298828e-01 -2.705033719539642334e-01 6.453492492437362671e-02
1.525000000000000000e+03 2.743589162826538086e+00 -1.194425964355468750e+01 4.794308245182037354e-01 -2.636600732803344727e+00 -6.471509337425231934e-01 -1.102382898330688477e+00
1.526000000000000000e+03 2.958216905593872070e+00 -1.895424270629882812e+01 1.021594107151031494e-01 -2.470371484756469727e+00 -7.104636430740356445e-01 8.636824488639831543e-01
1.527000000000000000e+03 1.913649201393127441e+00 -1.484637641906738281e+01 2.514449357986450195e-01 -4.337604045867919922e+00 -1.225847721099853516e+00 -1.143386028707027435e-02
1.528000000000000000e+03 1.911985635757446289e+00 2.045919609069824219e+01 1.020095869898796082e-02 -9.657405018806457520e-01 -2.866618633270263672e-01 5.969409272074699402e-02
1.529000000000000000e+03 3.174142599105834961e+00 2.178196334838867188e+01 2.321656234562397003e-02 -8.921006321907043457e-01 -2.606652379035949707e-01 7.817013561725616455e-02
1.530000000000000000e+03 2.992956399917602539e+00 1.205913066864013672e+01 8.906797505915164948e-03 -4.878668189048767090e-01 -1.436880081892013550e-01 2.330298870801925659e-01
1.531000000000000000e+03 3.104526042938232422e+00 1.761759567260742188e+01 4.068470373749732971e-02 -7.680022716522216797e-01 -2.181952744722366333e-01 1.499384343624114990e-01
1.532000000000000000e+03 4.052980899810791016e+00 -1.786479187011718750e+01 3.757864832878112793e-01 -1.284197926521301270e+00 -2.725234329700469971e-01 8.159191012382507324e-01
1.533000000000000000e+03 2.975797653198242188e+00 -1.329226589202880859e+01 6.908139586448669434e-01 -2.550235986709594727e+00 -5.578266382217407227e-01 -6.909128427505493164e-01
1.534000000000000000e+03 2.731166124343872070e+00 4.560971736907958984e+00 -4.996791854500770569e-02 -8.433444052934646606e-02 -4.029070585966110229e-02 8.670395612716674805e-02
1.535000000000000000e+03 2.848596096038818359e+00 8.051089286804199219e+00 -3.442876413464546204e-02 -2.414756715297698975e-01 -8.277133107185363770e-02 1.869749575853347778e-01
1.536000000000000000e+03 1.864768385887145996e+00 1.485735797882080078e+01 1.106984727084636688e-02 -7.095755934715270996e-01 -2.095517218112945557e-01 1.319544315338134766e-01
1.537000000000000000e+03 3.120278358459472656e+00 1.624207687377929688e+01 3.445236757397651672e-02 -7.122570872306823730e-01 -2.033414095640182495e-01 1.746257543563842773e-01
1.538000000000000000e+03 2.839611291885375977e+00 9.382658004760742188e+00 -2.165733091533184052e-02 -3.218457400798797607e-01 -1.030509248375892639e-01 2.095050364732742310e-01
1.539000000000000000e+03 3.772225618362426758e+00 -4.183070182800292969e+00 -4.745912551879882812e-01 -2.980187535285949707e-01 -2.317830026149749756e-01 -1.084781050682067871e+00
1.540000000000000000e+03 3.154939413070678711e+00 -2.152989387512207031e+01 -6.003770232200622559e-02 -2.006268978118896484e+00 -6.198920011520385742e-01 9.349011778831481934e-01
1.541000000000000000e+03 2.670280218124389648e+00 -9.433468818664550781e+00 2.449756488204002380e-02 -2.015200138092041016e+00 -5.972107648849487305e-01 -1.454946398735046387e+00
1.542000000000000000e+03 3.267677783966064453e+00 -1.627992439270019531e+01 6.086270213127136230e-01 -2.272585391998291016e+00 -4.991874992847442627e-01 4.354291856288909912e-01
1.543000000000000000e+03 3.268577575683593750e+00 -1.476818943023681641e+01 8.030291199684143066e-01 -2.300113201141357422e+00 -4.491252005100250244e-01 -1.259215474128723145e-01
1.544000000000000000e+03 1.924886107444763184e+00 -2.309979820251464844e+01 -2.492413483560085297e-02 -2.808349370956420898e+00 -8.499820828437805176e-01 6.493074297904968262e-01
1.545000000000000000e+03 4.031618595123291016e+00 -3.782671356201171875e+01 -4.907355085015296936e-02 -6.989045739173889160e-01 -2.243934422731399536e-01 1.124614775180816650e-01
1.546000000000000000e+03 2.294211864471435547e+00 -3.601729583740234375e+01 -3.318366035819053650e-02 -9.261417388916015625e-01 -2.877976000308990479e-01 1.606089174747467041e-01
1.547000000000000000e+03 4.589251041412353516e+00 -3.265415954589843750e+01 -1.444676369428634644e-01 -6.164271831512451172e-01 -2.282684594392776489e-01 3.703181445598602295e-01
1.548000000000000000e+03 4.590095520019531250e+00 -2.528895759582519531e+01 -2.265173941850662231e-01 -6.790823340415954590e-01 -2.716799080371856689e-01 7.763324379920959473e-01
1.549000000000000000e+03 2.902568578720092773e+00 1.070990848541259766e+01 -8.735788054764270782e-03 -4.019022881984710693e-01 -1.231914237141609192e-01 2.294908612966537476e-01
1.550000000000000000e+03 3.053123950958251953e+00 1.343705463409423828e+01 2.017722092568874359e-02 -5.634961724281311035e-01 -1.629956811666488647e-01 2.259732484817504883e-01
1.551000000000000000e+03 4.400413513183593750e+00 1.628410148620605469e+01 7.018801569938659668e-02 -6.468885540962219238e-01 -1.730101555585861206e-01 2.275575399398803711e-01
1.552000000000000000e+03 6.627907562255859375e+01 -2.117929458618164062e+01 -6.843721121549606323e-02 6.720427036285400391e+00 1.995596885681152344e+00 1.753499269485473633e+00
1.553000000000000000e+03 5.714093399047851562e+01 -8.272042274475097656e+00 -2.606411218643188477e+00 -1.694725751876831055e-01 -8.327651619911193848e-01 -7.876839637756347656e-01
1.554000000000000000e+03 5.605003738403320312e+01 -8.987304687500000000e+00 -2.373755216598510742e+00 -1.531712710857391357e-01 -7.580779790878295898e-01 -7.725824117660522461e-01
1.555000000000000000e+03 1.703485298156738281e+01 -2.788688468933105469e+01 4.916870892047882080e-01 1.351918458938598633e+00 5.530816912651062012e-01 -7.367203831672668457e-01
1.556000000000000000e+03 3.093478012084960938e+01 -3.410424041748046875e+01 3.336075544357299805e-01 1.224046051502227783e-01 1.368036419153213501e-01 -1.570397913455963135e-01
1.557000000000000000e+03 2.136419486999511719e+01 -1.452599620819091797e+01 -5.527030825614929199e-01 -2.257417440414428711e+00 -8.430361747741699219e-01 2.204760551452636719e+00
1.558000000000000000e+03 3.324407577514648438e+01 -3.727766799926757812e+01 2.985590994358062744e-01 1.188212856650352478e-01 1.252141147851943970e-01 -9.068099409341812134e-02
1.559000000000000000e+03 1.183198261260986328e+01 1.214806461334228516e+01 1.961948126554489136e-01 -2.562336027622222900e-01 -1.801163703203201294e-02 5.416752099990844727e-01
1.560000000000000000e+03 3.085624504089355469e+01 -1.542299079895019531e+01 -1.191126227378845215e+00 -9.927414357662200928e-02 -3.871200978755950928e-01 -6.620370745658874512e-01
1.561000000000000000e+03 4.350500869750976562e+01 -3.647006607055664062e+01 3.177644014358520508e-01 -1.650251001119613647e-01 4.582178965210914612e-02 -1.788361966609954834e-01
1.562000000000000000e+03 4.507070541381835938e+01 -3.354579162597656250e+01 5.021587759256362915e-02 -1.576513200998306274e-01 -3.223063424229621887e-02 -2.251445204019546509e-01
1.563000000000000000e+03 5.546488189697265625e+01 -3.369121932983398438e+01 3.061767220497131348e-01 6.055403947830200195e-01 2.735151350498199463e-01 1.343625187873840332e-01
1.564000000000000000e+03 4.655453872680664062e+01 -3.601241683959960938e+01 3.742375373840332031e-01 -2.052978575229644775e-01 5.068190768361091614e-02 -2.285731136798858643e-01
1.565000000000000000e+03 5.650420379638671875e+01 -3.013530731201171875e+01 -1.772569566965103149e-01 4.686566591262817383e-01 8.741991221904754639e-02 1.166569367051124573e-01
1.566000000000000000e+03 6.163601303100585938e+01 -2.486414909362792969e+01 -9.571939706802368164e-02 2.148905277252197266e+00 6.159557700157165527e-01 8.227145671844482422e-01
1.567000000000000000e+03 3.498171615600585938e+01 -3.564270782470703125e+01 3.015661537647247314e-01 4.862988367676734924e-02 1.050588116049766541e-01 -6.164344772696495056e-02
1.568000000000000000e+03 5.425315093994140625e+01 -3.156192970275878906e+01 -6.350177526473999023e-02 1.962132006883621216e-01 3.981342539191246033e-02 -6.826177239418029785e-02
1.569000000000000000e+03 4.994954299926757812e+01 -9.725004196166992188e+00 -1.552522659301757812e+00 1.178154721856117249e-01 -4.304121732711791992e-01 -3.026092946529388428e-01
1.570000000000000000e+03 2.085923957824707031e+01 -1.354332542419433594e+01 4.103885293006896973e-01 -2.219091653823852539e+00 -5.426109433174133301e-01 1.355204463005065918e+00
1.571000000000000000e+03 4.481414413452148438e+01 -3.503688812255859375e+01 2.333189994096755981e-01 -1.818609833717346191e-01 1.543740741908550262e-02 -2.206172496080398560e-01
1.572000000000000000e+03 2.292750740051269531e+01 2.750431537628173828e+00 -2.155914753675460815e-01 5.192484259605407715e-01 9.109708666801452637e-02 4.180121123790740967e-01
1.573000000000000000e+03 2.233616065979003906e+01 3.668221950531005859e+00 -3.393012657761573792e-02 4.264905154705047607e-01 1.177681162953376770e-01 3.844434916973114014e-01
1.574000000000000000e+03 6.956071472167968750e+01 -1.692358016967773438e+01 4.093686640262603760e-01 1.157313919067382812e+01 3.594752311706542969e+00 4.403972029685974121e-01
1.575000000000000000e+03 7.048163604736328125e+01 -1.607705879211425781e+01 9.143617153167724609e-01 1.210591411590576172e+01 3.906082868576049805e+00 2.777612805366516113e-01
1.576000000000000000e+03 2.285058784484863281e+01 -3.366992187500000000e+01 1.779700815677642822e-01 6.732786893844604492e-01 2.553746402263641357e-01 -4.154937565326690674e-01
1.577000000000000000e+03 2.961995124816894531e+01 -3.334362030029296875e+01 3.522682189941406250e-01 1.880302280187606812e-01 1.620895266532897949e-01 -1.739293485879898071e-01
1.578000000000000000e+03 6.788416290283203125e+01 -1.891968727111816406e+01 1.710779517889022827e-01 9.332317352294921875e+00 2.851018667221069336e+00 1.732204794883728027e+00
1.579000000000000000e+03 4.922552871704101562e+01 -3.366268157958984375e+01 1.460716873407363892e-01 -1.900200247764587402e-01 -1.318450365215539932e-02 -2.771130800247192383e-01
1.580000000000000000e+03 2.044326019287109375e+01 2.528072834014892578e+00 -2.970019876956939697e-01 1.609109342098236084e-02 -8.427326381206512451e-02 4.820899665355682373e-01
1.581000000000000000e+03 2.192882156372070312e+01 -9.643459916114807129e-01 -6.359109282493591309e-01 2.338854968547821045e-01 -1.206076368689537048e-01 4.191363453865051270e-01
1.582000000000000000e+03 1.066601371765136719e+01 -2.127593994140625000e+01 4.394042193889617920e-01 3.106445312500000000e+00 1.063754916191101074e+00 -1.073407649993896484e+00
1.583000000000000000e+03 1.774761009216308594e+01 -8.115323066711425781e+00 -1.155445054173469543e-01 -9.450253248214721680e-01 -3.181709349155426025e-01 9.722344875335693359e-01
1.584000000000000000e+03 8.698750495910644531e+00 -1.882591629028320312e+01 4.311026036739349365e-01 4.280769824981689453e+00 1.413561701774597168e+00 -5.128695964813232422e-01
1.585000000000000000e+03 6.707926940917968750e+01 -2.002567863464355469e+01 1.926102861762046814e-02 8.231573104858398438e+00 2.475250244140625000e+00 1.781352877616882324e+00
1.586000000000000000e+03 4.697310638427734375e+01 4.111000537872314453e+00 3.044212423264980316e-02 1.136987283825874329e-01 4.324225708842277527e-02 1.703078746795654297e-01
1.587000000000000000e+03 4.117950439453125000e+01 -1.585303878784179688e+01 -1.326554656028747559e+00 5.153538286685943604e-02 -3.825058043003082275e-01 -2.917596697807312012e-01
1.588000000000000000e+03 2.801528358459472656e+01 6.760550022125244141e+00 3.382868766784667969e-01 5.626626014709472656e-01 2.702848315238952637e-01 5.233159065246582031e-01
1.589000000000000000e+03 2.874657058715820312e+01 8.264016151428222656e+00 2.214047014713287354e-01 4.569481611251831055e-01 2.035058587789535522e-01 6.977007389068603516e-01
1.590000000000000000e+03 4.797681808471679688e+01 -3.480009078979492188e+01 2.604682743549346924e-01 -2.038868516683578491e-01 1.697442121803760529e-02 -2.462172359228134155e-01
1.591000000000000000e+03 2.315517044067382812e+01 1.668449020385742188e+01 -2.437035888433456421e-01 -4.859690964221954346e-01 -2.189017981290817261e-01 3.763084411621093750e-01
1.592000000000000000e+03 9.006586074829101562e+00 -1.677799224853515625e+01 1.262178421020507812e+00 6.912211418151855469e+00 2.452316999435424805e+00 -1.237215995788574219e+00
1.593000000000000000e+03 9.597253799438476562e+00 -2.012328338623046875e+01 4.227677285671234131e-01 3.409539937973022461e+00 1.149692296981811523e+00 -8.230817914009094238e-01
1.594000000000000000e+03 2.512333297729492188e+01 3.368005990982055664e+00 -9.758814424276351929e-02 7.677635550498962402e-01 2.010526210069656372e-01 3.185697197914123535e-01
1.595000000000000000e+03 4.206003189086914062e+01 1.767127227783203125e+01 4.747771024703979492e-01 1.598185777664184570e+00 6.218888759613037109e-01 3.997781574726104736e-01
1.596000000000000000e+03 5.557038879394531250e+01 4.041674613952636719e+00 1.137838885188102722e-01 1.145880103111267090e+00 3.778991997241973877e-01 9.570581465959548950e-02
1.597000000000000000e+03 5.309067535400390625e+01 5.936334133148193359e+00 4.005203247070312500e-01 6.596907973289489746e-01 3.180633485317230225e-01 4.036023914813995361e-01
1.598000000000000000e+03 2.487070465087890625e+01 1.733392333984375000e+01 -5.720987915992736816e-02 -3.576970100402832031e-01 -1.244720667600631714e-01 2.694084644317626953e-01
1.599000000000000000e+03 3.810529327392578125e+01 1.531463432312011719e+01 4.381628036499023438e-01 1.091684103012084961e+00 4.589540958404541016e-01 4.328535795211791992e-01
1.600000000000000000e+03 4.170337295532226562e+01 1.047711372375488281e+01 8.055164664983749390e-02 1.466643810272216797e+00 4.641586244106292725e-01 3.754844069480895996e-01
1.601000000000000000e+03 1.610464286804199219e+01 -2.937605857849121094e+01 1.479813456535339355e-01 1.249290108680725098e+00 4.191814363002777100e-01 -5.150060653686523438e-01
1.602000000000000000e+03 5.805548477172851562e+01 1.763372230529785156e+01 4.455950558185577393e-01 3.406672954559326172e+00 1.155680418014526367e+00 -5.584611892700195312e-01
1.603000000000000000e+03 5.296170806884765625e+01 2.098856925964355469e+01 4.863513410091400146e-01 1.502816081047058105e+00 5.967501997947692871e-01 -6.823520660400390625e-01
1.604000000000000000e+03 5.263794326782226562e+01 2.268999671936035156e+01 6.408284902572631836e-01 1.567532896995544434e+00 6.625084280967712402e-01 -5.455222725868225098e-01
1.605000000000000000e+03 1.163577270507812500e+01 -2.240701293945312500e+01 5.017072558403015137e-01 2.516369819641113281e+00 9.054231047630310059e-01 -1.138735651969909668e+00
1.606000000000000000e+03 1.503116416931152344e+01 1.892596054077148438e+01 2.016780376434326172e-01 2.127311080694198608e-01 1.243227422237396240e-01 2.991713583469390869e-01
1.607000000000000000e+03 1.656294631958007812e+01 1.778466796875000000e+01 2.482410818338394165e-01 3.922284841537475586e-01 1.921408772468566895e-01 3.505398333072662354e-01
1.608000000000000000e+03 5.231690597534179688e+01 2.418474960327148438e+01 6.627628803253173828e-01 1.719928026199340820e+00 7.148072719573974609e-01 -4.441143870353698730e-01
1.609000000000000000e+03 5.032834625244140625e+01 2.232597541809082031e+01 7.242268919944763184e-01 9.476165771484375000e-01 5.015530586242675781e-01 -1.966221481561660767e-01
1.610000000000000000e+03 3.982443618774414062e+01 1.422736835479736328e+01 5.075641274452209473e-01 1.376955509185791016e+00 5.653558969497680664e-01 4.712200164794921875e-01
1.611000000000000000e+03 1.286957645416259766e+01 1.554671096801757812e+01 4.441593587398529053e-01 -8.406529575586318970e-02 1.080282256007194519e-01 3.285162746906280518e-01
1.612000000000000000e+03 1.431266307830810547e+01 1.625635147094726562e+01 4.892191588878631592e-01 2.011834830045700073e-01 2.071207910776138306e-01 2.720369994640350342e-01
1.613000000000000000e+03 1.155417537689208984e+01 -9.867176055908203125e+00 8.384091258049011230e-01 2.033081531524658203e+00 8.614472150802612305e-01 1.311532378196716309e+00
1.614000000000000000e+03 5.718387985229492188e+01 1.663547134399414062e+01 6.752523183822631836e-01 3.171013832092285156e+00 1.153879880905151367e+00 -4.750019609928131104e-01
1.615000000000000000e+03 1.955571937561035156e+01 2.026552009582519531e+01 1.785718053579330444e-01 2.680489420890808105e-02 6.161301210522651672e-02 5.814260244369506836e-01
1.616000000000000000e+03 5.634420394897460938e+01 9.895224571228027344e+00 4.135347008705139160e-01 2.705558300018310547e+00 9.357279539108276367e-01 9.194875601679086685e-04
1.617000000000000000e+03 5.797788619995117188e+01 1.072405529022216797e+01 5.148814916610717773e-01 3.033704757690429688e+00 1.064575910568237305e+00 -4.965402781963348389e-01
1.618000000000000000e+03 1.797985267639160156e+01 3.361306428909301758e+00 -4.421018958091735840e-01 -5.654263496398925781e-01 -3.022584617137908936e-01 5.219116806983947754e-01
1.619000000000000000e+03 4.170823287963867188e+01 9.292957305908203125e+00 -8.235196769237518311e-02 1.307426214218139648e+00 3.675222694873809814e-01 2.721306085586547852e-01
1.620000000000000000e+03 4.063562393188476562e+01 1.753785324096679688e+01 4.919659793376922607e-01 1.524406313896179199e+00 6.049116849899291992e-01 3.545640110969543457e-01
1.621000000000000000e+03 4.321243667602539062e+01 1.897421264648437500e+01 3.521744310855865479e-01 1.472482442855834961e+00 5.473970770835876465e-01 5.313897728919982910e-01
1.622000000000000000e+03 4.190956878662109375e+01 1.947895240783691406e+01 3.068969249725341797e-01 1.500225186347961426e+00 5.421366095542907715e-01 4.368012547492980957e-01
1.623000000000000000e+03 1.891262817382812500e+01 2.654807806015014648e+00 -4.351968169212341309e-01 -3.617388308048248291e-01 -2.390806972980499268e-01 5.537002086639404297e-01
1.624000000000000000e+03 7.156131744384765625e+01 -1.329277133941650391e+01 2.537189960479736328e+00 1.305628776550292969e+01 4.678043365478515625e+00 -3.521795272827148438e-01
1.625000000000000000e+03 7.073197174072265625e+01 -1.208447170257568359e+01 2.687347412109375000e+00 1.444637012481689453e+01 5.140115261077880859e+00 -3.115374222397804260e-02
1.626000000000000000e+03 4.007792282104492188e+01 1.289068031311035156e+01 4.587416648864746094e-01 1.320687770843505859e+00 5.338288545608520508e-01 5.424213409423828125e-01
1.627000000000000000e+03 4.041993331909179688e+01 1.036455726623535156e+01 9.773528575897216797e-02 1.294904470443725586e+00 4.177919328212738037e-01 4.827311038970947266e-01
1.628000000000000000e+03 5.632704544067382812e+01 5.556276798248291016e+00 2.140644490718841553e-01 1.551962256431579590e+00 5.298079848289489746e-01 -3.409095108509063721e-03
1.629000000000000000e+03 4.872662353515625000e+01 -1.450351047515869141e+01 -1.432575225830078125e+00 -1.222832947969436646e-01 -4.664575755596160889e-01 -5.471566319465637207e-01
1.630000000000000000e+03 6.955057525634765625e+01 -7.128641605377197266e+00 9.754955768585205078e-02 1.481083869934082031e+01 4.472516536712646484e+00 2.080837190151214600e-01
1.631000000000000000e+03 1.267289447784423828e+01 1.449900341033935547e+01 4.565595686435699463e-01 -1.442347019910812378e-01 9.369746595621109009e-02 3.839950263500213623e-01
1.632000000000000000e+03 6.593957519531250000e+01 -5.272164344787597656e+00 -1.085624456405639648e+00 3.477840423583984375e+00 7.176648378372192383e-01 -4.917715549468994141e+00
1.633000000000000000e+03 5.850341796875000000e+01 1.587643241882324219e+01 7.720081806182861328e-01 3.429650306701660156e+00 1.260497570037841797e+00 -5.746691226959228516e-01
1.634000000000000000e+03 5.616004180908203125e+01 1.758564758300781250e+01 3.098149001598358154e-01 3.064565896987915039e+00 1.012314200401306152e+00 -5.015120506286621094e-01
1.635000000000000000e+03 7.260308837890625000e+01 -3.577998638153076172e+00 -1.258545875549316406e+00 9.898219108581542969e+00 2.591902017593383789e+00 6.968312859535217285e-01
1.636000000000000000e+03 6.946372222900390625e+01 -4.675024509429931641e+00 -2.567433595657348633e+00 1.094968891143798828e+01 2.514676570892333984e+00 -1.188210368156433105e+00
1.637000000000000000e+03 1.033804321289062500e+01 -4.688415527343750000e+00 -1.321565032005310059e+00 9.772161841392517090e-01 -1.033046469092369080e-01 1.508980244398117065e-01
1.638000000000000000e+03 1.128008365631103516e+01 -6.408746719360351562e+00 -8.428995013236999512e-01 1.366328597068786621e+00 1.570287346839904785e-01 5.180016756057739258e-01
1.639000000000000000e+03 4.882628440856933594e+00 -4.031250000000000000e+01 -1.108037754893302917e-01 -4.403071701526641846e-01 -1.653332859277725220e-01 4.008745402097702026e-02
1.640000000000000000e+03 8.132259368896484375e+00 -4.104273986816406250e+01 -2.218298614025115967e-01 -1.551032438874244690e-02 -7.120205461978912354e-02 5.500057339668273926e-02
1.641000000000000000e+03 4.586355972290039062e+01 4.332528591156005859e+00 -3.001232817769050598e-02 1.706400215625762939e-01 4.218830540776252747e-02 1.178168654441833496e-01
1.642000000000000000e+03 6.623547363281250000e+01 -3.965847730636596680e+00 -1.880188584327697754e+00 5.090917110443115234e+00 9.632185101509094238e-01 -3.435387849807739258e+00
1.643000000000000000e+03 5.182688713073730469e+00 4.012625122070312500e+01 -1.790377864381298423e-04 -9.748427867889404297e-01 -2.925065457820892334e-01 3.135196119546890259e-02
1.644000000000000000e+03 2.590136146545410156e+01 -1.209998416900634766e+01 1.047049880027770996e+00 3.820261001586914062e+00 1.460193276405334473e+00 1.869018912315368652e+00
1.645000000000000000e+03 2.649323463439941406e+01 -1.159160614013671875e+01 8.243843913078308105e-01 2.555351257324218750e+00 1.013920664787292480e+00 1.635793685913085938e+00
1.646000000000000000e+03 2.610758781433105469e+01 -1.161332511901855469e+01 5.448838472366333008e-01 3.150299310684204102e+00 1.108554959297180176e+00 1.503731250762939453e+00
1.647000000000000000e+03 2.512652778625488281e+01 -1.065141868591308594e+01 -2.079434990882873535e-01 2.447375774383544922e+00 6.718297004699707031e-01 2.083146274089813232e-01
1.648000000000000000e+03 2.655863952636718750e+01 -1.205549430847167969e+01 1.475350499153137207e+00 2.485203504562377930e+00 1.188166260719299316e+00 1.853472590446472168e+00
1.649000000000000000e+03 2.697952461242675781e+01 -1.330861663818359375e+01 3.165006875991821289e+00 8.495512008666992188e-01 1.204367399215698242e+00 7.791925072669982910e-01
1.650000000000000000e+03 2.639959144592285156e+01 -1.480524539947509766e+01 9.129263162612915039e-01 1.783285737037658691e+00 8.088636398315429688e-01 -1.449662327766418457e+00
1.651000000000000000e+03 2.675299263000488281e+01 -1.515977668762207031e+01 -3.673464357852935791e-01 1.220391154289245605e+00 2.559134066104888916e-01 -1.402714848518371582e+00
1.652000000000000000e+03 2.047612380981445312e+01 -1.235606765747070312e+01 5.021129250526428223e-01 -1.989083766937255859e+00 -4.460912644863128662e-01 7.908207178115844727e-01
1.653000000000000000e+03 2.207731056213378906e+01 -1.341725826263427734e+01 1.332016944885253906e+00 -2.334270715713500977e+00 -3.006761372089385986e-01 8.572891950607299805e-01
1.654000000000000000e+03 2.500231361389160156e+01 -8.216986656188964844e+00 -5.011755228042602539e-01 1.339041233062744141e+00 2.513597011566162109e-01 3.591439127922058105e-01
1.655000000000000000e+03 2.559310340881347656e+01 -1.649813270568847656e+01 -6.110125541687011719e+00 8.606087565422058105e-01 -1.574855089187622070e+00 7.008291482925415039e-01
1.656000000000000000e+03 2.519108200073242188e+01 -1.529382514953613281e+01 -1.879725098609924316e+00 2.670977354049682617e+00 2.373756617307662964e-01 2.646422088146209717e-01
1.657000000000000000e+03 2.105377578735351562e+01 -1.304135036468505859e+01 6.932429075241088867e-01 -2.195156574249267578e+00 -4.505741000175476074e-01 9.887508153915405273e-01
1.658000000000000000e+03 1.918535995483398438e+01 -1.034328937530517578e+01 2.805030345916748047e-01 -1.370793581008911133e+00 -3.270871639251708984e-01 7.168232798576354980e-01
1.659000000000000000e+03 1.859992408752441406e+01 -1.099403285980224609e+01 3.132390975952148438e-01 -1.304306864738464355e+00 -2.973203361034393311e-01 7.608879208564758301e-01
1.660000000000000000e+03 2.495649528503417969e+01 -6.822753906250000000e+00 -6.266533136367797852e-01 1.068343758583068848e+00 1.325071305036544800e-01 4.207275509834289551e-01
1.661000000000000000e+03 1.985534095764160156e+01 -1.171143722534179688e+01 3.641609549522399902e-01 -1.688719272613525391e+00 -3.973674774169921875e-01 7.481537461280822754e-01
1.662000000000000000e+03 2.011395454406738281e+01 -1.123149204254150391e+01 4.705235958099365234e-01 -1.623377084732055664e+00 -3.458560407161712646e-01 6.002705097198486328e-01
1.663000000000000000e+03 1.714024162292480469e+01 -8.578144073486328125e+00 1.086738184094429016e-01 -8.240810036659240723e-01 -2.146221548318862915e-01 9.427903294563293457e-01
1.664000000000000000e+03 1.733572769165039062e+01 -7.538612365722656250e+00 -2.222981303930282593e-01 -8.323392271995544434e-01 -3.163911998271942139e-01 9.878014326095581055e-01
1.665000000000000000e+03 2.518862724304199219e+01 -8.733418464660644531e+00 -4.535874724388122559e-01 1.522395253181457520e+00 3.206423521041870117e-01 3.692161738872528076e-01
1.666000000000000000e+03 2.544074821472167969e+01 -7.956534862518310547e+00 -5.448443889617919922e-01 1.374649167060852051e+00 2.489414215087890625e-01 4.662672579288482666e-01
1.667000000000000000e+03 2.520844650268554688e+01 -7.420617103576660156e+00 -5.873472094535827637e-01 1.222135066986083984e+00 1.904363632202148438e-01 4.386580586433410645e-01
1.668000000000000000e+03 2.547608566284179688e+01 -6.603118896484375000e+00 -6.545144319534301758e-01 1.132844090461730957e+00 1.434988975524902344e-01 5.012865662574768066e-01
1.669000000000000000e+03 1.412993240356445312e+01 -8.197986602783203125e+00 4.353026673197746277e-02 3.079607486724853516e-01 1.054472997784614563e-01 1.119539022445678711e+00
1.670000000000000000e+03 1.365381908416748047e+01 -4.838331699371337891e+00 -1.091884970664978027e+00 2.330095171928405762e-01 -2.576626241207122803e-01 8.949799537658691406e-01
1.671000000000000000e+03 1.498590946197509766e+01 -6.669146060943603516e+00 -4.464065730571746826e-01 -2.962231449782848358e-02 -1.428086608648300171e-01 1.107927203178405762e+00
1.672000000000000000e+03 9.894425392150878906e+00 3.290440082550048828e+00 -3.682545423507690430e-01 -1.205814257264137268e-01 -1.466507911682128906e-01 2.351574003696441650e-01
1.673000000000000000e+03 5.536792278289794922e+00 4.004246234893798828e+00 -1.512760967016220093e-01 -6.948516517877578735e-02 -6.622838228940963745e-02 1.554986536502838135e-01
1.674000000000000000e+03 9.094558715820312500e+00 4.098592758178710938e+00 -3.422676026821136475e-01 -1.064336448907852173e-01 -1.346103847026824951e-01 2.549160718917846680e-01
1.675000000000000000e+03 7.616873741149902344e+00 3.293933629989624023e+00 -2.481741905212402344e-01 -6.213553249835968018e-02 -9.309291839599609375e-02 1.809243410825729370e-01
1.676000000000000000e+03 4.394320964813232422e+00 6.185046195983886719e+00 -9.853702783584594727e-02 -1.591774821281433105e-01 -7.731434702873229980e-02 2.082290351390838623e-01
1.677000000000000000e+03 4.028203964233398438e+00 4.768881320953369141e+00 -9.885859489440917969e-02 -9.293076395988464355e-02 -5.753680691123008728e-02 1.366514116525650024e-01
1.678000000000000000e+03 5.634737491607666016e+00 4.770431995391845703e+00 -1.635703295469284058e-01 -8.978163450956344604e-02 -7.600559294223785400e-02 1.900802403688430786e-01
1.679000000000000000e+03 1.682510137557983398e+00 4.846801757812500000e+00 -2.205752767622470856e-02 -7.610080391168594360e-02 -2.944749966263771057e-02 5.689851939678192139e-02
1.680000000000000000e+03 2.629661798477172852e+00 3.500633239746093750e+00 -3.421797230839729309e-02 -5.331714451313018799e-02 -2.626053616404533386e-02 4.718998447060585022e-02
1.681000000000000000e+03 1.728660392761230469e+01 -1.124400615692138672e+01 3.175846338272094727e-01 -8.825524449348449707e-01 -1.694903522729873657e-01 7.041242122650146484e-01
1.682000000000000000e+03 1.861032295227050781e+01 -9.181228637695312500e+00 8.301951736211776733e-02 -1.174565911293029785e+00 -3.274638950824737549e-01 8.079493045806884766e-01
1.683000000000000000e+03 2.414522933959960938e+01 -6.417380809783935547e+00 -6.213307976722717285e-01 8.210281729698181152e-01 5.990920960903167725e-02 3.512012660503387451e-01
1.684000000000000000e+03 9.145460128784179688e+00 -3.511587619781494141e+00 -1.475332021713256836e+00 7.207522392272949219e-01 -2.263739407062530518e-01 -2.227894812822341919e-01
1.685000000000000000e+03 9.641247749328613281e+00 -4.429147243499755859e+00 -1.359015822410583496e+00 1.005840420722961426e+00 -1.059526130557060242e-01 -1.237868219614028931e-01
1.686000000000000000e+03 4.212831497192382812e+00 -3.904824256896972656e+00 -6.076581478118896484e-01 -1.443103253841400146e-01 -2.255905419588088989e-01 -1.036201834678649902e+00
1.687000000000000000e+03 6.285601615905761719e+00 -4.090247154235839844e+00 -9.954776167869567871e-01 3.952332437038421631e-01 -1.800733208656311035e-01 -9.599568843841552734e-01
1.688000000000000000e+03 8.221792221069335938e+00 -4.965185165405273438e+00 -1.184737563133239746e+00 1.047977447509765625e+00 -4.102802649140357971e-02 -5.744928717613220215e-01
1.689000000000000000e+03 8.321603775024414062e+00 -4.179980754852294922e+00 -1.312658667564392090e+00 8.687716126441955566e-01 -1.331661343574523926e-01 -5.221766829490661621e-01
1.690000000000000000e+03 7.749893665313720703e+00 -3.354470729827880859e+00 -1.327255368232727051e+00 5.541461110115051270e-01 -2.319327741861343384e-01 -5.648286938667297363e-01
1.691000000000000000e+03 5.584568977355957031e+00 -4.177458763122558594e+00 -8.546519279479980469e-01 2.620710730552673340e-01 -1.777742505073547363e-01 -1.104478001594543457e+00
1.692000000000000000e+03 4.544589996337890625e+00 -3.158076286315917969e+00 -7.397108078002929688e-01 -4.318284615874290466e-02 -2.348680943250656128e-01 -8.980937600135803223e-01
1.693000000000000000e+03 3.829604148864746094e+00 -8.290585517883300781e+00 -1.864539682865142822e-01 -6.370331645011901855e-01 -2.470461428165435791e-01 -1.713202953338623047e+00
1.694000000000000000e+03 2.747942686080932617e+00 -3.907375574111938477e+00 -3.106164336204528809e-01 -4.683504700660705566e-01 -2.336900830268859863e-01 -8.625299930572509766e-01
1.695000000000000000e+03 3.759034872055053711e+00 -7.084615707397460938e+00 -2.621924877166748047e-01 -5.563432574272155762e-01 -2.455607205629348755e-01 -1.561989188194274902e+00
1.696000000000000000e+03 2.718263387680053711e+00 -5.867516994476318359e+00 -2.280042171478271484e-01 -9.261372685432434082e-01 -3.462424576282501221e-01 -1.223928809165954590e+00
1.697000000000000000e+03 2.325454330444335938e+01 -3.253043651580810547e+00 -7.527379393577575684e-01 4.880565404891967773e-01 -7.940442115068435669e-02 3.986499905586242676e-01
1.698000000000000000e+03 1.109858417510986328e+01 -5.015408515930175781e+00 -1.196667075157165527e+00 9.681223630905151367e-01 -6.856340169906616211e-02 3.553690612316131592e-01
1.699000000000000000e+03 1.334418773651123047e+01 -5.533774375915527344e+00 -9.041359424591064453e-01 4.089632332324981689e-01 -1.485518068075180054e-01 9.156998395919799805e-01
1.700000000000000000e+03 1.507918930053710938e+01 2.702289581298828125e+00 -4.538999795913696289e-01 -5.562974810600280762e-01 -3.030592501163482666e-01 4.463410377502441406e-01
1.701000000000000000e+03 2.213199424743652344e+01 -2.851722002029418945e+00 -7.438521981239318848e-01 2.282944172620773315e-01 -1.546673327684402466e-01 4.100359678268432617e-01
1.702000000000000000e+03 2.403780746459960938e+01 3.212718486785888672e+00 -1.423533558845520020e-01 6.990588307380676270e-01 1.670116335153579712e-01 3.736958205699920654e-01
1.703000000000000000e+03 1.328092956542968750e+01 4.333570003509521484e+00 -5.114183425903320312e-01 -4.362309873104095459e-01 -2.842947840690612793e-01 3.699392676353454590e-01
1.704000000000000000e+03 2.281710624694824219e+01 -2.492790937423706055e+00 -7.367541790008544922e-01 3.937765061855316162e-01 -1.028933078050613403e-01 3.943029046058654785e-01
1.705000000000000000e+03 1.854260253906250000e+01 5.376641750335693359e-01 -4.665859639644622803e-01 -4.523760676383972168e-01 -2.756886184215545654e-01 5.380538105964660645e-01
1.706000000000000000e+03 2.343311309814453125e+01 -5.028432846069335938e+00 -7.066573500633239746e-01 5.560669302940368652e-01 -4.517713189125061035e-02 3.728091418743133545e-01
1.707000000000000000e+03 8.142908096313476562e+00 5.716011047363281250e+00 -2.800028324127197266e-01 -1.331251710653305054e-01 -1.239384040236473083e-01 3.308935165405273438e-01
1.708000000000000000e+03 1.449849414825439453e+01 4.436504840850830078e+00 -5.400474667549133301e-01 -5.752193331718444824e-01 -3.345800340175628662e-01 4.397030174732208252e-01
1.709000000000000000e+03 1.238208103179931641e+01 3.787565231323242188e+00 -4.642795324325561523e-01 -3.212743699550628662e-01 -2.356661707162857056e-01 3.242866992950439453e-01
1.710000000000000000e+03 1.293716335296630859e+01 -4.572651386260986328e+00 -1.209002971649169922e+00 4.126152098178863525e-01 -2.389163225889205933e-01 7.673807144165039062e-01
1.711000000000000000e+03 2.236549949645996094e+01 -1.730985522270202637e+00 -6.987012624740600586e-01 3.047031760215759277e-01 -1.181994229555130005e-01 4.065980017185211182e-01
1.712000000000000000e+03 1.030469226837158203e+01 -7.892226696014404297e+00 -4.749539196491241455e-01 2.373117446899414062e+00 5.694490671157836914e-01 3.681730329990386963e-01
1.713000000000000000e+03 1.062360191345214844e+01 -9.283610343933105469e+00 4.835553765296936035e-01 2.826372146606445312e+00 9.929782152175903320e-01 8.885957598686218262e-01
1.714000000000000000e+03 1.616107940673828125e+01 -6.692788600921630859e+00 -4.125460088253021240e-01 -4.581233859062194824e-01 -2.612008154392242432e-01 1.089221835136413574e+00
1.715000000000000000e+03 1.481198596954345703e+01 -7.835991382598876953e+00 5.868408828973770142e-02 5.315930396318435669e-02 3.355301916599273682e-02 1.162364721298217773e+00
1.716000000000000000e+03 9.905204772949218750e+00 4.076444625854492188e+00 -3.791185319423675537e-01 -1.511033922433853149e-01 -1.590665876865386963e-01 2.757249772548675537e-01
1.717000000000000000e+03 2.108438873291015625e+01 3.783928751945495605e-01 -5.175182223320007324e-01 5.820864066481590271e-02 -1.377928853034973145e-01 4.593065679073333740e-01
1.718000000000000000e+03 1.779736328125000000e+01 1.119176626205444336e+00 -4.374470412731170654e-01 -5.278977155685424805e-01 -2.896034419536590576e-01 5.372892618179321289e-01
1.719000000000000000e+03 2.156657409667968750e+01 -2.202385663986206055e-01 -5.762020349502563477e-01 1.821867674589157104e-01 -1.182045713067054749e-01 4.407565593719482422e-01
1.720000000000000000e+03 2.081207466125488281e+01 -3.950327336788177490e-01 -5.802948474884033203e-01 -1.798435114324092865e-02 -1.794837713241577148e-01 4.641613364219665527e-01
1.721000000000000000e+03 1.831736183166503906e+01 1.881364464759826660e+00 -3.875647187232971191e-01 -4.855393171310424805e-01 -2.619312107563018799e-01 5.313655138015747070e-01
1.722000000000000000e+03 2.663079261779785156e+01 -1.597496128082275391e+01 -3.018316268920898438e+00 9.993080496788024902e-01 -6.057024598121643066e-01 -9.619119167327880859e-01
1.723000000000000000e+03 2.744924545288085938e+01 -1.495098209381103516e+01 4.496936872601509094e-02 3.276187777519226074e-01 1.117764487862586975e-01 -1.200155019760131836e+00
1.724000000000000000e+03 2.957979202270507812e+01 -1.551755714416503906e+01 -1.356960654258728027e+00 -2.509521134197711945e-02 -4.146167635917663574e-01 -9.316114187240600586e-01
1.725000000000000000e+03 3.871178436279296875e+01 -1.506728267669677734e+01 -1.229070663452148438e+00 5.334761738777160645e-02 -3.527168929576873779e-01 -2.692967653274536133e-01
1.726000000000000000e+03 3.952629470825195312e+01 1.565113925933837891e+01 5.300687551498413086e-01 1.308996081352233887e+00 5.517194271087646484e-01 4.298085868358612061e-01
1.727000000000000000e+03 1.081414794921875000e+01 1.084102725982666016e+01 -1.116900891065597534e-02 -2.684603333473205566e-01 -8.388879895210266113e-02 5.726049542427062988e-01
1.728000000000000000e+03 9.440220832824707031e+00 -1.089289188385009766e+01 5.475233197212219238e-01 5.831656455993652344e+00 1.913753867149353027e+00 5.203979611396789551e-01
1.729000000000000000e+03 3.727296829223632812e+00 -1.180427742004394531e+01 7.711327075958251953e-01 -1.370652437210083008e+00 -1.798559129238128662e-01 -1.431303143501281738e+00
1.730000000000000000e+03 5.762718582153320312e+01 9.488194465637207031e+00 3.918139636516571045e-01 2.742454051971435547e+00 9.402804374694824219e-01 -3.221204876899719238e-01
1.731000000000000000e+03 8.447995185852050781e+00 -3.413896083831787109e+00 -1.409141659736633301e+00 6.100856661796569824e-01 -2.397167980670928955e-01 -3.715181052684783936e-01
1.732000000000000000e+03 4.351242065429687500e+01 -1.531220436096191406e+01 -1.314265012741088867e+00 -6.627811584621667862e-03 -3.962678611278533936e-01 -3.318813145160675049e-01
1.733000000000000000e+03 3.985748672485351562e+01 -1.489543819427490234e+01 -1.242844939231872559e+00 6.305550038814544678e-02 -3.539368212223052979e-01 -2.687740623950958252e-01
1.734000000000000000e+03 3.511764907836914062e+01 -1.641293907165527344e+01 -1.511782050132751465e+00 4.816013574600219727e-02 -4.390865862369537354e-01 -2.819725573062896729e-01
1.735000000000000000e+03 3.171256828308105469e+01 -1.587986564636230469e+01 -1.501673460006713867e+00 -8.848892524838447571e-03 -4.531566798686981201e-01 -5.689535140991210938e-01
1.736000000000000000e+03 1.978484916687011719e+01 -1.238951301574707031e+01 3.125460743904113770e-01 -1.582752108573913574e+00 -3.810618221759796143e-01 9.187892079353332520e-01
1.737000000000000000e+03 6.008689498901367188e+01 -5.977645874023437500e+00 -2.511182069778442383e+00 -1.546248495578765869e-01 -7.997420430183410645e-01 -5.577490925788879395e-01
1.738000000000000000e+03 5.845604324340820312e+01 -3.659677267074584961e+00 -1.312507033348083496e+00 2.565001249313354492e-01 -3.168020844459533691e-01 -2.520206272602081299e-01
1.739000000000000000e+03 5.148918533325195312e+01 -1.165133285522460938e+01 -1.712924838066101074e+00 -8.424668759107589722e-02 -5.391514301300048828e-01 -5.924913287162780762e-01
1.740000000000000000e+03 4.957552719116210938e+01 -1.128021240234375000e+01 -1.557452917098999023e+00 4.010153934359550476e-02 -4.552054405212402344e-01 -4.190593957901000977e-01
1.741000000000000000e+03 3.411227035522460938e+01 -1.526998043060302734e+01 -1.222490072250366211e+00 -1.831423118710517883e-02 -3.722413182258605957e-01 -3.729573786258697510e-01
1.742000000000000000e+03 3.634362411499023438e+01 -1.640201377868652344e+01 -1.428440332412719727e+00 3.698648884892463684e-02 -4.174361526966094971e-01 -2.566443085670471191e-01
1.743000000000000000e+03 4.845579910278320312e+01 -1.186781311035156250e+01 -1.484302163124084473e+00 4.130565747618675232e-02 -4.328989684581756592e-01 -4.031892120838165283e-01
1.744000000000000000e+03 4.805671310424804688e+01 -1.345359039306640625e+01 -1.462226152420043945e+00 -2.325852029025554657e-02 -4.456454217433929443e-01 -4.756198525428771973e-01
1.745000000000000000e+03 1.249295425415039062e+01 4.586802959442138672e+00 -4.813615381717681885e-01 -3.771764636039733887e-01 -2.575614154338836670e-01 3.575122952461242676e-01
1.746000000000000000e+03 6.472977161407470703e+00 -1.494946765899658203e+01 2.124775409698486328e+00 2.628145456314086914e+00 1.425876259803771973e+00 2.520574023947119713e-03
1.747000000000000000e+03 1.817134666442871094e+01 -1.183156299591064453e+01 2.474815696477890015e-01 -1.092647194862365723e+00 -2.535496950149536133e-01 7.729843258857727051e-01
1.748000000000000000e+03 4.580735015869140625e+01 -1.449289512634277344e+01 -1.351902961730957031e+00 -3.068104013800621033e-02 -4.147751927375793457e-01 -4.026950299739837646e-01
1.749000000000000000e+03 4.098657989501953125e+01 -1.469746685028076172e+01 -1.244600415229797363e+00 6.178494542837142944e-02 -3.548446297645568848e-01 -2.670868635177612305e-01
1.750000000000000000e+03 1.077676963806152344e+01 4.857343196868896484e+00 -4.305137395858764648e-01 -2.194812297821044922e-01 -1.949984878301620483e-01 3.278202116489410400e-01
1.751000000000000000e+03 4.882270812988281250e+01 -1.031579113006591797e+01 -1.478971362113952637e+00 1.087342873215675354e-01 -4.110711216926574707e-01 -3.008113801479339600e-01
1.752000000000000000e+03 4.469854354858398438e+01 -1.253989124298095703e+01 -1.272632479667663574e+00 6.994429975748062134e-02 -3.608064651489257812e-01 -2.806960642337799072e-01
1.753000000000000000e+03 3.523538970947265625e+01 -1.531368255615234375e+01 -1.241838335990905762e+00 5.794425960630178452e-03 -3.708131611347198486e-01 -3.202159404754638672e-01
1.754000000000000000e+03 3.757286071777343750e+01 -1.633468627929687500e+01 -1.371992588043212891e+00 3.969812020659446716e-02 -3.996883332729339600e-01 -2.648322284221649170e-01
1.755000000000000000e+03 5.409924697875976562e+01 -8.771633148193359375e+00 -2.019040107727050781e+00 2.922974713146686554e-02 -5.969431400299072266e-01 -4.970670938491821289e-01
1.756000000000000000e+03 3.306649780273437500e+01 -1.513105392456054688e+01 -1.123357892036437988e+00 -6.019235774874687195e-02 -3.550650775432586670e-01 -4.387084841728210449e-01
1.757000000000000000e+03 6.646815490722656250e+01 -2.322760963439941406e+01 -5.087773203849792480e-01 6.443603992462158203e+00 1.780448079109191895e+00 1.185154318809509277e+00
1.758000000000000000e+03 1.696541023254394531e+01 4.049707412719726562e+00 -6.059855222702026367e-01 -6.161822676658630371e-01 -3.666503429412841797e-01 4.902645647525787354e-01
1.759000000000000000e+03 1.544771575927734375e+01 3.759699106216430664e+00 -4.841274619102478027e-01 -6.283236145973205566e-01 -3.337353169918060303e-01 4.173284173011779785e-01
1.760000000000000000e+03 6.045418548583984375e+01 -2.578779220581054688e+01 -2.320270240306854248e-01 1.487541198730468750e+00 3.766542375087738037e-01 5.931082367897033691e-01
1.761000000000000000e+03 3.132787895202636719e+01 -1.454886436462402344e+01 -6.794391870498657227e-01 -1.661443561315536499e-01 -2.536750733852386475e-01 -5.041801929473876953e-01
1.762000000000000000e+03 2.529056739807128906e+01 -3.561773300170898438e+01 1.824977099895477295e-01 4.987213313579559326e-01 2.043657153844833374e-01 -2.824932932853698730e-01
1.763000000000000000e+03 5.270655441284179688e+01 4.155935764312744141e+00 1.805202364921569824e-01 5.651149749755859375e-01 2.236905694007873535e-01 3.749774396419525146e-01
1.764000000000000000e+03 7.546293640136718750e+01 1.410477828979492188e+01 3.338222578167915344e-02 7.182313919067382812e+00 2.164708852767944336e+00 -4.808092713356018066e-01
1.765000000000000000e+03 7.566867828369140625e+01 8.172966539859771729e-02 -5.319762825965881348e-01 8.579131126403808594e+00 2.414146423339843750e+00 4.116122424602508545e-01
1.766000000000000000e+03 7.396050262451171875e+01 -1.109221172332763672e+01 1.804059743881225586e+00 9.581017494201660156e+00 3.415523052215576172e+00 5.288032889366149902e-01
1.767000000000000000e+03 7.492891693115234375e+01 -1.571526908874511719e+01 5.203082561492919922e-01 8.636231422424316406e+00 2.746961832046508789e+00 -1.199873924255371094e+00
1.768000000000000000e+03 7.713538360595703125e+01 -6.688901901245117188e+00 8.078866451978683472e-02 7.441759586334228516e+00 2.256764411926269531e+00 1.214506149291992188e+00
1.769000000000000000e+03 7.560963439941406250e+01 -4.236121177673339844e+00 -4.286694228649139404e-01 8.805147171020507812e+00 2.512943506240844727e+00 1.405787706375122070e+00
1.770000000000000000e+03 7.349738311767578125e+01 -1.188035106658935547e+01 2.150153160095214844e+00 1.029268550872802734e+01 3.732851743698120117e+00 -1.339809745550155640e-01
1.771000000000000000e+03 7.523265075683593750e+01 -1.359002780914306641e+01 1.177560448646545410e+00 8.558987617492675781e+00 2.920964479446411133e+00 -6.690930128097534180e-01
1.772000000000000000e+03 7.646326446533203125e+01 -1.191295433044433594e+01 8.152487874031066895e-01 7.321435451507568359e+00 2.441005229949951172e+00 3.364448621869087219e-02
1.773000000000000000e+03 7.566558837890625000e+01 -2.783162117004394531e+00 -5.321167707443237305e-01 8.780158042907714844e+00 2.474412441253662109e+00 1.045650482177734375e+00
1.774000000000000000e+03 7.502404785156250000e+01 -7.370675563812255859e+00 5.304218530654907227e-01 8.759512901306152344e+00 2.786980390548706055e+00 1.594752907752990723e+00
1.775000000000000000e+03 7.677977752685546875e+01 1.579667925834655762e+00 -2.764766812324523926e-01 8.592217445373535156e+00 2.494722127914428711e+00 2.075930982828140259e-01
1.776000000000000000e+03 7.553221893310546875e+01 1.626127719879150391e+00 -5.214968919754028320e-01 8.470007896423339844e+00 2.384553194046020508e+00 1.831480115652084351e-01
1.777000000000000000e+03 7.552716827392578125e+01 7.358269691467285156e+00 -1.165837943553924561e-01 7.823056697845458984e+00 2.311941862106323242e+00 -4.296135306358337402e-01
1.778000000000000000e+03 7.541310119628906250e+01 -2.332264328002929688e+01 -3.607695400714874268e-01 8.618804931640625000e+00 2.477410554885864258e+00 -8.901045322418212891e-01
1.779000000000000000e+03 7.140140533447265625e+01 3.278115844726562500e+01 1.033367887139320374e-01 5.559803009033203125e+00 1.698941946029663086e+00 -2.347947508096694946e-01
1.780000000000000000e+03 7.484670257568359375e+01 3.067530822753906250e+01 4.439729824662208557e-02 6.145109653472900391e+00 1.856852054595947266e+00 -1.685717552900314331e-01
1.781000000000000000e+03 7.433293914794921875e+01 3.319076061248779297e+00 -5.070557594299316406e-01 8.012899398803710938e+00 2.251753091812133789e+00 -2.538741528987884521e-01
1.782000000000000000e+03 7.553768157958984375e+01 3.154922008514404297e+00 -3.991696238517761230e-01 8.302789688110351562e+00 2.371085882186889648e+00 -1.419747620820999146e-01
1.783000000000000000e+03 7.560803985595703125e+01 -1.653037071228027344e+01 3.101079761981964111e-01 8.446063995361328125e+00 2.626851797103881836e+00 -1.178535223007202148e+00
1.784000000000000000e+03 7.376554870605468750e+01 -1.859484291076660156e+01 -8.827641606330871582e-02 9.473555564880371094e+00 2.815583705902099609e+00 -1.164164662361145020e+00
1.785000000000000000e+03 7.685391235351562500e+01 -1.776918792724609375e+01 5.860766395926475525e-02 7.694972038269042969e+00 2.326073884963989258e+00 -1.137212276458740234e+00
1.786000000000000000e+03 7.535973358154296875e+01 -1.475469017028808594e+01 5.800822973251342773e-01 8.497662544250488281e+00 2.723323345184326172e+00 -1.065029978752136230e+00
1.787000000000000000e+03 7.677358245849609375e+01 8.622483253479003906e+00 -3.649571910500526428e-02 8.061280250549316406e+00 2.407435417175292969e+00 -3.476058542728424072e-01
1.788000000000000000e+03 7.550825500488281250e+01 1.007073116302490234e+01 -1.899151876568794250e-02 7.550443649291992188e+00 2.259435653686523438e+00 -4.973881244659423828e-01
1.789000000000000000e+03 7.549133300781250000e+01 1.141351318359375000e+01 -4.086307249963283539e-03 7.428718090057373047e+00 2.227389574050903320e+00 -5.122498869895935059e-01
1.790000000000000000e+03 7.424301147460937500e+01 1.012912178039550781e+01 -3.823232650756835938e-02 7.196187973022460938e+00 2.147386789321899414e+00 -6.339012980461120605e-01
1.791000000000000000e+03 7.674964904785156250e+01 1.681396293640136719e+01 3.787770494818687439e-02 7.259942531585693359e+00 2.189346075057983398e+00 -3.227684497833251953e-01
1.792000000000000000e+03 7.542003631591796875e+01 1.822797203063964844e+01 6.594826281070709229e-02 6.858836174011230469e+00 2.077435255050659180e+00 -3.940971195697784424e-01
1.793000000000000000e+03 7.540015411376953125e+01 2.094824409484863281e+01 6.376947462558746338e-02 6.681785106658935547e+00 2.023666381835937500e+00 -3.364808559417724609e-01
1.794000000000000000e+03 7.540939331054687500e+01 1.960085487365722656e+01 5.040178447961807251e-02 6.768859863281250000e+00 2.045778512954711914e+00 -3.667724430561065674e-01
1.795000000000000000e+03 7.408717346191406250e+01 1.827582740783691406e+01 9.011760354042053223e-02 6.561136245727539062e+00 1.995376110076904297e+00 -4.753284454345703125e-01
1.796000000000000000e+03 7.543277740478515625e+01 -2.986827468872070312e+01 -2.128909975290298462e-01 8.659097671508789062e+00 2.533862113952636719e+00 -2.450437247753143311e-01
1.797000000000000000e+03 7.426789093017578125e+01 -2.324924087524414062e+01 -5.006323456764221191e-01 8.733474731445312500e+00 2.469852685928344727e+00 -8.459708690643310547e-01
1.798000000000000000e+03 7.670234680175781250e+01 2.228388595581054688e+01 3.752114623785018921e-02 6.842688083648681641e+00 2.064062595367431641e+00 -2.329866439104080200e-01
1.799000000000000000e+03 7.521472167968750000e+01 -2.622399330139160156e+01 -3.112671077251434326e-01 8.623391151428222656e+00 2.493637323379516602e+00 -5.733318328857421875e-01
1.800000000000000000e+03 7.663483428955078125e+01 -2.621764564514160156e+01 -2.044644951820373535e-01 8.827625274658203125e+00 2.586948156356811523e+00 -5.376561880111694336e-01
1.801000000000000000e+03 7.531218719482421875e+01 -2.763004112243652344e+01 -2.952560782432556152e-01 8.657573699951171875e+00 2.508695363998413086e+00 -4.526036977767944336e-01
1.802000000000000000e+03 7.665900421142578125e+01 2.363857460021972656e+01 1.950060203671455383e-02 6.752195358276367188e+00 2.031508922576904297e+00 -2.111487388610839844e-01
1.803000000000000000e+03 7.387033843994140625e+01 2.480834579467773438e+01 7.997850328683853149e-02 6.209495544433593750e+00 1.886842131614685059e+00 -3.303197920322418213e-01
1.804000000000000000e+03 7.650598144531250000e+01 2.638792800903320312e+01 1.755994372069835663e-02 6.580551624298095703e+00 1.979433417320251465e+00 -1.802634447813034058e-01
1.805000000000000000e+03 7.513140106201171875e+01 2.626493263244628906e+01 5.201739445328712463e-02 6.360406875610351562e+00 1.923727393150329590e+00 -2.463832050561904907e-01
1.806000000000000000e+03 7.634244537353515625e+01 2.924251174926757812e+01 1.605650037527084351e-02 6.439932823181152344e+00 1.936796784400939941e+00 -1.469298899173736572e-01
1.807000000000000000e+03 7.500121307373046875e+01 2.768804359436035156e+01 4.090339690446853638e-02 6.275534629821777344e+00 1.894931435585021973e+00 -2.237543761730194092e-01
1.808000000000000000e+03 7.413772583007812500e+01 -3.553780364990234375e+01 -5.920814350247383118e-02 8.091848373413085938e+00 2.409792184829711914e+00 -7.777599245309829712e-02
1.809000000000000000e+03 7.610482025146484375e+01 -3.650929641723632812e+01 -8.030249923467636108e-02 9.007432937622070312e+00 2.678138971328735352e+00 1.640407927334308624e-02
1.810000000000000000e+03 7.384776306152343750e+01 -3.046257591247558594e+01 -3.086162507534027100e-01 8.156298637390136719e+00 2.354304790496826172e+00 -2.050476968288421631e-01
1.811000000000000000e+03 7.634420013427734375e+01 -3.157512664794921875e+01 -1.215552389621734619e-01 8.909294128417968750e+00 2.636321783065795898e+00 -1.591202914714813232e-01
1.812000000000000000e+03 7.551264953613281250e+01 -2.882300949096679688e+01 -2.404613345861434937e-01 8.684959411621093750e+00 2.533349514007568359e+00 -3.225098550319671631e-01
1.813000000000000000e+03 7.488232421875000000e+01 2.917477416992187500e+01 5.059729143977165222e-02 6.202971935272216797e+00 1.876070857048034668e+00 -1.997493803501129150e-01
1.814000000000000000e+03 7.629441070556640625e+01 3.065048408508300781e+01 2.393005788326263428e-02 6.397750377655029297e+00 1.926504015922546387e+00 -1.280343234539031982e-01
1.815000000000000000e+03 1.575560379028320312e+01 -9.628878593444824219e+00 4.743885397911071777e-01 -4.599830508232116699e-01 4.321654792875051498e-03 8.545156717300415039e-01
1.816000000000000000e+03 1.447946071624755859e+01 -9.101647377014160156e+00 6.791765689849853516e-01 1.126961857080459595e-01 2.375618219375610352e-01 1.189672946929931641e+00
1.817000000000000000e+03 1.475195598602294922e+01 -2.807257080078125000e+01 1.569979339838027954e-01 1.449791431427001953e+00 4.820367991924285889e-01 -5.277706384658813477e-01
1.818000000000000000e+03 1.837747955322265625e+01 -2.874167251586914062e+01 4.669007956981658936e-01 1.157432675361633301e+00 4.873000383377075195e-01 -7.209290862083435059e-01
1.819000000000000000e+03 5.386727333068847656e+00 -1.571990489959716797e+01 1.449271678924560547e+00 5.381591320037841797e-01 5.962292551994323730e-01 2.362215369939804077e-01
1.820000000000000000e+03 4.367462158203125000e+00 2.171669578552246094e+01 4.296243935823440552e-02 -7.915253043174743652e-01 -2.245688587427139282e-01 1.082728356122970581e-01
1.821000000000000000e+03 3.022089958190917969e+00 -1.766474723815917969e+01 3.268684446811676025e-01 -2.437888383865356445e+00 -6.333060264587402344e-01 7.094407677650451660e-01
1.822000000000000000e+03 4.534020900726318359e+00 -1.675396728515625000e+01 8.244781494140625000e-01 -4.709820449352264404e-01 1.060488373041152954e-01 5.547433495521545410e-01
1.823000000000000000e+03 4.452377796173095703e+00 -2.127426338195800781e+01 -8.453518897294998169e-02 -7.318394184112548828e-01 -2.449123859405517578e-01 1.004450798034667969e+00
1.824000000000000000e+03 3.157566547393798828e+00 2.037807846069335938e+01 2.585266530513763428e-02 -8.589938879013061523e-01 -2.499423623085021973e-01 9.980561584234237671e-02
1.825000000000000000e+03 7.082006931304931641e+00 -1.800155448913574219e+01 8.429137468338012695e-01 3.071834564208984375e+00 1.174424529075622559e+00 3.309329748153686523e-01
1.826000000000000000e+03 4.305407047271728516e+00 1.765210914611816406e+01 6.546153128147125244e-02 -6.943807601928710938e-01 -1.886757761240005493e-01 1.892241239547729492e-01
1.827000000000000000e+03 3.110919713973999023e+00 1.898974609375000000e+01 3.252277895808219910e-02 -8.192302584648132324e-01 -2.360122501850128174e-01 1.181137263774871826e-01
1.828000000000000000e+03 4.300505638122558594e+00 1.890698814392089844e+01 5.952823162078857422e-02 -7.374362945556640625e-01 -2.033724337816238403e-01 1.553710550069808960e-01
1.829000000000000000e+03 4.507771492004394531e+00 2.445442390441894531e+01 2.004537172615528107e-02 -8.311128616333007812e-01 -2.433202415704727173e-01 7.605430483818054199e-02
1.830000000000000000e+03 4.597011089324951172e+00 2.898709297180175781e+01 8.530186489224433899e-03 -8.910460472106933594e-01 -2.647547721862792969e-01 6.195466965436935425e-02
1.831000000000000000e+03 4.935908794403076172e+00 -2.789694213867187500e+01 -2.289893180131912231e-01 -5.452560782432556152e-01 -2.322736233472824097e-01 6.173099279403686523e-01
1.832000000000000000e+03 3.219923019409179688e+00 -2.286280250549316406e+01 -1.165829822421073914e-01 -1.771623134613037109e+00 -5.664618015289306641e-01 8.877630829811096191e-01
1.833000000000000000e+03 4.532298088073730469e+00 -2.261676979064941406e+01 -1.495765149593353271e-01 -6.737389564514160156e-01 -2.469946444034576416e-01 9.793828129768371582e-01
1.834000000000000000e+03 3.086292982101440430e+00 1.484168434143066406e+01 3.739152848720550537e-02 -6.462073922157287598e-01 -1.826447546482086182e-01 2.061037421226501465e-01
1.835000000000000000e+03 4.194182872772216797e+00 1.204983520507812500e+01 1.028470508754253387e-02 -4.490571618080139160e-01 -1.316317319869995117e-01 3.042478263378143311e-01
1.836000000000000000e+03 4.267081260681152344e+00 1.345096397399902344e+01 4.042536392807960510e-02 -5.231212377548217773e-01 -1.448087692260742188e-01 2.958524227142333984e-01
1.837000000000000000e+03 5.569056034088134766e+00 2.290624427795410156e+01 4.931937530636787415e-02 -7.218374609947204590e-01 -2.017554193735122681e-01 1.118163615465164185e-01
1.838000000000000000e+03 4.744462490081787109e+00 2.596713638305664062e+01 1.052510645240545273e-02 -8.334560394287109375e-01 -2.468792796134948730e-01 7.157574594020843506e-02
1.839000000000000000e+03 4.393501281738281250e+00 2.307406997680664062e+01 2.783537097275257111e-02 -8.210361003875732422e-01 -2.379602044820785522e-01 8.642445504665374756e-02
1.840000000000000000e+03 5.781395912170410156e+00 -2.502590942382812500e+01 -2.730963826179504395e-01 4.080864414572715759e-02 -6.968631595373153687e-02 7.449699044227600098e-01
1.841000000000000000e+03 4.553332328796386719e+00 -2.396071052551269531e+01 -2.256647646427154541e-01 -6.324992775917053223e-01 -2.574492096900939941e-01 8.913508653640747070e-01
1.842000000000000000e+03 3.265275239944458008e+00 -2.421540641784667969e+01 -1.132438480854034424e-01 -1.598239660263061523e+00 -5.134450197219848633e-01 8.191069364547729492e-01
1.843000000000000000e+03 3.817317724227905273e+00 -9.580305099487304688e+00 1.721035093069076538e-01 -8.329198956489562988e-01 -1.982449144124984741e-01 -1.742053866386413574e+00
1.844000000000000000e+03 2.658508300781250000e+00 -1.067854976654052734e+01 2.610327005386352539e-01 -2.373918771743774414e+00 -6.338658332824707031e-01 -1.368929862976074219e+00
1.845000000000000000e+03 6.785255908966064453e+00 -1.302951622009277344e+01 2.659317970275878906e+00 3.355003118515014648e+00 1.804296255111694336e+00 -1.034733295440673828e+00
1.846000000000000000e+03 3.823395729064941406e+00 -2.971215820312500000e+01 -1.345104128122329712e-01 -9.335047602653503418e-01 -3.204045593738555908e-01 4.942578971385955811e-01
1.847000000000000000e+03 5.270431518554687500e+00 -2.917943000793457031e+01 -2.292283326387405396e-01 -4.193035662174224854e-01 -1.945595741271972656e-01 5.581859350204467773e-01
1.848000000000000000e+03 6.943428039550781250e+00 1.304375457763671875e+01 8.331400156021118164e-02 -4.354246258735656738e-01 -1.056331843137741089e-01 4.081460237503051758e-01
1.849000000000000000e+03 4.630128383636474609e+00 3.169920921325683594e+01 1.107452437281608582e-02 -9.351845979690551758e-01 -2.772330045700073242e-01 5.033113434910774231e-02
1.850000000000000000e+03 5.693374633789062500e+00 3.498722076416015625e+01 2.187580242753028870e-02 -8.812740445137023926e-01 -2.578194737434387207e-01 4.778077080845832825e-02
1.851000000000000000e+03 3.465331792831420898e+00 3.539472961425781250e+01 1.909915544092655182e-02 -1.080654025077819824e+00 -3.184664547443389893e-01 2.019544690847396851e-02
1.852000000000000000e+03 4.097622871398925781e+00 -1.299819755554199219e+01 1.115425467491149902e+00 -1.243112444877624512e+00 -3.830607607960700989e-02 -9.580438733100891113e-01
1.853000000000000000e+03 3.711126565933227539e+00 -1.074757575988769531e+01 3.534259498119354248e-01 -1.126519322395324707e+00 -2.319279909133911133e-01 -1.624144554138183594e+00
1.854000000000000000e+03 4.019725799560546875e+00 1.070824146270751953e+01 -1.338942348957061768e-02 -3.848997056484222412e-01 -1.194867417216300964e-01 2.909078001976013184e-01
1.855000000000000000e+03 5.901599407196044922e+00 -6.646491527557373047e+00 -6.373637914657592773e-01 7.968057394027709961e-01 4.783259332180023193e-02 -1.459133386611938477e+00
1.856000000000000000e+03 7.838232040405273438e+00 -3.102191352844238281e+01 -2.881470620632171631e-01 2.484826743602752686e-01 -1.189931668341159821e-02 3.643493652343750000e-01
1.857000000000000000e+03 5.712096214294433594e+00 -3.049758720397949219e+01 -2.237649708986282349e-01 -3.122509419918060303e-01 -1.608047783374786377e-01 4.699785113334655762e-01
1.858000000000000000e+03 4.153910160064697266e+00 -3.113146591186523438e+01 -1.431832462549209595e-01 -7.653266191482543945e-01 -2.725529670715332031e-01 4.422675371170043945e-01
1.859000000000000000e+03 4.641533851623535156e+00 3.311137008666992188e+01 1.434226986020803452e-02 -9.452527761459350586e-01 -2.792731523513793945e-01 4.555901512503623962e-02
1.860000000000000000e+03 4.378912925720214844e+00 3.454718399047851562e+01 1.714497245848178864e-02 -9.913380742073059082e-01 -2.922579348087310791e-01 4.304969310760498047e-02
1.861000000000000000e+03 4.556590080261230469e+00 3.033757019042968750e+01 1.468633115291595459e-02 -9.170579910278320312e-01 -2.707115113735198975e-01 5.542175844311714172e-02
1.862000000000000000e+03 1.373467731475830078e+01 -2.669351005554199219e+01 1.983007788658142090e-01 1.592926025390625000e+00 5.373680591583251953e-01 -6.385062336921691895e-01
1.863000000000000000e+03 3.918529272079467773e+00 8.258486747741699219e+00 -5.955104157328605652e-02 -2.483080029487609863e-01 -9.235771000385284424e-02 2.473229914903640747e-01
1.864000000000000000e+03 3.611208438873291016e+00 -5.211412906646728516e+00 -3.899204730987548828e-01 -4.795849621295928955e-01 -2.608516216278076172e-01 -1.255022287368774414e+00
1.865000000000000000e+03 2.673956632614135742e+00 -6.955591678619384766e+00 -1.700237095355987549e-01 -1.244384884834289551e+00 -4.243225753307342529e-01 -1.339030504226684570e+00
1.866000000000000000e+03 3.481410026550292969e+00 5.555803298950195312e+00 -6.946673244237899780e-02 -1.204535886645317078e-01 -5.697609856724739075e-02 1.446680873632431030e-01
1.867000000000000000e+03 4.842749595642089844e+00 4.891462326049804688e+00 -1.252709925174713135e-01 -9.760732203722000122e-02 -6.686349958181381226e-02 1.715151071548461914e-01
1.868000000000000000e+03 6.575435638427734375e+01 -2.450889778137207031e+01 -4.708272814750671387e-01 5.656052112579345703e+00 1.555567383766174316e+00 1.040942907333374023e+00
1.869000000000000000e+03 4.320223808288574219e+00 -3.531727981567382812e+01 -1.092958375811576843e-01 -6.343242526054382324e-01 -2.230860292911529541e-01 2.756772339344024658e-01
1.870000000000000000e+03 5.517816543579101562e+01 -8.109600067138671875e+00 -2.179463386535644531e+00 4.032191261649131775e-02 -6.417424082756042480e-01 -4.897630810737609863e-01
1.871000000000000000e+03 5.819065093994140625e+01 -7.530906200408935547e+00 -2.743552684783935547e+00 -1.612311005592346191e-01 -8.714351058006286621e-01 -7.861357331275939941e-01
1.872000000000000000e+03 5.560633087158203125e+01 -3.199553680419921875e+01 8.015494793653488159e-02 4.702364802360534668e-01 1.651174277067184448e-01 1.278910189867019653e-01
1.873000000000000000e+03 4.317575073242187500e+01 -1.426224136352539062e+01 -1.277310013771057129e+00 4.283899068832397461e-02 -3.703413009643554688e-01 -2.960287034511566162e-01
1.874000000000000000e+03 5.299097061157226562e+01 -9.416611671447753906e+00 -1.902055263519287109e+00 3.368236497044563293e-02 -5.605118870735168457e-01 -4.782239496707916260e-01
1.875000000000000000e+03 5.333468246459960938e+01 -3.286936187744140625e+01 1.402068436145782471e-01 1.329431980848312378e-01 8.194500952959060669e-02 -1.033431366086006165e-01
1.876000000000000000e+03 7.268518924713134766e+00 -1.616838073730468750e+01 1.728136301040649414e+00 3.838761329650878906e+00 1.670069217681884766e+00 1.090687289834022522e-01
1.877000000000000000e+03 6.204561614990234375e+01 -3.298944711685180664e+00 -9.464657902717590332e-01 4.896540343761444092e-01 -1.370435208082199097e-01 -1.057258248329162598e+00
1.878000000000000000e+03 4.908323287963867188e+01 2.697135686874389648e+00 -2.126230299472808838e-02 1.541129648685455322e-01 3.985520079731941223e-02 3.077550530433654785e-01
1.879000000000000000e+03 4.802859878540039062e+01 3.556756734848022461e+00 2.665581740438938141e-02 9.963704645633697510e-02 3.788786008954048157e-02 2.421102076768875122e-01
1.880000000000000000e+03 8.729239463806152344e+00 -2.122642135620117188e+01 2.096822112798690796e-02 2.802529573440551758e+00 8.470493555068969727e-01 -2.092892080545425415e-01
1.881000000000000000e+03 2.174793815612792969e+01 -3.090623092651367188e+01 3.914611637592315674e-01 7.657864689826965332e-01 3.471742868423461914e-01 -5.621547102928161621e-01
1.882000000000000000e+03 5.381058120727539062e+01 4.770431041717529297e+00 2.131448686122894287e-01 8.573487401008605957e-01 3.211480677127838135e-01 3.284266591072082520e-01
1.883000000000000000e+03 5.608263778686523438e+01 2.922523975372314453e+00 -3.997705411165952682e-03 1.117748975753784180e+00 3.341253995895385742e-01 2.624684944748878479e-02
1.884000000000000000e+03 1.364112758636474609e+01 -9.305669784545898438e+00 5.314019322395324707e-01 4.834169745445251465e-01 3.044456839561462402e-01 1.213696002960205078e+00
1.885000000000000000e+03 1.274891757965087891e+01 -9.232101440429687500e+00 5.594184398651123047e-01 1.084289193153381348e+00 4.931122958660125732e-01 1.136688828468322754e+00
1.886000000000000000e+03 4.290307998657226562e+01 6.701660156250000000e+00 -1.724090576171875000e-01 6.892139315605163574e-01 1.550414562225341797e-01 1.236976012587547302e-01
1.887000000000000000e+03 4.253796768188476562e+01 4.486129760742187500e+00 -2.159017920494079590e-01 5.528763532638549805e-01 1.010923758149147034e-01 2.046603262424468994e-01
1.888000000000000000e+03 1.065152645111083984e+01 1.198896789550781250e+01 1.222676560282707214e-01 -3.188191652297973633e-01 -5.896545201539993286e-02 5.563498139381408691e-01
1.889000000000000000e+03 1.162640476226806641e+01 1.333535289764404297e+01 3.005786538124084473e-01 -2.668357789516448975e-01 1.012285612523555756e-02 4.890216588973999023e-01
1.890000000000000000e+03 4.164390182495117188e+01 8.131391525268554688e+00 -1.456284970045089722e-01 1.011184692382812500e+00 2.596668601036071777e-01 2.548550963401794434e-01
1.891000000000000000e+03 5.838938140869140625e+01 1.188751792907714844e+01 6.449792385101318359e-01 3.113663673400878906e+00 1.127592921257019043e+00 -5.284333825111389160e-01
1.892000000000000000e+03 3.200199890136718750e+01 -3.552452087402343750e+01 3.051953315734863281e-01 1.382418274879455566e-01 1.330311447381973267e-01 -1.197818145155906677e-01
1.893000000000000000e+03 6.261888504028320312e+01 -2.627313423156738281e+01 -2.756216824054718018e-01 3.087235927581787109e+00 8.434842824935913086e-01 9.134556055068969727e-01
1.894000000000000000e+03 5.885265350341796875e+01 -3.049955177307128906e+01 -3.377918899059295654e-02 1.446472764015197754e+00 4.238080680370330811e-01 4.647511541843414307e-01
1.895000000000000000e+03 4.540023422241210938e+01 -3.778211975097656250e+01 4.766231775283813477e-01 -2.285970002412796021e-01 7.440784573554992676e-02 -1.499089598655700684e-01
1.896000000000000000e+03 3.792759704589843750e+01 -3.494882965087890625e+01 2.826299071311950684e-01 -2.085991017520427704e-02 7.853100448846817017e-02 -8.018817007541656494e-02
1.897000000000000000e+03 3.827326202392578125e+01 -4.096834182739257812e+01 3.851938247680664062e-01 -6.608445942401885986e-02 9.573280811309814453e-02 -1.983463205397129059e-02
1.898000000000000000e+03 2.699349975585937500e+01 1.465066814422607422e+01 -3.799984157085418701e-01 1.733495853841304779e-02 -1.087990403175354004e-01 3.485184907913208008e-01
1.899000000000000000e+03 5.568627929687500000e+01 -3.600564575195312500e+01 5.491532683372497559e-01 8.743442296981811523e-01 4.270492494106292725e-01 1.230117231607437134e-01
1.900000000000000000e+03 6.503104400634765625e+01 -3.481847524642944336e+00 -1.000621199607849121e+00 2.733710050582885742e+00 5.199266672134399414e-01 -3.384452581405639648e+00
1.901000000000000000e+03 6.464342498779296875e+01 -4.742064476013183594e+00 -9.941056966781616211e-01 6.246488690376281738e-01 -1.108370497822761536e-01 -2.646771669387817383e+00
1.902000000000000000e+03 7.124098968505859375e+01 -9.334277153015136719e+00 2.619852066040039062e+00 1.260805892944335938e+01 4.568373203277587891e+00 1.216931700706481934e+00
1.903000000000000000e+03 7.103251647949218750e+01 -8.147250175476074219e+00 1.508610248565673828e+00 1.336328983306884766e+01 4.461570262908935547e+00 1.091343879699707031e+00
1.904000000000000000e+03 5.201493072509765625e+01 -3.632819366455078125e+01 5.495633482933044434e-01 1.003879085183143616e-01 1.949853748083114624e-01 -7.984265685081481934e-02
1.905000000000000000e+03 7.269621276855468750e+01 -1.778401565551757812e+01 -3.142172470688819885e-02 1.020786094665527344e+01 3.052931785583496094e+00 -9.934124350547790527e-01
1.906000000000000000e+03 7.153947448730468750e+01 -1.531160926818847656e+01 9.423980712890625000e-01 1.205142498016357422e+01 3.898146867752075195e+00 -5.813434720039367676e-01
1.907000000000000000e+03 4.367558288574218750e+01 5.513614177703857422e+00 -1.628770828247070312e-01 5.080278515815734863e-01 1.035452336072921753e-01 8.134735375642776489e-02
1.908000000000000000e+03 6.949192810058593750e+01 -5.845430374145507812e+00 -1.542679429054260254e+00 1.256356430053710938e+01 3.306265354156494141e+00 -8.894312381744384766e-01
1.909000000000000000e+03 6.764057159423828125e+01 -3.056936025619506836e+00 -2.150128841400146484e+00 7.365485191345214844e+00 1.564606904983520508e+00 -2.826890707015991211e+00
1.910000000000000000e+03 1.053628921508789062e+01 -2.345699310302734375e+01 1.461284235119819641e-02 2.351630449295043945e+00 7.098729610443115234e-01 -5.223029851913452148e-01
1.911000000000000000e+03 5.933397674560546875e+01 1.408013534545898438e+01 7.150595784187316895e-01 3.388082265853881836e+00 1.230942606925964355e+00 -6.657671332359313965e-01
1.912000000000000000e+03 6.870532226562500000e+01 -1.787837982177734375e+01 1.566339135169982910e-01 1.126249980926513672e+01 3.425740242004394531e+00 1.411755919456481934e+00
1.913000000000000000e+03 7.348712921142578125e+01 -1.640869522094726562e+01 5.363056659698486328e-01 1.006952381134033203e+01 3.181748867034912109e+00 -1.132335901260375977e+00
1.914000000000000000e+03 6.149892044067382812e+01 -4.273616790771484375e+00 -1.753252983093261719e+00 1.827329695224761963e-01 -4.711560010910034180e-01 -8.218976259231567383e-01
1.915000000000000000e+03 6.024583053588867188e+01 -3.518819808959960938e+00 -1.194472670555114746e+00 2.477130144834518433e-01 -2.840279042720794678e-01 -5.373973846435546875e-01
1.916000000000000000e+03 6.875131225585937500e+01 -1.988173103332519531e+01 -4.179847240447998047e-01 9.626585960388183594e+00 2.762580394744873047e+00 8.925210833549499512e-01
1.917000000000000000e+03 1.708472824096679688e+01 -9.819972038269042969e+00 3.199576437473297119e-01 -8.618382215499877930e-01 -1.625641733407974243e-01 8.368319869041442871e-01
1.918000000000000000e+03 7.108679199218750000e+01 -1.900115013122558594e+01 -3.844675123691558838e-01 1.014977169036865234e+01 2.929591417312622070e+00 -5.370250940322875977e-01
1.919000000000000000e+03 5.146067810058593750e+01 2.243882369995117188e+01 6.902766823768615723e-01 1.231193423271179199e+00 5.764410495758056641e-01 -3.746328949928283691e-01
1.920000000000000000e+03 4.560054016113281250e+01 2.350054168701171875e+01 5.537589788436889648e-01 1.096580743789672852e+00 4.951019287109375000e-01 4.096556901931762695e-01
1.921000000000000000e+03 2.310722351074218750e+01 -1.371709108352661133e+00 -6.771864295005798340e-01 4.595578312873840332e-01 -6.528857350349426270e-02 3.927406072616577148e-01
1.922000000000000000e+03 2.196695137023925781e+01 2.238243579864501953e+00 -3.040763735771179199e-01 3.259810507297515869e-01 6.571406032890081406e-03 4.409955739974975586e-01
1.923000000000000000e+03 8.024780273437500000e+00 -1.743821716308593750e+01 1.092328667640686035e+00 4.316071033477783203e+00 1.622519850730895996e+00 1.014051809906959534e-01
1.924000000000000000e+03 7.424075603485107422e+00 -1.926933860778808594e+01 3.199272453784942627e-01 2.655386209487915039e+00 8.925940394401550293e-01 3.288729786872863770e-01
1.925000000000000000e+03 2.295866584777832031e+01 1.834325027465820312e+01 1.117694899439811707e-01 -3.919504880905151367e-01 -8.405429869890213013e-02 4.666974544525146484e-01
1.926000000000000000e+03 2.603789901733398438e+01 3.489938974380493164e+00 -7.729656249284744263e-02 7.374846935272216797e-01 1.980564445257186890e-01 3.469260632991790771e-01
1.927000000000000000e+03 2.439583778381347656e+01 2.187811374664306641e+00 -3.192970156669616699e-01 6.775933504104614258e-01 1.074889004230499268e-01 3.587683439254760742e-01
1.928000000000000000e+03 5.971586608886718750e+01 1.126755809783935547e+01 5.541395545005798340e-01 3.277802228927612305e+00 1.149582505226135254e+00 -6.934019327163696289e-01
1.929000000000000000e+03 6.020112228393554688e+01 1.234069824218750000e+01 6.474577784538269043e-01 3.336903572082519531e+00 1.195308446884155273e+00 -7.348127365112304688e-01
1.930000000000000000e+03 4.201660156250000000e+01 7.196001052856445312e+00 -1.942625939846038818e-01 8.544143438339233398e-01 1.980455219745635986e-01 1.976381987333297729e-01
1.931000000000000000e+03 2.085303497314453125e+01 2.152898788452148438e+01 2.190057337284088135e-01 -1.144852340221405029e-01 3.135614842176437378e-02 5.477139949798583984e-01
1.932000000000000000e+03 2.160085868835449219e+01 2.025343513488769531e+01 2.419355064630508423e-01 -1.848949193954467773e-01 1.711217500269412994e-02 5.381433367729187012e-01
1.933000000000000000e+03 7.192678070068359375e+01 -1.153275299072265625e+01 2.730442762374877930e+00 1.249819660186767578e+01 4.568591594696044922e+00 9.211897850036621094e-02
1.934000000000000000e+03 2.519482231140136719e+01 1.891947364807128906e+01 1.463408917188644409e-01 -2.100234478712081909e-01 -1.910476945340633392e-02 3.052736222743988037e-01
1.935000000000000000e+03 1.930521965026855469e+01 -3.514059829711914062e+01 -8.352594822645187378e-02 8.910830020904541016e-01 2.422671169042587280e-01 -2.948250472545623779e-01
1.936000000000000000e+03 1.193657779693603516e+01 1.713147354125976562e+01 3.439646363258361816e-01 -1.710967719554901123e-01 5.186036229133605957e-02 2.593242526054382324e-01
1.937000000000000000e+03 7.256392669677734375e+01 -1.442902374267578125e+01 1.379297256469726562e+00 1.087707328796386719e+01 3.676911115646362305e+00 -8.748164772987365723e-01
1.938000000000000000e+03 5.933597946166992188e+01 2.176938629150390625e+01 3.591240644454956055e-01 3.477654218673706055e+00 1.151033520698547363e+00 -5.758696794509887695e-01
1.939000000000000000e+03 5.439656066894531250e+01 2.161209106445312500e+01 4.656914770603179932e-01 2.068215370178222656e+00 7.601720690727233887e-01 -7.378460764884948730e-01
1.940000000000000000e+03 5.129426956176757812e+01 2.403428649902343750e+01 7.128491401672363281e-01 1.431484580039978027e+00 6.433001160621643066e-01 -2.757323384284973145e-01
1.941000000000000000e+03 3.714032745361328125e+01 1.354793548583984375e+01 3.247272968292236328e-01 9.706655740737915039e-01 3.886178731918334961e-01 5.557041764259338379e-01
1.942000000000000000e+03 7.257410430908203125e+01 -9.052963256835937500e+00 1.871611475944519043e+00 1.125736999511718750e+01 3.938694477081298828e+00 1.016259789466857910e+00
1.943000000000000000e+03 2.987489318847656250e+01 8.740358352661132812e+00 1.597548276185989380e-01 4.473390877246856689e-01 1.821281611919403076e-01 7.207886576652526855e-01
1.944000000000000000e+03 2.814290618896484375e+01 1.040024185180664062e+01 1.538343448191881180e-02 3.160256743431091309e-01 9.942273050546646118e-02 7.603744864463806152e-01
1.945000000000000000e+03 2.794727706909179688e+01 1.796945381164550781e+01 2.650396898388862610e-02 1.073803082108497620e-01 4.016528278589248657e-02 2.455095350742340088e-01
1.946000000000000000e+03 4.515609741210937500e+01 2.174755668640136719e+01 4.211328923702239990e-01 1.098456621170043945e+00 4.558768570423126221e-01 5.661308765411376953e-01
1.947000000000000000e+03 4.028318786621093750e+01 1.159355640411376953e+01 2.619267404079437256e-01 1.399672627449035645e+00 4.984798133373260498e-01 5.906728506088256836e-01
1.948000000000000000e+03 2.534664344787597656e+01 -1.007030200958251953e+01 -3.043019175529479980e-01 2.181040763854980469e+00 5.630216598510742188e-01 3.930160105228424072e-01
1.949000000000000000e+03 2.661222839355468750e+01 -1.233859252929687500e+01 2.035560131072998047e+00 2.269965648651123047e+00 1.291657686233520508e+00 1.914367198944091797e+00
1.950000000000000000e+03 2.650309371948242188e+01 -1.126581764221191406e+01 5.033468008041381836e-01 2.459916591644287109e+00 8.889789581298828125e-01 1.452519655227661133e+00
1.951000000000000000e+03 2.694656181335449219e+01 -1.229002285003662109e+01 1.956771254539489746e+00 1.672265887260437012e+00 1.088711142539978027e+00 1.715714812278747559e+00
1.952000000000000000e+03 2.611335945129394531e+01 -1.449535179138183594e+01 2.476110219955444336e+00 2.259007215499877930e+00 1.420535326004028320e+00 -1.370512723922729492e+00
1.953000000000000000e+03 2.729868888854980469e+01 -1.192968845367431641e+01 1.429620742797851562e+00 1.484571695327758789e+00 8.742577433586120605e-01 1.571836948394775391e+00
1.954000000000000000e+03 2.735207557678222656e+01 -1.335804557800292969e+01 2.562047958374023438e+00 5.191119909286499023e-01 9.243479967117309570e-01 4.921438097953796387e-01
1.955000000000000000e+03 2.778246116638183594e+01 -1.333373832702636719e+01 2.007503509521484375e+00 2.649800181388854980e-01 6.817450523376464844e-01 3.435564637184143066e-01
1.956000000000000000e+03 2.800157737731933594e+01 -1.595848464965820312e+01 -2.242920398712158203e+00 3.587406873703002930e-01 -5.652539134025573730e-01 -1.089771628379821777e+00
1.957000000000000000e+03 2.114489936828613281e+01 -1.243388748168945312e+01 7.926109433174133301e-01 -1.935330986976623535e+00 -3.428160250186920166e-01 6.331214904785156250e-01
1.958000000000000000e+03 2.051586914062500000e+01 -1.303464031219482422e+01 3.257597088813781738e-01 -2.078762054443359375e+00 -5.259007215499877930e-01 1.107728958129882812e+00
1.959000000000000000e+03 2.225635528564453125e+01 -1.469205093383789062e+01 -2.456511855125427246e-01 -2.330146551132202148e+00 -7.727393507957458496e-01 2.479283332824707031e+00
1.960000000000000000e+03 2.233023262023925781e+01 -1.316633033752441406e+01 1.766824722290039062e+00 -2.118855953216552734e+00 -1.056093722581863403e-01 5.110641121864318848e-01
1.961000000000000000e+03 2.221359443664550781e+01 -1.285871696472167969e+01 1.479214906692504883e+00 -1.931861281394958496e+00 -1.357938796281814575e-01 3.623880445957183838e-01
1.962000000000000000e+03 2.160826683044433594e+01 -1.323734664916992188e+01 1.154690742492675781e+00 -2.202997922897338867e+00 -3.144921660423278809e-01 9.142585396766662598e-01
1.963000000000000000e+03 2.693541717529296875e+01 -1.358972835540771484e+01 3.241972684860229492e+00 7.531709671020507812e-01 1.198543071746826172e+00 3.397933542728424072e-01
1.964000000000000000e+03 2.696338653564453125e+01 -1.441321372985839844e+01 1.827586650848388672e+00 6.165493726730346680e-01 7.332407832145690918e-01 -9.227059483528137207e-01
1.965000000000000000e+03 2.639436149597167969e+01 -1.540808963775634766e+01 -1.143175363540649414e+00 1.699005126953125000e+00 1.667488962411880493e-01 -1.311345219612121582e+00
1.966000000000000000e+03 2.573383903503417969e+01 -9.391914367675781250e+00 -3.776097297668457031e-01 1.855554938316345215e+00 4.433835446834564209e-01 5.598968863487243652e-01
1.967000000000000000e+03 2.884366607666015625e+01 -1.595299816131591797e+01 -2.111885070800781250e+00 1.466089636087417603e-01 -5.895828604698181152e-01 -9.554105997085571289e-01
1.968000000000000000e+03 2.845695686340332031e+01 -1.534994888305664062e+01 -8.600935935974121094e-01 1.487462222576141357e-01 -2.134042084217071533e-01 -1.208413958549499512e+00
1.969000000000000000e+03 1.902059936523437500e+01 -1.223347473144531250e+01 1.591066122055053711e-01 -1.442754149436950684e+00 -3.850942552089691162e-01 8.397443890571594238e-01
1.970000000000000000e+03 2.559569168090820312e+01 -8.738262176513671875e+00 -4.671410620212554932e-01 1.608689665794372559e+00 3.424645960330963135e-01 5.183279514312744141e-01
1.971000000000000000e+03 2.570561027526855469e+01 -7.217321872711181641e+00 -6.111451983451843262e-01 1.255048036575317383e+00 1.931708455085754395e-01 5.385405421257019043e-01
1.972000000000000000e+03 6.844111442565917969e+00 4.631340980529785156e+00 -2.260323315858840942e-01 -8.989840000867843628e-02 -9.477921575307846069e-02 2.250648438930511475e-01
1.973000000000000000e+03 1.908599853515625000e+01 1.212199687957763672e+00 -4.246841371059417725e-01 -3.440455198287963867e-01 -2.306188941001892090e-01 5.447692275047302246e-01
1.974000000000000000e+03 1.974009323120117188e+01 5.102170705795288086e-01 -4.818325340747833252e-01 -2.039533406496047974e-01 -2.057357579469680786e-01 5.098968744277954102e-01
1.975000000000000000e+03 3.520108938217163086e+00 4.203283309936523438e+00 -8.055970072746276855e-02 -7.422275841236114502e-02 -4.643473774194717407e-02 1.037820801138877869e-01
1.976000000000000000e+03 4.837037086486816406e+00 4.051518440246582031e+00 -1.278923600912094116e-01 -6.257098168134689331e-02 -5.713900551199913025e-02 1.301714628934860229e-01
1.977000000000000000e+03 2.693273162841796875e+01 -1.479277706146240234e+01 5.873155593872070312e-01 7.579820156097412109e-01 4.035892784595489502e-01 -1.213391184806823730e+00
1.978000000000000000e+03 6.891240119934082031e+00 3.960103511810302734e+00 -2.196905463933944702e-01 -7.267139852046966553e-02 -8.770858496427536011e-02 1.980141252279281616e-01
1.979000000000000000e+03 3.017045021057128906e+01 -1.487840938568115234e+01 -7.254570722579956055e-01 -1.929004788398742676e-01 -2.755072712898254395e-01 -6.785639524459838867e-01
1.980000000000000000e+03 7.585326671600341797e+00 4.023163318634033203e+00 -2.627736330032348633e-01 -7.330713421106338501e-02 -1.008242294192314148e-01 2.134136110544204712e-01
1.981000000000000000e+03 8.318621635437011719e+00 4.079558372497558594e+00 -2.965285778045654297e-01 -9.325800836086273193e-02 -1.169359758496284485e-01 2.402931600809097290e-01
1.982000000000000000e+03 8.249976158142089844e+00 4.879944324493408203e+00 -2.976576387882232666e-01 -1.075879186391830444e-01 -1.215736642479896545e-01 2.743284106254577637e-01
1.983000000000000000e+03 4.933748245239257812e+00 -4.364292144775390625e+00 -6.966263055801391602e-01 6.103202234953641891e-03 -2.071569412946701050e-01 -1.179831027984619141e+00
1.984000000000000000e+03 4.763404846191406250e+00 -3.761873483657836914e+00 -6.985508799552917480e-01 -8.983406238257884979e-03 -2.122602760791778564e-01 -1.054418087005615234e+00
1.985000000000000000e+03 3.311744928359985352e+00 -4.555205821990966797e+00 -3.931679427623748779e-01 -4.817318320274353027e-01 -2.624699175357818604e-01 -1.082272171974182129e+00
1.986000000000000000e+03 1.394788265228271484e+01 -5.810927867889404297e+00 -8.031670451164245605e-01 2.685073316097259521e-01 -1.603979319334030151e-01 9.901576042175292969e-01
1.987000000000000000e+03 1.435627079010009766e+01 -7.101815700531005859e+00 -3.519494533538818359e-01 1.967255175113677979e-01 -4.656717553734779358e-02 1.097751140594482422e+00
1.988000000000000000e+03 1.525461483001708984e+01 -8.692491531372070312e+00 3.398895561695098877e-01 -3.031678497791290283e-01 1.101651322096586227e-02 1.054042220115661621e+00
1.989000000000000000e+03 6.263400077819824219e+00 -4.924231052398681641e+00 -8.974186778068542480e-01 5.478101372718811035e-01 -1.048825755715370178e-01 -1.134341359138488770e+00
1.990000000000000000e+03 5.349509716033935547e+00 -3.571362972259521484e+00 -8.696268796920776367e-01 1.324449479579925537e-01 -2.211545705795288086e-01 -9.813638925552368164e-01
1.991000000000000000e+03 1.146849727630615234e+01 -7.628834724426269531e+00 -3.056242465972900391e-01 1.590259671211242676e+00 3.853906393051147461e-01 7.927730679512023926e-01
1.992000000000000000e+03 7.658800601959228516e+00 -4.138166904449462891e+00 -1.212031960487365723e+00 6.940860748291015625e-01 -1.553837656974792480e-01 -6.875476241111755371e-01
1.993000000000000000e+03 5.645214557647705078e+00 -4.883738040924072266e+00 -8.277431726455688477e-01 3.497055172920227051e-01 -1.434113085269927979e-01 -1.178313493728637695e+00
1.994000000000000000e+03 9.988271713256835938e+00 -5.450837135314941406e+00 -1.189169764518737793e+00 1.311545014381408691e+00 3.671256452798843384e-02 -8.929356001317501068e-03
1.995000000000000000e+03 1.105547714233398438e+01 -8.435036659240722656e+00 -1.706744283437728882e-01 2.106482267379760742e+00 5.807423591613769531e-01 9.332063794136047363e-01
1.996000000000000000e+03 2.385959815979003906e+01 9.564738273620605469e-01 -4.814267158508300781e-01 5.986398458480834961e-01 3.516393154859542847e-02 3.812336027622222900e-01
1.997000000000000000e+03 2.435468292236328125e+01 -5.473875999450683594e+00 -7.042328715324401855e-01 8.023786544799804688e-01 2.944373711943626404e-02 4.042067527770996094e-01
1.998000000000000000e+03 1.157021999359130859e+01 3.917114019393920898e+00 -4.429838657379150391e-01 -2.639984488487243652e-01 -2.120946943759918213e-01 3.113243877887725830e-01
1.999000000000000000e+03 9.064125061035156250e+00 4.916236400604248047e+00 -3.381444215774536133e-01 -1.343385875225067139e-01 -1.417449116706848145e-01 3.060049414634704590e-01
2.000000000000000000e+03 1.315714168548583984e+01 3.666733741760253906e+00 -4.590815901756286621e-01 -4.124676287174224854e-01 -2.614647746086120605e-01 3.585793077945709229e-01
2.001000000000000000e+03 1.394928264617919922e+01 -6.448540687561035156e+00 -5.374786853790283203e-01 3.284021317958831787e-01 -6.272297352552413940e-02 1.022351145744323730e+00
2.002000000000000000e+03 8.820057868957519531e+00 -5.021216392517089844e+00 -1.235431551933288574e+00 1.175888776779174805e+00 -1.786282658576965332e-02 -4.504826664924621582e-01
2.003000000000000000e+03 2.366082572937011719e+01 -4.008135795593261719e+00 -7.530822753906250000e-01 5.883119106292724609e-01 -4.943111911416053772e-02 3.957103788852691650e-01
2.004000000000000000e+03 2.352413940429687500e+01 -2.154140233993530273e+00 -7.213073968887329102e-01 5.335744619369506836e-01 -5.631988868117332458e-02 3.996285498142242432e-01
2.005000000000000000e+03 1.349248409271240234e+01 -8.441590309143066406e+00 3.592898547649383545e-01 5.977345108985900879e-01 2.871073186397552490e-01 1.160189032554626465e+00
2.006000000000000000e+03 1.164506912231445312e+01 4.753937244415283203e+00 -4.596836268901824951e-01 -2.776027619838714600e-01 -2.211859226226806641e-01 3.336260616779327393e-01
2.007000000000000000e+03 1.822966194152832031e+01 -9.716050148010253906e+00 2.138890624046325684e-01 -1.184257030487060547e+00 -2.911103963851928711e-01 8.222076892852783203e-01
2.008000000000000000e+03 4.259179687500000000e+01 5.574514865875244141e+00 -1.986113488674163818e-01 6.413894295692443848e-01 1.328334212303161621e-01 1.727202087640762329e-01
2.009000000000000000e+03 4.350934600830078125e+01 4.398838996887207031e+00 -1.797987222671508789e-01 4.679730534553527832e-01 8.645229786634445190e-02 1.458402127027511597e-01
2.010000000000000000e+03 5.131247520446777344e+00 1.064272022247314453e+01 -2.444032765924930573e-02 -3.562496006488800049e-01 -1.142069771885871887e-01 3.522803783416748047e-01
2.011000000000000000e+03 1.090811347961425781e+01 9.715893745422363281e+00 -1.462506800889968872e-01 -2.888779640197753906e-01 -1.305385977029800415e-01 5.680637955665588379e-01
2.012000000000000000e+03 4.740076065063476562e+01 2.263653993606567383e+00 -1.102997064590454102e-01 1.702807247638702393e-01 1.799430698156356812e-02 2.546857893466949463e-01
2.013000000000000000e+03 6.124437332153320312e+01 -1.537317156791687012e+00 -4.816739559173583984e-01 1.006052494049072266e+00 1.573135554790496826e-01 -9.406536221504211426e-01
2.014000000000000000e+03 6.077144622802734375e+01 -2.575533151626586914e+00 -9.429933428764343262e-01 5.819259285926818848e-01 -1.083202287554740906e-01 -7.780941724777221680e-01
2.015000000000000000e+03 2.538987922668457031e+01 2.412771701812744141e+00 -2.703939676284790039e-01 7.482567429542541504e-01 1.433588266372680664e-01 3.472311496734619141e-01
2.016000000000000000e+03 2.545938110351562500e+01 4.194576263427734375e+00 5.800726637244224548e-02 7.388046383857727051e-01 2.390435785055160522e-01 3.207456469535827637e-01
2.017000000000000000e+03 8.975161552429199219e+00 -4.269964694976806641e+00 -1.342071056365966797e+00 8.870835304260253906e-01 -1.364962458610534668e-01 -2.913866043090820312e-01
2.018000000000000000e+03 1.313423252105712891e+01 7.378080844879150391e+00 -5.041404962539672852e-01 -4.596621990203857422e-01 -2.891407907009124756e-01 4.351661801338195801e-01
2.019000000000000000e+03 1.204526424407958984e+01 8.600318908691406250e+00 -3.272652328014373779e-01 -3.348884880542755127e-01 -1.986461132764816284e-01 5.144451260566711426e-01
2.020000000000000000e+03 1.187599945068359375e+01 -8.912256240844726562e+00 4.887206852436065674e-01 1.574024677276611328e+00 6.188235878944396973e-01 1.125026345252990723e+00
2.021000000000000000e+03 3.427772521972656250e+01 -1.423201656341552734e+01 -9.058340787887573242e-01 -6.451211124658584595e-02 -2.911038696765899658e-01 -3.120262920856475830e-01
2.022000000000000000e+03 3.937308120727539062e+01 7.890079021453857422e+00 -8.170823007822036743e-02 9.759566783905029297e-01 2.682745456695556641e-01 5.310585498809814453e-01
2.023000000000000000e+03 5.989167404174804688e+01 1.523962116241455078e+01 6.794310212135314941e-01 3.470920801162719727e+00 1.245105504989624023e+00 -5.873782634735107422e-01
2.024000000000000000e+03 2.345028877258300781e+01 -2.269348204135894775e-01 -5.965530872344970703e-01 5.261919498443603516e-01 -2.110834605991840363e-02 3.928480446338653564e-01
2.025000000000000000e+03 5.178659820556640625e+01 1.717329144477844238e+00 -1.053197458386421204e-01 3.828519880771636963e-01 8.325967192649841309e-02 3.604221642017364502e-01
2.026000000000000000e+03 5.448433685302734375e+01 3.623849868774414062e+00 7.771877944469451904e-02 9.134706258773803711e-01 2.973568141460418701e-01 2.283837199211120605e-01
2.027000000000000000e+03 7.883397579193115234e+00 -1.043743324279785156e+01 4.995553493499755859e-01 3.543969154357910156e+00 1.213057279586791992e+00 -9.511782526969909668e-01
2.028000000000000000e+03 1.362251091003417969e+01 5.054597377777099609e+00 -5.035461187362670898e-01 -5.315915346145629883e-01 -3.105413019657135010e-01 3.999189734458923340e-01
2.029000000000000000e+03 1.269650554656982422e+01 5.420685291290283203e+00 -5.030468702316284180e-01 -4.020888507366180420e-01 -2.715407013893127441e-01 3.706249594688415527e-01
2.030000000000000000e+03 1.764207267761230469e+01 -9.213111877441406250e+00 1.653130948543548584e-01 -9.674100279808044434e-01 -2.406290918588638306e-01 8.807922601699829102e-01
2.031000000000000000e+03 2.253693389892578125e+01 1.403954982757568359e+00 -4.269250631332397461e-01 4.116282761096954346e-01 -4.589029587805271149e-03 4.267916083335876465e-01
2.032000000000000000e+03 9.916065216064453125e+00 5.778353214263916016e+00 -3.778458237648010254e-01 -1.819501668214797974e-01 -1.679387986660003662e-01 3.727448284626007080e-01
2.033000000000000000e+03 5.217878723144531250e+01 -8.483874320983886719e+00 -1.730502605438232422e+00 1.273470371961593628e-01 -4.809466600418090820e-01 -2.975509762763977051e-01
2.034000000000000000e+03 1.149255657196044922e+01 1.454342842102050781e+01 3.802147805690765381e-01 -2.423570305109024048e-01 4.135732352733612061e-02 4.042858183383941650e-01
2.035000000000000000e+03 1.042331218719482422e+01 1.317963600158691406e+01 2.285329848527908325e-01 -3.230607211589813232e-01 -2.835831977427005768e-02 4.970297217369079590e-01
2.036000000000000000e+03 2.989104986190795898e+00 6.679023742675781250e+00 -4.845248535275459290e-02 -1.742435246706008911e-01 -6.680880486965179443e-02 1.563353985548019409e-01
2.037000000000000000e+03 4.699531555175781250e+01 2.289093589782714844e+01 6.323633193969726562e-01 9.484452605247497559e-01 4.742425680160522461e-01 3.590345084667205811e-01
2.038000000000000000e+03 3.958773803710937500e+01 2.168522834777832031e+01 3.020170331001281738e-01 1.222942948341369629e+00 4.574880003929138184e-01 3.245681226253509521e-01
2.039000000000000000e+03 3.755492019653320312e+01 -1.520365333557128906e+01 -1.235079526901245117e+00 3.949009999632835388e-02 -3.586768209934234619e-01 -2.721770703792572021e-01
2.040000000000000000e+03 9.348516464233398438e+00 -9.402892112731933594e+00 -2.129876315593719482e-01 3.991106986999511719e+00 1.133435845375061035e+00 -1.110144555568695068e-01
2.041000000000000000e+03 1.272367286682128906e+01 -5.302879810333251953e+00 -1.043101191520690918e+00 5.995956063270568848e-01 -1.330516934394836426e-01 7.741349339485168457e-01
2.042000000000000000e+03 2.042674064636230469e+01 1.043928861618041992e+00 -4.442368745803833008e-01 -3.373289480805397034e-02 -1.433909237384796143e-01 5.084051489830017090e-01
2.043000000000000000e+03 7.085299682617187500e+01 -6.906804084777832031e+00 3.328612744808197021e-01 1.218776702880859375e+01 3.756188631057739258e+00 9.942849874496459961e-01
2.044000000000000000e+03 7.376376342773437500e+01 -3.147450923919677734e+00 -1.029010891914367676e+00 9.515892028808593750e+00 2.546064376831054688e+00 9.920150041580200195e-01
2.045000000000000000e+03 6.991628265380859375e+01 -2.674050521850585938e+01 -7.047019004821777344e-01 7.407521724700927734e+00 2.010845899581909180e+00 1.591611206531524658e-01
2.046000000000000000e+03 6.905637359619140625e+01 -2.389396095275878906e+01 -8.161835670471191406e-01 7.928979396820068359e+00 2.133838653564453125e+00 3.421147465705871582e-01
2.047000000000000000e+03 3.971679687500000000e+01 -1.375544834136962891e+01 -1.130797266960144043e+00 6.598966568708419800e-02 -3.194422721862792969e-01 -2.315304577350616455e-01
2.048000000000000000e+03 3.643119812011718750e+01 -1.315435218811035156e+01 -8.757308721542358398e-01 1.627641147933900356e-03 -2.622309625148773193e-01 -1.937921047210693359e-01
2.049000000000000000e+03 5.325866317749023438e+01 -7.858121871948242188e+00 -1.843685269355773926e+00 1.518910974264144897e-01 -5.075382590293884277e-01 -2.797449231147766113e-01
2.050000000000000000e+03 4.081068038940429688e+01 -1.353504467010498047e+01 -1.161401510238647461e+00 7.270008325576782227e-02 -3.266104161739349365e-01 -2.353163957595825195e-01
2.051000000000000000e+03 4.190804672241210938e+01 -1.330790519714355469e+01 -1.183316946029663086e+00 7.571749389171600342e-02 -3.322798311710357666e-01 -2.381096035242080688e-01
2.052000000000000000e+03 2.342334365844726562e+01 1.839039564132690430e+00 -3.712724447250366211e-01 5.775951147079467773e-01 6.189681217074394226e-02 3.939932584762573242e-01
2.053000000000000000e+03 6.655287170410156250e+01 -2.690873384475708008e+00 -1.305795550346374512e+00 5.257072925567626953e+00 1.185383200645446777e+00 -3.167976379394531250e+00
2.054000000000000000e+03 5.185984039306640625e+01 -1.005379104614257812e+01 -1.759484171867370605e+00 2.749500051140785217e-02 -5.195967555046081543e-01 -4.667443931102752686e-01
2.055000000000000000e+03 3.330838775634765625e+01 -1.413170623779296875e+01 -7.764637470245361328e-01 -1.056141853332519531e-01 -2.646233737468719482e-01 -3.281159698963165283e-01
2.056000000000000000e+03 3.244318389892578125e+01 -1.394598102569580078e+01 -5.843693017959594727e-01 -1.508786529302597046e-01 -2.205743938684463501e-01 -3.360980451107025146e-01
2.057000000000000000e+03 7.041083526611328125e+01 -4.431741714477539062e+00 -2.033964395523071289e+00 1.093064785003662109e+01 2.669004917144775391e+00 -4.253294467926025391e-01
2.058000000000000000e+03 6.893371582031250000e+01 -2.188455390930175781e+01 -7.313318848609924316e-01 8.611749649047851562e+00 2.364125490188598633e+00 5.280947089195251465e-01
2.059000000000000000e+03 6.798416137695312500e+01 -2.094005012512207031e+01 -4.375149309635162354e-01 8.292765617370605469e+00 2.356575250625610352e+00 1.092521786689758301e+00
2.060000000000000000e+03 6.868437957763671875e+01 -3.360888481140136719e+00 -2.095396518707275391e+00 8.495103836059570312e+00 1.919912338256835938e+00 -2.115755796432495117e+00
2.061000000000000000e+03 6.737031555175781250e+01 -4.313964843750000000e+00 -1.796734213829040527e+00 7.107394218444824219e+00 1.593198060989379883e+00 -3.414241313934326172e+00
2.062000000000000000e+03 2.910717391967773438e+01 4.643343448638916016e+00 4.830559343099594116e-02 6.264982819557189941e-01 2.024411559104919434e-01 4.620254039764404297e-01
2.063000000000000000e+03 2.743655204772949219e+01 5.248039245605468750e+00 1.835634857416152954e-01 6.594563126564025879e-01 2.529059350490570068e-01 3.936216235160827637e-01
2.064000000000000000e+03 7.348184967041015625e+01 3.257995223999023438e+01 6.195030361413955688e-02 5.874576568603515625e+00 1.780958056449890137e+00 -1.853206604719161987e-01
2.065000000000000000e+03 7.502215576171875000e+01 -3.105601119995117188e+01 -1.493385881185531616e-01 8.549652099609375000e+00 2.520094156265258789e+00 -1.892832666635513306e-01
2.066000000000000000e+03 7.445906829833984375e+01 -2.926614189147949219e+01 -2.968262434005737305e-01 8.321830749511718750e+00 2.407501220703125000e+00 -2.944205105304718018e-01
2.067000000000000000e+03 7.524588012695312500e+01 2.490920066833496094e+01 4.175295680761337280e-02 6.440036296844482422e+00 1.944536805152893066e+00 -2.644219398498535156e-01
2.068000000000000000e+03 7.399893951416015625e+01 2.226342201232910156e+01 9.500798583030700684e-02 6.339422225952148438e+00 1.930328965187072754e+00 -3.857647478580474854e-01
2.069000000000000000e+03 7.066082763671875000e+01 -2.186128997802734375e+01 -7.580778002738952637e-01 9.070169448852539062e+00 2.493627548217773438e+00 -1.366941034793853760e-01
2.070000000000000000e+03 7.548152923583984375e+01 -2.039578247070312500e+01 -2.824235260486602783e-01 8.610154151916503906e+00 2.498319149017333984e+00 -1.241879701614379883e+00
2.071000000000000000e+03 7.418788909912109375e+01 -2.204472160339355469e+01 -4.405066668987274170e-01 8.793869972229003906e+00 2.506009101867675781e+00 -9.985089898109436035e-01
2.072000000000000000e+03 7.547234344482421875e+01 1.275490856170654297e+01 3.394256532192230225e-02 7.299169063568115234e+00 2.199933528900146484e+00 -4.969777464866638184e-01
2.073000000000000000e+03 7.414545440673828125e+01 1.552329730987548828e+01 7.273045927286148071e-02 6.737465858459472656e+00 2.043058872222900391e+00 -5.537968277931213379e-01
2.074000000000000000e+03 7.543830871582031250e+01 1.685070800781250000e+01 4.967258870601654053e-02 6.955767154693603516e+00 2.101631879806518555e+00 -4.290885329246520996e-01
2.075000000000000000e+03 7.428533172607421875e+01 8.795059204101562500e+00 -7.847973704338073730e-02 7.319547653198242188e+00 2.172320365905761719e+00 -5.987436175346374512e-01
2.076000000000000000e+03 7.433768463134765625e+01 4.733178615570068359e+00 -3.865788877010345459e-01 7.843334674835205078e+00 2.237026691436767578e+00 -4.507073163986206055e-01
2.077000000000000000e+03 7.372804260253906250e+01 -1.523172092437744141e+01 7.799324393272399902e-01 1.004373073577880859e+01 3.247098922729492188e+00 -1.090250849723815918e+00
2.078000000000000000e+03 7.401905059814453125e+01 5.886443257331848145e-01 -8.493779301643371582e-01 8.488321304321289062e+00 2.291682958602905273e+00 1.354596912860870361e-01
2.079000000000000000e+03 7.553545379638671875e+01 4.593839645385742188e+00 -2.797395586967468262e-01 8.118058204650878906e+00 2.351495504379272461e+00 -2.379075735807418823e-01
2.080000000000000000e+03 7.428148651123046875e+01 1.840029597282409668e+00 -7.248656749725341797e-01 8.336290359497070312e+00 2.283427238464355469e+00 -1.249610483646392822e-01
2.081000000000000000e+03 7.360007476806640625e+01 2.752323913574218750e+01 8.062450587749481201e-02 6.038771629333496094e+00 1.835818767547607422e+00 -2.843352258205413818e-01
2.082000000000000000e+03 7.370069885253906250e+01 -7.614582538604736328e+00 7.271913290023803711e-01 1.007403373718261719e+01 3.240367650985717773e+00 1.531287789344787598e+00
2.083000000000000000e+03 7.614495849609375000e+01 -6.957563400268554688e+00 2.205600589513778687e-01 8.123983383178710938e+00 2.503363132476806641e+00 1.386288642883300781e+00
2.084000000000000000e+03 7.375007629394531250e+01 2.611730766296386719e+01 6.817880272865295410e-02 6.128308296203613281e+00 1.858946084976196289e+00 -3.087170720100402832e-01
2.085000000000000000e+03 7.418791961669921875e+01 1.145879745483398438e+01 2.177049778401851654e-02 7.050554275512695312e+00 2.121697425842285156e+00 -6.187580227851867676e-01
2.086000000000000000e+03 7.276109313964843750e+01 -1.014227199554443359e+01 2.239652872085571289e+00 1.090124225616455078e+01 3.942268610000610352e+00 1.022344112396240234e+00
2.087000000000000000e+03 7.259996032714843750e+01 -1.255688858032226562e+01 2.111780881881713867e+00 1.109489345550537109e+01 3.962002277374267578e+00 -2.675764262676239014e-01
2.088000000000000000e+03 7.528018951416015625e+01 -1.019541645050048828e+01 1.097631692886352539e+00 8.303489685058593750e+00 2.820336341857910156e+00 8.190769553184509277e-01
2.089000000000000000e+03 6.971891021728515625e+01 -3.673258781433105469e+00 -2.322582244873046875e+00 1.001198768615722656e+01 2.306821823120117188e+00 -1.412919402122497559e+00
2.090000000000000000e+03 7.184435272216796875e+01 -5.319265365600585938e+00 -8.311693668365478516e-01 1.092362308502197266e+01 3.027736186981201172e+00 1.012973189353942871e+00
2.091000000000000000e+03 7.436557769775390625e+01 -1.425827407836914062e+01 1.222616434097290039e+00 9.341370582580566406e+00 3.169196128845214844e+00 -9.347934722900390625e-01
2.092000000000000000e+03 7.429516601562500000e+01 -4.516569614410400391e+00 -5.028932690620422363e-01 9.329558372497558594e+00 2.647999525070190430e+00 1.379663348197937012e+00
2.093000000000000000e+03 7.468473052978515625e+01 -1.766076660156250000e+01 1.495395302772521973e-01 9.150453567504882812e+00 2.789998054504394531e+00 -1.326037526130676270e+00
2.094000000000000000e+03 7.574091339111328125e+01 -1.773439788818359375e+01 3.502384200692176819e-02 8.270956993103027344e+00 2.491794347763061523e+00 -1.386257290840148926e+00
2.095000000000000000e+03 7.569983673095703125e+01 -1.901077842712402344e+01 -6.410275399684906006e-02 8.499110221862792969e+00 2.530502319335937500e+00 -1.293399214744567871e+00
2.096000000000000000e+03 7.412059020996093750e+01 1.690205383300781250e+01 9.872915595769882202e-02 6.649302482604980469e+00 2.024409532546997070e+00 -5.128768682479858398e-01
2.097000000000000000e+03 7.464087677001953125e+01 -2.408914089202880859e+00 -7.804446816444396973e-01 8.964414596557617188e+00 2.455191135406494141e+00 9.845435619354248047e-01
2.098000000000000000e+03 7.390033721923828125e+01 -2.462536239624023438e+01 -4.998984932899475098e-01 8.538508415222167969e+00 2.411582946777343750e+00 -6.872264742851257324e-01
2.099000000000000000e+03 7.372675323486328125e+01 -2.628190231323242188e+01 -5.196783542633056641e-01 8.422712326049804688e+00 2.370910167694091797e+00 -5.059674382209777832e-01
2.100000000000000000e+03 7.431327056884765625e+01 7.455327510833740234e+00 -1.692880392074584961e-01 7.491540431976318359e+00 2.196675777435302734e+00 -5.932173728942871094e-01
2.101000000000000000e+03 7.162992095947265625e+01 3.520440292358398438e+01 9.343907237052917480e-02 5.579100608825683594e+00 1.701761960983276367e+00 -1.670283675193786621e-01
2.102000000000000000e+03 7.413257598876953125e+01 1.415026378631591797e+01 7.014715671539306641e-02 6.839674472808837891e+00 2.072946548461914062e+00 -5.821667909622192383e-01
2.103000000000000000e+03 7.403353881835937500e+01 2.098193550109863281e+01 7.717122882604598999e-02 6.419638633728027344e+00 1.949043035507202148e+00 -4.156074821949005127e-01
2.104000000000000000e+03 7.406200408935546875e+01 1.964884185791015625e+01 9.040969610214233398e-02 6.487432003021240234e+00 1.973352432250976562e+00 -4.369491040706634521e-01
2.105000000000000000e+03 7.339282226562500000e+01 2.906667137145996094e+01 7.773246616125106812e-02 5.952381134033203125e+00 1.809034109115600586e+00 -2.490767836570739746e-01
2.106000000000000000e+03 5.665333747863769531e+00 3.031899070739746094e+01 1.517936959862709045e-02 -8.300225138664245605e-01 -2.444529384374618530e-01 7.198107987642288208e-02
2.107000000000000000e+03 6.620573520660400391e+00 -2.852800559997558594e+01 -2.973852455615997314e-01 6.374680250883102417e-02 -7.009153813123703003e-02 5.153908133506774902e-01
2.108000000000000000e+03 4.793363571166992188e+00 2.753531837463378906e+01 8.479394949972629547e-03 -8.514775037765502930e-01 -2.528994381427764893e-01 6.707391142845153809e-02
2.109000000000000000e+03 4.707990169525146484e+00 -2.660623931884765625e+01 -2.346796840429306030e-01 -6.212165355682373047e-01 -2.567688822746276855e-01 7.158017158508300781e-01
2.110000000000000000e+03 5.893075180053710938e+01 -5.185031414031982422e+00 -2.058845520019531250e+00 7.063560932874679565e-02 -5.964629650115966797e-01 -4.174675345420837402e-01
2.111000000000000000e+03 5.621644973754882812e+01 -7.421356678009033203e+00 -2.254506349563598633e+00 4.144230112433433533e-02 -6.639192104339599609e-01 -4.660991430282592773e-01
2.112000000000000000e+03 5.853192329406738281e+00 -2.241715049743652344e+01 -2.249988466501235962e-01 5.377146005630493164e-01 9.381472319364547729e-02 8.417879939079284668e-01
2.113000000000000000e+03 6.826576709747314453e+00 2.440592002868652344e+01 3.766591101884841919e-02 -6.425815820693969727e-01 -1.814747005701065063e-01 1.140502169728279114e-01
2.114000000000000000e+03 3.983088016510009766e+00 -1.887385940551757812e+01 2.493467032909393311e-01 -1.246193289756774902e+00 -2.990539669990539551e-01 8.895967006683349609e-01
2.115000000000000000e+03 6.327567100524902344e+00 -1.687754440307617188e+01 1.187826156616210938e+00 2.156086921691894531e+00 1.003173947334289551e+00 5.511071085929870605e-01
2.116000000000000000e+03 6.842360496520996094e+00 1.840387725830078125e+01 1.302072405815124512e-01 -5.554876923561096191e-01 -1.275841295719146729e-01 2.258935123682022095e-01
2.117000000000000000e+03 8.734451293945312500e+00 1.626656913757324219e+01 2.305217832326889038e-01 -4.358957111835479736e-01 -6.161217391490936279e-02 3.274760246276855469e-01
2.118000000000000000e+03 5.256855487823486328e+00 1.826954269409179688e+01 8.449035882949829102e-02 -6.523067951202392578e-01 -1.703449338674545288e-01 2.002284377813339233e-01
2.119000000000000000e+03 4.275226116180419922e+00 1.484784412384033203e+01 6.380502879619598389e-02 -5.907904505729675293e-01 -1.580956280231475830e-01 2.632778286933898926e-01
2.120000000000000000e+03 4.428514003753662109e+00 2.027736091613769531e+01 4.579814895987510681e-02 -7.567216157913208008e-01 -2.132770270109176636e-01 1.315658390522003174e-01
2.121000000000000000e+03 4.242701530456542969e+00 -2.000175285339355469e+01 3.774370625615119934e-02 -9.738749861717224121e-01 -2.808393836021423340e-01 1.016017675399780273e+00
2.122000000000000000e+03 6.330248832702636719e+00 -1.876887321472167969e+01 4.319411516189575195e-01 1.664319396018981934e+00 6.288781762123107910e-01 7.328671216964721680e-01
2.123000000000000000e+03 7.383249759674072266e+00 -2.673697853088378906e+01 -3.391173481941223145e-01 4.898835420608520508e-01 4.522985965013504028e-02 4.891677200794219971e-01
2.124000000000000000e+03 5.989659786224365234e+00 2.550465011596679688e+01 2.087009698152542114e-02 -7.342061996459960938e-01 -2.140008211135864258e-01 9.287431091070175171e-02
2.125000000000000000e+03 7.741516590118408203e+00 -2.514127349853515625e+01 -3.088475465774536133e-01 9.513513445854187012e-01 1.927511543035507202e-01 4.210065603256225586e-01
2.126000000000000000e+03 7.004034519195556641e+00 -1.115856552124023438e+01 9.377192258834838867e-01 3.024297237396240234e+00 1.188604950904846191e+00 -1.617547035217285156e+00
2.127000000000000000e+03 6.227240562438964844e+00 1.737535285949707031e+01 1.253046244382858276e-01 -5.789962410926818848e-01 -1.361074894666671753e-01 2.484604567289352417e-01
2.128000000000000000e+03 6.313420772552490234e+00 1.449527549743652344e+01 1.137913614511489868e-01 -4.947768747806549072e-01 -1.142956539988517761e-01 3.566093742847442627e-01
2.129000000000000000e+03 5.380811214447021484e+00 1.483001899719238281e+01 8.834175020456314087e-02 -5.528889894485473633e-01 -1.393641680479049683e-01 3.009263873100280762e-01
2.130000000000000000e+03 5.821708679199218750e+00 -2.095026206970214844e+01 -3.821900114417076111e-02 6.730895638465881348e-01 1.904611587524414062e-01 9.009857177734375000e-01
2.131000000000000000e+03 5.434396743774414062e+00 -1.957491683959960938e+01 1.665321141481399536e-01 5.356011390686035156e-01 2.106399834156036377e-01 8.880202174186706543e-01
2.132000000000000000e+03 5.698174476623535156e+00 2.039628982543945312e+01 7.375405728816986084e-02 -6.731432080268859863e-01 -1.798167377710342407e-01 1.552166938781738281e-01
2.133000000000000000e+03 6.076694965362548828e+00 1.914632797241210938e+01 1.039819717407226562e-01 -6.242054700851440430e-01 -1.560670435428619385e-01 1.936784386634826660e-01
2.134000000000000000e+03 1.344560813903808594e+01 -2.883384513854980469e+01 -5.143208429217338562e-02 1.352082967758178711e+00 3.901952803134918213e-01 -3.575542271137237549e-01
2.135000000000000000e+03 1.116167736053466797e+01 -3.324853897094726562e+01 -3.031831681728363037e-01 7.280902266502380371e-01 1.274721175432205200e-01 1.184472888708114624e-01
2.136000000000000000e+03 6.997642040252685547e+00 -3.329199981689453125e+01 -2.369493842124938965e-01 -9.450214356184005737e-02 -9.943545609712600708e-02 3.435843884944915771e-01
2.137000000000000000e+03 6.212217330932617188e+00 -2.736966896057128906e+01 -3.035386204719543457e-01 2.076271176338195801e-02 -8.483277261257171631e-02 6.048306822776794434e-01
2.138000000000000000e+03 5.911503791809082031e+00 -2.621833801269531250e+01 -3.026514053344726562e-01 -2.632983773946762085e-02 -9.869437664747238159e-02 6.577998995780944824e-01
2.139000000000000000e+03 4.953073501586914062e+00 9.480492591857910156e+00 -5.092209577560424805e-02 -3.078576326370239258e-01 -1.076339185237884521e-01 3.295857012271881104e-01
2.140000000000000000e+03 3.914559364318847656e+00 9.458314895629882812e+00 -3.678138554096221924e-02 -3.154127597808837891e-01 -1.056582406163215637e-01 2.773977816104888916e-01
2.141000000000000000e+03 6.184958457946777344e+00 1.181515407562255859e+01 2.077038958668708801e-02 -3.879255950450897217e-01 -1.101465672254562378e-01 4.043845534324645996e-01
2.142000000000000000e+03 5.128468513488769531e+00 -1.248439216613769531e+01 1.526842117309570312e+00 5.047959685325622559e-01 6.094914078712463379e-01 -1.366370320320129395e+00
2.143000000000000000e+03 4.587634563446044922e+00 -1.439051342010498047e+01 1.366471529006958008e+00 -4.133930802345275879e-01 2.859235107898712158e-01 -2.617332935333251953e-01
2.144000000000000000e+03 4.935378551483154297e+00 8.460497856140136719e+00 -8.600421249866485596e-02 -2.450961619615554810e-01 -9.933011233806610107e-02 3.069638609886169434e-01
2.145000000000000000e+03 4.891770839691162109e+00 -8.512587547302246094e+00 -1.313034892082214355e-01 1.130087375640869141e-01 -5.488427355885505676e-03 -1.782595992088317871e+00
2.146000000000000000e+03 3.845196533203125000e+01 1.391969585418701172e+01 4.396930038928985596e-01 1.102753400802612305e+00 4.627339243888854980e-01 5.360258221626281738e-01
2.147000000000000000e+03 3.816199874877929688e+01 8.806831359863281250e+00 1.570111885666847229e-02 9.647809863090515137e-01 2.941446304321289062e-01 6.375973820686340332e-01
2.148000000000000000e+03 5.430635452270507812e+01 -7.228188991546630859e+00 -1.895479440689086914e+00 1.559476405382156372e-01 -5.218595862388610840e-01 -2.643558084964752197e-01
2.149000000000000000e+03 5.484818649291992188e+01 1.173819780349731445e+00 -2.133229970932006836e-01 6.915163397789001465e-01 1.434580087661743164e-01 1.760639995336532593e-01
2.150000000000000000e+03 4.666600227355957031e+00 -6.863890171051025391e+00 -4.117259681224822998e-01 -8.594157546758651733e-02 -1.493002623319625854e-01 -1.616859078407287598e+00
2.151000000000000000e+03 4.370072364807128906e+00 -5.174557209014892578e+00 -5.349836945533752441e-01 -2.049047052860260010e-01 -2.219665199518203735e-01 -1.325825572013854980e+00
2.152000000000000000e+03 4.441241264343261719e+00 -6.021497249603271484e+00 -4.664160609245300293e-01 -1.855822056531906128e-01 -1.955994814634323120e-01 -1.454140663146972656e+00
2.153000000000000000e+03 1.280107498168945312e+01 -2.757993888854980469e+01 1.111315470188856125e-02 1.550303578376770020e+00 4.684250354766845703e-01 -4.017380177974700928e-01
2.154000000000000000e+03 5.798569107055664062e+01 -3.320810317993164062e+01 2.515552043914794922e-01 1.367781519889831543e+00 4.858010113239288330e-01 3.598715364933013916e-01
2.155000000000000000e+03 5.826860427856445312e+01 -1.352428436279296875e+00 -7.020562887191772461e-01 6.647188663482666016e-01 -1.120121963322162628e-02 -2.595525979995727539e-01
2.156000000000000000e+03 5.964148712158203125e+01 -4.380273818969726562e+00 -1.721222758293151855e+00 2.119501084089279175e-01 -4.527817964553833008e-01 -3.534829318523406982e-01
2.157000000000000000e+03 6.006415176391601562e+01 -3.202025985717773438e+01 9.583609551191329956e-02 2.097902297973632812e+00 6.581215262413024902e-01 5.295419692993164062e-01
2.158000000000000000e+03 9.667734146118164062e+00 -2.223682022094726562e+01 5.072943866252899170e-02 2.522380828857421875e+00 7.719330787658691406e-01 -4.726890325546264648e-01
2.159000000000000000e+03 6.085717201232910156e+00 -1.184441852569580078e+01 1.348389267921447754e+00 1.593738675117492676e+00 8.826383948326110840e-01 -1.632102847099304199e+00
2.160000000000000000e+03 4.048263168334960938e+01 9.181763648986816406e+00 -1.329786144196987152e-02 1.160147905349731445e+00 3.440549969673156738e-01 4.837555587291717529e-01
2.161000000000000000e+03 4.051169204711914062e+01 7.964915275573730469e+00 -1.473551392555236816e-01 1.054723381996154785e+00 2.722104787826538086e-01 4.068288803100585938e-01
2.162000000000000000e+03 2.922551345825195312e+01 7.230693340301513672e+00 2.391420304775238037e-01 4.536376893520355225e-01 2.078339159488677979e-01 6.302031874656677246e-01
2.163000000000000000e+03 2.947340202331542969e+01 9.687851905822753906e+00 7.764136046171188354e-02 4.256184995174407959e-01 1.509779691696166992e-01 7.779137492179870605e-01
2.164000000000000000e+03 2.818230628967285156e+01 1.289950656890869141e+01 -2.814912199974060059e-01 3.070726692676544189e-01 7.674435619264841080e-03 5.554100275039672852e-01
2.165000000000000000e+03 6.497387695312500000e+01 -2.595025634765625000e+01 -4.780777394771575928e-01 4.863826751708984375e+00 1.315724611282348633e+00 1.029496192932128906e+00
2.166000000000000000e+03 6.742140960693359375e+01 -2.396985054016113281e+01 -6.918724775314331055e-01 7.008037567138671875e+00 1.894849538803100586e+00 8.618813753128051758e-01
2.167000000000000000e+03 8.496312141418457031e+00 -2.594310569763183594e+01 -3.298842608928680420e-01 1.112277269363403320e+00 2.347178906202316284e-01 3.085799813270568848e-01
2.168000000000000000e+03 1.364889049530029297e+01 1.866417884826660156e+01 2.605905234813690186e-01 3.492669761180877686e-02 8.865516632795333862e-02 2.247885763645172119e-01
2.169000000000000000e+03 1.406411266326904297e+01 1.736565780639648438e+01 4.224529564380645752e-01 1.435481905937194824e-01 1.698003411293029785e-01 2.437666952610015869e-01
2.170000000000000000e+03 4.645384216308593750e+01 2.730739831924438477e+00 -1.050472557544708252e-01 1.825299263000488281e-01 2.324480004608631134e-02 2.209904938936233521e-01
2.171000000000000000e+03 5.007514953613281250e+01 1.746750116348266602e+00 -1.025025025010108948e-01 2.460607141256332397e-01 4.306746274232864380e-02 3.532423377037048340e-01
2.172000000000000000e+03 6.119363403320312500e+01 -2.726238250732421875e+01 -2.531912624835968018e-01 2.288616895675659180e+00 6.106277108192443848e-01 7.357735633850097656e-01
2.173000000000000000e+03 6.554277038574218750e+01 -2.856799507141113281e+01 -4.406233429908752441e-01 5.087877750396728516e+00 1.394176244735717773e+00 7.435552477836608887e-01
2.174000000000000000e+03 9.829147338867187500e+00 -8.665914535522460938e+00 -3.400948047637939453e-01 2.974203824996948242e+00 7.902326583862304688e-01 4.039148092269897461e-01
2.175000000000000000e+03 2.888641166687011719e+01 1.587223911285400391e+01 -1.530939638614654541e-01 2.768072783946990967e-01 3.711399435997009277e-02 3.319130241870880127e-01
2.176000000000000000e+03 5.982961654663085938e+01 -2.910779380798339844e+01 -1.414108723402023315e-01 1.689790129661560059e+00 4.645137786865234375e-01 5.809670686721801758e-01
2.177000000000000000e+03 6.394039916992187500e+01 -2.755750846862792969e+01 -3.871493041515350342e-01 4.161761760711669922e+00 1.132383704185485840e+00 8.512181043624877930e-01
2.178000000000000000e+03 1.737451744079589844e+01 2.090391540527343750e+01 1.233138144016265869e-01 1.294995397329330444e-01 7.584400475025177002e-02 4.788975119590759277e-01
2.179000000000000000e+03 1.575423431396484375e+01 2.198513221740722656e+01 1.030347049236297607e-01 3.954668715596199036e-02 4.277441650629043579e-02 3.671813905239105225e-01
2.180000000000000000e+03 6.952810668945312500e+01 -1.889163589477539062e+01 -2.148605883121490479e-01 1.012165546417236328e+01 2.972038507461547852e+00 3.693277239799499512e-01
2.181000000000000000e+03 3.671756362915039062e+01 1.489201450347900391e+01 3.557978570461273193e-01 9.358650445938110352e-01 3.874988555908203125e-01 4.909823536872863770e-01
2.182000000000000000e+03 4.772139358520507812e+01 -1.088954448699951172e+01 -1.405746698379516602e+00 1.018179357051849365e-01 -3.911786079406738281e-01 -2.984797656536102295e-01
2.183000000000000000e+03 7.177647113800048828e+00 -2.238727951049804688e+01 -2.446110099554061890e-01 1.251841664314270020e+00 3.021692037582397461e-01 4.901944994926452637e-01
2.184000000000000000e+03 5.918302917480468750e+01 -6.766817092895507812e+00 -2.897459983825683594e+00 -1.150849983096122742e-01 -9.037634730339050293e-01 -6.881250739097595215e-01
2.185000000000000000e+03 7.122678375244140625e+01 -1.722844696044921875e+01 6.769055873155593872e-02 1.121687984466552734e+01 3.385371208190917969e+00 -6.164459586143493652e-01
2.186000000000000000e+03 7.033663177490234375e+01 -1.799959373474121094e+01 4.266176372766494751e-02 1.099651622772216797e+01 3.311753511428833008e+00 2.198077291250228882e-01
2.187000000000000000e+03 1.331738471984863281e+01 -3.066059303283691406e+01 -1.715544611215591431e-01 1.123612403869628906e+00 2.856174111366271973e-01 -1.575784385204315186e-01
2.188000000000000000e+03 1.535684108734130859e+01 -3.119096183776855469e+01 -7.564299553632736206e-02 1.188052654266357422e+00 3.337229192256927490e-01 -3.407036364078521729e-01
2.189000000000000000e+03 4.922272872924804688e+01 2.218563461303710938e+01 7.534757256507873535e-01 8.384199738502502441e-01 4.775687158107757568e-01 1.164587121456861496e-02
2.190000000000000000e+03 4.461439514160156250e+01 2.596729850769042969e+01 5.639879107475280762e-01 1.218890547752380371e+00 5.348635315895080566e-01 3.087895810604095459e-01
2.191000000000000000e+03 3.917438125610351562e+01 1.725158119201660156e+01 4.554747641086578369e-01 1.242360711097717285e+00 5.093506574630737305e-01 3.255773186683654785e-01
2.192000000000000000e+03 1.320240497589111328e+01 1.666702842712402344e+01 4.271721541881561279e-01 -3.102745302021503448e-02 1.188434138894081116e-01 2.757276296615600586e-01
2.193000000000000000e+03 6.926769256591796875e+00 2.072020912170410156e+01 1.033888459205627441e-01 -5.803649425506591797e-01 -1.430928260087966919e-01 1.729626804590225220e-01
2.194000000000000000e+03 4.029939651489257812e+01 1.952905082702636719e+01 3.209059536457061768e-01 1.341547846794128418e+00 4.987361431121826172e-01 3.288964331150054932e-01
2.195000000000000000e+03 4.629534149169921875e+01 -8.978240013122558594e+00 -1.202966928482055664e+00 1.784045249223709106e-01 -3.073687255382537842e-01 -1.043518483638763428e-01
2.196000000000000000e+03 4.275872802734375000e+01 -4.114202117919921875e+01 5.161759853363037109e-01 -2.154149413108825684e-01 9.022831916809082031e-02 -5.696274340152740479e-02
2.197000000000000000e+03 5.243579101562500000e+01 -4.134737014770507812e+01 7.998254299163818359e-01 2.949700355529785156e-01 3.284386396408081055e-01 -1.649511419236660004e-02
2.198000000000000000e+03 6.967755126953125000e+01 -2.086296653747558594e+01 -6.399124264717102051e-01 9.130877494812011719e+00 2.547289371490478516e+00 1.864479482173919678e-01
2.199000000000000000e+03 7.192571258544921875e+01 -1.984317207336425781e+01 -4.350566565990447998e-01 9.740281105041503906e+00 2.791567325592041016e+00 -6.618361473083496094e-01
2.200000000000000000e+03 7.227382659912109375e+01 -1.659663391113281250e+01 4.959720671176910400e-01 1.049620437622070312e+01 3.297652959823608398e+00 -9.662918448448181152e-01
2.201000000000000000e+03 6.100008773803710938e+01 1.062756443023681641e+01 5.253216028213500977e-01 3.336929798126220703e+00 1.158675432205200195e+00 -8.314641714096069336e-01
2.202000000000000000e+03 6.071828079223632812e+01 1.344648456573486328e+01 6.395491957664489746e-01 3.537587642669677734e+00 1.253141045570373535e+00 -6.830229163169860840e-01
2.203000000000000000e+03 2.888091850280761719e+01 2.126031684875488281e+01 2.483054399490356445e-01 2.118739336729049683e-01 1.380538046360015869e-01 2.403759807348251343e-01
2.204000000000000000e+03 2.839595603942871094e+01 1.963200569152832031e+01 1.521614342927932739e-01 1.445072144269943237e-01 8.900059759616851807e-02 2.396521121263504028e-01
2.205000000000000000e+03 7.235424804687500000e+01 4.099597549438476562e+01 1.001795232295989990e-01 5.650225639343261719e+00 1.725121617317199707e+00 -2.693083696067333221e-02
2.206000000000000000e+03 2.340996932983398438e+01 2.001424598693847656e+01 2.391101419925689697e-01 -2.594195008277893066e-01 -6.092803552746772766e-03 4.295946061611175537e-01
2.207000000000000000e+03 2.641780281066894531e+01 -1.054880332946777344e+01 2.030652947723865509e-02 2.259926557540893555e+00 6.840699315071105957e-01 1.101493597030639648e+00
2.208000000000000000e+03 2.750009155273437500e+01 -1.256374168395996094e+01 2.009082555770874023e+00 8.825601935386657715e-01 8.674927949905395508e-01 1.221303820610046387e+00
2.209000000000000000e+03 2.520856857299804688e+01 -9.809727668762207031e+00 -3.340831995010375977e-01 1.962866663932800293e+00 4.886350333690643311e-01 3.279417157173156738e-01
2.210000000000000000e+03 2.611114501953125000e+01 -9.606400489807128906e+00 -3.201963603496551514e-01 1.962281942367553711e+00 4.926256835460662842e-01 7.403324246406555176e-01
2.211000000000000000e+03 2.732949256896972656e+01 -1.400463104248046875e+01 2.263881683349609375e+00 3.083930909633636475e-01 7.716824412345886230e-01 -4.335166513919830322e-01
2.212000000000000000e+03 2.737474632263183594e+01 -1.442190647125244141e+01 1.490902543067932129e+00 3.284322321414947510e-01 5.458004474639892578e-01 -8.842803835868835449e-01
2.213000000000000000e+03 2.806002616882324219e+01 -1.481861400604248047e+01 1.748575568199157715e-01 1.300168037414550781e-01 9.146230667829513550e-02 -1.077093124389648438e+00
2.214000000000000000e+03 2.580043983459472656e+01 -8.284375190734863281e+00 -5.091486573219299316e-01 1.493118643760681152e+00 2.951909899711608887e-01 5.650816559791564941e-01
2.215000000000000000e+03 2.588436126708984375e+01 -9.993640899658203125e+00 -2.733858823776245117e-01 2.118020296096801758e+00 5.533903837203979492e-01 6.813582181930541992e-01
2.216000000000000000e+03 2.600881195068359375e+01 -6.399858951568603516e+00 -6.615722775459289551e-01 1.156957507133483887e+00 1.486155539751052856e-01 5.757301449775695801e-01
2.217000000000000000e+03 2.587597274780273438e+01 -7.786186695098876953e+00 -5.619804859161376953e-01 1.377241611480712891e+00 2.445783168077468872e-01 5.874383449554443359e-01
2.218000000000000000e+03 2.635099792480468750e+01 -7.670439243316650391e+00 -5.558876991271972656e-01 1.370021939277648926e+00 2.442402839660644531e-01 6.623715758323669434e-01
2.219000000000000000e+03 2.464824676513671875e+01 -4.492365837097167969e+00 -7.484489083290100098e-01 7.975902557373046875e-01 1.474239770323038101e-02 4.330333173274993896e-01
2.220000000000000000e+03 6.275012493133544922e+00 4.625648498535156250e+00 -1.871632784605026245e-01 -9.100493788719177246e-02 -8.345046639442443848e-02 2.093139886856079102e-01
2.221000000000000000e+03 5.199708938598632812e+00 6.501929283142089844e+00 -1.312514245510101318e-01 -1.598204076290130615e-01 -8.732154965400695801e-02 2.592578232288360596e-01
2.222000000000000000e+03 7.262194156646728516e+00 5.582920551300048828e+00 -2.347096353769302368e-01 -1.249697804450988770e-01 -1.079038232564926147e-01 2.837043404579162598e-01
2.223000000000000000e+03 9.909905433654785156e+00 4.907926082611083984e+00 -3.908394575119018555e-01 -1.541918367147445679e-01 -1.635093837976455688e-01 3.149550259113311768e-01
2.224000000000000000e+03 5.036344051361083984e+00 5.717213630676269531e+00 -1.279726922512054443e-01 -1.278363168239593506e-01 -7.674270123243331909e-02 2.116553932428359985e-01
2.225000000000000000e+03 6.569128513336181641e+00 5.220723628997802734e+00 -2.069442719221115112e-01 -1.031164005398750305e-01 -9.301820397377014160e-02 2.502709031105041504e-01
2.226000000000000000e+03 6.108337402343750000e+00 6.471825122833251953e+00 -1.644409298896789551e-01 -1.574253290891647339e-01 -9.655987471342086792e-02 2.840470969676971436e-01
2.227000000000000000e+03 6.114963531494140625e+00 -5.741211414337158203e+00 -8.204653859138488770e-01 6.114686727523803711e-01 -6.269901990890502930e-02 -1.270970702171325684e+00
2.228000000000000000e+03 2.906302452087402344e+01 -1.488860225677490234e+01 -3.507989346981048584e-01 -1.232047826051712036e-01 -1.422011256217956543e-01 -8.611139059066772461e-01
2.229000000000000000e+03 2.815690231323242188e+01 -1.404395866394042969e+01 1.163579225540161133e+00 3.060459275729954243e-04 3.491655886173248291e-01 -4.711802303791046143e-01
2.230000000000000000e+03 6.779237747192382812e+00 -5.853290081024169922e+00 -8.810774087905883789e-01 9.133234024047851562e-01 9.673793800175189972e-03 -1.155298233032226562e+00
2.231000000000000000e+03 9.626840591430664062e+00 -7.357825756072998047e+00 -8.366913199424743652e-01 2.152383089065551758e+00 3.947075307369232178e-01 -1.969680888578295708e-03
2.232000000000000000e+03 7.610192298889160156e+00 -4.953470230102539062e+00 -1.130681037902832031e+00 9.787700176239013672e-01 -4.557330161333084106e-02 -8.586334586143493652e-01
2.233000000000000000e+03 1.190489864349365234e+01 -6.880815982818603516e+00 -6.713923215866088867e-01 1.220822691917419434e+00 1.648291200399398804e-01 7.907918095588684082e-01
2.234000000000000000e+03 1.067246532440185547e+01 -5.860366344451904297e+00 -1.082285165786743164e+00 1.292897820472717285e+00 6.318379938602447510e-02 3.374622464179992676e-01
2.235000000000000000e+03 1.188944816589355469e+01 6.553079128265380859e+00 -4.854754805564880371e-01 -2.905357480049133301e-01 -2.328033745288848877e-01 4.175216555595397949e-01
2.236000000000000000e+03 1.077312278747558594e+01 -7.125696182250976562e+00 -7.543923258781433105e-01 1.725640296936035156e+00 2.913744151592254639e-01 5.142443776130676270e-01
2.237000000000000000e+03 1.371736812591552734e+01 -7.453534603118896484e+00 -8.936651796102523804e-02 4.985510408878326416e-01 1.227553561329841614e-01 1.125293016433715820e+00
2.238000000000000000e+03 9.395885467529296875e+00 -5.124165058135986328e+00 -1.236595869064331055e+00 1.171259045600891113e+00 -1.960104145109653473e-02 -1.613899618387222290e-01
2.239000000000000000e+03 9.114578247070312500e+00 -8.123200416564941406e+00 -6.438305377960205078e-01 2.767627000808715820e+00 6.371389031410217285e-01 -3.977414369583129883e-01
2.240000000000000000e+03 2.402373123168945312e+01 -4.749104976654052734e+00 -7.351127266883850098e-01 6.900220513343811035e-01 -1.352720241993665695e-02 4.041479229927062988e-01
2.241000000000000000e+03 2.393708610534667969e+01 -2.940024852752685547e+00 -7.482904195785522461e-01 6.203144788742065430e-01 -3.839278221130371094e-02 4.037317931652069092e-01
2.242000000000000000e+03 2.458976173400878906e+01 -7.254030704498291016e-01 -6.279605031013488770e-01 6.785433888435363770e-01 1.517486013472080231e-02 3.939483761787414551e-01
2.243000000000000000e+03 2.432474327087402344e+01 -3.721528768539428711e+00 -7.562761306762695312e-01 7.080737948417663574e-01 -1.446070428937673569e-02 4.212158024311065674e-01
2.244000000000000000e+03 2.492518424987792969e+01 -5.239791393280029297e+00 -7.244868278503417969e-01 8.954966068267822266e-01 5.130292847752571106e-02 4.543724358081817627e-01
2.245000000000000000e+03 2.302499580383300781e+01 5.855240225791931152e-01 -5.174733996391296387e-01 4.785410165786743164e-01 -1.167971082031726837e-02 4.062019586563110352e-01
2.246000000000000000e+03 3.063191223144531250e+01 -1.414706516265869141e+01 -2.516377866268157959e-01 -2.317604869604110718e-01 -1.450194865465164185e-01 -4.667930305004119873e-01
2.247000000000000000e+03 2.476597404479980469e+01 1.259216785430908203e+00 -4.338252842426300049e-01 6.963022351264953613e-01 7.874307781457901001e-02 3.717814981937408447e-01
2.248000000000000000e+03 2.269289016723632812e+01 -5.938019752502441406e-01 -6.147300004959106445e-01 3.945687413215637207e-01 -6.604838371276855469e-02 4.103206694126129150e-01
2.249000000000000000e+03 2.384348869323730469e+01 -1.031772136688232422e+00 -6.493702530860900879e-01 5.792890191078186035e-01 -2.102436684072017670e-02 3.981706798076629639e-01
2.250000000000000000e+03 8.819463729858398438e+00 9.489913940429687500e+00 -1.226566433906555176e-01 -2.719312310218811035e-01 -1.183763593435287476e-01 5.051082372665405273e-01
2.251000000000000000e+03 7.067520141601562500e+01 -5.647595882415771484e+00 -1.143135070800781250e+00 1.216704177856445312e+01 3.307171821594238281e+00 7.890131473541259766e-01
2.252000000000000000e+03 7.212882232666015625e+01 -6.617963790893554688e+00 5.600861087441444397e-02 1.150075626373291016e+01 3.467029571533203125e+00 1.540587663650512695e+00
2.253000000000000000e+03 6.722816467285156250e+01 -3.274567425251007080e-01 -1.094581127166748047e+00 5.727174282073974609e+00 1.389778017997741699e+00 -2.246543884277343750e+00
2.254000000000000000e+03 6.688599395751953125e+01 -1.473194956779479980e+00 -1.417893528938293457e+00 5.761745452880859375e+00 1.303155541419982910e+00 -2.508011102676391602e+00
2.255000000000000000e+03 1.323256874084472656e+01 -6.741222381591796875e+00 -6.116712093353271484e-01 6.365554928779602051e-01 7.465287111699581146e-03 9.917553067207336426e-01
2.256000000000000000e+03 1.175860881805419922e+01 5.627408027648925781e+00 -4.863705337047576904e-01 -3.157363235950469971e-01 -2.406320571899414062e-01 3.710350096225738525e-01
2.257000000000000000e+03 1.199640369415283203e+01 7.543321132659912109e+00 -4.242816865444183350e-01 -3.183427155017852783e-01 -2.227873206138610840e-01 5.018865466117858887e-01
2.258000000000000000e+03 7.392031860351562500e+01 -8.878959655761718750e+00 1.356855750083923340e+00 9.534355163574218750e+00 3.267363309860229492e+00 1.441283583641052246e+00
2.259000000000000000e+03 7.297215270996093750e+01 -1.110807037353515625e+01 2.455075025558471680e+00 1.052951812744140625e+01 3.895378112792968750e+00 1.678094863891601562e-01
2.260000000000000000e+03 2.917200469970703125e+01 1.060607814788818359e+01 -2.141316048800945282e-02 4.463941752910614014e-01 1.274943053722381592e-01 7.358368039131164551e-01
2.261000000000000000e+03 3.063277816772460938e+01 1.208120918273925781e+01 -3.382303193211555481e-02 5.077229142189025879e-01 1.421699523925781250e-01 6.706246137619018555e-01
2.262000000000000000e+03 1.015036010742187500e+01 1.449579238891601562e+01 2.846463620662689209e-01 -3.545171320438385010e-01 -2.096123434603214264e-02 4.220114946365356445e-01
2.263000000000000000e+03 3.440606307983398438e+01 -1.323888301849365234e+01 -6.815168857574462891e-01 -7.270248979330062866e-02 -2.262658029794692993e-01 -1.991306990385055542e-01
2.264000000000000000e+03 4.293774032592773438e+01 -1.322807216644287109e+01 -1.215117335319519043e+00 7.169501483440399170e-02 -3.430266976356506348e-01 -2.571945190429687500e-01
2.265000000000000000e+03 4.062279129028320312e+01 -1.236178016662597656e+01 -1.059250593185424805e+00 8.559633791446685791e-02 -2.920962870121002197e-01 -1.765319705009460449e-01
2.266000000000000000e+03 7.164479064941406250e+01 -2.289579772949218750e+01 -7.556646466255187988e-01 8.726150512695312500e+00 2.391145706176757812e+00 -4.664136171340942383e-01
2.267000000000000000e+03 2.175802993774414062e+01 9.224916696548461914e-01 -4.653177559375762939e-01 2.406783103942871094e-01 -6.739183515310287476e-02 4.505054652690887451e-01
2.268000000000000000e+03 3.040650939941406250e+01 7.792683124542236328e+00 1.466870456933975220e-01 5.122922062873840332e-01 1.976937800645828247e-01 6.947961449623107910e-01
2.269000000000000000e+03 3.044847488403320312e+01 1.018704700469970703e+01 3.921997174620628357e-02 5.042302012443542480e-01 1.630350649356842041e-01 7.311132550239562988e-01
2.270000000000000000e+03 1.604928016662597656e+01 2.058624267578125000e+01 1.170650571584701538e-01 1.447663456201553345e-01 7.854942232370376587e-02 3.797514736652374268e-01
2.271000000000000000e+03 1.345348834991455078e+01 2.016263771057128906e+01 1.652010530233383179e-01 -1.391171757131814957e-02 4.538680240511894226e-02 2.499265670776367188e-01
2.272000000000000000e+03 4.078569412231445312e+00 7.128738880157470703e+00 -8.150392770767211914e-02 -1.890349388122558594e-01 -8.116166293621063232e-02 2.256664186716079712e-01
2.273000000000000000e+03 2.226379203796386719e+01 1.780034601688385010e-01 -5.585441589355468750e-01 3.236871063709259033e-01 -7.045710831880569458e-02 4.217944145202636719e-01
2.274000000000000000e+03 5.462828636169433594e+00 -5.519198894500732422e+00 -7.167329788208007812e-01 3.787951171398162842e-01 -1.013813614845275879e-01 -1.347953438758850098e+00
2.275000000000000000e+03 5.152739524841308594e+00 -6.219003200531005859e+00 -5.728487968444824219e-01 2.379663437604904175e-01 -1.004647389054298401e-01 -1.548407673835754395e+00
2.276000000000000000e+03 6.301038742065429688e+00 -1.007461071014404297e+01 3.544277548789978027e-01 1.688610792160034180e+00 6.129115819931030273e-01 -1.674477696418762207e+00
2.277000000000000000e+03 8.712039947509765625e+00 -9.913677215576171875e+00 2.720610797405242920e-01 3.603281497955322266e+00 1.162602782249450684e+00 -7.548971772193908691e-01
2.278000000000000000e+03 5.675314331054687500e+01 4.306568622589111328e+00 1.301817446947097778e-01 1.453479409217834473e+00 4.750983417034149170e-01 -8.838765323162078857e-02
2.279000000000000000e+03 5.346172332763671875e+01 -6.338305473327636719e+00 -1.651633739471435547e+00 2.370643466711044312e-01 -4.243707954883575439e-01 -8.589291572570800781e-02
2.280000000000000000e+03 4.919213485717773438e+01 -8.805077552795410156e+00 -1.438542366027832031e+00 1.682680100202560425e-01 -3.810822963714599609e-01 -1.812510788440704346e-01
2.281000000000000000e+03 3.593329620361328125e+01 1.310388183593750000e+01 2.536954879760742188e-01 8.469530344009399414e-01 3.301945626735687256e-01 6.043902635574340820e-01
2.282000000000000000e+03 4.666501617431640625e+01 -1.145130252838134766e+01 -1.353962898254394531e+00 9.246106445789337158e-02 -3.784505426883697510e-01 -2.920520901679992676e-01
2.283000000000000000e+03 3.862047195434570312e+01 -1.394914913177490234e+01 -1.111478209495544434e+00 5.218108743429183960e-02 -3.177891373634338379e-01 -2.377762198448181152e-01
2.284000000000000000e+03 3.539913558959960938e+01 -1.322554969787597656e+01 -7.916896343231201172e-01 -3.580022230744361877e-02 -2.482469528913497925e-01 -1.985439807176589966e-01
2.285000000000000000e+03 2.637829971313476562e+01 2.623017311096191406e+00 -2.077649831771850586e-01 7.639041543006896973e-01 1.668417602777481079e-01 3.325193226337432861e-01
2.286000000000000000e+03 7.884356021881103516e+00 -5.621617794036865234e+00 -1.073454141616821289e+00 1.256870627403259277e+00 5.502496287226676941e-02 -7.768470048904418945e-01
2.287000000000000000e+03 1.601542854309082031e+01 -8.190761566162109375e+00 8.909396827220916748e-02 -4.538882076740264893e-01 -1.094382777810096741e-01 1.038986206054687500e+00
2.288000000000000000e+03 5.259735107421875000e+01 2.447738885879516602e+00 -4.050236195325851440e-02 5.108405947685241699e-01 1.411014646291732788e-01 3.524592518806457520e-01
2.289000000000000000e+03 5.107379150390625000e+01 -9.112031936645507812e+00 -1.652997851371765137e+00 1.247099190950393677e-01 -4.584863781929016113e-01 -3.033610880374908447e-01
2.290000000000000000e+03 5.028440856933593750e+01 -8.187919616699218750e+00 -1.491829276084899902e+00 1.862420290708541870e-01 -3.916761875152587891e-01 -1.597342491149902344e-01
2.291000000000000000e+03 6.271000385284423828e+00 1.076710605621337891e+01 -2.157440781593322754e-02 -3.514859676361083984e-01 -1.119181141257286072e-01 4.109357297420501709e-01
2.292000000000000000e+03 8.987931251525878906e+00 6.654683113098144531e+00 -3.044721782207489014e-01 -1.670764982700347900e-01 -1.414646059274673462e-01 4.061297178268432617e-01
2.293000000000000000e+03 1.269224071502685547e+01 -2.557811927795410156e+01 1.662980318069458008e-01 1.864493727684020996e+00 6.092375516891479492e-01 -6.427683234214782715e-01
2.294000000000000000e+03 2.694586181640625000e+01 3.859046697616577148e+00 -3.852580115199089050e-02 7.276034951210021973e-01 2.067233026027679443e-01 3.418864905834197998e-01
2.295000000000000000e+03 6.940956878662109375e+01 -2.823120689392089844e+01 -6.308180093765258789e-01 7.046616554260253906e+00 1.924739599227905273e+00 2.383706569671630859e-01
2.296000000000000000e+03 7.057826232910156250e+01 -3.275534439086914062e+01 -2.303636074066162109e-01 6.919807910919189453e+00 2.006833314895629883e+00 1.659520864486694336e-01
2.297000000000000000e+03 7.236775207519531250e+01 -7.872204303741455078e+00 1.248321890830993652e+00 1.088407230377197266e+01 3.639718294143676758e+00 1.598171830177307129e+00
2.298000000000000000e+03 7.304103088378906250e+01 -4.948727607727050781e+00 -7.768852114677429199e-01 1.035280513763427734e+01 2.872776031494140625e+00 1.387098908424377441e+00
2.299000000000000000e+03 7.331751251220703125e+01 -3.415260314941406250e+01 -1.844568252563476562e-01 7.804402351379394531e+00 2.285983800888061523e+00 -5.004023667424917221e-03
2.300000000000000000e+03 7.281616973876953125e+01 -1.996387863159179688e+01 -3.324009478092193604e-01 9.314023017883300781e+00 2.694486618041992188e+00 -9.651398062705993652e-01
2.301000000000000000e+03 8.308419227600097656e+00 2.756725120544433594e+01 1.815841346979141235e-02 -5.826832652091979980e-01 -1.693574488162994385e-01 1.204262673854827881e-01
2.302000000000000000e+03 9.481348991394042969e+00 3.239684677124023438e+01 3.931345790624618530e-02 -5.693354010581970215e-01 -1.590065807104110718e-01 1.146073117852210999e-01
2.303000000000000000e+03 7.146929931640625000e+01 1.691851997375488281e+01 1.688341647386550903e-01 6.042938709259033203e+00 1.863531827926635742e+00 -6.344713568687438965e-01
2.304000000000000000e+03 7.280486297607421875e+01 1.694787597656250000e+01 1.254131644964218140e-01 6.345338821411132812e+00 1.941225647926330566e+00 -5.817979574203491211e-01
2.305000000000000000e+03 7.319966125488281250e+01 -1.852880835533142090e+00 -1.235037803649902344e+00 9.162029266357421875e+00 2.378097295761108398e+00 3.517458438873291016e-01
2.306000000000000000e+03 7.390795898437500000e+01 -2.800433540344238281e+01 -3.772885501384735107e-01 8.293600082397460938e+00 2.374893426895141602e+00 -3.163876831531524658e-01
2.307000000000000000e+03 7.180381011962890625e+01 1.008550930023193359e+01 -2.984758839011192322e-02 6.499194622039794922e+00 1.940804123878479004e+00 -8.520441055297851562e-01
2.308000000000000000e+03 7.307557678222656250e+01 8.836834907531738281e+00 -1.067726612091064453e-01 6.989404201507568359e+00 2.064789533615112305e+00 -7.448636889457702637e-01
2.309000000000000000e+03 7.463713073730468750e+01 -1.660098266601562500e+01 3.852362334728240967e-01 8.976716995239257812e+00 2.808585882186889648e+00 -1.363971471786499023e+00
2.310000000000000000e+03 7.464950561523437500e+01 -1.879767036437988281e+01 -1.794894486665725708e-01 8.963539123535156250e+00 2.635214805603027344e+00 -1.360301017761230469e+00
2.311000000000000000e+03 7.198539733886718750e+01 3.706295251846313477e+00 -6.454519033432006836e-01 7.326782703399658203e+00 2.004399299621582031e+00 -7.355958223342895508e-01
2.312000000000000000e+03 7.401226043701171875e+01 -1.005846977233886719e+01 1.666069984436035156e+00 9.608412742614746094e+00 3.382344961166381836e+00 6.298856735229492188e-01
2.313000000000000000e+03 7.489499664306640625e+01 -1.353597521781921387e+00 -6.981241703033447266e-01 8.756337165832519531e+00 2.417463779449462891e+00 6.679666638374328613e-01
2.314000000000000000e+03 7.347724914550781250e+01 -1.347440433502197266e+01 1.882735848426818848e+00 1.031196880340576172e+01 3.658411264419555664e+00 -7.667080163955688477e-01
2.315000000000000000e+03 7.387657928466796875e+01 -4.470099508762359619e-01 -1.031742572784423828e+00 8.777428627014160156e+00 2.323705673217773438e+00 2.310866862535476685e-01
2.316000000000000000e+03 7.409299468994140625e+01 -1.524211168289184570e+00 -1.031557559967041016e+00 9.089118957519531250e+00 2.417268514633178711e+00 6.395117044448852539e-01
2.317000000000000000e+03 7.294587707519531250e+01 -5.063506364822387695e-01 -1.237292289733886719e+00 8.831177711486816406e+00 2.278165578842163086e+00 9.209517389535903931e-02
2.318000000000000000e+03 7.432846069335937500e+01 6.105776786804199219e+00 -2.476617842912673950e-01 7.626488208770751953e+00 2.213647842407226562e+00 -4.981211423873901367e-01
2.319000000000000000e+03 7.197116088867187500e+01 5.040219306945800781e+00 -4.867846667766571045e-01 7.140698909759521484e+00 1.996174335479736328e+00 -8.305905461311340332e-01
2.320000000000000000e+03 7.351641082763671875e+01 -1.938703536987304688e+01 -4.104539453983306885e-01 9.408028602600097656e+00 2.699272632598876953e+00 -1.171325445175170898e+00
2.321000000000000000e+03 7.413577270507812500e+01 1.279658699035644531e+01 4.108255356550216675e-02 6.941468238830566406e+00 2.094765186309814453e+00 -6.082702279090881348e-01
2.322000000000000000e+03 8.210072517395019531e+00 2.070128440856933594e+01 1.239266470074653625e-01 -4.822077155113220215e-01 -1.074843183159828186e-01 1.809305995702743530e-01
2.323000000000000000e+03 5.383412361145019531e+00 -1.069925975799560547e+01 6.436827778816223145e-01 8.133538365364074707e-01 4.371109902858734131e-01 -1.793094873428344727e+00
2.324000000000000000e+03 7.224923706054687500e+01 2.728843879699707031e+01 1.020482033491134644e-01 5.822307586669921875e+00 1.777306795120239258e+00 -3.182779550552368164e-01
2.325000000000000000e+03 6.810758972167968750e+01 -2.492260169982910156e+01 -7.522614598274230957e-01 7.024626255035400391e+00 1.881709456443786621e+00 5.442054867744445801e-01
2.326000000000000000e+03 7.246386051177978516e+00 3.121660995483398438e+01 2.405509166419506073e-02 -7.155299186706542969e-01 -2.074424326419830322e-01 8.976823091506958008e-02
2.327000000000000000e+03 6.005606174468994141e+00 3.317175292968750000e+01 1.824067533016204834e-02 -8.438398241996765137e-01 -2.476797401905059814e-01 5.731310695409774780e-02
2.328000000000000000e+03 6.947830677032470703e+00 2.662131309509277344e+01 1.601567305624485016e-02 -6.808504462242126465e-01 -1.994504332542419434e-01 9.779105335474014282e-02
2.329000000000000000e+03 5.718432903289794922e+00 2.417490196228027344e+01 3.152845054864883423e-02 -7.370594739913940430e-01 -2.116593122482299805e-01 1.003188192844390869e-01
2.330000000000000000e+03 5.781479644775390625e+01 -4.441372871398925781e+00 -1.605581402778625488e+00 2.524562478065490723e-01 -4.059375524520874023e-01 -1.362655609846115112e-01
2.331000000000000000e+03 5.661445617675781250e+00 -9.126315116882324219e+00 -7.399701327085494995e-02 1.051273107528686523e+00 2.931828200817108154e-01 -1.833653807640075684e+00
2.332000000000000000e+03 4.875841140747070312e+00 -9.576226234436035156e+00 8.945230394601821899e-02 9.106410294771194458e-02 5.415492132306098938e-02 -1.871856093406677246e+00
2.333000000000000000e+03 6.853164672851562500e+00 -2.487557220458984375e+01 -3.198475837707519531e-01 6.361699104309082031e-01 9.489669650793075562e-02 5.723041892051696777e-01
2.334000000000000000e+03 7.032137393951416016e+00 -2.374499130249023438e+01 -2.993681728839874268e-01 9.286634325981140137e-01 1.887885779142379761e-01 5.874986648559570312e-01
2.335000000000000000e+03 5.803390979766845703e+00 -2.377301597595214844e+01 -3.000673651695251465e-01 1.814107745885848999e-01 -3.559697791934013367e-02 7.531381249427795410e-01
2.336000000000000000e+03 4.809356689453125000e+00 -1.849303436279296875e+01 3.683798313140869141e-01 -1.397603303194046021e-01 6.858585029840469360e-02 9.763913154602050781e-01
2.337000000000000000e+03 5.688230991363525391e+00 1.611196708679199219e+01 1.048530936241149902e-01 -5.744389891624450684e-01 -1.408757716417312622e-01 2.739220261573791504e-01
2.338000000000000000e+03 6.885840415954589844e+00 1.563568305969238281e+01 1.541813611984252930e-01 -5.093342065811157227e-01 -1.065458580851554871e-01 3.228668272495269775e-01
2.339000000000000000e+03 1.016591453552246094e+01 1.593195247650146484e+01 3.019136190414428711e-01 -3.378713130950927734e-01 -1.078731194138526917e-02 3.353397846221923828e-01
2.340000000000000000e+03 7.190892696380615234e+00 1.400050258636474609e+01 1.253690272569656372e-01 -4.604029953479766846e-01 -1.005101874470710754e-01 3.976903557777404785e-01
2.341000000000000000e+03 5.250733375549316406e+00 1.186469554901123047e+01 1.872407831251621246e-02 -4.295457303524017334e-01 -1.232464984059333801e-01 3.587396442890167236e-01
2.342000000000000000e+03 7.051715373992919922e+00 1.942359733581542969e+01 1.254986226558685303e-01 -5.565056800842285156e-01 -1.293021142482757568e-01 2.022002190351486206e-01
2.343000000000000000e+03 4.437489318847656250e+01 3.135701179504394531e+00 -1.631529629230499268e-01 3.156190514564514160e-01 4.573982581496238708e-02 1.874000728130340576e-01
2.344000000000000000e+03 4.834876251220703125e+01 1.547961354255676270e+00 -1.470303237438201904e-01 1.752741783857345581e-01 8.473157882690429688e-03 3.049558699131011963e-01
2.345000000000000000e+03 7.326143264770507812e+00 -2.082021522521972656e+01 -7.197761908173561096e-03 2.119114398956298828e+00 6.335750222206115723e-01 4.183084666728973389e-01
2.346000000000000000e+03 9.223244667053222656e+00 -3.010107994079589844e+01 -3.274029195308685303e-01 7.080658674240112305e-01 1.141988784074783325e-01 2.526728212833404541e-01
2.347000000000000000e+03 8.852370262145996094e+00 2.601477432250976562e+01 3.480754792690277100e-02 -5.226292610168457031e-01 -1.463465094566345215e-01 1.421169638633728027e-01
2.348000000000000000e+03 6.193163871765136719e+00 2.797486305236816406e+01 1.019573677331209183e-02 -7.518613338470458984e-01 -2.224996685981750488e-01 8.738333731889724731e-02
2.349000000000000000e+03 5.901264572143554688e+01 -2.828353166580200195e+00 -1.119098305702209473e+00 4.736725389957427979e-01 -1.936277151107788086e-01 -3.199417591094970703e-01
2.350000000000000000e+03 5.779628372192382812e+01 -2.223146200180053711e+00 -8.341253995895385742e-01 4.708515703678131104e-01 -1.089821532368659973e-01 -1.291751414537429810e-01
2.351000000000000000e+03 5.733328819274902344e+00 9.043788909912109375e+00 -8.007477223873138428e-02 -2.784610092639923096e-01 -1.075607314705848694e-01 3.651478588581085205e-01
2.352000000000000000e+03 8.056944847106933594e+00 6.586943626403808594e+00 -2.609923481941223145e-01 -1.578489542007446289e-01 -1.256523877382278442e-01 3.615885674953460693e-01
2.353000000000000000e+03 6.363528728485107422e+00 8.426599502563476562e+00 -1.218193471431732178e-01 -2.339690923690795898e-01 -1.067365333437919617e-01 3.698930144309997559e-01
2.354000000000000000e+03 5.765950775146484375e+01 5.659819602966308594e+00 2.177576571702957153e-01 1.938673377037048340e+00 6.469293236732482910e-01 -2.700621187686920166e-01
2.355000000000000000e+03 9.536375045776367188e+00 1.175990009307861328e+01 6.819258630275726318e-02 -3.155376911163330078e-01 -7.420353591442108154e-02 5.296068191528320312e-01
2.356000000000000000e+03 5.906808376312255859e+00 1.273592662811279297e+01 4.604252800345420837e-02 -4.449389576911926270e-01 -1.196689307689666748e-01 3.776860237121582031e-01
2.357000000000000000e+03 4.539945602416992188e+00 -1.134577178955078125e+01 6.914841532707214355e-01 -3.725453019142150879e-01 9.568166732788085938e-02 -1.663434624671936035e+00
2.358000000000000000e+03 8.920719146728515625e+00 8.518359184265136719e+00 -2.049001604318618774e-01 -2.136803418397903442e-01 -1.255741417407989502e-01 4.871504306793212891e-01
2.359000000000000000e+03 5.426146984100341797e+00 -7.577672004699707031e+00 -4.532698392868041992e-01 4.956089556217193604e-01 1.270173676311969757e-02 -1.674910902976989746e+00
2.360000000000000000e+03 1.072150707244873047e+01 1.877257919311523438e+01 2.356974929571151733e-01 -2.879486978054046631e-01 -1.567536406219005585e-02 2.235522121191024780e-01
2.361000000000000000e+03 3.339000320434570312e+01 1.225388813018798828e+01 9.503966569900512695e-02 6.679346561431884766e-01 2.288922965526580811e-01 6.584775447845458984e-01
2.362000000000000000e+03 3.875775146484375000e+01 1.260963630676269531e+01 3.404978513717651367e-01 1.168353438377380371e+00 4.526554048061370850e-01 5.892633795738220215e-01
2.363000000000000000e+03 5.869095230102539062e+01 7.985017299652099609e+00 3.380776941776275635e-01 2.619451522827148438e+00 8.872587680816650391e-01 -5.047011971473693848e-01
2.364000000000000000e+03 5.739529800415039062e+01 6.932887077331542969e+00 2.624302506446838379e-01 2.181200027465820312e+00 7.330890893936157227e-01 -2.447679340839385986e-01
2.365000000000000000e+03 1.751466178894042969e+01 1.943574905395507812e+01 1.538698971271514893e-01 2.119856327772140503e-01 1.097566634416580200e-01 4.703941941261291504e-01
2.366000000000000000e+03 6.887158203125000000e+01 -2.599228477478027344e+01 -7.630655169486999512e-01 7.253383159637451172e+00 1.947095274925231934e+00 3.736958801746368408e-01
2.367000000000000000e+03 4.565287017822265625e+01 -1.200339984893798828e+01 -1.305962443351745605e+00 8.034944534301757812e-02 -3.676838874816894531e-01 -2.902597784996032715e-01
2.368000000000000000e+03 4.244484710693359375e+01 -1.003794670104980469e+01 -1.005275607109069824e+00 1.478668451309204102e-01 -2.572226226329803467e-01 -7.166606187820434570e-02
2.369000000000000000e+03 4.036004257202148438e+01 6.833473205566406250e+00 -1.779964864253997803e-01 8.978447914123535156e-01 2.159544974565505981e-01 3.790866434574127197e-01
2.370000000000000000e+03 4.028491592407226562e+01 5.874904632568359375e+00 -2.126283198595046997e-01 7.889653444290161133e-01 1.729011088609695435e-01 3.835316896438598633e-01
2.371000000000000000e+03 5.102546691894531250e+01 8.525862097740173340e-01 -2.414238452911376953e-01 3.190161287784576416e-01 2.327768877148628235e-02 3.542578518390655518e-01
2.372000000000000000e+03 4.181231689453125000e+01 -1.109763240814208984e+01 -1.032389640808105469e+00 1.182821914553642273e-01 -2.742322087287902832e-01 -1.238161623477935791e-01
2.373000000000000000e+03 5.341654968261718750e+01 2.463563919067382812e+01 6.432980298995971680e-01 1.912234783172607422e+00 7.666598558425903320e-01 -5.060354471206665039e-01
2.374000000000000000e+03 5.034878921508789062e+01 2.611568260192871094e+01 7.252991199493408203e-01 1.530968785285949707e+00 6.768803596496582031e-01 -1.460253149271011353e-01
2.375000000000000000e+03 3.930696487426757812e+01 9.028282165527343750e+00 -9.759541600942611694e-03 1.070434451103210449e+00 3.182024955749511719e-01 5.500710010528564453e-01
2.376000000000000000e+03 3.918084716796875000e+01 1.017689418792724609e+01 1.189022064208984375e-01 1.131289005279541016e+00 3.750573694705963135e-01 6.279683113098144531e-01
2.377000000000000000e+03 5.927573776245117188e+01 1.018612098693847656e+01 5.120398402214050293e-01 3.008802175521850586e+00 1.056252598762512207e+00 -6.283553242683410645e-01
2.378000000000000000e+03 3.772257614135742188e+01 1.683846664428710938e+01 4.017190039157867432e-01 1.072101950645446777e+00 4.421462714672088623e-01 3.671117722988128662e-01
2.379000000000000000e+03 8.505316734313964844e+00 -2.257920455932617188e+01 -2.115470618009567261e-01 2.012749910354614258e+00 5.403608679771423340e-01 1.682082861661911011e-01
2.380000000000000000e+03 6.169901275634765625e+01 8.959575653076171875e+00 3.970725834369659424e-01 3.361159563064575195e+00 1.127469658851623535e+00 -9.456455111503601074e-01
2.381000000000000000e+03 5.719849395751953125e+01 -6.703797817230224609e+00 -2.349432229995727539e+00 5.989820882678031921e-02 -6.868602037429809570e-01 -4.204223155975341797e-01
2.382000000000000000e+03 6.899695587158203125e+01 3.241653060913085938e+01 1.653952598571777344e-01 5.168004512786865234e+00 1.600019931793212891e+00 -2.834929823875427246e-01
2.383000000000000000e+03 6.180489349365234375e+01 -3.075194931030273438e+01 -8.051776885986328125e-02 2.879277467727661133e+00 8.396279215812683105e-01 6.358217597007751465e-01
2.384000000000000000e+03 5.617841720581054688e+01 -2.508564472198486328e+00 -9.282729029655456543e-01 4.216691851615905762e-01 -1.519811153411865234e-01 5.220798775553703308e-02
2.385000000000000000e+03 5.439230346679687500e+01 -5.728785514831542969e+00 -1.626981973648071289e+00 2.463907301425933838e-01 -4.141773581504821777e-01 -4.896426945924758911e-02
2.386000000000000000e+03 2.933768653869628906e+01 1.748456764221191406e+01 6.939959246665239334e-03 2.714110314846038818e-01 8.350530266761779785e-02 2.775416672229766846e-01
2.387000000000000000e+03 3.641188049316406250e+01 -1.214551448822021484e+01 -7.363382577896118164e-01 1.000357326120138168e-02 -2.179003953933715820e-01 -9.986699372529983521e-02
2.388000000000000000e+03 4.318412780761718750e+01 3.169065237045288086e+00 -2.248309403657913208e-01 4.316383302211761475e-01 6.204221770167350769e-02 2.158682942390441895e-01
2.389000000000000000e+03 4.546918487548828125e+01 3.005448102951049805e+00 -1.172458976507186890e-01 2.309834808111190796e-01 3.412127494812011719e-02 1.930697113275527954e-01
2.390000000000000000e+03 4.737130737304687500e+01 -1.243872833251953125e+01 -1.414696216583251953e+00 3.609581664204597473e-02 -4.135801196098327637e-01 -3.883300423622131348e-01
2.391000000000000000e+03 5.726222610473632812e+01 -3.152127456665039062e+01 7.163324207067489624e-02 8.838527202606201172e-01 2.866457998752593994e-01 2.727132141590118408e-01
2.392000000000000000e+03 9.330545425415039062e+00 -3.395757293701171875e+01 -3.020488023757934570e-01 3.992142379283905029e-01 2.914963290095329285e-02 2.400397658348083496e-01
2.393000000000000000e+03 4.107390594482421875e+01 2.281287765502929688e+01 3.360263109207153320e-01 1.252331256866455078e+00 4.765072762966156006e-01 3.782214522361755371e-01
2.394000000000000000e+03 6.379045104980468750e+01 -2.884076118469238281e+00 -5.426412224769592285e-01 1.343084931373596191e+00 2.401331067085266113e-01 -2.169271945953369141e+00
2.395000000000000000e+03 5.950748443603515625e+01 -1.914683818817138672e+00 -6.875239610671997070e-01 6.396708488464355469e-01 -1.435593515634536743e-02 -4.238617420196533203e-01
2.396000000000000000e+03 4.383917999267578125e+01 2.000003433227539062e+01 3.226136863231658936e-01 1.430948257446289062e+00 5.260685682296752930e-01 6.100631952285766602e-01
2.397000000000000000e+03 3.955565261840820312e+01 -1.265663814544677734e+01 -1.028334140777587891e+00 7.155650109052658081e-02 -2.870332896709442139e-01 -1.822934001684188843e-01
2.398000000000000000e+03 7.039510345458984375e+01 -1.988309669494628906e+01 -5.117105841636657715e-01 9.955543518066406250e+00 2.833149909973144531e+00 2.464219741523265839e-02
2.399000000000000000e+03 5.593799591064453125e+01 2.238484954833984375e+01 4.019928574562072754e-01 2.675314664840698242e+00 9.231922626495361328e-01 -6.896083354949951172e-01
2.400000000000000000e+03 5.537889862060546875e+01 2.402499008178710938e+01 4.986701905727386475e-01 2.438801527023315430e+00 8.812415003776550293e-01 -6.000028848648071289e-01
2.401000000000000000e+03 7.334069824218750000e+01 -2.278001213073730469e+01 -5.988273620605468750e-01 8.826567649841308594e+00 2.468322038650512695e+00 -8.706679940223693848e-01
2.402000000000000000e+03 7.305249786376953125e+01 -1.871241188049316406e+01 -8.803945034742355347e-02 9.587793350219726562e+00 2.849926233291625977e+00 -1.067387938499450684e+00
2.403000000000000000e+03 4.758678054809570312e+01 -4.125342178344726562e+01 6.866760253906250000e-01 -1.888786405324935913e-01 1.493392288684844971e-01 -3.455871716141700745e-02
2.404000000000000000e+03 8.867860794067382812e+00 1.406690788269042969e+01 2.018527686595916748e-01 -4.019244015216827393e-01 -6.002148985862731934e-02 4.253988862037658691e-01
2.405000000000000000e+03 5.511361694335937500e+01 2.550594568252563477e+00 -2.512208186089992523e-02 8.791640996932983398e-01 2.562125921249389648e-01 1.391015201807022095e-01
2.406000000000000000e+03 4.620821762084960938e+01 2.532899475097656250e+01 6.378107666969299316e-01 1.192690014839172363e+00 5.491502285003662109e-01 2.788744568824768066e-01
2.407000000000000000e+03 4.251683044433593750e+01 2.401001167297363281e+01 4.027756452560424805e-01 1.234971523284912109e+00 4.913241267204284668e-01 3.929462730884552002e-01
2.408000000000000000e+03 3.935069274902343750e+01 6.775726318359375000e+00 -1.664713770151138306e-01 9.090569019317626953e-01 2.227756530046463013e-01 4.870211482048034668e-01
2.409000000000000000e+03 6.127270889282226562e+01 1.463688278198242188e+01 6.344492435455322266e-01 3.674226522445678711e+00 1.292602777481079102e+00 -6.950281262397766113e-01
2.410000000000000000e+03 7.153752326965332031e+00 -2.974255561828613281e+01 -2.980341613292694092e-01 1.979216933250427246e-01 -3.003373928368091583e-02 4.609746634960174561e-01
2.411000000000000000e+03 3.952595138549804688e+01 -3.803677749633789062e+01 3.622642159461975098e-01 -9.609350562095642090e-02 7.985121011734008789e-02 -1.062987074255943298e-01
2.412000000000000000e+03 7.311538696289062500e+01 7.534980297088623047e+00 -1.734917610883712769e-01 7.112589359283447266e+00 2.081729412078857422e+00 -6.969469785690307617e-01
2.413000000000000000e+03 7.463254547119140625e+01 -5.958368778228759766e+00 -8.040647953748703003e-02 9.360428810119628906e+00 2.784006595611572266e+00 1.622226476669311523e+00
2.414000000000000000e+03 2.691655921936035156e+01 -1.159266185760498047e+01 1.013169407844543457e+00 2.037420034408569336e+00 9.151768684387207031e-01 1.642383456230163574e+00
2.415000000000000000e+03 2.597774124145507812e+01 -8.966960906982421875e+00 -4.292093217372894287e-01 1.702184081077575684e+00 3.818924129009246826e-01 6.375964283943176270e-01
2.416000000000000000e+03 2.734337425231933594e+01 -1.366056728363037109e+01 2.522157430648803711e+00 3.766389787197113037e-01 8.696389198303222656e-01 3.875151649117469788e-02
2.417000000000000000e+03 2.658920860290527344e+01 -8.827500343322753906e+00 -3.969403505325317383e-01 1.600685477256774902e+00 3.611235320568084717e-01 8.096800446510314941e-01
2.418000000000000000e+03 2.858155250549316406e+01 -1.435665702819824219e+01 4.986780881881713867e-01 -1.096229478716850281e-01 1.167165413498878479e-01 -6.688082814216613770e-01
2.419000000000000000e+03 2.773321151733398438e+01 -1.294517326354980469e+01 2.109935522079467773e+00 4.576992988586425781e-01 7.702904343605041504e-01 7.973993420600891113e-01
2.420000000000000000e+03 2.520244789123535156e+01 -5.944014549255371094e+00 -6.934809088706970215e-01 1.007637739181518555e+00 9.424707293510437012e-02 4.709909856319427490e-01
2.421000000000000000e+03 5.902448654174804688e+00 5.569099903106689453e+00 -1.716080009937286377e-01 -1.223384439945220947e-01 -8.818393200635910034e-02 2.432567775249481201e-01
2.422000000000000000e+03 6.131017208099365234e+00 7.489560127258300781e+00 -1.432646512985229492e-01 -2.003819197416305542e-01 -1.030939742922782898e-01 3.415212333202362061e-01
2.423000000000000000e+03 2.623597908020019531e+01 -7.053540706634521484e+00 -6.109617948532104492e-01 1.263865947723388672e+00 1.958712488412857056e-01 6.257609724998474121e-01
2.424000000000000000e+03 9.022064208984375000e+00 5.770284652709960938e+00 -3.341818153858184814e-01 -1.446143239736557007e-01 -1.436388343572616577e-01 3.429600596427917480e-01
2.425000000000000000e+03 6.701658248901367188e+00 -6.701869010925292969e+00 -7.319743633270263672e-01 1.075375318527221680e+00 1.030203029513359070e-01 -1.321030855178833008e+00
2.426000000000000000e+03 8.658473968505859375e+00 1.046912670135498047e+01 -5.028096586465835571e-02 -2.857788205146789551e-01 -1.008179411292076111e-01 5.121915936470031738e-01
2.427000000000000000e+03 1.013455104827880859e+01 -6.617096424102783203e+00 -9.035812020301818848e-01 1.811213493347167969e+00 2.722896933555603027e-01 1.104939952492713928e-01
2.428000000000000000e+03 9.531213760375976562e+00 -6.144422054290771484e+00 -1.064664721488952637e+00 1.555621862411499023e+00 1.472871452569961548e-01 -1.244093552231788635e-01
2.429000000000000000e+03 7.839527130126953125e+00 -8.456490516662597656e+00 -4.545656442642211914e-01 2.519279241561889648e+00 6.194140315055847168e-01 -1.023218154907226562e+00
2.430000000000000000e+03 3.267733764648437500e+01 -1.304552745819091797e+01 -3.444064855575561523e-01 -1.481039524078369141e-01 -1.477531343698501587e-01 -1.471312791109085083e-01
2.431000000000000000e+03 2.549649429321289062e+01 -5.055984973907470703e+00 -7.303016781806945801e-01 9.650917649269104004e-01 7.043702155351638794e-02 4.968002140522003174e-01
2.432000000000000000e+03 2.423099708557128906e+01 -1.835384726524353027e+00 -7.034837603569030762e-01 6.461001634597778320e-01 -1.721507310867309570e-02 4.004353582859039307e-01
2.433000000000000000e+03 2.424338150024414062e+01 1.036343574523925781e-01 -5.578820109367370605e-01 6.346499919891357422e-01 2.303038351237773895e-02 3.889792859554290771e-01
2.434000000000000000e+03 2.572554779052734375e+01 1.485599160194396973e+00 -3.894146382808685303e-01 7.597101330757141113e-01 1.110886484384536743e-01 3.600030541419982910e-01
2.435000000000000000e+03 8.996505737304687500e+00 -5.656790256500244141e+00 -1.156287789344787598e+00 1.433853149414062500e+00 8.326958864927291870e-02 -3.763067126274108887e-01
2.436000000000000000e+03 1.083016777038574219e+01 5.736675739288330078e+00 -4.396252334117889404e-01 -2.110205590724945068e-01 -1.951937377452850342e-01 3.712193071842193604e-01
2.437000000000000000e+03 9.925245285034179688e+00 6.681736946105957031e+00 -3.619014024734497070e-01 -1.877036839723587036e-01 -1.648815274238586426e-01 4.086868464946746826e-01
2.438000000000000000e+03 2.572575569152832031e+01 -5.742868900299072266e+00 -7.041299343109130859e-01 1.047585010528564453e+00 1.030365079641342163e-01 5.263461470603942871e-01
2.439000000000000000e+03 2.600635337829589844e+01 -4.278323650360107422e+00 -7.334102392196655273e-01 9.513739943504333496e-01 6.538913398981094360e-02 5.186748504638671875e-01
2.440000000000000000e+03 2.462910461425781250e+01 -2.638106346130371094e+00 -7.317181229591369629e-01 7.169471383094787598e-01 -4.431300330907106400e-03 4.236311912536621094e-01
2.441000000000000000e+03 2.493191719055175781e+01 -1.538193345069885254e+00 -6.725770235061645508e-01 7.240123152732849121e-01 1.543058920651674271e-02 4.153006970882415771e-01
2.442000000000000000e+03 6.569275379180908203e+00 9.776250839233398438e+00 -7.148429006338119507e-02 -2.902576029300689697e-01 -1.085225716233253479e-01 4.144141674041748047e-01
2.443000000000000000e+03 2.957549285888671875e+01 -1.434466361999511719e+01 -3.611532598733901978e-02 -2.172189205884933472e-01 -7.600027322769165039e-02 -6.051008105278015137e-01
2.444000000000000000e+03 3.632115936279296875e+01 1.190190982818603516e+01 2.133312672376632690e-01 8.792526721954345703e-01 3.277751803398132324e-01 6.485983133316040039e-01
2.445000000000000000e+03 3.001032829284667969e+01 1.107483863830566406e+01 -2.528562210500240326e-02 4.783433675765991211e-01 1.359173208475112915e-01 7.426204681396484375e-01
2.446000000000000000e+03 3.363951492309570312e+01 -1.226350212097167969e+01 -3.814506828784942627e-01 -8.336918801069259644e-02 -1.394459605216979980e-01 -3.079468011856079102e-02
2.447000000000000000e+03 7.859745979309082031e+00 1.338654041290283203e+01 1.227774918079376221e-01 -4.164084196090698242e-01 -8.808927983045578003e-02 4.387473165988922119e-01
2.448000000000000000e+03 2.672573661804199219e+01 1.687947273254394531e+00 -3.344731628894805908e-01 7.717033028602600098e-01 1.311690360307693481e-01 3.716473877429962158e-01
2.449000000000000000e+03 4.116682434082031250e+01 6.383465766906738281e+00 -2.005658447742462158e-01 8.202109932899475098e-01 1.858935505151748657e-01 2.978020310401916504e-01
2.450000000000000000e+03 4.072764205932617188e+01 3.823142528533935547e+00 -2.605163156986236572e-01 6.397872567176818848e-01 1.137812808156013489e-01 3.332827687263488770e-01
2.451000000000000000e+03 4.324428558349609375e+01 -1.235512828826904297e+01 -1.189395189285278320e+00 9.121880680322647095e-02 -3.294529020786285400e-01 -2.230539768934249878e-01
2.452000000000000000e+03 4.031623840332031250e+01 -1.136195087432861328e+01 -9.778018593788146973e-01 1.020288243889808655e-01 -2.627319097518920898e-01 -1.159315183758735657e-01
2.453000000000000000e+03 3.830766677856445312e+01 5.575988292694091797e+00 -1.834011822938919067e-01 7.957736849784851074e-01 1.837117522954940796e-01 5.220446586608886719e-01
2.454000000000000000e+03 9.717303276062011719e+00 1.068544960021972656e+01 -2.715151570737361908e-02 -3.079826831817626953e-01 -1.005402654409408569e-01 5.532209277153015137e-01
2.455000000000000000e+03 3.543513107299804688e+01 -1.224337100982666016e+01 -6.401401162147521973e-01 -2.195419184863567352e-02 -1.986282914876937866e-01 -8.963153511285781860e-02
2.456000000000000000e+03 1.286567211151123047e+01 -8.406564712524414062e+00 2.385278642177581787e-01 8.921573162078857422e-01 3.392055630683898926e-01 1.172242403030395508e+00
2.457000000000000000e+03 4.699655914306640625e+01 -9.936425209045410156e+00 -1.315991401672363281e+00 1.459249854087829590e-01 -3.510199487209320068e-01 -1.970764398574829102e-01
2.458000000000000000e+03 4.808522415161132812e+01 -9.382550239562988281e+00 -1.368351459503173828e+00 1.580785810947418213e-01 -3.630818426609039307e-01 -1.921587735414505005e-01
2.459000000000000000e+03 5.117218494415283203e+00 7.443855285644531250e+00 -1.068179607391357422e-01 -2.092221081256866455e-01 -9.481202065944671631e-02 2.828856408596038818e-01
2.460000000000000000e+03 7.273657226562500000e+01 1.282157802581787109e+01 8.536195009946823120e-02 6.548943519592285156e+00 1.990291714668273926e+00 -7.116778492927551270e-01
2.461000000000000000e+03 7.286785888671875000e+01 1.559580993652343750e+01 1.206993088126182556e-01 6.415274143218994141e+00 1.960792064666748047e+00 -6.157081127166748047e-01
2.462000000000000000e+03 3.097557640075683594e+01 6.762517929077148438e+00 1.197214946150779724e-01 5.202619433403015137e-01 1.919950246810913086e-01 6.523755192756652832e-01
2.463000000000000000e+03 4.332115554809570312e+01 -1.085453701019287109e+01 -1.122014760971069336e+00 1.306041032075881958e-01 -2.974232137203216553e-01 -1.469014585018157959e-01
2.464000000000000000e+03 5.891046905517578125e+01 5.730193138122558594e+00 2.262093871831893921e-01 2.256384134292602539e+00 7.447780370712280273e-01 -5.420313477516174316e-01
2.465000000000000000e+03 7.444655895233154297e+00 1.680869674682617188e+01 1.659259051084518433e-01 -4.961759746074676514e-01 -9.907501935958862305e-02 2.874580621719360352e-01
2.466000000000000000e+03 4.255814743041992188e+01 -1.168426609039306641e+01 -1.124372482299804688e+00 1.133332177996635437e-01 -3.033117651939392090e-01 -1.773261874914169312e-01
2.467000000000000000e+03 3.654413223266601562e+01 1.071838378906250000e+01 1.671696156263351440e-01 8.658037781715393066e-01 3.098920285701751709e-01 6.695762276649475098e-01
2.468000000000000000e+03 3.749599456787109375e+01 1.227124881744384766e+01 2.927718758583068848e-01 9.676820635795593262e-01 3.781361877918243408e-01 6.221781373023986816e-01
2.469000000000000000e+03 3.831582641601562500e+01 7.729964256286621094e+00 -7.456209510564804077e-02 9.235287904739379883e-01 2.546900212764739990e-01 5.805052518844604492e-01
2.470000000000000000e+03 3.797043609619140625e+01 9.912072181701660156e+00 1.139073297381401062e-01 9.712700247764587402e-01 3.255532085895538330e-01 6.360537409782409668e-01
2.471000000000000000e+03 4.631004333496093750e+01 -1.298304271697998047e+01 -1.366374969482421875e+00 3.273507952690124512e-02 -4.000919461250305176e-01 -3.661669194698333740e-01
2.472000000000000000e+03 1.094463729858398438e+01 8.637700080871582031e+00 -2.799938023090362549e-01 -2.339503169059753418e-01 -1.541832387447357178e-01 5.474309325218200684e-01
2.473000000000000000e+03 6.421460723876953125e+01 -1.667686820030212402e+00 -6.060676574707031250e-01 2.546031475067138672e+00 5.819891095161437988e-01 -2.424686908721923828e+00
2.474000000000000000e+03 6.540998077392578125e+01 -2.227588891983032227e+00 -1.010100364685058594e+00 3.819190740585327148e+00 8.427270650863647461e-01 -2.721901893615722656e+00
2.475000000000000000e+03 3.747211837768554688e+01 -1.303454685211181641e+01 -9.403561353683471680e-01 3.124657645821571350e-02 -2.727328538894653320e-01 -1.871689856052398682e-01
2.476000000000000000e+03 3.740082168579101562e+01 -1.200323677062988281e+01 -8.122077584266662598e-01 4.108819738030433655e-02 -2.313358783721923828e-01 -1.052691936492919922e-01
2.477000000000000000e+03 5.160267639160156250e+01 -5.881752014160156250e+00 -1.387481927871704102e+00 2.608524858951568604e-01 -3.379888236522674561e-01 2.915512584149837494e-02
2.478000000000000000e+03 4.846319961547851562e+01 -7.915487289428710938e+00 -1.303886532783508301e+00 2.048359364271163940e-01 -3.297151625156402588e-01 -7.521165907382965088e-02
2.479000000000000000e+03 7.245396423339843750e+01 -2.182098770141601562e+01 -6.076968312263488770e-01 9.084603309631347656e+00 2.543071985244750977e+00 -6.777033805847167969e-01
2.480000000000000000e+03 7.314288330078125000e+01 3.522149324417114258e+00 -6.335472464561462402e-01 7.759881973266601562e+00 2.137900352478027344e+00 -5.463006496429443359e-01
2.481000000000000000e+03 7.196362304687500000e+01 2.348423004150390625e+00 -9.085099101066589355e-01 7.707633018493652344e+00 2.039736747741699219e+00 -7.330901026725769043e-01
2.482000000000000000e+03 7.191217803955078125e+01 9.593107104301452637e-01 -1.108343601226806641e+00 7.987165451049804688e+00 2.063646554946899414e+00 -5.822163224220275879e-01
2.483000000000000000e+03 7.144724273681640625e+01 -3.958551883697509766e+00 -1.709173202514648438e+00 1.064707851409912109e+01 2.681371688842773438e+00 4.203457534313201904e-01
2.484000000000000000e+03 6.987957000732421875e+01 -2.485947036743164062e+01 -7.898491024971008301e-01 7.879395961761474609e+00 2.126863956451416016e+00 9.293808043003082275e-02
2.485000000000000000e+03 7.266418457031250000e+01 -2.397382545471191406e+01 -6.673561930656433105e-01 8.655044555664062500e+00 2.396306514739990234e+00 -5.440171957015991211e-01
2.486000000000000000e+03 4.405611038208007812e+01 -1.167675685882568359e+01 -1.201920509338378906e+00 1.074227318167686462e-01 -3.283493220806121826e-01 -2.151163816452026367e-01
2.487000000000000000e+03 6.507438659667968750e+00 2.212756538391113281e+01 6.191546469926834106e-02 -6.313735842704772949e-01 -1.708374321460723877e-01 1.383268088102340698e-01
2.488000000000000000e+03 8.747707366943359375e+00 2.463713264465332031e+01 6.191929802298545837e-02 -4.965160489082336426e-01 -1.303790211677551270e-01 1.526907682418823242e-01
2.489000000000000000e+03 7.396344757080078125e+01 2.353261375427246094e+01 7.210233062505722046e-02 6.274802207946777344e+00 1.904071450233459473e+00 -3.483213186264038086e-01
2.490000000000000000e+03 2.797863960266113281e+01 4.242272853851318359e+00 3.065065853297710419e-02 6.561609506607055664e-01 2.060434818267822266e-01 3.941277861595153809e-01
2.491000000000000000e+03 7.313822174072265625e+01 6.223867416381835938e+00 -3.114151656627655029e-01 7.314713954925537109e+00 2.100989580154418945e+00 -6.948379278182983398e-01
2.492000000000000000e+03 7.085662841796875000e+01 3.846973419189453125e+00 -6.828811764717102051e-01 6.984176158905029297e+00 1.890388488769531250e+00 -1.017760634422302246e+00
2.493000000000000000e+03 7.133415222167968750e+01 1.829878425598144531e+01 1.705371886491775513e-01 5.967961311340332031e+00 1.841549634933471680e+00 -6.075085401535034180e-01
2.494000000000000000e+03 2.843251800537109375e+01 3.236628532409667969e+00 -1.215920522809028625e-01 7.106789946556091309e-01 1.767260879278182983e-01 4.066156148910522461e-01
2.495000000000000000e+03 1.089081478118896484e+01 6.655112266540527344e+00 -4.090048074722290039e-01 -2.418605983257293701e-01 -1.952596306800842285e-01 4.394477903842926025e-01
2.496000000000000000e+03 6.965890884399414062e+00 -2.580925559997558594e+01 -3.197008371353149414e-01 5.098353624343872070e-01 5.704034864902496338e-02 5.630105137825012207e-01
2.497000000000000000e+03 7.902162551879882812e+00 1.800933837890625000e+01 1.718747019767761230e-01 -4.929820001125335693e-01 -9.633219242095947266e-02 2.526207566261291504e-01
2.498000000000000000e+03 1.215393257141113281e+01 -2.860254859924316406e+01 -1.618869751691818237e-01 1.281863451004028320e+00 3.359929621219635010e-01 -1.541622728109359741e-01
2.499000000000000000e+03 9.131436347961425781e+00 1.765137863159179688e+01 2.263893187046051025e-01 -4.052804410457611084e-01 -5.366734042763710022e-02 2.607787847518920898e-01
2.500000000000000000e+03 5.803047561645507812e+01 4.424115180969238281e+00 1.443834900856018066e-01 1.717968583106994629e+00 5.587056279182434082e-01 -3.324076235294342041e-01
2.501000000000000000e+03 3.838425064086914062e+01 6.663653850555419922e+00 -1.246903613209724426e-01 8.559355139732360840e-01 2.193735390901565552e-01 5.539206862449645996e-01
2.502000000000000000e+03 4.097976303100585938e+01 -1.068217372894287109e+01 -9.693982005119323730e-01 1.205277144908905029e-01 -2.546611428260803223e-01 -8.878761529922485352e-02
2.503000000000000000e+03 3.851278305053710938e+01 -1.287025356292724609e+01 -9.872199296951293945e-01 5.462349578738212585e-02 -2.797789275646209717e-01 -1.838331967592239380e-01
2.504000000000000000e+03 7.083469867706298828e+00 7.427851676940917969e+00 -1.839369386434555054e-01 -1.906843483448028564e-01 -1.123863831162452698e-01 3.685487508773803711e-01
2.505000000000000000e+03 8.203100204467773438e+00 1.245702171325683594e+01 9.106275439262390137e-02 -3.765695095062255859e-01 -8.565202355384826660e-02 4.701638519763946533e-01
2.506000000000000000e+03 6.331989765167236328e+00 -8.351282119750976562e+00 -3.276144564151763916e-01 1.330520033836364746e+00 3.008716702461242676e-01 -1.571006178855895996e+00
2.507000000000000000e+03 1.216496562957763672e+01 1.858981704711914062e+01 2.818832993507385254e-01 -1.209994703531265259e-01 4.826515167951583862e-02 2.194768041372299194e-01
2.508000000000000000e+03 1.084018135070800781e+01 2.021574020385742188e+01 1.770530939102172852e-01 -2.567590475082397461e-01 -2.391178160905838013e-02 2.006683796644210815e-01
2.509000000000000000e+03 5.677320098876953125e+01 -3.777611017227172852e+00 -1.325899004936218262e+00 3.142947256565093994e-01 -3.034812808036804199e-01 -6.313911080360412598e-02
2.510000000000000000e+03 9.276499748229980469e+00 1.287453269958496094e+01 1.586094051599502563e-01 -3.656890690326690674e-01 -6.212390214204788208e-02 4.997808039188385010e-01
2.511000000000000000e+03 7.484399795532226562e+00 2.895995330810546875e+01 2.224261872470378876e-02 -6.601574420928955078e-01 -1.913744509220123291e-01 1.001818925142288208e-01
2.512000000000000000e+03 5.739088058471679688e+01 8.216208457946777344e+00 3.462709486484527588e-01 2.421881914138793945e+00 8.304458856582641602e-01 -2.635733485221862793e-01
2.513000000000000000e+03 5.264193725585937500e+01 8.536012768745422363e-01 -2.649256587028503418e-01 4.659786522388458252e-01 6.031589582562446594e-02 3.300392627716064453e-01
2.514000000000000000e+03 4.681933212280273438e+01 1.193656086921691895e+00 -2.168868780136108398e-01 1.969342231750488281e-01 -5.985798314213752747e-03 2.778324484825134277e-01
2.515000000000000000e+03 7.259648132324218750e+01 2.099433326721191406e+01 1.128162518143653870e-01 6.115796566009521484e+00 1.868583917617797852e+00 -4.676118791103363037e-01
2.516000000000000000e+03 7.137261199951171875e+01 1.964269447326660156e+01 1.741356849670410156e-01 5.915336132049560547e+00 1.826841592788696289e+00 -5.658640265464782715e-01
2.517000000000000000e+03 6.297016525268554688e+01 -1.039927005767822266e+00 -3.116324543952941895e-01 1.816438198089599609e+00 4.514417052268981934e-01 -1.679070711135864258e+00
2.518000000000000000e+03 6.252777862548828125e+01 -2.216815233230590820e+00 -6.509781479835510254e-01 1.015147328376770020e+00 1.092507541179656982e-01 -1.460820317268371582e+00
2.519000000000000000e+03 4.168913269042968750e+01 4.311718463897705078e+00 -2.361651659011840820e-01 6.118999123573303223e-01 1.127204224467277527e-01 2.737076282501220703e-01
2.520000000000000000e+03 7.175544738769531250e+00 1.209252357482910156e+01 4.004661366343498230e-02 -3.921495378017425537e-01 -1.056308746337890625e-01 4.426905214786529541e-01
2.521000000000000000e+03 3.450075149536132812e+01 -1.228636837005615234e+01 -5.220232605934143066e-01 -5.676724389195442200e-02 -1.736371517181396484e-01 -7.012176513671875000e-02
2.522000000000000000e+03 3.349367141723632812e+01 -1.317897796630859375e+01 -5.325042009353637695e-01 -1.139853745698928833e-01 -1.939468681812286377e-01 -1.902047842741012573e-01
2.523000000000000000e+03 7.240904235839843750e+01 -3.038641166687011719e+01 -3.373590707778930664e-01 7.713877677917480469e+00 2.212955474853515625e+00 -5.961081758141517639e-02
2.524000000000000000e+03 6.891889190673828125e+01 -3.013893890380859375e+01 -4.635857045650482178e-01 6.569506168365478516e+00 1.831776142120361328e+00 3.356661498546600342e-01
2.525000000000000000e+03 5.231750488281250000e+01 -2.251096963882446289e+00 -7.885203361511230469e-01 3.436855077743530273e-01 -1.334504485130310059e-01 2.640885114669799805e-01
2.526000000000000000e+03 5.338566207885742188e+01 1.512863755226135254e+00 -1.533357501029968262e-01 5.516639947891235352e-01 1.194984689354896545e-01 3.064941465854644775e-01
2.527000000000000000e+03 4.599905014038085938e+01 1.545556664466857910e+00 -2.056099772453308105e-01 2.260090857744216919e-01 6.119734607636928558e-03 2.495851665735244751e-01
2.528000000000000000e+03 4.930623245239257812e+01 6.878631711006164551e-01 -2.543614506721496582e-01 2.189895361661911011e-01 -1.061157137155532837e-02 3.360945880413055420e-01
2.529000000000000000e+03 4.949357604980468750e+01 -7.297562599182128906e+00 -1.349457740783691406e+00 2.162059247493743896e-01 -3.399755358695983887e-01 -5.373850837349891663e-02
2.530000000000000000e+03 2.846975135803222656e+01 1.433275222778320312e+01 -2.528851032257080078e-01 2.846878468990325928e-01 9.540822356939315796e-03 4.560374617576599121e-01
2.531000000000000000e+03 2.915598487854003906e+01 1.152163791656494141e+01 -9.616642445325851440e-02 4.098845720291137695e-01 9.411545097827911377e-02 6.921986341476440430e-01
2.532000000000000000e+03 7.090354156494140625e+01 -2.849673843383789062e+01 -5.345174074172973633e-01 7.477474212646484375e+00 2.082886934280395508e+00 3.848841786384582520e-02
2.533000000000000000e+03 7.100994110107421875e+01 -2.692732048034667969e+01 -6.942137479782104492e-01 7.772358894348144531e+00 2.123443603515625000e+00 -7.780026644468307495e-02
2.534000000000000000e+03 1.031403160095214844e+01 -2.901994895935058594e+01 -3.137649297714233398e-01 9.647662639617919922e-01 1.953004002571105957e-01 1.537614613771438599e-01
2.535000000000000000e+03 7.109697723388671875e+01 2.660481071472167969e+01 1.390499919652938843e-01 5.675396442413330078e+00 1.744333982467651367e+00 -3.831677436828613281e-01
2.536000000000000000e+03 7.248284912109375000e+01 2.229573249816894531e+01 1.204391717910766602e-01 6.075970172882080078e+00 1.858922719955444336e+00 -4.494898319244384766e-01
2.537000000000000000e+03 6.279349136352539062e+01 1.098004627227783203e+01 4.716227650642395020e-01 3.756908178329467773e+00 1.268559336662292480e+00 -9.426176548004150391e-01
2.538000000000000000e+03 7.228095245361328125e+01 -2.657116889953613281e+01 -5.836549401283264160e-01 8.129126548767089844e+00 2.263641595840454102e+00 -2.660302817821502686e-01
2.539000000000000000e+03 7.079975891113281250e+01 -2.389427947998046875e+01 -7.985349893569946289e-01 8.465726852416992188e+00 2.300157546997070312e+00 -1.201558038592338562e-01
2.540000000000000000e+03 6.826183319091796875e+01 -7.094857096672058105e-01 -1.543006181716918945e+00 6.924097537994384766e+00 1.614327430725097656e+00 -2.023967027664184570e+00
2.541000000000000000e+03 7.296541595458984375e+01 8.184671998023986816e-01 -1.077026486396789551e+00 8.391495704650878906e+00 2.194340705871582031e+00 -3.178797662258148193e-01
2.542000000000000000e+03 5.420788955688476562e+01 2.082044363021850586e+00 -9.920086711645126343e-02 7.167114019393920898e-01 1.852531582117080688e-01 2.450123280286788940e-01
2.543000000000000000e+03 7.105172729492187500e+01 -2.524547815322875977e+00 -1.904057860374450684e+00 9.526669502258300781e+00 2.286783695220947266e+00 -5.933597087860107422e-01
2.544000000000000000e+03 5.621136856079101562e+01 -5.895504474639892578e+00 -1.891341924667358398e+00 1.715881079435348511e-01 -5.159261822700500488e-01 -1.788683980703353882e-01
2.545000000000000000e+03 3.872857284545898438e+01 1.903352928161621094e+01 3.606092333793640137e-01 1.202757716178894043e+00 4.690100848674774170e-01 2.874344289302825928e-01
2.546000000000000000e+03 6.988426971435546875e+01 -2.286755943298339844e+01 -8.113816380500793457e-01 8.413311004638671875e+00 2.280578851699829102e+00 6.438276171684265137e-02
2.547000000000000000e+03 1.065733718872070312e+01 -2.574912643432617188e+01 -1.447464972734451294e-01 1.713015556335449219e+00 4.704807102680206299e-01 -2.276559919118881226e-01
2.548000000000000000e+03 7.339436340332031250e+01 -6.296162605285644531e+00 1.179663315415382385e-01 9.954817771911621094e+00 3.021835088729858398e+00 1.618815422058105469e+00
2.549000000000000000e+03 7.194052886962890625e+01 6.336267948150634766e+00 -3.014276027679443359e-01 6.897648334503173828e+00 1.978866219520568848e+00 -8.143004775047302246e-01
2.550000000000000000e+03 6.644116973876953125e+01 -2.676484870910644531e+01 -6.291422247886657715e-01 5.842506885528564453e+00 1.564009428024291992e+00 7.432911396026611328e-01
2.551000000000000000e+03 5.272117996215820312e+01 -5.441878795623779297e+00 -1.397399783134460449e+00 2.581128478050231934e-01 -3.417860865592956543e-01 3.764688223600387573e-02
2.552000000000000000e+03 5.891773223876953125e+01 9.086037635803222656e+00 4.281088113784790039e-01 2.842316627502441406e+00 9.811276197433471680e-01 -5.907124280929565430e-01
2.553000000000000000e+03 7.768857479095458984e+00 2.533806037902832031e+01 3.794985264539718628e-02 -5.823069214820861816e-01 -1.633071154356002808e-01 1.218821927905082703e-01
2.554000000000000000e+03 7.155186462402343750e+01 1.457341003417968750e+01 1.467953324317932129e-01 6.127900600433349609e+00 1.882408857345581055e+00 -7.230298519134521484e-01
2.555000000000000000e+03 7.154782104492187500e+01 1.134706211090087891e+01 7.096144556999206543e-02 6.308364868164062500e+00 1.913797974586486816e+00 -8.156801462173461914e-01
2.556000000000000000e+03 1.735724639892578125e+01 -3.208847427368164062e+01 -1.001030299812555313e-02 1.072021245956420898e+00 3.186033070087432861e-01 -3.810029625892639160e-01
2.557000000000000000e+03 1.779413986206054688e+01 -3.025655937194824219e+01 1.989319622516632080e-01 1.153777599334716797e+00 4.058128595352172852e-01 -5.344981551170349121e-01
2.558000000000000000e+03 7.047335815429687500e+01 -3.538901519775390625e+01 -1.285523325204849243e-01 6.669880867004394531e+00 1.962398648262023926e+00 1.264058500528335571e-01
2.559000000000000000e+03 2.985390853881835938e+01 1.394140815734863281e+01 -1.369122862815856934e-01 4.408977925777435303e-01 9.119565039873123169e-02 5.230692028999328613e-01
2.560000000000000000e+03 3.073317337036132812e+01 1.699301528930664062e+01 2.093126811087131500e-02 4.404292404651641846e-01 1.384081542491912842e-01 3.260736763477325439e-01
2.561000000000000000e+03 2.983489227294921875e+01 1.913489913940429688e+01 1.365114450454711914e-01 3.132185637950897217e-01 1.349190026521682739e-01 2.448620051145553589e-01
2.562000000000000000e+03 7.140969848632812500e+01 -2.083065223693847656e+01 -6.457898616790771484e-01 9.335846900939941406e+00 2.607017040252685547e+00 -5.737421512603759766e-01
2.563000000000000000e+03 7.346171569824218750e+01 -2.093587112426757812e+01 -5.309631824493408203e-01 9.139678955078125000e+00 2.582614660263061523e+00 -1.031220078468322754e+00
2.564000000000000000e+03 5.525726699829101562e+01 -5.098630905151367188e+00 -1.626944422721862793e+00 2.605106532573699951e-01 -4.099301397800445557e-01 -4.865235090255737305e-02
2.565000000000000000e+03 5.995490264892578125e+01 -9.052594900131225586e-01 -4.905694425106048584e-01 9.298756718635559082e-01 1.317918747663497925e-01 -6.520296335220336914e-01
2.566000000000000000e+03 8.410388946533203125e+00 -2.892142868041992188e+01 -3.329704999923706055e-01 5.954262018203735352e-01 7.873670011758804321e-02 3.469213843345642090e-01
2.567000000000000000e+03 8.622361183166503906e+00 -3.240963363647460938e+01 -2.998712956905364990e-01 3.815160989761352539e-01 2.449344471096992493e-02 2.736914753913879395e-01
2.568000000000000000e+03 4.217941665649414062e+01 3.504868745803833008e+00 -2.424403280019760132e-01 5.197335481643676758e-01 8.318797498941421509e-02 2.507453560829162598e-01
2.569000000000000000e+03 9.674926757812500000e+00 3.500010681152343750e+01 6.347338110208511353e-02 -5.949701666831970215e-01 -1.594490259885787964e-01 8.248738199472427368e-02
2.570000000000000000e+03 9.502781867980957031e+00 -2.475314331054687500e+01 -2.159569263458251953e-01 1.645993590354919434e+00 4.290109872817993164e-01 4.000140819698572159e-03
2.571000000000000000e+03 8.713405609130859375e+00 3.030694961547851562e+01 2.500330097973346710e-02 -5.860593318939208984e-01 -1.683168113231658936e-01 1.121172830462455750e-01
2.572000000000000000e+03 7.804857730865478516e+00 -3.488890075683593750e+01 -2.452670633792877197e-01 9.252975881099700928e-02 -4.582119360566139221e-02 2.348429411649703979e-01
2.573000000000000000e+03 5.241802215576171875e+01 -6.918505668640136719e+00 -1.600909113883972168e+00 2.034330666065216064e-01 -4.192428290843963623e-01 -1.155728399753570557e-01
2.574000000000000000e+03 6.205650329589843750e+01 1.281083679199218750e+01 5.772882699966430664e-01 3.707802534103393555e+00 1.285527229309082031e+00 -8.222545385360717773e-01
2.575000000000000000e+03 6.384418487548828125e+01 1.679832839965820312e+01 4.733610153198242188e-01 4.243655681610107422e+00 1.415104985237121582e+00 -6.852282881736755371e-01
2.576000000000000000e+03 3.154404258728027344e+01 8.550373077392578125e+00 1.057925671339035034e-01 5.292277336120605469e-01 1.905060857534408569e-01 7.311952710151672363e-01
2.577000000000000000e+03 3.083721542358398438e+01 9.333875656127929688e+00 8.279343694448471069e-02 5.236391425132751465e-01 1.819297671318054199e-01 7.555063366889953613e-01
2.578000000000000000e+03 7.070062255859375000e+01 -3.043642616271972656e+01 -4.457752406597137451e-01 7.194569587707519531e+00 2.024638414382934570e+00 9.869360178709030151e-02
2.579000000000000000e+03 7.029130554199218750e+01 2.818164062500000000e+01 1.373008191585540771e-01 5.471886157989501953e+00 1.682756185531616211e+00 -3.793499767780303955e-01
2.580000000000000000e+03 8.563484191894531250e+00 2.332151222229003906e+01 7.463907450437545776e-02 -4.841181039810180664e-01 -1.228437051177024841e-01 1.552164405584335327e-01
2.581000000000000000e+03 5.831526565551757812e+01 2.003049278259277344e+01 3.602486550807952881e-01 3.376346349716186523e+00 1.120978474617004395e+00 -6.086950302124023438e-01
2.582000000000000000e+03 5.919495010375976562e+01 1.706623458862304688e+01 5.696423649787902832e-01 3.427820920944213867e+00 1.199239015579223633e+00 -4.843701124191284180e-01
2.583000000000000000e+03 4.772075271606445312e+01 2.461464309692382812e+01 6.945441365242004395e-01 1.169924378395080566e+00 5.593405365943908691e-01 1.609875708818435669e-01
2.584000000000000000e+03 4.525124359130859375e+01 2.793197822570800781e+01 6.488006711006164551e-01 1.309650659561157227e+00 5.875353813171386719e-01 2.006265223026275635e-01
2.585000000000000000e+03 5.411014938354492188e+01 6.678590178489685059e-01 -3.152748644351959229e-01 5.845040678977966309e-01 8.076877146959304810e-02 2.432086765766143799e-01
2.586000000000000000e+03 7.242845153808593750e+01 -2.840339088439941406e+01 -4.971865415573120117e-01 7.928216457366943359e+00 2.229309082031250000e+00 -2.053592205047607422e-01
2.587000000000000000e+03 1.030570697784423828e+01 2.614020538330078125e+01 4.509102180600166321e-02 -4.108764231204986572e-01 -1.097356230020523071e-01 1.763225197792053223e-01
2.588000000000000000e+03 9.862875938415527344e+00 2.849947547912597656e+01 3.638349846005439758e-02 -4.912550151348114014e-01 -1.364614516496658325e-01 1.413632929325103760e-01
2.589000000000000000e+03 7.212259674072265625e+01 -2.113376379013061523e+00 -1.590201258659362793e+00 9.461069107055664062e+00 2.361260414123535156e+00 1.256113350391387939e-01
2.590000000000000000e+03 3.676834106445312500e+01 9.576000213623046875e+00 8.508277684450149536e-02 8.863536715507507324e-01 2.914309203624725342e-01 6.867672204971313477e-01
2.591000000000000000e+03 3.730607986450195312e+01 7.477537631988525391e+00 -5.246981233358383179e-02 8.488039970397949219e-01 2.389002442359924316e-01 6.339614391326904297e-01
2.592000000000000000e+03 5.446885299682617188e+01 2.544167709350585938e+01 5.686138272285461426e-01 2.255215883255004883e+00 8.471488952636718750e-01 -5.022812485694885254e-01
2.593000000000000000e+03 5.305695343017578125e+01 2.604173088073730469e+01 6.621153354644775391e-01 1.985754609107971191e+00 7.943609356880187988e-01 -3.724609315395355225e-01
2.594000000000000000e+03 2.763293647766113281e+01 -1.201738357543945312e+01 1.469860911369323730e+00 1.057368040084838867e+00 7.581686973571777344e-01 1.371605992317199707e+00
2.595000000000000000e+03 2.825542831420898438e+01 -1.179342460632324219e+01 1.160011172294616699e+00 6.814299821853637695e-01 5.524323582649230957e-01 1.120242714881896973e+00
2.596000000000000000e+03 2.753190040588378906e+01 -1.031208705902099609e+01 2.208689600229263306e-01 1.504832029342651367e+00 5.177102684974670410e-01 1.247957348823547363e+00
2.597000000000000000e+03 2.740292930603027344e+01 -1.120816135406494141e+01 7.859630584716796875e-01 1.591505169868469238e+00 7.132404446601867676e-01 1.470402717590332031e+00
2.598000000000000000e+03 2.827562141418457031e+01 -1.271098041534423828e+01 1.607855081558227539e+00 2.791037857532501221e-01 5.660876631736755371e-01 7.087835669517517090e-01
2.599000000000000000e+03 2.621916007995605469e+01 -1.021992874145507812e+01 -1.542836725711822510e-01 2.204330682754516602e+00 6.150140762329101562e-01 9.165954589843750000e-01
2.600000000000000000e+03 2.568815040588378906e+01 -1.032939052581787109e+01 -2.314716875553131104e-01 2.349404335021972656e+00 6.353797912597656250e-01 6.162368655204772949e-01
2.601000000000000000e+03 2.660831069946289062e+01 -8.109019279479980469e+00 -4.878663420677185059e-01 1.443544626235961914e+00 2.867034971714019775e-01 7.473305463790893555e-01
2.602000000000000000e+03 2.684490966796875000e+01 -7.622260093688964844e+00 -5.254501700401306152e-01 1.343886494636535645e+00 2.455308884382247925e-01 7.616596817970275879e-01
2.603000000000000000e+03 2.858047103881835938e+01 -1.329989719390869141e+01 1.308679580688476562e+00 -5.481666326522827148e-02 3.761588633060455322e-01 1.021674945950508118e-01
2.604000000000000000e+03 2.902356719970703125e+01 -1.293730926513671875e+01 1.082729458808898926e+00 -5.639418959617614746e-02 3.079005777835845947e-01 2.745701968669891357e-01
2.605000000000000000e+03 2.813890457153320312e+01 -1.357747745513916016e+01 1.615035414695739746e+00 4.823663271963596344e-03 4.859577417373657227e-01 -4.665092006325721741e-02
2.606000000000000000e+03 7.087248802185058594e+00 6.480558872222900391e+00 -2.102261036634445190e-01 -1.512647569179534912e-01 -1.084472537040710449e-01 3.336521685123443604e-01
2.607000000000000000e+03 3.001098632812500000e+01 -1.372839355468750000e+01 2.348818480968475342e-01 -2.658540904521942139e-01 -9.291674941778182983e-03 -2.969068288803100586e-01
2.608000000000000000e+03 9.906310081481933594e+00 8.605624198913574219e+00 -2.312987297773361206e-01 -2.447718977928161621e-01 -1.428211927413940430e-01 5.068061351776123047e-01
2.609000000000000000e+03 7.853393077850341797e+00 9.290886878967285156e+00 -1.202707886695861816e-01 -2.507249712944030762e-01 -1.112987324595451355e-01 4.630555212497711182e-01
2.610000000000000000e+03 8.456100463867187500e+00 1.145764923095703125e+01 2.990598604083061218e-02 -3.461458981037139893e-01 -9.487197548151016235e-02 5.085694193840026855e-01
2.611000000000000000e+03 2.532340431213378906e+01 -4.279076576232910156e+00 -7.453639507293701172e-01 8.824304938316345215e-01 4.111996293067932129e-02 4.752612709999084473e-01
2.612000000000000000e+03 2.563350677490234375e+01 -1.274972915649414062e+00 -6.461588740348815918e-01 7.884781956672668457e-01 4.269579052925109863e-02 4.244007170200347900e-01
2.613000000000000000e+03 3.731179046630859375e+01 -1.100605392456054688e+01 -7.092818021774291992e-01 6.264171749353408813e-02 -1.939920336008071899e-01 -1.225309260189533234e-02
2.614000000000000000e+03 3.952946472167968750e+01 3.353026390075683594e+00 -2.638196647167205811e-01 6.456652879714965820e-01 1.145536825060844421e-01 4.152346849441528320e-01
2.615000000000000000e+03 3.931001281738281250e+01 5.672293186187744141e+00 -1.949256062507629395e-01 7.967578768730163574e-01 1.805496811866760254e-01 4.537198543548583984e-01
2.616000000000000000e+03 1.317047786712646484e+01 -7.838876247406005859e+00 -2.141665220260620117e-01 7.739963531494140625e-01 1.679489463567733765e-01 1.071839094161987305e+00
2.617000000000000000e+03 2.504266357421875000e+01 -3.449626207351684570e+00 -7.494417428970336914e-01 8.087649941444396973e-01 1.779698021709918976e-02 4.474351704120635986e-01
2.618000000000000000e+03 3.035319900512695312e+01 -1.305781841278076172e+01 3.544118702411651611e-01 -1.996492147445678711e-01 4.642879217863082886e-02 -1.892652735114097595e-02
2.619000000000000000e+03 3.167580032348632812e+01 -1.368905735015869141e+01 -3.104776740074157715e-01 -2.017563432455062866e-01 -1.536702066659927368e-01 -2.928753197193145752e-01
2.620000000000000000e+03 7.036028289794921875e+01 -1.534597516059875488e+00 -1.801144719123840332e+00 8.704176902770996094e+00 2.070909500122070312e+00 -1.029082655906677246e+00
2.621000000000000000e+03 7.188508605957031250e+01 -5.440543293952941895e-01 -1.486239194869995117e+00 8.710145950317382812e+00 2.167171955108642578e+00 -5.043374896049499512e-01
2.622000000000000000e+03 1.093609905242919922e+01 7.619399070739746094e+00 -3.678062856197357178e-01 -2.457337230443954468e-01 -1.840620040893554688e-01 4.684050679206848145e-01
2.623000000000000000e+03 5.195310592651367188e+01 8.239816129207611084e-02 -3.499208390712738037e-01 3.728511035442352295e-01 6.879082415252923965e-03 3.382800519466400146e-01
2.624000000000000000e+03 2.602304840087890625e+01 5.658099055290222168e-01 -4.858597517013549805e-01 7.738520503044128418e-01 8.639768511056900024e-02 3.876160383224487305e-01
2.625000000000000000e+03 2.775047492980957031e+01 1.941282153129577637e+00 -2.826662361621856689e-01 7.693524360656738281e-01 1.460058540105819702e-01 3.881964087486267090e-01
2.626000000000000000e+03 2.530481910705566406e+01 -2.324995517730712891e+00 -7.136141657829284668e-01 7.895735502243041992e-01 2.278781868517398834e-02 4.353424310684204102e-01
2.627000000000000000e+03 3.720374298095703125e+01 -1.003894329071044922e+01 -6.263410449028015137e-01 9.671877324581146240e-02 -1.588866859674453735e-01 8.251155167818069458e-02
2.628000000000000000e+03 3.936945343017578125e+01 -1.162301158905029297e+01 -9.338427782058715820e-01 8.669474720954895020e-02 -2.541444301605224609e-01 -1.140155419707298279e-01
2.629000000000000000e+03 3.543844985961914062e+01 -1.129715061187744141e+01 -5.328854322433471680e-01 8.836879394948482513e-03 -1.572145670652389526e-01 2.630456723272800446e-02
2.630000000000000000e+03 6.578730010986328125e+01 -9.993893504142761230e-01 -8.656916618347167969e-01 4.333890914916992188e+00 1.040459752082824707e+00 -2.585371494293212891e+00
2.631000000000000000e+03 3.353209686279296875e+01 9.195281028747558594e+00 8.080640435218811035e-02 6.487770080566406250e-01 2.188750207424163818e-01 7.315135598182678223e-01
2.632000000000000000e+03 3.552249908447265625e+01 9.176800727844238281e+00 7.422509044408798218e-02 7.667415738105773926e-01 2.522899806499481201e-01 6.979258060455322266e-01
2.633000000000000000e+03 4.779333496093750000e+01 -7.054591178894042969e+00 -1.184763431549072266e+00 2.263367474079132080e-01 -2.875280082225799561e-01 9.234628640115261078e-03
2.634000000000000000e+03 9.837833404541015625e+00 9.630996704101562500e+00 -1.409803628921508789e-01 -2.444586455821990967e-01 -1.156316995620727539e-01 5.463203191757202148e-01
2.635000000000000000e+03 8.631682395935058594e+00 -8.964743614196777344e+00 -2.809963226318359375e-01 2.899111270904541016e+00 7.854344844818115234e-01 -6.268445253372192383e-01
2.636000000000000000e+03 4.738763046264648438e+01 -8.467870712280273438e+00 -1.257544994354248047e+00 1.911866366863250732e-01 -3.199075162410736084e-01 -9.186000376939773560e-02
2.637000000000000000e+03 4.523137283325195312e+01 -9.510673522949218750e+00 -1.165381073951721191e+00 1.641591489315032959e-01 -3.003665804862976074e-01 -1.122018843889236450e-01
2.638000000000000000e+03 3.030406188964843750e+01 5.088534832000732422e+00 5.204937234520912170e-02 5.757074952125549316e-01 1.883270740509033203e-01 5.382139682769775391e-01
2.639000000000000000e+03 3.153595161437988281e+01 5.616912364959716797e+00 4.213547334074974060e-02 5.885114669799804688e-01 1.891940832138061523e-01 6.127337217330932617e-01
2.640000000000000000e+03 2.536888313293457031e+01 -4.729573726654052734e-01 -5.905559062957763672e-01 7.451184988021850586e-01 4.636878520250320435e-02 4.016079902648925781e-01
2.641000000000000000e+03 2.509439086914062500e+01 3.732720017433166504e-01 -5.274302363395690918e-01 7.224910259246826172e-01 5.851823091506958008e-02 3.801821768283843994e-01
2.642000000000000000e+03 7.127910137176513672e+00 8.281344413757324219e+00 -1.550659090280532837e-01 -2.150913625955581665e-01 -1.110471785068511963e-01 4.086789786815643311e-01
2.643000000000000000e+03 7.986540794372558594e+00 8.395429611206054688e+00 -1.748863607645034790e-01 -2.268528044223785400e-01 -1.205217465758323669e-01 4.376832544803619385e-01
2.644000000000000000e+03 7.171906280517578125e+01 -2.505142211914062500e+01 -7.272454500198364258e-01 8.271215438842773438e+00 2.263190984725952148e+00 -3.423939943313598633e-01
2.645000000000000000e+03 6.795621490478515625e+01 -2.754754638671875000e+01 -6.430093646049499512e-01 6.494864463806152344e+00 1.755556464195251465e+00 5.265420675277709961e-01
2.646000000000000000e+03 2.737978744506835938e+01 2.910110950469970703e+00 -1.569818556308746338e-01 7.250205874443054199e-01 1.704116314649581909e-01 3.747461140155792236e-01
2.647000000000000000e+03 3.415062713623046875e+01 4.121417045593261719e+00 -1.350288540124893188e-01 6.580052971839904785e-01 1.568929404020309448e-01 5.973262786865234375e-01
2.648000000000000000e+03 8.439365386962890625e+00 -7.576247215270996094e+00 -7.415892481803894043e-01 2.050935745239257812e+00 3.928039371967315674e-01 -6.786041259765625000e-01
2.649000000000000000e+03 7.103204250335693359e+00 -7.600692749023437500e+00 -6.256154179573059082e-01 1.570168375968933105e+00 2.833658754825592041e-01 -1.360715031623840332e+00
2.650000000000000000e+03 4.595111083984375000e+01 -1.048800659179687500e+01 -1.264468193054199219e+00 1.326825767755508423e-01 -3.395356833934783936e-01 -2.040185332298278809e-01
2.651000000000000000e+03 7.189022064208984375e+01 8.844787597656250000e+00 -7.972517609596252441e-02 6.615217208862304688e+00 1.960647583007812500e+00 -8.318125605583190918e-01
2.652000000000000000e+03 5.049319839477539062e+01 -6.549167633056640625e+00 -1.345374107360839844e+00 2.383228689432144165e-01 -3.321153819561004639e-01 1.294692046940326691e-03
2.653000000000000000e+03 6.982579040527343750e+01 1.828598785400390625e+01 2.297517657279968262e-01 5.588750839233398438e+00 1.745550751686096191e+00 -6.469030380249023438e-01
2.654000000000000000e+03 7.070214080810546875e+01 1.540575027465820312e+01 1.892106533050537109e-01 5.874850273132324219e+00 1.819218397140502930e+00 -7.230268120765686035e-01
2.655000000000000000e+03 5.434151458740234375e+01 -4.243629455566406250e+00 -1.287177085876464844e+00 3.097441494464874268e-01 -2.932298779487609863e-01 1.071470528841018677e-01
2.656000000000000000e+03 4.882100296020507812e+01 -5.062742710113525391e+00 -1.008399367332458496e+00 2.577183842658996582e-01 -2.252042889595031738e-01 1.501886546611785889e-01
2.657000000000000000e+03 5.659376525878906250e+01 1.889497756958007812e+00 -8.245097845792770386e-02 1.023400664329528809e+00 2.822849154472351074e-01 -5.655351653695106506e-02
2.658000000000000000e+03 5.985071182250976562e+01 7.685317993164062500e+00 3.525230884552001953e-01 2.776918649673461914e+00 9.388325214385986328e-01 -7.212165594100952148e-01
2.659000000000000000e+03 5.866258239746093750e+01 6.871864795684814453e+00 2.885284721851348877e-01 2.411664962768554688e+00 8.100580573081970215e-01 -4.929035007953643799e-01
2.660000000000000000e+03 7.277706909179687500e+01 1.422480869293212891e+01 9.704784303903579712e-02 6.464853763580322266e+00 1.968570470809936523e+00 -6.731889843940734863e-01
2.661000000000000000e+03 7.136242675781250000e+01 1.264555168151855469e+01 9.804099798202514648e-02 6.189748764038085938e+00 1.886336922645568848e+00 -7.997252941131591797e-01
2.662000000000000000e+03 1.108208560943603516e+01 -2.781698608398437500e+01 -2.192011177539825439e-01 1.375630617141723633e+00 3.469288349151611328e-01 -1.077619940042495728e-01
2.663000000000000000e+03 6.618737792968750000e+01 1.732532680034637451e-01 -8.520562052726745605e-01 4.825508594512939453e+00 1.192035794258117676e+00 -2.141737222671508789e+00
2.664000000000000000e+03 6.898302459716796875e+01 -2.219150543212890625e+00 -2.064742803573608398e+00 8.332633018493652344e+00 1.880367040634155273e+00 -1.945743203163146973e+00
2.665000000000000000e+03 8.034029006958007812e+00 1.502885055541992188e+01 1.953495591878890991e-01 -4.425079822540283203e-01 -7.414752990007400513e-02 3.710078001022338867e-01
2.666000000000000000e+03 8.437668800354003906e+00 -6.212506771087646484e+00 -1.008004069328308105e+00 1.509110093116760254e+00 1.503318101167678833e-01 -6.374744772911071777e-01
2.667000000000000000e+03 3.241063690185546875e+01 1.819813156127929688e+01 1.628328561782836914e-01 5.812403559684753418e-01 2.232219576835632324e-01 3.002510368824005127e-01
2.668000000000000000e+03 4.419494628906250000e+01 1.982484340667724609e+00 -2.325406968593597412e-01 3.228566348552703857e-01 2.709477581083774567e-02 2.335207313299179077e-01
2.669000000000000000e+03 4.511737442016601562e+01 1.812536835670471191e+00 -2.167451530694961548e-01 2.617047131061553955e-01 1.348786707967519760e-02 2.376472055912017822e-01
2.670000000000000000e+03 1.048344135284423828e+01 1.736458778381347656e+01 2.796925902366638184e-01 -3.089772760868072510e-01 -8.785403333604335785e-03 2.735117077827453613e-01
2.671000000000000000e+03 5.650497817993164062e+01 -2.387644052505493164e-01 -4.695336520671844482e-01 7.385967969894409180e-01 8.071893453598022461e-02 3.083609044551849365e-02
2.672000000000000000e+03 5.619100189208984375e+01 6.448255181312561035e-01 -2.906958758831024170e-01 7.638210058212280273e-01 1.419375389814376831e-01 3.020730800926685333e-02
2.673000000000000000e+03 9.006535530090332031e+00 -6.825233459472656250e+00 -9.380977749824523926e-01 2.004627943038940430e+00 3.199590444564819336e-01 -4.193253219127655029e-01
2.674000000000000000e+03 5.242675018310546875e+01 -1.290064215660095215e+00 -6.052148938179016113e-01 3.630569875240325928e-01 -7.264737039804458618e-02 2.972654700279235840e-01
2.675000000000000000e+03 3.630403900146484375e+01 1.633970069885253906e+01 3.286828100681304932e-01 9.103249907493591309e-01 3.717023432254791260e-01 4.009090363979339600e-01
2.676000000000000000e+03 4.760698318481445312e+01 4.781819880008697510e-01 -2.837808728218078613e-01 2.116705328226089478e-01 -2.163310162723064423e-02 2.973639965057373047e-01
2.677000000000000000e+03 3.532378387451171875e+01 1.437977123260498047e+01 2.502603232860565186e-01 8.128648996353149414e-01 3.189375698566436768e-01 5.214396119117736816e-01
2.678000000000000000e+03 8.148916244506835938e+00 1.927869606018066406e+01 1.560052633285522461e-01 -4.845720827579498291e-01 -9.857004135847091675e-02 2.090617716312408447e-01
2.679000000000000000e+03 6.983860015869140625e+00 9.008659362792968750e+00 -1.098742038011550903e-01 -2.644320726394653320e-01 -1.122918874025344849e-01 4.209845364093780518e-01
2.680000000000000000e+03 8.022902488708496094e+00 7.488716125488281250e+00 -2.244396209716796875e-01 -1.811960190534591675e-01 -1.216906905174255371e-01 4.152524173259735107e-01
2.681000000000000000e+03 2.888160133361816406e+01 -1.121103000640869141e+01 7.167401909828186035e-01 5.755741000175476074e-01 3.876942992210388184e-01 1.035055160522460938e+00
2.682000000000000000e+03 6.394680023193359375e+01 1.337885093688964844e+01 4.847644865512847900e-01 4.160092353820800781e+00 1.393457055091857910e+00 -8.639897108078002930e-01
2.683000000000000000e+03 5.491077423095703125e+00 2.172998809814453125e+01 5.187976360321044922e-02 -7.091721892356872559e-01 -1.971877217292785645e-01 1.240146085619926453e-01
2.684000000000000000e+03 7.079302978515625000e+01 5.155296802520751953e+00 -4.515934586524963379e-01 6.663033485412597656e+00 1.863432049751281738e+00 -9.752374887466430664e-01
2.685000000000000000e+03 6.052803421020507812e+01 9.615723609924316406e+00 4.530980288982391357e-01 3.215987920761108398e+00 1.100725769996643066e+00 -8.011995553970336914e-01
2.686000000000000000e+03 8.307289123535156250e+00 -2.398947334289550781e+01 -2.868573367595672607e-01 1.526173591613769531e+00 3.717948794364929199e-01 2.279752492904663086e-01
2.687000000000000000e+03 8.954241752624511719e+00 -2.705666732788085938e+01 -3.169202804565429688e-01 1.016573786735534668e+00 2.098960429430007935e-01 2.334080636501312256e-01
2.688000000000000000e+03 3.138267135620117188e+01 1.023606872558593750e+01 5.787641182541847229e-02 5.260509848594665527e-01 1.751782149076461792e-01 7.397584915161132812e-01
2.689000000000000000e+03 2.946390914916992188e+01 1.261484050750732422e+01 -1.459001153707504272e-01 4.385693967342376709e-01 8.780078589916229248e-02 6.439726948738098145e-01
2.690000000000000000e+03 7.169093322753906250e+01 1.566935729980468750e+01 1.503400057554244995e-01 6.130101203918457031e+00 1.884132385253906250e+00 -6.716668009757995605e-01
2.691000000000000000e+03 3.113775062561035156e+01 1.344898414611816406e+01 -2.793824113905429840e-02 5.425307154655456543e-01 1.543777436017990112e-01 5.922448039054870605e-01
2.692000000000000000e+03 1.153947448730468750e+01 -3.006814384460449219e+01 -2.792897522449493408e-01 1.093837976455688477e+00 2.443644851446151733e-01 -8.123600855469703674e-03
2.693000000000000000e+03 5.569530487060546875e+01 1.560938119888305664e+00 -1.613186299800872803e-01 8.714324235916137695e-01 2.130341380834579468e-01 9.002423286437988281e-02
2.694000000000000000e+03 3.834359359741210938e+01 2.368143272399902344e+01 3.347989320755004883e-01 1.051163554191589355e+00 4.157887697219848633e-01 2.828055918216705322e-01
2.695000000000000000e+03 3.724477767944335938e+01 1.846463775634765625e+01 3.470152914524078369e-01 1.017457008361816406e+00 4.093416929244995117e-01 2.961553931236267090e-01
2.696000000000000000e+03 1.158973312377929688e+01 3.183418083190917969e+01 4.873687401413917542e-02 -4.482952952384948730e-01 -1.198675259947776794e-01 1.389138102531433105e-01
2.697000000000000000e+03 6.324216461181640625e+01 -3.226569747924804688e+01 -4.112138971686363220e-02 3.611868381500244141e+00 1.071224093437194824e+00 5.617629885673522949e-01
2.698000000000000000e+03 6.454032135009765625e+01 -3.043259620666503906e+01 -2.982607781887054443e-01 4.489560604095458984e+00 1.257390022277832031e+00 6.628150343894958496e-01
2.699000000000000000e+03 5.527511596679687500e+01 -3.787221431732177734e+00 -1.279095172882080078e+00 3.428622782230377197e-01 -2.808698415756225586e-01 5.627764388918876648e-02
2.700000000000000000e+03 5.731107330322265625e+01 -3.023114204406738281e+00 -1.160876512527465820e+00 4.430028796195983887e-01 -2.153621017932891846e-01 -6.105504930019378662e-02
2.701000000000000000e+03 7.002666473388671875e+01 -2.608421325683593750e+00 -2.062178850173950195e+00 9.187070846557617188e+00 2.137467622756958008e+00 -1.108866930007934570e+00
2.702000000000000000e+03 6.958699035644531250e+01 1.196739375591278076e-01 -1.461896896362304688e+00 7.491473674774169922e+00 1.808872938156127930e+00 -1.449764609336853027e+00
2.703000000000000000e+03 7.112621307373046875e+01 2.085194015502929688e+01 1.497456580400466919e-01 5.776427268981933594e+00 1.777851819992065430e+00 -5.278133749961853027e-01
2.704000000000000000e+03 7.015914154052734375e+01 1.993679618835449219e+01 2.067196667194366455e-01 5.619558334350585938e+00 1.747883439064025879e+00 -5.901805758476257324e-01
2.705000000000000000e+03 3.029143524169921875e+01 1.542629241943359375e+01 -6.263908743858337402e-02 4.378678500652313232e-01 1.125686317682266235e-01 4.245935678482055664e-01
2.706000000000000000e+03 3.218389129638671875e+01 1.656297683715820312e+01 9.989546984434127808e-02 5.763122439384460449e-01 2.028623074293136597e-01 3.866783082485198975e-01
2.707000000000000000e+03 3.238290023803710938e+01 9.654320716857910156e+00 6.585402041673660278e-02 6.047330498695373535e-01 2.011761218309402466e-01 7.346111536026000977e-01
2.708000000000000000e+03 3.595227813720703125e+01 8.055510520935058594e+00 5.868264939635992050e-03 7.897961735725402832e-01 2.386993318796157837e-01 6.868291497230529785e-01
2.709000000000000000e+03 3.703895950317382812e+01 8.492153167724609375e+00 1.628807000815868378e-02 8.574265837669372559e-01 2.621143758296966553e-01 6.533344984054565430e-01
2.710000000000000000e+03 1.800563049316406250e+01 2.292373466491699219e+01 1.271695941686630249e-01 2.150076068937778473e-02 4.460110515356063843e-02 4.585821628570556641e-01
2.711000000000000000e+03 5.686280059814453125e+01 1.951080894470214844e+01 3.732587397098541260e-01 2.959898710250854492e+00 9.999471902847290039e-01 -6.070637702941894531e-01
2.712000000000000000e+03 6.185991287231445312e+01 1.593148231506347656e+01 5.743580460548400879e-01 3.824253320693969727e+00 1.319583415985107422e+00 -6.470869183540344238e-01
2.713000000000000000e+03 6.244001007080078125e+01 1.732767295837402344e+01 5.137314200401306152e-01 3.992304801940917969e+00 1.351810812950134277e+00 -6.230338811874389648e-01
2.714000000000000000e+03 7.385366439819335938e+00 1.111852073669433594e+01 -5.261902697384357452e-03 -3.356080353260040283e-01 -1.022609844803810120e-01 4.616124033927917480e-01
2.715000000000000000e+03 7.006149291992187500e+01 1.667644309997558594e+01 2.144544422626495361e-01 5.673424243927001953e+00 1.766363620758056641e+00 -6.988215446472167969e-01
2.716000000000000000e+03 5.608815765380859375e+01 -4.467210769653320312e+00 -1.475809574127197266e+00 2.844275832176208496e-01 -3.574146032333374023e-01 -4.782267846167087555e-03
2.717000000000000000e+03 3.635205078125000000e+01 7.059768676757812500e+00 -4.797308146953582764e-02 7.719956636428833008e-01 2.172067761421203613e-01 6.468547582626342773e-01
2.718000000000000000e+03 5.864932632446289062e+01 -3.426549136638641357e-01 -3.683508336544036865e-01 9.079126119613647461e-01 1.618685424327850342e-01 -3.284145891666412354e-01
2.719000000000000000e+03 5.745345306396484375e+01 -5.575357377529144287e-02 -3.898818790912628174e-01 8.184987306594848633e-01 1.285850554704666138e-01 -1.726565510034561157e-01
2.720000000000000000e+03 6.632538604736328125e+01 -3.154737281799316406e+01 -2.900955975055694580e-01 5.258446693420410156e+00 1.490505337715148926e+00 5.599191188812255859e-01
2.721000000000000000e+03 7.073579406738281250e+01 9.972229957580566406e+00 2.043088153004646301e-02 6.173706531524658203e+00 1.858241319656372070e+00 -8.945758342742919922e-01
2.722000000000000000e+03 7.070407867431640625e+01 8.870621681213378906e+00 -8.856125921010971069e-02 6.274425029754638672e+00 1.855759143829345703e+00 -9.531030654907226562e-01
2.723000000000000000e+03 6.262760162353515625e+01 1.402801609039306641e+01 5.623344182968139648e-01 3.901168346405029297e+00 1.339050769805908203e+00 -7.650076150894165039e-01
2.724000000000000000e+03 3.543133163452148438e+01 6.472055912017822266e+00 -5.475849658250808716e-02 7.310613989830017090e-01 2.028908729553222656e-01 6.600667238235473633e-01
2.725000000000000000e+03 6.532875823974609375e+01 3.400762557983398438e+01 2.781475782394409180e-01 4.501998424530029297e+00 1.434043765068054199e+00 -2.790160179138183594e-01
2.726000000000000000e+03 3.219987487792968750e+01 7.472444057464599609e+00 7.265653461217880249e-02 5.867715477943420410e-01 1.978284269571304321e-01 7.027584314346313477e-01
2.727000000000000000e+03 4.496059036254882812e+01 -1.106245708465576172e+01 -1.230070829391479492e+00 1.190949231386184692e-01 -3.332927823066711426e-01 -2.054185420274734497e-01
2.728000000000000000e+03 4.123242568969726562e+01 2.722417354583740234e+00 -2.729302048683166504e-01 5.360318422317504883e-01 7.893048971891403198e-02 3.196882903575897217e-01
2.729000000000000000e+03 1.372124290466308594e+01 -3.455778503417968750e+01 -2.891789972782135010e-01 8.418398499488830566e-01 1.657982617616653442e-01 -4.047042131423950195e-02
2.730000000000000000e+03 5.173627090454101562e+01 2.541616439819335938e+01 7.277085185050964355e-01 1.712265849113464355e+00 7.319923043251037598e-01 -2.885203063488006592e-01
2.731000000000000000e+03 4.959161758422851562e+01 -1.328819632530212402e+00 -5.456429719924926758e-01 2.585941553115844727e-01 -8.611465245485305786e-02 3.143859505653381348e-01
2.732000000000000000e+03 1.482072448730468750e+01 -3.311915588378906250e+01 -2.140637934207916260e-01 9.963906407356262207e-01 2.346980422735214233e-01 -1.708903163671493530e-01
2.733000000000000000e+03 1.671641921997070312e+01 -3.421645736694335938e+01 -1.648826599121093750e-01 1.023227214813232422e+00 2.575033605098724365e-01 -2.632339894771575928e-01
2.734000000000000000e+03 1.003376865386962891e+01 2.439639472961425781e+01 7.090209424495697021e-02 -3.854680359363555908e-01 -9.436977654695510864e-02 1.769099682569503784e-01
2.735000000000000000e+03 1.201348876953125000e+01 2.617396736145019531e+01 5.776492506265640259e-02 -2.960641086101531982e-01 -7.148975878953933716e-02 2.135571688413619995e-01
2.736000000000000000e+03 1.214331150054931641e+01 2.012244415283203125e+01 1.702920645475387573e-01 -1.406339257955551147e-01 8.897441439330577850e-03 2.147289067506790161e-01
2.737000000000000000e+03 9.537229537963867188e+00 2.041609001159667969e+01 1.593919098377227783e-01 -3.852083384990692139e-01 -6.774492561817169189e-02 1.943155527114868164e-01
2.738000000000000000e+03 6.984002685546875000e+01 2.533904647827148438e+01 1.630623489618301392e-01 5.458022117614746094e+00 1.686325311660766602e+00 -4.469912946224212646e-01
2.739000000000000000e+03 7.254499053955078125e+01 2.353668212890625000e+01 1.228403449058532715e-01 6.015149116516113281e+00 1.841396927833557129e+00 -4.257239997386932373e-01
2.740000000000000000e+03 6.180774688720703125e+01 2.679796981811523438e+01 3.403091430664062500e-01 3.934799671173095703e+00 1.282532572746276855e+00 -4.750699400901794434e-01
2.741000000000000000e+03 5.568282699584960938e+01 2.692248344421386719e+01 5.528658032417297363e-01 2.635778903961181641e+00 9.565933942794799805e-01 -4.807023108005523682e-01
2.742000000000000000e+03 4.697574234008789062e+01 2.730888938903808594e+01 6.800246834754943848e-01 1.347766280174255371e+00 6.083372831344604492e-01 1.428974270820617676e-01
2.743000000000000000e+03 2.695336341857910156e+01 -1.037118148803710938e+01 9.850645065307617188e-02 1.896799802780151367e+00 5.985918641090393066e-01 1.203272104263305664e+00
2.744000000000000000e+03 2.649109268188476562e+01 -6.115938663482666016e+00 -6.614329814910888672e-01 1.139084696769714355e+00 1.432955265045166016e-01 6.262497901916503906e-01
2.745000000000000000e+03 2.698640441894531250e+01 -9.885581016540527344e+00 -7.412945479154586792e-02 1.788244009017944336e+00 5.142343640327453613e-01 1.093306303024291992e+00
2.746000000000000000e+03 2.833168983459472656e+01 -1.125331687927246094e+01 8.124547600746154785e-01 8.456251025199890137e-01 4.974239468574523926e-01 1.196738243103027344e+00
2.747000000000000000e+03 2.737545204162597656e+01 -8.361042976379394531e+00 -3.770963549613952637e-01 1.386164665222167969e+00 3.027205169200897217e-01 9.043937921524047852e-01
2.748000000000000000e+03 2.632686805725097656e+01 -9.206524848937988281e+00 -3.583666682243347168e-01 1.777080416679382324e+00 4.256141483783721924e-01 7.844392061233520508e-01
2.749000000000000000e+03 2.946547317504882812e+01 -1.332619476318359375e+01 7.180472612380981445e-01 -1.865542978048324585e-01 1.594478935003280640e-01 -4.209501296281814575e-02
2.750000000000000000e+03 2.903349304199218750e+01 -1.384104156494140625e+01 7.002511620521545410e-01 -1.958592087030410767e-01 1.513175815343856812e-01 -3.395099043846130371e-01
2.751000000000000000e+03 2.878787994384765625e+01 -1.246985149383544922e+01 1.196438312530517578e+00 1.550384163856506348e-01 4.054430127143859863e-01 6.353845596313476562e-01
2.752000000000000000e+03 9.929416656494140625e+00 7.622008800506591797e+00 -3.090407550334930420e-01 -2.028257697820663452e-01 -1.535599529743194580e-01 4.817197322845458984e-01
2.753000000000000000e+03 2.622283172607421875e+01 -5.553679943084716797e+00 -7.004707455635070801e-01 1.070000410079956055e+00 1.108588874340057373e-01 5.704250335693359375e-01
2.754000000000000000e+03 2.670008277893066406e+01 -5.378758907318115234e+00 -6.864834427833557129e-01 1.069398164749145508e+00 1.148744076490402222e-01 6.151034235954284668e-01
2.755000000000000000e+03 3.455465316772460938e+01 -1.136845016479492188e+01 -4.215449094772338867e-01 -1.258092839270830154e-02 -1.302377432584762573e-01 6.275875121355056763e-02
2.756000000000000000e+03 3.098544311523437500e+01 -1.338270950317382812e+01 -2.919966354966163635e-03 -2.250078469514846802e-01 -6.837834417819976807e-02 -1.869668513536453247e-01
2.757000000000000000e+03 3.193854522705078125e+01 -1.285299491882324219e+01 -1.336247920989990234e-01 -1.665896028280258179e-01 -9.006431698799133301e-02 -7.519034296274185181e-02
2.758000000000000000e+03 2.655967712402343750e+01 -4.446471691131591797e+00 -7.115619182586669922e-01 9.933141469955444336e-01 8.452565968036651611e-02 5.616557002067565918e-01
2.759000000000000000e+03 2.596281814575195312e+01 -2.006402492523193359e+00 -6.815425753593444824e-01 8.353341817855834961e-01 4.613747820258140564e-02 4.561114013195037842e-01
2.760000000000000000e+03 4.421916961669921875e+01 -1.012693214416503906e+01 -1.133159756660461426e+00 1.490501165390014648e-01 -2.952328920364379883e-01 -1.284675151109695435e-01
2.761000000000000000e+03 3.636478424072265625e+01 -1.117213153839111328e+01 -6.275196075439453125e-01 3.657801821827888489e-02 -1.772824674844741821e-01 3.447462106123566628e-03
2.762000000000000000e+03 8.963973999023437500e+00 7.570738315582275391e+00 -2.639690637588500977e-01 -1.977384388446807861e-01 -1.385122537612915039e-01 4.346202909946441650e-01
2.763000000000000000e+03 2.705133438110351562e+01 6.862819790840148926e-01 -4.441821873188018799e-01 8.072209358215332031e-01 1.089116185903549194e-01 4.046690165996551514e-01
2.764000000000000000e+03 6.852284240722656250e+01 4.429435431957244873e-01 -1.167157530784606934e+00 6.534356594085693359e+00 1.610159754753112793e+00 -1.758846998214721680e+00
2.765000000000000000e+03 3.808147811889648438e+01 4.357141017913818359e+00 -2.127126902341842651e-01 7.159462571144104004e-01 1.509700715541839600e-01 5.061912536621093750e-01
2.766000000000000000e+03 3.839023590087890625e+01 -1.182764911651611328e+01 -8.788404464721679688e-01 6.711883842945098877e-02 -2.435164898633956909e-01 -1.098686382174491882e-01
2.767000000000000000e+03 3.827112197875976562e+01 -1.081298923492431641e+01 -7.778825163841247559e-01 8.879660069942474365e-02 -2.067257761955261230e-01 -2.237352170050144196e-02
2.768000000000000000e+03 3.914697647094726562e+01 -9.600179672241210938e+00 -7.571300864219665527e-01 1.390200108289718628e-01 -1.854330301284790039e-01 4.634932056069374084e-02
2.769000000000000000e+03 3.923110580444335938e+01 -1.061813831329345703e+01 -8.403653502464294434e-01 1.096310913562774658e-01 -2.192202657461166382e-01 -3.337221220135688782e-02
2.770000000000000000e+03 4.798632049560546875e+01 -5.635399341583251953e+00 -1.034572124481201172e+00 2.437187433242797852e-01 -2.372560054063796997e-01 1.164970621466636658e-01
2.771000000000000000e+03 2.573274040222167969e+01 -3.082168102264404297e+00 -7.263613939285278320e-01 8.612506389617919922e-01 4.046677052974700928e-02 4.758011102676391602e-01
2.772000000000000000e+03 6.950884246826171875e+01 1.176690196990966797e+01 1.438968628644943237e-01 5.730369567871093750e+00 1.762279868125915527e+00 -9.027429819107055664e-01
2.773000000000000000e+03 6.979650878906250000e+01 1.013793182373046875e+01 5.139509588479995728e-02 5.858830928802490234e+00 1.773067712783813477e+00 -9.621039032936096191e-01
2.774000000000000000e+03 7.618984699249267578e+00 1.018387985229492188e+01 -5.490950867533683777e-02 -3.115172684192657471e-01 -1.099280267953872681e-01 4.724696874618530273e-01
2.775000000000000000e+03 4.566998291015625000e+01 -7.946862697601318359e+00 -1.088859915733337402e+00 2.056282162666320801e-01 -2.649695277214050293e-01 -8.858039975166320801e-03
2.776000000000000000e+03 4.337823486328125000e+01 -9.133919715881347656e+00 -1.012150287628173828e+00 1.718159615993499756e-01 -2.521002888679504395e-01 -3.691237047314643860e-02
2.777000000000000000e+03 1.003441238403320312e+01 -2.704338836669921875e+01 -2.860530316829681396e-01 1.274417638778686523e+00 2.965093851089477539e-01 9.792077541351318359e-02
2.778000000000000000e+03 4.306473541259765625e+01 1.841289162635803223e+00 -2.619298696517944336e-01 3.924467861652374268e-01 3.915507346391677856e-02 2.635472714900970459e-01
2.779000000000000000e+03 4.679374313354492188e+01 -7.563040733337402344e+00 -1.144399046897888184e+00 2.164189070463180542e-01 -2.783940434455871582e-01 -4.966338630765676498e-03
2.780000000000000000e+03 7.073085021972656250e+01 -3.066242337226867676e-01 -1.463276505470275879e+00 8.109561920166015625e+00 1.993885636329650879e+00 -9.134752154350280762e-01
2.781000000000000000e+03 3.526949691772460938e+01 1.159020328521728516e+01 1.757457405328750610e-01 7.854101657867431641e-01 2.883467674255371094e-01 6.669828891754150391e-01
2.782000000000000000e+03 3.491914367675781250e+01 7.476418495178222656e+00 6.470833905041217804e-03 7.109695076942443848e-01 2.152321040630340576e-01 6.887878179550170898e-01
2.783000000000000000e+03 3.529099655151367188e+01 1.041455268859863281e+01 1.201050430536270142e-01 7.842214107513427734e-01 2.712979316711425781e-01 7.031403183937072754e-01
2.784000000000000000e+03 6.168742752075195312e+01 -3.981328010559082031e-01 -3.055132627487182617e-01 1.476214885711669922e+00 3.512105047702789307e-01 -1.189722776412963867e+00
2.785000000000000000e+03 5.713291549682617188e+01 3.180386066436767578e+00 4.452215135097503662e-02 1.294482350349426270e+00 4.017013609409332275e-01 -1.448657512664794922e-01
2.786000000000000000e+03 3.456702804565429688e+01 -1.048073673248291016e+01 -3.642939329147338867e-01 4.537695273756980896e-02 -9.567509591579437256e-02 1.838116198778152466e-01
2.787000000000000000e+03 5.136678314208984375e+01 -8.575324416160583496e-01 -5.029910802841186523e-01 3.261210620403289795e-01 -5.306099727749824524e-02 3.282137215137481689e-01
2.788000000000000000e+03 5.345592498779296875e+01 6.683930009603500366e-02 -3.758548200130462646e-01 4.754258990287780762e-01 2.987132035195827484e-02 2.877629101276397705e-01
2.789000000000000000e+03 7.327957153320312500e+01 3.075507926940917969e+01 7.543268054723739624e-02 5.894755363464355469e+00 1.791056394577026367e+00 -2.218713164329528809e-01
2.790000000000000000e+03 7.151493835449218750e+01 3.064106178283691406e+01 1.059226468205451965e-01 5.612857341766357422e+00 1.715633988380432129e+00 -2.827524840831756592e-01
2.791000000000000000e+03 7.191560363769531250e+01 7.600557327270507812e+00 -2.058257013559341431e-01 6.782496452331542969e+00 1.973001241683959961e+00 -8.601723313331604004e-01
2.792000000000000000e+03 6.938832092285156250e+01 6.465102672576904297e+00 -2.365020513534545898e-01 5.962021350860595703e+00 1.717655777931213379e+00 -1.124191045761108398e+00
2.793000000000000000e+03 5.583733367919921875e+01 -3.239967346191406250e+00 -1.160487771034240723e+00 4.038530886173248291e-01 -2.269904017448425293e-01 7.456192374229431152e-02
2.794000000000000000e+03 6.881959533691406250e+01 2.039449310302734375e+01 2.458208203315734863e-01 5.381453990936279297e+00 1.688182473182678223e+00 -5.906604528427124023e-01
2.795000000000000000e+03 6.822828674316406250e+01 1.863026428222656250e+01 2.682861983776092529e-01 5.257712841033935547e+00 1.657799720764160156e+00 -6.559273600578308105e-01
2.796000000000000000e+03 5.030541610717773438e+01 -1.666554510593414307e-01 -3.715180754661560059e-01 2.767441570758819580e-01 -2.843217551708221436e-02 3.432852029800415039e-01
2.797000000000000000e+03 4.981630706787109375e+01 -4.795776844024658203e+00 -1.078029632568359375e+00 2.618299424648284912e-01 -2.448599189519882202e-01 1.516231894493103027e-01
2.798000000000000000e+03 5.969256210327148438e+01 6.794998168945312500e+00 2.902651727199554443e-01 2.598237991333007812e+00 8.665509223937988281e-01 -6.687664985656738281e-01
2.799000000000000000e+03 7.066184997558593750e+01 7.677862644195556641e+00 -1.555885672569274902e-01 6.329741001129150391e+00 1.852245688438415527e+00 -9.563631415367126465e-01
2.800000000000000000e+03 3.176326942443847656e+01 1.148899745941162109e+01 2.545659802854061127e-02 5.810116529464721680e-01 1.819404810667037964e-01 7.017983794212341309e-01
2.801000000000000000e+03 7.084011840820312500e+01 1.372346115112304688e+01 1.684936285018920898e-01 6.022885322570800781e+00 1.857413768768310547e+00 -7.703923583030700684e-01
2.802000000000000000e+03 8.431900024414062500e+00 2.204685401916503906e+01 8.885926753282546997e-02 -4.822000563144683838e-01 -1.180022358894348145e-01 1.629694104194641113e-01
2.803000000000000000e+03 6.585768127441406250e+01 1.072843647003173828e+01 2.780795991420745850e-01 4.649000644683837891e+00 1.478124141693115234e+00 -1.036599874496459961e+00
2.804000000000000000e+03 1.548121643066406250e+01 2.330485534667968750e+01 8.654291182756423950e-02 -3.259061276912689209e-02 1.618569158017635345e-02 3.435354232788085938e-01
2.805000000000000000e+03 1.691178321838378906e+01 2.237606430053710938e+01 1.108451336622238159e-01 3.730738908052444458e-02 4.444575682282447815e-02 4.254365563392639160e-01
2.806000000000000000e+03 6.508359527587890625e+01 7.833160161972045898e-01 -5.146728157997131348e-01 3.888832330703735352e+00 1.012247920036315918e+00 -2.083484888076782227e+00
2.807000000000000000e+03 5.478337097167968750e+01 -4.550202190876007080e-02 -4.106225073337554932e-01 5.622084140777587891e-01 4.547576978802680969e-02 2.014737427234649658e-01
2.808000000000000000e+03 5.560104370117187500e+01 -4.021516442298889160e-01 -5.013165473937988281e-01 6.188274621963500977e-01 3.525327891111373901e-02 7.884492725133895874e-02
2.809000000000000000e+03 4.176932525634765625e+01 1.464765787124633789e+00 -3.119716048240661621e-01 4.520067274570465088e-01 4.201053828001022339e-02 3.095082938671112061e-01
2.810000000000000000e+03 7.835911750793457031e+00 -2.779308319091796875e+01 -3.379117250442504883e-01 5.893563032150268555e-01 7.543337345123291016e-02 4.538992345333099365e-01
2.811000000000000000e+03 5.658827209472656250e+01 -1.682611703872680664e+00 -8.131905198097229004e-01 5.713415145874023438e-01 -7.255470752716064453e-02 -7.492771837860345840e-03
2.812000000000000000e+03 5.713014221191406250e+01 -8.905034065246582031e-01 -5.269205570220947266e-01 6.518911719322204590e-01 3.749117627739906311e-02 -5.752280354499816895e-02
2.813000000000000000e+03 7.070059967041015625e+01 6.434827327728271484e+00 -3.138864040374755859e-01 6.511009693145751953e+00 1.859137058258056641e+00 -1.009549975395202637e+00
2.814000000000000000e+03 1.079951763153076172e+01 2.337935829162597656e+01 7.645821571350097656e-02 -3.158324956893920898e-01 -7.181228697299957275e-02 1.943738013505935669e-01
2.815000000000000000e+03 6.463171386718750000e+01 -4.326128363609313965e-01 -5.437365174293518066e-01 3.355047464370727539e+00 8.433932662010192871e-01 -2.153110027313232422e+00
2.816000000000000000e+03 5.426128768920898438e+01 -7.113467454910278320e-01 -5.697850584983825684e-01 5.146260857582092285e-01 -1.654767617583274841e-02 2.199552804231643677e-01
2.817000000000000000e+03 2.880891609191894531e+01 2.243329524993896484e+00 -2.320300638675689697e-01 7.290024161338806152e-01 1.490917056798934937e-01 4.318792819976806641e-01
2.818000000000000000e+03 5.378231048583984375e+01 -3.253572463989257812e+00 -1.078695178031921387e+00 3.585265278816223145e-01 -2.160505950450897217e-01 1.594421118497848511e-01
2.819000000000000000e+03 1.207738399505615234e+01 2.367039108276367188e+01 7.352966070175170898e-02 -2.319201081991195679e-01 -4.751713201403617859e-02 2.235755771398544312e-01
2.820000000000000000e+03 6.084227371215820312e+01 7.246919155120849609e+00 3.213781118392944336e-01 2.926982164382934570e+00 9.745081067085266113e-01 -8.784071207046508789e-01
2.821000000000000000e+03 6.107889556884765625e+01 1.780654144287109375e+01 4.972549676895141602e-01 3.764306306838989258e+00 1.278468370437622070e+00 -5.530351400375366211e-01
2.822000000000000000e+03 5.966094589233398438e+01 2.056438064575195312e+01 3.679028749465942383e-01 3.528028249740600586e+00 1.168779253959655762e+00 -5.555374622344970703e-01
2.823000000000000000e+03 3.115883827209472656e+01 1.854261398315429688e+01 1.386402547359466553e-01 4.409911036491394043e-01 1.738893985748291016e-01 2.797780632972717285e-01
2.824000000000000000e+03 3.807125091552734375e+01 2.946775436401367188e+00 -2.703127264976501465e-01 6.497284173965454102e-01 1.138247102499008179e-01 4.833074510097503662e-01
2.825000000000000000e+03 3.273867034912109375e+01 6.235363960266113281e+00 2.230402640998363495e-02 6.004810333251953125e-01 1.868355274200439453e-01 6.555214524269104004e-01
2.826000000000000000e+03 6.322885513305664062e+01 1.535291099548339844e+01 5.323945879936218262e-01 4.073093891143798828e+00 1.381646633148193359e+00 -7.327626347541809082e-01
2.827000000000000000e+03 4.956076431274414062e+01 -5.772482395172119141e+00 -1.185915231704711914e+00 2.525197267532348633e-01 -2.800186574459075928e-01 8.025248348712921143e-02
2.828000000000000000e+03 3.751457595825195312e+01 6.558491706848144531e+00 -1.138850748538970947e-01 8.223343491554260254e-01 2.125347852706909180e-01 5.876246690750122070e-01
2.829000000000000000e+03 6.718338775634765625e+01 -2.946746444702148438e+01 -4.788169264793395996e-01 5.876278400421142578e+00 1.619238376617431641e+00 5.244345664978027344e-01
2.830000000000000000e+03 4.852042770385742188e+01 -3.816926181316375732e-01 -3.811448812484741211e-01 2.216950953006744385e-01 -4.783493280410766602e-02 3.114272952079772949e-01
2.831000000000000000e+03 4.676506423950195312e+01 -4.085242450237274170e-01 -3.860665261745452881e-01 2.309872657060623169e-01 -4.652377590537071228e-02 2.847804129123687744e-01
2.832000000000000000e+03 1.029181861877441406e+01 -3.144320487976074219e+01 -3.131424486637115479e-01 7.297426462173461914e-01 1.249800622463226318e-01 1.745504587888717651e-01
2.833000000000000000e+03 4.452043533325195312e+01 -8.438090324401855469e+00 -1.043203353881835938e+00 1.941494792699813843e-01 -2.547161579132080078e-01 -1.745003275573253632e-02
2.834000000000000000e+03 6.157362747192382812e+01 1.911557579040527344e+01 4.488035440444946289e-01 3.896092891693115234e+00 1.303468942642211914e+00 -5.573338270187377930e-01
2.835000000000000000e+03 6.525462341308593750e+01 1.615993690490722656e+01 4.274910092353820801e-01 4.533323287963867188e+00 1.488244295120239258e+00 -7.374913096427917480e-01
2.836000000000000000e+03 6.773284912109375000e+01 -3.489796447753906250e+01 -7.772301882505416870e-02 5.618719577789306641e+00 1.662299036979675293e+00 3.708094358444213867e-01
2.837000000000000000e+03 3.678372955322265625e+01 6.214844226837158203e+00 -1.057020649313926697e-01 7.739769220352172852e-01 2.004824727773666382e-01 6.153421998023986816e-01
2.838000000000000000e+03 1.174437713623046875e+01 2.903610801696777344e+01 5.482711642980575562e-02 -3.956268131732940674e-01 -1.022399067878723145e-01 1.768454164266586304e-01
2.839000000000000000e+03 9.386351585388183594e+00 1.901943397521972656e+01 1.886350065469741821e-01 -3.841564953327178955e-01 -5.865645036101341248e-02 2.255182266235351562e-01
2.840000000000000000e+03 5.367029953002929688e+01 -2.202210426330566406e+00 -7.909433841705322266e-01 4.014167487621307373e-01 -1.168579980731010437e-01 2.444204539060592651e-01
2.841000000000000000e+03 6.013550567626953125e+01 8.633484840393066406e+00 4.103912711143493652e-01 2.960591554641723633e+00 1.011294841766357422e+00 -7.513288259506225586e-01
2.842000000000000000e+03 6.873505401611328125e+01 2.723245620727539062e+01 1.886347830295562744e-01 5.209999084472656250e+00 1.619590163230895996e+00 -4.189417958259582520e-01
2.843000000000000000e+03 6.961260986328125000e+01 3.014890670776367188e+01 1.580851078033447266e-01 5.314702033996582031e+00 1.641836166381835938e+00 -3.424086272716522217e-01
2.844000000000000000e+03 9.388485908508300781e+00 -3.578098297119140625e+01 -2.809789478778839111e-01 3.181925117969512939e-01 1.116406265646219254e-02 1.925626695156097412e-01
2.845000000000000000e+03 7.083851623535156250e+01 1.148240327835083008e+00 -1.191414594650268555e+00 7.706020832061767578e+00 1.954381942749023438e+00 -9.789283275604248047e-01
2.846000000000000000e+03 6.977153015136718750e+01 2.670659065246582031e+00 -8.824042081832885742e-01 6.819140434265136719e+00 1.781020879745483398e+00 -1.256763219833374023e+00
2.847000000000000000e+03 3.386851882934570312e+01 6.857017040252685547e+00 5.418159067630767822e-03 6.600798368453979492e-01 1.996493935585021973e-01 6.867964863777160645e-01
2.848000000000000000e+03 3.661347961425781250e+01 2.012651062011718750e+01 3.077161908149719238e-01 9.660359025001525879e-01 3.821256160736083984e-01 2.557076215744018555e-01
2.849000000000000000e+03 3.806282043457031250e+01 2.086996078491210938e+01 3.042396008968353271e-01 1.093755364418029785e+00 4.193985164165496826e-01 2.692772448062896729e-01
2.850000000000000000e+03 2.649998092651367188e+01 -9.820059776306152344e+00 -1.971245557069778442e-01 1.958464026451110840e+00 5.284018516540527344e-01 9.490695595741271973e-01
2.851000000000000000e+03 3.016097450256347656e+01 -1.146589183807373047e+01 4.801396727561950684e-01 1.143669784069061279e-01 1.783519983291625977e-01 5.867792367935180664e-01
2.852000000000000000e+03 2.677825736999511719e+01 -7.007366657257080078e+00 -5.880708098411560059e-01 1.252500295639038086e+00 1.993288397789001465e-01 7.053260803222656250e-01
2.853000000000000000e+03 2.715989685058593750e+01 -5.419161319732666016e+00 -6.643176674842834473e-01 1.076547861099243164e+00 1.236690580844879150e-01 6.559817194938659668e-01
2.854000000000000000e+03 2.665477752685546875e+01 -9.409851074218750000e+00 -2.666356265544891357e-01 1.758383631706237793e+00 4.475243985652923584e-01 9.180561900138854980e-01
2.855000000000000000e+03 2.720470619201660156e+01 -3.684044122695922852e+00 -6.919770240783691406e-01 9.679871201515197754e-01 8.280303329229354858e-02 5.725430250167846680e-01
2.856000000000000000e+03 2.605507850646972656e+01 -4.954735755920410156e+00 -7.243224978446960449e-01 1.002509236335754395e+00 8.345602452754974365e-02 5.397831797599792480e-01
2.857000000000000000e+03 2.696013832092285156e+01 -1.081718826293945312e+01 3.646073043346405029e-01 1.965519785881042480e+00 6.990381479263305664e-01 1.349497318267822266e+00
2.858000000000000000e+03 2.700858688354492188e+01 -1.167099118232727051e+00 -6.021003127098083496e-01 8.589279651641845703e-01 7.704828679561614990e-02 4.685719609260559082e-01
2.859000000000000000e+03 2.627038955688476562e+01 -3.657106637954711914e+00 -7.259339094161987305e-01 9.275462031364440918e-01 6.048369407653808594e-02 5.142819285392761230e-01
2.860000000000000000e+03 2.827166557312011719e+01 -1.077900886535644531e+01 5.724077820777893066e-01 9.836369156837463379e-01 4.668134152889251709e-01 1.224195361137390137e+00
2.861000000000000000e+03 2.801337432861328125e+01 -1.042928504943847656e+01 3.459622561931610107e-01 1.228518605232238770e+00 4.723442494869232178e-01 1.240459561347961426e+00
2.862000000000000000e+03 3.285755157470703125e+01 -1.217872333526611328e+01 -2.239798903465270996e-01 -1.011393889784812927e-01 -9.753578156232833862e-02 2.546815387904644012e-02
2.863000000000000000e+03 3.125356864929199219e+01 -1.261887264251708984e+01 1.205240562558174133e-01 -1.606229394674301147e-01 -1.202966552227735519e-02 4.734503477811813354e-02
2.864000000000000000e+03 3.378348159790039062e+01 -1.052770709991455078e+01 -2.569754421710968018e-01 4.323880746960639954e-02 -6.412099301815032959e-02 2.437813729047775269e-01
2.865000000000000000e+03 2.880236625671386719e+01 -1.187341785430908203e+01 1.041973590850830078e+00 3.651044368743896484e-01 4.221234023571014404e-01 8.805934786796569824e-01
2.866000000000000000e+03 2.978043937683105469e+01 -1.275269317626953125e+01 6.661164164543151855e-01 -1.246468499302864075e-01 1.624408662319183350e-01 2.235930711030960083e-01
2.867000000000000000e+03 3.373621749877929688e+01 -1.138198566436767578e+01 -2.986412048339843750e-01 -2.956219762563705444e-02 -9.846101701259613037e-02 1.121863275766372681e-01
2.868000000000000000e+03 2.661442565917968750e+01 -1.700754165649414062e+00 -6.483874917030334473e-01 8.614751696586608887e-01 6.392629444599151611e-02 4.713272154331207275e-01
2.869000000000000000e+03 3.162492179870605469e+01 -1.114604091644287109e+01 1.151018738746643066e-01 2.905914932489395142e-02 4.324830695986747742e-02 3.892738521099090576e-01
2.870000000000000000e+03 5.716132354736328125e+01 9.051813483238220215e-01 -2.420412153005599976e-01 9.617324471473693848e-01 2.159073650836944580e-01 -1.209468245506286621e-01
2.871000000000000000e+03 5.537549209594726562e+01 3.787319362163543701e-01 -3.472757339477539062e-01 7.128198742866516113e-01 1.096632480621337891e-01 1.316162347793579102e-01
2.872000000000000000e+03 3.629177093505859375e+01 -1.023071670532226562e+01 -5.507374405860900879e-01 7.477061450481414795e-02 -1.427900493144989014e-01 1.052328422665596008e-01
2.873000000000000000e+03 3.454071426391601562e+01 -9.622419357299804688e+00 -3.376776874065399170e-01 1.174169778823852539e-01 -6.607821583747863770e-02 2.914521396160125732e-01
2.874000000000000000e+03 7.335381031036376953e+00 -6.226142406463623047e+00 -9.184162020683288574e-01 1.272101640701293945e+00 1.061056256294250488e-01 -1.118348240852355957e+00
2.875000000000000000e+03 7.834426403045654297e+00 -6.917439460754394531e+00 -8.759219050407409668e-01 1.813490986824035645e+00 2.812707126140594482e-01 -8.929979205131530762e-01
2.876000000000000000e+03 3.815016555786132812e+01 -9.819960594177246094e+00 -6.950616240501403809e-01 1.172095835208892822e-01 -1.733556091785430908e-01 6.370376050472259521e-02
2.877000000000000000e+03 6.462451934814453125e+01 1.142898082733154297e+01 3.858355283737182617e-01 4.273283481597900391e+00 1.397735595703125000e+00 -9.921528100967407227e-01
2.878000000000000000e+03 6.949893188476562500e+01 9.047921180725097656e+00 -9.506292990408837795e-04 5.788810253143310547e+00 1.736357927322387695e+00 -1.013660550117492676e+00
2.879000000000000000e+03 2.621218299865722656e+01 -3.115399777889251709e-01 -5.611894726753234863e-01 8.041037917137145996e-01 7.287430018186569214e-02 4.123941361904144287e-01
2.880000000000000000e+03 4.864278793334960938e+01 -2.347445726394653320e+00 -6.577443480491638184e-01 2.483815848827362061e-01 -1.228088289499282837e-01 2.723936736583709717e-01
2.881000000000000000e+03 4.012824249267578125e+01 -8.270996093750000000e+00 -7.528970241546630859e-01 1.862473487854003906e-01 -1.699949055910110474e-01 1.021072417497634888e-01
2.882000000000000000e+03 4.135860443115234375e+01 -9.526937484741210938e+00 -9.147797822952270508e-01 1.543347239494323730e-01 -2.281335145235061646e-01 -1.798248104751110077e-02
2.883000000000000000e+03 2.632448005676269531e+01 -1.081436872482299805e+00 -6.128676533699035645e-01 8.212215900421142578e-01 6.250617653131484985e-02 4.387406110763549805e-01
2.884000000000000000e+03 2.635506629943847656e+01 -2.657931566238403320e+00 -6.951110959053039551e-01 8.836233019828796387e-01 5.655365437269210815e-02 4.895083010196685791e-01
2.885000000000000000e+03 3.856708908081054688e+01 1.581342816352844238e+00 -3.144211173057556152e-01 5.849159359931945801e-01 8.114844560623168945e-02 4.549551010131835938e-01
2.886000000000000000e+03 3.747647476196289062e+01 8.353297710418701172e-01 -3.320019841194152832e-01 5.831460356712341309e-01 7.534321397542953491e-02 4.850626885890960693e-01
2.887000000000000000e+03 3.077853393554687500e+01 3.968061685562133789e+00 -6.513244658708572388e-02 6.410304307937622070e-01 1.727693974971771240e-01 5.254207849502563477e-01
2.888000000000000000e+03 2.956473541259765625e+01 3.586613893508911133e+00 -8.003833144903182983e-02 6.551881432533264160e-01 1.725449413061141968e-01 4.613091647624969482e-01
2.889000000000000000e+03 2.714087486267089844e+01 -3.088534474372863770e-01 -5.289909243583679199e-01 8.270015120506286621e-01 8.940316736698150635e-02 4.399206638336181641e-01
2.890000000000000000e+03 6.929003906250000000e+01 7.786595344543457031e+00 -1.238919496536254883e-01 5.867180824279785156e+00 1.722986698150634766e+00 -1.099376678466796875e+00
2.891000000000000000e+03 6.862991333007812500e+01 1.619635105133056641e+00 -1.020085692405700684e+00 6.448846817016601562e+00 1.628628373146057129e+00 -1.588213443756103516e+00
2.892000000000000000e+03 6.930018615722656250e+01 -1.079494118690490723e+00 -1.581807494163513184e+00 7.658061981201171875e+00 1.822876334190368652e+00 -1.597753167152404785e+00
2.893000000000000000e+03 5.745786666870117188e+01 2.192534208297729492e+00 -6.590322405099868774e-02 1.216313362121582031e+00 3.451230227947235107e-01 -1.791948974132537842e-01
2.894000000000000000e+03 6.038449859619140625e+01 2.029451280832290649e-01 -2.073430866003036499e-01 1.326460719108581543e+00 3.357352912425994873e-01 -7.777422070503234863e-01
2.895000000000000000e+03 6.500440216064453125e+01 2.017849731445312500e+01 3.408060073852539062e-01 4.548154830932617188e+00 1.466688275337219238e+00 -6.000509262084960938e-01
2.896000000000000000e+03 6.880495452880859375e+01 1.585090351104736328e+01 2.613098025321960449e-01 5.411331653594970703e+00 1.701792478561401367e+00 -7.494780421257019043e-01
2.897000000000000000e+03 6.749411773681640625e+01 1.692610931396484375e+01 3.161441385746002197e-01 5.076242446899414062e+00 1.617715954780578613e+00 -7.189756631851196289e-01
2.898000000000000000e+03 7.014730834960937500e+01 1.283783817291259766e+01 1.532239466905593872e-01 5.837550640106201172e+00 1.797232389450073242e+00 -8.452402949333190918e-01
2.899000000000000000e+03 4.219676589965820312e+01 7.301720231771469116e-02 -3.684130907058715820e-01 3.862929642200469971e-01 5.363964475691318512e-03 3.161009550094604492e-01
2.900000000000000000e+03 4.446032714843750000e+01 9.807531237602233887e-01 -2.833967804908752441e-01 2.994706928730010986e-01 4.822181072086095810e-03 2.634410858154296875e-01
2.901000000000000000e+03 7.087190246582031250e+01 2.514734506607055664e+00 -8.682875633239746094e-01 7.213962078094482422e+00 1.903702378273010254e+00 -9.556633234024047852e-01
2.902000000000000000e+03 4.092777252197265625e+01 -4.183689951896667480e-01 -4.048095047473907471e-01 4.218214154243469238e-01 5.103572737425565720e-03 3.507260382175445557e-01
2.903000000000000000e+03 4.452968215942382812e+01 -6.505949020385742188e+00 -9.149183034896850586e-01 2.300813347101211548e-01 -2.054510861635208130e-01 9.515476226806640625e-02
2.904000000000000000e+03 5.836054611206054688e+01 2.211820363998413086e+00 -2.746308222413063049e-02 1.362321019172668457e+00 4.004573523998260498e-01 -3.803512156009674072e-01
2.905000000000000000e+03 5.282021713256835938e+01 -5.488916039466857910e-01 -4.751678407192230225e-01 4.329540431499481201e-01 -1.266413927078247070e-02 3.021769225597381592e-01
2.906000000000000000e+03 4.754011154174804688e+01 -3.123460769653320312e+00 -7.231094241142272949e-01 2.473574280738830566e-01 -1.427256017923355103e-01 2.443353533744812012e-01
2.907000000000000000e+03 3.403483581542968750e+01 1.049112606048583984e+01 9.799673408269882202e-02 6.966910958290100098e-01 2.384063452482223511e-01 7.070395350456237793e-01
2.908000000000000000e+03 4.942263031005859375e+01 -3.546775817871093750e+00 -8.465982079505920410e-01 2.638379037380218506e-01 -1.748280823230743408e-01 2.359917014837265015e-01
2.909000000000000000e+03 2.914839744567871094e+01 1.285864830017089844e+00 -3.252356648445129395e-01 7.703072428703308105e-01 1.335214823484420776e-01 4.591601788997650146e-01
2.910000000000000000e+03 6.667708587646484375e+01 1.245431780815124512e+00 -7.350702881813049316e-01 5.099492073059082031e+00 1.309326410293579102e+00 -1.994654297828674316e+00
2.911000000000000000e+03 6.059328842163085938e+01 4.955064296722412109e+00 1.881240457296371460e-01 2.506462574005126953e+00 8.083760142326354980e-01 -8.524134755134582520e-01
2.912000000000000000e+03 3.491006469726562500e+01 1.580920791625976562e+01 2.485319226980209351e-01 7.917023897171020508e-01 3.120702803134918213e-01 4.518252909183502197e-01
2.913000000000000000e+03 5.237397766113281250e+01 -3.372727870941162109e+00 -9.747391343116760254e-01 3.212161362171173096e-01 -1.960569024085998535e-01 2.182162404060363770e-01
2.914000000000000000e+03 3.288679885864257812e+01 1.096654033660888672e+01 8.132862299680709839e-02 6.261696815490722656e-01 2.122495025396347046e-01 7.080649137496948242e-01
2.915000000000000000e+03 3.441946792602539062e+01 8.540004730224609375e+00 4.720712453126907349e-02 7.132434248924255371e-01 2.281351536512374878e-01 7.148368358612060547e-01
2.916000000000000000e+03 6.459870910644531250e+01 8.153899192810058594e+00 1.863437741994857788e-01 4.211692333221435547e+00 1.319410800933837891e+00 -1.178624749183654785e+00
2.917000000000000000e+03 6.223662185668945312e+01 9.914870262145996094e+00 4.173644781112670898e-01 3.621007919311523438e+00 1.211511731147766113e+00 -9.267958998680114746e-01
2.918000000000000000e+03 1.210260581970214844e+01 2.174085998535156250e+01 1.205626502633094788e-01 -1.687027662992477417e-01 -1.444203499704599380e-02 2.235805988311767578e-01
2.919000000000000000e+03 1.441767024993896484e+01 2.314054489135742188e+01 9.044802933931350708e-02 -5.818996205925941467e-02 9.677419438958168030e-03 3.047973811626434326e-01
2.920000000000000000e+03 4.607717514038085938e+01 5.121918916702270508e-01 -2.979265749454498291e-01 2.445521056652069092e-01 -1.601234637200832367e-02 2.731803059577941895e-01
2.921000000000000000e+03 4.339141464233398438e+01 5.113638639450073242e-01 -3.412025868892669678e-01 3.439656198024749756e-01 8.289082907140254974e-04 2.874606847763061523e-01
2.922000000000000000e+03 5.344820785522460938e+01 -1.257844567298889160e+00 -6.333609819412231445e-01 4.193421602249145508e-01 -6.420565396547317505e-02 2.407018840312957764e-01
2.923000000000000000e+03 5.090670776367187500e+01 -2.002715349197387695e+00 -6.768645048141479492e-01 2.944838702678680420e-01 -1.147141903638839722e-01 2.943368256092071533e-01
2.924000000000000000e+03 3.335490417480468750e+01 5.048548698425292969e+00 -6.020575016736984253e-02 6.458204984664916992e-01 1.756844222545623779e-01 6.247558593750000000e-01
2.925000000000000000e+03 3.741324234008789062e+01 5.702426433563232422e+00 -1.460767388343811035e-01 7.727191448211669922e-01 1.879927217960357666e-01 5.673147439956665039e-01
2.926000000000000000e+03 3.414495086669921875e+01 1.349621677398681641e+01 1.638186275959014893e-01 7.325784564018249512e-01 2.689191102981567383e-01 5.843182802200317383e-01
2.927000000000000000e+03 4.141680908203125000e+01 -8.191904067993164062e+00 -8.373656272888183594e-01 1.898659467697143555e-01 -1.942499130964279175e-01 6.774568557739257812e-02
2.928000000000000000e+03 5.966366577148437500e+01 3.174993753433227539e+00 7.577126473188400269e-02 1.881983041763305664e+00 5.873262882232666016e-01 -6.750627756118774414e-01
2.929000000000000000e+03 6.751667022705078125e+01 1.732913136482238770e+00 -7.720339894294738770e-01 5.605545997619628906e+00 1.450053572654724121e+00 -1.753813982009887695e+00
2.930000000000000000e+03 6.753865051269531250e+01 7.098758220672607422e-01 -1.081860542297363281e+00 5.951994419097900391e+00 1.461040139198303223e+00 -1.947593331336975098e+00
2.931000000000000000e+03 6.335699844360351562e+01 1.213601016998291016e+01 4.810646176338195801e-01 3.993357181549072266e+00 1.342326521873474121e+00 -8.963703513145446777e-01
2.932000000000000000e+03 3.993971633911132812e+01 2.144819021224975586e+00 -3.053204119205474854e-01 5.692940950393676758e-01 7.919210195541381836e-02 3.899166285991668701e-01
2.933000000000000000e+03 4.044972229003906250e+01 8.895326256752014160e-01 -3.417848050594329834e-01 4.937624335289001465e-01 4.559328779578208923e-02 3.729259967803955078e-01
2.934000000000000000e+03 6.973564910888671875e+01 1.395479202270507812e+00 -1.075377583503723145e+00 7.035568237304687500e+00 1.788057088851928711e+00 -1.286309361457824707e+00
2.935000000000000000e+03 6.974793243408203125e+01 3.929474353790283203e+00 -6.061255931854248047e-01 6.481268405914306641e+00 1.762542843818664551e+00 -1.176495671272277832e+00
2.936000000000000000e+03 1.330774211883544922e+01 2.170009040832519531e+01 1.072059124708175659e-01 -9.225661307573318481e-02 4.484791308641433716e-03 2.579887211322784424e-01
2.937000000000000000e+03 1.476030826568603516e+01 2.032841110229492188e+01 1.453326046466827393e-01 7.373968511819839478e-02 6.572169065475463867e-02 3.060869276523590088e-01
2.938000000000000000e+03 9.668064117431640625e+00 2.182029914855957031e+01 1.100252717733383179e-01 -3.828947544097900391e-01 -8.186084777116775513e-02 1.793999820947647095e-01
2.939000000000000000e+03 6.884591674804687500e+01 2.215573883056640625e+01 2.044916003942489624e-01 5.318196773529052734e+00 1.656806468963623047e+00 -5.466750264167785645e-01
2.940000000000000000e+03 1.387366771697998047e+01 2.644279861450195312e+01 7.316326349973678589e-02 -2.107738703489303589e-01 -4.128317907452583313e-02 2.566500306129455566e-01
2.941000000000000000e+03 6.842510986328125000e+01 3.499181365966796875e+01 1.880175769329071045e-01 5.031034946441650391e+00 1.565715670585632324e+00 -2.024759650230407715e-01
2.942000000000000000e+03 5.082984161376953125e+01 -3.319680929183959961e+00 -8.888495564460754395e-01 2.866930067539215088e-01 -1.806469708681106567e-01 2.378374487161636353e-01
2.943000000000000000e+03 4.581996536254882812e+01 -6.083254337310791016e+00 -9.348320364952087402e-01 2.366580069065093994e-01 -2.094522118568420410e-01 1.126651987433433533e-01
2.944000000000000000e+03 2.048228073120117188e+01 2.768290138244628906e+01 2.232897728681564331e-01 -4.588891565799713135e-02 5.322025716304779053e-02 3.567312657833099365e-01
2.945000000000000000e+03 3.691095733642578125e+01 4.714158535003662109e+00 -1.824394166469573975e-01 7.259171009063720703e-01 1.630433052778244019e-01 5.641999840736389160e-01
2.946000000000000000e+03 3.596349334716796875e+01 3.821214675903320312e+00 -1.993619203567504883e-01 6.829603314399719238e-01 1.450795233249664307e-01 5.651627182960510254e-01
2.947000000000000000e+03 3.324935531616210938e+01 2.017394828796386719e+01 2.384127527475357056e-01 6.219844222068786621e-01 2.581191658973693848e-01 2.463885396718978882e-01
2.948000000000000000e+03 2.748967552185058594e+01 2.194644737243652344e+01 2.704966664314270020e-01 9.091894328594207764e-02 1.084246784448623657e-01 2.598731815814971924e-01
2.949000000000000000e+03 3.165909385681152344e+01 1.494261455535888672e+01 1.703026704490184784e-02 5.608147382736206055e-01 1.733535081148147583e-01 4.822047054767608643e-01
2.950000000000000000e+03 5.789776992797851562e+01 2.143744850158691406e+01 3.645246028900146484e-01 3.172401666641235352e+00 1.061077833175659180e+00 -6.277965903282165527e-01
2.951000000000000000e+03 9.713718414306640625e+00 2.316225433349609375e+01 7.389391213655471802e-02 -3.956334590911865234e-01 -9.652186185121536255e-02 1.709648370742797852e-01
2.952000000000000000e+03 4.167520523071289062e+01 2.604833221435546875e+01 4.509064257144927979e-01 1.181790947914123535e+00 4.898092150688171387e-01 3.270905911922454834e-01
2.953000000000000000e+03 3.329368591308593750e+01 2.485897445678710938e+01 3.483203053474426270e-01 6.221531033515930176e-01 2.911420166492462158e-01 2.148866057395935059e-01
2.954000000000000000e+03 7.074516296386718750e+01 2.235969352722167969e+01 1.710327863693237305e-01 5.683256149291992188e+00 1.756286740303039551e+00 -4.833070039749145508e-01
2.955000000000000000e+03 7.114256286621093750e+01 2.399192428588867188e+01 1.503143012523651123e-01 5.726756572723388672e+00 1.763121247291564941e+00 -4.441672265529632568e-01
2.956000000000000000e+03 6.587910461425781250e+01 1.401376724243164062e+01 3.889296352863311768e-01 4.648352146148681641e+00 1.511184573173522949e+00 -8.603728413581848145e-01
2.957000000000000000e+03 6.838659667968750000e+01 -3.237400054931640625e+01 -2.707467079162597656e-01 6.093525886535644531e+00 1.746833682060241699e+00 3.510545194149017334e-01
2.958000000000000000e+03 3.581647491455078125e+01 1.784281158447265625e+01 2.979648411273956299e-01 8.800461888313293457e-01 3.534033000469207764e-01 3.266192078590393066e-01
2.959000000000000000e+03 1.089665889739990234e+01 2.174564743041992188e+01 1.186457127332687378e-01 -2.718394100666046143e-01 -4.595810547471046448e-02 2.029690146446228027e-01
2.960000000000000000e+03 1.173099899291992188e+01 -3.545106887817382812e+01 -3.165336549282073975e-01 6.225838661193847656e-01 9.181506186723709106e-02 6.533976644277572632e-02
2.961000000000000000e+03 5.497481918334960938e+01 -2.187859773635864258e+00 -8.959578275680541992e-01 4.491039812564849854e-01 -1.340561509132385254e-01 1.361993104219436646e-01
2.962000000000000000e+03 6.148048782348632812e+01 -3.396451568603515625e+01 1.900455504655838013e-01 2.807301998138427734e+00 8.992042541503906250e-01 4.595336019992828369e-01
2.963000000000000000e+03 6.715074920654296875e+01 2.620634841918945312e+01 2.136840820312500000e-01 4.952832698822021484e+00 1.549955010414123535e+00 -4.597220122814178467e-01
2.964000000000000000e+03 3.175286293029785156e+01 -1.044333076477050781e+01 5.160173028707504272e-02 1.294770091772079468e-01 5.432362109422683716e-02 5.009480118751525879e-01
2.965000000000000000e+03 2.785951042175292969e+01 -1.123628616333007812e+01 8.455534577369689941e-01 1.173198699951171875e+00 6.056256890296936035e-01 1.345746636390686035e+00
2.966000000000000000e+03 2.756512069702148438e+01 -9.783921241760253906e+00 1.904691755771636963e-02 1.477271676063537598e+00 4.488955736160278320e-01 1.158664822578430176e+00
2.967000000000000000e+03 2.688361549377441406e+01 -5.787270069122314453e+00 -6.596075892448425293e-01 1.111783623695373535e+00 1.356527954339981079e-01 6.516498327255249023e-01
2.968000000000000000e+03 2.686956977844238281e+01 -6.504798889160156250e+00 -6.265380382537841797e-01 1.189975976943969727e+00 1.690313816070556641e-01 6.810900568962097168e-01
2.969000000000000000e+03 2.721786880493164062e+01 -8.828380584716796875e+00 -3.092575669288635254e-01 1.478538990020751953e+00 3.507844209671020508e-01 9.361507296562194824e-01
2.970000000000000000e+03 2.687479972839355469e+01 -9.110448837280273438e+00 -2.929160892963409424e-01 1.613758087158203125e+00 3.962526023387908936e-01 9.221379756927490234e-01
2.971000000000000000e+03 2.701625823974609375e+01 -9.436211585998535156e+00 -2.044119685888290405e-01 1.663597583770751953e+00 4.377556741237640381e-01 1.007289171218872070e+00
2.972000000000000000e+03 2.720670890808105469e+01 -6.109065532684326172e+00 -6.349761486053466797e-01 1.133897900581359863e+00 1.496765315532684326e-01 6.930994987487792969e-01
2.973000000000000000e+03 2.927488327026367188e+01 -1.250926971435546875e+01 8.967508077621459961e-01 3.074431978166103363e-02 2.782485485076904297e-01 4.475375711917877197e-01
2.974000000000000000e+03 3.060634613037109375e+01 -1.236503601074218750e+01 3.577153682708740234e-01 -1.131755411624908447e-01 7.336194813251495361e-02 2.235797792673110962e-01
2.975000000000000000e+03 3.298628616333007812e+01 -1.134357070922851562e+01 -1.618041247129440308e-01 -3.136904165148735046e-02 -5.795194953680038452e-02 1.846815049648284912e-01
2.976000000000000000e+03 2.951570320129394531e+01 -1.126767158508300781e+01 6.285398602485656738e-01 3.261202573776245117e-01 2.863980233669281006e-01 8.277722597122192383e-01
2.977000000000000000e+03 2.794317626953125000e+01 -4.025378704071044922e+00 -6.463157534599304199e-01 9.731786251068115234e-01 9.805886447429656982e-02 6.301116347312927246e-01
2.978000000000000000e+03 2.657942962646484375e+01 -4.903925418853759766e+00 -7.066298723220825195e-01 1.030537843704223633e+00 9.717239439487457275e-02 5.833333730697631836e-01
2.979000000000000000e+03 2.802278518676757812e+01 -6.342244148254394531e-01 -5.201721191406250000e-01 8.470047116279602051e-01 9.804978221654891968e-02 4.775360226631164551e-01
2.980000000000000000e+03 2.811037635803222656e+01 9.326832890510559082e-01 -3.881731629371643066e-01 7.917790412902832031e-01 1.210817694664001465e-01 4.314761459827423096e-01
2.981000000000000000e+03 2.999051666259765625e+01 -1.212374687194824219e+01 5.852738618850708008e-01 6.457559764385223389e-03 1.775194257497787476e-01 4.247801899909973145e-01
2.982000000000000000e+03 2.679574012756347656e+01 -3.209703922271728516e+00 -6.966910362243652344e-01 9.289588332176208496e-01 6.968034803867340088e-02 5.320198535919189453e-01
2.983000000000000000e+03 3.799351882934570312e+01 -8.848801612854003906e+00 -6.271090507507324219e-01 1.552304178476333618e-01 -1.415635943412780762e-01 1.463245749473571777e-01
2.984000000000000000e+03 2.735439682006835938e+01 -4.958872795104980469e+00 -6.621878147125244141e-01 1.038209438323974609e+00 1.128064915537834167e-01 6.469022035598754883e-01
2.985000000000000000e+03 2.696911621093750000e+01 -2.296036958694458008e+00 -6.587853431701660156e-01 8.881278038024902344e-01 6.880273669958114624e-02 5.006430745124816895e-01
2.986000000000000000e+03 3.213925170898437500e+01 -1.204410171508789062e+01 -4.115743935108184814e-02 -1.008756756782531738e-01 -4.260993376374244690e-02 1.176277846097946167e-01
2.987000000000000000e+03 5.907214355468750000e+01 7.482771277427673340e-01 -2.211151421070098877e-01 1.181233525276184082e+00 2.880355119705200195e-01 -4.915470778942108154e-01
2.988000000000000000e+03 3.540947341918945312e+01 -1.038132476806640625e+01 -4.624120593070983887e-01 5.886889249086380005e-02 -1.210629492998123169e-01 1.389815211296081543e-01
2.989000000000000000e+03 3.306580734252929688e+01 -1.053144359588623047e+01 -1.550058424472808838e-01 5.154216289520263672e-02 -3.103910572826862335e-02 3.125651776790618896e-01
2.990000000000000000e+03 3.534912872314453125e+01 -9.493448257446289062e+00 -4.226591885089874268e-01 1.170648261904716492e-01 -9.167831391096115112e-02 2.399293631315231323e-01
2.991000000000000000e+03 4.507637023925781250e+01 -7.139004021883010864e-02 -3.632675707340240479e-01 2.683733403682708740e-01 -2.846826426684856415e-02 2.769080102443695068e-01
2.992000000000000000e+03 4.020952606201171875e+01 -9.454293251037597656e+00 -8.313964009284973145e-01 1.511173993349075317e-01 -2.040836960077285767e-01 2.035531215369701385e-02
2.993000000000000000e+03 3.900009536743164062e+01 -8.575236320495605469e+00 -6.900356411933898926e-01 1.718186289072036743e-01 -1.554651111364364624e-01 1.233951225876808167e-01
2.994000000000000000e+03 4.271019744873046875e+01 -8.021890640258789062e+00 -9.094803929328918457e-01 1.964852213859558105e-01 -2.138985395431518555e-01 4.178176075220108032e-02
2.995000000000000000e+03 3.605934524536132812e+01 5.546770095825195312e+00 -1.115334853529930115e-01 7.220908403396606445e-01 1.831672191619873047e-01 6.161901354789733887e-01
2.996000000000000000e+03 4.545090484619140625e+01 -6.915899753570556641e+00 -9.974563717842102051e-01 2.233932763338088989e-01 -2.322189360857009888e-01 5.778151378035545349e-02
2.997000000000000000e+03 3.706820297241210938e+01 -9.093262672424316406e+00 -5.667191743850708008e-01 1.380011290311813354e-01 -1.286154091358184814e-01 1.699333935976028442e-01
2.998000000000000000e+03 3.021421623229980469e+01 1.565967321395874023e+00 -2.835244238376617432e-01 7.297583818435668945e-01 1.338701844215393066e-01 4.918878972530364990e-01
2.999000000000000000e+03 4.667263412475585938e+01 -2.159943103790283203e+00 -5.839769840240478516e-01 2.473432421684265137e-01 -1.009901165962219238e-01 2.684622406959533691e-01
3.000000000000000000e+03 6.340694808959960938e+01 1.924364268779754639e-01 -3.092893958091735840e-01 2.569352149963378906e+00 6.780188679695129395e-01 -1.818158864974975586e+00
3.001000000000000000e+03 2.992695236206054688e+01 2.552736759185791016e+00 -1.938433051109313965e-01 7.089228034019470215e-01 1.545238494873046875e-01 4.757978022098541260e-01
3.002000000000000000e+03 3.209136962890625000e+01 4.404147624969482422e+00 -6.552736461162567139e-02 6.225252747535705566e-01 1.670993715524673462e-01 5.794717669486999512e-01
3.003000000000000000e+03 3.493131256103515625e+01 1.254785823822021484e+01 1.889668256044387817e-01 7.808362841606140137e-01 2.909409403800964355e-01 6.303015947341918945e-01
3.004000000000000000e+03 3.231529617309570312e+01 1.288047027587890625e+01 4.819982871413230896e-02 6.081386208534240723e-01 1.969015300273895264e-01 6.267907619476318359e-01
3.005000000000000000e+03 6.132690811157226562e+01 5.826168537139892578e+00 2.204942256212234497e-01 2.854586839675903320e+00 9.225243330001831055e-01 -9.841669201850891113e-01
3.006000000000000000e+03 6.122293090820312500e+01 8.091879844665527344e+00 3.586043715476989746e-01 3.190747261047363281e+00 1.064805507659912109e+00 -9.246671199798583984e-01
3.007000000000000000e+03 3.648677825927734375e+01 2.556460618972778320e+00 -2.560053765773773193e-01 6.558750271797180176e-01 1.199608966708183289e-01 5.373010039329528809e-01
3.008000000000000000e+03 4.282898712158203125e+01 -2.697799444198608398e+00 -5.450070500373840332e-01 3.092550337314605713e-01 -7.072560489177703857e-02 2.824320793151855469e-01
3.009000000000000000e+03 3.515956878662109375e+01 4.826913356781005859e+00 -1.180742532014846802e-01 6.951199769973754883e-01 1.731137186288833618e-01 6.156298518180847168e-01
3.010000000000000000e+03 3.433786392211914062e+01 1.169667625427246094e+01 1.384601294994354248e-01 7.319579124450683594e-01 2.611254155635833740e-01 6.762639284133911133e-01
3.011000000000000000e+03 3.300144195556640625e+01 1.435423851013183594e+01 1.006821766495704651e-01 6.520386934280395508e-01 2.258162647485733032e-01 5.352953076362609863e-01
3.012000000000000000e+03 6.831636047363281250e+01 1.251474285125732422e+01 2.263100147247314453e-01 5.313298225402832031e+00 1.661882519721984863e+00 -9.100192189216613770e-01
3.013000000000000000e+03 6.212343215942382812e+01 7.437183380126953125e+00 2.959170043468475342e-01 3.371758937835693359e+00 1.100302815437316895e+00 -1.049115419387817383e+00
3.014000000000000000e+03 4.494345474243164062e+01 -3.871566057205200195e+00 -7.028051018714904785e-01 2.588593661785125732e-01 -1.331837177276611328e-01 2.186195105314254761e-01
3.015000000000000000e+03 4.182587432861328125e+01 -5.855430603027343750e+00 -7.153044342994689941e-01 2.568185925483703613e-01 -1.375457495450973511e-01 1.967080533504486084e-01
3.016000000000000000e+03 4.380007553100585938e+01 -7.402468204498291016e+00 -9.398783445358276367e-01 2.121396958827972412e-01 -2.183216065168380737e-01 5.821662023663520813e-02
3.017000000000000000e+03 6.276326370239257812e+01 8.130274772644042969e+00 2.986050844192504883e-01 3.628109931945800781e+00 1.178014516830444336e+00 -1.030746936798095703e+00
3.018000000000000000e+03 6.828481292724609375e+01 9.467248916625976562e+00 6.783043593168258667e-02 5.435542106628417969e+00 1.651011824607849121e+00 -1.066585421562194824e+00
3.019000000000000000e+03 1.334603977203369141e+01 2.336409568786621094e+01 8.672767132520675659e-02 -1.396135240793228149e-01 -1.586575433611869812e-02 2.652209699153900146e-01
3.020000000000000000e+03 6.646265411376953125e+01 1.199529838562011719e+01 3.038775622844696045e-01 4.795478343963623047e+00 1.529806852340698242e+00 -9.726492166519165039e-01
3.021000000000000000e+03 6.404198455810546875e+01 1.022007369995117188e+01 3.538689017295837402e-01 4.103171348571777344e+00 1.337111949920654297e+00 -1.033643364906311035e+00
3.022000000000000000e+03 4.108629989624023438e+01 -5.403743267059326172e+00 -6.620616316795349121e-01 2.741823196411132812e-01 -1.163638010621070862e-01 2.303498834371566772e-01
3.023000000000000000e+03 4.731602478027343750e+01 -4.749245643615722656e+00 -8.843320608139038086e-01 2.434142678976058960e-01 -1.922753453254699707e-01 1.694919764995574951e-01
3.024000000000000000e+03 6.902554321289062500e+01 1.366347026824951172e+01 2.282908558845520020e-01 5.522609233856201172e+00 1.725269913673400879e+00 -8.391038179397583008e-01
3.025000000000000000e+03 3.379506683349609375e+01 1.860697174072265625e+01 2.301176935434341431e-01 6.950483322143554688e-01 2.775498032569885254e-01 3.066052198410034180e-01
3.026000000000000000e+03 6.526389312744140625e+01 9.460487365722656250e+00 2.455012500286102295e-01 4.423876762390136719e+00 1.400813341140747070e+00 -1.115953445434570312e+00
3.027000000000000000e+03 6.785966491699218750e+01 8.156506538391113281e+00 -3.171778982505202293e-03 5.293268203735351562e+00 1.587028861045837402e+00 -1.154418110847473145e+00
3.028000000000000000e+03 2.697373580932617188e+01 2.018967819213867188e+01 2.003734558820724487e-01 1.274407282471656799e-02 6.393525749444961548e-02 2.622776627540588379e-01
3.029000000000000000e+03 3.443516159057617188e+01 1.716587638854980469e+01 2.266737818717956543e-01 7.470524311065673828e-01 2.921178638935089111e-01 3.584156930446624756e-01
3.030000000000000000e+03 1.887458610534667969e+01 2.391815757751464844e+01 1.597137302160263062e-01 -2.700349129736423492e-02 3.981307148933410645e-02 4.539844393730163574e-01
3.031000000000000000e+03 1.414257049560546875e+01 2.446975708007812500e+01 7.445239275693893433e-02 -1.373867988586425781e-01 -1.888032071292400360e-02 2.893600165843963623e-01
3.032000000000000000e+03 3.199226379394531250e+01 1.957972908020019531e+01 2.169668674468994141e-01 5.228787064552307129e-01 2.219536602497100830e-01 2.491711974143981934e-01
3.033000000000000000e+03 6.522566223144531250e+01 1.269157028198242188e+01 3.959370553493499756e-01 4.484745025634765625e+00 1.464204549789428711e+00 -9.196928739547729492e-01
3.034000000000000000e+03 6.809432983398437500e+01 2.414896011352539062e+01 2.256001383066177368e-01 5.174195766448974609e+00 1.619938731193542480e+00 -4.952630102634429932e-01
3.035000000000000000e+03 5.639556121826171875e+01 2.083770561218261719e+01 3.202769756317138672e-01 2.921698093414306641e+00 9.725925326347351074e-01 -6.526280641555786133e-01
3.036000000000000000e+03 2.281375503540039062e+01 2.109252357482910156e+01 2.605190277099609375e-01 -1.930747181177139282e-01 2.023329585790634155e-02 4.697367846965789795e-01
3.037000000000000000e+03 1.776251792907714844e+01 2.622296714782714844e+01 1.402763724327087402e-01 -7.518846541643142700e-02 1.952637173235416412e-02 3.613439202308654785e-01
3.038000000000000000e+03 4.635504150390625000e+01 -6.719147205352783203e+00 -1.046846628189086914e+00 2.231913805007934570e-01 -2.470965683460235596e-01 5.281233042478561401e-02
3.039000000000000000e+03 4.577198028564453125e+01 -4.647698879241943359e+00 -8.030911087989807129e-01 2.478301227092742920e-01 -1.665782928466796875e-01 1.838812381029129028e-01
3.040000000000000000e+03 3.445099258422851562e+01 5.801136493682861328e+00 -5.408292263746261597e-02 6.713740229606628418e-01 1.851873248815536499e-01 6.482592821121215820e-01
3.041000000000000000e+03 6.256221008300781250e+01 2.094783544540405273e+00 -7.458971440792083740e-02 2.619982719421386719e+00 7.636178731918334961e-01 -1.399883627891540527e+00
3.042000000000000000e+03 6.212032318115234375e+01 8.313469290733337402e-01 -1.202570199966430664e-01 2.095911026000976562e+00 5.926961898803710938e-01 -1.301819324493408203e+00
3.043000000000000000e+03 6.476322937011718750e+01 2.303378105163574219e+01 2.983243465423583984e-01 4.511153697967529297e+00 1.442843437194824219e+00 -5.413224101066589355e-01
3.044000000000000000e+03 6.595861053466796875e+01 1.771690559387207031e+01 3.658529818058013916e-01 4.724321365356445312e+00 1.527052283287048340e+00 -6.757994294166564941e-01
3.045000000000000000e+03 6.443637084960937500e+01 1.839573287963867188e+01 4.090028405189514160e-01 4.384915351867675781e+00 1.438175439834594727e+00 -6.352937817573547363e-01
3.046000000000000000e+03 1.531489181518554688e+01 -3.648653793334960938e+01 -2.865292429924011230e-01 8.186249732971191406e-01 1.596287190914154053e-01 -9.254365414381027222e-02
3.047000000000000000e+03 2.693197250366210938e+01 -8.476777076721191406e+00 -4.139168262481689453e-01 1.481594085693359375e+00 3.203031718730926514e-01 8.410758972167968750e-01
3.048000000000000000e+03 2.738187980651855469e+01 -7.721824645996093750e+00 -4.742136895656585693e-01 1.290084004402160645e+00 2.447610795497894287e-01 8.312733173370361328e-01
3.049000000000000000e+03 2.693894577026367188e+01 -4.693051338195800781e+00 -6.933934688568115234e-01 1.032956480979919434e+00 1.018688902258872986e-01 6.049496531486511230e-01
3.050000000000000000e+03 2.939621734619140625e+01 -1.193913555145263672e+01 8.082748055458068848e-01 1.346756219863891602e-01 2.828851342201232910e-01 6.415774822235107422e-01
3.051000000000000000e+03 3.080377197265625000e+01 -1.167302227020263672e+01 3.211108446121215820e-01 1.986575080081820488e-03 9.692922979593276978e-02 3.990762233734130859e-01
3.052000000000000000e+03 3.228898620605468750e+01 -1.126277828216552734e+01 -3.085606545209884644e-02 -1.467407681047916412e-02 -1.365904323756694794e-02 2.722208201885223389e-01
3.053000000000000000e+03 3.185174751281738281e+01 -9.182845115661621094e+00 -7.394417375326156616e-02 3.141656517982482910e-01 7.206644117832183838e-02 6.480206847190856934e-01
3.054000000000000000e+03 2.840858459472656250e+01 -1.008965778350830078e+01 2.330597192049026489e-01 1.079042673110961914e+00 3.936307132244110107e-01 1.166497826576232910e+00
3.055000000000000000e+03 2.756458854675292969e+01 -6.415358543395996094e+00 -5.780649781227111816e-01 1.139346361160278320e+00 1.683844029903411865e-01 7.568468451499938965e-01
3.056000000000000000e+03 2.837709045410156250e+01 -5.571797370910644531e+00 -5.838898420333862305e-01 1.027078390121459961e+00 1.329565942287445068e-01 7.381802201271057129e-01
3.057000000000000000e+03 2.950054931640625000e+01 4.046282470226287842e-01 -3.946127593517303467e-01 7.855342626571655273e-01 1.172764450311660767e-01 4.876576066017150879e-01
3.058000000000000000e+03 3.964289093017578125e+01 -1.007426261901855469e+00 -4.164961874485015869e-01 4.527125656604766846e-01 1.086491253226995468e-02 3.934524059295654297e-01
3.059000000000000000e+03 3.605244827270507812e+01 -8.406193733215332031e+00 -4.645827710628509521e-01 1.847853511571884155e-01 -8.393922448158264160e-02 2.865999042987823486e-01
3.060000000000000000e+03 2.776274871826171875e+01 -1.483988404273986816e+00 -5.909409523010253906e-01 8.714773654937744141e-01 8.416091650724411011e-02 5.004714131355285645e-01
3.061000000000000000e+03 3.378504943847656250e+01 -9.688887596130371094e+00 -2.508237957954406738e-01 1.257710158824920654e-01 -3.751583769917488098e-02 3.554418683052062988e-01
3.062000000000000000e+03 3.239472579956054688e+01 -1.050459384918212891e+01 -4.240678623318672180e-02 7.780969142913818359e-02 1.062087155878543854e-02 4.005469381809234619e-01
3.063000000000000000e+03 3.619147109985351562e+01 -9.311450004577636719e+00 -4.984747469425201416e-01 1.274567246437072754e-01 -1.113054081797599792e-01 2.012254148721694946e-01
3.064000000000000000e+03 3.689698028564453125e+01 -8.150648117065429688e+00 -5.224420428276062012e-01 1.924713551998138428e-01 -9.899121522903442383e-02 2.540516853332519531e-01
3.065000000000000000e+03 2.746467781066894531e+01 -4.118972778320312500e+00 -6.706801652908325195e-01 9.861975908279418945e-01 9.465521574020385742e-02 6.083654165267944336e-01
3.066000000000000000e+03 4.580722808837890625e+01 -1.175679445266723633e+00 -4.575890004634857178e-01 2.564187049865722656e-01 -6.035108864307403564e-02 2.839944362640380859e-01
3.067000000000000000e+03 3.778290939331054688e+01 -7.894108295440673828e+00 -5.800520777702331543e-01 1.987167745828628540e-01 -1.144005954265594482e-01 2.231405824422836304e-01
3.068000000000000000e+03 4.574238967895507812e+01 -2.971678018569946289e+00 -6.480822563171386719e-01 2.561924159526824951e-01 -1.175669655203819275e-01 2.488135397434234619e-01
3.069000000000000000e+03 4.394008255004882812e+01 -8.154076337814331055e-01 -4.263897836208343506e-01 3.070831000804901123e-01 -3.579200431704521179e-02 2.880891263484954834e-01
3.070000000000000000e+03 3.641539001464843750e+01 -6.154108047485351562e+00 -4.646224081516265869e-01 3.268223404884338379e-01 -4.134001955389976501e-02 4.087345302104949951e-01
3.071000000000000000e+03 3.918796539306640625e+01 3.214592635631561279e-01 -3.660824298858642578e-01 5.121185183525085449e-01 4.381083697080612183e-02 4.189452230930328369e-01
3.072000000000000000e+03 6.079080200195312500e+01 1.428133487701416016e+00 -7.908093929290771484e-02 1.731500267982482910e+00 4.957258105278015137e-01 -9.340021014213562012e-01
3.073000000000000000e+03 5.948474884033203125e+01 1.896335124969482422e+00 -2.557586319744586945e-02 1.576058506965637207e+00 4.651447832584381104e-01 -6.091156601905822754e-01
3.074000000000000000e+03 4.298743057250976562e+01 -5.279400348663330078e+00 -7.303451299667358398e-01 2.562548518180847168e-01 -1.422270983457565308e-01 1.958555877208709717e-01
3.075000000000000000e+03 4.429199981689453125e+01 -4.857430458068847656e+00 -7.579000592231750488e-01 2.542991340160369873e-01 -1.510802805423736572e-01 1.873608380556106567e-01
3.076000000000000000e+03 3.112041473388671875e+01 2.861069917678833008e+00 -1.666957437992095947e-01 6.696906089782714844e-01 1.508984565734863281e-01 5.189884901046752930e-01
3.077000000000000000e+03 3.367610168457031250e+01 3.191714048385620117e+00 -1.775746941566467285e-01 6.568145155906677246e-01 1.437719464302062988e-01 5.776304006576538086e-01
3.078000000000000000e+03 3.134048461914062500e+01 1.804977297782897949e+00 -2.556128203868865967e-01 7.087449431419372559e-01 1.359396427869796753e-01 5.272717475891113281e-01
3.079000000000000000e+03 4.650918579101562500e+01 -5.403681278228759766e+00 -9.162340760231018066e-01 2.383386641740798950e-01 -2.033686190843582153e-01 1.404611170291900635e-01
3.080000000000000000e+03 4.658679199218750000e+01 -3.868141412734985352e+00 -7.689191699028015137e-01 2.477670311927795410e-01 -1.563456505537033081e-01 2.101318985223770142e-01
3.081000000000000000e+03 3.479364776611328125e+01 3.288039684295654297e+00 -2.018204778432846069e-01 6.671453118324279785e-01 1.395974457263946533e-01 5.817732810974121094e-01
3.082000000000000000e+03 4.267137145996093750e+01 -1.320474028587341309e+00 -4.611171483993530273e-01 3.357481956481933594e-01 -3.761068731546401978e-02 3.034271299839019775e-01
3.083000000000000000e+03 3.970648193359375000e+01 -7.139936923980712891e+00 -6.801500916481018066e-01 2.279030829668045044e-01 -1.356741040945053101e-01 1.860196590423583984e-01
3.084000000000000000e+03 6.306144332885742188e+01 3.342800378799438477e+00 -2.594557404518127441e-02 3.111920595169067383e+00 9.257924556732177734e-01 -1.373454451560974121e+00
3.085000000000000000e+03 6.863983154296875000e+01 3.986024618148803711e+00 -5.964776873588562012e-01 6.041586399078369141e+00 1.633532643318176270e+00 -1.385643005371093750e+00
3.086000000000000000e+03 6.772646331787109375e+01 5.237861156463623047e+00 -3.113246262073516846e-01 5.426687240600585938e+00 1.534608840942382812e+00 -1.361114144325256348e+00
3.087000000000000000e+03 6.651132202148437500e+01 8.777832984924316406e+00 1.143007799983024597e-01 4.850894927978515625e+00 1.489558815956115723e+00 -1.154132604598999023e+00
3.088000000000000000e+03 6.342843246459960938e+01 9.083642005920410156e+00 3.360722661018371582e-01 3.801190376281738281e+00 1.241178750991821289e+00 -1.070033431053161621e+00
3.089000000000000000e+03 2.860853576660156250e+01 3.096996247768402100e-02 -4.543192982673645020e-01 8.197886347770690918e-01 1.096408069133758545e-01 4.714100956916809082e-01
3.090000000000000000e+03 2.765656661987304688e+01 -2.286574840545654297e+00 -6.332691907882690430e-01 9.056853055953979492e-01 8.172485232353210449e-02 5.311554670333862305e-01
3.091000000000000000e+03 6.563970947265625000e+01 1.983656167984008789e+00 -4.943820238113403320e-01 4.463177204132080078e+00 1.190638542175292969e+00 -1.827930212020874023e+00
3.092000000000000000e+03 6.243108749389648438e+01 5.279034137725830078e+00 1.380965262651443481e-01 3.211629390716552734e+00 1.004917740821838379e+00 -1.156720519065856934e+00
3.093000000000000000e+03 6.879804992675781250e+01 1.067063713073730469e+01 1.196105554699897766e-01 5.512201786041259766e+00 1.689543724060058594e+00 -9.868187308311462402e-01
3.094000000000000000e+03 6.964719390869140625e+01 5.183585643768310547e+00 -4.623211324214935303e-01 6.284784793853759766e+00 1.746739149093627930e+00 -1.198260307312011719e+00
3.095000000000000000e+03 5.731972122192382812e+01 1.840810775756835938e+01 4.282459616661071777e-01 3.246499538421630859e+00 1.102423667907714844e+00 -6.536741256713867188e-01
3.096000000000000000e+03 6.386483383178710938e+01 1.430411577224731445e+00 -2.476220428943634033e-01 3.213190078735351562e+00 8.896704316139221191e-01 -1.706238627433776855e+00
3.097000000000000000e+03 5.532593917846679688e+01 -1.264665603637695312e+00 -6.200011372566223145e-01 5.073863267898559570e-01 -3.378444164991378784e-02 1.560421735048294067e-01
3.098000000000000000e+03 6.661762237548828125e+01 1.541760444641113281e+01 3.582540750503540039e-01 4.865807056427001953e+00 1.567218422889709473e+00 -7.900300621986389160e-01
3.099000000000000000e+03 6.787232971191406250e+01 1.456720733642578125e+01 2.965448498725891113e-01 5.153420448303222656e+00 1.634989619255065918e+00 -8.228365778923034668e-01
3.100000000000000000e+03 6.712094879150390625e+01 1.327251148223876953e+01 3.089569211006164551e-01 4.999259471893310547e+00 1.592464923858642578e+00 -8.935893177986145020e-01
3.101000000000000000e+03 6.728774261474609375e+01 6.880695343017578125e+00 -9.108196198940277100e-02 5.219545364379882812e+00 1.538539052009582520e+00 -1.251615285873413086e+00
3.102000000000000000e+03 6.664626312255859375e+01 1.937584686279296875e+01 3.225685954093933105e-01 4.869084358215332031e+00 1.557495832443237305e+00 -6.241068243980407715e-01
3.103000000000000000e+03 6.743010711669921875e+01 2.107135581970214844e+01 2.651434540748596191e-01 5.047799587249755859e+00 1.593882799148559570e+00 -5.860624909400939941e-01
3.104000000000000000e+03 6.457772827148437500e+01 1.471609020233154297e+01 4.630034565925598145e-01 4.359542846679687500e+00 1.446763873100280762e+00 -7.989409565925598145e-01
3.105000000000000000e+03 3.016980171203613281e+01 2.070991134643554688e+01 2.198995202779769897e-01 3.470651507377624512e-01 1.700893938541412354e-01 2.286144793033599854e-01
3.106000000000000000e+03 2.548058319091796875e+01 2.070532226562500000e+01 2.316032499074935913e-01 -1.131433472037315369e-01 3.553796932101249695e-02 3.225885331630706787e-01
3.107000000000000000e+03 2.406803894042968750e+01 2.117406463623046875e+01 2.645318210124969482e-01 -1.626142859458923340e-01 3.057525679469108582e-02 3.876092433929443359e-01
3.108000000000000000e+03 1.605775833129882812e+01 2.920263671875000000e+01 1.170963868498802185e-01 -1.774583756923675537e-01 -1.810859329998493195e-02 2.609402239322662354e-01
3.109000000000000000e+03 1.760939788818359375e+01 2.429871368408203125e+01 1.269908547401428223e-01 -2.936009503901004791e-02 2.928922884166240692e-02 4.013785421848297119e-01
3.110000000000000000e+03 4.145382690429687500e+01 -6.906042098999023438e+00 -7.619784474372863770e-01 2.273924946784973145e-01 -1.603757739067077637e-01 1.454855352640151978e-01
3.111000000000000000e+03 3.357674026489257812e+01 1.596556663513183594e+01 1.716088503599166870e-01 6.925387382507324219e-01 2.592442929744720459e-01 4.308694601058959961e-01
3.112000000000000000e+03 2.411729812622070312e+01 2.307102012634277344e+01 2.976131737232208252e-01 -7.741266489028930664e-02 6.606014817953109741e-02 3.819341063499450684e-01
3.113000000000000000e+03 1.646021461486816406e+01 2.380838394165039062e+01 1.029495298862457275e-01 -3.082187846302986145e-02 2.163829468190670013e-02 3.812660574913024902e-01
3.114000000000000000e+03 3.097438240051269531e+01 2.336776161193847656e+01 3.092545568943023682e-01 4.131086468696594238e-01 2.167089581489562988e-01 2.222508043050765991e-01
3.115000000000000000e+03 6.292959976196289062e+01 1.886720657348632812e+01 4.213900268077850342e-01 4.123586177825927734e+00 1.363492846488952637e+00 -6.002913713455200195e-01
3.116000000000000000e+03 2.452791595458984375e+01 2.526931953430175781e+01 3.151306211948394775e-01 1.793691702187061310e-02 9.992026537656784058e-02 3.439302742481231689e-01
3.117000000000000000e+03 2.127868843078613281e+01 2.436728477478027344e+01 2.449075132608413696e-01 -6.645863503217697144e-02 5.353466421365737915e-02 4.437862634658813477e-01
3.118000000000000000e+03 6.304525756835937500e+01 2.262369537353515625e+01 3.309906125068664551e-01 4.169632434844970703e+00 1.350186944007873535e+00 -5.422474145889282227e-01
3.119000000000000000e+03 6.610745239257812500e+01 3.228381633758544922e+00 -3.778717517852783203e-01 4.670256614685058594e+00 1.287715435028076172e+00 -1.689911127090454102e+00
3.120000000000000000e+03 2.923942565917968750e+01 -1.024750232696533203e+01 3.399420082569122314e-01 6.738032698631286621e-01 3.041235804557800293e-01 1.022117733955383301e+00
3.121000000000000000e+03 2.746426963806152344e+01 -9.233987808227539062e+00 -1.835317611694335938e-01 1.482273936271667480e+00 3.896226584911346436e-01 1.039954543113708496e+00
3.122000000000000000e+03 2.973983764648437500e+01 -1.059895229339599609e+01 4.057062268257141113e-01 4.416472911834716797e-01 2.542060613632202148e-01 8.935729265213012695e-01
3.123000000000000000e+03 2.786100196838378906e+01 -6.771501064300537109e+00 -5.380721092224121094e-01 1.139975428581237793e+00 1.805709898471832275e-01 7.963945269584655762e-01
3.124000000000000000e+03 2.721227645874023438e+01 -6.829067707061767578e+00 -5.700678229331970215e-01 1.215808510780334473e+00 1.937222331762313843e-01 7.541171312332153320e-01
3.125000000000000000e+03 3.081779861450195312e+01 -8.239532470703125000e+00 -1.565439105033874512e-01 5.750815868377685547e-01 1.255613118410110474e-01 8.142273426055908203e-01
3.126000000000000000e+03 2.814679718017578125e+01 -9.581290245056152344e+00 4.547258466482162476e-02 1.228106737136840820e+00 3.820738196372985840e-01 1.135674476623535156e+00
3.127000000000000000e+03 2.783097457885742188e+01 -5.979880332946777344e+00 -5.907509922981262207e-01 1.091151237487792969e+00 1.501200646162033081e-01 7.447940707206726074e-01
3.128000000000000000e+03 2.855224800109863281e+01 -8.802333831787109375e+00 -1.382240504026412964e-01 1.090917110443115234e+00 2.858079075813293457e-01 1.035932779312133789e+00
3.129000000000000000e+03 2.791679382324218750e+01 -7.754692554473876953e+00 -4.158793985843658447e-01 1.212263226509094238e+00 2.389151602983474731e-01 8.933290839195251465e-01
3.130000000000000000e+03 2.936175155639648438e+01 -1.268524169921875000e+00 -5.108918547630310059e-01 8.425053954124450684e-01 9.948404878377914429e-02 5.485174059867858887e-01
3.131000000000000000e+03 2.872494888305664062e+01 -1.098104715347290039e+00 -5.268430113792419434e-01 8.503471016883850098e-01 9.705124050378799438e-02 5.173666477203369141e-01
3.132000000000000000e+03 3.046117782592773438e+01 6.446803212165832520e-01 -3.550421297550201416e-01 7.612318396568298340e-01 1.218569204211235046e-01 5.147705674171447754e-01
3.133000000000000000e+03 3.035019302368164062e+01 -1.081226158142089844e+01 3.617140352725982666e-01 2.338002622127532959e-01 1.786542981863021851e-01 7.027952075004577637e-01
3.134000000000000000e+03 3.309310531616210938e+01 -9.717545509338378906e+00 -1.606179624795913696e-01 1.422453522682189941e-01 -5.511783994734287262e-03 4.264675378799438477e-01
3.135000000000000000e+03 3.097867202758789062e+01 -1.099446105957031250e+01 2.393883913755416870e-01 1.075097844004631042e-01 1.040694490075111389e-01 5.304531455039978027e-01
3.136000000000000000e+03 2.788143730163574219e+01 -5.530130386352539062e+00 -6.151345968246459961e-01 1.050339579582214355e+00 1.305615007877349854e-01 7.139412164688110352e-01
3.137000000000000000e+03 3.491187667846679688e+01 -6.024240016937255859e+00 -4.110836386680603027e-01 3.918935358524322510e-01 -5.757038015872240067e-03 5.047811269760131836e-01
3.138000000000000000e+03 2.777133941650390625e+01 -3.405487537384033203e+00 -6.585364937782287598e-01 9.474265575408935547e-01 8.666701614856719971e-02 5.850524902343750000e-01
3.139000000000000000e+03 3.376359939575195312e+01 -8.867561340332031250e+00 -2.647545039653778076e-01 2.122209370136260986e-01 -1.576006785035133362e-02 4.443784654140472412e-01
3.140000000000000000e+03 3.313382339477539062e+01 -7.949209690093994141e+00 -2.590044140815734863e-01 3.377745151519775391e-01 2.363103069365024567e-02 5.738155245780944824e-01
3.141000000000000000e+03 3.524893569946289062e+01 -8.641162872314453125e+00 -4.030048847198486328e-01 1.847842186689376831e-01 -6.546620279550552368e-02 3.267890214920043945e-01
3.142000000000000000e+03 3.872340774536132812e+01 -7.591024875640869141e+00 -6.300191283226013184e-01 2.129988670349121094e-01 -1.251060813665390015e-01 1.995621025562286377e-01
3.143000000000000000e+03 4.158297348022460938e+01 -4.602270126342773438e+00 -6.395617127418518066e-01 2.913483083248138428e-01 -1.044640243053436279e-01 2.518109083175659180e-01
3.144000000000000000e+03 3.380652618408203125e+01 -8.091920852661132812e+00 -2.993676662445068359e-01 2.814399898052215576e-01 -5.378308240324258804e-03 4.979214966297149658e-01
3.145000000000000000e+03 3.448530578613281250e+01 -8.809859275817871094e+00 -3.356357514858245850e-01 1.893221139907836914e-01 -4.389408975839614868e-02 3.784865736961364746e-01
3.146000000000000000e+03 3.508512115478515625e+01 -7.846256732940673828e+00 -3.878186047077178955e-01 2.515254616737365723e-01 -4.088794067502021790e-02 4.040938317775726318e-01
3.147000000000000000e+03 2.856539154052734375e+01 -1.766581416130065918e+00 -5.657731890678405762e-01 8.789973855018615723e-01 9.396725147962570190e-02 5.391128063201904297e-01
3.148000000000000000e+03 3.668124389648437500e+01 -7.181173801422119141e+00 -4.936333000659942627e-01 2.518295645713806152e-01 -7.254112511873245239e-02 3.321725130081176758e-01
3.149000000000000000e+03 3.755751419067382812e+01 -6.930236816406250000e+00 -5.388324856758117676e-01 2.563716471195220947e-01 -8.473825454711914062e-02 2.990599870681762695e-01
3.150000000000000000e+03 6.172058486938476562e+01 4.048744678497314453e+00 9.359660744667053223e-02 2.673704862594604492e+00 8.301904201507568359e-01 -1.092121243476867676e+00
3.151000000000000000e+03 4.050672531127929688e+01 -6.351640224456787109e+00 -6.863503456115722656e-01 2.474432438611984253e-01 -1.316721439361572266e-01 2.011529654264450073e-01
3.152000000000000000e+03 6.765999603271484375e+01 1.131204700469970703e+01 2.097234278917312622e-01 5.191431045532226562e+00 1.620346307754516602e+00 -9.857651591300964355e-01
3.153000000000000000e+03 3.521057891845703125e+01 1.937476539611816406e+01 2.803318798542022705e-01 8.297362327575683594e-01 3.330204188823699951e-01 2.778383791446685791e-01
3.154000000000000000e+03 3.506782913208007812e+01 1.050380706787109375e+00 -3.037427663803100586e-01 6.448706984519958496e-01 1.023383736610412598e-01 5.498744249343872070e-01
3.155000000000000000e+03 3.504211807250976562e+01 2.232968568801879883e+00 -2.497938275337219238e-01 6.520372033119201660e-01 1.206730082631111145e-01 5.600456595420837402e-01
3.156000000000000000e+03 3.241974639892578125e+01 3.157845497131347656e+00 -1.593945175409317017e-01 6.616913080215454102e-01 1.506890505552291870e-01 5.628927350044250488e-01
3.157000000000000000e+03 4.477490997314453125e+01 -2.007098674774169922e+00 -5.314388871192932129e-01 2.747923433780670166e-01 -7.699396461248397827e-02 2.721546590328216553e-01
3.158000000000000000e+03 4.260587692260742188e+01 -3.907877922058105469e+00 -6.316931247711181641e-01 2.910086214542388916e-01 -1.022053435444831848e-01 2.558900713920593262e-01
3.159000000000000000e+03 3.988308715820312500e+01 -3.928594112396240234e+00 -5.363373160362243652e-01 3.370549678802490234e-01 -5.978469923138618469e-02 3.251785933971405029e-01
3.160000000000000000e+03 6.752878570556640625e+01 4.135848999023437500e+00 -4.079493582248687744e-01 5.354404449462890625e+00 1.483936548233032227e+00 -1.469181060791015625e+00
3.161000000000000000e+03 6.434844207763671875e+01 2.652698278427124023e+00 -2.101587504148483276e-01 3.639270782470703125e+00 1.028733611106872559e+00 -1.655686259269714355e+00
3.162000000000000000e+03 6.483529663085937500e+01 3.854979515075683594e+00 -1.778095662593841553e-01 4.078925132751464844e+00 1.170334696769714355e+00 -1.550669193267822266e+00
3.163000000000000000e+03 6.368381500244140625e+01 7.012993335723876953e+00 1.732601523399353027e-01 3.783006906509399414e+00 1.186880111694335938e+00 -1.216073632240295410e+00
3.164000000000000000e+03 3.919283676147460938e+01 -4.676894187927246094e+00 -5.441045165061950684e-01 3.340873420238494873e-01 -6.300515681505203247e-02 3.294104933738708496e-01
3.165000000000000000e+03 4.136825942993164062e+01 -1.677527904510498047e+00 -4.617769122123718262e-01 3.730869889259338379e-01 -2.660697326064109802e-02 3.291318714618682861e-01
3.166000000000000000e+03 6.112218093872070312e+01 2.298140907287597656e+01 3.410404622554779053e-01 3.796165943145751953e+00 1.241161942481994629e+00 -5.435615181922912598e-01
3.167000000000000000e+03 5.755144882202148438e+01 2.305725669860839844e+01 3.787518739700317383e-01 3.098859786987304688e+00 1.043283462524414062e+00 -5.969396829605102539e-01
3.168000000000000000e+03 4.345777130126953125e+01 -4.269207000732421875e+00 -6.800214052200317383e-01 2.700244188308715820e-01 -1.229990944266319275e-01 2.246924340724945068e-01
3.169000000000000000e+03 3.839860153198242188e+01 -6.716058731079101562e+00 -5.868694186210632324e-01 2.559657096862792969e-01 -9.927111119031906128e-02 2.699716985225677490e-01
3.170000000000000000e+03 3.642839050292968750e+01 1.197496533393859863e+00 -3.184225857257843018e-01 6.164494156837463379e-01 8.940804749727249146e-02 5.171292424201965332e-01
3.171000000000000000e+03 2.647207260131835938e+01 2.450889778137207031e+01 3.313995897769927979e-01 9.493583440780639648e-02 1.279006302356719971e-01 2.877033948898315430e-01
3.172000000000000000e+03 2.253605842590332031e+01 2.638244819641113281e+01 2.788061499595642090e-01 -1.615374907851219177e-02 7.879572361707687378e-02 3.685568869113922119e-01
3.173000000000000000e+03 3.371593093872070312e+01 2.232437324523925781e+01 2.973418235778808594e-01 6.641978621482849121e-01 2.884618937969207764e-01 2.272901087999343872e-01
3.174000000000000000e+03 2.906567573547363281e+01 2.581259155273437500e+01 3.475327193737030029e-01 2.832501232624053955e-01 1.892348527908325195e-01 2.359036803245544434e-01
3.175000000000000000e+03 6.862495422363281250e+01 5.100527763366699219e+00 -3.660510182380676270e-01 5.844357013702392578e+00 1.643491864204406738e+00 -1.263402581214904785e+00
3.176000000000000000e+03 6.629067230224609375e+01 2.358310317993164062e+01 2.682009339332580566e-01 4.837492465972900391e+00 1.531708121299743652e+00 -5.430129766464233398e-01
3.177000000000000000e+03 2.373375320434570312e+01 2.872565650939941406e+01 3.114763498306274414e-01 6.914139539003372192e-02 1.141853183507919312e-01 2.917676568031311035e-01
3.178000000000000000e+03 2.753939247131347656e+01 -7.148334503173828125e+00 -5.238944292068481445e-01 1.211439251899719238e+00 2.062634378671646118e-01 7.996011376380920410e-01
3.179000000000000000e+03 2.791093063354492188e+01 -8.368839263916015625e+00 -3.126561641693115234e-01 1.261532425880432129e+00 2.846628725528717041e-01 9.594573378562927246e-01
3.180000000000000000e+03 2.799316215515136719e+01 -8.996694564819335938e+00 -1.672969162464141846e-01 1.285799980163574219e+00 3.355509042739868164e-01 1.045643925666809082e+00
3.181000000000000000e+03 2.831777000427246094e+01 -6.572688579559326172e+00 -5.189955830574035645e-01 1.085890293121337891e+00 1.700684130191802979e-01 8.087912797927856445e-01
3.182000000000000000e+03 2.826316642761230469e+01 -6.044288158416748047e+00 -5.646021366119384766e-01 1.064644813537597656e+00 1.500127762556076050e-01 7.713335156440734863e-01
3.183000000000000000e+03 2.973451614379882812e+01 -9.397208213806152344e+00 7.089740782976150513e-02 6.662334799766540527e-01 2.211392670869827271e-01 9.434942603111267090e-01
3.184000000000000000e+03 3.124453735351562500e+01 -8.470324516296386719e+00 -1.431827694177627563e-01 4.870419204235076904e-01 1.031577438116073608e-01 7.507192492485046387e-01
3.185000000000000000e+03 2.959454154968261719e+01 -9.807811737060546875e+00 1.783116608858108521e-01 6.338732242584228516e-01 2.436554580926895142e-01 9.617372751235961914e-01
3.186000000000000000e+03 3.184190177917480469e+01 -9.776159286499023438e+00 -1.280563976615667343e-02 2.294716387987136841e-01 6.499979645013809204e-02 5.866914391517639160e-01
3.187000000000000000e+03 2.844526100158691406e+01 -5.106651782989501953e+00 -5.925970077514648438e-01 9.980206489562988281e-01 1.216270849108695984e-01 7.210812568664550781e-01
3.188000000000000000e+03 2.983382034301757812e+01 -4.021617770195007324e-01 -4.491214156150817871e-01 8.100095987319946289e-01 1.082664579153060913e-01 5.219090580940246582e-01
3.189000000000000000e+03 2.913660240173339844e+01 -6.486920118331909180e-01 -4.856940209865570068e-01 8.259573578834533691e-01 1.020790114998817444e-01 5.138261914253234863e-01
3.190000000000000000e+03 2.890724372863769531e+01 -9.785023689270019531e+00 1.754618883132934570e-01 9.012404084205627441e-01 3.230106830596923828e-01 1.089782357215881348e+00
3.191000000000000000e+03 3.244908523559570312e+01 -9.754891395568847656e+00 -9.260051697492599487e-02 1.730746626853942871e-01 2.414224483072757721e-02 4.942545294761657715e-01
3.192000000000000000e+03 3.206231689453125000e+01 -8.348642349243164062e+00 -1.843821108341217041e-01 3.977893888950347900e-01 6.402218341827392578e-02 6.650447249412536621e-01
3.193000000000000000e+03 3.127084541320800781e+01 -9.705781936645507812e+00 4.132666066288948059e-02 3.090854883193969727e-01 1.051236391067504883e-01 6.910998821258544922e-01
3.194000000000000000e+03 3.055392265319824219e+01 -1.017545700073242188e+01 2.039592862129211426e-01 3.433162868022918701e-01 1.641826778650283813e-01 7.719832658767700195e-01
3.195000000000000000e+03 3.164356422424316406e+01 -8.753650665283203125e+00 -1.101753264665603638e-01 3.950102627277374268e-01 8.545048534870147705e-02 7.037647366523742676e-01
3.196000000000000000e+03 3.027324295043945312e+01 -1.970277905464172363e+00 -5.040861368179321289e-01 8.218985199928283691e-01 9.534371644258499146e-02 5.963587760925292969e-01
3.197000000000000000e+03 3.974385452270507812e+01 -5.503970623016357422e+00 -5.995294451713562012e-01 2.878793179988861084e-01 -9.349503368139266968e-02 2.743029594421386719e-01
3.198000000000000000e+03 3.806611251831054688e+01 -2.201448827981948853e-01 -3.731396496295928955e-01 5.360866785049438477e-01 4.888409748673439026e-02 4.556102156639099121e-01
3.199000000000000000e+03 3.305779266357421875e+01 -8.855751991271972656e+00 -2.051463127136230469e-01 2.493777275085449219e-01 1.326942257583141327e-02 5.212925672531127930e-01
3.200000000000000000e+03 2.736438751220703125e+01 -2.845555782318115234e+00 -6.641867756843566895e-01 9.251423478126525879e-01 7.828667014837265015e-02 5.461075305938720703e-01
3.201000000000000000e+03 3.417345046997070312e+01 -7.555856227874755859e+00 -3.324800133705139160e-01 3.117981851100921631e-01 -6.204545497894287109e-03 5.028863549232482910e-01
3.202000000000000000e+03 3.584534835815429688e+01 -7.510515213012695312e+00 -4.431625604629516602e-01 2.546046674251556396e-01 -5.656736344099044800e-02 3.666843175888061523e-01
3.203000000000000000e+03 3.149502754211425781e+01 8.189167380332946777e-01 -3.292541801929473877e-01 7.221412062644958496e-01 1.178661137819290161e-01 5.346783399581909180e-01
3.204000000000000000e+03 3.521770477294921875e+01 -5.186298847198486328e+00 -4.285273849964141846e-01 4.255645573139190674e-01 -8.888490847311913967e-04 5.073726773262023926e-01
3.205000000000000000e+03 6.674492645263671875e+01 5.681910037994384766e+00 -1.783112585544586182e-01 4.957005977630615234e+00 1.433608412742614746e+00 -1.375574707984924316e+00
3.206000000000000000e+03 6.263154983520507812e+01 6.501318454742431641e+00 2.043287605047225952e-01 3.404964208602905273e+00 1.082787871360778809e+00 -1.129056572914123535e+00
3.207000000000000000e+03 4.167957687377929688e+01 -2.824299812316894531e+00 -5.309290289878845215e-01 3.351154327392578125e-01 -5.874408036470413208e-02 3.021417558193206787e-01
3.208000000000000000e+03 3.908713912963867188e+01 -6.251376628875732422e+00 -5.982074141502380371e-01 2.755224108695983887e-01 -9.680549800395965576e-02 2.687998414039611816e-01
3.209000000000000000e+03 3.681132888793945312e+01 -4.608686447143554688e+00 -4.660033583641052246e-01 3.888718187808990479e-01 -2.313946373760700226e-02 4.344159662723541260e-01
3.210000000000000000e+03 3.480985641479492188e+01 -7.168686866760253906e+00 -3.821220099925994873e-01 3.192163407802581787e-01 -1.887170225381851196e-02 4.708245694637298584e-01
3.211000000000000000e+03 3.551110458374023438e+01 -6.646790504455566406e+00 -4.262546300888061523e-01 3.272365629673004150e-01 -2.970542572438716888e-02 4.415433108806610107e-01
3.212000000000000000e+03 3.865640640258789062e+01 -4.096083641052246094e+00 -4.996514022350311279e-01 3.684499859809875488e-01 -3.936043009161949158e-02 3.750338554382324219e-01
3.213000000000000000e+03 4.044139862060546875e+01 -4.731804370880126953e+00 -5.975250005722045898e-01 3.038885295391082764e-01 -8.809094130992889404e-02 2.800067663192749023e-01
3.214000000000000000e+03 6.707071685791015625e+01 1.006158351898193359e+01 1.746494323015213013e-01 4.991973876953125000e+00 1.549987077713012695e+00 -1.073327779769897461e+00
3.215000000000000000e+03 4.179238128662109375e+01 -3.803555965423583984e+00 -5.937766432762145996e-01 3.078518807888031006e-01 -8.577742427587509155e-02 2.763996124267578125e-01
3.216000000000000000e+03 2.934139633178710938e+01 -3.426766157150268555e+00 -5.733479261398315430e-01 8.894066214561462402e-01 9.481760114431381226e-02 6.393322348594665527e-01
3.217000000000000000e+03 3.252585983276367188e+01 1.989241480827331543e+00 -2.471079230308532715e-01 6.775752305984497070e-01 1.291401982307434082e-01 5.489987134933471680e-01
3.218000000000000000e+03 3.375386810302734375e+01 2.087435245513916016e+00 -2.422434091567993164e-01 6.670809984207153320e-01 1.274512857198715210e-01 5.629228353500366211e-01
3.219000000000000000e+03 4.397188568115234375e+01 -3.088315010070800781e+00 -6.006100177764892578e-01 2.821035087108612061e-01 -9.555194526910781860e-02 2.581526339054107666e-01
3.220000000000000000e+03 6.641474914550781250e+01 4.473165988922119141e+00 -2.909345924854278564e-01 4.858118534088134766e+00 1.370155096054077148e+00 -1.495916008949279785e+00
3.221000000000000000e+03 6.590159606933593750e+01 7.430871009826660156e+00 7.485336065292358398e-02 4.591824054718017578e+00 1.400003194808959961e+00 -1.246340274810791016e+00
3.222000000000000000e+03 4.015589523315429688e+01 -2.236079931259155273e+00 -4.717643260955810547e-01 3.904764950275421143e-01 -2.438635379076004028e-02 3.578835427761077881e-01
3.223000000000000000e+03 3.842232131958007812e+01 -1.430908441543579102e+00 -4.220095276832580566e-01 4.722076952457427979e-01 1.505945064127445221e-02 4.287910163402557373e-01
3.224000000000000000e+03 3.259945297241210938e+01 9.381066560745239258e-01 -3.075131773948669434e-01 6.966338753700256348e-01 1.167362034320831299e-01 5.536466836929321289e-01
3.225000000000000000e+03 6.562754821777343750e+01 2.531853103637695312e+01 2.677916288375854492e-01 4.715806007385253906e+00 1.495079398155212402e+00 -5.080115795135498047e-01
3.226000000000000000e+03 6.067265319824218750e+01 2.148589324951171875e+01 3.822567760944366455e-01 3.732937574386596680e+00 1.234558224678039551e+00 -5.813095569610595703e-01
3.227000000000000000e+03 6.364077377319335938e+01 4.637449741363525391e+00 2.515301480889320374e-02 3.515240907669067383e+00 1.062118172645568848e+00 -1.350757837295532227e+00
3.228000000000000000e+03 2.829551887512207031e+01 2.376327323913574219e+01 3.258870840072631836e-01 2.045941352844238281e-01 1.591443717479705811e-01 2.453961372375488281e-01
3.229000000000000000e+03 2.902567100524902344e+01 -8.100248336791992188e+00 -2.422079741954803467e-01 9.764948487281799316e-01 2.202860563993453979e-01 9.603078365325927734e-01
3.230000000000000000e+03 2.846879005432128906e+01 -8.252964019775390625e+00 -2.712694108486175537e-01 1.120602846145629883e+00 2.548000216484069824e-01 9.770602583885192871e-01
3.231000000000000000e+03 2.794878768920898438e+01 -7.219762802124023438e+00 -4.775667488574981689e-01 1.173787117004394531e+00 2.088661044836044312e-01 8.471919298171997070e-01
3.232000000000000000e+03 2.969890785217285156e+01 -8.959815979003906250e+00 -2.424644492566585541e-02 7.193281054496765137e-01 2.085245102643966675e-01 9.479201436042785645e-01
3.233000000000000000e+03 2.856881713867187500e+01 -4.050581455230712891e+00 -6.211531758308410645e-01 9.572709798812866211e-01 1.008353456854820251e-01 6.520621180534362793e-01
3.234000000000000000e+03 3.002802848815917969e+01 -1.000330066680908203e+01 2.055560648441314697e-01 4.950272142887115479e-01 2.101749777793884277e-01 8.774377107620239258e-01
3.235000000000000000e+03 3.139891815185546875e+01 -9.166487693786621094e+00 -3.839601576328277588e-02 3.716165423393249512e-01 9.996615350246429443e-02 7.098498344421386719e-01
3.236000000000000000e+03 2.889396667480468750e+01 -6.999038219451904297e+00 -4.214474260807037354e-01 1.013328194618225098e+00 1.775642186403274536e-01 8.693029284477233887e-01
3.237000000000000000e+03 2.882534408569335938e+01 -6.420307636260986328e+00 -4.892181158065795898e-01 1.001760601997375488e+00 1.537627428770065308e-01 8.147232532501220703e-01
3.238000000000000000e+03 2.935875701904296875e+01 -2.657273054122924805e+00 -5.610611438751220703e-01 8.798070549964904785e-01 9.562377631664276123e-02 6.037486791610717773e-01
3.239000000000000000e+03 2.931860351562500000e+01 -4.262915134429931641e+00 -5.666273236274719238e-01 9.153163433074951172e-01 1.046067029237747192e-01 6.918746232986450195e-01
3.240000000000000000e+03 3.239547348022460938e+01 -8.982276916503906250e+00 -1.381723582744598389e-01 2.848051488399505615e-01 4.398983716964721680e-02 5.898405909538269043e-01
3.241000000000000000e+03 2.934807014465332031e+01 -6.254612922668457031e+00 -4.577227830886840820e-01 9.362443685531616211e-01 1.435564756393432617e-01 8.220837712287902832e-01
3.242000000000000000e+03 3.010537910461425781e+01 -7.744038581848144531e+00 -2.405090928077697754e-01 7.622945904731750488e-01 1.565356552600860596e-01 8.765043616294860840e-01
3.243000000000000000e+03 3.325853347778320312e+01 -7.094066143035888672e+00 -3.262829482555389404e-01 4.089941382408142090e-01 2.481336146593093872e-02 5.948588252067565918e-01
3.244000000000000000e+03 3.338775634765625000e+01 7.987888813018798828e+00 5.320909619331359863e-02 6.241731047630310059e-01 2.032146602869033813e-01 7.105020284652709961e-01
3.245000000000000000e+03 2.788834381103515625e+01 -5.063407421112060547e+00 -6.303108334541320801e-01 1.032492041587829590e+00 1.206543520092964172e-01 6.840568184852600098e-01
3.246000000000000000e+03 3.349361038208007812e+01 -1.082667112350463867e+00 -3.974252343177795410e-01 6.600428819656372070e-01 7.878529280424118042e-02 5.698910951614379883e-01
3.247000000000000000e+03 3.742220687866210938e+01 -5.927718639373779297e+00 -5.106558799743652344e-01 3.169110417366027832e-01 -5.812345072627067566e-02 3.629250824451446533e-01
3.248000000000000000e+03 2.847768592834472656e+01 -2.524906158447265625e+00 -6.037399768829345703e-01 9.006689786911010742e-01 8.907870203256607056e-02 5.698933005332946777e-01
3.249000000000000000e+03 2.937564086914062500e+01 -1.941874861717224121e+00 -5.425957441329956055e-01 8.567725419998168945e-01 9.425303339958190918e-02 5.714265108108520508e-01
3.250000000000000000e+03 3.153271102905273438e+01 -7.970999717712402344e+00 -2.094690650701522827e-01 5.093352198600769043e-01 8.995983749628067017e-02 7.417512536048889160e-01
3.251000000000000000e+03 3.066888046264648438e+01 -2.207667678594589233e-01 -4.150750041007995605e-01 7.736254930496215820e-01 1.075651496648788452e-01 5.365037322044372559e-01
3.252000000000000000e+03 3.656351089477539062e+01 1.637713313102722168e-01 -3.480207622051239014e-01 5.829573273658752441e-01 7.048097252845764160e-02 5.094253420829772949e-01
3.253000000000000000e+03 3.648488235473632812e+01 -2.642105102539062500e+00 -4.235281050205230713e-01 4.978421330451965332e-01 2.229420654475688934e-02 4.919506609439849854e-01
3.254000000000000000e+03 3.834709930419921875e+01 -5.880238533020019531e+00 -5.457389950752258301e-01 2.973814010620117188e-01 -7.450728118419647217e-02 3.190225958824157715e-01
3.255000000000000000e+03 3.756218719482421875e+01 -4.881452083587646484e+00 -4.910069108009338379e-01 3.571447134017944336e-01 -4.015866294503211975e-02 3.925544619560241699e-01
3.256000000000000000e+03 4.108663558959960938e+01 -4.080704212188720703e+00 -5.861395597457885742e-01 3.120982050895690918e-01 -8.221239596605300903e-02 2.833731174468994141e-01
3.257000000000000000e+03 4.068974685668945312e+01 -3.246817588806152344e+00 -5.301100611686706543e-01 3.422566950321197510e-01 -5.635600164532661438e-02 3.202301561832427979e-01
3.258000000000000000e+03 3.378355407714843750e+01 1.006667613983154297e+00 -3.037301003932952881e-01 6.640335917472839355e-01 1.080910563468933105e-01 5.574024319648742676e-01
3.259000000000000000e+03 3.570253372192382812e+01 -5.470118522644042969e-01 -3.712364733219146729e-01 5.886814594268798828e-01 6.523350626230239868e-02 5.256132483482360840e-01
3.260000000000000000e+03 6.532876586914062500e+01 4.953040599822998047e+00 -1.353474110364913940e-01 4.314688682556152344e+00 1.253802418708801270e+00 -1.495044469833374023e+00
3.261000000000000000e+03 3.479433059692382812e+01 -1.523915827274322510e-01 -3.588822185993194580e-01 6.285390853881835938e-01 8.089706301689147949e-02 5.454987287521362305e-01
3.262000000000000000e+03 3.550339126586914062e+01 -3.399233102798461914e+00 -4.265462458133697510e-01 5.117695927619934082e-01 2.556700631976127625e-02 5.239627957344055176e-01
3.263000000000000000e+03 3.452278137207031250e+01 2.092300605773925781e+01 2.800329625606536865e-01 7.593613266944885254e-01 3.118183016777038574e-01 2.489385604858398438e-01
3.264000000000000000e+03 6.591095733642578125e+01 2.190937423706054688e+01 2.876096963882446289e-01 4.731770992279052734e+00 1.505814194679260254e+00 -5.617979764938354492e-01
3.265000000000000000e+03 6.340108489990234375e+01 2.577539062500000000e+01 3.188806176185607910e-01 4.256721973419189453e+00 1.372680783271789551e+00 -5.005772113800048828e-01
3.266000000000000000e+03 2.941747093200683594e+01 2.808679771423339844e+01 3.730335831642150879e-01 3.474938273429870605e-01 2.161582261323928833e-01 2.224268168210983276e-01
3.267000000000000000e+03 2.895503234863281250e+01 -7.563174724578857422e+00 -3.422213792800903320e-01 1.002814531326293945e+00 1.981779336929321289e-01 9.160043001174926758e-01
3.268000000000000000e+03 2.920037841796875000e+01 -9.088987350463867188e+00 -1.220945920795202255e-02 8.654060363769531250e-01 2.559589743614196777e-01 1.014521598815917969e+00
3.269000000000000000e+03 2.966360092163085938e+01 -8.468078613281250000e+00 -1.373113393783569336e-01 7.885987758636474609e-01 1.953862309455871582e-01 9.351117014884948730e-01
3.270000000000000000e+03 2.928673934936523438e+01 -5.550300598144531250e+00 -5.231163501739501953e-01 9.340343475341796875e-01 1.232753917574882507e-01 7.632799744606018066e-01
3.271000000000000000e+03 2.871154022216796875e+01 -5.866046428680419922e+00 -5.445131063461303711e-01 1.012150764465332031e+00 1.402913033962249756e-01 7.715286612510681152e-01
3.272000000000000000e+03 3.114344596862792969e+01 -7.202124595642089844e+00 -2.887986898422241211e-01 6.264598369598388672e-01 1.012983396649360657e-01 7.761265635490417480e-01
3.273000000000000000e+03 3.440706634521484375e+01 -1.230443477630615234e+00 -3.925602436065673828e-01 6.209489703178405762e-01 6.851661950349807739e-02 5.542929172515869141e-01
3.274000000000000000e+03 3.073018455505371094e+01 -9.546428680419921875e+00 5.838539823889732361e-02 4.278959929943084717e-01 1.458844095468521118e-01 7.861894965171813965e-01
3.275000000000000000e+03 2.910449409484863281e+01 -8.612419128417968750e+00 -1.391126811504364014e-01 9.323196411132812500e-01 2.379620820283889771e-01 9.901500344276428223e-01
3.276000000000000000e+03 3.007460975646972656e+01 -1.187377095222473145e+00 -4.832476377487182617e-01 8.123144507408142090e-01 9.872003644704818726e-02 5.546519160270690918e-01
3.277000000000000000e+03 2.795565414428710938e+01 -4.562195777893066406e+00 -6.432324051856994629e-01 1.000437021255493164e+00 1.071613878011703491e-01 6.574634313583374023e-01
3.278000000000000000e+03 2.901186180114746094e+01 -4.919065475463867188e+00 -5.669890642166137695e-01 9.487059712409973145e-01 1.145150661468505859e-01 7.212800979614257812e-01
3.279000000000000000e+03 2.959695053100585938e+01 -7.940628051757812500e+00 -2.368634343147277832e-01 8.474718332290649414e-01 1.831825226545333862e-01 9.169704318046569824e-01
3.280000000000000000e+03 3.392619705200195312e+01 -6.394017219543457031e+00 -3.752193450927734375e-01 4.285030663013458252e-01 1.598511822521686554e-02 5.691581368446350098e-01
3.281000000000000000e+03 3.367711257934570312e+01 -7.027699053287506104e-02 -3.519412279129028320e-01 6.690358519554138184e-01 9.512839466333389282e-02 5.629291534423828125e-01
3.282000000000000000e+03 2.850776672363281250e+01 -3.318945646286010742e+00 -6.182008385658264160e-01 9.321849346160888672e-01 9.419522434473037720e-02 6.118712425231933594e-01
3.283000000000000000e+03 3.241343307495117188e+01 -7.711368083953857422e+00 -2.512344419956207275e-01 4.271413981914520264e-01 5.277208238840103149e-02 6.537724733352661133e-01
3.284000000000000000e+03 3.389919281005859375e+01 -7.023993968963623047e+00 -3.423694074153900146e-01 3.724596500396728516e-01 9.027073159813880920e-03 5.476710796356201172e-01
3.285000000000000000e+03 3.159206390380859375e+01 -1.148933768272399902e-01 -3.815256655216217041e-01 7.403031587600708008e-01 1.076332405209541321e-01 5.563639402389526367e-01
3.286000000000000000e+03 3.614915466308593750e+01 -5.204725742340087891e+00 -4.561392962932586670e-01 3.892532289028167725e-01 -2.006582729518413544e-02 4.538978040218353271e-01
3.287000000000000000e+03 3.833208084106445312e+01 -2.693604469299316406e+00 -4.535853564739227295e-01 4.316345453262329102e-01 -6.585241295397281647e-03 4.162271320819854736e-01
3.288000000000000000e+03 3.028991127014160156e+01 -2.746946096420288086e+00 -5.233390927314758301e-01 8.282263278961181641e-01 9.146615862846374512e-02 6.227267980575561523e-01
3.289000000000000000e+03 3.442977905273437500e+01 -6.653530120849609375e+00 -3.803932368755340576e-01 3.655390739440917969e-01 -4.456247668713331223e-03 5.128841996192932129e-01
3.290000000000000000e+03 3.082581138610839844e+01 -1.018783450126647949e+00 -4.532839059829711914e-01 7.928499579429626465e-01 1.018698215484619141e-01 5.658281445503234863e-01
3.291000000000000000e+03 3.259350967407226562e+01 -7.686121761798858643e-02 -3.657688796520233154e-01 7.009370923042297363e-01 1.005504727363586426e-01 5.603008270263671875e-01
3.292000000000000000e+03 3.843411254882812500e+01 -4.985518932342529297e+00 -5.314905047416687012e-01 3.303076922893524170e-01 -6.035484373569488525e-02 3.481262922286987305e-01
3.293000000000000000e+03 3.115482139587402344e+01 -1.710987329483032227e+00 -4.668223857879638672e-01 7.734950780868530273e-01 9.200180321931838989e-02 5.925392508506774902e-01
3.294000000000000000e+03 3.467357254028320312e+01 -3.237078905105590820e+00 -4.241167902946472168e-01 5.533333420753479004e-01 3.876496106386184692e-02 5.566716194152832031e-01
3.295000000000000000e+03 3.923104476928710938e+01 -3.122933864593505859e+00 -4.866856932640075684e-01 3.924086689949035645e-01 -2.828310802578926086e-02 3.762643933296203613e-01
3.296000000000000000e+03 3.653683853149414062e+01 -1.821828842163085938e+00 -4.083253741264343262e-01 5.219380259513854980e-01 3.408379107713699341e-02 4.956101179122924805e-01
3.297000000000000000e+03 3.736991500854492188e+01 -1.638058185577392578e+00 -4.115453064441680908e-01 5.049620270729064941e-01 2.802502177655696869e-02 4.701777100563049316e-01
3.298000000000000000e+03 3.486803054809570312e+01 2.358487701416015625e+01 3.271357417106628418e-01 7.784566283226013184e-01 3.316777348518371582e-01 2.379906326532363892e-01
3.299000000000000000e+03 2.590020561218261719e+01 2.258671569824218750e+01 2.988539636135101318e-01 1.025296840816736221e-02 9.273207932710647583e-02 3.095737993717193604e-01
3.300000000000000000e+03 3.115933227539062500e+01 2.535685729980468750e+01 3.522042930126190186e-01 4.428768754005432129e-01 2.385243475437164307e-01 2.201568931341171265e-01
3.301000000000000000e+03 5.705392456054687500e+01 2.505721092224121094e+01 4.428756237030029297e-01 2.923851490020751953e+00 1.010018110275268555e+00 -5.677011013031005859e-01
3.302000000000000000e+03 6.292586898803710938e+01 2.440300559997558594e+01 3.105885982513427734e-01 4.147384166717529297e+00 1.337391853332519531e+00 -5.027376413345336914e-01
3.303000000000000000e+03 2.941380882263183594e+01 -6.856641769409179688e+00 -4.025978744029998779e-01 9.284028410911560059e-01 1.577414870262145996e-01 8.601970076560974121e-01
3.304000000000000000e+03 3.020485877990722656e+01 -9.431674003601074219e+00 6.152021512389183044e-02 5.458207726478576660e-01 1.822022944688796997e-01 8.748129010200500488e-01
3.305000000000000000e+03 2.848697090148925781e+01 -4.623744010925292969e+00 -6.079304814338684082e-01 9.708396792411804199e-01 1.088727638125419617e-01 6.797172427177429199e-01
3.306000000000000000e+03 3.175377845764160156e+01 -2.404087305068969727e+00 -4.640365242958068848e-01 7.466636300086975098e-01 8.478812128305435181e-02 6.161788105964660645e-01
3.307000000000000000e+03 3.095146369934082031e+01 -8.970970153808593750e+00 -4.750236868858337402e-02 4.658723771572113037e-01 1.255110055208206177e-01 7.825193405151367188e-01
3.308000000000000000e+03 2.994856262207031250e+01 -5.581874847412109375e+00 -4.824346601963043213e-01 8.674866557121276855e-01 1.155155971646308899e-01 7.663751840591430664e-01
3.309000000000000000e+03 2.995310211181640625e+01 -6.733760833740234375e+00 -3.791673779487609863e-01 8.455744981765747070e-01 1.399221420288085938e-01 8.369809985160827637e-01
3.310000000000000000e+03 3.258685302734375000e+01 -6.945362091064453125e+00 -3.165757656097412109e-01 4.784826338291168213e-01 4.857206344604492188e-02 6.519756913185119629e-01
3.311000000000000000e+03 3.433444595336914062e+01 -4.933209419250488281e+00 -4.158170521259307861e-01 4.944644272327423096e-01 2.359421551227569580e-02 5.674443244934082031e-01
3.312000000000000000e+03 3.792547988891601562e+01 -3.829377651214599609e+00 -4.839113056659698486e-01 3.953878581523895264e-01 -2.655703760683536530e-02 4.066185951232910156e-01
3.313000000000000000e+03 3.249522399902343750e+01 -1.089082241058349609e+00 -4.090200066566467285e-01 7.110577821731567383e-01 9.061133116483688354e-02 5.816199183464050293e-01
3.314000000000000000e+03 3.612944412231445312e+01 -4.370850563049316406e+00 -4.418608844280242920e-01 4.430599808692932129e-01 3.597308823373168707e-04 4.848389625549316406e-01
3.315000000000000000e+03 3.159020042419433594e+01 -1.023087978363037109e+00 -4.301759898662567139e-01 7.472224831581115723e-01 9.511395543813705444e-02 5.759953856468200684e-01
3.316000000000000000e+03 3.735832595825195312e+01 -2.650235176086425781e+00 -4.378916919231414795e-01 4.657736718654632568e-01 8.364599198102951050e-03 4.543958604335784912e-01
3.317000000000000000e+03 3.629297256469726562e+01 -1.148349165916442871e+00 -3.888167440891265869e-01 5.533000826835632324e-01 4.934500157833099365e-02 5.094901323318481445e-01
3.318000000000000000e+03 3.086789321899414062e+01 -4.228269100189208984e+00 -4.868908524513244629e-01 7.886232137680053711e-01 9.051969647407531738e-02 6.920918226242065430e-01
3.319000000000000000e+03 3.117528724670410156e+01 -4.831581115722656250e+00 -4.619181156158447266e-01 7.517074346542358398e-01 8.693679422140121460e-02 7.076072692871093750e-01
3.320000000000000000e+03 3.002127456665039062e+01 -7.259284019470214844e+00 -3.162809312343597412e-01 8.111102581024169922e-01 1.484487950801849365e-01 8.640383481979370117e-01
3.321000000000000000e+03 3.271073532104492188e+01 -6.271737098693847656e+00 -3.569680452346801758e-01 5.168176293373107910e-01 4.795487597584724426e-02 6.532601118087768555e-01
3.322000000000000000e+03 3.331877517700195312e+01 -6.325844287872314453e+00 -3.615118861198425293e-01 4.730499386787414551e-01 3.346142172813415527e-02 6.123899221420288086e-01
3.323000000000000000e+03 3.102472686767578125e+01 -7.753316402435302734e+00 -2.249307781457901001e-01 6.016381382942199707e-01 1.130122020840644836e-01 7.942234873771667480e-01
3.324000000000000000e+03 3.413861465454101562e+01 -5.711960315704345703e+00 -3.965905606746673584e-01 4.626346826553344727e-01 1.981323771178722382e-02 5.682238936424255371e-01
3.325000000000000000e+03 3.014111709594726562e+01 -4.352561950683593750e+00 -5.229164361953735352e-01 8.506709933280944824e-01 9.832637012004852295e-02 7.029507756233215332e-01
3.326000000000000000e+03 3.015753364562988281e+01 -3.525442361831665039e+00 -5.337809920310974121e-01 8.485180735588073730e-01 9.442113339900970459e-02 6.581991314888000488e-01
3.327000000000000000e+03 3.116065597534179688e+01 -3.021390914916992188e+00 -4.893913865089416504e-01 7.800324559211730957e-01 8.719231188297271729e-02 6.392960548400878906e-01
3.328000000000000000e+03 3.534004592895507812e+01 -4.270425796508789062e+00 -4.349386394023895264e-01 4.765151441097259521e-01 1.247295085340738297e-02 5.184562802314758301e-01
3.329000000000000000e+03 3.713716506958007812e+01 -3.647361040115356445e+00 -4.574857354164123535e-01 4.278600215911865234e-01 -8.887717500329017639e-03 4.459054470062255859e-01
3.330000000000000000e+03 3.225656509399414062e+01 -5.046201229095458984e+00 -4.200603365898132324e-01 6.323593854904174805e-01 6.368971616029739380e-02 6.665076017379760742e-01
3.331000000000000000e+03 3.086883926391601562e+01 -3.645133018493652344e+00 -5.009523034095764160e-01 7.978985905647277832e-01 8.908388018608093262e-02 6.687655448913574219e-01
3.332000000000000000e+03 3.519202804565429688e+01 -1.491626620292663574e+00 -3.958465456962585449e-01 5.874136686325073242e-01 5.747014284133911133e-02 5.388622283935546875e-01
3.333000000000000000e+03 3.411585235595703125e+01 -2.162657499313354492e+00 -4.147809147834777832e-01 6.160643100738525391e-01 6.038502603769302368e-02 5.679543614387512207e-01
3.334000000000000000e+03 3.241527175903320312e+01 -3.118693351745605469e+00 -4.483451545238494873e-01 6.817483901977539062e-01 7.002098113298416138e-02 6.268221139907836914e-01
3.335000000000000000e+03 3.586354064941406250e+01 -1.770490765571594238e+00 -4.009153544902801514e-01 5.528941154479980469e-01 4.559363052248954773e-02 5.189768671989440918e-01
3.336000000000000000e+03 3.225324630737304688e+01 -4.094709396362304688e+00 -4.414159953594207764e-01 6.747438907623291016e-01 6.999836862087249756e-02 6.545985937118530273e-01
3.337000000000000000e+03 2.987459945678710938e+01 -6.180256366729736328e+00 -4.418990612030029297e-01 8.770182132720947266e-01 1.305357366800308228e-01 8.112457394599914551e-01
3.338000000000000000e+03 3.188607025146484375e+01 -6.677020549774169922e+00 -3.323063254356384277e-01 5.796078443527221680e-01 7.419046759605407715e-02 7.166180610656738281e-01
3.339000000000000000e+03 3.018783760070800781e+01 -8.923420906066894531e+00 -3.821655362844467163e-02 6.165503859519958496e-01 1.735001504421234131e-01 8.756821155548095703e-01
3.340000000000000000e+03 3.056031799316406250e+01 -8.694913864135742188e+00 -8.267773687839508057e-02 5.684726834297180176e-01 1.457384824752807617e-01 8.339533805847167969e-01
3.341000000000000000e+03 3.336518478393554688e+01 -5.560826778411865234e+00 -3.957498967647552490e-01 5.256395936012268066e-01 3.896690160036087036e-02 6.201367974281311035e-01
3.342000000000000000e+03 3.161803054809570312e+01 -5.482147216796875000e+00 -4.109126925468444824e-01 6.789979338645935059e-01 8.042556792497634888e-02 7.147378921508789062e-01
3.343000000000000000e+03 3.055089378356933594e+01 -7.650493144989013672e+00 -2.495580911636352539e-01 6.810349225997924805e-01 1.294430494308471680e-01 8.313480019569396973e-01
3.344000000000000000e+03 3.175387191772460938e+01 -7.380996227264404297e+00 -2.643908262252807617e-01 5.411721467971801758e-01 8.303439617156982422e-02 7.310757637023925781e-01
3.345000000000000000e+03 3.347525024414062500e+01 -4.747347354888916016e+00 -4.139401018619537354e-01 5.603634715080261230e-01 4.392700269818305969e-02 6.145418286323547363e-01
3.346000000000000000e+03 3.361216735839843750e+01 -3.879103899002075195e+00 -4.303863644599914551e-01 5.920505523681640625e-01 4.849926009774208069e-02 6.015850305557250977e-01
3.347000000000000000e+03 3.303117752075195312e+01 -2.628549575805664062e+00 -4.367934465408325195e-01 6.630029678344726562e-01 6.786286085844039917e-02 6.037436127662658691e-01
3.348000000000000000e+03 3.334205245971679688e+01 -1.947732925415039062e+00 -4.156811237335205078e-01 6.539921164512634277e-01 7.149330526590347290e-02 5.794160962104797363e-01
3.349000000000000000e+03 3.632862472534179688e+01 -3.514650821685791016e+00 -4.409031569957733154e-01 4.684905111789703369e-01 8.276206441223621368e-03 4.861346483230590820e-01
3.350000000000000000e+03 3.567403411865234375e+01 -2.559377908706665039e+00 -4.184430241584777832e-01 5.353995561599731445e-01 3.508695214986801147e-02 5.222998261451721191e-01
3.351000000000000000e+03 3.381088256835937500e+01 -3.015200614929199219e+00 -4.261759221553802490e-01 6.078544855117797852e-01 5.450356379151344299e-02 5.863184332847595215e-01
3.352000000000000000e+03 3.036794090270996094e+01 -6.053567886352539062e+00 -4.171557128429412842e-01 7.961098551750183105e-01 1.136862337589263916e-01 7.831977605819702148e-01
3.353000000000000000e+03 3.255994033813476562e+01 -1.983830094337463379e+00 -4.364908337593078613e-01 7.016046643257141113e-01 7.953414320945739746e-02 5.950657725334167480e-01
3.354000000000000000e+03 3.180935287475585938e+01 -3.543184280395507812e+00 -4.602819681167602539e-01 7.206216454505920410e-01 7.810190320014953613e-02 6.513578295707702637e-01
3.355000000000000000e+03 3.038128852844238281e+01 -8.054881095886230469e+00 -1.843187958002090454e-01 6.836026906967163086e-01 1.497851610183715820e-01 8.616507649421691895e-01
3.356000000000000000e+03 3.017365455627441406e+01 -8.472005844116210938e+00 -1.308927536010742188e-01 6.828947663307189941e-01 1.656006127595901489e-01 8.844554424285888672e-01
3.357000000000000000e+03 3.056735801696777344e+01 -7.173191547393798828e+00 -3.015020489692687988e-01 7.172089219093322754e-01 1.247120648622512817e-01 8.195867538452148438e-01
3.358000000000000000e+03 3.213396072387695312e+01 -6.032855987548828125e+00 -3.731211423873901367e-01 6.026836633682250977e-01 6.886875629425048828e-02 6.976127624511718750e-01
3.359000000000000000e+03 3.273713684082031250e+01 -4.520205020904541016e+00 -4.274910986423492432e-01 6.182633638381958008e-01 5.723167955875396729e-02 6.406940221786499023e-01
3.360000000000000000e+03 3.137003135681152344e+01 -3.971369981765747070e+00 -4.718537926673889160e-01 7.503166198730468750e-01 8.353884518146514893e-02 6.719126701354980469e-01
3.361000000000000000e+03 3.045675849914550781e+01 -5.121888160705566406e+00 -4.817811548709869385e-01 8.209707140922546387e-01 1.017568632960319519e-01 7.376555800437927246e-01
3.362000000000000000e+03 3.052550697326660156e+01 -6.625397205352783203e+00 -3.642778694629669189e-01 7.583933472633361816e-01 1.182346418499946594e-01 8.066970109939575195e-01
3.363000000000000000e+03 3.176948356628417969e+01 -4.492565155029296875e+00 -4.472523927688598633e-01 7.042407989501953125e-01 7.709651440382003784e-02 6.785718798637390137e-01
3.364000000000000000e+03 3.117388534545898438e+01 -6.543984413146972656e+00 -3.490272164344787598e-01 6.737832427024841309e-01 9.742680191993713379e-02 7.638691663742065430e-01
3.365000000000000000e+03 3.095617866516113281e+01 -5.818899631500244141e+00 -4.097160398960113525e-01 7.334641814231872559e-01 9.712443500757217407e-02 7.569293975830078125e-01
3.366000000000000000e+03 3.281568527221679688e+01 -3.829930305480957031e+00 -4.338184893131256104e-01 6.378283500671386719e-01 6.120296567678451538e-02 6.282824277877807617e-01
3.367000000000000000e+03 4.852387237548828125e+01 2.648589706420898438e+01 7.433394193649291992e-01 1.399348497390747070e+00 6.428064107894897461e-01 2.467313967645168304e-02
3.368000000000000000e+03 4.884495544433593750e+01 2.359248542785644531e+01 7.372109889984130859e-01 1.080487847328186035e+00 5.453096628189086914e-01 3.260571882128715515e-02
3.369000000000000000e+03 4.343689346313476562e+01 2.724926567077636719e+01 5.575547814369201660e-01 1.235136866569519043e+00 5.378075242042541504e-01 2.896491885185241699e-01
3.370000000000000000e+03 6.774034881591796875e+01 2.927003669738769531e+01 1.927649527788162231e-01 5.002822399139404297e+00 1.558676242828369141e+00 -3.864632248878479004e-01
3.371000000000000000e+03 6.602406311035156250e+01 2.816642570495605469e+01 2.443917095661163330e-01 4.729334831237792969e+00 1.492118000984191895e+00 -4.268354475498199463e-01
3.372000000000000000e+03 7.063260650634765625e+01 -3.811136245727539062e+01 3.068136610090732574e-02 6.727871417999267578e+00 2.027565717697143555e+00 7.311896234750747681e-02
3.373000000000000000e+03 5.929277801513671875e+01 2.331658172607421875e+01 3.642645776271820068e-01 3.405926227569580078e+00 1.131057262420654297e+00 -5.888577103614807129e-01
3.374000000000000000e+03 2.235971641540527344e+01 -3.569987869262695312e+01 4.444676265120506287e-02 7.285558581352233887e-01 2.319007813930511475e-01 -3.204893171787261963e-01
3.375000000000000000e+03 1.960504150390625000e+01 -3.263272476196289062e+01 9.706978499889373779e-02 9.455993175506591797e-01 3.128007352352142334e-01 -4.535344243049621582e-01
3.376000000000000000e+03 5.339553070068359375e+01 2.795018386840820312e+01 6.536183953285217285e-01 2.169215440750122070e+00 8.468502163887023926e-01 -3.308807015419006348e-01
3.377000000000000000e+03 1.961764907836914062e+01 2.556369400024414062e+01 1.933692842721939087e-01 -4.495475441217422485e-02 4.452435672283172607e-02 4.101336598396301270e-01
3.378000000000000000e+03 1.581468200683593750e+01 2.652190589904785156e+01 1.051804795861244202e-01 -1.273431181907653809e-01 -6.648790556937456131e-03 3.095485866069793701e-01
3.379000000000000000e+03 7.202294921875000000e+01 3.799040985107421875e+01 9.401486068964004517e-02 5.629258155822753906e+00 1.716982007026672363e+00 -9.683606773614883423e-02
3.380000000000000000e+03 2.715604972839355469e+01 2.637929153442382812e+01 3.514633178710937500e-01 1.722250729799270630e-01 1.571065187454223633e-01 2.656048834323883057e-01
3.381000000000000000e+03 2.556185150146484375e+01 2.736668014526367188e+01 3.386605679988861084e-01 1.128452345728874207e-01 1.354517340660095215e-01 2.862765789031982422e-01
3.382000000000000000e+03 9.423552513122558594e+00 3.776501464843750000e+01 4.445910826325416565e-02 -6.523333787918090820e-01 -1.823622733354568481e-01 4.973147809505462646e-02
3.383000000000000000e+03 5.915711212158203125e+01 2.541332817077636719e+01 4.015556573867797852e-01 3.361890792846679688e+00 1.129033923149108887e+00 -5.358212590217590332e-01
3.384000000000000000e+03 6.361558532714843750e+01 -3.616100311279296875e+01 2.268580049276351929e-01 3.772963762283325195e+00 1.199946522712707520e+00 3.400429487228393555e-01
3.385000000000000000e+03 6.519816589355468750e+01 -3.377462768554687500e+01 -5.458151921629905701e-02 4.688534259796142578e+00 1.390185832977294922e+00 4.614605605602264404e-01
3.386000000000000000e+03 6.767392158508300781e+00 3.756779479980468750e+01 3.088393993675708771e-02 -8.066638708114624023e-01 -2.327339649200439453e-01 4.331137239933013916e-02
3.387000000000000000e+03 1.272566890716552734e+01 -4.094783020019531250e+01 -3.253000676631927490e-01 5.711484551429748535e-01 7.375451922416687012e-02 -4.709629807621240616e-03
3.388000000000000000e+03 2.158883666992187500e+01 -3.242757034301757812e+01 2.248967736959457397e-01 7.838723063468933105e-01 3.026307225227355957e-01 -4.748279154300689697e-01
3.389000000000000000e+03 1.944684791564941406e+01 -3.070596313476562500e+01 2.768509387969970703e-01 1.002680301666259766e+00 3.838593661785125732e-01 -5.768679380416870117e-01
3.390000000000000000e+03 1.830788040161132812e+01 -3.795204925537109375e+01 -2.166764438152313232e-01 8.511132597923278809e-01 1.903310567140579224e-01 -1.457330286502838135e-01
3.391000000000000000e+03 1.249298954010009766e+01 -3.798764419555664062e+01 -3.174535334110260010e-01 6.077711582183837891e-01 8.709529042243957520e-02 3.120857290923595428e-02
3.392000000000000000e+03 3.168905258178710938e+01 -4.085713958740234375e+01 2.637080550193786621e-01 1.921940445899963379e-01 1.367706209421157837e-01 -5.166571959853172302e-02
3.393000000000000000e+03 6.696566772460937500e+01 -3.771950149536132812e+01 1.374479383230209351e-01 5.181650638580322266e+00 1.595729589462280273e+00 2.333151549100875854e-01
3.394000000000000000e+03 6.664363861083984375e+01 3.149429702758789062e+01 2.394879758358001709e-01 4.784144401550292969e+00 1.507089734077453613e+00 -3.358267247676849365e-01
3.395000000000000000e+03 1.386339855194091797e+01 2.920865631103515625e+01 8.335641771554946899e-02 -2.670971453189849854e-01 -5.512221530079841614e-02 2.229393869638442993e-01
3.396000000000000000e+03 2.869224548339843750e+01 -3.728107070922851562e+01 2.204253077507019043e-01 3.389352858066558838e-01 1.678081750869750977e-01 -1.451770812273025513e-01
3.397000000000000000e+03 5.899434661865234375e+01 -3.532198715209960938e+01 3.868514001369476318e-01 1.877654790878295898e+00 6.793518662452697754e-01 3.655577898025512695e-01
3.398000000000000000e+03 3.640343856811523438e+01 2.694152641296386719e+01 3.960083425045013428e-01 8.711044192314147949e-01 3.801338374614715576e-01 2.375280112028121948e-01
3.399000000000000000e+03 6.013019561767578125e+00 -3.790298461914062500e+01 -1.720335036516189575e-01 -2.419478446245193481e-01 -1.241944059729576111e-01 1.830775439739227295e-01
3.400000000000000000e+03 2.228204536437988281e+01 -3.841352844238281250e+01 -6.027505174279212952e-02 7.188799381256103516e-01 1.975814700126647949e-01 -1.747797727584838867e-01
3.401000000000000000e+03 1.297333431243896484e+01 3.719373321533203125e+01 9.079183638095855713e-02 -4.260403513908386230e-01 -1.005745604634284973e-01 8.755272626876831055e-02
3.402000000000000000e+03 3.878380966186523438e+01 2.748435974121093750e+01 4.293222129344940186e-01 1.026314854621887207e+00 4.366911351680755615e-01 2.516974508762359619e-01
3.403000000000000000e+03 3.975859451293945312e+01 2.499123954772949219e+01 3.731334805488586426e-01 1.112686157226562500e+00 4.457459151744842529e-01 2.951218187808990479e-01
3.404000000000000000e+03 8.314093589782714844e+00 4.087048339843750000e+01 2.989942394196987152e-02 -7.416043877601623535e-01 -2.135114818811416626e-01 1.865289174020290375e-02
3.405000000000000000e+03 4.018896102905273438e+01 3.666700363159179688e+01 6.084656119346618652e-01 1.096530914306640625e+00 5.114989280700683594e-01 8.642265200614929199e-02
3.406000000000000000e+03 2.239959716796875000e+01 -4.115614318847656250e+01 -9.253760427236557007e-02 7.296256422996520996e-01 1.911264061927795410e-01 -7.183507084846496582e-02
3.407000000000000000e+03 7.169278717041015625e+01 -4.098173904418945312e+01 5.786646530032157898e-02 7.155840396881103516e+00 2.164112091064453125e+00 -1.613524727872572839e-05
3.408000000000000000e+03 4.367999267578125000e+01 3.722488784790039062e+01 6.463257670402526855e-01 1.367746114730834961e+00 6.042215824127197266e-01 5.353912338614463806e-02
3.409000000000000000e+03 5.244367599487304688e+01 4.076581954956054688e+01 6.459234952926635742e-01 2.393216609954833984e+00 9.117420315742492676e-01 -2.260305173695087433e-02
3.410000000000000000e+03 6.036630249023437500e+01 3.481777572631835938e+01 4.336443245410919189e-01 3.628908634185791016e+00 1.218765854835510254e+00 -2.316835969686508179e-01
3.411000000000000000e+03 6.366475296020507812e+01 3.698133468627929688e+01 3.452588319778442383e-01 4.179990291595458984e+00 1.357574820518493652e+00 -1.810322403907775879e-01
3.412000000000000000e+03 2.051715469360351562e+01 3.455625152587890625e+01 2.446959614753723145e-01 -4.724388942122459412e-02 5.923562124371528625e-02 1.749514639377593994e-01
3.413000000000000000e+03 2.343405342102050781e+01 3.659386062622070312e+01 3.066587150096893311e-01 7.914499938488006592e-02 1.157411187887191772e-01 1.266756653785705566e-01
3.414000000000000000e+03 1.829621315002441406e+01 2.867634963989257812e+01 1.679764986038208008e-01 -1.060173362493515015e-01 1.858774945139884949e-02 3.062250316143035889e-01
3.415000000000000000e+03 3.160038566589355469e+01 2.763245391845703125e+01 3.759608566761016846e-01 4.782045483589172363e-01 2.562496066093444824e-01 2.082396298646926880e-01
3.416000000000000000e+03 1.629837226867675781e+01 3.244033050537109375e+01 1.350279003381729126e-01 -2.171304970979690552e-01 -2.463077940046787262e-02 1.985123157501220703e-01
3.417000000000000000e+03 6.125925445556640625e+01 2.488771057128906250e+01 3.533264696598052979e-01 3.840967893600463867e+00 1.258288264274597168e+00 -5.265701413154602051e-01
3.418000000000000000e+03 4.426647186279296875e+01 3.372255706787109375e+01 6.574395298957824707e-01 1.383069276809692383e+00 6.121526360511779785e-01 9.734538942575454712e-02
3.419000000000000000e+03 4.258455276489257812e+01 2.935782241821289062e+01 5.594680905342102051e-01 1.218908429145812988e+00 5.335129499435424805e-01 2.236524224281311035e-01
3.420000000000000000e+03 2.725080871582031250e+01 2.831774520874023438e+01 3.567316532135009766e-01 2.098246961832046509e-01 1.699669063091278076e-01 2.464787065982818604e-01
3.421000000000000000e+03 6.460498809814453125e+01 3.017027091979980469e+01 2.777940630912780762e-01 4.424283027648925781e+00 1.410623192787170410e+00 -3.915231525897979736e-01
3.422000000000000000e+03 6.296702957153320312e+01 2.858578491210937500e+01 3.196443617343902588e-01 4.156029224395751953e+00 1.342702031135559082e+00 -4.367050230503082275e-01
3.423000000000000000e+03 3.660184097290039062e+01 2.446207046508789062e+01 3.409462571144104004e-01 9.077954888343811035e-01 3.746225237846374512e-01 2.433601319789886475e-01
3.424000000000000000e+03 5.125514221191406250e+01 3.108612251281738281e+01 6.835598349571228027e-01 2.030061483383178711e+00 8.140864372253417969e-01 -1.491926312446594238e-01
3.425000000000000000e+03 1.225088787078857422e+01 3.428782272338867188e+01 8.922063559293746948e-02 -4.355267584323883057e-01 -1.038918346166610718e-01 1.190358102321624756e-01
3.426000000000000000e+03 2.270742034912109375e+01 3.234140777587890625e+01 2.980826199054718018e-01 5.135265737771987915e-02 1.048305779695510864e-01 2.286476045846939087e-01
3.427000000000000000e+03 5.167216873168945312e+01 3.407269287109375000e+01 6.732435822486877441e-01 2.208056926727294922e+00 8.643901944160461426e-01 -1.084264814853668213e-01
3.428000000000000000e+03 5.842788696289062500e+01 3.190475273132324219e+01 4.962582290172576904e-01 3.240938425064086914e+00 1.121158957481384277e+00 -3.261221945285797119e-01
3.429000000000000000e+03 3.828277587890625000e+01 3.303266525268554688e+01 5.255952477455139160e-01 9.615944027900695801e-01 4.461568892002105713e-01 1.535391211509704590e-01
3.430000000000000000e+03 3.755993270874023438e+01 3.565574264526367188e+01 5.713673233985900879e-01 9.261278510093688965e-01 4.492485523223876953e-01 1.191531941294670105e-01
3.431000000000000000e+03 5.960873413085937500e+01 2.784521675109863281e+01 4.237343668937683105e-01 3.451799392700195312e+00 1.162660121917724609e+00 -4.705573618412017822e-01
3.432000000000000000e+03 4.791061782836914062e+01 3.415271377563476562e+01 6.892232298851013184e-01 1.724096059799194336e+00 7.239958047866821289e-01 5.869604181498289108e-03
3.433000000000000000e+03 4.493274688720703125e+01 3.051563835144042969e+01 6.492570042610168457e-01 1.351464867591857910e+00 6.002165675163269043e-01 1.439344137907028198e-01
3.434000000000000000e+03 2.148027038574218750e+01 3.007752037048339844e+01 2.568136751651763916e-01 -6.164309103041887283e-03 7.519480586051940918e-02 2.855784893035888672e-01
3.435000000000000000e+03 3.196306419372558594e+01 3.005348014831542969e+01 4.108540713787078857e-01 5.270996093750000000e-01 2.813861072063446045e-01 1.951936185359954834e-01
3.436000000000000000e+03 3.410978317260742188e+01 2.948936843872070312e+01 4.229164123535156250e-01 6.721798181533813477e-01 3.285288512706756592e-01 1.950875073671340942e-01
3.437000000000000000e+03 3.003826141357421875e+01 3.340430831909179688e+01 4.079414606094360352e-01 4.200652539730072021e-01 2.484020143747329712e-01 1.577768921852111816e-01
3.438000000000000000e+03 5.703972625732421875e+01 2.915858078002929688e+01 5.168182253837585449e-01 2.942143440246582031e+00 1.037688493728637695e+00 -4.185909628868103027e-01
3.439000000000000000e+03 5.530736541748046875e+01 3.331634521484375000e+01 5.872796177864074707e-01 2.734053611755371094e+00 9.963999390602111816e-01 -2.535600662231445312e-01
3.440000000000000000e+03 4.083379745483398438e+01 3.046576881408691406e+01 5.499897599220275879e-01 1.133933901786804199e+00 5.051771402359008789e-01 2.018184065818786621e-01
3.441000000000000000e+03 2.724007034301757812e+01 3.703405380249023438e+01 3.924058079719543457e-01 2.858721017837524414e-01 2.034833729267120361e-01 1.104086712002754211e-01
3.442000000000000000e+03 3.068454170227050781e+01 3.663265228271484375e+01 4.448873102664947510e-01 4.801659286022186279e-01 2.775159776210784912e-01 1.098840087652206421e-01
3.443000000000000000e+03 3.360712814331054688e+01 3.543118286132812500e+01 4.690773189067840576e-01 6.291228532791137695e-01 3.294600546360015869e-01 1.201489642262458801e-01
3.444000000000000000e+03 2.729111099243164062e+01 3.374237060546875000e+01 3.667018413543701172e-01 2.666776478290557861e-01 1.900138556957244873e-01 1.763271689414978027e-01
3.445000000000000000e+03 3.835303497314453125e+01 3.026621627807617188e+01 5.008872747421264648e-01 9.688133001327514648e-01 4.409101903438568115e-01 1.997706592082977295e-01
3.446000000000000000e+03 2.518103218078613281e+01 -1.027406120300292969e+01 -2.729778289794921875e-01 2.272072315216064453e+00 5.997283458709716797e-01 2.704467177391052246e-01
3.447000000000000000e+03 2.601210784912109375e+01 -1.109080219268798828e+01 1.080432757735252380e-01 2.810848474502563477e+00 8.756675124168395996e-01 1.077831625938415527e+00
3.448000000000000000e+03 2.560437583923339844e+01 -1.088586330413818359e+01 -1.381178051233291626e-01 2.845569610595703125e+00 8.122355937957763672e-01 6.566740870475769043e-01
3.449000000000000000e+03 2.567258262634277344e+01 -1.152167320251464844e+01 1.585019975900650024e-01 3.442334413528442383e+00 1.080250978469848633e+00 1.005908012390136719e+00
3.450000000000000000e+03 2.616798210144042969e+01 -1.200718402862548828e+01 1.220719695091247559e+00 3.163768053054809570e+00 1.315346360206604004e+00 1.861504197120666504e+00
3.451000000000000000e+03 2.606754112243652344e+01 -1.245334815979003906e+01 2.022327661514282227e+00 3.500622034072875977e+00 1.656884908676147461e+00 2.294178485870361328e+00
3.452000000000000000e+03 2.631500244140625000e+01 -1.240627765655517578e+01 2.089861631393432617e+00 2.805223226547241211e+00 1.468525409698486328e+00 2.112192392349243164e+00
3.453000000000000000e+03 2.699339675903320312e+01 -1.280761718750000000e+01 2.686496734619140625e+00 1.213115215301513672e+00 1.169883608818054199e+00 1.413657903671264648e+00
3.454000000000000000e+03 2.677097511291503906e+01 -1.411752033233642578e+01 2.822383642196655273e+00 7.858736515045166016e-01 1.082477211952209473e+00 -5.791542530059814453e-01
3.455000000000000000e+03 2.664362144470214844e+01 -1.431862640380859375e+01 2.373901844024658203e+00 1.025637865066528320e+00 1.019861936569213867e+00 -8.876268863677978516e-01
3.456000000000000000e+03 2.655000114440917969e+01 -1.456692981719970703e+01 1.761977553367614746e+00 1.418250203132629395e+00 9.540683627128601074e-01 -1.224126219749450684e+00
3.457000000000000000e+03 2.617889022827148438e+01 -1.498556232452392578e+01 2.178949713706970215e-01 2.170466899871826172e+00 7.165085077285766602e-01 -1.475899219512939453e+00
3.458000000000000000e+03 2.194412231445312500e+01 -1.172154903411865234e+01 5.581331849098205566e-01 -1.506244778633117676e+00 -2.844334840774536133e-01 2.074373811483383179e-01
3.459000000000000000e+03 4.353134918212890625e+01 7.766125202178955078e+00 -1.701447814702987671e-01 7.593207359313964844e-01 1.767527759075164795e-01 2.271704142913222313e-03
3.460000000000000000e+03 4.409077072143554688e+01 1.829866981506347656e+01 3.444290459156036377e-01 1.647470593452453613e+00 5.975698828697204590e-01 7.412795424461364746e-01
3.461000000000000000e+03 4.921755599975585938e+01 2.063094329833984375e+01 6.449157595634460449e-01 3.898468315601348877e-01 3.104287683963775635e-01 7.955613732337951660e-02
3.462000000000000000e+03 3.503341674804687500e+01 -3.952854156494140625e+01 3.121239244937896729e-01 6.515346467494964600e-02 1.131832152605056763e-01 -4.769963398575782776e-02
3.463000000000000000e+03 2.150216865539550781e+01 -1.382868003845214844e+01 5.640408992767333984e-01 -2.359760522842407227e+00 -5.387158989906311035e-01 1.502065181732177734e+00
3.464000000000000000e+03 2.474008560180664062e+01 -1.554837512969970703e+01 -2.890983104705810547e+00 2.028316974639892578e+00 -2.587998509407043457e-01 1.660611867904663086e+00
3.465000000000000000e+03 2.219714164733886719e+01 -1.242779922485351562e+01 1.115834593772888184e+00 -1.735329151153564453e+00 -1.858483850955963135e-01 1.386024057865142822e-01
3.466000000000000000e+03 7.466919898986816406e+00 3.517063140869140625e+01 2.999518811702728271e-02 -7.568956613540649414e-01 -2.180701345205307007e-01 6.001897528767585754e-02
3.467000000000000000e+03 2.436072349548339844e+01 -1.549135494232177734e+01 -2.394459009170532227e+00 2.123855113983154297e+00 -8.118119090795516968e-02 2.455163240432739258e+00
3.468000000000000000e+03 2.531515693664550781e+01 -1.571333026885986328e+01 -3.554576873779296875e+00 1.922441959381103516e+00 -4.896405339241027832e-01 1.846548318862915039e-01
3.469000000000000000e+03 2.541524887084960938e+01 -1.542315578460693359e+01 -2.195075988769531250e+00 2.508548498153686523e+00 9.404177963733673096e-02 -2.061770707368850708e-01
3.470000000000000000e+03 2.534399604797363281e+01 -1.520486927032470703e+01 -1.166932106018066406e+00 3.131384611129760742e+00 5.893357396125793457e-01 -3.050925433635711670e-01
3.471000000000000000e+03 2.541271209716796875e+01 -1.030924797058105469e+01 -2.651816904544830322e-01 2.327166795730590820e+00 6.185955405235290527e-01 4.430790245532989502e-01
3.472000000000000000e+03 1.854009246826171875e+01 1.897183227539062500e+01 2.184903174638748169e-01 1.719771176576614380e-01 1.171402335166931152e-01 6.012614369392395020e-01
3.473000000000000000e+03 2.554554367065429688e+01 -9.798022270202636719e+00 -3.362602889537811279e-01 2.023089885711669922e+00 5.060488581657409668e-01 4.918149113655090332e-01
3.474000000000000000e+03 2.239125823974609375e+01 -1.361279296875000000e+01 1.961496949195861816e+00 -2.299186706542968750e+00 -1.013069078326225281e-01 1.139703273773193359e+00
3.475000000000000000e+03 2.206910324096679688e+01 -1.383441638946533203e+01 1.130944967269897461e+00 -2.395252704620361328e+00 -3.792922794818878174e-01 1.511249303817749023e+00
3.476000000000000000e+03 2.588451957702636719e+01 -1.049890232086181641e+01 -1.428274959325790405e-01 2.438324928283691406e+00 6.886492371559143066e-01 7.890006303787231445e-01
3.477000000000000000e+03 2.675411224365234375e+01 -1.257166004180908203e+01 2.438712358474731445e+00 1.831215143203735352e+00 1.280978322029113770e+00 1.795746326446533203e+00
3.478000000000000000e+03 2.722862243652343750e+01 -1.308506011962890625e+01 2.737449884414672852e+00 7.775477170944213867e-01 1.054499268531799316e+00 9.600040912628173828e-01
3.479000000000000000e+03 2.551192283630371094e+01 -1.513758087158203125e+01 -9.351442456245422363e-01 3.168359756469726562e+00 6.699646711349487305e-01 -5.718601942062377930e-01
3.480000000000000000e+03 2.230461835861206055e+00 3.687821197509765625e+01 6.183726363815367222e-04 -1.176714777946472168e+00 -3.528289198875427246e-01 -7.307367050088942051e-04
3.481000000000000000e+03 7.651359558105468750e+01 3.889488220214843750e+01 -2.283187955617904663e-02 6.223571777343750000e+00 1.860221862792968750e+00 -5.177792534232139587e-02
3.482000000000000000e+03 2.772222709655761719e+01 -3.513825225830078125e+01 2.563436627388000488e-01 3.586771488189697266e-01 1.845062375068664551e-01 -2.314183562994003296e-01
3.483000000000000000e+03 5.850377273559570312e+01 1.873481178283691406e+01 4.388039708137512207e-01 3.321366786956787109e+00 1.128051280975341797e+00 -5.243952274322509766e-01
3.484000000000000000e+03 2.900575399398803711e+00 -5.040040969848632812e+00 -2.762942314147949219e-01 -7.454776167869567871e-01 -3.065315485000610352e-01 -1.097155094146728516e+00
3.485000000000000000e+03 3.631740093231201172e+00 -6.049276351928710938e+00 -3.853676915168762207e-01 -5.637260675430297852e-01 -2.847281396389007568e-01 -1.385027050971984863e+00
3.486000000000000000e+03 6.091529846191406250e+00 -3.573042678833007812e+01 -1.792343258857727051e-01 -2.573786079883575439e-01 -1.309838742017745972e-01 2.453410774469375610e-01
3.487000000000000000e+03 4.405483627319335938e+01 2.416911125183105469e+01 4.819779992103576660e-01 1.193650126457214355e+00 5.026884078979492188e-01 4.235369861125946045e-01
3.488000000000000000e+03 7.563261413574218750e+01 3.577829742431640625e+01 3.352731093764305115e-02 6.134033203125000000e+00 1.850268125534057617e+00 -8.306127786636352539e-02
3.489000000000000000e+03 2.957958030700683594e+01 -3.480984115600585938e+01 3.120883107185363770e-01 2.090474367141723633e-01 1.563407182693481445e-01 -1.739553511142730713e-01
3.490000000000000000e+03 2.774974822998046875e+01 -1.366716384887695312e+01 2.035175561904907227e+00 1.172692403197288513e-01 6.457334160804748535e-01 -1.328583955764770508e-01
3.491000000000000000e+03 2.732192420959472656e+01 -1.224505805969238281e+01 1.759902715682983398e+00 1.250751733779907227e+00 9.031963348388671875e-01 1.462173104286193848e+00
3.492000000000000000e+03 2.691542243957519531e+01 -1.195102882385253906e+01 1.397611975669860840e+00 1.925040245056152344e+00 9.967956542968750000e-01 1.727778077125549316e+00
3.493000000000000000e+03 2.283112335205078125e+01 -3.155930900573730469e+01 3.943181931972503662e-01 5.690426230430603027e-01 2.890082299709320068e-01 -5.021181702613830566e-01
3.494000000000000000e+03 2.068804550170898438e+01 -3.016912841796875000e+01 4.074057936668395996e-01 8.692998290061950684e-01 3.830116987228393555e-01 -6.374080777168273926e-01
3.495000000000000000e+03 6.981855869293212891e+00 -4.120186805725097656e+00 -1.115457177162170410e+00 5.906150341033935547e-01 -1.574526280164718628e-01 -8.545112013816833496e-01
3.496000000000000000e+03 5.008259582519531250e+01 2.410861778259277344e+01 7.664865255355834961e-01 1.238107442855834961e+00 6.013782024383544922e-01 -1.146067902445793152e-01
3.497000000000000000e+03 2.725952911376953125e+01 -1.558213424682617188e+01 -1.670309662818908691e+00 5.458255410194396973e-01 -3.373452126979827881e-01 -1.335020780563354492e+00
3.498000000000000000e+03 3.485626220703125000e+01 3.153675651550292969e+01 4.663004875183105469e-01 7.261580228805541992e-01 3.577375411987304688e-01 1.784718632698059082e-01
3.499000000000000000e+03 3.717520904541015625e+01 2.259738731384277344e+01 3.069843947887420654e-01 9.851288795471191406e-01 3.876339793205261230e-01 2.555074691772460938e-01
3.500000000000000000e+03 1.409903335571289062e+01 2.886740922927856445e+00 -4.473144114017486572e-01 -4.963454604148864746e-01 -2.830979526042938232e-01 3.870126605033874512e-01
3.501000000000000000e+03 4.152989959716796875e+01 5.366122245788574219e+00 -2.263931632041931152e-01 7.066230177879333496e-01 1.440689414739608765e-01 2.644783556461334229e-01
3.502000000000000000e+03 1.219142723083496094e+01 -8.071470260620117188e+00 -1.879718452692031860e-01 1.365688443183898926e+00 3.533149957656860352e-01 1.040436387062072754e+00
3.503000000000000000e+03 1.260566616058349609e+01 -7.314506530761718750e+00 -2.819659411907196045e-01 9.614213109016418457e-01 2.038366198539733887e-01 9.649857282638549805e-01
3.504000000000000000e+03 7.130048751831054688e+00 -9.331740379333496094e+00 -6.923831254243850708e-02 2.323341369628906250e+00 6.762309074401855469e-01 -1.520222306251525879e+00
3.505000000000000000e+03 2.735455131530761719e+01 -1.158979797363281250e+01 1.102639198303222656e+00 1.529636502265930176e+00 7.896826863288879395e-01 1.529109954833984375e+00
3.506000000000000000e+03 6.794637298583984375e+01 -1.861225128173828125e+00 -1.554464936256408691e+00 6.805966377258300781e+00 1.575450420379638672e+00 -2.373226165771484375e+00
3.507000000000000000e+03 2.472630691528320312e+01 3.108739852905273438e+01 3.319867551326751709e-01 1.306264847517013550e-01 1.387839764356613159e-01 2.369112223386764526e-01
3.508000000000000000e+03 7.183676147460937500e+01 -1.828201484680175781e+01 7.633012137375771999e-04 1.020131587982177734e+01 3.060623884201049805e+00 -7.301732897758483887e-01
3.509000000000000000e+03 3.213235473632812500e+01 -1.488726043701171875e+01 -9.449424743652343750e-01 -1.147430837154388428e-01 -3.179056644439697266e-01 -4.779823720455169678e-01
3.510000000000000000e+03 5.977955627441406250e+01 1.838216209411621094e+01 4.470945000648498535e-01 3.588256835937500000e+00 1.210605382919311523e+00 -5.530231595039367676e-01
3.511000000000000000e+03 5.706355667114257812e+01 -5.187726497650146484e+00 -1.848757266998291016e+00 2.030367255210876465e-01 -4.937161505222320557e-01 -1.930366754531860352e-01
3.512000000000000000e+03 2.775818252563476562e+01 -1.400328350067138672e+01 1.831872224807739258e+00 1.084385141730308533e-01 5.820932388305664062e-01 -3.964189589023590088e-01
3.513000000000000000e+03 2.797233200073242188e+01 -1.226355171203613281e+01 1.508772015571594238e+00 6.709864735603332520e-01 6.539275646209716797e-01 1.096307873725891113e+00
3.514000000000000000e+03 3.391386032104492188e+01 2.709527969360351562e+01 3.782160580158233643e-01 6.633397340774536133e-01 3.124667406082153320e-01 2.115998417139053345e-01
3.515000000000000000e+03 2.393801307678222656e+01 1.894554519653320312e+01 1.566380709409713745e-01 -3.150908648967742920e-01 -4.753584042191505432e-02 3.686470091342926025e-01
3.516000000000000000e+03 1.674225234985351562e+01 -7.852200984954833984e+00 -1.025098785758018494e-01 -6.977593898773193359e-01 -2.400807887315750122e-01 1.042968273162841797e+00
3.517000000000000000e+03 1.199080562591552734e+01 -6.107554435729980469e+00 -8.458244800567626953e-01 9.487866759300231934e-01 3.088866360485553741e-02 7.402986884117126465e-01
3.518000000000000000e+03 1.281356143951416016e+01 -6.012620449066162109e+00 -7.607298493385314941e-01 6.740732192993164062e-01 -2.599699981510639191e-02 8.344399333000183105e-01
3.519000000000000000e+03 2.778990745544433594e+01 -1.165395545959472656e+01 1.172998666763305664e+00 1.105894446372985840e+00 6.836679577827453613e-01 1.374838471412658691e+00
3.520000000000000000e+03 2.623872375488281250e+01 -8.515249252319335938e+00 -4.710336923599243164e-01 1.574162125587463379e+00 3.309385180473327637e-01 6.975934505462646484e-01
3.521000000000000000e+03 4.046952819824218750e+01 4.897364139556884766e+00 -2.313354015350341797e-01 7.299017906188964844e-01 1.495699137449264526e-01 3.653785586357116699e-01
3.522000000000000000e+03 1.553847980499267578e+01 2.461301994323730469e+01 8.664654195308685303e-02 -8.964867889881134033e-02 -9.006421314552426338e-04 3.320402801036834717e-01
3.523000000000000000e+03 4.852725601196289062e+01 2.850487899780273438e+01 7.009531855583190918e-01 1.536317944526672363e+00 6.711813211441040039e-01 2.255783881992101669e-03
3.524000000000000000e+03 3.612004089355468750e+01 2.965083694458007812e+01 4.538486599922180176e-01 8.214504718780517578e-01 3.825897574424743652e-01 2.071986794471740723e-01
3.525000000000000000e+03 6.155094909667968750e+01 2.043119621276855469e+01 3.735559582710266113e-01 3.859595775604248047e+00 1.269945502281188965e+00 -5.453351140022277832e-01
3.526000000000000000e+03 2.694881057739257812e+01 -1.121683788299560547e+01 6.519181728363037109e-01 2.004990577697753906e+00 7.970726490020751953e-01 1.494523644447326660e+00
3.527000000000000000e+03 7.240106964111328125e+01 -1.913787078857421875e+01 -4.183093309402465820e-01 9.940204620361328125e+00 2.856568574905395508e+00 -9.370664358139038086e-01
3.528000000000000000e+03 2.783825111389160156e+01 -1.435035610198974609e+01 1.061241388320922852e+00 1.268048137426376343e-01 3.564138710498809814e-01 -7.986729741096496582e-01
3.529000000000000000e+03 7.444494628906250000e+01 -1.260649967193603516e+01 1.424164175987243652e+00 9.069230079650878906e+00 3.148018360137939453e+00 -2.671523094177246094e-01
3.530000000000000000e+03 4.155884742736816406e+00 4.051355838775634766e+00 -1.038890480995178223e-01 -6.840048730373382568e-02 -5.168686062097549438e-02 1.203419268131256104e-01
3.531000000000000000e+03 5.135214614868164062e+01 -7.538151264190673828e+00 -1.572813034057617188e+00 2.030583918094635010e-01 -4.109264016151428223e-01 -1.403036415576934814e-01
3.532000000000000000e+03 5.830389022827148438e+01 3.258809804916381836e+00 6.649101525545120239e-02 1.579121470451354980e+00 4.936837255954742432e-01 -3.755295872688293457e-01
3.533000000000000000e+03 6.427854156494140625e+01 2.457982254028320312e+01 2.997637689113616943e-01 4.393170356750488281e+00 1.407880187034606934e+00 -5.274765491485595703e-01
3.534000000000000000e+03 6.049683380126953125e+01 6.455747127532958984e+00 2.638464272022247314e-01 2.727455854415893555e+00 8.973906636238098145e-01 -8.375290632247924805e-01
3.535000000000000000e+03 4.382787322998046875e+01 -1.303167247772216797e+01 -1.258190155029296875e+00 6.695510447025299072e-02 -3.573705255985260010e-01 -2.766055464744567871e-01
3.536000000000000000e+03 7.432445526123046875e+01 -1.998440742492675781e+01 -2.725503742694854736e-01 9.003016471862792969e+00 2.619139671325683594e+00 -1.175206303596496582e+00
3.537000000000000000e+03 5.064510345458984375e+00 -5.026347160339355469e+00 -6.861677169799804688e-01 1.525386571884155273e-01 -1.600887179374694824e-01 -1.337102174758911133e+00
3.538000000000000000e+03 2.744523048400878906e+01 -1.078706550598144531e+01 4.881322979927062988e-01 1.570133447647094727e+00 6.174797415733337402e-01 1.362217903137207031e+00
3.539000000000000000e+03 2.788003730773925781e+01 -1.082208251953125000e+01 5.707824230194091797e-01 1.270337820053100586e+00 5.523360967636108398e-01 1.321339726448059082e+00
3.540000000000000000e+03 3.140380096435546875e+01 2.096073150634765625e+01 2.357710599899291992e-01 4.505735337734222412e-01 2.059033811092376709e-01 2.203059345483779907e-01
3.541000000000000000e+03 3.255131912231445312e+01 2.309195518493652344e+01 2.983878850936889648e-01 5.624468326568603516e-01 2.582504153251647949e-01 2.182289808988571167e-01
3.542000000000000000e+03 5.108300781250000000e+01 -4.667644023895263672e+00 -1.120321750640869141e+00 2.787183523178100586e-01 -2.524810135364532471e-01 1.535839885473251343e-01
3.543000000000000000e+03 5.242790222167968750e+01 -4.481705665588378906e+00 -1.217278599739074707e+00 3.088150024414062500e-01 -2.725391089916229248e-01 1.439718753099441528e-01
3.544000000000000000e+03 5.351631927490234375e+01 -4.870770454406738281e+00 -1.368990659713745117e+00 2.918864488601684570e-01 -3.231312632560729980e-01 6.111755222082138062e-02
3.545000000000000000e+03 3.261685180664062500e+01 2.159802627563476562e+01 2.748886644840240479e-01 5.629832744598388672e-01 2.513615787029266357e-01 2.295266240835189819e-01
3.546000000000000000e+03 5.990693664550781250e+01 5.935020923614501953e+00 2.274609357118606567e-01 2.482847213745117188e+00 8.130924701690673828e-01 -7.141541242599487305e-01
3.547000000000000000e+03 1.180638408660888672e+01 -2.665025329589843750e+01 -3.764093294739723206e-02 1.551805496215820312e+00 4.542493522167205811e-01 -3.481151461601257324e-01
3.548000000000000000e+03 7.582361602783203125e+01 -5.654196262359619141e+00 1.195940747857093811e-02 8.489603996276855469e+00 2.550468921661376953e+00 1.548675894737243652e+00
3.549000000000000000e+03 5.801301574707031250e+01 1.372535705566406250e+00 -1.257993131875991821e-01 1.141215562820434570e+00 3.046248555183410645e-01 -2.731107473373413086e-01
3.550000000000000000e+03 6.863433837890625000e+01 2.808486938476562500e+00 -7.231560945510864258e-01 6.157725811004638672e+00 1.630370974540710449e+00 -1.442140340805053711e+00
3.551000000000000000e+03 9.427094459533691406e+00 -2.808996772766113281e+01 -3.115698099136352539e-01 9.703791141510009766e-01 1.976427882909774780e-01 2.085037380456924438e-01
3.552000000000000000e+03 4.168442153930664062e+01 -1.215211009979248047e+01 -1.101676702499389648e+00 9.565191715955734253e-02 -3.018074333667755127e-01 -1.822105348110198975e-01
3.553000000000000000e+03 2.843069648742675781e+01 -7.688100814819335938e+00 -3.696641027927398682e-01 1.116386413574218750e+00 2.240166813135147095e-01 9.192133545875549316e-01
3.554000000000000000e+03 6.170986175537109375e+01 6.723329544067382812e+00 2.509243488311767578e-01 3.123711824417114258e+00 1.012390851974487305e+00 -1.031730890274047852e+00
3.555000000000000000e+03 7.470127868652343750e+01 -1.799473613500595093e-01 -8.161345720291137695e-01 8.736955642700195312e+00 2.376246452331542969e+00 4.397648274898529053e-01
3.556000000000000000e+03 2.874645996093750000e+01 -1.059493541717529297e+01 4.863048195838928223e-01 7.924631834030151367e-01 3.836303949356079102e-01 1.115975141525268555e+00
3.557000000000000000e+03 7.066176605224609375e+01 -2.578466987609863281e+01 -7.395874857902526855e-01 7.915592193603515625e+00 2.152801513671875000e+00 -1.152569893747568130e-02
3.558000000000000000e+03 5.455237388610839844e+00 1.370207977294921875e+01 7.170837372541427612e-02 -4.984345138072967529e-01 -1.280178427696228027e-01 3.449141085147857666e-01
3.559000000000000000e+03 3.064700126647949219e+01 2.197018814086914062e+01 2.836695015430450439e-01 3.985184133052825928e-01 2.046563774347305298e-01 2.244222462177276611e-01
3.560000000000000000e+03 3.146105766296386719e+01 -1.187157726287841797e+01 1.327138245105743408e-01 -7.099764049053192139e-02 1.851485669612884521e-02 2.397616356611251831e-01
3.561000000000000000e+03 4.716568756103515625e+01 -6.206368446350097656e+00 -1.043935060501098633e+00 2.350852191448211670e-01 -2.426549494266510010e-01 8.403922617435455322e-02
3.562000000000000000e+03 5.491099166870117188e+01 -3.058966636657714844e+00 -1.027471184730529785e+00 3.641799688339233398e-01 -1.989873796701431274e-01 1.392411440610885620e-01
3.563000000000000000e+03 6.982781982421875000e+01 1.466884422302246094e+01 2.073081582784652710e-01 5.702962398529052734e+00 1.773081183433532715e+00 -7.824879884719848633e-01
3.564000000000000000e+03 3.113558769226074219e+01 -1.033122634887695312e+01 1.492015570402145386e-01 2.164432406425476074e-01 1.096934378147125244e-01 6.291292309761047363e-01
3.565000000000000000e+03 6.740738677978515625e+01 2.911907672882080078e+00 -6.354514956474304199e-01 5.503627777099609375e+00 1.460452914237976074e+00 -1.635939598083496094e+00
3.566000000000000000e+03 6.695701599121093750e+01 -2.517004394531250000e+01 -6.539327502250671387e-01 6.389900684356689453e+00 1.720790386199951172e+00 8.349672555923461914e-01
3.567000000000000000e+03 4.508196640014648438e+01 -5.517253875732421875e+00 -8.572466969490051270e-01 2.434267699718475342e-01 -1.841459721326828003e-01 1.454347074031829834e-01
3.568000000000000000e+03 4.256023406982421875e+01 -6.137086868286132812e+00 -7.624479532241821289e-01 2.385363578796386719e-01 -1.571734845638275146e-01 1.604312807321548462e-01
3.569000000000000000e+03 2.869061851501464844e+01 -9.314317703247070312e+00 9.866578504443168640e-03 1.017515063285827637e+00 3.082144856452941895e-01 1.073560357093811035e+00
3.570000000000000000e+03 2.933259201049804688e+01 -9.506434440612792969e+00 1.114112660288810730e-01 7.638255953788757324e-01 2.625710666179656982e-01 1.018838644027709961e+00
3.571000000000000000e+03 2.840043640136718750e+01 -7.127243041992187500e+00 -4.512181282043457031e-01 1.097085237503051758e+00 1.937601417303085327e-01 8.632861971855163574e-01
3.572000000000000000e+03 4.015288925170898438e+01 -1.048075294494628906e+01 -8.915328383445739746e-01 1.239468902349472046e-01 -2.302757799625396729e-01 -4.787053167819976807e-02
3.573000000000000000e+03 6.557807159423828125e+01 6.094753265380859375e+00 -3.845492750406265259e-02 4.508191585540771484e+00 1.340921044349670410e+00 -1.341723680496215820e+00
3.574000000000000000e+03 6.445332336425781250e+01 5.791387557983398438e+00 5.669646710157394409e-02 4.006788253784179688e+00 1.219045400619506836e+00 -1.309148907661437988e+00
3.575000000000000000e+03 4.242856979370117188e+01 -6.977868080139160156e+00 -8.202477097511291504e-01 2.184526771306991577e-01 -1.805385053157806396e-01 1.166316419839859009e-01
3.576000000000000000e+03 4.316974258422851562e+01 -6.597085475921630859e+00 -8.324761390686035156e-01 2.257382273674011230e-01 -1.820213645696640015e-01 1.184599921107292175e-01
3.577000000000000000e+03 2.948968505859375000e+01 -7.409458637237548828e+00 -3.236983418464660645e-01 9.009444713592529297e-01 1.731738448143005371e-01 8.928782343864440918e-01
3.578000000000000000e+03 3.489574813842773438e+01 -2.381662368774414062e+00 -4.127895534038543701e-01 5.744935870170593262e-01 4.851120710372924805e-02 5.489306449890136719e-01
3.579000000000000000e+03 6.828082275390625000e+01 6.104615688323974609e+00 -2.325737029314041138e-01 5.582446098327636719e+00 1.604961752891540527e+00 -1.271273374557495117e+00
3.580000000000000000e+03 2.750848770141601562e+01 -5.718410015106201172e+00 -6.288138628005981445e-01 1.086531996726989746e+00 1.373154371976852417e-01 6.973376870155334473e-01
3.581000000000000000e+03 3.449506378173828125e+01 -4.088945865631103516e+00 -4.234144687652587891e-01 5.258139371871948242e-01 3.071982972323894501e-02 5.638306736946105957e-01
3.582000000000000000e+03 3.441278076171875000e+01 -8.096248626708984375e+00 -3.388964533805847168e-01 2.504790127277374268e-01 -2.652523294091224670e-02 4.399201571941375732e-01
3.583000000000000000e+03 7.042387390136718750e+01 1.094700527191162109e+01 7.205300778150558472e-02 5.997687816619873047e+00 1.820922255516052246e+00 -8.986424207687377930e-01
3.584000000000000000e+03 2.715608787536621094e+01 -4.344450473785400391e+00 -6.853243112564086914e-01 1.004947543144226074e+00 9.588698297739028931e-02 6.015095710754394531e-01
3.585000000000000000e+03 2.750280189514160156e+01 -4.522068977355957031e+00 -6.616011261940002441e-01 1.008870363235473633e+00 1.041807532310485840e-01 6.336546540260314941e-01
3.586000000000000000e+03 3.265400695800781250e+01 -5.640557289123535156e+00 -3.923442363739013672e-01 5.777552127838134766e-01 5.562328919768333435e-02 6.594874858856201172e-01
3.587000000000000000e+03 1.109471797943115234e+01 -1.421144604682922363e+00 -1.947029232978820801e+00 1.167767867445945740e-01 -5.490757226943969727e-01 3.421984016895294189e-01
3.588000000000000000e+03 1.178201866149902344e+01 -7.772919535636901855e-01 -2.250470638275146484e+00 -7.855564355850219727e-02 -6.987078785896301270e-01 5.320988297462463379e-01
3.589000000000000000e+03 1.027668380737304688e+01 -1.233754158020019531e+00 -1.980221629142761230e+00 1.969425231218338013e-01 -5.349837541580200195e-01 1.947928518056869507e-01
3.590000000000000000e+03 1.217507266998291016e+01 -1.835481405258178711e+00 -1.913217902183532715e+00 5.247611179947853088e-02 -5.582225322723388672e-01 5.338125824928283691e-01
3.591000000000000000e+03 1.247813129425048828e+01 -9.059029817581176758e-01 -2.138207197189331055e+00 -1.365676373243331909e-01 -6.824324727058410645e-01 5.987288951873779297e-01
3.592000000000000000e+03 1.107212448120117188e+01 -6.525825858116149902e-01 -2.161885023117065430e+00 -8.012060821056365967e-02 -6.726016998291015625e-01 4.477226138114929199e-01
3.593000000000000000e+03 1.033004570007324219e+01 -4.842335283756256104e-01 -1.935472249984741211e+00 5.701023712754249573e-02 -5.635386109352111816e-01 3.019270002841949463e-01
3.594000000000000000e+03 1.178715801239013672e+01 -1.412433624267578125e+00 -1.985071897506713867e+00 -1.005039457231760025e-02 -5.985366702079772949e-01 4.988902807235717773e-01
3.595000000000000000e+03 1.237739849090576172e+01 -1.387354135513305664e+00 -2.073155164718627930e+00 -6.218321993947029114e-02 -6.406015157699584961e-01 6.326743960380554199e-01
3.596000000000000000e+03 8.700727462768554688e+00 -1.117709517478942871e+00 -1.808652520179748535e+00 1.388228535652160645e-01 -5.009489059448242188e-01 -3.278188034892082214e-02
3.597000000000000000e+03 8.733464241027832031e+00 -3.777095377445220947e-01 -2.076493501663208008e+00 3.287070617079734802e-02 -6.130868196487426758e-01 -1.162101235240697861e-02
3.598000000000000000e+03 9.545720100402832031e+00 -3.852295279502868652e-01 -1.927040457725524902e+00 6.561759114265441895e-02 -5.584268569946289062e-01 1.007232293486595154e-01
3.599000000000000000e+03 7.920477867126464844e+00 -3.782893717288970947e-01 -2.021050930023193359e+00 1.456992886960506439e-02 -6.019443273544311523e-01 -6.995837390422821045e-02
3.600000000000000000e+03 6.325181007385253906e+00 -4.120943248271942139e-01 -1.604649543762207031e+00 5.690197460353374481e-03 -4.796877801418304443e-01 -1.384520381689071655e-01
3.601000000000000000e+03 5.626715183258056641e+00 -6.589151620864868164e-01 -1.330310702323913574e+00 -1.207420136779546738e-02 -4.027154445648193359e-01 -2.121863663196563721e-01
3.602000000000000000e+03 5.109978199005126953e+00 -1.194857835769653320e+00 -9.950550198554992676e-01 -2.200630726292729378e-03 -2.991766929626464844e-01 -4.399955570697784424e-01
3.603000000000000000e+03 4.560545921325683594e+00 -3.007295429706573486e-01 -9.120950698852539062e-01 7.345676422119140625e-03 -2.714248001575469971e-01 -9.609982371330261230e-02
3.604000000000000000e+03 3.814361572265625000e+00 -3.559346497058868408e-01 -6.382608413696289062e-01 1.572038792073726654e-02 -1.867621392011642456e-01 -1.270801573991775513e-01
3.605000000000000000e+03 3.024296522140502930e+00 -3.709946572780609131e-01 -3.560071587562561035e-01 -1.906413212418556213e-02 -1.125213876366615295e-01 -1.176384985446929932e-01
3.606000000000000000e+03 2.217694997787475586e+00 -3.767684400081634521e-01 -1.425891518592834473e-01 -1.452918630093336105e-02 -4.713549837470054626e-02 -7.942584902048110962e-02
3.607000000000000000e+03 1.421629071235656738e+00 -3.827523589134216309e-01 -3.076445497572422028e-02 -2.378829196095466614e-02 -1.636582426726818085e-02 -3.413287550210952759e-02
3.608000000000000000e+03 3.660075068473815918e-01 -9.624075293540954590e-01 -2.516722306609153748e-03 -1.280320528894662857e-02 -4.595978185534477234e-03 -1.031193044036626816e-02
3.609000000000000000e+03 1.049754977226257324e+00 -1.145848751068115234e+00 -5.480105429887771606e-02 -9.761837869882583618e-02 -4.572582989931106567e-02 -8.077003061771392822e-02
3.610000000000000000e+03 9.473914146423339844e+00 -1.125229477882385254e+00 -1.925613403320312500e+00 2.072988301515579224e-01 -5.154944062232971191e-01 1.290403455495834351e-01
3.611000000000000000e+03 7.926810741424560547e+00 -1.118289351463317871e+00 -1.734939098358154297e+00 9.261158108711242676e-02 -4.926982820034027100e-01 -1.672997772693634033e-01
3.612000000000000000e+03 7.156938076019287109e+00 -1.128846406936645508e+00 -1.593248963356018066e+00 7.147919386625289917e-02 -4.565309286117553711e-01 -2.800259590148925781e-01
3.613000000000000000e+03 6.409653186798095703e+00 -1.152094364166259766e+00 -1.408336639404296875e+00 4.377330839633941650e-02 -4.093689918518066406e-01 -3.632822036743164062e-01
3.614000000000000000e+03 5.709451675415039062e+00 -1.214052677154541016e+00 -1.246975898742675781e+00 2.279025129973888397e-02 -3.672556877136230469e-01 -4.276309311389923096e-01
3.615000000000000000e+03 4.692424297332763672e+00 -8.555920124053955078e-01 -9.472264051437377930e-01 1.403446588665246964e-02 -2.799575626850128174e-01 -3.779197633266448975e-01
3.616000000000000000e+03 4.016042709350585938e+00 -1.095934629440307617e+00 -7.172114849090576172e-01 -1.488586980849504471e-02 -2.196291983127593994e-01 -4.044418632984161377e-01
3.617000000000000000e+03 3.265047311782836914e+00 -1.110994696617126465e+00 -5.050261020660400391e-01 -4.863914474844932556e-02 -1.660995781421661377e-01 -3.561218082904815674e-01
3.618000000000000000e+03 2.497515201568603516e+00 -1.116768479347229004e+00 -3.042926490306854248e-01 -9.448531270027160645e-02 -1.196333914995193481e-01 -2.790926098823547363e-01
3.619000000000000000e+03 1.740518808364868164e+00 -1.122752308845520020e+00 -1.546464115381240845e-01 -1.013842597603797913e-01 -7.680920511484146118e-02 -1.608801186084747314e-01
3.620000000000000000e+03 5.208349704742431641e+00 -3.231946229934692383e-01 -1.263895392417907715e+00 -1.840974576771259308e-02 -3.846915364265441895e-01 -1.177984550595283508e-01
3.621000000000000000e+03 6.917955279350280762e-01 -4.058488011360168457e-01 -7.215612102299928665e-03 -9.418816305696964264e-03 -4.990328568965196609e-03 -2.186099765822291374e-03
3.622000000000000000e+03 7.111535072326660156e+00 -3.888463973999023438e-01 -1.851101875305175781e+00 1.927841827273368835e-02 -5.495470166206359863e-01 -1.084740459918975830e-01
3.623000000000000000e+03 2.471068000793457031e+01 -1.339230823516845703e+01 7.640222549438476562e+00 6.530216217041015625e+00 4.251131534576416016e+00 -6.300292491912841797e+00
3.624000000000000000e+03 2.469566535949707031e+01 -1.340470123291015625e+01 1.379446792602539062e+01 3.569897890090942383e+00 5.209309577941894531e+00 -6.424824237823486328e+00
3.625000000000000000e+03 2.468335151672363281e+01 -1.341977977752685547e+01 1.814091682434082031e+01 3.017002820968627930e+00 6.347375869750976562e+00 -5.091704368591308594e+00
3.626000000000000000e+03 2.467420768737792969e+01 -1.343696784973144531e+01 2.155755996704101562e+01 2.667006254196166992e+00 7.267369747161865234e+00 -3.015658378601074219e+00
3.627000000000000000e+03 2.466858673095703125e+01 -1.345560646057128906e+01 2.408596992492675781e+01 3.417518138885498047e+00 8.251046180725097656e+00 -3.985140919685363770e-01
3.628000000000000000e+03 2.466670036315917969e+01 -1.347498226165771484e+01 2.529822921752929688e+01 4.589561939239501953e+00 8.966337203979492188e+00 2.425980567932128906e+00
3.629000000000000000e+03 2.466862297058105469e+01 -1.349435520172119141e+01 2.540490341186523438e+01 6.800458908081054688e+00 9.661608695983886719e+00 5.093116760253906250e+00
3.630000000000000000e+03 2.467428016662597656e+01 -1.351298427581787109e+01 2.433959197998046875e+01 9.503527641296386719e+00 1.015293598175048828e+01 7.249781608581542969e+00
3.631000000000000000e+03 2.468345451354980469e+01 -1.353015422821044922e+01 2.246183204650878906e+01 1.268038082122802734e+01 1.054266357421875000e+01 8.585566520690917969e+00
3.632000000000000000e+03 2.469579887390136719e+01 -1.354520988464355469e+01 2.015622329711914062e+01 1.571405792236328125e+01 1.076108455657958984e+01 8.942532539367675781e+00
3.633000000000000000e+03 2.471083450317382812e+01 -1.355757427215576172e+01 1.796457862854003906e+01 1.865277099609375000e+01 1.098520469665527344e+01 8.261054039001464844e+00
3.634000000000000000e+03 2.472799110412597656e+01 -1.356677436828613281e+01 1.590238189697265625e+01 2.067775917053222656e+01 1.097404289245605469e+01 6.890169620513916016e+00
3.635000000000000000e+03 2.474661254882812500e+01 -1.357245826721191406e+01 1.481394481658935547e+01 2.202634429931640625e+01 1.105208683013916016e+01 4.960993289947509766e+00
3.636000000000000000e+03 2.476598167419433594e+01 -1.357440853118896484e+01 1.431821250915527344e+01 2.241676521301269531e+01 1.102049350738525391e+01 2.828090190887451172e+00
3.637000000000000000e+03 2.478536224365234375e+01 -1.357255077362060547e+01 1.459918785095214844e+01 2.198233222961425781e+01 1.097445583343505859e+01 8.691639304161071777e-01
3.638000000000000000e+03 2.480400848388671875e+01 -1.356695652008056641e+01 1.572659206390380859e+01 2.096033859252929688e+01 1.100607967376708984e+01 -7.070684432983398438e-01
3.639000000000000000e+03 2.482120895385742188e+01 -1.355783843994140625e+01 1.716027259826660156e+01 1.936070632934570312e+01 1.095629405975341797e+01 -1.766872167587280273e+00
3.640000000000000000e+03 2.483630561828613281e+01 -1.354554557800292969e+01 1.910245323181152344e+01 1.772121429443359375e+01 1.104710102081298828e+01 -2.068938970565795898e+00
3.641000000000000000e+03 2.484872055053710938e+01 -1.353054904937744141e+01 2.097187423706054688e+01 1.587945842742919922e+01 1.105539989471435547e+01 -1.704377055168151855e+00
3.642000000000000000e+03 2.485797882080078125e+01 -1.351342296600341797e+01 2.273713111877441406e+01 1.449329948425292969e+01 1.116912937164306641e+01 -5.755673646926879883e-01
3.643000000000000000e+03 2.486372375488281250e+01 -1.349482250213623047e+01 2.397975349426269531e+01 1.341666221618652344e+01 1.121892452239990234e+01 1.189532399177551270e+00
3.644000000000000000e+03 2.486573982238769531e+01 -1.347545909881591797e+01 2.451196289062500000e+01 1.312910175323486328e+01 1.129231929779052734e+01 3.391783237457275391e+00
3.645000000000000000e+03 2.486394691467285156e+01 -1.345607280731201172e+01 2.405852127075195312e+01 1.357117366790771484e+01 1.128890895843505859e+01 5.796085834503173828e+00
3.646000000000000000e+03 2.485841369628906250e+01 -1.343740749359130859e+01 2.257982826232910156e+01 1.486669540405273438e+01 1.123395729064941406e+01 8.000370979309082031e+00
3.647000000000000000e+03 2.484935188293457031e+01 -1.342017650604248047e+01 2.008229064941406250e+01 1.680354309082031250e+01 1.106575012207031250e+01 9.668590545654296875e+00
3.648000000000000000e+03 2.483711051940917969e+01 -1.340503978729248047e+01 1.681456375122070312e+01 1.917084121704101562e+01 1.079562187194824219e+01 1.046624469757080078e+01
3.649000000000000000e+03 2.482215499877929688e+01 -1.339257526397705078e+01 1.310037612915039062e+01 2.141194725036621094e+01 1.035369682312011719e+01 1.023666572570800781e+01
3.650000000000000000e+03 2.480505943298339844e+01 -1.338325977325439453e+01 9.400470733642578125e+00 2.332809066772460938e+01 9.818568229675292969e+00 8.876133918762207031e+00
3.651000000000000000e+03 2.478647804260253906e+01 -1.337745189666748047e+01 6.011743545532226562e+00 2.425120735168457031e+01 9.078885078430175781e+00 6.679139614105224609e+00
3.652000000000000000e+03 2.476712226867675781e+01 -1.337537288665771484e+01 3.393949270248413086e+00 2.415662574768066406e+01 8.265172004699707031e+00 3.599227190017700195e+00
3.653000000000000000e+03 2.474773025512695312e+01 -1.337710189819335938e+01 1.641803145408630371e+00 2.263829803466796875e+01 7.284030437469482422e+00 3.202261626720428467e-01
3.654000000000000000e+03 2.472904586791992188e+01 -1.338257217407226562e+01 2.148237705230712891e+00 1.880560874938964844e+01 6.286153793334960938e+00 -4.438627719879150391e+00
