# el_label, x, y, sXX, sYY, sZZ, sXY
1.000000000000000000e+00 1.707021331787109375e+01 -4.268254280090332031e+00 8.706804692337755114e-06 1.793421347429102752e-06 3.150067641399800777e-06 -6.387161306520283688e-07
2.000000000000000000e+00 1.621372604370117188e+01 -3.519178628921508789e+00 -2.414333721389994025e-06 -2.258387439724174328e-06 -1.401816348334250506e-06 -1.572037263031234033e-06
3.000000000000000000e+00 1.551975250244140625e+01 -3.071315765380859375e+00 2.763707243502722122e-06 3.353575948494835757e-06 1.835185003074002452e-06 1.394702849211171269e-06
4.000000000000000000e+00 1.743298530578613281e+01 -3.927525758743286133e+00 -2.004662974286475219e-06 -2.030452151302597485e-06 -1.210534605888824444e-06 1.897334755085466895e-06
5.000000000000000000e+00 1.686964225769042969e+01 -3.746908664703369141e+00 -2.502681581972865388e-06 1.630903057048271876e-06 -2.615335574773780536e-07 7.725722070972551592e-07
6.000000000000000000e+00 1.770870399475097656e+01 -3.523030519485473633e+00 1.789033603927236982e-06 4.758404884341871366e-06 1.964231614692835137e-06 1.944953737620380707e-06
7.000000000000000000e+00 1.647576141357421875e+01 -2.802853107452392578e+00 2.243896688014501706e-06 2.853419800885603763e-06 1.529194946670031641e-06 2.186287929362151772e-06
8.000000000000000000e+00 1.583880043029785156e+01 -2.393620014190673828e+00 -1.360847363685024902e-06 -2.104526402035844512e-06 -1.039612129716260824e-06 -1.225658479597768746e-06
9.000000000000000000e+00 1.709996223449707031e+01 -3.162671089172363281e+00 -1.222297896674717776e-06 -4.331295258452882990e-06 -1.666077992013015319e-06 -3.226682338208775036e-06
1.000000000000000000e+01 1.831673240661621094e+01 -5.410979747772216797e+00 3.206195515303988941e-06 2.608673185022780672e-06 1.744460632835398428e-06 1.002924932436144445e-06
1.100000000000000000e+01 1.916439056396484375e+01 -5.026451110839843750e+00 -4.393034942040685564e-06 -1.406253090863174293e-06 -1.739786398502474185e-06 -2.228852963526151143e-06
1.200000000000000000e+01 1.766269302368164062e+01 -4.787173271179199219e+00 -4.385301963338861242e-06 -2.758945811365265399e-06 -2.143274286936502904e-06 6.876193481275549857e-08
1.300000000000000000e+01 1.960504913330078125e+01 -5.639448642730712891e+00 3.028941591765033081e-06 8.308580845550750382e-07 1.157939891527348664e-06 1.379557147629384417e-06
1.400000000000000000e+01 1.899693298339843750e+01 -6.071344852447509766e+00 -3.236544671381125227e-06 -2.037153763012611307e-06 -1.582109462106018327e-06 -1.765691877153585665e-06
1.500000000000000000e+01 1.877602386474609375e+01 -4.501259326934814453e+00 4.424603048391873017e-06 1.937919250849517994e-06 1.908756530610844493e-06 1.952065531440894119e-06
1.600000000000000000e+01 1.796581268310546875e+01 -4.379739761352539062e+00 2.956232492579147220e-06 2.172759650420630351e-06 1.538697688374668360e-06 -1.623134039618889801e-06
1.700000000000000000e+01 1.826732254028320312e+01 -3.990119457244873047e+00 -2.740686340985121205e-06 -3.317193204566137865e-06 -1.817363909140112810e-06 -1.334795115326414816e-06
1.800000000000000000e+01 1.856897354125976562e+01 -4.905802249908447266e+00 -1.763228965501184575e-06 -2.578460680524585769e-07 -6.063225441721442621e-07 7.288322194654028863e-07
1.900000000000000000e+01 2.053260231018066406e+01 -6.879840850830078125e+00 3.917897629435174167e-06 1.578896331011492293e-06 1.649038154027948622e-06 2.275067117807338946e-06
2.000000000000000000e+01 1.993260192871093750e+01 -7.313529014587402344e+00 -4.525892109086271375e-06 -1.013230416901933495e-06 -1.661736860114615411e-06 -2.022630951614701189e-06
2.100000000000000000e+01 1.952820014953613281e+01 -6.721570968627929688e+00 4.673205239669186994e-06 1.695881564955925569e-06 1.910726041387533769e-06 2.161285237889387645e-06
2.200000000000000000e+01 2.073616981506347656e+01 -8.501105308532714844e+00 -4.173587967670755461e-06 -1.387199631608382333e-06 -1.668236336627160199e-06 -2.242954906250815839e-06
2.300000000000000000e+01 2.033558845520019531e+01 -7.906519412994384766e+00 4.354051725385943428e-06 1.340972403340856545e-06 1.708507284092775080e-06 2.091777560053742491e-06
2.400000000000000000e+01 2.136049652099609375e+01 -8.103272438049316406e+00 4.117195658182026818e-06 1.673249585110170301e-06 1.737133629831077997e-06 2.493267629688489251e-06
2.500000000000000000e+01 2.011603736877441406e+01 -6.269954204559326172e+00 -3.467213218755205162e-06 -1.061194211615656968e-06 -1.358522240479942411e-06 -2.020989995799027383e-06
2.600000000000000000e+01 2.094775009155273438e+01 -7.490758895874023438e+00 -4.139772954658837989e-06 -1.594974378349434119e-06 -1.720424279483268037e-06 -2.482982381479814649e-06
2.700000000000000000e+01 2.211177825927734375e+01 -9.384786605834960938e+00 3.683845307023148052e-06 1.415739461663179100e-06 1.529875476080633234e-06 2.173784423575852998e-06
2.800000000000000000e+01 2.111507797241210938e+01 -9.119487762451171875e+00 3.873513833241304383e-06 1.735146042847190984e-06 1.682597940089181066e-06 2.158561983378604054e-06
2.900000000000000000e+01 2.147401618957519531e+01 -9.760485649108886719e+00 -3.561007133612292819e-06 -1.603842520125908777e-06 -1.549454850646725390e-06 -2.117951225955039263e-06
3.000000000000000000e+01 2.247536849975585938e+01 -1.003463172912597656e+01 -3.383888724783901125e-06 -1.308664309362939093e-06 -1.407765921612735838e-06 -1.972509380721021444e-06
3.100000000000000000e+01 2.219019126892089844e+01 -1.104334068298339844e+01 -2.964716941278311424e-06 -1.498354663453937974e-06 -1.338921492788358591e-06 -1.782436697794764768e-06
3.200000000000000000e+01 2.283775901794433594e+01 -1.068520069122314453e+01 3.007306531799258664e-06 1.144816565101791639e-06 1.245636894964263774e-06 1.766816126291814726e-06
3.300000000000000000e+01 2.174793815612792969e+01 -8.735008239746093750e+00 -3.931470018869731575e-06 -1.586930238772765733e-06 -1.655520009080646560e-06 -2.326374897165806033e-06
3.400000000000000000e+01 2.183270454406738281e+01 -1.040155124664306641e+01 3.200812443537870422e-06 1.598738776920072269e-06 1.439865400243434124e-06 1.969349341379711404e-06
3.500000000000000000e+01 2.319392776489257812e+01 -1.134591865539550781e+01 -2.551032594055868685e-06 -1.013996211440826301e-06 -1.069508698492427357e-06 -1.522840989309770521e-06
3.600000000000000000e+01 2.326423454284667969e+01 -1.306139087677001953e+01 2.328815298824338242e-06 1.418027068211813457e-06 1.124052687373477966e-06 1.440979758626781404e-06
3.700000000000000000e+01 2.254657173156738281e+01 -1.170469474792480469e+01 2.776751443889224902e-06 1.290310933654836845e-06 1.220118747369269840e-06 1.614454163245682139e-06
3.800000000000000000e+01 2.362532424926757812e+01 -1.373823738098144531e+01 -2.620623718030401506e-06 -1.091428543986694422e-06 -1.113615667236445006e-06 -9.658591579864150845e-07
3.900000000000000000e+01 2.390093421936035156e+01 -1.268251132965087891e+01 -1.972550990103627555e-06 -8.398002364629064687e-07 -8.437053793386439793e-07 -1.092674210667610168e-06
4.000000000000000000e+01 2.354633140563964844e+01 -1.201502132415771484e+01 2.149430656572803855e-06 9.003563832266081590e-07 9.149360948867979459e-07 1.333779096057696734e-06
4.100000000000000000e+01 2.425669479370117188e+01 -1.334930610656738281e+01 1.839413243942544796e-06 6.344110374811862130e-07 7.421472787427774165e-07 1.077276010619243607e-06
4.200000000000000000e+01 2.290430450439453125e+01 -1.238384914398193359e+01 -2.643383368194918148e-06 -1.206988486046611797e-06 -1.155111590378510300e-06 -1.663775719862314872e-06
4.300000000000000000e+01 2.466052436828613281e+01 -1.399974441528320312e+01 -1.464139700146915857e-06 -6.947965403014677577e-07 -6.476808493971475400e-07 -1.081007212633267045e-06
4.400000000000000000e+01 2.453465080261230469e+01 -1.509176063537597656e+01 -1.399902771481720265e-06 -1.382901245960965753e-06 -8.348412166014895774e-07 -1.679612523730611429e-06
4.500000000000000000e+01 2.502702331542968750e+01 -1.576423931121826172e+01 1.155883637693477795e-06 1.381325773763819598e-06 7.611628234371892177e-07 1.130316491071425844e-06
4.600000000000000000e+01 2.404776763916015625e+01 -1.441548252105712891e+01 2.300981805092305876e-06 2.037276516375641222e-07 7.514128697039268445e-07 1.651683646741730627e-06
4.700000000000000000e+01 2.511550712585449219e+01 -1.463246059417724609e+01 1.368160155834630132e-06 8.335600796272046864e-07 6.605160365324991290e-07 9.338396012026350945e-07
4.800000000000000000e+01 2.552395820617675781e+01 -1.643102645874023438e+01 -1.090846240003884304e-06 -1.133744376602408011e-06 -6.673772077192552388e-07 -9.793742492547607981e-07
4.900000000000000000e+01 2.604132461547851562e+01 -1.588424587249755859e+01 1.025683104671770707e-06 1.122430717259703670e-06 6.444341806854936294e-07 8.069193313531286549e-07
5.000000000000000000e+01 2.557597732543945312e+01 -1.526137638092041016e+01 -9.724508345243521035e-07 -7.715415222264709882e-07 -5.231976842878793832e-07 -1.098237362384679727e-06
5.100000000000000000e+01 2.682331085205078125e+01 -1.744818687438964844e+01 -9.207026323565514758e-07 -1.751049239828716964e-06 -8.015255730242643040e-07 4.504230162183375796e-07
5.200000000000000000e+01 2.875916481018066406e+01 -1.744998550415039062e+01 1.502302893641171977e-06 1.395429308104212396e-06 8.693196491549315397e-07 6.946684720787743572e-07
5.300000000000000000e+01 2.876370811462402344e+01 -1.826377677917480469e+01 1.798929361029877327e-07 1.628060175562495715e-07 1.028096860977711913e-07 -1.095278818752376537e-07
5.400000000000000000e+01 2.741421890258789062e+01 -1.734025192260742188e+01 2.620633097194513539e-07 1.783025822987838183e-06 6.135267085483064875e-07 -8.911735562833200675e-07
5.500000000000000000e+01 2.956935310363769531e+01 -1.817124748229980469e+01 3.950654843265510863e-07 1.088309709018631111e-08 1.217845806422701571e-07 7.763761686874204315e-07
5.600000000000000000e+01 2.999011230468750000e+01 -1.864334487915039062e+01 -2.906322151829954237e-07 1.332315520130578079e-07 -4.722019752989581320e-08 2.451529041991307167e-07
5.700000000000000000e+01 3.029630470275878906e+01 -1.815910530090332031e+01 8.175900347850983962e-07 1.650030014843650861e-07 2.947779194073518738e-07 4.240138764544099104e-07
5.800000000000000000e+01 3.119522666931152344e+01 -1.881901931762695312e+01 1.927713988436607906e-08 -4.035725851281313226e-07 -1.152886355271220964e-07 2.951020405816962011e-07
5.900000000000000000e+01 3.168391799926757812e+01 -1.886327171325683594e+01 8.545207208499050466e-08 3.467311557869834360e-07 1.296549640983357676e-07 -4.373723427875120251e-08
6.000000000000000000e+01 2.970970916748046875e+01 -1.785314369201660156e+01 -3.254500313687458402e-07 3.660149445749993902e-07 1.216947431714743288e-08 -6.639357366111653391e-07
6.100000000000000000e+01 3.009082984924316406e+01 -1.837589454650878906e+01 2.279754482970020035e-07 2.842069477537734201e-07 1.536547244995745132e-07 -1.930610267208976438e-07
6.200000000000000000e+01 2.937466621398925781e+01 -1.848482322692871094e+01 4.302456488858297234e-07 -2.581156763881153893e-07 5.163899530202797905e-08 -3.433191153590087197e-08
6.300000000000000000e+01 2.746829032897949219e+01 -1.678302001953125000e+01 4.881425184066756628e-07 1.421861156813974958e-06 5.730011025661951862e-07 8.847492267705092672e-07
6.400000000000000000e+01 2.810153007507324219e+01 -1.805529785156250000e+01 -8.198608014708952396e-08 -9.865919992080307566e-08 -5.419358473091051565e-08 -2.181299407766346121e-07
6.500000000000000000e+01 2.667152023315429688e+01 -1.641415023803710938e+01 -5.303999728312192019e-07 -8.424847237620269880e-07 -4.118654146623157430e-07 -9.279963251174194738e-07
6.600000000000000000e+01 2.617222595214843750e+01 -1.698502540588378906e+01 1.916358911557836109e-07 7.833788231437210925e-07 2.925044100265949965e-07 7.812906233084504493e-07
6.700000000000000000e+01 2.820173072814941406e+01 -1.708135604858398438e+01 -7.393470013994374312e-07 -1.797975869521906134e-06 -7.611968726450868417e-07 -9.849280786511371844e-07
6.800000000000000000e+01 2.740960693359375000e+01 -1.783232307434082031e+01 2.217091150669148192e-07 7.782821853652421851e-07 2.999973958139889874e-07 1.663531179474375676e-08
6.900000000000000000e+01 3.115101432800292969e+01 -1.858682441711425781e+01 -9.528978495154660777e-08 -4.475807031667500269e-07 -1.628611414616898401e-07 -1.081167368965907372e-07
7.000000000000000000e+01 3.059906387329101562e+01 -1.874114036560058594e+01 3.180981593686738051e-07 1.505472653207107214e-07 1.405936274068153580e-07 -3.792087568399438169e-07
7.100000000000000000e+01 3.059508132934570312e+01 -1.846459770202636719e+01 -1.059479131981788669e-06 1.931571489421912702e-07 -2.598966091227339348e-07 -7.871112472912500380e-08
7.200000000000000000e+01 2.814223289489746094e+01 -1.752326393127441406e+01 7.573270721650260384e-08 -1.720365048640815075e-06 -4.933896775582979899e-07 5.078036338090896606e-07
7.300000000000000000e+01 2.914482498168945312e+01 -1.786606597900390625e+01 -1.929535756062250584e-06 -7.241010848701989744e-07 -7.960910579640767537e-07 -5.404560852184658870e-07
7.400000000000000000e+01 2.766743659973144531e+01 -1.522689628601074219e+01 -2.411055117845535278e-01 -1.362167149782180786e-01 -1.131966710090637207e-01 2.302628159523010254e-01
7.500000000000000000e+01 2.716249465942382812e+01 -1.579410171508789062e+01 -1.788185238838195801e-01 -9.608212858438491821e-02 -8.247019350528717041e-02 1.532709449529647827e-01
7.600000000000000000e+01 3.276918029785156250e+01 -1.834935569763183594e+01 -3.023121356964111328e-01 2.430397318676114082e-03 -8.996451646089553833e-02 9.721188992261886597e-02
7.700000000000000000e+01 2.839139938354492188e+01 -1.562701606750488281e+01 -2.673072814941406250e-01 -1.182096675038337708e-01 -1.156550869345664978e-01 2.135507464408874512e-01
7.800000000000000000e+01 3.358909606933593750e+01 -1.892103576660156250e+01 -3.015434443950653076e-01 1.051011204253882170e-04 -9.043150395154953003e-02 4.423383250832557678e-02
7.900000000000000000e+01 3.336174392700195312e+01 -1.833965873718261719e+01 -3.246298730373382568e-01 9.461913257837295532e-03 -9.455038607120513916e-02 8.864616602659225464e-02
8.000000000000000000e+01 2.911333084106445312e+01 -1.602831840515136719e+01 -3.056395053863525391e-01 -1.010985523462295532e-01 -1.220214143395423889e-01 1.987351775169372559e-01
8.100000000000000000e+01 2.983206558227539062e+01 -1.643127059936523438e+01 -3.246837258338928223e-01 -8.170071989297866821e-02 -1.219153329730033875e-01 1.862190961837768555e-01
8.200000000000000000e+01 3.054300308227539062e+01 -1.683743286132812500e+01 -3.362662196159362793e-01 -6.243206188082695007e-02 -1.196094825863838196e-01 1.692146658897399902e-01
8.300000000000000000e+01 3.123284721374511719e+01 -1.724531173706054688e+01 -3.366752266883850098e-01 -3.764101490378379822e-02 -1.122948676347732544e-01 1.486243307590484619e-01
8.400000000000000000e+01 3.227619934082031250e+01 -1.763547325134277344e+01 -3.473987877368927002e-01 -1.334562315605580807e-03 -1.046200022101402283e-01 1.286175101995468140e-01
8.500000000000000000e+01 3.173830032348632812e+01 -1.772196578979492188e+01 -3.227842450141906738e-01 -1.772157102823257446e-02 -1.021517440676689148e-01 1.254830807447433472e-01
8.600000000000000000e+01 3.273424911499023438e+01 -1.886471176147460938e+01 -2.254642397165298462e-01 -4.284314811229705811e-03 -6.892456859350204468e-02 5.951397866010665894e-02
8.700000000000000000e+01 3.133683967590332031e+01 -1.821132850646972656e+01 -2.708454430103302002e-01 -6.233037635684013367e-02 -9.995274990797042847e-02 1.349209845066070557e-01
8.800000000000000000e+01 2.787909126281738281e+01 -1.619186973571777344e+01 -2.591154873371124268e-01 -1.010607481002807617e-01 -1.080528646707534790e-01 1.688337922096252441e-01
8.900000000000000000e+01 2.930564117431640625e+01 -1.699072074890136719e+01 -3.136180639266967773e-01 -9.482748806476593018e-02 -1.225336641073226929e-01 1.764950305223464966e-01
9.000000000000000000e+01 3.000951957702636719e+01 -1.739418220520019531e+01 -3.133858144283294678e-01 -8.526750653982162476e-02 -1.195959970355033875e-01 1.686534732580184937e-01
9.100000000000000000e+01 2.859396362304687500e+01 -1.659047126770019531e+01 -2.957817018032073975e-01 -9.924848377704620361e-02 -1.185090616345405579e-01 1.780349761247634888e-01
9.200000000000000000e+01 3.069230651855468750e+01 -1.779936027526855469e+01 -2.994356751441955566e-01 -7.704246789216995239e-02 -1.129434481263160706e-01 1.529024392366409302e-01
9.300000000000000000e+01 3.288717651367187500e+01 -1.793911933898925781e+01 -3.480566143989562988e-01 1.213645003736019135e-02 -1.007760465145111084e-01 1.110013723373413086e-01
9.400000000000000000e+01 3.218127822875976562e+01 -1.812705993652343750e+01 -2.988839745521545410e-01 -5.282804835587739944e-03 -9.125003218650817871e-02 1.053030863404273987e-01
9.500000000000000000e+01 3.198257255554199219e+01 -1.860229682922363281e+01 -2.227001935243606567e-01 -2.915799058973789215e-02 -7.555745542049407959e-02 9.574786573648452759e-02
9.600000000000000000e+01 2.565239715576171875e+01 -1.404619693756103516e+01 -1.792448908090591431e-01 -2.809713482856750488e-01 -1.380648761987686157e-01 2.241490036249160767e-01
9.700000000000000000e+01 2.529395675659179688e+01 -1.352956104278564453e+01 -1.677174717187881470e-01 -3.003492951393127441e-01 -1.404200345277786255e-01 2.364640533924102783e-01
9.800000000000000000e+01 2.592237281799316406e+01 -1.453957843780517578e+01 -1.642809808254241943e-01 -2.527316510677337646e-01 -1.251037865877151489e-01 2.106735706329345703e-01
9.900000000000000000e+01 2.639420318603515625e+01 -1.380668449401855469e+01 -2.378682047128677368e-01 -2.206133455038070679e-01 -1.375444680452346802e-01 2.620871365070343018e-01
1.000000000000000000e+02 2.622625350952148438e+01 -1.495576953887939453e+01 -1.517216414213180542e-01 -1.977619081735610962e-01 -1.048450618982315063e-01 1.784397661685943604e-01
1.010000000000000000e+02 2.661249732971191406e+01 -1.536437511444091797e+01 -1.337203830480575562e-01 -1.351090371608734131e-01 -8.064882457256317139e-02 1.518266052007675171e-01
1.020000000000000000e+02 2.707589912414550781e+01 -1.474468708038330078e+01 -2.364375740289688110e-01 -1.529841721057891846e-01 -1.168265268206596375e-01 2.426949888467788696e-01
1.030000000000000000e+02 2.596036338806152344e+01 -1.318708515167236328e+01 -2.341582775115966797e-01 -2.916567325592041016e-01 -1.577445119619369507e-01 2.998046576976776123e-01
1.040000000000000000e+02 2.651246452331542969e+01 -1.443440914154052734e+01 -2.166732549667358398e-01 -1.908516436815261841e-01 -1.222574636340141296e-01 2.309933155775070190e-01
1.050000000000000000e+02 2.387622833251953125e+01 -1.096773529052734375e+01 -2.605488300323486328e-01 -6.541570425033569336e-01 -2.744117677211761475e-01 4.076862037181854248e-01
1.060000000000000000e+02 2.422143554687500000e+01 -1.162815856933593750e+01 -2.171723991632461548e-01 -5.593543052673339844e-01 -2.329580187797546387e-01 3.538456857204437256e-01
1.070000000000000000e+02 2.456985282897949219e+01 -1.228557014465332031e+01 -1.918960511684417725e-01 -4.707582890987396240e-01 -1.987963020801544189e-01 3.022179603576660156e-01
1.080000000000000000e+02 2.520655250549316406e+01 -1.190669059753417969e+01 -2.811977863311767578e-01 -3.962035775184631348e-01 -2.032204121351242065e-01 3.705591857433319092e-01
1.090000000000000000e+02 2.492157745361328125e+01 -1.293985366821289062e+01 -1.617853343486785889e-01 -3.683243691921234131e-01 -1.590329110622406006e-01 2.613970935344696045e-01
1.100000000000000000e+02 2.555294799804687500e+01 -1.255092239379882812e+01 -2.562642395496368408e-01 -3.407725989818572998e-01 -1.791110485792160034e-01 3.363490402698516846e-01
1.110000000000000000e+02 2.452358436584472656e+01 -1.060895919799804688e+01 -3.553158342838287354e-01 -5.360409021377563477e-01 -2.674070298671722412e-01 4.579938948154449463e-01
1.120000000000000000e+02 2.486346435546875000e+01 -1.125933074951171875e+01 -3.198173344135284424e-01 -4.700330197811126709e-01 -2.369551062583923340e-01 4.101506173610687256e-01
1.130000000000000000e+02 2.278476524353027344e+01 -8.988129615783691406e+00 -3.886123597621917725e-01 -9.395172595977783203e-01 -3.984389007091522217e-01 6.052306294441223145e-01
1.140000000000000000e+02 2.241554069519042969e+01 -8.329325675964355469e+00 -4.968205690383911133e-01 -1.073244929313659668e+00 -4.710196554660797119e-01 7.021086812019348145e-01
1.150000000000000000e+02 2.379572296142578125e+01 -9.280672073364257812e+00 -4.491012692451477051e-01 -6.879547834396362305e-01 -3.411168158054351807e-01 5.706939697265625000e-01
1.160000000000000000e+02 2.315305709838867188e+01 -9.647591590881347656e+00 -3.431963622570037842e-01 -8.325579762458801270e-01 -3.527263104915618896e-01 5.294663310050964355e-01
1.170000000000000000e+02 2.352040100097656250e+01 -1.030764293670654297e+01 -2.975223064422607422e-01 -7.413826584815979004e-01 -3.116714656352996826e-01 4.699728190898895264e-01
1.180000000000000000e+02 2.416796875000000000e+01 -9.949502944946289062e+00 -4.037166237831115723e-01 -6.115072965621948242e-01 -3.045671880245208740e-01 5.067786574363708496e-01
1.190000000000000000e+02 2.304839897155761719e+01 -7.944846630096435547e+00 -6.153700947761535645e-01 -8.154469728469848633e-01 -4.292451143264770508e-01 6.922556757926940918e-01
1.200000000000000000e+02 2.342252731323242188e+01 -8.612430572509765625e+00 -5.354315638542175293e-01 -7.609947919845581055e-01 -3.889279067516326904e-01 6.378223299980163574e-01
1.210000000000000000e+02 2.176358604431152344e+01 -5.991405963897705078e+00 -9.195684194564819336e-01 -1.013237118721008301e+00 -5.798416733741760254e-01 9.276004433631896973e-01
1.220000000000000000e+02 2.073557853698730469e+01 -5.794119834899902344e+00 -9.723839163780212402e-01 -1.443452358245849609e+00 -7.247508764266967773e-01 1.118012309074401855e+00
1.230000000000000000e+02 2.159106254577636719e+01 -7.055338859558105469e+00 -6.634434461593627930e-01 -1.194230914115905762e+00 -5.573022961616516113e-01 8.777674436569213867e-01
1.240000000000000000e+02 2.201800537109375000e+01 -7.684557914733886719e+00 -5.943087339401245117e-01 -1.146675705909729004e+00 -5.222953557968139648e-01 8.028103709220886230e-01
1.250000000000000000e+02 2.264233016967773438e+01 -7.286725521087646484e+00 -6.902770996093750000e-01 -8.998766541481018066e-01 -4.770461320877075195e-01 7.492338418960571289e-01
1.260000000000000000e+02 2.132341575622558594e+01 -5.342503070831298828e+00 -1.043935298919677734e+00 -1.024999499320983887e+00 -6.206804513931274414e-01 9.506458044052124023e-01
1.270000000000000000e+02 2.116358566284179688e+01 -6.425094127655029297e+00 -7.444694042205810547e-01 -1.298012971878051758e+00 -6.127446889877319336e-01 9.777386784553527832e-01
1.280000000000000000e+02 2.220322418212890625e+01 -6.639578342437744141e+00 -7.634057402610778809e-01 -9.754341840744018555e-01 -5.216519832611083984e-01 8.440123796463012695e-01
1.290000000000000000e+02 1.974656295776367188e+01 -3.537436008453369141e+00 -1.388772249221801758e+00 -1.095211029052734375e+00 -7.451949715614318848e-01 1.151546478271484375e+00
1.300000000000000000e+02 1.870244216918945312e+01 -3.497282505035400391e+00 -1.664523720741271973e+00 -1.469235301017761230e+00 -9.401277303695678711e-01 1.445406913757324219e+00
1.310000000000000000e+02 1.974456596374511719e+01 -4.629005432128906250e+00 -1.235836625099182129e+00 -1.349164128303527832e+00 -7.755002379417419434e-01 1.271980643272399902e+00
1.320000000000000000e+02 2.026276969909667969e+01 -5.195233345031738281e+00 -1.165116190910339355e+00 -1.429138302803039551e+00 -7.782763242721557617e-01 1.230752348899841309e+00
1.330000000000000000e+02 2.083261680603027344e+01 -4.721695899963378906e+00 -1.116734743118286133e+00 -1.102499008178710938e+00 -6.657701134681701660e-01 9.947174191474914551e-01
1.340000000000000000e+02 1.920084571838378906e+01 -2.946005821228027344e+00 -1.436553120613098145e+00 -1.071791768074035645e+00 -7.525034546852111816e-01 1.064521551132202148e+00
1.350000000000000000e+02 1.922434425354003906e+01 -4.062799930572509766e+00 -1.325259447097778320e+00 -1.388180971145629883e+00 -8.140321373939514160e-01 1.348237395286560059e+00
1.360000000000000000e+02 2.029059791564941406e+01 -4.129554748535156250e+00 -1.198928952217102051e+00 -1.139673948287963867e+00 -7.015808820724487305e-01 1.109200239181518555e+00
1.370000000000000000e+02 1.724629974365234375e+01 -1.505973219871520996e+00 -1.333831071853637695e+00 -9.090169072151184082e-01 -6.728543639183044434e-01 1.078354597091674805e+00
1.380000000000000000e+02 1.620514488220214844e+01 -1.697480440139770508e+00 -1.632177710533142090e+00 -8.011178970336914062e-01 -7.299886941909790039e-01 1.072756767272949219e+00
1.390000000000000000e+02 1.748624420166015625e+01 -2.562495470046997070e+00 -1.725041985511779785e+00 -9.372057318687438965e-01 -7.986743450164794922e-01 1.267710924148559570e+00
1.400000000000000000e+02 1.812313652038574219e+01 -2.997157573699951172e+00 -1.866783499717712402e+00 -1.248084545135498047e+00 -9.344604015350341797e-01 1.410682678222656250e+00
1.410000000000000000e+02 1.859226417541503906e+01 -2.421155929565429688e+00 -1.351067900657653809e+00 -1.141582012176513672e+00 -7.477949857711791992e-01 1.077986598014831543e+00
1.420000000000000000e+02 1.657006454467773438e+01 -1.050868153572082520e+00 -1.165568828582763672e+00 -8.816152215003967285e-01 -6.141552329063415527e-01 9.453830718994140625e-01
1.430000000000000000e+02 1.792063713073730469e+01 -1.962957024574279785e+00 -1.356943488121032715e+00 -1.066068530082702637e+00 -7.269036173820495605e-01 1.159733057022094727e+00
1.440000000000000000e+02 1.684664344787597656e+01 -2.129048585891723633e+00 -1.614630818367004395e+00 -8.627814650535583496e-01 -7.432236671447753906e-01 1.172010540962219238e+00
1.450000000000000000e+02 1.437439537048339844e+01 -8.830149471759796143e-02 -7.788518667221069336e-01 -4.780048429965972900e-01 -3.770570158958435059e-01 6.545394659042358398e-01
1.460000000000000000e+02 1.338726615905761719e+01 -4.958960413932800293e-01 -7.134162187576293945e-01 -2.037190645933151245e-01 -2.751405835151672363e-01 3.731059432029724121e-01
1.470000000000000000e+02 1.481616306304931641e+01 -1.058209896087646484e+00 -1.147361040115356445e+00 -3.364009261131286621e-01 -4.451285898685455322e-01 6.312153935432434082e-01
1.480000000000000000e+02 1.552819252014160156e+01 -1.340840697288513184e+00 -1.496694803237915039e+00 -5.841586589813232422e-01 -6.242560148239135742e-01 8.561239242553710938e-01
1.490000000000000000e+02 1.586064529418945312e+01 -6.765008568763732910e-01 -9.865959286689758301e-01 -8.239328861236572266e-01 -5.431586503982543945e-01 8.980670571327209473e-01
1.500000000000000000e+02 1.362912273406982422e+01 2.041978091001510620e-01 -6.316305398941040039e-01 -4.049742817878723145e-01 -3.109814524650573730e-01 5.229204297065734863e-01
1.510000000000000000e+02 1.511841678619384766e+01 -3.819521367549896240e-01 -9.178327322006225586e-01 -6.538498401641845703e-01 -4.715047776699066162e-01 8.158977031707763672e-01
1.520000000000000000e+02 1.410233974456787109e+01 -7.764772772789001465e-01 -8.938418626785278320e-01 -2.738607823848724365e-01 -3.503108024597167969e-01 4.848283827304840088e-01
1.530000000000000000e+02 1.131013679504394531e+01 8.408998847007751465e-01 -3.440584838390350342e-01 -1.379778832197189331e-01 -1.446109116077423096e-01 2.296884804964065552e-01
1.540000000000000000e+02 1.042135906219482422e+01 2.992311716079711914e-01 -1.568594127893447876e-01 -3.238571435213088989e-02 -5.677353963255882263e-02 7.601121813058853149e-02
1.550000000000000000e+02 1.191366195678710938e+01 -7.340838760137557983e-02 -3.552210032939910889e-01 -7.310184091329574585e-02 -1.284968554973602295e-01 1.666543185710906982e-01
1.560000000000000000e+02 1.265766906738281250e+01 -2.614961266517639160e-01 -5.326845645904541016e-01 -1.418675035238265991e-01 -2.023656219244003296e-01 2.570894360542297363e-01
1.570000000000000000e+02 1.286749935150146484e+01 4.488001465797424316e-01 -5.178934931755065918e-01 -3.004586100578308105e-01 -2.455056309700012207e-01 4.186517000198364258e-01
1.580000000000000000e+02 1.052962684631347656e+01 1.034987807273864746e+00 -2.750078141689300537e-01 -1.012792885303497314e-01 -1.128861308097839355e-01 1.721265465021133423e-01
1.590000000000000000e+02 1.116801452636718750e+01 1.136300638318061829e-01 -2.377772182226181030e-01 -5.539067462086677551e-02 -8.795037120580673218e-02 1.118034422397613525e-01
1.600000000000000000e+02 1.208963775634765625e+01 6.453746557235717773e-01 -4.306181371212005615e-01 -2.131425738334655762e-01 -1.931282132863998413e-01 3.181842863559722900e-01
1.610000000000000000e+02 8.889401435852050781e+00 3.921107649803161621e-01 -9.345300495624542236e-03 -3.688509110361337662e-03 -3.910142928361892700e-03 2.364696003496646881e-02
1.620000000000000000e+02 8.116916656494140625e+00 3.926678001880645752e-01 2.881985716521739960e-02 -5.172648932784795761e-03 7.094162516295909882e-03 1.421871222555637360e-02
1.630000000000000000e+02 6.570821762084960938e+00 3.927459418773651123e-01 6.462979316711425781e-02 -2.538000699132680893e-03 1.862753741443157196e-02 4.481776617467403412e-03
1.640000000000000000e+02 7.343883514404296875e+00 3.927603960037231445e-01 5.158946290612220764e-02 -1.003518817014992237e-03 1.517578307539224625e-02 8.385156281292438507e-03
1.650000000000000000e+02 5.070312023162841797e+00 1.132621407508850098e+00 5.066231358796358109e-03 -5.246118176728487015e-03 -5.396604683483019471e-05 2.670647343620657921e-03
1.660000000000000000e+02 5.024641513824462891e+00 3.926214277744293213e-01 7.063259184360504150e-02 -1.700693508610129356e-03 2.067956887185573578e-02 -1.243063248693943024e-03
1.670000000000000000e+02 2.729459524154663086e+00 1.132232308387756348e+00 1.503944490104913712e-02 -3.626595484092831612e-03 3.423854708671569824e-03 -1.612595468759536743e-02
1.680000000000000000e+02 2.704867601394653320e+00 3.922322988510131836e-01 4.184192419052124023e-02 -3.096186846960335970e-04 1.245969161391258240e-02 -7.483605761080980301e-03
1.690000000000000000e+02 1.949102401733398438e+00 1.132174730300903320e+00 1.156660635024309158e-02 4.585272690746933222e-04 3.607540158554911613e-03 -1.799808815121650696e-02
1.700000000000000000e+02 1.931536912918090820e+00 3.921746909618377686e-01 2.578318119049072266e-02 -1.808845699997618794e-04 7.680688984692096710e-03 -8.104418404400348663e-03
1.710000000000000000e+02 1.158940911293029785e+00 3.918712735176086426e-01 1.100943423807621002e-02 1.869432744570076466e-03 3.863660153001546860e-03 -6.228299345821142197e-03
1.720000000000000000e+02 3.899181485176086426e-01 1.130777001380920410e+00 1.880329800769686699e-03 1.028896216303110123e-02 3.650787519291043282e-03 -6.270286161452531815e-03
1.730000000000000000e+02 3.864050507545471191e-01 3.907769918441772461e-01 2.325431676581501961e-03 2.095028059557080269e-03 1.326137920841574669e-03 -2.228186698630452156e-03
1.740000000000000000e+02 4.251531124114990234e+00 3.925212025642395020e-01 6.555276364088058472e-02 -7.515834877267479897e-04 1.944035477936267853e-02 -3.614234970882534981e-03
1.750000000000000000e+02 3.478284358978271484e+00 3.923543989658355713e-01 5.569694936275482178e-02 -1.338067115284502506e-03 1.630766503512859344e-02 -5.917238537222146988e-03
1.760000000000000000e+02 4.290175437927246094e+00 1.132521271705627441e+00 1.265534479171037674e-02 -6.227128673344850540e-03 1.928464742377400398e-03 -4.681655205786228180e-03
1.770000000000000000e+02 5.797791481018066406e+00 3.927051424980163574e-01 7.053064554929733276e-02 -6.918765720911324024e-04 2.095163241028785706e-02 1.409176271408796310e-03
1.780000000000000000e+02 6.630544662475585938e+00 1.132745981216430664e+00 -2.860949747264385223e-02 -7.025207392871379852e-03 -1.069041155278682709e-02 2.055089920759201050e-02
1.790000000000000000e+02 8.190691947937011719e+00 1.132667779922485352e+00 -9.627506136894226074e-02 -1.516835484653711319e-02 -3.343302384018898010e-02 5.022130534052848816e-02
1.800000000000000000e+02 8.970203399658203125e+00 1.132110714912414551e+00 -1.494612544775009155e-01 -3.205377236008644104e-02 -5.445450916886329651e-02 7.909572869539260864e-02
1.810000000000000000e+02 9.661880493164062500e+00 3.908598423004150391e-01 -7.783791422843933105e-02 -1.874719001352787018e-02 -2.897553145885467529e-02 4.497709870338439941e-02
1.820000000000000000e+02 9.749707221984863281e+00 1.130859851837158203e+00 -2.124759852886199951e-01 -5.717226862907409668e-02 -8.089447766542434692e-02 1.230251416563987732e-01
1.830000000000000000e+02 7.410632610321044922e+00 1.132760405540466309e+00 -5.719389021396636963e-02 -1.295366138219833374e-02 -2.104426547884941101e-02 3.335290029644966125e-02
1.840000000000000000e+02 1.169480204582214355e+00 1.131871223449707031e+00 6.736238952726125717e-03 5.731131881475448608e-03 3.740211250260472298e-03 -1.521127857267856598e-02
1.850000000000000000e+02 5.850488185882568359e+00 1.132705092430114746e+00 -8.373296819627285004e-03 -7.968056015670299530e-03 -4.902406129986047745e-03 1.108515076339244843e-02
1.860000000000000000e+02 3.509902238845825195e+00 1.132354378700256348e+00 1.572391763329505920e-02 -4.267796408385038376e-03 3.436836646869778633e-03 -1.095267105847597122e-02
1.870000000000000000e+02 1.445141410827636719e+01 -1.738320231437683105e+00 -1.322374146184301935e-06 -1.976102339540375397e-06 -9.895429684547707438e-07 -8.931417596613755450e-07
1.880000000000000000e+02 1.399005413055419922e+01 -2.351786375045776367e+00 3.998070496891159564e-06 3.587866331145050935e-06 2.275781071148230694e-06 1.825595063564833254e-06
1.890000000000000000e+02 1.315893840789794922e+01 -1.124567389488220215e+00 -5.953266963842906989e-07 -6.077467787690693513e-06 -2.001838311116443947e-06 -8.580309440731070936e-07
1.900000000000000000e+02 1.342884063720703125e+01 -1.939940571784973145e+00 -3.537262500685756095e-06 -6.116112672316376120e-06 -2.896012574638007209e-06 -2.313468030479270965e-06
1.910000000000000000e+02 1.515422248840332031e+01 -2.034060716629028320e+00 1.023466779770387802e-06 1.685734673628758173e-06 8.127604473884275649e-07 1.191125306831963826e-06
1.920000000000000000e+02 1.476873493194580078e+01 -2.677469968795776367e+00 -1.820034526645031292e-06 -3.004122163474676199e-06 -1.447246972929860931e-06 -2.458992639731150120e-06
1.930000000000000000e+02 1.380067443847656250e+01 -1.425752282142639160e+00 1.018642478811671026e-06 4.030108357255812734e-06 1.514625296294980217e-06 5.699806138181884307e-07
1.940000000000000000e+02 1.296116638183593750e+01 -1.574859380722045898e+00 4.533804258244344965e-06 2.150915179299772717e-06 2.005415808525867760e-06 1.330507075181230903e-06
1.950000000000000000e+02 1.286564445495605469e+01 -2.057386875152587891e+00 -4.365528639027616009e-06 7.431891049236583058e-07 -1.086701900021580514e-06 -9.695952485344605520e-07
1.960000000000000000e+02 9.371697425842285156e+00 -1.930600523948669434e+00 2.373277084188885055e-06 2.365684395044809207e-06 1.421688466507475823e-06 1.410487698194629047e-06
1.970000000000000000e+02 3.662131071090698242e+00 -1.881096243858337402e+00 -3.327520289531094022e-06 -1.222724222316173837e-06 -1.365073330816812813e-06 -5.033027719036908820e-07
1.980000000000000000e+02 3.947610557079315186e-01 -9.138791084289550781e+00 2.626447712827939540e-05 5.847707598150009289e-07 8.054774298216216266e-06 2.157345875275495928e-07
1.990000000000000000e+02 1.077509403228759766e+01 -1.182320976257324219e+01 2.125009814335498959e-06 -1.747529677231796086e-05 -4.605086360243149102e-06 8.414845979132223874e-06
2.000000000000000000e+02 9.056591033935546875e+00 -1.165823078155517578e+01 3.868750718538649380e-05 -5.517681984201772138e-06 9.950947969628032297e-06 -5.361366675060708076e-06
2.010000000000000000e+02 9.940106391906738281e+00 -1.185135841369628906e+01 -3.171423304593190551e-05 5.766198228229768574e-06 -7.784410627209581435e-06 1.260252361134917010e-06
2.020000000000000000e+02 1.051533317565917969e+01 -1.103028583526611328e+01 -3.671463559840049129e-07 8.175677976396400481e-06 2.342559582757530734e-06 -1.047131809173151851e-05
2.030000000000000000e+02 1.104498386383056641e+01 -2.227022409439086914e+00 4.358596925158053637e-06 3.671610556921223179e-06 2.409062290098518133e-06 9.758487067301757634e-07
2.040000000000000000e+02 1.019482898712158203e+01 -2.034158468246459961e+00 -3.368822717675357126e-06 -3.096164164162473753e-06 -1.939496087288716808e-06 -1.272862050427647773e-06
2.050000000000000000e+02 1.094578981399536133e+00 -1.081071853637695312e+01 -3.950068276026286185e-05 -2.183189735660562292e-06 -1.250516197615070269e-05 -1.022229639602301177e-06
2.060000000000000000e+02 3.513374924659729004e-01 -1.639288711547851562e+01 -6.629730341956019402e-05 -2.329777453269343823e-05 -2.687852429517079145e-05 3.106907513483747607e-07
2.070000000000000000e+02 1.145918846130371094e+01 -1.773805618286132812e+01 2.736964233918115497e-06 -2.449106659696553834e-06 8.635723247607529629e-08 5.198303551878780127e-05
2.080000000000000000e+02 1.002148246765136719e+01 -1.577663040161132812e+01 -6.417893018806353211e-05 -7.575671770609915257e-05 -4.198069291305728257e-05 -2.496025990694761276e-05
2.090000000000000000e+02 9.393101692199707031e+00 -1.438388061523437500e+01 -6.981781189097091556e-05 -6.360995757859200239e-05 -4.002833156846463680e-05 -3.628914055298082530e-05
2.100000000000000000e+02 9.779256820678710938e+00 -1.252778244018554688e+01 4.145731509197503328e-05 -1.290774662265903316e-06 1.204996260639745742e-05 -8.719624020159244537e-06
2.110000000000000000e+02 1.040467262268066406e+00 -1.804806518554687500e+01 7.960919901961460710e-05 -2.152544766431674361e-05 1.742512540658935905e-05 -1.281016920984257013e-05
2.120000000000000000e+02 3.646364212036132812e-01 -2.282615852355957031e+01 -7.495361205656081438e-05 -3.432833545957691967e-05 -3.278458461863920093e-05 1.446705573471263051e-05
2.130000000000000000e+02 6.322901725769042969e+00 -3.119372558593750000e+01 -3.453205863479524851e-05 2.320615894859656692e-04 5.925885852775536478e-05 6.328611634671688080e-04
2.140000000000000000e+02 1.706271171569824219e+01 -3.599548721313476562e+01 -3.692204481922090054e-04 1.013090077321976423e-04 -8.037342922762036324e-05 1.736980397254228592e-03
2.150000000000000000e+02 2.258874893188476562e+01 -4.119856262207031250e+01 -5.233635194599628448e-03 -1.542736659757792950e-03 -2.032911637797951698e-03 4.398027667775750160e-04
2.160000000000000000e+02 3.051660156250000000e+01 -3.524079895019531250e+01 -5.293787457048892975e-03 -5.720505956560373306e-03 -3.304288024082779884e-03 -5.789384711533784866e-03
2.170000000000000000e+02 3.339203643798828125e+01 -3.194820594787597656e+01 1.464755740016698837e-02 1.845248159952461720e-03 4.947841633111238480e-03 -4.392053931951522827e-03
2.180000000000000000e+02 3.016574096679687500e+01 -3.129580497741699219e+01 2.021571621298789978e-02 2.029571449384093285e-03 6.673586554825305939e-03 -4.404550418257713318e-03
2.190000000000000000e+02 2.937473297119140625e+01 -3.105283546447753906e+01 1.876606605947017670e-02 1.297639100812375546e-03 6.019111257046461105e-03 -5.358811933547258377e-03
2.200000000000000000e+02 2.569739723205566406e+01 -2.939771842956542969e+01 8.773338049650192261e-03 1.806883257813751698e-03 3.174066543579101562e-03 -3.214632626622915268e-03
2.210000000000000000e+02 2.497262763977050781e+01 -2.904406738281250000e+01 7.612725254148244858e-03 9.836663957685232162e-04 2.578917657956480980e-03 -3.412736346945166588e-03
2.220000000000000000e+02 1.943989944458007812e+01 -2.572731590270996094e+01 1.629258389584720135e-03 8.170985965989530087e-04 7.339071016758680344e-04 -1.090786652639508247e-03
2.230000000000000000e+02 1.597431755065917969e+01 -2.234836387634277344e+01 2.690343244466930628e-04 1.519616344012320042e-04 1.262987789232283831e-04 -1.458355254726484418e-04
2.240000000000000000e+02 1.152265834808349609e+01 -1.882822799682617188e+01 4.769527004100382328e-05 1.474301188864046708e-05 1.873148539743851870e-05 2.164006218663416803e-05
2.250000000000000000e+02 5.399294376373291016e+00 -2.303801345825195312e+01 2.572931407485157251e-04 6.670434231637045741e-05 9.719924128148704767e-05 5.058648821432143450e-05
2.260000000000000000e+02 1.278736877441406250e+01 -2.230009651184082031e+01 3.308156155981123447e-04 -1.363405317533761263e-05 9.515447163721546531e-05 -5.307831088430248201e-05
2.270000000000000000e+02 1.117321610450744629e+00 -2.689237976074218750e+01 -8.312199497595429420e-05 1.553723413962870836e-04 2.167510319850407541e-05 8.286172669613733888e-05
2.280000000000000000e+02 3.833248615264892578e-01 -3.004601860046386719e+01 9.761964611243456602e-05 4.311078228056430817e-04 1.586182333994656801e-04 3.601012940634973347e-05
2.290000000000000000e+02 8.053844451904296875e+00 -3.540224838256835938e+01 -1.901371870189905167e-04 5.242633051238954067e-04 1.002378267003223300e-04 8.066549198701977730e-04
2.300000000000000000e+02 1.908077812194824219e+01 -3.532386779785156250e+01 -8.953877841122448444e-04 -4.856576852034777403e-04 -4.143136320635676384e-04 2.370621776208281517e-03
2.310000000000000000e+02 1.210941672325134277e+00 -3.488645935058593750e+01 -1.228509063366800547e-04 9.948842925950884819e-04 2.616100246086716652e-04 1.695639075478538871e-04
2.320000000000000000e+02 3.775378763675689697e-01 -3.645749282836914062e+01 1.677541295066475868e-04 1.301907701417803764e-03 4.408985259942710400e-04 6.863877206342294812e-05
2.330000000000000000e+02 6.111536026000976562e+00 -3.964487457275390625e+01 -6.141986814327538013e-04 9.252923191525042057e-04 9.332808258477598429e-05 3.853610251098871231e-04
2.340000000000000000e+02 3.001688241958618164e+00 -3.945325088500976562e+01 -2.461568219587206841e-04 1.238913275301456451e-03 2.978269185405224562e-04 9.672506712377071381e-05
2.350000000000000000e+02 3.571774291992187500e+01 -3.703478622436523438e+01 -2.262336900457739830e-03 -5.689927935600280762e-02 -1.774848438799381256e-02 -4.474350810050964355e-02
2.360000000000000000e+02 3.745721435546875000e+01 -3.506358337402343750e+01 -3.477499261498451233e-02 -5.074518173933029175e-02 -2.565605193376541138e-02 -7.491711527109146118e-02
2.370000000000000000e+02 4.318529129028320312e+01 -3.171136474609375000e+01 -4.266611635684967041e-01 -3.845179826021194458e-02 -1.395338773727416992e-01 -1.277222484350204468e-01
2.380000000000000000e+02 3.835977172851562500e+01 -3.227721786499023438e+01 -8.674670755863189697e-02 -9.044819744303822517e-04 -2.629535831511020660e-02 -2.459230832755565643e-02
2.390000000000000000e+02 3.753154373168945312e+01 -3.229148101806640625e+01 -5.387932807207107544e-02 -8.081397973001003265e-03 -1.858821883797645569e-02 -1.668880693614482880e-02
2.400000000000000000e+02 4.512585830688476562e+01 -3.668923568725585938e+01 1.211339905858039856e-01 -2.731405496597290039e-01 -4.560196772217750549e-02 -2.514463663101196289e-01
2.410000000000000000e+02 4.380098724365234375e+01 -3.655503845214843750e+01 4.648206010460853577e-02 -2.222611755132675171e-01 -5.273373425006866455e-02 -2.157314419746398926e-01
2.420000000000000000e+02 4.944758224487304688e+01 -3.009867095947265625e+01 -1.235196232795715332e+00 -2.560433447360992432e-01 -4.473718702793121338e-01 -5.412029027938842773e-01
2.430000000000000000e+02 4.397318649291992188e+01 -3.153561401367187500e+01 -5.133215188980102539e-01 -5.816211551427841187e-02 -1.714450865983963013e-01 -1.597877889871597290e-01
2.440000000000000000e+02 4.660882568359375000e+01 -3.871868515014648438e+01 2.936557531356811523e-01 -2.958531677722930908e-01 -6.592201534658670425e-04 -1.762455850839614868e-01
2.450000000000000000e+02 5.046474456787109375e+01 -3.997132873535156250e+01 5.263082981109619141e-01 -1.334856301546096802e-01 1.178468018770217896e-01 -8.018139004707336426e-02
2.460000000000000000e+02 5.528887939453125000e+01 -2.726846885681152344e+01 -1.490969657897949219e+00 -4.633601307868957520e-01 -5.862989425659179688e-01 -8.164409995079040527e-01
2.470000000000000000e+02 5.870740890502929688e+01 -2.500550842285156250e+01 -8.738500475883483887e-01 -2.908605039119720459e-01 -3.494131863117218018e-01 -5.174654722213745117e-01
2.480000000000000000e+02 5.599134063720703125e+01 -2.685769081115722656e+01 -1.388313055038452148e+00 -4.421553313732147217e-01 -5.491405129432678223e-01 -7.776224613189697266e-01
2.490000000000000000e+02 5.489133834838867188e+01 -3.875733184814453125e+01 5.723239183425903320e-01 5.585409402847290039e-01 3.392594456672668457e-01 -1.869035139679908752e-02
2.500000000000000000e+02 6.075160598754882812e+01 -2.972706985473632812e+01 -3.031553328037261963e-01 1.973230242729187012e+00 5.010224580764770508e-01 4.832502007484436035e-01
2.510000000000000000e+02 6.112080001831054688e+01 -2.280863571166992188e+01 6.226632371544837952e-02 6.023827195167541504e-01 1.993947178125381470e-01 3.172792494297027588e-01
2.520000000000000000e+02 6.625300598144531250e+01 -1.654458808898925781e+01 2.579489469528198242e+00 8.881651878356933594e+00 3.438342332839965820e+00 4.609153270721435547e+00
2.530000000000000000e+02 6.703299713134765625e+01 -1.511058902740478516e+01 2.398070096969604492e+00 1.245571422576904297e+01 4.456135272979736328e+00 5.238807678222656250e+00
2.540000000000000000e+02 6.841049957275390625e+01 -9.786689758300781250e+00 1.868735671043395996e+00 2.588881492614746094e+01 8.327264785766601562e+00 -1.994367361068725586e+00
2.550000000000000000e+02 6.816596984863281250e+01 -1.208406734466552734e+01 1.571331977844238281e+00 2.613524627685546875e+01 8.311973571777343750e+00 2.943793058395385742e+00
2.560000000000000000e+02 6.227376174926757812e+01 -4.126025390625000000e+01 4.179796874523162842e-01 3.104662656784057617e+00 1.056792736053466797e+00 6.116886809468269348e-02
2.570000000000000000e+02 6.093383407592773438e+01 -3.606247711181640625e+01 2.712346613407135010e-01 2.518549680709838867e+00 8.369353413581848145e-01 3.087631762027740479e-01
2.580000000000000000e+02 7.206559753417968750e+01 -3.176753997802734375e+01 -3.086261153221130371e-01 7.682548522949218750e+00 2.212176799774169922e+00 -2.510406775400042534e-03
2.590000000000000000e+02 6.629814147949218750e+01 -2.292064094543457031e+01 -6.345570087432861328e-01 6.059278964996337891e+00 1.627416491508483887e+00 1.016435503959655762e+00
2.600000000000000000e+02 6.698828887939453125e+01 -2.341897964477539062e+01 -7.900347709655761719e-01 6.499479770660400391e+00 1.712833523750305176e+00 8.236187696456909180e-01
2.610000000000000000e+02 6.656818389892578125e+01 -4.099924468994140625e+01 2.014173716306686401e-01 4.994706153869628906e+00 1.558837056159973145e+00 5.647544935345649719e-02
2.620000000000000000e+02 7.041978454589843750e+01 -3.778763580322265625e+01 6.147270905785262585e-04 6.962455272674560547e+00 2.088921070098876953e+00 1.569936275482177734e-01
2.630000000000000000e+02 7.958927154541015625e+01 -3.403300476074218750e+01 -1.598122157156467438e-02 1.066988086700439453e+01 3.196170091629028320e+00 -1.604334637522697449e-02
2.640000000000000000e+02 7.879077911376953125e+01 -3.076523971557617188e+01 -1.698521710932254791e-02 1.019447517395019531e+01 3.053246974945068359e+00 -9.423670172691345215e-02
2.650000000000000000e+02 7.961968994140625000e+01 -2.682881355285644531e+01 -2.778394147753715515e-03 1.006611442565917969e+01 3.019000768661499023e+00 -9.539334475994110107e-02
2.660000000000000000e+02 7.888175964355468750e+01 -2.356363487243652344e+01 -3.832281008362770081e-02 9.048617362976074219e+00 2.703088283538818359e+00 -4.014514684677124023e-01
2.670000000000000000e+02 7.963880157470703125e+01 -2.041481971740722656e+01 1.597582595422863960e-03 7.769857883453369141e+00 2.331436634063720703e+00 -2.115077078342437744e-01
2.680000000000000000e+02 7.892768096923828125e+01 -1.634998512268066406e+01 3.361350670456886292e-02 5.993321895599365234e+00 1.808080673217773438e+00 -5.868272781372070312e-01
2.690000000000000000e+02 7.892082977294921875e+01 -9.113748550415039062e+00 8.365629613399505615e-02 4.825254440307617188e+00 1.472673296928405762e+00 3.298501968383789062e-01
2.700000000000000000e+02 7.893255615234375000e+01 -2.731004953384399414e+00 -3.497859463095664978e-02 7.403149127960205078e+00 2.210451126098632812e+00 5.020548105239868164e-01
2.710000000000000000e+02 7.892465972900390625e+01 4.489712715148925781e+00 -2.832314930856227875e-02 8.652071952819824219e+00 2.587124586105346680e+00 1.687420904636383057e-02
2.720000000000000000e+02 7.890848541259765625e+01 1.171056270599365234e+01 -1.839502598159015179e-03 8.103803634643554688e+00 2.430589199066162109e+00 -1.131294667720794678e-01
2.730000000000000000e+02 7.887948608398437500e+01 1.892438888549804688e+01 4.582706838846206665e-03 7.393731117248535156e+00 2.219494104385375977e+00 -8.885653316974639893e-02
2.740000000000000000e+02 7.874382019042968750e+01 2.700994873046875000e+01 3.356917761266231537e-03 6.867618560791015625e+00 2.061292648315429688e+00 -5.516325682401657104e-02
2.750000000000000000e+02 7.887402343750000000e+01 3.342116165161132812e+01 6.977314478717744350e-04 6.654700756072998047e+00 1.996619462966918945e+00 -2.938313595950603485e-02
2.760000000000000000e+02 7.893110656738281250e+01 3.788761520385742188e+01 1.920457696542143822e-03 6.567697525024414062e+00 1.970885396003723145e+00 -1.658859848976135254e-02
2.770000000000000000e+02 7.965174865722656250e+01 3.649355316162109375e+01 1.566025544889271259e-03 6.671635627746582031e+00 2.001960515975952148e+00 -9.526346810162067413e-03
2.780000000000000000e+02 7.339636993408203125e+01 3.795377349853515625e+01 5.127289146184921265e-02 5.802370548248291016e+00 1.756093025207519531e+00 -5.372255668044090271e-02
2.790000000000000000e+02 7.321115875244140625e+01 3.101842117309570312e+01 6.563639640808105469e-02 5.867871284484863281e+00 1.780052304267883301e+00 -1.936711072921752930e-01
2.800000000000000000e+02 7.400099182128906250e+01 2.360374641418457031e+01 6.706760823726654053e-02 6.253721237182617188e+00 1.896236658096313477e+00 -3.122451007366180420e-01
2.810000000000000000e+02 7.299689483642578125e+01 1.769045639038085938e+01 1.023815870285034180e-01 6.303754329681396484e+00 1.921840786933898926e+00 -4.832801818847656250e-01
2.820000000000000000e+02 7.332267761230468750e+01 8.198441505432128906e+00 -1.644707620143890381e-01 7.043670654296875000e+00 2.063760042190551758e+00 -5.832150578498840332e-01
2.830000000000000000e+02 6.769222259521484375e+01 -6.467093467712402344e+00 -4.995003938674926758e-01 1.149663257598876953e+01 3.299139499664306641e+00 -4.235211849212646484e+00
2.840000000000000000e+02 6.762750244140625000e+01 -7.982543945312500000e+00 6.201038837432861328e+00 1.411952018737792969e+01 6.096167564392089844e+00 -8.422162055969238281e+00
2.850000000000000000e+02 6.808407592773437500e+01 -8.587305068969726562e+00 5.596196651458740234e+00 2.402282142639160156e+01 8.885704994201660156e+00 -7.088757991790771484e+00
2.860000000000000000e+02 6.831546020507812500e+01 -1.052542686462402344e+01 -1.549384295940399170e-01 2.318147468566894531e+01 6.907960891723632812e+00 2.812426984310150146e-01
2.870000000000000000e+02 6.824600219726562500e+01 -1.129615783691406250e+01 6.023300886154174805e-01 2.398010826110839844e+01 7.374731063842773438e+00 5.548800230026245117e-01
2.880000000000000000e+02 7.964010620117187500e+01 -1.319600391387939453e+01 8.657950907945632935e-03 3.916399478912353516e+00 1.177517175674438477e+00 -1.135855838656425476e-01
2.890000000000000000e+02 7.881717681884765625e+01 -3.716626358032226562e+01 8.087467402219772339e-03 1.032342529296875000e+01 3.099453926086425781e+00 2.505416749045252800e-03
2.900000000000000000e+02 7.888544464111328125e+01 -3.795152282714843750e+01 8.223082986660301685e-04 1.034209823608398438e+01 3.102876186370849609e+00 -5.001748912036418915e-03
2.910000000000000000e+02 6.493487548828125000e+01 3.588468933105468750e+01 2.592163681983947754e-01 4.420439243316650391e+00 1.403896689414978027e+00 -1.515031754970550537e-01
2.920000000000000000e+02 6.294351577758789062e+01 2.552949905395507812e+01 2.801371216773986816e-01 4.137274265289306641e+00 1.325223445892333984e+00 -4.919614791870117188e-01
2.930000000000000000e+02 5.879736709594726562e+01 1.776761627197265625e+01 5.098699331283569336e-01 3.502895116806030273e+00 1.203829526901245117e+00 -4.876964092254638672e-01
2.940000000000000000e+02 5.930288314819335938e+01 1.152895355224609375e+01 5.450056791305541992e-01 3.356147050857543945e+00 1.170345783233642578e+00 -6.867649555206298828e-01
2.950000000000000000e+02 5.949177169799804688e+01 5.984288692474365234e+00 1.865993142127990723e-01 2.597036600112915039e+00 8.350908160209655762e-01 -6.480277180671691895e-01
2.960000000000000000e+02 6.269942092895507812e+01 -6.849757671356201172e+00 -3.905052661895751953e+00 -6.298481225967407227e-01 -1.360470294952392578e+00 -1.258884310722351074e+00
2.970000000000000000e+02 5.939767837524414062e+01 -9.950762748718261719e+00 -2.611204385757446289e+00 -9.153538346290588379e-01 -1.057967424392700195e+00 -1.566895723342895508e+00
2.980000000000000000e+02 6.603893280029296875e+01 -6.809272289276123047e+00 -3.629157841205596924e-01 2.274673461914062500e+00 5.735272765159606934e-01 -2.706446409225463867e+00
2.990000000000000000e+02 6.712770080566406250e+01 -7.438706874847412109e+00 3.944005250930786133e+00 7.590942859649658203e+00 3.460484504699707031e+00 -5.446014881134033203e+00
3.000000000000000000e+02 5.724686813354492188e+01 4.057795715332031250e+01 5.083585381507873535e-01 3.101038455963134766e+00 1.082819104194641113e+00 -5.637116357684135437e-02
3.010000000000000000e+02 6.212292480468750000e+01 3.675239562988281250e+01 3.526057600975036621e-01 3.912801504135131836e+00 1.279622197151184082e+00 -2.015924900770187378e-01
3.020000000000000000e+02 5.651938629150390625e+01 2.919302558898925781e+01 4.926002025604248047e-01 2.760442256927490234e+00 9.759127497673034668e-01 -4.166699647903442383e-01
3.030000000000000000e+02 5.404299545288085938e+01 2.279200172424316406e+01 4.955027103424072266e-01 2.045720100402832031e+00 7.623668313026428223e-01 -6.947101950645446777e-01
3.040000000000000000e+02 5.415186691284179688e+01 1.639911460876464844e+01 1.272113442420959473e+00 2.077780723571777344e+00 1.004968285560607910e+00 -1.490150928497314453e+00
3.050000000000000000e+02 5.361010360717773438e+01 1.697808837890625000e+01 1.015574097633361816e+00 1.347786545753479004e+00 7.090082168579101562e-01 -1.142374157905578613e+00
3.060000000000000000e+02 5.467157363891601562e+01 1.580857658386230469e+01 1.351059675216674805e+00 3.343375682830810547e+00 1.408330559730529785e+00 -1.900340676307678223e+00
3.070000000000000000e+02 5.534103775024414062e+01 1.404126262664794922e+01 3.878877460956573486e-01 4.836350917816162109e+00 1.567271709442138672e+00 -5.373921990394592285e-01
3.080000000000000000e+02 5.566867446899414062e+01 1.473703479766845703e+01 9.910153150558471680e-01 4.575838088989257812e+00 1.670056104660034180e+00 -9.241833686828613281e-01
3.090000000000000000e+02 5.524345397949218750e+01 1.180475044250488281e+01 7.054051756858825684e-02 3.821493864059448242e+00 1.167610287666320801e+00 9.648834168910980225e-02
3.100000000000000000e+02 5.610934066772460938e+01 9.730509757995605469e+00 3.507043123245239258e-01 2.681492328643798828e+00 9.096590280532836914e-01 -1.248920243233442307e-02
3.110000000000000000e+02 5.556713867187500000e+01 1.039671802520751953e+01 4.079491794109344482e-01 3.120202541351318359e+00 1.058445453643798828e+00 3.098560571670532227e-01
3.120000000000000000e+02 5.393649291992187500e+01 8.680726051330566406e+00 4.731774628162384033e-01 9.673140048980712891e-01 4.321474432945251465e-01 6.151453256607055664e-01
3.130000000000000000e+02 5.446175003051757812e+01 9.276795387268066406e+00 4.904084205627441406e-01 1.584028720855712891e+00 6.223311424255371094e-01 7.826349139213562012e-01
3.140000000000000000e+02 5.336128997802734375e+01 8.119786262512207031e+00 4.539543986320495605e-01 5.852867364883422852e-01 3.117723464965820312e-01 4.706136286258697510e-01
3.150000000000000000e+02 5.132880783081054688e+01 6.862348079681396484e+00 2.797555923461914062e-01 9.742577373981475830e-02 1.131544038653373718e-01 1.477219015359878540e-01
3.160000000000000000e+02 4.984446334838867188e+01 5.400544643402099609e+00 1.457160115242004395e-01 7.991184294223785400e-02 6.768836081027984619e-02 1.388673931360244751e-01
3.170000000000000000e+02 5.161575317382812500e+01 -7.424781799316406250e+00 -1.272128701210021973e+00 2.840014398097991943e-01 -2.964381873607635498e-01 1.218000706285238266e-02
3.180000000000000000e+02 4.399336624145507812e+01 -1.398092937469482422e+01 -8.639016151428222656e-01 1.082214638590812683e-01 -2.267040461301803589e-01 -6.363067030906677246e-02
3.190000000000000000e+02 3.659537887573242188e+01 -1.372753334045410156e+01 -6.400966644287109375e-01 1.324226558208465576e-01 -1.523022055625915527e-01 1.763802170753479004e-01
3.200000000000000000e+02 2.708008956909179688e+01 -1.343378829956054688e+01 -2.984060645103454590e-01 -1.975667923688888550e-01 -1.487918645143508911e-01 3.143934607505798340e-01
3.210000000000000000e+02 2.715874671936035156e+01 -1.228183650970458984e+01 -3.772684931755065918e-01 -2.076463997364044189e-01 -1.754744648933410645e-01 3.816802203655242920e-01
3.220000000000000000e+02 2.916868972778320312e+01 -1.220699787139892578e+01 -4.712919294834136963e-01 -7.493127882480621338e-02 -1.638669669628143311e-01 3.725953996181488037e-01
3.230000000000000000e+02 3.382877349853515625e+01 -1.788808441162109375e+01 -3.813690245151519775e-01 2.277018502354621887e-02 -1.075796484947204590e-01 9.842430800199508667e-02
3.240000000000000000e+02 3.771651077270507812e+01 -1.887313461303710938e+01 -5.220754742622375488e-01 9.387275204062461853e-03 -1.538064628839492798e-01 -1.452991832047700882e-02
3.250000000000000000e+02 3.928548812866210938e+01 -1.878311920166015625e+01 -5.638548731803894043e-01 1.965618692338466644e-03 -1.685667783021926880e-01 -2.628532610833644867e-02
3.260000000000000000e+02 4.387244415283203125e+01 -1.779496002197265625e+01 -7.247436046600341797e-01 -5.318181589245796204e-02 -2.333776205778121948e-01 -2.161514908075332642e-01
3.270000000000000000e+02 4.462570953369140625e+01 -1.753655052185058594e+01 -8.388378024101257324e-01 -8.079922199249267578e-02 -2.758910953998565674e-01 -2.389073222875595093e-01
3.280000000000000000e+02 4.538936233520507812e+01 -1.730368423461914062e+01 -8.872151374816894531e-01 -6.821946054697036743e-02 -2.866303920745849609e-01 -2.337291389703750610e-01
3.290000000000000000e+02 5.125158691406250000e+01 -1.496235275268554688e+01 -9.976657629013061523e-01 -2.309210151433944702e-01 -3.685760200023651123e-01 -5.138093233108520508e-01
3.300000000000000000e+02 5.805546569824218750e+01 -1.081590557098388672e+01 -2.171214103698730469e+00 -7.870129346847534180e-01 -8.874680995941162109e-01 -1.314852476119995117e+00
3.310000000000000000e+02 5.820546722412109375e+01 -7.418313503265380859e+00 -2.247082948684692383e+00 -2.733178809285163879e-02 -6.823244094848632812e-01 -5.340831875801086426e-01
3.320000000000000000e+02 5.757712554931640625e+01 -7.818239212036132812e+00 -2.143272399902343750e+00 -1.617279648780822754e-02 -6.478335857391357422e-01 -5.367138385772705078e-01
3.330000000000000000e+02 5.414611816406250000e+01 4.966719627380371094e+00 1.836680620908737183e-01 9.459545612335205078e-01 3.388867974281311035e-01 2.768478393554687500e-01
3.340000000000000000e+02 5.062828063964843750e+01 6.608350753784179688e+00 1.972197741270065308e-01 4.748677462339401245e-02 7.341196388006210327e-02 9.277186542749404907e-02
3.350000000000000000e+02 5.240813446044921875e+01 4.079733657836914062e+01 6.319671273231506348e-01 2.297204017639160156e+00 8.787513971328735352e-01 -2.550704963505268097e-02
3.360000000000000000e+02 4.886176300048828125e+01 3.052250480651855469e+01 6.920659542083740234e-01 1.602921128273010254e+00 6.884961128234863281e-01 -9.134772419929504395e-02
3.370000000000000000e+02 4.877451324462890625e+01 2.242273139953613281e+01 6.539943218231201172e-01 7.839128971099853516e-01 4.313721656799316406e-01 2.700670622289180756e-02
3.380000000000000000e+02 4.884664535522460938e+01 1.869993972778320312e+01 -1.974787414073944092e-01 2.798330038785934448e-02 -5.084863305091857910e-02 5.504994839429855347e-02
3.390000000000000000e+02 4.966276931762695312e+01 1.864912986755371094e+01 -2.267806529998779297e-01 2.777526713907718658e-02 -5.970161780714988708e-02 4.397659096866846085e-03
3.400000000000000000e+02 5.199480438232421875e+01 1.863787078857421875e+01 3.274107575416564941e-01 6.100312471389770508e-01 2.812325954437255859e-01 -5.021729469299316406e-01
3.410000000000000000e+02 4.239068603515625000e+01 4.047093200683593750e+01 6.740161776542663574e-01 1.125221133232116699e+00 5.397711992263793945e-01 1.742300577461719513e-02
3.420000000000000000e+02 4.098357009887695312e+01 2.900465393066406250e+01 5.316139459609985352e-01 8.854341506958007812e-01 4.251144230365753174e-01 1.822467148303985596e-01
3.430000000000000000e+02 4.346996307373046875e+01 2.106970214843750000e+01 2.654720246791839600e-01 1.099533319473266602e+00 4.095016121864318848e-01 4.368371665477752686e-01
3.440000000000000000e+02 4.428635787963867188e+01 1.677370262145996094e+01 9.006370902061462402e-01 1.465941786766052246e+00 7.099736928939819336e-01 9.276238679885864258e-01
3.450000000000000000e+02 4.338774871826171875e+01 1.536770343780517578e+01 4.969562590122222900e-01 2.439563989639282227e+00 8.809561133384704590e-01 8.449062108993530273e-01
3.460000000000000000e+02 4.374414062500000000e+01 1.610774612426757812e+01 7.695251703262329102e-01 2.053849697113037109e+00 8.470124602317810059e-01 9.842968583106994629e-01
3.470000000000000000e+02 3.739468383789062500e+01 4.062019348144531250e+01 6.148258447647094727e-01 6.869851946830749512e-01 3.905433118343353271e-01 2.758594416081905365e-02
3.480000000000000000e+02 4.161325836181640625e+01 3.667401123046875000e+01 6.527200341224670410e-01 1.043435454368591309e+00 5.088466405868530273e-01 5.199348554015159607e-02
3.490000000000000000e+02 4.046103668212890625e+01 3.094919586181640625e+01 5.618240833282470703e-01 8.621574044227600098e-01 4.271944463253021240e-01 1.450559645891189575e-01
3.500000000000000000e+02 3.962267684936523438e+01 2.210010147094726562e+01 2.883140146732330322e-01 9.419428706169128418e-01 3.690770566463470459e-01 2.269966751337051392e-01
3.510000000000000000e+02 3.997129821777343750e+01 1.629313468933105469e+01 4.214756488800048828e-01 1.148302078247070312e+00 4.709333181381225586e-01 2.180646955966949463e-01
3.520000000000000000e+02 3.982152938842773438e+01 1.343765449523925781e+01 4.101276397705078125e-01 1.157309651374816895e+00 4.702312052249908447e-01 3.368225097656250000e-01
3.530000000000000000e+02 2.612457084655761719e+01 -4.059854507446289062e+00 -8.180782198905944824e-01 -6.725820899009704590e-02 -2.656009495258331299e-01 4.415885508060455322e-01
3.540000000000000000e+02 2.545934104919433594e+01 -1.086923694610595703e+01 -3.979342579841613770e-01 -3.869555294513702393e-01 -2.354669272899627686e-01 4.515587091445922852e-01
3.550000000000000000e+02 2.658671569824218750e+01 -1.277895164489746094e+01 -3.097895383834838867e-01 -2.443212270736694336e-01 -1.662332266569137573e-01 3.414132893085479736e-01
3.560000000000000000e+02 3.249600982666015625e+01 4.059376907348632812e+01 5.351414084434509277e-01 3.726149201393127441e-01 2.723268866539001465e-01 3.267521411180496216e-02
3.570000000000000000e+02 3.259467697143554688e+01 3.677012252807617188e+01 5.239349007606506348e-01 3.666503727436065674e-01 2.671755850315093994e-01 9.994663298130035400e-02
3.580000000000000000e+02 3.166381072998046875e+01 3.056752014160156250e+01 4.749400913715362549e-01 2.463038414716720581e-01 2.163731753826141357e-01 1.896356046199798584e-01
3.590000000000000000e+02 2.824713516235351562e+01 2.249332809448242188e+01 3.837798237800598145e-01 -1.600898355245590210e-01 6.710699945688247681e-02 2.636384069919586182e-01
3.600000000000000000e+02 2.725770378112792969e+01 1.672462844848632812e+01 -2.524893917143344879e-02 -4.968950450420379639e-01 -1.566431969404220581e-01 2.412854582071304321e-01
3.610000000000000000e+02 2.644141197204589844e+01 1.076071262359619141e+01 -1.417723447084426880e-01 -7.984560132026672363e-01 -2.820685207843780518e-01 5.187132358551025391e-01
3.620000000000000000e+02 2.334143257141113281e+01 5.585780620574951172e+00 9.907135963439941406e-01 4.504812657833099365e-01 4.323584437370300293e-01 6.238045692443847656e-01
3.630000000000000000e+02 2.265626907348632812e+01 5.230603218078613281e+00 1.088846921920776367e+00 3.672289550304412842e-01 4.368227720260620117e-01 5.687931180000305176e-01
3.640000000000000000e+02 2.044399452209472656e+01 4.449420928955078125e+00 8.548571467399597168e-01 9.665834903717041016e-02 2.854546606540679932e-01 3.207422792911529541e-01
3.650000000000000000e+02 1.896162605285644531e+01 4.235625267028808594e+00 -4.476312696933746338e-01 -2.932590544223785400e-01 -2.222670912742614746e-01 4.941302239894866943e-01
3.660000000000000000e+02 1.690831565856933594e+01 -4.621455073356628418e-01 -8.878365159034729004e-01 -9.457767605781555176e-01 -5.500839948654174805e-01 9.627991318702697754e-01
3.670000000000000000e+02 1.967384147644042969e+01 -2.436031579971313477e+00 -1.215981364250183105e+00 -9.349090456962585449e-01 -6.452671289443969727e-01 9.276546239852905273e-01
3.680000000000000000e+02 2.136682319641113281e+01 -4.277231216430664062e+00 -1.108605146408081055e+00 -8.459333181381225586e-01 -5.863615274429321289e-01 8.812903165817260742e-01
3.690000000000000000e+02 2.119503211975097656e+01 4.646838665008544922e+00 1.018362760543823242e+00 1.896524876356124878e-01 3.624045848846435547e-01 3.892952203750610352e-01
3.700000000000000000e+02 2.228594779968261719e+01 4.043143463134765625e+01 3.102795779705047607e-01 -1.584288924932479858e-01 4.555520415306091309e-02 5.435438081622123718e-02
3.710000000000000000e+02 2.569153022766113281e+01 2.864927673339843750e+01 4.007074832916259766e-01 -8.860221505165100098e-02 9.363158047199249268e-02 3.124750554561614990e-01
3.720000000000000000e+02 1.865935325622558594e+01 1.633176994323730469e+01 1.338001489639282227e+00 1.949707418680191040e-01 4.598916769027709961e-01 3.870818614959716797e-01
3.730000000000000000e+02 2.180806159973144531e+01 1.580495262145996094e+01 -5.900197625160217285e-01 -3.220286667346954346e-01 -2.736145257949829102e-01 4.470882713794708252e-01
3.740000000000000000e+02 2.291946029663085938e+01 1.610681724548339844e+01 -3.099626302719116211e-01 -7.067037820816040039e-01 -3.049999177455902100e-01 5.424271821975708008e-01
3.750000000000000000e+02 2.360123825073242188e+01 1.550988006591796875e+01 -5.276688337326049805e-01 -8.209699392318725586e-01 -4.045916199684143066e-01 5.901091098785400391e-01
3.760000000000000000e+02 2.252833175659179688e+01 1.543027687072753906e+01 -8.277128338813781738e-01 -5.881328582763671875e-01 -4.247537255287170410e-01 6.420029401779174805e-01
3.770000000000000000e+02 2.534164619445800781e+01 1.246983337402343750e+01 -5.505812764167785645e-01 -1.807576775550842285e+00 -7.074474692344665527e-01 7.123762369155883789e-01
3.780000000000000000e+02 2.552093315124511719e+01 1.159896469116210938e+01 -1.937292516231536865e-01 -1.563406348228454590e+00 -5.271406769752502441e-01 3.939851820468902588e-01
3.790000000000000000e+02 2.490263175964355469e+01 1.321524333953857422e+01 -7.949516773223876953e-01 -1.571664571762084961e+00 -7.099848985671997070e-01 9.284126758575439453e-01
3.800000000000000000e+02 2.549066734313964844e+01 9.934987068176269531e+00 -1.963139278814196587e-03 -7.263238430023193359e-01 -2.184861004352569580e-01 1.486297547817230225e-01
3.810000000000000000e+02 2.513019371032714844e+01 7.590273857116699219e+00 2.774928808212280273e-01 3.575548827648162842e-01 1.905143260955810547e-01 3.443277180194854736e-01
3.820000000000000000e+02 2.397697067260742188e+01 5.959786415100097656e+00 8.125734925270080566e-01 5.322822928428649902e-01 4.034567177295684814e-01 5.870273709297180176e-01
3.830000000000000000e+02 1.719501304626464844e+01 4.079164505004882812e+01 1.830427497625350952e-01 -4.124144613742828369e-01 -6.881151348352432251e-02 3.640433028340339661e-02
3.840000000000000000e+02 2.113722801208496094e+01 3.648948669433593750e+01 2.807053625583648682e-01 -2.084664404392242432e-01 2.167167887091636658e-02 1.485455930233001709e-01
3.850000000000000000e+02 1.736534309387207031e+01 3.268292999267578125e+01 1.802580058574676514e-01 -3.468112349510192871e-01 -4.996597021818161011e-02 2.226069718599319458e-01
3.860000000000000000e+02 1.914027023315429688e+01 2.264923667907714844e+01 2.251721620559692383e-01 -1.268427520990371704e-01 2.949882484972476959e-02 5.481794476509094238e-01
3.870000000000000000e+02 1.788921165466308594e+01 1.619312858581542969e+01 1.469311952590942383e+00 3.012497127056121826e-01 5.311684608459472656e-01 5.888882875442504883e-01
3.880000000000000000e+02 1.631636810302734375e+01 1.599639225006103516e+01 1.076809763908386230e+00 5.755651593208312988e-01 4.957124590873718262e-01 5.799826383590698242e-01
3.890000000000000000e+02 1.229128456115722656e+01 4.123520278930664062e+01 8.774161338806152344e-02 -6.633808016777038574e-01 -1.726917624473571777e-01 2.249551564455032349e-02
3.900000000000000000e+02 8.402674674987792969e+00 3.565735244750976562e+01 2.882903255522251129e-02 -9.079557061195373535e-01 -2.637380063533782959e-01 5.892516672611236572e-02
3.910000000000000000e+02 8.328714370727539062e+00 3.108265304565429688e+01 3.649685531854629517e-02 -8.466955423355102539e-01 -2.430596053600311279e-01 1.067449003458023071e-01
3.920000000000000000e+02 7.172228813171386719e+00 2.303053283691406250e+01 1.022114232182502747e-01 -8.096413612365722656e-01 -2.122289836406707764e-01 1.733059734106063843e-01
3.930000000000000000e+02 1.269110870361328125e+01 1.570925140380859375e+01 5.849283337593078613e-01 -4.098047316074371338e-01 5.253708362579345703e-02 4.096156656742095947e-01
3.940000000000000000e+02 1.360398864746093750e+01 9.532402992248535156e+00 -3.435561060905456543e-01 -1.121400356292724609e+00 -4.394869506359100342e-01 7.028911709785461426e-01
3.950000000000000000e+02 6.619643211364746094e+00 1.861971974372863770e+00 -1.050582081079483032e-01 -2.305945567786693573e-02 -3.843529894948005676e-02 4.808313399553298950e-02
3.960000000000000000e+02 1.060039806365966797e+01 1.709626078605651855e+00 -3.502804040908813477e-01 -1.600138992071151733e-01 -1.530882865190505981e-01 2.387585043907165527e-01
3.970000000000000000e+02 1.221489524841308594e+01 1.348980426788330078e+00 -4.484792649745941162e-01 -3.262611031532287598e-01 -2.324221134185791016e-01 3.979682922363281250e-01
3.980000000000000000e+02 1.476920223236083984e+01 1.265027642250061035e+00 -5.216930508613586426e-01 -8.151430487632751465e-01 -4.010508358478546143e-01 7.508841156959533691e-01
3.990000000000000000e+02 1.721631813049316406e+01 5.211597442626953125e+00 -1.114507555961608887e+00 -1.084913969039916992e+00 -6.598264575004577637e-01 1.068737387657165527e+00
4.000000000000000000e+02 1.517066669464111328e+01 7.478495121002197266e+00 -9.700385332107543945e-01 -2.350960493087768555e+00 -9.962996840476989746e-01 1.326882719993591309e+00
4.010000000000000000e+02 1.449940490722656250e+01 9.290935516357421875e+00 -2.119503319263458252e-01 -1.802394986152648926e+00 -6.043035984039306641e-01 4.144503474235534668e-01
4.020000000000000000e+02 1.246895694732666016e+01 1.133068943023681641e+01 -1.123653259128332138e-02 -6.684418320655822754e-01 -2.039034962654113770e-01 6.987910866737365723e-01
4.030000000000000000e+02 1.500255584716796875e+01 1.311280536651611328e+01 1.890044212341308594e-01 2.793125212192535400e-01 1.404950767755508423e-01 2.904535233974456787e-01
4.040000000000000000e+02 1.531433391571044922e+01 1.383436203002929688e+01 4.363873898983001709e-01 6.035397648811340332e-01 3.119781613349914551e-01 4.870943129062652588e-01
4.050000000000000000e+02 1.569281387329101562e+01 1.451072502136230469e+01 6.133624315261840820e-01 7.427899837493896484e-01 4.068457186222076416e-01 6.618234515190124512e-01
4.060000000000000000e+02 1.255318927764892578e+01 1.501072311401367188e+01 5.681279897689819336e-01 -4.722431302070617676e-01 2.876546606421470642e-02 4.738806784152984619e-01
4.070000000000000000e+02 1.085516571998596191e+00 3.709230422973632812e+01 2.163250464946031570e-03 -1.519682168960571289e+00 -4.552556872367858887e-01 2.035464160144329071e-03
4.080000000000000000e+02 1.343415975570678711e+00 3.833903503417968750e+01 9.075763518922030926e-04 -1.505969405174255371e+00 -4.515185356140136719e-01 3.267734777182340622e-03
4.090000000000000000e+02 2.064541339874267578e+00 3.641265106201171875e+01 6.254649721086025238e-03 -1.431611061096191406e+00 -4.276069104671478271e-01 1.210704538971185684e-02
4.100000000000000000e+02 1.173957824707031250e+00 2.896505355834960938e+01 1.487871340941637754e-04 -1.438697934150695801e+00 -4.315647482872009277e-01 1.283024530857801437e-02
4.110000000000000000e+02 3.682865798473358154e-01 2.030312919616699219e+01 1.871775486506521702e-03 -1.304853916168212891e+00 -3.908946514129638672e-01 1.856032386422157288e-02
4.120000000000000000e+02 1.088855385780334473e+00 1.530307865142822266e+01 5.359336268156766891e-03 -8.649578690528869629e-01 -2.578795552253723145e-01 1.108078584074974060e-01
4.130000000000000000e+02 3.666072487831115723e-01 6.634437561035156250e+00 -2.733546542003750801e-03 -1.411373261362314224e-02 -5.054183769971132278e-03 1.835566014051437378e-02
4.140000000000000000e+02 1.097054719924926758e+00 8.886212348937988281e+00 -9.977912530303001404e-03 -2.253840714693069458e-01 -7.060859352350234985e-02 9.829709678888320923e-02
4.150000000000000000e+02 4.143083572387695312e+00 2.663334369659423828e+00 -6.634556502103805542e-02 -2.808120287954807281e-02 -2.832803130149841309e-02 2.354517392814159393e-02
4.160000000000000000e+02 1.459821605682373047e+01 5.956402420997619629e-01 -6.274855732917785645e-01 -6.909881830215454102e-01 -3.955421447753906250e-01 7.405348420143127441e-01
4.170000000000000000e+02 1.701968383789062500e+01 4.250443458557128906e+00 -6.014177203178405762e-01 -1.096300005912780762e+00 -5.093153119087219238e-01 8.190721869468688965e-01
4.180000000000000000e+02 2.187329483032226562e+01 -4.918018817901611328e+00 -1.041807055473327637e+00 -8.169587254524230957e-01 -5.576297044754028320e-01 8.425047397613525391e-01
4.190000000000000000e+02 2.387730979919433594e+01 -5.479251384735107422e+00 -9.074130058288574219e-01 -4.365894794464111328e-01 -4.032007455825805664e-01 6.473130583763122559e-01
4.200000000000000000e+02 2.400718307495117188e+01 -8.242747306823730469e+00 -6.150863766670227051e-01 -6.007624864578247070e-01 -3.647546470165252686e-01 6.289177536964416504e-01
4.210000000000000000e+02 3.447025680541992188e+01 -1.889670753479003906e+01 -3.643801808357238770e-01 6.971642374992370605e-03 -1.072225645184516907e-01 3.188850730657577515e-02
4.220000000000000000e+02 6.769297790527343750e+01 -1.362757778167724609e+01 2.328638315200805664e+00 1.679954147338867188e+01 5.738453865051269531e+00 6.137988090515136719e+00
4.230000000000000000e+02 6.483455657958984375e+01 -1.853571128845214844e+01 2.048676729202270508e+00 4.359767913818359375e+00 1.922533392906188965e+00 2.889269113540649414e+00
4.240000000000000000e+02 6.331937026977539062e+01 -2.149233436584472656e+01 4.008197486400604248e-01 2.554465532302856445e+00 8.865855932235717773e-01 1.272626757621765137e+00
4.250000000000000000e+02 2.592286682128906250e+01 -3.055690574645996094e+01 9.704153984785079956e-03 4.882249340880662203e-04 3.057713620364665985e-03 -1.662742113694548607e-03
4.260000000000000000e+02 2.214766502380371094e+01 -2.748720359802246094e+01 4.105428233742713928e-03 7.941102958284318447e-04 1.469861483201384544e-03 -1.930439029820263386e-03
4.270000000000000000e+02 1.146834278106689453e+01 -1.163317871093750000e+01 1.663966031628660858e-05 2.245710129500366747e-05 1.172902830148814246e-05 -1.164849891210906208e-05
4.280000000000000000e+02 1.205842208862304688e+01 -1.123556804656982422e+01 -2.591997690615244210e-05 -2.227090226369909942e-05 -1.445726411475334316e-05 6.399939593393355608e-06
4.290000000000000000e+02 1.414249134063720703e+01 -1.226089000701904297e+01 7.565033115497499239e-07 -5.885318387299776077e-06 -1.538644482934614643e-06 -1.723644231788057368e-06
4.300000000000000000e+02 1.268420314788818359e+01 -1.173464870452880859e+01 1.459743634768528864e-05 -2.713502169626735849e-07 4.297825853427639231e-06 5.287342446536058560e-06
4.310000000000000000e+02 1.933467674255371094e+01 -7.762266159057617188e+00 4.827023531106533483e-06 1.278473064303398132e-06 1.831649001360347029e-06 2.081275852106045932e-06
4.320000000000000000e+02 1.513021945953369141e+01 -1.194997406005859375e+01 8.287678383567254059e-07 -3.411047373447217979e-06 -7.746838264210964553e-07 -2.202581157462191186e-07
4.330000000000000000e+02 1.560829067230224609e+01 -1.291584014892578125e+01 -9.474524063080025371e-07 -5.936226443736813962e-06 -2.065103672066470608e-06 -2.379710394961875863e-06
4.340000000000000000e+02 2.262588691711425781e+01 -1.337702178955078125e+01 -4.136151346756378189e-06 -8.343114927811257076e-07 -1.491138959863747004e-06 -1.703835891930793878e-06
4.350000000000000000e+02 2.124494552612304688e+01 -1.074801635742187500e+01 -3.488903530524112284e-06 -2.298997969774063677e-06 -1.736370450089452788e-06 -2.323624812561320141e-06
4.360000000000000000e+02 2.222686576843261719e+01 -1.603762054443359375e+01 4.025872044621792156e-07 8.613826025793969166e-07 3.791909364281309536e-07 8.308355177177872974e-07
4.370000000000000000e+02 2.272672271728515625e+01 -1.535103893280029297e+01 -7.980998617540535633e-08 -1.286147607970633544e-06 -4.097872761121834628e-07 -6.749716590093157720e-07
4.380000000000000000e+02 1.723031044006347656e+01 -5.299031257629394531e+00 4.243144303472945467e-06 2.829993945852038451e-06 2.121941406585392542e-06 8.066089662861486431e-07
4.390000000000000000e+02 1.657411575317382812e+01 -4.741940975189208984e+00 -4.812166480405721813e-06 -2.978918246299144812e-06 -2.337325440748827532e-06 -1.295548486268671695e-06
4.400000000000000000e+02 1.355952548980712891e+01 -3.038467168807983398e+00 -2.707459771045250818e-06 -3.890894276992185041e-06 -1.979506123461760581e-06 -1.122096023209451232e-06
4.410000000000000000e+02 4.871054840087890625e+01 6.480103492736816406e+00 8.748783729970455170e-03 4.736218601465225220e-03 4.045500420033931732e-03 1.958166807889938354e-02
4.420000000000000000e+02 4.573464584350585938e+01 6.599875450134277344e+00 -9.737263433635234833e-03 2.565207779407501221e-01 7.403504848480224609e-02 -1.009445562958717346e-01
4.430000000000000000e+02 4.457717132568359375e+01 6.838573455810546875e+00 -5.627304688096046448e-02 4.699326455593109131e-01 1.240978837013244629e-01 -1.222141161561012268e-01
4.440000000000000000e+02 3.986937332153320312e+01 6.269398689270019531e+00 -1.767181605100631714e-01 7.052753567695617676e-01 1.585671603679656982e-01 3.298103213310241699e-01
4.450000000000000000e+02 3.420553970336914062e+01 -5.659893035888671875e+00 -6.652332544326782227e-01 2.505366206169128418e-01 -1.244089901447296143e-01 3.399297595024108887e-01
4.460000000000000000e+02 3.183389472961425781e+01 -4.846863746643066406e+00 -6.603960990905761719e-01 1.940338611602783203e-01 -1.399086713790893555e-01 3.575666248798370361e-01
4.470000000000000000e+02 2.641567039489746094e+01 -5.776988506317138672e+00 -8.027285337448120117e-01 -1.147119030356407166e-01 -2.752321362495422363e-01 5.010640621185302734e-01
4.480000000000000000e+02 4.634430313110351562e+01 7.166169643402099609e+00 4.388131201267242432e-02 1.406224519014358521e-01 5.535112693905830383e-02 -8.430152386426925659e-02
4.490000000000000000e+02 4.463979339599609375e+01 8.972460746765136719e+00 2.146854400634765625e-01 4.250363409519195557e-01 1.919165253639221191e-01 -3.026178181171417236e-01
4.500000000000000000e+02 4.329249572753906250e+01 1.098804187774658203e+01 2.328523695468902588e-01 2.095029354095458984e+00 6.983644962310791016e-01 -4.238131046295166016e-01
4.510000000000000000e+02 4.269476318359375000e+01 1.071344947814941406e+01 2.347706556320190430e-01 1.650653839111328125e+00 5.656273365020751953e-01 -9.514002501964569092e-02
4.520000000000000000e+02 4.302730941772460938e+01 1.336923694610595703e+01 1.106448620557785034e-01 2.593871355056762695e+00 8.113548755645751953e-01 2.545476257801055908e-01
4.530000000000000000e+02 4.500677490234375000e+01 1.725044250488281250e+01 7.819024324417114258e-01 7.519003152847290039e-01 4.601408243179321289e-01 7.386117577552795410e-01
4.540000000000000000e+02 4.723830032348632812e+01 1.834743309020996094e+01 1.610519886016845703e-01 1.594899892807006836e-01 9.616259485483169556e-02 1.977947652339935303e-01
4.550000000000000000e+02 1.789326477050781250e+01 -2.925467109680175781e+01 2.360320184379816055e-03 -7.321413722820580006e-04 4.884536610916256905e-04 8.079221588559448719e-04
4.560000000000000000e+02 1.847540855407714844e+01 -3.105659294128417969e+01 2.122180070728063583e-03 -7.635775837115943432e-04 4.075807810295373201e-04 1.448304043151438236e-03
4.570000000000000000e+02 1.711679649353027344e+01 -2.348072814941406250e+01 4.872050776612013578e-04 2.761999494396150112e-04 2.290215052198618650e-04 -2.947822504211217165e-04
4.580000000000000000e+02 5.844268798828125000e+00 -3.011410331726074219e+01 3.259700315538793802e-04 2.781556977424770594e-04 1.812377158785238862e-04 5.083146970719099045e-04
4.590000000000000000e+02 5.020476913452148438e+01 -2.978681755065917969e+01 -1.318408131599426270e+00 -3.044011890888214111e-01 -4.868427813053131104e-01 -6.075754761695861816e-01
4.600000000000000000e+02 5.380814361572265625e+01 -2.998653221130371094e+01 -7.948474287986755371e-01 -2.339269965887069702e-01 -3.086323440074920654e-01 -4.641868472099304199e-01
4.610000000000000000e+02 6.253931045532226562e+01 -3.195449447631835938e+01 -1.177277714014053345e-01 3.124146223068237305e+00 9.019255042076110840e-01 4.785205423831939697e-01
4.620000000000000000e+02 7.392517089843750000e+01 -3.227571105957031250e+01 -1.968595683574676514e-01 8.350518226623535156e+00 2.446097612380981445e+00 -6.663225591182708740e-02
4.630000000000000000e+02 7.964657592773437500e+01 -5.981103420257568359e+00 -5.937637179158627987e-04 5.435048103332519531e+00 1.630336284637451172e+00 2.221930027008056641e-01
4.640000000000000000e+02 5.263137817382812500e+01 -1.416564941406250000e+01 -1.243292212486267090e+00 -3.495098054409027100e-01 -4.778406322002410889e-01 -6.569095849990844727e-01
4.650000000000000000e+02 4.256764984130859375e+01 -6.988910198211669922e+00 -7.930421829223632812e-01 3.206440508365631104e-01 -1.417194306850433350e-01 2.080286592245101929e-01
4.660000000000000000e+02 4.539748382568359375e+01 -4.411942660808563232e-01 -4.031739234924316406e-01 3.227109909057617188e-01 -2.413887530565261841e-02 2.259422987699508667e-01
4.670000000000000000e+02 4.708851242065429688e+01 6.727268218994140625e+00 2.830719109624624252e-03 6.238928437232971191e-02 1.956600137054920197e-02 -3.793280944228172302e-02
4.680000000000000000e+02 3.448084259033203125e+01 -1.814964485168457031e+01 -3.962871134281158447e-01 1.686313189566135406e-02 -1.138271912932395935e-01 7.326816767454147339e-02
4.690000000000000000e+02 3.482137680053710938e+01 -1.386014080047607422e+01 -5.849968791007995605e-01 1.023853644728660583e-01 -1.447834521532058716e-01 2.181018441915512085e-01
4.700000000000000000e+02 4.469401550292968750e+01 -1.373769950866699219e+01 -8.940171599388122559e-01 1.121068298816680908e-01 -2.345730960369110107e-01 -8.759492635726928711e-02
4.710000000000000000e+02 7.430841827392578125e+01 3.107598543167114258e+00 -5.276454091072082520e-01 7.923923969268798828e+00 2.218883752822875977e+00 -1.392152756452560425e-01
4.720000000000000000e+02 7.964279937744140625e+01 1.230624437332153320e+00 -2.793952357023954391e-03 8.607197761535644531e+00 2.581321239471435547e+00 8.408677577972412109e-02
4.730000000000000000e+02 6.202817916870117188e+01 -6.374217987060546875e+00 -2.657261133193969727e+00 -3.973384201526641846e-01 -9.163798689842224121e-01 -8.758789896965026855e-01
4.740000000000000000e+02 5.224997329711914062e+01 -7.042402744293212891e+00 -1.282132029533386230e+00 2.934095263481140137e-01 -2.966167628765106201e-01 1.840768009424209595e-02
4.750000000000000000e+02 7.403092956542968750e+01 8.062367439270019531e+00 -1.587648242712020874e-01 7.232193946838378906e+00 2.122028827667236328e+00 -5.134344100952148438e-01
4.760000000000000000e+02 7.963896942138671875e+01 8.448834419250488281e+00 -2.251031342893838882e-03 8.647962570190429688e+00 2.593713521957397461e+00 -2.115272730588912964e-02
4.770000000000000000e+02 6.029327774047851562e+01 6.372389793395996094e+00 2.066145837306976318e-01 2.891376733779907227e+00 9.293974041938781738e-01 -8.022327423095703125e-01
4.780000000000000000e+02 5.416885757446289062e+01 6.017491817474365234e+00 2.208685725927352905e-01 1.024550437927246094e+00 3.736256957054138184e-01 3.213797509670257568e-01
4.790000000000000000e+02 7.350689697265625000e+01 1.558018875122070312e+01 7.782859355211257935e-02 6.536005496978759766e+00 1.984150290489196777e+00 -5.096837282180786133e-01
4.800000000000000000e+02 7.963146972656250000e+01 1.566648674011230469e+01 -1.037214999087154865e-03 7.836799621582031250e+00 2.350728750228881836e+00 -3.015601076185703278e-02
4.810000000000000000e+02 5.978848266601562500e+01 1.265098476409912109e+01 6.299395561218261719e-01 3.461794853210449219e+00 1.227520346641540527e+00 -7.107161879539489746e-01
4.820000000000000000e+02 7.315085601806640625e+01 2.343005561828613281e+01 8.234463632106781006e-02 6.106385231018066406e+00 1.856619000434875488e+00 -3.474512100219726562e-01
4.830000000000000000e+02 7.961853027343750000e+01 2.208027076721191406e+01 -9.558568708598613739e-04 7.271515846252441406e+00 2.181168079376220703e+00 -2.103249728679656982e-02
4.840000000000000000e+02 6.199708557128906250e+01 1.475908470153808594e+01 5.718573927879333496e-01 3.891249418258666992e+00 1.338932037353515625e+00 -7.032041549682617188e-01
4.850000000000000000e+02 2.682189559936523438e+01 1.481192970275878906e+01 -3.369162380695343018e-01 -6.624551415443420410e-01 -2.998113930225372314e-01 3.061357140541076660e-01
4.860000000000000000e+02 1.456075477600097656e+01 1.003403186798095703e+01 -2.685716003179550171e-02 -1.297402501106262207e+00 -3.972779214382171631e-01 1.767674684524536133e-01
4.870000000000000000e+02 1.377444362640380859e+01 1.022334289550781250e+01 -1.145780235528945923e-01 -1.149599671363830566e+00 -3.792532980442047119e-01 5.418000817298889160e-01
4.880000000000000000e+02 2.642135620117187500e+01 1.175464630126953125e+01 -4.217383563518524170e-01 -8.884808421134948730e-01 -3.930657804012298584e-01 6.061079502105712891e-01
4.890000000000000000e+02 3.878903961181640625e+01 1.223627662658691406e+01 3.050183057785034180e-01 9.143080711364746094e-01 3.657979369163513184e-01 4.006604254245758057e-01
4.900000000000000000e+02 1.091975927352905273e+00 1.610524368286132812e+01 7.003236562013626099e-03 -9.374890923500061035e-01 -2.791457474231719971e-01 1.027496159076690674e-01
4.910000000000000000e+02 7.298671722412109375e+01 3.225151824951171875e+01 7.087788730859756470e-02 5.805023193359375000e+00 1.762770414352416992e+00 -1.807416975498199463e-01
4.920000000000000000e+02 7.959312438964843750e+01 2.933288955688476562e+01 -1.528230612166225910e-03 6.886538982391357422e+00 2.065503120422363281e+00 -1.185382995754480362e-02
4.930000000000000000e+02 6.152261734008789062e+01 2.608292579650878906e+01 2.973022460937500000e-01 3.898997545242309570e+00 1.258889913558959961e+00 -5.028457045555114746e-01
4.940000000000000000e+02 5.613116836547851562e+01 2.207174682617187500e+01 3.341215848922729492e-01 2.763686418533325195e+00 9.293423891067504883e-01 -6.993620395660400391e-01
4.950000000000000000e+02 5.224562835693359375e+01 2.083560752868652344e+01 5.093209743499755859e-01 1.175108909606933594e+00 5.053289532661437988e-01 -6.636584401130676270e-01
4.960000000000000000e+02 4.562124252319335938e+01 2.163266944885253906e+01 4.179238677024841309e-01 8.786616325378417969e-01 3.889756500720977783e-01 4.484210908412933350e-01
4.970000000000000000e+02 3.834998703002929688e+01 2.379225730895996094e+01 3.308702707290649414e-01 7.966066598892211914e-01 3.382430672645568848e-01 2.015860080718994141e-01
4.980000000000000000e+02 2.908539390563964844e+01 2.092257499694824219e+01 3.268266320228576660e-01 -1.468432247638702393e-01 5.399501696228981018e-02 2.172892540693283081e-01
4.990000000000000000e+02 2.161912345886230469e+01 2.317317008972167969e+01 3.157160878181457520e-01 -2.476730942726135254e-01 2.041289582848548889e-02 5.479372739791870117e-01
5.000000000000000000e+02 1.825984191894531250e+01 2.218552970886230469e+01 1.933510005474090576e-01 -6.720293313264846802e-02 3.784441947937011719e-02 5.256946682929992676e-01
5.010000000000000000e+02 6.638169288635253906e+00 2.711099815368652344e+01 4.324646294116973877e-02 -9.149802327156066895e-01 -2.615201175212860107e-01 1.138551458716392517e-01
5.020000000000000000e+02 1.125815510749816895e+00 2.335344505310058594e+01 3.810946131125092506e-03 -1.339772939682006836e+00 -4.007885754108428955e-01 3.066653013229370117e-02
5.030000000000000000e+02 6.478977203369140625e+01 3.187921333312988281e+01 2.638754546642303467e-01 4.389470577239990234e+00 1.396003723144531250e+00 -2.997934818267822266e-01
5.040000000000000000e+02 5.843460083007812500e+01 3.087915802001953125e+01 4.296824336051940918e-01 3.232809782028198242e+00 1.098747611045837402e+00 -3.404565751552581787e-01
5.050000000000000000e+02 4.504329681396484375e+01 3.508366394042968750e+01 6.775551438331604004e-01 1.316780090332031250e+00 5.983005762100219727e-01 3.390192613005638123e-02
5.060000000000000000e+02 4.381733703613281250e+01 2.905039978027343750e+01 6.024624109268188477e-01 1.069410324096679688e+00 5.015618205070495605e-01 1.524527519941329956e-01
5.070000000000000000e+02 4.070906829833984375e+01 3.347364044189453125e+01 6.066771745681762695e-01 9.170407652854919434e-01 4.571153819561004639e-01 1.008972451090812683e-01
5.080000000000000000e+02 2.900965118408203125e+01 3.316853713989257812e+01 4.630967676639556885e-01 1.284420937299728394e-01 1.774616539478302002e-01 1.885850876569747925e-01
5.090000000000000000e+02 2.438531112670898438e+01 3.040347862243652344e+01 3.654665350914001465e-01 -1.133042573928833008e-01 7.564868777990341187e-02 2.971540987491607666e-01
5.100000000000000000e+02 1.593764495849609375e+01 2.988344383239746094e+01 1.420665681362152100e-01 -3.641053736209869385e-01 -6.661164015531539917e-02 2.677699029445648193e-01
5.110000000000000000e+02 5.695823669433593750e+00 3.263468170166015625e+01 1.470423117280006409e-02 -1.077816128730773926e+00 -3.189335763454437256e-01 5.596563592553138733e-02
5.120000000000000000e+02 1.253349661827087402e+00 3.057892608642578125e+01 3.068944788537919521e-04 -1.450862646102905273e+00 -4.351667165756225586e-01 1.316850166767835617e-02
5.130000000000000000e+02 2.646980857849121094e+01 5.135971546173095703e+00 4.045128822326660156e-01 -7.005078345537185669e-02 1.003386303782463074e-01 2.636068761348724365e-01
5.140000000000000000e+02 8.565091133117675781e+00 -1.908277988433837891e+00 -2.570424157966044731e-06 -1.672314169809396844e-06 -1.272821464226581156e-06 -7.645462574146222323e-07
5.150000000000000000e+02 6.931793212890625000e+00 -1.887518048286437988e+00 -2.903764425354893319e-06 -1.345327177659783047e-06 -1.274727424060984049e-06 -4.533763160452508600e-07
5.160000000000000000e+02 6.113605976104736328e+00 -1.881825089454650879e+00 3.244068466301541775e-06 1.251223807230417151e-06 1.348587716165638994e-06 4.823308472623466514e-07
5.170000000000000000e+02 5.296804904937744141e+00 -1.879212498664855957e+00 -3.017264816662645899e-06 -1.281259301322279498e-06 -1.289557189920742530e-06 -3.797694034801679663e-07
5.180000000000000000e+02 4.479695796966552734e+00 -1.879521489143371582e+00 3.358620915605570190e-06 1.214713051922444720e-06 1.372000156152353156e-06 5.931183295615483075e-07
5.190000000000000000e+02 1.194566249847412109e+00 -6.639564514160156250e+00 1.910848186525981873e-05 -1.292239062422595453e-06 5.344872533896705136e-06 3.363004452694440261e-06
5.200000000000000000e+02 1.166342973709106445e+00 -5.823943614959716797e+00 -1.528157372376881540e-05 -1.071829615284514148e-06 -4.906020876660477370e-06 -4.250564415997359902e-06
5.210000000000000000e+02 1.976640701293945312e+00 -6.554191589355468750e+00 -1.265916216652840376e-05 8.537742246517154854e-08 -3.772135642066132277e-06 -7.783418368489947170e-06
5.220000000000000000e+02 3.960402011871337891e-01 -2.693546533584594727e+00 6.826670869486406446e-06 3.746862660136685008e-07 2.160407120754825883e-06 5.563587706092221197e-07
5.230000000000000000e+02 4.041531682014465332e-01 -1.897382259368896484e+00 -4.678029199567390606e-06 -1.381399528099791496e-07 -1.444850681764364708e-06 -2.511326897547405679e-07
5.240000000000000000e+02 4.594340324401855469e-01 -4.203777694702148438e+01 7.072162588883657008e-06 1.724469708278775215e-03 5.194625700823962688e-04 2.602326276246458292e-06
5.250000000000000000e+02 5.852205157279968262e-01 -4.117312240600585938e+01 -4.941933730151504278e-05 1.717744744382798672e-03 5.004976410418748856e-04 1.058664565789513290e-05
5.260000000000000000e+02 5.918728113174438477e-01 -4.036783981323242188e+01 -1.511741720605641603e-05 1.674040686339139938e-03 4.976769560016691685e-04 7.051610009511932731e-05
5.270000000000000000e+02 5.275210738182067871e-01 -3.876824951171875000e+01 -1.855722366599366069e-04 1.554771326482295990e-03 4.107597342226654291e-04 3.591912536649033427e-05
5.280000000000000000e+02 5.778714418411254883e-01 -3.955820465087890625e+01 9.497649443801492453e-05 1.598829519934952259e-03 5.081417621113359928e-04 2.783659147098660469e-05
5.290000000000000000e+02 3.772943913936614990e-01 -3.723565292358398438e+01 -2.135225076926872134e-04 1.378642977215349674e-03 3.495361597742885351e-04 7.112500952644040808e-06
5.300000000000000000e+02 3.899268507957458496e-01 -3.566717529296875000e+01 -1.348149235127493739e-04 1.183806103654205799e-03 3.146973613183945417e-04 4.220921618980355561e-05
5.310000000000000000e+02 3.996468484401702881e-01 -3.486659622192382812e+01 1.072613376891240478e-04 1.084454357624053955e-03 3.575147129595279694e-04 5.764089655713178217e-05
5.320000000000000000e+02 4.048645496368408203e-01 -3.406141662597656250e+01 -9.747857257025316358e-05 9.656664915382862091e-04 2.604563778731971979e-04 5.907306695007719100e-05
5.330000000000000000e+02 4.052900373935699463e-01 -3.325542449951171875e+01 8.966728637460619211e-05 8.536059176549315453e-04 2.829819568432867527e-04 5.696501102647744119e-05
5.340000000000000000e+02 4.017941653728485107e-01 -3.245039749145507812e+01 -8.284536306746304035e-05 7.357504218816757202e-04 1.958715147338807583e-04 5.865028651896864176e-05
5.350000000000000000e+02 1.221669197082519531e+00 -3.326052474975585938e+01 -9.620267519494518638e-05 7.898530457168817520e-04 2.080951089737936854e-04 1.681740250205621123e-04
5.360000000000000000e+02 3.961792886257171631e-01 -3.164773750305175781e+01 8.678664016770198941e-05 6.331349140964448452e-04 2.159764699172228575e-04 4.631569026969373226e-05
5.370000000000000000e+02 3.776143491268157959e-01 -2.924393463134765625e+01 -9.692271851236000657e-05 3.397523541934788227e-04 7.284889579750597477e-05 4.721744335256516933e-05
5.380000000000000000e+02 3.724623322486877441e-01 -2.844224739074707031e+01 1.011254280456341803e-04 2.608644135762006044e-04 1.085969561245292425e-04 2.978640986839309335e-05
5.390000000000000000e+02 3.698275983333587646e-01 -2.764188957214355469e+01 -9.221010259352624416e-05 1.881433418020606041e-04 2.877997394534759223e-05 3.401515641598962247e-05
5.400000000000000000e+02 3.700478374958038330e-01 -2.684224128723144531e+01 8.958477701526135206e-05 1.317998539889231324e-04 6.641538493568077683e-05 2.136357579729519784e-05
5.410000000000000000e+02 3.711681962013244629e-01 -2.604181861877441406e+01 -7.911069405963644385e-05 7.647385791642591357e-05 -7.910500698926625773e-07 2.633703479659743607e-05
5.420000000000000000e+02 3.715602755546569824e-01 -2.524028396606445312e+01 7.883736543590202928e-05 4.162142067798413336e-05 3.613763692555949092e-05 9.899086762743536383e-06
5.430000000000000000e+02 1.123182415962219238e+00 -2.609906005859375000e+01 9.700325608719140291e-05 1.251478970516473055e-04 6.664534885203465819e-05 5.370175495045259595e-05
5.440000000000000000e+02 3.705145418643951416e-01 -2.443679809570312500e+01 -7.323511090362444520e-05 4.618744242179673165e-06 -2.058491008938290179e-05 2.063912143057677895e-05
5.450000000000000000e+02 3.608272075653076172e-01 -2.201941680908203125e+01 7.960598304634913802e-05 -4.066599649377167225e-05 1.168199560197535902e-05 -5.131316356710158288e-06
5.460000000000000000e+02 3.577054738998413086e-01 -2.121463584899902344e+01 -7.988568540895357728e-05 -4.851939229411073029e-05 -3.852152440231293440e-05 9.006392247101757675e-06
5.470000000000000000e+02 3.547996282577514648e-01 -2.041092300415039062e+01 8.258482557721436024e-05 -4.633090793504379690e-05 1.087617602024693042e-05 -7.825744432921055704e-06
5.480000000000000000e+02 3.519771993160247803e-01 -1.960741806030273438e+01 -8.141982834786176682e-05 -4.605728099704720080e-05 -3.824313535005785525e-05 4.768419330503093079e-06
5.490000000000000000e+02 3.495937287807464600e-01 -1.880425071716308594e+01 8.028360753087326884e-05 -3.956944783567450941e-05 1.221424827235750854e-05 -7.720663234067615122e-06
5.500000000000000000e+02 1.739801883697509766e+00 -1.969520378112792969e+01 -8.208792860386893153e-05 -1.178064940177137032e-05 -2.816057349264156073e-05 1.554503796796780080e-05
5.510000000000000000e+02 3.486613631248474121e-01 -1.800097274780273438e+01 -7.635063957422971725e-05 -3.535926589393056929e-05 -3.351296982145868242e-05 1.582351387696689926e-06
5.520000000000000000e+02 3.527541458606719971e-01 -1.558732509613037109e+01 6.134561408543959260e-05 -1.590245483384933323e-05 1.363294904876966029e-05 -4.797295332537032664e-06
5.530000000000000000e+02 3.527178764343261719e-01 -1.478364849090576172e+01 -5.771851647295989096e-05 -1.358442932541947812e-05 -2.139088428521063179e-05 8.391475034841278102e-07
5.540000000000000000e+02 3.523109257221221924e-01 -1.398101711273193359e+01 5.340878124115988612e-05 -8.110338967526331544e-06 1.358953250019112602e-05 -3.840209501504432410e-06
5.550000000000000000e+02 3.523612022399902344e-01 -1.317757415771484375e+01 -4.935994365951046348e-05 -6.673704319837270305e-06 -1.681009416643064469e-05 8.595105214226350654e-07
5.560000000000000000e+02 3.535890877246856689e-01 -1.237262439727783203e+01 4.454015288501977921e-05 -3.389933226571884006e-06 1.234506635228171945e-05 -2.197205503762234002e-06
5.570000000000000000e+02 3.575341701507568359e-01 -1.156741714477539062e+01 -4.014697697130031884e-05 -2.741056960076093674e-06 -1.286641054321080446e-05 2.170022526115644723e-07
5.580000000000000000e+02 1.758002400398254395e+00 -1.248975086212158203e+01 4.859196269535459578e-05 3.070976788421830861e-07 1.466971843910869211e-05 -3.591045469875098206e-06
5.590000000000000000e+02 3.659990727901458740e-01 -1.076126670837402344e+01 3.506635403027758002e-05 -9.366994504489412066e-07 1.023889581119874492e-05 -5.960949351901945192e-07
5.600000000000000000e+02 4.057841598987579346e-01 -8.323584556579589844e+00 -2.420527198410127312e-05 -2.273399672958476003e-07 -7.329783784371102229e-06 -3.115334266112768091e-07
5.610000000000000000e+02 4.069430828094482422e-01 -7.510842800140380859e+00 2.305009729752782732e-05 3.599470517201552866e-07 7.023013495199847966e-06 5.207997446632361971e-07
5.620000000000000000e+02 3.984844684600830078e-01 -6.699088096618652344e+00 -2.157532799174077809e-05 5.416373483058123384e-07 -6.310106982709839940e-06 -1.481576077821955550e-06
5.630000000000000000e+02 3.897303044795989990e-01 -5.890658855438232422e+00 1.903121483337599784e-05 5.435189223135239445e-07 5.872419933439232409e-06 2.333772954443702474e-06
5.640000000000000000e+02 3.859040439128875732e-01 -5.088201999664306641e+00 -1.561348835821263492e-05 -4.849065362577675842e-07 -4.829518275073496625e-06 -2.174910832763998769e-06
5.650000000000000000e+02 3.866405785083770752e-01 -4.289255142211914062e+00 1.219931164087029174e-05 8.340253430105804000e-07 3.910001396434381604e-06 1.564747435622848570e-06
5.660000000000000000e+02 3.903245031833648682e-01 -3.491283893585205078e+00 -9.280758604290895164e-06 -3.149268934521387564e-07 -2.878705799957970157e-06 -9.162215519609162584e-07
5.670000000000000000e+02 7.953880310058593750e+01 -4.202362823486328125e+01 6.100320257246494293e-03 1.061474704742431641e+01 3.186254024505615234e+00 6.398675497621297836e-03
5.680000000000000000e+02 7.940360260009765625e+01 -4.112244033813476562e+01 -2.947939792647957802e-03 1.062732505798339844e+01 3.187313318252563477e+00 1.150436233729124069e-02
5.690000000000000000e+02 7.545969390869140625e+01 -3.941057205200195312e+01 -1.748539507389068604e-02 8.958104133605957031e+00 2.682185411453247070e+00 4.125695303082466125e-02
5.700000000000000000e+02 5.249480438232421875e+01 -3.791265106201171875e+01 5.066311359405517578e-01 7.998634874820709229e-02 1.759852468967437744e-01 -1.222008243203163147e-01
5.710000000000000000e+02 1.321778583526611328e+01 -4.104438781738281250e+01 -1.441586413420736790e-03 8.566732285544276237e-04 -1.754739641910418868e-04 3.309058956801891327e-04
5.720000000000000000e+02 1.812912821769714355e+00 -4.010034179687500000e+01 1.059488422470167279e-04 1.299570314586162567e-03 4.216557717882096767e-04 2.031942676694598049e-05
5.730000000000000000e+02 1.589014649391174316e+00 -4.193888473510742188e+01 -3.483586988295428455e-05 1.445449888706207275e-03 4.231841885484755039e-04 3.589631160139106214e-05
5.740000000000000000e+02 7.956935119628906250e+01 4.204786682128906250e+01 6.152526475489139557e-03 6.611418724060058594e+00 1.985271334648132324e+00 -6.986063905060291290e-03
5.750000000000000000e+02 7.879200744628906250e+01 3.859030151367187500e+01 4.301163367927074432e-03 6.534065246582031250e+00 1.961509943008422852e+00 -1.456397771835327148e-02
5.760000000000000000e+02 7.578491973876953125e+01 3.940018081665039062e+01 2.812862396240234375e-02 6.166675567626953125e+00 1.858441233634948730e+00 -6.328266113996505737e-02
5.770000000000000000e+02 7.954694366455078125e+01 3.958626556396484375e+01 3.704819129779934883e-03 6.619067192077636719e+00 1.986831545829772949e+00 -3.062586183659732342e-04
5.780000000000000000e+02 7.964663696289062500e+01 3.803408050537109375e+01 2.286872360855340958e-03 6.632993221282958984e+00 1.990584015846252441e+00 -3.629032755270600319e-03
5.790000000000000000e+02 7.967185974121093750e+01 3.726036453247070312e+01 4.039994964841753244e-04 6.648133754730224609e+00 1.994561314582824707e+00 -6.984313018620014191e-03
5.800000000000000000e+02 7.961711120605468750e+01 3.492728805541992188e+01 4.268361255526542664e-03 6.710267066955566406e+00 2.014360666275024414e+00 -7.900075055658817291e-03
5.810000000000000000e+02 7.962389373779296875e+01 3.412531280517578125e+01 -3.913287539035081863e-03 6.730430126190185547e+00 2.017955064773559570e+00 -7.219607476145029068e-03
5.820000000000000000e+02 7.962605285644531250e+01 3.332572174072265625e+01 3.920223098248243332e-03 6.751482009887695312e+00 2.026620626449584961e+00 -8.247468620538711548e-03
5.830000000000000000e+02 7.961665344238281250e+01 3.173501968383789062e+01 2.748947590589523315e-03 6.801444530487060547e+00 2.041258096694946289e+00 -1.045045163482427597e-02
5.840000000000000000e+02 7.960955810546875000e+01 3.093729019165039062e+01 -2.249196637421846390e-03 6.828672409057617188e+00 2.047926902770996094e+00 -1.012514252215623856e-02
5.850000000000000000e+02 7.880159759521484375e+01 3.027156829833984375e+01 -2.453055349178612232e-04 6.744013309478759766e+00 2.023130416870117188e+00 -3.935112804174423218e-02
5.860000000000000000e+02 7.958575439453125000e+01 2.772180557250976562e+01 3.624384407885372639e-04 6.951766014099121094e+00 2.085638523101806641e+00 -1.481704600155353546e-02
5.870000000000000000e+02 7.958639526367187500e+01 2.691405487060546875e+01 -1.224745501531288028e-04 6.988183975219726562e+00 2.096418380737304688e+00 -1.499804854393005371e-02
5.880000000000000000e+02 7.958978271484375000e+01 2.610709953308105469e+01 1.819894998334348202e-03 7.027714252471923828e+00 2.108860254287719727e+00 -1.690905168652534485e-02
5.890000000000000000e+02 7.959486389160156250e+01 2.530098724365234375e+01 -9.123349445872008801e-04 7.070361614227294922e+00 2.120834827423095703e+00 -1.753049530088901520e-02
5.900000000000000000e+02 7.960076141357421875e+01 2.449501609802246094e+01 1.731687341816723347e-03 7.116043567657470703e+00 2.135332584381103516e+00 -1.863924227654933929e-02
5.910000000000000000e+02 7.877226257324218750e+01 2.537215042114257812e+01 3.957606386393308640e-03 6.949881553649902344e+00 2.086151599884033203e+00 -6.071770191192626953e-02
5.920000000000000000e+02 7.961343383789062500e+01 2.288426017761230469e+01 1.722736982628703117e-03 7.216532707214355469e+00 2.165476560592651367e+00 -2.038339525461196899e-02
5.930000000000000000e+02 7.962435913085937500e+01 2.047749137878417969e+01 -8.509026374667882919e-04 7.391386508941650391e+00 2.217160701751708984e+00 -2.308604307472705841e-02
5.940000000000000000e+02 7.962553405761718750e+01 1.967587852478027344e+01 1.902920543216168880e-03 7.456492900848388672e+00 2.237518787384033203e+00 -2.445833571255207062e-02
5.950000000000000000e+02 7.962657165527343750e+01 1.887430000305175781e+01 -7.195188081823289394e-04 7.525050163269042969e+00 2.257299184799194336e+00 -2.561547979712486267e-02
5.960000000000000000e+02 7.962766265869140625e+01 1.807283020019531250e+01 1.824080594815313816e-03 7.597598552703857422e+00 2.279826879501342773e+00 -2.704165130853652954e-02
5.970000000000000000e+02 7.962994384765625000e+01 1.646881103515625000e+01 1.794868148863315582e-03 7.753573894500732422e+00 2.326610803604125977e+00 -2.941868640482425690e-02
5.980000000000000000e+02 7.963378906250000000e+01 1.406470966339111328e+01 -1.074384548701345921e-03 8.012462615966796875e+00 2.403416633605957031e+00 -3.146541491150856018e-02
5.990000000000000000e+02 7.963434600830078125e+01 1.326223754882812500e+01 1.193940173834562302e-03 8.104040145874023438e+00 2.431570291519165039e+00 -3.183154761791229248e-02
6.000000000000000000e+02 7.963518524169921875e+01 1.246014308929443359e+01 -1.166941365227103233e-03 8.197148323059082031e+00 2.458794355392456055e+00 -3.185841441154479980e-02
6.010000000000000000e+02 7.963607788085937500e+01 1.165807628631591797e+01 3.675997140817344189e-04 8.291347503662109375e+00 2.487514734268188477e+00 -3.114880062639713287e-02
6.020000000000000000e+02 7.963694763183593750e+01 1.085578918457031250e+01 -1.301066833548247814e-03 8.384956359863281250e+00 2.515096664428710938e+00 -3.019264154136180878e-02
6.030000000000000000e+02 7.963764953613281250e+01 1.005379867553710938e+01 -7.820230675861239433e-04 8.477081298828125000e+00 2.542889595031738281e+00 -2.796540781855583191e-02
6.040000000000000000e+02 7.891349792480468750e+01 1.010542392730712891e+01 -4.752277862280607224e-03 8.273495674133300781e+00 2.480623245239257812e+00 -1.067695990204811096e-01
6.050000000000000000e+02 7.964042663574218750e+01 6.846959590911865234e+00 -4.360484890639781952e-03 8.786225318908691406e+00 2.634559631347656250e+00 -9.508290328085422516e-03
6.060000000000000000e+02 7.964064788818359375e+01 6.044448852539062500e+00 -1.861374708823859692e-03 8.835870742797851562e+00 2.650202751159667969e+00 -2.941440325230360031e-03
6.070000000000000000e+02 7.964103698730468750e+01 5.242333889007568359e+00 -7.247958797961473465e-03 8.868491172790527344e+00 2.658372879028320312e+00 7.760015316307544708e-03
6.080000000000000000e+02 7.964137268066406250e+01 4.440268516540527344e+00 -2.240585163235664368e-03 8.878927230834960938e+00 2.663005828857421875e+00 1.787783205509185791e-02
6.090000000000000000e+02 7.964166259765625000e+01 3.637792825698852539e+00 -1.049980241805315018e-02 8.863265991210937500e+00 2.655829906463623047e+00 3.299840167164802551e-02
6.100000000000000000e+02 7.964208221435546875e+01 2.033216476440429688e+00 -1.337326318025588989e-02 8.731956481933593750e+00 2.615575075149536133e+00 6.645369529724121094e-02
6.110000000000000000e+02 7.964281463623046875e+01 -3.708816766738891602e-01 -3.062645206227898598e-03 8.218178749084472656e+00 2.464534759521484375e+00 1.278874576091766357e-01
6.120000000000000000e+02 7.964254760742187500e+01 -1.173991441726684570e+00 -1.703626103699207306e-02 7.948091506958007812e+00 2.379316568374633789e+00 1.523749530315399170e-01
6.130000000000000000e+02 7.964285278320312500e+01 -1.976119518280029297e+00 -1.575186382979154587e-03 7.625331878662109375e+00 2.287127017974853516e+00 1.729962229728698730e-01
6.140000000000000000e+02 7.964352416992187500e+01 -2.777508735656738281e+00 -1.515367161482572556e-02 7.254353046417236328e+00 2.171759843826293945e+00 1.938850432634353638e-01
6.150000000000000000e+02 7.964450073242187500e+01 -3.578765630722045898e+00 1.549307606182992458e-03 6.838609695434570312e+00 2.052047729492187500e+00 2.090619504451751709e-01
6.160000000000000000e+02 7.964598083496093750e+01 -5.179710388183593750e+00 5.331473890691995621e-03 5.914765834808349609e+00 1.776029229164123535e+00 2.261296361684799194e-01
6.170000000000000000e+02 7.964433288574218750e+01 -7.582137584686279297e+00 1.146757695823907852e-02 4.543179512023925781e+00 1.366394162178039551e+00 1.851711273193359375e-01
6.180000000000000000e+02 7.964271545410156250e+01 -8.383392333984375000e+00 1.384257990866899490e-02 4.175313949584960938e+00 1.256746888160705566e+00 1.572507023811340332e-01
6.190000000000000000e+02 7.964149475097656250e+01 -9.184133529663085938e+00 2.190570533275604248e-02 3.883448362350463867e+00 1.171606302261352539e+00 1.164045631885528564e-01
6.200000000000000000e+02 7.964114379882812500e+01 -9.984664916992187500e+00 1.609291322529315948e-02 3.681254625320434570e+00 1.109204292297363281e+00 7.495635002851486206e-02
6.210000000000000000e+02 7.964099884033203125e+01 -1.078560543060302734e+01 2.913489751517772675e-02 3.581253051757812500e+00 1.083116412162780762e+00 2.268256433308124542e-02
6.220000000000000000e+02 7.892013549804687500e+01 -9.912291526794433594e+00 1.041619926691055298e-01 4.665400028228759766e+00 1.430868625640869141e+00 2.046924829483032227e-01
6.230000000000000000e+02 7.963969421386718750e+01 -1.239165210723876953e+01 2.734371833503246307e-02 3.707039117813110352e+00 1.120314836502075195e+00 -7.568779587745666504e-02
6.240000000000000000e+02 7.964205169677734375e+01 -1.480156326293945312e+01 -2.847473660949617624e-05 4.570295333862304688e+00 1.371080040931701660e+00 -1.788954287767410278e-01
6.250000000000000000e+02 7.964228820800781250e+01 -1.560420989990234375e+01 2.144129388034343719e-02 4.984098434448242188e+00 1.501661896705627441e+00 -2.042938768863677979e-01
6.260000000000000000e+02 7.964239501953125000e+01 -1.640643692016601562e+01 -6.882605142891407013e-03 5.437146663665771484e+00 1.629079222679138184e+00 -2.171739488840103149e-01
6.270000000000000000e+02 7.964247894287109375e+01 -1.720827102661132812e+01 1.458441559225320816e-02 5.908827304840087891e+00 1.777023553848266602e+00 -2.267327308654785156e-01
6.280000000000000000e+02 7.964228057861328125e+01 -1.800967597961425781e+01 -9.005824103951454163e-03 6.391533851623535156e+00 1.914758443832397461e+00 -2.297879010438919067e-01
6.290000000000000000e+02 7.892770385742187500e+01 -1.715169334411621094e+01 6.649993360042572021e-03 6.372059345245361328e+00 1.913612842559814453e+00 -6.120828390121459961e-01
6.300000000000000000e+02 7.964031982421875000e+01 -1.961269760131835938e+01 -1.042708940804004669e-02 7.331953048706054688e+00 2.196457862854003906e+00 -2.215226888656616211e-01
6.310000000000000000e+02 7.963452148437500000e+01 -2.201776695251464844e+01 -1.637495006434619427e-03 8.554195404052734375e+00 2.565767526626586914e+00 -1.851535886526107788e-01
6.320000000000000000e+02 7.963142395019531250e+01 -2.282067298889160156e+01 -1.002258248627185822e-02 8.894665718078613281e+00 2.665392875671386719e+00 -1.708840727806091309e-01
6.330000000000000000e+02 7.962838745117187500e+01 -2.362370681762695312e+01 -3.760431194677948952e-03 9.197411537170410156e+00 2.758095264434814453e+00 -1.554764658212661743e-01
6.340000000000000000e+02 7.962593841552734375e+01 -2.442654228210449219e+01 -9.875131770968437195e-03 9.465551376342773438e+00 2.836703062057495117e+00 -1.397657096385955811e-01
6.350000000000000000e+02 7.962214660644531250e+01 -2.602875518798828125e+01 -9.870802983641624451e-03 9.898154258728027344e+00 2.966485023498535156e+00 -1.088279187679290771e-01
6.360000000000000000e+02 7.961346435546875000e+01 -2.842708015441894531e+01 -1.813489245250821114e-03 1.032426166534423828e+01 3.096734523773193359e+00 -7.148101180791854858e-02
6.370000000000000000e+02 7.960882568359375000e+01 -2.922864723205566406e+01 -7.093649357557296753e-03 1.042123031616210938e+01 3.124241113662719727e+00 -6.175995245575904846e-02
6.380000000000000000e+02 7.960357666015625000e+01 -3.003221511840820312e+01 -3.053524065762758255e-03 1.049711894989013672e+01 3.148219585418701172e+00 -5.137939378619194031e-02
6.390000000000000000e+02 7.959809875488281250e+01 -3.083678817749023438e+01 -5.754365585744380951e-03 1.055619049072265625e+01 3.165130853652954102e+00 -4.238994047045707703e-02
6.400000000000000000e+02 7.959323883056640625e+01 -3.163929176330566406e+01 1.349377707811072469e-04 1.060145568847656250e+01 3.180477142333984375e+00 -3.695063292980194092e-02
6.410000000000000000e+02 7.958820343017578125e+01 -3.323480224609375000e+01 8.970675058662891388e-03 1.065459346771240234e+01 3.199069261550903320e+00 -2.534829825162887573e-02
6.420000000000000000e+02 7.959783172607421875e+01 -3.563383483886718750e+01 -1.091245375573635101e-02 1.067998981475830078e+01 3.200723409652709961e+00 -1.127386651933193207e-02
6.430000000000000000e+02 7.960150909423828125e+01 -3.643719100952148438e+01 2.893868600949645042e-03 1.067592906951904297e+01 3.203647136688232422e+00 -4.437556024640798569e-03
6.440000000000000000e+02 7.961083221435546875e+01 -3.723859024047851562e+01 -2.882555709220468998e-04 1.067248916625976562e+01 3.201660156250000000e+00 -7.215052843093872070e-03
6.450000000000000000e+02 7.962980651855468750e+01 -3.803015899658203125e+01 1.852041459642350674e-03 1.067449951171875000e+01 3.202905654907226562e+00 -8.606881834566593170e-03
6.460000000000000000e+02 7.964417266845703125e+01 -3.880648803710937500e+01 -6.224978715181350708e-03 1.067397975921630859e+01 3.200326442718505859e+00 -2.755180932581424713e-03
6.470000000000000000e+02 7.948489379882812500e+01 -4.032393264770507812e+01 -3.522374667227268219e-03 1.064338588714599609e+01 3.191959142684936523e+00 7.075131405144929886e-03
6.480000000000000000e+02 5.034183859825134277e-01 4.198484802246093750e+01 -3.029004146810621023e-04 -1.575339198112487793e+00 -4.726926386356353760e-01 -2.532881917431950569e-04
6.490000000000000000e+02 6.512295007705688477e-01 4.107007598876953125e+01 2.210809325333684683e-04 -1.575689673423767090e+00 -4.726405739784240723e-01 -5.341592477634549141e-04
6.500000000000000000e+02 5.515001296997070312e+00 3.854126739501953125e+01 2.117180638015270233e-02 -1.142167448997497559e+00 -3.362986743450164795e-01 1.868243515491485596e-02
6.510000000000000000e+02 2.743939781188964844e+01 4.037897872924804688e+01 4.249068796634674072e-01 7.430335879325866699e-02 1.497630774974822998e-01 5.193580687046051025e-02
6.520000000000000000e+02 4.747792434692382812e+01 4.055611801147460938e+01 6.828196048736572266e-01 1.625850081443786621e+00 6.926009058952331543e-01 -9.179011918604373932e-03
6.530000000000000000e+02 7.090019989013671875e+01 3.817345428466796875e+01 1.029136553406715393e-01 5.403931617736816406e+00 1.652053594589233398e+00 -8.519659191370010376e-02
6.540000000000000000e+02 7.863597869873046875e+01 3.932276153564453125e+01 1.060037594288587570e-02 6.504681587219238281e+00 1.954584598541259766e+00 -4.848509095609188080e-03
6.550000000000000000e+02 7.948621368408203125e+01 4.118801879882812500e+01 -1.321792136877775192e-02 6.621882438659667969e+00 1.982599377632141113e+00 -5.380999296903610229e-03
6.560000000000000000e+02 3.810434341430664062e-01 1.892771124839782715e+00 -2.486122539266943932e-04 2.411838807165622711e-02 7.160932756960391998e-03 -7.777528371661901474e-03
6.570000000000000000e+02 1.147937059402465820e+00 1.879035353660583496e+00 -3.901333257090300322e-04 1.091176643967628479e-02 3.156489925459027290e-03 -1.772072166204452515e-02
6.580000000000000000e+02 1.851246595382690430e+00 2.627438545227050781e+00 -1.345334481447935104e-02 -3.253072965890169144e-03 -5.011925473809242249e-03 -1.246799994260072708e-02
6.590000000000000000e+02 3.410461544990539551e-01 4.265839099884033203e+00 -2.430456457659602165e-03 5.338218808174133301e-02 1.528551895171403885e-02 6.647116970270872116e-04
6.600000000000000000e+02 1.060017347335815430e+00 4.911434650421142578e+00 -1.274253055453300476e-02 -5.218047183007001877e-03 -5.388173274695873260e-03 2.003220655024051666e-02
6.610000000000000000e+02 3.586078882217407227e-01 5.838899135589599609e+00 -2.636393299326300621e-03 2.132360450923442841e-02 5.606163293123245239e-03 1.235247775912284851e-02
6.620000000000000000e+02 3.663008809089660645e-01 8.244579315185546875e+00 -2.598676597699522972e-03 -1.234056279063224792e-01 -3.780129179358482361e-02 3.014234267175197601e-02
6.630000000000000000e+02 3.655095994472503662e-01 9.049850463867187500e+00 -1.368773286230862141e-03 -1.953541487455368042e-01 -5.901687964797019958e-02 3.423814848065376282e-02
6.640000000000000000e+02 3.651434183120727539e-01 9.854002952575683594e+00 -2.039491431787610054e-03 -2.766146957874298096e-01 -8.359625190496444702e-02 3.825348988175392151e-02
6.650000000000000000e+02 3.643514811992645264e-01 1.065816688537597656e+01 -5.486852605827152729e-04 -3.648082017898559570e-01 -1.096070632338523865e-01 4.079569503664970398e-02
6.660000000000000000e+02 3.631407618522644043e-01 1.146149349212646484e+01 -1.104809925891458988e-03 -4.586383700370788574e-01 -1.379229575395584106e-01 4.287073388695716858e-02
6.670000000000000000e+02 1.085997700691223145e+00 1.129830646514892578e+01 -2.740903291851282120e-03 -4.538492858409881592e-01 -1.369770616292953491e-01 1.227140650153160095e-01
6.680000000000000000e+02 3.621166944503784180e-01 1.306894874572753906e+01 -1.456968748243525624e-04 -6.524189710617065430e-01 -1.957693994045257568e-01 4.323488846421241760e-02
6.690000000000000000e+02 3.639198243618011475e-01 1.547768115997314453e+01 1.810438116081058979e-03 -9.260053634643554688e-01 -2.772584855556488037e-01 3.730915114283561707e-02
6.700000000000000000e+02 3.649262487888336182e-01 1.628127098083496094e+01 7.430572295561432838e-04 -1.006766319274902344e+00 -3.018069863319396973e-01 3.485326468944549561e-02
6.710000000000000000e+02 3.657571673393249512e-01 1.708568954467773438e+01 2.078048186376690865e-03 -1.080650329589843750e+00 -3.235716819763183594e-01 3.145511448383331299e-02
6.720000000000000000e+02 3.661603629589080811e-01 1.788994979858398438e+01 9.484497131779789925e-04 -1.147649884223937988e+00 -3.440104126930236816e-01 2.848590165376663208e-02
6.730000000000000000e+02 3.665957748889923096e-01 1.869384384155273438e+01 2.121226396411657333e-03 -1.207199811935424805e+00 -3.615235686302185059e-01 2.485369890928268433e-02
6.740000000000000000e+02 3.708803653717041016e-01 2.191172409057617188e+01 1.710061449557542801e-03 -1.376827120780944824e+00 -4.125351309776306152e-01 1.318027824163436890e-02
6.750000000000000000e+02 3.730448782444000244e-01 2.271562004089355469e+01 4.196275840513408184e-04 -1.404555201530456543e+00 -4.212406873703002930e-01 1.121349167078733444e-02
6.760000000000000000e+02 3.758712410926818848e-01 2.352073860168457031e+01 1.349389436654746532e-03 -1.427608609199523926e+00 -4.278777539730072021e-01 9.101079776883125305e-03
6.770000000000000000e+02 3.780653178691864014e-01 2.432641601562500000e+01 1.644179574213922024e-04 -1.446961522102355957e+00 -4.340391159057617188e-01 7.776167243719100952e-03
6.780000000000000000e+02 3.784846365451812744e-01 2.513064765930175781e+01 7.854966679587960243e-04 -1.463590025901794434e+00 -4.388413429260253906e-01 6.634911056607961655e-03
6.790000000000000000e+02 1.133299827575683594e+00 2.416431045532226562e+01 3.636061679571866989e-03 -1.360865235328674316e+00 -4.071687459945678711e-01 2.618840150535106659e-02
6.800000000000000000e+02 3.780709207057952881e-01 2.673450660705566406e+01 3.507619258016347885e-04 -1.490146398544311523e+00 -4.469386935234069824e-01 4.814360756427049637e-03
6.810000000000000000e+02 3.942723870277404785e-01 2.914535903930664062e+01 1.151553806266747415e-04 -1.518353343009948730e+00 -4.554714560508728027e-01 3.483531996607780457e-03
6.820000000000000000e+02 4.051698148250579834e-01 2.995166969299316406e+01 -1.870327978394925594e-04 -1.526626944541931152e+00 -4.580442011356353760e-01 3.625544486567378044e-03
6.830000000000000000e+02 4.171902537345886230e-01 3.075710487365722656e+01 3.173369041178375483e-04 -1.534486293792724609e+00 -4.602507054805755615e-01 3.395443549379706383e-03
6.840000000000000000e+02 4.291595816612243652e-01 3.156146430969238281e+01 -3.195747558493167162e-04 -1.541976094245910645e+00 -4.626887142658233643e-01 3.527687164023518562e-03
6.850000000000000000e+02 1.297170758247375488e+00 3.138358497619628906e+01 5.773932789452373981e-04 -1.456593513488769531e+00 -4.368048310279846191e-01 1.281797327101230621e-02
6.860000000000000000e+02 4.464059770107269287e-01 3.316991043090820312e+01 -1.620956027181819081e-04 -1.556679010391235352e+00 -4.670523405075073242e-01 3.641619579866528511e-03
6.870000000000000000e+02 4.215607643127441406e-01 3.560628509521484375e+01 1.012539723888039589e-03 -1.575408220291137695e+00 -4.723186790943145752e-01 1.348701305687427521e-03
6.880000000000000000e+02 3.945210278034210205e-01 3.641310119628906250e+01 -9.409798658452928066e-04 -1.578759789466857910e+00 -4.739102125167846680e-01 1.544690108858048916e-03
6.890000000000000000e+02 3.680823743343353271e-01 3.720188903808593750e+01 2.042466541752219200e-03 -1.580640196800231934e+00 -4.735793173313140869e-01 -8.133128721965476871e-05
6.900000000000000000e+02 3.871163725852966309e-01 3.797013092041015625e+01 -7.787203649058938026e-04 -1.579841017723083496e+00 -4.741859138011932373e-01 -8.249438833445310593e-04
6.910000000000000000e+02 4.568224251270294189e-01 3.872834777832031250e+01 1.782652456313371658e-03 -1.576384902000427246e+00 -4.723806977272033691e-01 -2.573625883087515831e-03
6.920000000000000000e+02 6.148094534873962402e-01 4.027361679077148438e+01 1.255140872672200203e-03 -1.576084971427917480e+00 -4.724489450454711914e-01 8.309011172968894243e-05
6.930000000000000000e+02 9.791823387145996094e+00 1.807649254798889160e+00 -2.973462641239166260e-01 -1.106531172990798950e-01 -1.223998069763183594e-01 1.801813244819641113e-01
6.940000000000000000e+02 8.992168426513671875e+00 1.830320477485656738e+00 -2.419517189264297485e-01 -6.262045353651046753e-02 -9.137164801359176636e-02 1.301318705081939697e-01
6.950000000000000000e+02 8.199726104736328125e+00 1.842556118965148926e+00 -1.898421198129653931e-01 -4.245117306709289551e-02 -6.968798488378524780e-02 9.473423659801483154e-02
6.960000000000000000e+02 7.409602165222167969e+00 1.852086663246154785e+00 -1.429586410522460938e-01 -2.571526356041431427e-02 -5.060217157006263733e-02 6.649278849363327026e-02
6.970000000000000000e+02 5.038531303405761719e+00 1.878759264945983887e+00 -4.999588057398796082e-02 -1.699467748403549194e-02 -2.009716816246509552e-02 1.750424131751060486e-02
6.980000000000000000e+02 4.252897739410400391e+00 1.882442593574523926e+00 -3.101181983947753906e-02 -1.345603354275226593e-02 -1.334035582840442657e-02 4.770808387547731400e-03
6.990000000000000000e+02 3.474001169204711914e+00 1.880387783050537109e+00 -1.750131510198116302e-02 -1.273646764457225800e-02 -9.071334265172481537e-03 -5.478849168866872787e-03
7.000000000000000000e+02 1.922292709350585938e+00 1.873658895492553711e+00 -2.080308971926569939e-03 -8.135802927426993847e-04 -8.681667386554181576e-04 -1.835612580180168152e-02
7.010000000000000000e+02 1.140885448455810547e+01 1.536595821380615234e+00 -3.998848497867584229e-01 -2.409413307905197144e-01 -1.922478526830673218e-01 3.129105567932128906e-01
7.020000000000000000e+02 1.302343463897705078e+01 1.144400238990783691e+00 -5.050538182258605957e-01 -4.447692334651947021e-01 -2.849469184875488281e-01 5.032482743263244629e-01
7.030000000000000000e+02 1.604819107055664062e+01 3.038014411926269531e+00 -4.314627945423126221e-01 -1.099534392356872559e+00 -4.592991769313812256e-01 8.202206492424011230e-01
7.040000000000000000e+02 1.548294925689697266e+01 2.781971454620361328e+00 -4.305184185504913330e-01 -1.046014904975891113e+00 -4.429599940776824951e-01 7.825192809104919434e-01
7.050000000000000000e+02 1.819773101806640625e+01 4.016496181488037109e+00 -6.096025705337524414e-01 -7.333875298500061035e-01 -4.028970301151275635e-01 7.652914524078369141e-01
7.060000000000000000e+02 1.774394607543945312e+01 2.953849315643310547e+00 -3.771824836730957031e-01 -9.480167627334594727e-01 -3.975597918033599854e-01 8.893206119537353516e-01
7.070000000000000000e+02 1.832028007507324219e+01 -1.404427289962768555e+00 -1.100950717926025391e+00 -9.845719337463378906e-01 -6.256567835807800293e-01 9.813246130943298340e-01
7.080000000000000000e+02 1.902518272399902344e+01 -1.888171553611755371e+00 -1.179088473320007324e+00 -9.565243124961853027e-01 -6.406838297843933105e-01 9.501805305480957031e-01
7.090000000000000000e+02 2.081664848327636719e+01 -3.656778812408447266e+00 -1.195307970046997070e+00 -8.740506768226623535e-01 -6.208075881004333496e-01 9.202960729598999023e-01
7.100000000000000000e+02 2.239631080627441406e+01 -4.519584655761718750e+00 -1.026592731475830078e+00 -6.288962364196777344e-01 -4.966466724872589111e-01 7.484959363937377930e-01
7.110000000000000000e+02 2.277923011779785156e+01 -6.237687110900878906e+00 -8.657450079917907715e-01 -7.490796446800231934e-01 -4.844473898410797119e-01 7.775810956954956055e-01
7.120000000000000000e+02 2.321884346008300781e+01 -6.901030063629150391e+00 -7.632567882537841797e-01 -7.024804949760437012e-01 -4.397211968898773193e-01 7.261700630187988281e-01
7.130000000000000000e+02 2.362847328186035156e+01 -7.570472240447998047e+00 -6.936016082763671875e-01 -6.559597253799438477e-01 -4.048684239387512207e-01 6.727119088172912598e-01
7.140000000000000000e+02 2.438008117675781250e+01 -8.912402153015136719e+00 -5.523467063903808594e-01 -5.549418926239013672e-01 -3.321865797042846680e-01 5.833743810653686523e-01
7.150000000000000000e+02 2.475178718566894531e+01 -9.579022407531738281e+00 -4.844406247138977051e-01 -4.980747401714324951e-01 -2.947545945644378662e-01 5.353747606277465820e-01
7.160000000000000000e+02 2.580868911743164062e+01 -1.150325202941894531e+01 -3.639184832572937012e-01 -3.412991166114807129e-01 -2.115652710199356079e-01 4.162620007991790771e-01
7.170000000000000000e+02 2.616568374633789062e+01 -1.213406658172607422e+01 -3.272221088409423828e-01 -2.971008419990539551e-01 -1.872968822717666626e-01 3.787730336189270020e-01
7.180000000000000000e+02 2.818869400024414062e+01 -1.458679676055908203e+01 -2.967245876789093018e-01 -1.293235570192337036e-01 -1.278144419193267822e-01 2.671608924865722656e-01
7.190000000000000000e+02 2.759536743164062500e+01 -1.406542301177978516e+01 -2.903186976909637451e-01 -1.583123654127120972e-01 -1.345893144607543945e-01 2.866149544715881348e-01
7.200000000000000000e+02 2.956881523132324219e+01 -1.542444419860839844e+01 -3.322593867778778076e-01 -8.778527379035949707e-02 -1.260133981704711914e-01 2.259744107723236084e-01
7.210000000000000000e+02 3.210380172729492188e+01 -1.432840442657470703e+01 -4.829130172729492188e-01 2.331425808370113373e-02 -1.378796249628067017e-01 2.469753026962280273e-01
7.220000000000000000e+02 3.027804374694824219e+01 -1.583298301696777344e+01 -3.541310727596282959e-01 -6.451442837715148926e-02 -1.255936473608016968e-01 2.036419063806533813e-01
7.230000000000000000e+02 3.099220275878906250e+01 -1.623657417297363281e+01 -3.671666383743286133e-01 -3.839003294706344604e-02 -1.216669976711273193e-01 1.827999949455261230e-01
7.240000000000000000e+02 3.171311187744140625e+01 -1.663440513610839844e+01 -3.801273703575134277e-01 -1.118638645857572556e-02 -1.173941269516944885e-01 1.627978235483169556e-01
7.250000000000000000e+02 3.244501876831054688e+01 -1.702486610412597656e+01 -3.861501216888427734e-01 9.474006481468677521e-03 -1.130028292536735535e-01 1.467986255884170532e-01
7.260000000000000000e+02 3.320176696777343750e+01 -1.741043663024902344e+01 -3.882793486118316650e-01 2.126063033938407898e-02 -1.101056113839149475e-01 1.261608153581619263e-01
7.270000000000000000e+02 3.532180404663085938e+01 -1.888239479064941406e+01 -4.185034334659576416e-01 7.206233218312263489e-03 -1.233891546726226807e-01 1.720263250172138214e-02
7.280000000000000000e+02 3.693999481201171875e+01 -1.819267654418945312e+01 -5.132563710212707520e-01 1.820581778883934021e-02 -1.485151797533035278e-01 1.921478100121021271e-02
7.290000000000000000e+02 3.612831497192382812e+01 -1.887249565124511719e+01 -4.708611071109771729e-01 2.548743737861514091e-03 -1.404937207698822021e-01 8.187429048120975494e-03
7.300000000000000000e+02 3.850101470947265625e+01 -1.882702445983886719e+01 -5.665793418884277344e-01 -3.189528128132224083e-03 -1.709306538105010986e-01 -2.465468831360340118e-02
7.310000000000000000e+02 4.006466293334960938e+01 -1.873019981384277344e+01 -5.232518911361694336e-01 1.180958375334739685e-02 -1.534326970577239990e-01 -4.789519309997558594e-02
7.320000000000000000e+02 4.159803009033203125e+01 -1.844082069396972656e+01 -5.919274091720581055e-01 -1.897962391376495361e-02 -1.832721084356307983e-01 -1.225333213806152344e-01
7.330000000000000000e+02 4.214094543457031250e+01 -1.756998062133789062e+01 -6.626584529876708984e-01 5.480737425386905670e-03 -1.971533149480819702e-01 -1.146304160356521606e-01
7.340000000000000000e+02 4.312067031860351562e+01 -1.803742027282714844e+01 -6.595713496208190918e-01 -3.333346173167228699e-02 -2.078714519739151001e-01 -1.736835092306137085e-01
7.350000000000000000e+02 4.361254501342773438e+01 -1.713638687133789062e+01 -7.685383558273315430e-01 -6.381109356880187988e-03 -2.324758321046829224e-01 -1.523114889860153198e-01
7.360000000000000000e+02 4.435902786254882812e+01 -1.689616394042968750e+01 -7.990345954895019531e-01 -3.226557001471519470e-02 -2.493900507688522339e-01 -1.679855436086654663e-01
7.370000000000000000e+02 4.615478897094726562e+01 -1.709334945678710938e+01 -8.520691394805908203e-01 -5.535141378641128540e-02 -2.722261548042297363e-01 -2.288501858711242676e-01
7.380000000000000000e+02 4.690977096557617188e+01 -1.686831283569335938e+01 -8.107043504714965820e-01 -5.518126860260963440e-02 -2.597656846046447754e-01 -2.566010057926177979e-01
7.390000000000000000e+02 4.765090179443359375e+01 -1.660264205932617188e+01 -8.240891098976135254e-01 -9.083971381187438965e-02 -2.744786441326141357e-01 -2.992511689662933350e-01
7.400000000000000000e+02 5.043621826171875000e+01 -1.371817970275878906e+01 -1.142880082130432129e+00 -6.538810580968856812e-02 -3.624804317951202393e-01 -4.133098125457763672e-01
7.410000000000000000e+02 4.983413314819335938e+01 -1.566251850128173828e+01 -9.613968133926391602e-01 -1.646883934736251831e-01 -3.378255665302276611e-01 -4.170722663402557373e-01
7.420000000000000000e+02 5.054961395263671875e+01 -1.532604408264160156e+01 -9.715353250503540039e-01 -1.928423941135406494e-01 -3.493133187294006348e-01 -4.501780867576599121e-01
7.430000000000000000e+02 5.152196121215820312e+01 -1.396742248535156250e+01 -1.179022789001464844e+00 -1.685628890991210938e-01 -4.042757153511047363e-01 -5.068981051445007324e-01
7.440000000000000000e+02 5.221305465698242188e+01 -1.358045291900634766e+01 -1.253036141395568848e+00 -2.277514934539794922e-01 -4.442363083362579346e-01 -5.389043092727661133e-01
7.450000000000000000e+02 5.332783889770507812e+01 -1.377379226684570312e+01 -1.343783617019653320e+00 -3.664516508579254150e-01 -5.130705833435058594e-01 -6.865535378456115723e-01
7.460000000000000000e+02 5.402541732788085938e+01 -1.338955020904541016e+01 -1.362015485763549805e+00 -3.604412376880645752e-01 -5.167370438575744629e-01 -7.230872511863708496e-01
7.470000000000000000e+02 5.471318435668945312e+01 -1.299506568908691406e+01 -1.379849195480346680e+00 -4.084084033966064453e-01 -5.364772677421569824e-01 -7.709487676620483398e-01
7.480000000000000000e+02 5.605405807495117188e+01 -1.213935756683349609e+01 -1.609627127647399902e+00 -5.894904136657714844e-01 -6.597352623939514160e-01 -9.701919555664062500e-01
7.490000000000000000e+02 5.538724517822265625e+01 -1.257635211944580078e+01 -1.450968623161315918e+00 -4.828949272632598877e-01 -5.801590681076049805e-01 -8.712296485900878906e-01
7.500000000000000000e+02 5.738736343383789062e+01 -1.125542259216308594e+01 -1.972802281379699707e+00 -7.358260154724121094e-01 -8.125885128974914551e-01 -1.188063263893127441e+00
7.510000000000000000e+02 5.894162750244140625e+01 -9.433546066284179688e+00 -2.616080522537231445e+00 -6.207172274589538574e-01 -9.710393548011779785e-01 -1.255745768547058105e+00
7.520000000000000000e+02 5.872655487060546875e+01 -1.038174724578857422e+01 -2.397458791732788086e+00 -8.610207438468933105e-01 -9.775438904762268066e-01 -1.412870407104492188e+00
7.530000000000000000e+02 6.006874465942382812e+01 -9.521535873413085938e+00 -2.964732885360717773e+00 -1.026901960372924805e+00 -1.197490453720092773e+00 -1.693735241889953613e+00
7.540000000000000000e+02 6.074324417114257812e+01 -9.102057456970214844e+00 -3.248965978622436523e+00 -1.041079163551330566e+00 -1.287013530731201172e+00 -1.841264367103576660e+00
7.550000000000000000e+02 6.141650009155273438e+01 -8.689442634582519531e+00 -3.497744798660278320e+00 -1.100583791732788086e+00 -1.379498600959777832e+00 -1.934378981590270996e+00
7.560000000000000000e+02 6.208002090454101562e+01 -8.263460159301757812e+00 -3.804501295089721680e+00 -1.202238559722900391e+00 -1.502022027969360352e+00 -2.191575288772583008e+00
7.570000000000000000e+02 6.338117980957031250e+01 -7.394393444061279297e+00 -5.178601264953613281e+00 -1.303508043289184570e+00 -1.944632887840270996e+00 -2.494197368621826172e+00
7.580000000000000000e+02 6.399840164184570312e+01 -7.002873420715332031e+00 -5.576874732971191406e+00 -1.168746948242187500e+00 -2.023686408996582031e+00 -2.124807596206665039e+00
7.590000000000000000e+02 6.798258209228515625e+01 -1.286882972717285156e+01 2.762356042861938477e+00 2.292106056213378906e+01 7.705024719238281250e+00 5.753178596496582031e+00
7.600000000000000000e+02 6.737183380126953125e+01 -1.437120437622070312e+01 2.323335170745849609e+00 1.408786296844482422e+01 4.923359394073486328e+00 5.429275512695312500e+00
7.610000000000000000e+02 6.723278808593750000e+01 -1.614268112182617188e+01 1.718317389488220215e+00 1.106825828552246094e+01 3.835972547531127930e+00 3.798428535461425781e+00
7.620000000000000000e+02 6.666080474853515625e+01 -1.583668136596679688e+01 2.601298809051513672e+00 1.069396972656250000e+01 3.988580465316772461e+00 4.940354347229003906e+00
7.630000000000000000e+02 6.581034088134765625e+01 -1.723158836364746094e+01 2.566844701766967773e+00 7.205922126770019531e+00 2.931830167770385742e+00 4.080306053161621094e+00
7.640000000000000000e+02 6.533575439453125000e+01 -1.789468002319335938e+01 2.321578979492187500e+00 5.636770725250244141e+00 2.387505054473876953e+00 3.532471418380737305e+00
7.650000000000000000e+02 6.431429290771484375e+01 -1.915836715698242188e+01 1.644463896751403809e+00 3.312054157257080078e+00 1.486955404281616211e+00 2.338131904602050781e+00
7.660000000000000000e+02 6.378380584716796875e+01 -1.976792716979980469e+01 1.291588306427001953e+00 2.561187505722045898e+00 1.155832767486572266e+00 1.805416584014892578e+00
7.670000000000000000e+02 6.325354385375976562e+01 -2.037500000000000000e+01 9.253829717636108398e-01 2.001919507980346680e+00 8.781907558441162109e-01 1.420315265655517578e+00
7.680000000000000000e+02 6.220871734619140625e+01 -2.160643196105957031e+01 4.906493723392486572e-01 1.302798390388488770e+00 5.380343198776245117e-01 8.401313424110412598e-01
7.690000000000000000e+02 6.167322158813476562e+01 -2.221480369567871094e+01 3.016037046909332275e-01 9.587816596031188965e-01 3.781155943870544434e-01 5.623611807823181152e-01
7.700000000000000000e+02 5.995865249633789062e+01 -2.394906616210937500e+01 -4.359871149063110352e-01 4.724159836769104004e-02 -1.166236549615859985e-01 -1.622668057680130005e-01
7.710000000000000000e+02 5.805994033813476562e+01 -2.551507759094238281e+01 -1.098491549491882324e+00 -3.912469744682312012e-01 -4.469215571880340576e-01 -6.594305634498596191e-01
7.720000000000000000e+02 5.738696670532226562e+01 -2.599323844909667969e+01 -1.289865612983703613e+00 -4.434790611267089844e-01 -5.200034379959106445e-01 -7.141108512878417969e-01
7.730000000000000000e+02 5.457377243041992188e+01 -2.764957618713378906e+01 -1.558074951171875000e+00 -4.559213817119598389e-01 -6.041988730430603027e-01 -8.067944645881652832e-01
7.740000000000000000e+02 5.669083023071289062e+01 -2.643287849426269531e+01 -1.334581732749938965e+00 -4.032552838325500488e-01 -5.213510990142822266e-01 -7.506747841835021973e-01
7.750000000000000000e+02 5.385033798217773438e+01 -2.800256347656250000e+01 -1.529309272766113281e+00 -3.984440267086029053e-01 -5.783259868621826172e-01 -7.858408689498901367e-01
7.760000000000000000e+02 5.240844345092773438e+01 -2.871364402770996094e+01 -1.448342204093933105e+00 -3.941252529621124268e-01 -5.527402162551879883e-01 -7.661665081977844238e-01
7.770000000000000000e+02 5.168534088134765625e+01 -2.908765029907226562e+01 -1.455531835556030273e+00 -4.062694609165191650e-01 -5.585404038429260254e-01 -7.380600571632385254e-01
7.780000000000000000e+02 4.788845443725585938e+01 -3.061657142639160156e+01 -1.056278467178344727e+00 -1.683225929737091064e-01 -3.673803210258483887e-01 -3.784140646457672119e-01
7.790000000000000000e+02 4.709146881103515625e+01 -3.080062103271484375e+01 -8.926624655723571777e-01 -1.064267605543136597e-01 -2.997267842292785645e-01 -2.934427261352539062e-01
7.800000000000000000e+02 4.552482604980468750e+01 -3.113392257690429688e+01 -6.368027925491333008e-01 -7.385708391666412354e-02 -2.131979614496231079e-01 -2.198689430952072144e-01
7.810000000000000000e+02 4.630201721191406250e+01 -3.095818710327148438e+01 -7.314786314964294434e-01 -7.143514603376388550e-02 -2.408741414546966553e-01 -2.437589615583419800e-01
7.820000000000000000e+02 4.475168228149414062e+01 -3.133724975585937500e+01 -5.851880311965942383e-01 -7.274536043405532837e-02 -1.973800063133239746e-01 -1.966647058725357056e-01
7.830000000000000000e+02 4.239280319213867188e+01 -3.186386871337890625e+01 -3.519668579101562500e-01 -3.351223468780517578e-02 -1.156437322497367859e-01 -1.009337380528450012e-01
7.840000000000000000e+02 4.079288482666015625e+01 -3.209760665893554688e+01 -2.273777425289154053e-01 -1.910625770688056946e-02 -7.394520193338394165e-02 -5.987057834863662720e-02
7.850000000000000000e+02 4.159683609008789062e+01 -3.199195289611816406e+01 -2.881332635879516602e-01 -2.238838747143745422e-02 -9.315649420022964478e-02 -7.988061010837554932e-02
7.860000000000000000e+02 3.917658233642578125e+01 -3.224132156372070312e+01 -1.250897198915481567e-01 -1.297618169337511063e-02 -4.141977056860923767e-02 -3.243953734636306763e-02
7.870000000000000000e+02 3.845899581909179688e+01 -3.326249694824218750e+01 -8.877869695425033569e-02 -2.442723512649536133e-02 -3.396178036928176880e-02 -6.236452236771583557e-02
7.880000000000000000e+02 3.586702346801757812e+01 -3.223871994018554688e+01 -1.282923109829425812e-02 -3.546628402546048164e-03 -4.912757780402898788e-03 -8.854793384671211243e-03
7.890000000000000000e+02 3.503565597534179688e+01 -3.216022109985351562e+01 -2.708883548621088266e-04 1.234265277162194252e-03 2.890130854211747646e-04 -5.893765483051538467e-03
7.900000000000000000e+02 3.420761489868164062e+01 -3.207071685791015625e+01 8.944300934672355652e-03 -1.041769399307668209e-03 2.370759379118680954e-03 -5.672800820320844650e-03
7.910000000000000000e+02 3.258218765258789062e+01 -3.180644607543945312e+01 1.768893189728260040e-02 -4.859765467699617147e-04 5.160886328667402267e-03 -4.816906061023473740e-03
7.920000000000000000e+02 3.096516418457031250e+01 -3.149963760375976562e+01 2.027718164026737213e-02 4.545967094600200653e-04 6.219533272087574005e-03 -4.726461134850978851e-03
7.930000000000000000e+02 3.062041664123535156e+01 -3.239082336425781250e+01 1.165682077407836914e-02 1.316058682277798653e-03 3.891863860189914703e-03 -2.239609137177467346e-03
7.940000000000000000e+02 2.784203338623046875e+01 -3.046651840209960938e+01 1.426202058792114258e-02 1.529200351797044277e-03 4.737366456538438797e-03 -5.565569736063480377e-03
7.950000000000000000e+02 2.711480140686035156e+01 -3.012854385375976562e+01 1.229020860046148300e-02 2.633542288094758987e-03 4.477125126868486404e-03 -4.285936709493398666e-03
7.960000000000000000e+02 2.305602645874023438e+01 -2.902864074707031250e+01 5.921256728470325470e-03 1.998063962673768401e-04 1.836318988353013992e-03 -1.271325279958546162e-03
7.970000000000000000e+02 2.425057792663574219e+01 -2.868097114562988281e+01 7.002315949648618698e-03 1.510685891844332218e-03 2.553900470957159996e-03 -2.618564059957861900e-03
7.980000000000000000e+02 2.168441581726074219e+01 -2.815853881835937500e+01 4.272575024515390396e-03 3.538965538609772921e-04 1.387941534630954266e-03 -1.208996982313692570e-03
7.990000000000000000e+02 2.144502449035644531e+01 -2.709465217590332031e+01 3.673057071864604950e-03 8.757492178119719028e-04 1.364641822874546051e-03 -1.619356917217373848e-03
8.000000000000000000e+02 2.006977844238281250e+01 -2.624047279357910156e+01 2.501814626157283783e-03 8.931184420362114906e-04 1.018479932099580765e-03 -1.317289308644831181e-03
8.010000000000000000e+02 1.895520210266113281e+01 -2.633535194396972656e+01 2.244164003059267998e-03 1.472308795200660825e-04 7.174184429459273815e-04 -6.928391521796584129e-04
8.020000000000000000e+02 1.826331520080566406e+01 -2.461542892456054688e+01 8.476538350805640221e-04 4.938445636071264744e-04 4.024495137855410576e-04 -5.555157549679279327e-04
8.030000000000000000e+02 1.654523468017578125e+01 -2.291418266296386719e+01 2.943157451227307320e-04 1.348902005702257156e-04 1.287617778871208429e-04 -2.657637814991176128e-04
8.040000000000000000e+02 1.540402507781982422e+01 -2.178207778930664062e+01 1.428301620762795210e-04 3.929162994609214365e-05 5.463653724291361868e-05 -1.409120013704523444e-04
8.050000000000000000e+02 1.483388996124267578e+01 -2.121536827087402344e+01 1.417306193616241217e-04 7.856461888877674937e-05 6.608857074752449989e-05 -4.781632014783099294e-05
8.060000000000000000e+02 1.426369953155517578e+01 -2.064992713928222656e+01 4.556837666314095259e-05 -1.650808553677052259e-05 8.718086974113248289e-06 -6.854656385257840157e-05
8.070000000000000000e+02 1.369354629516601562e+01 -2.008065986633300781e+01 6.787972233723849058e-05 3.260184530518017709e-05 3.014447065652348101e-05 9.508599760010838509e-06
8.080000000000000000e+02 1.312940597534179688e+01 -1.950205039978027344e+01 -1.327078825852368027e-05 -4.369023736217059195e-05 -1.708830859570298344e-05 -2.414769369352143258e-05
8.090000000000000000e+02 1.045032310485839844e+01 -1.646007156372070312e+01 1.446737314836354926e-05 5.126668384036747739e-06 5.878212505194824189e-06 6.534404383273795247e-05
8.100000000000000000e+02 9.657046318054199219e+00 -1.507422351837158203e+01 4.928624184685759246e-05 -1.987883933907141909e-06 1.418950705556198955e-05 6.439563003368675709e-05
8.110000000000000000e+02 8.965900421142578125e+00 -1.385868358612060547e+01 6.641836807830259204e-05 3.602563811000436544e-05 3.073320112889632583e-05 1.696337130852043629e-05
8.120000000000000000e+02 1.487952995300292969e+01 -1.257452297210693359e+01 1.263104195459163748e-06 6.086797839088831097e-06 2.204970542152295820e-06 2.186206529586343095e-06
8.130000000000000000e+02 1.974782180786132812e+01 -8.338511466979980469e+00 -4.494013410294428468e-06 -1.260047724827018101e-06 -1.726218442854587920e-06 -2.301203949173213914e-06
8.140000000000000000e+02 1.921069717407226562e+01 -8.781386375427246094e+00 4.935666765959467739e-06 1.326987899119558278e-06 1.878796297205553856e-06 2.735344651227933355e-06
8.150000000000000000e+02 1.913065528869628906e+01 -9.745718002319335938e+00 4.520988568401662633e-06 2.434115685900906101e-06 2.086531139866565354e-06 3.015780521309352480e-06
8.160000000000000000e+02 1.847609138488769531e+01 -1.431588840484619141e+01 -9.300213150709168985e-07 -4.496236215345561504e-06 -1.627877281862311065e-06 -2.297173978149658069e-06
8.170000000000000000e+02 1.921460342407226562e+01 -1.463286113739013672e+01 1.107500338548561558e-06 3.067220177399576642e-06 1.252416154784441460e-06 1.950358182511990890e-06
8.180000000000000000e+02 1.996774673461914062e+01 -1.494829940795898438e+01 -1.061692955772741698e-06 -1.957319454959360883e-06 -9.057037004822632298e-07 -1.311343112320173532e-06
8.190000000000000000e+02 2.072271537780761719e+01 -1.529315471649169922e+01 6.887639756314456463e-07 1.267549691874592099e-06 5.868940888831275515e-07 8.616644322501088027e-07
8.200000000000000000e+02 2.191590499877929688e+01 -1.492338371276855469e+01 2.132758709194604307e-06 9.791749562282348052e-07 9.335801109955355059e-07 7.252308478200575337e-07
8.210000000000000000e+02 2.301238059997558594e+01 -1.641284561157226562e+01 -9.372722615808015689e-07 -7.683525495849607978e-07 -5.116874604027543683e-07 -6.163404577819164842e-07
8.220000000000000000e+02 2.440143394470214844e+01 -1.660604095458984375e+01 3.887950697389896959e-06 1.207314312523521949e-06 1.528579559817444533e-06 -7.473075811503804289e-07
8.230000000000000000e+02 2.431574249267578125e+01 -1.705683135986328125e+01 -2.256755351481842808e-06 -1.686083663798854104e-07 -7.276091196217748802e-07 1.611948050594946835e-07
8.240000000000000000e+02 2.503837203979492188e+01 -1.730671691894531250e+01 3.346270887050195597e-07 1.627675715099030640e-06 5.886908525098988321e-07 -1.178719230665592477e-06
8.250000000000000000e+02 2.583936500549316406e+01 -1.735450553894042969e+01 7.511206945309822913e-07 -2.097839626458153361e-07 1.624010224077210296e-07 -7.450274779330356978e-07
8.260000000000000000e+02 2.709297180175781250e+01 -1.801420783996582031e+01 -1.157512315330677666e-06 -3.124344630123232491e-06 -1.284557015424070414e-06 1.120515435104607604e-06
8.270000000000000000e+02 2.654432296752929688e+01 -1.770631027221679688e+01 6.223149853212817106e-07 2.296052571182372048e-06 8.755102953728055581e-07 -6.843291799896178418e-08
8.280000000000000000e+02 2.345788002014160156e+01 -1.585511207580566406e+01 9.368419569000252523e-07 3.290038648628978990e-06 1.268064124815282412e-06 9.815808255098090740e-08
8.290000000000000000e+02 2.429284477233886719e+01 -1.604721832275390625e+01 -3.920539711543824524e-06 -2.060631913991528563e-06 -1.794351533135341015e-06 -4.993596576241543517e-07
8.300000000000000000e+02 2.228580856323242188e+01 -1.270197010040283203e+01 3.901242052961606532e-06 1.013173573483072687e-06 1.474324676564719994e-06 1.228550445375731215e-06
8.310000000000000000e+02 2.193903541564941406e+01 -1.203214073181152344e+01 -3.287002073193434626e-06 -1.860364818639936857e-06 -1.544210135762114078e-06 -1.433164243280771188e-06
8.320000000000000000e+02 2.015159606933593750e+01 -8.914768218994140625e+00 4.155760507273953408e-06 1.796766355255385861e-06 1.785758058758801781e-06 2.469814035066519864e-06
8.330000000000000000e+02 2.053225326538085938e+01 -9.508719444274902344e+00 -3.940937403967836872e-06 -2.102615326293744147e-06 -1.813065864553209394e-06 -2.434185034871916287e-06
8.340000000000000000e+02 2.089218139648437500e+01 -1.012470436096191406e+01 3.681533144117565826e-06 2.347191411899984814e-06 1.808617412280000281e-06 2.488193103999947198e-06
8.350000000000000000e+02 1.725640487670898438e+01 -1.064217662811279297e+01 -3.895394229402882047e-07 2.561516566856880672e-06 6.515931545436615124e-07 -1.507955744273203891e-06
8.360000000000000000e+02 1.632201004028320312e+01 -1.328499126434326172e+01 1.237821152244578116e-06 5.811495611851569265e-06 2.114795051966211759e-06 2.369931053181062452e-06
8.370000000000000000e+02 1.841905975341796875e+01 -6.568123340606689453e+00 4.109261226403759792e-06 1.534864964014559519e-06 1.693237891231547110e-06 8.835914400151523296e-07
8.380000000000000000e+02 1.669500923156738281e+01 -5.905615329742431641e+00 -4.815820375370094553e-06 -2.964906798297306523e-06 -2.334218152100220323e-06 -3.609709153806761606e-07
8.390000000000000000e+02 1.586525249481201172e+01 -4.252075195312500000e+00 4.491307663556654006e-06 3.367700628587044775e-06 2.357702442168374546e-06 1.605987449693202507e-06
8.400000000000000000e+02 1.514238452911376953e+01 -3.781589746475219727e+00 -3.440091177253634669e-06 -3.432471430642181076e-06 -2.061768782368744723e-06 -1.988061285373987630e-06
8.410000000000000000e+02 1.189741802215576172e+01 -2.445642948150634766e+00 -4.172545231995172799e-06 -3.675137122627347708e-06 -2.354304797336226329e-06 -6.379832484526559711e-07
8.420000000000000000e+02 1.245615577697753906e+01 -3.489495038986206055e+00 -4.946480657963547856e-06 -3.236467591705149971e-06 -2.454884452163241804e-06 -4.436593883383466164e-07
8.430000000000000000e+02 8.508346557617187500e+00 -2.727049589157104492e+00 4.520621587289497256e-06 1.648002694309980143e-06 1.850587182161689270e-06 1.278934064430359285e-06
8.440000000000000000e+02 5.118895339965820312e+01 1.838917350769042969e+01 1.324166357517242432e-01 2.175301462411880493e-01 1.049840301275253296e-01 -2.414879649877548218e-01
8.450000000000000000e+02 5.243814468383789062e+01 1.798440933227539062e+01 4.586990773677825928e-01 5.933427214622497559e-01 3.156125247478485107e-01 -5.901026129722595215e-01
8.460000000000000000e+02 5.520951843261718750e+01 1.625535011291503906e+01 7.296261787414550781e-01 3.624914407730102539e+00 1.306362152099609375e+00 -1.012288212776184082e+00
8.470000000000000000e+02 5.593778991699218750e+01 1.254062366485595703e+01 1.382461786270141602e-01 3.793434381484985352e+00 1.179504156112670898e+00 -1.421373188495635986e-01
8.480000000000000000e+02 5.524053955078125000e+01 1.107992172241210938e+01 2.470058500766754150e-01 3.630093097686767578e+00 1.163129687309265137e+00 4.102322757244110107e-01
8.490000000000000000e+02 5.492656326293945312e+01 9.891912460327148438e+00 4.559678435325622559e-01 2.610833168029785156e+00 9.200403094291687012e-01 7.464389204978942871e-01
8.500000000000000000e+02 5.272431945800781250e+01 7.622585296630859375e+00 4.048976898193359375e-01 3.227024376392364502e-01 2.182800471782684326e-01 3.266323506832122803e-01
8.510000000000000000e+02 4.792002105712890625e+01 6.559463024139404297e+00 -2.255421876907348633e-02 5.264088045805692673e-03 -5.187039263546466827e-03 6.103314459323883057e-03
8.520000000000000000e+02 4.520037841796875000e+01 8.392819404602050781e+00 1.354581862688064575e-01 2.790506780147552490e-01 1.243526563048362732e-01 -1.976568549871444702e-01
8.530000000000000000e+02 4.408921051025390625e+01 9.568990707397460938e+00 3.241062164306640625e-01 7.836901545524597168e-01 3.323389291763305664e-01 -4.601898193359375000e-01
8.540000000000000000e+02 4.361446380615234375e+01 1.023523998260498047e+01 3.442354500293731689e-01 1.459447145462036133e+00 5.411047339439392090e-01 -5.691284537315368652e-01
8.550000000000000000e+02 4.312552261352539062e+01 1.178528118133544922e+01 1.054373458027839661e-01 2.356071233749389648e+00 7.384525537490844727e-01 -1.759211421012878418e-01
8.560000000000000000e+02 4.303570556640625000e+01 1.411675643920898438e+01 2.896428108215332031e-01 2.620653867721557617e+00 8.730889558792114258e-01 5.233749151229858398e-01
8.570000000000000000e+02 4.618361282348632812e+01 1.887376403808593750e+01 3.297885954380035400e-01 5.661865472793579102e-01 2.687925398349761963e-01 5.108971595764160156e-01
8.580000000000000000e+02 4.646557235717773438e+01 1.803285217285156250e+01 3.942594826221466064e-01 2.663873732089996338e-01 1.981940567493438721e-01 3.461479246616363525e-01
8.590000000000000000e+02 4.803459548950195312e+01 1.859292221069335938e+01 -4.715812951326370239e-02 6.276447325944900513e-02 4.681901540607213974e-03 1.048049256205558777e-01
8.600000000000000000e+02 2.104018592834472656e+01 1.606404685974121094e+01 -2.222042679786682129e-01 -1.685670316219329834e-01 -1.172313913702964783e-01 2.595852315425872803e-01
8.610000000000000000e+02 2.433003044128417969e+01 1.381222629547119141e+01 -8.740121126174926758e-01 -1.161485195159912109e+00 -6.106491684913635254e-01 9.816115498542785645e-01
8.620000000000000000e+02 2.628723716735839844e+01 9.855512619018554688e+00 -1.187049224972724915e-02 -6.077972650527954102e-01 -1.859003305435180664e-01 3.965270817279815674e-01
8.630000000000000000e+02 2.535572052001953125e+01 8.341779708862304688e+00 1.074007302522659302e-01 -3.448593989014625549e-02 2.187443710863590240e-02 2.050533592700958252e-01
8.640000000000000000e+02 2.482490921020507812e+01 6.905928611755371094e+00 5.452976226806640625e-01 5.135725736618041992e-01 3.176610469818115234e-01 4.828009307384490967e-01
8.650000000000000000e+02 2.193757247924804688e+01 4.914159297943115234e+00 1.078449010848999023e+00 2.394157499074935913e-01 3.953594267368316650e-01 4.877489209175109863e-01
8.660000000000000000e+02 1.669714927673339844e+01 5.774085044860839844e+00 -1.078573346138000488e+00 -1.173806905746459961e+00 -6.757140755653381348e-01 1.102640032768249512e+00
8.670000000000000000e+02 1.775767517089843750e+01 4.687867164611816406e+00 -1.034025073051452637e+00 -8.484947085380554199e-01 -5.647559165954589844e-01 8.788949847221374512e-01
8.680000000000000000e+02 1.565302181243896484e+01 6.886326789855957031e+00 -1.269112467765808105e+00 -1.806187033653259277e+00 -9.225898385047912598e-01 1.379217267036437988e+00
8.690000000000000000e+02 1.478411865234375000e+01 8.089548110961914062e+00 -5.788699984550476074e-01 -2.341641664505004883e+00 -8.761534690856933594e-01 9.083356261253356934e-01
8.700000000000000000e+02 1.480483055114746094e+01 1.234734630584716797e+01 6.128990277647972107e-02 -1.957518309354782104e-01 -4.033857956528663635e-02 1.432802975177764893e-01
8.710000000000000000e+02 1.609715270996093750e+01 1.514860343933105469e+01 1.041137337684631348e+00 7.652408480644226074e-01 5.419134497642517090e-01 7.642785310745239258e-01
8.720000000000000000e+02 1.891554450988769531e+01 -7.182356834411621094e+00 -4.841777808906044811e-06 -1.608206730452366173e-06 -1.934995225383318029e-06 -1.586755047355836723e-06
8.730000000000000000e+02 2.000919723510742188e+01 -9.897495269775390625e+00 4.213641204842133448e-06 2.309955789314699359e-06 1.957079120984417386e-06 2.652114062584587373e-06
8.740000000000000000e+02 1.801535224914550781e+01 -1.333169174194335938e+01 -7.535556392213038635e-07 -4.060297669639112428e-06 -1.444156055185885634e-06 -1.779794615686114412e-06
8.750000000000000000e+02 2.728432273864746094e+01 -1.120083713531494141e+01 -4.624296426773071289e-01 -1.943790763616561890e-01 -1.970426142215728760e-01 4.324244260787963867e-01
8.760000000000000000e+02 2.673868370056152344e+01 -1.167920589447021484e+01 -4.032267630100250244e-01 -2.422071695327758789e-01 -1.936301738023757935e-01 4.099389910697937012e-01
8.770000000000000000e+02 2.635882568359375000e+01 -1.107379341125488281e+01 -4.290204644203186035e-01 -2.821496427059173584e-01 -2.133510410785675049e-01 4.419342279434204102e-01
8.780000000000000000e+02 2.599506759643554688e+01 -1.045913696289062500e+01 -4.696095585823059082e-01 -3.221040368080139160e-01 -2.375140786170959473e-01 4.746784865856170654e-01
8.790000000000000000e+02 2.511170196533203125e+01 -1.023141860961914062e+01 -4.425422251224517822e-01 -4.439314007759094238e-01 -2.659420967102050781e-01 4.885675013065338135e-01
8.800000000000000000e+02 2.563694190979003906e+01 -9.833247184753417969e+00 -5.070102810859680176e-01 -3.614626824855804443e-01 -2.605418860912322998e-01 5.092723369598388672e-01
8.810000000000000000e+02 1.730540275573730469e+01 -1.297997570037841797e+01 1.106414060814131517e-06 3.929505510313902050e-06 1.510775859969726298e-06 1.208544404107669834e-06
8.820000000000000000e+02 2.017014884948730469e+01 -1.136798763275146484e+01 -3.958648449042811990e-06 -2.452358103255392052e-06 -1.923302079376298934e-06 -2.284236188643262722e-06
8.830000000000000000e+02 2.036858367919921875e+01 -1.047443485260009766e+01 -3.907471182174049318e-06 -2.381001422691042535e-06 -1.886541667772689834e-06 -2.419582642687601037e-06
8.840000000000000000e+02 2.159252548217773438e+01 -1.137891769409179688e+01 3.301139940958819352e-06 2.245833684355602600e-06 1.664092110331694130e-06 2.025805542871239595e-06
8.850000000000000000e+02 2.103804397583007812e+01 -1.167901802062988281e+01 -3.200995251972926781e-06 -2.598447053969721310e-06 -1.739832669045426883e-06 -1.941108394021284766e-06
8.860000000000000000e+02 2.454522514343261719e+01 -7.874800205230712891e+00 -6.823541522026062012e-01 -4.809178113937377930e-01 -3.489815890789031982e-01 6.152226924896240234e-01
8.870000000000000000e+02 2.332519531250000000e+01 -5.854314327239990234e+00 -8.920292854309082031e-01 -5.729557871818542480e-01 -4.394955039024353027e-01 7.088671922683715820e-01
8.880000000000000000e+02 2.527556610107421875e+01 -9.192662239074707031e+00 -5.622217655181884766e-01 -4.045531451702117920e-01 -2.900324761867523193e-01 5.450145006179809570e-01
8.890000000000000000e+02 2.491208457946777344e+01 -8.538194656372070312e+00 -6.134769320487976074e-01 -4.409145414829254150e-01 -3.163174390792846680e-01 5.809684395790100098e-01
8.900000000000000000e+02 2.198965263366699219e+01 -1.359464073181152344e+01 4.876703314948827028e-06 -5.023666744818910956e-07 1.312300923927978147e-06 -3.516625213251245441e-08
8.910000000000000000e+02 2.147743988037109375e+01 -1.566358852386474609e+01 -5.923965886722726282e-07 -1.147851435234770179e-06 -5.220744014877709560e-07 -6.052355843166878913e-07
8.920000000000000000e+02 2.292360877990722656e+01 -1.410021877288818359e+01 3.601303433242719620e-06 1.981027253350475803e-06 1.674699205977958627e-06 1.030522980727255344e-06
8.930000000000000000e+02 2.135203742980957031e+01 -1.232290840148925781e+01 2.738603370744385757e-06 2.699712467801873572e-06 1.631494683351775166e-06 1.147869511441967916e-06
8.940000000000000000e+02 2.106281852722167969e+01 -1.454193401336669922e+01 -1.079823732652585022e-06 -1.387965653520950582e-06 -7.403368158520606812e-07 -1.753796254888584372e-06
8.950000000000000000e+02 1.795727348327636719e+01 -4.118097126483917236e-01 -8.236443400382995605e-01 -9.382215142250061035e-01 -5.285597443580627441e-01 9.437890052795410156e-01
8.960000000000000000e+02 1.461994266510009766e+01 1.079817581176757812e+01 -1.689107343554496765e-02 -9.501860737800598145e-01 -2.901231348514556885e-01 1.262879967689514160e-01
8.970000000000000000e+02 1.418573093414306641e+01 8.556488037109375000e+00 -5.259417295455932617e-01 -1.762827992439270020e+00 -6.866309046745300293e-01 6.909517645835876465e-01
8.980000000000000000e+02 2.055700111389160156e+01 3.915896892547607422e+00 3.614726066589355469e-01 1.707552969455718994e-01 1.596683710813522339e-01 3.613699972629547119e-01
8.990000000000000000e+02 1.969275474548339844e+01 4.306339740753173828e+00 3.777045905590057373e-01 6.455834954977035522e-02 1.326788812875747681e-01 2.301502823829650879e-01
9.000000000000000000e+02 2.553740310668945312e+01 1.075403022766113281e+01 -5.054739490151405334e-02 -1.084979057312011719e+00 -3.406579494476318359e-01 2.040396779775619507e-01
9.010000000000000000e+02 2.853498840332031250e+01 1.073160934448242188e+01 -1.555960476398468018e-01 -2.724802792072296143e-01 -1.284229010343551636e-01 6.430661678314208984e-01
9.020000000000000000e+02 1.538751792907714844e+01 2.948864996433258057e-01 -6.839244365692138672e-01 -8.182013630867004395e-01 -4.506377279758453369e-01 8.400096893310546875e-01
9.030000000000000000e+02 1.945584106445312500e+01 1.635553932189941406e+01 8.521353006362915039e-01 1.483085472136735916e-02 2.600898444652557373e-01 1.732787489891052246e-01
9.040000000000000000e+02 1.814258003234863281e+01 1.783392333984375000e+01 4.748694896697998047e-01 3.360543847084045410e-01 2.432771474123001099e-01 5.331051945686340332e-01
9.050000000000000000e+02 2.025445175170898438e+01 1.625186920166015625e+01 2.473407685756683350e-01 -6.093338131904602051e-02 5.592221394181251526e-02 1.545219570398330688e-01
9.060000000000000000e+02 1.958773231506347656e+01 1.697119903564453125e+01 5.923355221748352051e-01 5.280496180057525635e-02 1.935421377420425415e-01 4.982891380786895752e-01
9.070000000000000000e+02 2.475531005859375000e+01 6.087188243865966797e+00 6.516966819763183594e-01 3.847243785858154297e-01 3.109263181686401367e-01 4.352895915508270264e-01
9.080000000000000000e+02 1.716088676452636719e+01 1.598701477050781250e+01 1.385735392570495605e+00 5.743836760520935059e-01 5.880357027053833008e-01 7.304014563560485840e-01
9.090000000000000000e+02 1.518493270874023438e+01 1.541391468048095703e+01 8.589724302291870117e-01 1.733248829841613770e-01 3.096891939640045166e-01 4.120525419712066650e-01
9.100000000000000000e+02 2.377099227905273438e+01 1.438548278808593750e+01 -8.586522340774536133e-01 -9.842793941497802734e-01 -5.528794527053833008e-01 8.809860348701477051e-01
9.110000000000000000e+02 1.635759735107421875e+01 1.705253601074218750e+01 7.216346859931945801e-01 3.526094257831573486e-01 3.222732245922088623e-01 3.502171337604522705e-01
9.120000000000000000e+02 2.317677497863769531e+01 1.493482017517089844e+01 -8.727418780326843262e-01 -8.104672431945800781e-01 -5.049627423286437988e-01 7.965028285980224609e-01
9.130000000000000000e+02 2.140053939819335938e+01 1.743001365661621094e+01 2.037847191095352173e-01 -4.077504873275756836e-01 -6.118972599506378174e-02 5.966778397560119629e-01
9.140000000000000000e+02 2.491652679443359375e+01 5.166897773742675781e+00 5.496793389320373535e-01 1.685367524623870850e-01 2.154648303985595703e-01 2.702523469924926758e-01
9.150000000000000000e+02 2.421050834655761719e+01 5.061421871185302734e+00 5.853028297424316406e-01 2.861539721488952637e-01 2.614370584487915039e-01 2.943323254585266113e-01
9.160000000000000000e+02 1.493361473083496094e+01 1.470898151397705078e+01 7.711395025253295898e-01 2.180733084678649902e-01 2.967638373374938965e-01 5.284829139709472656e-01
9.170000000000000000e+02 2.571387290954589844e+01 6.725091457366943359e+00 5.492800474166870117e-01 -1.476904004812240601e-02 1.603533029556274414e-01 3.698658645153045654e-01
9.180000000000000000e+02 1.717963790893554688e+01 1.700826072692871094e+01 7.248975634574890137e-01 4.622768759727478027e-01 3.561523258686065674e-01 4.433928430080413818e-01
9.190000000000000000e+02 1.796397590637207031e+01 1.700955963134765625e+01 8.381022810935974121e-01 4.275911152362823486e-01 3.797080218791961670e-01 5.478246212005615234e-01
9.200000000000000000e+02 1.617792510986328125e+01 6.329713821411132812e+00 -1.147325515747070312e+00 -1.297068357467651367e+00 -7.333181500434875488e-01 1.229694962501525879e+00
9.210000000000000000e+02 1.381713962554931641e+01 8.906793594360351562e-01 -5.648584961891174316e-01 -5.500026345252990723e-01 -3.344583213329315186e-01 6.108972430229187012e-01
9.220000000000000000e+02 1.334868144989013672e+01 8.853175163269042969e+00 -5.370385646820068359e-01 -1.059612393379211426e+00 -4.789952635765075684e-01 6.924815177917480469e-01
9.230000000000000000e+02 2.210333442687988281e+01 4.299751281738281250e+00 6.607136130332946777e-01 2.778420150279998779e-01 2.815666794776916504e-01 3.833247721195220947e-01
9.240000000000000000e+02 2.353763580322265625e+01 4.848321437835693359e+00 6.530169844627380371e-01 3.669072985649108887e-01 3.059772849082946777e-01 3.688033819198608398e-01
9.250000000000000000e+02 2.425170326232910156e+01 1.493843364715576172e+01 -5.797591209411621094e-01 -9.552507400512695312e-01 -4.605029523372650146e-01 6.684709191322326660e-01
9.260000000000000000e+02 2.041674995422363281e+01 1.686713218688964844e+01 3.192720711231231689e-01 -1.710447371006011963e-01 4.446820169687271118e-02 4.464884400367736816e-01
9.270000000000000000e+02 2.479510307312011719e+01 1.433779239654541016e+01 -5.669288039207458496e-01 -1.188879728317260742e+00 -5.267425775527954102e-01 7.016503810882568359e-01
9.280000000000000000e+02 2.545248603820800781e+01 9.133187294006347656e+00 -7.653287146240472794e-03 -4.459053874015808105e-01 -1.360675990581512451e-01 1.465775966644287109e-01
9.290000000000000000e+02 2.688636207580566406e+01 8.861289978027343750e+00 1.295246928930282593e-01 -3.668490350246429443e-01 -7.119730114936828613e-02 5.379145145416259766e-01
9.300000000000000000e+02 2.124980354309082031e+01 1.671471786499023438e+01 4.836077615618705750e-02 -3.221997022628784180e-01 -8.215168118476867676e-02 4.801141321659088135e-01
9.310000000000000000e+02 2.131896781921386719e+01 4.030824661254882812e+00 4.996672868728637695e-01 2.097330242395401001e-01 2.128200978040695190e-01 3.842413723468780518e-01
9.320000000000000000e+02 1.469351482391357422e+01 1.157032108306884766e+01 7.340511772781610489e-03 -5.980433225631713867e-01 -1.772108525037765503e-01 9.855385869741439819e-02
9.330000000000000000e+02 1.319532203674316406e+01 1.113944911956787109e+01 -3.052824642509222031e-03 -7.927932143211364746e-01 -2.387538105249404907e-01 6.159555912017822266e-01
9.340000000000000000e+02 1.523959922790527344e+01 6.511830329895019531e+00 -8.933841586112976074e-01 -1.697612643241882324e+00 -7.772990465164184570e-01 9.940406680107116699e-01
9.350000000000000000e+02 1.395771884918212891e+01 1.573109507560729980e+00 -5.088124275207519531e-01 -6.882333755493164062e-01 -3.591137528419494629e-01 6.501752138137817383e-01
9.360000000000000000e+02 1.280306053161621094e+01 9.774374008178710938e+00 -3.204134702682495117e-01 -8.779029846191406250e-01 -3.594949245452880859e-01 6.967784762382507324e-01
9.370000000000000000e+02 8.950062751770019531e+00 3.147350788116455078e+00 -3.503815829753875732e-01 -1.338234543800354004e-01 -1.452615112066268921e-01 2.156508266925811768e-01
9.380000000000000000e+02 8.157137870788574219e+00 2.521618366241455078e+00 -2.525251209735870361e-01 -6.590376049280166626e-02 -9.552866965532302856e-02 1.353507936000823975e-01
9.390000000000000000e+02 5.747937679290771484e+00 2.612140893936157227e+00 -1.247948631644248962e-01 -3.647097200155258179e-02 -4.837974905967712402e-02 6.055100262165069580e-02
9.400000000000000000e+02 5.828504562377929688e+00 1.871370673179626465e+00 -7.388627529144287109e-02 -1.667942106723785400e-02 -2.716971002519130707e-02 3.059771098196506500e-02
9.410000000000000000e+02 1.115747451782226562e+00 6.449451923370361328e+00 -1.416379399597644806e-02 -6.261494755744934082e-02 -2.303362265229225159e-02 5.276461318135261536e-02
9.420000000000000000e+02 1.709326028823852539e+00 4.094357490539550781e+00 -2.062645182013511658e-02 -1.521621551364660263e-02 -1.075279992073774338e-02 1.319171395152807236e-02
9.430000000000000000e+02 5.714564800262451172e+00 4.057545661926269531e+00 -1.938441842794418335e-01 -8.164040744304656982e-02 -8.264537900686264038e-02 1.354162245988845825e-01
9.440000000000000000e+02 2.698701620101928711e+00 1.875339865684509277e+00 -7.997271604835987091e-03 -7.673125248402357101e-03 -4.701118916273117065e-03 -1.381241530179977417e-02
9.450000000000000000e+02 3.624262213706970215e-01 2.681512117385864258e+00 -1.175977522507309914e-03 3.936864435672760010e-02 1.145779993385076523e-02 -6.217432674020528793e-03
9.460000000000000000e+02 8.965649604797363281e+00 2.489350795745849609e+00 -3.034233152866363525e-01 -1.035448461771011353e-01 -1.220904514193534851e-01 1.762729585170745850e-01
9.470000000000000000e+02 7.355618000030517578e+00 2.549286603927612305e+00 -2.057162374258041382e-01 -5.154541507363319397e-02 -7.717849314212799072e-02 1.062514036893844604e-01
9.480000000000000000e+02 5.705070495605468750e+00 3.344289541244506836e+00 -1.639605760574340820e-01 -5.399198457598686218e-02 -6.538576632738113403e-02 9.449547529220581055e-02
9.490000000000000000e+02 4.941265583038330078e+00 2.642908811569213867e+00 -9.179315716028213501e-02 -3.013808466494083405e-02 -3.657937049865722656e-02 3.951526805758476257e-02
9.500000000000000000e+02 5.511039733886718750e+01 1.520647048950195312e+01 1.120218634605407715e+00 4.853885650634765625e+00 1.792231321334838867e+00 -1.533665418624877930e+00
9.510000000000000000e+02 5.594793319702148438e+01 1.724771690368652344e+01 5.068517923355102539e-01 3.194018602371215820e+00 1.110261201858520508e+00 -7.160217165946960449e-01
9.520000000000000000e+02 3.532332992553710938e+01 -1.806424522399902344e+01 -4.462149441242218018e-01 2.028643712401390076e-02 -1.277785599231719971e-01 6.425331532955169678e-02
9.530000000000000000e+02 4.355774688720703125e+01 9.192146301269531250e+00 7.196338474750518799e-02 1.028839349746704102e+00 3.302408158779144287e-01 -2.593876719474792480e-01
9.540000000000000000e+02 5.672507476806640625e+01 1.313478374481201172e+01 5.379258394241333008e-01 3.596097469329833984e+00 1.240206956863403320e+00 -5.858120322227478027e-01
9.550000000000000000e+02 4.147102355957031250e+01 1.515931987762451172e+01 5.213364362716674805e-01 1.587403893470764160e+00 6.326220631599426270e-01 3.490334451198577881e-01
9.560000000000000000e+02 4.273761367797851562e+01 1.484455490112304688e+01 4.562540054321289062e-01 2.268843889236450195e+00 8.175293207168579102e-01 5.806142687797546387e-01
9.570000000000000000e+02 4.572749710083007812e+01 1.766313743591308594e+01 6.023889780044555664e-01 4.916138947010040283e-01 3.282008469104766846e-01 5.105948448181152344e-01
9.580000000000000000e+02 4.376694488525390625e+01 1.777200698852539062e+01 3.534473776817321777e-01 1.458126425743103027e+00 5.434721708297729492e-01 5.653879046440124512e-01
9.590000000000000000e+02 4.945569992065429688e+01 6.413927555084228516e+00 8.171309530735015869e-02 1.667651347815990448e-02 2.951688133180141449e-02 4.471368715167045593e-02
9.600000000000000000e+02 5.012208557128906250e+01 6.128493309020996094e+00 1.525519192218780518e-01 4.697743430733680725e-02 5.985880643129348755e-02 9.588570147752761841e-02
9.610000000000000000e+02 4.159920120239257812e+01 1.210855102539062500e+01 3.203216791152954102e-01 1.628846526145935059e+00 5.847504734992980957e-01 2.414627075195312500e-01
9.620000000000000000e+02 4.537709045410156250e+01 5.473393440246582031e+00 -7.127397507429122925e-02 3.241140544414520264e-01 7.585202157497406006e-02 -5.322270840406417847e-02
9.630000000000000000e+02 5.047394180297851562e+01 1.944255256652832031e+01 3.249880969524383545e-01 2.925791740417480469e-01 1.852701902389526367e-01 -2.862792015075683594e-01
9.640000000000000000e+02 4.879496383666992188e+01 1.970030975341796875e+01 3.104106485843658447e-01 1.873032450675964355e-01 1.493141651153564453e-01 1.232378557324409485e-01
9.650000000000000000e+02 5.590526962280273438e+01 1.187622451782226562e+01 3.070311844348907471e-01 3.555736780166625977e+00 1.158830404281616211e+00 -5.051008891314268112e-03
9.660000000000000000e+02 5.474201583862304688e+01 1.682479095458984375e+01 6.938933730125427246e-01 2.835307836532592773e+00 1.058760285377502441e+00 -1.245832204818725586e+00
9.670000000000000000e+02 5.527554702758789062e+01 1.331030654907226562e+01 -4.909821227192878723e-02 3.953551769256591797e+00 1.171336054801940918e+00 -1.089919954538345337e-01
9.680000000000000000e+02 5.633397293090820312e+01 1.445843791961669922e+01 8.847200274467468262e-01 3.669994354248046875e+00 1.366414308547973633e+00 -7.146173119544982910e-01
9.690000000000000000e+02 5.304329681396484375e+01 1.752118301391601562e+01 7.895280122756958008e-01 9.334455728530883789e-01 5.168920755386352539e-01 -8.173637390136718750e-01
9.700000000000000000e+02 5.045132446289062500e+01 1.852409172058105469e+01 -1.079016402363777161e-01 8.519467711448669434e-02 -6.812088191509246826e-03 -7.859048247337341309e-02
9.710000000000000000e+02 4.779640197753906250e+01 5.181755065917968750e+00 5.504869669675827026e-02 8.109257370233535767e-02 4.084238037467002869e-02 2.872996963560581207e-02
9.720000000000000000e+02 5.438825988769531250e+01 8.173444747924804688e+00 3.249216377735137939e-01 1.336975574493408203e+00 4.985691606998443604e-01 5.321240425109863281e-01
9.730000000000000000e+02 2.233223533630371094e+01 -5.576813220977783203e+00 -9.531174302101135254e-01 -7.758144736289978027e-01 -5.186795592308044434e-01 8.122569918632507324e-01
9.740000000000000000e+02 2.416393280029296875e+01 -7.203577518463134766e+00 -7.429800033569335938e-01 -5.127802491188049316e-01 -3.767280876636505127e-01 6.492419242858886719e-01
9.750000000000000000e+02 2.375705909729003906e+01 -6.527841091156005859e+00 -8.234747052192687988e-01 -5.491557717323303223e-01 -4.117891490459442139e-01 6.828476786613464355e-01
9.760000000000000000e+02 2.133637428283691406e+01 -3.215023040771484375e+00 -1.116240859031677246e+00 -6.792879104614257812e-01 -5.386586189270019531e-01 7.765443325042724609e-01
9.770000000000000000e+02 5.245856857299804688e+01 6.616446495056152344e+00 3.263759315013885498e-01 3.731672167778015137e-01 2.098629325628280640e-01 3.065595924854278564e-01
9.780000000000000000e+02 5.172539901733398438e+01 6.267342567443847656e+00 2.773933112621307373e-01 2.353738695383071899e-01 1.538301557302474976e-01 2.326499223709106445e-01
9.790000000000000000e+02 5.179169082641601562e+01 1.944292449951171875e+01 3.502912521362304688e-01 7.659018635749816895e-01 3.348579406738281250e-01 -5.536780953407287598e-01
9.800000000000000000e+02 4.410168838500976562e+01 8.540687561035156250e+00 6.176732480525970459e-02 6.905352473258972168e-01 2.256907671689987183e-01 -2.570015192031860352e-01
9.810000000000000000e+02 5.550092697143554688e+01 9.249822616577148438e+00 2.237754315137863159e-01 2.458454132080078125e+00 8.046689033508300781e-01 1.952537000179290771e-01
9.820000000000000000e+02 4.305215454101562500e+01 1.258443069458007812e+01 9.806429594755172729e-02 2.476412773132324219e+00 7.723431587219238281e-01 5.312020704150199890e-02
9.830000000000000000e+02 4.233841705322265625e+01 1.236593341827392578e+01 2.268198579549789429e-01 2.020237207412719727e+00 6.741170883178710938e-01 1.332664787769317627e-01
9.840000000000000000e+02 4.268624496459960938e+01 1.596291828155517578e+01 6.633207798004150391e-01 1.784814596176147461e+00 7.344406247138977051e-01 5.292153954505920410e-01
9.850000000000000000e+02 4.184383773803710938e+01 1.449924659729003906e+01 4.676499962806701660e-01 1.763895869255065918e+00 6.694637537002563477e-01 3.640707731246948242e-01
9.860000000000000000e+02 4.222245025634765625e+01 1.313310050964355469e+01 3.085307478904724121e-01 2.045658349990844727e+00 7.062567472457885742e-01 3.144749104976654053e-01
9.870000000000000000e+02 5.336739730834960938e+01 1.882072639465332031e+01 4.324177801609039307e-01 1.654030799865722656e+00 6.259346008300781250e-01 -9.458024501800537109e-01
9.880000000000000000e+02 5.613157272338867188e+01 1.386237144470214844e+01 6.174992322921752930e-01 3.844766855239868164e+00 1.338679790496826172e+00 -8.445206880569458008e-01
9.890000000000000000e+02 5.433075332641601562e+01 1.748190879821777344e+01 5.986450314521789551e-01 2.310936927795410156e+00 8.728745579719543457e-01 -1.087272286415100098e+00
9.900000000000000000e+02 5.392212295532226562e+01 1.820561218261718750e+01 4.315094947814941406e-01 1.916093707084655762e+00 7.042809724807739258e-01 -9.972620010375976562e-01
9.910000000000000000e+02 5.524660110473632812e+01 1.255705165863037109e+01 7.932897657155990601e-02 3.746642351150512695e+00 1.147791385650634766e+00 -8.137745410203933716e-02
9.920000000000000000e+02 5.378256988525390625e+01 7.630414009094238281e+00 3.534666001796722412e-01 8.991165757179260254e-01 3.757749497890472412e-01 4.620434343814849854e-01
9.930000000000000000e+02 5.106606292724609375e+01 6.064662933349609375e+00 2.329496741294860840e-01 1.469191908836364746e-01 1.139606535434722900e-01 1.892369538545608521e-01
9.940000000000000000e+02 4.922409057617187500e+01 5.643946170806884766e+00 1.137442365288734436e-01 4.499176144599914551e-02 4.762079939246177673e-02 9.640909731388092041e-02
9.950000000000000000e+02 4.856112670898437500e+01 5.802854537963867188e+00 7.235036045312881470e-02 2.257869020104408264e-02 2.847871556878089905e-02 4.974612221121788025e-02
9.960000000000000000e+02 4.539228439331054688e+01 1.852023315429687500e+01 3.973917365074157715e-01 7.640050053596496582e-01 3.484190404415130615e-01 6.106646656990051270e-01
9.970000000000000000e+02 4.460160827636718750e+01 1.815507698059082031e+01 4.087250530719757080e-01 1.155111908912658691e+00 4.691511094570159912e-01 6.974461078643798828e-01
9.980000000000000000e+02 4.787802124023437500e+01 1.959481430053710938e+01 3.007854521274566650e-01 2.669990658760070801e-01 1.703353524208068848e-01 2.895620465278625488e-01
9.990000000000000000e+02 4.700742721557617188e+01 1.923098564147949219e+01 2.880430817604064941e-01 3.726344704627990723e-01 1.982032656669616699e-01 4.110048115253448486e-01
1.000000000000000000e+03 5.116770553588867188e+01 1.938059425354003906e+01 3.587575852870941162e-01 5.319965481758117676e-01 2.672262489795684814e-01 -4.780195355415344238e-01
1.001000000000000000e+03 5.203979492187500000e+01 7.201990604400634766e+00 3.333883583545684814e-01 1.666005253791809082e-01 1.499966681003570557e-01 2.172765433788299561e-01
1.002000000000000000e+03 4.575316619873046875e+01 7.793628215789794922e+00 8.262895792722702026e-02 2.029161006212234497e-01 8.566351979970932007e-02 -1.382109671831130981e-01
1.003000000000000000e+03 4.464619445800781250e+01 7.918369770050048828e+00 4.317693412303924561e-02 4.703097343444824219e-01 1.540459990501403809e-01 -2.073917090892791748e-01
1.004000000000000000e+03 5.592786026000976562e+01 1.128405666351318359e+01 3.851014375686645508e-01 3.265551805496215820e+00 1.095196008682250977e+00 2.922281436622142792e-02
1.005000000000000000e+03 6.686492919921875000e+01 -6.730397224426269531e+00 8.609055876731872559e-01 6.570676326751708984e+00 2.229474544525146484e+00 -4.406003475189208984e+00
1.006000000000000000e+03 8.645730972290039062e+00 -1.287280368804931641e+01 4.236974928062409163e-05 2.969551132991909981e-05 2.161957854696083814e-05 -5.998436790832784027e-06
1.007000000000000000e+03 9.431688308715820312e+00 -1.316638278961181641e+01 -3.322027623653411865e-05 -3.009488500538282096e-05 -1.899454764497932047e-05 1.662232716626022011e-05
1.008000000000000000e+03 6.440005493164062500e+01 -6.382709980010986328e+00 -3.865823745727539062e+00 -8.661078214645385742e-01 -1.419579505920410156e+00 -1.868239402770996094e+00
1.009000000000000000e+03 1.251666450500488281e+01 -1.062676048278808594e+01 2.583734203653875738e-05 4.139822067372733727e-06 8.993149094749242067e-06 -1.057841018337057903e-05
1.010000000000000000e+03 6.527355957031250000e+01 -6.712424278259277344e+00 -4.066150665283203125e+00 -2.380238175392150879e-01 -1.291252255439758301e+00 -1.878053903579711914e+00
1.011000000000000000e+03 6.154981613159179688e+01 -6.838417053222656250e+00 -3.169442415237426758e+00 -3.686858415603637695e-01 -1.061438441276550293e+00 -9.885097742080688477e-01
1.012000000000000000e+03 6.686146545410156250e+01 -5.857356548309326172e+00 -1.610620737075805664e+00 7.086853504180908203e+00 1.642869830131530762e+00 -4.256201744079589844e+00
1.013000000000000000e+03 6.350936126708984375e+01 -5.823679924011230469e+00 -2.053228378295898438e+00 -5.232014060020446777e-01 -7.729289531707763672e-01 -1.443565845489501953e+00
1.014000000000000000e+03 4.083438491821289062e+01 -1.861485862731933594e+01 -5.335590839385986328e-01 4.286945797502994537e-03 -1.587816476821899414e-01 -8.788589388132095337e-02
1.015000000000000000e+03 3.769417572021484375e+01 -1.820032882690429688e+01 -5.427393913269042969e-01 1.675488986074924469e-02 -1.577953547239303589e-01 9.713891893625259399e-03
1.016000000000000000e+03 4.140348815917968750e+01 -1.775569152832031250e+01 -6.319251060485839844e-01 2.268736623227596283e-02 -1.827713251113891602e-01 -8.386842906475067139e-02
1.017000000000000000e+03 1.158314418792724609e+01 -1.048688697814941406e+01 2.384921572229359299e-05 1.559746124257799238e-05 1.183400308946147561e-05 8.927663088797999080e-07
1.018000000000000000e+03 4.052093505859375000e+01 -1.723251342773437500e+01 -6.432279944419860840e-01 5.307447165250778198e-02 -1.770460605621337891e-01 -4.796446114778518677e-02
1.019000000000000000e+03 4.483186340332031250e+01 -1.600154304504394531e+01 -8.283005356788635254e-01 -4.648765549063682556e-03 -2.498847842216491699e-01 -1.681060492992401123e-01
1.020000000000000000e+03 6.214876556396484375e+01 -7.319716930389404297e+00 -3.818106651306152344e+00 -6.446648240089416504e-01 -1.338831424713134766e+00 -1.520599603652954102e+00
1.021000000000000000e+03 3.919298171997070312e+01 -1.810755157470703125e+01 -5.633517503738403320e-01 1.448303088545799255e-02 -1.646606177091598511e-01 -3.358301147818565369e-02
1.022000000000000000e+03 5.083415222167968750e+01 -1.434086704254150391e+01 -1.107477188110351562e+00 -1.444501280784606934e-01 -3.755781948566436768e-01 -4.708778560161590576e-01
1.023000000000000000e+03 5.194173049926757812e+01 -1.456866931915283203e+01 -1.103253006935119629e+00 -3.067192733287811279e-01 -4.229916632175445557e-01 -5.852050185203552246e-01
1.024000000000000000e+03 6.154423522949218750e+01 -7.769711971282958984e+00 -3.665058135986328125e+00 -6.838806271553039551e-01 -1.304681658744812012e+00 -1.573303103446960449e+00
1.025000000000000000e+03 6.273516082763671875e+01 -7.823706626892089844e+00 -4.567620277404785156e+00 -1.385802745819091797e+00 -1.786026835441589355e+00 -2.362256288528442383e+00
1.026000000000000000e+03 4.838249588012695312e+01 -1.630237197875976562e+01 -8.765345811843872070e-01 -1.231455877423286438e-01 -2.999040484428405762e-01 -3.494045138359069824e-01
1.027000000000000000e+03 4.802527618408203125e+01 -1.564363193511962891e+01 -9.255009889602661133e-01 -6.100414693355560303e-02 -2.959515452384948730e-01 -3.034331798553466797e-01
1.028000000000000000e+03 4.658410644531250000e+01 -1.618292999267578125e+01 -8.745054602622985840e-01 -3.199490159749984741e-02 -2.719500958919525146e-01 -2.602218091487884521e-01
1.029000000000000000e+03 4.585447692871093750e+01 -1.642342567443847656e+01 -8.484296202659606934e-01 -4.181314632296562195e-02 -2.670728266239166260e-01 -2.390405535697937012e-01
1.030000000000000000e+03 3.692600250244140625e+01 -1.888326454162597656e+01 -5.034035444259643555e-01 3.634131280705332756e-03 -1.499308347702026367e-01 1.592198270373046398e-03
1.031000000000000000e+03 5.180429840087890625e+01 -1.298291778564453125e+01 -1.271500825881958008e+00 -1.180462986230850220e-01 -4.168641269207000732e-01 -4.779318273067474365e-01
1.032000000000000000e+03 4.067025756835937500e+01 -1.791290283203125000e+01 -6.117475032806396484e-01 3.530165180563926697e-02 -1.729337573051452637e-01 -6.457527726888656616e-02
1.033000000000000000e+03 3.993656158447265625e+01 -1.802982521057128906e+01 -5.911768674850463867e-01 3.314301744103431702e-02 -1.674101650714874268e-01 -5.482869222760200500e-02
1.034000000000000000e+03 4.236098861694335938e+01 -1.824538421630859375e+01 -6.402692794799804688e-01 -2.698939666152000427e-02 -2.001776099205017090e-01 -1.469164788722991943e-01
1.035000000000000000e+03 6.026759338378906250e+01 -8.605161666870117188e+00 -3.059754848480224609e+00 -7.216138243675231934e-01 -1.134410619735717773e+00 -1.421022057533264160e+00
1.036000000000000000e+03 5.672052764892578125e+01 -1.169738101959228516e+01 -1.771956443786621094e+00 -6.533407568931579590e-01 -7.275891304016113281e-01 -1.089262485504150391e+00
1.037000000000000000e+03 5.559545898437500000e+01 -1.157586669921875000e+01 -1.685771584510803223e+00 -3.642717301845550537e-01 -6.150130033493041992e-01 -8.476539254188537598e-01
1.038000000000000000e+03 4.730617904663085938e+01 -1.592476081848144531e+01 -8.960576653480529785e-01 -3.117493540048599243e-02 -2.781697809696197510e-01 -2.815912365913391113e-01
1.039000000000000000e+03 3.615532302856445312e+01 -1.808749961853027344e+01 -4.788205325603485107e-01 1.617943681776523590e-02 -1.387923210859298706e-01 4.817701876163482666e-02
1.040000000000000000e+03 3.844171142578125000e+01 -1.816288185119628906e+01 -5.494629144668579102e-01 1.241102255880832672e-02 -1.611155569553375244e-01 -3.070771461352705956e-03
1.041000000000000000e+03 5.426048660278320312e+01 -1.240611839294433594e+01 -1.464914917945861816e+00 -2.878480851650238037e-01 -5.258288979530334473e-01 -7.336745858192443848e-01
1.042000000000000000e+03 5.358746337890625000e+01 -1.280132770538330078e+01 -1.385884881019592285e+00 -2.891651093959808350e-01 -5.025150179862976074e-01 -6.631906628608703613e-01
1.043000000000000000e+03 5.492768478393554688e+01 -1.199792575836181641e+01 -1.576652646064758301e+00 -3.214986920356750488e-01 -5.694453716278076172e-01 -7.777596712112426758e-01
1.044000000000000000e+03 4.911021041870117188e+01 -1.598571205139160156e+01 -9.357432723045349121e-01 -1.552565991878509521e-01 -3.272999823093414307e-01 -3.832623660564422607e-01
1.045000000000000000e+03 5.626512908935546875e+01 -1.114575576782226562e+01 -1.842634439468383789e+00 -4.380794763565063477e-01 -6.842141747474670410e-01 -9.137064218521118164e-01
1.046000000000000000e+03 5.014532089233398438e+01 -1.469274902343750000e+01 -1.036143541336059570e+00 -1.223764047026634216e-01 -3.475559949874877930e-01 -4.347586631774902344e-01
1.047000000000000000e+03 5.960736846923828125e+01 -9.017142295837402344e+00 -2.809318542480468750e+00 -6.481734514236450195e-01 -1.037247538566589355e+00 -1.347975134849548340e+00
1.048000000000000000e+03 5.827364349365234375e+01 -9.854643821716308594e+00 -2.362005472183227539e+00 -5.718150734901428223e-01 -8.801461458206176758e-01 -1.185123920440673828e+00
1.049000000000000000e+03 5.515571975708007812e+01 -1.100737380981445312e+01 -1.732824921607971191e+00 -2.182324081659317017e-01 -5.853171944618225098e-01 -7.148936390876770020e-01
1.050000000000000000e+03 6.786837768554687500e+01 -7.080845355987548828e+00 1.083915904164314270e-01 1.366232585906982422e+01 4.131215572357177734e+00 -4.506896495819091797e+00
1.051000000000000000e+03 6.847306060791015625e+01 -6.852024555206298828e+00 -4.156371355056762695e-01 1.474878978729248047e+01 4.299945831298828125e+00 -1.981072783470153809e+00
1.052000000000000000e+03 6.821138763427734375e+01 -7.615513801574707031e+00 1.353284239768981934e+00 1.709025192260742188e+01 5.533061027526855469e+00 -3.078502416610717773e+00
1.053000000000000000e+03 6.854131317138671875e+01 -1.307802677154541016e+01 2.291317462921142578e+00 1.931978797912597656e+01 6.483331680297851562e+00 2.446876764297485352e+00
1.054000000000000000e+03 6.930171966552734375e+01 -1.015940093994140625e+01 2.746483087539672852e+00 1.869345092773437500e+01 6.431980133056640625e+00 -1.782567620277404785e+00
1.055000000000000000e+03 6.960614013671875000e+01 -9.553976058959960938e+00 3.490402221679687500e+00 1.687680244445800781e+01 6.110161304473876953e+00 -9.331801533699035645e-01
1.056000000000000000e+03 6.874208831787109375e+01 -9.135286331176757812e+00 4.603256225585937500e+00 2.269995307922363281e+01 8.190962791442871094e+00 -3.176032304763793945e+00
1.057000000000000000e+03 7.959974670410156250e+01 3.880636215209960938e+01 -1.564563019201159477e-03 6.623413085937500000e+00 1.986554503440856934e+00 -3.447742667049169540e-03
1.058000000000000000e+03 7.961962127685546875e+01 3.572104644775390625e+01 -3.915703855454921722e-03 6.691905498504638672e+00 2.006397008895874023e+00 -6.481547374278306961e-03
1.059000000000000000e+03 7.883985137939453125e+01 3.501017379760742188e+01 -4.900088068097829819e-03 6.608925819396972656e+00 1.981207728385925293e+00 -2.725976146757602692e-02
1.060000000000000000e+03 7.803251647949218750e+01 3.121574592590332031e+01 1.782107399776577950e-03 6.606254100799560547e+00 1.982410907745361328e+00 -6.155012175440788269e-02
1.061000000000000000e+03 7.962280273437500000e+01 3.253010940551757812e+01 -2.279441105201840401e-03 6.775420188903808594e+00 2.031942367553710938e+00 -9.135510772466659546e-03
1.062000000000000000e+03 7.889812469482421875e+01 1.491757965087890625e+01 8.097054087556898594e-04 7.765188694000244141e+00 2.329799413681030273e+00 -1.081467792391777039e-01
1.063000000000000000e+03 7.963291931152343750e+01 1.486548519134521484e+01 1.568702282384037971e-03 7.923342704772949219e+00 2.377473354339599609e+00 -3.098204359412193298e-02
1.064000000000000000e+03 7.887401580810546875e+01 2.052422523498535156e+01 4.340458195656538010e-03 7.267682552337646484e+00 2.181607007980346680e+00 -8.013122528791427612e-02
1.065000000000000000e+03 7.962216949462890625e+01 2.127826118469238281e+01 1.824974431656301022e-03 7.329868793487548828e+00 2.199508190155029297e+00 -2.218108624219894409e-02
1.066000000000000000e+03 7.875405883789062500e+01 2.865227127075195312e+01 1.513345749117434025e-03 6.799567699432373047e+00 2.040324211120605469e+00 -4.752420634031295776e-02
1.067000000000000000e+03 7.958760070800781250e+01 2.852829360961914062e+01 1.927798730321228504e-03 6.917364597320556641e+00 2.075787782669067383e+00 -1.279589720070362091e-02
1.068000000000000000e+03 7.960146331787109375e+01 3.013614463806152344e+01 2.659167628735303879e-03 6.856687545776367188e+00 2.057804107666015625e+00 -1.140136364847421646e-02
1.069000000000000000e+03 7.884138488769531250e+01 3.186377525329589844e+01 -2.466811565682291985e-04 6.696834087371826172e+00 2.008976221084594727e+00 -3.546660020947456360e-02
1.070000000000000000e+03 7.877558898925781250e+01 2.946467399597167969e+01 3.828121349215507507e-03 6.768187522888183594e+00 2.031604766845703125e+00 -4.262980818748474121e-02
1.071000000000000000e+03 7.874413299560546875e+01 2.783277320861816406e+01 3.827193751931190491e-03 6.830829620361328125e+00 2.050397157669067383e+00 -4.891175776720046997e-02
1.072000000000000000e+03 7.736164855957031250e+01 2.211304092407226562e+01 1.572352275252342224e-02 6.909569263458251953e+00 2.077587842941284180e+00 -1.674871146678924561e-01
1.073000000000000000e+03 7.875357055664062500e+01 2.618964004516601562e+01 2.644826192408800125e-03 6.907574653625488281e+00 2.073065757751464844e+00 -5.696452036499977112e-02
1.074000000000000000e+03 7.882028198242187500e+01 2.373993682861328125e+01 3.965842071920633316e-03 7.045544147491455078e+00 2.114852905273437500e+00 -6.667399406433105469e-02
1.075000000000000000e+03 7.879546356201171875e+01 2.455562782287597656e+01 2.028084360063076019e-03 6.995494842529296875e+00 2.099256992340087891e+00 -6.364950537681579590e-02
1.076000000000000000e+03 7.960724639892578125e+01 2.368904876708984375e+01 -8.944414439611136913e-04 7.164593219757080078e+00 2.149109601974487305e+00 -1.928849890828132629e-02
1.077000000000000000e+03 7.885797882080078125e+01 2.212346458435058594e+01 4.375173710286617279e-03 7.152214527130126953e+00 2.146976947784423828e+00 -7.284994423389434814e-02
1.078000000000000000e+03 7.738607788085937500e+01 2.054862785339355469e+01 1.668741740286350250e-02 7.012560367584228516e+00 2.108774423599243164e+00 -1.830890327692031860e-01
1.079000000000000000e+03 7.813356781005859375e+01 1.895428276062011719e+01 7.970626465976238251e-03 7.258348941802978516e+00 2.179895877838134766e+00 -1.477979570627212524e-01
1.080000000000000000e+03 7.888587951660156250e+01 1.732290649414062500e+01 4.401601385325193405e-03 7.532837867736816406e+00 2.261171817779541016e+00 -9.752774983644485474e-02
1.081000000000000000e+03 7.888266754150390625e+01 1.812407302856445312e+01 1.960922265425324440e-03 7.461256027221679688e+00 2.238965034484863281e+00 -9.319070726633071899e-02
1.082000000000000000e+03 7.962869262695312500e+01 1.727108383178710938e+01 -7.794413249939680099e-04 7.673633575439453125e+00 2.301856279373168945e+00 -2.807381562888622284e-02
1.083000000000000000e+03 7.889414215087890625e+01 1.571738338470458984e+01 3.722488647326827049e-03 7.685222625732421875e+00 2.306683540344238281e+00 -1.048435717821121216e-01
1.084000000000000000e+03 7.888980865478515625e+01 1.651992607116699219e+01 1.518667791970074177e-03 7.607193470001220703e+00 2.282613754272460938e+00 -1.013344898819923401e-01
1.085000000000000000e+03 7.890321350097656250e+01 1.331522655487060547e+01 -7.114609616110101342e-05 7.931897640228271484e+00 2.379547834396362305e+00 -1.127218678593635559e-01
1.086000000000000000e+03 7.890098571777343750e+01 1.411861228942871094e+01 2.534453989937901497e-03 7.847593307495117188e+00 2.355038166046142578e+00 -1.103696972131729126e-01
1.087000000000000000e+03 7.817824554443359375e+01 1.254823303222656250e+01 -8.190699008991941810e-05 7.840371608734130859e+00 2.352086782455444336e+00 -1.884686052799224854e-01
1.088000000000000000e+03 7.891535186767578125e+01 9.302805900573730469e+00 -6.648663897067308426e-03 8.354534149169921875e+00 2.504365682601928711e+00 -9.889698028564453125e-02
1.089000000000000000e+03 7.795484924316406250e+01 -3.548137664794921875e+01 -1.637844555079936981e-02 9.955842018127441406e+00 2.981839179992675781e+00 -1.072552241384983063e-02
1.090000000000000000e+03 7.959360504150390625e+01 -3.483263778686523438e+01 1.077547669410705566e-02 1.067525672912597656e+01 3.205809593200683594e+00 -1.367722079157829285e-02
1.091000000000000000e+03 7.883659362792968750e+01 -2.834771537780761719e+01 -2.773937955498695374e-02 1.000247478485107422e+01 2.992420434951782227e+00 -1.707642525434494019e-01
1.092000000000000000e+03 7.961701202392578125e+01 -2.762762832641601562e+01 -8.872459642589092255e-03 1.020806026458740234e+01 3.059756278991699219e+00 -8.245009928941726685e-02
1.093000000000000000e+03 7.816311645507812500e+01 -2.189641952514648438e+01 -7.730715721845626831e-02 8.522503852844238281e+00 2.533558845520019531e+00 -7.300603389739990234e-01
1.094000000000000000e+03 7.963703155517578125e+01 -2.121595954895019531e+01 -1.080890092998743057e-02 8.179757118225097656e+00 2.450684309005737305e+00 -1.991953551769256592e-01
1.095000000000000000e+03 7.880265045166015625e+01 3.583459854125976562e+01 2.699436852708458900e-03 6.585532665252685547e+00 1.976469635963439941e+00 -3.097079694271087646e-02
1.096000000000000000e+03 7.821501922607421875e+01 -1.470614433288574219e+01 1.270313560962677002e-01 6.021446704864501953e+00 1.844543457031250000e+00 -7.243657112121582031e-01
1.097000000000000000e+03 7.964125061035156250e+01 -1.399894332885742188e+01 2.556945756077766418e-02 4.208119392395019531e+00 1.270106554031372070e+00 -1.533039659261703491e-01
1.098000000000000000e+03 7.822792053222656250e+01 -7.458441734313964844e+00 1.329466551542282104e-01 6.020548820495605469e+00 1.846048593521118164e+00 7.590119838714599609e-01
1.099000000000000000e+03 7.964593505859375000e+01 -6.781431198120117188e+00 1.114750094711780548e-02 4.968585014343261719e+00 1.493919730186462402e+00 2.102762907743453979e-01
1.100000000000000000e+03 7.892960357666015625e+01 -3.232669234275817871e-01 -5.260254815220832825e-02 8.154150009155273438e+00 2.430464267730712891e+00 3.190130591392517090e-01
1.101000000000000000e+03 7.964319610595703125e+01 4.301822781562805176e-01 -1.606717891991138458e-02 8.437818527221679688e+00 2.526525497436523438e+00 1.068748906254768372e-01
1.102000000000000000e+03 7.891991424560546875e+01 7.698166847229003906e+00 -1.203811261802911758e-02 8.498847961425781250e+00 2.546043157577514648e+00 -7.613034546375274658e-02
1.103000000000000000e+03 7.963994598388671875e+01 7.647694110870361328e+00 -1.920316019095480442e-03 8.722436904907226562e+00 2.616154909133911133e+00 -1.674230769276618958e-02
1.104000000000000000e+03 7.950163269042968750e+01 4.038035964965820312e+01 3.626466030254960060e-03 6.624333858489990234e+00 1.988388061523437500e+00 5.961874965578317642e-03
1.105000000000000000e+03 7.772952270507812500e+01 3.893787384033203125e+01 1.531925611197948456e-02 6.401837825775146484e+00 1.925147175788879395e+00 -3.476348891854286194e-02
1.106000000000000000e+03 7.902641296386718750e+01 3.720696258544921875e+01 9.236583486199378967e-03 6.588605880737304688e+00 1.979352712631225586e+00 -1.952078379690647125e-02
1.107000000000000000e+03 7.767285156250000000e+01 3.673764038085937500e+01 9.805824607610702515e-03 6.429449558258056641e+00 1.931776523590087891e+00 -4.636949673295021057e-02
1.108000000000000000e+03 7.887171936035156250e+01 3.420821380615234375e+01 3.581065218895673752e-03 6.631571292877197266e+00 1.990545749664306641e+00 -2.544648572802543640e-02
1.109000000000000000e+03 7.724020385742187500e+01 3.135007858276367188e+01 4.613710567355155945e-03 6.489944934844970703e+00 1.948367476463317871e+00 -8.401559293270111084e-02
1.110000000000000000e+03 7.963817596435546875e+01 9.251602172851562500e+00 -1.606921665370464325e-03 8.565224647521972656e+00 2.569085359573364258e+00 -2.546907775104045868e-02
1.111000000000000000e+03 7.891123962402343750e+01 1.090743827819824219e+01 -2.300028922036290169e-03 8.190106391906738281e+00 2.456341981887817383e+00 -1.100533828139305115e-01
1.112000000000000000e+03 7.891751861572265625e+01 8.498612403869628906e+00 -8.553666993975639343e-03 8.430027008056640625e+00 2.526441812515258789e+00 -9.047880768775939941e-02
1.113000000000000000e+03 7.892247009277343750e+01 6.095283508300781250e+00 -1.877396553754806519e-02 8.605042457580566406e+00 2.575880527496337891e+00 -3.910412266850471497e-02
1.114000000000000000e+03 7.892154693603515625e+01 6.899054527282714844e+00 -1.343984063714742661e-02 8.557311058044433594e+00 2.563161373138427734e+00 -6.187505647540092468e-02
1.115000000000000000e+03 7.820812225341796875e+01 5.322501659393310547e+00 -5.317036062479019165e-02 8.436208724975585938e+00 2.514911651611328125e+00 -3.911856189370155334e-02
1.116000000000000000e+03 7.892603302001953125e+01 2.882963418960571289e+00 -3.840927407145500183e-02 8.611614227294921875e+00 2.571961641311645508e+00 9.686324000358581543e-02
1.117000000000000000e+03 7.892567443847656250e+01 3.685257196426391602e+00 -2.784213423728942871e-02 8.643633842468261719e+00 2.584737300872802734e+00 5.124919116497039795e-02
1.118000000000000000e+03 7.964182281494140625e+01 2.835765361785888672e+00 -2.701824065297842026e-03 8.815434455871582031e+00 2.643819808959960938e+00 4.724069312214851379e-02
1.119000000000000000e+03 7.892671966552734375e+01 2.078850746154785156e+00 -3.469208627939224243e-02 8.547447204589843750e+00 2.553826570510864258e+00 1.427339911460876465e-01
1.120000000000000000e+03 7.822125244140625000e+01 -3.047725558280944824e-01 -1.155512258410453796e-01 8.137908935546875000e+00 2.406707286834716797e+00 4.599408805370330811e-01
1.121000000000000000e+03 7.892946624755859375e+01 -1.129052639007568359e+00 -4.323438927531242371e-02 7.940741062164306641e+00 2.369251966476440430e+00 3.826777338981628418e-01
1.122000000000000000e+03 7.822328948974609375e+01 -1.915397644042968750e+00 -1.097872927784919739e-01 7.799168109893798828e+00 2.306814193725585938e+00 6.519878506660461426e-01
1.123000000000000000e+03 7.893866729736328125e+01 -4.325965881347656250e+00 -1.498128660023212433e-02 6.734501361846923828e+00 2.015856027603149414e+00 5.836442708969116211e-01
1.124000000000000000e+03 7.893623352050781250e+01 -3.530399799346923828e+00 -3.429357334971427917e-02 7.083428859710693359e+00 2.114740610122680664e+00 5.484553575515747070e-01
1.125000000000000000e+03 7.964531707763671875e+01 -4.379044055938720703e+00 -1.011990569531917572e-02 6.388787746429443359e+00 1.913600325584411621e+00 2.207932919263839722e-01
1.126000000000000000e+03 7.894151306152343750e+01 -5.123321533203125000e+00 -8.050567470490932465e-03 6.375294685363769531e+00 1.910173177719116211e+00 5.975075364112854004e-01
1.127000000000000000e+03 7.893371582031250000e+01 -7.516044139862060547e+00 5.745051056146621704e-02 5.324106216430664062e+00 1.614467024803161621e+00 5.125951766967773438e-01
1.128000000000000000e+03 7.892088317871093750e+01 -1.151472663879394531e+01 1.109191253781318665e-01 4.586383342742919922e+00 1.409190773963928223e+00 -6.776178628206253052e-02
1.129000000000000000e+03 7.892147064208984375e+01 -1.071138000488281250e+01 1.048797816038131714e-01 4.584999561309814453e+00 1.406963825225830078e+00 7.406528294086456299e-02
1.130000000000000000e+03 7.964031219482421875e+01 -1.158791160583496094e+01 1.594624295830726624e-02 3.591441392898559570e+00 1.082216262817382812e+00 -2.600135281682014465e-02
1.131000000000000000e+03 7.891974639892578125e+01 -1.232327461242675781e+01 8.908459544181823730e-02 4.669516086578369141e+00 1.427580237388610840e+00 -1.926181465387344360e-01
1.132000000000000000e+03 7.892148590087890625e+01 -1.313371753692626953e+01 9.016056358814239502e-02 4.824331760406494141e+00 1.474347591400146484e+00 -3.134356439113616943e-01
1.133000000000000000e+03 7.892735290527343750e+01 -1.474432277679443359e+01 6.431772559881210327e-02 5.317366123199462891e+00 1.614505171775817871e+00 -4.909785687923431396e-01
1.134000000000000000e+03 7.892516326904296875e+01 -1.875096511840820312e+01 -1.514851115643978119e-02 7.137845039367675781e+00 2.136809110641479492e+00 -6.102110147476196289e-01
1.135000000000000000e+03 7.892722320556640625e+01 -1.795169448852539062e+01 7.668986916542053223e-03 6.752035617828369141e+00 2.027911424636840820e+00 -6.151999831199645996e-01
1.136000000000000000e+03 7.964154052734375000e+01 -1.881102561950683594e+01 7.138033397495746613e-03 6.868296146392822266e+00 2.062630176544189453e+00 -2.279290258884429932e-01
1.137000000000000000e+03 7.892138671875000000e+01 -1.955111694335937500e+01 -1.284972485154867172e-02 7.508688449859619141e+00 2.248751640319824219e+00 -5.877438187599182129e-01
1.138000000000000000e+03 7.891614532470703125e+01 -2.035271263122558594e+01 -2.981554344296455383e-02 7.869396686553955078e+00 2.351874351501464844e+00 -5.608682036399841309e-01
1.139000000000000000e+03 7.890093231201171875e+01 -2.195377731323242188e+01 -3.648724779486656189e-02 8.512718200683593750e+00 2.542869329452514648e+00 -4.866094589233398438e-01
1.140000000000000000e+03 7.735748291015625000e+01 -2.345604515075683594e+01 -1.638475954532623291e-01 8.900326728820800781e+00 2.620943784713745117e+00 -7.736721038818359375e-01
1.141000000000000000e+03 7.886784362792968750e+01 -2.516851615905761719e+01 -3.731504827737808228e-02 9.469982147216796875e+00 2.829800128936767578e+00 -3.142011463642120361e-01
1.142000000000000000e+03 7.887357330322265625e+01 -2.436846351623535156e+01 -3.259536623954772949e-02 9.271913528442382812e+00 2.771795511245727539e+00 -3.569937348365783691e-01
1.143000000000000000e+03 7.962415313720703125e+01 -2.522801971435546875e+01 -4.071138333529233932e-03 9.697786331176757812e+00 2.908114671707153320e+00 -1.244900226593017578e-01
1.144000000000000000e+03 7.886126708984375000e+01 -2.596563148498535156e+01 -3.067200817167758942e-02 9.637783050537109375e+00 2.882133245468139648e+00 -2.733390629291534424e-01
1.145000000000000000e+03 7.804962158203125000e+01 -2.827118301391601562e+01 -5.968130752444267273e-02 9.710856437683105469e+00 2.895352602005004883e+00 -2.554696202278137207e-01
1.146000000000000000e+03 7.718312835693359375e+01 -3.060100173950195312e+01 -8.167248964309692383e-02 9.541333198547363281e+00 2.837898015975952148e+00 -1.806901842355728149e-01
1.147000000000000000e+03 7.875203704833984375e+01 -3.236258697509765625e+01 -9.617093019187450409e-03 1.025457191467285156e+01 3.073486566543579102e+00 -6.365402787923812866e-02
1.148000000000000000e+03 7.876860809326171875e+01 -3.156991577148437500e+01 -1.990105211734771729e-02 1.022525691986083984e+01 3.061606884002685547e+00 -7.062262296676635742e-02
1.149000000000000000e+03 7.958980560302734375e+01 -3.243788146972656250e+01 -1.090386882424354553e-02 1.063288879394531250e+01 3.186595439910888672e+00 -2.559940516948699951e-02
1.150000000000000000e+03 7.874496459960937500e+01 -3.315122222900390625e+01 -2.102326042950153351e-02 1.027875709533691406e+01 3.077320098876953125e+00 -3.895204141736030579e-02
1.151000000000000000e+03 7.878462982177734375e+01 -3.554331970214843750e+01 -1.553695066832005978e-03 1.030749893188476562e+01 3.091783523559570312e+00 -2.841497305780649185e-03
1.152000000000000000e+03 7.896831512451171875e+01 -3.867425918579101562e+01 -9.459027089178562164e-03 1.036472415924072266e+01 3.106579542160034180e+00 -3.210667986422777176e-03
1.153000000000000000e+03 7.842739868164062500e+01 -3.916902542114257812e+01 2.832339331507682800e-02 1.008597660064697266e+01 3.034289836883544922e+00 -9.692197665572166443e-03
1.154000000000000000e+03 7.961911010742187500e+01 -3.957036590576171875e+01 4.972378155798651278e-05 1.066113567352294922e+01 3.198355436325073242e+00 3.119780914857983589e-03
1.155000000000000000e+03 7.895608520507812500e+01 -3.933827972412109375e+01 1.216645818203687668e-02 1.039260673522949219e+01 3.121431827545166016e+00 -3.736203163862228394e-02
1.156000000000000000e+03 7.876760864257812500e+01 -3.992874145507812500e+01 -2.793204039335250854e-02 1.019702529907226562e+01 3.050728082656860352e+00 -7.921548187732696533e-02
1.157000000000000000e+03 7.846779632568359375e+01 -4.190027999877929688e+01 2.710939617827534676e-03 1.026824378967285156e+01 3.081286430358886719e+00 -1.429888419806957245e-02
1.158000000000000000e+03 1.340425205230712891e+01 -1.197741317749023438e+01 2.580619138825568371e-06 4.912453277938766405e-06 2.247921656817197800e-06 7.730815809736668598e-07
1.159000000000000000e+03 1.307880687713623047e+01 -1.101785469055175781e+01 -2.573000529082491994e-05 6.001978817948838696e-06 -5.918408078287029639e-06 -2.250882744192495011e-06
1.160000000000000000e+03 1.702959251403808594e+01 -1.365627956390380859e+01 -1.137746266977046616e-06 -5.722831247112480924e-06 -2.058173095065285452e-06 -2.304892632309929468e-06
1.161000000000000000e+03 1.774833679199218750e+01 -1.399633884429931641e+01 1.046552370098652318e-06 5.444316229841206223e-06 1.947260670931427740e-06 2.267263425892451778e-06
1.162000000000000000e+03 8.902165412902832031e+00 -1.669018745422363281e+01 -6.637145020249590743e-07 -1.588138366059865803e-05 -4.963529136148281395e-06 -1.372885435557691380e-05
1.163000000000000000e+03 1.093166828155517578e+01 -1.711612892150878906e+01 -5.272444832371547818e-05 -7.329980871872976422e-05 -3.780727638513781130e-05 -4.475110770840728946e-08
1.164000000000000000e+03 1.371145153045654297e+01 -1.132529640197753906e+01 6.859878794784890488e-06 -2.476443114574067295e-06 1.315030658588511869e-06 5.155151484359521419e-06
1.165000000000000000e+03 5.788524627685546875e+01 -2.674880981445312500e+01 -9.057177305221557617e-01 -2.270957827568054199e-02 -2.785281836986541748e-01 -3.252095878124237061e-01
1.166000000000000000e+03 2.074431991577148438e+01 -2.669204902648925781e+01 3.167639719322323799e-03 8.316930034197866917e-04 1.199799822643399239e-03 -1.621076371520757675e-03
1.167000000000000000e+03 1.208045291900634766e+01 -1.943088531494140625e+01 1.682235961197875440e-05 -4.531255763140507042e-05 -8.547059223928954452e-06 -2.404563747404608876e-05
1.168000000000000000e+03 6.908836364746093750e+01 -1.081506347656250000e+01 1.461246132850646973e+00 2.188791465759277344e+01 7.004747867584228516e+00 -6.041802167892456055e-01
1.169000000000000000e+03 4.569462966918945312e+01 -3.199714660644531250e+01 -5.351227521896362305e-01 -1.176256090402603149e-01 -1.958245187997817993e-01 -2.748652994632720947e-01
1.170000000000000000e+03 2.859780120849609375e+01 -3.077447509765625000e+01 1.689188554883003235e-02 2.672037808224558830e-03 5.869176704436540604e-03 -4.940360784530639648e-03
1.171000000000000000e+03 3.027253341674804688e+01 -3.338000869750976562e+01 4.017954692244529724e-03 -8.451856556348502636e-04 9.518307051621377468e-04 -2.909909468144178391e-03
1.172000000000000000e+03 5.934099197387695312e+01 -2.448448181152343750e+01 -6.590468287467956543e-01 -1.367131173610687256e-01 -2.387279868125915527e-01 -3.672994077205657959e-01
1.173000000000000000e+03 1.830658531188964844e+01 -7.660458564758300781e+00 5.434523700387217104e-06 1.388304667671036441e-06 2.046848521786159836e-06 1.279235220863483846e-06
1.174000000000000000e+03 4.867682647705078125e+01 -3.038023757934570312e+01 -1.164501070976257324e+00 -2.229258120059967041e-01 -4.162280559539794922e-01 -4.690417051315307617e-01
1.175000000000000000e+03 5.009043502807617188e+01 -3.202404785156250000e+01 -5.109319686889648438e-01 -3.467504084110260010e-01 -2.573047280311584473e-01 -4.480229616165161133e-01
1.176000000000000000e+03 9.933080673217773438e+00 -1.689092445373535156e+01 -2.365011278016027063e-05 -5.802213127026334405e-05 -2.450167266943026334e-05 -7.439800356223713607e-06
1.177000000000000000e+03 1.103584957122802734e+01 -1.934687042236328125e+01 3.225353430025279522e-05 -4.736554183182306588e-05 -4.533603259915253147e-06 -1.923823219840414822e-05
1.178000000000000000e+03 1.201383304595947266e+01 -1.833233451843261719e+01 -4.178296876489184797e-05 -5.588650310528464615e-05 -2.930084156105294824e-05 -7.411126290435277042e-08
1.179000000000000000e+03 1.440717887878417969e+01 -1.163163280487060547e+01 -1.316265525019844063e-06 3.194391410943353549e-06 5.634377089336339850e-07 -9.674953105331951519e-08
1.180000000000000000e+03 1.884388351440429688e+01 -2.517847442626953125e+01 1.135488040745258331e-03 5.296504823490977287e-04 4.995415802113711834e-04 -8.332315483130514622e-04
1.181000000000000000e+03 1.722594451904296875e+01 -2.579913139343261719e+01 1.391247846186161041e-03 -9.723720722831785679e-05 3.882031887769699097e-04 -3.814033116213977337e-04
1.182000000000000000e+03 2.640906906127929688e+01 -2.976285171508789062e+01 9.649552404880523682e-03 1.192539930343627930e-03 3.252627793699502945e-03 -4.482175689190626144e-03
1.183000000000000000e+03 2.661652946472167969e+01 -3.092929267883300781e+01 1.021159160882234573e-02 -1.367489312542602420e-04 3.022452816367149353e-03 -2.350589260458946228e-03
1.184000000000000000e+03 2.816163825988769531e+01 -3.152612495422363281e+01 1.243712194263935089e-02 1.543350954307243228e-04 3.777437144890427589e-03 -2.425537444651126862e-03
1.185000000000000000e+03 5.095093917846679688e+01 -2.944928550720214844e+01 -1.407288670539855957e+00 -3.491203486919403076e-01 -5.269227027893066406e-01 -6.825082898139953613e-01
1.186000000000000000e+03 5.349243545532226562e+01 -2.914917564392089844e+01 -1.131716251373291016e+00 -3.134007751941680908e-01 -4.335350990295410156e-01 -6.319242119789123535e-01
1.187000000000000000e+03 6.796515655517578125e+01 -1.462946891784667969e+01 1.530078411102294922e+00 1.463027954101562500e+01 4.848107337951660156e+00 4.160976409912109375e+00
1.188000000000000000e+03 6.781321716308593750e+01 -1.647219085693359375e+01 1.112568855285644531e+00 1.134982776641845703e+01 3.738718986511230469e+00 2.689693689346313477e+00
1.189000000000000000e+03 1.870465087890625000e+01 -1.368540668487548828e+01 7.704225595261959825e-07 3.567728526832070202e-06 1.301445308854454197e-06 2.898856109823100269e-06
1.190000000000000000e+03 4.493899154663085938e+01 -3.216860580444335938e+01 -4.574564993381500244e-01 -1.157099604606628418e-01 -1.719499379396438599e-01 -2.379570603370666504e-01
1.191000000000000000e+03 6.857873535156250000e+01 -1.490941047668457031e+01 1.119145870208740234e+00 1.461274433135986328e+01 4.719566822052001953e+00 2.405129671096801758e+00
1.192000000000000000e+03 6.588529968261718750e+01 -1.828025054931640625e+01 1.424682617187500000e+00 6.781095504760742188e+00 2.461733341217041016e+00 2.927100658416748047e+00
1.193000000000000000e+03 4.418089294433593750e+01 -3.239651107788085938e+01 -3.893424868583679199e-01 -1.087743267416954041e-01 -1.494350433349609375e-01 -2.169530987739562988e-01
1.194000000000000000e+03 3.177147865295410156e+01 -3.166355514526367188e+01 1.984368264675140381e-02 1.682768110185861588e-03 6.457935553044080734e-03 -3.850415116176009178e-03
1.195000000000000000e+03 5.308549499511718750e+01 -3.025216484069824219e+01 -7.995560169219970703e-01 -2.591187059879302979e-01 -3.176024258136749268e-01 -4.974220395088195801e-01
1.196000000000000000e+03 3.669765090942382812e+01 -3.228700256347656250e+01 -2.982860244810581207e-02 1.645540352910757065e-03 -8.454917930066585541e-03 -1.099226903170347214e-02
1.197000000000000000e+03 3.668722152709960938e+01 -3.336080932617187500e+01 -4.033643007278442383e-02 -1.463051512837409973e-02 -1.649008318781852722e-02 -3.591018542647361755e-02
1.198000000000000000e+03 2.450298690795898438e+01 -2.981391716003417969e+01 7.318327669054269791e-03 5.344948149286210537e-04 2.355846576392650604e-03 -1.385493087582290173e-03
1.199000000000000000e+03 6.055131149291992188e+01 -2.338896179199218750e+01 -1.674723178148269653e-01 3.163360655307769775e-01 4.465912282466888428e-02 5.609020218253135681e-02
1.200000000000000000e+03 6.168209075927734375e+01 -2.334229087829589844e+01 -1.129553318023681641e-01 1.405666232109069824e+00 3.878132700920104980e-01 5.269636511802673340e-01
1.201000000000000000e+03 4.339202880859375000e+01 -3.262306594848632812e+01 -3.350004553794860840e-01 -9.337976574897766113e-02 -1.285140663385391235e-01 -1.896885037422180176e-01
1.202000000000000000e+03 3.998590469360351562e+01 -3.218081665039062500e+01 -1.710911095142364502e-01 -8.716883137822151184e-03 -5.394239723682403564e-02 -4.647725820541381836e-02
1.203000000000000000e+03 6.827409362792968750e+01 -1.386054229736328125e+01 1.544054269790649414e+00 1.754024505615234375e+01 5.725289821624755859e+00 3.516278982162475586e+00
1.204000000000000000e+03 2.354073333740234375e+01 -2.829514884948730469e+01 5.619928240776062012e-03 1.121429610066115856e-03 2.022407250478863716e-03 -2.701113000512123108e-03
1.205000000000000000e+03 5.312739944458007812e+01 -2.834942626953125000e+01 -1.469829440116882324e+00 -3.904339969158172607e-01 -5.580790042877197266e-01 -7.628180384635925293e-01
1.206000000000000000e+03 5.129914474487304688e+01 -3.028203201293945312e+01 -9.822859764099121094e-01 -3.708130717277526855e-01 -4.059297144412994385e-01 -5.714671611785888672e-01
1.207000000000000000e+03 4.646849060058593750e+01 -3.188154602050781250e+01 -5.903277993202209473e-01 -1.548275500535964966e-01 -2.235466092824935913e-01 -3.316619396209716797e-01
1.208000000000000000e+03 4.810869216918945312e+01 -3.155923652648925781e+01 -6.950410008430480957e-01 -2.628259062767028809e-01 -2.873600721359252930e-01 -4.233789145946502686e-01
1.209000000000000000e+03 6.538898468017578125e+01 -1.894968414306640625e+01 1.174110293388366699e+00 5.566536903381347656e+00 2.022194147109985352e+00 2.610439777374267578e+00
1.210000000000000000e+03 6.273084259033203125e+01 -2.098912429809570312e+01 7.038108706474304199e-01 1.652349591255187988e+00 7.068481445312500000e-01 1.084170341491699219e+00
1.211000000000000000e+03 6.436143493652343750e+01 -2.023773002624511719e+01 7.352041602134704590e-01 3.746056795120239258e+00 1.344378232955932617e+00 1.901986837387084961e+00
1.212000000000000000e+03 4.096041488647460938e+01 -3.305578231811523438e+01 -1.836247891187667847e-01 -4.894058778882026672e-02 -6.976961344480514526e-02 -1.187269911170005798e-01
1.213000000000000000e+03 3.231780624389648438e+01 -3.270930480957031250e+01 7.052858825773000717e-03 4.155488859396427870e-04 2.240522298961877823e-03 -5.336752161383628845e-03
1.214000000000000000e+03 2.284390830993652344e+01 -2.789021110534667969e+01 4.874789156019687653e-03 1.061880728229880333e-03 1.781000988557934761e-03 -2.152555389329791069e-03
1.215000000000000000e+03 2.236581802368164062e+01 -2.859250640869140625e+01 4.781341180205345154e-03 1.909779966808855534e-04 1.491695758886635303e-03 -1.418500789441168308e-03
1.216000000000000000e+03 2.368879127502441406e+01 -1.677760505676269531e+01 8.827322517390712164e-07 8.071509682849864475e-08 2.890342045702709584e-07 1.207465629704529420e-06
1.217000000000000000e+03 2.335811614990234375e+01 -1.482001304626464844e+01 -2.844098844434483908e-06 4.427012640917382669e-07 -7.204192797871655785e-07 -1.288227281293075066e-06
1.218000000000000000e+03 6.384184265136718750e+01 -2.086536979675292969e+01 5.848965048789978027e-01 3.109880685806274414e+00 1.108433246612548828e+00 1.556245446205139160e+00
1.219000000000000000e+03 1.828943252563476562e+01 -9.666266441345214844e+00 3.531407628543092869e-06 1.060517547557537910e-06 1.377577632410975639e-06 4.574919785227393731e-06
1.220000000000000000e+03 1.615839576721191406e+01 -7.555088520050048828e+00 6.925308298377785832e-06 2.666417231012019329e-06 2.877517772503779270e-06 -1.514776840849663131e-06
1.221000000000000000e+03 5.717538070678710938e+01 -2.725586700439453125e+01 -9.753561019897460938e-01 -1.304311007261276245e-01 -3.317361772060394287e-01 -4.127461910247802734e-01
1.222000000000000000e+03 6.337519454956054688e+01 -2.264863586425781250e+01 -3.368553519248962402e-02 2.934795141220092773e+00 8.703328967094421387e-01 1.087380409240722656e+00
1.223000000000000000e+03 3.468122482299804688e+01 -3.399228668212890625e+01 -1.836254075169563293e-02 -5.439778324216604233e-03 -7.140695583075284958e-03 -2.048677392303943634e-02
1.224000000000000000e+03 2.392757606506347656e+01 -1.545147323608398438e+01 2.720320480875670910e-06 -2.915737127295869868e-07 7.286240588655346073e-07 2.274814960401272401e-06
1.225000000000000000e+03 1.949917602539062500e+01 -1.027444648742675781e+01 -4.355621058493852615e-06 -2.310633590241195634e-06 -1.999876303671044298e-06 -2.625851948323543184e-06
1.226000000000000000e+03 1.658528137207031250e+01 -1.263145542144775391e+01 -8.257203489847597666e-07 -3.691043502840329893e-06 -1.355029212390945759e-06 -1.144747102443943731e-06
1.227000000000000000e+03 3.930832290649414062e+01 -3.323758697509765625e+01 -1.193450838327407837e-01 -2.587974630296230316e-02 -4.356744885444641113e-02 -7.985024899244308472e-02
1.228000000000000000e+03 4.014040756225585938e+01 -3.316651535034179688e+01 -1.496469676494598389e-01 -4.040336236357688904e-02 -5.701509863138198853e-02 -9.438272565603256226e-02
1.229000000000000000e+03 5.987268829345703125e+01 -2.508336830139160156e+01 -6.106186509132385254e-01 4.963686764240264893e-01 -3.427498787641525269e-02 2.951142145320773125e-03
1.230000000000000000e+03 3.147018432617187500e+01 -3.256603622436523438e+01 1.010450627654790878e-02 -7.766502676531672478e-04 2.798356814309954643e-03 -4.383201245218515396e-03
1.231000000000000000e+03 2.022799682617187500e+01 -1.421766853332519531e+01 2.352698402319219895e-06 2.649761427164776251e-06 1.500737994319933932e-06 2.014149458773317747e-06
1.232000000000000000e+03 5.645159530639648438e+01 -2.772435379028320312e+01 -1.043458700180053711e+00 -1.614678502082824707e-01 -3.614779710769653320e-01 -4.688360393047332764e-01
1.233000000000000000e+03 1.942149162292480469e+01 -1.399062538146972656e+01 -1.781071318873728160e-06 -3.086229526161332615e-06 -1.460190219404466916e-06 -2.896209480240941048e-06
1.234000000000000000e+03 6.487868499755859375e+01 -1.960133934020996094e+01 9.787232279777526855e-01 4.590579509735107422e+00 1.670790791511535645e+00 2.214339494705200195e+00
1.235000000000000000e+03 2.477228927612304688e+01 -3.094961929321289062e+01 7.092073559761047363e-03 -2.190481172874569893e-04 2.061907667666673660e-03 -7.349306088144658133e-06
1.236000000000000000e+03 3.577108383178710938e+01 -3.330226898193359375e+01 -2.574920281767845154e-02 -5.579902790486812592e-03 -9.398732334375381470e-03 -2.363401837646961212e-02
1.237000000000000000e+03 1.257225704193115234e+01 -1.891754341125488281e+01 2.442594814056064934e-05 5.181218057259684429e-06 8.882149813871365041e-06 3.858526906697079539e-05
1.238000000000000000e+03 3.401057434082031250e+01 -3.299627685546875000e+01 -3.853739006444811821e-03 5.885633290745317936e-04 -9.795526275411248207e-04 -9.604614228010177612e-03
1.239000000000000000e+03 3.488130187988281250e+01 -3.311001586914062500e+01 -1.167806144803762436e-02 -4.666717257350683212e-03 -4.903433844447135925e-03 -1.587825827300548553e-02
1.240000000000000000e+03 5.054337310791015625e+01 -3.068065261840820312e+01 -9.161095619201660156e-01 -3.471649885177612305e-01 -3.789823651313781738e-01 -5.430368185043334961e-01
1.241000000000000000e+03 6.875254058837890625e+01 -1.229206752777099609e+01 3.017377614974975586e+00 2.039868354797363281e+01 7.024818420410156250e+00 1.961248397827148438e+00
1.242000000000000000e+03 6.891951751708984375e+01 -1.153200340270996094e+01 1.809895873069763184e+00 2.111714935302734375e+01 6.878113269805908203e+00 1.674757719039916992e+00
1.243000000000000000e+03 3.315833282470703125e+01 -3.286855697631835938e+01 1.848086714744567871e-03 -1.288651837967336178e-03 1.678304543020203710e-04 -8.337568491697311401e-03
1.244000000000000000e+03 6.109977722167968750e+01 -2.393537521362304688e+01 -3.009980618953704834e-01 1.055381894111633301e+00 2.263151556253433228e-01 3.454757034778594971e-01
1.245000000000000000e+03 6.224410247802734375e+01 -2.273690986633300781e+01 5.073899030685424805e-02 1.746688723564147949e+00 5.392283201217651367e-01 7.538095712661743164e-01
1.246000000000000000e+03 5.422288894653320312e+01 -2.883465766906738281e+01 -1.112169981002807617e+00 -3.295572102069854736e-01 -4.325181543827056885e-01 -6.011717915534973145e-01
1.247000000000000000e+03 5.923142623901367188e+01 -2.564634513854980469e+01 -7.445522546768188477e-01 2.959796488285064697e-01 -1.345717757940292358e-01 -1.468518972396850586e-01
1.248000000000000000e+03 6.761756134033203125e+01 -1.539252662658691406e+01 1.773469686508178711e+00 1.269821739196777344e+01 4.341506004333496094e+00 3.900925397872924805e+00
1.249000000000000000e+03 1.096766281127929688e+01 -1.821002578735351562e+01 -2.080187732644844800e-05 -5.444932685350067914e-05 -2.257536107208579779e-05 -5.707452601200202480e-06
1.250000000000000000e+03 1.768879318237304688e+01 -2.404801177978515625e+01 5.575273535214364529e-04 2.786447003018110991e-04 2.508516190573573112e-04 -4.810370737686753273e-04
1.251000000000000000e+03 1.834050559997558594e+01 -2.578072929382324219e+01 1.533790025860071182e-03 2.337661426281556487e-04 5.302668432705104351e-04 -6.668783607892692089e-04
1.252000000000000000e+03 2.099302864074707031e+01 -2.773947334289550781e+01 3.670972306281328201e-03 2.791797451209276915e-04 1.185045577585697174e-03 -1.193096162751317024e-03
1.253000000000000000e+03 5.276574325561523438e+01 -2.948969459533691406e+01 -1.117879152297973633e+00 -3.345891535282135010e-01 -4.357405006885528564e-01 -6.108476519584655762e-01
1.254000000000000000e+03 4.894388198852539062e+01 -3.132208442687988281e+01 -7.714633941650390625e-01 -2.959048449993133545e-01 -3.202104568481445312e-01 -4.510791897773742676e-01
1.255000000000000000e+03 4.975691223144531250e+01 -3.103310585021972656e+01 -8.475495576858520508e-01 -3.278678059577941895e-01 -3.526251912117004395e-01 -4.987757205963134766e-01
1.256000000000000000e+03 4.177759933471679688e+01 -3.294865417480468750e+01 -2.315874546766281128e-01 -6.472598016262054443e-02 -8.889403194189071655e-02 -1.425116509199142456e-01
1.257000000000000000e+03 4.258587646484375000e+01 -3.281872177124023438e+01 -2.823778092861175537e-01 -7.128380984067916870e-02 -1.060984805226325989e-01 -1.666371971368789673e-01
1.258000000000000000e+03 1.489796543121337891e+01 -2.234259414672851562e+01 3.226575208827853203e-04 6.299462984316051006e-05 1.156956423074007034e-04 -1.329934166278690100e-04
1.259000000000000000e+03 1.717382431030273438e+01 -2.462928962707519531e+01 9.223604574799537659e-04 1.409330434398725629e-04 3.189880517311394215e-04 -4.251406644470989704e-04
1.260000000000000000e+03 1.376790142059326172e+01 -2.119421768188476562e+01 1.854567090049386024e-04 3.431833101785741746e-05 6.593251600861549377e-05 -5.020355820306576788e-05
1.261000000000000000e+03 1.433166122436523438e+01 -2.176976966857910156e+01 2.119221317116171122e-04 -2.240152025478892028e-05 5.685618452844209969e-05 -1.094385297619737685e-04
1.262000000000000000e+03 1.660277938842773438e+01 -2.405327033996582031e+01 6.615569582208991051e-04 8.762715151533484459e-05 2.247552183689549565e-04 -3.270543529652059078e-04
1.263000000000000000e+03 1.775082969665527344e+01 -2.520740890502929688e+01 1.223687315359711647e-03 1.401538465870544314e-04 4.091523296665400267e-04 -5.420703673735260963e-04
1.264000000000000000e+03 1.546564865112304688e+01 -2.291214370727539062e+01 3.843257727567106485e-04 1.658026485529262573e-05 1.202718121930956841e-04 -1.895499153761193156e-04
1.265000000000000000e+03 1.603376579284667969e+01 -2.348105621337890625e+01 5.552778020501136780e-04 9.416055399924516678e-05 1.948315039044246078e-04 -2.567996561992913485e-04
1.266000000000000000e+03 4.389730095863342285e-01 3.479427337646484375e+01 8.246993529610335827e-04 -1.570921659469604492e+00 -4.710291028022766113e-01 3.084862604737281799e-03
1.267000000000000000e+03 4.470764398574829102e-01 3.398089981079101562e+01 -1.114459009841084480e-04 -1.564180731773376465e+00 -4.692876636981964111e-01 3.881608368828892708e-03
1.268000000000000000e+03 3.855901360511779785e-01 2.834033966064453125e+01 -1.814272218325641006e-05 -1.509820461273193359e+00 -4.529515802860260010e-01 3.611152991652488708e-03
1.269000000000000000e+03 3.801656961441040039e-01 2.753676605224609375e+01 4.474550951272249222e-04 -1.500660181045532227e+00 -4.500638246536254883e-01 3.948463592678308487e-03
1.270000000000000000e+03 4.316974878311157227e-01 -3.800339126586914062e+01 2.275024744449183345e-04 1.472504693083465099e-03 5.100021953694522381e-04 7.238289981614798307e-05
1.271000000000000000e+03 1.101967334747314453e+00 -3.716328811645507812e+01 1.340721209999173880e-04 1.296802191063761711e-03 4.292623198125511408e-04 1.673031947575509548e-04
1.272000000000000000e+03 3.693919777870178223e-01 2.110805511474609375e+01 7.227415917441248894e-04 -1.343897461891174316e+00 -4.029524326324462891e-01 1.604837737977504730e-02
1.273000000000000000e+03 1.109421253204345703e+00 2.174284362792968750e+01 5.304132122546434402e-03 -1.287525892257690430e+00 -3.846665322780609131e-01 4.282977432012557983e-02
1.274000000000000000e+03 1.135073781013488770e+00 2.497025871276855469e+01 2.392978174611926079e-03 -1.378909230232238770e+00 -4.129548668861389160e-01 2.210423909127712250e-02
1.275000000000000000e+03 1.130300879478454590e+00 2.656430053710937500e+01 1.987369963899254799e-03 -1.409342288970947266e+00 -4.222064912319183350e-01 1.656262762844562531e-02
1.276000000000000000e+03 1.132341384887695312e+00 2.576917076110839844e+01 2.269132295623421669e-03 -1.395205378532409668e+00 -4.178808927536010742e-01 1.954321563243865967e-02
1.277000000000000000e+03 3.779520094394683838e-01 2.593298149108886719e+01 3.410808567423373461e-04 -1.477840304374694824e+00 -4.432497620582580566e-01 5.547429900616407394e-03
1.278000000000000000e+03 1.133659362792968750e+00 2.736042213439941406e+01 1.511140377260744572e-03 -1.421231150627136230e+00 -4.259160161018371582e-01 1.476435363292694092e-02
1.279000000000000000e+03 1.210720777511596680e+00 2.977242469787597656e+01 1.795312273316085339e-04 -1.444981217384338379e+00 -4.334405362606048584e-01 1.286166254431009293e-02
1.280000000000000000e+03 2.907126426696777344e+00 3.014594459533691406e+01 1.044276403263211250e-03 -1.289484977722167969e+00 -3.865321874618530273e-01 3.234840929508209229e-02
1.281000000000000000e+03 1.354225516319274902e+00 3.300104141235351562e+01 3.735500213224440813e-04 -1.467069387435913086e+00 -4.400087296962738037e-01 1.226617675274610519e-02
1.282000000000000000e+03 4.397314488887786865e-01 3.236484146118164062e+01 1.644128642510622740e-04 -1.549415826797485352e+00 -4.647754132747650146e-01 3.580251708626747131e-03
1.283000000000000000e+03 1.352362632751464844e+00 3.383450317382812500e+01 6.307004514383152127e-05 -1.473716735839843750e+00 -4.420961141586303711e-01 1.147476211190223694e-02
1.284000000000000000e+03 1.285840034484863281e+00 3.551473999023437500e+01 3.198558930307626724e-03 -1.496137022972106934e+00 -4.478815495967864990e-01 7.429621182382106781e-03
1.285000000000000000e+03 4.051064968109130859e+00 3.860332489013671875e+01 5.551872309297323227e-03 -1.262062072753906250e+00 -3.769530653953552246e-01 2.162910625338554382e-02
1.286000000000000000e+03 1.122701287269592285e+00 3.772006607055664062e+01 1.318856957368552685e-03 -1.518172383308410645e+00 -4.550560414791107178e-01 1.626996207050979137e-03
1.287000000000000000e+03 2.550588607788085938e+00 3.837366485595703125e+01 2.904822817072272301e-03 -1.394614934921264648e+00 -4.175130426883697510e-01 9.875274263322353363e-03
1.288000000000000000e+03 1.593849897384643555e+00 3.901909637451171875e+01 5.336913163773715496e-04 -1.482309341430664062e+00 -4.445326924324035645e-01 1.213888404890894890e-03
1.289000000000000000e+03 5.399576425552368164e-01 3.949150085449218750e+01 -3.183403983712196350e-03 -1.575766921043395996e+00 -4.736850857734680176e-01 3.155068843625485897e-04
1.290000000000000000e+03 1.857980728149414062e+00 3.975772857666015625e+01 -1.597038819454610348e-03 -1.454527378082275391e+00 -4.368373155593872070e-01 6.057994323782622814e-04
1.291000000000000000e+03 2.137077331542968750e+00 4.057676315307617188e+01 3.326782491058111191e-03 -1.441373229026794434e+00 -4.314139485359191895e-01 -6.265874253585934639e-04
1.292000000000000000e+03 1.788876533508300781e+00 4.175187301635742188e+01 -7.922138320282101631e-04 -1.472298502922058105e+00 -4.419271945953369141e-01 -5.847183056175708771e-04
1.293000000000000000e+03 2.089635610580444336e+00 -7.424073219299316406e+00 1.958723260031547397e-05 -5.073462034488329664e-06 4.354131306172348559e-06 5.948137641098583117e-06
1.294000000000000000e+03 1.058046579360961914e+00 -1.563445854187011719e+01 -6.608251715078949928e-05 -1.543421421956736594e-05 -2.445502104819752276e-05 -2.974810968225938268e-06
1.295000000000000000e+03 1.082682251930236816e+00 -2.206368827819824219e+01 -7.499796629417687654e-05 -1.744242217682767659e-05 -2.773211781459394842e-05 2.784693970170337707e-05
1.296000000000000000e+03 1.128646612167358398e+00 -2.926438522338867188e+01 1.114598708227276802e-04 3.545397194102406502e-04 1.397998858010396361e-04 9.753207268659025431e-05
1.297000000000000000e+03 1.189193367958068848e+00 -3.568840026855468750e+01 1.041477298713289201e-04 1.125712529756128788e-03 3.689581062644720078e-04 1.549932785565033555e-04
1.298000000000000000e+03 3.673633038997650146e-01 1.949806785583496094e+01 9.417678811587393284e-04 -1.259575843811035156e+00 -3.775902092456817627e-01 2.184637449681758881e-02
1.299000000000000000e+03 3.628658950328826904e-01 1.467563343048095703e+01 4.393557319417595863e-04 -8.395025730133056641e-01 -2.517189681529998779e-01 4.008973762392997742e-02
1.300000000000000000e+03 3.621604442596435547e-01 1.387280654907226562e+01 1.279095420613884926e-03 -7.476171255111694336e-01 -2.239014059305191040e-01 4.168527573347091675e-02
1.301000000000000000e+03 1.107399106025695801e+00 7.265108108520507812e+00 -1.363500114530324936e-02 -1.086390241980552673e-01 -3.668220713734626770e-02 7.101414352655410767e-02
1.302000000000000000e+03 3.677189052104949951e-01 7.438383579254150391e+00 -2.697309246286749840e-03 -6.207150220870971680e-02 -1.943064294755458832e-02 2.427800372242927551e-02
1.303000000000000000e+03 1.792585253715515137e+00 -3.927006149291992188e+01 -1.726986374706029892e-04 1.344023970887064934e-03 3.513975825626403093e-04 1.731778174871578813e-04
1.304000000000000000e+03 1.761841416358947754e+00 -3.729710006713867188e+01 -3.806813037954270840e-05 1.183251384645700455e-03 3.435549733694642782e-04 2.032019401667639613e-04
1.305000000000000000e+03 1.646391630172729492e+00 -3.844163131713867188e+01 1.585010468261316419e-04 1.274616690352559090e-03 4.299353458918631077e-04 1.565474813105538487e-04
1.306000000000000000e+03 1.240837454795837402e+00 -3.778109741210937500e+01 -1.715411926852539182e-04 1.318920287303626537e-03 3.442137385718524456e-04 8.128803165163844824e-05
1.307000000000000000e+03 1.907591342926025391e+00 -3.007553291320800781e+01 1.257153489859774709e-04 4.321789019741117954e-04 1.673682709224522114e-04 1.689544151304289699e-04
1.308000000000000000e+03 1.191253781318664551e+00 -3.164991950988769531e+01 -8.743577927816659212e-05 5.970141501165926456e-04 1.528735156171023846e-04 1.677011168794706464e-04
1.309000000000000000e+03 1.208934068679809570e+00 -3.245090484619140625e+01 1.002390854409895837e-04 7.124551339074969292e-04 2.438082592561841011e-04 1.503626845078542829e-04
1.310000000000000000e+03 3.895566463470458984e-01 -3.084702682495117188e+01 -8.818566857371479273e-05 5.243540508672595024e-04 1.308505161432549357e-04 5.694117135135456920e-05
1.311000000000000000e+03 1.169862508773803711e+00 -3.085491371154785156e+01 1.045237804646603763e-04 5.266041262075304985e-04 1.893383741844445467e-04 1.192667114082723856e-04
1.312000000000000000e+03 1.866702318191528320e+00 -2.929120063781738281e+01 -8.494149369653314352e-05 3.576213202904909849e-04 8.180394797818735242e-05 2.149619976989924908e-04
1.313000000000000000e+03 1.114767670631408691e+00 -2.846904754638671875e+01 -9.177939500659704208e-05 2.815669286064803600e-04 5.693626007996499538e-05 1.144570051110349596e-04
1.314000000000000000e+03 1.886096358299255371e+00 -2.697763061523437500e+01 1.231993664987385273e-04 1.964194962056353688e-04 9.588566172169521451e-05 1.139365776907652617e-04
1.315000000000000000e+03 1.123977661132812500e+00 -2.530052566528320312e+01 -7.273347000591456890e-05 6.784510333091020584e-05 -1.466509502279222943e-06 6.378475518431514502e-05
1.316000000000000000e+03 3.681656420230865479e-01 -2.363226890563964844e+01 7.684279262321069837e-05 -1.393636557622812688e-05 1.887192775029689074e-05 5.344482474356482271e-07
1.317000000000000000e+03 1.108227372169494629e+00 -2.368674850463867188e+01 -7.170459139160811901e-05 1.236088974110316485e-05 -1.780310958565678447e-05 4.496001929510384798e-05
1.318000000000000000e+03 1.802981138229370117e+00 -2.211705398559570312e+01 9.696403867565095425e-05 1.651514685363508761e-05 3.404375456739217043e-05 -3.306941835035104305e-06
1.319000000000000000e+03 1.072361230850219727e+00 -2.125604629516601562e+01 8.556857937946915627e-05 -1.728386087052058429e-05 2.048541500698775053e-05 -1.117768624681048095e-05
1.320000000000000000e+03 1.043399214744567871e+00 -1.884859657287597656e+01 -8.077198435785248876e-05 -2.641978971951175481e-05 -3.215753167751245201e-05 3.289949518148205243e-06
1.321000000000000000e+03 1.051932096481323242e+00 -1.964937400817871094e+01 8.458561933366581798e-05 -2.464113094902131706e-05 1.798334596969652921e-05 -1.512453218310838565e-05
1.322000000000000000e+03 3.494260013103485107e-01 -1.719757080078125000e+01 7.165454007918015122e-05 -2.745649544522166252e-05 1.325941229879390448e-05 -6.121848855400457978e-06
1.323000000000000000e+03 1.044085979461669922e+00 -1.724692916870117188e+01 -7.591308531118556857e-05 -2.112155198119580746e-05 -2.911039155151229352e-05 -2.914556716859806329e-06
1.324000000000000000e+03 1.059812426567077637e+00 -1.483062458038330078e+01 6.012961603119038045e-05 -6.548411420226329938e-06 1.607436206541024148e-05 -7.584800187032669783e-06
1.325000000000000000e+03 1.772293686866760254e+00 -1.489898777008056641e+01 -6.653569289483129978e-05 -1.008463368634693325e-05 -2.298609797435346991e-05 -3.931009359803283587e-06
1.326000000000000000e+03 1.058242678642272949e+00 -1.403070640563964844e+01 -5.681376569555141032e-05 -8.927814633352681994e-06 -1.972247446246910840e-05 -1.426656695002748165e-06
1.327000000000000000e+03 1.070220351219177246e+00 -1.161691951751708984e+01 4.287159026716835797e-05 -7.167676585595472716e-07 1.264644652110291645e-05 -2.044808979917434044e-06
1.328000000000000000e+03 1.058786034584045410e+00 -1.242177867889404297e+01 -4.752341919811442494e-05 -4.667224857257679105e-06 -1.565719321661163121e-05 -1.498062033533642534e-06
1.329000000000000000e+03 3.797060549259185791e-01 -9.952290534973144531e+00 -3.039389957848470658e-05 -8.430051252616976853e-07 -9.371071428176946938e-06 -6.004340775689342991e-07
1.330000000000000000e+03 1.185491681098937988e+00 -9.163205146789550781e+00 -2.977496842504478991e-05 -1.869506149887456559e-06 -9.493342076893895864e-06 -1.482799234509002417e-06
1.331000000000000000e+03 1.134660243988037109e+00 -9.995255470275878906e+00 3.474743789411149919e-05 1.110675427185014996e-07 1.045755197992548347e-05 -2.655716571098309942e-07
1.332000000000000000e+03 1.229597568511962891e+00 -8.317153930664062500e+00 2.493394640623591840e-05 2.387133918091421947e-06 8.196324415621347725e-06 -4.033334448649839032e-07
1.333000000000000000e+03 1.932224154472351074e+00 -5.746391296386718750e+00 9.634879461373202503e-06 3.830912191915558651e-06 4.039737632410833612e-06 5.419402441475540400e-06
1.334000000000000000e+03 2.808950424194335938e+00 -2.647474527359008789e+00 -4.961596459907013923e-06 -1.581462697686220054e-06 -1.962917622222448699e-06 -6.004690931149525568e-07
1.335000000000000000e+03 2.845038890838623047e+00 -1.883192658424377441e+00 3.705338031068095006e-06 1.137525259764515795e-06 1.452858896300313063e-06 7.828688239897019230e-07
1.336000000000000000e+03 2.698704719543457031e+00 -4.914485931396484375e+00 5.851938567502656952e-06 5.973019597149686888e-06 3.547487494870438240e-06 1.008373487820790615e-06
1.337000000000000000e+03 1.214737534523010254e+00 -1.890144705772399902e+00 4.369370799395255744e-06 6.118511350905464496e-07 1.494366529186663684e-06 6.309626883194141556e-07
1.338000000000000000e+03 3.461103737354278564e-01 5.053099632263183594e+00 -2.470244886353611946e-03 4.393075779080390930e-02 1.243815384805202484e-02 6.509341299533843994e-03
1.339000000000000000e+03 4.045365810394287109e+00 3.485530138015747070e+00 -8.912979066371917725e-02 -4.567836225032806396e-02 -4.044244810938835144e-02 4.925491288304328918e-02
1.340000000000000000e+03 1.091055512428283691e+00 1.049634075164794922e+01 -6.237219087779521942e-03 -3.726375102996826172e-01 -1.136624217033386230e-01 1.176693663001060486e-01
1.341000000000000000e+03 1.095100641250610352e+00 9.690611839294433594e+00 -7.192176301032304764e-03 -2.955186963081359863e-01 -9.081325680017471313e-02 1.089280098676681519e-01
1.342000000000000000e+03 1.081924200057983398e+00 1.290344905853271484e+01 1.858264673501253128e-03 -6.230511069297790527e-01 -1.863578557968139648e-01 1.245150640606880188e-01
1.343000000000000000e+03 1.082712054252624512e+00 1.210110187530517578e+01 -1.322310534305870533e-03 -5.382418036460876465e-01 -1.618692427873611450e-01 1.252814829349517822e-01
1.344000000000000000e+03 3.624049723148345947e-01 1.226514720916748047e+01 4.333719552960246801e-04 -5.551818013191223145e-01 -1.664245277643203735e-01 4.329828917980194092e-02
1.345000000000000000e+03 1.083055615425109863e+00 1.370528793334960938e+01 2.684645820409059525e-03 -7.070882320404052734e-01 -2.113210707902908325e-01 1.219532191753387451e-01
1.346000000000000000e+03 1.085459351539611816e+00 1.450564384460449219e+01 5.098255816847085953e-03 -7.878261208534240723e-01 -2.348183542490005493e-01 1.168852373957633972e-01
1.347000000000000000e+03 2.544521331787109375e+00 1.579095649719238281e+01 2.895245887339115143e-02 -8.357991576194763184e-01 -2.420540153980255127e-01 2.231702208518981934e-01
1.348000000000000000e+03 1.094466567039489746e+00 1.691114997863769531e+01 6.526370998471975327e-03 -1.005179762840270996e+00 -2.995960116386413574e-01 9.453154355287551880e-02
1.349000000000000000e+03 1.095760822296142578e+00 1.771619796752929688e+01 7.859506644308567047e-03 -1.066954970359802246e+00 -3.177286386489868164e-01 8.512942492961883545e-02
1.350000000000000000e+03 1.096670508384704590e+00 1.851973152160644531e+01 6.990965455770492554e-03 -1.122687578201293945e+00 -3.347089886665344238e-01 7.592879980802536011e-02
1.351000000000000000e+03 1.098499059677124023e+00 1.932426071166992188e+01 7.626134436577558517e-03 -1.172353982925415039e+00 -3.494183719158172607e-01 6.657144427299499512e-02
1.352000000000000000e+03 1.116557836532592773e+00 2.254626846313476562e+01 5.407251883298158646e-03 -1.315820455551147461e+00 -3.931239545345306396e-01 3.607719391584396362e-02
1.353000000000000000e+03 1.616860008239746094e+01 -4.122797399759292603e-02 -7.809633016586303711e-01 -9.037480950355529785e-01 -5.054134130477905273e-01 9.053092002868652344e-01
1.354000000000000000e+03 1.657554817199707031e+01 4.826534748077392578e+00 -8.360837697982788086e-01 -1.112163305282592773e+00 -5.844741463661193848e-01 8.764965534210205078e-01
1.355000000000000000e+03 1.563482284545898438e+01 9.818890690803527832e-01 -5.473017096519470215e-01 -9.228678941726684570e-01 -4.410508871078491211e-01 8.542257547378540039e-01
1.356000000000000000e+03 1.436410236358642578e+01 6.522611141204833984e+00 -8.305752873420715332e-01 -1.364703059196472168e+00 -6.585835218429565430e-01 7.090640664100646973e-01
1.357000000000000000e+03 4.437411308288574219e+00 -2.635583400726318359e+00 -4.500395334616769105e-06 -1.657438133406685665e-06 -1.847350063144403975e-06 -2.241009013914663228e-07
1.358000000000000000e+03 2.028895854949951172e+00 -1.885904550552368164e+00 -3.943293449992779642e-06 -8.791214440861949697e-07 -1.446724468223692384e-06 -6.274726160881982651e-07
1.359000000000000000e+03 1.163519144058227539e+00 -4.241636753082275391e+00 -1.000920292426599190e-05 -1.834743102335778531e-06 -3.553183887561317533e-06 -2.259912889712722972e-06
1.360000000000000000e+03 1.175707578659057617e+00 -3.456771135330200195e+00 8.042312401812523603e-06 1.455897518098936416e-06 2.849462816811865196e-06 1.484868448642373551e-06
1.361000000000000000e+03 7.750282287597656250e+00 -1.895762443542480469e+00 3.317564505778136663e-06 1.279174284718465060e-06 1.379021682623715606e-06 6.337467084449599497e-07
1.362000000000000000e+03 1.274543094635009766e+01 -8.632391929626464844e+00 1.116234489018097520e-05 -9.340958968095947057e-06 5.464160039991838858e-07 -5.265977506496710703e-06
1.363000000000000000e+03 7.625315666198730469e+00 -3.481838941574096680e+00 5.863706519448896870e-06 1.345457690149487462e-06 2.162749296985566616e-06 3.656852811673161341e-07
1.364000000000000000e+03 6.063766479492187500e+00 -2.644580841064453125e+00 -4.278120741219026968e-06 -1.506903913650603499e-06 -1.735507453304308001e-06 -2.428551795219391352e-07
1.365000000000000000e+03 5.250655174255371094e+00 -2.635895729064941406e+00 4.522997187450528145e-06 1.487465738136961590e-06 1.803138843570195604e-06 3.841136333448957885e-07
1.366000000000000000e+03 9.295074462890625000e+00 -2.779245376586914062e+00 -3.928937985619995743e-06 -2.410172555755707435e-06 -1.901733185150078498e-06 -2.192438842030242085e-06
1.367000000000000000e+03 1.312984943389892578e+01 1.845578908920288086e+00 -4.864541590213775635e-01 -5.545749664306640625e-01 -3.123087286949157715e-01 5.421270728111267090e-01
1.368000000000000000e+03 1.145641517639160156e+01 2.219728469848632812e+00 -4.366871416568756104e-01 -3.132441937923431396e-01 -2.249794006347656250e-01 3.565926849842071533e-01
1.369000000000000000e+03 2.188143920898437500e+01 -3.862480878829956055e+00 -1.085284709930419922e+00 -6.626263856887817383e-01 -5.243732929229736328e-01 7.695293426513671875e-01
1.370000000000000000e+03 2.076238822937011719e+01 -2.576307058334350586e+00 -1.112056136131286621e+00 -7.201498150825500488e-01 -5.496617555618286133e-01 7.962485551834106445e-01
1.371000000000000000e+03 2.025544166564941406e+01 -3.042622089385986328e+00 -1.233638882637023926e+00 -8.906560540199279785e-01 -6.372885107994079590e-01 9.207273721694946289e-01
1.372000000000000000e+03 2.013762283325195312e+01 -1.948334813117980957e+00 -1.084266901016235352e+00 -7.697537541389465332e-01 -5.562062263488769531e-01 8.137553334236145020e-01
1.373000000000000000e+03 3.204339218139648438e+01 -1.598524761199951172e+01 -4.162299931049346924e-01 4.189229104667901993e-03 -1.236122250556945801e-01 1.852744072675704956e-01
1.374000000000000000e+03 2.886783027648925781e+01 -1.501002120971679688e+01 -3.153643310070037842e-01 -1.094832420349121094e-01 -1.274542659521102905e-01 2.488678246736526489e-01
1.375000000000000000e+03 2.816671180725097656e+01 -1.230168056488037109e+01 -4.255067110061645508e-01 -1.359802186489105225e-01 -1.684460788965225220e-01 3.801572620868682861e-01
1.376000000000000000e+03 2.998469924926757812e+01 -1.477738285064697266e+01 -3.762843608856201172e-01 -6.754895299673080444e-02 -1.331499963998794556e-01 2.528420388698577881e-01
1.377000000000000000e+03 3.351985168457031250e+01 -1.665637588500976562e+01 -4.384263455867767334e-01 3.577368706464767456e-02 -1.207957938313484192e-01 1.458290964365005493e-01
1.378000000000000000e+03 3.276863479614257812e+01 -1.634222412109375000e+01 -4.282224476337432861e-01 2.295143716037273407e-02 -1.215813010931015015e-01 1.649197489023208618e-01
1.379000000000000000e+03 1.761510276794433594e+01 -9.334756731986999512e-01 -1.015525341033935547e+00 -9.724476337432861328e-01 -5.963918566703796387e-01 9.945246577262878418e-01
1.380000000000000000e+03 1.868644905090332031e+01 -8.819137811660766602e-01 -9.294464588165283203e-01 -8.853902220726013184e-01 -5.444509983062744141e-01 9.094169139862060547e-01
1.381000000000000000e+03 1.723970222473144531e+01 6.448203325271606445e-02 -7.288811206817626953e-01 -9.590439796447753906e-01 -5.063775181770324707e-01 9.535663127899169922e-01
1.382000000000000000e+03 2.815375137329101562e+01 -1.341790008544921875e+01 -3.583087921142578125e-01 -1.375020444393157959e-01 -1.487432569265365601e-01 3.276375830173492432e-01
1.383000000000000000e+03 2.763543319702148438e+01 -1.287154483795166016e+01 -3.633613884449005127e-01 -1.693360507488250732e-01 -1.598092317581176758e-01 3.501633703708648682e-01
1.384000000000000000e+03 1.437469291687011719e+01 -3.377818822860717773e+00 2.655186563060851768e-06 3.742967919606599025e-06 1.919446276588132605e-06 1.708939976197143551e-06
1.385000000000000000e+03 1.471489715576171875e+01 -4.498966217041015625e+00 4.391394668346038088e-06 3.493911663099424914e-06 2.365591853958903812e-06 1.135893171522184275e-06
1.386000000000000000e+03 1.394117259979248047e+01 -5.851972103118896484e+00 6.681129434582544491e-06 1.745122972351964563e-06 2.527875722080352716e-06 -2.009116997214732692e-06
1.387000000000000000e+03 1.783528327941894531e+01 -5.926298618316650391e+00 -4.247160632075974718e-06 -1.590143028806778602e-06 -1.751191121002193540e-06 -1.004681166705267970e-06
1.388000000000000000e+03 1.559693050384521484e+01 -6.009428977966308594e+00 -5.374057764129247516e-06 -2.970140030811307952e-06 -2.503259338482166640e-06 -2.128583389549021376e-07
1.389000000000000000e+03 1.455565929412841797e+01 -6.203442096710205078e+00 -7.222326075861928985e-06 -1.150143020822724793e-06 -2.511740603949874640e-06 -1.630089059290185105e-07
1.390000000000000000e+03 1.007480812072753906e+01 -2.867352724075317383e+00 4.495189386943820864e-06 2.751715101112495176e-06 2.174071369154262356e-06 1.898231971608765889e-06
1.391000000000000000e+03 1.167071437835693359e+01 -3.229114055633544922e+00 5.056534064351581037e-06 2.958870936708990484e-06 2.404621454843436368e-06 -7.181120764698789571e-08
1.392000000000000000e+03 1.398865890502929688e+01 -4.121758937835693359e+00 -3.702332833199761808e-06 -3.396022066226578318e-06 -2.129506356141064316e-06 -1.585424115546629764e-06
1.393000000000000000e+03 1.273524761199951172e+01 -2.716691255569458008e+00 3.849095719488104805e-06 3.718968400789890438e-06 2.270419145133928396e-06 1.432159137948474381e-07
1.394000000000000000e+03 1.119019412994384766e+01 -4.739794254302978516e+00 1.111444362322799861e-05 6.320935312942310702e-07 3.523961140672327019e-06 1.338082142865459900e-06
1.395000000000000000e+03 3.648389339447021484e+00 -4.181486511230468750e+01 -1.498448982601985335e-04 1.180877909064292908e-03 3.093098930548876524e-04 3.553666101652197540e-05
1.396000000000000000e+03 2.166518402099609375e+01 -1.297807788848876953e+01 -3.085238176936400123e-06 -1.811676384022575803e-06 -1.469074277338222601e-06 8.012020202841085847e-08
1.397000000000000000e+03 2.071073532104492188e+01 -1.106655788421630859e+01 3.628898411989212036e-06 2.502158167771995068e-06 1.839316951190994587e-06 2.338221975151100196e-06
1.398000000000000000e+03 1.962644195556640625e+01 -9.336055755615234375e+00 -4.669632289733272046e-06 -1.778365117388602812e-06 -1.934399278979981318e-06 -2.777552481347811408e-06
1.399000000000000000e+03 1.144195652008056641e+01 -3.997926235198974609e+00 -6.765101716155186296e-06 -2.185237462981604040e-06 -2.685101890165242366e-06 3.343363914609653875e-07
1.400000000000000000e+03 2.780972862243652344e+01 -1.070534229278564453e+01 -5.220796465873718262e-01 -1.429346799850463867e-01 -1.995043009519577026e-01 4.431593120098114014e-01
1.401000000000000000e+03 1.585973262786865234e+01 -1.228566837310791016e+01 6.960756877560925204e-07 3.546653715602587909e-06 1.272818849429313559e-06 1.054421886692580301e-06
1.402000000000000000e+03 1.781495094299316406e+01 -7.068020343780517578e+00 -5.016756858822191134e-06 -1.409122205586754717e-06 -1.927763605635846034e-06 -8.245318099397991318e-07
1.403000000000000000e+03 1.504687595367431641e+01 -8.708919525146484375e+00 9.668498023529537022e-06 -1.174127078229503240e-06 2.548311385908164084e-06 -3.662249582703225315e-06
1.404000000000000000e+03 1.876528739929199219e+01 -8.227126121520996094e+00 -5.385923486755928025e-06 -1.055632651514315512e-06 -1.932466830112389289e-06 -2.163817725886474364e-06
1.405000000000000000e+03 1.607376098632812500e+01 -5.391520023345947266e+00 4.783682015840895474e-06 3.127731588392634876e-06 2.373423967583221383e-06 3.964333075145987095e-07
1.406000000000000000e+03 1.538677692413330078e+01 -1.131819343566894531e+01 -1.652283458497549873e-06 2.699506467251922004e-06 3.141668685202603228e-07 -8.420906283390650060e-08
1.407000000000000000e+03 1.497160339355468750e+01 -5.574624538421630859e+00 5.320076070347568020e-06 2.926284651039168239e-06 2.473908352840226144e-06 1.014163828472192108e-07
1.408000000000000000e+03 2.689498138427734375e+01 -1.062525939941406250e+01 -4.955446124076843262e-01 -2.233254313468933105e-01 -2.156610041856765747e-01 4.590278267860412598e-01
1.409000000000000000e+03 2.652305793762207031e+01 -1.003457546234130859e+01 -5.256069898605346680e-01 -2.545750737190246582e-01 -2.340546250343322754e-01 4.872877895832061768e-01
1.410000000000000000e+03 2.822605133056640625e+01 -1.123303127288818359e+01 -4.967850744724273682e-01 -1.210705041885375977e-01 -1.853566765785217285e-01 4.209935069084167480e-01
1.411000000000000000e+03 1.898323249816894531e+01 -1.063837909698486328e+01 4.662313131120754406e-06 1.456462541682412848e-06 1.835632701840950176e-06 3.020597205249941908e-06
1.412000000000000000e+03 1.756869697570800781e+01 -1.231115341186523438e+01 -8.024795761230052449e-07 -2.667468379513593391e-06 -1.040984329847560730e-06 -4.109757867354346672e-07
1.413000000000000000e+03 2.047477531433105469e+01 -1.194375801086425781e+01 3.585588501664460637e-06 2.884054083551745862e-06 1.940892843776964583e-06 2.102936605297145434e-06
1.414000000000000000e+03 2.027325820922851562e+01 -1.345621681213378906e+01 -2.915354571086936630e-06 -3.856522198475431651e-06 -2.031563099080813117e-06 -3.448158736318873707e-07
1.415000000000000000e+03 4.193301773071289062e+01 -1.689628219604492188e+01 -7.028677463531494141e-01 4.552463814616203308e-02 -1.972029358148574829e-01 -8.245782554149627686e-02
1.416000000000000000e+03 2.782742881774902344e+01 1.127188968658447266e+01 -2.827078402042388916e-01 -4.190656542778015137e-01 -2.105320543050765991e-01 6.208161115646362305e-01
1.417000000000000000e+03 1.612370872497558594e+01 5.405683994293212891e+00 -9.101844429969787598e-01 -1.243788599967956543e+00 -6.461919546127319336e-01 1.025752186775207520e+00
1.418000000000000000e+03 1.569409465789794922e+01 5.970788478851318359e+00 -9.097551703453063965e-01 -1.471575021743774414e+00 -7.143990397453308105e-01 1.063198447227478027e+00
1.419000000000000000e+03 4.768332290649414062e+01 -1.498161220550537109e+01 -9.564414024353027344e-01 -7.228962611407041550e-03 -2.891011238098144531e-01 -2.784086465835571289e-01
1.420000000000000000e+03 4.656841278076171875e+01 -3.285384368896484375e+01 -4.040224254131317139e-01 -2.177384793758392334e-01 -1.865282654762268066e-01 -3.553470373153686523e-01
1.421000000000000000e+03 4.626889419555664062e+01 -1.550915145874023438e+01 -8.899174332618713379e-01 3.949090896639972925e-04 -2.668567597866058350e-01 -2.318958789110183716e-01
1.422000000000000000e+03 5.005500030517578125e+01 -1.309216690063476562e+01 -1.169524550437927246e+00 -6.776511203497648239e-03 -3.528903126716613770e-01 -3.470630347728729248e-01
1.423000000000000000e+03 4.351407241821289062e+01 7.047204971313476562e+00 -1.179226040840148926e-01 6.904460787773132324e-01 1.717570424079895020e-01 -6.770993769168853760e-02
1.424000000000000000e+03 4.518394088745117188e+01 7.284822463989257812e+00 2.255081012845039368e-02 3.443593382835388184e-01 1.100730448961257935e-01 -1.465675234794616699e-01
1.425000000000000000e+03 5.683971023559570312e+01 1.376356315612792969e+01 6.715235114097595215e-01 3.683944463729858398e+00 1.306640386581420898e+00 -6.027464866638183594e-01
1.426000000000000000e+03 5.601224517822265625e+01 1.321966266632080078e+01 2.682716846466064453e-01 4.141028881072998047e+00 1.322790145874023438e+00 -5.454462766647338867e-01
1.427000000000000000e+03 4.104323577880859375e+01 -1.640028572082519531e+01 -6.954620480537414551e-01 7.359931617975234985e-02 -1.865588277578353882e-01 -3.820571303367614746e-02
1.428000000000000000e+03 3.388403701782226562e+01 -1.514237499237060547e+01 -5.143616199493408203e-01 6.260367482900619507e-02 -1.355273872613906860e-01 1.921374499797821045e-01
1.429000000000000000e+03 3.378053283691406250e+01 -1.587484931945800781e+01 -4.865668714046478271e-01 4.928874224424362183e-02 -1.311834454536437988e-01 1.702265739440917969e-01
1.430000000000000000e+03 5.382637023925781250e+01 -1.182040786743164062e+01 -1.507244467735290527e+00 -1.849588900804519653e-01 -5.076609849929809570e-01 -6.245909929275512695e-01
1.431000000000000000e+03 1.683165550231933594e+01 -1.197799682617187500e+01 6.621432930842274800e-07 2.769602815533289686e-06 1.029523787110520061e-06 2.758584116691054078e-07
1.432000000000000000e+03 2.615699005126953125e+01 9.027441024780273438e+00 7.066120207309722900e-02 -3.707434535026550293e-01 -9.002467244863510132e-02 3.932402133941650391e-01
1.433000000000000000e+03 2.763219642639160156e+01 8.643398284912109375e+00 1.602066457271575928e-01 -3.264984190464019775e-01 -4.988753423094749451e-02 6.171168684959411621e-01
1.434000000000000000e+03 6.980333709716796875e+01 -1.113343620300292969e+01 3.014781951904296875e+00 1.702686691284179688e+01 6.012494564056396484e+00 -9.619715623557567596e-03
1.435000000000000000e+03 7.004868316650390625e+01 -1.050519371032714844e+01 2.896707057952880859e+00 1.689284706115722656e+01 5.936866283416748047e+00 -6.516404449939727783e-02
1.436000000000000000e+03 5.248702621459960938e+01 -1.260005474090576172e+01 -1.340875029563903809e+00 -1.570983231067657471e-01 -4.493920207023620605e-01 -5.171535611152648926e-01
1.437000000000000000e+03 2.508857154846191406e+01 -7.506003379821777344e+00 -7.217873930931091309e-01 -3.663075566291809082e-01 -3.264284729957580566e-01 5.937726497650146484e-01
1.438000000000000000e+03 2.615986824035644531e+01 -9.427310943603515625e+00 -5.716041326522827148e-01 -2.860724627971649170e-01 -2.573029696941375732e-01 5.157442092895507812e-01
1.439000000000000000e+03 2.544736862182617188e+01 -8.161788940429687500e+00 -6.708128452301025391e-01 -3.439401984214782715e-01 -3.044259250164031982e-01 5.698536038398742676e-01
1.440000000000000000e+03 5.448960494995117188e+01 -1.141922950744628906e+01 -1.602873206138610840e+00 -1.869181841611862183e-01 -5.369374155998229980e-01 -6.809447407722473145e-01
1.441000000000000000e+03 2.536183929443359375e+01 -3.139366722106933594e+01 6.868020165711641312e-03 -9.497383143752813339e-04 1.775484648533165455e-03 -3.670714213512837887e-04
1.442000000000000000e+03 2.523028755187988281e+01 -3.017334556579589844e+01 8.030811324715614319e-03 -8.655489364173263311e-05 2.383276820182800293e-03 -2.339777769520878792e-03
1.443000000000000000e+03 2.009871482849121094e+01 -1.274359989166259766e+01 3.337554744575754739e-06 3.282207217125687748e-06 1.985928520298330113e-06 1.822601802814460825e-07
1.444000000000000000e+03 2.214057922363281250e+01 -1.422432518005371094e+01 -4.171054115431616083e-06 -1.836578462643956300e-06 -1.802289830266090576e-06 -2.579797921953286277e-07
1.445000000000000000e+03 4.355041122436523438e+01 8.109964370727539062e+00 -4.902683570981025696e-02 8.144384622573852539e-01 2.296234965324401855e-01 -1.454655528068542480e-01
1.446000000000000000e+03 6.099977493286132812e+01 -7.276320934295654297e+00 -3.082578659057617188e+00 -3.815249502658843994e-01 -1.039231061935424805e+00 -1.106809258460998535e+00
1.447000000000000000e+03 4.874103927612304688e+01 -1.534158039093017578e+01 -9.540511369705200195e-01 -8.607684075832366943e-02 -3.120383918285369873e-01 -3.427114486694335938e-01
1.448000000000000000e+03 4.697808456420898438e+01 -1.525318241119384766e+01 -9.265004396438598633e-01 -2.671445254236459732e-03 -2.787515819072723389e-01 -2.524570822715759277e-01
1.449000000000000000e+03 4.287649536132812500e+01 -1.736355209350585938e+01 -7.165048718452453613e-01 5.213526543229818344e-03 -2.133873999118804932e-01 -1.448933482170104980e-01
1.450000000000000000e+03 4.336947250366210938e+01 -1.647696304321289062e+01 -7.725666165351867676e-01 2.289918996393680573e-02 -2.249002158641815186e-01 -1.185117065906524658e-01
1.451000000000000000e+03 1.368755626678466797e+01 7.850179195404052734e+00 -7.931729555130004883e-01 -1.260761499404907227e+00 -6.161803603172302246e-01 7.606620192527770996e-01
1.452000000000000000e+03 3.910326385498046875e+01 -1.742716217041015625e+01 -5.919929742813110352e-01 4.185755178332328796e-02 -1.650406271219253540e-01 -1.005358714610338211e-02
1.453000000000000000e+03 1.424820232391357422e+01 7.474205493927001953e+00 -8.952850103378295898e-01 -1.458418488502502441e+00 -7.061110734939575195e-01 7.498642206192016602e-01
1.454000000000000000e+03 2.585976600646972656e+01 7.446533203125000000e+00 4.344416558742523193e-01 -4.480069130659103394e-02 1.168922930955886841e-01 4.445423483848571777e-01
1.455000000000000000e+03 1.466254043579101562e+01 1.399042987823486328e+01 5.346804261207580566e-01 1.204252168536186218e-01 1.965316981077194214e-01 4.699925780296325684e-01
1.456000000000000000e+03 1.420265865325927734e+01 1.246772193908691406e+01 1.738775819540023804e-01 -3.254629075527191162e-01 -4.547560214996337891e-02 3.899060785770416260e-01
1.457000000000000000e+03 2.620183372497558594e+01 1.277056694030761719e+01 -6.101422309875488281e-01 -9.543639421463012695e-01 -4.693518579006195068e-01 5.108366608619689941e-01
1.458000000000000000e+03 6.278870773315429688e+01 -2.211871528625488281e+01 2.434062212705612183e-01 2.145750045776367188e+00 7.167469263076782227e-01 9.693762063980102539e-01
1.459000000000000000e+03 6.442830657958984375e+01 -2.136009788513183594e+01 1.818293035030364990e-01 4.012250423431396484e+00 1.258224010467529297e+00 1.552327990531921387e+00
1.460000000000000000e+03 5.661009216308593750e+01 -3.020112037658691406e+01 -4.356754720211029053e-01 3.069821000099182129e-01 -3.860801085829734802e-02 -5.988824367523193359e-02
1.461000000000000000e+03 1.933317065238952637e+00 5.431590080261230469e+00 -3.520201891660690308e-02 -6.276372820138931274e-02 -2.938972413539886475e-02 5.824544653296470642e-02
1.462000000000000000e+03 1.814305901527404785e+00 4.718092918395996094e+00 -3.112297877669334412e-02 -3.734208270907402039e-02 -2.053951844573020935e-02 3.541004657745361328e-02
1.463000000000000000e+03 2.609072685241699219e+00 2.638334274291992188e+00 -2.566110342741012573e-02 -1.658670231699943542e-02 -1.267434190958738327e-02 -3.429384669288992882e-03
1.464000000000000000e+03 3.367068290710449219e+00 2.660461902618408203e+00 -4.368495941162109375e-02 -2.271924167871475220e-02 -1.992125995457172394e-02 8.829934522509574890e-03
1.465000000000000000e+03 4.878535270690917969e+00 3.418696165084838867e+00 -1.247939690947532654e-01 -5.442768335342407227e-02 -5.376649647951126099e-02 7.346236705780029297e-02
1.466000000000000000e+03 6.521347045898437500e+00 3.281692266464233398e+00 -2.066828012466430664e-01 -6.376144289970397949e-02 -8.113327622413635254e-02 1.198332309722900391e-01
1.467000000000000000e+03 6.554325103759765625e+00 2.579464435577392578e+00 -1.625243574380874634e-01 -3.764054924249649048e-02 -6.004947051405906677e-02 8.021832257509231567e-02
1.468000000000000000e+03 8.133770942687988281e+00 3.189235687255859375e+00 -3.019965887069702148e-01 -1.004469469189643860e-01 -1.207330599427223206e-01 1.793210506439208984e-01
1.469000000000000000e+03 9.789072990417480469e+00 2.439067602157592773e+00 -3.521251082420349121e-01 -1.476117670536041260e-01 -1.499210596084594727e-01 2.210224419832229614e-01
1.470000000000000000e+03 1.062472724914550781e+01 2.350259065628051758e+00 -4.000312685966491699e-01 -2.281595766544342041e-01 -1.884572505950927734e-01 2.865642309188842773e-01
1.471000000000000000e+03 9.781475067138671875e+00 3.095748662948608398e+00 -4.012500047683715820e-01 -1.960311084985733032e-01 -1.791843324899673462e-01 2.653485834598541260e-01
1.472000000000000000e+03 3.592124938964843750e+01 -1.684217262268066406e+01 -5.103378891944885254e-01 4.603535681962966919e-02 -1.392907649278640747e-01 9.684082120656967163e-02
1.473000000000000000e+03 2.119352912902832031e+01 -2.883264732360839844e+01 4.034732002764940262e-03 -3.177150501869618893e-04 1.115105114877223969e-03 -5.135722458362579346e-04
1.474000000000000000e+03 2.377209472656250000e+01 -2.943833160400390625e+01 6.144926883280277252e-03 3.610412823036313057e-04 1.951790531165897846e-03 -1.841359189711511135e-03
1.475000000000000000e+03 3.607299423217773438e+01 -3.502553939819335938e+01 -2.556133083999156952e-02 -3.041188046336174011e-02 -1.679196394979953766e-02 -4.495727270841598511e-02
1.476000000000000000e+03 1.272007656097412109e+01 -2.115556335449218750e+01 2.050390758085995913e-04 1.222132686962140724e-05 6.517812289530411363e-05 -3.757773811230435967e-05
1.477000000000000000e+03 3.289422988891601562e+01 -3.384074401855468750e+01 -4.782664589583873749e-03 -2.292926423251628876e-03 -2.122677396982908249e-03 -1.022176351398229599e-02
1.478000000000000000e+03 4.727339935302734375e+01 -3.174708557128906250e+01 -6.332107782363891602e-01 -2.071585059165954590e-01 -2.521107792854309082e-01 -3.912137746810913086e-01
1.479000000000000000e+03 5.534461593627929688e+01 -2.946868515014648438e+01 -7.469362020492553711e-01 -9.105456620454788208e-02 -2.513972222805023193e-01 -3.381727337837219238e-01
1.480000000000000000e+03 5.496511077880859375e+01 -2.850739097595214844e+01 -1.086427807807922363e+00 -2.933244407176971436e-01 -4.139256477355957031e-01 -5.547586083412170410e-01
1.481000000000000000e+03 5.693379592895507812e+01 -1.071315479278564453e+01 -1.995359063148498535e+00 -4.778144955635070801e-01 -7.419520616531372070e-01 -1.006382703781127930e+00
1.482000000000000000e+03 5.582385635375976562e+01 -1.058725357055664062e+01 -1.848151683807373047e+00 -2.419906407594680786e-01 -6.270427107810974121e-01 -7.711527943611145020e-01
1.483000000000000000e+03 5.313673400878906250e+01 7.111368179321289062e+00 3.533823788166046143e-01 5.801205039024353027e-01 2.800508737564086914e-01 3.836069703102111816e-01
1.484000000000000000e+03 2.287440109252929688e+01 -5.184490680694580078e+00 -9.691014885902404785e-01 -6.061637401580810547e-01 -4.725795686244964600e-01 7.312051057815551758e-01
1.485000000000000000e+03 2.403300857543945312e+01 -3.064755058288574219e+01 6.339161656796932220e-03 -3.572817659005522728e-04 1.794563955627381802e-03 -9.250165894627571106e-04
1.486000000000000000e+03 5.914008712768554688e+01 -8.495429039001464844e+00 -2.675602674484252930e+00 -3.993570506572723389e-01 -9.224879145622253418e-01 -1.027914524078369141e+00
1.487000000000000000e+03 5.760296249389648438e+01 -1.028158664703369141e+01 -2.187389135360717773e+00 -5.396060943603515625e-01 -8.180985450744628906e-01 -1.074546337127685547e+00
1.488000000000000000e+03 8.402527809143066406e+00 -1.448539066314697266e+01 -1.134596386691555381e-04 -2.938019497378263623e-05 -4.285194881958886981e-05 6.418656539608491585e-06
1.489000000000000000e+03 8.553959846496582031e+00 -1.598635864257812500e+01 -1.360691567242611200e-05 5.260124453343451023e-06 -2.504037183825857937e-06 3.622759686550125480e-05
1.490000000000000000e+03 6.091410446166992188e+01 -8.193993568420410156e+00 -3.274308204650878906e+00 -7.099967002868652344e-01 -1.195291519165039062e+00 -1.570276141166687012e+00
1.491000000000000000e+03 1.327502346038818359e+01 -2.174439239501953125e+01 2.430197637295350432e-04 -5.954453081358224154e-05 5.504256841959431767e-05 -7.618607924086973071e-05
1.492000000000000000e+03 1.383313369750976562e+01 -2.232943153381347656e+01 3.362536372151225805e-04 1.305368459725286812e-05 1.047921905410476029e-04 -9.808476897887885571e-05
1.493000000000000000e+03 4.907392501831054688e+01 -1.438273811340332031e+01 -1.030564188957214355e+00 -4.057532921433448792e-02 -3.213418424129486084e-01 -3.441142439842224121e-01
1.494000000000000000e+03 4.944843673706054688e+01 -1.502470874786376953e+01 -9.926269054412841797e-01 -1.147435605525970459e-01 -3.322111368179321289e-01 -3.831990063190460205e-01
1.495000000000000000e+03 5.625632858276367188e+01 1.536329936981201172e+01 1.048416852951049805e+00 3.583469629287719727e+00 1.389565944671630859e+00 -7.075784802436828613e-01
1.496000000000000000e+03 7.836231231689453125e+01 4.095265579223632812e+01 -9.411528008058667183e-04 6.452278137207031250e+00 1.935401082038879395e+00 6.468649953603744507e-03
1.497000000000000000e+03 7.887681579589843750e+01 1.972484970092773438e+01 2.104217186570167542e-03 7.328866004943847656e+00 2.199290990829467773e+00 -8.446409553289413452e-02
1.498000000000000000e+03 7.813812255859375000e+01 1.815646934509277344e+01 9.806976653635501862e-03 7.322487831115722656e+00 2.199688434600830078e+00 -1.548244655132293701e-01
1.499000000000000000e+03 7.798054504394531250e+01 3.825765609741210938e+01 1.558617688715457916e-02 6.447006225585937500e+00 1.938777685165405273e+00 -2.996656298637390137e-02
1.500000000000000000e+03 7.655681610107421875e+01 3.771800231933593750e+01 2.384531870484352112e-02 6.293653488159179688e+00 1.895249605178833008e+00 -6.184007227420806885e-02
1.501000000000000000e+03 7.882416534423828125e+01 3.107279396057128906e+01 2.023478038609027863e-03 6.719357490539550781e+00 2.016414403915405273e+00 -3.774834424257278442e-02
1.502000000000000000e+03 7.794781494140625000e+01 2.960856819152832031e+01 4.881308414041996002e-03 6.649199008941650391e+00 1.996224045753479004e+00 -7.197529822587966919e-02
1.503000000000000000e+03 7.886828613281250000e+01 2.132192420959472656e+01 1.604321063496172428e-03 7.208810806274414062e+00 2.163124561309814453e+00 -7.638891041278839111e-02
1.504000000000000000e+03 7.812716674804687500e+01 2.054726028442382812e+01 7.309426087886095047e-03 7.140877723693847656e+00 2.144456148147583008e+00 -1.337956786155700684e-01
1.505000000000000000e+03 7.787013244628906250e+01 2.794561195373535156e+01 6.659260019659996033e-03 6.702689170837402344e+00 2.012804508209228516e+00 -8.863811939954757690e-02
1.506000000000000000e+03 7.713605499267578125e+01 2.454179763793945312e+01 1.621760241687297821e-02 6.737742900848388672e+00 2.026188135147094727e+00 -1.498262137174606323e-01
1.507000000000000000e+03 7.810412597656250000e+01 2.213552665710449219e+01 6.975851021707057953e-03 7.031357765197753906e+00 2.111500024795532227e+00 -1.217125803232192993e-01
1.508000000000000000e+03 7.884143829345703125e+01 2.292978096008300781e+01 1.671638805419206619e-03 7.097350120544433594e+00 2.129706621170043945e+00 -6.928285211324691772e-02
1.509000000000000000e+03 7.892910003662109375e+01 3.656787490844726562e+01 -3.032331587746739388e-03 6.582345008850097656e+00 1.973793864250183105e+00 -2.316579967737197876e-02
1.510000000000000000e+03 7.807010650634765625e+01 3.277553939819335938e+01 5.476598627865314484e-03 6.569823265075683594e+00 1.972589969635009766e+00 -5.469071492552757263e-02
1.511000000000000000e+03 7.815779876708984375e+01 1.575105381011962891e+01 5.752895958721637726e-03 7.531183242797851562e+00 2.261080741882324219e+00 -1.740505397319793701e-01
1.512000000000000000e+03 7.890570831298828125e+01 1.251286125183105469e+01 6.698434008285403252e-04 8.017941474914550781e+00 2.405583381652832031e+00 -1.128676235675811768e-01
1.513000000000000000e+03 7.747324371337890625e+01 1.016484832763671875e+01 -1.791187748312950134e-02 7.890518665313720703e+00 2.361782073974609375e+00 -2.456758767366409302e-01
1.514000000000000000e+03 7.816913604736328125e+01 1.415381717681884766e+01 3.469136310741305351e-03 7.682268619537353516e+00 2.305721282958984375e+00 -1.837316751480102539e-01
1.515000000000000000e+03 7.817375946044921875e+01 1.335129165649414062e+01 3.646388649940490723e-03 7.761205673217773438e+00 2.329455614089965820e+00 -1.857748925685882568e-01
1.516000000000000000e+03 7.819519042968750000e+01 9.338039398193359375e+00 -1.534458715468645096e-02 8.154119491577148438e+00 2.441632509231567383e+00 -1.686901599168777466e-01
1.517000000000000000e+03 7.885897064208984375e+01 3.264435958862304688e+01 4.451756831258535385e-03 6.675514698028564453e+00 2.003989934921264648e+00 -3.234402090311050415e-02
1.518000000000000000e+03 7.811112213134765625e+01 3.352441024780273438e+01 7.704048883169889450e-03 6.554253578186035156e+00 1.968587279319763184e+00 -4.851238802075386047e-02
1.519000000000000000e+03 7.818740844726562500e+01 1.094193840026855469e+01 -6.253934931010007858e-03 8.000524520874023438e+00 2.398281097412109375e+00 -1.847378313541412354e-01
1.520000000000000000e+03 7.881039428710937500e+01 -2.995478057861328125e+01 -2.612251043319702148e-02 1.014565849304199219e+01 3.035860776901245117e+00 -1.185656413435935974e-01
1.521000000000000000e+03 7.687569427490234375e+01 -3.301764678955078125e+01 -5.760091170668601990e-02 9.492739677429199219e+00 2.830541849136352539e+00 -7.466571778059005737e-02
1.522000000000000000e+03 7.889118957519531250e+01 -2.275835609436035156e+01 -3.064713254570960999e-02 8.793004989624023438e+00 2.628707408905029297e+00 -4.428325891494750977e-01
1.523000000000000000e+03 7.730313873291015625e+01 -2.505836296081542969e+01 -1.622546762228012085e-01 9.148620605468750000e+00 2.695909738540649414e+00 -6.073102951049804688e-01
1.524000000000000000e+03 7.892776489257812500e+01 -1.554729557037353516e+01 3.118642792105674744e-02 5.645423889160156250e+00 1.702983140945434570e+00 -5.471580028533935547e-01
1.525000000000000000e+03 7.749929046630859375e+01 -1.868217086791992188e+01 -4.778519645333290100e-02 7.759816169738769531e+00 2.313609361648559570e+00 -1.144635677337646484e+00
1.526000000000000000e+03 7.892623138427734375e+01 -8.315001487731933594e+00 7.374704629182815552e-02 5.045513153076171875e+00 1.535778045654296875e+00 4.231477975845336914e-01
1.527000000000000000e+03 7.819252777099609375e+01 -9.854264259338378906e+00 2.401101291179656982e-01 5.531179428100585938e+00 1.731386899948120117e+00 3.231366872787475586e-01
1.528000000000000000e+03 7.893022155761718750e+01 -1.931344628334045410e+00 -4.926759004592895508e-02 7.692474842071533203e+00 2.292962312698364258e+00 4.454938769340515137e-01
1.529000000000000000e+03 7.755257415771484375e+01 -4.290712833404541016e+00 -9.432540833950042725e-02 7.429730415344238281e+00 2.200621604919433594e+00 1.060721278190612793e+00
1.530000000000000000e+03 7.892345428466796875e+01 5.292529106140136719e+00 -1.971487700939178467e-02 8.636828422546386719e+00 2.585134267807006836e+00 -1.652856916189193726e-02
1.531000000000000000e+03 7.821188354492187500e+01 3.710718393325805664e+00 -7.717158645391464233e-02 8.466171264648437500e+00 2.516700029373168945e+00 6.296595185995101929e-02
1.532000000000000000e+03 7.786164855957031250e+01 2.709830284118652344e+01 8.509962819516658783e-03 6.737205982208251953e+00 2.023714780807495117e+00 -9.045918285846710205e-02
1.533000000000000000e+03 7.813296508789062500e+01 3.427037048339843750e+01 3.242966486141085625e-03 6.536330223083496094e+00 1.961871981620788574e+00 -4.532282054424285889e-02
1.534000000000000000e+03 7.810982513427734375e+01 -3.800743103027343750e+01 1.806414499878883362e-02 9.977641105651855469e+00 2.998711585998535156e+00 1.176914758980274200e-02
1.535000000000000000e+03 7.709329986572265625e+01 -3.927617645263671875e+01 1.180695183575153351e-02 9.576284408569335938e+00 2.876427412033081055e+00 3.100449405610561371e-02
1.536000000000000000e+03 7.879672241210937500e+01 -3.635311126708984375e+01 -1.162733137607574463e-02 1.031265544891357422e+01 3.090308427810668945e+00 -6.025425158441066742e-03
1.537000000000000000e+03 7.797319030761718750e+01 -3.716312789916992188e+01 -1.279493095353245735e-03 9.938676834106445312e+00 2.981219053268432617e+00 1.068562082946300507e-02
1.538000000000000000e+03 7.787286376953125000e+01 2.625276184082031250e+01 9.681779891252517700e-03 6.774359226226806641e+00 2.035212278366088867e+00 -9.875838458538055420e-02
1.539000000000000000e+03 7.812996673583984375e+01 1.975295448303222656e+01 9.868715889751911163e-03 7.198540687561035156e+00 2.162522792816162109e+00 -1.404709070920944214e-01
1.540000000000000000e+03 7.748813629150390625e+01 7.753440856933593750e+00 -4.882710799574851990e-02 8.100480079650878906e+00 2.415496110916137695e+00 -1.888940781354904175e-01
1.541000000000000000e+03 7.821421051025390625e+01 1.295915603637695312e+00 -1.015237048268318176e-01 8.347477912902832031e+00 2.473786354064941406e+00 2.783719599246978760e-01
1.542000000000000000e+03 7.758118438720703125e+01 -5.852820873260498047e+00 4.450672119855880737e-02 7.002055644989013672e+00 2.113968849182128906e+00 1.086134076118469238e+00
1.543000000000000000e+03 7.821338653564453125e+01 -1.791151237487792969e+01 -2.229428850114345551e-03 7.139691352844238281e+00 2.141238689422607422e+00 -9.264967441558837891e-01
1.544000000000000000e+03 7.885328674316406250e+01 -2.676067161560058594e+01 -3.365547209978103638e-02 9.783816337585449219e+00 2.925048351287841797e+00 -2.347496896982192993e-01
1.545000000000000000e+03 7.875060272216796875e+01 -3.394533920288085938e+01 -4.299208521842956543e-03 1.028836059570312500e+01 3.085218191146850586e+00 -2.922399528324604034e-02
1.546000000000000000e+03 7.848067474365234375e+01 4.010732650756835938e+01 5.204753950238227844e-03 6.458617210388183594e+00 1.939146518707275391e+00 -7.885474711656570435e-03
1.547000000000000000e+03 7.701890563964843750e+01 4.049303436279296875e+01 1.874041371047496796e-02 6.262583732604980469e+00 1.884397149085998535e+00 -2.945090457797050476e-02
1.548000000000000000e+03 7.806613922119140625e+01 3.503529739379882812e+01 -1.994112040847539902e-03 6.507045745849609375e+00 1.951515555381774902e+00 -4.182240366935729980e-02
1.549000000000000000e+03 7.799920654296875000e+01 3.041586685180664062e+01 4.323663190007209778e-03 6.625585556030273438e+00 1.988972663879394531e+00 -6.644316762685775757e-02
1.550000000000000000e+03 7.789879608154296875e+01 2.878631210327148438e+01 9.501472115516662598e-03 6.669157505035400391e+00 2.003597736358642578e+00 -7.877139747142791748e-02
1.551000000000000000e+03 7.797379302978515625e+01 2.457843971252441406e+01 8.455965667963027954e-03 6.870344161987304688e+00 2.063640117645263672e+00 -1.076593324542045593e-01
1.552000000000000000e+03 7.814382171630859375e+01 1.735668373107910156e+01 7.301844656467437744e-03 7.388327598571777344e+00 2.218688964843750000e+00 -1.615837961435317993e-01
1.553000000000000000e+03 7.744187927246093750e+01 1.417488479614257812e+01 9.731383994221687317e-03 7.517855644226074219e+00 2.258276224136352539e+00 -2.495551556348800659e-01
1.554000000000000000e+03 7.819858551025390625e+01 8.533162117004394531e+00 -2.119320444762706757e-02 8.226613044738769531e+00 2.461625814437866211e+00 -1.523580104112625122e-01
1.555000000000000000e+03 7.876799011230468750e+01 -3.474287033081054688e+01 -1.616715639829635620e-02 1.030971336364746094e+01 3.088063955307006836e+00 -1.950953155755996704e-02
1.556000000000000000e+03 7.799248504638671875e+01 -3.629434204101562500e+01 -1.379786152392625809e-02 9.954137802124023438e+00 2.982101917266845703e+00 1.104597467929124832e-02
1.557000000000000000e+03 7.884564208984375000e+01 -2.755319595336914062e+01 -2.458972483873367310e-02 9.900980949401855469e+00 2.962917327880859375e+00 -2.004301846027374268e-01
1.558000000000000000e+03 7.804039001464843750e+01 -2.906755256652832031e+01 -5.972848087549209595e-02 9.777730941772460938e+00 2.915400505065917969e+00 -2.134998291730880737e-01
1.559000000000000000e+03 7.890954589843750000e+01 -2.115187454223632812e+01 -2.453354001045227051e-02 8.200267791748046875e+00 2.452720165252685547e+00 -5.235328078269958496e-01
1.560000000000000000e+03 7.814405059814453125e+01 -2.270199775695800781e+01 -8.909189701080322266e-02 8.751348495483398438e+00 2.598676919937133789e+00 -6.727806925773620605e-01
1.561000000000000000e+03 7.892502593994140625e+01 -1.393984317779541016e+01 6.352154910564422607e-02 5.043921947479248047e+00 1.532232999801635742e+00 -4.054510891437530518e-01
1.562000000000000000e+03 7.821445465087890625e+01 -1.550727462768554688e+01 1.009994000196456909e-01 6.259442329406738281e+00 1.908132553100585938e+00 -8.132978081703186035e-01
1.563000000000000000e+03 7.894026184082031250e+01 -6.718028545379638672e+00 3.442856669425964355e-02 5.651920318603515625e+00 1.705904722213745117e+00 5.630809068679809570e-01
1.564000000000000000e+03 7.820642089843750000e+01 -8.253774642944335938e+00 1.785602122545242310e-01 5.812695980072021484e+00 1.797376751899719238e+00 6.500037312507629395e-01
1.565000000000000000e+03 7.892972564697265625e+01 4.772803783416748047e-01 -4.116901010274887085e-02 8.321720123291015625e+00 2.484165191650390625e+00 2.549862265586853027e-01
1.566000000000000000e+03 7.820440673828125000e+01 6.932002544403076172e+00 -3.507975116372108459e-02 8.350509643554687500e+00 2.494628906250000000e+00 -1.080500483512878418e-01
1.567000000000000000e+03 7.820633697509765625e+01 6.127866268157958984e+00 -4.150384664535522461e-02 8.398176193237304688e+00 2.507001638412475586e+00 -8.037127554416656494e-02
1.568000000000000000e+03 7.821043395996093750e+01 4.516555309295654297e+00 -6.152987107634544373e-02 8.457943916320800781e+00 2.518924236297607422e+00 3.322059055790305138e-03
1.569000000000000000e+03 7.749947357177734375e+01 2.910580158233642578e+00 -1.565133184194564819e-01 8.326560974121093750e+00 2.451014280319213867e+00 1.392721831798553467e-01
1.570000000000000000e+03 7.892846679687500000e+01 1.275227904319763184e+00 -4.686393588781356812e-02 8.453636169433593750e+00 2.522031784057617188e+00 1.987158358097076416e-01
1.571000000000000000e+03 7.821846771240234375e+01 4.967846870422363281e-01 -1.156694814562797546e-01 8.261705398559570312e+00 2.443810939788818359e+00 3.669174015522003174e-01
1.572000000000000000e+03 7.822196197509765625e+01 -1.111647486686706543e+00 -1.202199906110763550e-01 7.987674713134765625e+00 2.360236406326293945e+00 5.570557713508605957e-01
1.573000000000000000e+03 7.825274658203125000e+01 -5.879044055938720703e+00 2.802923135459423065e-02 6.530035495758056641e+00 1.967419385910034180e+00 8.714072704315185547e-01
1.574000000000000000e+03 7.823437500000000000e+01 -3.506091833114624023e+00 -7.631050050258636475e-02 7.343189239501953125e+00 2.180063724517822266e+00 8.065861463546752930e-01
1.575000000000000000e+03 7.894351959228515625e+01 -5.922183990478515625e+00 1.652435027062892914e-02 6.003602504730224609e+00 1.806038022041320801e+00 5.971628427505493164e-01
1.576000000000000000e+03 7.824530792236328125e+01 -6.666712284088134766e+00 7.836339622735977173e-02 6.261281490325927734e+00 1.901893496513366699e+00 8.431406021118164062e-01
1.577000000000000000e+03 7.748377227783203125e+01 -8.191792488098144531e+00 3.148411214351654053e-01 6.513950347900390625e+00 2.048637390136718750e+00 8.257536292076110840e-01
1.578000000000000000e+03 7.820131683349609375e+01 -1.065184307098388672e+01 2.706970572471618652e-01 5.451649665832519531e+00 1.716704130172729492e+00 1.181241944432258606e-01
1.579000000000000000e+03 7.749794006347656250e+01 -1.140931320190429688e+01 4.594430923461914062e-01 6.219911098480224609e+00 2.003806352615356445e+00 -1.081397160887718201e-01
1.580000000000000000e+03 7.820726776123046875e+01 -1.308856678009033203e+01 2.009050250053405762e-01 5.631246566772460938e+00 1.749645471572875977e+00 -4.475467503070831299e-01
1.581000000000000000e+03 7.821292114257812500e+01 -1.390110778808593750e+01 1.809099763631820679e-01 5.795648097991943359e+00 1.792967438697814941e+00 -6.099730730056762695e-01
1.582000000000000000e+03 7.749911499023437500e+01 -1.628908920288085938e+01 1.185982078313827515e-01 7.067437171936035156e+00 2.155810594558715820e+00 -1.101543784141540527e+00
1.583000000000000000e+03 7.821369171142578125e+01 -1.711336708068847656e+01 3.488683700561523438e-02 6.833244323730468750e+00 2.060439348220825195e+00 -9.115095734596252441e-01
1.584000000000000000e+03 7.819473266601562500e+01 -2.030027198791503906e+01 -5.798212066292762756e-02 8.011465072631835938e+00 2.386044740676879883e+00 -8.396808505058288574e-01
1.585000000000000000e+03 7.812528991699218750e+01 -2.351007461547851562e+01 -8.615721017122268677e-02 8.951906204223632812e+00 2.659724712371826172e+00 -6.054309606552124023e-01
1.586000000000000000e+03 7.808387756347656250e+01 -2.590478324890136719e+01 -8.516307920217514038e-02 9.425319671630859375e+00 2.802047014236450195e+00 -4.157805442810058594e-01
1.587000000000000000e+03 7.806977844238281250e+01 -2.669293594360351562e+01 -7.682332396507263184e-02 9.536025047302246094e+00 2.837760686874389648e+00 -3.585010766983032227e-01
1.588000000000000000e+03 7.805898284912109375e+01 -2.748087882995605469e+01 -7.330098748207092285e-02 9.636985778808593750e+00 2.869105339050292969e+00 -3.042641878128051758e-01
1.589000000000000000e+03 7.882509613037109375e+01 -2.914792633056640625e+01 -1.943713799118995667e-02 1.007960987091064453e+01 3.018051862716674805e+00 -1.426676809787750244e-01
1.590000000000000000e+03 7.797921752929687500e+01 -3.069100379943847656e+01 -5.651779845356941223e-02 9.852935791015625000e+00 2.938925266265869141e+00 -1.405365914106369019e-01
1.591000000000000000e+03 7.787004852294921875e+01 -3.387804412841796875e+01 -4.074976965785026550e-02 9.922312736511230469e+00 2.964468717575073242e+00 -4.564318060874938965e-02
1.592000000000000000e+03 7.790975952148437500e+01 -3.468275451660156250e+01 -2.423380501568317413e-02 9.930360794067382812e+00 2.971838235855102539e+00 -1.362342201173305511e-02
1.593000000000000000e+03 7.821407318115234375e+01 -4.078808593750000000e+01 -1.858684234321117401e-02 1.003744029998779297e+01 3.005656003952026367e+00 -3.978626430034637451e-02
1.594000000000000000e+03 1.666082954406738281e+01 -2.520101356506347656e+01 1.150642870925366879e-03 -3.542497142916545272e-05 3.345653822179883718e-04 -2.924079890362918377e-04
1.595000000000000000e+03 1.780688095092773438e+01 -2.640529251098632812e+01 1.977255102246999741e-03 -1.563984405947849154e-04 5.462569533847272396e-04 -3.744974674191325903e-04
1.596000000000000000e+03 1.391398334503173828e+01 1.095131015777587891e+01 -1.086158491671085358e-02 -8.564679622650146484e-01 -2.601988613605499268e-01 3.856219947338104248e-01
1.597000000000000000e+03 1.227486038208007812e+01 8.438854217529296875e+00 -5.994091033935546875e-01 -7.623960971832275391e-01 -4.085415601730346680e-01 7.133793830871582031e-01
1.598000000000000000e+03 5.290377044677734375e+01 -1.319104385375976562e+01 -1.312020182609558105e+00 -2.634917497634887695e-01 -4.726535677909851074e-01 -6.032571196556091309e-01
1.599000000000000000e+03 2.029453849792480469e+01 -2.731524848937988281e+01 3.091567195951938629e-03 3.692281024996191263e-04 1.038238522596657276e-03 -7.909024716354906559e-04
1.600000000000000000e+03 6.636177062988281250e+01 -1.758958435058593750e+01 1.560168862342834473e+00 8.078701019287109375e+00 2.891660928726196289e+00 3.295690059661865234e+00
1.601000000000000000e+03 6.049623489379882812e+01 -2.451538467407226562e+01 -4.537939131259918213e-01 7.689830064773559570e-01 9.455672651529312134e-02 1.573293954133987427e-01
1.602000000000000000e+03 1.264121150970458984e+01 -2.002601814270019531e+01 9.944504563463851810e-05 1.733351018629036844e-05 3.503356492728926241e-05 -3.220282223992398940e-06
1.603000000000000000e+03 1.553064632415771484e+01 -2.404324913024902344e+01 6.910959491506218910e-04 -4.869548502028919756e-05 1.927201374201104045e-04 -1.765655324561521411e-04
1.604000000000000000e+03 3.485023081302642822e-01 3.473747491836547852e+00 -1.105958479456603527e-03 5.025596171617507935e-02 1.474500168114900589e-02 -3.618268994614481926e-03
1.605000000000000000e+03 1.206066608428955078e+00 3.634247970581054688e+01 1.037281937897205353e-03 -1.509324431419372559e+00 -4.524861276149749756e-01 3.301533870398998260e-03
1.606000000000000000e+03 2.146388292312622070e+00 3.777743148803710938e+01 1.342398929409682751e-03 -1.430417537689208984e+00 -4.287225604057312012e-01 5.241354927420616150e-03
1.607000000000000000e+03 3.508899211883544922e+00 3.973099899291992188e+01 4.626387730240821838e-03 -1.315521240234375000e+00 -3.932684659957885742e-01 1.708091236650943756e-02
1.608000000000000000e+03 1.331572771072387695e+00 3.467577362060546875e+01 2.517019631341099739e-03 -1.482922434806823730e+00 -4.441216289997100830e-01 9.877104312181472778e-03
1.609000000000000000e+03 1.147557616233825684e+00 2.816132926940917969e+01 1.094719744287431240e-03 -1.431145310401916504e+00 -4.290151894092559814e-01 1.328323222696781158e-02
1.610000000000000000e+03 2.088024854660034180e+00 3.038083076477050781e+01 8.757768664509057999e-04 -1.367789387702941895e+00 -4.100740849971771240e-01 2.271567285060882568e-02
1.611000000000000000e+03 2.657308816909790039e+00 2.551594924926757812e+01 1.102103106677532196e-02 -1.238676548004150391e+00 -3.682966530323028564e-01 5.179757624864578247e-02
1.612000000000000000e+03 2.273822546005249023e+00 3.199808311462402344e+01 1.468288013711571693e-03 -1.370798110961914062e+00 -4.107989370822906494e-01 2.314255572855472565e-02
1.613000000000000000e+03 1.223280429840087891e+00 -3.407429122924804688e+01 1.115094637498259544e-04 8.990570204332470894e-04 3.031699452549219131e-04 1.669395714998245239e-04
1.614000000000000000e+03 2.863212823867797852e+00 -3.245518112182617188e+01 1.179888276965357363e-04 6.533940322697162628e-04 2.314148587174713612e-04 3.212089650332927704e-04
1.615000000000000000e+03 1.888036012649536133e+00 2.562787055969238281e+01 5.587564315646886826e-03 -1.315900087356567383e+00 -3.930937349796295166e-01 3.427213802933692932e-02
1.616000000000000000e+03 2.300782203674316406e+00 3.283731460571289062e+01 1.942452159710228443e-03 -1.376870751380920410e+00 -4.124784767627716064e-01 2.125728502869606018e-02
1.617000000000000000e+03 1.335608601570129395e+00 3.218807983398437500e+01 9.463669266551733017e-05 -1.461373925209045410e+00 -4.383837878704071045e-01 1.246199384331703186e-02
1.618000000000000000e+03 1.151693820953369141e+00 -3.645958709716796875e+01 -1.282721350435167551e-04 1.171403098851442337e-03 3.129393153358250856e-04 1.145887363236397505e-04
1.619000000000000000e+03 1.104679226875305176e+00 2.093858909606933594e+01 6.414589937776327133e-03 -1.254390478134155273e+00 -3.743927478790283203e-01 4.977789893746376038e-02
1.620000000000000000e+03 1.873185634613037109e+00 2.320013809204101562e+01 1.133325975388288498e-02 -1.258640050888061523e+00 -3.741920292377471924e-01 5.370562896132469177e-02
1.621000000000000000e+03 2.621847391128540039e+00 2.305634880065917969e+01 2.111680060625076294e-02 -1.181595444679260254e+00 -3.481436073780059814e-01 7.799685001373291016e-02
1.622000000000000000e+03 1.895469307899475098e+00 2.483084869384765625e+01 7.279644254595041275e-03 -1.298482179641723633e+00 -3.873607516288757324e-01 4.014025256037712097e-02
1.623000000000000000e+03 1.886724472045898438e+00 2.799192047119140625e+01 2.697286196053028107e-03 -1.355839610099792480e+00 -4.059427082538604736e-01 2.426590584218502045e-02
1.624000000000000000e+03 1.870843887329101562e+00 2.720037269592285156e+01 4.218509886413812637e-03 -1.345460653305053711e+00 -4.023726582527160645e-01 2.653655968606472015e-02
1.625000000000000000e+03 2.000026226043701172e+00 2.958162117004394531e+01 3.956438158638775349e-04 -1.366723656654357910e+00 -4.098984003067016602e-01 2.249048091471195221e-02
1.626000000000000000e+03 2.186764955520629883e+00 3.118500137329101562e+01 1.239729695953428745e-03 -1.367963671684265137e+00 -4.100171923637390137e-01 2.324259467422962189e-02
1.627000000000000000e+03 2.251284599304199219e+00 3.459440231323242188e+01 1.113009406253695488e-03 -1.393261075019836426e+00 -4.176444113254547119e-01 1.765312068164348602e-02
1.628000000000000000e+03 2.281562089920043945e+00 3.371248626708984375e+01 2.866200171411037445e-03 -1.384594559669494629e+00 -4.145185053348541260e-01 1.796985045075416565e-02
1.629000000000000000e+03 2.874406099319458008e+00 -3.674396896362304688e+01 -1.261975703528150916e-04 9.381943964399397373e-04 2.435990463709458709e-04 4.061107465531677008e-04
1.630000000000000000e+03 2.878817081451416016e+00 -3.581558990478515625e+01 1.311784726567566395e-04 9.194077574647963047e-04 3.151758864987641573e-04 2.667024673428386450e-04
1.631000000000000000e+03 1.101221680641174316e+00 2.013117790222167969e+01 6.334572564810514450e-03 -1.216320753097534180e+00 -3.629958331584930420e-01 5.793392658233642578e-02
1.632000000000000000e+03 1.841939687728881836e+00 2.158824729919433594e+01 1.401543803513050079e-02 -1.206949472427368164e+00 -3.578802049160003662e-01 7.238250970840454102e-02
1.633000000000000000e+03 7.175203323364257812e+00 -1.232646942138671875e+01 3.616736285039223731e-05 2.896414844144601375e-05 1.953945320565253496e-05 -7.507265308959176764e-06
1.634000000000000000e+03 2.445725202560424805e+00 -2.053724098205566406e+01 -7.678460679017007351e-05 3.346111952851060778e-06 -2.203154690505471081e-05 3.622632357291877270e-05
1.635000000000000000e+03 1.745855212211608887e+00 -1.651334953308105469e+01 -7.724922761553898454e-05 -1.221550337504595518e-05 -2.683941784198395908e-05 -5.330544354364974424e-06
1.636000000000000000e+03 1.111551284790039062e+00 -2.768001174926757812e+01 1.103994363802485168e-04 2.206085628131404519e-04 9.930240048561245203e-05 8.054825593717396259e-05
1.637000000000000000e+03 2.513939857482910156e+00 -2.217196655273437500e+01 -6.449811189668253064e-05 1.540434823255054653e-05 -1.472812982683535665e-05 6.315604696283116937e-05
1.638000000000000000e+03 1.815406560897827148e+00 1.594282913208007812e+01 1.564422622323036194e-02 -8.817522525787353516e-01 -2.598324120044708252e-01 1.657630950212478638e-01
1.639000000000000000e+03 1.099759459495544434e+00 8.079444885253906250e+00 -1.044396031647920609e-02 -1.628012210130691528e-01 -5.197355523705482483e-02 8.474971354007720947e-02
1.640000000000000000e+03 1.793848991394042969e+00 1.275979328155517578e+01 1.893764128908514977e-03 -6.021459102630615234e-01 -1.800756454467773438e-01 1.961479783058166504e-01
1.641000000000000000e+03 1.822434306144714355e+00 1.755730438232421875e+01 1.763479784131050110e-02 -9.994863867759704590e-01 -2.945554852485656738e-01 1.388132423162460327e-01
1.642000000000000000e+03 1.231149196624755859e+00 -7.473509788513183594e+00 -2.271397534059360623e-05 1.412345795870351139e-06 -6.390488579199882224e-06 -3.649049347131949617e-07
1.643000000000000000e+03 2.717457056045532227e+00 -6.414154052734375000e+00 4.786524598898722616e-08 5.024841357226250693e-06 1.521812009741552174e-06 6.506978024845011532e-06
1.644000000000000000e+03 2.930775165557861328e+00 -8.564836502075195312e+00 3.247352287871763110e-05 1.008040453598368913e-05 1.276617786061251536e-05 -9.583898645360022783e-06
1.645000000000000000e+03 1.158563852310180664e+00 -5.028351783752441406e+00 1.223759409185731784e-05 2.327626816622796468e-06 4.369566340756136924e-06 3.465249392320401967e-06
1.646000000000000000e+03 1.828651785850524902e+00 -2.293387603759765625e+01 -6.596872844966128469e-05 1.466479079681448638e-05 -1.539118056825827807e-05 5.866162246093153954e-05
1.647000000000000000e+03 1.062160491943359375e+00 -2.045217132568359375e+01 -7.942117372294887900e-05 -2.781401053653098643e-05 -3.217055564164184034e-05 1.416907525708666071e-05
1.648000000000000000e+03 1.721376180648803711e+00 -1.889975929260253906e+01 9.144340583588927984e-05 -1.292939850827679038e-05 2.355420110689010471e-05 -2.040018807747401297e-05
1.649000000000000000e+03 1.056592822074890137e+00 -1.322819042205810547e+01 5.080868504592217505e-05 -3.618223672674503177e-06 1.415713813912589103e-05 -4.580387212627101690e-06
1.650000000000000000e+03 1.776939868927001953e+00 -1.169233226776123047e+01 -4.757605711347423494e-05 -4.623274435289204121e-06 -1.565979982842691243e-05 -1.739885760798642877e-06
1.651000000000000000e+03 1.105792760848999023e+00 5.657017707824707031e+00 -1.222287584096193314e-02 -2.951795980334281921e-02 -1.252225041389465332e-02 3.550458326935768127e-02
1.652000000000000000e+03 1.794252514839172363e+00 1.196258449554443359e+01 -2.227247692644596100e-03 -5.267935395240783691e-01 -1.587062329053878784e-01 1.958284676074981689e-01
1.653000000000000000e+03 1.844569444656372070e+00 7.123204231262207031e+00 -3.003409318625926971e-02 -1.417357772588729858e-01 -5.153096094727516174e-02 1.100978925824165344e-01
1.654000000000000000e+03 1.098039150238037109e+00 2.643430709838867188e+00 -5.312008783221244812e-03 1.520401611924171448e-02 2.967602340504527092e-03 -1.377688907086849213e-02
1.655000000000000000e+03 1.051415920257568359e+00 -1.644271850585937500e+01 6.989395478740334511e-05 -1.313833399763097987e-05 1.702668487268965691e-05 -9.535564458929002285e-06
1.656000000000000000e+03 1.757797360420227051e+00 -1.329545497894287109e+01 -5.550000059884041548e-05 -4.668397195928264409e-06 -1.805051942938007414e-05 -3.451908014540094882e-06
1.657000000000000000e+03 1.095606684684753418e+00 -2.287610626220703125e+01 8.588107448304072022e-05 5.878615866095060483e-06 2.752790715021546930e-05 1.769374989635252859e-06
1.658000000000000000e+03 1.782527804374694824e+00 -2.130460548400878906e+01 -7.399867899948731065e-05 -5.721374691347591579e-06 -2.391601628914941102e-05 3.397688851691782475e-05
1.659000000000000000e+03 1.147950768470764160e+00 -3.006104850769042969e+01 -9.054249676410108805e-05 4.302154993638396263e-04 1.019018964143469930e-04 1.507513079559430480e-04
1.660000000000000000e+03 1.847696542739868164e+00 -2.851115226745605469e+01 1.346369681414216757e-04 2.845508279278874397e-04 1.257563417311757803e-04 1.401518529746681452e-04
1.661000000000000000e+03 1.833685755729675293e+00 7.942361831665039062e+00 -2.859096787869930267e-02 -1.908811479806900024e-01 -6.584163010120391846e-02 1.329244226217269897e-01
1.662000000000000000e+03 2.503062486648559570e+00 -3.774267196655273438e+01 -9.880134166451171041e-05 1.212871633470058441e-03 3.342210839036852121e-04 1.805506035452708602e-04
1.663000000000000000e+03 2.578735589981079102e+00 -2.931761550903320312e+01 1.590075553394854069e-04 3.421773144509643316e-04 1.503554522059857845e-04 1.966292184079065919e-04
1.664000000000000000e+03 1.860188603401184082e+00 -2.774436759948730469e+01 -8.113964577205479145e-05 2.303566725458949804e-04 4.476510730455629528e-05 1.582179102115333080e-04
1.665000000000000000e+03 1.118252515792846680e+00 -2.449511146545410156e+01 8.848159632179886103e-05 5.249069727142341435e-05 4.229168916936032474e-05 2.412998219369910657e-05
1.666000000000000000e+03 1.899854063987731934e+00 -2.618822097778320312e+01 -6.068544098525308073e-05 1.232044596690684557e-04 1.875570887932553887e-05 1.212919014506042004e-04
1.667000000000000000e+03 2.687981605529785156e+00 -2.548172378540039062e+01 -3.757168815354816616e-05 9.283261897508054972e-05 1.657828033785335720e-05 1.486071269027888775e-04
1.668000000000000000e+03 1.762042999267578125e+00 -2.049707794189453125e+01 9.322764526586979628e-05 -4.287681804271414876e-06 2.668198976607527584e-05 -1.772409996192436665e-05
1.669000000000000000e+03 1.763809800148010254e+00 -1.570434093475341797e+01 6.769729952793568373e-05 -2.047229600066202693e-06 1.969502045540139079e-05 -1.053703726938692853e-05
1.670000000000000000e+03 1.767590284347534180e+00 -1.409963321685791016e+01 5.772584336227737367e-05 -1.751438048813724890e-06 1.679232263995800167e-05 -7.645026016689371318e-06
1.671000000000000000e+03 2.093559265136718750e+00 -8.345633506774902344e+00 -2.985471837746445090e-05 -3.127729996776906773e-06 -9.894734830595552921e-06 -2.045837163677788340e-06
1.672000000000000000e+03 1.968050956726074219e+00 -9.243483543395996094e+00 3.547245796653442085e-05 1.149958393398264889e-06 1.098672510124742985e-05 -1.493399963692354504e-06
1.673000000000000000e+03 1.815937519073486328e+00 -1.089625835418701172e+01 4.162148979958146811e-05 1.834611566664534621e-06 1.303683075093431398e-05 -3.298794808870297857e-06
1.674000000000000000e+03 1.832409381866455078e+00 8.746581077575683594e+00 -2.384935878217220306e-02 -2.471798658370971680e-01 -8.130876719951629639e-02 1.531230658292770386e-01
1.675000000000000000e+03 1.826788663864135742e+00 9.553201675415039062e+00 -2.064685337245464325e-02 -3.102204501628875732e-01 -9.926019608974456787e-02 1.708631664514541626e-01
1.676000000000000000e+03 2.516141891479492188e+00 1.342122459411621094e+01 1.091205328702926636e-02 -6.523857116699218750e-01 -1.924421042203903198e-01 2.560701072216033936e-01
1.677000000000000000e+03 1.798445343971252441e+00 1.355596828460693359e+01 7.468460593372583389e-03 -6.760098934173583984e-01 -2.005624175071716309e-01 1.925607174634933472e-01
1.678000000000000000e+03 1.801731586456298828e+00 1.116198921203613281e+01 -9.163376875221729279e-03 -4.521048367023468018e-01 -1.383804678916931152e-01 1.925639361143112183e-01
1.679000000000000000e+03 1.804643988609313965e+00 1.435149955749511719e+01 1.037566177546977997e-02 -7.482268214225769043e-01 -2.213553488254547119e-01 1.861445605754852295e-01
1.680000000000000000e+03 1.820343613624572754e+00 1.675052452087402344e+01 1.757716946303844452e-02 -9.431248903274536133e-01 -2.776643037796020508e-01 1.523792743682861328e-01
1.681000000000000000e+03 1.821986556053161621e+00 1.836018180847167969e+01 1.877784170210361481e-02 -1.051151990890502930e+00 -3.097122311592102051e-01 1.243160888552665710e-01
1.682000000000000000e+03 1.822949528694152832e+00 1.916446495056152344e+01 1.763524860143661499e-02 -1.097559690475463867e+00 -3.239773511886596680e-01 1.099271848797798157e-01
1.683000000000000000e+03 1.855284214019775391e+00 2.239011192321777344e+01 1.260414533317089081e-02 -1.234414935111999512e+00 -3.665432631969451904e-01 6.283941119909286499e-02
1.684000000000000000e+03 1.832863330841064453e+00 2.078318786621093750e+01 1.514488831162452698e-02 -1.175524830818176270e+00 -3.481139838695526123e-01 8.363069593906402588e-02
1.685000000000000000e+03 1.998023629188537598e+00 -2.657469749450683594e+00 5.508332378667546436e-06 1.373635882373491768e-06 2.064590489680995233e-06 1.008755702969210688e-06
1.686000000000000000e+03 2.053600788116455078e+00 -3.327309417724609375e+01 1.118405634770169854e-04 7.598726660944521427e-04 2.615139528643339872e-04 2.568319032434374094e-04
1.687000000000000000e+03 2.064363718032836914e+00 -3.410478591918945312e+01 -1.177535523311235011e-04 8.247338701039552689e-04 2.120941062457859516e-04 2.609659568406641483e-04
1.688000000000000000e+03 1.961891651153564453e+00 -3.656117248535156250e+01 3.017728340637404472e-05 1.178868231363594532e-03 3.627136466093361378e-04 2.067738387268036604e-04
1.689000000000000000e+03 1.496345329284667969e+01 -2.347718048095703125e+01 5.510522169061005116e-04 5.737475930800428614e-06 1.670369092607870698e-04 -2.041709813056513667e-04
1.690000000000000000e+03 1.216057872772216797e+01 -2.056015968322753906e+01 1.109623044612817466e-04 -5.141163637745194137e-05 1.786520078894682229e-05 -3.957959779654629529e-05
1.691000000000000000e+03 1.439645195007324219e+01 -2.290758514404296875e+01 4.358029109425842762e-04 -6.823906733188778162e-05 1.102691530832089484e-04 -1.184293287224136293e-04
1.692000000000000000e+03 1.290323352813720703e+01 -4.539348602294921875e+00 -4.644514774554409087e-06 -3.278073336332454346e-06 -2.376776365053956397e-06 -1.713286110316403210e-06
1.693000000000000000e+03 6.225621795654296875e+01 -2.389817237854003906e+01 -2.741488218307495117e-01 2.101772546768188477e+00 5.482870936393737793e-01 7.075739502906799316e-01
1.694000000000000000e+03 2.464540672302246094e+01 1.553567981719970703e+01 -3.427821397781372070e-01 -9.063819646835327148e-01 -3.747492432594299316e-01 4.956145584583282471e-01
1.695000000000000000e+03 2.537866401672363281e+01 1.463109207153320312e+01 -4.276228547096252441e-01 -9.370471239089965820e-01 -4.094009697437286377e-01 4.544467031955718994e-01
1.696000000000000000e+03 5.782420349121093750e+01 -9.317324638366699219e+00 -2.327313184738159180e+00 -3.483728766441345215e-01 -8.027057647705078125e-01 -9.254952669143676758e-01
1.697000000000000000e+03 5.848485565185546875e+01 -8.902706146240234375e+00 -2.469331741333007812e+00 -3.626566529273986816e-01 -8.495965003967285156e-01 -9.921747446060180664e-01
1.698000000000000000e+03 3.759238433837890625e+01 -3.327562332153320312e+01 -6.397901475429534912e-02 -1.329560391604900360e-02 -2.318238466978073120e-02 -4.764663428068161011e-02
1.699000000000000000e+03 6.390769577026367188e+01 -2.200584983825683594e+01 9.310694783926010132e-02 3.454674482345581055e+00 1.064334392547607422e+00 1.288723826408386230e+00
1.700000000000000000e+03 4.279705429077148438e+01 -3.390563201904296875e+01 -1.749148666858673096e-01 -1.305675655603408813e-01 -9.164472669363021851e-02 -2.101659178733825684e-01
1.701000000000000000e+03 2.183930587768554688e+01 -2.931278991699218750e+01 4.853727295994758606e-03 -3.349182661622762680e-04 1.355642685666680336e-03 -4.586252325680106878e-04
1.702000000000000000e+03 5.092959976196289062e+01 -3.159118080139160156e+01 -5.779246091842651367e-01 -3.449037075042724609e-01 -2.768484950065612793e-01 -4.646071195602416992e-01
1.703000000000000000e+03 3.205411529541015625e+01 -3.360469055175781250e+01 -1.264882856048643589e-03 -3.126752795651555061e-03 -1.317490707151591778e-03 -8.154068142175674438e-03
1.704000000000000000e+03 4.511124420166015625e+01 -1.665760803222656250e+01 -8.247477412223815918e-01 -5.617140978574752808e-02 -2.642757296562194824e-01 -2.011864334344863892e-01
1.705000000000000000e+03 6.494162750244140625e+01 -2.071070671081542969e+01 3.086079359054565430e-01 4.735116958618164062e+00 1.513117432594299316e+00 1.761875867843627930e+00
1.706000000000000000e+03 2.211409187316894531e+01 1.652019882202148438e+01 -1.395732164382934570e-01 -5.538687109947204590e-01 -2.080325782299041748e-01 5.249150395393371582e-01
1.707000000000000000e+03 1.492140769958496094e+01 1.891122221946716309e+00 -4.767327010631561279e-01 -9.063055515289306641e-01 -4.149114787578582764e-01 7.620601654052734375e-01
1.708000000000000000e+03 1.896187210083007812e+01 -1.308762073516845703e+01 5.380707079893909395e-07 -1.029411805575364269e-06 -1.474023321179629420e-07 -3.095563897659303620e-06
1.709000000000000000e+03 1.404698085784912109e+01 1.170035839080810547e+01 6.400451809167861938e-02 -6.045258641242980957e-01 -1.621564030647277832e-01 3.732435107231140137e-01
1.710000000000000000e+03 1.301740360260009766e+01 1.044326400756835938e+01 -1.831091046333312988e-01 -8.205329775810241699e-01 -3.010926246643066406e-01 6.788153648376464844e-01
1.711000000000000000e+03 2.736934661865234375e+01 -3.123962020874023438e+01 1.138015929609537125e-02 1.055112807080149651e-03 3.730581374838948250e-03 -1.556426286697387695e-03
1.712000000000000000e+03 1.228731346130371094e+01 2.053608179092407227e+00 -4.663154184818267822e-01 -4.374724924564361572e-01 -2.711363732814788818e-01 4.452039897441864014e-01
1.713000000000000000e+03 1.648529434204101562e+01 5.790597796440124512e-01 -5.979682207107543945e-01 -9.689383506774902344e-01 -4.700719714164733887e-01 9.156723022460937500e-01
1.714000000000000000e+03 1.741464424133300781e+01 3.633114814758300781e+00 -4.679861962795257568e-01 -1.041538357734680176e+00 -4.528573751449584961e-01 8.716312646865844727e-01
1.715000000000000000e+03 4.515901947021484375e+01 -3.297875595092773438e+01 -3.470580577850341797e-01 -1.531637907028198242e-01 -1.500665545463562012e-01 -2.784143984317779541e-01
1.716000000000000000e+03 6.315803909301757812e+01 -6.371067047119140625e+00 -2.860961914062500000e+00 -6.209571361541748047e-01 -1.044575691223144531e+00 -1.080157399177551270e+00
1.717000000000000000e+03 3.836897277832031250e+01 -3.546365356445312500e+01 -3.377123177051544189e-02 -7.239116728305816650e-02 -3.184871748089790344e-02 -1.054888665676116943e-01
1.718000000000000000e+03 3.622799873352050781e+00 -2.640192031860351562e+00 4.726829047285718843e-06 1.670489382377127185e-06 1.919195483424118720e-06 5.934336400059692096e-07
1.719000000000000000e+03 4.384501934051513672e+00 -3.386705398559570312e+00 5.888702617085073143e-06 2.081990714941639453e-06 2.391207999608013779e-06 3.553347838192166819e-08
1.720000000000000000e+03 1.930035114288330078e+00 -4.968210220336914062e+00 -8.593718121119309217e-06 -4.124478437006473541e-06 -3.815458967437734827e-06 -3.194115606675040908e-06
1.721000000000000000e+03 1.192874550819396973e+00 -2.672298192977905273e+00 -6.186087375681381673e-06 -7.621982263117388356e-07 -2.084485686282278039e-06 -8.311740202771034092e-07
1.722000000000000000e+03 6.881074905395507812e+00 -2.662359476089477539e+00 4.402888862387044355e-06 1.349241983916726895e-06 1.725639322103234008e-06 4.187651256870594807e-07
1.723000000000000000e+03 7.699756622314453125e+00 -2.688872098922729492e+00 -4.317113052820786834e-06 -1.463408921154041309e-06 -1.734156626298499759e-06 -5.113454903948877472e-07
1.724000000000000000e+03 8.434148788452148438e+00 -3.551843404769897461e+00 -6.594824299099855125e-06 -1.091704575628682505e-06 -2.305958787474082783e-06 -1.032383238452894147e-06
1.725000000000000000e+03 5.189523696899414062e+00 -3.388990640640258789e+00 -5.853918537468416616e-06 -1.893678017950151116e-06 -2.324278966625570320e-06 1.799064790475313202e-07
1.726000000000000000e+03 5.140856933593750000e+01 -1.237969589233398438e+01 -1.291220188140869141e+00 -4.076331481337547302e-02 -3.995950520038604736e-01 -4.037778079509735107e-01
1.727000000000000000e+03 4.193871688842773438e+01 -3.400563430786132812e+01 -1.521849632263183594e-01 -1.057677865028381348e-01 -7.738582044839859009e-02 -1.797384768724441528e-01
1.728000000000000000e+03 2.403853034973144531e+01 1.183651685714721680e+00 -3.577186167240142822e-01 6.027168035507202148e-02 -8.923408389091491699e-02 2.561652958393096924e-01
1.729000000000000000e+03 2.153276443481445312e+01 3.376442909240722656e+00 1.625316590070724487e-01 1.941800117492675781e-01 1.070135012269020081e-01 4.005380868911743164e-01
1.730000000000000000e+03 1.234121990203857422e+01 2.780495882034301758e+00 -4.835815727710723877e-01 -5.120629072189331055e-01 -2.986933290958404541e-01 4.607789814472198486e-01
1.731000000000000000e+03 1.412858009338378906e+01 2.263279914855957031e+00 -4.757661521434783936e-01 -8.084953427314758301e-01 -3.852784633636474609e-01 6.632074117660522461e-01
1.732000000000000000e+03 5.857082748413085938e+01 -2.620636367797851562e+01 -8.607039451599121094e-01 1.165036410093307495e-01 -2.232600897550582886e-01 -2.232855856418609619e-01
1.733000000000000000e+03 5.912777709960937500e+01 -2.690490913391113281e+01 -6.596907377243041992e-01 6.121247410774230957e-01 -1.426979806274175644e-02 4.671996831893920898e-02
1.734000000000000000e+03 1.148145103454589844e+01 2.931313276290893555e+00 -4.723314344882965088e-01 -3.933258056640625000e-01 -2.596971690654754639e-01 3.925048708915710449e-01
1.735000000000000000e+03 2.185161972045898438e+01 -1.722101330757141113e+00 -9.291761517524719238e-01 -4.242317676544189453e-01 -4.060223698616027832e-01 5.990628600120544434e-01
1.736000000000000000e+03 2.128400611877441406e+01 -2.128157854080200195e+00 -1.018863916397094727e+00 -5.524983406066894531e-01 -4.714086651802062988e-01 6.893029212951660156e-01
1.737000000000000000e+03 1.943395996093750000e+01 -1.379007935523986816e+00 -1.010574221611022949e+00 -8.375679254531860352e-01 -5.544426441192626953e-01 8.562179803848266602e-01
1.738000000000000000e+03 2.241454315185546875e+01 -3.459095239639282227e+00 -1.031635403633117676e+00 -4.981145560741424561e-01 -4.589249789714813232e-01 6.673427820205688477e-01
1.739000000000000000e+03 1.042895889282226562e+01 -1.756330490112304688e+01 6.952945568627910689e-06 2.375187068537343293e-05 9.211445103574078530e-06 2.971880348923150450e-05
1.740000000000000000e+03 1.046810913085937500e+01 -1.872343635559082031e+01 5.818860881845466793e-05 2.385514744673855603e-05 2.461312760715372860e-05 8.233414519054349512e-06
1.741000000000000000e+03 6.042586898803710938e+01 -2.568303680419921875e+01 -5.623120069503784180e-01 1.109470367431640625e+00 1.641475111246109009e-01 2.567103207111358643e-01
1.742000000000000000e+03 6.099545669555664062e+01 -2.627733039855957031e+01 -5.387105345726013184e-01 1.654435992240905762e+00 3.347176313400268555e-01 4.494435787200927734e-01
1.743000000000000000e+03 1.960770416259765625e+01 -2.685177993774414062e+01 2.549518365412950516e-03 3.461587475612759590e-04 8.687031804583966732e-04 -9.018042474053800106e-04
1.744000000000000000e+03 5.203519439697265625e+01 -2.987305068969726562e+01 -1.057450056076049805e+00 -3.473271429538726807e-01 -4.214331507682800293e-01 -5.914818644523620605e-01
1.745000000000000000e+03 4.307842636108398438e+01 1.983624076843261719e+01 2.169876843690872192e-01 1.227245926856994629e+00 4.332700669765472412e-01 4.305925965309143066e-01
1.746000000000000000e+03 4.426195907592773438e+01 1.915145301818847656e+01 2.425671219825744629e-01 1.165084838867187500e+00 4.222956001758575439e-01 5.539214611053466797e-01
1.747000000000000000e+03 5.238532638549804688e+01 -3.062319946289062500e+01 -7.499710321426391602e-01 -3.077743053436279297e-01 -3.173235952854156494e-01 -4.948120117187500000e-01
1.748000000000000000e+03 4.366266250610351562e+01 -3.357534408569335938e+01 -2.359228730201721191e-01 -1.389868408441543579e-01 -1.124729141592979431e-01 -2.442967891693115234e-01
1.749000000000000000e+03 6.925885009765625000e+01 -8.561844825744628906e+00 4.230007171630859375e+00 1.640657615661621094e+01 6.190974712371826172e+00 -1.083567619323730469e+00
1.750000000000000000e+03 5.658243942260742188e+01 1.187722015380859375e+01 3.549904823303222656e-01 3.440186023712158203e+00 1.138553023338317871e+00 -2.469148337841033936e-01
1.751000000000000000e+03 6.545032501220703125e+01 -2.004891777038574219e+01 4.032284319400787354e-01 5.524607181549072266e+00 1.778350591659545898e+00 2.017606973648071289e+00
1.752000000000000000e+03 5.455849456787109375e+01 -2.974982643127441406e+01 -7.711740136146545410e-01 -1.588461399078369141e-01 -2.790060639381408691e-01 -4.188291132450103760e-01
1.753000000000000000e+03 5.571351242065429688e+01 -2.814222145080566406e+01 -1.074835300445556641e+00 -2.421852052211761475e-01 -3.951061367988586426e-01 -4.951073825359344482e-01
1.754000000000000000e+03 2.978707695007324219e+01 -3.212426376342773438e+01 1.221139822155237198e-02 3.590860287658870220e-04 3.771145362406969070e-03 -2.693647984415292740e-03
1.755000000000000000e+03 5.407074356079101562e+01 -1.083987808227539062e+01 -1.618101119995117188e+00 -8.423983305692672729e-02 -5.107023119926452637e-01 -5.550270080566406250e-01
1.756000000000000000e+03 2.326449012756347656e+01 -3.026072120666503906e+01 6.099578458815813065e-03 -6.409513880498707294e-04 1.637588138692080975e-03 -1.039109338307753205e-04
1.757000000000000000e+03 2.896936225891113281e+01 -3.182224845886230469e+01 1.284758374094963074e-02 1.639950089156627655e-03 4.346260335296392441e-03 -1.849417574703693390e-03
1.758000000000000000e+03 3.152061462402343750e+01 -3.443843460083007812e+01 -2.114171860739588737e-03 -4.923812113702297211e-03 -2.111395122483372688e-03 -7.411313243210315704e-03
1.759000000000000000e+03 4.832169342041015625e+01 -3.254084396362304688e+01 -4.198058843612670898e-01 -3.002215921878814697e-01 -2.160082459449768066e-01 -4.169818162918090820e-01
1.760000000000000000e+03 4.944012832641601562e+01 -3.341045379638671875e+01 -1.872969120740890503e-01 -3.224242627620697021e-01 -1.529163569211959839e-01 -3.878066241741180420e-01
1.761000000000000000e+03 3.850919723510742188e+01 -3.431088638305664062e+01 -7.413655519485473633e-02 -4.208518564701080322e-02 -3.486652299761772156e-02 -8.961033076047897339e-02
1.762000000000000000e+03 5.771426010131835938e+01 -2.812429237365722656e+01 -6.996505260467529297e-01 2.753218114376068115e-01 -1.272986084222793579e-01 -1.106401011347770691e-01
1.763000000000000000e+03 4.555493545532226562e+01 -1.575684928894042969e+01 -8.584671616554260254e-01 -1.054198760539293289e-02 -2.607027590274810791e-01 -2.000665366649627686e-01
1.764000000000000000e+03 6.450917053222656250e+01 -2.253966522216796875e+01 -2.141768634319305420e-01 4.204106330871582031e+00 1.196978926658630371e+00 1.265423178672790527e+00
1.765000000000000000e+03 3.700368881225585938e+01 -1.755630302429199219e+01 -5.256317257881164551e-01 2.795914001762866974e-02 -1.493017673492431641e-01 4.468690231442451477e-02
1.766000000000000000e+03 3.832445144653320312e+01 -1.677458572387695312e+01 -5.902256965637207031e-01 5.612647160887718201e-02 -1.602297723293304443e-01 3.366086632013320923e-02
1.767000000000000000e+03 3.134373855590820312e+01 -1.559851646423339844e+01 -4.045560657978057861e-01 -1.913303695619106293e-02 -1.271067261695861816e-01 2.041817605495452881e-01
1.768000000000000000e+03 3.236247634887695312e+01 -1.534021472930908203e+01 -4.523073732852935791e-01 1.917102187871932983e-02 -1.299409121274948120e-01 2.048191875219345093e-01
1.769000000000000000e+03 2.932932662963867188e+01 -1.434823608398437500e+01 -3.619338870048522949e-01 -9.015403687953948975e-02 -1.356263756752014160e-01 2.783940434455871582e-01
1.770000000000000000e+03 3.088417243957519531e+01 -1.349772453308105469e+01 -4.708766341209411621e-01 -1.196851488202810287e-02 -1.448535472154617310e-01 2.957365214824676514e-01
1.771000000000000000e+03 3.304602050781250000e+01 -1.566211986541748047e+01 -4.660405516624450684e-01 3.760484233498573303e-02 -1.285307109355926514e-01 1.880811601877212524e-01
1.772000000000000000e+03 3.543746948242187500e+01 -3.425501251220703125e+01 -2.665815874934196472e-02 -1.451265905052423477e-02 -1.235124561935663223e-02 -3.323896974325180054e-02
1.773000000000000000e+03 2.252273750305175781e+01 -2.980504035949707031e+01 4.867576062679290771e-03 -3.012698143720626831e-04 1.369891804642975330e-03 -5.013482877984642982e-04
1.774000000000000000e+03 5.125068283081054688e+01 2.031448745727539062e+01 4.775846302509307861e-01 7.500688433647155762e-01 3.682960271835327148e-01 -4.851218461990356445e-01
1.775000000000000000e+03 2.052361869812011719e+01 -2.840511512756347656e+01 3.404005430638790131e-03 -1.003567103907698765e-05 1.018190989270806313e-03 -3.264235856477171183e-04
1.776000000000000000e+03 4.948297882080078125e+01 3.891799926757812500e+00 8.911709487438201904e-02 1.454288214445114136e-01 7.036377489566802979e-02 1.864434480667114258e-01
1.777000000000000000e+03 6.681324005126953125e+01 -1.687545776367187500e+01 1.728842973709106445e+00 9.574276924133300781e+00 3.390936136245727539e+00 3.528210401535034180e+00
1.778000000000000000e+03 4.306001663208007812e+01 9.911332130432128906e+00 1.533284187316894531e-01 1.392949223518371582e+00 4.638832807540893555e-01 -1.623656600713729858e-01
1.779000000000000000e+03 4.408250427246093750e+01 7.476638317108154297e+00 -4.543688148260116577e-02 6.129274368286132812e-01 1.702471673488616943e-01 -1.462218910455703735e-01
1.780000000000000000e+03 4.033658599853515625e+01 -3.426030731201171875e+01 -1.129125282168388367e-01 -7.060441374778747559e-02 -5.505508184432983398e-02 -1.357829272747039795e-01
1.781000000000000000e+03 3.766241455078125000e+01 -3.421029281616210938e+01 -5.522472038865089417e-02 -3.448717668652534485e-02 -2.691357024013996124e-02 -7.046566158533096313e-02
1.782000000000000000e+03 2.085867309570312500e+01 3.023173809051513672e+00 -7.070972025394439697e-02 7.377886772155761719e-02 9.207430412061512470e-04 5.161864757537841797e-01
1.783000000000000000e+03 1.902327156066894531e+01 -3.625732958316802979e-01 -7.840741276741027832e-01 -7.951872348785400391e-01 -4.737783968448638916e-01 8.659384250640869141e-01
1.784000000000000000e+03 1.754371452331542969e+01 1.467002749443054199e+00 -4.215642213821411133e-01 -9.518393278121948242e-01 -4.120210707187652588e-01 9.408401250839233398e-01
1.785000000000000000e+03 5.168661499023437500e+01 -3.109438133239746094e+01 -6.705480813980102539e-01 -3.186101913452148438e-01 -2.967474758625030518e-01 -4.794875681400299072e-01
1.786000000000000000e+03 1.773648643493652344e+01 -8.163420677185058594e+00 -6.240612492547370493e-06 -6.752101171514368616e-07 -2.074746817015693523e-06 -8.681604981575219426e-07
1.787000000000000000e+03 6.821466827392578125e+01 -1.569767475128173828e+01 1.087172031402587891e+00 1.274706268310546875e+01 4.150270462036132812e+00 2.784566164016723633e+00
1.788000000000000000e+03 6.839943695068359375e+01 -1.683087158203125000e+01 5.641511082649230957e-01 1.131686592102050781e+01 3.564305305480957031e+00 1.848264932632446289e+00
1.789000000000000000e+03 2.034313774108886719e+01 3.412973880767822266e+00 -4.217937123030424118e-03 7.262377440929412842e-02 2.052175067365169525e-02 5.907830595970153809e-01
1.790000000000000000e+03 4.748823547363281250e+01 2.063542366027832031e+01 4.670585095882415771e-01 4.699971377849578857e-01 2.811166942119598389e-01 3.433260321617126465e-01
1.791000000000000000e+03 2.058571624755859375e+01 1.756002807617187500e+01 3.298096358776092529e-01 -2.007108628749847412e-01 3.872963041067123413e-02 6.233183741569519043e-01
1.792000000000000000e+03 1.433533382415771484e+01 1.555256366729736328e+01 7.244277000427246094e-01 -4.513673856854438782e-02 2.037872970104217529e-01 3.782807290554046631e-01
1.793000000000000000e+03 1.414636898040771484e+01 1.483411502838134766e+01 7.025627493858337402e-01 -1.479985862970352173e-01 1.663692444562911987e-01 4.214431941509246826e-01
1.794000000000000000e+03 2.471084022521972656e+01 -6.837038040161132812e+00 -7.875425219535827637e-01 -3.927083313465118408e-01 -3.540752530097961426e-01 6.161159873008728027e-01
1.795000000000000000e+03 2.225144577026367188e+01 1.735848808288574219e+01 1.249321848154067993e-01 -5.732385516166687012e-01 -1.344919055700302124e-01 5.666942000389099121e-01
1.796000000000000000e+03 2.301121902465820312e+01 3.897904396057128906e+00 3.779111206531524658e-01 2.816936969757080078e-01 1.978814452886581421e-01 2.902852594852447510e-01
1.797000000000000000e+03 2.283631324768066406e+01 4.580881595611572266e+00 6.877301335334777832e-01 3.277554810047149658e-01 3.046456873416900635e-01 3.921275436878204346e-01
1.798000000000000000e+03 2.693517875671386719e+01 -3.209723663330078125e+01 8.612388744950294495e-03 -1.077460241504013538e-03 2.260478679090738297e-03 -3.621138166636228561e-04
1.799000000000000000e+03 1.779593849182128906e+01 -1.162507057189941406e+01 4.620171978331200080e-07 2.960990968858823180e-06 1.026902396006335039e-06 -2.465060049416933907e-07
1.800000000000000000e+03 1.610530090332031250e+01 -1.164840412139892578e+01 4.610371888702502474e-07 -2.462634711264399812e-06 -6.004792680869286414e-07 1.836927197018667357e-07
1.801000000000000000e+03 3.121355438232421875e+01 -3.352935791015625000e+01 1.885847421362996101e-03 -1.436171703971922398e-03 1.349027297692373395e-04 -4.021028522402048111e-03
1.802000000000000000e+03 2.777734184265136719e+01 -3.229650497436523438e+01 8.576068095862865448e-03 4.210160695947706699e-04 2.699125092476606369e-03 -2.938649777206592262e-05
1.803000000000000000e+03 2.732691001892089844e+01 1.052172851562500000e+01 -1.640231758356094360e-01 -5.064972639083862305e-01 -2.011561393737792969e-01 6.204712390899658203e-01
1.804000000000000000e+03 4.208843994140625000e+01 1.383471584320068359e+01 4.144782125949859619e-01 1.871862292289733887e+00 6.859021782875061035e-01 3.729677200317382812e-01
1.805000000000000000e+03 4.127553176879882812e+01 1.354756736755371094e+01 4.133314192295074463e-01 1.597109794616699219e+00 6.031323671340942383e-01 3.158338963985443115e-01
1.806000000000000000e+03 3.381069946289062500e+01 -3.395780181884765625e+01 -1.095401681959629059e-02 -6.241847760975360870e-03 -5.158759187906980515e-03 -1.719583384692668915e-02
1.807000000000000000e+03 5.260352706909179688e+01 5.467328548431396484e+00 2.545665204524993896e-01 4.909353554248809814e-01 2.236505597829818726e-01 3.134205639362335205e-01
1.808000000000000000e+03 5.513108062744140625e+01 1.782441329956054688e+01 3.767244219779968262e-01 2.814080953598022461e+00 9.572415947914123535e-01 -9.231714606285095215e-01
1.809000000000000000e+03 5.492676544189453125e+01 1.863477134704589844e+01 3.148204088211059570e-01 2.598217248916625977e+00 8.739113211631774902e-01 -9.048408269882202148e-01
1.810000000000000000e+03 6.096839904785156250e+01 -6.370132446289062500e+00 -2.435679674148559570e+00 -1.973457634449005127e-01 -7.899076342582702637e-01 -7.231634855270385742e-01
1.811000000000000000e+03 4.061606979370117188e+01 1.260863494873046875e+01 3.766218423843383789e-01 1.335221171379089355e+00 5.135529041290283203e-01 3.228664398193359375e-01
1.812000000000000000e+03 4.247827529907226562e+01 1.155254077911376953e+01 2.460390031337738037e-01 1.883842706680297852e+00 6.389644742012023926e-01 -1.420466229319572449e-03
1.813000000000000000e+03 9.898580551147460938e+00 -1.807143592834472656e+01 -8.793267625151202083e-06 -3.479584484011866152e-05 -1.307673392147989944e-05 1.295009269597358070e-06
1.814000000000000000e+03 5.600159072875976562e+01 8.649951934814453125e+00 2.274186909198760986e-01 2.336692094802856445e+00 7.692332267761230469e-01 6.478861719369888306e-02
1.815000000000000000e+03 5.495557022094726562e+01 8.723478317260742188e+00 2.403133064508438110e-01 1.984927415847778320e+00 6.675722002983093262e-01 4.824656248092651367e-01
1.816000000000000000e+03 4.613530349731445312e+01 5.810069561004638672e+00 -1.828104816377162933e-02 2.198542803525924683e-01 6.047197058796882629e-02 -6.255147606134414673e-02
1.817000000000000000e+03 5.276654052734375000e+01 1.931468009948730469e+01 4.716052711009979248e-01 1.235289573669433594e+00 5.120684504508972168e-01 -8.394615650177001953e-01
1.818000000000000000e+03 1.468838787078857422e+01 -1.099492931365966797e+01 4.833586899621877819e-06 -2.915441882578306831e-06 5.754434937443875242e-07 2.113453092533745803e-06
1.819000000000000000e+03 9.499574661254882812e+00 -1.620380783081054688e+01 -4.963447281625121832e-06 1.674460872891359031e-05 3.534348252287600189e-06 4.554077167995274067e-05
1.820000000000000000e+03 9.358330726623535156e+00 -1.739618301391601562e+01 3.131378321086231153e-07 3.421507426537573338e-05 1.035846435115672648e-05 8.309742042911238968e-06
1.821000000000000000e+03 1.159785079956054688e+01 -1.995675086975097656e+01 1.133242913056164980e-04 2.061841951217502356e-05 4.018281106255017221e-05 -4.890822765446500853e-06
1.822000000000000000e+03 3.981795120239257812e+01 -1.735075378417968750e+01 -6.153705120086669922e-01 4.621086642146110535e-02 -1.707478910684585571e-01 -3.028650209307670593e-02
1.823000000000000000e+03 5.064186096191406250e+01 2.120847320556640625e+01 5.760417580604553223e-01 7.706026434898376465e-01 4.039933383464813232e-01 -3.704008162021636963e-01
1.824000000000000000e+03 6.939719390869140625e+01 -1.255658531188964844e+01 2.613674879074096680e+00 1.749436187744140625e+01 6.032411098480224609e+00 9.129972457885742188e-01
1.825000000000000000e+03 4.781010055541992188e+01 5.888184070587158203e+00 4.369527101516723633e-02 3.623726963996887207e-02 2.397976256906986237e-02 1.764830201864242554e-03
1.826000000000000000e+03 2.565126228332519531e+01 5.979679107666015625e+00 5.243437886238098145e-01 4.444885998964309692e-02 1.706377863883972168e-01 2.985218763351440430e-01
1.827000000000000000e+03 5.362823867797851562e+01 6.574383258819580078e+00 2.892059087753295898e-01 8.245669007301330566e-01 3.341318368911743164e-01 3.754188716411590576e-01
1.828000000000000000e+03 5.486896896362304688e+01 7.615513324737548828e+00 2.090376317501068115e-01 1.592141509056091309e+00 5.403537154197692871e-01 3.630984723567962646e-01
1.829000000000000000e+03 4.104495239257812500e+01 1.419617271423339844e+01 4.631183147430419922e-01 1.471857905387878418e+00 5.804928541183471680e-01 3.356629610061645508e-01
1.830000000000000000e+03 1.537066650390625000e+01 1.619437599182128906e+01 7.732554078102111816e-01 2.313363850116729736e-01 3.013775348663330078e-01 3.392118215560913086e-01
1.831000000000000000e+03 2.568942070007324219e+01 5.169464111328125000e+00 4.820902645587921143e-01 7.146534323692321777e-02 1.660666912794113159e-01 2.516653537750244141e-01
1.832000000000000000e+03 2.436005401611328125e+01 4.283854007720947266e+00 4.016129672527313232e-01 2.059502899646759033e-01 1.822689771652221680e-01 2.222213894128799438e-01
1.833000000000000000e+03 2.504109382629394531e+01 4.348268032073974609e+00 3.657635152339935303e-01 1.335046887397766113e-01 1.497804671525955200e-01 2.016970515251159668e-01
1.834000000000000000e+03 2.534722900390625000e+01 1.385814285278320312e+01 -5.677937865257263184e-01 -1.204553246498107910e+00 -5.317041277885437012e-01 5.710825324058532715e-01
1.835000000000000000e+03 1.540928840637207031e+01 -4.924248218536376953e+00 -4.670516773330746219e-06 -2.984412049045204185e-06 -2.296478669450152665e-06 -9.297423844145669136e-07
1.836000000000000000e+03 1.431446266174316406e+01 -5.185773372650146484e+00 -4.943925887346267700e-06 -3.040041519852820784e-06 -2.395190222159726545e-06 -1.937435314403046505e-07
1.837000000000000000e+03 2.651514053344726562e+01 6.611610412597656250e+00 4.576400220394134521e-01 -1.377305984497070312e-01 9.597282856702804565e-02 3.982756435871124268e-01
1.838000000000000000e+03 5.185431671142578125e+01 2.018479156494140625e+01 4.766584038734436035e-01 9.544665813446044922e-01 4.293375015258789062e-01 -5.974076390266418457e-01
1.839000000000000000e+03 1.644357299804687500e+01 1.812573051452636719e+01 4.655583500862121582e-01 2.793361246585845947e-01 2.234683334827423096e-01 3.652081191539764404e-01
1.840000000000000000e+03 2.346832656860351562e+01 1.671761131286621094e+01 -7.234249264001846313e-02 -7.460762858390808105e-01 -2.455256432294845581e-01 5.000696778297424316e-01
1.841000000000000000e+03 2.406041717529296875e+01 1.607103729248046875e+01 -2.591028213500976562e-01 -8.414117097854614258e-01 -3.301543593406677246e-01 4.979101121425628662e-01
1.842000000000000000e+03 6.458329010009765625e+01 -5.526567459106445312e+00 -1.039783596992492676e+00 1.718134880065917969e-01 -2.603910267353057861e-01 -2.440799713134765625e+00
1.843000000000000000e+03 4.961244964599609375e+01 4.672681808471679688e+00 1.273637562990188599e-01 1.096253469586372375e-01 7.109673321247100830e-02 1.580126583576202393e-01
1.844000000000000000e+03 5.048460006713867188e+01 5.148409366607666016e+00 1.804598718881607056e-01 1.352051645517349243e-01 9.469951689243316650e-02 1.856201887130737305e-01
1.845000000000000000e+03 1.343307304382324219e+01 -1.037237834930419922e+01 2.045457767962943763e-05 -7.215272944449679926e-06 3.971791556978132576e-06 -2.084166226268280298e-06
1.846000000000000000e+03 5.492502212524414062e+01 1.964984321594238281e+01 3.209698200225830078e-01 2.464721918106079102e+00 8.357074856758117676e-01 -8.661140203475952148e-01
1.847000000000000000e+03 5.325456619262695312e+01 2.010313415527343750e+01 4.061298966407775879e-01 1.628989934921264648e+00 6.105359792709350586e-01 -8.502491712570190430e-01
1.848000000000000000e+03 1.990470504760742188e+01 3.795597314834594727e+00 5.033785942941904068e-03 6.574231386184692383e-02 2.123283036053180695e-02 5.110625624656677246e-01
1.849000000000000000e+03 1.876638793945312500e+01 1.701044654846191406e+01 7.695726752281188965e-01 2.438469678163528442e-01 3.040258884429931641e-01 5.097166895866394043e-01
1.850000000000000000e+03 1.605380630493164062e+01 1.981153678894042969e+01 2.840457260608673096e-01 9.913689643144607544e-02 1.149547845125198364e-01 3.595149517059326172e-01
1.851000000000000000e+03 4.295973587036132812e+01 1.659789085388183594e+01 5.722719430923461914e-01 1.690298199653625488e+00 6.787710189819335938e-01 4.838012754917144775e-01
1.852000000000000000e+03 5.711015701293945312e+01 1.116854286193847656e+01 4.300014376640319824e-01 3.241575717926025391e+00 1.101473093032836914e+00 -3.314740061759948730e-01
1.853000000000000000e+03 1.727414321899414062e+01 -6.470591068267822266e+00 4.518711193668423221e-06 2.489865210009156726e-06 2.102573034790111706e-06 4.377589561954664532e-07
1.854000000000000000e+03 1.087105655670166016e+01 -3.018110990524291992e+00 -4.240100679453462362e-06 -2.964730128951487131e-06 -2.161449174309382215e-06 -7.090642384355305694e-07
1.855000000000000000e+03 1.070136260986328125e+01 -3.791452646255493164e+00 4.878444997302722186e-06 2.554206048444029875e-06 2.229795427410863340e-06 -3.714024501277890522e-07
1.856000000000000000e+03 9.213458061218261719e+00 -3.623273372650146484e+00 5.920689090999076143e-06 1.418026840838138014e-06 2.201614734076429158e-06 2.978907559736398980e-06
1.857000000000000000e+03 1.617761802673339844e+01 -6.490561962127685547e+00 5.221515948505839333e-06 3.421370365686016157e-06 2.592865939732291736e-06 -3.974363380621070974e-07
1.858000000000000000e+03 1.591746997833251953e+01 4.481013774871826172e+00 -6.139966845512390137e-01 -1.195373654365539551e+00 -5.428110957145690918e-01 8.336167335510253906e-01
1.859000000000000000e+03 2.293407821655273438e+01 -4.126873016357421875e+00 -1.004858613014221191e+00 -4.806021451950073242e-01 -4.456382095813751221e-01 6.630589365959167480e-01
1.860000000000000000e+03 2.186774635314941406e+01 -2.793973922729492188e+00 -1.037039875984191895e+00 -5.340769290924072266e-01 -4.713350236415863037e-01 6.752768754959106445e-01
1.861000000000000000e+03 1.573917865753173828e+01 1.679002642631530762e+00 -4.617030322551727295e-01 -9.898267984390258789e-01 -4.354589581489562988e-01 8.437966108322143555e-01
1.862000000000000000e+03 1.325881958007812500e+01 3.338071346282958984e+00 -5.043026208877563477e-01 -7.570511698722839355e-01 -3.784061372280120850e-01 5.583684444427490234e-01
1.863000000000000000e+03 1.362331676483154297e+01 -4.840707302093505859e+00 3.971847945649642497e-06 3.572738478396786377e-06 2.263376018163398840e-06 6.893911290717369411e-07
1.864000000000000000e+03 1.323025894165039062e+01 -3.788455247879028320e+00 4.176020411250647157e-06 3.268412910983897746e-06 2.233329951195628382e-06 9.841212431638268754e-07
1.865000000000000000e+03 4.899086380004882812e+01 2.079533576965332031e+01 5.370976924896240234e-01 4.305046796798706055e-01 2.902807295322418213e-01 5.374065414071083069e-02
1.866000000000000000e+03 4.967980957031250000e+01 1.955570793151855469e+01 2.886011898517608643e-01 1.814209818840026855e-01 1.410066485404968262e-01 -9.130705147981643677e-02
1.867000000000000000e+03 4.218558502197265625e+01 1.656958007812500000e+01 4.702091217041015625e-01 1.519923329353332520e+00 5.970397591590881348e-01 3.268454968929290771e-01
1.868000000000000000e+03 4.215969848632812500e+01 1.552678012847900391e+01 5.641946792602539062e-01 1.721147179603576660e+00 6.856025457382202148e-01 4.690997600555419922e-01
1.869000000000000000e+03 1.393697547912597656e+01 1.410847854614257812e+01 6.018661260604858398e-01 -2.097448110580444336e-01 1.176363825798034668e-01 5.151396393775939941e-01
1.870000000000000000e+03 1.448296928405761719e+01 1.630345344543457031e+01 7.238085865974426270e-01 -3.335763141512870789e-02 2.071352899074554443e-01 3.245730996131896973e-01
1.871000000000000000e+03 5.122275924682617188e+01 5.561561584472656250e+00 2.343308478593826294e-01 1.946582347154617310e-01 1.286967247724533081e-01 2.202051132917404175e-01
1.872000000000000000e+03 1.780855655670166016e+00 3.382143259048461914e+00 -1.912799105048179626e-02 -8.806941099464893341e-03 -8.380480110645294189e-03 -8.335590246133506298e-05
1.873000000000000000e+03 1.056431055068969727e+00 3.412184000015258789e+00 -6.691863760352134705e-03 1.644186303019523621e-02 2.924999920651316643e-03 -5.533318500965833664e-03
1.874000000000000000e+03 6.899680328369140625e+01 -6.848967075347900391e+00 3.261885419487953186e-02 1.398195743560791016e+01 4.204372882843017578e+00 -1.152823925018310547e+00
1.875000000000000000e+03 6.871298980712890625e+01 -7.266527652740478516e+00 6.379533410072326660e-01 1.505449485778808594e+01 4.707734107971191406e+00 -1.260230779647827148e+00
1.876000000000000000e+03 1.218818473815917969e+01 -9.255125045776367188e+00 -2.218388999608578160e-06 -1.397381947754183784e-05 -4.857662588619859889e-06 8.349007885044557042e-07
1.877000000000000000e+03 5.648487854003906250e+01 1.132142829895019531e+01 3.964575231075286865e-01 3.349884986877441406e+00 1.123902797698974609e+00 -2.011571526527404785e-01
1.878000000000000000e+03 5.620663070678710938e+01 1.082702827453613281e+01 3.862209618091583252e-01 3.134338378906250000e+00 1.056167840957641602e+00 -6.704361736774444580e-02
1.879000000000000000e+03 1.977075386047363281e+01 1.767766571044921875e+01 4.251489639282226562e-01 -6.507138721644878387e-03 1.255925446748733521e-01 6.252223849296569824e-01
1.880000000000000000e+03 1.895430564880371094e+01 1.776029014587402344e+01 4.950126707553863525e-01 2.016571760177612305e-01 2.090009450912475586e-01 6.274066567420959473e-01
1.881000000000000000e+03 1.969668388366699219e+00 -3.428283691406250000e+00 -6.859120276203611866e-06 -2.042932692347676493e-06 -2.670615913302754052e-06 -1.155218001258617733e-06
1.882000000000000000e+03 1.062880992889404297e+01 3.026342868804931641e+00 -4.412667751312255859e-01 -2.787121832370758057e-01 -2.159936875104904175e-01 3.188768029212951660e-01
1.883000000000000000e+03 4.707569885253906250e+01 5.137912750244140625e+00 1.555267069488763809e-02 1.420613527297973633e-01 4.728420823812484741e-02 -1.674684463068842888e-03
1.884000000000000000e+03 4.176574325561523438e+01 1.127946662902832031e+01 2.625991404056549072e-01 1.532390117645263672e+00 5.384967327117919922e-01 1.732026487588882446e-01
1.885000000000000000e+03 4.196797561645507812e+01 1.036064052581787109e+01 1.689754724502563477e-01 1.393822312355041504e+00 4.688393473625183105e-01 1.431424170732498169e-01
1.886000000000000000e+03 1.802424049377441406e+01 1.037158966064453125e+00 -5.117302536964416504e-01 -8.567032217979431152e-01 -4.105300605297088623e-01 9.216475486755371094e-01
1.887000000000000000e+03 1.669784355163574219e+01 3.316179990768432617e+00 -4.407639801502227783e-01 -1.092115640640258789e+00 -4.598639011383056641e-01 8.358672261238098145e-01
1.888000000000000000e+03 4.340703201293945312e+01 1.884635543823242188e+01 2.564683854579925537e-01 1.301357984542846680e+00 4.673479199409484863e-01 4.732581377029418945e-01
1.889000000000000000e+03 4.284357452392578125e+01 1.755585098266601562e+01 3.757319748401641846e-01 1.519738197326660156e+00 5.686410069465637207e-01 4.111714959144592285e-01
1.890000000000000000e+03 6.889722442626953125e+01 -1.411947917938232422e+01 1.458978414535522461e+00 1.595053291320800781e+01 5.222853660583496094e+00 1.795878291130065918e+00
1.891000000000000000e+03 6.984875488281250000e+01 -1.361971664428710938e+01 1.956857085227966309e+00 1.510208892822265625e+01 5.117683887481689453e+00 3.048540353775024414e-01
1.892000000000000000e+03 3.439948654174804688e+01 -1.747134590148925781e+01 -4.316094517707824707e-01 3.015584312379360199e-02 -1.204360798001289368e-01 1.100409924983978271e-01
1.893000000000000000e+03 3.767480087280273438e+01 -1.752467346191406250e+01 -5.443866252899169922e-01 2.915507927536964417e-02 -1.545694619417190552e-01 2.882798947393894196e-02
1.894000000000000000e+03 1.984852600097656250e+01 -8.296862840652465820e-01 -8.759162425994873047e-01 -6.847609877586364746e-01 -4.682031571865081787e-01 7.773764133453369141e-01
1.895000000000000000e+03 6.536995697021484375e+01 -5.765680313110351562e+00 -5.184884071350097656e-01 1.184935331344604492e+00 1.999340802431106567e-01 -3.883442878723144531e+00
1.896000000000000000e+03 6.203646850585937500e+01 -4.969435691833496094e+00 -1.418364286422729492e+00 2.989057824015617371e-02 -4.165421426296234131e-01 -8.946967720985412598e-01
1.897000000000000000e+03 1.953510856628417969e+01 2.364622354507446289e+00 -3.322398364543914795e-01 -3.626348674297332764e-01 -2.084624171257019043e-01 8.010778427124023438e-01
1.898000000000000000e+03 6.610536193847656250e+01 -5.867783069610595703e+00 -1.485168933868408203e+00 4.259084701538085938e+00 8.321747183799743652e-01 -4.889201641082763672e+00
1.899000000000000000e+03 1.107841682434082031e+01 -1.080568313598632812e+01 -2.737061186053324491e-05 -9.460633009439334273e-06 -1.104937291529495269e-05 5.073644842923386022e-06
1.900000000000000000e+03 4.502116394042968750e+01 6.175162315368652344e+00 -5.892822518944740295e-02 3.843226134777069092e-01 9.761831164360046387e-02 -8.730138838291168213e-02
1.901000000000000000e+03 6.617440795898437500e+01 -5.029779911041259766e+00 -9.405454993247985840e-01 4.504054069519042969e+00 1.069052457809448242e+00 -4.047526836395263672e+00
1.902000000000000000e+03 6.841953277587890625e+01 -6.304964065551757812e+00 -1.128965377807617188e+00 1.298307704925537109e+01 3.556233406066894531e+00 -2.544223546981811523e+00
1.903000000000000000e+03 7.038378143310546875e+01 -9.917442321777343750e+00 3.106896400451660156e+00 1.553686141967773438e+01 5.593127250671386719e+00 -4.811688363552093506e-01
1.904000000000000000e+03 6.997486877441406250e+01 -8.957180976867675781e+00 3.956517219543457031e+00 1.600450897216796875e+01 5.988307476043701172e+00 -3.950674831867218018e-01
1.905000000000000000e+03 2.446057796478271484e+00 -1.257307243347167969e+01 -5.522233550436794758e-05 -4.909953986498294398e-06 -1.803968734748195857e-05 -6.506422778329579160e-06
1.906000000000000000e+03 7.275397777557373047e+00 -1.382172966003417969e+01 -6.634442979702726007e-05 -1.745744702930096537e-05 -2.514056177460588515e-05 1.418856845702975988e-05
1.907000000000000000e+03 8.897112846374511719e+00 -1.226363182067871094e+01 -4.590560638462193310e-05 -1.435244212188990787e-05 -1.807741500670090318e-05 1.620174589334055781e-05
1.908000000000000000e+03 8.116904258728027344e+00 -1.201844596862792969e+01 3.902295065927319229e-05 2.088616929540876299e-05 1.797273762349504977e-05 -1.151465949078556150e-05
1.909000000000000000e+03 2.871442794799804688e+01 -1.390329837799072266e+01 -3.572909533977508545e-01 -1.147662550210952759e-01 -1.416171640157699585e-01 3.042420744895935059e-01
1.910000000000000000e+03 2.770369338989257812e+01 -1.176306533813476562e+01 -4.427024126052856445e-01 -1.631161570549011230e-01 -1.817455738782882690e-01 4.036199152469635010e-01
1.911000000000000000e+03 1.908886194229125977e+00 -4.092546081542968750e+01 -7.272275252034887671e-05 1.291004358790814877e-03 3.654844767879694700e-04 8.781788346823304892e-05
1.912000000000000000e+03 1.723463058471679688e+01 -7.582018375396728516e+00 5.632595275528728962e-06 1.764160401762637775e-06 2.219026782768196426e-06 2.810253647567151347e-07
1.913000000000000000e+03 2.831911659240722656e+01 -1.019517517089843750e+01 -5.668716430664062500e-01 -9.552597999572753906e-02 -1.987192779779434204e-01 4.488510787487030029e-01
1.914000000000000000e+03 1.333708763122558594e+01 -2.289423370361328125e+01 4.492484731599688530e-04 -1.168977614725008607e-04 9.970521205104887486e-05 -6.802457210142165422e-05
1.915000000000000000e+03 1.871597480773925781e+01 -9.225219726562500000e+00 -4.987261490896344185e-06 -1.187499037769157439e-06 -1.852428226811753120e-06 -3.477378413663245738e-06
1.916000000000000000e+03 4.122151565551757812e+01 -1.707643699645996094e+01 -6.701374053955078125e-01 4.918977618217468262e-02 -1.862843036651611328e-01 -6.276173889636993408e-02
1.917000000000000000e+03 3.972038650512695312e+01 -1.669523239135742188e+01 -6.408135890960693359e-01 6.856632977724075317e-02 -1.716741621494293213e-01 -6.275269668549299240e-03
1.918000000000000000e+03 1.823432731628417969e+01 -8.712351799011230469e+00 6.091079285397427157e-06 4.078519566519389628e-07 1.949679244717117399e-06 2.571574668763787486e-06
1.919000000000000000e+03 1.634490394592285156e+01 -1.101346397399902344e+01 -6.950630222490872256e-07 2.225032176284003071e-06 4.589907405261328677e-07 -4.912547524327237625e-07
1.920000000000000000e+03 2.074243354797363281e+01 -1.258042430877685547e+01 -2.839374246832448989e-06 -3.426976036280393600e-06 -1.879905084933852777e-06 -1.575072701598401181e-06
1.921000000000000000e+03 4.264967727661132812e+01 -1.669612693786621094e+01 -7.376458644866943359e-01 3.320835158228874207e-02 -2.113312482833862305e-01 -9.787973761558532715e-02
1.922000000000000000e+03 1.857913017272949219e+01 -1.192939186096191406e+01 -4.404842286476196023e-07 -3.574562470021191984e-06 -1.204513978336763103e-06 3.344783863212796859e-07
1.923000000000000000e+03 4.666184997558593750e+01 -1.458404827117919922e+01 -9.409695863723754883e-01 3.827900066971778870e-02 -2.708071768283843994e-01 -2.179304063320159912e-01
1.924000000000000000e+03 1.832115936279296875e+01 -1.266414165496826172e+01 3.633721235019038431e-07 2.570364131315727718e-06 8.801208650766056962e-07 7.616648076691490132e-07
1.925000000000000000e+03 1.592242622375488281e+01 -1.008519172668457031e+01 -3.286625769760576077e-06 1.613836161595827434e-06 -5.018368938181083649e-07 4.946396643390471581e-07
1.926000000000000000e+03 1.472793483734130859e+01 -7.137646198272705078e+00 -7.235237717395648360e-06 -4.652011682537704473e-07 -2.310131549165816978e-06 -1.959344217539182864e-06
1.927000000000000000e+03 4.173671722412109375e+01 -1.622680854797363281e+01 -7.246373295783996582e-01 6.859162449836730957e-02 -1.968137025833129883e-01 -5.032605677843093872e-02
1.928000000000000000e+03 4.409971237182617188e+01 -1.624316024780273438e+01 -8.042718172073364258e-01 4.416422452777624130e-03 -2.399566322565078735e-01 -1.376788914203643799e-01
1.929000000000000000e+03 2.741809844970703125e+01 -1.015970611572265625e+01 -5.453087091445922852e-01 -1.676844656467437744e-01 -2.138979583978652954e-01 4.675869345664978027e-01
1.930000000000000000e+03 1.984380531311035156e+01 -1.081561756134033203e+01 4.149188498558942229e-06 2.659808842508937232e-06 2.042699179582996294e-06 2.437322791593032889e-06
1.931000000000000000e+03 1.943386268615722656e+01 -1.279574680328369141e+01 -4.151181201450526714e-06 -3.296922614026698284e-06 -2.234431121905799955e-06 2.025284175033448264e-06
1.932000000000000000e+03 4.838288497924804688e+01 -1.469054698944091797e+01 -9.931524395942687988e-01 -2.981617115437984467e-02 -3.068905770778656006e-01 -3.040245771408081055e-01
1.933000000000000000e+03 2.811811065673828125e+01 1.009426116943359375e+01 -8.088817447423934937e-02 -3.183041214942932129e-01 -1.197576895356178284e-01 6.547266244888305664e-01
1.934000000000000000e+03 1.498057651519775391e+01 -1.036100387573242188e+01 -7.327173989324364811e-06 4.192610504105687141e-06 -9.403689773535006680e-07 4.236964201709270128e-08
1.935000000000000000e+03 4.968854141235351562e+01 -1.246561431884765625e+01 -1.174634337425231934e+00 5.868863314390182495e-02 -3.347837030887603760e-01 -2.908184826374053955e-01
1.936000000000000000e+03 5.111823272705078125e+01 -1.335811328887939453e+01 -1.212218046188354492e+00 -9.466510266065597534e-02 -3.920649290084838867e-01 -4.380752146244049072e-01
1.937000000000000000e+03 4.580894088745117188e+01 -3.284166717529296875e+01 -3.836543262004852295e-01 -1.819768249988555908e-01 -1.696893423795700073e-01 -3.181149363517761230e-01
1.938000000000000000e+03 5.112119293212890625e+01 -3.431514739990234375e+01 4.767295345664024353e-02 -2.414186447858810425e-01 -5.812370777130126953e-02 -3.082237839698791504e-01
1.939000000000000000e+03 1.864291763305664062e+01 -1.013741588592529297e+01 -4.854955932387383655e-06 -3.132411848127958365e-06 -2.396210220467764884e-06 -2.074083568004425615e-06
1.940000000000000000e+03 4.975695800781250000e+01 -1.405931949615478516e+01 -1.086621522903442383e+00 -5.866319313645362854e-02 -3.435854017734527588e-01 -3.765330314636230469e-01
1.941000000000000000e+03 4.248930740356445312e+01 7.184549808502197266e+00 -1.516878753900527954e-01 8.311539292335510254e-01 2.038398087024688721e-01 5.629925057291984558e-02
1.942000000000000000e+03 1.259461688995361328e+01 -5.307796001434326172e+00 1.807315015867061447e-06 4.434642960404744372e-06 1.872587404250225518e-06 1.786271468517952599e-06
1.943000000000000000e+03 3.838286972045898438e+01 -1.747894477844238281e+01 -5.690724253654479980e-01 3.265062719583511353e-02 -1.609265357255935669e-01 8.721346035599708557e-03
1.944000000000000000e+03 3.760681152343750000e+01 -1.682516670227050781e+01 -5.666227340698242188e-01 5.004565045237541199e-02 -1.549731194972991943e-01 5.374321341514587402e-02
1.945000000000000000e+03 2.580128669738769531e+01 -8.802750587463378906e+00 -6.131524443626403809e-01 -3.145999014377593994e-01 -2.783257067203521729e-01 5.434530973434448242e-01
1.946000000000000000e+03 5.649097061157226562e+01 -1.016306114196777344e+01 -2.002716302871704102e+00 -2.905310094356536865e-01 -6.879742145538330078e-01 -8.122884035110473633e-01
1.947000000000000000e+03 5.473336410522460938e+01 -1.043616008758544922e+01 -1.713168740272521973e+00 -8.514819294214248657e-02 -5.394950509071350098e-01 -5.962449908256530762e-01
1.948000000000000000e+03 2.965082740783691406e+01 -1.162491035461425781e+01 -5.206391215324401855e-01 -3.931680694222450256e-02 -1.679867655038833618e-01 3.827818334102630615e-01
1.949000000000000000e+03 2.867741775512695312e+01 -1.173530483245849609e+01 -4.822919666767120361e-01 -9.788005799055099487e-02 -1.740516126155853271e-01 3.952223062515258789e-01
1.950000000000000000e+03 4.596432495117187500e+01 -1.483902835845947266e+01 -9.072596430778503418e-01 3.266984224319458008e-02 -2.623769342899322510e-01 -1.898909509181976318e-01
1.951000000000000000e+03 2.563853645324707031e+01 -7.141429424285888672e+00 -7.571550607681274414e-01 -2.706837058067321777e-01 -3.083516359329223633e-01 5.669810175895690918e-01
1.952000000000000000e+03 4.314150238037109375e+01 -1.582030296325683594e+01 -7.854596376419067383e-01 5.124030634760856628e-02 -2.202658057212829590e-01 -8.550427854061126709e-02
1.953000000000000000e+03 6.502478027343750000e+01 -2.186931610107421875e+01 -1.382749676704406738e-01 4.825830936431884766e+00 1.406266808509826660e+00 1.405852198600769043e+00
1.954000000000000000e+03 5.664340591430664062e+01 1.249501132965087891e+01 4.046171307563781738e-01 3.677644491195678711e+00 1.224678516387939453e+00 -4.425458610057830811e-01
1.955000000000000000e+03 5.750979232788085938e+01 1.370860767364501953e+01 6.990178227424621582e-01 3.525730848312377930e+00 1.267424583435058594e+00 -6.847132444381713867e-01
1.956000000000000000e+03 5.316094207763671875e+01 -1.221280479431152344e+01 -1.409274458885192871e+00 -1.682220548391342163e-01 -4.732489585876464844e-01 -5.799275040626525879e-01
1.957000000000000000e+03 2.066539573669433594e+01 -2.948425674438476562e+01 3.813947318121790886e-03 -3.192398580722510815e-04 1.048412173986434937e-03 9.499090811004862189e-05
1.958000000000000000e+03 2.121395301818847656e+01 -3.004787826538085938e+01 3.712724661454558372e-03 -6.759586394764482975e-04 9.110298124141991138e-04 4.116847121622413397e-04
1.959000000000000000e+03 5.480718231201171875e+01 -3.077587127685546875e+01 -4.648832380771636963e-01 -5.850093904882669449e-03 -1.412200033664703369e-01 -2.620075643062591553e-01
1.960000000000000000e+03 6.045957183837890625e+01 -6.781115531921386719e+00 -2.679859876632690430e+00 -1.849731057882308960e-01 -8.594498634338378906e-01 -7.491661310195922852e-01
1.961000000000000000e+03 1.237379550933837891e+01 3.549614667892456055e+00 -5.181217789649963379e-01 -5.930744409561157227e-01 -3.333588838577270508e-01 4.786454737186431885e-01
1.962000000000000000e+03 1.516010475158691406e+01 5.657342910766601562e+00 -7.519223093986511230e-01 -1.396828770637512207e+00 -6.446253061294555664e-01 8.436112999916076660e-01
1.963000000000000000e+03 9.760532379150390625e+00 3.765606880187988281e+00 -4.365159571170806885e-01 -2.318298667669296265e-01 -2.005037516355514526e-01 3.010271787643432617e-01
1.964000000000000000e+03 6.524677753448486328e+00 3.965745925903320312e+00 -2.388218492269515991e-01 -8.567772060632705688e-02 -9.734987467527389526e-02 1.596151590347290039e-01
1.965000000000000000e+03 1.547567939758300781e+01 5.073998928070068359e+00 -7.058513164520263672e-01 -1.287522077560424805e+00 -5.980120301246643066e-01 8.263594508171081543e-01
1.966000000000000000e+03 4.871273803710937500e+01 -1.373658275604248047e+01 -1.063960909843444824e+00 1.390095427632331848e-02 -3.150179684162139893e-01 -2.914612591266632080e-01
1.967000000000000000e+03 4.735310363769531250e+01 -1.431748008728027344e+01 -9.812008738517761230e-01 3.053376637399196625e-02 -2.852001488208770752e-01 -2.389564216136932373e-01
1.968000000000000000e+03 2.632654953002929688e+01 -8.412809371948242188e+00 -6.617653369903564453e-01 -2.360197156667709351e-01 -2.693355083465576172e-01 5.338715314865112305e-01
1.969000000000000000e+03 2.661293029785156250e+01 7.328618049621582031e+00 4.043523073196411133e-01 -2.177851945161819458e-01 5.597013235092163086e-02 4.661936163902282715e-01
1.970000000000000000e+03 2.101022720336914062e+01 -1.329339408874511719e+01 1.847710791480494663e-06 4.012474164483137429e-06 1.758055532263824716e-06 7.181959915669722250e-08
1.971000000000000000e+03 1.300695991516113281e+01 6.554039001464843750e+00 -7.519983053207397461e-01 -9.225367307662963867e-01 -5.023605227470397949e-01 5.805030465126037598e-01
1.972000000000000000e+03 2.704223632812500000e+01 -9.597926139831542969e+00 -5.822792649269104004e-01 -1.906448304653167725e-01 -2.318772226572036743e-01 4.905311167240142822e-01
1.973000000000000000e+03 1.440811538696289062e+01 1.324109363555908203e+01 3.764478564262390137e-01 -8.906415104866027832e-02 8.621510863304138184e-02 4.435779750347137451e-01
1.974000000000000000e+03 1.352836704254150391e+01 1.260344886779785156e+01 2.673372626304626465e-01 -4.699548482894897461e-01 -6.078526750206947327e-02 5.507460236549377441e-01
1.975000000000000000e+03 2.601967811584472656e+01 8.221181869506835938e+00 2.162140607833862305e-01 -1.832242757081985474e-01 9.896934963762760162e-03 4.281349480152130127e-01
1.976000000000000000e+03 2.503164529800415039e+00 3.422896623611450195e+00 -3.929803520441055298e-02 -2.885193936526775360e-02 -2.044499292969703674e-02 1.341727375984191895e-02
1.977000000000000000e+03 6.564212322235107422e+00 4.634152889251708984e+00 -2.642996311187744141e-01 -1.182177513837814331e-01 -1.147552207112312317e-01 2.067597061395645142e-01
1.978000000000000000e+03 4.140376567840576172e+00 5.144288539886474609e+00 -1.253525614738464355e-01 -1.046081185340881348e-01 -6.898820400238037109e-02 1.311300396919250488e-01
1.979000000000000000e+03 3.244207382202148438e+00 3.490357398986816406e+00 -6.298499554395675659e-02 -3.889477252960205078e-02 -3.056393191218376160e-02 3.106593899428844452e-02
1.980000000000000000e+03 7.323400974273681641e+00 3.899028539657592773e+00 -2.884706556797027588e-01 -1.042875424027442932e-01 -1.178274601697921753e-01 1.904202103614807129e-01
1.981000000000000000e+03 7.327379226684570312e+00 3.231492280960083008e+00 -2.522937357425689697e-01 -7.242104411125183105e-02 -9.741443395614624023e-02 1.453440189361572266e-01
1.982000000000000000e+03 8.934907913208007812e+00 3.806382417678833008e+00 -3.912803530693054199e-01 -1.728985607624053955e-01 -1.692536771297454834e-01 2.590025365352630615e-01
1.983000000000000000e+03 2.610782241821289062e+01 1.375868701934814453e+01 -5.395113229751586914e-01 -9.429125189781188965e-01 -4.447271525859832764e-01 4.186354875564575195e-01
1.984000000000000000e+03 6.282610702514648438e+01 -2.328054237365722656e+01 -1.429354697465896606e-01 2.521359682083129883e+00 7.135272622108459473e-01 8.631876707077026367e-01
1.985000000000000000e+03 6.397821426391601562e+01 -2.320311164855957031e+01 -2.648763656616210938e-01 3.703513383865356445e+00 1.031591057777404785e+00 1.073975324630737305e+00
1.986000000000000000e+03 5.274991226196289062e+01 -1.162287998199462891e+01 -1.432614564895629883e+00 -7.214419543743133545e-02 -4.514276385307312012e-01 -4.789189398288726807e-01
1.987000000000000000e+03 2.486651420593261719e+01 -5.798137187957763672e+00 -8.553834557533264160e-01 -3.012890517711639404e-01 -3.470017313957214355e-01 5.855574607849121094e-01
1.988000000000000000e+03 2.526832389831542969e+01 -6.476066112518310547e+00 -8.024896383285522461e-01 -2.827756702899932861e-01 -3.255795836448669434e-01 5.773732662200927734e-01
1.989000000000000000e+03 5.732700729370117188e+01 1.178037643432617188e+01 4.684771597385406494e-01 3.415920257568359375e+00 1.165319204330444336e+00 -4.653266370296478271e-01
1.990000000000000000e+03 5.734158706665039062e+01 1.244661235809326172e+01 5.337207317352294922e-01 3.425343990325927734e+00 1.187719345092773438e+00 -5.168957710266113281e-01
1.991000000000000000e+03 1.224305343627929688e+01 -2.170349502563476562e+01 2.419615775579586625e-04 -7.424428622471168637e-05 5.031518594478257000e-05 -4.296612678444944322e-05
1.992000000000000000e+03 3.839617919921875000e+01 -1.528805732727050781e+01 -6.464344263076782227e-01 1.030589118599891663e-01 -1.630126535892486572e-01 7.712985575199127197e-02
1.993000000000000000e+03 3.639478683471679688e+01 -1.738426589965820312e+01 -5.127739906311035156e-01 3.648669645190238953e-02 -1.428861916065216064e-01 6.815286725759506226e-02
1.994000000000000000e+03 4.292129898071289062e+01 -1.517034721374511719e+01 -7.976700663566589355e-01 8.384311944246292114e-02 -2.141480892896652222e-01 -6.003309413790702820e-02
1.995000000000000000e+03 6.242189407348632812e+01 -5.887771129608154297e+00 -2.319789171218872070e+00 -4.088256657123565674e-01 -8.185844421386718750e-01 -1.061375379562377930e+00
1.996000000000000000e+03 6.140643310546875000e+01 -5.938268184661865234e+00 -2.313453912734985352e+00 -2.123150527477264404e-01 -7.577306628227233887e-01 -7.947016358375549316e-01
1.997000000000000000e+03 7.068643951416015625e+01 -1.082543468475341797e+01 3.201112270355224609e+00 1.473863315582275391e+01 5.381923675537109375e+00 -3.698628544807434082e-01
1.998000000000000000e+03 7.105830383300781250e+01 -1.035078048706054688e+01 3.112923383712768555e+00 1.357926559448242188e+01 5.007657051086425781e+00 -5.450549535453319550e-03
1.999000000000000000e+03 3.471075820922851562e+01 -3.481891250610351562e+01 -1.926793903112411499e-02 -1.642076671123504639e-02 -1.070661190897226334e-02 -3.072972968220710754e-02
2.000000000000000000e+03 2.980347061157226562e+01 -1.370820999145507812e+01 -4.167362749576568604e-01 -6.368602067232131958e-02 -1.441266834735870361e-01 3.032242059707641602e-01
2.001000000000000000e+03 5.715842056274414062e+01 -9.738605499267578125e+00 -2.137364625930786133e+00 -3.115499019622802734e-01 -7.346743345260620117e-01 -8.834614157676696777e-01
2.002000000000000000e+03 5.539706802368164062e+01 -1.002473068237304688e+01 -1.841584205627441406e+00 -1.097577586770057678e-01 -5.854026079177856445e-01 -6.162195205688476562e-01
2.003000000000000000e+03 3.255210494995117188e+01 -3.493348693847656250e+01 -9.018234908580780029e-03 -9.411121718585491180e-03 -5.528807174414396286e-03 -1.549831125885248184e-02
2.004000000000000000e+03 5.844335174560546875e+01 -2.753079414367675781e+01 -6.845761537551879883e-01 4.215615391731262207e-01 -7.890438288450241089e-02 -2.519326284527778625e-02
2.005000000000000000e+03 5.694836425781250000e+01 -2.866141319274902344e+01 -7.064800858497619629e-01 1.228678971529006958e-01 -1.750836670398712158e-01 -1.821321547031402588e-01
2.006000000000000000e+03 9.128376007080078125e+00 -1.552730464935302734e+01 -4.317293132771737874e-05 -2.664204475877340883e-05 -2.094449337164405733e-05 -2.743080767686478794e-05
2.007000000000000000e+03 8.795848846435546875e+00 -1.493485355377197266e+01 4.623505810741335154e-05 2.534889063099399209e-05 2.147518534911796451e-05 4.260327477823011577e-05
2.008000000000000000e+03 6.553041076660156250e+01 -2.119365692138671875e+01 -9.342563152313232422e-02 5.479065895080566406e+00 1.615692138671875000e+00 1.583850026130676270e+00
2.009000000000000000e+03 5.978252792358398438e+01 -8.092415809631347656e+00 -2.806754350662231445e+00 -4.005067944526672363e-01 -9.621783494949340820e-01 -1.096977353096008301e+00
2.010000000000000000e+03 4.938413619995117188e+01 -1.342273712158203125e+01 -1.109240293502807617e+00 1.028517819941043854e-02 -3.296865224838256836e-01 -3.242669999599456787e-01
2.011000000000000000e+03 1.609661293029785156e+01 -2.461593055725097656e+01 8.922718698158860207e-04 -4.031237767776474357e-05 2.555878600105643272e-04 -3.168219991493970156e-04
2.012000000000000000e+03 1.613997077941894531e+01 -2.574496269226074219e+01 1.212756847962737083e-03 -2.449550374876707792e-04 2.903405402321368456e-04 -2.446150465402752161e-04
2.013000000000000000e+03 6.040456008911132812e+01 -7.689430236816406250e+00 -3.031037807464599609e+00 -4.059870541095733643e-01 -1.031107425689697266e+00 -1.099936366081237793e+00
2.014000000000000000e+03 6.808660507202148438e+00 -3.432515144348144531e+00 -5.660677288688020781e-06 -1.597497657712665386e-06 -2.177452415708103217e-06 -1.349431641983755981e-07
2.015000000000000000e+03 7.522579669952392578e+00 -4.255306720733642578e+00 -7.813613592588808388e-06 -1.816820031308452599e-06 -2.889130200856016017e-06 -2.572287485236302018e-07
2.016000000000000000e+03 7.701790618896484375e+01 3.566993713378906250e+01 -2.111469162628054619e-03 6.349497795104980469e+00 1.904215931892395020e+00 -5.572674795985221863e-02
2.017000000000000000e+03 7.754771423339843750e+01 3.761807632446289062e+01 1.561369188129901886e-02 6.399772644042968750e+00 1.924615859985351562e+00 -3.197212517261505127e-02
2.018000000000000000e+03 7.791413879394531250e+01 3.585924530029296875e+01 -1.796509954147040844e-03 6.482390880584716797e+00 1.944178342819213867e+00 -4.349463060498237610e-02
2.019000000000000000e+03 7.804671478271484375e+01 3.200430297851562500e+01 4.859366454184055328e-03 6.586831092834472656e+00 1.977507114410400391e+00 -5.806232243776321411e-02
2.020000000000000000e+03 7.701189422607421875e+01 2.895156097412109375e+01 1.373620051890611649e-02 6.539361000061035156e+00 1.965929150581359863e+00 -1.123961657285690308e-01
2.021000000000000000e+03 7.695281219482421875e+01 2.807926559448242188e+01 1.646330766379833221e-02 6.557058334350585938e+00 1.972056508064270020e+00 -1.191115975379943848e-01
2.022000000000000000e+03 7.812049865722656250e+01 2.133794403076171875e+01 9.083578363060951233e-03 7.085958003997802734e+00 2.128512620925903320e+00 -1.271083056926727295e-01
2.023000000000000000e+03 7.816389465332031250e+01 1.495181465148925781e+01 7.014588452875614166e-03 7.606063365936279297e+00 2.283923387527465820e+00 -1.786899119615554810e-01
2.024000000000000000e+03 7.744876098632812500e+01 1.337465286254882812e+01 5.146135110408067703e-03 7.590845584869384766e+00 2.278797626495361328e+00 -2.551635205745697021e-01
2.025000000000000000e+03 7.714703369140625000e+01 -3.699098205566406250e+01 -9.136724285781383514e-03 9.603113174438476562e+00 2.878192901611328125e+00 2.452442422509193420e-02
2.026000000000000000e+03 7.818046569824218750e+01 -2.109606170654296875e+01 -7.845918089151382446e-02 8.281943321228027344e+00 2.461045265197753906e+00 -7.912238240242004395e-01
2.027000000000000000e+03 7.809755706787109375e+01 -2.511381721496582031e+01 -8.471658080816268921e-02 9.288131713867187500e+00 2.761024713516235352e+00 -4.761977195739746094e-01
2.028000000000000000e+03 7.821070861816406250e+01 -1.870633316040039062e+01 -2.263453230261802673e-02 7.436132431030273438e+00 2.224049329757690430e+00 -9.098845124244689941e-01
2.029000000000000000e+03 7.745713043212890625e+01 -9.818161010742187500e+00 4.291482865810394287e-01 6.296103000640869141e+00 2.017575502395629883e+00 3.931162357330322266e-01
2.030000000000000000e+03 7.724143218994140625e+01 -2.820546340942382812e+01 -1.204746887087821960e-01 9.458233833312988281e+00 2.801327943801879883e+00 -3.236580193042755127e-01
2.031000000000000000e+03 7.752438354492187500e+01 -1.126704812049865723e+00 -2.112769335508346558e-01 8.064541816711425781e+00 2.355979442596435547e+00 6.827979087829589844e-01
2.032000000000000000e+03 7.820175933837890625e+01 7.731165409088134766e+00 -2.696727029979228973e-02 8.291977882385253906e+00 2.479503393173217773e+00 -1.353349983692169189e-01
2.033000000000000000e+03 7.749412536621093750e+01 6.145533561706542969e+00 -7.630813866853713989e-02 8.213987350463867188e+00 2.441303730010986328e+00 -1.179650053381919861e-01
2.034000000000000000e+03 7.823967742919921875e+01 -4.294657230377197266e+00 -4.937649145722389221e-02 7.088394165039062500e+00 2.111705303192138672e+00 8.552808761596679688e-01
2.035000000000000000e+03 7.802150726318359375e+01 -2.987594032287597656e+01 -4.825410246849060059e-02 9.822401046752929688e+00 2.932244062423706055e+00 -1.757322400808334351e-01
2.036000000000000000e+03 7.842253112792968750e+01 3.698543548583984375e+01 3.727825125679373741e-03 6.532707691192626953e+00 1.960930705070495605e+00 -3.116243332624435425e-02
2.037000000000000000e+03 7.665457153320312500e+01 3.658543014526367188e+01 5.538953468203544617e-03 6.316745281219482422e+00 1.896685242652893066e+00 -5.942153558135032654e-02
2.038000000000000000e+03 7.820309448242187500e+01 -1.226946544647216797e+01 2.320407927036285400e-01 5.518455982208251953e+00 1.725148916244506836e+00 -2.820931673049926758e-01
2.039000000000000000e+03 7.750708770751953125e+01 -1.388118171691894531e+01 3.060536682605743408e-01 6.502339839935302734e+00 2.042518138885498047e+00 -7.611234188079833984e-01
2.040000000000000000e+03 7.820463562011718750e+01 -1.145486640930175781e+01 2.532097697257995605e-01 5.452125072479248047e+00 1.711600422859191895e+00 -8.665385097265243530e-02
2.041000000000000000e+03 7.748994445800781250e+01 -1.222657585144042969e+01 3.967523872852325439e-01 6.267077445983886719e+00 1.999148964881896973e+00 -3.297560214996337891e-01
2.042000000000000000e+03 7.819244384765625000e+01 -9.053645133972167969e+00 2.113062590360641479e-01 5.649230957031250000e+00 1.758161067962646484e+00 4.893018305301666260e-01
2.043000000000000000e+03 7.745321655273437500e+01 -9.001816749572753906e+00 3.963887095451354980e-01 6.393846035003662109e+00 2.037070274353027344e+00 6.376881599426269531e-01
2.044000000000000000e+03 7.824784851074218750e+01 -5.087335109710693359e+00 -1.309716142714023590e-02 6.804994583129882812e+00 2.037569284439086914e+00 8.831049203872680664e-01
2.045000000000000000e+03 7.757128143310546875e+01 -6.623847961425781250e+00 1.275836974382400513e-01 6.816255569458007812e+00 2.083151817321777344e+00 1.036504864692687988e+00
2.046000000000000000e+03 7.822803497314453125e+01 -2.713099241256713867e+00 -9.856966137886047363e-02 7.588196754455566406e+00 2.246888160705566406e+00 7.347464561462402344e-01
2.047000000000000000e+03 7.753558349609375000e+01 -7.400846958160400391e+00 2.208880633115768433e-01 6.652307510375976562e+00 2.061958789825439453e+00 9.659081697463989258e-01
2.048000000000000000e+03 7.753825378417968750e+01 -3.508170843124389648e+00 -1.353780776262283325e-01 7.627241611480712891e+00 2.247559070587158203e+00 9.944334626197814941e-01
2.049000000000000000e+03 7.820479583740234375e+01 -1.950231742858886719e+01 -4.990496113896369934e-02 7.733263969421386719e+00 2.305007696151733398e+00 -8.836399912834167480e-01
2.050000000000000000e+03 7.745255279541015625e+01 -2.104565238952636719e+01 -1.294273138046264648e-01 8.389580726623535156e+00 2.478046178817749023e+00 -9.935723543167114258e-01
2.051000000000000000e+03 7.752420043945312500e+01 -1.931686878204345703e+00 -1.994525194168090820e-01 7.945487022399902344e+00 2.323810338973999023e+00 7.975536584854125977e-01
2.052000000000000000e+03 7.821179199218750000e+01 2.100435733795166016e+00 -9.799806773662567139e-02 8.413466453552246094e+00 2.494640588760375977e+00 2.006368935108184814e-01
2.053000000000000000e+03 7.751109313964843750e+01 4.854146242141723633e-01 -2.024572193622589111e-01 8.234809875488281250e+00 2.409705877304077148e+00 4.388041496276855469e-01
2.054000000000000000e+03 7.752891540527343750e+01 -2.725794553756713867e+00 -1.796836853027343750e-01 7.792845726013183594e+00 2.283948659896850586e+00 9.092107415199279785e-01
2.055000000000000000e+03 7.749245452880859375e+01 -1.946872711181640625e+01 -8.040222525596618652e-02 7.976778507232666016e+00 2.368912935256958008e+00 -1.109160423278808594e+00
2.056000000000000000e+03 7.607534790039062500e+01 -1.944402122497558594e+01 -1.747139692306518555e-01 8.502330780029296875e+00 2.498284816741943359e+00 -1.384811520576477051e+00
2.057000000000000000e+03 7.750043487548828125e+01 -1.709519767761230469e+01 5.526392534375190735e-02 7.309202194213867188e+00 2.209339857101440430e+00 -1.155810594558715820e+00
2.058000000000000000e+03 7.821173095703125000e+01 2.907162666320800781e+00 -8.305615186691284180e-02 8.448858261108398438e+00 2.509740591049194336e+00 1.241242215037345886e-01
2.059000000000000000e+03 7.749816894531250000e+01 1.292572259902954102e+00 -1.899881213903427124e-01 8.287702560424804688e+00 2.429314374923706055e+00 3.307062685489654541e-01
2.060000000000000000e+03 7.750312805175781250e+01 3.717040538787841797e+00 -1.335302144289016724e-01 8.315421104431152344e+00 2.454567193984985352e+00 5.231162533164024353e-02
2.061000000000000000e+03 7.752214050292968750e+01 -3.199979364871978760e-01 -2.146651595830917358e-01 8.169923782348632812e+00 2.386577606201171875e+00 5.580760240554809570e-01
2.062000000000000000e+03 7.749759674072265625e+01 5.335549354553222656e+00 -9.160208702087402344e-02 8.257382392883300781e+00 2.449733972549438477e+00 -7.515992969274520874e-02
2.063000000000000000e+03 7.821379852294921875e+01 -1.631085968017578125e+01 6.001796200871467590e-02 6.547057628631591797e+00 1.982122778892517090e+00 -8.793960809707641602e-01
2.064000000000000000e+03 7.749736785888671875e+01 -1.548386573791503906e+01 1.747775524854660034e-01 6.867564678192138672e+00 2.112702608108520508e+00 -1.021915435791015625e+00
2.065000000000000000e+03 7.750170898437500000e+01 4.524854183197021484e+00 -1.141166910529136658e-01 8.295377731323242188e+00 2.454378366470336914e+00 -1.282759662717580795e-02
2.066000000000000000e+03 7.819152069091796875e+01 1.014039230346679688e+01 -1.002763304859399796e-02 8.079311370849609375e+00 2.420785188674926758e+00 -1.769071668386459351e-01
2.067000000000000000e+03 7.749128723144531250e+01 6.951146125793457031e+00 -6.179728731513023376e-02 8.160127639770507812e+00 2.429499149322509766e+00 -1.607900410890579224e-01
2.068000000000000000e+03 7.746643829345703125e+01 1.096627235412597656e+01 -9.544673375785350800e-03 7.816991806030273438e+00 2.342234134674072266e+00 -2.513717114925384521e-01
2.069000000000000000e+03 7.815094757080078125e+01 1.655314445495605469e+01 8.944062516093254089e-03 7.458745479583740234e+00 2.240306854248046875e+00 -1.680128723382949829e-01
2.070000000000000000e+03 7.743415069580078125e+01 1.497267913818359375e+01 1.061129849404096603e-02 7.445858955383300781e+00 2.236941099166870117e+00 -2.450090348720550537e-01
2.071000000000000000e+03 7.807316589355468750e+01 2.293921279907226562e+01 9.424667805433273315e-03 6.976271629333496094e+00 2.095708847045898438e+00 -1.169160827994346619e-01
2.072000000000000000e+03 7.738239288330078125e+01 2.132785034179687500e+01 1.433406025171279907e-02 6.961881637573242188e+00 2.092864751815795898e+00 -1.749969422817230225e-01
2.073000000000000000e+03 7.818287658691406250e+01 1.174515342712402344e+01 -1.752629526890814304e-03 7.921301364898681641e+00 2.375864744186401367e+00 -1.865647733211517334e-01
2.074000000000000000e+03 7.745492553710937500e+01 1.257219505310058594e+01 2.444292185828089714e-03 7.666557788848876953e+00 2.300700664520263672e+00 -2.557335197925567627e-01
2.075000000000000000e+03 7.739477539062500000e+01 1.817332077026367188e+01 1.606973074376583099e-02 7.179200172424316406e+00 2.158581018447875977e+00 -2.118323445320129395e-01
2.076000000000000000e+03 7.742542266845703125e+01 1.577199935913085938e+01 1.437666546553373337e-02 7.375881195068359375e+00 2.217077493667602539e+00 -2.372971624135971069e-01
2.077000000000000000e+03 7.740425872802734375e+01 1.737520408630371094e+01 1.691246964037418365e-02 7.242263317108154297e+00 2.177752733230590820e+00 -2.211225032806396484e-01
2.078000000000000000e+03 7.746052551269531250e+01 1.176915264129638672e+01 -3.976558335125446320e-03 7.741034984588623047e+00 2.321117401123046875e+00 -2.569674849510192871e-01
2.079000000000000000e+03 7.725463104248046875e+01 -2.979807090759277344e+01 -9.545467048883438110e-02 9.538067817687988281e+00 2.832784175872802734e+00 -2.169816941022872925e-01
2.080000000000000000e+03 7.802961730957031250e+01 2.375182914733886719e+01 7.674722466617822647e-03 6.922165393829345703e+00 2.078952074050903320e+00 -1.111701503396034241e-01
2.081000000000000000e+03 7.791439056396484375e+01 2.541224861145019531e+01 8.560266345739364624e-03 6.820077419281005859e+00 2.048591375350952148e+00 -1.034441441297531128e-01
2.082000000000000000e+03 7.606808471679687500e+01 2.531743240356445312e+01 2.880589105188846588e-02 6.529636859893798828e+00 1.967532873153686523e+00 -1.916178464889526367e-01
2.083000000000000000e+03 7.738634490966796875e+01 1.976178169250488281e+01 1.635647006332874298e-02 7.064401626586914062e+00 2.124227523803710938e+00 -1.932239085435867310e-01
2.084000000000000000e+03 7.738931274414062500e+01 1.896752166748046875e+01 1.744661666452884674e-02 7.121792793273925781e+00 2.141771793365478516e+00 -2.025113850831985474e-01
2.085000000000000000e+03 7.701308441162109375e+01 2.540418624877929688e+01 1.750760152935981750e-02 6.679476261138916016e+00 2.009095191955566406e+00 -1.457279473543167114e-01
2.086000000000000000e+03 7.724626922607421875e+01 -2.741384124755859375e+01 -1.360876560211181641e-01 9.392274856567382812e+00 2.776856184005737305e+00 -3.910216093063354492e-01
2.087000000000000000e+03 7.810940551757812500e+01 -2.431614112854003906e+01 -9.148961305618286133e-02 9.134047508239746094e+00 2.712767362594604492e+00 -5.418770909309387207e-01
2.088000000000000000e+03 7.725711822509765625e+01 -2.662485504150390625e+01 -1.470616310834884644e-01 9.324636459350585938e+00 2.753272294998168945e+00 -4.625111520290374756e-01
2.089000000000000000e+03 7.727567291259765625e+01 -2.584206390380859375e+01 -1.516191363334655762e-01 9.237732887268066406e+00 2.725834131240844727e+00 -5.318363904953002930e-01
2.090000000000000000e+03 7.642131042480468750e+01 -2.576824951171875000e+01 -2.384280115365982056e-01 9.083406448364257812e+00 2.653493642807006836e+00 -6.182109713554382324e-01
2.091000000000000000e+03 7.692183685302734375e+01 2.719137954711914062e+01 1.580395735800266266e-02 6.588903903961181641e+00 1.981412410736083984e+00 -1.339786499738693237e-01
2.092000000000000000e+03 7.738948822021484375e+01 -2.264525794982910156e+01 -1.520791202783584595e-01 8.745511054992675781e+00 2.578029632568359375e+00 -8.466606736183166504e-01
2.093000000000000000e+03 7.784997558593750000e+01 -3.307671356201171875e+01 -2.817854471504688263e-02 9.880686759948730469e+00 2.955752611160278320e+00 -7.355948537588119507e-02
2.094000000000000000e+03 7.605284118652343750e+01 -3.472706222534179688e+01 -6.307380646467208862e-02 9.101664543151855469e+00 2.711577177047729492e+00 -3.753669559955596924e-02
2.095000000000000000e+03 7.693078613281250000e+01 2.629394149780273438e+01 1.805490627884864807e-02 6.632160663604736328e+00 1.995064735412597656e+00 -1.395868062973022461e-01
2.096000000000000000e+03 7.786869049072265625e+01 -3.228780364990234375e+01 -3.608271479606628418e-02 9.872220993041992188e+00 2.950841426849365234e+00 -7.954053580760955811e-02
2.097000000000000000e+03 7.600756835937500000e+01 -3.390932083129882812e+01 -8.139178901910781860e-02 9.111804008483886719e+00 2.709123611450195312e+00 -4.833751171827316284e-02
2.098000000000000000e+03 7.791975402832031250e+01 -3.149701309204101562e+01 -3.946167975664138794e-02 9.872656822204589844e+00 2.949958562850952148e+00 -1.105200126767158508e-01
2.099000000000000000e+03 7.618630218505859375e+01 -3.120991516113281250e+01 -1.285188496112823486e-01 9.188117027282714844e+00 2.717879533767700195e+00 -1.602202504873275757e-01
2.100000000000000000e+03 7.691394805908203125e+01 -3.219813919067382812e+01 -6.237039715051651001e-02 9.497513771057128906e+00 2.830543041229248047e+00 -1.085836440324783325e-01
2.101000000000000000e+03 7.722172546386718750e+01 3.214285659790039062e+01 1.071634516119956970e-02 6.467641830444335938e+00 1.943507432937622070e+00 -7.988519221544265747e-02
2.102000000000000000e+03 7.723589324951171875e+01 3.293444061279296875e+01 1.309955213218927383e-02 6.453763961791992188e+00 1.940058946609497070e+00 -7.078916579484939575e-02
2.103000000000000000e+03 7.732348632812500000e+01 3.367525482177734375e+01 8.830958046019077301e-03 6.452455520629882812e+00 1.938385963439941406e+00 -6.581591814756393433e-02
2.104000000000000000e+03 1.559878444671630859e+01 -2.515775871276855469e+01 1.041139708831906319e-03 -1.408358803018927574e-04 2.700911718420684338e-04 -7.911616557976230979e-05
2.105000000000000000e+03 7.745485687255859375e+01 -3.844737243652343750e+01 1.668460667133331299e-02 9.693249702453613281e+00 2.912980318069458008e+00 1.392189599573612213e-02
2.106000000000000000e+03 7.670000457763671875e+01 -3.773948669433593750e+01 1.668676547706127167e-02 9.468066215515136719e+00 2.845426082611083984e+00 2.813092432916164398e-02
2.107000000000000000e+03 7.747580718994140625e+01 3.968322372436523438e+01 1.703549362719058990e-02 6.347677230834960938e+00 1.909413814544677734e+00 -2.946261502802371979e-02
2.108000000000000000e+03 7.515876770019531250e+01 3.772411727905273438e+01 2.415577694773674011e-02 6.103762149810791016e+00 1.838375329971313477e+00 -5.854515358805656433e-02
2.109000000000000000e+03 1.187631130218505859e+01 -5.044615745544433594e+00 -7.795935744070447981e-06 -3.603468030632939190e-06 -3.419821041461545974e-06 -2.543543814681470394e-06
2.110000000000000000e+03 5.929735565185546875e+01 -7.566765308380126953e+00 -2.586439371109008789e+00 -1.910948753356933594e-01 -8.332602977752685547e-01 -7.726123929023742676e-01
2.111000000000000000e+03 1.875833630561828613e+00 2.641522598266601562e+01 5.031589418649673462e-03 -1.331513285636901855e+00 -3.979445099830627441e-01 3.054983541369438171e-02
2.112000000000000000e+03 2.186079502105712891e+00 3.548167419433593750e+01 5.813734605908393860e-03 -1.407541990280151367e+00 -4.205184876918792725e-01 1.751105114817619324e-02
2.113000000000000000e+03 4.019324302673339844e+00 3.641923141479492188e+01 1.175789721310138702e-02 -1.251939058303833008e+00 -3.720543682575225830e-01 3.106800839304924011e-02
2.114000000000000000e+03 1.930616021156311035e+00 2.878543472290039062e+01 1.703159185126423836e-03 -1.363134145736694336e+00 -4.084292948246002197e-01 2.274989336729049683e-02
2.115000000000000000e+03 3.525512933731079102e+00 -4.140406608581542969e+00 6.630316420341841877e-06 3.498510750432615168e-06 3.038648173969704658e-06 -4.273974525403900770e-07
2.116000000000000000e+03 2.499592781066894531e+00 -1.499352169036865234e+01 6.520974420709535480e-05 6.115125415817601606e-06 2.139745993190445006e-05 -9.790298463485669345e-06
2.117000000000000000e+03 3.906816720962524414e+00 -3.700133895874023438e+01 -9.323426638729870319e-06 9.594287257641553879e-04 2.850315941032022238e-04 2.618239086586982012e-04
2.118000000000000000e+03 2.478099584579467773e+00 -2.135370063781738281e+01 1.081327063729986548e-04 2.018694794969633222e-05 3.849589484161697328e-05 -1.131818680732976645e-05
2.119000000000000000e+03 2.558398962020874023e+00 -2.857917022705078125e+01 -7.243069558171555400e-05 3.023509052582085133e-04 6.897606363054364920e-05 2.573274541646242142e-04
2.120000000000000000e+03 2.448122501373291016e+00 -1.337191963195800781e+01 5.571404835791327059e-05 -5.262274385131604504e-07 1.655634696362540126e-05 -3.459349045442650095e-06
2.121000000000000000e+03 2.018540620803833008e+00 -3.575286102294921875e+01 -1.388941309414803982e-04 9.908960200846195221e-04 2.556005783844739199e-04 2.990661596413701773e-04
2.122000000000000000e+03 2.026903629302978516e+00 -3.245341491699218750e+01 -8.762715879129245877e-05 6.354711367748677731e-04 1.643532013986259699e-04 2.642028557602316141e-04
2.123000000000000000e+03 2.040734529495239258e+00 -3.493203735351562500e+01 1.255557726835832000e-04 9.041168959811329842e-04 3.089017991442233324e-04 2.475242945365607738e-04
2.124000000000000000e+03 1.810420989990234375e+00 1.514344406127929688e+01 1.415388286113739014e-02 -8.161740899085998535e-01 -2.406060546636581421e-01 1.768333166837692261e-01
2.125000000000000000e+03 2.529979228973388672e+00 1.420886611938476562e+01 1.869386807084083557e-02 -7.155836224555969238e-01 -2.090669125318527222e-01 2.492140382528305054e-01
2.126000000000000000e+03 1.814653515815734863e+00 1.036121082305908203e+01 -1.459741685539484024e-02 -3.789996504783630371e-01 -1.180791184306144714e-01 1.840417832136154175e-01
2.127000000000000000e+03 2.510248422622680664e+00 1.105615997314453125e+01 -1.599174737930297852e-02 -4.514285326004028320e-01 -1.402260810136795044e-01 2.534655332565307617e-01
2.128000000000000000e+03 2.503193140029907227e+00 1.263702297210693359e+01 4.114431329071521759e-03 -5.867725610733032227e-01 -1.747974306344985962e-01 2.595967948436737061e-01
2.129000000000000000e+03 4.052935600280761719e+00 1.393039226531982422e+01 3.913629800081253052e-02 -6.675828099250793457e-01 -1.885339468717575073e-01 3.659468889236450195e-01
2.130000000000000000e+03 1.826656699180603027e+00 1.997313117980957031e+01 1.708404347300529480e-02 -1.138831973075866699e+00 -3.365243971347808838e-01 9.625601768493652344e-02
2.131000000000000000e+03 2.554359197616577148e+00 2.064227485656738281e+01 2.847079373896121979e-02 -1.105132460594177246e+00 -3.229984939098358154e-01 1.160013303160667419e-01
2.132000000000000000e+03 2.897194623947143555e+00 -7.189368724822998047e+00 3.805892674790811725e-06 7.770362572045996785e-06 3.472876642263145186e-06 -9.068714462046045810e-06
2.133000000000000000e+03 2.536410331726074219e+00 1.025764083862304688e+01 -2.811683155596256256e-02 -3.859857916831970215e-01 -1.242307871580123901e-01 2.446146905422210693e-01
2.134000000000000000e+03 2.542715787887573242e+00 1.902084541320800781e+01 3.327373787760734558e-02 -1.033131957054138184e+00 -2.999574840068817139e-01 1.510098427534103394e-01
2.135000000000000000e+03 2.547441005706787109e+00 1.821759223937988281e+01 3.308805823326110840e-02 -9.898795485496520996e-01 -2.870374321937561035e-01 1.697460412979125977e-01
2.136000000000000000e+03 2.544756889343261719e+00 1.983058547973632812e+01 3.093534335494041443e-02 -1.071765065193176270e+00 -3.122489154338836670e-01 1.324450820684432983e-01
2.137000000000000000e+03 3.253657817840576172e+00 1.970450782775878906e+01 4.909430816769599915e-02 -1.012459039688110352e+00 -2.890094220638275146e-01 1.663923263549804688e-01
2.138000000000000000e+03 1.716168880462646484e+00 -1.810688781738281250e+01 -8.520190749550238252e-05 -1.185033579531591386e-05 -2.911567207775078714e-05 1.301460429203871172e-06
2.139000000000000000e+03 2.434260129928588867e+00 -1.661247444152832031e+01 8.307521056849509478e-05 5.215127316660073120e-07 2.507901626813691109e-05 -1.444731333322124556e-05
2.140000000000000000e+03 5.414113521575927734e+00 -1.684650611877441406e+01 -5.197761129238642752e-05 -2.431351822451688349e-05 -2.288733958266675472e-05 2.388134817010723054e-05
2.141000000000000000e+03 2.565437793731689453e+00 9.446732521057128906e+00 -3.871066495776176453e-02 -3.208845853805541992e-01 -1.078785732388496399e-01 2.277057617902755737e-01
2.142000000000000000e+03 1.877450466156005859e+00 -1.008514022827148438e+01 -4.002869172836653888e-05 -2.219051793872495182e-06 -1.267432253371225670e-05 8.897342809177644085e-07
2.143000000000000000e+03 2.724355697631835938e+00 -9.412528991699218750e+00 -3.844158709398470819e-05 -5.108769528305856511e-06 -1.306510694121243432e-05 7.025355444056913257e-06
2.144000000000000000e+03 2.532263517379760742e+00 -1.101749610900878906e+01 -4.400882244226522744e-05 -6.635029421886429191e-06 -1.519315537734655663e-05 1.229423219228920061e-06
2.145000000000000000e+03 2.605525970458984375e+00 -1.022554588317871094e+01 3.833120717899873853e-05 4.929112947138492018e-06 1.297809649258852005e-05 -7.098586138454265893e-06
2.146000000000000000e+03 1.883446693420410156e+00 6.283700466156005859e+00 -3.698033466935157776e-02 -9.911887347698211670e-02 -4.082976281642913818e-02 8.772096782922744751e-02
2.147000000000000000e+03 2.556450843811035156e+00 7.026025772094726562e+00 -5.575144290924072266e-02 -1.622781902551651001e-01 -6.540889292955398560e-02 1.456413120031356812e-01
2.148000000000000000e+03 2.551645278930664062e+00 1.660077667236328125e+01 3.123622946441173553e-02 -8.913208842277526855e-01 -2.580254077911376953e-01 2.069743275642395020e-01
2.149000000000000000e+03 2.553129434585571289e+00 1.741313171386718750e+01 3.316888958215713501e-02 -9.430971145629882812e-01 -2.729784846305847168e-01 1.884347051382064819e-01
2.150000000000000000e+03 2.394813060760498047e+00 -1.740148353576660156e+01 -9.227731061400845647e-05 -1.868394065240863711e-06 -2.824371222232002765e-05 -3.898656473211303819e-07
2.151000000000000000e+03 2.473616361618041992e+00 -1.580481147766113281e+01 -7.745435868855565786e-05 -7.099492904671933502e-06 -2.536615647841244936e-05 -6.999163360887905583e-06
2.152000000000000000e+03 1.726805686950683594e+00 -1.731315422058105469e+01 8.257578156189993024e-05 -9.097994734474923462e-06 2.204333759436849505e-05 -1.519406669103773311e-05
2.153000000000000000e+03 2.596982955932617188e+00 2.783858489990234375e+01 5.018750671297311783e-03 -1.285426855087280273e+00 -3.841224312782287598e-01 3.572625294327735901e-02
2.154000000000000000e+03 2.770687580108642578e+00 -3.407051801681518555e+00 6.066083187761250883e-06 2.528325239836703986e-06 2.578322664703591727e-06 8.124771397888252977e-07
2.155000000000000000e+03 4.881582260131835938e+00 4.184646129608154297e+00 -1.515105068683624268e-01 -7.624454051256179810e-02 -6.832651048898696899e-02 1.116106733679771423e-01
2.156000000000000000e+03 2.571361064910888672e+00 7.826612949371337891e+00 -5.151082202792167664e-02 -2.097359448671340942e-01 -7.837402820587158203e-02 1.763604134321212769e-01
2.157000000000000000e+03 2.732447385787963867e+00 -4.162680149078369141e+00 -6.708916316711110994e-06 -3.720175982380169444e-06 -3.128727712464751676e-06 -5.048615889791108202e-07
2.158000000000000000e+03 1.945850253105163574e+00 -4.198069095611572266e+00 7.780826308589894325e-06 3.325212901472696103e-06 3.331811740281409584e-06 1.931563701873528771e-06
2.159000000000000000e+03 2.619513511657714844e+00 2.630210304260253906e+01 9.786976501345634460e-03 -1.257946133613586426e+00 -3.744477331638336182e-01 4.448318108916282654e-02
2.160000000000000000e+03 2.671913385391235352e+00 2.471101760864257812e+01 1.349033787846565247e-02 -1.219985127449035645e+00 -3.619484305381774902e-01 5.770712718367576599e-02
2.161000000000000000e+03 2.587956666946411133e+00 2.707128524780273438e+01 8.187363855540752411e-03 -1.273222088813781738e+00 -3.795104324817657471e-01 3.904869034886360168e-02
2.162000000000000000e+03 3.505666255950927734e+00 2.913027000427246094e+01 7.949960418045520782e-03 -1.224221944808959961e+00 -3.648816049098968506e-01 4.508729279041290283e-02
2.163000000000000000e+03 1.856585264205932617e+00 -2.375155258178710938e+01 1.022773867589421570e-04 5.621622767648659647e-05 4.754808469442650676e-05 2.582362685643602163e-05
2.164000000000000000e+03 2.558780193328857422e+00 -2.299105262756347656e+01 1.208410903927870095e-04 5.266197695164009929e-05 5.205092020332813263e-05 1.847717976488638669e-05
2.165000000000000000e+03 1.889818668365478516e+00 2.401961517333984375e+01 8.609728887677192688e-03 -1.278973937034606934e+00 -3.811092674732208252e-01 4.588266089558601379e-02
2.166000000000000000e+03 2.654910087585449219e+00 2.388732337951660156e+01 1.820645108819007874e-02 -1.202745437622070312e+00 -3.553617000579833984e-01 6.713493913412094116e-02
2.167000000000000000e+03 1.896425724029541016e+00 -2.538252830505371094e+01 1.087892887881025672e-04 1.182855194201692939e-04 6.812244100729003549e-05 6.761524127796292305e-05
2.168000000000000000e+03 2.608180761337280273e+00 -2.381743049621582031e+01 -5.030519605497829616e-05 4.279992572264745831e-05 -2.251581463497132063e-06 1.013509972835890949e-04
2.169000000000000000e+03 2.706208944320678711e+00 -2.631109237670898438e+01 1.350705861113965511e-04 1.788282825145870447e-04 9.416966349817812443e-05 1.293243112741038203e-04
2.170000000000000000e+03 1.880742073059082031e+00 -2.456913757324218750e+01 -5.944060831097885966e-05 5.631512976833619177e-05 -9.376434491059626453e-07 8.909240568755194545e-05
2.171000000000000000e+03 2.622772216796875000e+00 -2.785738754272460938e+01 1.619011309230700135e-04 2.332089497940614820e-04 1.185330256703309715e-04 1.762223109835758805e-04
2.172000000000000000e+03 1.953218460083007812e+00 -3.086163902282714844e+01 -8.107425674097612500e-05 4.847127129323780537e-04 1.210915434057824314e-04 2.546694013290107250e-04
2.173000000000000000e+03 2.660358667373657227e+00 -3.007680320739746094e+01 -7.028438994893804193e-05 3.959954774472862482e-04 9.771332406671717763e-05 3.159073530696332455e-04
2.174000000000000000e+03 2.689719676971435547e+00 -2.711340713500976562e+01 -4.347456706454977393e-05 1.727087947074323893e-04 3.877026756526902318e-05 1.909409911604598165e-04
2.175000000000000000e+03 5.331787872314453125e+01 -3.098127937316894531e+01 -5.514780282974243164e-01 -1.993933469057083130e-01 -2.252614051103591919e-01 -4.005008339881896973e-01
2.176000000000000000e+03 3.131658315658569336e+00 3.546860504150390625e+01 6.504900753498077393e-03 -1.323203563690185547e+00 -3.950095772743225098e-01 2.325925230979919434e-02
2.177000000000000000e+03 1.994168758392333984e+00 -3.165264892578125000e+01 1.139053565566428006e-04 5.993803497403860092e-04 2.139857097063213587e-04 2.142323210136964917e-04
2.178000000000000000e+03 2.742448568344116211e+00 -3.085762405395507812e+01 1.371946273138746619e-04 4.936369950883090496e-04 1.892494910862296820e-04 2.551989455241709948e-04
2.179000000000000000e+03 3.537448167800903320e+00 -3.082597541809082031e+01 -5.079827678855508566e-05 4.040979547426104546e-04 1.059899004758335650e-04 4.232956271152943373e-04
2.180000000000000000e+03 2.900797843933105469e+00 -3.328357696533203125e+01 -9.991806291509419680e-05 6.569576216861605644e-04 1.671118807280436158e-04 3.370101621840149164e-04
2.181000000000000000e+03 3.287188291549682617e+00 3.178072547912597656e+01 2.515767002478241920e-03 -1.271441221237182617e+00 -3.806776404380798340e-01 3.266269713640213013e-02
2.182000000000000000e+03 3.232054471969604492e+00 3.363580703735351562e+01 4.726216662675142288e-03 -1.294446349143981934e+00 -3.869160413742065430e-01 2.962646447122097015e-02
2.183000000000000000e+03 3.083283901214599609e+00 3.093906593322753906e+01 2.824085764586925507e-03 -1.281136631965637207e+00 -3.834937810897827148e-01 3.246231749653816223e-02
2.184000000000000000e+03 3.319606781005859375e+00 3.269843673706054688e+01 4.634053446352481842e-03 -1.275305509567260742e+00 -3.812014162540435791e-01 3.154352307319641113e-02
2.185000000000000000e+03 3.210201740264892578e+00 3.454567718505859375e+01 2.580816857516765594e-03 -1.311266303062438965e+00 -3.926056325435638428e-01 2.635125629603862762e-02
2.186000000000000000e+03 3.599115133285522461e+00 -3.545573806762695312e+01 -8.977652760222554207e-05 7.812741678208112717e-04 2.074492949759587646e-04 3.387124161235988140e-04
2.187000000000000000e+03 2.881611108779907227e+00 -3.501185226440429688e+01 -1.646433374844491482e-04 8.941545384004712105e-04 2.188533544540405273e-04 3.821838763542473316e-04
2.188000000000000000e+03 2.952312231063842773e+00 -3.416526031494140625e+01 1.322067400906234980e-04 7.701379945501685143e-04 2.707034291233867407e-04 3.605892707128077745e-04
2.189000000000000000e+03 1.503782844543457031e+01 -2.459886932373046875e+01 8.050260366871953011e-04 -9.558382589602842927e-05 2.128326595993712544e-04 -2.467407321091741323e-04
2.190000000000000000e+03 1.032043099403381348e+00 4.173224449157714844e+00 -9.859264828264713287e-03 1.019224803894758224e-02 9.989515820052474737e-05 5.241809412837028503e-03
2.191000000000000000e+03 1.320458698272705078e+01 -2.061389160156250000e+01 9.117432637140154839e-05 -3.766692680073902011e-05 1.605221950740087777e-05 -5.623854667646810412e-05
2.192000000000000000e+03 1.389835166931152344e+01 -2.347900962829589844e+01 5.074421060271561146e-04 -2.835751729435287416e-05 1.437253813492134213e-04 -1.291166845476254821e-04
2.193000000000000000e+03 1.446825981140136719e+01 -2.404633712768554688e+01 7.090362487360835075e-04 -1.566139399074018002e-04 1.657266839174553752e-04 -6.160172051750123501e-05
2.194000000000000000e+03 4.038044738769531250e+01 -1.657110977172851562e+01 -6.678492426872253418e-01 6.987117230892181396e-02 -1.793934255838394165e-01 -2.297484874725341797e-02
2.195000000000000000e+03 1.666387367248535156e+01 -2.637011337280273438e+01 1.668954151682555676e-03 -2.119475684594362974e-04 4.371019604150205851e-04 -1.224418228957802057e-04
2.196000000000000000e+03 5.672182846069335938e+01 -9.190342903137207031e+00 -2.090188741683959961e+00 -1.484092921018600464e-01 -6.715793609619140625e-01 -6.784248948097229004e-01
2.197000000000000000e+03 2.783369064331054688e+01 9.380224227905273438e+00 2.486697025597095490e-02 -3.489872217178344727e-01 -9.723607450723648071e-02 6.500318646430969238e-01
2.198000000000000000e+03 1.056037712097167969e+01 -1.990401077270507812e+01 1.146251670434139669e-04 2.938797842944040895e-05 4.320394509704783559e-05 -1.575765054440125823e-06
2.199000000000000000e+03 6.921495819091796875e+01 -1.522761344909667969e+01 8.912931680679321289e-01 1.371498489379882812e+01 4.381883621215820312e+00 1.227468490600585938e+00
2.200000000000000000e+03 1.798151397705078125e+01 -1.090421199798583984e+01 -2.589857217571989167e-07 -2.789056907204212621e-06 -9.144127943727653474e-07 1.404460931553330738e-06
2.201000000000000000e+03 1.184660816192626953e+01 -6.223316669464111328e+00 -9.960481293092016131e-06 -1.758962298481492326e-06 -3.515832986522582360e-06 -2.673448989298776723e-06
2.202000000000000000e+03 1.217379665374755859e+01 -4.259989261627197266e+00 6.785081495763733983e-06 2.268560820084530860e-06 2.716092694754479453e-06 6.295762204899801873e-07
2.203000000000000000e+03 5.425610733032226562e+01 7.093024730682373047e+00 2.668935954570770264e-01 1.148123383522033691e+00 4.245050847530364990e-01 3.978338241577148438e-01
2.204000000000000000e+03 1.696762275695800781e+01 1.101712107658386230e+00 -4.977108538150787354e-01 -9.908839464187622070e-01 -4.465784430503845215e-01 9.272814393043518066e-01
2.205000000000000000e+03 5.737876129150390625e+01 -8.773229598999023438e+00 -2.194505453109741211e+00 -1.540847271680831909e-01 -7.045770287513732910e-01 -7.200452089309692383e-01
2.206000000000000000e+03 5.605987548828125000e+01 -9.608342170715332031e+00 -1.944598317146301270e+00 -1.198347210884094238e-01 -6.193299293518066406e-01 -6.578792333602905273e-01
2.207000000000000000e+03 4.298454666137695312e+01 8.769250869750976562e+00 -2.634062431752681732e-02 1.049735784530639648e+00 3.070185482501983643e-01 -6.872744113206863403e-02
2.208000000000000000e+03 4.300816345214843750e+01 7.656480789184570312e+00 -1.091809123754501343e-01 8.468055725097656250e-01 2.212873995304107666e-01 -2.930269017815589905e-02
2.209000000000000000e+03 3.551081848144531250e+01 -1.616513442993164062e+01 -5.205413103103637695e-01 5.898142233490943909e-02 -1.384679675102233887e-01 1.290235519409179688e-01
2.210000000000000000e+03 1.671710395812988281e+01 -7.016850948333740234e+00 -5.707812761102104560e-06 -2.471047537255799398e-06 -2.453658225931576453e-06 1.180827382540883264e-07
2.211000000000000000e+03 6.644476318359375000e+01 -1.867765426635742188e+01 6.954308152198791504e-01 7.533583641052246094e+00 2.468704223632812500e+00 2.415858507156372070e+00
2.212000000000000000e+03 6.882250213623046875e+01 -1.603682518005371094e+01 6.750809550285339355e-01 1.265918350219726562e+01 4.000279426574707031e+00 1.586262822151184082e+00
2.213000000000000000e+03 4.587421417236328125e+01 1.976348876953125000e+01 3.287419080734252930e-01 7.289016842842102051e-01 3.172930777072906494e-01 5.543214678764343262e-01
2.214000000000000000e+03 8.338416099548339844e+00 -4.372590541839599609e+00 8.375022844120394439e-06 1.291048306484299246e-06 2.899821311075356789e-06 1.300668515114011825e-07
2.215000000000000000e+03 6.714093685150146484e+00 -4.185359477996826172e+00 7.613418347318656743e-06 1.404853605890821200e-06 2.705481620068894699e-06 8.178389521162898745e-08
2.216000000000000000e+03 5.995785713195800781e+00 -3.403062820434570312e+00 5.824192157888319343e-06 1.541145820738165639e-06 2.209601461800048128e-06 1.258148500937750214e-07
2.217000000000000000e+03 5.114424705505371094e+00 -4.135929584503173828e+00 7.458144409611122683e-06 1.918372845466365106e-06 2.812955017361673526e-06 -6.767979812138946727e-07
2.218000000000000000e+03 5.911391258239746094e+00 -4.150568962097167969e+00 -7.627199011039920151e-06 -1.676502051850548014e-06 -2.791110318867140450e-06 5.372201030695578083e-07
2.219000000000000000e+03 3.576903820037841797e+00 -3.393128156661987305e+00 -5.868646439921576530e-06 -2.429264668535324745e-06 -2.489373400749173015e-06 -3.331163611619558651e-08
2.220000000000000000e+03 5.031041145324707031e+00 -4.877044677734375000e+00 -9.268538633477874100e-06 -1.925423703141859733e-06 -3.358188678248552606e-06 2.346088194826734252e-06
2.221000000000000000e+03 3.051084041595458984e+00 -1.752347564697265625e+01 9.997023153118789196e-05 3.525888587319059297e-06 3.104883580817840993e-05 -2.017235419771168381e-05
2.222000000000000000e+03 2.279327583312988281e+01 6.174018383026123047e-01 -5.299678444862365723e-01 -5.306088551878929138e-02 -1.749086230993270874e-01 3.930095732212066650e-01
2.223000000000000000e+03 2.867103958129882812e+01 -1.280259037017822266e+01 -4.163264930248260498e-01 -1.106706038117408752e-01 -1.580991297960281372e-01 3.531705141067504883e-01
2.224000000000000000e+03 2.456610870361328125e+01 -3.178662681579589844e+01 6.641314364969730377e-03 -9.272889001294970512e-04 1.714207697659730911e-03 2.379176439717411995e-04
2.225000000000000000e+03 2.609550857543945312e+01 1.469368743896484375e+01 -3.723523616790771484e-01 -8.008865118026733398e-01 -3.519716560840606689e-01 3.798604905605316162e-01
2.226000000000000000e+03 4.333657073974609375e+01 6.040020942687988281e+00 -1.664837747812271118e-01 6.216264963150024414e-01 1.365428268909454346e-01 2.536957850679755211e-03
2.227000000000000000e+03 1.324604988098144531e+01 2.583950757980346680e+00 -4.853784441947937012e-01 -6.793369650840759277e-01 -3.494146168231964111e-01 5.644024014472961426e-01
2.228000000000000000e+03 5.978362655639648438e+01 -2.628336334228515625e+01 -6.378529071807861328e-01 8.375938534736633301e-01 5.992229282855987549e-02 1.546170115470886230e-01
2.229000000000000000e+03 6.105380249023437500e+01 -2.509350013732910156e+01 -4.865710735321044922e-01 1.399033188819885254e+00 2.737386226654052734e-01 4.014178514480590820e-01
2.230000000000000000e+03 5.615237426757812500e+01 -2.911219215393066406e+01 -7.188662886619567871e-01 2.429095655679702759e-02 -2.083726078271865845e-01 -2.642667889595031738e-01
2.231000000000000000e+03 2.296072387695312500e+01 -3.071851015090942383e+00 -9.740695357322692871e-01 -3.736649453639984131e-01 -4.043203592300415039e-01 5.837688446044921875e-01
2.232000000000000000e+03 3.065913963317871094e+01 -1.519407367706298828e+01 -3.882490694522857666e-01 -4.363967105746269226e-02 -1.295666247606277466e-01 2.273305058479309082e-01
2.233000000000000000e+03 5.341075515747070312e+01 -1.123495388031005859e+01 -1.509763121604919434e+00 -7.116906344890594482e-02 -4.742796719074249268e-01 -5.276515483856201172e-01
2.234000000000000000e+03 5.102488327026367188e+01 -1.177656173706054688e+01 -1.289151430130004883e+00 3.962244093418121338e-02 -3.748587071895599365e-01 -3.394097089767456055e-01
2.235000000000000000e+03 1.613018798828125000e+01 -2.896565055847167969e+01 2.321965759620070457e-03 -6.303897243924438953e-04 5.074728396721184254e-04 4.566324932966381311e-04
2.236000000000000000e+03 1.909678840637207031e+01 -2.753986358642578125e+01 2.787571400403976440e-03 -2.241280162706971169e-04 7.690330385230481625e-04 -1.967217103810980916e-04
2.237000000000000000e+03 4.162051010131835938e+01 -3.493921661376953125e+01 -8.446203917264938354e-02 -1.233499124646186829e-01 -6.234358623623847961e-02 -1.822644025087356567e-01
2.238000000000000000e+03 4.324444961547851562e+01 -3.492066192626953125e+01 -9.111398458480834961e-02 -1.693581491708755493e-01 -7.814164459705352783e-02 -2.381939888000488281e-01
2.239000000000000000e+03 1.109758472442626953e+01 5.207635402679443359e+00 -5.747056603431701660e-01 -4.762999713420867920e-01 -3.153016865253448486e-01 4.396327733993530273e-01
2.240000000000000000e+03 3.170881462097167969e+01 -1.496135902404785156e+01 -4.410543739795684814e-01 1.056692912243306637e-03 -1.319993138313293457e-01 2.264155447483062744e-01
2.241000000000000000e+03 1.981135368347167969e+01 -2.800031089782714844e+01 3.152973717078566551e-03 -9.068644430954009295e-05 9.186861570924520493e-04 -6.140614859759807587e-04
2.242000000000000000e+03 2.443627738952636719e+01 -5.112730026245117188e+00 -8.965313434600830078e-01 -3.129667937755584717e-01 -3.628494441509246826e-01 5.874080061912536621e-01
2.243000000000000000e+03 4.447067642211914062e+01 -3.328939437866210938e+01 -3.029892742633819580e-01 -1.507324129343032837e-01 -1.361165046691894531e-01 -2.576166391372680664e-01
2.244000000000000000e+03 5.142206192016601562e+01 -3.250860595703125000e+01 -2.895463407039642334e-01 -2.828877866268157959e-01 -1.717302352190017700e-01 -3.904376327991485596e-01
2.245000000000000000e+03 6.602992248535156250e+01 -2.050499343872070312e+01 -4.719695076346397400e-03 6.300666809082031250e+00 1.888784170150756836e+00 1.685223221778869629e+00
2.246000000000000000e+03 6.342575836181640625e+01 -2.385226249694824219e+01 -3.355166316032409668e-01 3.202603101730346680e+00 8.601258993148803711e-01 9.457349181175231934e-01
2.247000000000000000e+03 1.335579872131347656e+01 1.185897445678710938e+01 1.118644699454307556e-01 -6.111939549446105957e-01 -1.497988551855087280e-01 5.505611896514892578e-01
2.248000000000000000e+03 1.161229610443115234e+01 1.089551258087158203e+01 -1.190039664506912231e-01 -6.497744917869567871e-01 -2.306335419416427612e-01 7.648164033889770508e-01
2.249000000000000000e+03 2.938123512268066406e+01 -3.295523071289062500e+01 7.240523584187030792e-03 7.111654849722981453e-04 2.385506639257073402e-03 -8.084300206974148750e-04
2.250000000000000000e+03 4.742750167846679688e+01 -3.274909973144531250e+01 -4.107030928134918213e-01 -2.644993066787719727e-01 -2.025607079267501831e-01 -3.817144334316253662e-01
2.251000000000000000e+03 4.987717056274414062e+01 -3.540274429321289062e+01 1.414995938539505005e-01 -2.874906361103057861e-01 -4.379731044173240662e-02 -2.911339998245239258e-01
2.252000000000000000e+03 2.507500267028808594e+01 1.604507827758789062e+01 -1.731856912374496460e-01 -7.977449297904968262e-01 -2.912791967391967773e-01 3.807062804698944092e-01
2.253000000000000000e+03 2.572944641113281250e+01 1.650870513916015625e+01 -5.737093091011047363e-02 -7.045112848281860352e-01 -2.285646647214889526e-01 3.202802836894989014e-01
2.254000000000000000e+03 3.687212753295898438e+01 -3.437380599975585938e+01 -4.028004407882690430e-02 -2.680887095630168915e-02 -2.012667432427406311e-02 -5.381230264902114868e-02
2.255000000000000000e+03 3.327277374267578125e+01 -1.503328418731689453e+01 -4.942925870418548584e-01 4.693222790956497192e-02 -1.342080980539321899e-01 2.046034038066864014e-01
2.256000000000000000e+03 6.959863281250000000e+01 -1.181783485412597656e+01 2.772935867309570312e+00 1.813417053222656250e+01 6.272131919860839844e+00 3.198348879814147949e-01
2.257000000000000000e+03 7.048316192626953125e+01 -1.142892932891845703e+01 2.958379507064819336e+00 1.552548217773437500e+01 5.545158386230468750e+00 -2.892000786960124969e-02
2.258000000000000000e+03 2.088517761230468750e+01 8.819295763969421387e-01 -5.495940446853637695e-01 -2.546693980693817139e-01 -2.412790358066558838e-01 6.334682106971740723e-01
2.259000000000000000e+03 1.829773902893066406e+01 9.696654975414276123e-02 -7.066573500633239746e-01 -8.697203993797302246e-01 -4.729133248329162598e-01 9.129020571708679199e-01
2.260000000000000000e+03 2.192011642456054688e+01 -3.062936210632324219e+01 4.689336288720369339e-03 -1.004793099127709866e-03 1.105362898670136929e-03 6.635877653025090694e-04
2.261000000000000000e+03 2.273816490173339844e+01 -3.116302490234375000e+01 4.392356611788272858e-03 -7.370208040811121464e-04 1.096600666642189026e-03 5.782840307801961899e-04
2.262000000000000000e+03 6.166447067260742188e+01 -2.450107765197753906e+01 -3.776402175426483154e-01 1.754876136779785156e+00 4.131707847118377686e-01 5.385379791259765625e-01
2.263000000000000000e+03 3.508225250244140625e+01 -3.580339813232421875e+01 -1.853047683835029602e-02 -2.738514356315135956e-02 -1.377468556165695190e-02 -3.695055469870567322e-02
2.264000000000000000e+03 4.845019149780273438e+01 5.170035362243652344e+00 8.577724546194076538e-02 5.797592923045158386e-02 4.312595352530479431e-02 6.808996200561523438e-02
2.265000000000000000e+03 4.697467803955078125e+01 5.947802543640136719e+00 1.217594556510448456e-02 1.140617728233337402e-01 3.787131607532501221e-02 -4.486809298396110535e-02
2.266000000000000000e+03 1.842483901977539062e+01 -2.699822616577148438e+01 2.104290062561631203e-03 -4.667452230933122337e-05 6.172846769914031029e-04 -4.094594623893499374e-04
2.267000000000000000e+03 1.854227828979492188e+01 3.193797349929809570e+00 -2.412803322076797485e-01 -6.585500836372375488e-01 -2.699491083621978760e-01 8.515511751174926758e-01
2.268000000000000000e+03 1.700618171691894531e+01 2.690422773361206055e+00 -3.774711191654205322e-01 -1.056429266929626465e+00 -4.301700890064239502e-01 8.789848685264587402e-01
2.269000000000000000e+03 5.208299636840820312e+01 -1.200491428375244141e+01 -1.351509451866149902e+00 -5.138447508215904236e-02 -4.208681881427764893e-01 -4.462346434593200684e-01
2.270000000000000000e+03 6.956146240234375000e+01 -1.441897296905517578e+01 1.383748888969421387e+00 1.475307941436767578e+01 4.841048717498779297e+00 6.554266214370727539e-01
2.271000000000000000e+03 2.967035293579101562e+01 -3.433245086669921875e+01 1.383552793413400650e-03 -1.517295604571700096e-03 -4.012283534393645823e-05 -1.514322706498205662e-03
2.272000000000000000e+03 4.067244338989257812e+01 -3.548493957519531250e+01 -6.027652695775032043e-02 -1.154850199818611145e-01 -5.272846668958663940e-02 -1.582534164190292358e-01
2.273000000000000000e+03 4.114802551269531250e+01 -3.404782867431640625e+01 -1.379105597734451294e-01 -8.335687220096588135e-02 -6.638023257255554199e-02 -1.490164399147033691e-01
2.274000000000000000e+03 1.954682540893554688e+01 -1.338574695587158203e+01 2.749631903498084284e-06 3.104178858848172240e-06 1.756143205966509413e-06 1.753556944095180370e-06
2.275000000000000000e+03 6.273876571655273438e+01 -5.359040737152099609e+00 -1.810045719146728516e+00 -1.878669261932373047e-01 -5.993738174438476562e-01 -1.149303197860717773e+00
2.276000000000000000e+03 6.595298004150390625e+01 -1.937156677246093750e+01 5.710177421569824219e-01 6.509784698486328125e+00 2.124240875244140625e+00 2.189100027084350586e+00
2.277000000000000000e+03 6.738067626953125000e+01 -1.722727584838867188e+01 9.750072956085205078e-01 9.957839965820312500e+00 3.279854297637939453e+00 2.689542531967163086e+00
2.278000000000000000e+03 3.425245285034179688e+01 -1.679656028747558594e+01 -4.570076763629913330e-01 3.891782835125923157e-02 -1.254269480705261230e-01 1.329567879438400269e-01
2.279000000000000000e+03 3.518257141113281250e+01 -1.727299690246582031e+01 -4.712883234024047852e-01 3.493865206837654114e-02 -1.309048980474472046e-01 1.021650657057762146e-01
2.280000000000000000e+03 5.216656494140625000e+01 -3.185040092468261719e+01 -4.137569069862365723e-01 -2.691172361373901367e-01 -2.048622369766235352e-01 -4.001434147357940674e-01
2.281000000000000000e+03 2.604920578002929688e+01 -3.185805702209472656e+01 7.816050201654434204e-03 -4.574509803205728531e-04 2.207579789683222771e-03 7.165627903304994106e-04
2.282000000000000000e+03 6.764309692382812500e+01 -5.746785640716552734e+00 -1.408010840415954590e+00 9.824895858764648438e+00 2.525065422058105469e+00 -3.928279876708984375e+00
2.283000000000000000e+03 6.986951446533203125e+01 -1.559533023834228516e+01 6.985486745834350586e-01 1.299029159545898438e+01 4.106652259826660156e+00 3.055776953697204590e-01
2.284000000000000000e+03 6.971941375732421875e+01 -7.987596035003662109e+00 2.300064086914062500e+00 1.528933048248291016e+01 5.276818275451660156e+00 1.283962875604629517e-01
2.285000000000000000e+03 6.867507934570312500e+01 -8.111492156982421875e+00 3.147291421890258789e+00 1.731087684631347656e+01 6.137450218200683594e+00 -1.197541832923889160e+00
2.286000000000000000e+03 4.526196670532226562e+01 -1.508967018127441406e+01 -8.711735606193542480e-01 3.538054600358009338e-02 -2.507379055023193359e-01 -1.640594601631164551e-01
2.287000000000000000e+03 4.492269134521484375e+01 -3.421592330932617188e+01 -1.732653677463531494e-01 -2.032929211854934692e-01 -1.129674836993217468e-01 -2.963675260543823242e-01
2.288000000000000000e+03 3.680614471435546875e+01 -3.599030303955078125e+01 -1.791602000594139099e-02 -5.856681242585182190e-02 -2.294484898447990417e-02 -6.720828264951705933e-02
2.289000000000000000e+03 6.176654434204101562e+01 -5.478598117828369141e+00 -1.910302042961120605e+00 -7.999831438064575195e-02 -5.970901250839233398e-01 -7.381777763366699219e-01
2.290000000000000000e+03 4.400852203369140625e+01 -3.447262573242187500e+01 -1.411479115486145020e-01 -1.814061999320983887e-01 -9.676623344421386719e-02 -2.565192282199859619e-01
2.291000000000000000e+03 2.857923889160156250e+01 -3.257761383056640625e+01 8.299957029521465302e-03 -4.347084322944283485e-04 2.359574427828192711e-03 -1.038088812492787838e-03
2.292000000000000000e+03 1.122379589080810547e+01 -9.768396377563476562e+00 -2.194767876062542200e-05 -1.095814513973891735e-05 -9.871747352008242160e-06 1.190532429973245598e-06
2.293000000000000000e+03 9.851827621459960938e+00 -1.111013126373291016e+01 2.841538116626907140e-05 -1.385154791933018714e-05 4.369150246930075809e-06 4.129995431867428124e-06
2.294000000000000000e+03 2.127220726013183594e+01 -1.006463050842285156e+00 -8.544057607650756836e-01 -4.396685659885406494e-01 -3.882223069667816162e-01 6.356403827667236328e-01
2.295000000000000000e+03 1.705759620666503906e+01 -1.131973457336425781e+01 -9.211182572244069888e-08 -2.354368007217999548e-06 -7.339439775932987686e-07 7.813637239451054484e-07
2.296000000000000000e+03 1.718520927429199219e+01 -8.698146820068359375e+00 6.923193268448812887e-06 9.720408797875279561e-07 2.368570221733534709e-06 6.748450687155127525e-07
2.297000000000000000e+03 4.921232986450195312e+01 -3.231615066528320312e+01 -4.612983465194702148e-01 -3.323816359043121338e-01 -2.381039857864379883e-01 -4.422062337398529053e-01
2.298000000000000000e+03 7.607677459716796875e+00 -1.320485591888427734e+01 4.678818004322238266e-05 2.592249802546575665e-05 2.181320269301068038e-05 4.498300540944910608e-07
2.299000000000000000e+03 7.892120838165283203e+00 -1.260100460052490234e+01 -4.508228084887377918e-05 -2.849493284884374589e-05 -2.207316356361843646e-05 1.160663305199705064e-05
2.300000000000000000e+03 1.073586750030517578e+01 -1.007796001434326172e+01 2.840580600604880601e-05 2.279237151014967822e-06 9.205512469634413719e-06 -3.518651737977052107e-06
2.301000000000000000e+03 8.292715072631835938e+00 -1.144293689727783203e+01 -4.325614645495079458e-05 -4.542784154182299972e-06 -1.433967918273992836e-05 1.357875316898571327e-05
2.302000000000000000e+03 4.455614852905273438e+01 -1.533931732177734375e+01 -8.424701094627380371e-01 3.365987911820411682e-02 -2.426430732011795044e-01 -1.338777840137481689e-01
2.303000000000000000e+03 2.321197891235351562e+01 3.203535795211791992e+00 1.070780530571937561e-01 2.155722975730895996e-01 9.679510444402694702e-02 2.440823763608932495e-01
2.304000000000000000e+03 2.819308662414550781e+01 -3.327672958374023438e+01 5.542790982872247696e-03 -8.719714242033660412e-05 1.636678120121359825e-03 1.442874199710786343e-04
2.305000000000000000e+03 1.564958858489990234e+01 -1.069309043884277344e+01 2.818934717652155086e-06 -2.000881750063854270e-06 2.454158902764902450e-07 7.326341915359080303e-07
2.306000000000000000e+03 5.908321380615234375e+01 -2.831800651550292969e+01 -5.096087455749511719e-01 8.996071219444274902e-01 1.169995218515396118e-01 1.878702640533447266e-01
2.307000000000000000e+03 5.834200286865234375e+01 -2.904276847839355469e+01 -4.718358516693115234e-01 6.856545805931091309e-01 6.414563208818435669e-02 1.273733824491500854e-01
2.308000000000000000e+03 2.342201805114746094e+01 -4.799894332885742188e+00 -9.563672542572021484e-01 -4.523658454418182373e-01 -4.226199090480804443e-01 6.550222635269165039e-01
2.309000000000000000e+03 4.947250366210937500e+01 3.070370435714721680e+00 3.103677742183208466e-02 1.948513388633728027e-01 6.776643544435501099e-02 2.108256667852401733e-01
2.310000000000000000e+03 4.900032424926757812e+01 4.965325355529785156e+00 1.054971963167190552e-01 7.574540376663208008e-02 5.437278002500534058e-02 1.146585270762443542e-01
2.311000000000000000e+03 5.005297088623046875e+01 2.136376762390136719e+01 6.060897707939147949e-01 6.850448250770568848e-01 3.873403668403625488e-01 -2.042616456747055054e-01
2.312000000000000000e+03 2.079818534851074219e+01 1.834432220458984375e+01 3.179505467414855957e-01 -2.571675777435302734e-01 1.823488809168338776e-02 6.858986020088195801e-01
2.313000000000000000e+03 3.371259689331054688e+01 -3.500092315673828125e+01 -1.497304160147905350e-02 -1.195052918046712875e-02 -8.077071048319339752e-03 -2.198135852813720703e-02
2.314000000000000000e+03 1.450725650787353516e+01 2.843593120574951172e+00 -4.647789001464843750e-01 -9.293709397315979004e-01 -4.182449579238891602e-01 6.883799433708190918e-01
2.315000000000000000e+03 9.372337341308593750e+00 -1.865388298034667969e+01 7.161008397815749049e-05 2.865018905140459538e-05 3.007808300026226789e-05 5.117319233249872923e-06
2.316000000000000000e+03 9.980217933654785156e+00 -1.928995704650878906e+01 3.587538594729267061e-05 -3.862158700940199196e-05 -8.238606028498907108e-07 -1.640047594264615327e-05
2.317000000000000000e+03 3.983234024047851562e+01 1.227037334442138672e+01 3.506524562835693359e-01 1.109899759292602539e+00 4.381656646728515625e-01 3.681888878345489502e-01
2.318000000000000000e+03 2.529252815246582031e+01 1.539418792724609375e+01 -3.061109781265258789e-01 -8.795580267906188965e-01 -3.557007014751434326e-01 4.182540476322174072e-01
2.319000000000000000e+03 2.604469680786132812e+01 1.563968563079833984e+01 -2.061091810464859009e-01 -7.151090502738952637e-01 -2.763654589653015137e-01 3.146695792675018311e-01
2.320000000000000000e+03 1.468903636932373047e+01 3.784668684005737305e+00 -4.998872876167297363e-01 -1.065195798873901367e+00 -4.695249199867248535e-01 6.903102397918701172e-01
2.321000000000000000e+03 2.241759490966796875e+01 -2.398260593414306641e+00 -9.635350108146667480e-01 -3.894492387771606445e-01 -4.058952629566192627e-01 5.887918472290039062e-01
2.322000000000000000e+03 5.595864105224609375e+01 1.969783592224121094e+01 2.807397544384002686e-01 2.901583909988403320e+00 9.546970725059509277e-01 -7.557452321052551270e-01
2.323000000000000000e+03 9.960134506225585938e+00 -3.680927276611328125e+00 -3.134784947178559378e-06 -2.843127731466665864e-06 -1.793373826330935117e-06 -2.188523239965434186e-06
2.324000000000000000e+03 9.161736488342285156e+00 -4.515436649322509766e+00 -8.720190635358449072e-06 3.292994676939997589e-07 -2.517267148505197838e-06 -2.270087406941456720e-06
2.325000000000000000e+03 2.308908462524414062e+01 1.753313446044921875e+01 1.299072355031967163e-01 -6.717014908790588379e-01 -1.625382751226425171e-01 5.301088690757751465e-01
2.326000000000000000e+03 2.413040542602539062e+01 2.759233951568603516e+00 -2.192871272563934326e-02 1.510868519544601440e-01 3.874744474887847900e-02 1.915672570466995239e-01
2.327000000000000000e+03 2.369678497314453125e+01 4.119648933410644531e+00 3.910398781299591064e-01 2.606417536735534668e-01 1.955044865608215332e-01 2.365557551383972168e-01
2.328000000000000000e+03 7.667221832275390625e+01 4.173843002319335938e+01 1.503488980233669281e-02 6.242531776428222656e+00 1.877270102500915527e+00 -1.252189837396144867e-02
2.329000000000000000e+03 5.231235504150390625e+01 1.981231880187988281e+01 4.380225539207458496e-01 1.048793435096740723e+00 4.460448026657104492e-01 -7.057159543037414551e-01
2.330000000000000000e+03 5.115461730957031250e+01 4.985574245452880859e+00 2.104247808456420898e-01 2.372495979070663452e-01 1.343023180961608887e-01 2.533847093582153320e-01
2.331000000000000000e+03 4.507216644287109375e+01 1.946713447570800781e+01 2.905861735343933105e-01 9.656701087951660156e-01 3.768768906593322754e-01 6.106343269348144531e-01
2.332000000000000000e+03 5.800678253173828125e+01 1.248644447326660156e+01 5.796877145767211914e-01 3.462130784988403320e+00 1.212545514106750488e+00 -6.055262684822082520e-01
2.333000000000000000e+03 1.350816822052001953e+01 1.564153385162353516e+01 6.738287210464477539e-01 -2.877203524112701416e-01 1.158325150609016418e-01 3.810180127620697021e-01
2.334000000000000000e+03 1.633057975769042969e+01 3.906317234039306641e+00 -5.458004474639892578e-01 -1.136581897735595703e+00 -5.047147274017333984e-01 8.310999274253845215e-01
2.335000000000000000e+03 1.568936061859130859e+01 3.589923858642578125e+00 -4.776369035243988037e-01 -1.127319574356079102e+00 -4.814869463443756104e-01 7.841169834136962891e-01
2.336000000000000000e+03 5.569521713256835938e+01 1.671015930175781250e+01 6.238912343978881836e-01 3.284043312072753906e+00 1.172380328178405762e+00 -7.173523902893066406e-01
2.337000000000000000e+03 5.597185516357421875e+01 1.793536949157714844e+01 3.573510646820068359e-01 3.154526710510253906e+00 1.053563356399536133e+00 -6.894441246986389160e-01
2.338000000000000000e+03 4.033710861206054688e+01 1.389736270904541016e+01 4.484443962574005127e-01 1.280316233634948730e+00 5.186281800270080566e-01 3.153629899024963379e-01
2.339000000000000000e+03 1.566695690155029297e+01 -7.050784111022949219e+00 -5.753244749939767644e-06 -4.401796104502864182e-06 -3.046512119908584282e-06 1.026987661134626251e-06
2.340000000000000000e+03 1.434828662872314453e+01 -1.003333854675292969e+01 1.206407523568486795e-05 -5.943978067080024630e-06 1.836029127844085451e-06 -7.420186989293142688e-07
2.341000000000000000e+03 1.403302097320556641e+01 -1.067986583709716797e+01 -1.291257103730458766e-05 6.475193458754802123e-06 -1.931213319039670750e-06 -1.943444885910139419e-06
2.342000000000000000e+03 2.037815093994140625e+01 2.630019426345825195e+00 -2.376543283462524414e-01 -8.744136989116668701e-02 -9.752871096134185791e-02 6.649042367935180664e-01
2.343000000000000000e+03 2.207975578308105469e+01 2.005922555923461914e+00 -2.658631503582000732e-01 5.522467195987701416e-02 -6.319154798984527588e-02 4.211056232452392578e-01
2.344000000000000000e+03 1.255035209655761719e+01 9.111709594726562500e+00 -4.620054066181182861e-01 -8.624804615974426270e-01 -3.973457515239715576e-01 7.472417950630187988e-01
2.345000000000000000e+03 2.151469802856445312e+01 1.816446113586425781e+01 2.881809473037719727e-01 -4.034710228443145752e-01 -3.458701819181442261e-02 6.583946347236633301e-01
2.346000000000000000e+03 1.961899375915527344e+01 -1.166466999053955078e+01 3.578492624001228251e-06 2.042105734290089458e-06 1.686179530224762857e-06 2.426600758553831838e-06
2.347000000000000000e+03 5.346675872802734375e+01 2.100285911560058594e+01 4.445419907569885254e-01 1.744932889938354492e+00 6.568424701690673828e-01 -7.884420156478881836e-01
2.348000000000000000e+03 5.398001480102539062e+01 1.978130722045898438e+01 3.577746748924255371e-01 1.986784458160400391e+00 7.033677697181701660e-01 -8.729714751243591309e-01
2.349000000000000000e+03 2.509156417846679688e+01 3.580294132232666016e+00 1.853126585483551025e-01 1.070769652724266052e-01 8.771688491106033325e-02 1.627217084169387817e-01
2.350000000000000000e+03 4.084314346313476562e+01 1.185355472564697266e+01 3.230719566345214844e-01 1.324669957160949707e+00 4.943225979804992676e-01 3.007334768772125244e-01
2.351000000000000000e+03 1.654211997985839844e+01 1.770638108253479004e+00 -4.301559329032897949e-01 -1.024990677833557129e+00 -4.365439713001251221e-01 8.876488208770751953e-01
2.352000000000000000e+03 1.762046241760253906e+01 5.596686005592346191e-01 -5.953356027603149414e-01 -9.306088089942932129e-01 -4.577833414077758789e-01 9.424138069152832031e-01
2.353000000000000000e+03 4.108080291748046875e+01 1.579240798950195312e+01 4.930310845375061035e-01 1.395545601844787598e+00 5.665730237960815430e-01 2.919143736362457275e-01
2.354000000000000000e+03 2.577206039428710938e+01 4.343894481658935547e+00 3.306264877319335938e-01 4.563258215785026550e-02 1.128777265548706055e-01 1.910607963800430298e-01
2.355000000000000000e+03 1.147981166839599609e+01 3.696135282516479492e+00 -5.073278546333312988e-01 -4.519523978233337402e-01 -2.877840697765350342e-01 4.103211760520935059e-01
2.356000000000000000e+03 2.023912239074707031e+01 1.649075150489807129e+00 -4.227877557277679443e-01 -2.532398402690887451e-01 -2.028082758188247681e-01 7.137587666511535645e-01
2.357000000000000000e+03 1.876098442077636719e+01 2.412055015563964844e+00 -3.237143158912658691e-01 -6.154100298881530762e-01 -2.817372977733612061e-01 9.108756184577941895e-01
2.358000000000000000e+03 2.090797424316406250e+01 -2.733398079872131348e-01 -7.523494362831115723e-01 -4.304130077362060547e-01 -3.548287451267242432e-01 6.433420181274414062e-01
2.359000000000000000e+03 2.063568305969238281e+01 -1.430420637130737305e+00 -9.454035758972167969e-01 -6.117172837257385254e-01 -4.671362638473510742e-01 7.194296121597290039e-01
2.360000000000000000e+03 4.238913726806640625e+01 9.492563247680664062e+00 5.170661211013793945e-02 1.242279529571533203e+00 3.881958425045013428e-01 5.192480981349945068e-02
2.361000000000000000e+03 5.361707305908203125e+01 5.517499446868896484e+00 2.256730496883392334e-01 8.155531883239746094e-01 3.123678565025329590e-01 3.213402032852172852e-01
2.362000000000000000e+03 5.189336395263671875e+01 5.592396259307861328e+00 2.613936066627502441e-01 3.306887745857238770e-01 1.776247173547744751e-01 2.804584205150604248e-01
2.363000000000000000e+03 4.820817565917968750e+01 2.141726493835449219e+01 5.575338006019592285e-01 5.555181503295898438e-01 3.339155912399291992e-01 1.979948580265045166e-01
2.364000000000000000e+03 4.980409240722656250e+01 2.049738502502441406e+01 5.123679041862487793e-01 4.203740358352661133e-01 2.798225879669189453e-01 -1.576247811317443848e-01
2.365000000000000000e+03 5.544643020629882812e+01 8.139752388000488281e+00 1.843948662281036377e-01 1.992253780364990234e+00 6.529945731163024902e-01 2.104465514421463013e-01
2.366000000000000000e+03 5.681945037841796875e+01 1.062222576141357422e+01 4.053063988685607910e-01 3.095315694808959961e+00 1.050186634063720703e+00 -2.123312503099441528e-01
2.367000000000000000e+03 4.667765426635742188e+01 2.013758087158203125e+01 3.692275583744049072e-01 5.701234936714172363e-01 2.818053066730499268e-01 4.731119573116302490e-01
2.368000000000000000e+03 3.692744827270507812e+01 -1.697436904907226562e+01 -5.412083268165588379e-01 4.554825276136398315e-02 -1.486980170011520386e-01 6.851557642221450806e-02
2.369000000000000000e+03 2.408696937561035156e+01 1.715326881408691406e+01 5.420777201652526855e-02 -7.468238472938537598e-01 -2.077848166227340698e-01 4.503103494644165039e-01
2.370000000000000000e+03 2.384938430786132812e+01 1.783024978637695312e+01 1.641286909580230713e-01 -6.763481497764587402e-01 -1.536658406257629395e-01 4.763530194759368896e-01
2.371000000000000000e+03 4.163036346435546875e+01 1.616887474060058594e+01 5.003920197486877441e-01 1.488006114959716797e+00 5.965194702148437500e-01 3.093439638614654541e-01
2.372000000000000000e+03 4.069712066650390625e+01 1.483990001678466797e+01 4.773831963539123535e-01 1.351487636566162109e+00 5.486612319946289062e-01 3.072862327098846436e-01
2.373000000000000000e+03 5.707262039184570312e+01 7.587212085723876953e+00 1.923907548189163208e-01 2.353916645050048828e+00 7.638922333717346191e-01 -2.011517435312271118e-01
2.374000000000000000e+03 1.546602535247802734e+01 1.711152839660644531e+01 6.910822987556457520e-01 2.325620651245117188e-01 2.770933210849761963e-01 3.007601797580718994e-01
2.375000000000000000e+03 1.732392311096191406e+01 1.794318771362304688e+01 5.052011609077453613e-01 3.431515693664550781e-01 2.545058131217956543e-01 4.478584825992584229e-01
2.376000000000000000e+03 1.362500190734863281e+01 1.636222839355468750e+01 6.350336074829101562e-01 -2.241320610046386719e-01 1.232704743742942810e-01 3.156753182411193848e-01
2.377000000000000000e+03 5.033835601806640625e+01 4.485909461975097656e+00 1.539025306701660156e-01 1.670797318220138550e-01 9.629467874765396118e-02 2.154793739318847656e-01
2.378000000000000000e+03 1.385028266906738281e+01 6.879978656768798828e+00 -8.309043645858764648e-01 -1.231897711753845215e+00 -6.188406348228454590e-01 6.666727662086486816e-01
2.379000000000000000e+03 5.624388885498046875e+01 1.636988258361816406e+01 7.434993982315063477e-01 3.435745716094970703e+00 1.253773450851440430e+00 -6.651989817619323730e-01
2.380000000000000000e+03 5.696363067626953125e+01 1.440511322021484375e+01 7.864099740982055664e-01 3.611167907714843750e+00 1.319273352622985840e+00 -7.415171265602111816e-01
2.381000000000000000e+03 1.204645633697509766e+01 -1.010060787200927734e+01 -1.684597191342618316e-05 -1.503089970356086269e-05 -9.563061212247703224e-06 6.775568635930540040e-06
2.382000000000000000e+03 1.289164257049560547e+01 -1.005784511566162109e+01 -2.403425060037989169e-05 2.771095296338899061e-06 -6.378946636687032878e-06 7.814993296051397920e-06
2.383000000000000000e+03 1.547708225250244141e+01 1.815348243713378906e+01 4.671685099601745605e-01 1.439856737852096558e-01 1.833462566137313843e-01 2.806713283061981201e-01
2.384000000000000000e+03 4.873658752441406250e+01 3.896453142166137695e+00 5.948251858353614807e-02 1.357224732637405396e-01 5.856149643659591675e-02 1.412950605154037476e-01
2.385000000000000000e+03 6.916900634765625000e+01 -1.333182716369628906e+01 2.225497484207153320e+00 1.710816955566406250e+01 5.800100326538085938e+00 1.144959092140197754e+00
2.386000000000000000e+03 7.114895629882812500e+01 -1.165532970428466797e+01 2.874500513076782227e+00 1.339276027679443359e+01 4.880178451538085938e+00 -3.920688927173614502e-01
2.387000000000000000e+03 5.656167602539062500e+01 9.125095367431640625e+00 2.599307298660278320e-01 2.631195545196533203e+00 8.673378229141235352e-01 -1.315269768238067627e-01
2.388000000000000000e+03 1.917316246032714844e+01 1.856312370300292969e+01 3.422623276710510254e-01 1.020745635032653809e-01 1.333010643720626831e-01 6.510946154594421387e-01
2.389000000000000000e+03 4.944756698608398438e+01 2.178744316101074219e+01 6.315053105354309082e-01 7.051676511764526367e-01 4.010019004344940186e-01 -8.687131851911544800e-02
2.390000000000000000e+03 4.395790481567382812e+01 6.427414894104003906e+00 -1.138608753681182861e-01 5.680521130561828613e-01 1.362573653459548950e-01 -6.537902355194091797e-02
2.391000000000000000e+03 4.434244918823242188e+01 5.791041374206542969e+00 -1.194013431668281555e-01 4.729270637035369873e-01 1.060577183961868286e-01 -4.821613058447837830e-02
2.392000000000000000e+03 1.677999877929687500e+01 1.915051078796386719e+01 3.107928037643432617e-01 1.958211213350296021e-01 1.519841700792312622e-01 4.051631391048431396e-01
2.393000000000000000e+03 1.836530303955078125e+01 1.863553047180175781e+01 3.660692572593688965e-01 2.078094333410263062e-01 1.721636056900024414e-01 5.860897898674011230e-01
2.394000000000000000e+03 7.078858947753906250e+01 -9.285828590393066406e+00 3.140727519989013672e+00 1.358025360107421875e+01 5.016294479370117188e+00 5.549461022019386292e-02
2.395000000000000000e+03 6.546622467041015625e+01 -4.915172100067138672e+00 -9.995077252388000488e-01 2.929536581039428711e+00 5.790086388587951660e-01 -3.725474834442138672e+00
2.396000000000000000e+03 6.473198699951171875e+01 -4.698404788970947266e+00 -6.499987840652465820e-01 1.410230755805969238e+00 2.280695885419845581e-01 -3.147471189498901367e+00
2.397000000000000000e+03 5.705771255493164062e+01 8.609908103942871094e+00 2.495885342359542847e-01 2.572798490524291992e+00 8.467161059379577637e-01 -2.300833314657211304e-01
2.398000000000000000e+03 5.571694564819335938e+01 1.577814388275146484e+01 8.998937606811523438e-01 3.626744031906127930e+00 1.357991337776184082e+00 -6.775808334350585938e-01
2.399000000000000000e+03 5.594484329223632812e+01 1.874525642395019531e+01 3.160963654518127441e-01 2.981052875518798828e+00 9.891447424888610840e-01 -7.473039031028747559e-01
2.400000000000000000e+03 4.218245315551757812e+01 1.965304183959960938e+01 2.308862209320068359e-01 1.234411478042602539e+00 4.395893216133117676e-01 3.419183790683746338e-01
2.401000000000000000e+03 1.928234672546386719e+01 3.483133077621459961e+00 -1.854555159807205200e-01 -2.871317565441131592e-01 -1.417761892080307007e-01 8.066709041595458984e-01
2.402000000000000000e+03 1.930786132812500000e+01 1.562141329050064087e-01 -6.918043494224548340e-01 -6.941776275634765625e-01 -4.157945811748504639e-01 8.278676867485046387e-01
2.403000000000000000e+03 4.090645980834960938e+01 1.646067810058593750e+01 4.543824493885040283e-01 1.323459625244140625e+00 5.333526134490966797e-01 2.479320317506790161e-01
2.404000000000000000e+03 4.243439483642578125e+01 8.263264656066894531e+00 -8.208175748586654663e-02 1.001289486885070801e+00 2.757623195648193359e-01 4.653076082468032837e-02
2.405000000000000000e+03 6.842372894287109375e+01 -5.634560108184814453e+00 -1.681881427764892578e+00 1.181268787384033203e+01 3.039242029190063477e+00 -2.482205867767333984e+00
2.406000000000000000e+03 6.689410400390625000e+01 -5.045075893402099609e+00 -1.438666105270385742e+00 6.814012050628662109e+00 1.612603783607482910e+00 -4.389692783355712891e+00
2.407000000000000000e+03 1.061607646942138672e+01 -6.117485046386718750e+00 1.162369244411820546e-05 1.274949227081378922e-06 3.869592546834610403e-06 2.285026539539103396e-06
2.408000000000000000e+03 6.916670227050781250e+01 -7.619922161102294922e+00 1.705185532569885254e+00 1.524060440063476562e+01 5.083736896514892578e+00 -7.669129371643066406e-01
2.409000000000000000e+03 6.910637664794921875e+01 -6.292491912841796875e+00 -9.214246273040771484e-01 1.353496837615966797e+01 3.784063100814819336e+00 -9.332873225212097168e-01
2.410000000000000000e+03 5.678295135498046875e+01 1.495270347595214844e+01 1.004965186119079590e+00 3.645868062973022461e+00 1.395249962806701660e+00 -6.670973896980285645e-01
2.411000000000000000e+03 5.744167327880859375e+01 1.549909782409667969e+01 8.647843599319458008e-01 3.409353971481323242e+00 1.282241463661193848e+00 -5.655770301818847656e-01
2.412000000000000000e+03 7.683158874511718750e+01 -4.032699203491210938e+01 -7.751807570457458496e-04 9.391124725341796875e+00 2.817105054855346680e+00 4.483602568507194519e-02
2.413000000000000000e+03 7.838049316406250000e+01 -3.866541290283203125e+01 -1.655258703976869583e-03 1.008948898315429688e+01 3.026350259780883789e+00 -2.545032650232315063e-02
2.414000000000000000e+03 1.729764819145202637e+00 3.723603439331054688e+01 2.471866784617304802e-03 -1.462951898574829102e+00 -4.381439983844757080e-01 4.641308449208736420e-03
2.415000000000000000e+03 1.666847419738769531e+01 -8.093247413635253906e+00 -7.705823009018786252e-06 -7.974319942150032148e-07 -2.550976432758034207e-06 1.674983884925040911e-08
2.416000000000000000e+03 5.773764038085937500e+01 -6.871738433837890625e+00 -1.977130651473999023e+00 9.836021065711975098e-02 -5.636311173439025879e-01 -3.575484156608581543e-01
2.417000000000000000e+03 2.736502265930175781e+01 7.195421218872070312e+00 3.479063808917999268e-01 -2.385411113500595093e-01 3.280958160758018494e-02 5.061155557632446289e-01
2.418000000000000000e+03 2.673836517333984375e+01 8.081075668334960938e+00 2.785204946994781494e-01 -2.659543156623840332e-01 3.769850125536322594e-03 5.262677669525146484e-01
2.419000000000000000e+03 4.021282958984375000e+01 -1.592963695526123047e+01 -6.864367723464965820e-01 9.166296571493148804e-02 -1.784321516752243042e-01 2.866859780624508858e-03
2.420000000000000000e+03 2.718939971923828125e+01 -8.605858802795410156e+00 -6.565715074539184570e-01 -1.487934291362762451e-01 -2.416094690561294556e-01 5.037418007850646973e-01
2.421000000000000000e+03 3.061233520507812500e+00 4.403627395629882812e+00 -7.033515721559524536e-02 -6.153938919305801392e-02 -3.956236317753791809e-02 6.020176783204078674e-02
2.422000000000000000e+03 1.798641395568847656e+01 2.271982192993164062e+00 -3.233233690261840820e-01 -8.623322248458862305e-01 -3.556966781616210938e-01 9.284142255783081055e-01
2.423000000000000000e+03 4.564927673339843750e+01 4.743974685668945312e+00 -7.743672281503677368e-02 2.891836762428283691e-01 6.352408975362777710e-02 -1.048332266509532928e-02
2.424000000000000000e+03 4.635290908813476562e+01 4.991741657257080078e+00 -3.197607025504112244e-02 2.056360542774200439e-01 5.209799483418464661e-02 -1.438556797802448273e-02
2.425000000000000000e+03 5.477992630004882812e+01 6.514338970184326172e+00 1.986768394708633423e-01 1.347827315330505371e+00 4.639512598514556885e-01 2.862934172153472900e-01
2.426000000000000000e+03 1.357678890228271484e+01 -6.510339260101318359e+00 -9.933812179951928556e-06 9.898413821929352707e-08 -2.950448561023222283e-06 3.313462912046816200e-06
2.427000000000000000e+03 1.329633522033691406e+01 -5.540284156799316406e+00 -3.503642346913693473e-06 -3.995444785687141120e-06 -2.249726321679190733e-06 1.862267708929721266e-06
2.428000000000000000e+03 1.808306884765625000e+01 -1.020990753173828125e+01 7.468093485840654466e-07 2.969163460875279270e-06 1.114791871259512845e-06 -2.519431063774391077e-06
2.429000000000000000e+03 6.919853210449218750e+01 -5.610785484313964844e+00 -1.447918176651000977e+00 1.227771568298339844e+01 3.248939275741577148e+00 -1.242856502532958984e+00
2.430000000000000000e+03 6.764853668212890625e+01 -4.980714321136474609e+00 -1.912400007247924805e+00 9.027436256408691406e+00 2.134510993957519531e+00 -3.565912723541259766e+00
2.431000000000000000e+03 9.761571884155273438e+00 -8.012518882751464844e+00 -8.818903552310075611e-06 -5.208722086535999551e-06 -4.208287919027497992e-06 1.748990143823903054e-05
2.432000000000000000e+03 1.514196872711181641e+01 -6.596194744110107422e+00 5.611581400444265455e-06 3.095102329098153859e-06 2.612005118862725794e-06 3.998827367013291223e-07
2.433000000000000000e+03 1.434066390991210938e+01 -8.376150131225585938e+00 -9.378402864967938513e-06 4.252462986187310889e-06 -1.537781940896820743e-06 2.145113967344514094e-06
2.434000000000000000e+03 2.917438888549804688e+01 -1.117360591888427734e+01 -5.308830142021179199e-01 -5.742748081684112549e-02 -1.764931529760360718e-01 4.065011441707611084e-01
2.435000000000000000e+03 1.283815860748291016e+01 -2.345963096618652344e+01 4.561211680993437767e-04 -4.505601827986538410e-05 1.233195507666096091e-04 -4.043201624881476164e-05
2.436000000000000000e+03 1.774540328979492188e+01 -9.252997398376464844e+00 -5.541153768717776984e-06 5.252780397313472349e-07 -1.504762735748954583e-06 -3.299775244158809073e-06
2.437000000000000000e+03 1.677613258361816406e+01 -9.726092338562011719e+00 3.506128450680989772e-06 1.308707851421786472e-06 1.444450845156097785e-06 -1.976003204617882147e-06
2.438000000000000000e+03 1.657623481750488281e+01 -1.037913036346435547e+01 5.976736616730704554e-08 -1.392156946167233400e-06 -3.997168676050932845e-07 1.764161083883664105e-06
2.439000000000000000e+03 1.034439182281494141e+01 -9.393827438354492188e+00 -2.577522900537587702e-05 -5.805624368804274127e-06 -9.474256330577190965e-06 1.032196178130107000e-05
2.440000000000000000e+03 2.160782814025878906e+01 -3.972757235169410706e-02 -6.906550526618957520e-01 -2.577148377895355225e-01 -2.845109701156616211e-01 5.512553453445434570e-01
2.441000000000000000e+03 7.030691528320312500e+01 -8.362205505371093750e+00 2.929897785186767578e+00 1.409097766876220703e+01 5.106262683868408203e+00 4.349701106548309326e-01
2.442000000000000000e+03 1.869453430175781250e+01 -1.117490577697753906e+01 5.181468054615834262e-07 3.175104666297556832e-06 1.107975435843400192e-06 -1.097239191949483939e-06
2.443000000000000000e+03 4.155945968627929688e+01 -1.556795310974121094e+01 -7.434688210487365723e-01 9.476143866777420044e-02 -1.946122199296951294e-01 -2.522501721978187561e-02
2.444000000000000000e+03 4.868109130859375000e+01 -1.215078544616699219e+01 -1.125874400138854980e+00 1.137384176254272461e-01 -3.036407828330993652e-01 -2.119447290897369385e-01
2.445000000000000000e+03 3.830182647705078125e+01 -1.604500579833984375e+01 -6.198281645774841309e-01 7.947614789009094238e-02 -1.621056050062179565e-01 5.733895301818847656e-02
2.446000000000000000e+03 5.073013687133789062e+01 -1.274381542205810547e+01 -1.224105715751647949e+00 -1.470143999904394150e-02 -3.716421425342559814e-01 -3.791635334491729736e-01
2.447000000000000000e+03 4.836484909057617188e+01 -1.308853244781494141e+01 -1.075858831405639648e+00 7.086056470870971680e-02 -3.014994859695434570e-01 -2.450262904167175293e-01
2.448000000000000000e+03 1.991570854187011719e+01 -1.214833259582519531e+01 -2.898966840803041123e-06 -3.732200184458633885e-06 -1.989350039366399869e-06 -2.002032260861597024e-06
2.449000000000000000e+03 1.930492210388183594e+01 -1.115225028991699219e+01 -4.123923645238392055e-06 -3.468793011052184738e-06 -2.277814928675070405e-06 -2.264002660012920387e-06
2.450000000000000000e+03 4.207271575927734375e+01 -1.478326892852783203e+01 -7.821847796440124512e-01 1.128191798925399780e-01 -2.008096724748611450e-01 -1.717366464436054230e-02
2.451000000000000000e+03 4.384774398803710938e+01 -1.558526897430419922e+01 -8.125460743904113770e-01 4.386033117771148682e-02 -2.306057214736938477e-01 -1.097605824470520020e-01
2.452000000000000000e+03 9.132019996643066406e+00 -1.101696968078613281e+01 -3.805627784458920360e-05 9.278725883632432669e-06 -8.633265679236501455e-06 3.449017867751535960e-06
2.453000000000000000e+03 5.432373809814453125e+01 -9.864936828613281250e+00 -1.693191885948181152e+00 9.453692473471164703e-03 -5.051214694976806641e-01 -4.614658057689666748e-01
2.454000000000000000e+03 2.792812538146972656e+01 -9.677324295043945312e+00 -5.959559082984924316e-01 -1.125742420554161072e-01 -2.125590443611145020e-01 4.677838981151580811e-01
2.455000000000000000e+03 2.667817687988281250e+01 -9.016484260559082031e+00 -6.146505475044250488e-01 -2.138301730155944824e-01 -2.485442161560058594e-01 5.129165053367614746e-01
2.456000000000000000e+03 3.917233467102050781e+00 -1.210389232635498047e+01 3.905509947799146175e-05 2.223039700766094029e-05 1.838564821809995919e-05 7.111124773473420646e-07
2.457000000000000000e+03 1.603964042663574219e+01 -2.688229942321777344e+01 1.373495440930128098e-03 -4.621811094693839550e-04 2.733943110797554255e-04 3.489022128633223474e-05
2.458000000000000000e+03 4.224919128417968750e+01 -1.539248466491699219e+01 -7.705575227737426758e-01 8.685301244258880615e-02 -2.051113545894622803e-01 -4.023832082748413086e-02
2.459000000000000000e+03 4.244025039672851562e+01 -1.603600502014160156e+01 -7.560396194458007812e-01 6.423669308423995972e-02 -2.075408846139907837e-01 -6.946856528520584106e-02
2.460000000000000000e+03 4.902567672729492188e+01 -1.278502178192138672e+01 -1.127773284912109375e+00 5.986662209033966064e-02 -3.203719854354858398e-01 -2.633091509342193604e-01
2.461000000000000000e+03 1.416567897796630859e+01 -6.830002307891845703e+00 8.780894859228283167e-06 -1.156166490545729175e-06 2.287418510604766198e-06 -3.308430791548744310e-07
2.462000000000000000e+03 3.749439620971679688e+01 -1.604819297790527344e+01 -5.908812880516052246e-01 7.534363865852355957e-02 -1.546612977981567383e-01 8.239932358264923096e-02
2.463000000000000000e+03 3.042633628845214844e+01 -1.413741874694824219e+01 -4.207455813884735107e-01 -4.155890271067619324e-02 -1.386913508176803589e-01 2.763427197933197021e-01
2.464000000000000000e+03 1.245168781280517578e+01 -6.059278011322021484e+00 4.884035206487169489e-06 -1.086373231373727322e-06 1.139298660746135283e-06 1.009355173664516769e-06
2.465000000000000000e+03 1.054399299621582031e+01 -4.506340503692626953e+00 -9.395677807333413512e-06 -4.146642496039021353e-08 -2.831143319781403989e-06 2.450550482535618357e-06
2.466000000000000000e+03 2.999616241455078125e+01 8.569535255432128906e+00 7.950405031442642212e-02 -1.107055470347404480e-01 -9.360449388623237610e-03 6.452425122261047363e-01
2.467000000000000000e+03 2.970054817199707031e+01 1.082416248321533203e+01 -1.221177801489830017e-01 -1.214358061552047729e-01 -7.306607812643051147e-02 6.320666670799255371e-01
2.468000000000000000e+03 6.513842773437500000e+01 -2.310073471069335938e+01 -4.463755786418914795e-01 4.898278236389160156e+00 1.335570812225341797e+00 1.133452057838439941e+00
2.469000000000000000e+03 6.564466094970703125e+01 -2.239410209655761719e+01 -4.275505840778350830e-01 5.456621646881103516e+00 1.508721351623535156e+00 1.248247742652893066e+00
2.470000000000000000e+03 5.366583633422851562e+01 -1.026141738891601562e+01 -1.586657404899597168e+00 1.933177374303340912e-02 -4.701977074146270752e-01 -4.492078423500061035e-01
2.471000000000000000e+03 2.362439346313476562e+01 -3.158198356628417969e+01 5.424237810075283051e-03 -1.376111293211579323e-03 1.214437885209918022e-03 1.408060546964406967e-03
2.472000000000000000e+03 2.598513984680175781e+01 -7.787680625915527344e+00 -7.031685709953308105e-01 -2.527703642845153809e-01 -2.867816984653472900e-01 5.515041351318359375e-01
2.473000000000000000e+03 7.722511291503906250e+01 -3.625374221801757812e+01 -2.498012781143188477e-02 9.657901763916015625e+00 2.889876365661621094e+00 -3.835628740489482880e-03
2.474000000000000000e+03 4.294768524169921875e+01 6.626135826110839844e+00 -1.601270437240600586e-01 7.245815992355346680e-01 1.693363636732101440e-01 1.818473823368549347e-02
2.475000000000000000e+03 5.802478790283203125e+01 1.303156471252441406e+01 6.409983038902282715e-01 3.457450866699218750e+00 1.229534745216369629e+00 -6.456856131553649902e-01
2.476000000000000000e+03 5.739847946166992188e+01 1.307683944702148438e+01 6.036869883537292480e-01 3.567703008651733398e+00 1.251417040824890137e+00 -5.753068327903747559e-01
2.477000000000000000e+03 2.620104026794433594e+01 -6.785336494445800781e+00 -7.690007686614990234e-01 -1.825047582387924194e-01 -2.854516506195068359e-01 5.356515645980834961e-01
2.478000000000000000e+03 1.168928718566894531e+01 -2.110527420043945312e+01 2.081580314552411437e-04 9.523510016151703894e-06 6.530446262331679463e-05 -2.556087747507262975e-05
2.479000000000000000e+03 5.142298221588134766e+00 5.617653846740722656e+00 -1.850512176752090454e-01 -1.377976536750793457e-01 -9.685465693473815918e-02 2.029970735311508179e-01
2.480000000000000000e+03 5.779166221618652344e+00 4.748338699340820312e+00 -2.150021940469741821e-01 -1.071895286440849304e-01 -9.665751457214355469e-02 1.775610893964767456e-01
2.481000000000000000e+03 2.805326938629150391e+00 5.339074134826660156e+00 -6.811305880546569824e-02 -8.865668624639511108e-02 -4.703092202544212341e-02 8.920758962631225586e-02
2.482000000000000000e+03 3.986051321029663086e+00 4.352020740509033203e+00 -1.090294420719146729e-01 -7.584086060523986816e-02 -5.546109005808830261e-02 8.901257067918777466e-02
2.483000000000000000e+03 4.978494644165039062e+00 4.910282135009765625e+00 -1.709218174219131470e-01 -1.062825024127960205e-01 -8.316129446029663086e-02 1.545619815587997437e-01
2.484000000000000000e+03 8.123538970947265625e+00 3.847992658615112305e+00 -3.388328254222869873e-01 -1.252962648868560791e-01 -1.392387300729751587e-01 2.200602144002914429e-01
2.485000000000000000e+03 8.119775772094726562e+00 4.500345230102539062e+00 -3.669210970401763916e-01 -1.604019552469253540e-01 -1.581969112157821655e-01 2.667907476425170898e-01
2.486000000000000000e+03 8.914224624633789062e+00 4.466325283050537109e+00 -4.201442301273345947e-01 -1.986983418464660645e-01 -1.856527626514434814e-01 2.995336353778839111e-01
2.487000000000000000e+03 4.770207977294921875e+01 -1.337723159790039062e+01 -1.036423802375793457e+00 6.974676996469497681e-02 -2.900031208992004395e-01 -2.183744758367538452e-01
2.488000000000000000e+03 4.803678131103515625e+01 -1.403481006622314453e+01 -1.016897797584533691e+00 2.841582335531711578e-02 -2.965445816516876221e-01 -2.679522633552551270e-01
2.489000000000000000e+03 3.903475189208984375e+01 -1.674729728698730469e+01 -6.147592663764953613e-01 5.964051932096481323e-02 -1.665356159210205078e-01 1.217469014227390289e-02
2.490000000000000000e+03 3.965680313110351562e+01 -1.608559417724609375e+01 -6.577866077423095703e-01 8.156383782625198364e-02 -1.728668212890625000e-01 1.491952314972877502e-02
2.491000000000000000e+03 1.484306049346923828e+01 6.132931709289550781e+00 -8.039279580116271973e-01 -1.484035611152648926e+00 -6.863890886306762695e-01 7.877594232559204102e-01
2.492000000000000000e+03 7.391527652740478516e+00 -4.979672908782958984e+00 1.152828463091282174e-05 9.975261718864203431e-07 3.757743343157926574e-06 8.356265084330516402e-07
2.493000000000000000e+03 2.684997177124023438e+01 -8.029490470886230469e+00 -6.885703206062316895e-01 -1.632248610258102417e-01 -2.555385529994964600e-01 5.179510712623596191e-01
2.494000000000000000e+03 2.653030586242675781e+01 -7.422322273254394531e+00 -7.325097322463989258e-01 -1.755368411540985107e-01 -2.724139690399169922e-01 5.292946696281433105e-01
2.495000000000000000e+03 7.725491333007812500e+01 -2.899741744995117188e+01 -9.960445761680603027e-02 9.501773834228515625e+00 2.820650815963745117e+00 -2.676607966423034668e-01
2.496000000000000000e+03 7.654853820800781250e+01 -2.974032211303710938e+01 -1.257422119379043579e-01 9.305973052978515625e+00 2.754069089889526367e+00 -2.495578527450561523e-01
2.497000000000000000e+03 2.765113115310668945e+00 2.937133789062500000e+01 3.142418805509805679e-03 -1.293396830558776855e+00 -3.870763480663299561e-01 3.216602653264999390e-02
2.498000000000000000e+03 3.697113513946533203e+00 2.985807991027832031e+01 6.028787698596715927e-03 -1.216566801071166992e+00 -3.631614148616790771e-01 4.121324419975280762e-02
2.499000000000000000e+03 7.574729919433593750e+01 3.123072814941406250e+01 2.335636317729949951e-02 6.258673191070556641e+00 1.884608864784240723e+00 -1.247391253709793091e-01
2.500000000000000000e+03 7.642925262451171875e+01 3.076289367675781250e+01 1.168446429073810577e-02 6.384707927703857422e+00 1.918917775154113770e+00 -1.148941144347190857e-01
2.501000000000000000e+03 7.622592163085937500e+01 3.004392433166503906e+01 2.038310095667839050e-02 6.390961647033691406e+00 1.923403501510620117e+00 -1.247072592377662659e-01
2.502000000000000000e+03 7.720101928710937500e+01 3.057187652587890625e+01 7.330014370381832123e-03 6.506451129913330078e+00 1.954134464263916016e+00 -8.812565356492996216e-02
2.503000000000000000e+03 1.301230144500732422e+01 8.164076805114746094e+00 -6.916103363037109375e-01 -1.031234145164489746e+00 -5.168533325195312500e-01 7.050484418869018555e-01
2.504000000000000000e+03 1.329753780364990234e+01 7.192950725555419922e+00 -7.947425246238708496e-01 -1.050018310546875000e+00 -5.534282326698303223e-01 6.340197920799255371e-01
2.505000000000000000e+03 2.268295288085937500e+01 -3.403115844726562500e+01 1.777517492882907391e-03 -1.943420036695897579e-03 -4.977079515811055899e-05 2.969841705635190010e-03
2.506000000000000000e+03 1.112658309936523438e+01 -2.050610923767089844e+01 1.170372415799647570e-04 -6.013442180119454861e-05 1.707084629742894322e-05 -2.052755917247850448e-05
2.507000000000000000e+03 1.122970485687255859e+01 -2.166193008422851562e+01 2.163939498132094741e-04 -7.759201980661600828e-05 4.164057827438227832e-05 -2.063081183223403059e-06
2.508000000000000000e+03 5.300900268554687500e+01 -1.065092182159423828e+01 -1.510797023773193359e+00 1.335739623755216599e-02 -4.492318928241729736e-01 -4.157597422599792480e-01
2.509000000000000000e+03 5.326712036132812500e+01 -9.686874389648437500e+00 -1.559522271156311035e+00 9.248826652765274048e-02 -4.401102066040039062e-01 -3.324778079986572266e-01
2.510000000000000000e+03 7.583984375000000000e+01 -3.026912307739257812e+01 -1.719255149364471436e-01 9.085278511047363281e+00 2.674005746841430664e+00 -2.198839634656906128e-01
2.511000000000000000e+03 7.704771423339843750e+01 -3.139756965637207031e+01 -9.451299905776977539e-02 9.513789176940917969e+00 2.825783014297485352e+00 -1.394201815128326416e-01
2.512000000000000000e+03 4.022293567657470703e+00 -2.849734687805175781e+01 1.068115743692032993e-04 1.984773116419091821e-04 9.158666944131255150e-05 2.888470771722495556e-04
2.513000000000000000e+03 1.261743068695068359e+01 1.201968765258789062e+01 1.480865031480789185e-01 -6.438112258911132812e-01 -1.487174183130264282e-01 6.782397031784057617e-01
2.514000000000000000e+03 7.742236328125000000e+01 -2.184025001525878906e+01 -1.515308022499084473e-01 8.582876205444335938e+00 2.529403686523437500e+00 -9.276923537254333496e-01
2.515000000000000000e+03 7.658019256591796875e+01 -2.339265060424804688e+01 -2.420797049999237061e-01 8.874490737915039062e+00 2.589723348617553711e+00 -8.872623443603515625e-01
2.516000000000000000e+03 7.630974578857421875e+01 2.441820335388183594e+01 2.651197463274002075e-02 6.614698410034179688e+00 1.992363095283508301e+00 -1.934369951486587524e-01
2.517000000000000000e+03 4.265882015228271484e+00 3.136241531372070312e+01 6.619059015065431595e-03 -1.184399366378784180e+00 -3.533340990543365479e-01 4.505780339241027832e-02
2.518000000000000000e+03 7.648537445068359375e+01 -2.498908805847167969e+01 -2.563028931617736816e-01 9.030018806457519531e+00 2.632114648818969727e+00 -6.994301080703735352e-01
2.519000000000000000e+03 7.732994079589843750e+01 -2.426329803466796875e+01 -1.633450835943222046e-01 9.032245635986328125e+00 2.660670042037963867e+00 -6.878216862678527832e-01
2.520000000000000000e+03 7.665554046630859375e+01 2.129958724975585938e+01 2.478248625993728638e-02 6.835361003875732422e+00 2.058043003082275391e+00 -2.186257988214492798e-01
2.521000000000000000e+03 7.723921966552734375e+01 2.370935440063476562e+01 1.739793270826339722e-02 6.798847198486328125e+00 2.044873476028442383e+00 -1.562072783708572388e-01
2.522000000000000000e+03 3.411756992340087891e+00 -3.003101158142089844e+01 1.864241785369813442e-04 3.800452104769647121e-04 1.699408167041838169e-04 2.754618762992322445e-04
2.523000000000000000e+03 7.666735076904296875e+01 1.738441658020019531e+01 2.535098046064376831e-02 7.092804908752441406e+00 2.135446786880493164e+00 -2.756813168525695801e-01
2.524000000000000000e+03 7.671309661865234375e+01 1.498912239074707031e+01 1.933612115681171417e-02 7.285653114318847656e+00 2.191496849060058594e+00 -3.039407730102539062e-01
2.525000000000000000e+03 5.867232131958007812e+01 -7.961032867431640625e+00 -2.435967206954956055e+00 -1.792177259922027588e-01 -7.845554947853088379e-01 -7.724035382270812988e-01
2.526000000000000000e+03 7.675872039794921875e+01 1.019036579132080078e+01 -2.599222771823406219e-02 7.708511829376220703e+00 2.304755926132202148e+00 -3.069078922271728516e-01
2.527000000000000000e+03 7.674816894531250000e+01 1.099175357818603516e+01 -1.459534745663404465e-02 7.634853363037109375e+00 2.286077260971069336e+00 -3.180831372737884521e-01
2.528000000000000000e+03 7.750079345703125000e+01 -1.468508911132812500e+01 2.362538427114486694e-01 6.658179759979248047e+00 2.068330049514770508e+00 -9.092504978179931641e-01
2.529000000000000000e+03 7.678256988525390625e+01 -1.628806304931640625e+01 1.867837905883789062e-01 7.612926483154296875e+00 2.339913129806518555e+00 -1.289196968078613281e+00
2.530000000000000000e+03 7.678101348876953125e+01 7.777307510375976562e+00 -7.313372194766998291e-02 7.917827606201171875e+00 2.353408098220825195e+00 -2.493071109056472778e-01
2.531000000000000000e+03 7.747975158691406250e+01 9.363198280334472656e+00 -2.669882588088512421e-02 7.964436531066894531e+00 2.381321191787719727e+00 -2.310024797916412354e-01
2.532000000000000000e+03 7.748456573486328125e+01 8.558402061462402344e+00 -3.704061359167098999e-02 8.033673286437988281e+00 2.398989915847778320e+00 -2.155847847461700439e-01
2.533000000000000000e+03 7.606126403808593750e+01 9.430942535400390625e+00 -5.281066894531250000e-02 7.599528312683105469e+00 2.264015436172485352e+00 -3.543679118156433105e-01
2.534000000000000000e+03 7.679199981689453125e+01 -1.789756393432617188e+01 -4.719368182122707367e-03 7.928796291351318359e+00 2.377223014831542969e+00 -1.332990407943725586e+00
2.535000000000000000e+03 7.679226684570312500e+01 2.906790018081665039e+00 -2.377214580774307251e-01 8.222973823547363281e+00 2.395575761795043945e+00 1.242543086409568787e-01
2.536000000000000000e+03 7.677758026123046875e+01 1.268847823143005371e+00 -2.881707549095153809e-01 8.246560096740722656e+00 2.387516736984252930e+00 3.472900986671447754e-01
2.537000000000000000e+03 7.680941009521484375e+01 4.448673129081726074e-01 -3.139785528182983398e-01 8.251059532165527344e+00 2.381124258041381836e+00 4.756820797920227051e-01
2.538000000000000000e+03 7.684471130371093750e+01 -3.539690256118774414e+00 -2.276011258363723755e-01 7.922565937042236328e+00 2.308489561080932617e+00 1.134354114532470703e+00
2.539000000000000000e+03 7.693138885498046875e+01 -5.846191406250000000e+00 8.123602718114852905e-02 7.462664127349853516e+00 2.263170003890991211e+00 1.239902615547180176e+00
2.540000000000000000e+03 7.686994934082031250e+01 -7.324844360351562500e+00 3.077826201915740967e-01 7.208024978637695312e+00 2.254742383956909180e+00 1.108733057975769043e+00
2.541000000000000000e+03 7.692484283447265625e+01 -6.582168579101562500e+00 1.715388298034667969e-01 7.299289703369140625e+00 2.241248607635498047e+00 1.192099452018737793e+00
2.542000000000000000e+03 7.675184631347656250e+01 -8.108203887939453125e+00 4.588571488857269287e-01 7.184163570404052734e+00 2.292906045913696289e+00 9.727009534835815430e-01
2.543000000000000000e+03 7.678230285644531250e+01 -1.062900543212890625e+01 6.866115331649780273e-01 6.904339790344238281e+00 2.277285337448120117e+00 1.837319433689117432e-01
2.544000000000000000e+03 7.710210418701171875e+01 2.978396987915039062e+01 1.439339295029640198e-02 6.515593051910400391e+00 1.958995938301086426e+00 -1.009700149297714233e-01
2.545000000000000000e+03 7.598779296875000000e+01 2.825501441955566406e+01 2.734779007732868195e-02 6.402384281158447266e+00 1.928919672966003418e+00 -1.551567167043685913e-01
2.546000000000000000e+03 7.676089477539062500e+01 -1.217880535125732422e+01 6.266381740570068359e-01 6.975587368011474609e+00 2.280667781829833984e+00 -3.768730163574218750e-01
2.547000000000000000e+03 7.748709869384765625e+01 -1.061713981628417969e+01 4.760582447052001953e-01 6.236359119415283203e+00 2.013725280761718750e+00 1.638567447662353516e-01
2.548000000000000000e+03 7.676524353027343750e+01 -1.547510910034179688e+01 2.733050584793090820e-01 7.426512718200683594e+00 2.309945344924926758e+00 -1.184835076332092285e+00
2.549000000000000000e+03 7.750203704833984375e+01 -1.306001377105712891e+01 3.848299384117126465e-01 6.354551792144775391e+00 2.021814584732055664e+00 -5.671934485435485840e-01
2.550000000000000000e+03 7.681665802001953125e+01 -1.304885005950927734e+01 5.800133943557739258e-01 7.029722690582275391e+00 2.282920837402343750e+00 -6.594083905220031738e-01
2.551000000000000000e+03 7.683770751953125000e+01 -3.666597604751586914e-01 -3.268666267395019531e-01 8.220021247863769531e+00 2.367946624755859375e+00 6.161376237869262695e-01
2.552000000000000000e+03 7.757004547119140625e+01 -5.076316833496093750e+00 -2.163684926927089691e-02 7.224149703979492188e+00 2.160753965377807617e+00 1.088966608047485352e+00
2.553000000000000000e+03 7.621688079833984375e+01 -4.364480018615722656e+00 -2.056550830602645874e-01 8.147443771362304688e+00 2.382536649703979492e+00 1.311879158020019531e+00
2.554000000000000000e+03 7.687695312500000000e+01 -4.315567016601562500e+00 -1.238624230027198792e-01 7.782205581665039062e+00 2.297502994537353516e+00 1.205488324165344238e+00
2.555000000000000000e+03 7.678390502929687500e+01 6.968813419342041016e+00 -9.424515813589096069e-02 7.984170913696289062e+00 2.366977691650390625e+00 -2.110236585140228271e-01
2.556000000000000000e+03 7.679029846191406250e+01 -1.868102645874023438e+01 -7.274718582630157471e-02 8.087880134582519531e+00 2.404539823532104492e+00 -1.319413781166076660e+00
2.557000000000000000e+03 7.750122833251953125e+01 -1.789335632324218750e+01 -3.993671387434005737e-03 7.533679008483886719e+00 2.258905649185180664e+00 -1.158678174018859863e+00
2.558000000000000000e+03 7.749470520019531250e+01 2.101470232009887695e+00 -1.702534109354019165e-01 8.310955047607421875e+00 2.442210435867309570e+00 2.283253669738769531e-01
2.559000000000000000e+03 7.603703308105468750e+01 2.098618507385253906e+00 -3.633200526237487793e-01 8.186533927917480469e+00 2.346964120864868164e+00 2.001290321350097656e-01
2.560000000000000000e+03 7.680664825439453125e+01 3.712769031524658203e+00 -2.060417681932449341e-01 8.196509361267089844e+00 2.397140264511108398e+00 3.314793482422828674e-02
2.561000000000000000e+03 7.662981414794921875e+01 -2.257724952697753906e+01 -2.434450387954711914e-01 8.779491424560546875e+00 2.560813903808593750e+00 -9.831013679504394531e-01
2.562000000000000000e+03 7.747708129882812500e+01 -2.025717735290527344e+01 -1.163172796368598938e-01 8.198002815246582031e+00 2.424505710601806641e+00 -1.058443546295166016e+00
2.563000000000000000e+03 7.676201629638671875e+01 -2.021922302246093750e+01 -1.681493073701858521e-01 8.386000633239746094e+00 2.465355396270751953e+00 -1.214240789413452148e+00
2.564000000000000000e+03 7.672282409667968750e+01 1.419251632690429688e+01 1.428220607340335846e-02 7.353135108947753906e+00 2.210225105285644531e+00 -3.127508163452148438e-01
2.565000000000000000e+03 7.676908874511718750e+01 9.390461921691894531e+00 -3.951269015669822693e-02 7.779182910919189453e+00 2.321901082992553711e+00 -2.959299385547637939e-01
2.566000000000000000e+03 7.741555023193359375e+01 1.657310867309570312e+01 1.411694847047328949e-02 7.307806015014648438e+00 2.196576833724975586e+00 -2.296152412891387939e-01
2.567000000000000000e+03 7.528762054443359375e+01 1.582305526733398438e+01 4.243423044681549072e-02 6.907940387725830078e+00 2.085112333297729492e+00 -3.992256820201873779e-01
2.568000000000000000e+03 7.677089691162109375e+01 -1.467001152038574219e+01 3.698054254055023193e-01 7.296476840972900391e+00 2.299884557723999023e+00 -1.050146579742431641e+00
2.569000000000000000e+03 7.731408691406250000e+01 2.290425682067871094e+01 1.554624829441308975e-02 6.856159687042236328e+00 2.061511754989624023e+00 -1.608823090791702271e-01
2.570000000000000000e+03 7.657134246826171875e+01 2.282456779479980469e+01 2.610932104289531708e-02 6.735118865966796875e+00 2.028368473052978516e+00 -2.029068470001220703e-01
2.571000000000000000e+03 7.646598052978515625e+01 2.360232162475585938e+01 2.776141278445720673e-02 6.679416179656982422e+00 2.012153387069702148e+00 -1.946788430213928223e-01
2.572000000000000000e+03 7.665184020996093750e+01 1.817987060546875000e+01 2.739339694380760193e-02 7.034783840179443359e+00 2.118653297424316406e+00 -2.652203142642974854e-01
2.573000000000000000e+03 7.562544250488281250e+01 -8.392494201660156250e+00 7.833734154701232910e-01 8.019756317138671875e+00 2.640938997268676758e+00 1.049879193305969238e+00
2.574000000000000000e+03 7.646581268310546875e+01 -2.897513771057128906e+01 -1.615702807903289795e-01 9.256065368652343750e+00 2.728348493576049805e+00 -3.041262030601501465e-01
2.575000000000000000e+03 7.669733428955078125e+01 -8.952285766601562500e+00 6.208932995796203613e-01 7.123784065246582031e+00 2.323403358459472656e+00 7.686637043952941895e-01
2.576000000000000000e+03 7.670377349853515625e+01 -9.825595855712890625e+00 6.933549642562866211e-01 7.017071723937988281e+00 2.313127994537353516e+00 4.434539675712585449e-01
2.577000000000000000e+03 7.640168762207031250e+01 -2.655889892578125000e+01 -2.303448915481567383e-01 9.124225616455078125e+00 2.668164253234863281e+00 -5.373375415802001953e-01
2.578000000000000000e+03 7.587809753417968750e+01 -2.248931121826171875e+01 -3.299733698368072510e-01 8.821157455444335938e+00 2.547355175018310547e+00 -1.070313453674316406e+00
2.579000000000000000e+03 7.682710266113281250e+01 -2.764960050582885742e+00 -2.687298059463500977e-01 8.030249595642089844e+00 2.328455924987792969e+00 1.017840743064880371e+00
2.580000000000000000e+03 7.743816375732421875e+01 3.433130264282226562e+01 4.770913161337375641e-03 6.447128295898437500e+00 1.935569763183593750e+00 -6.301126629114151001e-02
2.581000000000000000e+03 7.667784118652343750e+01 -2.177449607849121094e+01 -2.229749113321304321e-01 8.655789375305175781e+00 2.529844522476196289e+00 -1.064925193786621094e+00
2.582000000000000000e+03 7.683985900878906250e+01 -1.170189142227172852e+00 -3.228495419025421143e-01 8.186076164245605469e+00 2.358968019485473633e+00 7.591579556465148926e-01
2.583000000000000000e+03 7.682843017578125000e+01 -1.972649693489074707e+00 -3.069499433040618896e-01 8.107846260070800781e+00 2.340268850326538086e+00 9.034664630889892578e-01
2.584000000000000000e+03 7.680283355712890625e+01 4.523838520050048828e+00 -1.695253401994705200e-01 8.147539138793945312e+00 2.393404006958007812e+00 -5.132873728871345520e-02
2.585000000000000000e+03 7.681069183349609375e+01 3.888002395629882812e+01 2.356165461242198944e-02 6.287217140197753906e+00 1.893233656883239746e+00 -4.158442094922065735e-02
2.586000000000000000e+03 7.544306945800781250e+01 3.621087646484375000e+01 1.462428271770477295e-02 6.124502182006835938e+00 1.841737866401672363e+00 -6.790941208600997925e-02
2.587000000000000000e+03 7.599975585937500000e+01 -1.548852634429931641e+01 4.025258123874664307e-01 8.068599700927734375e+00 2.541337728500366211e+00 -1.316834330558776855e+00
2.588000000000000000e+03 7.694132995605468750e+01 -3.385124588012695312e+01 -6.543158739805221558e-02 9.486534118652343750e+00 2.826330661773681641e+00 -5.443033948540687561e-02
2.589000000000000000e+03 7.655422210693359375e+01 -3.643286514282226562e+01 -4.593371227383613586e-02 9.342599868774414062e+00 2.789000034332275391e+00 4.276278894394636154e-03
2.590000000000000000e+03 7.576128387451171875e+01 -3.300703048706054688e+01 -9.614104777574539185e-02 9.026276588439941406e+00 2.679040670394897461e+00 -7.544298470020294189e-02
2.591000000000000000e+03 7.522736358642578125e+01 -3.433784484863281250e+01 -7.950369268655776978e-02 8.800304412841796875e+00 2.616240262985229492e+00 -2.899561822414398193e-02
2.592000000000000000e+03 7.678953552246093750e+01 -1.709775543212890625e+01 6.637502461671829224e-02 7.768586158752441406e+00 2.350488185882568359e+00 -1.324506521224975586e+00
2.593000000000000000e+03 7.678652191162109375e+01 6.157469749450683594e+00 -1.167663186788558960e-01 8.044837951660156250e+00 2.378421306610107422e+00 -1.693077981472015381e-01
2.594000000000000000e+03 7.679288482666015625e+01 5.340278625488281250e+00 -1.394179016351699829e-01 8.100609779357910156e+00 2.388357639312744141e+00 -1.093232855200767517e-01
2.595000000000000000e+03 7.646085357666015625e+01 3.143314170837402344e+01 1.269671320915222168e-02 6.366376399993896484e+00 1.913721919059753418e+00 -1.005765497684478760e-01
2.596000000000000000e+03 7.674030303955078125e+01 1.179504013061523438e+01 -4.110095556825399399e-03 7.563768386840820312e+00 2.267897605895996094e+00 -3.198257982730865479e-01
2.597000000000000000e+03 7.664234161376953125e+01 1.975915145874023438e+01 2.717463485896587372e-02 6.929828643798828125e+00 2.087100982666015625e+00 -2.416376173496246338e-01
2.598000000000000000e+03 1.511472129821777344e+01 -2.566776847839355469e+01 1.055008498951792717e-03 -2.442433615215122700e-04 2.432295441394671798e-04 -2.243943890789523721e-04
2.599000000000000000e+03 7.672984313964843750e+01 1.339568710327148438e+01 1.035695336759090424e-02 7.422872543334960938e+00 2.229969024658203125e+00 -3.165179491043090820e-01
2.600000000000000000e+03 7.673492431640625000e+01 1.259654521942138672e+01 3.402309957891702652e-03 7.491845607757568359e+00 2.248574256896972656e+00 -3.215811252593994141e-01
2.601000000000000000e+03 2.592086791992187500e+00 2.224392127990722656e+01 2.318159863352775574e-02 -1.159541964530944824e+00 -3.409081101417541504e-01 8.887435495853424072e-02
2.602000000000000000e+03 3.375329971313476562e+00 2.291124916076660156e+01 3.304325789213180542e-02 -1.109158515930175781e+00 -3.228345513343811035e-01 1.011919304728507996e-01
2.603000000000000000e+03 3.483960628509521484e+00 -2.557945823669433594e+01 1.722292654449120164e-04 1.446756068617105484e-04 9.507146023679524660e-05 1.250927452929317951e-04
2.604000000000000000e+03 3.352176666259765625e+00 -2.386979866027832031e+01 1.558615331305190921e-04 8.702256309334188700e-05 7.286523032234981656e-05 5.483315180754289031e-05
2.605000000000000000e+03 7.640190887451171875e+01 -2.735718345642089844e+01 -2.224291563034057617e-01 9.171896934509277344e+00 2.684840202331542969e+00 -4.534519612789154053e-01
2.606000000000000000e+03 3.483811140060424805e+00 2.460569190979003906e+01 2.406413853168487549e-02 -1.145215392112731934e+00 -3.363453745841979980e-01 7.859633117914199829e-02
2.607000000000000000e+03 7.664888000488281250e+01 2.053681373596191406e+01 2.543142437934875488e-02 6.880825996398925781e+00 2.071877241134643555e+00 -2.308098077774047852e-01
2.608000000000000000e+03 1.455964183807373047e+01 -2.515782165527343750e+01 9.785364381968975067e-04 -2.670791000127792358e-04 2.134372189175337553e-04 9.363681601826101542e-05
2.609000000000000000e+03 3.144709348678588867e+00 -2.139478111267089844e+01 -6.684167601633816957e-05 1.677829277468845248e-05 -1.501901442679809406e-05 5.811443043057806790e-05
2.610000000000000000e+03 3.277433633804321289e+00 -2.303396797180175781e+01 -5.121407593833282590e-05 3.177002508891746402e-05 -5.833215254824608564e-06 1.026985264616087079e-04
2.611000000000000000e+03 7.654248809814453125e+01 -2.420196342468261719e+01 -2.592615485191345215e-01 8.962749481201171875e+00 2.611046314239501953e+00 -8.020114898681640625e-01
2.612000000000000000e+03 1.339999008178710938e+01 -2.405940437316894531e+01 7.053122390061616898e-04 -2.203660988016054034e-04 1.454838493373245001e-04 -7.297956926777260378e-06
2.613000000000000000e+03 2.538626194000244141e+00 1.499615001678466797e+01 2.429223619401454926e-02 -7.776064276695251465e-01 -2.259942442178726196e-01 2.380228340625762939e-01
2.614000000000000000e+03 3.291706323623657227e+00 1.564521789550781250e+01 4.531516879796981812e-02 -7.980518341064453125e-01 -2.258210033178329468e-01 2.783551812171936035e-01
2.615000000000000000e+03 3.277332305908203125e+00 1.809651184082031250e+01 5.215674638748168945e-02 -9.384622573852539062e-01 -2.658916711807250977e-01 2.114373147487640381e-01
2.616000000000000000e+03 3.369241476058959961e+00 -7.830856323242187500e+00 -2.946673885162454098e-05 -9.622941433917731047e-06 -1.172690372186480090e-05 1.397105006617493927e-05
2.617000000000000000e+03 4.370123863220214844e+00 -1.467014598846435547e+01 -5.426129428087733686e-05 -7.574212759209331125e-06 -1.855065238487441093e-05 2.854828380804974586e-05
2.618000000000000000e+03 2.368378639221191406e+00 -1.817677879333496094e+01 1.002186036203056574e-04 -5.870398126717191190e-06 2.830446101143024862e-05 -2.342226434848271310e-05
2.619000000000000000e+03 3.118326663970947266e+00 -1.675192070007324219e+01 -8.951270137913525105e-05 3.813370028638018994e-07 -2.673940980457700789e-05 6.337312470350298099e-07
2.620000000000000000e+03 2.483447074890136719e+00 -1.418411064147949219e+01 -6.556405423907563090e-05 -2.194504759245319292e-06 -2.032756674452684820e-05 -4.457133854884887114e-06
2.621000000000000000e+03 6.918573856353759766e+00 -1.291018676757812500e+01 -4.975029150955379009e-05 -2.278883221151772887e-05 -2.176173802581615746e-05 1.192540730698965490e-05
2.622000000000000000e+03 3.253520488739013672e+00 -1.116894626617431641e+01 3.533494236762635410e-05 1.257110398000804707e-05 1.437181344954296947e-05 -6.518994268844835460e-06
2.623000000000000000e+03 2.479067564010620117e+00 -1.179418182373046875e+01 4.527019700617529452e-05 6.807069894421147183e-06 1.562317993375472724e-05 -2.627918547659646720e-06
2.624000000000000000e+03 2.582395076751708984e+00 8.629309654235839844e+00 -4.696073383092880249e-02 -2.616655826568603516e-01 -9.258789569139480591e-02 2.037509381771087646e-01
2.625000000000000000e+03 3.252137422561645508e+00 1.328815364837646484e+01 1.696637831628322601e-02 -6.322884559631347656e-01 -1.845966279506683350e-01 3.158895373344421387e-01
2.626000000000000000e+03 3.385450839996337891e+00 -6.262056350708007812e+00 1.912165998874115758e-06 -1.035586956277256832e-05 -2.533111000957433134e-06 -8.278458807353672455e-08
2.627000000000000000e+03 2.680939674377441406e+00 -5.661664009094238281e+00 -3.932159415853675455e-06 -7.381823706964496523e-06 -3.394194891370716505e-06 -3.067699481107410975e-06
2.628000000000000000e+03 2.498999595642089844e+00 1.185092735290527344e+01 -6.930041126906871796e-03 -5.194608569145202637e-01 -1.579172760248184204e-01 2.593710124492645264e-01
2.629000000000000000e+03 3.222224235534667969e+00 1.252234840393066406e+01 2.763931639492511749e-03 -5.740017890930175781e-01 -1.713713556528091431e-01 3.179610967636108398e-01
2.630000000000000000e+03 3.200569868087768555e+00 1.175920104980468750e+01 -9.443430230021476746e-03 -5.149841308593750000e-01 -1.573282778263092041e-01 3.158406019210815430e-01
2.631000000000000000e+03 3.212395191192626953e+00 -1.425512504577636719e+01 6.434363604057580233e-05 -5.133455942996079102e-06 1.776305362000130117e-05 1.758381131367059425e-06
2.632000000000000000e+03 3.266740560531616211e+00 -1.511181545257568359e+01 -8.261337643489241600e-05 -2.657178811205085367e-06 -2.558116648287978023e-05 -4.724438440462108701e-06
2.633000000000000000e+03 2.372910261154174805e+00 -1.895164299011230469e+01 -9.212391159962862730e-05 2.762380063359159976e-06 -2.680845864233560860e-05 1.473202155466424301e-05
2.634000000000000000e+03 3.543040513992309570e+00 -1.900177574157714844e+01 -1.084296454791910946e-04 4.106964843231253326e-05 -2.020799911406356841e-05 2.676070653251372278e-05
2.635000000000000000e+03 3.270203828811645508e+00 2.051455307006835938e+01 4.460737481713294983e-02 -1.043482661247253418e+00 -2.996625900268554688e-01 1.458356380462646484e-01
2.636000000000000000e+03 3.292628288269042969e+00 1.728664398193359375e+01 5.132591724395751953e-02 -8.948013782501220703e-01 -2.530426383018493652e-01 2.345671206712722778e-01
2.637000000000000000e+03 3.185483217239379883e+00 -1.192636680603027344e+01 -4.617758895619772375e-05 -1.353940660919761285e-05 -1.791509748727548867e-05 -5.719053206121316180e-06
2.638000000000000000e+03 3.323004245758056641e+00 -1.040115928649902344e+01 -3.865099643007852137e-05 -8.269925274362321943e-06 -1.407627587468596175e-05 6.132547241577412933e-06
2.639000000000000000e+03 2.407105922698974609e+00 -1.973596000671386719e+01 1.066364784492179751e-04 -8.127997261908603832e-07 3.174710218445397913e-05 -2.550241697463206947e-05
2.640000000000000000e+03 4.301712512969970703e+00 -1.949764251708984375e+01 -3.639402711996808648e-05 3.800285412580706179e-05 4.826478630093333777e-07 -7.731166078883688897e-06
2.641000000000000000e+03 3.775672197341918945e+00 -1.281681346893310547e+01 -4.959173020324669778e-05 -1.462743148294975981e-05 -1.926574805111158639e-05 -9.583722203387878835e-06
2.642000000000000000e+03 4.070388793945312500e+00 -1.537906265258789062e+01 5.953232903266325593e-05 2.708954889385495335e-05 2.598656465124804527e-05 -2.870519710995722562e-05
2.643000000000000000e+03 3.202246904373168945e+00 -2.869246292114257812e+01 1.708423515083268285e-04 2.641142054926604033e-04 1.304869656451046467e-04 2.193599939346313477e-04
2.644000000000000000e+03 3.363931417465209961e+00 2.841438293457031250e+01 5.901641678065061569e-03 -1.224624395370483398e+00 -3.656168282032012939e-01 4.599845036864280701e-02
2.645000000000000000e+03 3.275070905685424805e+00 2.770646286010742188e+01 8.754041045904159546e-03 -1.220865726470947266e+00 -3.636335134506225586e-01 4.724820330739021301e-02
2.646000000000000000e+03 2.653468132019042969e+00 -2.464997100830078125e+01 1.293194654863327742e-04 1.044364689732901752e-04 7.012677815509960055e-05 6.737535295542329550e-05
2.647000000000000000e+03 3.763512849807739258e+00 -2.142551040649414062e+01 1.581051765242591500e-04 3.273266338510438800e-05 5.725135270040482283e-05 -7.093695330695481971e-06
2.648000000000000000e+03 3.533167600631713867e+00 -2.644731903076171875e+01 -6.808864327467745170e-06 1.211912458529695868e-04 3.431471486692316830e-05 2.271923440275713801e-04
2.649000000000000000e+03 3.421989440917968750e+00 -2.472054672241210938e+01 -2.612358184705954045e-05 6.334183126455172896e-05 1.116547446144977584e-05 1.557101059006527066e-04
2.650000000000000000e+03 7.593496704101562500e+01 2.731105995178222656e+01 3.034593164920806885e-02 6.424993515014648438e+00 1.936601877212524414e+00 -1.680061221122741699e-01
2.651000000000000000e+03 3.255899429321289062e+00 1.019066715240478516e+01 -4.245272651314735413e-02 -3.905456066131591797e-01 -1.298995018005371094e-01 2.981030344963073730e-01
2.652000000000000000e+03 4.137324810028076172e+00 8.566833496093750000e+00 -1.106725111603736877e-01 -2.842987477779388428e-01 -1.184913739562034607e-01 3.072746694087982178e-01
2.653000000000000000e+03 3.365906238555908203e+00 8.531764030456542969e+00 -7.685465365648269653e-02 -2.724022269248962402e-01 -1.047770604491233826e-01 2.554183006286621094e-01
2.654000000000000000e+03 3.310822248458862305e+00 9.381041526794433594e+00 -6.076283007860183716e-02 -3.338961601257324219e-01 -1.183976978063583374e-01 2.827769219875335693e-01
2.655000000000000000e+03 3.299779176712036133e+00 2.131070899963378906e+01 4.033757373690605164e-02 -1.068239808082580566e+00 -3.083706498146057129e-01 1.289071887731552124e-01
2.656000000000000000e+03 2.570297718048095703e+00 2.144579505920410156e+01 2.551940642297267914e-02 -1.134611368179321289e+00 -3.327276110649108887e-01 1.014664918184280396e-01
2.657000000000000000e+03 3.663959980010986328e+00 -8.924852371215820312e+00 -3.301049582660198212e-05 -1.111551682697609067e-05 -1.323780361417448148e-05 5.586664428847143427e-06
2.658000000000000000e+03 3.948146581649780273e+00 -7.263080120086669922e+00 1.710556352918501943e-05 1.477899058954790235e-05 9.565365871821995825e-06 -1.549157059343997389e-05
2.659000000000000000e+03 3.108048915863037109e+00 -2.056458473205566406e+01 1.140455788117833436e-04 2.250177021778654307e-05 4.096420525456778705e-05 -2.055366530839819461e-05
2.660000000000000000e+03 3.053514957427978516e+00 -1.975755691528320312e+01 -8.817514026304706931e-05 1.528179927845485508e-05 -2.186800338677130640e-05 3.939117959816940129e-05
2.661000000000000000e+03 2.812467813491821289e+00 -3.165085983276367188e+01 -6.799683615099638700e-05 5.051686894148588181e-04 1.311515516135841608e-04 3.501818573568016291e-04
2.662000000000000000e+03 3.241441011428833008e+00 -2.930900382995605469e+01 -9.111098916037008166e-05 3.474121040198951960e-04 7.689034100621938705e-05 3.322281700093299150e-04
2.663000000000000000e+03 3.794360876083374023e+00 -3.411053085327148438e+01 -1.180120962089858949e-04 6.448343046940863132e-04 1.580466632731258869e-04 3.526548971422016621e-04
2.664000000000000000e+03 4.719635486602783203e+00 -2.981794738769531250e+01 2.584072353783994913e-04 2.985462488140910864e-04 1.670860510785132647e-04 4.468183906283229589e-04
2.665000000000000000e+03 4.289098262786865234e+00 3.452532196044921875e+01 5.914592184126377106e-03 -1.212013125419616699e+00 -3.618295788764953613e-01 3.302359208464622498e-02
2.666000000000000000e+03 4.450280189514160156e+00 2.952019119262695312e+01 1.298986282199621201e-02 -1.142039895057678223e+00 -3.387149870395660400e-01 5.691114440560340881e-02
2.667000000000000000e+03 4.145502090454101562e+00 3.360776901245117188e+01 6.186524871736764908e-03 -1.217076063156127930e+00 -3.632668554782867432e-01 3.420053422451019287e-02
2.668000000000000000e+03 3.294319629669189453e+00 1.646098136901855469e+01 4.956523329019546509e-02 -8.483431935310363770e-01 -2.396333813667297363e-01 2.566326260566711426e-01
2.669000000000000000e+03 3.477048158645629883e+00 5.587507247924804688e+00 -9.827683120965957642e-02 -1.117260605096817017e-01 -6.300086528062820435e-02 1.240812391042709351e-01
2.670000000000000000e+03 3.240802526473999023e+00 6.936637878417968750e+00 -8.465807884931564331e-02 -1.704094558954238892e-01 -7.652026414871215820e-02 1.767445951700210571e-01
2.671000000000000000e+03 2.659265995025634766e+00 2.860515785217285156e+01 4.035180900245904922e-03 -1.292212486267089844e+00 -3.864531815052032471e-01 3.427184373140335083e-02
2.672000000000000000e+03 4.128049850463867188e+00 2.275670814514160156e+01 4.741664230823516846e-02 -1.040193915367126465e+00 -2.978331744670867920e-01 1.225384473800659180e-01
2.673000000000000000e+03 3.549864530563354492e+00 -2.731238937377929688e+01 1.679761335253715515e-04 2.327299298485741019e-04 1.202118146466091275e-04 2.077615936286747456e-04
2.674000000000000000e+03 3.433557987213134766e+00 2.375511932373046875e+01 3.012724220752716064e-02 -1.125340223312377930e+00 -3.285638689994812012e-01 8.958650380373001099e-02
2.675000000000000000e+03 7.709313201904296875e+01 -3.548477554321289062e+01 -2.778955921530723572e-02 9.599522590637207031e+00 2.871519804000854492e+00 -4.239737987518310547e-03
2.676000000000000000e+03 1.397964668273925781e+01 -2.463147926330566406e+01 6.846596952527761459e-04 -7.714714593021199107e-05 1.822537597035989165e-04 -1.437694882042706013e-04
2.677000000000000000e+03 1.560387325286865234e+01 -2.623127937316894531e+01 1.408698852173984051e-03 -2.148336207028478384e-04 3.581595956347882748e-04 7.544859545305371284e-05
2.678000000000000000e+03 7.644738006591796875e+01 -3.047129821777343750e+01 -1.330583989620208740e-01 9.285511016845703125e+00 2.745735883712768555e+00 -1.974987834692001343e-01
2.679000000000000000e+03 3.732764720916748047e+00 -3.245380401611328125e+01 -5.329776831786148250e-05 4.990715533494949341e-04 1.337321300525218248e-04 4.221702110953629017e-04
2.680000000000000000e+03 4.167245388031005859e+00 3.549101638793945312e+01 8.247394114732742310e-03 -1.225388169288635254e+00 -3.651422262191772461e-01 3.099908120930194855e-02
2.681000000000000000e+03 4.066039085388183594e+00 3.747314834594726562e+01 1.322011277079582214e-02 -1.263235330581665039e+00 -3.750045895576477051e-01 2.390302903950214386e-02
2.682000000000000000e+03 3.011943817138671875e+00 3.647769927978515625e+01 1.162185426801443100e-02 -1.340470314025878906e+00 -3.986545205116271973e-01 1.948444359004497528e-02
2.683000000000000000e+03 5.498143386840820312e+01 -9.461395263671875000e+00 -1.775379061698913574e+00 1.184112764894962311e-02 -5.290613770484924316e-01 -4.885305464267730713e-01
2.684000000000000000e+03 1.335179996490478516e+01 1.492883205413818359e+01 6.311877965927124023e-01 -3.233210146427154541e-01 9.236002713441848755e-02 4.625610411167144775e-01
2.685000000000000000e+03 7.619783020019531250e+01 3.523007583618164062e+01 1.256669778376817703e-02 6.255420207977294922e+00 1.880396127700805664e+00 -8.118776232004165649e-02
2.686000000000000000e+03 7.650271606445312500e+01 3.395905685424804688e+01 1.472794357687234879e-02 6.322875499725341797e+00 1.901281118392944336e+00 -8.609008789062500000e-02
2.687000000000000000e+03 7.633724212646484375e+01 3.223647308349609375e+01 1.727792806923389435e-02 6.346627235412597656e+00 1.909171581268310547e+00 -9.351105242967605591e-02
2.688000000000000000e+03 3.943816423416137695e+00 3.059460067749023438e+01 2.243670867756009102e-03 -1.204821348190307617e+00 -3.607732951641082764e-01 4.345280677080154419e-02
2.689000000000000000e+03 2.583698081970214844e+01 -6.122550964355468750e+00 -8.121684789657592773e-01 -1.940956562757492065e-01 -3.018792271614074707e-01 5.396140217781066895e-01
2.690000000000000000e+03 1.569064331054687500e+01 2.297552347183227539e+00 -4.256838262081146240e-01 -1.028859972953796387e+00 -4.363631308078765869e-01 8.146303296089172363e-01
2.691000000000000000e+03 1.632400894165039062e+01 2.443945884704589844e+00 -4.087756276130676270e-01 -1.060477972030639648e+00 -4.407760798931121826e-01 8.519038558006286621e-01
2.692000000000000000e+03 5.802963256835937500e+01 -8.362362861633300781e+00 -2.350488662719726562e+00 -1.761701256036758423e-01 -7.579976320266723633e-01 -7.353226542472839355e-01
2.693000000000000000e+03 4.189968585968017578e+00 -3.480680084228515625e+01 2.954372030217200518e-05 7.590342429466545582e-04 2.365733816986903548e-04 5.563144222833216190e-04
2.694000000000000000e+03 3.762930154800415039e+00 -3.328110885620117188e+01 1.142758774221874774e-04 6.867495249025523663e-04 2.403076214250177145e-04 4.448826075531542301e-04
2.695000000000000000e+03 5.563709640502929688e+01 -9.052372932434082031e+00 -1.891734838485717773e+00 -3.844874678179621696e-03 -5.686739087104797363e-01 -4.941016435623168945e-01
2.696000000000000000e+03 6.284748458862304688e+01 -2.448550033569335938e+01 -3.935726881027221680e-01 2.787521123886108398e+00 7.181844711303710938e-01 7.938365340232849121e-01
2.697000000000000000e+03 6.460877227783203125e+01 -2.379344940185546875e+01 -4.826776981353759766e-01 4.358014106750488281e+00 1.162600874900817871e+00 1.047953128814697266e+00
2.698000000000000000e+03 2.430703926086425781e+01 -6.159485816955566406e+00 -8.430419564247131348e-01 -4.109804630279541016e-01 -3.762067258358001709e-01 6.329803466796875000e-01
2.699000000000000000e+03 4.320982933044433594e+00 -4.132840633392333984e+00 -7.387300229311222211e-06 -2.790975031530251727e-06 -3.053482487302972004e-06 1.143874442277592607e-06
2.700000000000000000e+03 8.180241584777832031e+00 -5.140062332153320312e+00 -1.233608873008051887e-05 -2.971331468870630488e-06 -4.592226105160079896e-06 -1.354876417281047907e-06
2.701000000000000000e+03 5.820677757263183594e+00 -4.881523609161376953e+00 1.001117379928473383e-05 6.335767466225661337e-07 3.193425072822719812e-06 -1.502806298958603293e-06
2.702000000000000000e+03 5.422002792358398438e+00 -7.548579692840576172e+00 -2.571984987298492342e-05 -7.966334123921114951e-06 -1.010585492622340098e-05 7.901457138359546661e-06
2.703000000000000000e+03 3.421421289443969727e+00 -5.599775791168212891e+00 3.438480689510470256e-06 9.690490514913108200e-06 3.938691406801808625e-06 -2.671073389137745835e-06
2.704000000000000000e+03 4.635670471191406250e+01 -1.391478252410888672e+01 -9.573776125907897949e-01 7.259375602006912231e-02 -2.654351592063903809e-01 -1.733648478984832764e-01
2.705000000000000000e+03 7.621604156494140625e+01 -1.098264122009277344e+01 8.897904753684997559e-01 7.455715179443359375e+00 2.503651857376098633e+00 2.746043168008327484e-02
2.706000000000000000e+03 7.515003204345703125e+01 -7.822033405303955078e+00 7.775367498397827148e-01 8.579771041870117188e+00 2.807192325592041016e+00 1.250163912773132324e+00
2.707000000000000000e+03 2.305151748657226562e+01 -1.015004992485046387e+00 -7.601804733276367188e-01 -1.790385842323303223e-01 -2.817657291889190674e-01 4.393132925033569336e-01
2.708000000000000000e+03 2.929401206970214844e+01 -3.588677597045898438e+01 -2.930682618170976639e-03 -5.277424585074186325e-03 -2.462432021275162697e-03 -3.472787560895085335e-03
2.709000000000000000e+03 6.662088012695312500e+01 -2.096324157714843750e+01 -3.489616215229034424e-01 6.827286720275878906e+00 1.943497538566589355e+00 1.398287177085876465e+00
2.710000000000000000e+03 1.853145980834960938e+01 -2.833253479003906250e+01 2.489869249984622002e-03 -2.677676093298941851e-04 6.666304543614387512e-04 -6.879133434267714620e-05
2.711000000000000000e+03 1.720642662048339844e+01 -2.703465652465820312e+01 1.731765922158956528e-03 -3.536510630510747433e-04 4.134344635531306267e-04 -7.689216727158054709e-05
2.712000000000000000e+03 6.692197418212890625e+01 -1.796363830566406250e+01 8.826370239257812500e-01 8.750997543334960938e+00 2.890090465545654297e+00 2.523791313171386719e+00
2.713000000000000000e+03 6.652502441406250000e+01 -1.980282783508300781e+01 6.886170059442520142e-02 7.134057521820068359e+00 2.160875797271728516e+00 1.823047876358032227e+00
2.714000000000000000e+03 2.848227691650390625e+01 1.180286979675292969e+01 -3.057205080986022949e-01 -2.767451405525207520e-01 -1.747396886348724365e-01 5.729303359985351562e-01
2.715000000000000000e+03 2.732249641418457031e+01 1.206520080566406250e+01 -4.182671010494232178e-01 -5.293094515800476074e-01 -2.842729687690734863e-01 5.559006929397583008e-01
2.716000000000000000e+03 3.106527519226074219e+01 -1.455543422698974609e+01 -4.323957562446594238e-01 -1.977695152163505554e-02 -1.356518119573593140e-01 2.504366040229797363e-01
2.717000000000000000e+03 3.011499214172363281e+01 -1.105277061462402344e+01 -5.619301795959472656e-01 -2.248415956273674965e-03 -1.692535728216171265e-01 3.897842466831207275e-01
2.718000000000000000e+03 3.269260025024414062e+01 -1.471272754669189453e+01 -4.890833795070648193e-01 3.920496627688407898e-02 -1.349635273218154907e-01 2.224679738283157349e-01
2.719000000000000000e+03 2.921476364135742188e+01 -1.326680374145507812e+01 -4.136926233768463135e-01 -8.514036238193511963e-02 -1.496499031782150269e-01 3.288775086402893066e-01
2.720000000000000000e+03 7.885172843933105469e+00 -1.632853698730468750e+01 3.785594526561908424e-05 1.951959893631283194e-05 1.721266380627639592e-05 1.450599302188493311e-05
2.721000000000000000e+03 5.590309619903564453e+00 -1.610653114318847656e+01 7.653582724742591381e-05 3.849588756565935910e-05 3.450951408012770116e-05 -4.043358785565942526e-05
2.722000000000000000e+03 1.203649520874023438e+01 1.002430248260498047e+01 -2.860152423381805420e-01 -7.201312780380249023e-01 -3.018439412117004395e-01 7.649861574172973633e-01
2.723000000000000000e+03 9.660249710083007812e+00 5.135891437530517578e+00 -4.957904517650604248e-01 -2.922915518283843994e-01 -2.364246100187301636e-01 3.799617886543273926e-01
2.724000000000000000e+03 4.427917480468750000e+01 -1.466827869415283203e+01 -8.530125021934509277e-01 7.555443793535232544e-02 -2.332374155521392822e-01 -1.014936268329620361e-01
2.725000000000000000e+03 5.818366241455078125e+01 -3.084270858764648438e+01 -2.282856106758117676e-01 9.054264426231384277e-01 2.031422406435012817e-01 2.104880064725875854e-01
2.726000000000000000e+03 6.036797332763671875e+01 -2.690405273437500000e+01 -5.377322435379028320e-01 1.362086772918701172e+00 2.473063468933105469e-01 3.428015708923339844e-01
2.727000000000000000e+03 6.162596893310546875e+01 -2.568530654907226562e+01 -4.980446994304656982e-01 2.009946107864379883e+00 4.535704553127288818e-01 5.564141273498535156e-01
2.728000000000000000e+03 6.710697937011718750e+01 -2.023963737487792969e+01 -2.722661495208740234e-01 7.668387413024902344e+00 2.218836307525634766e+00 1.385863065719604492e+00
2.729000000000000000e+03 1.198926067352294922e+01 -6.996428012847900391e+00 3.498564410620019771e-06 7.352603915933286771e-06 3.255350520703359507e-06 1.126183093447252759e-07
2.730000000000000000e+03 6.085312271118164062e+01 -5.518813133239746094e+00 -1.858719468116760254e+00 2.116606943309307098e-02 -5.512660145759582520e-01 -5.573374032974243164e-01
2.731000000000000000e+03 4.255491256713867188e+01 -3.597515487670898438e+01 -2.182660624384880066e-02 -1.832961887121200562e-01 -6.153683736920356750e-02 -2.042669057846069336e-01
2.732000000000000000e+03 4.408924865722656250e+01 -3.536826324462890625e+01 -5.156176909804344177e-02 -2.014752626419067383e-01 -7.591111212968826294e-02 -2.525830268859863281e-01
2.733000000000000000e+03 9.904935836791992188e+00 -4.495207786560058594e+00 -2.254655328215449117e-06 -2.626246669024112634e-07 -7.551839757979905698e-07 2.127057769030216150e-06
2.734000000000000000e+03 9.002996444702148438e+00 -5.427823066711425781e+00 1.457705639040796086e-05 2.859103005903307348e-06 5.230847818893380463e-06 1.609104856470366940e-06
2.735000000000000000e+03 5.651808929443359375e+01 8.093245506286621094e+00 1.865503638982772827e-01 2.330083608627319336e+00 7.549901604652404785e-01 -9.608408063650131226e-02
2.736000000000000000e+03 6.795372009277343750e+01 -1.760339164733886719e+01 4.700843989849090576e-01 1.025639152526855469e+01 3.217942714691162109e+00 1.857119679450988770e+00
2.737000000000000000e+03 6.943611907958984375e+01 -1.641767501831054688e+01 3.853813707828521729e-01 1.210066890716552734e+01 3.745815038681030273e+00 7.618351578712463379e-01
2.738000000000000000e+03 5.065041732788085938e+01 -1.117858028411865234e+01 -1.287307381629943848e+00 9.530103951692581177e-02 -3.576019108295440674e-01 -2.629162967205047607e-01
2.739000000000000000e+03 5.301674270629882812e+01 6.047799587249755859e+00 2.813205718994140625e-01 5.829007029533386230e-01 2.592663764953613281e-01 3.379884660243988037e-01
2.740000000000000000e+03 5.989675521850585938e+01 -7.175945758819580078e+00 -2.602488756179809570e+00 -1.856673806905746460e-01 -8.364468216896057129e-01 -7.873482108116149902e-01
2.741000000000000000e+03 5.212193298339843750e+01 -3.335452270507812500e+01 -7.267525792121887207e-02 -1.917674541473388672e-01 -7.933281362056732178e-02 -3.110085725784301758e-01
2.742000000000000000e+03 5.045676803588867188e+01 -3.315825271606445312e+01 -1.962988525629043579e-01 -3.261832296848297119e-01 -1.567446291446685791e-01 -3.846848309040069580e-01
2.743000000000000000e+03 1.098031806945800781e+01 9.654046058654785156e+00 -3.299201726913452148e-01 -5.930019021034240723e-01 -2.768766283988952637e-01 7.488977313041687012e-01
2.744000000000000000e+03 1.228759479522705078e+01 1.066774177551269531e+01 -1.386574208736419678e-01 -7.363452911376953125e-01 -2.625008225440979004e-01 7.244149446487426758e-01
2.745000000000000000e+03 9.517560958862304688e+00 -1.992013168334960938e+01 1.105989867937751114e-04 4.129643275518901646e-05 4.556862768367864192e-05 1.004684236249886453e-05
2.746000000000000000e+03 4.789270401000976562e+01 4.487645149230957031e+00 4.285368695855140686e-02 1.231184676289558411e-01 4.979164525866508484e-02 7.197389751672744751e-02
2.747000000000000000e+03 6.224559783935546875e+01 -2.509562492370605469e+01 -4.591742753982543945e-01 2.355655908584594727e+00 5.689445137977600098e-01 6.850745081901550293e-01
2.748000000000000000e+03 3.445900726318359375e+01 -1.612431907653808594e+01 -4.925066232681274414e-01 5.396751686930656433e-02 -1.315617263317108154e-01 1.549214273691177368e-01
2.749000000000000000e+03 3.489303207397460938e+01 -1.660449981689453125e+01 -4.908626377582550049e-01 4.993689060211181641e-02 -1.322777271270751953e-01 1.269641071557998657e-01
2.750000000000000000e+03 4.651892852783203125e+01 -3.394932174682617188e+01 -2.010028362274169922e-01 -2.551505863666534424e-01 -1.368460208177566528e-01 -3.394196629524230957e-01
2.751000000000000000e+03 5.751303100585937500e+01 -2.969341087341308594e+01 -4.442820250988006592e-01 5.090472698211669922e-01 1.942956447601318359e-02 3.740652278065681458e-02
2.752000000000000000e+03 5.974418640136718750e+01 -2.758956527709960938e+01 -5.387001633644104004e-01 1.118293523788452148e+00 1.738779991865158081e-01 2.699171900749206543e-01
2.753000000000000000e+03 2.054069519042968750e+01 -3.233768081665039062e+01 2.455821726471185684e-03 -8.279091562144458294e-04 4.883738001808524132e-04 1.714359037578105927e-03
2.754000000000000000e+03 2.216996383666992188e+01 -3.215667724609375000e+01 3.799472702667117119e-03 -1.522592967376112938e-03 6.830639322288334370e-04 1.803022925741970539e-03
2.755000000000000000e+03 5.681084060668945312e+01 1.004271507263183594e+01 3.913257122039794922e-01 2.947174787521362305e+00 1.001550078392028809e+00 -1.830493360757827759e-01
2.756000000000000000e+03 6.224339675903320312e+01 -4.397944450378417969e+00 -1.094172120094299316e+00 1.729835420846939087e-01 -2.763565778732299805e-01 -1.105517745018005371e+00
2.757000000000000000e+03 6.377012252807617188e+01 -5.154124736785888672e+00 -1.416979551315307617e+00 -2.261703312397003174e-01 -4.929449856281280518e-01 -1.810706734657287598e+00
2.758000000000000000e+03 1.982125282287597656e+01 2.953723669052124023e+00 -1.819940805435180664e-01 -1.978480517864227295e-01 -1.139526367187500000e-01 7.213281989097595215e-01
2.759000000000000000e+03 1.380609035491943359e+01 4.015878677368164062e+00 -5.313445925712585449e-01 -9.126724600791931152e-01 -4.332051277160644531e-01 5.960123538970947266e-01
2.760000000000000000e+03 4.128444290161132812e+01 -3.697283172607421875e+01 2.431565709412097931e-02 -1.711289435625076294e-01 -4.404398426413536072e-02 -1.761117726564407349e-01
2.761000000000000000e+03 6.043552780151367188e+01 -2.821731376647949219e+01 -4.531233310699462891e-01 1.623102188110351562e+00 3.509936630725860596e-01 4.238538444042205811e-01
2.762000000000000000e+03 1.433468055725097656e+01 5.191042423248291016e+00 -6.570472121238708496e-01 -1.162177562713623047e+00 -5.457674264907836914e-01 6.542435884475708008e-01
2.763000000000000000e+03 5.281787490844726562e+01 -3.247460556030273438e+01 -2.108743190765380859e-01 -1.516212970018386841e-01 -1.087486892938613892e-01 -3.186409771442413330e-01
2.764000000000000000e+03 4.112836074829101562e+01 1.015315532684326172e+01 1.323119550943374634e-01 1.208058238029479980e+00 4.021110534667968750e-01 2.699711322784423828e-01
2.765000000000000000e+03 4.099897766113281250e+01 9.243303298950195312e+00 3.653902560472488403e-02 1.086489439010620117e+00 3.369085490703582764e-01 2.812677025794982910e-01
2.766000000000000000e+03 6.749008941650390625e+01 -1.835518836975097656e+01 3.113113641738891602e-01 9.108304977416992188e+00 2.825885057449340820e+00 1.923706650733947754e+00
2.767000000000000000e+03 6.899041748046875000e+01 -1.722195243835449219e+01 2.032257169485092163e-01 1.128927898406982422e+01 3.447751522064208984e+00 1.014658093452453613e+00
2.768000000000000000e+03 6.992849731445312500e+01 -5.723356246948242188e+00 -1.086103081703186035e+00 1.246290302276611328e+01 3.413040161132812500e+00 -2.118171304464340210e-01
2.769000000000000000e+03 1.529202556610107422e+01 4.139251708984375000e+00 -5.422762632369995117e-01 -1.168883442878723145e+00 -5.133479237556457520e-01 7.557214498519897461e-01
2.770000000000000000e+03 1.485839271545410156e+01 4.705859661102294922e+00 -5.959059596061706543e-01 -1.191418647766113281e+00 -5.361973643302917480e-01 7.168184518814086914e-01
2.771000000000000000e+03 2.885062408447265625e+01 -3.374218750000000000e+01 2.661852166056632996e-03 -8.418876095674932003e-04 5.459893727675080299e-04 -9.677474154159426689e-04
2.772000000000000000e+03 2.879780578613281250e+01 -3.505825042724609375e+01 -3.375945147126913071e-03 -2.186284866183996201e-03 -1.668669050559401512e-03 -1.575990114361047745e-03
2.773000000000000000e+03 4.521548461914062500e+01 -3.533831024169921875e+01 -3.389244526624679565e-02 -2.434459030628204346e-01 -8.320150524377822876e-02 -2.766741812229156494e-01
2.774000000000000000e+03 3.945827102661132812e+01 -3.718701171875000000e+01 3.257362917065620422e-02 -1.380947828292846680e-01 -3.165634348988533020e-02 -1.296634525060653687e-01
2.775000000000000000e+03 3.789939880371093750e+01 -3.677384948730468750e+01 4.801652394235134125e-03 -9.548601508140563965e-02 -2.720530889928340912e-02 -8.773728460073471069e-02
2.776000000000000000e+03 2.348098564147949219e+01 -3.747481584548950195e+00 -9.621694087982177734e-01 -3.476231694221496582e-01 -3.929377496242523193e-01 5.848283767700195312e-01
2.777000000000000000e+03 2.351525306701660156e+01 -2.702453374862670898e+00 -9.120143055915832520e-01 -2.576867043972015381e-01 -3.509103059768676758e-01 5.120224952697753906e-01
2.778000000000000000e+03 5.184797668457031250e+01 4.905301094055175781e+00 2.128449380397796631e-01 3.607102036476135254e-01 1.720665395259857178e-01 2.805986106395721436e-01
2.779000000000000000e+03 5.254675292968750000e+01 4.825150489807128906e+00 2.091037184000015259e-01 4.907017350196838379e-01 2.099416404962539673e-01 3.043261766433715820e-01
2.780000000000000000e+03 4.497393417358398438e+01 -1.441733837127685547e+01 -8.860959410667419434e-01 7.118798792362213135e-02 -2.444723844528198242e-01 -1.242401078343391418e-01
2.781000000000000000e+03 1.060365772247314453e+01 3.723936080932617188e+00 -4.803378283977508545e-01 -3.260032236576080322e-01 -2.419023066759109497e-01 3.522787392139434814e-01
2.782000000000000000e+03 1.067538070678710938e+01 8.938858985900878906e+00 -4.211513400077819824e-01 -5.275048613548278809e-01 -2.845968604087829590e-01 6.959866285324096680e-01
2.783000000000000000e+03 1.933171844482421875e+01 -2.880218887329101562e+01 2.854756079614162445e-03 -4.878938489127904177e-04 7.100586663000285625e-04 4.164061101619154215e-04
2.784000000000000000e+03 6.954374694824218750e+01 -7.067547798156738281e+00 3.167415261268615723e-01 1.428925132751464844e+01 4.381797790527343750e+00 -6.936272978782653809e-02
2.785000000000000000e+03 1.317330360412597656e+01 -9.458860397338867188e+00 1.852499917731620371e-05 -8.087659807642921805e-06 3.131201765427249484e-06 -6.602195753657724708e-06
2.786000000000000000e+03 1.243767452239990234e+01 -9.717089653015136719e+00 1.898309164971578866e-05 5.049524588685017079e-06 7.209784598671831191e-06 -1.045528370013926178e-05
2.787000000000000000e+03 4.469999313354492188e+01 2.180071449279785156e+01 3.723132610321044922e-01 9.783519506454467773e-01 4.051995575428009033e-01 4.538377523422241211e-01
2.788000000000000000e+03 2.512807464599609375e+01 1.716601943969726562e+01 6.327234953641891479e-02 -6.888292431831359863e-01 -1.876670718193054199e-01 3.610986471176147461e-01
2.789000000000000000e+03 5.816938781738281250e+01 1.623072814941406250e+01 6.930805444717407227e-01 3.476180076599121094e+00 1.250778198242187500e+00 -4.899024665355682373e-01
2.790000000000000000e+03 1.726222419738769531e+01 2.056528568267822266e+00 -3.906335532665252686e-01 -1.013667345046997070e+00 -4.212902784347534180e-01 9.146236181259155273e-01
2.791000000000000000e+03 2.252042579650878906e+01 2.966251134872436523e+00 2.503184787929058075e-02 2.010788768529891968e-01 6.783321499824523926e-02 3.182545304298400879e-01
2.792000000000000000e+03 2.120264816284179688e+01 2.478249311447143555e+00 -1.801451295614242554e-01 3.771034628152847290e-02 -4.273043572902679443e-02 5.186875462532043457e-01
2.793000000000000000e+03 2.458359718322753906e+01 1.659878540039062500e+01 -5.796593055129051208e-02 -7.837989926338195801e-01 -2.525294721126556396e-01 4.125350713729858398e-01
2.794000000000000000e+03 5.983945846557617188e+01 -2.907164955139160156e+01 -3.830248117446899414e-01 1.424336314201354980e+00 3.123934566974639893e-01 3.596619665622711182e-01
2.795000000000000000e+03 2.752202987670898438e+01 -3.306255722045898438e+01 6.407664157450199127e-03 -1.602259348146617413e-03 1.441621454432606697e-03 2.759602502919733524e-04
2.796000000000000000e+03 2.720141029357910156e+01 -3.513561248779296875e+01 -2.056583296507596970e-03 -2.956291195005178452e-03 -1.503862324170768261e-03 3.816183889284729958e-04
2.797000000000000000e+03 2.811618423461914062e+01 -3.443522262573242188e+01 1.919320318847894669e-03 -1.734932418912649155e-03 5.531634815270081162e-05 -5.038429662818089128e-05
2.798000000000000000e+03 2.245912170410156250e+01 -1.356333732604980469e+00 -8.456193804740905762e-01 -2.826930582523345947e-01 -3.384937345981597900e-01 5.181284546852111816e-01
2.799000000000000000e+03 6.759111022949218750e+01 -1.950763702392578125e+01 -1.970854252576828003e-01 8.468856811523437500e+00 2.481531381607055664e+00 1.403175473213195801e+00
2.800000000000000000e+03 7.882092952728271484e+00 -1.413693523406982422e+01 7.060117786750197411e-05 1.765933302522171289e-05 2.647815381351392716e-05 8.941542546381242573e-06
2.801000000000000000e+03 1.404299354553222656e+01 3.435174226760864258e+00 -4.983873367309570312e-01 -9.088562726974487305e-01 -4.221730828285217285e-01 6.313452124595642090e-01
2.802000000000000000e+03 1.508408355712890625e+01 3.255583286285400391e+00 -4.624628722667694092e-01 -1.068534374237060547e+00 -4.592991769313812256e-01 7.375585436820983887e-01
2.803000000000000000e+03 1.257983970642089844e+01 4.258891582489013672e+00 -5.603879690170288086e-01 -6.868191957473754883e-01 -3.741621673107147217e-01 4.961120188236236572e-01
2.804000000000000000e+03 5.800919342041015625e+01 1.496646308898925781e+01 8.403536081314086914e-01 3.483423709869384766e+00 1.297133207321166992e+00 -5.921937823295593262e-01
2.805000000000000000e+03 5.685747528076171875e+01 1.599156475067138672e+01 7.879361510276794434e-01 3.515725612640380859e+00 1.291098475456237793e+00 -5.245074629783630371e-01
2.806000000000000000e+03 2.397540664672851562e+01 -4.427102565765380859e+00 -9.376333355903625488e-01 -3.336336612701416016e-01 -3.813800811767578125e-01 5.875720381736755371e-01
2.807000000000000000e+03 2.298500442504882812e+01 -2.027731180191040039e+00 -8.903521895408630371e-01 -2.770508229732513428e-01 -3.502208888530731201e-01 5.095142126083374023e-01
2.808000000000000000e+03 6.120587158203125000e+01 -5.136792182922363281e+00 -1.632591009140014648e+00 -4.331323131918907166e-02 -5.027712583541870117e-01 -6.955022215843200684e-01
2.809000000000000000e+03 8.725832939147949219e+00 -1.798805999755859375e+01 -1.113533653551712632e-05 -1.380435332976048812e-05 -7.481906777684343979e-06 8.830664228298701346e-06
2.810000000000000000e+03 8.899454116821289062e+00 -1.932744407653808594e+01 3.304781785118393600e-05 -4.077572884852997959e-05 -2.318373162779607810e-06 -1.590875399415381253e-05
2.811000000000000000e+03 2.345779800415039062e+01 2.517495632171630859e+00 -8.557845652103424072e-02 1.617805063724517822e-01 2.286061644554138184e-02 2.432324886322021484e-01
2.812000000000000000e+03 2.387815666198730469e+01 3.419610500335693359e+00 1.892799884080886841e-01 2.014589607715606689e-01 1.172216832637786865e-01 2.088984102010726929e-01
2.813000000000000000e+03 5.818498992919921875e+01 1.364697074890136719e+01 7.204139828681945801e-01 3.469317913055419922e+00 1.256919622421264648e+00 -6.123594045639038086e-01
2.814000000000000000e+03 7.974188327789306641e+00 -1.502193355560302734e+01 1.175099823740310967e-04 6.917607151990523562e-06 3.732827826752327383e-05 5.290442459227051586e-06
2.815000000000000000e+03 3.361317062377929688e+01 -1.451776218414306641e+01 -5.282942056655883789e-01 6.535430252552032471e-02 -1.388819664716720581e-01 2.178222835063934326e-01
2.816000000000000000e+03 4.855454635620117188e+01 4.581300735473632812e+00 7.854328304529190063e-02 9.545665234327316284e-02 5.219997838139533997e-02 1.057452335953712463e-01
2.817000000000000000e+03 4.878313827514648438e+01 3.096509456634521484e+00 9.814467281103134155e-03 1.737652271986007690e-01 5.507390946149826050e-02 1.854957342147827148e-01
2.818000000000000000e+03 2.068258094787597656e+01 2.252274751663208008e+00 -2.877965569496154785e-01 -9.021282941102981567e-02 -1.134028211236000061e-01 6.218846440315246582e-01
2.819000000000000000e+03 5.127679824829101562e+01 2.124533843994140625e+01 5.937675237655639648e-01 8.741475939750671387e-01 4.403745234012603760e-01 -4.873189628124237061e-01
2.820000000000000000e+03 5.003342819213867188e+01 2.265289306640625000e+01 6.855910420417785645e-01 9.733050465583801270e-01 4.976688325405120850e-01 -2.221225351095199585e-01
2.821000000000000000e+03 3.666270065307617188e+01 -1.630252265930175781e+01 -5.599298477172851562e-01 6.383866071701049805e-02 -1.488273590803146362e-01 9.649434685707092285e-02
2.822000000000000000e+03 5.422697830200195312e+01 2.085087394714355469e+01 3.797232806682586670e-01 2.160593271255493164e+00 7.620949745178222656e-01 -8.193971514701843262e-01
2.823000000000000000e+03 2.114123725891113281e+01 1.921479797363281250e+01 3.302581608295440674e-01 -3.032935261726379395e-01 8.089396171271800995e-03 6.869254708290100098e-01
2.824000000000000000e+03 2.217704200744628906e+01 1.818344688415527344e+01 2.681369781494140625e-01 -5.204453468322753906e-01 -7.569250464439392090e-02 6.050663590431213379e-01
2.825000000000000000e+03 2.290386962890625000e+01 1.845499420166015625e+01 2.762900888919830322e-01 -5.799943804740905762e-01 -9.111130237579345703e-02 5.657212734222412109e-01
2.826000000000000000e+03 7.158810424804687500e+01 -9.791129112243652344e+00 2.907775878906250000e+00 1.281057167053222656e+01 4.715504169464111328e+00 2.811891138553619385e-01
2.827000000000000000e+03 3.923371124267578125e+01 1.188667869567871094e+01 2.997686564922332764e-01 9.792224764823913574e-01 3.836973607540130615e-01 3.970171809196472168e-01
2.828000000000000000e+03 7.097112274169921875e+01 -1.236044788360595703e+01 2.651503801345825195e+00 1.393260860443115234e+01 4.975234031677246094e+00 -4.061810970306396484e-01
2.829000000000000000e+03 7.026795196533203125e+01 -1.476611900329589844e+01 1.194784760475158691e+00 1.337922573089599609e+01 4.372202873229980469e+00 -7.688127458095550537e-02
2.830000000000000000e+03 5.509500503540039062e+01 2.079910850524902344e+01 3.199136555194854736e-01 2.479650974273681641e+00 8.398693799972534180e-01 -7.887188792228698730e-01
2.831000000000000000e+03 2.477520561218261719e+01 3.042036533355712891e+00 7.634961605072021484e-02 1.269681900739669800e-01 6.099534034729003906e-02 1.666588932275772095e-01
2.832000000000000000e+03 2.448561859130859375e+01 3.603360652923583984e+00 2.092703878879547119e-01 1.765497028827667236e-01 1.157460287213325500e-01 1.740579009056091309e-01
2.833000000000000000e+03 4.753274154663085938e+01 2.223039245605468750e+01 5.839765071868896484e-01 7.081869840621948242e-01 3.876490592956542969e-01 2.642761468887329102e-01
2.834000000000000000e+03 4.270500564575195312e+01 5.679095745086669922e+00 -1.997217088937759399e-01 6.528589725494384766e-01 1.359411776065826416e-01 7.467218488454818726e-02
2.835000000000000000e+03 4.625765228271484375e+01 2.099120903015136719e+01 4.362759888172149658e-01 7.156120538711547852e-01 3.455664217472076416e-01 4.661677777767181396e-01
2.836000000000000000e+03 4.392803573608398438e+01 2.021960067749023438e+01 2.546609342098236084e-01 1.122375249862670898e+00 4.131108522415161133e-01 5.031622052192687988e-01
2.837000000000000000e+03 1.265479755401611328e+01 7.473968029022216797e+00 -7.341687679290771484e-01 -8.475285768508911133e-01 -4.745092093944549561e-01 6.443693637847900391e-01
2.838000000000000000e+03 1.815155982971191406e+01 1.607596516609191895e+00 -4.223873317241668701e-01 -8.240178823471069336e-01 -3.739215731620788574e-01 9.365937709808349609e-01
2.839000000000000000e+03 1.282829093933105469e+01 1.708688735961914062e+01 5.410974025726318359e-01 -3.431153893470764160e-01 5.939460173249244690e-02 3.019168078899383545e-01
2.840000000000000000e+03 5.268783569335937500e+01 2.040627861022949219e+01 4.836067557334899902e-01 1.310977101325988770e+00 5.383751392364501953e-01 -7.872304916381835938e-01
2.841000000000000000e+03 2.451818656921386719e+01 1.769628143310546875e+01 1.423254162073135376e-01 -6.902084946632385254e-01 -1.643649190664291382e-01 4.159899353981018066e-01
2.842000000000000000e+03 4.803547286987304688e+01 3.807312726974487305e+00 1.699692569673061371e-02 1.453490555286407471e-01 4.870379716157913208e-02 1.140601113438606262e-01
2.843000000000000000e+03 5.354727554321289062e+01 2.201140022277832031e+01 4.808913469314575195e-01 1.880289912223815918e+00 7.083544135093688965e-01 -7.271763086318969727e-01
2.844000000000000000e+03 5.024401092529296875e+01 3.772939443588256836e+00 1.081442013382911682e-01 2.013428360223770142e-01 9.284611046314239502e-02 2.306618988513946533e-01
2.845000000000000000e+03 1.279298019409179688e+01 1.273971843719482422e+01 2.791384160518646240e-01 -5.484153628349304199e-01 -8.078308403491973877e-02 6.231467127799987793e-01
2.846000000000000000e+03 2.796017837524414062e+01 5.734086036682128906e+00 3.198324143886566162e-01 -1.763101816177368164e-01 4.305667057633399963e-02 4.064868986606597900e-01
2.847000000000000000e+03 2.646222305297851562e+01 5.892685890197753906e+00 4.696056544780731201e-01 -9.876065701246261597e-02 1.112534925341606140e-01 3.398224711418151855e-01
2.848000000000000000e+03 1.278809738159179688e+01 1.639971160888671875e+01 5.855200886726379395e-01 -3.753634095191955566e-01 6.304701417684555054e-02 3.523817360401153564e-01
2.849000000000000000e+03 3.940969467163085938e+01 1.514100265502929688e+01 4.289620220661163330e-01 1.050487995147705078e+00 4.438350200653076172e-01 2.635013163089752197e-01
2.850000000000000000e+03 2.185580635070800781e+01 1.883846855163574219e+01 3.189634978771209717e-01 -4.160792827606201172e-01 -2.913473546504974365e-02 6.510036587715148926e-01
2.851000000000000000e+03 1.403915691375732422e+01 -9.065363883972167969e+00 1.290543877985328436e-05 -6.445486633310792968e-06 1.937985416589071974e-06 -3.170571289956569672e-06
2.852000000000000000e+03 1.374616336822509766e+01 -9.727698326110839844e+00 -1.742813765304163098e-05 7.983677278389222920e-06 -2.833338157870457508e-06 2.783355512292473577e-06
2.853000000000000000e+03 5.761078643798828125e+01 9.126201629638671875e+00 2.945965230464935303e-01 2.814784526824951172e+00 9.328143000602722168e-01 -3.746162056922912598e-01
2.854000000000000000e+03 5.840634155273437500e+01 1.108440113067626953e+01 4.942540228366851807e-01 3.246868848800659180e+00 1.122336864471435547e+00 -5.898329019546508789e-01
2.855000000000000000e+03 1.406452751159667969e+01 6.018057823181152344e+00 -7.452329993247985840e-01 -1.190727353096008301e+00 -5.807881355285644531e-01 6.410141587257385254e-01
2.856000000000000000e+03 6.137336349487304688e+01 -4.681648731231689453e+00 -1.363604307174682617e+00 1.057789474725723267e-01 -3.773476183414459229e-01 -7.437968850135803223e-01
2.857000000000000000e+03 1.854924774169921875e+01 1.938289833068847656e+01 2.732630968093872070e-01 1.325666904449462891e-01 1.217489317059516907e-01 6.018717885017395020e-01
2.858000000000000000e+03 1.999719619750976562e+01 1.848458099365234375e+01 3.498957753181457520e-01 -6.807233393192291260e-02 8.454702794551849365e-02 6.948204636573791504e-01
2.859000000000000000e+03 4.183981704711914062e+01 1.744244003295898438e+01 3.862191736698150635e-01 1.428669214248657227e+00 5.444664955139160156e-01 2.913657426834106445e-01
2.860000000000000000e+03 5.693523406982421875e+01 1.971141624450683594e+01 3.059581518173217773e-01 3.124291181564331055e+00 1.029074788093566895e+00 -6.628885865211486816e-01
2.861000000000000000e+03 1.758318901062011719e+01 1.880692481994628906e+01 3.351137042045593262e-01 2.645485997200012207e-01 1.798986941576004028e-01 5.005621910095214844e-01
2.862000000000000000e+03 1.452047252655029297e+01 1.799592781066894531e+01 5.158161520957946777e-01 -2.052609063684940338e-02 1.485870182514190674e-01 2.446505278348922729e-01
2.863000000000000000e+03 4.025122833251953125e+01 1.087688922882080078e+01 2.209768444299697876e-01 1.111809730529785156e+00 3.998359441757202148e-01 3.605743050575256348e-01
2.864000000000000000e+03 4.101281738281250000e+01 1.104745674133300781e+01 2.540845572948455811e-01 1.308808326721191406e+00 4.688678681850433350e-01 2.931305766105651855e-01
2.865000000000000000e+03 1.202594184875488281e+01 5.639904975891113281e+00 -6.513545513153076172e-01 -6.497660875320434570e-01 -3.903361856937408447e-01 5.026558637619018555e-01
2.866000000000000000e+03 5.053291702270507812e+01 2.203266906738281250e+01 6.582768559455871582e-01 9.299875497817993164e-01 4.764793217182159424e-01 -3.131667971611022949e-01
2.867000000000000000e+03 4.940554046630859375e+01 2.333914184570312500e+01 6.870935559272766113e-01 9.978963136672973633e-01 5.054969787597656250e-01 -9.548174589872360229e-02
2.868000000000000000e+03 2.017881584167480469e+01 2.200682878494262695e+00 -3.116964399814605713e-01 -1.891348659992218018e-01 -1.502493917942047119e-01 7.086197733879089355e-01
2.869000000000000000e+03 5.597464370727539062e+01 7.552122116088867188e+00 1.731086969375610352e-01 2.014749765396118164e+00 6.563575863838195801e-01 7.986769080162048340e-02
2.870000000000000000e+03 1.367615795135498047e+01 1.710653305053710938e+01 5.890569686889648438e-01 -1.918341815471649170e-01 1.191668286919593811e-01 2.819947004318237305e-01
2.871000000000000000e+03 1.455839443206787109e+01 1.712274169921875000e+01 6.184579730033874512e-01 -2.525367401540279388e-02 1.779612898826599121e-01 2.625412344932556152e-01
2.872000000000000000e+03 7.164689636230468750e+01 -1.256775569915771484e+01 2.442749977111816406e+00 1.240373992919921875e+01 4.453947067260742188e+00 -6.177168488502502441e-01
2.873000000000000000e+03 7.008071136474609375e+01 -1.284146499633789062e+01 2.502961874008178711e+00 1.561426448822021484e+01 5.435167789459228516e+00 -6.286995485424995422e-03
2.874000000000000000e+03 1.877494049072265625e+01 2.124877166748046875e+01 2.275256365537643433e-01 -4.118462651968002319e-02 5.590230226516723633e-02 5.807535648345947266e-01
2.875000000000000000e+03 4.178013610839843750e+01 8.865981101989746094e+00 -2.121886797249317169e-02 1.103377699851989746e+00 3.246476352214813232e-01 1.711322814226150513e-01
2.876000000000000000e+03 4.194542312622070312e+01 7.700479507446289062e+00 -1.257701516151428223e-01 9.308013916015625000e-01 2.415093630552291870e-01 1.384725272655487061e-01
2.877000000000000000e+03 2.696470069885253906e+01 1.396230506896972656e+01 -4.436426460742950439e-01 -6.294008493423461914e-01 -3.219130635261535645e-01 3.555561900138854980e-01
2.878000000000000000e+03 3.764220809936523438e+01 1.665694046020507812e+01 3.353975415229797363e-01 8.014068007469177246e-01 3.410412967205047607e-01 2.056582570075988770e-01
2.879000000000000000e+03 1.934151268005371094e+01 1.945954132080078125e+01 2.982505857944488525e-01 7.678218185901641846e-03 9.177864342927932739e-02 6.650108695030212402e-01
2.880000000000000000e+03 1.792644309997558594e+01 1.953908538818359375e+01 2.672523856163024902e-01 1.543498188257217407e-01 1.264806538820266724e-01 5.346846580505371094e-01
2.881000000000000000e+03 7.610739898681640625e+01 -3.853432083129882812e+01 1.553501002490520477e-02 9.165620803833007812e+00 2.754346609115600586e+00 1.420160289853811264e-02
2.882000000000000000e+03 4.249937057495117188e+01 1.862714195251464844e+01 2.545704543590545654e-01 1.359639167785644531e+00 4.842628836631774902e-01 3.702815771102905273e-01
2.883000000000000000e+03 4.151225280761718750e+01 1.847963523864746094e+01 2.840005457401275635e-01 1.293208599090576172e+00 4.731627404689788818e-01 2.633537054061889648e-01
2.884000000000000000e+03 2.977413892745971680e+00 3.751070785522460938e+01 5.474457517266273499e-03 -1.359739422798156738e+00 -4.062795042991638184e-01 1.759404689073562622e-02
2.885000000000000000e+03 3.949845123291015625e+01 -3.564432144165039062e+01 -4.756772890686988831e-02 -9.240504354238510132e-02 -4.199183359742164612e-02 -1.357442885637283325e-01
2.886000000000000000e+03 4.041418075561523438e+00 4.167705917358398438e+01 4.899229388684034348e-03 -1.297276020050048828e+00 -3.877130150794982910e-01 6.607964169234037399e-03
2.887000000000000000e+03 4.652988052368164062e+01 -3.525201034545898438e+01 -8.437090553343296051e-03 -2.880021035671234131e-01 -8.893175423145294189e-02 -3.136888146400451660e-01
2.888000000000000000e+03 4.562830734252929688e+01 -3.365752792358398438e+01 -2.486119270324707031e-01 -2.111288756132125854e-01 -1.379222422838211060e-01 -3.143437802791595459e-01
2.889000000000000000e+03 3.715908527374267578e+00 -3.824835968017578125e+01 -1.806987420422956347e-04 9.811714990064501762e-04 2.401418314548209310e-04 4.172297485638409853e-04
2.890000000000000000e+03 5.007743358612060547e+00 -3.536888122558593750e+01 -4.001992056146264076e-05 6.472530076280236244e-04 1.821699261199682951e-04 3.986399387940764427e-04
2.891000000000000000e+03 2.322393417358398438e+01 -3.268812561035156250e+01 3.248848719522356987e-03 -9.144706418737769127e-04 7.003134232945740223e-04 1.455045887269079685e-03
2.892000000000000000e+03 2.442951393127441406e+01 -3.293246459960937500e+01 3.798207500949501991e-03 -1.314992434345185757e-03 7.449645199812948704e-04 2.337840618565678596e-03
2.893000000000000000e+03 7.594011688232421875e+01 -3.695517349243164062e+01 -3.290349990129470825e-02 9.102063179016113281e+00 2.720747947692871094e+00 -1.301927398890256882e-02
2.894000000000000000e+03 3.380409240722656250e+01 -3.624863433837890625e+01 -1.221485994756221771e-02 -2.304213680326938629e-02 -1.057709846645593643e-02 -2.932496182620525360e-02
2.895000000000000000e+03 5.399899005889892578e+00 3.717995452880859375e+01 1.990410871803760529e-02 -1.129456162452697754e+00 -3.328656256198883057e-01 3.260089829564094543e-02
2.896000000000000000e+03 5.066243171691894531e+00 4.006307983398437500e+01 1.055119745433330536e-02 -1.198616027832031250e+00 -3.564194738864898682e-01 1.027863193303346634e-02
2.897000000000000000e+03 1.663006782531738281e+01 -9.114746093750000000e+00 -1.016202531900489703e-05 2.040076907405818929e-08 -3.042487378479563631e-06 2.109750312229152769e-06
2.898000000000000000e+03 2.922152900695800781e+01 -1.016073608398437500e+01 -5.886616706848144531e-01 -3.274343162775039673e-02 -1.864215284585952759e-01 4.294478893280029297e-01
2.899000000000000000e+03 2.873204612731933594e+01 -1.069629192352294922e+01 -5.489290356636047363e-01 -7.585941255092620850e-02 -1.874365359544754028e-01 4.267715215682983398e-01
2.900000000000000000e+03 4.003195953369140625e+01 -1.488316535949707031e+01 -7.104840874671936035e-01 1.180559173226356506e-01 -1.777284443378448486e-01 4.233976453542709351e-02
2.901000000000000000e+03 4.084109115600585938e+01 -1.570496845245361328e+01 -7.130362391471862793e-01 9.304518252611160278e-02 -1.859973222017288208e-01 -5.994608625769615173e-03
2.902000000000000000e+03 1.743057250976562500e+01 -9.920166969299316406e+00 1.454998027838882990e-06 -2.388884922766010277e-06 -2.801660627937963000e-07 2.622612100822152570e-06
2.903000000000000000e+03 5.812621307373046875e+01 8.642712593078613281e+00 2.917536497116088867e-01 2.793732643127441406e+00 9.256458878517150879e-01 -4.713361263275146484e-01
2.904000000000000000e+03 5.711967468261718750e+01 9.550057411193847656e+00 3.216894268989562988e-01 2.817312955856323242e+00 9.417007565498352051e-01 -2.800583541393280029e-01
2.905000000000000000e+03 1.620476531982421875e+01 -9.521224975585937500e+00 4.737595645565306768e-06 -6.758995141353807412e-07 1.218508941747131757e-06 -1.863711190708272625e-06
2.906000000000000000e+03 1.126095676422119141e+01 -6.307548999786376953e+00 -8.375178367714397609e-06 2.266589945065788925e-06 -1.832576572269317694e-06 -2.509519617888145149e-06
2.907000000000000000e+03 1.150712585449218750e+01 -5.704336643218994141e+00 1.577393413754180074e-05 1.831741542446252424e-06 5.281703124637715518e-06 5.265773779683513567e-06
2.908000000000000000e+03 1.171843624114990234e+01 -9.474355697631835938e+00 1.197007804876193404e-05 1.312613949266960844e-05 7.528865353378932923e-06 -9.663883702160092071e-07
2.909000000000000000e+03 4.028380584716796875e+01 1.012298202514648438e+01 1.382214725017547607e-01 1.063826441764831543e+00 3.606143891811370850e-01 3.696506619453430176e-01
2.910000000000000000e+03 2.179415512084960938e+01 9.054860472679138184e-01 -5.174157619476318359e-01 -1.227469071745872498e-01 -1.920488029718399048e-01 4.934194386005401611e-01
2.911000000000000000e+03 5.761354446411132812e+01 1.437434101104736328e+01 8.189116120338439941e-01 3.471318721771240234e+00 1.287069082260131836e+00 -6.184123754501342773e-01
2.912000000000000000e+03 1.062478542327880859e+01 -8.264359474182128906e+00 -8.898288797354325652e-06 -1.425904611096484587e-05 -6.947200290596811101e-06 1.717502982501173392e-06
2.913000000000000000e+03 5.416928100585937500e+01 3.973677873611450195e+00 1.300532519817352295e-01 8.782421946525573730e-01 3.024886250495910645e-01 2.460512071847915649e-01
2.914000000000000000e+03 2.842357444763183594e+01 -9.175194740295410156e+00 -6.300247907638549805e-01 -6.339660286903381348e-02 -2.080264091491699219e-01 4.632675349712371826e-01
2.915000000000000000e+03 5.035589218139648438e+01 -1.212918853759765625e+01 -1.235544919967651367e+00 4.325753822922706604e-02 -3.576862215995788574e-01 -3.089415729045867920e-01
2.916000000000000000e+03 4.703367614746093750e+01 -1.365250778198242188e+01 -9.923812747001647949e-01 7.673566788434982300e-02 -2.746936678886413574e-01 -1.995833665132522583e-01
2.917000000000000000e+03 5.169075775146484375e+01 -1.141044902801513672e+01 -1.359747886657714844e+00 2.297383919358253479e-02 -4.010322391986846924e-01 -3.600280582904815674e-01
2.918000000000000000e+03 4.999225616455078125e+01 -1.151961898803710938e+01 -1.225506186485290527e+00 1.060982868075370789e-01 -3.358223736286163330e-01 -2.495185732841491699e-01
2.919000000000000000e+03 6.042729187011718750e+01 -5.902131080627441406e+00 -2.136333465576171875e+00 -3.441535681486129761e-02 -6.512246727943420410e-01 -5.707430839538574219e-01
2.920000000000000000e+03 5.993710708618164062e+01 -6.277544021606445312e+00 -2.174421310424804688e+00 -3.766441345214843750e-02 -6.636257171630859375e-01 -5.358819365501403809e-01
2.921000000000000000e+03 4.143778228759765625e+01 -1.493679046630859375e+01 -7.555406689643859863e-01 1.109357476234436035e-01 -1.933814734220504761e-01 7.712153455941006541e-05
2.922000000000000000e+03 4.359448242187500000e+01 -1.492219257354736328e+01 -8.257445693016052246e-01 7.569217681884765625e-02 -2.250157147645950317e-01 -7.720635086297988892e-02
2.923000000000000000e+03 1.513406944274902344e+01 -7.565182209014892578e+00 5.047944796388037503e-06 7.466298939107218757e-06 3.754272938749636523e-06 -1.777086595211585518e-06
2.924000000000000000e+03 1.130883789062500000e+01 -2.277869606018066406e+01 3.550526744220405817e-04 -9.519771992927417159e-05 7.795648707542568445e-05 -2.524190222175093368e-06
2.925000000000000000e+03 1.232603740692138672e+01 -2.401749801635742188e+01 6.495878915302455425e-04 -2.200217859353870153e-04 1.288698404096066952e-04 1.860013253462966532e-05
2.926000000000000000e+03 5.351275253295898438e+01 -8.732509613037109375e+00 -1.568226456642150879e+00 1.630817949771881104e-01 -4.215433895587921143e-01 -2.358326464891433716e-01
2.927000000000000000e+03 6.977673339843750000e+01 -6.434057235717773438e+00 -3.044149875640869141e-01 1.303008747100830078e+01 3.817701816558837891e+00 -1.709757894277572632e-01
2.928000000000000000e+03 3.993204498291015625e+01 1.446538925170898438e+01 4.497003257274627686e-01 1.194511413574218750e+00 4.932635128498077393e-01 3.041281104087829590e-01
2.929000000000000000e+03 5.391960144042968750e+01 -9.296374320983886719e+00 -1.624451756477355957e+00 1.007729247212409973e-01 -4.571036398410797119e-01 -3.520777821540832520e-01
2.930000000000000000e+03 2.804538154602050781e+01 -8.687360763549804688e+00 -6.579397320747375488e-01 -7.652786374092102051e-02 -2.203402668237686157e-01 4.771478474140167236e-01
2.931000000000000000e+03 4.157280731201171875e+01 -1.387412261962890625e+01 -7.849268913269042969e-01 1.446530371904373169e-01 -1.920821517705917358e-01 3.026878647506237030e-02
2.932000000000000000e+03 4.566931915283203125e+01 -1.416757583618164062e+01 -9.179489612579345703e-01 7.572939991950988770e-02 -2.526658773422241211e-01 -1.515448689460754395e-01
2.933000000000000000e+03 4.298930740356445312e+01 -1.354782295227050781e+01 -8.419601321220397949e-01 1.415975242853164673e-01 -2.101087868213653564e-01 -8.532363921403884888e-03
2.934000000000000000e+03 6.613562774658203125e+01 -2.168217277526855469e+01 -3.857995867729187012e-01 6.146656036376953125e+00 1.728256940841674805e+00 1.309011459350585938e+00
2.935000000000000000e+03 2.653418350219726562e+01 4.344053268432617188e+00 2.974950373172760010e-01 -2.223302610218524933e-02 8.257860690355300903e-02 2.134411633014678955e-01
2.936000000000000000e+03 2.722397041320800781e+01 5.105940341949462891e+00 3.421916365623474121e-01 -1.155974790453910828e-01 6.797824800014495850e-02 3.082633018493652344e-01
2.937000000000000000e+03 4.933481216430664062e+01 -1.184352493286132812e+01 -1.179311394691467285e+00 1.046809554100036621e-01 -3.223891556262969971e-01 -2.256104499101638794e-01
2.938000000000000000e+03 5.235164260864257812e+01 -1.103421592712402344e+01 -1.422534108161926270e+00 2.354940585792064667e-02 -4.196954071521759033e-01 -3.957086205482482910e-01
2.939000000000000000e+03 3.759167861938476562e+01 -1.518131446838378906e+01 -6.235647201538085938e-01 9.965787082910537720e-02 -1.571720391511917114e-01 1.059569865465164185e-01
2.940000000000000000e+03 3.902203369140625000e+01 -1.606680679321289062e+01 -6.406899094581604004e-01 8.275999873876571655e-02 -1.673789769411087036e-01 3.267809748649597168e-02
2.941000000000000000e+03 5.568636703491210938e+01 -3.055673408508300781e+01 -4.358653724193572998e-01 1.550227254629135132e-01 -8.425279706716537476e-02 -1.724023520946502686e-01
2.942000000000000000e+03 5.910726165771484375e+01 -3.000168800354003906e+01 -3.015070855617523193e-01 1.169005155563354492e+00 2.602494060993194580e-01 2.862085402011871338e-01
2.943000000000000000e+03 3.027242660522460938e+01 -1.308052730560302734e+01 -4.657175242900848389e-01 -3.239271044731140137e-02 -1.494330763816833496e-01 3.222461938858032227e-01
2.944000000000000000e+03 3.150530052185058594e+01 -1.391020679473876953e+01 -4.739693105220794678e-01 6.472841836512088776e-03 -1.402489393949508667e-01 2.704855203628540039e-01
2.945000000000000000e+03 4.238422012329101562e+01 6.229850769042968750e+00 -1.931261271238327026e-01 7.240787744522094727e-01 1.592857837677001953e-01 9.111027419567108154e-02
2.946000000000000000e+03 4.367384338378906250e+01 5.430945396423339844e+00 -1.664964556694030762e-01 5.426716804504394531e-01 1.128525659441947937e-01 8.444212377071380615e-03
2.947000000000000000e+03 4.268849945068359375e+01 -1.453340435028076172e+01 -8.089646100997924805e-01 1.093564182519912720e-01 -2.098824530839920044e-01 -2.979260124266147614e-02
2.948000000000000000e+03 3.620459365844726562e+01 -1.442981052398681641e+01 -6.042234301567077637e-01 1.075999736785888672e-01 -1.489870399236679077e-01 1.675767600536346436e-01
2.949000000000000000e+03 1.088412475585937500e+01 -5.418849945068359375e+00 -1.675788371358066797e-05 -2.529053801936242962e-07 -5.103236617287620902e-06 -5.132767455506836995e-06
2.950000000000000000e+03 1.023065853118896484e+01 -5.094592571258544922e+00 2.073324321827385575e-05 -7.928592893335917324e-09 6.217594545887550339e-06 -1.851897422966430895e-06
2.951000000000000000e+03 1.046605110168457031e+01 -6.934719085693359375e+00 -1.013577184494351968e-05 -2.991196197399403900e-06 -3.938090685551287606e-06 3.368853867868892848e-06
2.952000000000000000e+03 5.889858245849609375e+00 5.423623561859130859e+00 -2.344933003187179565e-01 -1.422523558139801025e-01 -1.130236983299255371e-01 2.284093797206878662e-01
2.953000000000000000e+03 9.720290184020996094e+00 4.445075035095214844e+00 -4.714616239070892334e-01 -2.714508771896362305e-01 -2.228737473487854004e-01 3.391714394092559814e-01
2.954000000000000000e+03 6.404884338378906250e+01 -2.446026229858398438e+01 -4.876636862754821777e-01 3.878488779067993164e+00 1.017247557640075684e+00 9.113243222236633301e-01
2.955000000000000000e+03 6.527867889404296875e+01 -2.443304824829101562e+01 -6.331015825271606445e-01 4.949492931365966797e+00 1.294917464256286621e+00 9.325463175773620605e-01
2.956000000000000000e+03 1.389639949798583984e+01 4.784432411193847656e+00 -5.937553644180297852e-01 -1.002411961555480957e+00 -4.788502156734466553e-01 5.963140130043029785e-01
2.957000000000000000e+03 4.426785469055175781e+00 7.885003089904785156e+00 -1.306459009647369385e-01 -2.503876388072967529e-01 -1.143100634217262268e-01 2.923594415187835693e-01
2.958000000000000000e+03 7.340488910675048828e+00 4.554698944091796875e+00 -3.139933347702026367e-01 -1.281784623861312866e-01 -1.326515376567840576e-01 2.327284067869186401e-01
2.959000000000000000e+03 6.636979579925537109e+00 5.290091514587402344e+00 -2.819955348968505859e-01 -1.445021778345108032e-01 -1.279493123292922974e-01 2.511237561702728271e-01
2.960000000000000000e+03 4.417785167694091797e+00 5.851720333099365234e+00 -1.490353941917419434e-01 -1.442775428295135498e-01 -8.799387514591217041e-02 1.854510754346847534e-01
2.961000000000000000e+03 7.489736175537109375e+01 -3.021617317199707031e+01 -2.526356577873229980e-01 8.773977279663085938e+00 2.556402683258056641e+00 -2.348735630512237549e-01
2.962000000000000000e+03 7.375963687896728516e+00 5.203232288360595703e+00 -3.322052061557769775e-01 -1.636408716440200806e-01 -1.487538218498229980e-01 2.821926474571228027e-01
2.963000000000000000e+03 8.119354248046875000e+00 5.145103931427001953e+00 -3.835096359252929688e-01 -1.842350810766220093e-01 -1.703234165906906128e-01 3.091670274734497070e-01
2.964000000000000000e+03 4.938586711883544922e+00 3.331638717651367188e+01 8.209811523556709290e-03 -1.142542600631713867e+00 -3.402998447418212891e-01 4.208664596080780029e-02
2.965000000000000000e+03 2.610771656036376953e+00 6.206941127777099609e+00 -5.804134532809257507e-02 -1.236824020743370056e-01 -5.451712384819984436e-02 1.175531893968582153e-01
2.966000000000000000e+03 4.022543907165527344e+00 -1.056663703918457031e+01 3.053264299524016678e-05 1.494849857408553362e-05 1.364434319839347154e-05 -5.901561962673440576e-06
2.967000000000000000e+03 7.529661560058593750e+01 3.049053955078125000e+01 2.938916534185409546e-02 6.213066101074218750e+00 1.872736692428588867e+00 -1.468847244977951050e-01
2.968000000000000000e+03 2.677953529357910156e+01 -6.442570209503173828e+00 -7.764603495597839355e-01 -1.104470565915107727e-01 -2.660722136497497559e-01 5.052554011344909668e-01
2.969000000000000000e+03 3.806379795074462891e+00 -1.694617271423339844e+01 8.712067938176915050e-05 1.737405000312719494e-05 3.134841972496360540e-05 -2.158369170501828194e-05
2.970000000000000000e+03 7.633251190185546875e+01 3.313084793090820312e+01 1.500112097710371017e-02 6.328586578369140625e+00 1.903076291084289551e+00 -9.386081993579864502e-02
2.971000000000000000e+03 7.533245086669921875e+01 3.336168289184570312e+01 2.424537949264049530e-02 6.160379886627197266e+00 1.855387568473815918e+00 -1.043554022908210754e-01
2.972000000000000000e+03 1.199819946289062500e+01 4.761054992675781250e+00 -5.786787867546081543e-01 -6.047317981719970703e-01 -3.550231754779815674e-01 4.677439033985137939e-01
2.973000000000000000e+03 2.722628784179687500e+01 5.815026760101318359e+00 3.861590027809143066e-01 -1.632758080959320068e-01 6.686495244503021240e-02 3.624927699565887451e-01
2.974000000000000000e+03 2.727788734436035156e+01 6.503367900848388672e+00 3.987918496131896973e-01 -2.113512903451919556e-01 5.623216927051544189e-02 4.407424330711364746e-01
2.975000000000000000e+03 4.217102050781250000e+00 2.885661506652832031e+01 1.166649535298347473e-02 -1.153852581977844238e+00 -3.426558375358581543e-01 5.507384240627288818e-02
2.976000000000000000e+03 6.608724594116210938e+00 -4.908443927764892578e+00 -1.078368859452893957e-05 -5.810992433907813393e-07 -3.409436430956702679e-06 3.062661448893777560e-07
2.977000000000000000e+03 7.254175662994384766e+00 -5.639477729797363281e+00 -1.884487755887676030e-05 3.570280114217894152e-06 -4.582379460771335289e-06 -9.896007213683333248e-07
2.978000000000000000e+03 7.510415649414062500e+01 2.946533203125000000e+01 3.556386008858680725e-02 6.218566417694091797e+00 1.876239061355590820e+00 -1.675800085067749023e-01
2.979000000000000000e+03 3.410385847091674805e+00 -2.807012367248535156e+01 -5.443439022201346233e-06 2.434263733448460698e-04 7.139487570384517312e-05 2.888063900172710419e-04
2.980000000000000000e+03 7.639183807373046875e+01 -2.816962814331054688e+01 -1.923545747995376587e-01 9.202503204345703125e+00 2.703044652938842773e+00 -3.729987740516662598e-01
2.981000000000000000e+03 7.528514099121093750e+01 -2.933652496337890625e+01 -2.543070316314697266e-01 8.908252716064453125e+00 2.596183776855468750e+00 -3.027628064155578613e-01
2.982000000000000000e+03 7.682444000244140625e+01 3.460688018798828125e+01 1.424562092870473862e-02 6.350605964660644531e+00 1.909455537796020508e+00 -6.934326887130737305e-02
2.983000000000000000e+03 7.426062011718750000e+01 3.088572120666503906e+01 4.795848950743675232e-02 6.039521694183349609e+00 1.826243996620178223e+00 -1.711759716272354126e-01
2.984000000000000000e+03 7.565894317626953125e+01 -2.486421585083007812e+01 -3.631972968578338623e-01 8.931144714355468750e+00 2.570384263992309570e+00 -7.589295506477355957e-01
2.985000000000000000e+03 2.912417030334472656e+01 8.143715858459472656e+00 1.438167691230773926e-01 -1.943311244249343872e-01 -1.515430677682161331e-02 6.308668851852416992e-01
2.986000000000000000e+03 6.623878479003906250e+01 -4.259101390838623047e+00 -1.189355492591857910e+00 5.120239257812500000e+00 1.179265141487121582e+00 -3.920395612716674805e+00
2.987000000000000000e+03 6.557020568847656250e+01 -4.118156433105468750e+00 -7.106184959411621094e-01 3.425300359725952148e+00 8.144046068191528320e-01 -3.545231342315673828e+00
2.988000000000000000e+03 7.592665863037109375e+01 -2.169092559814453125e+01 -3.069855272769927979e-01 8.758118629455566406e+00 2.535340070724487305e+00 -1.163541078567504883e+00
2.989000000000000000e+03 7.571234130859375000e+01 2.342682266235351562e+01 3.748032078146934509e-02 6.563179492950439453e+00 1.980198025703430176e+00 -2.334151268005371094e-01
2.990000000000000000e+03 7.553052520751953125e+01 2.418192100524902344e+01 3.983543440699577332e-02 6.501112461090087891e+00 1.962284326553344727e+00 -2.265174835920333862e-01
2.991000000000000000e+03 7.543485260009765625e+01 -3.082813262939453125e+01 -1.808270961046218872e-01 8.949120521545410156e+00 2.630487918853759766e+00 -1.733895391225814819e-01
2.992000000000000000e+03 3.333233594894409180e+00 2.209954071044921875e+01 3.650085628032684326e-02 -1.090140819549560547e+00 -3.160919845104217529e-01 1.143002808094024658e-01
2.993000000000000000e+03 4.341049194335937500e+00 2.544419097900390625e+01 3.044081106781959534e-02 -1.083124279975891113e+00 -3.158050477504730225e-01 8.820938318967819214e-02
2.994000000000000000e+03 3.786387681961059570e+00 6.115255832672119141e+00 -1.183462366461753845e-01 -1.431735008955001831e-01 -7.845591753721237183e-02 1.694796085357666016e-01
2.995000000000000000e+03 7.593418884277343750e+01 2.198720359802246094e+01 3.540016338229179382e-02 6.662777900695800781e+00 2.009453535079956055e+00 -2.503008544445037842e-01
2.996000000000000000e+03 7.664359283447265625e+01 1.897103118896484375e+01 2.663366124033927917e-02 6.978503704071044922e+00 2.101541280746459961e+00 -2.534878849983215332e-01
2.997000000000000000e+03 7.590740966796875000e+01 1.817935180664062500e+01 3.902873769402503967e-02 6.884455680847167969e+00 2.077045440673828125e+00 -3.137246966361999512e-01
2.998000000000000000e+03 7.598685455322265625e+01 1.580444049835205078e+01 3.266521170735359192e-02 7.062036514282226562e+00 2.128410577774047852e+00 -3.492029905319213867e-01
2.999000000000000000e+03 7.591963958740234375e+01 2.631294441223144531e+01 3.007945604622364044e-02 6.463117122650146484e+00 1.947958946228027344e+00 -1.862899065017700195e-01
3.000000000000000000e+03 7.455414581298828125e+01 2.452977371215820312e+01 5.108073353767395020e-02 6.304463386535644531e+00 1.906663179397583008e+00 -2.717141509056091309e-01
3.001000000000000000e+03 7.600498199462890625e+01 1.500990962982177734e+01 2.646862529218196869e-02 7.126194477081298828e+00 2.145798921585083008e+00 -3.608022630214691162e-01
3.002000000000000000e+03 3.203207492828369141e+00 -2.221530342102050781e+01 1.436672027921304107e-04 4.287016781745478511e-05 5.596121263806708157e-05 6.269756795518333092e-06
3.003000000000000000e+03 7.602906036376953125e+01 1.102894115447998047e+01 -1.773070544004440308e-02 7.454815387725830078e+00 2.231125354766845703e+00 -3.780488073825836182e-01
3.004000000000000000e+03 7.607424163818359375e+01 8.627083778381347656e+00 -7.332224398851394653e-02 7.670077800750732422e+00 2.279026746749877930e+00 -3.380322754383087158e-01
3.005000000000000000e+03 7.670071411132812500e+01 1.578803539276123047e+01 2.092448249459266663e-02 7.219774723052978516e+00 2.172209739685058594e+00 -2.964438796043395996e-01
3.006000000000000000e+03 7.593280029296875000e+01 1.738878250122070312e+01 3.841650113463401794e-02 6.941870212554931641e+00 2.094085931777954102e+00 -3.272977471351623535e-01
3.007000000000000000e+03 7.668527221679687500e+01 1.658681106567382812e+01 2.515439130365848541e-02 7.155028820037841797e+00 2.154054880142211914e+00 -2.864435315132141113e-01
3.008000000000000000e+03 7.608393096923828125e+01 -1.711959457397460938e+01 9.359009563922882080e-02 8.207285881042480469e+00 2.490262985229492188e+00 -1.446759819984436035e+00
3.009000000000000000e+03 4.966824531555175781e+00 -2.193898200988769531e+01 5.885801147087477148e-05 5.955793312750756741e-05 3.552478301571682096e-05 3.929041486117057502e-05
3.010000000000000000e+03 3.980331420898437500e+00 -2.304713630676269531e+01 1.798665762180462480e-04 7.045760139590129256e-05 7.509725401178002357e-05 3.704777191160246730e-05
3.011000000000000000e+03 1.302680683135986328e+01 -6.193976402282714844e+00 6.010607648931909353e-06 2.845304379661683924e-06 2.656773631315445527e-06 -6.712709364364854991e-06
3.012000000000000000e+03 1.263948059082031250e+01 -6.711719512939453125e+00 -8.853898179950192571e-06 -8.696826625964604318e-06 -5.265217168926028535e-06 3.416401796130230650e-06
3.013000000000000000e+03 7.663536071777343750e+01 2.206042671203613281e+01 2.310312353074550629e-02 6.788833141326904297e+00 2.043581008911132812e+00 -2.095107883214950562e-01
3.014000000000000000e+03 7.584473419189453125e+01 2.270202445983886719e+01 3.901646658778190613e-02 6.616595268249511719e+00 1.996683478355407715e+00 -2.365883439779281616e-01
3.015000000000000000e+03 7.608296966552734375e+01 6.998792648315429688e+00 -1.269059181213378906e-01 7.813871383666992188e+00 2.306089639663696289e+00 -2.730604112148284912e-01
3.016000000000000000e+03 3.655877113342285156e+00 -3.163113021850585938e+01 1.305511977989226580e-04 5.520230624824762344e-04 2.047722809948027134e-04 3.532701812218874693e-04
3.017000000000000000e+03 7.672306823730468750e+01 -2.099195480346679688e+01 -2.063232362270355225e-01 8.539016723632812500e+00 2.499808073043823242e+00 -1.147823452949523926e+00
3.018000000000000000e+03 7.604489898681640625e+01 1.022858619689941406e+01 -3.483515605330467224e-02 7.526219844818115234e+00 2.247415304183959961e+00 -3.722659647464752197e-01
3.019000000000000000e+03 7.677645111083984375e+01 8.586033821105957031e+00 -5.577871948480606079e-02 7.850850582122802734e+00 2.338521480560302734e+00 -2.733625769615173340e-01
3.020000000000000000e+03 7.618087768554687500e+01 -4.379331767559051514e-01 -4.422285258769989014e-01 8.306966781616210938e+00 2.359421491622924805e+00 6.283153891563415527e-01
3.021000000000000000e+03 7.599378967285156250e+01 -1.463765716552734375e+01 5.181642770767211914e-01 7.929966449737548828e+00 2.534439086914062500e+00 -1.179366946220397949e+00
3.022000000000000000e+03 7.542178344726562500e+01 3.008198738098144531e+00 -4.260023534297943115e-01 8.062029838562011719e+00 2.290808200836181641e+00 4.640606231987476349e-03
3.023000000000000000e+03 7.612112426757812500e+01 3.703710138797760010e-01 -4.336977601051330566e-01 8.270463943481445312e+00 2.351029872894287109e+00 4.857380986213684082e-01
3.024000000000000000e+03 7.678357696533203125e+01 -1.945019531250000000e+01 -1.312224119901657104e-01 8.250318527221679688e+00 2.435728788375854492e+00 -1.273275136947631836e+00
3.025000000000000000e+03 3.280167818069458008e+00 2.699429702758789062e+01 1.245657727122306824e-02 -1.207559943199157715e+00 -3.585309982299804688e-01 5.188563838601112366e-02
3.026000000000000000e+03 2.988040924072265625e+00 -1.899310874938964844e+01 1.271453802473843098e-04 -9.170933481073006988e-06 3.539233148330822587e-05 -3.343356729601509869e-05
3.027000000000000000e+03 7.567087554931640625e+01 -7.367195606231689453e+00 5.317903757095336914e-01 8.155253410339355469e+00 2.606113195419311523e+00 1.284735321998596191e+00
3.028000000000000000e+03 7.605141448974609375e+01 1.227004051208496094e+00 -4.092383682727813721e-01 8.245190620422363281e+00 2.350785732269287109e+00 3.327428102493286133e-01
3.029000000000000000e+03 7.609662628173828125e+01 -7.868406295776367188e+00 5.989797115325927734e-01 7.733172416687011719e+00 2.499645709991455078e+00 1.108154177665710449e+00
3.030000000000000000e+03 7.614355468750000000e+01 -3.607172966003417969e+00 -3.004937171936035156e-01 8.226474761962890625e+00 2.377794265747070312e+00 1.198966264724731445e+00
3.031000000000000000e+03 7.421524810791015625e+01 -5.256868839263916016e+00 -1.522119641304016113e-01 9.361474990844726562e+00 2.762778997421264648e+00 1.441099882125854492e+00
3.032000000000000000e+03 7.598329925537109375e+01 -2.092251968383789062e+01 -2.814890444278717041e-01 8.678115844726562500e+00 2.518988132476806641e+00 -1.237248539924621582e+00
3.033000000000000000e+03 7.534648132324218750e+01 -1.873898506164550781e+01 -1.643431931734085083e-01 8.758638381958007812e+00 2.578288555145263672e+00 -1.489039778709411621e+00
3.034000000000000000e+03 7.130249786376953125e+01 -1.095906257629394531e+01 3.035067558288574219e+00 1.342064380645751953e+01 4.936713695526123047e+00 -3.030074294656515121e-03
3.035000000000000000e+03 7.594456481933593750e+01 2.126931953430175781e+01 3.239466995000839233e-02 6.710958003997802734e+00 2.023005962371826172e+00 -2.608313560485839844e-01
3.036000000000000000e+03 7.680716705322265625e+01 -1.386845588684082031e+01 4.546396136283874512e-01 7.130032062530517578e+00 2.275401353836059570e+00 -8.795946240425109863e-01
3.037000000000000000e+03 7.623197937011718750e+01 -5.143863677978515625e+00 -3.339151665568351746e-02 8.028263092041015625e+00 2.398461580276489258e+00 1.353130340576171875e+00
3.038000000000000000e+03 7.690409088134765625e+01 -5.092458248138427734e+00 -5.313737690448760986e-02 7.613984584808349609e+00 2.268254280090332031e+00 1.244336843490600586e+00
3.039000000000000000e+03 7.611694335937500000e+01 -1.383116531372070312e+01 6.701238155364990234e-01 7.743613719940185547e+00 2.524121284484863281e+00 -9.543901085853576660e-01
3.040000000000000000e+03 7.680069732666015625e+01 -1.136085510253906250e+01 7.002411484718322754e-01 6.888764381408691406e+00 2.276701688766479492e+00 -1.171415075659751892e-01
3.041000000000000000e+03 7.677209472656250000e+01 2.094342470169067383e+00 -2.649929821491241455e-01 8.246673583984375000e+00 2.394504308700561523e+00 2.345310002565383911e-01
3.042000000000000000e+03 7.526251983642578125e+01 2.154257297515869141e+00 -4.793027639389038086e-01 8.140120506286621094e+00 2.298245429992675781e+00 1.227811798453330994e-01
3.043000000000000000e+03 7.607891082763671875e+01 2.917718505859375000e+01 2.448710612952709198e-02 6.383135795593261719e+00 1.922286868095397949e+00 -1.360451728105545044e-01
3.044000000000000000e+03 7.611830139160156250e+01 4.514663219451904297e+00 -2.260895520448684692e-01 8.023074150085449219e+00 2.339095354080200195e+00 -8.590422570705413818e-02
3.045000000000000000e+03 7.600464630126953125e+01 -9.737170219421386719e+00 9.351032972335815430e-01 7.614693164825439453e+00 2.564939022064208984e+00 5.124610066413879395e-01
3.046000000000000000e+03 7.600060272216796875e+01 -9.027876853942871094e+00 8.085036277770996094e-01 7.665227890014648438e+00 2.542119503021240234e+00 8.178116083145141602e-01
3.047000000000000000e+03 7.431153106689453125e+01 -1.292624092102050781e+01 1.438017487525939941e+00 9.329899787902832031e+00 3.230375051498413086e+00 -8.534365892410278320e-01
3.048000000000000000e+03 7.610976409912109375e+01 -2.828073978424072266e+00 -3.840357661247253418e-01 8.277772903442382812e+00 2.368121147155761719e+00 1.103420376777648926e+00
3.049000000000000000e+03 7.549343109130859375e+01 -2.565546035766601562e+01 -3.508984744548797607e-01 8.924586296081542969e+00 2.572106361389160156e+00 -6.733493804931640625e-01
3.050000000000000000e+03 7.617471313476562500e+01 -1.220264196395874023e+00 -4.548747837543487549e-01 8.311079978942871094e+00 2.356861591339111328e+00 7.951485514640808105e-01
3.051000000000000000e+03 7.612993621826171875e+01 -2.019529342651367188e+00 -4.256304800510406494e-01 8.323200225830078125e+00 2.369271039962768555e+00 9.489324688911437988e-01
3.052000000000000000e+03 7.608227539062500000e+01 6.175505161285400391e+00 -1.604607850313186646e-01 7.885699748992919922e+00 2.317571640014648438e+00 -2.234273403882980347e-01
3.053000000000000000e+03 7.532541656494140625e+01 -1.567488670349121094e+01 4.621482193470001221e-01 8.558024406433105469e+00 2.706051826477050781e+00 -1.427323460578918457e+00
3.054000000000000000e+03 7.601837158203125000e+01 1.183234119415283203e+01 -4.804607015103101730e-03 7.383897304534912109e+00 2.213727712631225586e+00 -3.833124041557312012e-01
3.055000000000000000e+03 7.607479095458984375e+01 -1.631958961486816406e+01 2.195841073989868164e-01 8.104559898376464844e+00 2.497243165969848633e+00 -1.408623099327087402e+00
3.056000000000000000e+03 7.535371398925781250e+01 -2.010763931274414062e+01 -3.136820495128631592e-01 8.788539886474609375e+00 2.542457342147827148e+00 -1.358080625534057617e+00
3.057000000000000000e+03 4.087053775787353516e+00 2.194760894775390625e+01 5.328743532299995422e-02 -1.024905204772949219e+00 -2.914853096008300781e-01 1.382462680339813232e-01
3.058000000000000000e+03 7.609358215332031250e+01 5.341789245605468750e+00 -1.962280720472335815e-01 7.956845283508300781e+00 2.328185081481933594e+00 -1.637932658195495605e-01
3.059000000000000000e+03 7.601388549804687500e+01 1.421909713745117188e+01 2.252313680946826935e-02 7.189760684967041016e+00 2.163685083389282227e+00 -3.674362003803253174e-01
3.060000000000000000e+03 7.601537322998046875e+01 1.342852592468261719e+01 1.537780091166496277e-02 7.252194881439208984e+00 2.180271863937377930e+00 -3.772654235363006592e-01
3.061000000000000000e+03 1.009878444671630859e+01 -2.051375770568847656e+01 1.261950383195653558e-04 -6.293079786701127887e-05 1.897927540994714946e-05 -8.027786861930508167e-06
3.062000000000000000e+03 1.229975795745849609e+01 -2.285120964050292969e+01 4.215697699692100286e-04 -1.241164718521758914e-04 8.923598215915262699e-05 -3.355640001245774329e-05
3.063000000000000000e+03 7.456629943847656250e+01 -3.694945144653320312e+01 -5.263752117753028870e-02 8.404847145080566406e+00 2.505662679672241211e+00 -6.758278608322143555e-02
3.064000000000000000e+03 7.589190673828125000e+01 1.896897125244140625e+01 3.887660428881645203e-02 6.835032939910888672e+00 2.062172889709472656e+00 -3.014308214187622070e-01
3.065000000000000000e+03 7.582116699218750000e+01 -2.913723945617675781e+01 -1.983812153339385986e-01 9.072443962097167969e+00 2.662218809127807617e+00 -3.039698004722595215e-01
3.066000000000000000e+03 3.288730621337890625e+00 1.485473823547363281e+01 3.697039559483528137e-02 -7.439916133880615234e-01 -2.121063768863677979e-01 2.956046462059020996e-01
3.067000000000000000e+03 4.060742378234863281e+00 1.551161575317382812e+01 6.293515115976333618e-02 -7.638366222381591797e-01 -2.102704346179962158e-01 3.294896781444549561e-01
3.068000000000000000e+03 3.861380338668823242e+00 -2.223074340820312500e+01 -6.379809929057955742e-05 2.971387220895849168e-05 -1.022526885208208114e-05 9.596299787517637014e-05
3.069000000000000000e+03 4.954298496246337891e+00 -5.621645450592041016e+00 8.483636520395521075e-06 1.282952666770142969e-06 2.929976744781015441e-06 -5.151358436705777422e-06
3.070000000000000000e+03 3.543247461318969727e+00 -6.806033611297607422e+00 -9.192667675961274654e-06 -1.347927809547400102e-05 -6.801583822380052879e-06 1.153798984887544066e-05
3.071000000000000000e+03 3.978952884674072266e+00 -6.317713737487792969e+00 1.242805774381849915e-05 1.645987686060834676e-05 8.666380381328053772e-06 -8.553057341487146914e-06
3.072000000000000000e+03 3.190170764923095703e+00 -1.594966793060302734e+01 8.048562449403107166e-05 9.643249541113618761e-06 2.703866266529075801e-05 -1.665747913648374379e-05
3.073000000000000000e+03 3.117274045944213867e+00 -1.267243576049804688e+01 4.929361966787837446e-05 1.052549214364262298e-05 1.794573290681000799e-05 5.836079708387842402e-06
3.074000000000000000e+03 3.104019641876220703e+00 -1.343695354461669922e+01 -6.493964610854163766e-05 1.403375449626764748e-06 -1.906088255054783076e-05 -1.815664109017234296e-05
3.075000000000000000e+03 3.276135206222534180e+00 1.406962394714355469e+01 2.691023238003253937e-02 -6.897077560424804688e-01 -1.988392621278762817e-01 3.074665069580078125e-01
3.076000000000000000e+03 4.071642398834228516e+00 1.471920108795166016e+01 5.229023844003677368e-02 -7.194969654083251953e-01 -2.001620233058929443e-01 3.485084474086761475e-01
3.077000000000000000e+03 4.747579097747802734e+00 -1.405416584014892578e+01 2.425566344754770398e-05 3.275392373325303197e-05 1.710287688183598220e-05 -3.103687413386069238e-05
3.078000000000000000e+03 7.396231174468994141e+00 -1.176250362396240234e+01 -3.944459967897273600e-05 -2.320947351108770818e-05 -1.879622141132131219e-05 1.520245587016688660e-05
3.079000000000000000e+03 5.628994369506835938e+01 -8.640189170837402344e+00 -1.969187736511230469e+00 -3.916848916560411453e-03 -5.919314026832580566e-01 -5.177162289619445801e-01
3.080000000000000000e+03 2.990632772445678711e+00 -1.826117134094238281e+01 -1.105337869375944138e-04 1.637391687836498022e-05 -2.824795956257730722e-05 1.091575632017338648e-05
3.081000000000000000e+03 6.622277736663818359e+00 -1.506656742095947266e+01 -9.103031334234401584e-05 -3.128088565063080750e-06 -2.824752118613105267e-05 2.584976527941762470e-06
3.082000000000000000e+03 4.040419101715087891e+00 1.718604278564453125e+01 7.343491911888122559e-02 -8.572115898132324219e-01 -2.351329922676086426e-01 2.743478119373321533e-01
3.083000000000000000e+03 4.639338970184326172e+00 -1.242842769622802734e+01 -3.900177034665830433e-05 -2.439615855109877884e-05 -1.901937866932712495e-05 4.347031790530309081e-06
3.084000000000000000e+03 3.258068561553955078e+00 1.889709091186523438e+01 5.119993910193443298e-02 -9.771621823310852051e-01 -2.777886688709259033e-01 1.882520914077758789e-01
3.085000000000000000e+03 3.208962440490722656e+00 1.098040866851806641e+01 -2.750322222709655762e-02 -4.524659216403961182e-01 -1.439907401800155640e-01 3.107140958309173584e-01
3.086000000000000000e+03 3.966657400131225586e+00 1.239113521575927734e+01 2.658035606145858765e-03 -5.617443919181823730e-01 -1.677259057760238647e-01 3.730635941028594971e-01
3.087000000000000000e+03 3.942570686340332031e+00 1.959628295898437500e+01 6.809089332818984985e-02 -9.610638618469238281e-01 -2.678918838500976562e-01 1.953530460596084595e-01
3.088000000000000000e+03 3.443376779556274414e+00 -9.646994590759277344e+00 3.276069037383422256e-05 1.011414406093535945e-05 1.286245060327928513e-05 -9.345993930764961988e-06
3.089000000000000000e+03 4.463108062744140625e+00 -6.693429946899414062e+00 -1.099010205507511273e-05 -1.895868081192020327e-05 -8.984634405351243913e-06 7.777498467476107180e-06
3.090000000000000000e+03 3.900251865386962891e+00 1.166877365112304688e+01 -1.632964797317981720e-02 -5.099021196365356445e-01 -1.578695327043533325e-01 3.677021861076354980e-01
3.091000000000000000e+03 4.587849617004394531e+00 1.950592422485351562e+01 8.709118515253067017e-02 -9.182479381561279297e-01 -2.493470311164855957e-01 2.195063680410385132e-01
3.092000000000000000e+03 4.304971218109130859e+00 -9.233514785766601562e+00 3.340833427500911057e-05 9.792228411242831498e-06 1.296016853302717209e-05 -4.312546025175834075e-06
3.093000000000000000e+03 3.332938909530639648e+00 7.701560974121093750e+00 -8.578227460384368896e-02 -2.196679264307022095e-01 -9.163506329059600830e-02 2.198684066534042358e-01
3.094000000000000000e+03 4.065890312194824219e+00 9.378744125366210938e+00 -8.190898597240447998e-02 -3.448692858219146729e-01 -1.280334740877151489e-01 3.354896605014801025e-01
3.095000000000000000e+03 3.757213592529296875e+00 -2.057828712463378906e+01 -7.018231553956866264e-05 1.084361065295524895e-05 -1.780161255737766623e-05 5.015384522266685963e-05
3.096000000000000000e+03 7.550155639648437500e+01 -2.651503944396972656e+01 -3.306076228618621826e-01 8.948008537292480469e+00 2.585220098495483398e+00 -5.729219913482666016e-01
3.097000000000000000e+03 7.536293029785156250e+01 -2.876936340332031250e+01 -2.472035586833953857e-01 8.933196067810058594e+00 2.605797767639160156e+00 -3.526699542999267578e-01
3.098000000000000000e+03 5.588112354278564453e+00 -1.228156661987304688e+01 -4.484596138354390860e-05 -1.823937418521381915e-05 -1.892560067062731832e-05 1.167465597973205149e-05
3.099000000000000000e+03 7.589868545532226562e+00 -1.121072196960449219e+01 3.433697202126495540e-05 1.374068597215227783e-05 1.442329812562093139e-05 -9.228518138115759939e-06
3.100000000000000000e+03 3.993304967880249023e+00 -1.133064842224121094e+01 -3.692925020004622638e-05 -1.266352865059161559e-05 -1.487783356424188241e-05 5.004271201869414654e-07
3.101000000000000000e+03 4.021708011627197266e+00 1.314238834381103516e+01 1.902803964912891388e-02 -6.127253770828247070e-01 -1.781091988086700439e-01 3.732398152351379395e-01
3.102000000000000000e+03 4.013684272766113281e+00 1.800590515136718750e+01 7.340084016323089600e-02 -8.930915594100952148e-01 -2.459072172641754150e-01 2.485552132129669189e-01
3.103000000000000000e+03 4.803403377532958984e+00 8.698513031005859375e+00 -1.305143684148788452e-01 -3.093222975730895996e-01 -1.319510042667388916e-01 3.561262786388397217e-01
3.104000000000000000e+03 3.981961727142333984e+00 1.017598533630371094e+01 -6.178333610296249390e-02 -3.974671363830566406e-01 -1.377751380205154419e-01 3.521573245525360107e-01
3.105000000000000000e+03 3.882425308227539062e+00 1.093650913238525391e+01 -3.496602550148963928e-02 -4.563900530338287354e-01 -1.474068313837051392e-01 3.605437576770782471e-01
3.106000000000000000e+03 4.017531871795654297e+00 -8.274085998535156250e+00 3.147890674881637096e-05 8.012568287085741758e-06 1.184744178317487240e-05 -6.545208179886685684e-06
3.107000000000000000e+03 3.369894504547119141e+00 2.625041007995605469e+01 1.588862389326095581e-02 -1.184385180473327637e+00 -3.505489528179168701e-01 5.917938053607940674e-02
3.108000000000000000e+03 4.060088157653808594e+00 2.818840026855468750e+01 9.491619653999805450e-03 -1.163505196571350098e+00 -3.462040424346923828e-01 5.788079649209976196e-02
3.109000000000000000e+03 4.764471054077148438e+00 9.296293258666992188e+00 -1.104397103190422058e-01 -3.473935127258300781e-01 -1.373499631881713867e-01 3.783848881721496582e-01
3.110000000000000000e+03 5.440979003906250000e+00 3.419494247436523438e+01 8.870488032698631287e-03 -1.112707495689392090e+00 -3.311510980129241943e-01 4.398972168564796448e-02
3.111000000000000000e+03 4.273698806762695312e+00 3.279994964599609375e+01 6.050574593245983124e-03 -1.196291327476501465e+00 -3.570722341537475586e-01 3.789151087403297424e-02
3.112000000000000000e+03 4.494721412658691406e+00 -1.719840049743652344e+01 -7.627074955962598324e-05 -1.799815549929917324e-06 -2.342116931686177850e-05 2.260844212287338451e-06
3.113000000000000000e+03 4.041850090026855469e+00 1.634144020080566406e+01 7.276514172554016113e-02 -8.127695918083190918e-01 -2.220013290643692017e-01 3.039754927158355713e-01
3.114000000000000000e+03 3.463458061218261719e+00 2.544628524780273438e+01 1.835675165057182312e-02 -1.163894057273864746e+00 -3.436612188816070557e-01 6.732055544853210449e-02
3.115000000000000000e+03 4.482399940490722656e+00 2.727208709716796875e+01 1.921536400914192200e-02 -1.104756236076354980e+00 -3.256622850894927979e-01 7.198586314916610718e-02
3.116000000000000000e+03 3.911903381347656250e+00 2.758032417297363281e+01 1.250100973993539810e-02 -1.163704037666320801e+00 -3.453609049320220947e-01 5.846814066171646118e-02
3.117000000000000000e+03 1.349765300750732422e+01 -2.525531005859375000e+01 9.807668393477797508e-04 -3.725490532815456390e-04 1.824653299991041422e-04 1.355217973468825221e-04
3.118000000000000000e+03 4.875100135803222656e+00 3.203054428100585938e+01 1.031380984932184219e-02 -1.143041610717773438e+00 -3.398183286190032959e-01 4.779294133186340332e-02
3.119000000000000000e+03 3.695877552032470703e+00 -1.973356628417968750e+01 1.326731435256078839e-04 5.075297394796507433e-06 4.132453250349499285e-05 -2.344348649785388261e-05
3.120000000000000000e+03 4.434853553771972656e+00 -2.746424293518066406e+01 2.215679342043586075e-05 1.313988032052293420e-04 4.606667789630591869e-05 3.147376701235771179e-04
3.121000000000000000e+03 4.352213859558105469e+00 -2.654968452453613281e+01 2.321627107448875904e-04 1.728215866023674607e-04 1.214952862937934697e-04 1.966450217878445983e-04
3.122000000000000000e+03 4.530718326568603516e+00 -3.157042884826660156e+01 -2.296181082783732563e-05 3.750273317564278841e-04 1.056196560966782272e-04 5.139781278558075428e-04
3.123000000000000000e+03 7.590802001953125000e+01 2.053019523620605469e+01 3.907237574458122253e-02 6.746489524841308594e+00 2.035668611526489258e+00 -2.723564207553863525e-01
3.124000000000000000e+03 7.588961029052734375e+01 1.975664710998535156e+01 3.856054320931434631e-02 6.784506320953369141e+00 2.046920061111450195e+00 -2.886353135108947754e-01
3.125000000000000000e+03 1.289458179473876953e+01 -2.464951133728027344e+01 5.745839443989098072e-04 -7.269398338394239545e-05 1.505669933976605535e-04 1.597023469912528526e-06
3.126000000000000000e+03 5.457007217407226562e+01 -8.900039672851562500e+00 -1.719619035720825195e+00 9.518778324127197266e-02 -4.873293638229370117e-01 -3.514479994773864746e-01
3.127000000000000000e+03 7.579116821289062500e+01 -2.332391548156738281e+01 -3.508465886116027832e-01 8.884535789489746094e+00 2.560106754302978516e+00 -9.625621438026428223e-01
3.128000000000000000e+03 7.577233886718750000e+01 -2.413591384887695312e+01 -3.478367328643798828e-01 8.916740417480468750e+00 2.570671081542968750e+00 -8.587800860404968262e-01
3.129000000000000000e+03 7.498140716552734375e+01 2.847631645202636719e+01 4.423176124691963196e-02 6.231395721435546875e+00 1.882688164710998535e+00 -1.848950237035751343e-01
3.130000000000000000e+03 1.172929382324218750e+01 1.147661209106445312e+01 1.541296578943729401e-02 -6.595836877822875977e-01 -1.932512074708938599e-01 7.447312474250793457e-01
3.131000000000000000e+03 4.982060432434082031e+00 2.338764190673828125e+01 5.514884740114212036e-02 -9.898658990859985352e-01 -2.804151177406311035e-01 1.307112127542495728e-01
3.132000000000000000e+03 1.411182403564453125e+01 -2.576122283935546875e+01 9.325885912403464317e-04 -1.386624207952991128e-04 2.381778467679396272e-04 -1.743865868775174022e-04
3.133000000000000000e+03 4.570042610168457031e+00 -2.829962348937988281e+01 2.438175579300150275e-04 2.567794290371239185e-04 1.501790975453332067e-04 3.024856559932231903e-04
3.134000000000000000e+03 7.418012237548828125e+01 3.363505554199218750e+01 4.240779578685760498e-02 5.967940807342529297e+00 1.803104639053344727e+00 -1.187562048435211182e-01
3.135000000000000000e+03 4.216773509979248047e+00 2.360335350036621094e+01 4.194200411438941956e-02 -1.052946090698242188e+00 -3.033012151718139648e-01 1.106179952621459961e-01
3.136000000000000000e+03 4.358895778656005859e+00 2.449998855590820312e+01 3.747168183326721191e-02 -1.060776829719543457e+00 -3.069915473461151123e-01 1.004559695720672607e-01
3.137000000000000000e+03 7.523141479492187500e+01 2.498504066467285156e+01 3.993611782789230347e-02 6.406191825866699219e+00 1.933838367462158203e+00 -2.287304699420928955e-01
3.138000000000000000e+03 4.578134536743164062e+00 -3.415014648437500000e+01 4.537791755865328014e-05 6.662215455435216427e-04 2.134798414772376418e-04 4.950416041538119316e-04
3.139000000000000000e+03 1.467471885681152344e+01 -2.614971923828125000e+01 1.106810290366411209e-03 -3.150374977849423885e-04 2.375318290432915092e-04 3.023574245162308216e-04
3.140000000000000000e+03 2.453202056884765625e+01 -4.065689086914062500e+00 -9.016723036766052246e-01 -2.275490015745162964e-01 -3.387663960456848145e-01 5.257850289344787598e-01
3.141000000000000000e+03 4.985859394073486328e+00 3.603700256347656250e+01 9.366340003907680511e-03 -1.161332249641418457e+00 -3.455897867679595947e-01 3.384072706103324890e-02
3.142000000000000000e+03 7.583688354492187500e+01 -3.204623794555664062e+01 -1.304290443658828735e-01 9.056200981140136719e+00 2.677731513977050781e+00 -1.121494099497795105e-01
3.143000000000000000e+03 4.319047451019287109e+00 -3.611590576171875000e+01 -2.254344872198998928e-05 8.161025471054017544e-04 2.380677324254065752e-04 5.936315865255892277e-04
3.144000000000000000e+03 6.619313240051269531e+00 -3.489484786987304688e+01 1.954701076556375483e-07 5.381215014494955540e-04 1.614950888324528933e-04 6.302373367361724377e-04
3.145000000000000000e+03 1.199871349334716797e+01 1.708038902282714844e+01 4.988363385200500488e-01 -4.484754800796508789e-01 1.510825939476490021e-02 3.379052877426147461e-01
3.146000000000000000e+03 6.676413726806640625e+01 -2.216477012634277344e+01 -6.228330135345458984e-01 6.614763259887695312e+00 1.797579050064086914e+00 1.075676798820495605e+00
3.147000000000000000e+03 2.922088050842285156e+01 1.028417110443115234e+01 -8.220656216144561768e-02 -1.827691942453384399e-01 -7.949272543191909790e-02 6.555225253105163574e-01
3.148000000000000000e+03 5.693717575073242188e+01 -8.227135658264160156e+00 -2.086588621139526367e+00 -1.952474750578403473e-02 -6.318339705467224121e-01 -5.188966989517211914e-01
3.149000000000000000e+03 5.521738052368164062e+01 -8.498310089111328125e+00 -1.778899788856506348e+00 1.010916680097579956e-01 -5.033424496650695801e-01 -3.646931946277618408e-01
3.150000000000000000e+03 7.535994720458984375e+01 3.218538284301757812e+01 2.834292873740196228e-02 6.184266090393066406e+00 1.863782763481140137e+00 -1.214692071080207825e-01
3.151000000000000000e+03 4.655067825317382812e+01 4.240155220031738281e+00 -4.265687987208366394e-02 2.120665311813354492e-01 5.082289502024650574e-02 3.575115650892257690e-02
3.152000000000000000e+03 5.881449890136718750e+01 -7.027886867523193359e+00 -2.248733520507812500e+00 -2.885876782238483429e-02 -6.832776665687561035e-01 -5.425809621810913086e-01
3.153000000000000000e+03 5.649671936035156250e+01 -7.683630943298339844e+00 -1.910252928733825684e+00 9.858164191246032715e-02 -5.435013771057128906e-01 -3.657533526420593262e-01
3.154000000000000000e+03 5.744364261627197266e+00 -5.592387676239013672e+00 -1.575560236233286560e-05 2.059734015347203240e-06 -4.108760094823082909e-06 6.515176210086792707e-06
3.155000000000000000e+03 4.250312328338623047e+00 -4.875945568084716797e+00 8.841794624458998442e-06 3.713507339853094891e-06 3.766590680243098177e-06 -2.875546670111361891e-06
3.156000000000000000e+03 7.949898242950439453e+00 -5.800899982452392578e+00 2.214562846347689629e-05 -2.481143610566505231e-06 5.899345524085219949e-06 2.740900754361064173e-06
3.157000000000000000e+03 3.472565174102783203e+00 -4.880315303802490234e+00 -6.751286491635255516e-06 -5.478992534335702658e-06 -3.669083753266022541e-06 2.054745891655329615e-06
3.158000000000000000e+03 1.432230281829833984e+01 4.316739559173583984e+00 -5.525061488151550293e-01 -1.041645169258117676e+00 -4.782454073429107666e-01 6.441110372543334961e-01
3.159000000000000000e+03 1.127946281433105469e+01 1.032205867767333984e+01 -2.180090695619583130e-01 -6.223444342613220215e-01 -2.521060407161712646e-01 7.484749555587768555e-01
3.160000000000000000e+03 1.131886863708496094e+01 7.951716423034667969e+00 -5.726130604743957520e-01 -5.768260359764099121e-01 -3.448317348957061768e-01 6.547295451164245605e-01
3.161000000000000000e+03 1.298395729064941406e+01 1.347712135314941406e+01 4.377596378326416016e-01 -4.760955274105072021e-01 -1.150076091289520264e-02 5.940808057785034180e-01
3.162000000000000000e+03 5.890299606323242188e+01 -6.097165584564208984e+00 -1.921663284301757812e+00 8.611181378364562988e-02 -5.506654381752014160e-01 -3.563650846481323242e-01
3.163000000000000000e+03 2.197951126098632812e+01 -6.853770017623901367e-01 -7.659298181533813477e-01 -2.776299118995666504e-01 -3.130679428577423096e-01 5.298286080360412598e-01
3.164000000000000000e+03 3.256299972534179688e+01 -1.371600723266601562e+01 -5.227088332176208496e-01 4.949421808123588562e-02 -1.419643908739089966e-01 2.630093693733215332e-01
3.165000000000000000e+03 2.499954414367675781e+01 -4.755158901214599609e+00 -8.804079890251159668e-01 -2.172943204641342163e-01 -3.293106853961944580e-01 5.339700579643249512e-01
3.166000000000000000e+03 3.133915901184082031e+01 -1.284822177886962891e+01 -5.150054693222045898e-01 1.858356408774852753e-02 -1.489265710115432739e-01 3.130432367324829102e-01
3.167000000000000000e+03 2.904968261718750000e+01 1.128550338745117188e+01 -2.128493487834930420e-01 -2.001486420631408691e-01 -1.238994002342224121e-01 6.182494759559631348e-01
3.168000000000000000e+03 2.709904289245605469e+01 1.303217601776123047e+01 -4.801169633865356445e-01 -5.953875780105590820e-01 -3.226513564586639404e-01 4.524871408939361572e-01
3.169000000000000000e+03 6.701301574707031250e+01 -1.908711624145507812e+01 2.045619636774063110e-01 8.140699386596679688e+00 2.503578424453735352e+00 1.848878979682922363e+00
3.170000000000000000e+03 7.018099212646484375e+01 -7.376569747924804688e+00 1.156763315200805664e+00 1.347648620605468750e+01 4.389975070953369141e+00 5.577040314674377441e-01
3.171000000000000000e+03 1.961317634582519531e+01 1.127853989601135254e+00 -4.964123964309692383e-01 -5.034309029579162598e-01 -2.999529838562011719e-01 7.985110878944396973e-01
3.172000000000000000e+03 3.200827026367187500e+01 -1.323899841308593750e+01 -5.221557021141052246e-01 3.772889822721481323e-02 -1.453280448913574219e-01 2.863276600837707520e-01
3.173000000000000000e+03 5.261375808715820312e+01 -1.007200336456298828e+01 -1.472490072250366211e+00 9.683978557586669922e-02 -4.126950800418853760e-01 -3.251946270465850830e-01
3.174000000000000000e+03 5.196044158935546875e+01 -1.045123386383056641e+01 -1.412585973739624023e+00 8.994797617197036743e-02 -3.967913985252380371e-01 -3.004606068134307861e-01
3.175000000000000000e+03 2.708678054809570312e+01 -7.078423023223876953e+00 -7.422476410865783691e-01 -1.048617735505104065e-01 -2.541328072547912598e-01 5.037825107574462891e-01
3.176000000000000000e+03 2.508839607238769531e+01 -3.711335182189941406e+00 -8.635298609733581543e-01 -1.467323750257492065e-01 -3.030786812305450439e-01 4.719907045364379883e-01
3.177000000000000000e+03 1.022128009796142578e+01 -2.173062324523925781e+01 2.037987724179401994e-04 -8.928628085413947701e-05 3.435375037952326238e-05 4.505979450186714530e-05
3.178000000000000000e+03 5.130647277832031250e+01 -1.082147979736328125e+01 -1.339451074600219727e+00 9.792335331439971924e-02 -3.724583387374877930e-01 -2.882657051086425781e-01
3.179000000000000000e+03 7.430786132812500000e+00 -1.748095512390136719e+01 8.765539678279310465e-05 5.105323725729249418e-05 4.161259130341932178e-05 8.403437277593184263e-06
3.180000000000000000e+03 1.864665412902832031e+01 6.209009885787963867e-01 -5.738595128059387207e-01 -7.861318588256835938e-01 -4.079974293708801270e-01 8.936635255813598633e-01
3.181000000000000000e+03 2.025645446777343750e+01 1.045783877372741699e+00 -5.072172880172729492e-01 -3.599265217781066895e-01 -2.601431310176849365e-01 7.252140045166015625e-01
3.182000000000000000e+03 6.469563293457031250e+01 -2.511183547973632812e+01 -6.102349162101745605e-01 4.463895320892333984e+00 1.156098246574401855e+00 8.849235177040100098e-01
3.183000000000000000e+03 5.857207107543945312e+01 1.281393241882324219e+01 6.472353935241699219e-01 3.406987190246582031e+00 1.216266751289367676e+00 -6.245666146278381348e-01
3.184000000000000000e+03 5.815388870239257812e+01 1.185408496856689453e+01 5.425626039505004883e-01 3.311027288436889648e+00 1.156076908111572266e+00 -5.548637509346008301e-01
3.185000000000000000e+03 6.692096710205078125e+01 -4.278219699859619141e+00 -1.434571385383605957e+00 6.637700557708740234e+00 1.560938835144042969e+00 -3.694044113159179688e+00
3.186000000000000000e+03 5.595258712768554688e+01 -3.178895187377929688e+01 -1.674549430608749390e-01 3.678798079490661621e-01 6.012746319174766541e-02 -4.399949312210083008e-02
3.187000000000000000e+03 7.052259826660156250e+01 -1.602112388610839844e+01 5.032793879508972168e-01 1.206268787384033203e+01 3.769790172576904297e+00 -2.623199820518493652e-01
3.188000000000000000e+03 6.097835540771484375e+01 -2.747909545898437500e+01 -4.805290400981903076e-01 1.838781952857971191e+00 4.074758589267730713e-01 4.808120131492614746e-01
3.189000000000000000e+03 1.781284904479980469e+01 -2.771571159362792969e+01 2.454792382195591927e-03 -4.874150326941162348e-04 5.902131670154631138e-04 5.424280243460088968e-05
3.190000000000000000e+03 1.565792846679687500e+01 -9.131209373474121094e+00 -8.333386176673229784e-06 1.252245510841021314e-06 -2.124342017850722186e-06 2.061067107206326909e-06
3.191000000000000000e+03 1.556284427642822266e+01 -8.093470573425292969e+00 -9.213993507728446275e-06 -1.988869826163863763e-06 -3.360858954692957923e-06 2.721635837588110007e-06
3.192000000000000000e+03 1.052476119995117188e+01 4.436712265014648438e+00 -5.099301934242248535e-01 -3.527820706367492676e-01 -2.588136792182922363e-01 3.788456320762634277e-01
3.193000000000000000e+03 1.150240516662597656e+01 -8.762222290039062500e+00 -8.018390872166492045e-06 -1.106845684262225404e-05 -5.726054496335564181e-06 6.226677129461677396e-08
3.194000000000000000e+03 1.201615142822265625e+01 1.287679195404052734e+01 2.825033068656921387e-01 -6.037113070487976074e-01 -9.636240452527999878e-02 6.781809329986572266e-01
3.195000000000000000e+03 1.317359447479248047e+01 1.420897006988525391e+01 5.531258583068847656e-01 -4.056538045406341553e-01 4.424161836504936218e-02 5.130025744438171387e-01
3.196000000000000000e+03 1.706565475463867188e+01 -2.846871948242187500e+01 1.738205202855169773e-03 -5.118006956763565540e-04 3.679213405121117830e-04 3.587257233448326588e-04
3.197000000000000000e+03 6.284066009521484375e+01 -2.573859786987304688e+01 -5.104759931564331055e-01 2.950004816055297852e+00 7.318586111068725586e-01 7.528187632560729980e-01
3.198000000000000000e+03 1.324821281433105469e+01 3.980823993682861328e+00 -5.354413390159606934e-01 -8.139036893844604492e-01 -4.048035144805908203e-01 5.480958819389343262e-01
3.199000000000000000e+03 1.347731208801269531e+01 4.428832530975341797e+00 -5.699213147163391113e-01 -8.922780156135559082e-01 -4.386597871780395508e-01 5.609738826751708984e-01
3.200000000000000000e+03 2.373940086364746094e+01 1.849303364753723145e+00 -2.473200410604476929e-01 1.025863662362098694e-01 -4.342010244727134705e-02 2.429932355880737305e-01
3.201000000000000000e+03 4.538750839233398438e+01 -1.349468040466308594e+01 -9.309092760086059570e-01 1.093269810080528259e-01 -2.464746981859207153e-01 -1.089101582765579224e-01
3.202000000000000000e+03 4.606418609619140625e+01 -1.324607563018798828e+01 -9.630984067916870117e-01 1.143777295947074890e-01 -2.546162009239196777e-01 -1.334686577320098877e-01
3.203000000000000000e+03 2.685217285156250000e+01 1.568088912963867188e+01 -1.571185886859893799e-01 -5.993869304656982422e-01 -2.269516587257385254e-01 2.763042449951171875e-01
3.204000000000000000e+03 2.691190528869628906e+01 1.846377182006835938e+01 1.871351748704910278e-01 -4.610299766063690186e-01 -8.216843754053115845e-02 2.666415274143218994e-01
3.205000000000000000e+03 4.152330780029296875e+01 7.154591560363769531e+00 -1.541219949722290039e-01 8.435065746307373047e-01 2.068153768777847290e-01 1.899903565645217896e-01
3.206000000000000000e+03 8.211004257202148438e+00 -1.718893051147460938e+01 -1.514094583399128169e-05 -3.468716158749884926e-06 -5.582898666034452617e-06 5.289342084324744064e-07
3.207000000000000000e+03 6.934008598327636719e+00 -1.444837284088134766e+01 5.363998207030817866e-05 2.936093733296729624e-05 2.490027509338688105e-05 -3.115374738626996987e-06
3.208000000000000000e+03 5.755645751953125000e+01 1.073340129852294922e+01 4.385589957237243652e-01 3.127516031265258789e+00 1.069822549819946289e+00 -4.100084602832794189e-01
3.209000000000000000e+03 4.189064407348632812e+01 -1.424594497680664062e+01 -7.887944579124450684e-01 1.289126127958297729e-01 -1.979645639657974243e-01 7.227796595543622971e-03
3.210000000000000000e+03 6.413932800292968750e+01 -3.603027105331420898e+00 -4.569284617900848389e-01 1.646942496299743652e+00 3.570041954517364502e-01 -2.519054889678955078e+00
3.211000000000000000e+03 6.299388504028320312e+01 -4.757206439971923828e+00 -1.114519119262695312e+00 1.979977935552597046e-01 -2.749564051628112793e-01 -1.345324158668518066e+00
3.212000000000000000e+03 6.220106506347656250e+01 -2.630885696411132812e+01 -5.334476232528686523e-01 2.526823997497558594e+00 5.980129241943359375e-01 6.686596870422363281e-01
3.213000000000000000e+03 6.580948638916015625e+01 -2.368582344055175781e+01 -6.424227952957153320e-01 5.457688331604003906e+00 1.444579601287841797e+00 9.877046942710876465e-01
3.214000000000000000e+03 1.354526710510253906e+01 6.306200504302978516e+00 -7.546892166137695312e-01 -1.061266064643859863e+00 -5.447865724563598633e-01 5.884593129158020020e-01
3.215000000000000000e+03 7.608988189697265625e+01 -1.791964149475097656e+01 -1.498267613351345062e-02 8.324924468994140625e+00 2.492982387542724609e+00 -1.461436271667480469e+00
3.216000000000000000e+03 5.889090347290039062e+01 1.349803733825683594e+01 6.972534060478210449e-01 3.449165105819702148e+00 1.243925571441650391e+00 -6.798354983329772949e-01
3.217000000000000000e+03 5.994502639770507812e+01 -5.421384334564208984e+00 -1.712613821029663086e+00 1.048848256468772888e-01 -4.823186993598937988e-01 -4.073025882244110107e-01
3.218000000000000000e+03 5.539928436279296875e+01 7.019261837005615234e+00 1.720350086688995361e-01 1.689040303230285645e+00 5.583226084709167480e-01 1.889750063419342041e-01
3.219000000000000000e+03 5.757997131347656250e+01 8.127540588378906250e+00 2.203648835420608521e-01 2.577382564544677734e+00 8.393242359161376953e-01 -3.263379931449890137e-01
3.220000000000000000e+03 2.277479743957519531e+01 2.267676591873168945e+00 -1.905262768268585205e-01 1.246874183416366577e-01 -1.975165680050849915e-02 3.141399025917053223e-01
3.221000000000000000e+03 5.398690032958984375e+01 -3.186902809143066406e+01 -2.645792961120605469e-01 -2.935729548335075378e-02 -8.818098157644271851e-02 -2.689069807529449463e-01
3.222000000000000000e+03 5.325050735473632812e+01 -3.169542312622070312e+01 -3.620018362998962402e-01 -1.527146399021148682e-01 -1.544149369001388550e-01 -3.361534178256988525e-01
3.223000000000000000e+03 6.156295776367187500e+01 -2.686058807373046875e+01 -5.048431754112243652e-01 2.180155038833618164e+00 5.025935173034667969e-01 5.499041676521301270e-01
3.224000000000000000e+03 6.345832443237304688e+01 -2.511419486999511719e+01 -4.989801645278930664e-01 3.358324766159057617e+00 8.578033447265625000e-01 8.431987166404724121e-01
3.225000000000000000e+03 4.133000564575195312e+01 8.134585380554199219e+00 -8.540942519903182983e-02 9.565143585205078125e-01 2.613314688205718994e-01 2.251625359058380127e-01
3.226000000000000000e+03 1.333201789855957031e+01 5.735028266906738281e+00 -6.938667297363281250e-01 -9.553318023681640625e-01 -4.947595596313476562e-01 5.610179901123046875e-01
3.227000000000000000e+03 9.304270744323730469e+00 -9.618931770324707031e+00 -3.311377804493531585e-05 5.881027846044162288e-06 -8.169824468495789915e-06 -6.788379323552362621e-06
3.228000000000000000e+03 1.027621555328369141e+01 -1.035845279693603516e+01 -1.339791106147458777e-05 -5.928432528889970854e-06 -5.797903213533572853e-06 6.387785560946213081e-06
3.229000000000000000e+03 8.494995117187500000e+00 -2.004366493225097656e+01 1.115591585403308272e-04 5.886383587494492531e-05 5.112689905217848718e-05 1.155543486675014719e-05
3.230000000000000000e+03 5.179281234741210938e+01 4.248186588287353516e+00 1.675204634666442871e-01 3.658266365528106689e-01 1.600041389465332031e-01 2.886359989643096924e-01
3.231000000000000000e+03 5.320470046997070312e+01 3.876538038253784180e+00 1.402935236692428589e-01 6.339640021324157715e-01 2.322772592306137085e-01 2.941378355026245117e-01
3.232000000000000000e+03 1.066747474670410156e+01 -2.109094619750976562e+01 1.963834802154451609e-04 2.261768531752750278e-05 6.570034747710451484e-05 -1.845110818976536393e-05
3.233000000000000000e+03 1.177283763885498047e+01 -2.224850845336914062e+01 3.212381270714104176e-04 -2.718347241170704365e-05 8.821640221867710352e-05 -1.603013697604183108e-05
3.234000000000000000e+03 4.495090103149414062e+01 4.449445247650146484e+00 -1.335640698671340942e-01 3.609674572944641113e-01 6.822101026773452759e-02 1.157070510089397430e-02
3.235000000000000000e+03 5.599310302734375000e+01 6.370023727416992188e+00 1.550213992595672607e-01 1.761193871498107910e+00 5.748645663261413574e-01 5.092822760343551636e-02
3.236000000000000000e+03 9.904818534851074219e+00 -9.857909202575683594e+00 3.757518788916058838e-05 -5.199319161874882411e-07 1.111657638830365613e-05 -5.995993888063821942e-06
3.237000000000000000e+03 4.112475395202636719e+00 -9.873386383056640625e+00 -3.574076981749385595e-05 -1.015724137687357143e-05 -1.376940326736075804e-05 6.867975571367423981e-06
3.238000000000000000e+03 2.810318946838378906e+01 -3.585980606079101562e+01 -2.123399404808878899e-03 -3.747616196051239967e-03 -1.761304680258035660e-03 -7.476899190805852413e-04
3.239000000000000000e+03 2.957525825500488281e+01 -3.717501068115234375e+01 -6.658768747001886368e-03 -8.396071381866931915e-03 -4.516452085226774216e-03 -4.801193252205848694e-03
3.240000000000000000e+03 6.770098114013671875e+01 -2.067678642272949219e+01 -5.420571565628051758e-01 7.975524425506591797e+00 2.230040073394775391e+00 1.039760947227478027e+00
3.241000000000000000e+03 7.552919006347656250e+01 -1.248943328857421875e+01 1.062684297561645508e+00 8.112973213195800781e+00 2.752697229385375977e+00 -5.806663036346435547e-01
3.242000000000000000e+03 7.234652709960937500e+01 -1.041478919982910156e+01 2.658252716064453125e+00 1.143875408172607422e+01 4.229102134704589844e+00 1.686467230319976807e-01
3.243000000000000000e+03 2.403278350830078125e+01 -3.381622791290283203e+00 -9.166207909584045410e-01 -2.468180358409881592e-01 -3.490316569805145264e-01 5.175272822380065918e-01
3.244000000000000000e+03 2.354680442810058594e+01 -1.679633736610412598e+00 -8.180937767028808594e-01 -1.747556626796722412e-01 -2.978548407554626465e-01 4.435634016990661621e-01
3.245000000000000000e+03 2.563070297241210938e+01 -3.302005767822265625e+01 5.183663219213485718e-03 -1.443070592358708382e-03 1.122177811339497566e-03 1.131211291067302227e-03
3.246000000000000000e+03 6.806783294677734375e+01 -1.876433372497558594e+01 -7.220450788736343384e-02 9.419663429260253906e+00 2.804237604141235352e+00 1.301298260688781738e+00
3.247000000000000000e+03 7.057688140869140625e+01 -1.393040275573730469e+01 1.751521468162536621e+00 1.380797481536865234e+01 4.667848587036132812e+00 -3.748177886009216309e-01
3.248000000000000000e+03 5.689348983764648438e+01 1.874292564392089844e+01 3.438211381435394287e-01 3.241617918014526367e+00 1.075631737709045410e+00 -6.227892041206359863e-01
3.249000000000000000e+03 2.563062667846679688e+01 1.790265846252441406e+01 1.427890360355377197e-01 -6.184781193733215332e-01 -1.427067220211029053e-01 3.353169858455657959e-01
3.250000000000000000e+03 1.529358959197998047e+01 -9.735549926757812500e+00 7.320769327634479851e-06 -2.489749931555707008e-06 1.449305727874161676e-06 -1.815329596865922213e-06
3.251000000000000000e+03 8.205786705017089844e+00 -1.875926208496093750e+01 8.907042501959949732e-05 7.282649312401190400e-05 4.856907617067918181e-05 2.518751216484815814e-06
3.252000000000000000e+03 4.466909027099609375e+01 5.133153915405273438e+00 -1.212833151221275330e-01 4.118823111057281494e-01 8.717969805002212524e-02 -1.990122161805629730e-02
3.253000000000000000e+03 4.737725448608398438e+01 3.715138673782348633e+00 -2.185795828700065613e-02 1.783114969730377197e-01 4.693606123328208923e-02 9.232878684997558594e-02
3.254000000000000000e+03 5.268512725830078125e+01 2.210374641418457031e+01 5.493682622909545898e-01 1.555856466293334961e+00 6.315674185752868652e-01 -6.678677797317504883e-01
3.255000000000000000e+03 1.460143470764160156e+01 5.685769081115722656e+00 -7.325417399406433105e-01 -1.279074311256408691e+00 -6.034848093986511230e-01 6.987529993057250977e-01
3.256000000000000000e+03 2.124661064147949219e+01 1.344461083412170410e+00 -4.355896711349487305e-01 -1.335773319005966187e-01 -1.707500964403152466e-01 5.567870140075683594e-01
3.257000000000000000e+03 4.477621459960937500e+01 2.055029678344726562e+01 2.833320796489715576e-01 9.889876246452331543e-01 3.816958963871002197e-01 5.262187719345092773e-01
3.258000000000000000e+03 4.199921035766601562e+01 2.066405868530273438e+01 2.414463162422180176e-01 1.150695562362670898e+00 4.176425635814666748e-01 3.441524505615234375e-01
3.259000000000000000e+03 1.132687473297119141e+01 4.478726863861083984e+00 -5.516644120216369629e-01 -4.821493625640869141e-01 -3.101441264152526855e-01 4.270248711109161377e-01
3.260000000000000000e+03 6.124154281616210938e+01 -2.873877334594726562e+01 -4.010687470436096191e-01 2.128564119338989258e+00 5.182486176490783691e-01 5.291482806205749512e-01
3.261000000000000000e+03 2.969841766357421875e+01 -1.265274047851562500e+01 -4.665600657463073730e-01 -5.460521206259727478e-02 -1.563495844602584839e-01 3.473071455955505371e-01
3.262000000000000000e+03 1.247961616516113281e+01 5.282262325286865234e+00 -6.444573402404785156e-01 -7.458525300025939941e-01 -4.170929491519927979e-01 5.113531947135925293e-01
3.263000000000000000e+03 1.241030502319335938e+01 6.785346031188964844e+00 -7.144386768341064453e-01 -7.765555381774902344e-01 -4.472982585430145264e-01 5.785977840423583984e-01
3.264000000000000000e+03 1.884571456909179688e+01 1.661057233810424805e+00 -4.135818183422088623e-01 -6.620337367057800293e-01 -3.226846754550933838e-01 8.756169676780700684e-01
3.265000000000000000e+03 2.442655944824218750e+01 2.107488155364990234e+00 -1.523097902536392212e-01 1.128545030951499939e-01 -1.183658372610807419e-02 1.929164826869964600e-01
3.266000000000000000e+03 4.558380508422851562e+01 2.067763137817382812e+01 3.420160114765167236e-01 8.553181886672973633e-01 3.592002689838409424e-01 5.338630676269531250e-01
3.267000000000000000e+03 5.897262191772460938e+01 1.225034999847412109e+01 5.992321372032165527e-01 3.409436225891113281e+00 1.202600479125976562e+00 -6.872967481613159180e-01
3.268000000000000000e+03 3.926662826538085938e+01 1.394876670837402344e+01 4.144437611103057861e-01 1.025310993194580078e+00 4.319264292716979980e-01 3.158458173274993896e-01
3.269000000000000000e+03 2.372410011291503906e+01 1.872825813293457031e+01 2.820598781108856201e-01 -6.128173470497131348e-01 -9.922724217176437378e-02 5.030561685562133789e-01
3.270000000000000000e+03 4.619117736816406250e+01 2.251331329345703125e+01 5.083474516868591309e-01 8.534123897552490234e-01 4.085279405117034912e-01 3.613939583301544189e-01
3.271000000000000000e+03 2.228030967712402344e+01 2.033292388916015625e+01 3.462134003639221191e-01 -3.762281835079193115e-01 -9.004432708024978638e-03 6.185631155967712402e-01
3.272000000000000000e+03 2.142555618286132812e+01 2.014000701904296875e+01 3.235627412796020508e-01 -3.005942702293395996e-01 6.890543270856142044e-03 6.650649309158325195e-01
3.273000000000000000e+03 5.603664398193359375e+01 2.080392837524414062e+01 3.002506494522094727e-01 2.790988445281982422e+00 9.273716807365417480e-01 -7.495778203010559082e-01
3.274000000000000000e+03 4.875073623657226562e+01 2.254257202148437500e+00 -6.597075611352920532e-02 2.160484939813613892e-01 4.502332210540771484e-02 2.140305042266845703e-01
3.275000000000000000e+03 5.100250625610351562e+01 3.661576747894287109e+00 1.173808947205543518e-01 2.775405049324035645e-01 1.184764206409454346e-01 2.684147059917449951e-01
3.276000000000000000e+03 1.467407512664794922e+01 -9.380922317504882812e+00 -1.210795471706660464e-05 5.255988526187138632e-06 -2.055589902738574892e-06 2.655804337337031029e-06
3.277000000000000000e+03 7.615630340576171875e+01 -3.560661315917968750e+01 -4.569816961884498596e-02 9.170174598693847656e+00 2.737343072891235352e+00 -3.748333081603050232e-02
3.278000000000000000e+03 6.043770980834960938e+01 -4.320293426513671875e+00 -1.176932692527770996e+00 2.456791847944259644e-01 -2.793760597705841064e-01 -5.133784413337707520e-01
3.279000000000000000e+03 2.582925224304199219e+01 3.486230134963989258e+00 1.588817536830902100e-01 5.846922472119331360e-02 6.520529091358184814e-02 1.668734550476074219e-01
3.280000000000000000e+03 5.616740798950195312e+01 2.359149932861328125e+01 3.907806277275085449e-01 2.725286006927490234e+00 9.348199963569641113e-01 -6.367768049240112305e-01
3.281000000000000000e+03 5.430792999267578125e+01 2.187401008605957031e+01 4.175709784030914307e-01 2.169556140899658203e+00 7.761381864547729492e-01 -7.486100792884826660e-01
3.282000000000000000e+03 2.259182548522949219e+01 1.937591552734375000e+01 3.325174152851104736e-01 -4.696512222290039062e-01 -4.114014655351638794e-02 6.016288399696350098e-01
3.283000000000000000e+03 4.155870437622070312e+01 6.359098911285400391e+00 -1.941219866275787354e-01 7.576910853385925293e-01 1.690707355737686157e-01 1.813237667083740234e-01
3.284000000000000000e+03 1.279913520812988281e+01 1.777640151977539062e+01 4.952812194824218750e-01 -3.183867633342742920e-01 5.306833237409591675e-02 2.755647599697113037e-01
3.285000000000000000e+03 2.728358078002929688e+01 4.368851184844970703e+00 2.501423358917236328e-01 -8.490036427974700928e-02 4.957259446382522583e-02 2.541280686855316162e-01
3.286000000000000000e+03 4.770814132690429688e+01 -1.180396842956542969e+01 -1.077726602554321289e+00 1.551750898361206055e-01 -2.767654359340667725e-01 -1.415395140647888184e-01
3.287000000000000000e+03 2.141353797912597656e+01 1.875789403915405273e+00 -3.365226387977600098e-01 -2.673863433301448822e-02 -1.089783832430839539e-01 5.063928365707397461e-01
3.288000000000000000e+03 2.058859825134277344e+01 2.034131813049316406e+01 3.082615733146667480e-01 -1.986978650093078613e-01 3.286911174654960632e-02 6.709493994712829590e-01
3.289000000000000000e+03 2.023957633972167969e+01 1.941526031494140625e+01 3.019012510776519775e-01 -1.316186040639877319e-01 5.108479782938957214e-02 6.937577128410339355e-01
3.290000000000000000e+03 7.098091888427734375e+01 -8.557459831237792969e+00 2.843761205673217773e+00 1.315808200836181641e+01 4.800552845001220703e+00 6.491499543190002441e-01
3.291000000000000000e+03 7.200716400146484375e+01 -1.112068653106689453e+01 2.745461702346801758e+00 1.209513473510742188e+01 4.452178955078125000e+00 -2.320811301469802856e-01
3.292000000000000000e+03 7.102594757080078125e+01 -1.516935729980468750e+01 9.601873755455017090e-01 1.237694358825683594e+01 4.001139163970947266e+00 -6.658362746238708496e-01
3.293000000000000000e+03 7.136795806884765625e+01 -1.424126815795898438e+01 1.506626367568969727e+00 1.231594562530517578e+01 4.146771907806396484e+00 -7.901611328125000000e-01
3.294000000000000000e+03 5.096976089477539062e+01 2.944796323776245117e+00 5.627918243408203125e-02 3.005239665508270264e-01 1.070409491658210754e-01 2.795203626155853271e-01
3.295000000000000000e+03 3.622085952758789062e+01 -1.561316680908203125e+01 -5.660437941551208496e-01 7.798565924167633057e-02 -1.464174389839172363e-01 1.293227076530456543e-01
3.296000000000000000e+03 4.017070007324218750e+01 9.359382629394531250e+00 5.726958438754081726e-02 9.926170706748962402e-01 3.149659931659698486e-01 3.696081340312957764e-01
3.297000000000000000e+03 4.010490417480468750e+01 1.159210872650146484e+01 2.970847189426422119e-01 1.153067827224731445e+00 4.350457787513732910e-01 3.629899621009826660e-01
3.298000000000000000e+03 1.650471878051757812e+01 -2.762042999267578125e+01 2.057804260402917862e-03 -4.198662354610860348e-04 4.913814482279121876e-04 1.904876553453505039e-04
3.299000000000000000e+03 1.531449413299560547e+01 -2.728586006164550781e+01 1.703840214759111404e-03 -3.049338702112436295e-04 4.196719091851264238e-04 2.033036871580407023e-04
3.300000000000000000e+03 2.492609977722167969e+01 1.835285377502441406e+01 2.122380137443542480e-01 -6.138174533843994141e-01 -1.204738393425941467e-01 3.957681953907012939e-01
3.301000000000000000e+03 4.902637100219726562e+01 -3.438696670532226562e+01 -4.284526407718658447e-02 -3.271842002868652344e-01 -1.110088378190994263e-01 -3.534460663795471191e-01
3.302000000000000000e+03 5.683342361450195312e+01 1.786653518676757812e+01 4.453737437725067139e-01 3.257188796997070312e+00 1.110768795013427734e+00 -5.948315262794494629e-01
3.303000000000000000e+03 5.780181884765625000e+01 1.868771171569824219e+01 3.925313949584960938e-01 3.363159894943237305e+00 1.126707434654235840e+00 -5.574068427085876465e-01
3.304000000000000000e+03 2.414916992187500000e+01 -3.445960235595703125e+01 1.386714517138898373e-03 -1.361430855467915535e-03 7.585110779473325238e-06 1.931446022354066372e-03
3.305000000000000000e+03 5.033236312866210938e+01 2.382012367248535156e+01 6.878697872161865234e-01 1.182775735855102539e+00 5.611936450004577637e-01 -2.430351376533508301e-01
3.306000000000000000e+03 3.242201995849609375e+01 -3.621964263916015625e+01 -8.670818991959095001e-03 -1.783281378448009491e-02 -7.951090112328529358e-03 -1.717506721615791321e-02
3.307000000000000000e+03 3.508319091796875000e+01 -3.999408340454101562e+01 1.888658478856086731e-02 -7.332372665405273438e-02 -1.633114181458950043e-02 -2.389971911907196045e-02
3.308000000000000000e+03 1.363480663299560547e+01 1.787102317810058594e+01 5.066542029380798340e-01 -1.933779865503311157e-01 9.398286044597625732e-02 2.518233954906463623e-01
3.309000000000000000e+03 3.794281005859375000e+01 1.576592445373535156e+01 3.568345308303833008e-01 8.256586790084838867e-01 3.547479808330535889e-01 2.404166311025619507e-01
3.310000000000000000e+03 2.596187782287597656e+01 -3.603640365600585938e+01 -8.339126361533999443e-04 -3.861545119434595108e-03 -1.408637268468737602e-03 1.449532341212034225e-03
3.311000000000000000e+03 2.557708549499511719e+01 -3.442630386352539062e+01 6.791941123083233833e-04 -1.569792395457625389e-03 -2.671795082278549671e-04 2.760939765721559525e-03
3.312000000000000000e+03 1.431943321228027344e+01 1.887030601501464844e+01 4.006809294223785400e-01 -6.615118682384490967e-02 1.003589183092117310e-01 2.403591126203536987e-01
3.313000000000000000e+03 1.675259208679199219e+01 2.065684890747070312e+01 2.073877006769180298e-01 5.925320833921432495e-02 7.999227195978164673e-02 4.364663362503051758e-01
3.314000000000000000e+03 1.735512924194335938e+01 2.000028991699218750e+01 2.432121485471725464e-01 1.239571645855903625e-01 1.101507917046546936e-01 4.867893755435943604e-01
3.315000000000000000e+03 4.277644729614257812e+01 2.068740844726562500e+01 2.446287721395492554e-01 1.155682921409606934e+00 4.200935065746307373e-01 4.081678092479705811e-01
3.316000000000000000e+03 3.968766784667968750e+01 1.717571830749511719e+01 3.709954619407653809e-01 1.090600728988647461e+00 4.384788572788238525e-01 1.941238641738891602e-01
3.317000000000000000e+03 4.077188873291015625e+01 1.731658744812011719e+01 3.690763711929321289e-01 1.255930662155151367e+00 4.875020980834960938e-01 2.249209880828857422e-01
3.318000000000000000e+03 4.838553619384765625e+01 -3.636876296997070312e+01 1.841627657413482666e-01 -3.033991754055023193e-01 -3.577091917395591736e-02 -2.678396999835968018e-01
3.319000000000000000e+03 4.758028793334960938e+01 -3.383173751831054688e+01 -2.004093825817108154e-01 -2.977035641670227051e-01 -1.494338810443878174e-01 -3.660963177680969238e-01
3.320000000000000000e+03 4.707360076904296875e+01 2.320639991760253906e+01 5.923774838447570801e-01 8.712996244430541992e-01 4.391031265258789062e-01 2.448835819959640503e-01
3.321000000000000000e+03 4.688415145874023438e+01 2.157374572753906250e+01 5.091663599014282227e-01 7.036846280097961426e-01 3.638553023338317871e-01 3.727976083755493164e-01
3.322000000000000000e+03 7.457202148437500000e+01 -3.811570358276367188e+01 -1.356161013245582581e-02 8.509037017822265625e+00 2.548642635345458984e+00 -4.733364284038543701e-02
3.323000000000000000e+03 1.993817520141601562e+01 -2.992444992065429688e+01 2.598382765427231789e-03 -8.899729000404477119e-04 5.125229945406317711e-04 7.023924263194203377e-04
3.324000000000000000e+03 7.823847198486328125e+01 -4.004979324340820312e+01 -2.133808471262454987e-02 1.002637386322021484e+01 3.001510858535766602e+00 -1.174654252827167511e-02
3.325000000000000000e+03 2.146470642089843750e+01 -3.324377822875976562e+01 1.256439019925892353e-03 -9.226577240042388439e-04 1.001344062387943268e-04 2.499456051737070084e-03
3.326000000000000000e+03 7.037311077117919922e+00 -4.148851776123046875e+01 -3.857982519548386335e-04 9.943406330421566963e-04 1.825626968638971448e-04 4.759257717523723841e-05
3.327000000000000000e+03 4.975825309753417969e+00 -3.686760711669921875e+01 -3.142473869957029819e-04 8.305843803100287914e-04 1.549010921735316515e-04 3.924383199773728848e-04
3.328000000000000000e+03 3.113253402709960938e+01 -3.650070190429687500e+01 -5.361699033528566360e-03 -1.246364414691925049e-02 -5.347603000700473785e-03 -8.950896561145782471e-03
3.329000000000000000e+03 3.398265838623046875e+01 -3.788704299926757812e+01 -5.305087193846702576e-03 -3.743500262498855591e-02 -1.282202731817960739e-02 -2.588163688778877258e-02
3.330000000000000000e+03 5.427946567535400391e+00 -3.808274078369140625e+01 9.018444870889652520e-06 8.849170408211648464e-04 2.681806508917361498e-04 4.203409771434962749e-04
3.331000000000000000e+03 4.211942672729492188e+01 -3.896347808837890625e+01 1.514828801155090332e-01 -2.363307029008865356e-01 -2.545434981584548950e-02 -1.333657652139663696e-01
3.332000000000000000e+03 3.912001037597656250e+01 -3.905922698974609375e+01 7.361891865730285645e-02 -1.594653725624084473e-01 -2.575393579900264740e-02 -7.560489326715469360e-02
3.333000000000000000e+03 7.454729461669921875e+01 4.036546325683593750e+01 5.229272693395614624e-02 5.983687400817871094e+00 1.810793995857238770e+00 -2.341277897357940674e-02
3.334000000000000000e+03 7.175245666503906250e+01 4.099945068359375000e+01 8.627251535654067993e-02 5.600313663482666016e+00 1.705975770950317383e+00 -2.580767311155796051e-02
3.335000000000000000e+03 4.022542190551757812e+01 -1.414581108093261719e+01 -7.392314672470092773e-01 1.425384134054183960e-01 -1.790079027414321899e-01 6.017880141735076904e-02
3.336000000000000000e+03 4.074999618530273438e+01 -1.498679447174072266e+01 -7.312538623809814453e-01 1.161048859357833862e-01 -1.845446974039077759e-01 1.821131445467472076e-02
3.337000000000000000e+03 7.539994049072265625e+01 -3.737626791000366211e+00 -4.130241572856903076e-01 8.581293106079101562e+00 2.450480699539184570e+00 1.276194214820861816e+00
3.338000000000000000e+03 6.931845855712890625e+01 -4.795870304107666016e+00 -1.841555595397949219e+00 1.128158187866210938e+01 2.832007884979248047e+00 -1.291906237602233887e+00
3.339000000000000000e+03 1.451641368865966797e+01 -7.708305358886718750e+00 6.948965165065601468e-06 -7.456709226971725002e-06 -1.523231958344695158e-07 8.049530606513144448e-07
3.340000000000000000e+03 4.899269485473632812e+01 -1.123049259185791016e+01 -1.163982152938842773e+00 1.549290865659713745e-01 -3.027159273624420166e-01 -1.719663888216018677e-01
3.341000000000000000e+03 6.487830352783203125e+01 -3.878729104995727539e+00 -5.692406892776489258e-01 2.486788749694824219e+00 5.752644538879394531e-01 -3.052923202514648438e+00
3.342000000000000000e+03 6.844919586181640625e+01 -4.878602981567382812e+00 -1.960004925727844238e+00 1.042974376678466797e+01 2.540921688079833984e+00 -2.617206335067749023e+00
3.343000000000000000e+03 6.764249420166015625e+01 -4.217178344726562500e+00 -1.747197270393371582e+00 8.145022392272949219e+00 1.919347405433654785e+00 -3.386466264724731445e+00
3.344000000000000000e+03 4.991727066040039062e+01 -1.000919342041015625e+01 -1.239020705223083496e+00 1.911064386367797852e-01 -3.143742680549621582e-01 -1.293927431106567383e-01
3.345000000000000000e+03 4.084550857543945312e+01 -1.428782081604003906e+01 -7.525210976600646973e-01 1.343680769205093384e-01 -1.854459047317504883e-01 3.922584652900695801e-02
3.346000000000000000e+03 4.332056427001953125e+01 -1.424829483032226562e+01 -8.348277807235717773e-01 1.112030074000358582e-01 -2.170874327421188354e-01 -4.769178852438926697e-02
3.347000000000000000e+03 4.512738418579101562e+01 -1.282677555084228516e+01 -9.334688782691955566e-01 1.465769559144973755e-01 -2.360675781965255737e-01 -7.241605222225189209e-02
3.348000000000000000e+03 4.711434936523437500e+01 -1.056509017944335938e+01 -1.051854968070983887e+00 2.187659442424774170e-01 -2.499267011880874634e-01 -4.519943520426750183e-02
3.349000000000000000e+03 4.803052902221679688e+01 -1.244310092926025391e+01 -1.085656762123107910e+00 1.107608228921890259e-01 -2.924687862396240234e-01 -1.887989491224288940e-01
3.350000000000000000e+03 2.881415367126464844e+01 -9.673834800720214844e+00 -6.111069321632385254e-01 -4.710863903164863586e-02 -1.974646747112274170e-01 4.467067420482635498e-01
3.351000000000000000e+03 2.787195968627929688e+01 -7.362337112426757812e+00 -7.203502058982849121e-01 -4.843963682651519775e-02 -2.306369394063949585e-01 4.799127280712127686e-01
3.352000000000000000e+03 9.997715950012207031e+00 -8.675394058227539062e+00 8.016561878321226686e-06 7.595451734232483432e-06 4.683603947341907769e-06 -1.071776750904973596e-05
3.353000000000000000e+03 5.028202438354492188e+01 -1.058942699432373047e+01 -1.260716080665588379e+00 1.533184796571731567e-01 -3.322192728519439697e-01 -1.999469846487045288e-01
3.354000000000000000e+03 4.140142822265625000e+01 -1.436315727233886719e+01 -7.688422799110412598e-01 1.311549395322799683e-01 -1.913062036037445068e-01 1.887102238833904266e-02
3.355000000000000000e+03 1.021840953826904297e+01 -7.647203922271728516e+00 1.486313612986123189e-05 1.002560566121246666e-05 7.466622719221049920e-06 -3.095584133916418068e-06
3.356000000000000000e+03 6.729212188720703125e+01 -2.475286483764648438e+01 -8.524112701416015625e-01 6.434339046478271484e+00 1.674578309059143066e+00 6.265301108360290527e-01
3.357000000000000000e+03 6.784696960449218750e+01 -2.185207748413085938e+01 -7.581971287727355957e-01 7.600799560546875000e+00 2.052780628204345703e+00 7.760630249977111816e-01
3.358000000000000000e+03 1.184262657165527344e+01 -2.578282546997070312e+01 4.890143172815442085e-04 -7.259817357407882810e-05 1.249248452950268984e-04 2.001153770834207535e-04
3.359000000000000000e+03 1.179032993316650391e+01 -2.455955123901367188e+01 4.392027331050485373e-04 -6.782507989555597305e-05 1.114132974180392921e-04 9.707031858852133155e-05
3.360000000000000000e+03 5.286669158935546875e+01 -9.118507385253906250e+00 -1.490815639495849609e+00 1.633770018815994263e-01 -3.982315957546234131e-01 -2.395772933959960938e-01
3.361000000000000000e+03 3.016366577148437500e+01 -1.205096340179443359e+01 -5.133762955665588379e-01 -2.004639245569705963e-02 -1.600268036127090454e-01 3.607997298240661621e-01
3.362000000000000000e+03 2.965328025817871094e+01 -1.062206935882568359e+01 -5.748345255851745605e-01 -1.767723076045513153e-02 -1.777535229921340942e-01 4.088189303874969482e-01
3.363000000000000000e+03 6.628709793090820312e+00 -1.351043987274169922e+01 4.239973713993094862e-05 2.821598172886297107e-05 2.118471638823393732e-05 -5.806014087283983827e-06
3.364000000000000000e+03 3.790541458129882812e+01 -1.432892990112304688e+01 -6.611291766166687012e-01 1.290263980627059937e-01 -1.596308201551437378e-01 1.245490312576293945e-01
3.365000000000000000e+03 4.672568511962890625e+01 -1.298889064788818359e+01 -1.004043698310852051e+00 1.116843000054359436e-01 -2.677077949047088623e-01 -1.507737636566162109e-01
3.366000000000000000e+03 1.122003459930419922e+01 -7.086290359497070312e+00 2.388249185969471000e-06 -4.265534244041191414e-06 -5.631855515275674406e-07 -8.723442306290962733e-07
3.367000000000000000e+03 5.120695590972900391e+00 2.914540100097656250e+01 1.592439226806163788e-02 -1.076899647712707520e+00 -3.182925879955291748e-01 6.943245232105255127e-02
3.368000000000000000e+03 7.595947265625000000e+01 -2.973218727111816406e+01 -1.684151142835617065e-01 9.133416175842285156e+00 2.689500331878662109e+00 -2.579350769519805908e-01
3.369000000000000000e+03 7.546176910400390625e+01 -2.988365745544433594e+01 -2.071724236011505127e-01 8.947567939758300781e+00 2.622118711471557617e+00 -2.512576580047607422e-01
3.370000000000000000e+03 5.388924598693847656e+00 -2.850925064086914062e+01 7.022565841907635331e-05 1.302603195654228330e-04 6.014579412294551730e-05 4.583323607221245766e-04
3.371000000000000000e+03 4.666307449340820312e+00 7.273236274719238281e+00 -1.583841741085052490e-01 -2.162093520164489746e-01 -1.123780533671379089e-01 2.769141197204589844e-01
3.372000000000000000e+03 6.732930183410644531e+00 5.930431842803955078e+00 -2.963004410266876221e-01 -1.827057749032974243e-01 -1.437018662691116333e-01 3.026942908763885498e-01
3.373000000000000000e+03 8.884369850158691406e+00 5.122535705566406250e+00 -4.391044676303863525e-01 -2.336736768484115601e-01 -2.018334418535232544e-01 3.463826477527618408e-01
3.374000000000000000e+03 4.026472091674804688e+00 7.446758270263671875e+00 -1.190316602587699890e-01 -2.156906127929687500e-01 -1.004166826605796814e-01 2.461134493350982666e-01
3.375000000000000000e+03 4.783577442169189453e+00 2.789785003662109375e+01 1.769332028925418854e-02 -1.089724659919738770e+00 -3.216093778610229492e-01 7.002740353345870972e-02
3.376000000000000000e+03 3.912345123291015625e+01 -1.538630390167236328e+01 -6.687731146812438965e-01 1.037395671010017395e-01 -1.695100665092468262e-01 5.360879749059677124e-02
3.377000000000000000e+03 3.861613082885742188e+01 -1.452209568023681641e+01 -6.758043766021728516e-01 1.254211366176605225e-01 -1.651149690151214600e-01 9.718286246061325073e-02
3.378000000000000000e+03 3.979252624511718750e+01 -1.552583122253417969e+01 -6.867653727531433105e-01 1.020255908370018005e-01 -1.754219383001327515e-01 2.842944674193859100e-02
3.379000000000000000e+03 5.337270259857177734e+00 6.330211162567138672e+00 -2.031373977661132812e-01 -1.774002462625503540e-01 -1.141612902283668518e-01 2.598911225795745850e-01
3.380000000000000000e+03 7.375175476074218750e+01 -2.964228820800781250e+01 -3.577592670917510986e-01 8.390227317810058594e+00 2.409740447998046875e+00 -2.196880280971527100e-01
3.381000000000000000e+03 7.429959297180175781e+00 5.854591369628906250e+00 -3.415863811969757080e-01 -1.895930022001266479e-01 -1.593538224697113037e-01 3.262474536895751953e-01
3.382000000000000000e+03 4.214816093444824219e+00 -2.940810203552246094e+01 1.299545110668987036e-04 2.710023836698383093e-04 1.202870626002550125e-04 2.490961051080375910e-04
3.383000000000000000e+03 3.906993865966796875e+00 6.769476890563964844e+00 -1.149257645010948181e-01 -1.813162267208099365e-01 -8.887259662151336670e-02 2.071206420660018921e-01
3.384000000000000000e+03 5.076649188995361328e+00 3.080109786987304688e+01 8.938575163483619690e-03 -1.110928297042846680e+00 -3.305968940258026123e-01 5.828248709440231323e-02
3.385000000000000000e+03 5.930412292480468750e+01 1.513354396820068359e+01 7.411737442016601562e-01 3.527986764907836914e+00 1.280748128890991211e+00 -6.004442572593688965e-01
3.386000000000000000e+03 5.828080368041992188e+01 1.435235881805419922e+01 7.571089267730712891e-01 3.462228775024414062e+00 1.265801310539245605e+00 -6.448242664337158203e-01
3.387000000000000000e+03 1.279043674468994141e+01 5.899851799011230469e+00 -6.876236796379089355e-01 -8.419809937477111816e-01 -4.588814079761505127e-01 5.322660207748413086e-01
3.388000000000000000e+03 2.768380165100097656e+01 -8.199195861816406250e+00 -6.788623332977294922e-01 -9.064437448978424072e-02 -2.308520078659057617e-01 4.900333881378173828e-01
3.389000000000000000e+03 2.832351493835449219e+01 -6.568183898925781250e+00 -7.374548316001892090e-01 1.020537503063678741e-02 -2.181748449802398682e-01 4.516742229461669922e-01
3.390000000000000000e+03 4.963019847869873047e+00 -1.190907192230224609e+01 2.722228782658930868e-05 2.091891110467258841e-05 1.444235931558068842e-05 -1.816699477785732597e-05
3.391000000000000000e+03 1.175941467285156250e+01 9.365598678588867188e+00 -4.009195864200592041e-01 -6.724635362625122070e-01 -3.220149576663970947e-01 7.358511090278625488e-01
3.392000000000000000e+03 7.409825134277343750e+01 2.975537872314453125e+01 4.767736047506332397e-02 6.044632434844970703e+00 1.827692985534667969e+00 -2.016633003950119019e-01
3.393000000000000000e+03 7.516039276123046875e+01 -2.159709167480468750e+01 -3.944909274578094482e-01 8.870043754577636719e+00 2.542665719985961914e+00 -1.214778304100036621e+00
3.394000000000000000e+03 4.170225143432617188e+00 -2.476715850830078125e+01 2.161238808184862137e-04 1.097398053389042616e-04 9.775910439202561975e-05 1.083528040908277035e-04
3.395000000000000000e+03 5.221857833862304688e+01 -9.500550270080566406e+00 -1.440398454666137695e+00 1.536560952663421631e-01 -3.860226869583129883e-01 -2.263073474168777466e-01
3.396000000000000000e+03 7.553527069091796875e+01 -2.809489250183105469e+01 -2.814645767211914062e-01 8.969949722290039062e+00 2.606545448303222656e+00 -3.975998461246490479e-01
3.397000000000000000e+03 8.430404663085937500e+00 -1.084420394897460938e+01 3.668288263725116849e-05 -6.240359653020277619e-06 9.132757440966088325e-06 -1.215375959873199463e-06
3.398000000000000000e+03 2.811773681640625000e+01 7.031610012054443359e+00 2.995069921016693115e-01 -2.421218156814575195e-01 1.721555367112159729e-02 5.282483696937561035e-01
3.399000000000000000e+03 2.823415756225585938e+01 7.707612991333007812e+00 2.381888329982757568e-01 -2.526129484176635742e-01 -4.327238537371158600e-03 5.877063274383544922e-01
3.400000000000000000e+03 4.653807640075683594e+00 -3.245029067993164062e+01 1.068155761458911002e-04 5.959554691798985004e-04 2.108313201460987329e-04 4.684899467974901199e-04
3.401000000000000000e+03 5.107581138610839844e+00 -3.052322769165039062e+01 -1.428575524187181145e-05 2.936811652034521103e-04 8.381862426176667213e-05 5.247340304777026176e-04
3.402000000000000000e+03 7.509305572509765625e+01 -2.437516975402832031e+01 -4.336019754409790039e-01 8.873763084411621094e+00 2.532048225402832031e+00 -8.424651026725769043e-01
3.403000000000000000e+03 2.883439445495605469e+01 9.712267875671386719e+00 -1.939149759709835052e-02 -2.305167466402053833e-01 -7.497247308492660522e-02 6.634876728057861328e-01
3.404000000000000000e+03 7.515333557128906250e+01 -2.239053916931152344e+01 -4.276101291179656982e-01 8.891202926635742188e+00 2.539077997207641602e+00 -1.108505845069885254e+00
3.405000000000000000e+03 4.876163482666015625e+00 2.180148315429687500e+01 7.456390559673309326e-02 -9.585328698158264160e-01 -2.651906907558441162e-01 1.625467836856842041e-01
3.406000000000000000e+03 7.495464324951171875e+01 2.319040107727050781e+01 5.331042408943176270e-02 6.438694000244140625e+00 1.947601318359375000e+00 -2.706166803836822510e-01
3.407000000000000000e+03 5.020854949951171875e+00 -2.052206230163574219e+01 2.451283944537863135e-05 3.008112071256618947e-05 1.637818786548450589e-05 6.095475328038446605e-06
3.408000000000000000e+03 6.518205165863037109e+00 -5.603373527526855469e+00 1.530490408185869455e-05 -5.134641469339840114e-06 3.051078920179861598e-06 -7.439289362309864373e-08
3.409000000000000000e+03 7.137642383575439453e+00 -6.245955467224121094e+00 2.548403790569864213e-05 -1.140927452070172876e-05 4.222429197398014367e-06 3.384845967957517132e-06
3.410000000000000000e+03 5.223504066467285156e+00 2.419484901428222656e+01 5.227726325392723083e-02 -9.857397079467773438e-01 -2.800387144088745117e-01 1.211969703435897827e-01
3.411000000000000000e+03 4.078795909881591797e+00 -2.389826202392578125e+01 -2.715895061555784196e-05 3.858946729451417923e-05 3.429154503464815207e-06 1.430132542736828327e-04
3.412000000000000000e+03 4.491272449493408203e+00 -2.218781089782714844e+01 2.059414837276563048e-04 3.267288047936744988e-05 7.158431253628805280e-05 4.074011303600855172e-05
3.413000000000000000e+03 7.512370300292968750e+01 2.251957321166992188e+01 5.041894316673278809e-02 6.501606464385986328e+00 1.965607523918151855e+00 -2.779539525508880615e-01
3.414000000000000000e+03 7.463708496093750000e+01 2.560997962951660156e+01 4.721353575587272644e-02 6.286773681640625000e+00 1.900196194648742676e+00 -2.462864667177200317e-01
3.415000000000000000e+03 7.478040313720703125e+01 2.387812805175781250e+01 5.483261495828628540e-02 6.373927593231201172e+00 1.928628087043762207e+00 -2.656561434268951416e-01
3.416000000000000000e+03 7.531329345703125000e+01 1.504144287109375000e+01 3.772383555769920349e-02 6.966359615325927734e+00 2.101224899291992188e+00 -4.083369970321655273e-01
3.417000000000000000e+03 3.230695009231567383e+00 6.229095458984375000e+00 -8.248656243085861206e-02 -1.362204551696777344e-01 -6.561210751533508301e-02 1.449953913688659668e-01
3.418000000000000000e+03 7.390819549560546875e+01 2.873252677917480469e+01 5.654979124665260315e-02 6.066792964935302734e+00 1.837002754211425781e+00 -2.226646840572357178e-01
3.419000000000000000e+03 7.528514099121093750e+01 2.189373397827148438e+01 4.722883924841880798e-02 6.555505752563476562e+00 1.980820417404174805e+00 -2.774127125740051270e-01
3.420000000000000000e+03 7.445414733886718750e+01 1.737575721740722656e+01 6.366416066884994507e-02 6.634886741638183594e+00 2.009565353393554688e+00 -4.186738133430480957e-01
3.421000000000000000e+03 7.524266052246093750e+01 1.660688400268554688e+01 4.988934099674224854e-02 6.844268798828125000e+00 2.068247318267822266e+00 -3.867274224758148193e-01
3.422000000000000000e+03 7.415509796142578125e+01 -3.064767837524414062e+01 -2.757297456264495850e-01 8.467173576354980469e+00 2.457432985305786133e+00 -1.689322590827941895e-01
3.423000000000000000e+03 7.484215545654296875e+01 -3.153533172607421875e+01 -1.821439862251281738e-01 8.716490745544433594e+00 2.560303926467895508e+00 -1.414173096418380737e-01
3.424000000000000000e+03 7.596147155761718750e+01 1.659829521179199219e+01 3.476399555802345276e-02 7.001711845397949219e+00 2.110942840576171875e+00 -3.382855057716369629e-01
3.425000000000000000e+03 7.439707946777343750e+01 1.815088081359863281e+01 6.777691096067428589e-02 6.572804450988769531e+00 1.992174386978149414e+00 -4.044654965400695801e-01
3.426000000000000000e+03 4.042096614837646484e+00 2.117137718200683594e+01 5.836447700858116150e-02 -1.008065938949584961e+00 -2.849104404449462891e-01 1.550089567899703979e-01
3.427000000000000000e+03 4.863115310668945312e+00 2.260236358642578125e+01 6.300595402717590332e-02 -9.800812005996704102e-01 -2.751225829124450684e-01 1.427073776721954346e-01
3.428000000000000000e+03 7.530115509033203125e+01 1.108544158935546875e+01 -2.055032178759574890e-02 7.270254135131835938e+00 2.174911260604858398e+00 -4.415998756885528564e-01
3.429000000000000000e+03 7.532638549804687500e+01 1.028550529479980469e+01 -4.091753438115119934e-02 7.343026638031005859e+00 2.190632820129394531e+00 -4.314573705196380615e-01
3.430000000000000000e+03 7.537876129150390625e+01 8.685334205627441406e+00 -9.100297093391418457e-02 7.496144771575927734e+00 2.221542596817016602e+00 -3.957617580890655518e-01
3.431000000000000000e+03 7.517361450195312500e+01 -1.443014621734619141e+01 7.488248348236083984e-01 8.610769271850585938e+00 2.807878494262695312e+00 -1.205719828605651855e+00
3.432000000000000000e+03 3.713270902633666992e+00 -1.771419525146484375e+01 -9.268137364415451884e-05 1.014816098177107051e-05 -2.475996370776556432e-05 8.981294740806333721e-06
3.433000000000000000e+03 7.608183288574218750e+01 7.814987659454345703e+00 -9.996041655540466309e-02 7.744538307189941406e+00 2.293373346328735352e+00 -3.068126142024993896e-01
3.434000000000000000e+03 7.539193725585937500e+01 7.873880386352539062e+00 -1.208462044596672058e-01 7.569915294647216797e+00 2.234720706939697266e+00 -3.751470744609832764e-01
3.435000000000000000e+03 7.388710021972656250e+01 -1.606353187561035156e+01 4.588132798671722412e-01 9.666240692138671875e+00 3.037516117095947266e+00 -1.504967451095581055e+00
3.436000000000000000e+03 7.535485076904296875e+01 9.488859176635742188e+00 -6.549470871686935425e-02 7.418351173400878906e+00 2.205857038497924805e+00 -4.213323891162872314e-01
3.437000000000000000e+03 4.682476997375488281e+00 -2.301574134826660156e+01 -3.761011612368747592e-05 2.076819873764179647e-05 -5.052575033914763480e-06 1.126014103647321463e-04
3.438000000000000000e+03 7.484909820556640625e+01 -1.513685798645019531e+01 6.630528569221496582e-01 8.863088607788085938e+00 2.857842445373535156e+00 -1.366587162017822266e+00
3.439000000000000000e+03 7.545116424560546875e+01 2.393857389688491821e-01 -5.548787117004394531e-01 8.345373153686523438e+00 2.337148189544677734e+00 4.763526022434234619e-01
3.440000000000000000e+03 7.604940032958984375e+01 -2.017673873901367188e+01 -2.409009784460067749e-01 8.616393089294433594e+00 2.512647628784179688e+00 -1.320572853088378906e+00
3.441000000000000000e+03 7.532522583007812500e+01 1.157939314842224121e+00 -5.478567481040954590e-01 8.238095283508300781e+00 2.307071685791015625e+00 2.816341221332550049e-01
3.442000000000000000e+03 7.601483154296875000e+01 1.263306140899658203e+01 6.799208465963602066e-03 7.318191528320312500e+00 2.197497367858886719e+00 -3.802612423896789551e-01
3.443000000000000000e+03 7.528768157958984375e+01 1.188870906829833984e+01 -2.485295524820685387e-03 7.202318191528320312e+00 2.159950017929077148e+00 -4.413309395313262939e-01
3.444000000000000000e+03 7.609701538085937500e+01 2.920715808868408203e+00 -3.334955275058746338e-01 8.150431632995605469e+00 2.345080852508544922e+00 9.182389080524444580e-02
3.445000000000000000e+03 7.578838348388671875e+01 -6.212934970855712891e+00 1.961611956357955933e-01 8.161276817321777344e+00 2.507231473922729492e+00 1.413827657699584961e+00
3.446000000000000000e+03 7.530641174316406250e+01 -6.774606704711914062e+00 4.046618640422821045e-01 8.532972335815429688e+00 2.681290388107299805e+00 1.415730237960815430e+00
3.447000000000000000e+03 7.613555145263671875e+01 3.708192110061645508e+00 -2.771346271038055420e-01 8.080054283142089844e+00 2.340875864028930664e+00 -1.775659807026386261e-02
3.448000000000000000e+03 7.458921813964843750e+01 -8.293349266052246094e+00 1.082303524017333984e+00 8.956353187561035156e+00 3.011596918106079102e+00 1.160886883735656738e+00
3.449000000000000000e+03 7.535844421386718750e+01 -2.906172752380371094e+00 -5.151819586753845215e-01 8.620036125183105469e+00 2.431456327438354492e+00 1.120718836784362793e+00
3.450000000000000000e+03 7.531353759765625000e+01 -5.710605144500732422e+00 6.488177180290222168e-02 8.583903312683105469e+00 2.594635486602783203e+00 1.466866493225097656e+00
3.451000000000000000e+03 7.629718017578125000e+01 -6.535256862640380859e+00 2.626628577709197998e-01 7.774011135101318359e+00 2.411002159118652344e+00 1.309953689575195312e+00
3.452000000000000000e+03 7.629940032958984375e+01 -5.874997138977050781e+00 6.559874862432479858e-02 7.892618179321289062e+00 2.387465000152587891e+00 1.358688592910766602e+00
3.453000000000000000e+03 7.424867248535156250e+01 1.532892823219299316e+00 -6.802906990051269531e-01 8.175055503845214844e+00 2.248429536819458008e+00 8.406752347946166992e-02
3.454000000000000000e+03 7.477371978759765625e+01 -5.307357788085937500e+00 -8.244430273771286011e-02 8.934337615966796875e+00 2.655568122863769531e+00 1.462313055992126465e+00
3.455000000000000000e+03 7.570819854736328125e+01 -1.152952003479003906e+01 1.071385502815246582e+00 7.871908187866210938e+00 2.682988166809082031e+00 -2.148960828781127930e-01
3.456000000000000000e+03 7.548120117187500000e+01 -9.376238822937011719e+00 1.125616669654846191e+00 8.168313026428222656e+00 2.788178920745849609e+00 7.071087360382080078e-01
3.457000000000000000e+03 7.617661285400390625e+01 -1.306138229370117188e+01 6.999750137329101562e-01 7.569205760955810547e+00 2.480754137039184570e+00 -7.558681964874267578e-01
3.458000000000000000e+03 7.521401214599609375e+01 -2.081296730041503906e+01 -3.542837798595428467e-01 8.840353965759277344e+00 2.545820951461791992e+00 -1.297555446624755859e+00
3.459000000000000000e+03 7.607907104492187500e+01 -1.870053100585937500e+01 -1.140472069382667542e-01 8.430731773376464844e+00 2.495005607604980469e+00 -1.424782395362854004e+00
3.460000000000000000e+03 7.275492858886718750e+01 -5.407099246978759766e+00 -2.650393843650817871e-01 1.040285396575927734e+01 3.041344165802001953e+00 1.331766724586486816e+00
3.461000000000000000e+03 7.607736206054687500e+01 -1.226491260528564453e+01 8.983015418052673340e-01 7.614805221557617188e+00 2.553931951522827148e+00 -4.557122290134429932e-01
3.462000000000000000e+03 7.565212249755859375e+01 -1.039066123962402344e+01 1.116075634956359863e+00 7.907340049743652344e+00 2.707024574279785156e+00 2.586091458797454834e-01
3.463000000000000000e+03 7.416678619384765625e+01 -7.727038383483886719e+00 9.808294177055358887e-01 9.410871505737304688e+00 3.117510318756103516e+00 1.341609239578247070e+00
3.464000000000000000e+03 7.504631805419921875e+01 -9.883795738220214844e+00 1.387300252914428711e+00 8.551590919494628906e+00 2.981667280197143555e+00 5.144904255867004395e-01
3.465000000000000000e+03 7.513024902343750000e+01 1.896083831787109375e+01 5.393993109464645386e-02 6.679703712463378906e+00 2.020093202590942383e+00 -3.473888933658599854e-01
3.466000000000000000e+03 7.539418792724609375e+01 -1.637488555908203125e+01 2.678299546241760254e-01 8.583941459655761719e+00 2.655531406402587891e+00 -1.498967289924621582e+00
3.467000000000000000e+03 7.559707641601562500e+01 -4.442099094390869141e+00 -2.312416583299636841e-01 8.459353446960449219e+00 2.468433618545532227e+00 1.362768411636352539e+00
3.468000000000000000e+03 7.556806945800781250e+01 -5.376111865043640137e-01 -5.658950805664062500e-01 8.374591827392578125e+00 2.342608928680419922e+00 6.251433491706848145e-01
3.469000000000000000e+03 7.505636596679687500e+01 -9.343515038490295410e-01 -6.618008613586425781e-01 8.507670402526855469e+00 2.353760719299316406e+00 6.660234332084655762e-01
3.470000000000000000e+03 7.471976470947265625e+01 -1.861359596252441406e+01 -1.800992041826248169e-01 9.009305000305175781e+00 2.648761749267578125e+00 -1.490288376808166504e+00
3.471000000000000000e+03 7.551049804687500000e+01 3.702213287353515625e+00 -3.247029483318328857e-01 7.990265846252441406e+00 2.299668788909912109e+00 -5.819652602076530457e-02
3.472000000000000000e+03 4.909431457519531250e+00 1.460428047180175781e+01 7.336914539337158203e-02 -6.969616413116455078e-01 -1.870777457952499390e-01 4.022428095340728760e-01
3.473000000000000000e+03 7.433668518066406250e+01 -1.664498329162597656e+01 2.563407123088836670e-01 9.313239097595214844e+00 2.870873928070068359e+00 -1.510268211364746094e+00
3.474000000000000000e+03 7.536992645263671875e+01 -1.714629554748535156e+01 1.102788373827934265e-01 8.654973030090332031e+00 2.629575490951538086e+00 -1.532992601394653320e+00
3.475000000000000000e+03 7.538968658447265625e+01 7.052587509155273438e+00 -1.621260941028594971e-01 7.650401115417480469e+00 2.246482610702514648e+00 -3.356282413005828857e-01
3.476000000000000000e+03 7.537934875488281250e+01 6.207678794860839844e+00 -1.996742188930511475e-01 7.726015567779541016e+00 2.257902383804321289e+00 -2.920106053352355957e-01
3.477000000000000000e+03 3.924179792404174805e+00 -1.617701148986816406e+01 -7.789996016072109342e-05 -4.701959369413089007e-06 -2.478057649568654597e-05 8.134563358908053488e-06
3.478000000000000000e+03 5.681416511535644531e+00 -1.379082965850830078e+01 3.820690471911802888e-05 2.904238135670311749e-05 2.017478618654422462e-05 -1.672239341132808477e-05
3.479000000000000000e+03 5.323937416076660156e+00 -6.699823379516601562e+00 -2.482612580934073776e-05 -3.571853540051961318e-06 -8.519393304595723748e-06 1.343779786111554131e-05
3.480000000000000000e+03 1.237900352478027344e+01 -2.522955513000488281e+01 8.883661939762532711e-04 -3.348140744492411613e-04 1.660656271269544959e-04 1.493704476160928607e-04
3.481000000000000000e+03 7.509680175781250000e+01 -2.315756225585937500e+01 -4.391971826553344727e-01 8.877653121948242188e+00 2.531536817550659180e+00 -9.966407418251037598e-01
3.482000000000000000e+03 7.451782989501953125e+01 -2.307643508911132812e+01 -5.307929515838623047e-01 8.894188880920410156e+00 2.509018659591674805e+00 -1.004907846450805664e+00
3.483000000000000000e+03 6.491728305816650391e+00 -1.203799724578857422e+01 -3.866248152917250991e-05 -2.452995795465540141e-05 -1.895773129945155233e-05 1.445407724531833082e-05
3.484000000000000000e+03 5.755132675170898438e+00 -1.539932632446289062e+01 -9.951790707418695092e-05 1.060515933204442263e-05 -2.667382432264275849e-05 2.083598519675433636e-05
3.485000000000000000e+03 4.856176376342773438e+00 1.542567539215087891e+01 8.692006766796112061e-02 -7.403672337532043457e-01 -1.960341632366180420e-01 3.759341835975646973e-01
3.486000000000000000e+03 4.416185855865478516e+00 -1.307584857940673828e+01 2.530756501073483378e-05 3.381245915079489350e-05 1.773600706655997783e-05 -1.040996176016051322e-05
3.487000000000000000e+03 7.443808746337890625e+01 -3.515598678588867188e+01 -7.507800310850143433e-02 8.464214324951171875e+00 2.516740798950195312e+00 -1.154163572937250137e-02
3.488000000000000000e+03 7.461598205566406250e+01 -3.336350250244140625e+01 -1.286267936229705811e-01 8.583123207092285156e+00 2.536348819732666016e+00 -6.048227846622467041e-02
3.489000000000000000e+03 3.832699537277221680e+00 -1.411871910095214844e+01 -1.661932401475496590e-05 1.985385279112961143e-05 9.703585419629234821e-07 -3.306412327219732106e-05
3.490000000000000000e+03 5.083583831787109375e+00 -1.507862758636474609e+01 5.715811130357906222e-05 2.610609953990206122e-05 2.497926288924645633e-05 -2.901440893765538931e-05
3.491000000000000000e+03 3.575569868087768555e+00 -1.838971710205078125e+01 1.265817118110135198e-04 -5.855916242580860853e-06 3.621773794293403625e-05 -4.564633127301931381e-05
3.492000000000000000e+03 4.261264324188232422e+00 -2.564923477172851562e+01 -4.012958015664480627e-06 7.821648614481091499e-05 2.226105971203651279e-05 2.258862223243340850e-04
3.493000000000000000e+03 6.087145805358886719e+00 -2.310490798950195312e+01 -1.217168301081983373e-05 -3.806290806096512824e-06 -4.793392236024374142e-06 1.409712858730927110e-04
3.494000000000000000e+03 4.198063373565673828e+00 -1.367503929138183594e+01 -2.106117426592390984e-05 -3.163579458487220109e-05 -1.580908974574413151e-05 9.530416718916967511e-06
3.495000000000000000e+03 6.061230659484863281e+00 -1.118620395660400391e+01 -2.270273398607969284e-05 -3.256354830227792263e-05 -1.657988468650728464e-05 1.414776943420292810e-05
3.496000000000000000e+03 3.961265325546264648e+00 1.880204200744628906e+01 7.304337620735168457e-02 -9.297866225242614746e-01 -2.570229768753051758e-01 2.212600111961364746e-01
3.497000000000000000e+03 5.580436229705810547e+00 2.069312667846679688e+01 1.061366572976112366e-01 -8.868865370750427246e-01 -2.342249751091003418e-01 2.061552405357360840e-01
3.498000000000000000e+03 3.978598594665527344e+00 2.039286994934082031e+01 6.408125162124633789e-02 -9.863457083702087402e-01 -2.766793370246887207e-01 1.741617619991302490e-01
3.499000000000000000e+03 5.000660419464111328e+00 1.072371673583984375e+01 -6.556870788335800171e-02 -4.436716437339782715e-01 -1.527720987796783447e-01 4.361625015735626221e-01
3.500000000000000000e+03 4.006781101226806641e+00 -1.880065345764160156e+01 4.281600558897480369e-05 4.117133812542306259e-06 1.407994204782880843e-05 2.676901567610912025e-05
3.501000000000000000e+03 4.845498085021972656e+00 1.379669284820556641e+01 4.993936046957969666e-02 -6.502891778945922852e-01 -1.801049411296844482e-01 4.190587401390075684e-01
3.502000000000000000e+03 7.531268310546875000e+01 1.426482582092285156e+01 3.143270686268806458e-02 7.024321556091308594e+00 2.116726398468017578e+00 -4.232482612133026123e-01
3.503000000000000000e+03 7.530011749267578125e+01 1.348304176330566406e+01 2.223738841712474823e-02 7.082592964172363281e+00 2.131449222564697266e+00 -4.302840828895568848e-01
3.504000000000000000e+03 5.087165832519531250e+00 9.844471931457519531e+00 -9.831703454256057739e-02 -3.852448761463165283e-01 -1.450685709714889526e-01 4.140650331974029541e-01
3.505000000000000000e+03 4.628739833831787109e+00 -8.647190093994140625e+00 -3.386693060747347772e-05 -7.437499334628228098e-06 -1.239132870978210121e-05 2.128626647390774451e-06
3.506000000000000000e+03 4.760854244232177734e+00 1.626041412353515625e+01 9.444282948970794678e-02 -7.854917049407958984e-01 -2.073146700859069824e-01 3.415326178073883057e-01
3.507000000000000000e+03 4.808090209960937500e+00 1.711215782165527344e+01 1.013074740767478943e-01 -8.223395943641662598e-01 -2.163096368312835693e-01 3.117411136627197266e-01
3.508000000000000000e+03 4.715481758117675781e+00 -1.067355537414550781e+01 -2.376512020418886095e-05 -2.164651050406973809e-05 -1.362348939437652007e-05 1.306693206970521715e-06
3.509000000000000000e+03 4.460269927978515625e+00 -7.694128990173339844e+00 -2.646096618263982236e-05 -7.830213689885567874e-06 -1.028735368890920654e-05 8.031445759115740657e-06
3.510000000000000000e+03 4.773828029632568359e+00 1.796743011474609375e+01 9.944744408130645752e-02 -8.560857176780700684e-01 -2.269914895296096802e-01 2.809099555015563965e-01
3.511000000000000000e+03 4.610049247741699219e+00 1.032921695709228516e+01 -7.175705581903457642e-02 -4.134429395198822021e-01 -1.455599963665008545e-01 3.975424468517303467e-01
3.512000000000000000e+03 4.487126350402832031e+00 1.091217136383056641e+01 -4.664222151041030884e-02 -4.548559486865997314e-01 -1.504494547843933105e-01 3.988674581050872803e-01
3.513000000000000000e+03 4.847984790802001953e+00 -9.498508453369140625e+00 -3.518509038258343935e-05 -1.047966998157789931e-05 -1.369942856399575248e-05 -4.569627890305127949e-06
3.514000000000000000e+03 7.525820159912109375e+01 2.128456115722656250e+01 4.600726068019866943e-02 6.574068546295166016e+00 1.986022710800170898e+00 -2.984066307544708252e-01
3.515000000000000000e+03 7.514158630371093750e+01 2.056733703613281250e+01 5.044502019882202148e-02 6.598670959472656250e+00 1.994734764099121094e+00 -3.171756267547607422e-01
3.516000000000000000e+03 5.290940284729003906e+00 8.966111183166503906e+00 -1.430451422929763794e-01 -3.317629992961883545e-01 -1.424424350261688232e-01 4.017248749732971191e-01
3.517000000000000000e+03 4.608938694000244141e+00 6.574920177459716797e+00 -1.598228067159652710e-01 -1.819513142108917236e-01 -1.025322303175926208e-01 2.368867546319961548e-01
3.518000000000000000e+03 7.554459381103515625e+01 -2.731514930725097656e+01 -3.070761263370513916e-01 8.962738037109375000e+00 2.596698522567749023e+00 -4.866757988929748535e-01
3.519000000000000000e+03 7.461923217773437500e+01 -2.871361923217773438e+01 -3.227062225341796875e-01 8.713324546813964844e+00 2.517185688018798828e+00 -3.388845622539520264e-01
3.520000000000000000e+03 5.380653858184814453e+00 1.620059394836425781e+01 1.092314496636390686e-01 -7.649099826812744141e-01 -1.967035681009292603e-01 3.664120733737945557e-01
3.521000000000000000e+03 3.930025815963745117e+00 2.700258255004882812e+01 1.748465187847614288e-02 -1.148020029067993164e+00 -3.391605913639068604e-01 6.388398259878158569e-02
3.522000000000000000e+03 4.877299308776855469e+00 2.859773826599121094e+01 1.468830090016126633e-02 -1.090895295143127441e+00 -3.228620886802673340e-01 6.812646239995956421e-02
3.523000000000000000e+03 4.665568351745605469e+00 -2.009678649902343750e+01 7.529373397119343281e-05 -1.351003902527736500e-05 1.853510730143170804e-05 5.625937410513870418e-05
3.524000000000000000e+03 5.586008071899414062e+01 -8.092232704162597656e+00 -1.871402621269226074e+00 9.271680563688278198e-02 -5.336057543754577637e-01 -3.578099608421325684e-01
3.525000000000000000e+03 6.046747684478759766e+00 -2.084065628051757812e+01 2.500764385331422091e-04 1.021408820633951109e-06 7.532934978371486068e-05 6.570556433871388435e-05
3.526000000000000000e+03 1.301937961578369141e+01 -2.593405723571777344e+01 6.948104128241539001e-04 -9.590540867066010833e-05 1.796715077944099903e-04 8.554930536774918437e-05
3.527000000000000000e+03 7.452075195312500000e+01 -2.564589881896972656e+01 -4.790447354316711426e-01 8.785196304321289062e+00 2.491845369338989258e+00 -6.659640073776245117e-01
3.528000000000000000e+03 7.515789794921875000e+01 1.817125892639160156e+01 5.159500613808631897e-02 6.735918998718261719e+00 2.036254167556762695e+00 -3.614921271800994873e-01
3.529000000000000000e+03 5.198531627655029297e+00 2.568052864074707031e+01 3.894402459263801575e-02 -1.013073563575744629e+00 -2.922388613224029541e-01 1.016053631901741028e-01
3.530000000000000000e+03 4.893676280975341797e+00 2.659176445007324219e+01 2.665379457175731659e-02 -1.060989260673522949e+00 -3.103006482124328613e-01 8.493416011333465576e-02
3.531000000000000000e+03 9.078480720520019531e+00 -2.059438705444335938e+01 1.275817630812525749e-04 -5.456593862618319690e-05 2.190474515373352915e-05 2.657300228747772053e-07
3.532000000000000000e+03 1.373817253112792969e+01 -2.647865295410156250e+01 1.000393764115869999e-03 -5.041438853368163109e-04 1.488749694544821978e-04 4.504849202930927277e-04
3.533000000000000000e+03 7.422442626953125000e+01 2.503701019287109375e+01 5.521817505359649658e-02 6.234544277191162109e+00 1.886928796768188477e+00 -2.762870192527770996e-01
3.534000000000000000e+03 7.487474060058593750e+01 2.648029136657714844e+01 4.407568275928497314e-02 6.294417858123779297e+00 1.901548147201538086e+00 -2.217835783958435059e-01
3.535000000000000000e+03 5.705066680908203125e+00 2.309486770629882812e+01 7.171631604433059692e-02 -9.255467653274536133e-01 -2.561491429805755615e-01 1.502554118633270264e-01
3.536000000000000000e+03 5.138082981109619141e+00 -2.659401702880859375e+01 2.088572000502608716e-05 7.926400576252490282e-05 3.004491736646741629e-05 3.064949123654514551e-04
3.537000000000000000e+03 6.502388954162597656e+00 3.341257858276367188e+01 1.742857880890369415e-02 -1.021343708038330078e+00 -3.011745214462280273e-01 6.181305274367332458e-02
3.538000000000000000e+03 5.597624301910400391e+00 3.129643440246582031e+01 1.596572436392307281e-02 -1.065911889076232910e+00 -3.149838447570800781e-01 6.256786733865737915e-02
3.539000000000000000e+03 7.381697845458984375e+01 2.771621894836425781e+01 6.384503096342086792e-02 6.079283714294433594e+00 1.842938661575317383e+00 -2.354175597429275513e-01
3.540000000000000000e+03 7.491346740722656250e+01 2.749536323547363281e+01 4.554323107004165649e-02 6.262629985809326172e+00 1.892452001571655273e+00 -2.070881575345993042e-01
3.541000000000000000e+03 7.560351562500000000e+01 3.443479919433593750e+01 2.276321686804294586e-02 6.200394153594970703e+00 1.866947174072265625e+00 -9.232873469591140747e-02
3.542000000000000000e+03 7.310173797607421875e+01 3.005733108520507812e+01 7.049375027418136597e-02 5.878690242767333984e+00 1.784755229949951172e+00 -2.166154980659484863e-01
3.543000000000000000e+03 5.275971889495849609e+00 -2.753321838378906250e+01 3.094919375143945217e-04 1.907925470732152462e-04 1.500853395555168390e-04 2.699768519960343838e-04
3.544000000000000000e+03 5.415629959106445312e+01 -8.342360496520996094e+00 -1.614067196846008301e+00 1.726438105106353760e-01 -4.324269890785217285e-01 -2.433163821697235107e-01
3.545000000000000000e+03 4.529478073120117188e+00 -2.891976356506347656e+01 1.921219518408179283e-05 3.074712294619530439e-04 9.800502448342740536e-05 4.347485955804586411e-04
3.546000000000000000e+03 4.332588672637939453e+00 -3.074136924743652344e+01 1.868190447567030787e-04 4.283578891772776842e-04 1.845530787250027061e-04 3.631021536421030760e-04
3.547000000000000000e+03 1.444755268096923828e+01 -2.671389579772949219e+01 1.483748666942119598e-03 -2.558040432631969452e-04 3.683833638206124306e-04 -1.740723382681608200e-05
3.548000000000000000e+03 4.764861106872558594e+00 3.016605377197265625e+01 8.250989019870758057e-03 -1.129514336585998535e+00 -3.363789916038513184e-01 5.788906663656234741e-02
3.549000000000000000e+03 5.635748863220214844e+00 -3.242900848388671875e+01 -1.952498314494732767e-05 3.321199328638613224e-04 9.377848618896678090e-05 6.052795797586441040e-04
3.550000000000000000e+03 6.494894504547119141e+00 -6.725154876708984375e+00 2.303152177773881704e-05 -5.354545464797411114e-06 5.303092621034011245e-06 3.393855649846955203e-06
3.551000000000000000e+03 4.174351215362548828e+00 -5.628097057342529297e+00 -1.083094593923306093e-05 -7.812087460479233414e-06 -5.592909928964218125e-06 7.206864665931789204e-06
3.552000000000000000e+03 7.135311603546142578e+00 9.993385314941406250e+00 -1.570906043052673340e-01 -4.225233197212219238e-01 -1.738841831684112549e-01 5.578405857086181641e-01
3.553000000000000000e+03 5.522740364074707031e+00 1.034403228759765625e+01 -9.185457974672317505e-02 -4.277629256248474121e-01 -1.558852493762969971e-01 4.630747437477111816e-01
3.554000000000000000e+03 7.074498748779296875e+01 -7.862116336822509766e+00 1.744785785675048828e+00 1.316920661926269531e+01 4.474197864532470703e+00 9.011429548263549805e-01
3.555000000000000000e+03 2.795528030395507812e+01 1.333497333526611328e+01 -3.788386881351470947e-01 -3.623223006725311279e-01 -2.223483026027679443e-01 4.231079518795013428e-01
3.556000000000000000e+03 2.811076354980468750e+01 1.247932529449462891e+01 -3.589826524257659912e-01 -3.343755006790161133e-01 -2.080074399709701538e-01 5.073399543762207031e-01
3.557000000000000000e+03 5.712415695190429688e+01 -7.275851726531982422e+00 -1.984638452529907227e+00 8.977169543504714966e-02 -5.684600472450256348e-01 -3.559685051441192627e-01
3.558000000000000000e+03 5.479550552368164062e+01 -7.947863101959228516e+00 -1.689187288284301758e+00 1.710621118545532227e-01 -4.554375410079956055e-01 -2.334161996841430664e-01
3.559000000000000000e+03 5.912664890289306641e+00 3.047530174255371094e+01 1.618041470646858215e-02 -1.030678153038024902e+00 -3.043493032455444336e-01 7.339829206466674805e-02
3.560000000000000000e+03 7.764593601226806641e+00 -1.559993839263916016e+01 -1.111717865569517016e-04 -1.959742803592234850e-05 -3.923076656064949930e-05 6.766574074390518945e-07
3.561000000000000000e+03 1.505224704742431641e+01 -2.661444664001464844e+01 1.094197854399681091e-03 -4.492405569180846214e-04 1.934871834237128496e-04 3.447179187787696719e-05
3.562000000000000000e+03 8.841938972473144531e+00 5.756081104278564453e+00 -4.469452500343322754e-01 -2.549195587635040283e-01 -2.105594426393508911e-01 3.904589414596557617e-01
3.563000000000000000e+03 5.833245849609375000e+01 -6.474476337432861328e+00 -2.008428573608398438e+00 9.166208654642105103e-02 -5.750299692153930664e-01 -3.531630039215087891e-01
3.564000000000000000e+03 5.726480102539062500e+01 -6.332104206085205078e+00 -1.790155410766601562e+00 1.799298822879791260e-01 -4.830676615238189697e-01 -2.130720317363739014e-01
3.565000000000000000e+03 4.737917327880859375e+01 -1.272165012359619141e+01 -1.039363026618957520e+00 1.164452359080314636e-01 -2.768753468990325928e-01 -1.739509850740432739e-01
3.566000000000000000e+03 4.835009002685546875e+01 -1.152481269836425781e+01 -1.124723196029663086e+00 1.505244523286819458e-01 -2.922596037387847900e-01 -1.522677838802337646e-01
3.567000000000000000e+03 9.426191329956054688e+00 6.486554622650146484e+00 -4.868752062320709229e-01 -3.254906535148620605e-01 -2.437097579240798950e-01 4.654872119426727295e-01
3.568000000000000000e+03 1.145936298370361328e+01 8.655916213989257812e+00 -5.011589527130126953e-01 -6.268784999847412109e-01 -3.384112417697906494e-01 7.040016055107116699e-01
3.569000000000000000e+03 6.600384521484375000e+01 -2.516411209106445312e+01 -7.450347542762756348e-01 5.451251029968261719e+00 1.411864876747131348e+00 8.034895062446594238e-01
3.570000000000000000e+03 1.359977817535400391e+01 -8.134478569030761719e+00 9.617610885470639914e-06 -3.791591780100134201e-06 1.747805868035356980e-06 -5.445465831144247204e-06
3.571000000000000000e+03 1.339080238342285156e+01 -8.809474945068359375e+00 -1.375320698571158573e-05 6.962814040889497846e-06 -2.037118065345566720e-06 5.489215254783630371e-06
3.572000000000000000e+03 6.741767120361328125e+01 -2.262160682678222656e+01 -7.763407826423645020e-01 7.066859722137451172e+00 1.887155652046203613e+00 7.913264036178588867e-01
3.573000000000000000e+03 6.722743988037109375e+01 -2.141666603088378906e+01 -5.837206244468688965e-01 7.309258937835693359e+00 2.017661571502685547e+00 1.050287961959838867e+00
3.574000000000000000e+03 3.013692855834960938e+01 -9.137626647949218750e+00 -6.477927565574645996e-01 4.478497058153152466e-02 -1.809023469686508179e-01 4.195579588413238525e-01
3.575000000000000000e+03 6.853437805175781250e+01 -1.800380897521972656e+01 4.932449385523796082e-02 1.025751399993896484e+01 3.092051506042480469e+00 1.238227128982543945e+00
3.576000000000000000e+03 7.004687500000000000e+01 -1.684161758422851562e+01 1.680376529693603516e-01 1.171109962463378906e+01 3.563741207122802734e+00 8.358548581600189209e-02
3.577000000000000000e+03 6.830340576171875000e+01 -2.110856819152832031e+01 -7.172271013259887695e-01 8.276083946228027344e+00 2.267657041549682617e+00 6.630907058715820312e-01
3.578000000000000000e+03 3.569796752929687500e+01 -1.401031875610351562e+01 -6.046160459518432617e-01 1.126109883189201355e-01 -1.476015150547027588e-01 1.899792104959487915e-01
3.579000000000000000e+03 3.319452667236328125e+01 -1.263310337066650391e+01 -5.807582139968872070e-01 8.888345956802368164e-02 -1.475624293088912964e-01 2.819828987121582031e-01
3.580000000000000000e+03 5.816920471191406250e+01 9.737455368041992188e+00 3.856025934219360352e-01 2.998911619186401367e+00 1.015354275703430176e+00 -5.175570845603942871e-01
3.581000000000000000e+03 4.197596740722656250e+01 -1.340593147277832031e+01 -8.104988336563110352e-01 1.576371043920516968e-01 -1.958585083484649658e-01 3.207895532250404358e-02
3.582000000000000000e+03 9.847807884216308594e+00 -5.797814369201660156e+00 -1.396170046064071357e-05 -3.064191787416348234e-06 -5.107767719891853631e-06 -1.884865810097835492e-06
3.583000000000000000e+03 4.108636856079101562e+01 6.193697452545166016e+00 -1.987080127000808716e-01 7.406959533691406250e-01 1.625963896512985229e-01 2.283592075109481812e-01
3.584000000000000000e+03 4.299388885498046875e+01 5.094127178192138672e+00 -2.105556875467300415e-01 5.802873969078063965e-01 1.109195053577423096e-01 6.976063549518585205e-02
3.585000000000000000e+03 5.469806671142578125e+01 5.433184623718261719e+00 1.738686412572860718e-01 1.172889590263366699e+00 4.040274620056152344e-01 2.455458045005798340e-01
3.586000000000000000e+03 5.518904495239257812e+01 4.813635349273681641e+00 1.424106657505035400e-01 1.238718509674072266e+00 4.143387377262115479e-01 1.575874537229537964e-01
3.587000000000000000e+03 3.072358131408691406e+01 -1.245672321319580078e+01 -5.124920010566711426e-01 -1.952566206455230713e-03 -1.543333679437637329e-01 3.366875052452087402e-01
3.588000000000000000e+03 3.866014099121093750e+01 1.453275585174560547e+01 3.903046846389770508e-01 9.312108755111694336e-01 3.964546620845794678e-01 2.970227301120758057e-01
3.589000000000000000e+03 9.646696090698242188e+00 -2.118412399291992188e+01 1.630893239052966237e-04 3.638099587988108397e-05 5.984109520795755088e-05 4.529576017375802621e-06
3.590000000000000000e+03 5.479363918304443359e+00 -2.224588966369628906e+01 -1.832132511481177062e-05 3.829875822702888399e-06 -4.347434696683194488e-06 1.073735693353228271e-04
3.591000000000000000e+03 2.406623840332031250e+01 -2.347519159317016602e+00 -8.500828742980957031e-01 -1.707219481468200684e-01 -3.062414526939392090e-01 4.476076066493988037e-01
3.592000000000000000e+03 2.543349647521972656e+01 -5.444084167480468750e+00 -8.457943797111511230e-01 -2.022176235914230347e-01 -3.144035935401916504e-01 5.381866693496704102e-01
3.593000000000000000e+03 5.245903015136718750e+01 -8.555260658264160156e+00 -1.435376405715942383e+00 2.106783837080001831e-01 -3.674094080924987793e-01 -1.417607814073562622e-01
3.594000000000000000e+03 4.065709686279296875e+01 8.435789108276367188e+00 -5.437514558434486389e-02 9.513911008834838867e-01 2.691047787666320801e-01 3.028399944305419922e-01
3.595000000000000000e+03 3.565636825561523438e+01 -1.503667068481445312e+01 -5.704786777496337891e-01 8.861447870731353760e-02 -1.445592641830444336e-01 1.627387702465057373e-01
3.596000000000000000e+03 3.500279998779296875e+01 -1.556010532379150391e+01 -5.322356820106506348e-01 7.019598037004470825e-02 -1.386119127273559570e-01 1.595432907342910767e-01
3.597000000000000000e+03 7.174989318847656250e+01 -8.373358726501464844e+00 2.288058757781982422e+00 1.203419208526611328e+01 4.296675205230712891e+00 1.013245582580566406e+00
3.598000000000000000e+03 6.009603881835937500e+01 -3.098941421508789062e+01 -1.625473648309707642e-01 1.760306715965270996e+00 4.793277978897094727e-01 4.287168085575103760e-01
3.599000000000000000e+03 4.588849639892578125e+01 4.014800071716308594e+00 -9.507329761981964111e-02 2.657474279403686523e-01 5.120224133133888245e-02 3.527977690100669861e-02
3.600000000000000000e+03 3.418880081176757812e+01 -1.416073131561279297e+01 -5.551265478134155273e-01 8.237387239933013916e-02 -1.418257951736450195e-01 2.218804508447647095e-01
3.601000000000000000e+03 1.566090488433837891e+01 -2.809135627746582031e+01 1.270542270503938198e-03 -5.378620116971433163e-04 2.198040747316554189e-04 4.920149222016334534e-04
3.602000000000000000e+03 4.204844665527343750e+01 5.365006923675537109e+00 -2.279885262250900269e-01 6.569916605949401855e-01 1.287009418010711670e-01 1.420637816190719604e-01
3.603000000000000000e+03 4.229371643066406250e+01 4.790693283081054688e+00 -2.379822582006454468e-01 6.030497550964355469e-01 1.095202416181564331e-01 1.340319663286209106e-01
3.604000000000000000e+03 4.721852493286132812e+01 4.396133422851562500e+00 -6.819100235588848591e-04 1.551645249128341675e-01 4.634478688240051270e-02 4.878539219498634338e-02
3.605000000000000000e+03 6.039284515380859375e+01 -5.084774971008300781e+00 -1.614292025566101074e+00 9.338197857141494751e-02 -4.562730193138122559e-01 -4.956062138080596924e-01
3.606000000000000000e+03 4.669543743133544922e+00 -1.649008178710937500e+01 6.447971099987626076e-05 3.845666287816129625e-05 3.088091034442186356e-05 -2.365074215049389750e-05
3.607000000000000000e+03 6.012750625610351562e+01 1.193857955932617188e+01 5.677363872528076172e-01 3.489604949951171875e+00 1.217202425003051758e+00 -7.609228491783142090e-01
3.608000000000000000e+03 6.396950912475585938e+01 -4.401944637298583984e+00 -5.539603233337402344e-01 7.737978100776672363e-01 6.595125049352645874e-02 -2.275068759918212891e+00
3.609000000000000000e+03 6.147799301147460938e+01 -4.110189914703369141e+00 -9.795168042182922363e-01 3.588185310363769531e-01 -1.862094700336456299e-01 -7.839995026588439941e-01
3.610000000000000000e+03 6.012568950653076172e+00 -7.898416042327880859e+00 2.474988650646992028e-05 6.883569767524022609e-06 9.490036973147653043e-06 -8.284840077976696193e-06
3.611000000000000000e+03 6.958586120605468750e+01 -1.764477920532226562e+01 -6.312456727027893066e-02 1.094472694396972656e+01 3.264480829238891602e+00 4.263600409030914307e-01
3.612000000000000000e+03 2.595793914794921875e+01 2.609747171401977539e+00 -1.752180606126785278e-02 5.861795321106910706e-02 1.232884358614683151e-02 1.561836302280426025e-01
3.613000000000000000e+03 5.963195037841796875e+01 1.341384696960449219e+01 6.675717830657958984e-01 3.510499238967895508e+00 1.253421306610107422e+00 -6.829915046691894531e-01
3.614000000000000000e+03 6.345570373535156250e+01 -2.646496391296386719e+01 -5.773002505302429199e-01 3.409918069839477539e+00 8.497853875160217285e-01 7.721590399742126465e-01
3.615000000000000000e+03 1.078849887847900391e+01 -2.223266410827636719e+01 3.285903367213904858e-04 -2.234023122582584620e-05 9.187503019347786903e-05 -1.130569580709561706e-05
3.616000000000000000e+03 4.444336318969726562e+01 -1.306070041656494141e+01 -9.049543142318725586e-01 1.426937878131866455e-01 -2.286781519651412964e-01 -4.988558962941169739e-02
3.617000000000000000e+03 4.370112609863281250e+01 -1.326232814788818359e+01 -8.698039054870605469e-01 1.463735848665237427e-01 -2.170290946960449219e-01 -2.733109332621097565e-02
3.618000000000000000e+03 5.657989501953125000e+01 6.964303493499755859e+00 1.594890505075454712e-01 2.059336423873901367e+00 6.656476259231567383e-01 -8.622794598340988159e-02
3.619000000000000000e+03 5.020326614379882812e+01 3.023698091506958008e+00 4.555730521678924561e-02 2.296287566423416138e-01 8.255581557750701904e-02 2.501923143863677979e-01
3.620000000000000000e+03 4.033501052856445312e+01 7.710469722747802734e+00 -9.743070602416992188e-02 8.537107110023498535e-01 2.268840074539184570e-01 3.180696070194244385e-01
3.621000000000000000e+03 7.152010345458984375e+01 -1.333922386169433594e+01 2.061185121536254883e+00 1.266529560089111328e+01 4.417944431304931641e+00 -7.613834738731384277e-01
3.622000000000000000e+03 7.079317474365234375e+01 -1.311585998535156250e+01 2.299258708953857422e+00 1.364102268218994141e+01 4.782084465026855469e+00 -4.165169298648834229e-01
3.623000000000000000e+03 2.318555831909179688e+01 -3.943749517202377319e-02 -6.171792149543762207e-01 -8.119091391563415527e-02 -2.095110416412353516e-01 3.777717649936676025e-01
3.624000000000000000e+03 2.600688552856445312e+01 -5.095646381378173828e+00 -8.324958086013793945e-01 -1.247046440839767456e-01 -2.871601283550262451e-01 4.948954582214355469e-01
3.625000000000000000e+03 6.408943176269531250e+01 -2.578348922729492188e+01 -5.785283446311950684e-01 3.951126575469970703e+00 1.011779427528381348e+00 7.924734950065612793e-01
3.626000000000000000e+03 1.299292087554931641e+01 4.836472988128662109e+00 -6.060127019882202148e-01 -8.275138735771179199e-01 -4.300579726696014404e-01 5.235260725021362305e-01
3.627000000000000000e+03 1.381779956817626953e+01 5.551147460937500000e+00 -6.935309171676635742e-01 -1.078463792800903320e+00 -5.315983891487121582e-01 5.893624424934387207e-01
3.628000000000000000e+03 1.196298217773437500e+01 1.643388748168945312e+01 5.146315097808837891e-01 -4.769859313964843750e-01 1.129366643726825714e-02 3.787936866283416748e-01
3.629000000000000000e+03 1.221171855926513672e+01 1.359317111968994141e+01 3.971806764602661133e-01 -5.583664178848266602e-01 -4.835573211312294006e-02 6.096412539482116699e-01
3.630000000000000000e+03 2.458373260498046875e+01 -3.023523569107055664e+00 -8.627464771270751953e-01 -1.566586494445800781e-01 -3.058215379714965820e-01 4.589533805847167969e-01
3.631000000000000000e+03 5.998438644409179688e+01 -4.621169567108154297e+00 -1.346558094024658203e+00 2.256235331296920776e-01 -3.362803459167480469e-01 -3.855966329574584961e-01
3.632000000000000000e+03 6.160902023315429688e+01 -2.796394538879394531e+01 -4.520496726036071777e-01 2.302588462829589844e+00 5.551616549491882324e-01 5.588446259498596191e-01
3.633000000000000000e+03 6.276007843017578125e+01 -2.702473068237304688e+01 -5.330088734626770020e-01 3.027168989181518555e+00 7.482480406761169434e-01 6.994881033897399902e-01
3.634000000000000000e+03 6.183967971801757812e+01 -3.019520378112792969e+01 -2.805020213127136230e-01 2.572145462036132812e+00 6.874930262565612793e-01 5.363665819168090820e-01
3.635000000000000000e+03 3.927503204345703125e+01 1.282091522216796875e+01 3.621357977390289307e-01 1.013465523719787598e+00 4.126804172992706299e-01 3.631837666034698486e-01
3.636000000000000000e+03 3.789588165283203125e+01 1.284321689605712891e+01 3.071398437023162842e-01 7.915514707565307617e-01 3.296073973178863525e-01 3.888095915317535400e-01
3.637000000000000000e+03 5.130572509765625000e+01 2.222077178955078125e+01 6.173869967460632324e-01 1.125198006629943848e+00 5.227755308151245117e-01 -4.261916279792785645e-01
3.638000000000000000e+03 7.170957183837890625e+01 -1.574641418457031250e+01 6.978222131729125977e-01 1.139647579193115234e+01 3.628289461135864258e+00 -1.003486871719360352e+00
3.639000000000000000e+03 2.459980010986328125e+01 -1.994560956954956055e+00 -7.854675054550170898e-01 -9.559895098209381104e-02 -2.643199563026428223e-01 3.954791426658630371e-01
3.640000000000000000e+03 2.818247413635253906e+01 1.614255523681640625e+01 -8.407468348741531372e-02 -3.517247140407562256e-01 -1.307398080825805664e-01 2.347716689109802246e-01
3.641000000000000000e+03 5.252415466308593750e+01 4.153361320495605469e+00 1.670128107070922852e-01 4.999047517776489258e-01 2.000752687454223633e-01 3.006236255168914795e-01
3.642000000000000000e+03 6.818154907226562500e+01 -1.993780517578125000e+01 -4.672784507274627686e-01 8.777510643005371094e+00 2.493069648742675781e+00 9.253377318382263184e-01
3.643000000000000000e+03 5.862115859985351562e+01 8.101728439331054688e+00 2.642665505409240723e-01 2.798088550567626953e+00 9.187065362930297852e-01 -5.432692766189575195e-01
3.644000000000000000e+03 5.873551559448242188e+01 9.172284126281738281e+00 3.393517434597015381e-01 3.003129959106445312e+00 1.002744555473327637e+00 -5.847730040550231934e-01
3.645000000000000000e+03 1.544863700866699219e+01 2.066294670104980469e+01 2.264007478952407837e-01 -2.398385852575302124e-02 6.072506681084632874e-02 3.316411972045898438e-01
3.646000000000000000e+03 1.522218990325927734e+01 1.918816757202148438e+01 3.465899527072906494e-01 5.394360423088073730e-02 1.201600730419158936e-01 2.939756214618682861e-01
3.647000000000000000e+03 7.015599060058593750e+01 -3.574635744094848633e+00 -1.802140235900878906e+00 1.030452919006347656e+01 2.550716638565063477e+00 -7.929368019104003906e-01
3.648000000000000000e+03 6.233485031127929688e+01 -2.813832664489746094e+01 -4.608117043972015381e-01 2.799955606460571289e+00 7.017431855201721191e-01 6.233513951301574707e-01
3.649000000000000000e+03 1.041163253784179688e+01 5.165851593017578125e+00 -5.492269396781921387e-01 -3.827926516532897949e-01 -2.796058654785156250e-01 4.147073626518249512e-01
3.650000000000000000e+03 1.200636672973632812e+01 7.786301612854003906e+00 -6.567436456680297852e-01 -7.191885709762573242e-01 -4.127796590328216553e-01 6.529809236526489258e-01
3.651000000000000000e+03 5.880491733551025391e+00 1.598856353759765625e+01 1.334677189588546753e-01 -7.434822320938110352e-01 -1.830043494701385498e-01 4.013525247573852539e-01
3.652000000000000000e+03 1.208893680572509766e+01 -7.826294898986816406e+00 1.257434519175149035e-06 -8.272120794572401792e-06 -2.104405893987859599e-06 -2.228211315014050342e-06
3.653000000000000000e+03 1.158724975585937500e+01 5.818040847778320312e+00 -6.348463296890258789e-01 -5.785207748413085938e-01 -3.640101552009582520e-01 4.951738715171813965e-01
3.654000000000000000e+03 7.871194362640380859e+00 -1.959906578063964844e+01 8.713586794328875840e-06 -4.179120151093229651e-05 -9.923283869284205139e-06 1.226356016559293494e-05
3.655000000000000000e+03 7.603535175323486328e+00 -2.030802345275878906e+01 1.452574215363711119e-04 5.835332558490335941e-05 6.108322122599929571e-05 4.060263108840445057e-06
3.656000000000000000e+03 1.801466178894042969e+01 2.069309043884277344e+01 2.103535830974578857e-01 3.816324844956398010e-02 7.455504685640335083e-02 5.420122146606445312e-01
3.657000000000000000e+03 6.051191711425781250e+01 1.127730178833007812e+01 5.120908021926879883e-01 3.488256692886352539e+00 1.200104236602783203e+00 -7.884256839752197266e-01
3.658000000000000000e+03 8.616712570190429688e+00 -6.133996009826660156e+00 -2.554924321884755045e-05 -7.476465668787568575e-08 -7.687202014494687319e-06 3.763792165045742877e-06
3.659000000000000000e+03 7.180387878417968750e+01 -1.185625839233398438e+01 2.681091785430908203e+00 1.245760059356689453e+01 4.541607856750488281e+00 -3.587734699249267578e-01
3.660000000000000000e+03 1.894829559326171875e+01 -2.981707382202148438e+01 2.924096770584583282e-03 -5.038045928813517094e-04 7.260876591317355633e-04 5.023130215704441071e-04
3.661000000000000000e+03 4.358810424804687500e+01 2.294537353515625000e+01 3.719172775745391846e-01 1.018488049507141113e+00 4.171215891838073730e-01 3.813464641571044922e-01
3.662000000000000000e+03 4.378731155395507812e+01 2.183794212341308594e+01 3.108413815498352051e-01 1.054782986640930176e+00 4.096873104572296143e-01 4.315086901187896729e-01
3.663000000000000000e+03 5.790990447998046875e+01 1.969845962524414062e+01 3.278123438358306885e-01 3.344077110290527344e+00 1.101566791534423828e+00 -5.777603983879089355e-01
3.664000000000000000e+03 2.851203346252441406e+01 -8.179508209228515625e+00 -6.810098886489868164e-01 -3.023422509431838989e-02 -2.133732289075851440e-01 4.656279087066650391e-01
3.665000000000000000e+03 2.812948417663574219e+01 -7.793476581573486328e+00 -7.012140154838562012e-01 -4.166369512677192688e-02 -2.228633016347885132e-01 4.746550917625427246e-01
3.666000000000000000e+03 1.165692996978759766e+01 5.323200225830078125e+00 -6.163943409919738770e-01 -5.723642110824584961e-01 -3.566275537014007568e-01 4.708454608917236328e-01
3.667000000000000000e+03 1.999929618835449219e+01 2.087104797363281250e+01 2.697081267833709717e-01 -1.195509135723114014e-01 4.504716023802757263e-02 6.442388892173767090e-01
3.668000000000000000e+03 2.838067626953125000e+01 8.395666122436523438e+00 1.542681604623794556e-01 -2.688385546207427979e-01 -3.437111526727676392e-02 6.321666240692138672e-01
3.669000000000000000e+03 5.531396102905273438e+01 5.892316341400146484e+00 1.612505018711090088e-01 1.432590723037719727e+00 4.781523644924163818e-01 1.656567603349685669e-01
3.670000000000000000e+03 5.766681671142578125e+01 7.142137050628662109e+00 1.800324171781539917e-01 2.394773006439208984e+00 7.724416255950927734e-01 -3.229013979434967041e-01
3.671000000000000000e+03 3.878143310546875000e+01 1.064969921112060547e+01 1.769044399261474609e-01 8.473193645477294922e-01 3.072671592235565186e-01 4.456158876419067383e-01
3.672000000000000000e+03 5.290966415405273438e+01 3.273614645004272461e+00 8.852180838584899902e-02 5.631459355354309082e-01 1.955003142356872559e-01 2.932675182819366455e-01
3.673000000000000000e+03 2.306768226623535156e+01 1.583490252494812012e+00 -3.190359473228454590e-01 7.034274190664291382e-02 -7.460796833038330078e-02 3.179202675819396973e-01
3.674000000000000000e+03 2.239363670349121094e+01 1.288875699043273926e+00 -4.233784377574920654e-01 -1.410793513059616089e-02 -1.312459111213684082e-01 3.988975882530212402e-01
3.675000000000000000e+03 6.165495300292968750e+01 -3.476190567016601562e+00 -7.150628566741943359e-01 5.242283940315246582e-01 -5.725034326314926147e-02 -9.757313132286071777e-01
3.676000000000000000e+03 2.515031623840332031e+01 2.403821945190429688e+00 -7.147430628538131714e-02 9.444340318441390991e-02 6.890729069709777832e-03 1.620747596025466919e-01
3.677000000000000000e+03 1.007182979583740234e+01 9.272943496704101562e+00 -3.457387983798980713e-01 -5.016773939132690430e-01 -2.542248666286468506e-01 6.972106099128723145e-01
3.678000000000000000e+03 1.032654571533203125e+01 5.932305812835693359e+00 -5.579434633255004883e-01 -3.971332609653472900e-01 -2.865230143070220947e-01 4.623918831348419189e-01
3.679000000000000000e+03 5.361787414550781250e+01 4.467543125152587891e+00 1.683085262775421143e-01 7.651129961013793945e-01 2.800264358520507812e-01 2.914063334465026855e-01
3.680000000000000000e+03 6.318478584289550781e+00 -1.412800693511962891e+01 -6.619538180530071259e-05 -8.470792636217083782e-06 -2.239985406049527228e-05 1.359476755169453099e-05
3.681000000000000000e+03 4.849761009216308594e+00 -1.576855182647705078e+01 -6.906365160830318928e-05 -1.187906400446081534e-05 -2.428281368338502944e-05 1.514412815595278516e-05
3.682000000000000000e+03 4.304665756225585938e+01 2.176649284362792969e+01 2.956618666648864746e-01 1.078092694282531738e+00 4.121263921260833740e-01 3.901642858982086182e-01
3.683000000000000000e+03 2.602093887329101562e+01 1.890340423583984375e+01 2.453171014785766602e-01 -5.203857421875000000e-01 -8.252059668302536011e-02 3.260858952999114990e-01
3.684000000000000000e+03 2.638727760314941406e+01 1.731501197814941406e+01 6.117720529437065125e-02 -5.830563902854919434e-01 -1.565637588500976562e-01 2.782017886638641357e-01
3.685000000000000000e+03 4.452844238281250000e+01 2.306166648864746094e+01 4.329658448696136475e-01 9.781911373138427734e-01 4.233470857143402100e-01 3.794429004192352295e-01
3.686000000000000000e+03 7.390309906005859375e+01 -1.345172786712646484e+01 1.390656352043151855e+00 9.694346427917480469e+00 3.325500965118408203e+00 -9.752119183540344238e-01
3.687000000000000000e+03 2.794140243530273438e+01 5.081201076507568359e+00 2.771517336368560791e-01 -1.418697535991668701e-01 4.058459028601646423e-02 3.423202335834503174e-01
3.688000000000000000e+03 5.985138702392578125e+01 -4.120287895202636719e+00 -1.165811657905578613e+00 3.318745493888854980e-01 -2.501811385154724121e-01 -4.130838811397552490e-01
3.689000000000000000e+03 5.944912338256835938e+01 -5.755072593688964844e+00 -1.910415291786193848e+00 9.416865557432174683e-02 -5.448739528656005859e-01 -3.874553143978118896e-01
3.690000000000000000e+03 7.241809082031250000e+01 -1.518432617187500000e+01 9.226981997489929199e-01 1.105901718139648438e+01 3.594514608383178711e+00 -1.167498469352722168e+00
3.691000000000000000e+03 5.222553634643554688e+01 -3.531616592407226562e+01 2.455646097660064697e-01 -7.174699008464813232e-02 5.214528739452362061e-02 -2.157980650663375854e-01
3.692000000000000000e+03 2.929245948791503906e+01 -9.152209281921386719e+00 -6.406850814819335938e-01 -2.658439567312598228e-03 -1.930030584335327148e-01 4.410970211029052734e-01
3.693000000000000000e+03 4.675418090820312500e+01 3.543213605880737305e+00 -7.017060369253158569e-02 2.126421779394149780e-01 4.274147003889083862e-02 8.056101202964782715e-02
3.694000000000000000e+03 4.397247314453125000e+01 4.799462318420410156e+00 -1.750797778367996216e-01 4.733345806598663330e-01 8.947644382715225220e-02 2.337152883410453796e-02
3.695000000000000000e+03 4.424708557128906250e+01 4.140831470489501953e+00 -1.805842369794845581e-01 4.245152175426483154e-01 7.317929714918136597e-02 4.778435081243515015e-02
3.696000000000000000e+03 3.307871627807617188e+01 -1.412063789367675781e+01 -5.260947346687316895e-01 5.935236439108848572e-02 -1.400227099657058716e-01 2.363798022270202637e-01
3.697000000000000000e+03 2.541081428527832031e+01 1.636049389839172363e+00 -2.173018306493759155e-01 7.108440995216369629e-02 -4.386522620916366577e-02 1.799853295087814331e-01
3.698000000000000000e+03 2.220832443237304688e+01 2.854440808296203613e-01 -6.082101464271545410e-01 -1.424297243356704712e-01 -2.251919507980346680e-01 4.583316147327423096e-01
3.699000000000000000e+03 4.964537429809570312e+01 1.394793629646301270e+00 -1.181934624910354614e-01 2.635088562965393066e-01 4.359461739659309387e-02 2.653687298297882080e-01
3.700000000000000000e+03 4.233629608154296875e+01 2.137846565246582031e+01 2.609767317771911621e-01 1.100875020027160645e+00 4.085555374622344971e-01 3.587669730186462402e-01
3.701000000000000000e+03 3.810768127441406250e+01 1.385141277313232422e+01 3.415978550910949707e-01 8.224672675132751465e-01 3.492195308208465576e-01 3.403049409389495850e-01
3.702000000000000000e+03 3.864323425292968750e+01 1.332831001281738281e+01 3.547705411911010742e-01 9.118040800094604492e-01 3.799723982810974121e-01 3.625651895999908447e-01
3.703000000000000000e+03 5.429060935974121094e+00 -3.143038749694824219e+01 1.954320032382383943e-04 4.465271777007728815e-04 1.925877586472779512e-04 4.785408091265708208e-04
3.704000000000000000e+03 7.450239562988281250e+01 3.515621185302734375e+01 3.620098531246185303e-02 6.003488540649414062e+00 1.811906814575195312e+00 -9.339862316846847534e-02
3.705000000000000000e+03 7.270429992675781250e+01 -3.729963302612304688e+01 3.255831822752952576e-02 7.688121795654296875e+00 2.316204071044921875e+00 1.090952381491661072e-01
3.706000000000000000e+03 5.866815185546875000e+01 1.553666114807128906e+01 7.568863630294799805e-01 3.453804969787597656e+00 1.263207435607910156e+00 -5.511529445648193359e-01
3.707000000000000000e+03 1.767483901977539062e+01 -3.212232971191406250e+01 1.049775746650993824e-03 -6.656812038272619247e-04 1.152283512055873871e-04 1.517052180133759975e-03
3.708000000000000000e+03 2.040195655822753906e+01 -3.075174140930175781e+01 3.520230064168572426e-03 -7.911771535873413086e-04 8.187158964574337006e-04 1.135117257945239544e-03
3.709000000000000000e+03 2.085463523864746094e+01 2.128929138183593750e+01 2.989728748798370361e-01 -2.356122881174087524e-01 1.900817453861236572e-02 6.264429688453674316e-01
3.710000000000000000e+03 2.349818801879882812e+01 1.976288604736328125e+01 3.456297516822814941e-01 -5.116964578628540039e-01 -4.982001334428787231e-02 5.309769511222839355e-01
3.711000000000000000e+03 1.729755783081054688e+01 -3.033343696594238281e+01 2.045969478785991669e-03 -5.965532036498188972e-04 4.348249058239161968e-04 7.875885348767042160e-04
3.712000000000000000e+03 1.384267520904541016e+01 -7.470940589904785156e+00 -9.437567314307671040e-06 2.206461886089527979e-06 -2.169331537515972741e-06 2.635412556628580205e-06
3.713000000000000000e+03 2.518552207946777344e+01 2.018753623962402344e+01 3.383751809597015381e-01 -4.637598097324371338e-01 -3.761539608240127563e-02 4.038105309009552002e-01
3.714000000000000000e+03 2.450640869140625000e+01 1.900599098205566406e+01 2.831679284572601318e-01 -5.809981822967529297e-01 -8.934906870126724243e-02 4.452390968799591064e-01
3.715000000000000000e+03 2.396305084228515625e+01 -3.635154724121093750e+01 -2.229863777756690979e-03 -2.316910540685057640e-03 -1.364032272249460220e-03 3.434617538005113602e-03
3.716000000000000000e+03 5.516219329833984375e+01 2.199236106872558594e+01 3.850823640823364258e-01 2.458816289901733398e+00 8.531695604324340820e-01 -7.321787476539611816e-01
3.717000000000000000e+03 4.743567657470703125e+01 2.552588081359863281e+01 6.462715268135070801e-01 1.090611219406127930e+00 5.210648179054260254e-01 9.697430580854415894e-02
3.718000000000000000e+03 4.979513931274414062e+01 2.543382072448730469e+01 7.027262449264526367e-01 1.304306745529174805e+00 6.021099090576171875e-01 -1.698038130998611450e-01
3.719000000000000000e+03 2.329550552368164062e+01 2.093947219848632812e+01 3.687625825405120850e-01 -4.135285317897796631e-01 -1.342978328466415405e-02 5.417732596397399902e-01
3.720000000000000000e+03 3.932829284667968750e+01 1.818392944335937500e+01 3.182300925254821777e-01 1.018273234367370605e+00 4.009510278701782227e-01 1.788593977689743042e-01
3.721000000000000000e+03 5.713266372680664062e+01 2.198234367370605469e+01 3.126249015331268311e-01 3.019303798675537109e+00 9.995785951614379883e-01 -6.648657917976379395e-01
3.722000000000000000e+03 5.310644149780273438e+01 -3.405559539794921875e+01 9.176533669233322144e-02 -6.973502691835165024e-03 2.543754875659942627e-02 -2.128883600234985352e-01
3.723000000000000000e+03 5.489960479736328125e+01 -3.191791343688964844e+01 -2.063291966915130615e-01 1.592247039079666138e-01 -1.413134951144456863e-02 -1.651499271392822266e-01
3.724000000000000000e+03 4.860651779174804688e+01 2.436730957031250000e+01 6.771592497825622559e-01 1.038296580314636230e+00 5.146367549896240234e-01 6.583542097359895706e-03
3.725000000000000000e+03 5.368614959716796875e+01 -3.291958999633789062e+01 -6.624899804592132568e-02 1.478770049288868904e-03 -1.943106763064861298e-02 -2.223547846078872681e-01
3.726000000000000000e+03 5.477914428710937500e+01 -3.317215347290039062e+01 3.193537145853042603e-02 2.400677949190139771e-01 8.160094916820526123e-02 -1.271534115076065063e-01
3.727000000000000000e+03 3.172149085998535156e+01 -4.113903808593750000e+01 2.097018994390964508e-03 -3.954645246267318726e-02 -1.123483013361692429e-02 -4.238018766045570374e-03
3.728000000000000000e+03 4.787187957763671875e+01 -3.499930953979492188e+01 2.066864864900708199e-03 -3.205523192882537842e-01 -9.554564207792282104e-02 -3.389502763748168945e-01
3.729000000000000000e+03 7.228960418701171875e+01 -4.109505462646484375e+01 3.307849168777465820e-02 7.499495029449462891e+00 2.259772062301635742e+00 6.588099151849746704e-02
3.730000000000000000e+03 7.357501220703125000e+01 -3.862129974365234375e+01 6.420684978365898132e-03 7.797012329101562500e+00 2.341029882431030273e+00 -4.330794885754585266e-02
3.731000000000000000e+03 5.792745971679687500e+01 2.072151756286621094e+01 3.140337169170379639e-01 3.266799449920654297e+00 1.074249982833862305e+00 -6.091932654380798340e-01
3.732000000000000000e+03 4.044388580322265625e+01 1.834961318969726562e+01 3.158879280090332031e-01 1.173503398895263672e+00 4.468173980712890625e-01 2.103213667869567871e-01
3.733000000000000000e+03 3.890407180786132812e+01 1.932985687255859375e+01 2.897064983844757080e-01 9.490897059440612793e-01 3.716388642787933350e-01 1.766582727432250977e-01
3.734000000000000000e+03 2.187410545349121094e+01 -3.557071304321289062e+01 -1.826376537792384624e-03 -5.443810368888080120e-04 -7.112272433005273342e-04 2.823397517204284668e-03
3.735000000000000000e+03 4.119094848632812500e+01 1.957754135131835938e+01 2.467485517263412476e-01 1.190665483474731445e+00 4.312242269515991211e-01 2.736262679100036621e-01
3.736000000000000000e+03 2.048542404174804688e+01 -3.432382202148437500e+01 8.659737068228423595e-04 -6.548634264618158340e-04 6.333307828754186630e-05 2.268606098368763924e-03
3.737000000000000000e+03 1.961089324951171875e+01 -3.167598152160644531e+01 2.464605495333671570e-03 -8.003378752619028091e-04 4.992802860215306282e-04 1.409549964591860771e-03
3.738000000000000000e+03 6.117059230804443359e+00 3.530261993408203125e+01 1.368627883493900299e-02 -1.068206191062927246e+00 -3.163560032844543457e-01 4.377011209726333618e-02
3.739000000000000000e+03 4.673748016357421875e+00 -3.333022308349609375e+01 -4.487561454880051315e-05 4.944434622302651405e-04 1.348703517578542233e-04 4.788595542777329683e-04
3.740000000000000000e+03 5.488953113555908203e+00 -3.447253417968750000e+01 -8.029171294765546918e-05 6.125497748143970966e-04 1.596774236531928182e-04 5.733160069212317467e-04
3.741000000000000000e+03 6.895962238311767578e+00 3.659533309936523438e+01 2.084557339549064636e-02 -1.013420104980468750e+00 -2.977723777294158936e-01 4.076814651489257812e-02
3.742000000000000000e+03 4.438491058349609375e+01 -3.803379821777343750e+01 1.855886876583099365e-01 -2.667998373508453369e-01 -2.436335012316703796e-02 -1.943690627813339233e-01
3.743000000000000000e+03 7.528512954711914062e+00 3.815390396118164062e+01 3.650952130556106567e-02 -9.765180349349975586e-01 -2.820025682449340820e-01 3.562533855438232422e-02
3.744000000000000000e+03 4.253124618530273438e+01 -4.130344772338867188e+01 2.146336138248443604e-01 -2.767989337444305420e-01 -1.864959485828876495e-02 -4.685284942388534546e-02
3.745000000000000000e+03 3.817044067382812500e+01 -4.128967666625976562e+01 6.469456851482391357e-02 -1.396367847919464111e-01 -2.248266339302062988e-02 -2.066092938184738159e-02
3.746000000000000000e+03 1.167140483856201172e+01 -3.750529479980468750e+01 -6.136765587143599987e-04 4.776967980433255434e-04 -4.079392238054424524e-05 8.232983527705073357e-04
3.747000000000000000e+03 8.309637069702148438e+00 -3.826956939697265625e+01 -2.424233389319851995e-04 8.054476929828524590e-04 1.689073105808347464e-04 6.405177409760653973e-04
3.748000000000000000e+03 7.007411003112792969e+00 -3.699483489990234375e+01 -3.941852774005383253e-04 6.417701370082795620e-04 7.427544915117323399e-05 5.108003388158977032e-04
3.749000000000000000e+03 5.020124053955078125e+01 2.276951074600219727e+00 -1.804655045270919800e-02 2.646152377128601074e-01 7.397060841321945190e-02 2.660806179046630859e-01
3.750000000000000000e+03 5.167262268066406250e+01 2.089405775070190430e+00 -1.701018214225769043e-02 3.939597308635711670e-01 1.130848675966262817e-01 2.988704442977905273e-01
3.751000000000000000e+03 5.175590133666992188e+01 2.833809614181518555e+00 5.348566174507141113e-02 3.949348330497741699e-01 1.345261484384536743e-01 2.988406717777252197e-01
3.752000000000000000e+03 2.664465522766113281e+01 3.525912046432495117e+00 1.438199132680892944e-01 -6.102904211729764938e-03 4.131510481238365173e-02 1.861872375011444092e-01
3.753000000000000000e+03 4.378079986572265625e+01 -1.061390876770019531e+01 -9.033324718475341797e-01 2.392401993274688721e-01 -1.992276906967163086e-01 6.984347850084304810e-02
3.754000000000000000e+03 4.963736343383789062e+01 -1.091950321197509766e+01 -1.217317223548889160e+00 1.484936028718948364e-01 -3.206470906734466553e-01 -1.810818016529083252e-01
3.755000000000000000e+03 4.740061950683593750e+01 -1.117623615264892578e+01 -1.072084188461303711e+00 1.852511763572692871e-01 -2.660498917102813721e-01 -8.698328584432601929e-02
3.756000000000000000e+03 7.227253723144531250e+01 -1.344821453094482422e+01 1.894182920455932617e+00 1.144819355010986328e+01 4.002712726593017578e+00 -9.228144884109497070e-01
3.757000000000000000e+03 5.092604827880859375e+01 -1.024077606201171875e+01 -1.322013497352600098e+00 1.481804549694061279e-01 -3.521499037742614746e-01 -2.066649645566940308e-01
3.758000000000000000e+03 4.928989410400390625e+01 -1.033008289337158203e+01 -1.187855482101440430e+00 1.939589232206344604e-01 -2.981689870357513428e-01 -1.259458959102630615e-01
3.759000000000000000e+03 7.221146392822265625e+01 -9.161020278930664062e+00 2.402589797973632812e+00 1.146290874481201172e+01 4.159649372100830078e+00 6.728013753890991211e-01
3.760000000000000000e+03 1.225144386291503906e+01 6.155237197875976562e+00 -6.796204447746276855e-01 -7.071191668510437012e-01 -4.160218834877014160e-01 5.328441262245178223e-01
3.761000000000000000e+03 7.048281860351562500e+01 -6.661112785339355469e+00 1.867445856332778931e-01 1.289404678344726562e+01 3.924237489700317383e+00 6.162801980972290039e-01
3.762000000000000000e+03 7.142632293701171875e+01 -7.540657043457031250e+00 1.404417514801025391e+00 1.226730823516845703e+01 4.101517677307128906e+00 1.108062386512756348e+00
3.763000000000000000e+03 5.181774139404296875e+01 -8.935443878173828125e+00 -1.372878313064575195e+00 2.086555957794189453e-01 -3.492667973041534424e-01 -1.479364037513732910e-01
3.764000000000000000e+03 4.107489776611328125e+01 -1.363690567016601562e+01 -7.779423594474792480e-01 1.558970957994461060e-01 -1.866135746240615845e-01 5.183541402220726013e-02
3.765000000000000000e+03 1.199167442321777344e+01 1.771724128723144531e+01 4.609695971012115479e-01 -4.319361448287963867e-01 8.710032328963279724e-03 3.010157048702239990e-01
3.766000000000000000e+03 4.676795578002929688e+01 -1.142672824859619141e+01 -1.030678629875183105e+00 1.873397678136825562e-01 -2.530016899108886719e-01 -7.787269353866577148e-02
3.767000000000000000e+03 4.706671142578125000e+01 -1.207049751281738281e+01 -1.042962551116943359e+00 1.498645097017288208e-01 -2.679294049739837646e-01 -1.212074533104896545e-01
3.768000000000000000e+03 5.309870147705078125e+01 -8.172522544860839844e+00 -1.470094323158264160e+00 2.214239984750747681e-01 -3.746010959148406982e-01 -1.448767483234405518e-01
3.769000000000000000e+03 2.877686882019042969e+01 1.274613380432128906e+01 -3.009349703788757324e-01 -2.274857312440872192e-01 -1.585262119770050049e-01 4.829330146312713623e-01
3.770000000000000000e+03 6.653018951416015625e+01 -2.426356697082519531e+01 -7.618734836578369141e-01 6.021623134613037109e+00 1.577924966812133789e+00 7.897666096687316895e-01
3.771000000000000000e+03 3.722862625122070312e+01 -1.406004047393798828e+01 -6.499612331390380859e-01 1.298792064189910889e-01 -1.560246199369430542e-01 1.498676985502243042e-01
3.772000000000000000e+03 4.803296661376953125e+01 -1.091173267364501953e+01 -1.105861544609069824e+00 1.910365223884582520e-01 -2.744475007057189941e-01 -1.045218110084533691e-01
3.773000000000000000e+03 1.347990894317626953e+01 1.864533615112304688e+01 4.361729621887207031e-01 -2.003477513790130615e-01 7.074756175279617310e-02 2.408705800771713257e-01
3.774000000000000000e+03 1.131125068664550781e+01 -7.954247951507568359e+00 1.916416522362851538e-06 9.744097042130306363e-06 3.498154001135844737e-06 1.594433740592648974e-07
3.775000000000000000e+03 7.717365264892578125e+00 -6.379117012023925781e+00 -2.928157482529059052e-05 9.455075996811501682e-06 -5.947949830442667007e-06 -3.427457784255238948e-07
3.776000000000000000e+03 8.541695594787597656e+00 -1.020206928253173828e+01 -3.234689938835799694e-05 6.331809800030896440e-06 -7.804526831023395061e-06 -1.375348688270605635e-06
3.777000000000000000e+03 5.511531352996826172e+00 2.860433578491210938e+01 1.814153417944908142e-02 -1.041529178619384766e+00 -3.070162832736968994e-01 7.768000662326812744e-02
3.778000000000000000e+03 5.623831272125244141e+00 2.970078086853027344e+01 1.744364015758037567e-02 -1.041124105453491211e+00 -3.071041405200958252e-01 7.450606673955917358e-02
3.779000000000000000e+03 5.157107543945312500e+01 -9.876266479492187500e+00 -1.369446635246276855e+00 1.555383503437042236e-01 -3.641724884510040283e-01 -2.237181365489959717e-01
3.780000000000000000e+03 5.238504886627197266e+00 -1.144732761383056641e+01 -2.114600101776886731e-05 -2.598295577627141029e-05 -1.413868722011102363e-05 2.090093948936555535e-05
3.781000000000000000e+03 7.320926666259765625e+01 -3.116882896423339844e+01 -3.007214665412902832e-01 8.145626068115234375e+00 2.353471279144287109e+00 -9.434919804334640503e-02
3.782000000000000000e+03 6.846676635742187500e+01 -2.224827384948730469e+01 -8.587790727615356445e-01 7.896814346313476562e+00 2.111410617828369141e+00 4.727711379528045654e-01
3.783000000000000000e+03 1.611752700805664062e+01 2.142553329467773438e+01 1.910362094640731812e-01 -1.773631758987903595e-02 5.198996514081954956e-02 3.873901367187500000e-01
3.784000000000000000e+03 3.889635086059570312e+01 -1.376509475708007812e+01 -7.060428857803344727e-01 1.508648842573165894e-01 -1.665534079074859619e-01 1.124204173684120178e-01
3.785000000000000000e+03 3.690220260620117188e+01 -1.297959613800048828e+01 -6.680843234062194824e-01 1.544595658779144287e-01 -1.540874242782592773e-01 1.882455348968505859e-01
3.786000000000000000e+03 6.245545387268066406e+00 -2.859921455383300781e+01 4.410587425809353590e-04 1.855690934462472796e-04 1.879883493529632688e-04 4.250707279425114393e-04
3.787000000000000000e+03 3.320274353027343750e+01 -1.344818019866943359e+01 -5.508589744567871094e-01 7.232559472322463989e-02 -1.435600072145462036e-01 2.594756186008453369e-01
3.788000000000000000e+03 1.084968090057373047e+01 -2.325946998596191406e+01 3.756552177947014570e-04 -1.034517626976594329e-04 8.166104089468717575e-05 1.100364970625378191e-04
3.789000000000000000e+03 1.195842838287353516e+01 -2.699773597717285156e+01 6.198310293257236481e-04 -4.106137566850520670e-05 1.736308913677930832e-04 4.129009903408586979e-04
3.790000000000000000e+03 4.424292755126953125e+01 -1.240611362457275391e+01 -9.037032723426818848e-01 1.722873747348785400e-01 -2.194247692823410034e-01 -1.894923299551010132e-02
3.791000000000000000e+03 7.462026977539062500e+01 -2.946853828430175781e+01 -2.886186540126800537e-01 8.695381164550781250e+00 2.522028684616088867e+00 -2.788045406341552734e-01
3.792000000000000000e+03 6.685050964355468750e+01 -2.576469421386718750e+01 -7.967427372932434082e-01 5.943054199218750000e+00 1.543893456459045410e+00 6.200582981109619141e-01
3.793000000000000000e+03 5.200338363647460938e+00 -2.931953430175781250e+01 1.127905707107856870e-04 2.330786373931914568e-04 1.037607653415761888e-04 3.237732162233442068e-04
3.794000000000000000e+03 6.039798736572265625e+00 6.065353393554687500e+00 -2.460066974163055420e-01 -1.697076857089996338e-01 -1.247143149375915527e-01 2.746177315711975098e-01
3.795000000000000000e+03 5.967271804809570312e+00 7.423036098480224609e+00 -2.275588214397430420e-01 -2.513202726840972900e-01 -1.436637341976165771e-01 3.650830984115600586e-01
3.796000000000000000e+03 5.111798286437988281e+00 8.099430084228515625e+00 -1.601905524730682373e-01 -2.743063569068908691e-01 -1.303490698337554932e-01 3.461788594722747803e-01
3.797000000000000000e+03 3.932417297363281250e+01 -1.469047069549560547e+01 -6.935630440711975098e-01 1.247471943497657776e-01 -1.706447601318359375e-01 7.019650936126708984e-02
3.798000000000000000e+03 3.957023620605468750e+01 -1.396403408050537109e+01 -7.208884358406066895e-01 1.451278179883956909e-01 -1.727281808853149414e-01 8.594686537981033325e-02
3.799000000000000000e+03 1.920504570007324219e+01 2.038115310668945312e+01 2.457426041364669800e-01 -2.705034054815769196e-02 6.560767441987991333e-02 6.270732879638671875e-01
3.800000000000000000e+03 1.960599136352539062e+01 2.174620437622070312e+01 2.363692522048950195e-01 -1.103165224194526672e-01 3.781582042574882507e-02 5.998417735099792480e-01
3.801000000000000000e+03 6.804420471191406250e+00 6.555932998657226562e+00 -2.922460138797760010e-01 -2.153787612915039062e-01 -1.522874385118484497e-01 3.479545414447784424e-01
3.802000000000000000e+03 8.128619194030761719e+00 5.775732517242431641e+00 -3.882978260517120361e-01 -2.212790548801422119e-01 -1.828730702400207520e-01 3.574046790599822998e-01
3.803000000000000000e+03 6.267618179321289062e+00 2.897246170043945312e+01 2.226077392697334290e-02 -9.810850024223327637e-01 -2.876472771167755127e-01 8.762092143297195435e-02
3.804000000000000000e+03 1.994655227661132812e+01 2.315527153015136719e+01 2.526508867740631104e-01 -1.759622842073440552e-01 2.300658449530601501e-02 5.490130782127380371e-01
3.805000000000000000e+03 1.746385765075683594e+01 2.145290184020996094e+01 1.942072212696075439e-01 -3.149807453155517578e-04 5.816767364740371704e-02 4.907334744930267334e-01
3.806000000000000000e+03 6.771205902099609375e+01 -2.385929298400878906e+01 -8.653202652931213379e-01 6.937170982360839844e+00 1.821555256843566895e+00 5.866563320159912109e-01
3.807000000000000000e+03 7.380440521240234375e+01 -2.243794631958007812e+01 -6.101625561714172363e-01 8.976922035217285156e+00 2.510027885437011719e+00 -1.040310382843017578e+00
3.808000000000000000e+03 7.437245941162109375e+01 -2.153725242614746094e+01 -5.088869929313659668e-01 9.011971473693847656e+00 2.550925493240356445e+00 -1.198074102401733398e+00
3.809000000000000000e+03 5.811809921264648438e+01 7.650051593780517578e+00 2.212766110897064209e-01 2.571569442749023438e+00 8.378537893295288086e-01 -4.167203307151794434e-01
3.810000000000000000e+03 5.584430217742919922e+00 -2.090973854064941406e+01 -2.361947008466813713e-05 7.550067948614014313e-06 -4.820820777240442112e-06 3.408654447412118316e-05
3.811000000000000000e+03 6.451516151428222656e+00 3.173624229431152344e+01 2.022052742540836334e-02 -1.007005691528320312e+00 -2.960355579853057861e-01 7.371667027473449707e-02
3.812000000000000000e+03 5.704243183135986328e+00 2.487303543090820312e+01 5.202016234397888184e-02 -9.577182531356811523e-01 -2.717094123363494873e-01 1.203131973743438721e-01
3.813000000000000000e+03 4.826341629028320312e+00 2.101074028015136719e+01 8.087114989757537842e-02 -9.440862536430358887e-01 -2.589645385742187500e-01 1.804285794496536255e-01
3.814000000000000000e+03 5.597595691680908203e+00 2.183837699890136719e+01 9.123625606298446655e-02 -9.078699946403503418e-01 -2.449901252985000610e-01 1.762658506631851196e-01
3.815000000000000000e+03 7.416702270507812500e+01 2.291062355041503906e+01 6.931113451719284058e-02 6.311736583709716797e+00 1.914314270019531250e+00 -3.124552071094512939e-01
3.816000000000000000e+03 4.336818218231201172e+00 -2.070470237731933594e+01 8.861863898346200585e-05 7.630758773302659392e-05 4.947786510456353426e-05 -1.625420190976001322e-05
3.817000000000000000e+03 4.783211708068847656e+00 -2.390401649475097656e+01 2.547439653426408768e-04 7.874619768699631095e-05 1.000470510916784406e-04 8.795812755124643445e-05
3.818000000000000000e+03 5.599455833435058594e+00 -2.155879211425781250e+01 1.945245458045974374e-04 5.125883399159647524e-05 7.373501284746453166e-05 1.204978434543590993e-05
3.819000000000000000e+03 7.383042144775390625e+01 2.672017669677734375e+01 6.162515282630920410e-02 6.094671726226806641e+00 1.846889019012451172e+00 -2.541555166244506836e-01
3.820000000000000000e+03 7.476369476318359375e+01 -2.801742172241210938e+01 -3.586821556091308594e-01 8.748138427734375000e+00 2.516836881637573242e+00 -4.134395122528076172e-01
3.821000000000000000e+03 7.379497528076171875e+01 -2.865396118164062500e+01 -4.191519320011138916e-01 8.435916900634765625e+00 2.405029535293579102e+00 -3.022924363613128662e-01
3.822000000000000000e+03 7.464237976074218750e+01 1.508914089202880859e+01 4.805763810873031616e-02 6.813646793365478516e+00 2.058511495590209961e+00 -4.574290513992309570e-01
3.823000000000000000e+03 6.973461151123046875e+01 -1.887405586242675781e+01 -4.353846311569213867e-01 1.009488677978515625e+01 2.897850751876831055e+00 1.736653596162796021e-01
3.824000000000000000e+03 7.474172210693359375e+01 -2.369122886657714844e+01 -4.938690364360809326e-01 8.872055053710937500e+00 2.513455629348754883e+00 -9.165747761726379395e-01
3.825000000000000000e+03 1.099835777282714844e+01 1.235383605957031250e+01 1.396182030439376831e-01 -6.292724609375000000e-01 -1.468962728977203369e-01 7.196903824806213379e-01
3.826000000000000000e+03 1.110579872131347656e+01 1.127624034881591797e+01 -4.220899194478988647e-02 -6.147618293762207031e-01 -1.970912516117095947e-01 7.472566962242126465e-01
3.827000000000000000e+03 7.446327972412109375e+01 -2.235792922973632812e+01 -5.157708525657653809e-01 8.922409057617187500e+00 2.521991491317749023e+00 -1.079033970832824707e+00
3.828000000000000000e+03 7.421546936035156250e+01 2.124123764038085938e+01 6.823556870222091675e-02 6.395517826080322266e+00 1.939126014709472656e+00 -3.424607813358306885e-01
3.829000000000000000e+03 1.028947067260742188e+01 9.822602272033691406e+00 -2.793004512786865234e-01 -5.287650227546691895e-01 -2.424196451902389526e-01 7.173343300819396973e-01
3.830000000000000000e+03 8.185346603393554688e+00 6.375180244445800781e+00 -3.957681655883789062e-01 -2.470097839832305908e-01 -1.928333789110183716e-01 4.039654135704040527e-01
3.831000000000000000e+03 7.313169097900390625e+01 2.416588211059570312e+01 8.177676051855087280e-02 6.080888271331787109e+00 1.848799467086791992e+00 -3.335248231887817383e-01
3.832000000000000000e+03 7.519763183593750000e+01 1.738730621337890625e+01 5.159080773591995239e-02 6.788832664489746094e+00 2.052127122879028320e+00 -3.715506196022033691e-01
3.833000000000000000e+03 7.461061096191406250e+01 1.583617210388183594e+01 5.606926977634429932e-02 6.748248100280761719e+00 2.041295289993286133e+00 -4.422231614589691162e-01
3.834000000000000000e+03 7.455453491210937500e+01 1.116140174865722656e+01 -1.865355111658573151e-02 7.078447341918945312e+00 2.117938041687011719e+00 -5.014447569847106934e-01
3.835000000000000000e+03 7.459999084472656250e+01 1.035613059997558594e+01 -4.654428735375404358e-02 7.155863761901855469e+00 2.132795810699462891e+00 -4.973956942558288574e-01
3.836000000000000000e+03 7.471211242675781250e+01 7.955586910247802734e+00 -1.413380056619644165e-01 7.405143737792968750e+00 2.179141759872436523e+00 -4.345141649246215820e-01
3.837000000000000000e+03 2.767500114440917969e+01 -6.777435779571533203e+00 -7.473105192184448242e-01 -4.691064730286598206e-02 -2.382663488388061523e-01 4.792726039886474609e-01
3.838000000000000000e+03 7.484438323974609375e+01 -1.336903476715087891e+01 1.101400375366210938e+00 8.797270774841308594e+00 2.969601154327392578e+00 -9.179220199584960938e-01
3.839000000000000000e+03 5.542841720581054688e+01 -7.548649311065673828e+00 -1.717449069023132324e+00 1.790966540575027466e-01 -4.615057110786437988e-01 -2.356425523757934570e-01
3.840000000000000000e+03 5.373623275756835938e+01 -7.787980079650878906e+00 -1.530904889106750488e+00 2.238881736993789673e-01 -3.921050131320953369e-01 -1.336715817451477051e-01
3.841000000000000000e+03 7.465126800537109375e+01 9.557687759399414062e+00 -7.406300306320190430e-02 7.236583709716796875e+00 2.148756265640258789e+00 -4.802537560462951660e-01
3.842000000000000000e+03 7.470926666259765625e+01 7.138910770416259766e+00 -1.845271438360214233e-01 7.479076385498046875e+00 2.188364744186401367e+00 -4.122422039508819580e-01
3.843000000000000000e+03 7.436830902099609375e+01 -8.451431244611740112e-02 -7.919824123382568359e-01 8.480239868164062500e+00 2.306477308273315430e+00 3.690050542354583740e-01
3.844000000000000000e+03 7.453693389892578125e+01 1.196778488159179688e+01 2.832745667546987534e-03 7.011628627777099609e+00 2.104338407516479492e+00 -5.004886984825134277e-01
3.845000000000000000e+03 7.462475585937500000e+01 8.956652879714965820e-01 -6.751666069030761719e-01 8.307561874389648438e+00 2.289718627929687500e+00 2.457815110683441162e-01
3.846000000000000000e+03 4.667877197265625000e+00 2.025435829162597656e+01 8.441355079412460327e-02 -9.356248974800109863e-01 -2.553634047508239746e-01 1.984778344631195068e-01
3.847000000000000000e+03 6.100859165191650391e+00 2.218305778503417969e+01 9.771233797073364258e-02 -8.718185424804687500e-01 -2.322318702936172485e-01 1.782414913177490234e-01
3.848000000000000000e+03 7.467811584472656250e+01 -4.932014048099517822e-01 -7.437539696693420410e-01 8.513690948486328125e+00 2.330981254577636719e+00 5.358413457870483398e-01
3.849000000000000000e+03 7.473252105712890625e+01 -1.981391334533691406e+01 -3.332921862602233887e-01 9.005736351013183594e+00 2.601733207702636719e+00 -1.392592072486877441e+00
3.850000000000000000e+03 7.561282348632812500e+01 -1.305150032043457031e+01 9.209400415420532227e-01 8.094099044799804688e+00 2.704511642456054688e+00 -7.904286384582519531e-01
3.851000000000000000e+03 2.986381721496582031e+01 7.910672664642333984e+00 1.265812367200851440e-01 -1.351168155670166016e-01 -2.560671651735901833e-03 6.193221807479858398e-01
3.852000000000000000e+03 7.535783386230468750e+01 -1.946124839782714844e+01 -2.305054813623428345e-01 8.808869361877441406e+00 2.573509216308593750e+00 -1.441935658454895020e+00
3.853000000000000000e+03 7.439068603515625000e+01 -2.062424278259277344e+01 -4.366035163402557373e-01 9.039836883544921875e+00 2.580970048904418945e+00 -1.310587286949157715e+00
3.854000000000000000e+03 7.474314117431640625e+01 -7.260843753814697266e+00 6.759434342384338379e-01 8.892583847045898438e+00 2.870558023452758789e+00 1.391062378883361816e+00
3.855000000000000000e+03 4.891407012939453125e+00 -2.478495788574218750e+01 -1.167157915915595368e-05 4.621176412911154330e-05 1.036205594573402777e-05 2.021520776906982064e-04
3.856000000000000000e+03 5.595993518829345703e+00 -2.477639007568359375e+01 3.228184941690415144e-04 8.615580736659467220e-05 1.226922904606908560e-04 1.397674495819956064e-04
3.857000000000000000e+03 7.486798095703125000e+01 -6.253839969635009766e+00 2.612246870994567871e-01 8.857445716857910156e+00 2.735601186752319336e+00 1.477073073387145996e+00
3.858000000000000000e+03 7.512376403808593750e+01 1.975912475585937500e+01 5.295199155807495117e-02 6.638627529144287109e+00 2.007473945617675781e+00 -3.301595747470855713e-01
3.859000000000000000e+03 7.400364685058593750e+01 1.517881107330322266e+01 6.219984591007232666e-02 6.657034873962402344e+00 2.015770435333251953e+00 -4.931189715862274170e-01
3.860000000000000000e+03 5.562728881835937500e+00 1.689926910400390625e+01 1.271618306636810303e-01 -7.855164408683776855e-01 -1.975063830614089966e-01 3.477815687656402588e-01
3.861000000000000000e+03 7.400894927978515625e+01 -8.776648521423339844e+00 1.524928092956542969e+00 9.537009239196777344e+00 3.318581104278564453e+00 9.975843429565429688e-01
3.862000000000000000e+03 7.504193115234375000e+01 -8.849544525146484375e+00 1.157674908638000488e+00 8.593289375305175781e+00 2.925289392471313477e+00 9.209618568420410156e-01
3.863000000000000000e+03 7.560229492187500000e+01 -5.085097789764404297e+00 -7.924718409776687622e-02 8.397894859313964844e+00 2.495594501495361328e+00 1.442847490310668945e+00
3.864000000000000000e+03 7.446257781982421875e+01 -5.794609069824218750e+00 9.517677128314971924e-02 9.201630592346191406e+00 2.789042234420776367e+00 1.512757420539855957e+00
3.865000000000000000e+03 5.761374473571777344e+00 1.438573265075683594e+01 8.963318169116973877e-02 -6.749929785728454590e-01 -1.756079345941543579e-01 4.536986351013183594e-01
3.866000000000000000e+03 7.542542266845703125e+01 -2.031863689422607422e+00 -5.845992565155029297e-01 8.515573501586914062e+00 2.379292249679565430e+00 9.237758517265319824e-01
3.867000000000000000e+03 7.395877838134765625e+01 -4.596703529357910156e+00 -4.325265884399414062e-01 9.459139823913574219e+00 2.707983970642089844e+00 1.355435490608215332e+00
3.868000000000000000e+03 7.446356964111328125e+01 -1.397395896911621094e+01 1.031412839889526367e+00 9.208414077758789062e+00 3.071948289871215820e+00 -1.168199419975280762e+00
3.869000000000000000e+03 7.516876220703125000e+01 -1.195558357238769531e+01 1.264710426330566406e+00 8.449082374572753906e+00 2.914137840270996094e+00 -4.090544283390045166e-01
3.870000000000000000e+03 7.544825744628906250e+01 -1.368799114227294922e+01 8.195940256118774414e-01 8.276231765747070312e+00 2.728747844696044922e+00 -1.019247531890869141e+00
3.871000000000000000e+03 7.514952087402343750e+01 -1.283817958831787109e+01 1.152062416076660156e+00 8.528079032897949219e+00 2.904042482376098633e+00 -7.605474591255187988e-01
3.872000000000000000e+03 7.515924835205078125e+01 -1.093755340576171875e+01 1.343365550041198730e+00 8.425016403198242188e+00 2.930514812469482422e+00 3.413605690002441406e-02
3.873000000000000000e+03 7.544333648681640625e+01 4.481016159057617188e+00 -3.016546964645385742e-01 7.914743423461914062e+00 2.283926486968994141e+00 -1.394370794296264648e-01
3.874000000000000000e+03 7.453849792480468750e+01 2.221821308135986328e+00 -5.898615121841430664e-01 8.083179473876953125e+00 2.247995615005493164e+00 1.574936695396900177e-02
3.875000000000000000e+03 7.468119049072265625e+01 -1.143334865570068359e+01 1.501388549804687500e+00 8.807853698730468750e+00 3.092772722244262695e+00 -2.010344713926315308e-01
3.876000000000000000e+03 7.422863006591796875e+01 -1.193432521820068359e+01 1.637352824211120605e+00 9.373443603515625000e+00 3.303238868713378906e+00 -4.619858264923095703e-01
3.877000000000000000e+03 7.541786956787109375e+01 -1.794843101501464844e+01 -3.585268184542655945e-02 8.700172424316406250e+00 2.599295854568481445e+00 -1.524480581283569336e+00
3.878000000000000000e+03 7.450813293457031250e+01 -9.343166351318359375e+00 1.514458894729614258e+00 8.993556976318359375e+00 3.152404785156250000e+00 7.614548802375793457e-01
3.879000000000000000e+03 7.412173461914062500e+01 -1.091492366790771484e+01 1.803620100021362305e+00 9.453790664672851562e+00 3.377223253250122070e+00 2.401283755898475647e-02
3.880000000000000000e+03 7.458218383789062500e+01 -1.039969730377197266e+01 1.581053733825683594e+00 8.901065826416015625e+00 3.144635915756225586e+00 2.628095746040344238e-01
3.881000000000000000e+03 7.553845214843750000e+01 -1.235079169273376465e+00 -5.656983852386474609e-01 8.453931808471679688e+00 2.366470098495483398e+00 7.747971415519714355e-01
3.882000000000000000e+03 7.422080993652343750e+01 -2.431274652481079102e+00 -8.347331285476684570e-01 8.997727394104003906e+00 2.448898077011108398e+00 8.933508992195129395e-01
3.883000000000000000e+03 7.539820098876953125e+01 5.338102817535400391e+00 -2.551422715187072754e-01 7.817854881286621094e+00 2.268813848495483398e+00 -2.291820049285888672e-01
3.884000000000000000e+03 7.382175445556640625e+01 3.787091016769409180e+00 -5.043326020240783691e-01 7.716659545898437500e+00 2.163698196411132812e+00 -2.842391133308410645e-01
3.885000000000000000e+03 5.203955173492431641e+00 -1.968997955322265625e+01 -4.724425889435224235e-05 5.333266017260029912e-05 1.826519678616023157e-06 -1.123265792557504028e-05
3.886000000000000000e+03 1.126474475860595703e+01 -2.389060020446777344e+01 5.837514763697981834e-04 -1.686546747805550694e-04 1.245290477527305484e-04 1.252215679414803162e-05
3.887000000000000000e+03 7.443172454833984375e+01 -1.564896392822265625e+01 5.528783798217773438e-01 9.274964332580566406e+00 2.948352813720703125e+00 -1.456983804702758789e+00
3.888000000000000000e+03 7.468447875976562500e+01 -1.730358505249023438e+01 8.325579762458801270e-02 9.089859962463378906e+00 2.751934766769409180e+00 -1.545177817344665527e+00
3.889000000000000000e+03 7.467158508300781250e+01 6.260569572448730469e+00 -2.430691421031951904e-01 7.569682598114013672e+00 2.197983980178833008e+00 -3.631921708583831787e-01
3.890000000000000000e+03 7.182785034179687500e+01 -2.010562324523925781e+01 -6.556168794631958008e-01 9.636834144592285156e+00 2.694365262985229492e+00 -8.421479463577270508e-01
3.891000000000000000e+03 6.273171901702880859e+00 -1.622143745422363281e+01 -1.210357368108816445e-04 4.029452247777953744e-05 -2.422236502752639353e-05 1.292763386118167546e-06
3.892000000000000000e+03 5.044930934906005859e+00 -1.343080997467041016e+01 -3.774313154281117022e-05 -2.295763260917738080e-05 -1.821023033699020743e-05 1.394053379044635221e-05
3.893000000000000000e+03 6.243114948272705078e+00 -1.260554218292236328e+01 3.506137727526947856e-05 2.953560579044278711e-05 1.937909473781473935e-05 -8.230781531892716885e-06
3.894000000000000000e+03 6.928017616271972656e+00 -1.095649909973144531e+01 -3.171575372107326984e-05 -2.037287595157977194e-05 -1.562658871989697218e-05 1.013366181723540649e-05
3.895000000000000000e+03 4.661237239837646484e+00 -1.136041355133056641e+01 7.750117219984531403e-06 2.143837809853721410e-05 8.756548595556523651e-06 -8.041373007472429890e-07
3.896000000000000000e+03 4.832023143768310547e+00 1.297890853881835938e+01 2.354165352880954742e-02 -5.972011685371398926e-01 -1.720978468656539917e-01 4.306405782699584961e-01
3.897000000000000000e+03 6.102458953857421875e+00 1.505528736114501953e+01 1.234819740056991577e-01 -7.021369934082031250e-01 -1.735965013504028320e-01 4.461329281330108643e-01
3.898000000000000000e+03 5.377842903137207031e+00 -1.442507457733154297e+01 -6.362003477988764644e-05 -3.490017661533784121e-06 -2.013301491388119757e-05 2.344423774047754705e-05
3.899000000000000000e+03 7.528895568847656250e+01 1.268978881835937500e+01 1.133137941360473633e-02 7.138147830963134766e+00 2.144843816757202148e+00 -4.390836060047149658e-01
3.900000000000000000e+03 4.342419624328613281e+00 -1.787226867675781250e+01 1.006325037451460958e-04 2.452618355164304376e-05 3.754760837182402611e-05 7.349623501795576885e-06
3.901000000000000000e+03 6.828267097473144531e+00 -1.597382164001464844e+01 -2.885666435759048909e-05 -1.271108521905262023e-05 -1.247032469109399244e-05 2.952715294668450952e-05
3.902000000000000000e+03 5.407509803771972656e+00 -1.864565849304199219e+01 7.925650606921408325e-07 5.180333755561150610e-05 1.577877083036582917e-05 -3.261379242758266628e-05
3.903000000000000000e+03 7.269739532470703125e+01 2.496141624450683594e+01 8.742461353540420532e-02 5.965054512023925781e+00 1.815743803977966309e+00 -3.288801908493041992e-01
3.904000000000000000e+03 6.043151378631591797e+00 2.122663116455078125e+01 1.100673452019691467e-01 -8.692716360092163086e-01 -2.277612835168838501e-01 2.003061175346374512e-01
3.905000000000000000e+03 4.631757259368896484e+00 1.876156616210937500e+01 9.616463631391525269e-02 -8.913295269012451172e-01 -2.385494709014892578e-01 2.463453561067581177e-01
3.906000000000000000e+03 7.461169433593750000e+01 1.434152603149414062e+01 4.404975846409797668e-02 6.859437465667724609e+00 2.071046113967895508e+00 -4.684037566184997559e-01
3.907000000000000000e+03 7.457653045654296875e+01 1.356604099273681641e+01 3.088283725082874298e-02 6.901821136474609375e+00 2.079811334609985352e+00 -4.848921597003936768e-01
3.908000000000000000e+03 5.241539001464843750e+00 -9.870135307312011719e+00 8.559216439607553184e-06 2.904313987528439611e-05 1.128070653066970408e-05 9.289364243159070611e-06
3.909000000000000000e+03 4.755333900451660156e+00 1.220842266082763672e+01 -3.061426570639014244e-03 -5.480242967605590820e-01 -1.653257161378860474e-01 4.308207929134368896e-01
3.910000000000000000e+03 6.110196113586425781e+00 1.896543121337890625e+01 1.474300473928451538e-01 -8.188596963882446289e-01 -2.014288902282714844e-01 2.819804251194000244e-01
3.911000000000000000e+03 7.761165618896484375e+00 9.550963401794433594e+00 -2.115736752748489380e-01 -4.137569069862365723e-01 -1.875991821289062500e-01 5.821411609649658203e-01
3.912000000000000000e+03 5.009737968444824219e+00 -2.567778015136718750e+01 2.920989936683326960e-04 1.222716527990996838e-04 1.243111910298466682e-04 1.707408955553546548e-04
3.913000000000000000e+03 6.167842864990234375e+00 -2.390132331848144531e+01 3.291862667538225651e-04 6.717984069837257266e-05 1.189098329632543027e-04 1.022039286908693612e-04
3.914000000000000000e+03 5.681850910186767578e+00 -3.346219253540039062e+01 6.964434578549116850e-05 6.090527749620378017e-04 2.036091318586841226e-04 5.779362982138991356e-04
3.915000000000000000e+03 6.629573059082031250e+01 -3.566649436950683594e+00 -1.028497099876403809e+00 5.165844917297363281e+00 1.241204380989074707e+00 -3.493448734283447266e+00
3.916000000000000000e+03 6.573526000976562500e+01 -3.369012117385864258e+00 -8.300511240959167480e-01 4.245707035064697266e+00 1.024696707725524902e+00 -3.302493333816528320e+00
3.917000000000000000e+03 1.012302970886230469e+01 1.034103107452392578e+01 -2.037547081708908081e-01 -5.396057367324829102e-01 -2.230081409215927124e-01 7.311273813247680664e-01
3.918000000000000000e+03 4.594274520874023438e+00 1.153191757202148438e+01 -2.735433168709278107e-02 -4.972739815711975098e-01 -1.573884934186935425e-01 4.166990518569946289e-01
3.919000000000000000e+03 5.528553009033203125e+00 1.185838127136230469e+01 -1.667138189077377319e-02 -5.255168080329895020e-01 -1.626564562320709229e-01 4.823998212814331055e-01
3.920000000000000000e+03 5.180717945098876953e+00 -9.010550498962402344e+00 2.468499769747722894e-05 1.596646870893891901e-05 1.219543992192484438e-05 -1.335315232608991209e-06
3.921000000000000000e+03 4.738087177276611328e+00 -1.003261756896972656e+01 2.611887066450435668e-05 3.433419351495103911e-06 8.865687050274573267e-06 -6.325519734673434868e-06
3.922000000000000000e+03 5.027724266052246094e+00 -8.093640327453613281e+00 2.705547740333713591e-05 7.631568223587237298e-06 1.040611368807731196e-05 -3.812999921137816273e-06
3.923000000000000000e+03 7.008611679077148438e+00 -6.838584423065185547e+00 -2.806788870657328516e-05 1.109176082536578178e-05 -5.092837909614900127e-06 -3.137565045108203776e-06
3.924000000000000000e+03 5.402021884918212891e+00 -1.086891746520996094e+01 1.252726815437199548e-05 3.778513564611785114e-05 1.509372032160172239e-05 -1.150244952441425994e-05
3.925000000000000000e+03 5.690598011016845703e+00 9.422987937927246094e+00 -1.436356157064437866e-01 -3.622218966484069824e-01 -1.517572551965713501e-01 4.435918033123016357e-01
3.926000000000000000e+03 6.437234878540039062e+00 1.567757034301757812e+01 1.568052917718887329e-01 -7.212990522384643555e-01 -1.693481206893920898e-01 4.366613626480102539e-01
3.927000000000000000e+03 5.910316467285156250e+00 1.750274658203125000e+01 1.443934738636016846e-01 -7.941991090774536133e-01 -1.949416846036911011e-01 3.375414013862609863e-01
3.928000000000000000e+03 4.857948780059814453e+00 -1.909162712097167969e+01 9.571780537953600287e-05 -1.383215567329898477e-05 2.456569563946686685e-05 3.253119939472526312e-05
3.929000000000000000e+03 5.655620098114013672e+00 6.912630558013916016e+00 -2.171714901924133301e-01 -2.047080695629119873e-01 -1.265638768672943115e-01 3.017937541007995605e-01
3.930000000000000000e+03 7.470622253417968750e+01 -2.735868453979492188e+01 -3.903687894344329834e-01 8.756955146789550781e+00 2.509975910186767578e+00 -4.792915582656860352e-01
3.931000000000000000e+03 5.456572532653808594e+00 -2.029176712036132812e+01 1.404551585437729955e-04 1.929615973494946957e-05 4.792539402842521667e-05 4.129580338485538960e-05
3.932000000000000000e+03 5.666725921630859375e+01 -6.739982604980468750e+00 -1.768297433853149414e+00 1.856558173894882202e-01 -4.747924804687500000e-01 -2.218658179044723511e-01
3.933000000000000000e+03 5.723641872406005859e+00 2.691288375854492188e+01 3.371274843811988831e-02 -9.938146471977233887e-01 -2.880305647850036621e-01 9.606756269931793213e-02
3.934000000000000000e+03 7.439015197753906250e+01 2.056664657592773438e+01 6.612466275691986084e-02 6.445279598236083984e+00 1.953421235084533691e+00 -3.505122661590576172e-01
3.935000000000000000e+03 1.269806003570556641e+01 -2.729142951965332031e+01 8.066985756158828735e-04 -5.213976255618035793e-04 8.559028356103226542e-05 5.757534527219831944e-04
3.936000000000000000e+03 7.413318634033203125e+01 -2.780665969848632812e+01 -4.355210065841674805e-01 8.602142333984375000e+00 2.449986457824707031e+00 -4.052373468875885010e-01
3.937000000000000000e+03 5.603641510009765625e+00 2.781381797790527344e+01 2.560710161924362183e-02 -1.021446824073791504e+00 -2.987519204616546631e-01 8.660516887903213501e-02
3.938000000000000000e+03 3.071413230895996094e+01 8.376160621643066406e+00 7.340167462825775146e-02 -5.333745107054710388e-02 6.019267719238996506e-03 6.287152171134948730e-01
3.939000000000000000e+03 2.955369758605957031e+01 1.182745265960693359e+01 -2.129484564065933228e-01 -1.249392628669738770e-01 -1.013663187623023987e-01 5.614014267921447754e-01
3.940000000000000000e+03 5.978980541229248047e+00 2.372712135314941406e+01 7.150903344154357910e-02 -9.066455364227294922e-01 -2.505409419536590576e-01 1.441890299320220947e-01
3.941000000000000000e+03 6.379137039184570312e+00 2.428678512573242188e+01 6.974366307258605957e-02 -8.853352069854736328e-01 -2.446774691343307495e-01 1.419834196567535400e-01
3.942000000000000000e+03 6.676821708679199219e+00 -2.242450141906738281e+01 1.126900588133139536e-05 -2.641040555317886174e-05 -4.542419901554239914e-06 1.383888447890058160e-04
3.943000000000000000e+03 2.857088470458984375e+01 9.072418212890625000e+00 6.136370450258255005e-02 -2.499540597200393677e-01 -5.657710507512092590e-02 6.612675786018371582e-01
3.944000000000000000e+03 1.003917217254638672e+01 -2.488951110839843750e+01 5.710766417905688286e-04 -1.822441845433786511e-04 1.166497459053061903e-04 1.311882224399596453e-04
3.945000000000000000e+03 7.436444091796875000e+01 -2.474108886718750000e+01 -5.242532491683959961e-01 8.802865028381347656e+00 2.483583450317382812e+00 -7.633465528488159180e-01
3.946000000000000000e+03 2.877154159545898438e+01 1.350375747680664062e+01 -2.980679273605346680e-01 -2.313069254159927368e-01 -1.588124483823776245e-01 4.112998843193054199e-01
3.947000000000000000e+03 5.618731021881103516e+00 -6.219828605651855469e+00 2.203050644311588258e-05 -7.885376476224337239e-07 6.372590632963692769e-06 -1.273587258765473962e-05
3.948000000000000000e+03 7.374045562744140625e+01 2.526050567626953125e+01 6.764262169599533081e-02 6.138370513916015625e+00 1.861803889274597168e+00 -2.880849540233612061e-01
3.949000000000000000e+03 2.866877174377441406e+01 5.627060890197753906e+00 2.484781295061111450e-01 -1.586536765098571777e-01 2.694733627140522003e-02 4.253340363502502441e-01
3.950000000000000000e+03 2.802481079101562500e+01 6.377079010009765625e+00 3.199892938137054443e-01 -2.053387314081192017e-01 3.439516574144363403e-02 4.613226354122161865e-01
3.951000000000000000e+03 5.890995502471923828e+00 -2.658716392517089844e+01 3.797257086262106895e-04 1.277451665373519063e-04 1.522412640042603016e-04 2.622841857373714447e-04
3.952000000000000000e+03 6.535833358764648438e+00 -6.206486225128173828e+00 -1.932123814185615629e-05 1.740002153383102268e-05 -5.763647550338646397e-07 -1.002689623419428244e-05
3.953000000000000000e+03 6.082721710205078125e+00 -6.481538295745849609e+00 -1.391842488374095410e-05 -1.455253095627995208e-05 -8.541286661056801677e-06 1.527399399492423981e-05
3.954000000000000000e+03 1.447787570953369141e+01 -2.749436569213867188e+01 9.505658526904881001e-04 -5.129096680320799351e-04 1.312968524871394038e-04 4.652312782127410173e-04
3.955000000000000000e+03 5.436794281005859375e+01 -7.400780677795410156e+00 -1.552037239074707031e+00 2.341012507677078247e-01 -3.953807950019836426e-01 -1.323548257350921631e-01
3.956000000000000000e+03 5.605377960205078125e+01 -7.145254611968994141e+00 -1.776877641677856445e+00 1.757586747407913208e-01 -4.803356826305389404e-01 -2.220784425735473633e-01
3.957000000000000000e+03 4.016983032226562500e+01 -1.250647068023681641e+01 -7.705848813056945801e-01 1.900824904441833496e-01 -1.741507202386856079e-01 1.139476746320724487e-01
3.958000000000000000e+03 8.128335952758789062e+00 -2.069981765747070312e+01 1.087855125661008060e-04 -4.086717672180384398e-05 2.037550075328908861e-05 3.275233757449313998e-05
3.959000000000000000e+03 7.759327888488769531e+00 -2.123750877380371094e+01 1.005107260425575078e-04 3.578140240279026330e-05 4.088764035259373486e-05 -1.195210916193900630e-05
3.960000000000000000e+03 8.049285888671875000e+00 -3.043416976928710938e+01 7.551159069407731295e-05 8.418002107646316290e-05 4.790748425875790417e-05 6.127721280790865421e-04
3.961000000000000000e+03 6.630591869354248047e+00 -2.972998809814453125e+01 -1.567448816786054522e-05 1.582635013619437814e-04 4.277670450392179191e-05 5.137554835528135300e-04
3.962000000000000000e+03 5.902188491821289062e+01 -5.195922374725341797e+00 -1.545219898223876953e+00 1.986493915319442749e-01 -4.039711356163024902e-01 -2.708720564842224121e-01
3.963000000000000000e+03 5.454965209960937500e+01 -6.470954895019531250e+00 -1.440952181816101074e+00 2.853044867515563965e-01 -3.466943204402923584e-01 -2.839819900691509247e-02
3.964000000000000000e+03 5.117864608764648438e+01 -9.308152198791503906e+00 -1.334324002265930176e+00 1.989317983388900757e-01 -3.406176567077636719e-01 -1.401330679655075073e-01
3.965000000000000000e+03 7.455377101898193359e+00 3.237972259521484375e+01 2.763249538838863373e-02 -9.370734095573425293e-01 -2.728322744369506836e-01 7.878762483596801758e-02
3.966000000000000000e+03 3.876755523681640625e+01 1.120238876342773438e+01 2.264156639575958252e-01 8.667323589324951172e-01 3.279443979263305664e-01 4.344599246978759766e-01
3.967000000000000000e+03 7.000171184539794922e+00 3.060410308837890625e+01 2.303315512835979462e-02 -9.465126395225524902e-01 -2.770438492298126221e-01 8.821786940097808838e-02
3.968000000000000000e+03 6.016131591796875000e+01 1.493919944763183594e+01 6.860653758049011230e-01 3.591257333755493164e+00 1.283196806907653809e+00 -6.209228038787841797e-01
3.969000000000000000e+03 5.904397201538085938e+01 1.433567047119140625e+01 7.408774495124816895e-01 3.488707065582275391e+00 1.268875360488891602e+00 -6.260103583335876465e-01
3.970000000000000000e+03 3.454996490478515625e+01 -1.489480495452880859e+01 -5.394988059997558594e-01 7.525940984487533569e-02 -1.392718106508255005e-01 1.883068978786468506e-01
3.971000000000000000e+03 6.912586212158203125e+01 -1.842777633666992188e+01 -2.381588667631149292e-01 1.030081844329833984e+01 3.018797874450683594e+00 6.279319524765014648e-01
3.972000000000000000e+03 1.109364604949951172e+01 1.582280063629150391e+01 4.504524767398834229e-01 -5.750454068183898926e-01 -3.737788274884223938e-02 4.589137434959411621e-01
3.973000000000000000e+03 1.188267135620117188e+01 1.576906108856201172e+01 5.240477323532104492e-01 -5.166592001914978027e-01 2.216571709141135216e-03 4.358909726142883301e-01
3.974000000000000000e+03 2.260588836669921875e+01 -3.580606579780578613e-01 -6.931083202362060547e-01 -1.634362787008285522e-01 -2.569633722305297852e-01 4.536094069480895996e-01
3.975000000000000000e+03 2.375579833984375000e+01 2.561347484588623047e-01 -5.405591726303100586e-01 -1.649895124137401581e-02 -1.671174317598342896e-01 3.263008296489715576e-01
3.976000000000000000e+03 4.866163253784179688e+01 -1.062974357604980469e+01 -1.151590466499328613e+00 1.876944750547409058e-01 -2.891687750816345215e-01 -1.108967214822769165e-01
3.977000000000000000e+03 2.455849456787109375e+01 -1.022893905639648438e+00 -6.792082786560058594e-01 -4.538962617516517639e-02 -2.173793762922286987e-01 3.401898443698883057e-01
3.978000000000000000e+03 4.547384262084960938e+01 3.026504993438720703e+00 -1.649453341960906982e-01 3.026480972766876221e-01 4.131083190441131592e-02 8.938363939523696899e-02
3.979000000000000000e+03 1.180144691467285156e+01 -2.338634490966796875e+01 4.029971314594149590e-04 -6.230885628610849380e-05 1.022064825519919395e-04 4.091484879609197378e-05
3.980000000000000000e+03 7.307177734375000000e+01 -1.093486595153808594e+01 2.266655683517456055e+00 1.064419078826904297e+01 3.873254060745239258e+00 -3.554235771298408508e-02
3.981000000000000000e+03 7.408335208892822266e+00 -1.843084335327148438e+01 -6.553454295499250293e-05 -3.874819594784639776e-05 -3.128482057945802808e-05 -2.209349986515007913e-05
3.982000000000000000e+03 5.728282546997070312e+01 6.580003738403320312e+00 1.635878831148147583e-01 2.146821737289428711e+00 6.931228637695312500e-01 -2.127251774072647095e-01
3.983000000000000000e+03 1.268759441375732422e+01 1.847482490539550781e+01 4.312069714069366455e-01 -3.219823539257049561e-01 3.276738524436950684e-02 2.552336156368255615e-01
3.984000000000000000e+03 7.181070327758789062e+00 -1.661252593994140625e+01 -6.468335050158202648e-05 2.803297320497222245e-05 -1.099511246138717979e-05 -1.880201671156100929e-05
3.985000000000000000e+03 7.193418025970458984e+00 -1.541457653045654297e+01 7.203024870250374079e-05 5.289162800181657076e-05 3.747656228370033205e-05 -1.627193523745518178e-05
3.986000000000000000e+03 4.326585769653320312e+01 4.479275703430175781e+00 -2.157977074384689331e-01 5.225389599800109863e-01 9.202237427234649658e-02 7.709372788667678833e-02
3.987000000000000000e+03 6.163219451904296875e+01 1.269146823883056641e+01 5.594837069511413574e-01 3.760733842849731445e+00 1.296065211296081543e+00 -8.070101141929626465e-01
3.988000000000000000e+03 3.242326354980468750e+01 -1.249062633514404297e+01 -5.621794462203979492e-01 6.710367649793624878e-02 -1.485227197408676147e-01 3.014532625675201416e-01
3.989000000000000000e+03 1.286542510986328125e+01 -7.892927169799804688e+00 -9.586812666384503245e-06 4.672291197493905202e-06 -1.474356395192444324e-06 4.862920377490809187e-06
3.990000000000000000e+03 6.320000076293945312e+01 -4.072410106658935547e+00 -7.182422876358032227e-01 4.978761672973632812e-01 -6.610984355211257935e-02 -1.658304333686828613e+00
3.991000000000000000e+03 6.089419937133789062e+01 -3.226155996322631836e+00 -6.737297773361206055e-01 6.093250513076782227e-01 -1.932140812277793884e-02 -7.195058465003967285e-01
3.992000000000000000e+03 5.173670196533203125e+01 3.572083473205566406e+00 1.239121556282043457e-01 3.857735693454742432e-01 1.529057174921035767e-01 2.929292321205139160e-01
3.993000000000000000e+03 5.238544082641601562e+01 3.511005401611328125e+00 1.130027472972869873e-01 4.745139181613922119e-01 1.762550026178359985e-01 2.993204891681671143e-01
3.994000000000000000e+03 2.563586616516113281e+01 -3.363086223602294922e+00 -8.152792453765869141e-01 -7.556542009115219116e-02 -2.672533988952636719e-01 4.256490767002105713e-01
3.995000000000000000e+03 2.556559371948242188e+01 -4.404377460479736328e+00 -8.495957851409912109e-01 -1.314313262701034546e-01 -2.943081259727478027e-01 4.848691821098327637e-01
3.996000000000000000e+03 4.250037765502929688e+01 -1.289854812622070312e+01 -8.360913991928100586e-01 1.704364567995071411e-01 -1.996964812278747559e-01 2.863620035350322723e-02
3.997000000000000000e+03 4.095512771606445312e+01 7.475710391998291016e+00 -1.290104687213897705e-01 8.664543032646179199e-01 2.212331593036651611e-01 2.556974589824676514e-01
3.998000000000000000e+03 4.119412231445312500e+01 6.665426254272460938e+00 -1.779258549213409424e-01 7.880650758743286133e-01 1.830417662858963013e-01 2.202317863702774048e-01
3.999000000000000000e+03 6.473700714111328125e+01 -2.644155693054199219e+01 -6.457157731056213379e-01 4.416339874267578125e+00 1.131187200546264648e+00 7.729755640029907227e-01
4.000000000000000000e+03 6.809680938720703125e+01 -2.303126716613769531e+01 -8.836917281150817871e-01 7.361973285675048828e+00 1.943484544754028320e+00 5.647766590118408203e-01
4.001000000000000000e+03 2.969065475463867188e+01 -9.637397766113281250e+00 -6.247621774673461914e-01 8.558380417525768280e-03 -1.848611384630203247e-01 4.248970448970794678e-01
4.002000000000000000e+03 1.466175270080566406e+01 -2.850680541992187500e+01 1.713977078907191753e-03 -3.799665137194097042e-04 4.002031637355685234e-04 4.131430760025978088e-04
4.003000000000000000e+03 2.812902641296386719e+01 3.742892503738403320e+00 1.195191666483879089e-01 -6.612783670425415039e-02 1.601739972829818726e-02 2.681339085102081299e-01
4.004000000000000000e+03 3.053777122497558594e+01 -9.569673538208007812e+00 -6.375299096107482910e-01 5.494481697678565979e-02 -1.747755408287048340e-01 4.046125710010528564e-01
4.005000000000000000e+03 4.272361755371093750e+01 2.270234107971191406e+01 3.292208611965179443e-01 1.042036414146423340e+00 4.113771915435791016e-01 3.599843382835388184e-01
4.006000000000000000e+03 6.326572036743164062e+01 -2.795166015625000000e+01 -5.004957914352416992e-01 3.427625179290771484e+00 8.781387805938720703e-01 6.784024834632873535e-01
4.007000000000000000e+03 7.334085083007812500e+01 -1.298489475250244141e+01 1.765421628952026367e+00 1.033531379699707031e+01 3.630220651626586914e+00 -9.210689663887023926e-01
4.008000000000000000e+03 7.231436920166015625e+01 -1.270338439941406250e+01 2.153728008270263672e+00 1.168157863616943359e+01 4.150591850280761719e+00 -7.519161105155944824e-01
4.009000000000000000e+03 2.521953773498535156e+01 6.853818893432617188e-02 -4.986917674541473389e-01 3.225635364651679993e-02 -1.399306207895278931e-01 2.502683401107788086e-01
4.010000000000000000e+03 2.470824432373046875e+01 1.425418615341186523e+00 -2.883245348930358887e-01 8.034123480319976807e-02 -6.239498779177665710e-02 2.063266187906265259e-01
4.011000000000000000e+03 4.521040344238281250e+01 3.743697643280029297e+00 -1.429097205400466919e-01 3.294934630393981934e-01 5.597512051463127136e-02 4.971362277865409851e-02
4.012000000000000000e+03 4.699854660034179688e+01 2.905742168426513672e+00 -9.215717017650604248e-02 2.225913256406784058e-01 3.913024812936782837e-02 1.216435581445693970e-01
4.013000000000000000e+03 4.751106643676757812e+01 3.101989030838012695e+00 -5.223554745316505432e-02 1.902337670326232910e-01 4.139946773648262024e-02 1.276880949735641479e-01
4.014000000000000000e+03 4.812047195434570312e+01 3.112632274627685547e+00 -1.997674256563186646e-02 1.779585033655166626e-01 4.739452525973320007e-02 1.499271541833877563e-01
4.015000000000000000e+03 2.799330902099609375e+01 4.412022113800048828e+00 2.109185457229614258e-01 -9.641854465007781982e-02 3.435000032186508179e-02 2.990145385265350342e-01
4.016000000000000000e+03 2.084398651123046875e+01 1.751075983047485352e+00 -3.769088089466094971e-01 -1.325210183858871460e-01 -1.528289467096328735e-01 6.208717823028564453e-01
4.017000000000000000e+03 2.079938125610351562e+01 3.605718016624450684e-01 -6.384636163711547852e-01 -3.691703975200653076e-01 -3.022902011871337891e-01 6.601023077964782715e-01
4.018000000000000000e+03 9.177125930786132812e+00 -2.189815711975097656e+01 2.478511887602508068e-04 -7.321558950934559107e-05 5.239068559603765607e-05 3.455255864537321031e-05
4.019000000000000000e+03 1.615461921691894531e+01 -2.992806053161621094e+01 1.311741652898490429e-03 -5.644905613735318184e-04 2.241753245471045375e-04 1.124556059949100018e-03
4.020000000000000000e+03 2.787459564208984375e+01 1.433181858062744141e+01 -3.071502149105072021e-01 -3.985355496406555176e-01 -2.117057293653488159e-01 3.221658170223236084e-01
4.021000000000000000e+03 2.872271347045898438e+01 1.727280044555664062e+01 5.749044939875602722e-02 -2.555392980575561523e-01 -5.941465869545936584e-02 2.073814868927001953e-01
4.022000000000000000e+03 6.430585479736328125e+01 -2.767545938491821289e+00 -3.671780526638031006e-01 2.441639661788940430e+00 6.223385334014892578e-01 -2.494079828262329102e+00
4.023000000000000000e+03 9.577642440795898438e+00 5.826015949249267578e+00 -5.049971342086791992e-01 -3.172101974487304688e-01 -2.466622143983840942e-01 4.276606142520904541e-01
4.024000000000000000e+03 8.990907669067382812e+00 8.555359840393066406e+00 -3.616456389427185059e-01 -4.017567634582519531e-01 -2.290207147598266602e-01 6.062471866607666016e-01
4.025000000000000000e+03 3.942088317871093750e+01 1.135098552703857422e+01 2.569515407085418701e-01 9.836030602455139160e-01 3.721663951873779297e-01 4.122323691844940186e-01
4.026000000000000000e+03 7.114235687255859375e+01 -1.652249908447265625e+01 2.845437228679656982e-01 1.152089500427246094e+01 3.541631460189819336e+00 -6.816337704658508301e-01
4.027000000000000000e+03 7.064909362792968750e+01 -1.730657577514648438e+01 -3.404007758945226669e-03 1.110821533203125000e+01 3.331443548202514648e+00 -3.644010424613952637e-01
4.028000000000000000e+03 6.221463394165039062e+01 -2.906765365600585938e+01 -3.967882394790649414e-01 2.762009620666503906e+00 7.095663547515869141e-01 5.896285176277160645e-01
4.029000000000000000e+03 2.434558868408203125e+01 5.183954238891601562e-01 -4.736078977584838867e-01 2.908037975430488586e-02 -1.333582550287246704e-01 2.662335038185119629e-01
4.030000000000000000e+03 2.407775115966796875e+01 -1.347097277641296387e+00 -7.442914247512817383e-01 -1.036653518676757812e-01 -2.543870508670806885e-01 3.826138973236083984e-01
4.031000000000000000e+03 1.316574954986572266e+01 -7.168157100677490234e+00 1.068184428731910884e-05 1.611288894309836905e-06 3.687940079544205219e-06 -3.463317170826485381e-06
4.032000000000000000e+03 8.589529991149902344e+00 -7.562047481536865234e+00 -9.689814760349690914e-06 6.051178388588596135e-06 -1.091591002477798611e-06 -4.208981863484950736e-06
4.033000000000000000e+03 6.691144561767578125e+01 -3.540976524353027344e+00 -1.385301709175109863e+00 6.337586879730224609e+00 1.485685467720031738e+00 -3.453154087066650391e+00
4.034000000000000000e+03 8.641935348510742188e+00 -2.123718833923339844e+01 1.434079604223370552e-04 2.371996561123523861e-05 5.013838017475791276e-05 2.258919630548916757e-05
4.035000000000000000e+03 6.534540557861328125e+01 -2.583409309387207031e+01 -6.863828897476196289e-01 4.960528850555419922e+00 1.282243728637695312e+00 7.697258591651916504e-01
4.036000000000000000e+03 3.103042030334472656e+01 -1.085653877258300781e+01 -5.908295512199401855e-01 4.589738696813583374e-02 -1.634796559810638428e-01 3.729089498519897461e-01
4.037000000000000000e+03 6.058122634887695312e+01 1.296318721771240234e+01 6.113696694374084473e-01 3.618584394454956055e+00 1.268986225128173828e+00 -7.463767528533935547e-01
4.038000000000000000e+03 3.745780181884765625e+01 1.421610260009765625e+01 3.235517740249633789e-01 7.509344220161437988e-01 3.223458528518676758e-01 3.288520276546478271e-01
4.039000000000000000e+03 4.051524353027343750e+01 6.209260940551757812e+00 -1.947763860225677490e-01 7.224192023277282715e-01 1.582928448915481567e-01 2.776066362857818604e-01
4.040000000000000000e+03 2.737858390808105469e+01 -6.118850231170654297e+00 -7.671185731887817383e-01 -4.449534416198730469e-02 -2.434841841459274292e-01 4.730555415153503418e-01
4.041000000000000000e+03 5.902732086181640625e+01 -3.216139984130859375e+01 -3.519008681178092957e-02 1.434982776641845703e+00 4.199378192424774170e-01 3.261408507823944092e-01
4.042000000000000000e+03 6.865868377685546875e+01 -1.919085693359375000e+01 -3.717381358146667480e-01 9.471278190612792969e+00 2.729861974716186523e+00 8.311085700988769531e-01
4.043000000000000000e+03 7.419885253906250000e+01 -1.919859504699707031e+01 -3.131283819675445557e-01 9.214006423950195312e+00 2.670263528823852539e+00 -1.445594787597656250e+00
4.044000000000000000e+03 7.356785583496093750e+01 -3.618607711791992188e+01 -3.969955816864967346e-02 7.992486953735351562e+00 2.385836124420166016e+00 7.048653811216354370e-02
4.045000000000000000e+03 7.526409149169921875e+01 -3.608330154418945312e+01 -6.897299736738204956e-02 8.784193992614746094e+00 2.614566087722778320e+00 -2.596164355054497719e-03
4.046000000000000000e+03 2.512698936462402344e+01 -2.664247989654541016e+00 -8.088340163230895996e-01 -8.961007744073867798e-02 -2.695332169532775879e-01 4.060074388980865479e-01
4.047000000000000000e+03 7.760433673858642578e+00 -1.064804172515869141e+01 -3.669410216389223933e-05 -1.655138589740090538e-06 -1.150477237388258800e-05 6.149718046799534932e-06
4.048000000000000000e+03 8.629105567932128906e+00 -9.530706405639648438e+00 2.519880581530742347e-05 -6.672202289337292314e-06 5.557981239689979702e-06 3.856532657664502040e-06
4.049000000000000000e+03 7.018862915039062500e+01 -1.809417343139648438e+01 -2.654370069503784180e-01 1.074128150939941406e+01 3.142753362655639648e+00 -9.049790352582931519e-02
4.050000000000000000e+03 2.740793800354003906e+01 1.975201225280761719e+01 2.839739918708801270e-01 -3.387443423271179199e-01 -1.643110066652297974e-02 2.643463611602783203e-01
4.051000000000000000e+03 6.083019638061523438e+01 -4.745295524597167969e+00 -1.392374515533447266e+00 2.462724000215530396e-01 -3.438306152820587158e-01 -5.591925978660583496e-01
4.052000000000000000e+03 3.864575195312500000e+01 1.692715263366699219e+01 3.511224091053009033e-01 9.285658001899719238e-01 3.839064836502075195e-01 1.934824287891387939e-01
4.053000000000000000e+03 3.897650909423828125e+01 1.597782897949218750e+01 4.002589285373687744e-01 9.864966273307800293e-01 4.160266518592834473e-01 2.284739762544631958e-01
4.054000000000000000e+03 5.992258834838867188e+01 -3.389328765869140625e+01 1.115826144814491272e-01 1.922458410263061523e+00 6.102123260498046875e-01 3.695326447486877441e-01
4.055000000000000000e+03 6.470892333984375000e+01 -2.941024017333984375e+01 -4.659139215946197510e-01 4.316071510314941406e+00 1.155047297477722168e+00 6.014710068702697754e-01
4.056000000000000000e+03 1.175884723663330078e+01 1.508749103546142578e+01 4.902607798576354980e-01 -5.438241958618164062e-01 -1.606903038918972015e-02 5.050985813140869141e-01
4.057000000000000000e+03 3.114324188232421875e+01 -1.183000373840332031e+01 -5.523270964622497559e-01 2.953183278441429138e-02 -1.568385660648345947e-01 3.475879430770874023e-01
4.058000000000000000e+03 1.102483463287353516e+01 5.914594650268554688e+00 -6.083139777183532715e-01 -4.922561943531036377e-01 -3.301710486412048340e-01 4.809980392456054688e-01
4.059000000000000000e+03 5.776478958129882812e+01 1.770557403564453125e+01 4.824249446392059326e-01 3.444090604782104492e+00 1.177954673767089844e+00 -5.274481773376464844e-01
4.060000000000000000e+03 5.698772811889648438e+01 2.077858161926269531e+01 2.886573374271392822e-01 3.075611829757690430e+00 1.009280800819396973e+00 -6.705526709556579590e-01
4.061000000000000000e+03 7.313127899169921875e+01 -2.254404449462890625e+01 -6.986691951751708984e-01 8.976050376892089844e+00 2.483214378356933594e+00 -9.109259247779846191e-01
4.062000000000000000e+03 6.878520965576171875e+01 -2.037893486022949219e+01 -6.658763885498046875e-01 8.872262954711914062e+00 2.461915969848632812e+00 5.572184920310974121e-01
4.063000000000000000e+03 7.317588043212890625e+01 -1.484518527984619141e+01 1.028801441192626953e+00 1.040686893463134766e+01 3.430701017379760742e+00 -1.342099189758300781e+00
4.064000000000000000e+03 7.288719177246093750e+01 -4.410221099853515625e+00 -7.617733478546142578e-01 1.004282283782958984e+01 2.784314870834350586e+00 1.077058315277099609e+00
4.065000000000000000e+03 5.800312805175781250e+01 6.597333431243896484e+00 1.818901896476745605e-01 2.357277393341064453e+00 7.617502212524414062e-01 -3.911778032779693604e-01
4.066000000000000000e+03 5.969809341430664062e+01 1.084639739990234375e+01 4.951992630958557129e-01 3.344210863113403320e+00 1.151823043823242188e+00 -7.372628450393676758e-01
4.067000000000000000e+03 5.886441040039062500e+01 1.035189247131347656e+01 4.444498419761657715e-01 3.179561138153076172e+00 1.087203264236450195e+00 -6.168290972709655762e-01
4.068000000000000000e+03 1.177850818634033203e+01 6.821439743041992188e+00 -6.629940271377563477e-01 -6.297221183776855469e-01 -3.878148496150970459e-01 5.691615939140319824e-01
4.069000000000000000e+03 5.784665679931640625e+01 -5.918660163879394531e+00 -1.708815932273864746e+00 1.949615329504013062e-01 -4.541563093662261963e-01 -2.142347842454910278e-01
4.070000000000000000e+03 4.578524780273437500e+01 -1.258158874511718750e+01 -9.703022837638854980e-01 1.453300565481185913e-01 -2.474916726350784302e-01 -8.820571750402450562e-02
4.071000000000000000e+03 1.831765174865722656e+01 -3.352458190917968750e+01 1.259083976037800312e-03 -3.566415107343345881e-04 2.707327366806566715e-04 1.937542227096855640e-03
4.072000000000000000e+03 7.270787811279296875e+01 -1.151680660247802734e+01 2.424755811691284180e+00 1.101568317413330078e+01 4.032131671905517578e+00 -2.376072853803634644e-01
4.073000000000000000e+03 7.241212463378906250e+01 -1.209380722045898438e+01 2.418935537338256836e+00 1.149048995971679688e+01 4.172827720642089844e+00 -6.104677319526672363e-01
4.074000000000000000e+03 2.340274238586425781e+01 9.161955714225769043e-01 -4.525545537471771240e-01 1.849978417158126831e-02 -1.302164345979690552e-01 3.113036155700683594e-01
4.075000000000000000e+03 5.946013259887695312e+01 1.593781566619873047e+01 6.728276610374450684e-01 3.563328742980957031e+00 1.270846962928771973e+00 -5.413693189620971680e-01
4.076000000000000000e+03 5.605076980590820312e+01 -3.478115844726562500e+01 2.863610088825225830e-01 6.820651888847351074e-01 2.905278503894805908e-01 2.550506591796875000e-02
4.077000000000000000e+03 3.847433853149414062e+01 2.065566253662109375e+01 2.771122157573699951e-01 8.691713809967041016e-01 3.438850641250610352e-01 1.764950901269912720e-01
4.078000000000000000e+03 1.123823833465576172e+01 1.303719806671142578e+01 2.506220340728759766e-01 -6.145845055580139160e-01 -1.091887429356575012e-01 6.779639124870300293e-01
4.079000000000000000e+03 1.180645561218261719e+01 1.215288925170898438e+01 1.261960119009017944e-01 -6.188953518867492676e-01 -1.478098034858703613e-01 7.146180868148803711e-01
4.080000000000000000e+03 7.060462951660156250e+01 -5.899535655975341797e+00 -6.216138005256652832e-01 1.193190097808837891e+01 3.393086194992065430e+00 3.846201300621032715e-01
4.081000000000000000e+03 5.947687149047851562e+01 -2.854791402816772461e+00 -6.686795949935913086e-01 6.314532756805419922e-01 -1.116789039224386215e-02 -3.726266622543334961e-01
4.082000000000000000e+03 4.008497619628906250e+01 1.948703765869140625e+01 2.661357522010803223e-01 1.080672144889831543e+00 4.040423631668090820e-01 2.076774090528488159e-01
4.083000000000000000e+03 3.152885437011718750e+01 -1.119928836822509766e+01 -5.885390043258666992e-01 5.815167352557182312e-02 -1.591162085533142090e-01 3.543288409709930420e-01
4.084000000000000000e+03 8.024394989013671875e+00 -7.594769477844238281e+00 1.917064037115778774e-05 -8.895389328245073557e-06 3.082575403823284432e-06 3.363145992807403672e-07
4.085000000000000000e+03 5.440194320678710938e+01 -3.455715942382812500e+01 2.188071459531784058e-01 2.528997957706451416e-01 1.415120810270309448e-01 -9.379588067531585693e-02
4.086000000000000000e+03 5.096047973632812500e+01 -3.670054244995117188e+01 3.446730673313140869e-01 -1.679164469242095947e-01 5.302698165178298950e-02 -2.043523788452148438e-01
4.087000000000000000e+03 3.967578125000000000e+01 7.882642745971679688e+00 -7.711381465196609497e-02 8.183115720748901367e-01 2.223593145608901978e-01 3.775921165943145752e-01
4.088000000000000000e+03 3.949665069580078125e+01 1.009146976470947266e+01 1.333220452070236206e-01 9.384008049964904785e-01 3.215168416500091553e-01 4.176023304462432861e-01
4.089000000000000000e+03 3.950612640380859375e+01 1.074066066741943359e+01 1.968603879213333130e-01 9.815717339515686035e-01 3.535296320915222168e-01 4.191544950008392334e-01
4.090000000000000000e+03 3.939331054687500000e+01 9.416925430297851562e+00 7.502683252096176147e-02 8.886960148811340332e-01 2.891168594360351562e-01 4.250610768795013428e-01
4.091000000000000000e+03 7.381477355957031250e+00 3.440791320800781250e+01 2.359631843864917755e-02 -9.655114412307739258e-01 -2.825745344161987305e-01 5.883599072694778442e-02
4.092000000000000000e+03 5.356139755249023438e+01 2.384903526306152344e+01 5.344865322113037109e-01 1.928719639778137207e+00 7.389618754386901855e-01 -6.193843483924865723e-01
4.093000000000000000e+03 5.252007675170898438e+01 2.344921875000000000e+01 5.902137160301208496e-01 1.666249513626098633e+00 6.769389510154724121e-01 -5.838735699653625488e-01
4.094000000000000000e+03 6.839621067047119141e+00 -3.360100555419921875e+01 -6.724173726979643106e-05 3.408741031307727098e-04 8.208971121348440647e-05 6.976370350457727909e-04
4.095000000000000000e+03 4.914192199707031250e+01 -3.802417755126953125e+01 3.556830286979675293e-01 -2.631472945213317871e-01 2.776072174310684204e-02 -1.799921095371246338e-01
4.096000000000000000e+03 2.043907737731933594e+01 -3.729737472534179688e+01 -1.702828332781791687e-03 -2.450718311592936516e-04 -5.843700491823256016e-04 1.909136422909796238e-03
4.097000000000000000e+03 2.707541847229003906e+01 -3.910719299316406250e+01 -5.537385586649179459e-03 -9.096398018300533295e-03 -4.390134941786527634e-03 8.697443408891558647e-04
4.098000000000000000e+03 1.567049121856689453e+01 -3.102841567993164062e+01 1.555415801703929901e-03 -4.927468253299593925e-04 3.188006812706589699e-04 8.821625378914177418e-04
4.099000000000000000e+03 2.621154594421386719e+01 2.020244026184082031e+01 3.300195634365081787e-01 -4.172272682189941406e-01 -2.616231329739093781e-02 3.381359279155731201e-01
4.100000000000000000e+03 2.510460090637207031e+01 2.236770629882812500e+01 3.904583156108856201e-01 -3.388251066207885742e-01 1.548996195197105408e-02 4.255194067955017090e-01
4.101000000000000000e+03 2.374104118347167969e+01 2.334767913818359375e+01 3.784232437610626221e-01 -2.989642024040222168e-01 2.383771352469921112e-02 4.815338850021362305e-01
4.102000000000000000e+03 2.729532051086425781e+01 -4.137085342407226562e+01 -7.695529144257307053e-03 -7.353486027568578720e-03 -4.514704458415508270e-03 6.664660177193582058e-04
4.103000000000000000e+03 2.745625686645507812e+01 -3.716283416748046875e+01 -4.778207745403051376e-03 -5.550770554691553116e-03 -3.098693676292896271e-03 -1.669133314862847328e-03
4.104000000000000000e+03 4.654522323608398438e+01 2.438512039184570312e+01 5.925203561782836914e-01 9.513792991638183594e-01 4.631699025630950928e-01 2.183859199285507202e-01
4.105000000000000000e+03 2.522338104248046875e+01 1.912242317199707031e+01 2.751868963241577148e-01 -5.376172065734863281e-01 -7.872909307479858398e-02 3.891366720199584961e-01
4.106000000000000000e+03 2.264641380310058594e+01 2.210580062866210938e+01 3.535111546516418457e-01 -3.194743692874908447e-01 1.021103747189044952e-02 5.580071210861206055e-01
4.107000000000000000e+03 5.745115661621093750e+01 1.676893615722656250e+01 6.427047848701477051e-01 3.392452955245971680e+00 1.210547327995300293e+00 -5.130961537361145020e-01
4.108000000000000000e+03 5.878403854370117188e+01 1.950873565673828125e+01 3.605642020702362061e-01 3.483862400054931641e+00 1.153327941894531250e+00 -5.443054437637329102e-01
4.109000000000000000e+03 1.960753822326660156e+01 -3.295872116088867188e+01 9.382329881191253662e-04 -9.549756068736314774e-04 -5.022785899200243875e-06 2.238531364127993584e-03
4.110000000000000000e+03 7.295501708984375000e+01 3.571800994873046875e+01 6.209397315979003906e-02 5.755410194396972656e+00 1.745251178741455078e+00 -1.051905602216720581e-01
4.111000000000000000e+03 4.666067504882812500e+01 -3.681661987304687500e+01 1.583775579929351807e-01 -3.063963949680328369e-01 -4.440565034747123718e-02 -2.621546387672424316e-01
4.112000000000000000e+03 7.423120880126953125e+01 3.219112777709960938e+01 4.682370647788047791e-02 6.004379749298095703e+00 1.815361022949218750e+00 -1.441025882959365845e-01
4.113000000000000000e+03 5.501225280761718750e+01 2.325158119201660156e+01 4.346707463264465332e-01 2.382366895675659180e+00 8.451113104820251465e-01 -6.507262587547302246e-01
4.114000000000000000e+03 7.718376159667968750e+00 4.164409637451171875e+01 2.415710501372814178e-02 -1.006068825721740723e+00 -2.945735156536102295e-01 6.155681912787258625e-04
4.115000000000000000e+03 4.547138214111328125e+01 2.366072082519531250e+01 5.030806064605712891e-01 9.722990989685058594e-01 4.426139295101165771e-01 3.277855515480041504e-01
4.116000000000000000e+03 5.798293685913085938e+01 -3.459125900268554688e+01 2.343873530626296997e-01 1.284670591354370117e+00 4.557173848152160645e-01 1.942716836929321289e-01
4.117000000000000000e+03 5.708892059326171875e+01 -3.144062042236328125e+01 -1.714967340230941772e-01 6.543524861335754395e-01 1.448567360639572144e-01 8.414787054061889648e-02
4.118000000000000000e+03 4.700667572021484375e+01 -4.113538360595703125e+01 4.243996739387512207e-01 -2.800870835781097412e-01 4.329377785325050354e-02 -6.196071952581405640e-02
4.119000000000000000e+03 3.033805656433105469e+01 -3.885794830322265625e+01 -4.115408286452293396e-03 -2.043754793703556061e-02 -7.365886587649583817e-03 -1.024805847555398941e-02
4.120000000000000000e+03 7.281063842773437500e+01 3.381806182861328125e+01 6.830286979675292969e-02 5.742421627044677734e+00 1.743217349052429199e+00 -1.507582962512969971e-01
4.121000000000000000e+03 2.763323974609375000e+01 2.852279186248779297e+00 9.508571587502956390e-03 -1.075684092938899994e-02 -3.744807909242808819e-04 2.118767648935317993e-01
4.122000000000000000e+03 2.950881767272949219e+01 6.000966548919677734e+00 1.905865669250488281e-01 -1.325304657220840454e-01 1.741682738065719604e-02 4.871988296508789062e-01
4.123000000000000000e+03 2.497188377380371094e+01 7.357493638992309570e-01 -3.977091014385223389e-01 4.971385374665260315e-02 -1.043985709547996521e-01 2.282059639692306519e-01
4.124000000000000000e+03 2.898981285095214844e+01 7.484446525573730469e+00 2.022097557783126831e-01 -2.065045684576034546e-01 -1.288444502279162407e-03 5.893625617027282715e-01
4.125000000000000000e+03 3.011223411560058594e+01 9.238095283508300781e+00 2.785762958228588104e-02 -9.842868149280548096e-02 -2.117131464183330536e-02 6.529563665390014648e-01
4.126000000000000000e+03 2.615614891052246094e+01 1.776195406913757324e+00 -1.769099682569503784e-01 5.871092528104782104e-02 -3.545971214771270752e-02 1.732981652021408081e-01
4.127000000000000000e+03 4.254450607299804688e+01 4.181292533874511719e+00 -2.536738812923431396e-01 5.457339882850646973e-01 8.761803805828094482e-02 1.312056183815002441e-01
4.128000000000000000e+03 4.505308151245117188e+01 2.004871368408203125e+00 -2.429590672254562378e-01 3.272460401058197021e-01 2.528609521687030792e-02 1.410779207944869995e-01
4.129000000000000000e+03 4.773206329345703125e+01 -1.031654548645019531e+01 -1.091241478919982910e+00 2.168357968330383301e-01 -2.623217105865478516e-01 -5.047922953963279724e-02
4.130000000000000000e+03 4.614125061035156250e+01 -1.167228603363037109e+01 -1.001700043678283691e+00 1.806075870990753174e-01 -2.463277131319046021e-01 -6.020437180995941162e-02
4.131000000000000000e+03 2.876646423339843750e+01 6.216366291046142578e+00 2.581649720668792725e-01 -1.836355477571487427e-01 2.235882915556430817e-02 4.852658212184906006e-01
4.132000000000000000e+03 5.093013381958007812e+01 2.247842073440551758e+00 -7.871833629906177521e-03 3.108811378479003906e-01 9.090279042720794678e-02 2.918749451637268066e-01
4.133000000000000000e+03 4.834135818481445312e+01 -1.004499721527099609e+01 -1.121820092201232910e+00 2.237274944782257080e-01 -2.694277763366699219e-01 -6.339080631732940674e-02
4.134000000000000000e+03 4.744975280761718750e+01 2.556054115295410156e+00 -9.410972893238067627e-02 2.153531908988952637e-01 3.637303784489631653e-02 1.505212783813476562e-01
4.135000000000000000e+03 5.140850067138671875e+01 -8.372580528259277344e+00 -1.319021344184875488e+00 2.447474151849746704e-01 -3.222821652889251709e-01 -6.594007462263107300e-02
4.136000000000000000e+03 5.204236602783203125e+01 -7.992784976959228516e+00 -1.344226241111755371e+00 2.550121247768402100e-01 -3.267642557621002197e-01 -6.522116810083389282e-02
4.137000000000000000e+03 2.741399383544921875e+01 3.615976333618164062e+00 1.388803422451019287e-01 -3.922631964087486267e-02 2.989620529115200043e-02 2.213472723960876465e-01
4.138000000000000000e+03 7.359126567840576172e+00 2.935714721679687500e+01 2.984274923801422119e-02 -9.029209613800048828e-01 -2.619234621524810791e-01 1.020477116107940674e-01
4.139000000000000000e+03 2.885891914367675781e+01 1.450633716583251953e+01 -2.158516496419906616e-01 -2.250444442033767700e-01 -1.322688311338424683e-01 3.237080276012420654e-01
4.140000000000000000e+03 4.488617324829101562e+01 -1.216885757446289062e+01 -9.372518658638000488e-01 1.737636625766754150e-01 -2.290464639663696289e-01 -3.181471675634384155e-02
4.141000000000000000e+03 4.344831085205078125e+01 -1.200648689270019531e+01 -8.786646127700805664e-01 1.950849741697311401e-01 -2.050738930702209473e-01 2.807272784411907196e-02
4.142000000000000000e+03 4.352843475341796875e+01 3.834563732147216797e+00 -2.293609231710433960e-01 4.667967259883880615e-01 7.123073935508728027e-02 8.997213095426559448e-02
4.143000000000000000e+03 4.643550109863281250e+01 2.588615417480468750e+00 -1.406389921903610229e-01 2.506568431854248047e-01 3.300535678863525391e-02 1.222759187221527100e-01
4.144000000000000000e+03 6.508042144775390625e+01 -3.036268234252929688e+00 -5.757195949554443359e-01 3.232482194900512695e+00 7.970287799835205078e-01 -2.988527536392211914e+00
4.145000000000000000e+03 3.853943252563476562e+01 -1.279762649536132812e+01 -7.173961400985717773e-01 1.760724782943725586e-01 -1.623971015214920044e-01 1.509480774402618408e-01
4.146000000000000000e+03 5.267811203002929688e+01 -7.611550331115722656e+00 -1.392926573753356934e+00 2.592561841011047363e-01 -3.401011228561401367e-01 -5.261849984526634216e-02
4.147000000000000000e+03 6.806342315673828125e+01 -2.512126922607421875e+01 -8.854592442512512207e-01 6.807307243347167969e+00 1.776554346084594727e+00 4.209445118904113770e-01
4.148000000000000000e+03 7.357215118408203125e+01 -2.662024688720703125e+01 -5.346361398696899414e-01 8.555522918701171875e+00 2.406265974044799805e+00 -5.001651644706726074e-01
4.149000000000000000e+03 1.064298725128173828e+01 -2.433543395996093750e+01 3.173713048454374075e-04 -8.579971472499892116e-05 6.947147630853578448e-05 1.693291851552203298e-04
4.150000000000000000e+03 1.040712356567382812e+01 -2.281889343261718750e+01 2.092560316668823361e-04 -9.388228500029072165e-05 3.461212327238172293e-05 7.490241841878741980e-05
4.151000000000000000e+03 9.712035179138183594e+00 -6.682383537292480469e+00 7.391225153696723282e-06 -4.245073910169594456e-07 2.090015414069057442e-06 4.515439286478795111e-06
4.152000000000000000e+03 3.517814254760742188e+01 -1.446672821044921875e+01 -5.759208798408508301e-01 9.550359100103378296e-02 -1.441251784563064575e-01 1.898138076066970825e-01
4.153000000000000000e+03 3.756254196166992188e+01 -1.327956485748291016e+01 -6.796512603759765625e-01 1.552018523216247559e-01 -1.573348194360733032e-01 1.634851098060607910e-01
4.154000000000000000e+03 6.016018867492675781e+00 -1.475489711761474609e+01 6.687270797556266189e-05 1.928326673805713654e-05 2.584679168649017811e-05 -1.300459916819818318e-05
4.155000000000000000e+03 5.563289642333984375e+01 4.138379573822021484e+00 1.098290532827377319e-01 1.262693762779235840e+00 4.117568433284759521e-01 9.235750883817672729e-02
4.156000000000000000e+03 5.378451919555664062e+01 3.441980123519897461e+00 9.693020582199096680e-02 7.638587951660156250e-01 2.582367062568664551e-01 2.670651376247406006e-01
4.157000000000000000e+03 3.394963073730468750e+01 -1.263001441955566406e+01 -5.995620489120483398e-01 1.101236119866371155e-01 -1.468315422534942627e-01 2.669130563735961914e-01
4.158000000000000000e+03 3.822296142578125000e+01 -1.354287910461425781e+01 -6.921926736831665039e-01 1.524092555046081543e-01 -1.619350314140319824e-01 1.378363519906997681e-01
4.159000000000000000e+03 4.642831802368164062e+01 -1.232952404022216797e+01 -1.001348257064819336e+00 1.516570448875427246e-01 -2.549073696136474609e-01 -1.084527298808097839e-01
4.160000000000000000e+03 5.648952484130859375e+01 5.611641407012939453e+00 1.397414505481719971e-01 1.755628585815429688e+00 5.686110258102416992e-01 -5.796060338616371155e-02
4.161000000000000000e+03 6.057442188262939453e+00 -2.754828834533691406e+01 1.894090928544756025e-05 7.396595174213871360e-05 2.787205812637694180e-05 3.718773659784346819e-04
4.162000000000000000e+03 6.822553634643554688e+00 -2.747620391845703125e+01 4.275582323316484690e-04 1.504309620941057801e-04 1.733967510517686605e-04 4.007335519418120384e-04
4.163000000000000000e+03 6.224387645721435547e+00 6.624718189239501953e+00 -2.482148259878158569e-01 -2.051071524620056152e-01 -1.359965950250625610e-01 3.172060847282409668e-01
4.164000000000000000e+03 5.737606525421142578e+00 8.462049484252929688e+00 -1.831209510564804077e-01 -3.046454489231109619e-01 -1.463299244642257690e-01 4.045516848564147949e-01
4.165000000000000000e+03 5.312512874603271484e+00 2.004478454589843750e+01 1.045791804790496826e-01 -8.906353712081909180e-01 -2.358168512582778931e-01 2.209188938140869141e-01
4.166000000000000000e+03 6.928984832763671875e+01 -3.934803962707519531e+00 -1.958742856979370117e+00 1.015137767791748047e+01 2.457790374755859375e+00 -1.559568405151367188e+00
4.167000000000000000e+03 6.759285736083984375e+01 -3.466595411300659180e+00 -1.658231377601623535e+00 7.622047901153564453e+00 1.789144992828369141e+00 -3.026204586029052734e+00
4.168000000000000000e+03 9.027440071105957031e+00 -6.743179321289062500e+00 9.055794180312659591e-06 2.342019797652028501e-06 3.419344238864141516e-06 -6.531265171361155808e-06
4.169000000000000000e+03 9.331558227539062500e+00 -8.861963272094726562e+00 1.653807885304559022e-05 -1.072950180969201028e-05 1.742573090268706437e-06 1.335785782430320978e-05
4.170000000000000000e+03 7.392630767822265625e+01 -2.318626213073730469e+01 -6.006147861480712891e-01 8.889726638793945312e+00 2.486733675003051758e+00 -9.361063241958618164e-01
4.171000000000000000e+03 2.936628532409667969e+01 -8.121460914611816406e+00 -6.822595000267028809e-01 3.090766258537769318e-02 -1.954055577516555786e-01 4.408948123455047607e-01
4.172000000000000000e+03 2.892425918579101562e+01 -7.583036422729492188e+00 -7.071121335029602051e-01 1.838332973420619965e-02 -2.066186368465423584e-01 4.503233432769775391e-01
4.173000000000000000e+03 5.054571914672851562e+01 -9.667588233947753906e+00 -1.276648640632629395e+00 1.990762054920196533e-01 -3.232717216014862061e-01 -1.409324109554290771e-01
4.174000000000000000e+03 6.114526271820068359e+00 -2.157196044921875000e+01 -8.559315756428986788e-05 3.997024396085180342e-05 -1.368687571812188253e-05 4.214252840029075742e-05
4.175000000000000000e+03 6.623706817626953125e+00 -2.143661117553710938e+01 2.672248228918761015e-04 -3.398965873202541843e-06 7.914775051176548004e-05 1.201897539431229234e-04
4.176000000000000000e+03 6.108300209045410156e+00 -2.233382606506347656e+01 3.099780005868524313e-04 2.979142482217866927e-05 1.019308256218209863e-04 4.835681829717941582e-05
4.177000000000000000e+03 1.123124027252197266e+01 -2.509194183349609375e+01 7.732083904556930065e-04 -2.609329530969262123e-04 1.536826312076300383e-04 1.358784356852993369e-04
4.178000000000000000e+03 5.530813217163085938e+00 2.246895217895507812e+01 7.590770721435546875e-02 -9.293302297592163086e-01 -2.560267448425292969e-01 1.578112691640853882e-01
4.179000000000000000e+03 7.331241607666015625e+01 2.259378242492675781e+01 8.312134444713592529e-02 6.166133403778076172e+00 1.874776482582092285e+00 -3.549443185329437256e-01
4.180000000000000000e+03 7.387352752685546875e+01 2.424497985839843750e+01 6.429592519998550415e-02 6.202318191528320312e+00 1.879984259605407715e+00 -3.071582019329071045e-01
4.181000000000000000e+03 7.441496276855468750e+01 2.223975944519042969e+01 6.246043741703033447e-02 6.374427318572998047e+00 1.931066393852233887e+00 -3.137551546096801758e-01
4.182000000000000000e+03 6.623942852020263672e+00 2.332792091369628906e+01 8.754556626081466675e-02 -8.523815274238586426e-01 -2.294507920742034912e-01 1.605370193719863892e-01
4.183000000000000000e+03 5.842349624633789062e+01 -5.493767738342285156e+00 -1.668734192848205566e+00 1.890042871236801147e-01 -4.439189732074737549e-01 -2.326088994741439819e-01
4.184000000000000000e+03 7.375462341308593750e+01 2.477397727966308594e+01 6.437373906373977661e-02 6.160614967346191406e+00 1.867496609687805176e+00 -3.019658327102661133e-01
4.185000000000000000e+03 7.451990509033203125e+01 1.660404396057128906e+01 6.685409694910049438e-02 6.692745685577392578e+00 2.027879953384399414e+00 -4.275034964084625244e-01
4.186000000000000000e+03 7.381679534912109375e+01 2.587979316711425781e+01 6.813936680555343628e-02 6.120698451995849609e+00 1.856651306152343750e+00 -2.686374187469482422e-01
4.187000000000000000e+03 7.317192077636718750e+01 2.523717880249023438e+01 8.228946477174758911e-02 6.042502880096435547e+00 1.837437748908996582e+00 -3.052946925163269043e-01
4.188000000000000000e+03 6.383861064910888672e+00 2.274126815795898438e+01 9.333369880914688110e-02 -8.589422702789306641e-01 -2.296825796365737915e-01 1.697467863559722900e-01
4.189000000000000000e+03 7.389527893066406250e+01 1.447744369506835938e+01 5.857231840491294861e-02 6.680731296539306641e+00 2.021791219711303711e+00 -5.158839821815490723e-01
4.190000000000000000e+03 8.180260658264160156e+00 1.007207298278808594e+01 -1.840367913246154785e-01 -4.474875628948211670e-01 -1.894572973251342773e-01 6.218044161796569824e-01
4.191000000000000000e+03 1.062414550781250000e+01 1.075443077087402344e+01 -1.387160122394561768e-01 -5.867641568183898926e-01 -2.176440358161926270e-01 7.547955513000488281e-01
4.192000000000000000e+03 5.476445198059082031e+00 -2.390727806091308594e+01 -1.242110647581284866e-05 1.979370790650136769e-05 2.211780383731820621e-06 1.747590722516179085e-04
4.193000000000000000e+03 6.726588249206542969e+00 -2.310534477233886719e+01 3.338782407809048891e-04 5.161185254110023379e-05 1.156470243586227298e-04 7.112936145858839154e-05
4.194000000000000000e+03 6.497476100921630859e+00 -2.004212379455566406e+01 2.098841359838843346e-04 2.214050618931651115e-05 6.960739119676873088e-05 5.713615610147826374e-05
4.195000000000000000e+03 7.474365234375000000e+01 2.161476325988769531e+01 5.994656682014465332e-02 6.460495471954345703e+00 1.956132650375366211e+00 -3.142447173595428467e-01
4.196000000000000000e+03 7.399074554443359375e+01 1.581623268127441406e+01 7.016672194004058838e-02 6.622653484344482422e+00 2.007846117019653320e+00 -4.767357707023620605e-01
4.197000000000000000e+03 7.367561340332031250e+01 -2.168292045593261719e+01 -5.939335823059082031e-01 9.065862655639648438e+00 2.541578769683837891e+00 -1.102096438407897949e+00
4.198000000000000000e+03 7.469084930419921875e+01 8.758123397827148438e+00 -1.060837358236312866e-01 7.321054935455322266e+00 2.164491415023803711e+00 -4.669783115386962891e-01
4.199000000000000000e+03 7.402652740478515625e+01 7.279653072357177734e+00 -2.032928466796875000e-01 7.318257808685302734e+00 2.134489536285400391e+00 -4.769870638847351074e-01
4.200000000000000000e+03 7.328749847412109375e+01 9.669901847839355469e+00 -8.323664218187332153e-02 6.886599540710449219e+00 2.041008949279785156e+00 -6.070958971977233887e-01
4.201000000000000000e+03 7.395744323730468750e+01 9.622385978698730469e+00 -8.035308867692947388e-02 7.058579921722412109e+00 2.093467950820922852e+00 -5.488375425338745117e-01
4.202000000000000000e+03 7.350650787353515625e+01 -1.546914005279541016e+01 7.349306344985961914e-01 1.006246376037597656e+01 3.239218473434448242e+00 -1.408971190452575684e+00
4.203000000000000000e+03 6.847473907470703125e+01 -2.424433517456054688e+01 -9.245429635047912598e-01 7.282323837280273438e+00 1.907334208488464355e+00 3.626185953617095947e-01
4.204000000000000000e+03 7.410729217529296875e+01 -2.393434143066406250e+01 -5.690990686416625977e-01 8.823707580566406250e+00 2.476382493972778320e+00 -8.589666485786437988e-01
4.205000000000000000e+03 7.435375976562500000e+01 1.893964195251464844e+01 7.088612020015716553e-02 6.530693054199218750e+00 1.980473756790161133e+00 -3.884989917278289795e-01
4.206000000000000000e+03 7.309509277343750000e+01 1.631139183044433594e+01 9.201765805482864380e-02 6.389155864715576172e+00 1.944352149963378906e+00 -5.130379796028137207e-01
4.207000000000000000e+03 7.387018585205078125e+01 1.042000961303710938e+01 -4.823876917362213135e-02 6.960536003112792969e+00 2.073689222335815430e+00 -5.576570630073547363e-01
4.208000000000000000e+03 7.454905700683593750e+01 1.277065658569335938e+01 1.782242394983768463e-02 6.956470966339111328e+00 2.092288017272949219e+00 -4.924605190753936768e-01
4.209000000000000000e+03 7.400820922851562500e+01 8.838860511779785156e+00 -1.153192669153213501e-01 7.146872997283935547e+00 2.109466075897216797e+00 -5.280042290687561035e-01
4.210000000000000000e+03 7.484886169433593750e+01 -1.614124107360839844e+01 3.799718022346496582e-01 9.029951095581054688e+00 2.822976827621459961e+00 -1.513474464416503906e+00
4.211000000000000000e+03 7.409637451171875000e+01 4.288188517093658447e-01 -8.141897320747375488e-01 8.384763717651367188e+00 2.271172285079956055e+00 2.424381673336029053e-01
4.212000000000000000e+03 5.519143104553222656e+00 1.556004810333251953e+01 1.101589500904083252e-01 -7.347137331962585449e-01 -1.873664259910583496e-01 4.008577167987823486e-01
4.213000000000000000e+03 7.363591766357421875e+01 7.072164863348007202e-02 -9.425660967826843262e-01 8.506931304931640625e+00 2.269309520721435547e+00 1.832282394170761108e-01
4.214000000000000000e+03 7.388969421386718750e+01 -1.448405265808105469e+01 1.044867038726806641e+00 9.679023742675781250e+00 3.217167139053344727e+00 -1.240519523620605469e+00
4.215000000000000000e+03 5.330973625183105469e+00 7.435042858123779297e+00 -1.887610554695129395e-01 -2.342757880687713623e-01 -1.269110590219497681e-01 3.210490942001342773e-01
4.216000000000000000e+03 7.493024444580078125e+01 3.502501010894775391e+00 -4.226491749286651611e-01 7.929177284240722656e+00 2.251958370208740234e+00 -9.751494973897933960e-02
4.217000000000000000e+03 7.483511352539062500e+01 -1.798688697814941406e+01 -6.293012946844100952e-02 8.943081855773925781e+00 2.664045572280883789e+00 -1.533282399177551270e+00
4.218000000000000000e+03 7.434992218017578125e+01 -6.721227169036865234e+00 4.799090623855590820e-01 9.276240348815917969e+00 2.926844835281372070e+00 1.491656780242919922e+00
4.219000000000000000e+03 7.471479797363281250e+01 -1.241372394561767578e+01 1.390663266181945801e+00 8.839002609252929688e+00 3.068899869918823242e+00 -5.852183103561401367e-01
4.220000000000000000e+03 7.419584655761718750e+01 -3.454684019088745117e+00 -6.874179840087890625e-01 9.155591964721679688e+00 2.540452241897583008e+00 1.131138086318969727e+00
4.221000000000000000e+03 1.116794109344482422e+01 1.709598731994628906e+01 4.423129856586456299e-01 -5.352978706359863281e-01 -2.789546176791191101e-02 3.623911440372467041e-01
4.222000000000000000e+03 5.314873695373535156e+00 -1.283414554595947266e+01 3.141224078717641532e-05 3.281420868006534874e-05 1.926793629536405206e-05 -8.163938218785915524e-06
4.223000000000000000e+03 7.466413879394531250e+01 -4.113255500793457031e+00 -4.403834640979766846e-01 8.998033523559570312e+00 2.567295074462890625e+00 1.304501891136169434e+00
4.224000000000000000e+03 7.397672271728515625e+01 -6.174586772918701172e+00 2.448551654815673828e-01 9.516101837158203125e+00 2.928287029266357422e+00 1.483214735984802246e+00
4.225000000000000000e+03 7.476360321044921875e+01 -2.108987569808959961e+00 -6.966714262962341309e-01 8.710762977600097656e+00 2.404227256774902344e+00 8.829938769340515137e-01
4.226000000000000000e+03 7.353069305419921875e+01 -3.958986043930053711e+00 -7.367127537727355957e-01 9.586978912353515625e+00 2.655079841613769531e+00 1.104520201683044434e+00
4.227000000000000000e+03 7.434069824218750000e+01 1.976194763183593750e+01 6.898421049118041992e-02 6.482070922851562500e+00 1.965316534042358398e+00 -3.721778392791748047e-01
4.228000000000000000e+03 7.300226593017578125e+01 2.586321640014648438e+01 8.323173969984054565e-02 5.990589618682861328e+00 1.822146415710449219e+00 -3.003660738468170166e-01
4.229000000000000000e+03 7.285856628417968750e+01 -9.813142776489257812e+00 2.407958269119262695e+00 1.087489223480224609e+01 3.984854936599731445e+00 5.046407580375671387e-01
4.230000000000000000e+03 5.610589504241943359e+00 1.364914226531982422e+01 5.820951610803604126e-02 -6.339151263236999512e-01 -1.727116703987121582e-01 4.627450704574584961e-01
4.231000000000000000e+03 6.841394901275634766e+00 1.464159774780273438e+01 1.378366053104400635e-01 -6.739470958709716797e-01 -1.608331501483917236e-01 4.951480329036712646e-01
4.232000000000000000e+03 7.477795410156250000e+01 4.390265941619873047e+00 -3.853994607925415039e-01 7.816056251525878906e+00 2.229197025299072266e+00 -2.126653939485549927e-01
4.233000000000000000e+03 7.365363311767578125e+01 2.694820165634155273e+00 -6.668755412101745605e-01 7.882782936096191406e+00 2.164772272109985352e+00 -2.102114111185073853e-01
4.234000000000000000e+03 7.328649902343750000e+01 -1.197251701354980469e+01 2.018566846847534180e+00 1.036375617980957031e+01 3.714696884155273438e+00 -5.246651172637939453e-01
4.235000000000000000e+03 7.436367797851562500e+01 -1.819276428222656250e+01 -1.379054337739944458e-01 9.226661682128906250e+00 2.726626873016357422e+00 -1.513005614280700684e+00
4.236000000000000000e+03 5.976435661315917969e+00 2.605714035034179688e+01 4.509727284312248230e-02 -9.524755477905273438e-01 -2.722134888172149658e-01 1.123015508055686951e-01
4.237000000000000000e+03 7.399536895751953125e+01 -9.853132247924804688e+00 1.872011423110961914e+00 9.561436653137207031e+00 3.430034399032592773e+00 5.413417220115661621e-01
4.238000000000000000e+03 7.451334381103515625e+01 -1.479336142539978027e+00 -7.941600084304809570e-01 8.698130607604980469e+00 2.371191263198852539e+00 7.285474538803100586e-01
4.239000000000000000e+03 7.379985809326171875e+01 -1.245212459564208984e+01 1.750001907348632812e+00 9.755317687988281250e+00 3.451595783233642578e+00 -6.237995624542236328e-01
4.240000000000000000e+03 7.290891265869140625e+01 -8.657402992248535156e+00 1.901814579963684082e+00 1.064480400085449219e+01 3.763985633850097656e+00 1.016064167022705078e+00
4.241000000000000000e+03 7.350701904296875000e+01 -1.038201904296875000e+01 2.102896928787231445e+00 1.000619983673095703e+01 3.632729053497314453e+00 2.365851700305938721e-01
4.242000000000000000e+03 7.386988067626953125e+01 -4.514057040214538574e-01 -9.150460958480834961e-01 8.576238632202148438e+00 2.298357725143432617e+00 3.454594016075134277e-01
4.243000000000000000e+03 7.416174316406250000e+01 -9.592791199684143066e-01 -8.576104640960693359e-01 8.675639152526855469e+00 2.345408678054809570e+00 5.218976736068725586e-01
4.244000000000000000e+03 6.985839080810546875e+01 -2.804906606674194336e+00 -1.841252565383911133e+00 9.411203384399414062e+00 2.270985364913940430e+00 -1.229322910308837891e+00
4.245000000000000000e+03 7.467765045166015625e+01 -2.819170951843261719e+00 -6.576837897300720215e-01 8.840346336364746094e+00 2.454798698425292969e+00 1.060166120529174805e+00
4.246000000000000000e+03 7.471391296386718750e+01 5.326912879943847656e+00 -3.021016120910644531e-01 7.664762020111083984e+00 2.208798170089721680e+00 -3.068407475948333740e-01
4.247000000000000000e+03 7.363057708740234375e+01 -1.799673652648925781e+01 -1.088907793164253235e-01 9.632682800292968750e+00 2.857137680053710938e+00 -1.463506579399108887e+00
4.248000000000000000e+03 7.388200378417968750e+01 -1.852348899841308594e+01 -2.007584273815155029e-01 9.422346115112304688e+00 2.766476392745971680e+00 -1.443132638931274414e+00
4.249000000000000000e+03 7.331915283203125000e+01 8.931366920471191406e+00 -1.218316704034805298e-01 6.970737457275390625e+00 2.054671764373779297e+00 -5.999326109886169434e-01
4.250000000000000000e+03 7.327601623535156250e+01 6.742455959320068359e+00 -2.771243751049041748e-01 7.192771434783935547e+00 2.074694156646728516e+00 -5.477555394172668457e-01
4.251000000000000000e+03 7.370830535888671875e+01 5.768870353698730469e+00 -3.326227962970733643e-01 7.416983604431152344e+00 2.125308275222778320e+00 -4.473037719726562500e-01
4.252000000000000000e+03 5.737270832061767578e+00 -2.566669273376464844e+01 2.655655771377496421e-05 3.334718712721951306e-05 1.797112236090470105e-05 2.596748236101120710e-04
4.253000000000000000e+03 9.797045707702636719e+00 -2.246605300903320312e+01 3.115806903224438429e-04 2.756790308922063559e-05 1.017445756588131189e-04 -1.777071156539022923e-05
4.254000000000000000e+03 7.330620574951171875e+01 5.272004604339599609e+00 -4.154524505138397217e-01 7.404890537261962891e+00 2.096831560134887695e+00 -4.841733276844024658e-01
4.255000000000000000e+03 5.972209453582763672e+00 -1.318538570404052734e+01 -4.951976370648480952e-05 -1.952397724380716681e-05 -2.071312155749183148e-05 1.195480581372976303e-05
4.256000000000000000e+03 7.374269104003906250e+01 -1.706883049011230469e+01 1.308729201555252075e-01 9.675441741943359375e+00 2.941894531250000000e+00 -1.502413034439086914e+00
4.257000000000000000e+03 7.322265625000000000e+01 -1.753064918518066406e+01 -2.649355912581086159e-03 9.900375366210937500e+00 2.969317913055419922e+00 -1.399720788002014160e+00
4.258000000000000000e+03 1.057453060150146484e+01 1.174216461181640625e+01 1.334687415510416031e-02 -6.027808189392089844e-01 -1.768301874399185181e-01 7.408460378646850586e-01
4.259000000000000000e+03 5.160275936126708984e+00 -1.754527091979980469e+01 4.642000931198708713e-05 6.204908277140930295e-05 3.254072726122103631e-05 -1.380760932079283521e-05
4.260000000000000000e+03 6.513567924499511719e+00 -1.685214424133300781e+01 9.415447129867970943e-05 -2.505406700947787613e-05 2.073012183245737106e-05 8.508345672453287989e-06
4.261000000000000000e+03 7.067446136474609375e+01 -2.187476730346679688e+01 -8.951175808906555176e-01 8.920485496520996094e+00 2.407610416412353516e+00 -3.178257346153259277e-01
4.262000000000000000e+03 6.715971946716308594e+00 -1.148663139343261719e+01 2.695889634196646512e-05 2.929155743913725019e-05 1.687513577053323388e-05 -1.186078407044988126e-05
4.263000000000000000e+03 4.883420467376708984e+00 -1.813260841369628906e+01 -2.918827249231981114e-06 -1.361365866614505649e-05 -4.959745638188906014e-06 8.978792720881756395e-06
4.264000000000000000e+03 6.531974792480468750e+00 1.405067443847656250e+01 1.046137437224388123e-01 -6.517088413238525391e-01 -1.641285270452499390e-01 5.042011737823486328e-01
4.265000000000000000e+03 6.339101791381835938e+00 2.533104705810546875e+01 5.543633177876472473e-02 -9.114278554916381836e-01 -2.567974627017974854e-01 1.266162842512130737e-01
4.266000000000000000e+03 6.481014251708984375e+00 -1.920798492431640625e+01 -6.346448935801163316e-05 -8.733705726626794785e-06 -2.165945807064417750e-05 -1.029874511004891247e-05
4.267000000000000000e+03 5.868264675140380859e+00 1.974419784545898438e+01 1.316373646259307861e-01 -8.472853302955627441e-01 -2.146943956613540649e-01 2.467134147882461548e-01
4.268000000000000000e+03 6.200202465057373047e+00 2.024830436706542969e+01 1.351642608642578125e-01 -8.373534679412841797e-01 -2.106567621231079102e-01 2.355864793062210083e-01
4.269000000000000000e+03 5.155006408691406250e+00 1.942395210266113281e+01 1.065883859992027283e-01 -8.860775232315063477e-01 -2.338467538356781006e-01 2.374661415815353394e-01
4.270000000000000000e+03 6.549655914306640625e+00 1.730676841735839844e+01 1.695977747440338135e-01 -7.630602121353149414e-01 -1.780387312173843384e-01 3.643716275691986084e-01
4.271000000000000000e+03 5.769062042236328125e+00 -7.011931419372558594e+00 2.124152160831727087e-05 7.816002835170365870e-06 8.717257514945231378e-06 -1.359675934509141371e-05
4.272000000000000000e+03 6.108527660369873047e+00 9.922675132751464844e+00 -1.289592683315277100e-01 -4.025714099407196045e-01 -1.594592034816741943e-01 4.888921976089477539e-01
4.273000000000000000e+03 6.237804412841796875e+00 1.139944934844970703e+01 -4.798724502325057983e-02 -5.010184049606323242e-01 -1.647016853094100952e-01 5.293098688125610352e-01
4.274000000000000000e+03 5.258058071136474609e+00 1.126233291625976562e+01 -4.592135176062583923e-02 -4.842879176139831543e-01 -1.590627729892730713e-01 4.604370892047882080e-01
4.275000000000000000e+03 5.635578155517578125e+00 -9.422337532043457031e+00 -1.323909327766159549e-05 -2.935223164968192577e-05 -1.277739738725358620e-05 -3.569803936898097163e-07
4.276000000000000000e+03 5.893648147583007812e+00 1.235088920593261719e+01 7.050680927932262421e-03 -5.608863830566406250e-01 -1.661507189273834229e-01 5.001773238182067871e-01
4.277000000000000000e+03 6.424152374267578125e+00 1.782058525085449219e+01 1.692584156990051270e-01 -7.852888107299804688e-01 -1.848091185092926025e-01 3.329122960567474365e-01
4.278000000000000000e+03 5.889381408691406250e+00 1.087051486968994141e+01 -7.176472246646881104e-02 -4.636066257953643799e-01 -1.606114059686660767e-01 4.982662200927734375e-01
4.279000000000000000e+03 8.244188308715820312e+00 7.270512580871582031e+00 -3.849412202835083008e-01 -2.921303510665893555e-01 -2.031214684247970581e-01 4.722591638565063477e-01
4.280000000000000000e+03 8.093765258789062500e+00 1.661256790161132812e+01 2.524305284023284912e-01 -7.028726339340209961e-01 -1.351326256990432739e-01 4.241538643836975098e-01
4.281000000000000000e+03 6.128441333770751953e+00 1.651405906677246094e+01 1.544263064861297607e-01 -7.555740475654602051e-01 -1.803443282842636108e-01 3.889483809471130371e-01
4.282000000000000000e+03 6.245551586151123047e+00 8.968061447143554688e+00 -1.889244616031646729e-01 -3.416121602058410645e-01 -1.591609865427017212e-01 4.633823335170745850e-01
4.283000000000000000e+03 6.054394721984863281e+00 -9.843235015869140625e+00 1.307408001594012603e-05 2.915164259320590645e-05 1.266771687369327992e-05 -3.041111540369456634e-06
4.284000000000000000e+03 5.621676921844482422e+00 -8.491280555725097656e+00 -2.623728687467519194e-05 -1.110069479182129726e-05 -1.120139495469629765e-05 7.186956281657330692e-06
4.285000000000000000e+03 7.384506225585937500e+01 1.367883300781250000e+01 4.431665688753128052e-02 6.720355987548828125e+00 2.029401779174804688e+00 -5.313212871551513672e-01
4.286000000000000000e+03 6.297201633453369141e+00 -1.066483116149902344e+01 2.011625474551692605e-05 2.900845720432698727e-05 1.473741303925635293e-05 -3.850285793305374682e-06
4.287000000000000000e+03 7.130013465881347656e+00 -1.043532848358154297e+01 2.927860987256281078e-05 9.691530067357234657e-06 1.169104143627919257e-05 -2.978582642754190601e-06
4.288000000000000000e+03 5.560567855834960938e+01 -6.610827445983886719e+00 -1.593067288398742676e+00 2.452788203954696655e-01 -4.043365418910980225e-01 -1.141978204250335693e-01
4.289000000000000000e+03 5.960977554321289062e+00 -2.012247276306152344e+01 -6.183991354191675782e-05 2.117562871717382222e-05 -1.219928526552394032e-05 -2.781625698844436556e-05
4.290000000000000000e+03 6.966330051422119141e+00 -2.071828651428222656e+01 2.379856305196881294e-04 2.051107730949297547e-05 7.754901162115857005e-05 5.883999256184324622e-05
4.291000000000000000e+03 7.360350799560546875e+01 1.970060539245605469e+01 8.721913397312164307e-02 6.328312397003173828e+00 1.924659490585327148e+00 -4.016331732273101807e-01
4.292000000000000000e+03 7.296846771240234375e+01 1.981732940673828125e+01 1.034192740917205811e-01 6.197832107543945312e+00 1.890375375747680664e+00 -4.382335841655731201e-01
4.293000000000000000e+03 7.377676391601562500e+01 2.079070281982421875e+01 7.810954749584197998e-02 6.322435855865478516e+00 1.920163631439208984e+00 -3.708910346031188965e-01
4.294000000000000000e+03 1.356977367401123047e+01 -2.742256736755371094e+01 1.298228395171463490e-03 -1.974457409232854843e-04 3.302347904536873102e-04 8.198567957151681185e-05
4.295000000000000000e+03 1.246249771118164062e+01 -2.646630287170410156e+01 1.246603787876665592e-03 -4.620910622179508209e-04 2.353538002353161573e-04 2.140619908459484577e-04
4.296000000000000000e+03 7.673710823059082031e+00 -2.213489151000976562e+01 8.103954314719885588e-05 -7.076076599332736805e-06 2.218904046458192170e-05 2.160652366001158953e-05
4.297000000000000000e+03 6.991319179534912109e+00 2.382322311401367188e+01 8.577792346477508545e-02 -8.299356102943420410e-01 -2.232473045587539673e-01 1.572489291429519653e-01
4.298000000000000000e+03 5.331101226806640625e+01 -7.233306884765625000e+00 -1.408689737319946289e+00 2.705315053462982178e-01 -3.414474725723266602e-01 -4.935454949736595154e-02
4.299000000000000000e+03 5.499116134643554688e+01 -7.008658409118652344e+00 -1.600719690322875977e+00 2.358221858739852905e-01 -4.094692468643188477e-01 -1.181098744273185730e-01
4.300000000000000000e+03 2.985813331604003906e+01 9.824655532836914062e+00 -2.401099167764186859e-02 -1.117299646139144897e-01 -4.072228819131851196e-02 6.554244160652160645e-01
4.301000000000000000e+03 7.320050048828125000e+01 2.474076271057128906e+01 7.198485732078552246e-02 6.071876525878906250e+00 1.843158364295959473e+00 -3.176545798778533936e-01
4.302000000000000000e+03 7.357189941406250000e+01 -2.571965026855468750e+01 -5.846074223518371582e-01 8.612382888793945312e+00 2.408332586288452148e+00 -5.938731431961059570e-01
4.303000000000000000e+03 7.455340576171875000e+01 -2.657443809509277344e+01 -4.230854809284210205e-01 8.750391006469726562e+00 2.498191595077514648e+00 -5.475124120712280273e-01
4.304000000000000000e+03 9.619060516357421875e+00 3.200209426879882812e+01 4.948915168642997742e-02 -7.679648995399475098e-01 -2.155427187681198120e-01 1.200724318623542786e-01
4.305000000000000000e+03 7.011730670928955078e+00 -2.466670799255371094e+01 3.885679470840841532e-04 6.611456046812236309e-05 1.364047493552789092e-04 1.706588373053818941e-04
4.306000000000000000e+03 7.405237674713134766e+00 -2.644105148315429688e+01 4.531397134996950626e-04 8.435104246018454432e-05 1.612472260603681207e-04 2.988060005009174347e-04
4.307000000000000000e+03 3.055881881713867188e+01 -1.048820686340332031e+01 -5.990322232246398926e-01 3.283505514264106750e-02 -1.698591560125350952e-01 3.903056085109710693e-01
4.308000000000000000e+03 1.519342803955078125e+01 -2.945424652099609375e+01 1.079513807781040668e-03 -3.725082206074148417e-04 2.121016877936199307e-04 7.524399552494287491e-04
4.309000000000000000e+03 7.219585418701171875e+01 -1.433002376556396484e+01 1.352199792861938477e+00 1.148494338989257812e+01 3.851142883300781250e+00 -1.084802508354187012e+00
4.310000000000000000e+03 7.199314117431640625e+00 -3.087587928771972656e+01 4.685673629865050316e-04 2.271165285492315888e-04 2.087051689159125090e-04 6.331938784569501877e-04
4.311000000000000000e+03 6.677386283874511719e+00 -3.234392929077148438e+01 2.146403712686151266e-04 4.576761275529861450e-04 2.016949583776295185e-04 5.903170094825327396e-04
4.312000000000000000e+03 2.947735023498535156e+01 9.375373840332031250e+00 1.664629951119422913e-02 -1.638527810573577881e-01 -4.416194558143615723e-02 6.655999422073364258e-01
4.313000000000000000e+03 5.620489120483398438e+01 -6.210721969604492188e+00 -1.614900708198547363e+00 2.469710260629653931e-01 -4.103789031505584717e-01 -1.024526134133338928e-01
4.314000000000000000e+03 4.947043228149414062e+01 2.207235574722290039e+00 -4.612344875931739807e-02 2.271448522806167603e-01 5.430642142891883850e-02 2.450579702854156494e-01
4.315000000000000000e+03 4.297510528564453125e+01 -1.237453269958496094e+01 -8.610416650772094727e-01 1.822734177112579346e-01 -2.036304771900177002e-01 2.949347905814647675e-02
4.316000000000000000e+03 4.318796157836914062e+01 -1.142476367950439453e+01 -8.813103437423706055e-01 2.154259234666824341e-01 -1.997653394937515259e-01 5.725375190377235413e-02
4.317000000000000000e+03 4.158438110351562500e+01 4.533014297485351562e+00 -2.611138224601745605e-01 6.024287343025207520e-01 1.023944690823554993e-01 1.913450956344604492e-01
4.318000000000000000e+03 5.078059005737304688e+01 -8.743401527404785156e+00 -1.269141435623168945e+00 2.414195984601974487e-01 -3.083165585994720459e-01 -7.346548140048980713e-02
4.319000000000000000e+03 5.037385940551757812e+01 -8.179224014282226562e+00 -1.217187523841857910e+00 2.676878273487091064e-01 -2.848498821258544922e-01 -4.733610898256301880e-03
4.320000000000000000e+03 5.840962409973144531e+00 -1.173669052124023438e+01 2.410345041425898671e-05 2.899988976423628628e-05 1.593100205354858190e-05 -1.758158032316714525e-05
4.321000000000000000e+03 3.985701751708984375e+01 -1.323068332672119141e+01 -7.481038570404052734e-01 1.692210584878921509e-01 -1.736648380756378174e-01 1.002270802855491638e-01
4.322000000000000000e+03 4.143737792968750000e+01 -1.300541210174560547e+01 -7.982459068298339844e-01 1.731038391590118408e-01 -1.875426322221755981e-01 6.193720549345016479e-02
4.323000000000000000e+03 6.552269744873046875e+01 -2.678245544433593750e+01 -6.876432299613952637e-01 4.993495941162109375e+00 1.291755914688110352e+00 7.198351621627807617e-01
4.324000000000000000e+03 6.862206268310546875e+01 -2.731907844543457031e+01 -7.658156156539916992e-01 6.703011512756347656e+00 1.781158685684204102e+00 2.864581346511840820e-01
4.325000000000000000e+03 2.412925148010253906e+01 -3.941110074520111084e-01 -6.245589852333068848e-01 -3.889323025941848755e-02 -1.990356743335723877e-01 3.266413807868957520e-01
4.326000000000000000e+03 2.465490150451660156e+01 -1.276398301124572754e-01 -5.535613894462585449e-01 1.995986327528953552e-03 -1.654696315526962280e-01 2.893308103084564209e-01
4.327000000000000000e+03 7.367520332336425781e+00 -2.086481475830078125e+01 9.427293844055384398e-05 -2.876228245440870523e-05 1.965319643204566091e-05 6.568613753188401461e-05
4.328000000000000000e+03 7.349953174591064453e+00 -2.163637161254882812e+01 2.489620819687843323e-04 -3.046034726139623672e-05 6.555052095791324973e-05 1.417622843291610479e-04
4.329000000000000000e+03 1.153321647644042969e+01 7.357618331909179688e+00 -6.565665006637573242e-01 -6.078410148620605469e-01 -3.793222606182098389e-01 5.994278192520141602e-01
4.330000000000000000e+03 1.012916278839111328e+01 8.371154785156250000e+00 -4.521293342113494873e-01 -4.695887863636016846e-01 -2.765154242515563965e-01 6.410059928894042969e-01
4.331000000000000000e+03 3.919935226440429688e+01 -1.302529335021972656e+01 -7.323146462440490723e-01 1.724073588848114014e-01 -1.679721921682357788e-01 1.256165355443954468e-01
4.332000000000000000e+03 4.049067687988281250e+01 -1.342825698852539062e+01 -7.619972229003906250e-01 1.617954969406127930e-01 -1.800605058670043945e-01 7.636436820030212402e-02
4.333000000000000000e+03 6.033485412597656250e+01 1.367645263671875000e+01 6.575932502746582031e-01 3.570684194564819336e+00 1.268483281135559082e+00 -7.045457959175109863e-01
4.334000000000000000e+03 4.357130432128906250e+01 -1.258175373077392578e+01 -8.767016530036926270e-01 1.701765805482864380e-01 -2.119575291872024536e-01 4.009522963315248489e-03
4.335000000000000000e+03 4.404073715209960938e+01 -1.178528594970703125e+01 -9.052960872650146484e-01 1.994609832763671875e-01 -2.117505222558975220e-01 2.108867466449737549e-02
4.336000000000000000e+03 3.717966842651367188e+01 1.759632682800292969e+01 3.038356006145477295e-01 7.430474162101745605e-01 3.140648901462554932e-01 1.814905554056167603e-01
4.337000000000000000e+03 3.822563934326171875e+01 1.793347358703613281e+01 3.213774263858795166e-01 8.775243759155273438e-01 3.596705496311187744e-01 1.742468923330307007e-01
4.338000000000000000e+03 7.055068016052246094e+00 -2.009167289733886719e+01 -4.112638271180912852e-05 -7.200272648333339021e-06 -1.449799674446694553e-05 3.483604359644232318e-06
4.339000000000000000e+03 4.066606140136718750e+01 6.846010208129882812e+00 -1.596244126558303833e-01 7.894254922866821289e-01 1.889403313398361206e-01 2.726503908634185791e-01
4.340000000000000000e+03 4.118914031982421875e+01 5.678975105285644531e+00 -2.218306809663772583e-01 6.948176026344299316e-01 1.418960690498352051e-01 2.193933576345443726e-01
4.341000000000000000e+03 2.700197601318359375e+01 -5.437618732452392578e+00 -7.920479178428649902e-01 -5.062833428382873535e-02 -2.528028786182403564e-01 4.666309654712677002e-01
4.342000000000000000e+03 2.714708328247070312e+01 -4.400500774383544922e+00 -7.803582549095153809e-01 -4.083360079675912857e-03 -2.353324890136718750e-01 4.217711687088012695e-01
4.343000000000000000e+03 2.754707145690917969e+01 1.522052955627441406e+01 -2.229642570018768311e-01 -4.531177878379821777e-01 -2.028246074914932251e-01 2.644719481468200684e-01
4.344000000000000000e+03 6.242809295654296875e+01 -3.755208969116210938e+00 -6.760040521621704102e-01 6.168998479843139648e-01 -1.773126795887947083e-02 -1.262876749038696289e+00
4.345000000000000000e+03 6.016536331176757812e+01 -3.014173507690429688e+00 -6.959831714630126953e-01 5.514077544212341309e-01 -4.337261617183685303e-02 -5.394639968872070312e-01
4.346000000000000000e+03 6.015458297729492188e+01 1.019530391693115234e+01 4.347835481166839600e-01 3.342698812484741211e+00 1.133244633674621582e+00 -7.719679474830627441e-01
4.347000000000000000e+03 7.368920898437500000e+01 -1.143880653381347656e+01 1.974152445793151855e+00 9.812961578369140625e+00 3.536134243011474609e+00 -2.213485538959503174e-01
4.348000000000000000e+03 6.339065933227539062e+01 -2.918897438049316406e+01 -4.383823275566101074e-01 3.530391693115234375e+00 9.276028275489807129e-01 6.436016559600830078e-01
4.349000000000000000e+03 9.575779914855957031e+00 -2.338036155700683594e+01 2.732906141318380833e-04 -1.901021460071206093e-04 2.495653643563855439e-05 1.720272703096270561e-04
4.350000000000000000e+03 7.200604915618896484e+00 -1.932377243041992188e+01 1.502452505519613624e-04 6.067132198950275779e-05 6.327497249003499746e-05 1.563458681630436331e-05
4.351000000000000000e+03 6.688395500183105469e+00 -1.752003097534179688e+01 -6.048013165127485991e-05 -3.040832416445482522e-05 -2.726653656281996518e-05 5.638178208755562082e-06
4.352000000000000000e+03 5.729124450683593750e+01 5.827393531799316406e+00 1.510557979345321655e-01 2.011003494262695312e+00 6.486177444458007812e-01 -2.096150070428848267e-01
4.353000000000000000e+03 8.776918411254882812e+00 6.329592227935791016e+00 -4.454081356525421143e-01 -2.800014615058898926e-01 -2.176228761672973633e-01 4.304359853267669678e-01
4.354000000000000000e+03 5.926840972900390625e+01 8.554720878601074219e+00 3.090862035751342773e-01 2.982129573822021484e+00 9.873647689819335938e-01 -6.594285368919372559e-01
4.355000000000000000e+03 5.992652130126953125e+01 9.091721534729003906e+00 3.546523749828338623e-01 3.182487726211547852e+00 1.061141967773437500e+00 -7.484365105628967285e-01
4.356000000000000000e+03 1.160469150543212891e+01 1.440017604827880859e+01 4.378308951854705811e-01 -5.819336771965026855e-01 -4.323083534836769104e-02 5.635427832603454590e-01
4.357000000000000000e+03 7.076589965820312500e+01 -5.223459720611572266e+00 -1.048663973808288574e+00 1.155847835540771484e+01 3.152944326400756836e+00 3.277969956398010254e-01
4.358000000000000000e+03 7.124521636962890625e+01 -5.986441612243652344e+00 -2.954067289829254150e-01 1.181527328491210938e+01 3.455960035324096680e+00 9.050604701042175293e-01
4.359000000000000000e+03 6.000863647460937500e+01 -3.585659742355346680e+00 -8.702002763748168945e-01 4.575605988502502441e-01 -1.237919107079505920e-01 -4.306361675262451172e-01
4.360000000000000000e+03 6.336940383911132812e+01 -3.313223361968994141e+00 -3.542393743991851807e-01 1.218316555023193359e+00 2.592231631278991699e-01 -1.929688930511474609e+00
4.361000000000000000e+03 3.978876495361328125e+01 2.074820899963378906e+01 2.643035948276519775e-01 1.003251194953918457e+00 3.802664577960968018e-01 2.221069633960723877e-01
4.362000000000000000e+03 3.174173355102539062e+01 -1.217881870269775391e+01 -5.546419024467468262e-01 4.584920406341552734e-02 -1.526378095149993896e-01 3.250485360622406006e-01
4.363000000000000000e+03 3.335165023803710938e+01 -1.181193256378173828e+01 -6.095488071441650391e-01 1.106491312384605408e-01 -1.496699154376983643e-01 3.026398718357086182e-01
4.364000000000000000e+03 2.616230583190917969e+01 -3.028723001480102539e+00 -7.708543539047241211e-01 -2.521844580769538879e-02 -2.388218492269515991e-01 3.856238126754760742e-01
4.365000000000000000e+03 2.657974433898925781e+01 -4.750324726104736328e+00 -8.060538768768310547e-01 -5.718339979648590088e-02 -2.589711844921112061e-01 4.555435478687286377e-01
4.366000000000000000e+03 4.808117675781250000e+01 2.433149099349975586e+00 -8.000052720308303833e-02 2.045232057571411133e-01 3.735680133104324341e-02 1.821815371513366699e-01
4.367000000000000000e+03 3.994246673583984375e+01 8.614656448364257812e+00 -1.033910736441612244e-02 9.061070680618286133e-01 2.687303721904754639e-01 3.762605786323547363e-01
4.368000000000000000e+03 3.803537750244140625e+01 1.223877620697021484e+01 2.804295122623443604e-01 7.978461980819702148e-01 3.234827220439910889e-01 4.172742366790771484e-01
4.369000000000000000e+03 5.088256072998046875e+01 1.635170102119445801e+00 -6.410022079944610596e-02 3.286063075065612793e-01 7.935182750225067139e-02 2.959357798099517822e-01
4.370000000000000000e+03 5.817645263671875000e+01 -2.197378635406494141e+00 -5.795010328292846680e-01 6.203961372375488281e-01 1.226853672415018082e-02 -1.780360341072082520e-01
4.371000000000000000e+03 2.631631851196289062e+01 9.984092712402343750e-01 -3.044762313365936279e-01 5.516130849719047546e-02 -7.479447871446609497e-02 1.941483318805694580e-01
4.372000000000000000e+03 2.682362365722656250e+01 2.679663658142089844e+00 -2.425725106149911880e-03 1.882139965891838074e-02 4.918701946735382080e-03 1.791460812091827393e-01
4.373000000000000000e+03 7.296938323974609375e+01 -1.357115459442138672e+01 1.638912677764892578e+00 1.072266006469726562e+01 3.708471775054931641e+00 -9.831395149230957031e-01
4.374000000000000000e+03 5.245780563354492188e+01 2.885225772857666016e+00 6.306297332048416138e-02 4.859973490238189697e-01 1.647180914878845215e-01 2.952982783317565918e-01
4.375000000000000000e+03 1.047225379943847656e+01 1.320236873626708984e+01 2.258142977952957153e-01 -6.289524435997009277e-01 -1.209414377808570862e-01 6.749068498611450195e-01
4.376000000000000000e+03 4.182056045532226562e+01 3.913433790206909180e+00 -2.759888172149658203e-01 5.581099390983581543e-01 8.463633060455322266e-02 1.845251619815826416e-01
4.377000000000000000e+03 4.136580276489257812e+01 5.122235298156738281e+00 -2.388810366392135620e-01 6.521371603012084961e-01 1.239768415689468384e-01 2.047304213047027588e-01
4.378000000000000000e+03 6.414531707763671875e+01 -2.732312583923339844e+01 -5.836024284362792969e-01 3.996244430541992188e+00 1.023792624473571777e+00 7.225923538208007812e-01
4.379000000000000000e+03 5.879307174682617188e+01 7.448106288909912109e+00 2.234124094247817993e-01 2.690847635269165039e+00 8.742780089378356934e-01 -5.565626025199890137e-01
4.380000000000000000e+03 5.959415817260742188e+01 7.388504028320312500e+00 2.474821805953979492e-01 2.863125085830688477e+00 9.331822395324707031e-01 -6.902031302452087402e-01
4.381000000000000000e+03 1.085710334777832031e+01 7.026602745056152344e+00 -5.994764566421508789e-01 -4.917313158512115479e-01 -3.273623287677764893e-01 5.542291402816772461e-01
4.382000000000000000e+03 4.190095520019531250e+01 2.226015853881835938e+01 2.867758572101593018e-01 1.049852252006530762e+00 4.009884297847747803e-01 3.212540745735168457e-01
4.383000000000000000e+03 3.757456207275390625e+01 1.334723567962646484e+01 3.067954480648040771e-01 7.594417929649353027e-01 3.198711872100830078e-01 3.691872954368591309e-01
4.384000000000000000e+03 3.785471725463867188e+01 1.492621612548828125e+01 3.542727828025817871e-01 8.072680234909057617e-01 3.484622240066528320e-01 2.843320965766906738e-01
4.385000000000000000e+03 3.706935882568359375e+01 1.258820247650146484e+01 2.435735315084457397e-01 6.662498712539672852e-01 2.729470133781433105e-01 4.204467236995697021e-01
4.386000000000000000e+03 7.124342346191406250e+01 -1.778994178771972656e+01 -1.796492636203765869e-01 1.075680637359619141e+01 3.173147201538085938e+00 -7.165324687957763672e-01
4.387000000000000000e+03 6.842433929443359375e+01 -4.100804328918457031e+00 -2.004236221313476562e+00 9.563032150268554688e+00 2.267638921737670898e+00 -2.525834321975708008e+00
4.388000000000000000e+03 2.058539772033691406e+01 2.229711341857910156e+01 2.846509218215942383e-01 -2.057408839464187622e-01 2.367301099002361298e-02 5.927494764328002930e-01
4.389000000000000000e+03 7.123539733886718750e+01 -6.738693237304687500e+00 4.383195638656616211e-01 1.202736949920654297e+01 3.739706754684448242e+00 1.051521539688110352e+00
4.390000000000000000e+03 6.510722351074218750e+01 -2.798459243774414062e+01 -6.070316433906555176e-01 4.609848022460937500e+00 1.200845003128051758e+00 6.770544648170471191e-01
4.391000000000000000e+03 1.143051910400390625e+01 1.371586608886718750e+01 3.560157418251037598e-01 -6.037849783897399902e-01 -7.433076947927474976e-02 6.347329616546630859e-01
4.392000000000000000e+03 6.848506450653076172e+00 -7.449134826660156250e+00 2.560999928391538560e-05 -6.915283393027493730e-06 5.608414539892692119e-06 2.704100552364252508e-06
4.393000000000000000e+03 5.579432678222656250e+01 5.215770244598388672e+00 1.409665942192077637e-01 1.474305748939514160e+00 4.845817089080810547e-01 8.337020874023437500e-02
4.394000000000000000e+03 5.684427261352539062e+01 4.817686080932617188e+00 1.292420625686645508e-01 1.694247007369995117e+00 5.470467209815979004e-01 -1.236247792840003967e-01
4.395000000000000000e+03 9.168351173400878906e+00 7.080312252044677734e+00 -4.609358608722686768e-01 -3.371019363403320312e-01 -2.394113391637802124e-01 5.053997635841369629e-01
4.396000000000000000e+03 1.014862537384033203e+01 6.694600105285644531e+00 -5.450574755668640137e-01 -4.076278507709503174e-01 -2.858056128025054932e-01 5.124082565307617188e-01
4.397000000000000000e+03 3.097555351257324219e+01 -9.927387237548828125e+00 -6.267183423042297363e-01 6.667463481426239014e-02 -1.680131107568740845e-01 3.896764218807220459e-01
4.398000000000000000e+03 3.060754776000976562e+01 -1.145419120788574219e+01 -5.558370351791381836e-01 1.258311141282320023e-02 -1.629761755466461182e-01 3.681754469871520996e-01
4.399000000000000000e+03 3.144266128540039062e+01 -1.024472522735595703e+01 -6.230202317237854004e-01 7.747564464807510376e-02 -1.636633723974227905e-01 3.731828331947326660e-01
4.400000000000000000e+03 3.869868850708007812e+01 1.171589469909667969e+01 2.601284682750701904e-01 8.664212226867675781e-01 3.379648923873901367e-01 4.279196262359619141e-01
4.401000000000000000e+03 4.082761383056640625e+01 -1.271803665161132812e+01 -7.871826887130737305e-01 1.839999407529830933e-01 -1.809548288583755493e-01 8.733586221933364868e-02
4.402000000000000000e+03 6.926801300048828125e+01 -1.963687324523925781e+01 -5.763250589370727539e-01 9.560546875000000000e+00 2.695266485214233398e+00 3.657416701316833496e-01
4.403000000000000000e+03 7.347837066650390625e+01 -1.958322143554687500e+01 -4.154269099235534668e-01 9.385453224182128906e+00 2.691007852554321289e+00 -1.307452559471130371e+00
4.404000000000000000e+03 7.225938415527343750e+01 -1.641812515258789062e+01 3.466912508010864258e-01 1.075994491577148438e+01 3.331990718841552734e+00 -1.171934247016906738e+00
4.405000000000000000e+03 7.172007751464843750e+01 -1.706840515136718750e+01 1.086154282093048096e-01 1.082398319244384766e+01 3.279779434204101562e+00 -9.939495325088500977e-01
4.406000000000000000e+03 2.510837364196777344e+01 -1.616893649101257324e+00 -7.165124416351318359e-01 -4.110114648938179016e-02 -2.272840738296508789e-01 3.443496227264404297e-01
4.407000000000000000e+03 8.232932090759277344e+00 -3.364320755004882812e+01 1.682562869973480701e-04 4.875691374763846397e-04 1.967476273421198130e-04 7.313165115192532539e-04
4.408000000000000000e+03 1.355012321472167969e+01 -2.860041236877441406e+01 9.889964712783694267e-04 -6.755664362572133541e-04 9.402901196153834462e-05 8.907502051442861557e-04
4.409000000000000000e+03 6.704531669616699219e+00 9.481757164001464844e+00 -1.779345124959945679e-01 -3.847416937351226807e-01 -1.688028573989868164e-01 5.140948295593261719e-01
4.410000000000000000e+03 7.503308773040771484e+00 6.545491218566894531e+00 -3.442422151565551758e-01 -2.330846190452575684e-01 -1.731980443000793457e-01 3.856292665004730225e-01
4.411000000000000000e+03 7.080453491210937500e+01 -1.855337524414062500e+01 -3.840575218200683594e-01 1.034521770477294922e+01 2.988348007202148438e+00 -4.676478505134582520e-01
4.412000000000000000e+03 2.887379837036132812e+01 6.835631370544433594e+00 2.377335429191589355e-01 -1.924184113740921021e-01 1.359453983604907990e-02 5.364542007446289062e-01
4.413000000000000000e+03 4.907355785369873047e+00 -7.158514976501464844e+00 2.136740295100025833e-05 8.628804607724305242e-06 8.998862540465779603e-06 -7.689768608543090522e-06
4.414000000000000000e+03 6.125953292846679688e+01 1.574481296539306641e+01 5.967093110084533691e-01 3.805446386337280273e+00 1.320646762847900391e+00 -6.187025308609008789e-01
4.415000000000000000e+03 2.759205627441406250e+01 -5.100657939910888672e+00 -7.694067358970642090e-01 5.054602865129709244e-03 -2.293056398630142212e-01 4.340128302574157715e-01
4.416000000000000000e+03 8.505900382995605469e+00 -6.991135597229003906e+00 2.199396931246155873e-07 -8.303823051392100751e-06 -2.425165121167083271e-06 6.007877345837187022e-06
4.417000000000000000e+03 6.890177154541015625e+01 -2.153563690185546875e+01 -8.370225429534912109e-01 8.409840583801269531e+00 2.271845340728759766e+00 3.794461190700531006e-01
4.418000000000000000e+03 6.990219879150390625e+01 -2.010870170593261719e+01 -7.010921239852905273e-01 9.449672698974609375e+00 2.624574184417724609e+00 -4.083057865500450134e-03
4.419000000000000000e+03 6.109867095947265625e+01 1.396062660217285156e+01 6.209242343902587891e-01 3.708071470260620117e+00 1.298698663711547852e+00 -7.138312458992004395e-01
4.420000000000000000e+03 6.027626037597656250e+01 1.733662223815917969e+01 5.335736870765686035e-01 3.714833736419677734e+00 1.274522304534912109e+00 -5.188622474670410156e-01
4.421000000000000000e+03 7.547595024108886719e+00 -6.951855182647705078e+00 2.664115891093388200e-05 -1.129099291574675590e-05 4.605049525707727298e-06 9.286482054449152201e-07
4.422000000000000000e+03 6.692111968994140625e+00 -8.097142219543457031e+00 -2.350811337237246335e-05 2.574637619545683265e-06 -6.280042725848034024e-06 1.542588421443724656e-07
4.423000000000000000e+03 8.221011161804199219e+00 -6.594827175140380859e+00 2.705407678149640560e-05 -4.507815447141183540e-06 6.763877991033950821e-06 -8.277201231976505369e-06
4.424000000000000000e+03 8.048031806945800781e+00 -7.049584388732910156e+00 -2.394859984633512795e-05 1.038850041368277743e-05 -4.068029738846234977e-06 1.438207505088939797e-06
4.425000000000000000e+03 2.781957817077636719e+01 1.788183021545410156e+01 1.277461796998977661e-01 -3.782845735549926758e-01 -7.516151666641235352e-02 2.258494943380355835e-01
4.426000000000000000e+03 2.926843643188476562e+01 1.987861824035644531e+01 2.621342241764068604e-01 -1.549806743860244751e-01 3.214606270194053650e-02 2.012954205274581909e-01
4.427000000000000000e+03 1.396804332733154297e+01 1.971896743774414062e+01 3.236118853092193604e-01 -1.333181560039520264e-01 5.708812177181243896e-02 2.530157268047332764e-01
4.428000000000000000e+03 1.473015117645263672e+01 2.009492111206054688e+01 2.799187898635864258e-01 -6.225802376866340637e-02 6.529822945594787598e-02 2.830937206745147705e-01
4.429000000000000000e+03 7.151088237762451172e+00 2.019372749328613281e+01 1.683879494667053223e-01 -7.778826355934143066e-01 -1.828484088182449341e-01 2.498039901256561279e-01
4.430000000000000000e+03 3.697270965576171875e+01 -1.111822319030761719e+01 -7.036753892898559570e-01 2.009303569793701172e-01 -1.508235186338424683e-01 2.343032211065292358e-01
4.431000000000000000e+03 3.394483947753906250e+01 -1.340846252441406250e+01 -5.755184292793273926e-01 9.265117347240447998e-02 -1.448601782321929932e-01 2.460652142763137817e-01
4.432000000000000000e+03 5.940797042846679688e+01 9.708552360534667969e+00 4.004011750221252441e-01 3.158234119415283203e+00 1.067590594291687012e+00 -6.975892186164855957e-01
4.433000000000000000e+03 1.678237152099609375e+01 -3.140252494812011719e+01 1.309694955125451088e-03 -5.430012824945151806e-04 2.300081105204299092e-04 1.713500940240919590e-03
4.434000000000000000e+03 5.864392471313476562e+01 1.867597198486328125e+01 4.086255431175231934e-01 3.492333412170410156e+00 1.170287728309631348e+00 -5.226792693138122559e-01
4.435000000000000000e+03 3.410050201416015625e+01 -1.182177162170410156e+01 -6.265127062797546387e-01 1.297443658113479614e-01 -1.490305066108703613e-01 2.839637994766235352e-01
4.436000000000000000e+03 1.657727241516113281e+01 -3.251353073120117188e+01 1.431871089152991772e-03 -4.308900097385048866e-04 3.002943412866443396e-04 1.308889710344374180e-03
4.437000000000000000e+03 1.449483299255371094e+01 -3.048958015441894531e+01 1.268296269699931145e-03 -6.949482485651969910e-04 1.720044092508032918e-04 1.171479350887238979e-03
4.438000000000000000e+03 1.528064823150634766e+01 -3.234695816040039062e+01 6.840170244686305523e-04 -5.676089785993099213e-04 3.492242467473261058e-05 1.806594664230942726e-03
4.439000000000000000e+03 5.757052230834960938e+01 -3.286673736572265625e+01 4.249386861920356750e-02 9.709142446517944336e-01 3.040224313735961914e-01 1.781789362430572510e-01
4.440000000000000000e+03 7.354432678222656250e+01 -3.413820266723632812e+01 -1.271977722644805908e-01 8.089641571044921875e+00 2.388733148574829102e+00 2.389489673078060150e-02
4.441000000000000000e+03 7.142094421386718750e+01 -3.621667480468750000e+01 -6.795261055231094360e-02 7.199635982513427734e+00 2.139504909515380859e+00 1.418710350990295410e-01
4.442000000000000000e+03 1.754233169555664062e+01 2.315788650512695312e+01 1.795577406883239746e-01 -1.039840877056121826e-01 2.267209626734256744e-02 4.695385992527008057e-01
4.443000000000000000e+03 4.195580673217773438e+01 2.344288635253906250e+01 3.439507484436035156e-01 1.001804113388061523e+00 4.037264585494995117e-01 3.147124946117401123e-01
4.444000000000000000e+03 7.267311096191406250e+01 2.908571815490722656e+01 7.851308584213256836e-02 5.836396217346191406e+00 1.774472713470458984e+00 -2.532621920108795166e-01
4.445000000000000000e+03 4.099895095825195312e+01 2.077876853942871094e+01 2.454592883586883545e-01 1.097918629646301270e+00 4.030133783817291260e-01 2.740665972232818604e-01
4.446000000000000000e+03 7.255632781982421875e+01 2.789729690551757812e+01 8.223831653594970703e-02 5.851493358612060547e+00 1.780119538307189941e+00 -2.764666974544525146e-01
4.447000000000000000e+03 7.248535156250000000e+01 -3.506857299804687500e+01 -1.202069744467735291e-01 7.664990425109863281e+00 2.263435125350952148e+00 8.672126382589340210e-02
4.448000000000000000e+03 8.519801139831542969e+00 3.330061721801757812e+01 3.680173680186271667e-02 -8.796052932739257812e-01 -2.528410553932189941e-01 8.484235405921936035e-02
4.449000000000000000e+03 2.651976966857910156e+01 2.166361236572265625e+01 3.761343061923980713e-01 -3.252982795238494873e-01 1.525081042200326920e-02 3.426423072814941406e-01
4.450000000000000000e+03 3.670709609985351562e+01 1.634235191345214844e+01 3.040516078472137451e-01 6.691614985466003418e-01 2.919639348983764648e-01 2.299919128417968750e-01
4.451000000000000000e+03 2.253478431701660156e+01 2.443063735961914062e+01 3.371647298336029053e-01 -2.471259683370590210e-01 2.701162733137607574e-02 4.924466609954833984e-01
4.452000000000000000e+03 2.449130439758300781e+01 2.101591682434082031e+01 3.776721358299255371e-01 -4.320299625396728516e-01 -1.630734652280807495e-02 4.682441651821136475e-01
4.453000000000000000e+03 6.862161254882812500e+01 3.508083343505859375e+01 1.592643409967422485e-01 5.062151432037353516e+00 1.566424727439880371e+00 -2.158790677785873413e-01
4.454000000000000000e+03 7.090050506591796875e+01 3.571921539306640625e+01 1.126100420951843262e-01 5.394449710845947266e+00 1.652117967605590820e+00 -1.472445279359817505e-01
4.455000000000000000e+03 4.854733657836914062e+01 2.709133529663085938e+01 6.898366212844848633e-01 1.319729089736938477e+00 6.028697490692138672e-01 -4.938723891973495483e-02
4.456000000000000000e+03 4.603342819213867188e+01 2.578006362915039062e+01 6.043180823326110840e-01 1.086421132087707520e+00 5.072217583656311035e-01 1.822871714830398560e-01
4.457000000000000000e+03 5.936437225341796875e+01 1.897379493713378906e+01 4.139237701892852783e-01 3.594367027282714844e+00 1.202487230300903320e+00 -5.036459565162658691e-01
4.458000000000000000e+03 5.137573242187500000e+01 2.643331527709960938e+01 6.728777289390563965e-01 1.651409149169921875e+00 6.972860693931579590e-01 -2.927466332912445068e-01
4.459000000000000000e+03 5.745167541503906250e+01 2.341981887817382812e+01 3.399304151535034180e-01 3.037384271621704102e+00 1.013194441795349121e+00 -6.041148304939270020e-01
4.460000000000000000e+03 5.819396209716796875e+01 2.489176559448242188e+01 3.628965020179748535e-01 3.201546669006347656e+00 1.069332957267761230e+00 -5.568659305572509766e-01
4.461000000000000000e+03 5.567481613159179688e+01 2.525297355651855469e+01 4.628288745880126953e-01 2.558875799179077148e+00 9.065114259719848633e-01 -5.626033544540405273e-01
4.462000000000000000e+03 6.722955322265625000e+01 4.078194808959960938e+01 2.030111700296401978e-01 4.790832996368408203e+00 1.498153209686279297e+00 -4.654721543192863464e-02
4.463000000000000000e+03 1.118916320800781250e+01 3.899995422363281250e+01 6.895381957292556763e-02 -7.278668880462646484e-01 -1.976739168167114258e-01 4.839500039815902710e-02
4.464000000000000000e+03 6.953465270996093750e+01 3.302827835083007812e+01 1.391482949256896973e-01 5.242084026336669922e+00 1.614369750022888184e+00 -2.353915721178054810e-01
4.465000000000000000e+03 4.368564605712890625e+01 2.619976806640625000e+01 5.143324136734008789e-01 1.004962921142578125e+00 4.557885825634002686e-01 2.431492805480957031e-01
4.466000000000000000e+03 4.471653366088867188e+01 2.494755172729492188e+01 5.143128037452697754e-01 1.017099380493164062e+00 4.594236612319946289e-01 2.789433896541595459e-01
4.467000000000000000e+03 1.425318241119384766e+01 -3.832672119140625000e+01 -1.641978975385427475e-03 9.857109980657696724e-04 -1.968804135685786605e-04 1.002618693746626377e-03
4.468000000000000000e+03 5.144061279296875000e+01 2.358879661560058594e+01 6.616111397743225098e-01 1.379112601280212402e+00 6.122171282768249512e-01 -3.905775547027587891e-01
4.469000000000000000e+03 6.289126968383789062e+01 -3.459273910522460938e+01 7.295448333024978638e-02 3.262054204940795898e+00 1.000502586364746094e+00 3.973298370838165283e-01
4.470000000000000000e+03 6.132006454467773438e+01 -3.153205490112304688e+01 -1.303105205297470093e-01 2.349775314331054688e+00 6.658394336700439453e-01 4.789293408393859863e-01
4.471000000000000000e+03 3.189703178405761719e+01 9.400026321411132812e+00 2.210824936628341675e-02 8.139810711145401001e-02 3.105190768837928772e-02 6.224283576011657715e-01
4.472000000000000000e+03 4.718363189697265625e+01 -9.211880683898925781e+00 -1.040236115455627441e+00 2.619514465332031250e-01 -2.334854006767272949e-01 3.052916750311851501e-02
4.473000000000000000e+03 7.255377960205078125e+01 -6.333517074584960938e+00 2.932102680206298828e-01 1.070659732818603516e+01 3.299942255020141602e+00 1.433682560920715332e+00
4.474000000000000000e+03 4.894749450683593750e+01 -9.751849174499511719e+00 -1.163927793502807617e+00 2.224406152963638306e-01 -2.824461460113525391e-01 -6.497313827276229858e-02
4.475000000000000000e+03 4.802988433837890625e+01 -9.481130599975585938e+00 -1.097419977188110352e+00 2.452641278505325317e-01 -2.556467652320861816e-01 -1.200988702476024628e-02
4.476000000000000000e+03 5.916840362548828125e+01 -4.001323223114013672e+00 -1.062194466590881348e+00 3.690330684185028076e-01 -2.079484015703201294e-01 -2.694037556648254395e-01
4.477000000000000000e+03 5.763922119140625000e+01 -4.064952373504638672e+00 -1.118876695632934570e+00 3.959435820579528809e-01 -2.168799489736557007e-01 -6.362844258546829224e-02
4.478000000000000000e+03 5.983553314208984375e+01 8.024183273315429688e+00 2.729980647563934326e-01 3.009993076324462891e+00 9.848973155021667480e-01 -7.249564528465270996e-01
4.479000000000000000e+03 4.955329513549804688e+01 -9.436410903930664062e+00 -1.193713426589965820e+00 2.305736839771270752e-01 -2.889419198036193848e-01 -7.296964526176452637e-02
4.480000000000000000e+03 4.860722732543945312e+01 -9.188392639160156250e+00 -1.120352864265441895e+00 2.527774870395660400e-01 -2.602726221084594727e-01 -1.734502054750919342e-02
4.481000000000000000e+03 7.248925781250000000e+01 -7.981271743774414062e+00 1.603752613067626953e+00 1.093539333343505859e+01 3.761743783950805664e+00 1.207384705543518066e+00
4.482000000000000000e+03 7.194313812255859375e+01 -6.592785358428955078e+00 4.032736420631408691e-01 1.146929931640625000e+01 3.561771869659423828e+00 1.253156304359436035e+00
4.483000000000000000e+03 3.914395904541015625e+01 -1.142489433288574219e+01 -7.530472874641418457e-01 2.155526131391525269e-01 -1.612484008073806763e-01 1.728525757789611816e-01
4.484000000000000000e+03 7.013436889648437500e+01 -4.930912017822265625e+00 -1.473699331283569336e+00 1.141998100280761719e+01 2.983884334564208984e+00 -4.191545546054840088e-01
4.485000000000000000e+03 6.909132385253906250e+01 -3.126023292541503906e+00 -1.884997963905334473e+00 9.234365463256835938e+00 2.204810142517089844e+00 -1.789186835289001465e+00
4.486000000000000000e+03 5.469738769531250000e+01 -5.545555114746093750e+00 -1.288402676582336426e+00 3.291682898998260498e-01 -2.877703011035919189e-01 6.049919873476028442e-02
4.487000000000000000e+03 5.245880889892578125e+01 -6.085797786712646484e+00 -1.189756751060485840e+00 3.251252174377441406e-01 -2.593894302845001221e-01 9.623071551322937012e-02
4.488000000000000000e+03 1.055313491821289062e+01 7.734524726867675781e+00 -5.357066392898559570e-01 -4.805485606193542480e-01 -3.048765659332275391e-01 6.144715547561645508e-01
4.489000000000000000e+03 1.066018772125244141e+01 -2.567547225952148438e+01 4.356935096438974142e-04 -7.692683720961213112e-05 1.076300031854771078e-04 3.027761413250118494e-04
4.490000000000000000e+03 1.029715156555175781e+01 -2.352589607238769531e+01 5.208853981457650661e-04 6.450976798078045249e-06 1.582009135745465755e-04 1.375447754980996251e-05
4.491000000000000000e+03 3.863398361206054688e+01 9.450602531433105469e+00 7.696127891540527344e-02 7.895542979240417480e-01 2.599546611309051514e-01 4.612145125865936279e-01
4.492000000000000000e+03 2.983558464050292969e+01 -7.637325763702392578e+00 -6.959383487701416016e-01 6.773001700639724731e-02 -1.884624958038330078e-01 4.268742203712463379e-01
4.493000000000000000e+03 2.940405082702636719e+01 -7.027765750885009766e+00 -7.110929489135742188e-01 5.893805623054504395e-02 -1.956464648246765137e-01 4.311097860336303711e-01
4.494000000000000000e+03 5.016280364990234375e+01 -9.099370002746582031e+00 -1.240264534950256348e+00 2.314606755971908569e-01 -3.026411831378936768e-01 -6.991395354270935059e-02
4.495000000000000000e+03 9.683963775634765625e+00 -7.424308776855468750e+00 -3.675263997138245031e-06 -4.185253146715695038e-06 -2.358155143156182021e-06 -1.293453806283650920e-05
4.496000000000000000e+03 3.236954116821289062e+01 -9.941658020019531250e+00 -6.475595831871032715e-01 1.222060918807983398e-01 -1.576060354709625244e-01 3.565380573272705078e-01
4.497000000000000000e+03 3.267380523681640625e+01 -1.172643089294433594e+01 -5.989229679107666016e-01 9.212861210107803345e-02 -1.520383059978485107e-01 3.171855807304382324e-01
4.498000000000000000e+03 7.412581920623779297e+00 1.881612586975097656e+01 2.054408341646194458e-01 -7.510247826576232910e-01 -1.636751890182495117e-01 3.061537146568298340e-01
4.499000000000000000e+03 5.461543655395507812e+01 3.517064332962036133e+00 9.352968633174896240e-02 9.462467432022094727e-01 3.119329214096069336e-01 2.059559077024459839e-01
4.500000000000000000e+03 2.717153167724609375e+01 -3.366296768188476562e+00 -7.392548322677612305e-01 2.711018547415733337e-02 -2.136434018611907959e-01 3.744198381900787354e-01
4.501000000000000000e+03 2.666292762756347656e+01 -3.718980789184570312e+00 -7.778241038322448730e-01 -1.489727944135665894e-02 -2.378164231777191162e-01 4.061198234558105469e-01
4.502000000000000000e+03 4.551567840576171875e+01 -1.191866779327392578e+01 -9.649608135223388672e-01 1.803804785013198853e-01 -2.353740930557250977e-01 -4.909253120422363281e-02
4.503000000000000000e+03 4.250111007690429688e+01 -1.176285934448242188e+01 -8.472862839698791504e-01 2.080600410699844360e-01 -1.917678713798522949e-01 6.841572374105453491e-02
4.504000000000000000e+03 4.450897979736328125e+01 3.451354503631591797e+00 -1.970879733562469482e-01 3.800255358219146729e-01 5.488126352429389954e-02 7.584361732006072998e-02
4.505000000000000000e+03 6.905863952636718750e+01 -2.257053947448730469e+01 -9.194317460060119629e-01 8.074986457824707031e+00 2.146666288375854492e+00 2.764738500118255615e-01
4.506000000000000000e+03 7.276526641845703125e+01 -2.410733604431152344e+01 -7.288895845413208008e-01 8.697349548339843750e+00 2.390538215637207031e+00 -6.801110506057739258e-01
4.507000000000000000e+03 6.276751041412353516e+00 -7.277767658233642578e+00 -2.596959348011296242e-05 2.264641096871855552e-07 -7.722938789811450988e-06 5.428687018138589337e-06
4.508000000000000000e+03 4.189762878417968750e+01 -1.232860088348388672e+01 -8.264781236648559570e-01 1.948596239089965820e-01 -1.894855499267578125e-01 7.078383117914199829e-02
4.509000000000000000e+03 4.463693237304687500e+01 -1.152015972137451172e+01 -9.319122433662414551e-01 2.054129540920257568e-01 -2.179497778415679932e-01 2.780468435958027840e-03
4.510000000000000000e+03 6.632930278778076172e+00 2.069449615478515625e+01 1.401741951704025269e-01 -8.162310123443603516e-01 -2.028170377016067505e-01 2.270335704088211060e-01
4.511000000000000000e+03 7.288230419158935547e+00 2.518850517272949219e+01 6.826895475387573242e-02 -8.300378918647766113e-01 -2.285306751728057861e-01 1.425497382879257202e-01
4.512000000000000000e+03 7.353786468505859375e+01 -2.486379814147949219e+01 -6.282210350036621094e-01 8.687221527099609375e+00 2.417700052261352539e+00 -6.890336275100708008e-01
4.513000000000000000e+03 6.906721591949462891e+00 -2.194919776916503906e+01 7.451236888300627470e-05 4.021300628664903343e-05 3.441761145950295031e-05 -8.869833982316777110e-05
4.514000000000000000e+03 3.885136413574218750e+01 -1.209104919433593750e+01 -7.377187013626098633e-01 1.957527101039886475e-01 -1.625898033380508423e-01 1.620072573423385620e-01
4.515000000000000000e+03 7.343445587158203125e+01 -2.405868911743164062e+01 -6.435220837593078613e-01 8.769263267517089844e+00 2.437722444534301758e+00 -7.748675346374511719e-01
4.516000000000000000e+03 7.252970123291015625e+01 -2.272898101806640625e+01 -7.602773308753967285e-01 8.909818649291992188e+00 2.444862365722656250e+00 -7.945461869239807129e-01
4.517000000000000000e+03 7.221434783935546875e+01 2.341611289978027344e+01 1.049830168485641479e-01 5.928278923034667969e+00 1.809978604316711426e+00 -3.694726824760437012e-01
4.518000000000000000e+03 7.376470184326171875e+01 1.656768226623535156e+01 7.895654439926147461e-02 6.531309127807617188e+00 1.983079671859741211e+00 -4.758188128471374512e-01
4.519000000000000000e+03 3.021055984497070312e+01 -8.186572074890136719e+00 -6.782712340354919434e-01 7.291353493928909302e-02 -1.816073060035705566e-01 4.190735220909118652e-01
4.520000000000000000e+03 6.314678668975830078e+00 7.979043006896972656e+00 -2.308329194784164429e-01 -2.808422744274139404e-01 -1.535025537014007568e-01 4.105169177055358887e-01
4.521000000000000000e+03 7.360979461669921875e+01 1.810020828247070312e+01 8.775666356086730957e-02 6.405752182006835938e+00 1.948052644729614258e+00 -4.449211061000823975e-01
4.522000000000000000e+03 5.206293487548828125e+01 -5.435390472412109375e+00 -1.078220367431640625e+00 3.392282724380493164e-01 -2.216976433992385864e-01 1.610565185546875000e-01
4.523000000000000000e+03 5.028087997436523438e+01 1.590116143226623535e+00 -8.197394013404846191e-02 2.860074341297149658e-01 6.121004745364189148e-02 2.870436012744903564e-01
4.524000000000000000e+03 6.861751079559326172e+00 2.476114463806152344e+01 6.768587231636047363e-02 -8.574687242507934570e-01 -2.369348555803298950e-01 1.423584222793579102e-01
4.525000000000000000e+03 7.765605926513671875e+00 1.189083099365234375e+01 -3.842439968138933182e-03 -5.483441948890686035e-01 -1.656559854745864868e-01 6.161841750144958496e-01
4.526000000000000000e+03 3.821651840209960938e+01 -1.182840442657470703e+01 -7.241795659065246582e-01 1.981938779354095459e-01 -1.577957123517990112e-01 1.858967542648315430e-01
4.527000000000000000e+03 3.788514328002929688e+01 -1.253302669525146484e+01 -7.042395472526550293e-01 1.765731126070022583e-01 -1.582999378442764282e-01 1.749355942010879517e-01
4.528000000000000000e+03 6.300547122955322266e+00 -2.473974227905273438e+01 4.690727655543014407e-05 -6.856934305687900633e-06 1.201510258397320285e-05 2.114060625899583101e-04
4.529000000000000000e+03 6.859863281250000000e+00 -2.385058784484863281e+01 5.534183583222329617e-05 -3.491959432722069323e-05 6.126671451056608930e-06 1.633939100429415703e-04
4.530000000000000000e+03 7.331828308105468750e+01 7.462860107421875000e+00 -2.201552093029022217e-01 7.121067047119140625e+00 2.070273637771606445e+00 -5.750051736831665039e-01
4.531000000000000000e+03 7.278697967529296875e+01 2.674464797973632812e+01 8.170362561941146851e-02 5.925172328948974609e+00 1.802062749862670898e+00 -2.880885899066925049e-01
4.532000000000000000e+03 7.226016998291015625e+01 2.555952453613281250e+01 9.843225777149200439e-02 5.885446548461914062e+00 1.795163631439208984e+00 -3.260341584682464600e-01
4.533000000000000000e+03 7.352694702148437500e+01 1.890064620971679688e+01 9.266397356986999512e-02 6.360125064849853516e+00 1.935836672782897949e+00 -4.277375936508178711e-01
4.534000000000000000e+03 7.227181243896484375e+01 1.452192783355712891e+01 8.660674095153808594e-02 6.304550647735595703e+00 1.917347192764282227e+00 -6.069197654724121094e-01
4.535000000000000000e+03 7.417202758789062500e+01 -1.510428333282470703e+01 7.399449944496154785e-01 9.484649658203125000e+00 3.067378520965576172e+00 -1.392137289047241211e+00
4.536000000000000000e+03 7.377611541748046875e+01 1.124206161499023438e+01 -1.170315872877836227e-02 6.876742839813232422e+00 2.059511899948120117e+00 -5.629976391792297363e-01
4.537000000000000000e+03 7.374713897705078125e+01 1.206732082366943359e+01 1.134600769728422165e-02 6.813556671142578125e+00 2.047470808029174805e+00 -5.568647384643554688e-01
4.538000000000000000e+03 7.265747070312500000e+01 9.716753959655761719e+00 -8.538801968097686768e-02 6.727538108825683594e+00 1.992645025253295898e+00 -6.672465205192565918e-01
4.539000000000000000e+03 1.025741195678710938e+01 1.523684501647949219e+01 3.715235590934753418e-01 -6.279629468917846680e-01 -7.693182677030563354e-02 5.216018557548522949e-01
4.540000000000000000e+03 7.263545036315917969e+00 1.509460163116455078e+01 1.730428934097290039e-01 -6.868916153907775879e-01 -1.541546136140823364e-01 4.866843223571777344e-01
4.541000000000000000e+03 7.298599243164062500e+01 1.250052094459533691e+00 -9.280473589897155762e-01 8.158390045166015625e+00 2.169102907180786133e+00 -1.937224417924880981e-01
4.542000000000000000e+03 7.361764526367187500e+01 1.228813409805297852e+00 -8.182793855667114258e-01 8.243500709533691406e+00 2.227566480636596680e+00 1.815735176205635071e-02
4.543000000000000000e+03 7.389262390136718750e+01 -1.903900027275085449e+00 -9.299808144569396973e-01 8.969058990478515625e+00 2.411723613739013672e+00 6.804727911949157715e-01
4.544000000000000000e+03 7.331212615966796875e+01 -1.650357627868652344e+01 3.084769546985626221e-01 1.003646850585937500e+01 3.103483676910400391e+00 -1.422828912734985352e+00
4.545000000000000000e+03 7.235529327392578125e+01 2.234392356872558594e+01 1.036998182535171509e-01 5.989344596862792969e+00 1.827913284301757812e+00 -3.942997455596923828e-01
4.546000000000000000e+03 7.369085693359375000e+01 1.735486984252929688e+01 8.139599114656448364e-02 6.471814155578613281e+00 1.965963006019592285e+00 -4.660472869873046875e-01
4.547000000000000000e+03 7.226883697509765625e+01 1.831315994262695312e+01 1.218428611755371094e-01 6.119353771209716797e+00 1.872358918190002441e+00 -5.009766221046447754e-01
4.548000000000000000e+03 7.316437530517578125e+01 1.043226528167724609e+01 -4.597054794430732727e-02 6.780051231384277344e+00 2.020224332809448242e+00 -6.218973994255065918e-01
4.549000000000000000e+03 6.071565628051757812e+00 -1.727211380004882812e+01 1.740164589136838913e-05 9.540376049699261785e-05 3.384162118891254067e-05 -2.706234226934611797e-05
4.550000000000000000e+03 7.316477203369140625e+01 -7.575616359710693359e+00 1.111330509185791016e+00 1.030758285522460938e+01 3.425673961639404297e+00 1.386424183845520020e+00
4.551000000000000000e+03 7.355635070800781250e+01 -8.187535285949707031e+00 1.376169204711914062e+00 9.878454208374023438e+00 3.376386880874633789e+00 1.216694235801696777e+00
4.552000000000000000e+03 7.417349243164062500e+01 4.434398651123046875e+00 -4.221751391887664795e-01 7.704720973968505859e+00 2.184763908386230469e+00 -2.884331047534942627e-01
4.553000000000000000e+03 7.326151275634765625e+01 3.283073902130126953e+00 -6.165277361869812012e-01 7.735918521881103516e+00 2.135817289352416992e+00 -3.306952714920043945e-01
4.554000000000000000e+03 7.343106842041015625e+01 -6.569518089294433594e+00 4.572344720363616943e-01 1.000054454803466797e+01 3.137333631515502930e+00 1.504626393318176270e+00
4.555000000000000000e+03 7.364635467529296875e+01 -5.596086025238037109e+00 -5.374787747859954834e-02 9.762000083923339844e+00 2.912475585937500000e+00 1.465835690498352051e+00
4.556000000000000000e+03 7.347148895263671875e+01 -1.392881584167480469e+01 1.304028034210205078e+00 1.009755992889404297e+01 3.420476436614990234e+00 -1.197194814682006836e+00
4.557000000000000000e+03 7.330461120605468750e+01 -4.997485160827636719e+00 -3.960911929607391357e-01 9.977261543273925781e+00 2.874351024627685547e+00 1.313174128532409668e+00
4.558000000000000000e+03 7.410353851318359375e+01 -1.763228607177734375e+01 3.339074319228529930e-03 9.430518150329589844e+00 2.830157279968261719e+00 -1.491983652114868164e+00
4.559000000000000000e+03 7.303942108154296875e+01 -1.902136039733886719e+01 -3.586406111717224121e-01 9.632864952087402344e+00 2.782267332077026367e+00 -1.288748145103454590e+00
4.560000000000000000e+03 7.286975860595703125e+01 -1.249360847473144531e+01 2.128193616867065430e+00 1.075937557220458984e+01 3.866270780563354492e+00 -6.449833512306213379e-01
4.561000000000000000e+03 7.308428955078125000e+01 -3.368358373641967773e+00 -9.930916428565979004e-01 9.599509239196777344e+00 2.581925392150878906e+00 8.398060202598571777e-01
4.562000000000000000e+03 7.412593078613281250e+01 5.183444499969482422e+00 -3.550608158111572266e-01 7.589350223541259766e+00 2.170286893844604492e+00 -3.603143990039825439e-01
4.563000000000000000e+03 7.249079132080078125e+01 5.391456604003906250e+00 -4.326902329921722412e-01 7.200951099395751953e+00 2.030478239059448242e+00 -6.088090538978576660e-01
4.564000000000000000e+03 7.342613220214843750e+01 -9.277022361755371094e+00 1.944203734397888184e+00 1.006097221374511719e+01 3.601552724838256836e+00 7.813107967376708984e-01
4.565000000000000000e+03 7.303825378417968750e+01 -1.636587232351303101e-01 -1.064732432365417480e+00 8.549225807189941406e+00 2.245347976684570312e+00 6.528420746326446533e-02
4.566000000000000000e+03 6.173794269561767578e+00 1.838117599487304688e+01 1.577265411615371704e-01 -8.062038421630859375e-01 -1.945431977510452271e-01 3.073183894157409668e-01
4.567000000000000000e+03 7.357069396972656250e+01 -1.363870143890380859e+00 -1.011555552482604980e+00 8.860418319702148438e+00 2.354658842086791992e+00 4.845222532749176025e-01
4.568000000000000000e+03 7.369462585449218750e+01 -2.904061317443847656e+00 -9.068457484245300293e-01 9.260377883911132812e+00 2.506059408187866211e+00 8.590738177299499512e-01
4.569000000000000000e+03 7.303342437744140625e+01 2.234043598175048828e+00 -7.776611447334289551e-01 7.908029079437255859e+00 2.139110326766967773e+00 -2.895756065845489502e-01
4.570000000000000000e+03 7.327816772460937500e+01 -7.948098182678222656e-01 -1.061774611473083496e+00 8.767338752746582031e+00 2.311669349670410156e+00 2.559818029403686523e-01
4.571000000000000000e+03 7.229357910156250000e+01 -4.874929904937744141e+00 -7.481293678283691406e-01 1.061850070953369141e+01 2.961111307144165039e+00 9.834564328193664551e-01
4.572000000000000000e+03 7.332285308837890625e+01 4.305940628051757812e+00 -5.075677633285522461e-01 7.551270484924316406e+00 2.113110780715942383e+00 -4.241895675659179688e-01
4.573000000000000000e+03 7.264993286132812500e+01 2.802468061447143555e+00 -7.462624907493591309e-01 7.710431098937988281e+00 2.089250564575195312e+00 -4.157566130161285400e-01
4.574000000000000000e+03 7.316635894775390625e+01 6.129459381103515625e+00 -3.221248984336853027e-01 7.235639572143554688e+00 2.074054479598999023e+00 -5.443361997604370117e-01
4.575000000000000000e+03 7.289225769042968750e+01 4.839137554168701172e+00 -4.888915121555328369e-01 7.363594055175781250e+00 2.062410831451416016e+00 -5.301094651222229004e-01
4.576000000000000000e+03 5.393471908569335938e+01 -6.855958938598632812e+00 -1.447769165039062500e+00 2.743794620037078857e-01 -3.520168960094451904e-01 -3.549999743700027466e-02
4.577000000000000000e+03 6.568677902221679688e+00 -1.831665420532226562e+01 9.875663090497255325e-05 7.459950575139373541e-05 5.200683881412260234e-05 9.377883543493226171e-06
4.578000000000000000e+03 7.320731353759765625e+01 1.458059692382812500e+01 7.534009963274002075e-02 6.516083717346191406e+00 1.977427124977111816e+00 -5.402548909187316895e-01
4.579000000000000000e+03 5.689857006072998047e+00 -1.031313610076904297e+01 -2.178482463932596147e-05 -2.955936906801071018e-05 -1.540325865789782256e-05 3.355925855430541560e-06
4.580000000000000000e+03 6.697279453277587891e+00 1.981148147583007812e+01 1.582285016775131226e-01 -8.003224730491638184e-01 -1.926281899213790894e-01 2.580084204673767090e-01
4.581000000000000000e+03 6.321825027465820312e+00 1.943104553222656250e+01 1.491816788911819458e-01 -8.177492022514343262e-01 -2.005702555179595947e-01 2.646820247173309326e-01
4.582000000000000000e+03 7.378918457031250000e+01 1.287719249725341797e+01 2.656558714807033539e-02 6.760230541229248047e+00 2.036038875579833984e+00 -5.482082962989807129e-01
4.583000000000000000e+03 7.215899467468261719e+00 1.374622249603271484e+01 1.123120784759521484e-01 -6.360787749290466309e-01 -1.571300029754638672e-01 5.464156866073608398e-01
4.584000000000000000e+03 6.611385345458984375e+00 1.626483535766601562e+01 1.761844158172607422e-01 -7.340469360351562500e-01 -1.673587560653686523e-01 4.147961139678955078e-01
4.585000000000000000e+03 6.819700717926025391e+00 1.855487442016601562e+01 1.856276988983154297e-01 -7.782016992568969727e-01 -1.777722090482711792e-01 3.094180524349212646e-01
4.586000000000000000e+03 6.513289928436279297e+00 1.043704986572265625e+01 -1.112572252750396729e-01 -4.436231255531311035e-01 -1.664641052484512329e-01 5.317596793174743652e-01
4.587000000000000000e+03 6.906002044677734375e+00 1.095073127746582031e+01 -8.209523558616638184e-02 -4.785554707050323486e-01 -1.681952178478240967e-01 5.634664297103881836e-01
4.588000000000000000e+03 5.794813156127929688e+00 -1.934686279296875000e+01 1.068708152160979807e-04 3.228429341106675565e-05 4.174653440713882446e-05 3.006783299497328699e-05
4.589000000000000000e+03 7.597180366516113281e+00 2.720558357238769531e+01 4.919651895761489868e-02 -8.338280916213989258e-01 -2.353894710540771484e-01 1.281243711709976196e-01
4.590000000000000000e+03 6.524448871612548828e+00 2.801554679870605469e+01 3.324254974722862244e-02 -9.403524398803710938e-01 -2.721329629421234131e-01 1.006401702761650085e-01
4.591000000000000000e+03 7.299301624298095703e+00 9.038768768310546875e+00 -2.324672341346740723e-01 -3.672045171260833740e-01 -1.799015253782272339e-01 5.333711504936218262e-01
4.592000000000000000e+03 7.521572113037109375e+00 1.239873027801513672e+01 2.930134721100330353e-02 -5.707485079765319824e-01 -1.624341607093811035e-01 5.940157771110534668e-01
4.593000000000000000e+03 6.602956771850585938e+00 1.192679786682128906e+01 -1.186744496226310730e-02 -5.357908606529235840e-01 -1.642974913120269775e-01 5.501148700714111328e-01
4.594000000000000000e+03 5.819891452789306641e+00 -1.800451278686523438e+01 -9.250961738871410489e-06 -4.257399268681183457e-05 -1.554748632770497352e-05 1.228303699463140219e-05
4.595000000000000000e+03 6.394361495971679688e+00 -9.458528518676757812e+00 -1.352118852082639933e-05 -2.145763210137374699e-05 -1.049364618666004390e-05 3.166626584061305039e-06
4.596000000000000000e+03 7.367998123168945312e+00 -8.755974769592285156e+00 -2.606100861157756299e-05 1.269114636670565233e-05 -4.010958946309983730e-06 1.852040554695122410e-06
4.597000000000000000e+03 6.613957405090332031e+00 1.678367042541503906e+01 1.761540174484252930e-01 -7.493183612823486328e-01 -1.719493120908737183e-01 3.875919878482818604e-01
4.598000000000000000e+03 7.068508625030517578e+00 1.800607872009277344e+01 1.948040276765823364e-01 -7.573109269142150879e-01 -1.687520742416381836e-01 3.371834754943847656e-01
4.599000000000000000e+03 1.030447769165039062e+01 1.261095523834228516e+01 1.360610723495483398e-01 -6.115594506263732910e-01 -1.426495164632797241e-01 7.018640041351318359e-01
4.600000000000000000e+03 6.856494426727294922e+00 1.253122043609619141e+01 2.828953228890895844e-02 -5.757631659507751465e-01 -1.642420887947082520e-01 5.585680007934570312e-01
4.601000000000000000e+03 6.550748348236083984e+00 -1.018194293975830078e+01 -2.840561501216143370e-05 -1.558272015245165676e-05 -1.319650073128286749e-05 4.446040748007362708e-06
4.602000000000000000e+03 7.612141609191894531e+00 7.201396942138671875e+00 -3.390263319015502930e-01 -2.659552097320556641e-01 -1.814944595098495483e-01 4.310159087181091309e-01
4.603000000000000000e+03 7.294407653808593750e+01 1.128495311737060547e+01 -2.295212820172309875e-03 6.655225753784179688e+00 1.995879173278808594e+00 -6.241168379783630371e-01
4.604000000000000000e+03 6.089535236358642578e+00 -8.976863861083984375e+00 7.074033419485203922e-06 2.175473855459131300e-05 8.648631592222955078e-06 -4.027568138553760946e-06
4.605000000000000000e+03 7.378826618194580078e+00 -8.153026580810546875e+00 2.097259675792884082e-05 -6.797319656470790505e-06 4.252583039487944916e-06 -1.368118319078348577e-06
4.606000000000000000e+03 7.277172088623046875e+01 -2.486472129821777344e+01 -7.067738771438598633e-01 8.576141357421875000e+00 2.360810041427612305e+00 -5.921397209167480469e-01
4.607000000000000000e+03 6.919926166534423828e+00 2.564525222778320312e+01 6.027023866772651672e-02 -8.693471550941467285e-01 -2.427230775356292725e-01 1.314938515424728394e-01
4.608000000000000000e+03 7.268534088134765625e+01 1.909729957580566406e+01 1.088568940758705139e-01 6.179924964904785156e+00 1.886634588241577148e+00 -4.650762379169464111e-01
4.609000000000000000e+03 6.461378574371337891e+00 -2.561991882324218750e+01 3.892057866323739290e-04 8.759328193264082074e-05 1.430397242074832320e-04 2.199888549512252212e-04
4.610000000000000000e+03 7.730064868927001953e+00 -2.456091499328613281e+01 1.234114606631919742e-04 -8.050395990721881390e-05 1.287224858970148489e-05 1.566825085319578648e-04
4.611000000000000000e+03 5.098894882202148438e+01 -7.806847095489501953e+00 -1.234126925468444824e+00 2.784023582935333252e-01 -2.867173552513122559e-01 -6.266818963922560215e-04
4.612000000000000000e+03 7.095607757568359375e+01 2.595133590698242188e+01 1.227745860815048218e-01 5.642783641815185547e+00 1.729667544364929199e+00 -3.519729971885681152e-01
4.613000000000000000e+03 7.507528305053710938e+00 2.569721031188964844e+01 6.628034263849258423e-02 -8.184688687324523926e-01 -2.256565541028976440e-01 1.403862684965133667e-01
4.614000000000000000e+03 6.753007888793945312e+00 2.630596160888671875e+01 4.999643936753273010e-02 -8.929669260978698730e-01 -2.528911232948303223e-01 1.225546747446060181e-01
4.615000000000000000e+03 3.807083892822265625e+01 1.063855171203613281e+01 1.647013574838638306e-01 7.523648142814636230e-01 2.751198709011077881e-01 4.711641371250152588e-01
4.616000000000000000e+03 3.019774246215820312e+01 1.141365337371826172e+01 -1.430380791425704956e-01 -5.118091404438018799e-02 -5.826569721102714539e-02 5.924606323242187500e-01
4.617000000000000000e+03 3.038750648498535156e+01 1.031169605255126953e+01 -5.276887863874435425e-02 -5.300653725862503052e-02 -3.173262625932693481e-02 6.407752633094787598e-01
4.618000000000000000e+03 7.486466884613037109e+00 2.428594970703125000e+01 8.350090682506561279e-02 -7.965058684349060059e-01 -2.139014899730682373e-01 1.590349972248077393e-01
4.619000000000000000e+03 6.638036727905273438e+00 -2.653436088562011719e+01 9.795289952307939529e-05 -7.382895091723185033e-06 2.717099960136692971e-05 3.114946593996137381e-04
4.620000000000000000e+03 7.441857814788818359e+00 -2.941866302490234375e+01 4.853401042055338621e-04 1.459618797525763512e-04 1.893905864562839270e-04 5.900510586798191071e-04
4.621000000000000000e+03 7.263983917236328125e+01 -2.569229316711425781e+01 -6.962240934371948242e-01 8.416527748107910156e+00 2.316091060638427734e+00 -4.839577376842498779e-01
4.622000000000000000e+03 7.896323204040527344e+00 -1.005427074432373047e+01 2.933237919933162630e-05 -4.829860245081363246e-06 7.350755367951933295e-06 8.863278821991116274e-07
4.623000000000000000e+03 6.617087554931640625e+01 -2.935933351516723633e+00 -9.988014101982116699e-01 4.939772605895996094e+00 1.182291269302368164e+00 -3.208411455154418945e+00
4.624000000000000000e+03 6.601325988769531250e+01 -2.191066741943359375e+00 -8.305178284645080566e-01 4.787890911102294922e+00 1.187211871147155762e+00 -2.886935234069824219e+00
4.625000000000000000e+03 8.831902503967285156e+00 -2.321736717224121094e+01 3.832610091194510460e-04 5.066437006462365389e-05 1.301776210311800241e-04 5.332412183634005487e-05
4.626000000000000000e+03 7.305197906494140625e+01 -2.827785682678222656e+01 -4.876694381237030029e-01 8.258164405822753906e+00 2.331148624420166016e+00 -2.845614850521087646e-01
4.627000000000000000e+03 7.346483612060546875e+01 -2.750221824645996094e+01 -4.987677335739135742e-01 8.474880218505859375e+00 2.392833709716796875e+00 -4.002498686313629150e-01
4.628000000000000000e+03 8.506763458251953125e+00 -2.526410484313964844e+01 1.749098737491294742e-04 -5.795964170829392970e-05 3.508506779326125979e-05 2.678579476196318865e-04
4.629000000000000000e+03 7.567161083221435547e+00 2.819938087463378906e+01 4.327439516782760620e-02 -8.587744235992431641e-01 -2.446500211954116821e-01 1.204096078872680664e-01
4.630000000000000000e+03 2.562926101684570312e+01 8.981151580810546875e-01 -3.473567366600036621e-01 5.995970219373703003e-02 -8.621910959482192993e-02 2.032039165496826172e-01
4.631000000000000000e+03 2.955806159973144531e+01 1.343400192260742188e+01 -2.212985455989837646e-01 -1.159119307994842529e-01 -1.011631414294242859e-01 4.209375381469726562e-01
4.632000000000000000e+03 2.936327934265136719e+01 1.272524356842041016e+01 -2.496078312397003174e-01 -1.407194584608078003e-01 -1.170981898903846741e-01 4.836238324642181396e-01
4.633000000000000000e+03 3.114001083374023438e+01 9.816946029663085938e+00 -6.344158668071031570e-03 1.352360751479864120e-02 2.153834560886025429e-03 6.330869197845458984e-01
4.634000000000000000e+03 3.160844612121582031e+01 1.049841499328613281e+01 -2.597345411777496338e-02 7.649675756692886353e-02 1.515698991715908051e-02 6.070359349250793457e-01
4.635000000000000000e+03 6.939861297607421875e+01 -2.084459114074707031e+01 -7.948524951934814453e-01 8.973919868469238281e+00 2.453720092773437500e+00 2.046298235654830933e-01
4.636000000000000000e+03 6.882836151123046875e+01 -2.337650489807128906e+01 -9.338365197181701660e-01 7.727576732635498047e+00 2.038122177124023438e+00 3.001811802387237549e-01
4.637000000000000000e+03 2.801303672790527344e+01 2.225594043731689453e+00 -8.916254341602325439e-02 1.203506719321012497e-02 -2.313824370503425598e-02 2.154571861028671265e-01
4.638000000000000000e+03 2.695734786987304688e+01 1.827211141586303711e+00 -1.527816802263259888e-01 3.800779953598976135e-02 -3.443216532468795776e-02 1.808711737394332886e-01
4.639000000000000000e+03 4.088639068603515625e+01 4.317247390747070312e+00 -2.688417434692382812e-01 5.929482579231262207e-01 9.723194688558578491e-02 2.427017986774444580e-01
4.640000000000000000e+03 4.111457824707031250e+01 3.679034233093261719e+00 -2.961823344230651855e-01 5.498600602149963379e-01 7.610332965850830078e-02 2.294788956642150879e-01
4.641000000000000000e+03 5.733963012695312500e+01 -5.391535758972167969e+00 -1.536354422569274902e+00 2.625608146190643311e-01 -3.821380734443664551e-01 -1.136768832802772522e-01
4.642000000000000000e+03 5.573617553710937500e+01 -5.681500911712646484e+00 -1.416563868522644043e+00 3.031942844390869141e-01 -3.340108990669250488e-01 -1.122290827333927155e-02
4.643000000000000000e+03 4.754689025878906250e+01 1.422853112220764160e+00 -1.745033711194992065e-01 2.468287795782089233e-01 2.169762551784515381e-02 2.042330801486968994e-01
4.644000000000000000e+03 8.596138954162597656e+00 -2.242876434326171875e+01 1.274419773835688829e-04 -3.718510924954898655e-05 2.707705971261020750e-05 7.874325092416256666e-05
4.645000000000000000e+03 8.175156593322753906e+00 -2.175611686706542969e+01 2.327282563783228397e-04 -1.809487912396434695e-05 6.439001299440860748e-05 7.533284224336966872e-05
4.646000000000000000e+03 2.860846519470214844e+01 5.046619892120361328e+00 2.234869897365570068e-01 -1.300640404224395752e-01 2.802688255906105042e-02 3.822959661483764648e-01
4.647000000000000000e+03 2.935021018981933594e+01 5.450806140899658203e+00 1.902040690183639526e-01 -1.257716566324234009e-01 1.932972483336925507e-02 4.476671814918518066e-01
4.648000000000000000e+03 6.193860626220703125e+01 1.398012161254882812e+01 5.786380171775817871e-01 3.851892709732055664e+00 1.329159259796142578e+00 -7.514064311981201172e-01
4.649000000000000000e+03 3.735118103027343750e+01 1.144860744476318359e+01 1.981779187917709351e-01 6.845529079437255859e-01 2.648192644119262695e-01 4.655793011188507080e-01
4.650000000000000000e+03 3.813677978515625000e+01 1.112860774993896484e+01 2.026280164718627930e-01 7.799456715583801270e-01 2.947720885276794434e-01 4.552519321441650391e-01
4.651000000000000000e+03 5.896249008178710938e+01 -4.607581138610839844e+00 -1.357952117919921875e+00 2.932026386260986328e-01 -3.194248378276824951e-01 -2.297710478305816650e-01
4.652000000000000000e+03 5.234917068481445312e+01 1.711453318595886230e+00 -4.673372954130172729e-02 4.543876051902770996e-01 1.222961619496345520e-01 2.986708283424377441e-01
4.653000000000000000e+03 4.224185943603515625e+01 -1.097852993011474609e+01 -8.463013768196105957e-01 2.311026901006698608e-01 -1.845596134662628174e-01 1.030533239245414734e-01
4.654000000000000000e+03 5.810026931762695312e+01 5.898394584655761719e+00 1.695807427167892456e-01 2.260041236877441406e+00 7.288866043090820312e-01 -3.948409259319305420e-01
4.655000000000000000e+03 5.875827407836914062e+01 6.703475952148437500e+00 1.988410204648971558e-01 2.554755926132202148e+00 8.260790705680847168e-01 -5.229133963584899902e-01
4.656000000000000000e+03 3.993177032470703125e+01 4.759497642517089844e+00 -2.457524389028549194e-01 6.055582165718078613e-01 1.079417243599891663e-01 3.052902221679687500e-01
4.657000000000000000e+03 1.098580837249755859e+01 1.516152667999267578e+01 4.312103092670440674e-01 -6.028138995170593262e-01 -5.148107931017875671e-02 5.133223533630371094e-01
4.658000000000000000e+03 1.082645416259765625e+01 1.449749088287353516e+01 3.759234547615051270e-01 -6.150528788566589355e-01 -7.173882424831390381e-02 5.773850679397583008e-01
4.659000000000000000e+03 3.950334930419921875e+01 -1.230961227416992188e+01 -7.531835436820983887e-01 1.946541070938110352e-01 -1.675588339567184448e-01 1.388797610998153687e-01
4.660000000000000000e+03 7.750206470489501953e+00 -3.211577224731445312e+01 -1.100686567951925099e-04 1.995425554923713207e-04 2.684216815396212041e-05 7.876359159126877785e-04
4.661000000000000000e+03 1.149955654144287109e+01 -3.054569625854492188e+01 4.555706400424242020e-04 -3.180303247063420713e-05 1.271302899112924933e-04 8.908722666092216969e-04
4.662000000000000000e+03 2.626073074340820312e+01 -2.007770776748657227e+00 -6.933349370956420898e-01 1.033287215977907181e-02 -2.049006223678588867e-01 3.297668993473052979e-01
4.663000000000000000e+03 5.464940261840820312e+01 4.410651683807373047e+00 1.353947967290878296e-01 1.045987367630004883e+00 3.544146418571472168e-01 2.174526154994964600e-01
4.664000000000000000e+03 7.286400604248046875e+01 -1.589138984680175781e+01 5.666771531105041504e-01 1.047643852233886719e+01 3.312934637069702148e+00 -1.348063111305236816e+00
4.665000000000000000e+03 7.059249877929687500e+00 -2.120636749267578125e+01 -2.925760236394125968e-05 5.350575156626291573e-05 7.274444669747026637e-06 -3.681556700030341744e-05
4.666000000000000000e+03 5.621126556396484375e+01 4.493446350097656250e+00 1.159237548708915710e-01 1.471893310546875000e+00 4.763451218605041504e-01 -1.029296033084392548e-02
4.667000000000000000e+03 5.629498291015625000e+01 -5.288828849792480469e+00 -1.402917742729187012e+00 3.134568035602569580e-01 -3.268383145332336426e-01 -1.023575291037559509e-02
4.668000000000000000e+03 5.932934570312500000e+01 -3.417087316513061523e+00 -8.944047689437866211e-01 4.736755490303039551e-01 -1.262187659740447998e-01 -3.304965794086456299e-01
4.669000000000000000e+03 2.974550247192382812e+01 7.254971981048583984e+00 1.600978225469589233e-01 -1.358739435672760010e-01 7.267163135111331940e-03 5.834141969680786133e-01
4.670000000000000000e+03 3.085265922546386719e+01 9.101173400878906250e+00 3.059848025441169739e-02 -2.624154463410377502e-02 1.307080616243183613e-03 6.424886584281921387e-01
4.671000000000000000e+03 7.310397624969482422e+00 1.146919250488281250e+01 -4.556637629866600037e-02 -5.194542407989501953e-01 -1.695061773061752319e-01 5.950018763542175293e-01
4.672000000000000000e+03 1.004954624176025391e+01 1.123133182525634766e+01 -6.578013300895690918e-02 -5.707193613052368164e-01 -1.909498572349548340e-01 7.279197573661804199e-01
4.673000000000000000e+03 6.180718612670898438e+01 -2.785142421722412109e+00 -4.287323653697967529e-01 9.130066633224487305e-01 1.452822834253311157e-01 -1.117692112922668457e+00
4.674000000000000000e+03 6.103739166259765625e+01 -2.570009708404541016e+00 -4.760946929454803467e-01 7.787720561027526855e-01 9.080321341753005981e-02 -8.436790704727172852e-01
4.675000000000000000e+03 7.568021774291992188e+00 -2.372936439514160156e+01 3.638826310634613037e-04 5.350824358174577355e-05 1.252172514796257019e-04 1.436505117453634739e-04
4.676000000000000000e+03 6.091238784790039062e+01 1.230722427368164062e+01 5.662660002708435059e-01 3.609461307525634766e+00 1.252718210220336914e+00 -7.846526503562927246e-01
4.677000000000000000e+03 3.059350204467773438e+01 7.698192119598388672e+00 1.016726642847061157e-01 -6.317555904388427734e-02 1.154913194477558136e-02 6.083125472068786621e-01
4.678000000000000000e+03 6.749952697753906250e+01 -2.729737758636474609e+00 -1.495438933372497559e+00 7.028157234191894531e+00 1.659815549850463867e+00 -2.852522850036621094e+00
4.679000000000000000e+03 6.682854461669921875e+01 -2.825726270675659180e+00 -1.234017848968505859e+00 6.062673568725585938e+00 1.448596835136413574e+00 -3.049227476119995117e+00
4.680000000000000000e+03 7.349311828613281250e+00 -2.299846839904785156e+01 9.277160279452800751e-05 -6.075325654819607735e-05 9.605502782505936921e-06 9.234641038347035646e-05
4.681000000000000000e+03 2.582554244995117188e+01 1.887258142232894897e-01 -4.481901228427886963e-01 4.712473973631858826e-02 -1.203196197748184204e-01 2.298422902822494507e-01
4.682000000000000000e+03 2.834935569763183594e+01 3.096011638641357422e+00 3.185147419571876526e-02 -2.913107164204120636e-02 8.161206496879458427e-04 2.538128793239593506e-01
4.683000000000000000e+03 1.247587490081787109e+01 -2.828667831420898438e+01 8.913410711102187634e-04 -7.485240348614752293e-05 2.449465973768383265e-04 4.494228633120656013e-04
4.684000000000000000e+03 7.626930713653564453e+00 -2.736790275573730469e+01 2.290430275024846196e-04 -9.048731590155512094e-05 4.156671639066189528e-05 4.049836134072393179e-04
4.685000000000000000e+03 5.141539382934570312e+01 1.436139225959777832e+00 -9.342791140079498291e-02 3.613625764846801758e-01 8.038039505481719971e-02 3.010929524898529053e-01
4.686000000000000000e+03 7.602667331695556641e+00 1.550629711151123047e+01 2.068295180797576904e-01 -6.947472691535949707e-01 -1.463753283023834229e-01 4.786466360092163086e-01
4.687000000000000000e+03 3.458382034301757812e+01 -1.326610660552978516e+01 -5.947916507720947266e-01 1.092792972922325134e-01 -1.456536948680877686e-01 2.354191392660140991e-01
4.688000000000000000e+03 2.666020584106445312e+01 -2.727680683135986328e+00 -7.294812202453613281e-01 1.271593105047941208e-02 -2.150295823812484741e-01 3.563730716705322266e-01
4.689000000000000000e+03 6.108783340454101562e+01 1.482282352447509766e+01 6.261681914329528809e-01 3.738428354263305664e+00 1.309378981590270996e+00 -6.741183400154113770e-01
4.690000000000000000e+03 1.247414207458496094e+01 1.919492912292480469e+01 3.740904331207275391e-01 -3.324750363826751709e-01 1.248462591320276260e-02 2.462251931428909302e-01
4.691000000000000000e+03 3.704720687866210938e+01 1.566384887695312500e+01 3.075607120990753174e-01 7.053166031837463379e-01 3.038631975650787354e-01 2.561963796615600586e-01
4.692000000000000000e+03 3.672011184692382812e+01 1.444849967956542969e+01 2.937200069427490234e-01 6.553409695625305176e-01 2.847182750701904297e-01 3.216839432716369629e-01
4.693000000000000000e+03 6.271909332275390625e+01 -2.236610889434814453e+00 -2.246165573596954346e-01 1.479206085205078125e+00 3.763768672943115234e-01 -1.606679320335388184e+00
4.694000000000000000e+03 2.992384147644042969e+01 1.910910415649414062e+01 2.161345183849334717e-01 -1.058187410235404968e-01 3.309473395347595215e-02 1.864098906517028809e-01
4.695000000000000000e+03 1.679481315612792969e+01 2.228291702270507812e+01 1.677767932415008545e-01 -6.230311840772628784e-02 3.164210170507431030e-02 4.369032680988311768e-01
4.696000000000000000e+03 1.422365570068359375e+01 2.090798759460449219e+01 2.327414155006408691e-01 -1.480019539594650269e-01 2.542183920741081238e-02 2.807080149650573730e-01
4.697000000000000000e+03 7.182015991210937500e+01 -5.971718311309814453e+00 -1.522057950496673584e-01 1.129729175567626953e+01 3.343525648117065430e+00 1.116770505905151367e+00
4.698000000000000000e+03 7.133444213867187500e+01 -5.310843944549560547e+00 -8.158663511276245117e-01 1.122317695617675781e+01 3.122193098068237305e+00 6.366801857948303223e-01
4.699000000000000000e+03 4.006107711791992188e+01 7.000746726989746094e+00 -1.443152725696563721e-01 7.733464837074279785e-01 1.887093633413314819e-01 3.292119204998016357e-01
4.700000000000000000e+03 3.978387451171875000e+01 5.496095657348632812e+00 -2.184523642063140869e-01 6.441310644149780273e-01 1.277036219835281372e-01 3.228144943714141846e-01
4.701000000000000000e+03 5.509340286254882812e+01 3.814323902130126953e+00 1.067392230033874512e-01 1.093528389930725098e+00 3.600802719593048096e-01 1.522665917873382568e-01
4.702000000000000000e+03 8.538743972778320312e+00 6.804109573364257812e+00 -4.153445363044738770e-01 -2.881031334400177002e-01 -2.110342979431152344e-01 4.528527259826660156e-01
4.703000000000000000e+03 9.834781646728515625e+00 7.374389171600341797e+00 -4.954236447811126709e-01 -3.970921337604522705e-01 -2.677547335624694824e-01 5.518137216567993164e-01
4.704000000000000000e+03 8.412267684936523438e+00 8.122587203979492188e+00 -3.522383570671081543e-01 -3.439449071884155273e-01 -2.088549733161926270e-01 5.395626425743103027e-01
4.705000000000000000e+03 1.043421363830566406e+01 -2.971432304382324219e+01 6.391130154952406883e-04 -1.849348045652732253e-04 1.362534530926495790e-04 6.681325612589716911e-04
4.706000000000000000e+03 1.485186100006103516e+01 2.143427467346191406e+01 2.047400921583175659e-01 -1.141023561358451843e-01 2.719131857156753540e-02 3.134585320949554443e-01
4.707000000000000000e+03 1.320762348175048828e+01 1.943276405334472656e+01 3.539285957813262939e-01 -2.349963039159774780e-01 3.567969053983688354e-02 2.347700744867324829e-01
4.708000000000000000e+03 6.961285591125488281e+00 7.537588119506835938e+00 -2.892823219299316406e-01 -2.690525352954864502e-01 -1.675004661083221436e-01 4.233487248420715332e-01
4.709000000000000000e+03 8.660186767578125000e+00 -8.854546546936035156e+00 -2.250861325592268258e-05 9.009321729536168277e-06 -4.049787094118073583e-06 -3.208153884770581499e-06
4.710000000000000000e+03 9.217735290527343750e+00 -8.140836715698242188e+00 -7.562675818917341530e-06 6.640675564995035529e-06 -2.766001330201106612e-07 -1.504092324466910213e-05
4.711000000000000000e+03 7.267947387695312500e+01 -2.753209304809570312e+01 -5.766108632087707520e-01 8.195268630981445312e+00 2.285597324371337891e+00 -3.229160308837890625e-01
4.712000000000000000e+03 7.150124359130859375e+01 -3.381694412231445312e+01 -2.013860642910003662e-01 7.329940795898437500e+00 2.138566493988037109e+00 1.034705191850662231e-01
4.713000000000000000e+03 6.651576995849609375e+01 -2.696514701843261719e+01 -7.449703812599182129e-01 5.563756942749023438e+00 1.445636034011840820e+00 6.052697300910949707e-01
4.714000000000000000e+03 3.539875793457031250e+01 -1.350053787231445312e+01 -6.144144535064697266e-01 1.230426654219627380e-01 -1.474115401506423950e-01 2.129532545804977417e-01
4.715000000000000000e+03 4.671728515625000000e+01 1.859578371047973633e+00 -1.681361347436904907e-01 2.551825940608978271e-01 2.611394040286540985e-02 1.640392988920211792e-01
4.716000000000000000e+03 2.840123558044433594e+01 -7.272222995758056641e+00 -7.176440954208374023e-01 -4.380759317427873611e-03 -2.166074514389038086e-01 4.619799554347991943e-01
4.717000000000000000e+03 7.274976348876953125e+01 -3.299650192260742188e+01 -2.135426998138427734e-01 7.878487586975097656e+00 2.299483299255371094e+00 1.171504333615303040e-02
4.718000000000000000e+03 7.270503234863281250e+01 -2.999291992187500000e+01 -4.066458344459533691e-01 8.029307365417480469e+00 2.286798477172851562e+00 -1.443708539009094238e-01
4.719000000000000000e+03 9.693880081176757812e+00 -3.074337959289550781e+01 2.685187209863215685e-04 -1.014565896184649318e-05 7.751192606519907713e-05 7.997152861207723618e-04
4.720000000000000000e+03 6.029448699951171875e+01 7.501361846923828125e+00 2.558545768260955811e-01 3.041902780532836914e+00 9.893271923065185547e-01 -8.047627806663513184e-01
4.721000000000000000e+03 7.037118530273437500e+01 -1.933662414550781250e+01 -5.813694596290588379e-01 9.994223594665527344e+00 2.823856115341186523e+00 -2.358310222625732422e-01
4.722000000000000000e+03 1.207987117767333984e+01 -2.937061500549316406e+01 8.938590763136744499e-04 -4.934515454806387424e-04 1.201222621602937579e-04 7.765860063955187798e-04
4.723000000000000000e+03 2.566822624206542969e+01 -2.289313554763793945e+00 -7.452388405799865723e-01 -3.089619241654872894e-02 -2.328405082225799561e-01 3.618930280208587646e-01
4.724000000000000000e+03 6.628228759765625000e+01 -2.829216957092285156e+01 -6.294035911560058594e-01 5.296877861022949219e+00 1.400242328643798828e+00 5.560134053230285645e-01
4.725000000000000000e+03 4.848189544677734375e+01 1.471933245658874512e+00 -1.408316493034362793e-01 2.358855158090591431e-01 2.851616032421588898e-02 2.302879393100738525e-01
4.726000000000000000e+03 5.001559066772460938e+01 7.970718741416931152e-01 -1.864156424999237061e-01 2.958130538463592529e-01 3.281922265887260437e-02 2.896937131881713867e-01
4.727000000000000000e+03 1.394797992706298828e+01 -3.189539146423339844e+01 6.367953610606491566e-04 -5.869549568160437047e-05 1.734299585223197937e-04 1.020315801724791527e-03
4.728000000000000000e+03 6.385030746459960938e+01 -3.270296859741210938e+01 -1.217359602451324463e-01 3.824614286422729492e+00 1.110863447189331055e+00 4.846349954605102539e-01
4.729000000000000000e+03 4.120861434936523438e+01 -1.194930934906005859e+01 -8.078519701957702637e-01 2.058863341808319092e-01 -1.805896908044815063e-01 1.016144827008247375e-01
4.730000000000000000e+03 8.017199516296386719e+00 -8.192011833190917969e+00 -2.131991459464188665e-05 8.719386642042081803e-06 -3.780158522204146720e-06 6.299444521573605016e-07
4.731000000000000000e+03 6.621790409088134766e+00 2.166151618957519531e+01 1.214950978755950928e-01 -8.316064476966857910e-01 -2.130334079265594482e-01 1.966387480497360229e-01
4.732000000000000000e+03 4.477330017089843750e+01 2.734513759613037109e+00 -2.135245054960250854e-01 3.520461618900299072e-01 4.155649244785308838e-02 1.085070818662643433e-01
4.733000000000000000e+03 2.606791877746582031e+01 -1.243777990341186523e+00 -6.296575069427490234e-01 1.622431911528110504e-02 -1.840299516916275024e-01 2.946890592575073242e-01
4.734000000000000000e+03 2.542964935302734375e+01 -5.517041683197021484e-01 -5.681473016738891602e-01 1.851200126111507416e-02 -1.648906022310256958e-01 2.750332951545715332e-01
4.735000000000000000e+03 7.689941406250000000e+00 2.152070617675781250e+01 1.504868119955062866e-01 -7.536292672157287598e-01 -1.809427291154861450e-01 2.119991183280944824e-01
4.736000000000000000e+03 1.118615341186523438e+01 1.771215629577636719e+01 4.218733012676239014e-01 -5.118572711944580078e-01 -2.699518762528896332e-02 3.274969756603240967e-01
4.737000000000000000e+03 3.056911468505859375e+01 -8.679980278015136719e+00 -6.666463613510131836e-01 7.762160152196884155e-02 -1.767074316740036011e-01 4.098886847496032715e-01
4.738000000000000000e+03 9.727568626403808594e+00 9.955349922180175781e+00 -2.362357527017593384e-01 -5.021241307258605957e-01 -2.215079665184020996e-01 6.957746148109436035e-01
4.739000000000000000e+03 7.351365661621093750e+01 -2.043318176269531250e+01 -5.277264714241027832e-01 9.285672187805175781e+00 2.627383708953857422e+00 -1.241521239280700684e+00
4.740000000000000000e+03 3.083148193359375000e+01 2.173089408874511719e+01 3.313859403133392334e-01 4.841363057494163513e-02 1.139398738741874695e-01 1.880809515714645386e-01
4.741000000000000000e+03 2.784386634826660156e+01 2.114802169799804688e+01 3.405109941959381104e-01 -2.371406853199005127e-01 3.101109713315963745e-02 2.606348991394042969e-01
4.742000000000000000e+03 7.304278564453125000e+01 -2.182085227966308594e+01 -6.966299414634704590e-01 9.101471900939941406e+00 2.521452426910400391e+00 -9.836463332176208496e-01
4.743000000000000000e+03 4.279476928710937500e+01 3.541524171829223633e+00 -2.644477188587188721e-01 5.002909898757934570e-01 7.075298577547073364e-02 1.370998919010162354e-01
4.744000000000000000e+03 4.328396606445312500e+01 2.145438432693481445e+00 -3.035720288753509521e-01 4.225966632366180420e-01 3.570739552378654480e-02 1.642411202192306519e-01
4.745000000000000000e+03 5.916387939453125000e+01 1.681889152526855469e+01 6.173297166824340820e-01 3.545819044113159180e+00 1.248944640159606934e+00 -5.192832350730895996e-01
4.746000000000000000e+03 7.001134490966796875e+01 -2.137750625610351562e+01 -8.632969260215759277e-01 8.881763458251953125e+00 2.405539751052856445e+00 -7.301866263151168823e-02
4.747000000000000000e+03 7.234318542480468750e+01 -2.168509101867675781e+01 -7.686076760292053223e-01 9.111751556396484375e+00 2.502943038940429688e+00 -8.378174901008605957e-01
4.748000000000000000e+03 3.235747909545898438e+01 -1.089029312133789062e+01 -6.181974411010742188e-01 9.750077128410339355e-02 -1.562089920043945312e-01 3.441154956817626953e-01
4.749000000000000000e+03 3.343468856811523438e+01 -1.102705478668212891e+01 -6.324736475944519043e-01 1.272497624158859253e-01 -1.515671610832214355e-01 3.147706687450408936e-01
4.750000000000000000e+03 2.843271827697753906e+01 1.904737281799316406e+01 2.202128916978836060e-01 -2.599350810050964355e-01 -1.191666070371866226e-02 2.144367247819900513e-01
4.751000000000000000e+03 6.131085205078125000e+01 1.168139266967773438e+01 5.208057165145874023e-01 3.648388385772705078e+00 1.250758290290832520e+00 -8.363108038902282715e-01
4.752000000000000000e+03 7.130067443847656250e+01 2.767396545410156250e+01 1.063310950994491577e-01 5.659464359283447266e+00 1.729738712310791016e+00 -3.068767488002777100e-01
4.753000000000000000e+03 5.937977600097656250e+01 2.031384468078613281e+01 3.442212343215942383e-01 3.568448305130004883e+00 1.173800826072692871e+00 -5.372432470321655273e-01
4.754000000000000000e+03 9.137494087219238281e+00 -7.468335151672363281e+00 -1.703581347101135179e-06 -9.641028952955821296e-08 -5.399974725150968879e-07 1.185795281344326213e-05
4.755000000000000000e+03 4.745154190063476562e+01 -9.747652053833007812e+00 -1.064053058624267578e+00 2.456001043319702148e-01 -2.455358803272247314e-01 -1.110835559666156769e-02
4.756000000000000000e+03 1.153987216949462891e+01 -2.778678894042968750e+01 8.754239534027874470e-04 -4.318001738283783197e-04 1.330871455138549209e-04 4.689312772825360298e-04
4.757000000000000000e+03 8.781419754028320312e+00 -3.159943771362304688e+01 4.480222123675048351e-04 1.954999024746939540e-04 1.930566359078511596e-04 7.983585819602012634e-04
4.758000000000000000e+03 3.771907424926757812e+01 1.906268119812011719e+01 2.929359078407287598e-01 8.063538670539855957e-01 3.297869265079498291e-01 1.611807644367218018e-01
4.759000000000000000e+03 7.230541992187500000e+01 3.074129104614257812e+01 8.231910318136215210e-02 5.733736515045166016e+00 1.744816780090332031e+00 -2.265841960906982422e-01
4.760000000000000000e+03 7.041934967041015625e+01 2.900585746765136719e+01 1.182297691702842712e-01 5.472961425781250000e+00 1.677357435226440430e+00 -3.098902106285095215e-01
4.761000000000000000e+03 4.378676605224609375e+01 2.399608039855957031e+01 4.368469715118408203e-01 1.003264546394348145e+00 4.320334494113922119e-01 3.365560472011566162e-01
4.762000000000000000e+03 4.258433532714843750e+01 2.480439186096191406e+01 4.240382611751556396e-01 9.837636947631835938e-01 4.223405718803405762e-01 2.903336882591247559e-01
4.763000000000000000e+03 7.145647430419921875e+01 2.993948745727539062e+01 1.020740345120429993e-01 5.623870849609375000e+00 1.717783451080322266e+00 -2.638353109359741211e-01
4.764000000000000000e+03 1.501357269287109375e+01 -3.397914123535156250e+01 2.970799105241894722e-04 3.188878326909616590e-05 9.869060886558145285e-05 1.311222673393785954e-03
4.765000000000000000e+03 1.674344062805175781e+01 -3.401844787597656250e+01 -5.728472751798108220e-05 -4.243553848937153816e-04 -1.444920344511047006e-04 2.076178090646862984e-03
4.766000000000000000e+03 2.064507675170898438e+01 2.410893249511718750e+01 2.706144154071807861e-01 -2.018009722232818604e-01 2.064403332769870758e-02 5.204529762268066406e-01
4.767000000000000000e+03 1.914375686645507812e+01 2.362299919128417969e+01 2.166561931371688843e-01 -1.483327597379684448e-01 2.049703150987625122e-02 5.140637755393981934e-01
4.768000000000000000e+03 8.774569511413574219e+00 2.959224128723144531e+01 4.461898282170295715e-02 -7.888827323913574219e-01 -2.232791185379028320e-01 1.305084079504013062e-01
4.769000000000000000e+03 5.859684371948242188e+01 2.273816108703613281e+01 3.063687384128570557e-01 3.358792066574096680e+00 1.099548220634460449e+00 -5.825473070144653320e-01
4.770000000000000000e+03 7.103957366943359375e+01 -2.375363159179687500e+01 -8.827245831489562988e-01 8.410076141357421875e+00 2.258205652236938477e+00 -3.608847260475158691e-01
4.771000000000000000e+03 1.961577987670898438e+01 2.472248458862304688e+01 2.276752889156341553e-01 -1.882765144109725952e-01 1.181963086128234863e-02 4.804168641567230225e-01
4.772000000000000000e+03 7.121961212158203125e+01 3.366060256958007812e+01 1.038432121276855469e-01 5.496253967285156250e+00 1.680029153823852539e+00 -1.998149901628494263e-01
4.773000000000000000e+03 6.794724273681640625e+01 3.191460037231445312e+01 1.672219783067703247e-01 4.982659339904785156e+00 1.544964432716369629e+00 -2.859839797019958496e-01
4.774000000000000000e+03 7.009876251220703125e+01 -3.482784271240234375e+01 -1.626402139663696289e-01 6.724697589874267578e+00 1.968617200851440430e+00 1.632134616374969482e-01
4.775000000000000000e+03 2.719069290161132812e+01 2.308498001098632812e+01 4.012053012847900391e-01 -2.023189514875411987e-01 5.966589972376823425e-02 3.170397579669952393e-01
4.776000000000000000e+03 4.229631423950195312e+01 2.749020195007324219e+01 5.170258283615112305e-01 9.540010690689086914e-01 4.413080811500549316e-01 2.128068059682846069e-01
4.777000000000000000e+03 5.946212005615234375e+01 2.191562271118164062e+01 3.069636225700378418e-01 3.559770107269287109e+00 1.160020112991333008e+00 -5.603886842727661133e-01
4.778000000000000000e+03 2.465208053588867188e+01 2.480297660827636719e+01 3.886558711528778076e-01 -2.304898053407669067e-01 4.744981974363327026e-02 4.150253832340240479e-01
4.779000000000000000e+03 5.033047485351562500e+01 2.851145553588867188e+01 6.734336018562316895e-01 1.644216537475585938e+00 6.952950358390808105e-01 -1.856545656919479370e-01
4.780000000000000000e+03 7.154279327392578125e+01 -3.051140594482421875e+01 -4.432129859924316406e-01 7.570800781250000000e+00 2.138276338577270508e+00 -1.588699966669082642e-02
4.781000000000000000e+03 3.813299942016601562e+01 2.221412658691406250e+01 3.022493422031402588e-01 8.059129714965820312e-01 3.324486911296844482e-01 1.869625002145767212e-01
4.782000000000000000e+03 4.027840805053710938e+01 2.448943901062011719e+01 3.571582734584808350e-01 8.975077271461486816e-01 3.763997852802276611e-01 2.418146431446075439e-01
4.783000000000000000e+03 4.087553787231445312e+01 2.209663009643554688e+01 2.798769772052764893e-01 1.028835058212280273e+00 3.926135897636413574e-01 2.862531542778015137e-01
4.784000000000000000e+03 5.570566940307617188e+01 -3.664047241210937500e+01 4.472856521606445312e-01 6.707281470298767090e-01 3.354041278362274170e-01 2.970063686370849609e-02
4.785000000000000000e+03 5.823199462890625000e+01 -3.667465972900390625e+01 4.395092129707336426e-01 1.464630365371704102e+00 5.712418556213378906e-01 1.529420465230941772e-01
4.786000000000000000e+03 1.326957798004150391e+01 -2.990141105651855469e+01 9.141455520875751972e-04 -1.250926288776099682e-04 2.367158740526065230e-04 6.914093391969799995e-04
4.787000000000000000e+03 1.312960910797119141e+01 3.137824249267578125e+01 8.541330695152282715e-02 -5.217298865318298340e-01 -1.308949738740921021e-01 1.882965117692947388e-01
4.788000000000000000e+03 9.630485534667968750e+00 -3.303508758544921875e+01 -8.907354640541598201e-05 9.268165013054385781e-05 1.082431822396756615e-06 9.473161189816892147e-04
4.789000000000000000e+03 1.078381919860839844e+01 3.326829147338867188e+01 7.348923385143280029e-02 -7.163715958595275879e-01 -1.928647160530090332e-01 1.250163316726684570e-01
4.790000000000000000e+03 4.524840164184570312e+01 2.744496726989746094e+01 6.017910838127136230e-01 1.108476281166076660e+00 5.130802392959594727e-01 1.591237634420394897e-01
4.791000000000000000e+03 5.369760513305664062e+01 -3.612517929077148438e+01 3.694513440132141113e-01 2.218322008848190308e-01 1.773850619792938232e-01 -1.070140823721885681e-01
4.792000000000000000e+03 1.775396919250488281e+01 -4.110833358764648438e+01 -3.299166914075613022e-03 8.169477805495262146e-04 -7.446657400578260422e-04 6.886073388159275055e-04
4.793000000000000000e+03 1.763941192626953125e+01 -3.840525817871093750e+01 -2.535199280828237534e-03 -3.323843702673912048e-05 -7.705313619226217270e-04 1.904477481730282307e-03
4.794000000000000000e+03 7.171398925781250000e+01 3.199386215209960938e+01 8.993268013000488281e-02 5.614629745483398438e+00 1.711368799209594727e+00 -2.212928533554077148e-01
4.795000000000000000e+03 4.297443771362304688e+01 -9.964274406433105469e+00 -8.645930290222167969e-01 2.567852139472961426e-01 -1.823423355817794800e-01 1.172562465071678162e-01
4.796000000000000000e+03 5.884117889404296875e+01 -2.729845285415649414e+00 -6.726332902908325195e-01 5.834524035453796387e-01 -2.675427496433258057e-02 -2.660275399684906006e-01
4.797000000000000000e+03 5.515299987792968750e+01 -6.076928138732910156e+00 -1.459064126014709473e+00 2.911999821662902832e-01 -3.503592312335968018e-01 -1.583374105393886566e-02
4.798000000000000000e+03 6.696083068847656250e+00 -8.745903015136718750e+00 1.691671604930888861e-05 -1.600227551534771919e-05 2.743321942944021430e-07 4.979491222911747172e-06
4.799000000000000000e+03 4.918599700927734375e+01 -8.872753143310546875e+00 -1.157749772071838379e+00 2.544890344142913818e-01 -2.709782421588897705e-01 -1.263536605983972549e-02
4.800000000000000000e+03 4.826231765747070312e+01 -8.646227836608886719e+00 -1.086767792701721191e+00 2.706328332424163818e-01 -2.448405027389526367e-01 3.301092609763145447e-02
4.801000000000000000e+03 7.257672882080078125e+01 6.907829284667968750e+00 -2.836256921291351318e-01 6.982745647430419922e+00 2.009735822677612305e+00 -6.510800719261169434e-01
4.802000000000000000e+03 5.754068374633789062e+01 5.046550750732421875e+00 1.333191692829132080e-01 1.913186550140380859e+00 6.139517426490783691e-01 -2.549330294132232666e-01
4.803000000000000000e+03 6.549969673156738281e+00 7.063235282897949219e+00 -2.705835998058319092e-01 -2.353727966547012329e-01 -1.517869234085083008e-01 3.696185350418090820e-01
4.804000000000000000e+03 4.797502136230468750e+01 8.784759044647216797e-01 -2.216107994318008423e-01 2.574861347675323486e-01 1.076260209083557129e-02 2.327092438936233521e-01
4.805000000000000000e+03 5.117511749267578125e+01 -6.846135139465332031e+00 -1.168667316436767578e+00 3.087563812732696533e-01 -2.579732835292816162e-01 7.344611734151840210e-02
4.806000000000000000e+03 3.621888732910156250e+01 1.244157505035400391e+01 2.000679820775985718e-01 5.716041326522827148e-01 2.315016239881515503e-01 4.395911693572998047e-01
4.807000000000000000e+03 5.678306198120117188e+01 -5.807509422302246094e+00 -1.558899283409118652e+00 2.626375257968902588e-01 -3.888785243034362793e-01 -1.036967337131500244e-01
4.808000000000000000e+03 5.787020874023437500e+01 -4.938698768615722656e+00 -1.392703890800476074e+00 2.926283180713653564e-01 -3.300226628780364990e-01 -1.143538653850555420e-01
4.809000000000000000e+03 4.046303176879882812e+01 -1.177356052398681641e+01 -7.867353558540344238e-01 2.124005109071731567e-01 -1.723004579544067383e-01 1.287051588296890259e-01
4.810000000000000000e+03 2.646446609497070312e+01 2.618992626667022705e-01 -4.143261313438415527e-01 5.528806895017623901e-02 -1.077114194631576538e-01 2.208384424448013306e-01
4.811000000000000000e+03 7.264234924316406250e+01 -1.149595618247985840e+00 -1.209982514381408691e+00 8.889611244201660156e+00 2.303888559341430664e+00 1.300602853298187256e-01
4.812000000000000000e+03 7.062680816650390625e+01 -4.226171016693115234e+00 -1.586555242538452148e+00 1.074506855010986328e+01 2.747553825378417969e+00 -2.369712144136428833e-01
4.813000000000000000e+03 7.378242492675781250e+01 -7.155420780181884766e+00 7.742200493812561035e-01 9.671509742736816406e+00 3.133718967437744141e+00 1.422984600067138672e+00
4.814000000000000000e+03 7.283293914794921875e+01 -6.946949005126953125e+00 7.365034222602844238e-01 1.053800487518310547e+01 3.382352352142333984e+00 1.387617468833923340e+00
4.815000000000000000e+03 4.789776229858398438e+01 -8.133103370666503906e+00 -1.036868214607238770e+00 2.892955541610717773e-01 -2.242717742919921875e-01 7.164693623781204224e-02
4.816000000000000000e+03 5.010392761230468750e+01 -6.672492027282714844e+00 -1.073721289634704590e+00 3.158500492572784424e-01 -2.273613810539245605e-01 1.127231568098068237e-01
4.817000000000000000e+03 4.880702972412109375e+01 -8.322347640991210938e+00 -1.100825905799865723e+00 2.790054678916931152e-01 -2.465461492538452148e-01 3.429277986288070679e-02
4.818000000000000000e+03 8.632814407348632812e+00 -8.192422866821289062e+00 1.542764221085235476e-05 -9.177877473121043295e-06 1.874929466794128530e-06 6.046217094990424812e-06
4.819000000000000000e+03 7.441025257110595703e+00 -7.547614097595214844e+00 -2.419933298369869590e-05 7.725184332230128348e-06 -4.942244231642689556e-06 -7.089266205184685532e-07
4.820000000000000000e+03 2.864336585998535156e+01 4.461429119110107422e+00 1.692193597555160522e-01 -1.021650806069374084e-01 2.011628448963165283e-02 3.367363512516021729e-01
4.821000000000000000e+03 8.343482971191406250e+00 2.309668350219726562e+01 1.232290714979171753e-01 -7.173392772674560547e-01 -1.782330572605133057e-01 1.855209916830062866e-01
4.822000000000000000e+03 2.900568199157714844e+01 3.297224521636962891e+00 3.172693774104118347e-02 -3.656503558158874512e-02 -1.451428979635238647e-03 2.946824729442596436e-01
4.823000000000000000e+03 9.487795829772949219e+00 -2.553574371337890625e+01 3.470177180133759975e-04 -5.990720819681882858e-05 8.613315731054171920e-05 3.178224724251776934e-04
4.824000000000000000e+03 7.059818744659423828e+00 1.558555793762207031e+01 1.755183488130569458e-01 -7.034620642662048340e-01 -1.583831012248992920e-01 4.576340913772583008e-01
4.825000000000000000e+03 7.846696853637695312e+00 1.349635410308837891e+01 1.204807981848716736e-01 -6.257209777832031250e-01 -1.515720486640930176e-01 5.842135548591613770e-01
4.826000000000000000e+03 5.604057693481445312e+01 3.391901731491088867e+00 7.133296877145767212e-02 1.247544884681701660e+00 3.956633508205413818e-01 1.535871066153049469e-02
4.827000000000000000e+03 6.524805450439453125e+01 -2.139678478240966797e+00 -5.937139987945556641e-01 3.850944280624389648e+00 9.771690964698791504e-01 -2.766634225845336914e+00
4.828000000000000000e+03 3.484003448486328125e+01 -1.199694919586181641e+01 -6.382710337638854980e-01 1.440967619419097900e-01 -1.482522785663604736e-01 2.660719156265258789e-01
4.829000000000000000e+03 2.898603439331054688e+01 -6.298693656921386719e+00 -7.301157712936401367e-01 5.530488491058349609e-02 -2.024432569742202759e-01 4.311419129371643066e-01
4.830000000000000000e+03 1.005320930480957031e+01 -2.632713127136230469e+01 6.865591858513653278e-04 -2.016334183281287551e-04 1.454777375329285860e-04 2.288190153194591403e-04
4.831000000000000000e+03 8.618339538574218750e+00 2.711419486999511719e+01 5.727155879139900208e-02 -7.559703588485717773e-01 -2.096096426248550415e-01 1.443765461444854736e-01
4.832000000000000000e+03 5.344602966308593750e+01 2.800807952880859375e+00 5.359352752566337585e-02 6.450590491294860840e-01 2.095957696437835693e-01 2.798869609832763672e-01
4.833000000000000000e+03 5.045258331298828125e+01 1.020966053009033203e+00 -1.476368606090545654e-01 3.148510158061981201e-01 5.016425251960754395e-02 2.889955043792724609e-01
4.834000000000000000e+03 5.291759490966796875e+01 2.243422269821166992e+00 -3.286025603301823139e-04 5.462973117828369141e-01 1.637906134128570557e-01 2.901782691478729248e-01
4.835000000000000000e+03 9.362804412841796875e+00 -2.426405525207519531e+01 4.069459100719541311e-04 5.316252554621314630e-06 1.236786483787000179e-04 1.256113609997555614e-04
4.836000000000000000e+03 7.187046051025390625e+00 -2.553660392761230469e+01 1.277410483453422785e-04 -4.733493915409781039e-05 2.412183494016062468e-05 2.547120384406298399e-04
4.837000000000000000e+03 7.216703796386718750e+01 -7.275808334350585938e+00 1.050233125686645508e+00 1.127122592926025391e+01 3.696437597274780273e+00 1.396090388298034668e+00
4.838000000000000000e+03 7.310503387451171875e+01 -5.980008125305175781e+00 8.132915198802947998e-02 1.023666381835937500e+01 3.095397949218750000e+00 1.404541850090026855e+00
4.839000000000000000e+03 3.091288375854492188e+01 -9.102466583251953125e+00 -6.544106602668762207e-01 8.147043734788894653e-02 -1.718820631504058838e-01 4.009543955326080322e-01
4.840000000000000000e+03 3.100812339782714844e+01 -8.295835494995117188e+00 -6.765118837356567383e-01 1.075722947716712952e-01 -1.706818789243698120e-01 3.988667130470275879e-01
4.841000000000000000e+03 7.156433105468750000e+01 1.177720737457275391e+01 3.355774655938148499e-02 6.284086704254150391e+00 1.895293354988098145e+00 -7.169704437255859375e-01
4.842000000000000000e+03 9.453193664550781250e+00 7.973160266876220703e+00 -4.417773485183715820e-01 -3.917931020259857178e-01 -2.500711381435394287e-01 5.827683806419372559e-01
4.843000000000000000e+03 6.063151931762695312e+01 9.563463211059570312e+00 3.885881006717681885e-01 3.360935449600219727e+00 1.124857068061828613e+00 -8.295397758483886719e-01
4.844000000000000000e+03 7.019353866577148438e+00 2.252985572814941406e+01 1.084921658039093018e-01 -8.165501356124877930e-01 -2.124173939228057861e-01 1.801875382661819458e-01
4.845000000000000000e+03 7.143708801269531250e+01 -1.898341178894042969e+01 -4.803312420845031738e-01 1.013668251037597656e+01 2.896905422210693359e+00 -7.698873877525329590e-01
4.846000000000000000e+03 4.977336120605468750e+01 -8.535758972167968750e+00 -1.178659796714782715e+00 2.641633450984954834e-01 -2.743489444255828857e-01 -1.352452114224433899e-02
4.847000000000000000e+03 8.278819084167480469e+00 1.278975296020507812e+01 7.947645336389541626e-02 -5.977806448936462402e-01 -1.554912626743316650e-01 6.231221556663513184e-01
4.848000000000000000e+03 7.285938262939453125e+01 2.077899932861328125e+01 1.001537591218948364e-01 6.138509273529052734e+00 1.871598958969116211e+00 -4.174738228321075439e-01
4.849000000000000000e+03 7.145505523681640625e+01 1.886732673645019531e+01 1.453850418329238892e-01 5.916104793548583984e+00 1.818446874618530273e+00 -5.114524960517883301e-01
4.850000000000000000e+03 7.177398204803466797e+00 -2.239627075195312500e+01 2.655942225828766823e-04 5.032226908951997757e-05 9.477494313614442945e-05 1.118852596846409142e-04
4.851000000000000000e+03 3.854673004150390625e+01 -1.117757225036621094e+01 -7.400093674659729004e-01 2.165001928806304932e-01 -1.570527553558349609e-01 1.937118470668792725e-01
4.852000000000000000e+03 7.252453613281250000e+01 2.141182327270507812e+01 1.055554822087287903e-01 6.058132648468017578e+00 1.849106431007385254e+00 -4.088609814643859863e-01
4.853000000000000000e+03 7.232885742187500000e+01 2.434101676940917969e+01 9.424790740013122559e-02 5.926014900207519531e+00 1.806078791618347168e+00 -3.494201302528381348e-01
4.854000000000000000e+03 6.959151458740234375e+01 -2.347122573852539062e+01 -9.483134746551513672e-01 8.015370368957519531e+00 2.120116949081420898e+00 6.029263883829116821e-02
4.855000000000000000e+03 7.187490081787109375e+01 1.494947814941406250e+01 1.135658025741577148e-01 6.168727874755859375e+00 1.884688138961791992e+00 -6.145604848861694336e-01
4.856000000000000000e+03 6.196825790405273438e+01 1.325111770629882812e+01 5.535470843315124512e-01 3.833255529403686523e+00 1.316040754318237305e+00 -7.850695252418518066e-01
4.857000000000000000e+03 6.127786254882812500e+01 1.324043464660644531e+01 5.973590016365051270e-01 3.689975023269653320e+00 1.286200165748596191e+00 -7.625454068183898926e-01
4.858000000000000000e+03 4.381522369384765625e+01 -1.121079540252685547e+01 -8.984690308570861816e-01 2.191371470689773560e-01 -2.037995755672454834e-01 4.311507567763328552e-02
4.859000000000000000e+03 4.303220367431640625e+01 -1.073853302001953125e+01 -8.737925887107849121e-01 2.402937263250350952e-01 -1.900496482849121094e-01 8.646643161773681641e-02
4.860000000000000000e+03 4.905960464477539062e+01 9.033922553062438965e-01 -1.850095540285110474e-01 2.619082331657409668e-01 2.306960336863994598e-02 2.642378509044647217e-01
4.861000000000000000e+03 7.256542205810546875e+01 8.362495422363281250e+00 -1.656245291233062744e-01 6.830353736877441406e+00 1.999418735504150391e+00 -6.663257479667663574e-01
4.862000000000000000e+03 7.260002136230468750e+01 9.068162918090820312e+00 -1.170744076371192932e-01 6.773309707641601562e+00 1.996870517730712891e+00 -6.637099981307983398e-01
4.863000000000000000e+03 7.276063537597656250e+01 -1.700599670410156250e+01 1.451397091150283813e-01 1.025419902801513672e+01 3.119801759719848633e+00 -1.326168060302734375e+00
4.864000000000000000e+03 3.898995208740234375e+01 8.012100219726562500e+00 -4.417479038238525391e-02 7.611163258552551270e-01 2.150824666023254395e-01 4.290321171283721924e-01
4.865000000000000000e+03 1.046894836425781250e+01 1.840881538391113281e+01 3.544006645679473877e-01 -5.651106834411621094e-01 -6.321301311254501343e-02 3.105479478836059570e-01
4.866000000000000000e+03 7.288198852539062500e+01 1.218820190429687500e+01 2.471383474767208099e-02 6.586819648742675781e+00 1.983459949493408203e+00 -6.189243793487548828e-01
4.867000000000000000e+03 7.207086181640625000e+01 9.968888282775878906e+00 -5.454416945576667786e-02 6.525556564331054688e+00 1.941303730010986328e+00 -7.027187347412109375e-01
4.868000000000000000e+03 7.250759887695312500e+01 1.701528549194335938e+01 1.119533106684684753e-01 6.225635528564453125e+00 1.901276707649230957e+00 -5.251075029373168945e-01
4.869000000000000000e+03 7.359918212890625000e+01 6.324444413185119629e-01 -8.698225617408752441e-01 8.340100288391113281e+00 2.241083383560180664e+00 8.935045450925827026e-02
4.870000000000000000e+03 2.982845306396484375e+01 1.431922149658203125e+01 -1.507342457771301270e-01 -8.420285582542419434e-02 -7.048112899065017700e-02 3.501913249492645264e-01
4.871000000000000000e+03 7.333150482177734375e+01 -1.847921943664550781e+01 -2.372011542320251465e-01 9.683075904846191406e+00 2.833762407302856445e+00 -1.376318573951721191e+00
4.872000000000000000e+03 7.279147338867187500e+01 -1.806258773803710938e+01 -1.654732078313827515e-01 9.967796325683593750e+00 2.940696954727172852e+00 -1.287149310111999512e+00
4.873000000000000000e+03 7.288748168945312500e+01 5.505309104919433594e-01 -1.006078362464904785e+00 8.335340499877929688e+00 2.198778629302978516e+00 -1.054059043526649475e-01
4.874000000000000000e+03 7.189530181884765625e+01 -5.399216651916503906e+00 -5.497554540634155273e-01 1.106305408477783203e+01 3.153989553451538086e+00 1.015774250030517578e+00
4.875000000000000000e+03 7.116859436035156250e+01 -4.735858917236328125e+00 -1.164085030555725098e+00 1.110346603393554688e+01 2.981814384460449219e+00 3.962726593017578125e-01
4.876000000000000000e+03 7.284266662597656250e+01 3.854639053344726562e+00 -5.899862647056579590e-01 7.524577140808105469e+00 2.080377101898193359e+00 -4.711970984935760498e-01
4.877000000000000000e+03 7.267290496826171875e+01 -2.779149293899536133e+00 -1.189359903335571289e+00 9.550456047058105469e+00 2.508328914642333984e+00 5.106256008148193359e-01
4.878000000000000000e+03 7.295081329345703125e+01 -1.763642311096191406e+00 -1.161886334419250488e+00 9.125306129455566406e+00 2.389026165008544922e+00 3.634284138679504395e-01
4.879000000000000000e+03 7.201760864257812500e+01 -3.228095054626464844e+00 -1.320687651634216309e+00 9.877202987670898438e+00 2.566954612731933594e+00 3.641840219497680664e-01
4.880000000000000000e+03 7.329512023925781250e+01 -2.339844703674316406e+00 -1.060495615005493164e+00 9.215229988098144531e+00 2.446420431137084961e+00 6.363390684127807617e-01
4.881000000000000000e+03 7.183174896240234375e+01 -1.824978637695312500e+01 -2.673906385898590088e-01 1.028153896331787109e+01 3.004244565963745117e+00 -9.785358905792236328e-01
4.882000000000000000e+03 7.263594055175781250e+01 6.232775688171386719e+00 -3.373478353023529053e-01 7.081729888916015625e+00 2.023314476013183594e+00 -6.265317201614379883e-01
4.883000000000000000e+03 7.243613433837890625e+01 4.445823192596435547e+00 -5.531795024871826172e-01 7.345936298370361328e+00 2.037827014923095703e+00 -5.858331322669982910e-01
4.884000000000000000e+03 7.091149330139160156e+00 1.933650207519531250e+01 1.828140169382095337e-01 -7.721076607704162598e-01 -1.767881065607070923e-01 2.815542817115783691e-01
4.885000000000000000e+03 8.216339111328125000e+00 2.200122642517089844e+01 1.504177153110504150e-01 -7.181570529937744141e-01 -1.703217923641204834e-01 2.043495178222656250e-01
4.886000000000000000e+03 7.166587829589843750e+01 3.063202142715454102e+00 -7.806808948516845703e-01 7.414021015167236328e+00 1.990002036094665527e+00 -6.916595697402954102e-01
4.887000000000000000e+03 7.599793434143066406e+00 1.967673110961914062e+01 1.948008239269256592e-01 -7.460914850234985352e-01 -1.653871983289718628e-01 2.727791666984558105e-01
4.888000000000000000e+03 8.207277297973632812e+00 -2.344651985168457031e+01 2.431096363579854369e-04 -1.146346985478885472e-04 3.854247916024178267e-05 1.307103520957753062e-04
4.889000000000000000e+03 7.301894378662109375e+01 1.301897716522216797e+01 4.114408046007156372e-02 6.555855751037597656e+00 1.979099869728088379e+00 -5.972748994827270508e-01
4.890000000000000000e+03 4.205661773681640625e+01 3.270380735397338867e+00 -2.970517575740814209e-01 5.113057494163513184e-01 6.427618861198425293e-02 1.823636591434478760e-01
4.891000000000000000e+03 3.941757202148437500e+01 7.143145084381103516e+00 -1.165168732404708862e-01 7.412707805633544922e-01 1.874261647462844849e-01 3.791908323764801025e-01
4.892000000000000000e+03 3.921550369262695312e+01 8.724942207336425781e+00 9.155576117336750031e-03 8.273823261260986328e-01 2.509613931179046631e-01 4.271501898765563965e-01
4.893000000000000000e+03 8.835683822631835938e+00 9.660543441772460938e+00 -2.454334646463394165e-01 -4.529536962509155273e-01 -2.095161527395248413e-01 6.465795636177062988e-01
4.894000000000000000e+03 7.175777435302734375e+01 1.760282325744628906e+01 1.363413780927658081e-01 6.028173446655273438e+00 1.849354505538940430e+00 -5.412648320198059082e-01
4.895000000000000000e+03 7.955294132232666016e+00 1.100410270690917969e+01 -9.141531586647033691e-02 -4.975940287113189697e-01 -1.767028123140335083e-01 6.290919184684753418e-01
4.896000000000000000e+03 9.178414344787597656e+00 1.675550842285156250e+01 3.238375484943389893e-01 -6.619995832443237305e-01 -1.014486178755760193e-01 4.204944074153900146e-01
4.897000000000000000e+03 8.576832771301269531e+00 1.949765968322753906e+01 2.362877130508422852e-01 -6.860288977622985840e-01 -1.349223554134368896e-01 2.828868925571441650e-01
4.898000000000000000e+03 7.303342342376708984e+00 1.741472053527832031e+01 2.127082645893096924e-01 -7.369560003280639648e-01 -1.572743207216262817e-01 3.731493949890136719e-01
4.899000000000000000e+03 6.326849937438964844e+00 1.342893791198730469e+01 6.720490753650665283e-02 -6.212218999862670898e-01 -1.662050932645797729e-01 5.141420960426330566e-01
4.900000000000000000e+03 9.433509826660156250e+00 1.166935062408447266e+01 -1.128458697348833084e-02 -5.707091093063354492e-01 -1.745981127023696899e-01 7.064606547355651855e-01
4.901000000000000000e+03 7.908527374267578125e+00 7.702300071716308594e+00 -3.397793173789978027e-01 -3.102056086063385010e-01 -1.949954777956008911e-01 4.899716973304748535e-01
4.902000000000000000e+03 2.703476142883300781e+01 1.030210971832275391e+00 -2.837556898593902588e-01 5.344756320118904114e-02 -6.909243762493133545e-02 1.996803432703018188e-01
4.903000000000000000e+03 7.291998863220214844e+00 -9.902161598205566406e+00 -3.235608892282471061e-05 2.546712494222447276e-06 -8.942813110479619354e-06 1.606995169822766911e-06
4.904000000000000000e+03 8.012318611145019531e+00 -8.810088157653808594e+00 2.251082514703739434e-05 -9.851081813394557685e-06 3.797923227466526441e-06 8.803596642792399507e-07
4.905000000000000000e+03 7.311332702636718750e+01 1.381795406341552734e+01 6.803309172391891479e-02 6.531078815460205078e+00 1.979733467102050781e+00 -5.702812075614929199e-01
4.906000000000000000e+03 7.367669582366943359e+00 -9.342173576354980469e+00 2.676335134310647845e-05 -1.115011582442093641e-05 4.683970928454073146e-06 1.689841042207262944e-06
4.907000000000000000e+03 6.769314765930175781e+00 -9.742900848388671875e+00 2.684804712771438062e-05 5.929113285674247891e-06 9.833148396864999086e-06 -7.926134770741555258e-08
4.908000000000000000e+03 7.212165832519531250e+01 -2.410480499267578125e+01 -7.977509498596191406e-01 8.573961257934570312e+00 2.332863092422485352e+00 -5.629504919052124023e-01
4.909000000000000000e+03 7.567563056945800781e+00 2.637617683410644531e+01 5.764128267765045166e-02 -8.228945136070251465e-01 -2.295759767293930054e-01 1.338998526334762573e-01
4.910000000000000000e+03 7.191899108886718750e+01 1.959384918212890625e+01 1.288613229990005493e-01 5.993049621582031250e+00 1.836573243141174316e+00 -4.782108366489410400e-01
4.911000000000000000e+03 3.759263229370117188e+01 -1.150813293457031250e+01 -7.127203345298767090e-01 1.988228857517242432e-01 -1.541692465543746948e-01 2.088859826326370239e-01
4.912000000000000000e+03 8.005768775939941406e+00 2.374176597595214844e+01 9.834311902523040771e-02 -7.551242113113403320e-01 -1.970343291759490967e-01 1.720249950885772705e-01
4.913000000000000000e+03 7.895864009857177734e+00 2.484447288513183594e+01 8.136732131242752075e-02 -7.751349210739135742e-01 -2.081302702426910400e-01 1.573995649814605713e-01
4.914000000000000000e+03 8.608210563659667969e+00 2.465753936767578125e+01 9.021670371294021606e-02 -7.197051644325256348e-01 -1.888465434312820435e-01 1.689767390489578247e-01
4.915000000000000000e+03 6.966838836669921875e+01 -2.262379264831542969e+01 -9.429627656936645508e-01 8.381116867065429688e+00 2.231446027755737305e+00 3.324649110436439514e-02
4.916000000000000000e+03 5.055531692504882812e+01 -7.237621307373046875e+00 -1.166693091392517090e+00 2.978374063968658447e-01 -2.606567144393920898e-01 6.313884258270263672e-02
4.917000000000000000e+03 8.662783622741699219e+00 -2.392590713500976562e+01 1.636116940062493086e-04 -4.914285091217607260e-05 3.434065001783892512e-05 1.620841649128124118e-04
4.918000000000000000e+03 9.937811851501464844e+00 1.214138984680175781e+01 6.802376359701156616e-02 -5.967710018157958984e-01 -1.586241573095321655e-01 7.052227854728698730e-01
4.919000000000000000e+03 1.064407157897949219e+01 1.384105396270751953e+01 3.047657310962677002e-01 -6.253296732902526855e-01 -9.616918116807937622e-02 6.248967051506042480e-01
4.920000000000000000e+03 7.025598144531250000e+01 -2.336263847351074219e+01 -9.379615783691406250e-01 8.269499778747558594e+00 2.199461460113525391e+00 -1.370784193277359009e-01
4.921000000000000000e+03 7.207917785644531250e+01 -2.346613502502441406e+01 -8.154379725456237793e-01 8.710265159606933594e+00 2.368448257446289062e+00 -6.170727014541625977e-01
4.922000000000000000e+03 7.181619262695312500e+01 2.647529411315917969e+01 1.011107936501502991e-01 5.784216880798339844e+00 1.765598297119140625e+00 -3.258646130561828613e-01
4.923000000000000000e+03 7.013968658447265625e+01 2.533305931091308594e+01 1.384386420249938965e-01 5.495541095733642578e+00 1.690194010734558105e+00 -3.748924434185028076e-01
4.924000000000000000e+03 6.777246856689453125e+01 -2.609902000427246094e+01 -8.425573110580444336e-01 6.448453426361083984e+00 1.681768894195556641e+00 4.506494104862213135e-01
4.925000000000000000e+03 7.257147216796875000e+01 -2.661345481872558594e+01 -6.455218195915222168e-01 8.276810646057128906e+00 2.289386510848999023e+00 -3.887012302875518799e-01
4.926000000000000000e+03 6.258779144287109375e+01 -3.033636093139648438e+00 -4.340738356113433838e-01 9.379301667213439941e-01 1.511569023132324219e-01 -1.455078482627868652e+00
4.927000000000000000e+03 6.192491149902343750e+01 -2.020740985870361328e+00 -2.717152833938598633e-01 1.207715868949890137e+00 2.808001637458801270e-01 -1.234840989112854004e+00
4.928000000000000000e+03 3.067194557189941406e+01 1.208770942687988281e+01 -1.256091743707656860e-01 1.338486745953559875e-02 -3.366729244589805603e-02 5.275844931602478027e-01
4.929000000000000000e+03 7.728346347808837891e+00 2.291840362548828125e+01 1.189104914665222168e-01 -7.611121535301208496e-01 -1.926604956388473511e-01 1.834655106067657471e-01
4.930000000000000000e+03 2.799176979064941406e+01 -5.818744659423828125e+00 -7.576130032539367676e-01 9.795309044420719147e-03 -2.243453115224838257e-01 4.453710317611694336e-01
4.931000000000000000e+03 2.771091270446777344e+01 -4.029153823852539062e+00 -7.428436875343322754e-01 3.990081697702407837e-02 -2.108828723430633545e-01 3.905612826347351074e-01
4.932000000000000000e+03 5.350282669067382812e+01 -6.310911655426025391e+00 -1.309032797813415527e+00 3.115313053131103516e-01 -2.992504537105560303e-01 3.821281343698501587e-02
4.933000000000000000e+03 7.226638793945312500e+01 1.326668643951416016e+01 7.199167460203170776e-02 6.362103939056396484e+00 1.930228710174560547e+00 -6.269356012344360352e-01
4.934000000000000000e+03 9.588727951049804688e+00 1.075222778320312500e+01 -1.315119415521621704e-01 -5.372405052185058594e-01 -2.006257325410842896e-01 7.164509296417236328e-01
4.935000000000000000e+03 2.963339614868164062e+01 6.611819744110107422e+00 1.850101947784423828e-01 -1.423203796148300171e-01 1.280694268643856049e-02 5.394114851951599121e-01
4.936000000000000000e+03 3.141844749450683594e+01 8.144421577453613281e+00 5.977490916848182678e-02 1.652636937797069550e-02 2.289038337767124176e-02 6.191805005073547363e-01
4.937000000000000000e+03 1.125131225585937500e+01 6.513329505920410156e+00 -6.216418743133544922e-01 -5.284462571144104004e-01 -3.450264334678649902e-01 5.282716155052185059e-01
4.938000000000000000e+03 7.324084472656250000e+01 -2.118383026123046875e+01 -6.172350049018859863e-01 9.163580894470214844e+00 2.563903808593750000e+00 -1.107787013053894043e+00
4.939000000000000000e+03 7.056615447998046875e+01 -2.060848617553710938e+01 -7.811181545257568359e-01 9.404573440551757812e+00 2.587036609649658203e+00 -3.386488258838653564e-01
4.940000000000000000e+03 2.997477149963378906e+01 1.244781494140625000e+01 -1.961265951395034790e-01 -6.695914268493652344e-02 -7.892572134733200073e-02 5.043792128562927246e-01
4.941000000000000000e+03 3.089595794677734375e+01 1.096299076080322266e+01 -7.398852705955505371e-02 1.841364055871963501e-02 -1.667246595025062561e-02 6.007122993469238281e-01
4.942000000000000000e+03 7.959027767181396484e+00 -2.275112533569335938e+01 2.826330019161105156e-04 4.507130142883397639e-05 9.831129136728122830e-05 7.625856960657984018e-05
4.943000000000000000e+03 4.023116683959960938e+01 4.112502574920654297e+00 -2.797358334064483643e-01 5.701274275779724121e-01 8.711747080087661743e-02 2.817949950695037842e-01
4.944000000000000000e+03 4.052359771728515625e+01 5.567862510681152344e+00 -2.200404852628707886e-01 6.766331791877746582e-01 1.369778066873550415e-01 2.698955535888671875e-01
4.945000000000000000e+03 5.526306915283203125e+01 -5.145829200744628906e+00 -1.273969411849975586e+00 3.409776687622070312e-01 -2.798975110054016113e-01 6.630588322877883911e-02
4.946000000000000000e+03 3.642356109619140625e+01 1.533125877380371094e+01 2.751707136631011963e-01 6.224916577339172363e-01 2.692987322807312012e-01 2.810884714126586914e-01
4.947000000000000000e+03 3.900423812866210938e+01 5.569087982177734375e+00 -1.979156434535980225e-01 6.139328479766845703e-01 1.248051524162292480e-01 3.695836067199707031e-01
4.948000000000000000e+03 4.044512176513671875e+01 3.481708526611328125e+00 -3.009235858917236328e-01 5.387817025184631348e-01 7.135744392871856689e-02 2.682536840438842773e-01
4.949000000000000000e+03 8.413444519042968750e+00 -2.457536697387695312e+01 4.915235913358628750e-04 7.327044841076713055e-06 1.496551849413663149e-04 1.712090015644207597e-04
4.950000000000000000e+03 5.288280868530273438e+01 -6.671115875244140625e+00 -1.313775300979614258e+00 2.990275323390960693e-01 -3.044243156909942627e-01 3.311513364315032959e-02
4.951000000000000000e+03 6.819144439697265625e+01 -2.583202123641967773e+00 -1.662031650543212891e+00 7.897089004516601562e+00 1.870517253875732422e+00 -2.381056785583496094e+00
4.952000000000000000e+03 5.883354187011718750e+01 5.972788810729980469e+00 1.803365945816040039e-01 2.435480833053588867e+00 7.847452759742736816e-01 -5.419442057609558105e-01
4.953000000000000000e+03 5.957057571411132812e+01 6.648145198822021484e+00 2.062304168939590454e-01 2.734111309051513672e+00 8.821025490760803223e-01 -6.799995303153991699e-01
4.954000000000000000e+03 8.979235649108886719e+00 -2.490506935119628906e+01 4.344007757026702166e-04 -1.262185687664896250e-04 9.245465480489656329e-05 1.734734396450221539e-04
4.955000000000000000e+03 3.654443740844726562e+01 -1.187918567657470703e+01 -6.816270947456359863e-01 1.765002012252807617e-01 -1.515380591154098511e-01 2.266481220722198486e-01
4.956000000000000000e+03 3.620715332031250000e+01 -1.269139862060546875e+01 -6.545969843864440918e-01 1.517680734395980835e-01 -1.508486717939376831e-01 2.133341729640960693e-01
4.957000000000000000e+03 1.035511207580566406e+01 1.585648632049560547e+01 3.993755578994750977e-01 -6.220989823341369629e-01 -6.681702286005020142e-02 4.708703756332397461e-01
4.958000000000000000e+03 1.036426448822021484e+01 1.778461265563964844e+01 3.716166913509368896e-01 -5.874923467636108398e-01 -6.476270407438278198e-02 3.412039875984191895e-01
4.959000000000000000e+03 6.093294525146484375e+01 1.063359451293945312e+01 4.639371335506439209e-01 3.513560533523559570e+00 1.193249344825744629e+00 -8.413397669792175293e-01
4.960000000000000000e+03 6.172139739990234375e+01 1.104333114624023438e+01 4.631097018718719482e-01 3.688634157180786133e+00 1.245523095130920410e+00 -8.713935613632202148e-01
4.961000000000000000e+03 4.378434371948242188e+01 3.155169486999511719e+00 -2.409700006246566772e-01 4.268518686294555664e-01 5.576456338167190552e-02 1.103141978383064270e-01
4.962000000000000000e+03 5.825106430053710938e+01 -4.377982616424560547e+00 -1.225288391113281250e+00 3.267106115818023682e-01 -2.695733308792114258e-01 -1.445867419242858887e-01
4.963000000000000000e+03 3.983913040161132812e+01 3.352742433547973633e+00 -3.066241741180419922e-01 5.259803533554077148e-01 6.580685824155807495e-02 2.959380745887756348e-01
4.964000000000000000e+03 4.142318344116210938e+01 -1.108555698394775391e+01 -8.199520707130432129e-01 2.311861664056777954e-01 -1.766297668218612671e-01 1.200482845306396484e-01
4.965000000000000000e+03 7.237711334228515625e+01 2.027057838439941406e+01 1.123742088675498962e-01 6.087606430053710938e+00 1.859994173049926758e+00 -4.472415149211883545e-01
4.966000000000000000e+03 7.105291748046875000e+01 -1.979693794250488281e+01 -6.474991440773010254e-01 9.741003990173339844e+00 2.728051424026489258e+00 -5.616595745086669922e-01
4.967000000000000000e+03 3.659102249145507812e+01 1.865271377563476562e+01 2.885747551918029785e-01 6.793525815010070801e-01 2.903781831264495850e-01 1.630894392728805542e-01
4.968000000000000000e+03 3.618897247314453125e+01 1.715223121643066406e+01 2.786191999912261963e-01 6.229267716407775879e-01 2.704637944698333740e-01 2.024115025997161865e-01
4.969000000000000000e+03 1.193317031860351562e+01 1.835199737548828125e+01 4.217803478240966797e-01 -4.147743284702301025e-01 2.101810183376073837e-03 2.778089046478271484e-01
4.970000000000000000e+03 1.283727264404296875e+01 2.023715591430664062e+01 2.926379442214965820e-01 -2.800275385379791260e-01 3.783119609579443932e-03 2.409748584032058716e-01
4.971000000000000000e+03 4.649105453491210938e+01 -1.078911304473876953e+01 -1.022972583770751953e+00 2.130923718214035034e-01 -2.429640591144561768e-01 -2.827681228518486023e-02
4.972000000000000000e+03 4.625636672973632812e+01 -1.014883995056152344e+01 -1.002113938331604004e+00 2.423363327980041504e-01 -2.279332876205444336e-01 8.659129031002521515e-03
4.973000000000000000e+03 3.459359359741210938e+01 -1.268181800842285156e+01 -6.150354743003845215e-01 1.228854656219482422e-01 -1.476449966430664062e-01 2.520781457424163818e-01
4.974000000000000000e+03 7.146860599517822266e+00 2.110906791687011719e+01 1.454770565032958984e-01 -7.866686582565307617e-01 -1.923574954271316528e-01 2.200126498937606812e-01
4.975000000000000000e+03 1.149275398254394531e+01 1.963928031921386719e+01 3.249258100986480713e-01 -4.430233240127563477e-01 -3.542925789952278137e-02 2.519498765468597412e-01
4.976000000000000000e+03 1.129549503326416016e+01 -2.638932800292968750e+01 9.173689177259802818e-04 -3.921198658645153046e-04 1.575747155584394932e-04 2.542638685554265976e-04
4.977000000000000000e+03 6.043605041503906250e+01 8.505730628967285156e+00 3.155159652233123779e-01 3.200656890869140625e+00 1.054851889610290527e+00 -8.153973221778869629e-01
4.978000000000000000e+03 3.703056335449218750e+01 1.506314945220947266e+01 3.070739209651947021e-01 6.979969739913940430e-01 3.015212714672088623e-01 2.868291735649108887e-01
4.979000000000000000e+03 6.351660156250000000e+01 -2.494802951812744141e+00 -2.932831048965454102e-01 1.794795632362365723e+00 4.504537582397460938e-01 -2.034358263015747070e+00
4.980000000000000000e+03 3.276643753051757812e+01 -1.042661380767822266e+01 -6.398259997367858887e-01 1.239694952964782715e-01 -1.547569483518600464e-01 3.412574231624603271e-01
4.981000000000000000e+03 8.832207679748535156e+00 7.617322921752929688e+00 -4.110003113746643066e-01 -3.450835645198822021e-01 -2.268251627683639526e-01 5.289219021797180176e-01
4.982000000000000000e+03 9.614422798156738281e+00 8.897399902343750000e+00 -3.561666309833526611e-01 -4.469962418079376221e-01 -2.409488558769226074e-01 6.516488194465637207e-01
4.983000000000000000e+03 3.598132705688476562e+01 -1.343007278442382812e+01 -6.305308938026428223e-01 1.307876110076904297e-01 -1.499229818582534790e-01 2.006057947874069214e-01
4.984000000000000000e+03 1.542615795135498047e+01 2.217279434204101562e+01 1.696174889802932739e-01 -1.127633675932884216e-01 1.705623604357242584e-02 3.472731113433837891e-01
4.985000000000000000e+03 1.353908252716064453e+01 2.054643440246582031e+01 2.654576301574707031e-01 -2.095483541488647461e-01 1.677278429269790649e-02 2.484288364648818970e-01
4.986000000000000000e+03 7.243431091308593750e+01 1.389662837982177734e+01 8.457040786743164062e-02 6.380203247070312500e+00 1.939432144165039062e+00 -5.941185355186462402e-01
4.987000000000000000e+03 3.229310989379882812e+01 8.421053886413574219e+00 3.963067010045051575e-02 1.003226116299629211e-01 4.198598489165306091e-02 6.115243434906005859e-01
4.988000000000000000e+03 4.905801773071289062e+01 -6.534009456634521484e+00 -9.990981221199035645e-01 3.168673813343048096e-01 -2.046692222356796265e-01 1.389199644327163696e-01
4.989000000000000000e+03 2.598669052124023438e+01 -5.117029547691345215e-01 -5.398910045623779297e-01 3.819327801465988159e-02 -1.505093276500701904e-01 2.599416375160217285e-01
4.990000000000000000e+03 3.848949050903320312e+01 8.801853179931640625e+00 2.795921824872493744e-02 7.435175180435180664e-01 2.314430177211761475e-01 4.659900069236755371e-01
4.991000000000000000e+03 3.872839736938476562e+01 1.006657028198242188e+01 1.320644915103912354e-01 8.296013474464416504e-01 2.884997427463531494e-01 4.581436812877655029e-01
4.992000000000000000e+03 3.805507659912109375e+01 1.164301013946533203e+01 2.382132858037948608e-01 7.910702824592590332e-01 3.087850809097290039e-01 4.362655282020568848e-01
4.993000000000000000e+03 3.719918823242187500e+01 1.202024841308593750e+01 2.277420461177825928e-01 6.754591464996337891e-01 2.709603607654571533e-01 4.404310584068298340e-01
4.994000000000000000e+03 7.125258636474609375e+01 2.332046699523925781e+01 1.222609207034111023e-01 5.774456501007080078e+00 1.769015312194824219e+00 -4.026796519756317139e-01
4.995000000000000000e+03 7.084128570556640625e+01 -2.815772628784179688e+01 -6.475538611412048340e-01 7.532220363616943359e+00 2.065399885177612305e+00 -6.987492740154266357e-02
4.996000000000000000e+03 4.523872756958007812e+01 -1.124226474761962891e+01 -9.624128937721252441e-01 2.057397812604904175e-01 -2.270019352436065674e-01 -5.278865341097116470e-03
4.997000000000000000e+03 3.191276931762695312e+01 -1.056933593750000000e+01 -6.182618737220764160e-01 8.792507648468017578e-02 -1.591010242700576782e-01 3.579994738101959229e-01
4.998000000000000000e+03 3.278713226318359375e+01 -9.241048812866210938e+00 -6.657059192657470703e-01 1.497023999691009521e-01 -1.548010557889938354e-01 3.559408187866210938e-01
4.999000000000000000e+03 9.180315017700195312e+00 1.024582958221435547e+01 -1.942460387945175171e-01 -4.907073974609375000e-01 -2.054860293865203857e-01 6.815246939659118652e-01
5.000000000000000000e+03 2.659754943847656250e+01 -4.571487009525299072e-01 -5.067051649093627930e-01 4.707799479365348816e-02 -1.378881484270095825e-01 2.461972087621688843e-01
5.001000000000000000e+03 1.193410873413085938e+01 -3.275543212890625000e+01 1.009929928841302171e-05 2.025128633249551058e-04 6.378364923875778913e-05 1.128793694078922272e-03
5.002000000000000000e+03 6.912351989746093750e+01 -2.472879409790039062e+01 -9.291050434112548828e-01 7.490699768066406250e+00 1.968478441238403320e+00 1.803481131792068481e-01
5.003000000000000000e+03 6.877912902832031250e+01 -2.540061950683593750e+01 -9.047160744667053223e-01 7.127407073974609375e+00 1.866807222366333008e+00 2.849818766117095947e-01
5.004000000000000000e+03 6.811310291290283203e+00 8.516780853271484375e+00 -2.382395416498184204e-01 -3.262789547443389893e-01 -1.693555563688278198e-01 4.762425720691680908e-01
5.005000000000000000e+03 7.885817050933837891e+00 8.591736793518066406e+00 -2.943385839462280273e-01 -3.582037389278411865e-01 -1.957626938819885254e-01 5.446979999542236328e-01
5.006000000000000000e+03 1.071241664886474609e+01 -3.180118370056152344e+01 4.923690576106309891e-04 -4.869297845289111137e-05 1.331028179265558720e-04 9.016015683300793171e-04
5.007000000000000000e+03 1.665864372253417969e+01 2.416866874694824219e+01 1.503028422594070435e-01 -1.701572537422180176e-01 -5.956325214356184006e-03 3.983207345008850098e-01
5.008000000000000000e+03 4.404079437255859375e+01 2.435414552688598633e+00 -2.647671401500701904e-01 3.886836469173431396e-01 3.717495501041412354e-02 1.343469768762588501e-01
5.009000000000000000e+03 7.226634216308593750e+01 -1.759037017822265625e+01 -6.002682447433471680e-02 1.038250732421875000e+01 3.096744060516357422e+00 -1.153169989585876465e+00
5.010000000000000000e+03 7.242272186279296875e+01 -1.865874290466308594e+01 -3.312390148639678955e-01 9.989413261413574219e+00 2.897452354431152344e+00 -1.140959262847900391e+00
5.011000000000000000e+03 2.923019409179687500e+01 -5.174584388732910156e+00 -7.216432094573974609e-01 9.337534755468368530e-02 -1.884803622961044312e-01 3.994491994380950928e-01
5.012000000000000000e+03 2.917679023742675781e+01 1.565796566009521484e+01 -9.536083042621612549e-02 -1.984893232583999634e-01 -8.815504610538482666e-02 2.525693476200103760e-01
5.013000000000000000e+03 3.028115844726562500e+01 1.533207225799560547e+01 -5.507142841815948486e-02 -3.496700525283813477e-02 -2.701153047382831573e-02 2.886021137237548828e-01
5.014000000000000000e+03 2.687308883666992188e+01 -1.852934718132019043e+00 -6.440736651420593262e-01 4.241381585597991943e-02 -1.804979592561721802e-01 3.090781867504119873e-01
5.015000000000000000e+03 2.671613311767578125e+01 -1.167812108993530273e+00 -5.894443392753601074e-01 4.691012203693389893e-02 -1.627602577209472656e-01 2.798826098442077637e-01
5.016000000000000000e+03 3.034322357177734375e+01 -7.221370697021484375e+00 -6.985085606575012207e-01 1.015259549021720886e-01 -1.790947765111923218e-01 4.116047322750091553e-01
5.017000000000000000e+03 7.265605926513671875e+01 -2.027486610412597656e+01 -5.881749987602233887e-01 9.460274696350097656e+00 2.661629915237426758e+00 -1.073930621147155762e+00
5.018000000000000000e+03 6.250927734375000000e+01 1.142904186248779297e+01 4.557084739208221436e-01 3.883600473403930664e+00 1.301792740821838379e+00 -8.991102576255798340e-01
5.019000000000000000e+03 2.919243812561035156e+01 4.973100185394287109e+00 1.700938194990158081e-01 -1.083349809050559998e-01 1.852765493094921112e-02 3.999975919723510742e-01
5.020000000000000000e+03 8.507753372192382812e+00 -2.728545951843261719e+01 5.253431154415011406e-04 8.617420826340094209e-05 1.834552094805985689e-04 3.368538746144622564e-04
5.021000000000000000e+03 5.977915191650390625e+01 1.819760513305664062e+01 4.764102101325988770e-01 3.662167072296142578e+00 1.241573214530944824e+00 -5.182896256446838379e-01
5.022000000000000000e+03 7.791681766510009766e+00 -2.825021362304687500e+01 4.278833221178501844e-04 1.739445579005405307e-04 1.805483625503256917e-04 5.172266392037272453e-04
5.023000000000000000e+03 2.818163299560546875e+01 -4.758956432342529297e+00 -7.479687929153442383e-01 4.924046248197555542e-02 -2.096184939146041870e-01 4.083462655544281006e-01
5.024000000000000000e+03 3.132663345336914062e+01 -8.799075126647949219e+00 -6.664474010467529297e-01 1.086435988545417786e-01 -1.673411428928375244e-01 3.909331858158111572e-01
5.025000000000000000e+03 3.132696342468261719e+01 -9.351078033447265625e+00 -6.523510813713073730e-01 9.572926163673400879e-02 -1.669865399599075317e-01 3.872746229171752930e-01
5.026000000000000000e+03 7.078103637695312500e+01 -2.309720230102539062e+01 -9.208845496177673340e-01 8.575702667236328125e+00 2.296445369720458984e+00 -3.006950020790100098e-01
5.027000000000000000e+03 7.165858459472656250e+01 -2.148725318908691406e+01 -8.069745898246765137e-01 9.136528968811035156e+00 2.498866319656372070e+00 -6.745975613594055176e-01
5.028000000000000000e+03 5.274277877807617188e+01 -5.175512790679931641e+00 -1.072872281074523926e+00 3.571705818176269531e-01 -2.147105187177658081e-01 1.574909240007400513e-01
5.029000000000000000e+03 6.271583175659179688e+01 1.394341945648193359e+01 5.273207426071166992e-01 4.007355213165283203e+00 1.360402822494506836e+00 -7.632725238800048828e-01
5.030000000000000000e+03 6.141407394409179688e+01 1.939364242553710938e+01 4.008327722549438477e-01 3.928760290145874023e+00 1.298877954483032227e+00 -5.379340648651123047e-01
5.031000000000000000e+03 7.230843353271484375e+01 -2.177542209625244141e+00 -1.309575557708740234e+00 9.329783439636230469e+00 2.406062364578247070e+00 2.286873161792755127e-01
5.032000000000000000e+03 7.211920928955078125e+01 3.013637065887451172e-01 -1.148440361022949219e+00 8.320033073425292969e+00 2.151477813720703125e+00 -3.255769312381744385e-01
5.033000000000000000e+03 4.734723281860351562e+01 1.984487175941467285e+00 -1.400452554225921631e-01 2.312618494033813477e-01 2.736497670412063599e-02 1.718764603137969971e-01
5.034000000000000000e+03 8.758934020996093750e+00 2.820757865905761719e+01 4.957424476742744446e-02 -7.610278129577636719e-01 -2.134360820055007935e-01 1.406658738851547241e-01
5.035000000000000000e+03 7.223196411132812500e+01 -2.887262344360351562e+01 -5.123773813247680664e-01 7.963039875030517578e+00 2.235198736190795898e+00 -1.767518818378448486e-01
5.036000000000000000e+03 7.075059509277343750e+01 -3.242103958129882812e+01 -3.151325583457946777e-01 7.139129161834716797e+00 2.047199010848999023e+00 1.071566566824913025e-01
5.037000000000000000e+03 1.600242042541503906e+01 2.309050559997558594e+01 1.545630693435668945e-01 -1.306218057870864868e-01 7.182381115853786469e-03 3.808444142341613770e-01
5.038000000000000000e+03 2.948441696166992188e+01 2.222681617736816406e+01 3.550076484680175781e-01 -7.696838676929473877e-02 8.341178297996520996e-02 2.200249135494232178e-01
5.039000000000000000e+03 6.976511383056640625e+01 -2.839747238159179688e+01 -6.641511917114257812e-01 7.061084270477294922e+00 1.919080018997192383e+00 1.131425425410270691e-01
5.040000000000000000e+03 7.056148529052734375e+01 2.212868118286132812e+01 1.526036709547042847e-01 5.641611576080322266e+00 1.738264560699462891e+00 -4.434658288955688477e-01
5.041000000000000000e+03 2.833837890625000000e+01 2.381484222412109375e+01 4.048526585102081299e-01 -1.012691780924797058e-01 9.107504785060882568e-02 2.749893367290496826e-01
5.042000000000000000e+03 6.866937255859375000e+01 -2.628368949890136719e+01 -8.515846729278564453e-01 6.912834167480468750e+00 1.818374872207641602e+00 2.779098153114318848e-01
5.043000000000000000e+03 2.928228759765625000e+01 1.828491401672363281e+01 1.648147553205490112e-01 -1.790818870067596436e-01 -4.280140157788991928e-03 1.953572332859039307e-01
5.044000000000000000e+03 2.965191078186035156e+01 1.676815795898437500e+01 2.405039221048355103e-02 -1.386293023824691772e-01 -3.437367081642150879e-02 2.135796695947647095e-01
5.045000000000000000e+03 3.714381027221679688e+01 2.038236236572265625e+01 2.865433096885681152e-01 7.367766499519348145e-01 3.069959878921508789e-01 1.583633273839950562e-01
5.046000000000000000e+03 1.007931804656982422e+01 -2.790775108337402344e+01 6.794258370064198971e-04 -2.020442916546016932e-04 1.432144636055454612e-04 4.374887503217905760e-04
5.047000000000000000e+03 1.473199653625488281e+01 -3.597240447998046875e+01 -8.007452124729752541e-04 -1.430464908480644226e-04 -2.831375168170779943e-04 1.928336801938712597e-03
5.048000000000000000e+03 2.600231742858886719e+01 2.392574310302734375e+01 4.054456353187561035e-01 -2.200467735528945923e-01 5.561966076493263245e-02 3.664919435977935791e-01
5.049000000000000000e+03 2.339458465576171875e+01 2.585460662841796875e+01 3.538127839565277100e-01 -2.237334251403808594e-01 3.902380540966987610e-02 4.324658811092376709e-01
5.050000000000000000e+03 8.143688201904296875e+00 -2.899418640136718750e+01 2.479292743373662233e-04 5.031441560277016833e-06 7.588821608806028962e-05 4.818278539460152388e-04
5.051000000000000000e+03 3.090622901916503906e+01 1.739472007751464844e+01 1.079971194267272949e-01 1.831367053091526031e-02 3.789323940873146057e-02 2.011210322380065918e-01
5.052000000000000000e+03 7.032113647460937500e+01 2.302976417541503906e+01 1.459860503673553467e-01 5.580360412597656250e+00 1.717903971672058105e+00 -4.340302944183349609e-01
5.053000000000000000e+03 6.933059692382812500e+01 2.806233024597167969e+01 1.344127953052520752e-01 5.306024551391601562e+00 1.632131218910217285e+00 -3.512480854988098145e-01
5.054000000000000000e+03 4.082104873657226562e+01 2.345564460754394531e+01 3.373796343803405762e-01 9.556217789649963379e-01 3.879004120826721191e-01 2.727097570896148682e-01
5.055000000000000000e+03 5.539915466308593750e+01 2.720607376098632812e+01 5.218579173088073730e-01 2.530376672744750977e+00 9.156703352928161621e-01 -4.805918037891387939e-01
5.056000000000000000e+03 5.691994476318359375e+01 2.616764831542968750e+01 4.306867718696594238e-01 2.913398027420043945e+00 1.003225445747375488e+00 -5.203220248222351074e-01
5.057000000000000000e+03 5.941831970214843750e+01 2.382622909545898438e+01 3.089337050914764404e-01 3.510937213897705078e+00 1.145961284637451172e+00 -5.595396161079406738e-01
5.058000000000000000e+03 1.267796707153320312e+01 -3.127093124389648438e+01 8.336906321346759796e-04 -5.117945838719606400e-04 9.656881593400612473e-05 1.194430515170097351e-03
5.059000000000000000e+03 3.700004196166992188e+01 2.479215049743652344e+01 3.730449378490447998e-01 6.659717559814453125e-01 3.117049932479858398e-01 1.860409379005432129e-01
5.060000000000000000e+03 7.114483642578125000e+01 -2.930090713500976562e+01 -5.483248233795166016e-01 7.522624969482421875e+00 2.092290163040161133e+00 -4.818914830684661865e-02
5.061000000000000000e+03 1.030389118194580078e+01 2.936917495727539062e+01 5.652555450797080994e-02 -6.739586591720581055e-01 -1.852299422025680542e-01 1.562130600214004517e-01
5.062000000000000000e+03 5.255081176757812500e+01 2.991611671447753906e+01 6.320753097534179688e-01 2.090021371841430664e+00 8.166289925575256348e-01 -2.953301072120666504e-01
5.063000000000000000e+03 4.702092742919921875e+01 2.888978767395019531e+01 6.634359359741210938e-01 1.313719153404235840e+00 5.931465625762939453e-01 3.611280396580696106e-02
5.064000000000000000e+03 1.114199447631835938e+01 3.581258392333984375e+01 6.206692010164260864e-02 -7.369980216026306152e-01 -2.024793326854705811e-01 8.778458088636398315e-02
5.065000000000000000e+03 9.678544998168945312e+00 3.448397064208984375e+01 4.803527891635894775e-02 -8.058620691299438477e-01 -2.273480296134948730e-01 8.311945199966430664e-02
5.066000000000000000e+03 6.658599853515625000e+01 3.042614364624023438e+01 1.981331557035446167e-01 4.793498992919921875e+00 1.497489571571350098e+00 -3.369213938713073730e-01
5.067000000000000000e+03 2.207622909545898438e+01 2.687680625915527344e+01 3.093586266040802002e-01 -2.152417302131652832e-01 2.823506668210029602e-02 4.207329154014587402e-01
5.068000000000000000e+03 2.827019882202148438e+01 2.549330711364746094e+01 4.199706614017486572e-01 -5.278487503528594971e-02 1.101557388901710510e-01 2.791609764099121094e-01
5.069000000000000000e+03 6.306291198730468750e+01 -3.057454681396484375e+01 -2.988435924053192139e-01 3.397613525390625000e+00 9.296309947967529297e-01 5.594483613967895508e-01
5.070000000000000000e+03 5.335804367065429688e+01 2.724781608581542969e+01 6.006048321723937988e-01 2.139220714569091797e+00 8.219476342201232910e-01 -4.047941267490386963e-01
5.071000000000000000e+03 5.494724273681640625e+01 3.119224929809570312e+01 5.601219534873962402e-01 2.532541513442993164e+00 9.277990460395812988e-01 -3.029053807258605957e-01
5.072000000000000000e+03 6.921126556396484375e+01 -3.311956787109375000e+01 -2.748594582080841064e-01 6.382418632507324219e+00 1.832267761230468750e+00 1.642421334981918335e-01
5.073000000000000000e+03 7.044689941406250000e+01 3.134269332885742188e+01 1.130347624421119690e-01 5.411537647247314453e+00 1.657371640205383301e+00 -2.649870812892913818e-01
5.074000000000000000e+03 6.438842010498046875e+01 -3.100150871276855469e+01 -3.069255650043487549e-01 4.073272228240966797e+00 1.129904031753540039e+00 5.729159712791442871e-01
5.075000000000000000e+03 4.113610458374023438e+01 2.585461044311523438e+01 4.299115240573883057e-01 9.103266000747680664e-01 4.020714461803436279e-01 2.397544384002685547e-01
5.076000000000000000e+03 6.605572509765625000e+01 -2.972685432434082031e+01 -5.082241892814636230e-01 5.088673591613769531e+00 1.374134778976440430e+00 5.382641553878784180e-01
5.077000000000000000e+03 1.541300010681152344e+01 3.146839904785156250e+01 1.192357838153839111e-01 -4.228062331676483154e-01 -9.107113629579544067e-02 2.197953909635543823e-01
5.078000000000000000e+03 5.816304779052734375e+01 -3.900701141357421875e+01 5.329189896583557129e-01 1.460699677467346191e+00 5.980855822563171387e-01 1.048950403928756714e-01
5.079000000000000000e+03 4.666443634033203125e+01 -9.438232421875000000e+00 -1.017124772071838379e+00 2.608221471309661865e-01 -2.268907725811004639e-01 3.123794123530387878e-02
5.080000000000000000e+03 4.772204971313476562e+01 -8.946180343627929688e+00 -1.056621432304382324e+00 2.683486342430114746e-01 -2.364818453788757324e-01 2.721345610916614532e-02
5.081000000000000000e+03 3.161161613464355469e+01 8.776105880737304688e+00 3.887262940406799316e-02 4.317421838641166687e-02 2.461405470967292786e-02 6.252769231796264648e-01
5.082000000000000000e+03 3.637603759765625000e+01 1.179134941101074219e+01 1.734112054109573364e-01 5.716333985328674316e-01 2.235133796930313110e-01 4.692902565002441406e-01
5.083000000000000000e+03 4.936965560913085938e+01 -7.979986190795898438e+00 -1.130183458328247070e+00 2.831626534461975098e-01 -2.541062235832214355e-01 4.384819790720939636e-02
5.084000000000000000e+03 4.840309524536132812e+01 -7.789798259735107422e+00 -1.057770609855651855e+00 2.938650250434875488e-01 -2.291716784238815308e-01 8.094752579927444458e-02
5.085000000000000000e+03 7.278155517578125000e+01 -1.958697891235351562e+01 -5.048554539680480957e-01 9.605978012084960938e+00 2.730336666107177734e+00 -1.155633568763732910e+00
5.086000000000000000e+03 5.136512756347656250e+01 -5.847401142120361328e+00 -1.072591900825500488e+00 3.324289917945861816e-01 -2.220488786697387695e-01 1.421133875846862793e-01
5.087000000000000000e+03 5.181207656860351562e+01 -6.454902648925781250e+00 -1.192022204399108887e+00 3.159269094467163086e-01 -2.628285884857177734e-01 8.976854383945465088e-02
5.088000000000000000e+03 7.243591308593750000e+01 1.658454537391662598e+00 -9.308857321739196777e-01 7.959247112274169922e+00 2.108508348464965820e+00 -3.730610013008117676e-01
5.089000000000000000e+03 3.919171142578125000e+01 6.377546787261962891e+00 -1.620683372020721436e-01 6.747887730598449707e-01 1.538161337375640869e-01 3.762063086032867432e-01
5.090000000000000000e+03 5.542895507812500000e+01 3.120260238647460938e+00 5.429172143340110779e-02 1.074966788291931152e+00 3.387775421142578125e-01 1.054396554827690125e-01
5.091000000000000000e+03 3.998500061035156250e+01 -1.093084526062011719e+01 -7.783454656600952148e-01 2.318899929523468018e-01 -1.639366447925567627e-01 1.638013869524002075e-01
5.092000000000000000e+03 3.717759704589843750e+01 1.001304531097412109e+01 1.113563925027847290e-01 6.372144222259521484e-01 2.245712429285049438e-01 5.045546889305114746e-01
5.093000000000000000e+03 3.977888107299804688e+01 -1.161421489715576172e+01 -7.684283852577209473e-01 2.126589417457580566e-01 -1.667308211326599121e-01 1.510540395975112915e-01
5.094000000000000000e+03 3.466055679321289062e+01 -1.002036571502685547e+01 -6.762586832046508789e-01 1.845288723707199097e-01 -1.475189477205276489e-01 3.069670796394348145e-01
5.095000000000000000e+03 9.352564811706542969e+00 -2.695988273620605469e+01 3.679558867588639259e-04 -1.362079492537304759e-04 6.952437979634851217e-05 4.786774807143956423e-04
5.096000000000000000e+03 3.230095291137695312e+01 1.003734111785888672e+01 8.206766098737716675e-03 1.329608112573623657e-01 4.235027357935905457e-02 6.029963493347167969e-01
5.097000000000000000e+03 8.167001724243164062e+00 -2.629379463195800781e+01 2.006581489695236087e-04 -8.790440915618091822e-05 3.382612339919432998e-05 3.586994425859302282e-04
5.098000000000000000e+03 3.089141654968261719e+01 -6.880646228790283203e+00 -6.979393362998962402e-01 1.350305080413818359e-01 -1.688726544380187988e-01 3.979383111000061035e-01
5.099000000000000000e+03 4.949978637695312500e+01 -3.001565217971801758e+00 -6.399891376495361328e-01 3.319985270500183105e-01 -9.239718317985534668e-02 2.770287394523620605e-01
5.100000000000000000e+03 7.199217987060546875e+01 -2.285848808288574219e+01 -8.162106871604919434e-01 8.834774017333984375e+00 2.405569076538085938e+00 -6.524708271026611328e-01
5.101000000000000000e+03 9.101561546325683594e+00 1.419686794281005859e+01 2.268919497728347778e-01 -6.443239450454711914e-01 -1.252295970916748047e-01 5.868669152259826660e-01
5.102000000000000000e+03 4.056423950195312500e+01 -8.791774749755859375e+00 -7.850224375724792480e-01 2.845558226108551025e-01 -1.501399874687194824e-01 2.027526199817657471e-01
5.103000000000000000e+03 4.071682739257812500e+01 -1.024697589874267578e+01 -7.991096377372741699e-01 2.510921657085418701e-01 -1.644052416086196899e-01 1.631492525339126587e-01
5.104000000000000000e+03 4.142475509643554688e+01 -1.021840953826904297e+01 -8.207395076751708984e-01 2.534310519695281982e-01 -1.701925396919250488e-01 1.496344655752182007e-01
5.105000000000000000e+03 7.719530582427978516e+00 1.826602172851562500e+01 2.258921414613723755e-01 -7.315241098403930664e-01 -1.516895890235900879e-01 3.337868750095367432e-01
5.106000000000000000e+03 1.011555480957031250e+01 1.924261665344238281e+01 3.060491681098937988e-01 -5.735538005828857422e-01 -8.025139570236206055e-02 2.790324091911315918e-01
5.107000000000000000e+03 5.956831359863281250e+01 -2.265363931655883789e+00 -5.116028785705566406e-01 7.110440731048583984e-01 5.983236059546470642e-02 -4.376546144485473633e-01
5.108000000000000000e+03 6.028820419311523438e+01 -2.392721176147460938e+00 -4.770182669162750244e-01 7.983869314193725586e-01 9.641059488058090210e-02 -6.195209622383117676e-01
5.109000000000000000e+03 7.268253326416015625e+01 -2.339878082275390625e+01 -7.473410367965698242e-01 8.809059143066406250e+00 2.418515443801879883e+00 -7.522918581962585449e-01
5.110000000000000000e+03 7.102928924560546875e+01 1.119813251495361328e+01 2.037224546074867249e-02 6.169582366943359375e+00 1.856986284255981445e+00 -7.687002420425415039e-01
5.111000000000000000e+03 7.196421051025390625e+01 1.253718948364257812e+01 5.340900644659996033e-02 6.331892967224121094e+00 1.915590643882751465e+00 -6.675633192062377930e-01
5.112000000000000000e+03 3.640416336059570312e+01 1.379576873779296875e+01 2.554357051849365234e-01 6.129339933395385742e-01 2.605109214782714844e-01 3.621801137924194336e-01
5.113000000000000000e+03 7.243963623046875000e+01 -3.826376676559448242e+00 -1.085135102272033691e+00 1.005607700347900391e+01 2.691282510757446289e+00 7.158463597297668457e-01
5.114000000000000000e+03 7.624157428741455078e+00 2.238690376281738281e+01 1.330356895923614502e-01 -7.610831260681152344e-01 -1.884142309427261353e-01 1.925627738237380981e-01
5.115000000000000000e+03 8.161389350891113281e+00 2.551200294494628906e+01 7.518532127141952515e-02 -7.615481615066528320e-01 -2.059088498353958130e-01 1.531500369310379028e-01
5.116000000000000000e+03 9.003293991088867188e+00 1.325921344757080078e+01 1.557831019163131714e-01 -6.221396923065185547e-01 -1.399069726467132568e-01 6.349793076515197754e-01
5.117000000000000000e+03 6.279243087768554688e+01 1.321058464050292969e+01 5.149646997451782227e-01 3.984553098678588867e+00 1.349855303764343262e+00 -8.113723397254943848e-01
5.118000000000000000e+03 4.995254135131835938e+01 -7.617917537689208984e+00 -1.139359951019287109e+00 2.931429743766784668e-01 -2.538650929927825928e-01 4.938340932130813599e-02
5.119000000000000000e+03 5.071463012695312500e+01 -6.258429050445556641e+00 -1.088661670684814453e+00 3.211784064769744873e-01 -2.302449792623519897e-01 1.306793391704559326e-01
5.120000000000000000e+03 7.089699554443359375e+01 1.625623512268066406e+01 1.557551622390747070e-01 5.889550209045410156e+00 1.813591599464416504e+00 -6.131402850151062012e-01
5.121000000000000000e+03 7.259171295166015625e+01 1.586051273345947266e+01 1.027838215231895447e-01 6.297276020050048828e+00 1.920017957687377930e+00 -5.540152192115783691e-01
5.122000000000000000e+03 7.180686187744140625e+01 2.090156555175781250e+01 1.288223117589950562e-01 5.928586483001708984e+00 1.817222714424133301e+00 -4.446405470371246338e-01
5.123000000000000000e+03 7.055046844482421875e+01 8.261682510375976562e+00 -1.566662341356277466e-01 6.257629394531250000e+00 1.830288887023925781e+00 -8.711069822311401367e-01
5.124000000000000000e+03 5.660346221923828125e+01 3.779962778091430664e+00 9.253603965044021606e-02 1.451534986495971680e+00 4.632213115692138672e-01 -7.809232920408248901e-02
5.125000000000000000e+03 7.253746032714843750e+01 1.032720088958740234e+01 -4.065434262156486511e-02 6.638095855712890625e+00 1.979232549667358398e+00 -6.632500886917114258e-01
5.126000000000000000e+03 7.016461181640625000e+01 1.332178306579589844e+01 1.300144940614700317e-01 5.810707092285156250e+00 1.782216429710388184e+00 -7.425032854080200195e-01
5.127000000000000000e+03 3.722525405883789062e+01 -1.222436428070068359e+01 -6.923643946647644043e-01 1.781556904315948486e-01 -1.542626023292541504e-01 2.005429416894912720e-01
5.128000000000000000e+03 7.348762512207031250e+00 1.679116821289062500e+01 2.142158448696136475e-01 -7.282465100288391113e-01 -1.542092114686965942e-01 4.029038846492767334e-01
5.129000000000000000e+03 1.032019329071044922e+01 1.712486076354980469e+01 3.891868293285369873e-01 -6.006593108177185059e-01 -6.344173848628997803e-02 3.842960596084594727e-01
5.130000000000000000e+03 7.149717712402343750e+01 -2.408047294616699219e+01 -8.582303524017333984e-01 8.443925857543945312e+00 2.275708675384521484e+00 -4.306481778621673584e-01
5.131000000000000000e+03 7.826193332672119141e+00 1.602801704406738281e+01 2.261659055948257446e-01 -6.999412775039672852e-01 -1.421326100826263428e-01 4.563343524932861328e-01
5.132000000000000000e+03 4.586458587646484375e+01 -1.100399208068847656e+01 -9.860756993293762207e-01 2.132406383752822876e-01 -2.318505197763442993e-01 -1.961493305861949921e-02
5.133000000000000000e+03 7.129311370849609375e+01 1.780902147293090820e+00 -9.882133603096008301e-01 7.640520572662353516e+00 1.995692253112792969e+00 -7.311211228370666504e-01
5.134000000000000000e+03 7.546329498291015625e+00 1.050099754333496094e+01 -1.286998093128204346e-01 -4.650875627994537354e-01 -1.781362146139144897e-01 5.983024239540100098e-01
5.135000000000000000e+03 7.229284667968750000e+01 -5.782202720642089844e+00 -1.875966191291809082e-01 1.087206649780273438e+01 3.205341100692749023e+00 1.216329097747802734e+00
5.136000000000000000e+03 7.179130554199218750e+01 -4.309464454650878906e+00 -1.137878537178039551e+00 1.052439975738525391e+01 2.815956354141235352e+00 5.703901052474975586e-01
5.137000000000000000e+03 7.217323303222656250e+01 1.105836009979248047e+01 -1.529697561636567116e-03 6.483376502990722656e+00 1.944554090499877930e+00 -6.782389879226684570e-01
5.138000000000000000e+03 2.777539443969726562e+01 1.006379842758178711e+00 -2.721184194087982178e-01 5.234392732381820679e-02 -6.593234837055206299e-02 2.083636522293090820e-01
5.139000000000000000e+03 2.878569221496582031e+01 3.878092765808105469e+00 1.061000600457191467e-01 -6.487715244293212891e-02 1.236687134951353073e-02 3.094011545181274414e-01
5.140000000000000000e+03 7.236717987060546875e+01 -4.685391485691070557e-01 -1.209799647331237793e+00 8.683115959167480469e+00 2.241994857788085938e+00 -1.008437052369117737e-01
5.141000000000000000e+03 7.133391571044921875e+01 -3.698162317276000977e+00 -1.458555936813354492e+00 1.029455280303955078e+01 2.650799036026000977e+00 8.049538731575012207e-02
5.142000000000000000e+03 7.203756713867187500e+01 5.051292896270751953e+00 -4.883204400539398193e-01 7.110239028930664062e+00 1.986575484275817871e+00 -6.791571378707885742e-01
5.143000000000000000e+03 3.697157669067382812e+01 1.312493801116943359e+01 2.713221311569213867e-01 6.680085062980651855e-01 2.817991971969604492e-01 3.932926058769226074e-01
5.144000000000000000e+03 3.215439224243164062e+01 1.122008514404296875e+01 -2.332432754337787628e-02 1.452033519744873047e-01 3.656370937824249268e-02 5.618605017662048340e-01
5.145000000000000000e+03 7.156122589111328125e+01 4.723857879638671875e+00 -5.336408019065856934e-01 7.045092582702636719e+00 1.953435540199279785e+00 -7.485198974609375000e-01
5.146000000000000000e+03 7.081636810302734375e+01 2.436190605163574219e+01 1.251702606678009033e-01 5.654040813446044922e+00 1.733763217926025391e+00 -3.867110311985015869e-01
5.147000000000000000e+03 7.122095489501953125e+01 2.017101478576660156e+01 1.472049802541732788e-01 5.828482151031494141e+00 1.792706131935119629e+00 -4.835357069969177246e-01
5.148000000000000000e+03 7.200325775146484375e+01 1.642462921142578125e+01 1.232109740376472473e-01 6.131691932678222656e+00 1.876470923423767090e+00 -5.685592889785766602e-01
5.149000000000000000e+03 7.193400573730468750e+01 4.082662105560302734e+00 -6.156020164489746094e-01 7.256773471832275391e+00 1.992351412773132324e+00 -6.745582818984985352e-01
5.150000000000000000e+03 7.094393157958984375e+01 3.582384347915649414e+00 -6.991160511970520020e-01 7.094355106353759766e+00 1.918571710586547852e+00 -8.388807773590087891e-01
5.151000000000000000e+03 7.228591156005859375e+01 3.429574728012084961e+00 -6.918131113052368164e-01 7.521709918975830078e+00 2.048969030380249023e+00 -5.521396398544311523e-01
5.152000000000000000e+03 8.943035125732421875e+00 1.893420600891113281e+01 2.695729434490203857e-01 -6.626029610633850098e-01 -1.179089993238449097e-01 3.027227222919464111e-01
5.153000000000000000e+03 7.986878871917724609e+00 1.913982009887695312e+01 2.233419120311737061e-01 -7.210435867309570312e-01 -1.493105143308639526e-01 2.953335642814636230e-01
5.154000000000000000e+03 8.579208374023437500e+00 1.060399341583251953e+01 -1.419279873371124268e-01 -4.946755468845367432e-01 -1.909810602664947510e-01 6.617746949195861816e-01
5.155000000000000000e+03 9.659878730773925781e+00 1.265160083770751953e+01 1.145888715982437134e-01 -6.085010170936584473e-01 -1.481736451387405396e-01 6.824112534523010254e-01
5.156000000000000000e+03 3.049257469177246094e+01 7.039335727691650391e+00 1.251012980937957764e-01 -7.808265835046768188e-02 1.410559285432100296e-02 5.767280459403991699e-01
5.157000000000000000e+03 3.130629539489746094e+01 7.501290321350097656e+00 8.114624023437500000e-02 -5.566349718719720840e-03 2.267396636307239532e-02 5.953960418701171875e-01
5.158000000000000000e+03 8.529155731201171875e+00 1.715216827392578125e+01 2.779451310634613037e-01 -6.901198625564575195e-01 -1.236524209380149841e-01 3.945124447345733643e-01
5.159000000000000000e+03 9.563465118408203125e+00 1.724390792846679688e+01 3.409201800823211670e-01 -6.394788622856140137e-01 -8.956760913133621216e-02 3.868833184242248535e-01
5.160000000000000000e+03 8.108123779296875000e+00 1.229045677185058594e+01 3.633015975356101990e-02 -5.762836337089538574e-01 -1.619860380887985229e-01 6.329047083854675293e-01
5.161000000000000000e+03 7.076622772216796875e+01 1.228213310241699219e+01 8.132910728454589844e-02 6.026624202728271484e+00 1.832386016845703125e+00 -7.449712753295898438e-01
5.162000000000000000e+03 8.411045074462890625e+00 9.091691970825195312e+00 -2.786162197589874268e-01 -4.021403193473815918e-01 -2.042269706726074219e-01 6.018360853195190430e-01
5.163000000000000000e+03 9.699235916137695312e+00 1.330341148376464844e+01 1.867379099130630493e-01 -6.230314970016479492e-01 -1.308880746364593506e-01 6.483972072601318359e-01
5.164000000000000000e+03 6.173953628540039062e+01 5.722228050231933594e+00 1.522256731986999512e-01 3.193449020385742188e+00 1.003702402114868164e+00 -1.029035687446594238e+00
5.165000000000000000e+03 7.069178771972656250e+01 -5.769057273864746094e-01 -1.434958934783935547e+00 8.371393203735351562e+00 2.080930233001708984e+00 -8.524190187454223633e-01
5.166000000000000000e+03 3.798381042480468750e+01 -1.086126518249511719e+01 -7.295210957527160645e-01 2.194759547710418701e-01 -1.530135273933410645e-01 2.159444689750671387e-01
5.167000000000000000e+03 7.097076416015625000e+01 1.814686965942382812e+01 1.618972867727279663e-01 5.845415592193603516e+00 1.802193760871887207e+00 -5.482059717178344727e-01
5.168000000000000000e+03 7.068684387207031250e+01 1.944137382507324219e+01 1.629326343536376953e-01 5.750155925750732422e+00 1.773926615715026855e+00 -5.179860591888427734e-01
5.169000000000000000e+03 7.885262489318847656e+00 -2.541797637939453125e+01 5.154634709469974041e-04 1.592458647792227566e-05 1.594164205016568303e-04 2.348037523915991187e-04
5.170000000000000000e+03 7.257261657714843750e+01 7.640625476837158203e+00 -2.165501862764358521e-01 6.899001598358154297e+00 2.004735469818115234e+00 -6.531508564949035645e-01
5.171000000000000000e+03 5.866593933105468750e+01 -3.203691005706787109e+00 -8.226461410522460938e-01 5.102084279060363770e-01 -9.373131394386291504e-02 -2.045169919729232788e-01
5.172000000000000000e+03 8.715833663940429688e+00 2.401534843444824219e+01 1.026474758982658386e-01 -7.048233747482299805e-01 -1.806527674198150635e-01 1.763767898082733154e-01
5.173000000000000000e+03 4.066515731811523438e+01 4.941003322601318359e+00 -2.481369972229003906e-01 6.343131661415100098e-01 1.158528551459312439e-01 2.583720386028289795e-01
5.174000000000000000e+03 5.284663391113281250e+01 1.199741482734680176e+00 -1.091167330741882324e-01 5.085673332214355469e-01 1.198351755738258362e-01 2.951757907867431641e-01
5.175000000000000000e+03 5.195238494873046875e+01 1.051711201667785645e+00 -1.376995593309402466e-01 4.110644757747650146e-01 8.200947940349578857e-02 3.031631410121917725e-01
5.176000000000000000e+03 7.083241271972656250e+01 -2.494027137756347656e+01 -8.917862772941589355e-01 8.089693069458007812e+00 2.159372091293334961e+00 -2.225074619054794312e-01
5.177000000000000000e+03 7.187171936035156250e+01 -2.537777328491210938e+01 -7.775236368179321289e-01 8.273734092712402344e+00 2.248863220214843750e+00 -3.910467028617858887e-01
5.178000000000000000e+03 3.179680633544921875e+01 -8.466954231262207031e+00 -6.743267774581909180e-01 1.323309391736984253e-01 -1.625987440347671509e-01 3.830356001853942871e-01
5.179000000000000000e+03 5.682202529907226562e+01 -4.895417690277099609e+00 -1.310231685638427734e+00 3.444156646728515625e-01 -2.897448241710662842e-01 -1.419799961149692535e-02
5.180000000000000000e+03 4.431151580810546875e+01 1.683693289756774902e+00 -2.900346815586090088e-01 3.645764589309692383e-01 2.236253023147583008e-02 1.606392115354537964e-01
5.181000000000000000e+03 4.535707855224609375e+01 1.278546571731567383e+00 -2.710182368755340576e-01 3.167823255062103271e-01 1.372923422604799271e-02 1.722038835287094116e-01
5.182000000000000000e+03 7.175737762451171875e+01 1.444472789764404297e+01 1.029930114746093750e-01 6.164253711700439453e+00 1.880174040794372559e+00 -6.419036388397216797e-01
5.183000000000000000e+03 6.954094696044921875e+01 -2.628922653198242188e+01 -8.438122868537902832e-01 7.326376438140869141e+00 1.944769263267517090e+00 1.107425242662429810e-01
5.184000000000000000e+03 7.210330200195312500e+01 -2.475735282897949219e+01 -7.592680454254150391e-01 8.485095977783203125e+00 2.317748546600341797e+00 -5.221568346023559570e-01
5.185000000000000000e+03 5.886809921264648438e+01 -2.191944360733032227e+00 -5.455827116966247559e-01 7.302237749099731445e-01 5.539231002330780029e-02 -2.991404235363006592e-01
5.186000000000000000e+03 5.743150329589843750e+01 -2.236171245574951172e+00 -6.125897765159606934e-01 6.270875334739685059e-01 4.349333699792623520e-03 -4.809262976050376892e-02
5.187000000000000000e+03 2.714527702331542969e+01 2.967179715633392334e-01 -3.850271701812744141e-01 5.745738744735717773e-02 -9.827093034982681274e-02 2.167883068323135376e-01
5.188000000000000000e+03 6.672621154785156250e+01 -2.103992462158203125e+00 -1.118142962455749512e+00 5.810596466064453125e+00 1.407736182212829590e+00 -2.839860200881958008e+00
5.189000000000000000e+03 6.604127502441406250e+01 -1.348125934600830078e+00 -8.018927574157714844e-01 4.871529102325439453e+00 1.220890879631042480e+00 -2.595561504364013672e+00
5.190000000000000000e+03 3.800017547607421875e+01 5.037751674652099609e+00 -1.998769789934158325e-01 5.314402580261230469e-01 9.946898370981216431e-02 4.096142649650573730e-01
5.191000000000000000e+03 3.510511779785156250e+01 -1.296254539489746094e+01 -6.203435063362121582e-01 1.280215680599212646e-01 -1.476965695619583130e-01 2.335051447153091431e-01
5.192000000000000000e+03 5.022143554687500000e+01 -5.659465789794921875e+00 -9.795510768890380859e-01 3.308924138545989990e-01 -1.945976018905639648e-01 1.747398674488067627e-01
5.193000000000000000e+03 4.132151031494140625e+01 3.028893470764160156e+00 -3.144144713878631592e-01 5.167145133018493652e-01 6.069001182913780212e-02 2.246623486280441284e-01
5.194000000000000000e+03 4.304039001464843750e+01 2.866631746292114258e+00 -2.845456600189208984e-01 4.546006023883819580e-01 5.101648345589637756e-02 1.479933261871337891e-01
5.195000000000000000e+03 4.569316482543945312e+01 5.681562423706054688e-01 -3.143876194953918457e-01 3.065963983535766602e-01 -2.337368670850992203e-03 2.016220539808273315e-01
5.196000000000000000e+03 5.308909988403320312e+01 -5.759815692901611328e+00 -1.205535411834716797e+00 3.317468762397766113e-01 -2.621365487575531006e-01 1.052380427718162537e-01
5.197000000000000000e+03 2.751531410217285156e+01 -2.922464132308959961e+00 -7.031951546669006348e-01 5.551327764987945557e-02 -1.943045556545257568e-01 3.496289849281311035e-01
5.198000000000000000e+03 5.888592147827148438e+01 -1.606222748756408691e+00 -4.076496064662933350e-01 7.937954068183898926e-01 1.158437281847000122e-01 -3.368660509586334229e-01
5.199000000000000000e+03 7.130117034912109375e+01 -1.962541937828063965e+00 -1.517754673957824707e+00 9.226004600524902344e+00 2.312474966049194336e+00 -3.238108754158020020e-01
5.200000000000000000e+03 3.929146957397460938e+01 4.375720024108886719e+00 -2.576852440834045410e-01 5.648770332336425781e-01 9.215754270553588867e-02 3.346922099590301514e-01
5.201000000000000000e+03 1.120086002349853516e+01 1.830765151977539062e+01 3.931601643562316895e-01 -4.994221627712249756e-01 -3.187860548496246338e-02 2.979975044727325439e-01
5.202000000000000000e+03 6.035786437988281250e+01 1.584382343292236328e+01 6.430435776710510254e-01 3.658789873123168945e+00 1.290549993515014648e+00 -5.812584757804870605e-01
5.203000000000000000e+03 6.192638778686523438e+01 1.721103858947753906e+01 5.030530095100402832e-01 3.966072320938110352e+00 1.340737581253051758e+00 -5.838175415992736816e-01
5.204000000000000000e+03 7.141594696044921875e+01 2.229704856872558594e+01 1.275750398635864258e-01 5.829207897186279297e+00 1.787034869194030762e+00 -4.218336939811706543e-01
5.205000000000000000e+03 3.039218902587890625e+01 6.383902549743652344e+00 1.297279596328735352e-01 -7.426046580076217651e-02 1.664024963974952698e-02 5.361405014991760254e-01
5.206000000000000000e+03 7.218965148925781250e+01 1.539952468872070312e+01 1.081881448626518250e-01 6.217095851898193359e+00 1.897585153579711914e+00 -5.910820364952087402e-01
5.207000000000000000e+03 5.780720901489257812e+01 4.345313072204589844e+00 1.210424154996871948e-01 1.842727780342102051e+00 5.891310572624206543e-01 -3.022278845310211182e-01
5.208000000000000000e+03 3.661887741088867188e+01 1.116535949707031250e+01 1.578007787466049194e-01 5.895919203758239746e-01 2.242178022861480713e-01 4.878462553024291992e-01
5.209000000000000000e+03 3.000070571899414062e+01 -6.605874061584472656e+00 -7.105806469917297363e-01 9.989356994628906250e-02 -1.832061260938644409e-01 4.123753905296325684e-01
5.210000000000000000e+03 2.963365936279296875e+01 -5.916102409362792969e+00 -7.173663377761840820e-01 9.765394777059555054e-02 -1.859137117862701416e-01 4.059608280658721924e-01
5.211000000000000000e+03 7.140535736083984375e+01 -2.214563179016113281e+01 -8.462569713592529297e-01 8.911398887634277344e+00 2.419542551040649414e+00 -5.765349864959716797e-01
5.212000000000000000e+03 4.065726470947265625e+01 -1.101697635650634766e+01 -7.960238456726074219e-01 2.295983582735061646e-01 -1.699276417493820190e-01 1.451105773448944092e-01
5.213000000000000000e+03 7.825162410736083984e+00 1.476383590698242188e+01 1.858627945184707642e-01 -6.699022054672241211e-01 -1.452118307352066040e-01 5.220074057579040527e-01
5.214000000000000000e+03 7.496356487274169922e+00 1.427486705780029297e+01 1.537580937147140503e-01 -6.566338539123535156e-01 -1.508627235889434814e-01 5.366190671920776367e-01
5.215000000000000000e+03 3.183827781677246094e+01 -9.581222534179687500e+00 -6.495009064674377441e-01 1.103830337524414062e-01 -1.617353707551956177e-01 3.743387758731842041e-01
5.216000000000000000e+03 4.605235290527343750e+01 1.587221145629882812e+00 -2.251260876655578613e-01 2.832426130771636963e-01 1.743495464324951172e-02 1.644872128963470459e-01
5.217000000000000000e+03 4.636816787719726562e+01 8.722619414329528809e-01 -2.604213058948516846e-01 2.845804393291473389e-01 7.247743196785449982e-03 1.980984658002853394e-01
5.218000000000000000e+03 2.745986747741699219e+01 -1.769816040992736816e+00 -6.124793291091918945e-01 6.643652170896530151e-02 -1.638128459453582764e-01 2.984184622764587402e-01
5.219000000000000000e+03 7.174589538574218750e+01 8.536410331726074219e+00 -1.531192511320114136e-01 6.574974060058593750e+00 1.926556468009948730e+00 -7.526353597640991211e-01
5.220000000000000000e+03 7.178401947021484375e+01 7.771366119384765625e+00 -2.132557481527328491e-01 6.667489051818847656e+00 1.936269998550415039e+00 -7.543811202049255371e-01
5.221000000000000000e+03 2.794469833374023438e+01 -4.029245078563690186e-01 -4.498622715473175049e-01 7.743356376886367798e-02 -1.117286086082458496e-01 2.480381876230239868e-01
5.222000000000000000e+03 2.770688819885253906e+01 1.718566179275512695e+00 -1.547479182481765747e-01 3.239658847451210022e-02 -3.670540079474449158e-02 2.038723528385162354e-01
5.223000000000000000e+03 6.739319610595703125e+01 -2.013356685638427734e+00 -1.312531828880310059e+00 6.631731986999511719e+00 1.595759987831115723e+00 -2.590938568115234375e+00
5.224000000000000000e+03 1.425188541412353516e+01 2.208389282226562500e+01 1.798104196786880493e-01 -1.913693696260452271e-01 -3.467687638476490974e-03 2.933216392993927002e-01
5.225000000000000000e+03 1.309314250946044922e+01 2.139496231079101562e+01 2.216598093509674072e-01 -2.680499553680419922e-01 -1.391704566776752472e-02 2.535540461540222168e-01
5.226000000000000000e+03 8.792634963989257812e+00 2.147402954101562500e+01 1.819493323564529419e-01 -6.681684851646423340e-01 -1.458657383918762207e-01 2.205835133790969849e-01
5.227000000000000000e+03 9.730137825012207031e+00 1.586157321929931641e+01 3.515430688858032227e-01 -6.415495872497558594e-01 -8.700194954872131348e-02 4.774147868156433105e-01
5.228000000000000000e+03 8.736570358276367188e+00 1.500528812408447266e+01 2.491066753864288330e-01 -6.652734875679016113e-01 -1.248500421643257141e-01 5.302324295043945312e-01
5.229000000000000000e+03 7.205173492431640625e+00 1.618156433105468750e+01 1.991346776485443115e-01 -7.188963890075683594e-01 -1.559285074472427368e-01 4.323209524154663086e-01
5.230000000000000000e+03 7.198072052001953125e+01 -1.541662812232971191e+00 -1.373788714408874512e+00 9.119733810424804688e+00 2.323783636093139648e+00 -7.160397619009017944e-02
5.231000000000000000e+03 5.412454986572265625e+01 1.704898595809936523e+00 -5.764644593000411987e-02 6.954221129417419434e-01 1.913326978683471680e-01 2.404249757528305054e-01
5.232000000000000000e+03 7.123433685302734375e+01 -2.583689498901367188e+01 -7.919980287551879883e-01 8.027763366699218750e+00 2.170729398727416992e+00 -2.449829876422882080e-01
5.233000000000000000e+03 9.493876457214355469e+00 9.433957099914550781e+00 -2.888754606246948242e-01 -4.626282453536987305e-01 -2.254511117935180664e-01 6.696991324424743652e-01
5.234000000000000000e+03 1.103146839141845703e+01 -2.870520401000976562e+01 5.629707593470811844e-04 -7.495428872061893344e-05 1.464049273636192083e-04 6.554233259521424770e-04
5.235000000000000000e+03 3.031332397460937500e+01 1.317252349853515625e+01 -1.594223380088806152e-01 -2.205579541623592377e-02 -5.444343760609626770e-02 4.426924586296081543e-01
5.236000000000000000e+03 1.374990653991699219e+01 2.165344619750976562e+01 2.059819400310516357e-01 -2.256192862987518311e-01 -5.891201552003622055e-03 2.675356566905975342e-01
5.237000000000000000e+03 7.160293579101562500e+01 1.584559631347656250e+01 1.314840465784072876e-01 6.067812442779541016e+00 1.859789013862609863e+00 -5.987089872360229492e-01
5.238000000000000000e+03 7.130672454833984375e+01 1.524393463134765625e+01 1.331727504730224609e-01 6.024171829223632812e+00 1.847203373908996582e+00 -6.304769515991210938e-01
5.239000000000000000e+03 6.075123214721679688e+01 6.902229309082031250e+00 2.221382707357406616e-01 3.077846050262451172e+00 9.899953007698059082e-01 -8.565093278884887695e-01
5.240000000000000000e+03 6.110665512084960938e+01 8.947252273559570312e+00 3.354546725749969482e-01 3.400362968444824219e+00 1.120745301246643066e+00 -8.822799921035766602e-01
5.241000000000000000e+03 6.446138763427734375e+01 -1.908055663108825684e+00 -3.789673447608947754e-01 2.949546575546264648e+00 7.711737155914306641e-01 -2.429279327392578125e+00
5.242000000000000000e+03 5.368347549438476562e+01 -5.419635295867919922e+00 -1.179971456527709961e+00 3.446903228759765625e-01 -2.505843639373779297e-01 1.119749173521995544e-01
5.243000000000000000e+03 5.091060638427734375e+01 -3.433208703994750977e+00 -7.314634919166564941e-01 3.556401431560516357e-01 -1.127470061182975769e-01 2.724239826202392578e-01
5.244000000000000000e+03 7.668239116668701172e+00 2.058976364135742188e+01 1.755607277154922485e-01 -7.477252483367919922e-01 -1.716493517160415649e-01 2.393556386232376099e-01
5.245000000000000000e+03 8.152356147766113281e+00 2.005273628234863281e+01 2.084455937147140503e-01 -7.140305042266845703e-01 -1.516754776239395142e-01 2.613703608512878418e-01
5.246000000000000000e+03 8.572878837585449219e+00 -2.828548812866210938e+01 3.832321090158075094e-04 -1.583545526955276728e-04 6.746327562723308802e-05 5.091591738164424896e-04
5.247000000000000000e+03 1.823028564453125000e+01 2.404551124572753906e+01 1.858875900506973267e-01 -1.483893841505050659e-01 1.124946493655443192e-02 4.703884720802307129e-01
5.248000000000000000e+03 1.466360569000244141e+01 2.280061721801757812e+01 1.637150794267654419e-01 -1.886053532361984253e-01 -7.467085961252450943e-03 3.162598013877868652e-01
5.249000000000000000e+03 7.174552917480468750e+01 -2.085009384155273438e+01 -7.427689433097839355e-01 9.376540184020996094e+00 2.590131282806396484e+00 -7.379040122032165527e-01
5.250000000000000000e+03 7.112210083007812500e+01 -2.113488197326660156e+01 -8.051015138626098633e-01 9.255040168762207031e+00 2.534981489181518555e+00 -5.408808588981628418e-01
5.251000000000000000e+03 1.178852748870849609e+01 1.899643325805664062e+01 3.717323839664459229e-01 -4.208903014659881592e-01 -1.474737469106912613e-02 2.606202661991119385e-01
5.252000000000000000e+03 9.327941894531250000e+00 2.295370292663574219e+01 1.456188410520553589e-01 -6.400283575057983398e-01 -1.483228504657745361e-01 1.974330246448516846e-01
5.253000000000000000e+03 4.686191177368164062e+01 -9.977984428405761719e+00 -1.037330269813537598e+00 2.394220679998397827e-01 -2.393724620342254639e-01 1.818291028030216694e-03
5.254000000000000000e+03 3.413834762573242188e+01 -1.097485923767089844e+01 -6.481441259384155273e-01 1.496381163597106934e-01 -1.495518088340759277e-01 3.017428517341613770e-01
5.255000000000000000e+03 4.228526687622070312e+01 2.599602937698364258e+00 -3.131729960441589355e-01 4.763325154781341553e-01 4.894785583019256592e-02 1.866760849952697754e-01
5.256000000000000000e+03 6.223638534545898438e+01 1.562767696380615234e+01 5.536983609199523926e-01 3.957015514373779297e+00 1.353214144706726074e+00 -6.652949452400207520e-01
5.257000000000000000e+03 6.095363616943359375e+01 1.655307197570800781e+01 5.737116932868957520e-01 3.772618293762207031e+00 1.303898930549621582e+00 -5.705870985984802246e-01
5.258000000000000000e+03 3.588409805297851562e+01 1.986945152282714844e+01 2.852705419063568115e-01 5.947424173355102539e-01 2.640039026737213135e-01 1.557968258857727051e-01
5.259000000000000000e+03 3.553453063964843750e+01 1.808955955505371094e+01 2.640415430068969727e-01 5.527048110961914062e-01 2.450238913297653198e-01 1.805096119642257690e-01
5.260000000000000000e+03 7.012390136718750000e+01 -2.521187782287597656e+01 -8.869161009788513184e-01 7.765987396240234375e+00 2.063721418380737305e+00 -4.385373741388320923e-02
5.261000000000000000e+03 6.294403076171875000e+01 1.244793128967285156e+01 4.825770258903503418e-01 4.004760265350341797e+00 1.346201181411743164e+00 -8.602837324142456055e-01
5.262000000000000000e+03 6.210524749755859375e+01 1.211108207702636719e+01 5.073527097702026367e-01 3.813097000122070312e+00 1.296134948730468750e+00 -8.445750474929809570e-01
5.263000000000000000e+03 3.527207946777343750e+01 1.654752349853515625e+01 2.449373155832290649e-01 5.096877217292785645e-01 2.263875007629394531e-01 2.362275570631027222e-01
5.264000000000000000e+03 2.756591033935546875e+01 -2.375171184539794922e+00 -6.568202972412109375e-01 6.721068918704986572e-02 -1.768828928470611572e-01 3.205322623252868652e-01
5.265000000000000000e+03 2.787855148315429688e+01 2.988648414611816406e-01 -3.624719679355621338e-01 6.778154522180557251e-02 -8.840712904930114746e-02 2.277715504169464111e-01
5.266000000000000000e+03 2.903174400329589844e+01 1.222650432586669922e+01 -2.696734070777893066e-01 -1.915125846862792969e-01 -1.383558064699172974e-01 5.289694666862487793e-01
5.267000000000000000e+03 6.889501190185546875e+01 -2.365454912185668945e+00 -1.752578377723693848e+00 8.416613578796386719e+00 1.999210476875305176e+00 -1.929922223091125488e+00
5.268000000000000000e+03 6.832533264160156250e+01 -3.333877086639404297e+00 -1.843979597091674805e+00 8.572891235351562500e+00 2.018673658370971680e+00 -2.499818563461303711e+00
5.269000000000000000e+03 3.027051353454589844e+01 5.713664531707763672e+00 1.278753131628036499e-01 -7.449910789728164673e-02 1.601286046206951141e-02 4.914245307445526123e-01
5.270000000000000000e+03 8.423453330993652344e+00 1.328688812255859375e+01 1.193957850337028503e-01 -6.182061433792114258e-01 -1.496431082487106323e-01 6.138976812362670898e-01
5.271000000000000000e+03 5.728695678710937500e+01 -4.490008354187011719e+00 -1.223060131072998047e+00 3.504755496978759766e-01 -2.617753744125366211e-01 -5.103249475359916687e-02
5.272000000000000000e+03 3.224297332763671875e+01 -8.907145500183105469e+00 -6.695477366447448730e-01 1.381865292787551880e-01 -1.594083607196807861e-01 3.711975216865539551e-01
5.273000000000000000e+03 3.219947433471679688e+01 -7.984958648681640625e+00 -6.835272312164306641e-01 1.587893664836883545e-01 -1.574213504791259766e-01 3.742362856864929199e-01
5.274000000000000000e+03 7.027193450927734375e+01 2.700658416748046875e+01 1.348621696233749390e-01 5.485137939453125000e+00 1.686000108718872070e+00 -3.445010781288146973e-01
5.275000000000000000e+03 6.856511688232421875e+01 2.574969673156738281e+01 1.685657501220703125e-01 5.186835765838623047e+00 1.606620430946350098e+00 -3.984420299530029297e-01
5.276000000000000000e+03 4.209856033325195312e+01 -9.281313896179199219e+00 -8.314064741134643555e-01 2.756067216396331787e-01 -1.667399257421493530e-01 1.605540663003921509e-01
5.277000000000000000e+03 4.432724761962890625e+01 -1.089442729949951172e+01 -9.237533807754516602e-01 2.297663688659667969e-01 -2.081961035728454590e-01 4.471524804830551147e-02
5.278000000000000000e+03 4.740929794311523438e+01 -8.454759597778320312e+00 -1.027330517768859863e+00 2.824325263500213623e-01 -2.234693914651870728e-01 6.874062865972518921e-02
5.279000000000000000e+03 4.491500091552734375e+01 -1.052467536926269531e+01 -9.435380697250366211e-01 2.372825592756271362e-01 -2.118766605854034424e-01 3.626829385757446289e-02
5.280000000000000000e+03 6.757786560058593750e+01 -2.721018409729003906e+01 -7.628825902938842773e-01 6.183100700378417969e+00 1.626065492630004883e+00 4.453640580177307129e-01
5.281000000000000000e+03 6.137501525878906250e+01 9.995455741882324219e+00 4.023640155792236328e-01 3.550497531890869141e+00 1.185858488082885742e+00 -8.831662535667419434e-01
5.282000000000000000e+03 3.107651519775390625e+01 1.282664012908935547e+01 -1.063488945364952087e-01 5.911558866500854492e-02 -1.416999194771051407e-02 4.681315720081329346e-01
5.283000000000000000e+03 8.832360267639160156e+00 -2.977120780944824219e+01 4.855828592553734779e-04 3.673591709230095148e-05 1.566956343594938517e-04 6.547966622747480869e-04
5.284000000000000000e+03 2.860536575317382812e+01 -5.510558128356933594e+00 -7.406687140464782715e-01 5.462279543280601501e-02 -2.058137655258178711e-01 4.200243055820465088e-01
5.285000000000000000e+03 4.699693679809570312e+01 1.149145960807800293e+00 -2.248888313770294189e-01 2.625655233860015869e-01 1.130300480872392654e-02 2.017284631729125977e-01
5.286000000000000000e+03 4.850638961791992188e+01 2.068316191434860229e-01 -2.743253409862518311e-01 2.746351659297943115e-01 9.294228948419913650e-05 2.595342993736267090e-01
5.287000000000000000e+03 8.407691955566406250e+00 2.624570846557617188e+01 6.844224035739898682e-02 -7.556169033050537109e-01 -2.061524093151092529e-01 1.492696255445480347e-01
5.288000000000000000e+03 2.864473724365234375e+01 2.490012407302856445e+00 -5.511013045907020569e-02 -1.764252432622015476e-03 -1.706231571733951569e-02 2.468493431806564331e-01
5.289000000000000000e+03 2.927956962585449219e+01 2.716741323471069336e+00 -4.714532569050788879e-02 -1.353473984636366367e-03 -1.454963907599449158e-02 2.838769555091857910e-01
5.290000000000000000e+03 7.209920501708984375e+01 -1.933355331420898438e+01 -5.074438452720642090e-01 9.823034286499023438e+00 2.794677257537841797e+00 -9.905820488929748535e-01
5.291000000000000000e+03 3.911297607421875000e+01 2.508467483520507812e+01 3.859594762325286865e-01 8.193809986114501953e-01 3.616021275520324707e-01 2.190710008144378662e-01
5.292000000000000000e+03 3.654410552978515625e+01 2.196584320068359375e+01 3.102541565895080566e-01 6.583876609802246094e-01 2.905925512313842773e-01 1.638636291027069092e-01
5.293000000000000000e+03 6.738682556152343750e+01 -2.988388442993164062e+01 -5.231064558029174805e-01 5.729609012603759766e+00 1.561950802803039551e+00 4.065116047859191895e-01
5.294000000000000000e+03 6.736098480224609375e+01 -3.152438163757324219e+01 -3.660003840923309326e-01 5.594666481018066406e+00 1.568599939346313477e+00 3.681385219097137451e-01
5.295000000000000000e+03 6.921315765380859375e+01 3.038174629211425781e+01 1.447848379611968994e-01 5.241509437561035156e+00 1.615888237953186035e+00 -2.959618270397186279e-01
5.296000000000000000e+03 6.851769256591796875e+01 2.693608474731445312e+01 1.646973788738250732e-01 5.176779270172119141e+00 1.602442979812622070e+00 -3.828259110450744629e-01
5.297000000000000000e+03 3.010405921936035156e+01 1.775348854064941406e+01 1.188761666417121887e-01 -7.652788609266281128e-02 1.270448230206966400e-02 1.954935044050216675e-01
5.298000000000000000e+03 6.015582656860351562e+01 2.105862426757812500e+01 3.287203013896942139e-01 3.705806016921997070e+00 1.210357904434204102e+00 -5.373005270957946777e-01
5.299000000000000000e+03 6.061642456054687500e+01 1.878362274169921875e+01 4.359669089317321777e-01 3.784685134887695312e+00 1.266195654869079590e+00 -5.121489763259887695e-01
5.300000000000000000e+03 6.087095260620117188e+01 2.024488830566406250e+01 3.596159219741821289e-01 3.845976829528808594e+00 1.261677861213684082e+00 -5.212744474411010742e-01
5.301000000000000000e+03 1.910494995117187500e+01 2.814488029479980469e+01 2.134655416011810303e-01 -2.360358834266662598e-01 -6.771103944629430771e-03 3.682501614093780518e-01
5.302000000000000000e+03 7.115822601318359375e+01 2.147850227355957031e+01 1.349378675222396851e-01 5.790224075317382812e+00 1.777548670768737793e+00 -4.495427012443542480e-01
5.303000000000000000e+03 3.131706809997558594e+01 2.327405357360839844e+01 3.689239919185638428e-01 1.154132708907127380e-01 1.453011780977249146e-01 1.881502717733383179e-01
5.304000000000000000e+03 3.013237190246582031e+01 2.561345672607421875e+01 4.216196238994598389e-01 7.986597716808319092e-02 1.504456847906112671e-01 2.235338985919952393e-01
5.305000000000000000e+03 2.667625427246093750e+01 2.548817825317382812e+01 4.131451547145843506e-01 -1.338449120521545410e-01 8.379007130861282349e-02 3.303801119327545166e-01
5.306000000000000000e+03 1.090889072418212891e+01 -3.439498901367187500e+01 8.436613279627636075e-05 1.824239443521946669e-04 8.003701805137097836e-05 1.029590493999421597e-03
5.307000000000000000e+03 3.588623428344726562e+01 1.585532855987548828e+01 2.557560503482818604e-01 5.740054845809936523e-01 2.489284574985504150e-01 2.575554251670837402e-01
5.308000000000000000e+03 6.089968490600585938e+01 2.175332260131835938e+01 3.223060369491577148e-01 3.824077367782592773e+00 1.243915081024169922e+00 -5.294217467308044434e-01
5.309000000000000000e+03 6.053379821777343750e+01 2.485416793823242188e+01 3.069286942481994629e-01 3.728718996047973633e+00 1.210694313049316406e+00 -5.330390930175781250e-01
5.310000000000000000e+03 5.342057800292968750e+01 -4.118943405151367188e+01 6.320036649703979492e-01 2.573989927768707275e-01 2.668207883834838867e-01 -2.006775699555873871e-02
5.311000000000000000e+03 6.583612823486328125e+01 -3.136905288696289062e+01 -3.136418163776397705e-01 4.822925090789794922e+00 1.352784991264343262e+00 4.747750163078308105e-01
5.312000000000000000e+03 6.869395446777343750e+01 -2.985464477539062500e+01 -5.376935601234436035e-01 6.383680343627929688e+00 1.753796100616455078e+00 2.693018913269042969e-01
5.313000000000000000e+03 5.931715011596679688e+01 2.615902328491210938e+01 3.516673445701599121e-01 3.444632291793823242e+00 1.138889908790588379e+00 -5.045697689056396484e-01
5.314000000000000000e+03 7.026616668701171875e+01 -3.099139785766601562e+01 -4.461475610733032227e-01 7.006204605102539062e+00 1.968017101287841797e+00 7.971796393394470215e-02
5.315000000000000000e+03 3.500923919677734375e+01 2.125579643249511719e+01 3.045987784862518311e-01 4.895772933959960938e-01 2.382528185844421387e-01 1.525419354438781738e-01
5.316000000000000000e+03 5.808241653442382812e+01 2.763848876953125000e+01 4.155103862285614014e-01 3.164234399795532227e+00 1.073923349380493164e+00 -4.699015021324157715e-01
5.317000000000000000e+03 6.887281799316406250e+01 -3.625933456420898438e+01 -5.686783790588378906e-02 6.100109100341796875e+00 1.812972307205200195e+00 7.577401399612426758e-02
5.318000000000000000e+03 6.945312500000000000e+01 2.626594543457031250e+01 1.499628573656082153e-01 5.383239269256591797e+00 1.659960627555847168e+00 -3.769522607326507568e-01
5.319000000000000000e+03 4.226279449462890625e+01 3.041151428222656250e+01 5.876441001892089844e-01 9.944798350334167480e-01 4.746371805667877197e-01 1.460888534784317017e-01
5.320000000000000000e+03 1.004171752929687500e+01 2.790506553649902344e+01 5.979846045374870300e-02 -6.707535386085510254e-01 -1.832865178585052490e-01 1.643804758787155151e-01
5.321000000000000000e+03 6.739302062988281250e+01 -3.345489120483398438e+01 -2.086956351995468140e-01 5.419787406921386719e+00 1.563327431678771973e+00 2.853814661502838135e-01
5.322000000000000000e+03 9.625143051147460938e+00 3.719301223754882812e+01 4.326326027512550354e-02 -8.289225697517395020e-01 -2.356977909803390503e-01 5.436759814620018005e-02
5.323000000000000000e+03 1.304053497314453125e+01 3.350729751586914062e+01 1.135823875665664673e-01 -5.558547377586364746e-01 -1.326817125082015991e-01 1.644135415554046631e-01
5.324000000000000000e+03 1.006563091278076172e+01 -3.995255279541015625e+01 -1.069481135345995426e-03 5.472842603921890259e-04 -1.566590653965249658e-04 4.490134306252002716e-04
5.325000000000000000e+03 3.569136428833007812e+01 2.362928962707519531e+01 3.450460135936737061e-01 5.694151520729064941e-01 2.743383347988128662e-01 1.677723824977874756e-01
5.326000000000000000e+03 6.656319427490234375e+01 3.371538925170898438e+01 1.997394710779190063e-01 4.758279323577880859e+00 1.487405538558959961e+00 -2.319018244743347168e-01
5.327000000000000000e+03 6.807852935791015625e+01 2.916597366333007812e+01 1.732914447784423828e-01 5.060726642608642578e+00 1.570205450057983398e+00 -3.388258218765258789e-01
5.328000000000000000e+03 3.918190383911132812e+01 2.827836608886718750e+01 4.878900349140167236e-01 7.974268198013305664e-01 3.855950534343719482e-01 1.874790787696838379e-01
5.329000000000000000e+03 1.091692256927490234e+01 3.088613510131835938e+01 6.341147422790527344e-02 -6.625668406486511230e-01 -1.797466129064559937e-01 1.562211066484451294e-01
5.330000000000000000e+03 1.876721000671386719e+01 2.642294502258300781e+01 2.054792493581771851e-01 -2.151616066694259644e-01 -2.904710359871387482e-03 4.156162142753601074e-01
5.331000000000000000e+03 1.265854072570800781e+01 -3.535925292968750000e+01 -6.716137868352234364e-04 5.831641610711812973e-04 -2.653489173098932952e-05 1.196732860989868641e-03
5.332000000000000000e+03 1.337588882446289062e+01 -3.350173950195312500e+01 3.112805716227740049e-04 -3.956071159336715937e-04 -2.529796256567351520e-05 1.630857237614691257e-03
5.333000000000000000e+03 4.690593719482421875e+01 -8.726521492004394531e+00 -9.999080896377563477e-01 2.800224721431732178e-01 -2.159656882286071777e-01 6.359871476888656616e-02
5.334000000000000000e+03 3.364410781860351562e+01 8.413621902465820312e+00 2.803286351263523102e-02 2.283546179533004761e-01 7.691624760627746582e-02 5.878459811210632324e-01
5.335000000000000000e+03 5.898264312744140625e+01 5.277266502380371094e+00 1.682552248239517212e-01 2.332324743270874023e+00 7.501739859580993652e-01 -5.639591217041015625e-01
5.336000000000000000e+03 5.718165206909179688e+01 4.107541084289550781e+00 1.051457375288009644e-01 1.646515607833862305e+00 5.254983901977539062e-01 -1.843484193086624146e-01
5.337000000000000000e+03 4.894285964965820312e+01 -7.436515808105468750e+00 -1.059986233711242676e+00 3.008351922035217285e-01 -2.277452945709228516e-01 8.753050118684768677e-02
5.338000000000000000e+03 3.411008071899414062e+01 -8.770239830017089844e+00 -6.859725713729858398e-01 1.987812668085098267e-01 -1.461573988199234009e-01 3.335036635398864746e-01
5.339000000000000000e+03 3.938933563232421875e+01 -1.080287647247314453e+01 -7.640659809112548828e-01 2.313815206289291382e-01 -1.598053276538848877e-01 1.820779889822006226e-01
5.340000000000000000e+03 4.745626449584960938e+01 -6.761290073394775391e+00 -9.448010325431823730e-01 3.151934742927551270e-01 -1.888822615146636963e-01 1.495974212884902954e-01
5.341000000000000000e+03 8.994889259338378906e+00 1.552013874053955078e+01 2.891227602958679199e-01 -6.667526960372924805e-01 -1.132889837026596069e-01 4.996798336505889893e-01
5.342000000000000000e+03 4.217914199829101562e+01 -1.011270332336425781e+01 -8.398895263671875000e-01 2.577261626720428467e-01 -1.746490001678466797e-01 1.321221888065338135e-01
5.343000000000000000e+03 3.954586791992187500e+01 -1.023493671417236328e+01 -7.699376940727233887e-01 2.473528981208801270e-01 -1.567754447460174561e-01 1.918604224920272827e-01
5.344000000000000000e+03 8.870273590087890625e+00 -2.601688766479492188e+01 5.643769982270896435e-04 -4.106441338080912828e-05 1.569937739986926317e-04 2.422323159407824278e-04
5.345000000000000000e+03 3.524502944946289062e+01 -1.134382820129394531e+01 -6.602968573570251465e-01 1.643839180469512939e-01 -1.487738788127899170e-01 2.695823311805725098e-01
5.346000000000000000e+03 7.041268157958984375e+01 1.167934799194335938e+01 6.929874420166015625e-02 5.975995063781738281e+00 1.813588142395019531e+00 -7.876759171485900879e-01
5.347000000000000000e+03 7.104541778564453125e+01 1.299432849884033203e+01 9.164677560329437256e-02 6.060858249664306641e+00 1.845751523971557617e+00 -7.166456580162048340e-01
5.348000000000000000e+03 8.123791694641113281e+00 1.399694252014160156e+01 1.662494689226150513e-01 -6.458092927932739258e-01 -1.438679397106170654e-01 5.706375241279602051e-01
5.349000000000000000e+03 8.756153106689453125e+00 1.202995777130126953e+01 2.744089625775814056e-02 -5.733194351196289062e-01 -1.637635678052902222e-01 6.659636497497558594e-01
5.350000000000000000e+03 3.185632324218750000e+01 -7.597316741943359375e+00 -6.868141889572143555e-01 1.526329368352890015e-01 -1.602543741464614868e-01 3.820192217826843262e-01
5.351000000000000000e+03 3.114278221130371094e+01 -7.436721324920654297e+00 -6.914933919906616211e-01 1.315314769744873047e-01 -1.679885685443878174e-01 3.945044875144958496e-01
5.352000000000000000e+03 2.962867546081542969e+01 4.729837417602539062e+00 1.245096325874328613e-01 -8.198576420545578003e-02 1.275716070085763931e-02 4.036162793636322021e-01
5.353000000000000000e+03 6.535091400146484375e+01 -1.252046704292297363e+00 -5.835472345352172852e-01 4.138068675994873047e+00 1.066356420516967773e+00 -2.496236801147460938e+00
5.354000000000000000e+03 6.036274337768554688e+01 -1.721269249916076660e+00 -3.270278871059417725e-01 9.534154534339904785e-01 1.879162639379501343e-01 -6.903316974639892578e-01
5.355000000000000000e+03 6.113734817504882812e+01 -1.850494384765625000e+00 -2.800224423408508301e-01 1.112516999244689941e+00 2.497483640909194946e-01 -9.482391476631164551e-01
5.356000000000000000e+03 4.802556228637695312e+01 -6.365515708923339844e+00 -9.336578845977783203e-01 3.177009820938110352e-01 -1.847870796918869019e-01 1.618416458368301392e-01
5.357000000000000000e+03 9.857541084289550781e+00 1.872803115844726562e+01 3.208709061145782471e-01 -6.056233644485473633e-01 -8.542574197053909302e-02 3.051149249076843262e-01
5.358000000000000000e+03 4.951233291625976562e+01 -7.067039012908935547e+00 -1.078808784484863281e+00 3.063343167304992676e-01 -2.317423522472381592e-01 1.010631993412971497e-01
5.359000000000000000e+03 7.089130401611328125e+01 1.015573692321777344e+01 -2.826443500816822052e-02 6.201342582702636719e+00 1.851923465728759766e+00 -8.016699552536010742e-01
5.360000000000000000e+03 7.184327697753906250e+01 9.308868408203125000e+00 -9.179776906967163086e-02 6.518542289733886719e+00 1.928023457527160645e+00 -7.380812764167785645e-01
5.361000000000000000e+03 5.964215850830078125e+01 5.382448196411132812e+00 1.636831909418106079e-01 2.528365850448608398e+00 8.076146841049194336e-01 -6.843220591545104980e-01
5.362000000000000000e+03 6.091523742675781250e+01 7.920773506164550781e+00 2.676386237144470215e-01 3.245161056518554688e+00 1.053839921951293945e+00 -8.754237294197082520e-01
5.363000000000000000e+03 5.250840377807617188e+01 7.232844829559326172e-01 -1.673343181610107422e-01 4.527901709079742432e-01 8.563675731420516968e-02 3.040018379688262939e-01
5.364000000000000000e+03 5.341234970092773438e+01 1.533894181251525879e+00 -6.464926153421401978e-02 5.922749638557434082e-01 1.582877188920974731e-01 2.695830464363098145e-01
5.365000000000000000e+03 5.827154541015625000e+01 5.184007644653320312e+00 1.432120800018310547e-01 2.140427589416503906e+00 6.850919127464294434e-01 -4.090943038463592529e-01
5.366000000000000000e+03 7.049587249755859375e+01 -2.410239410400390625e+01 -9.288418889045715332e-01 8.202476501464843750e+00 2.182090520858764648e+00 -1.656089872121810913e-01
5.367000000000000000e+03 3.885218811035156250e+01 -1.059132766723632812e+01 -7.516155242919921875e-01 2.338310927152633667e-01 -1.553353369235992432e-01 2.013235688209533691e-01
5.368000000000000000e+03 3.485882949829101562e+01 -1.073651313781738281e+01 -6.661864519119262695e-01 1.706158518791198730e-01 -1.486711651086807251e-01 2.881163656711578369e-01
5.369000000000000000e+03 5.483044433593750000e+01 3.010158777236938477e+00 5.193889886140823364e-02 9.384889602661132812e-01 2.971283495426177979e-01 1.708179563283920288e-01
5.370000000000000000e+03 4.963391113281250000e+01 -6.128604412078857422e+00 -1.005541682243347168e+00 3.229041993618011475e-01 -2.047912329435348511e-01 1.553886383771896362e-01
5.371000000000000000e+03 1.239997386932373047e+01 2.106742286682128906e+01 2.424097359180450439e-01 -3.386953771114349365e-01 -2.888568863272666931e-02 2.392577230930328369e-01
5.372000000000000000e+03 7.093054962158203125e+01 8.814350128173828125e+00 -1.208219081163406372e-01 6.337880611419677734e+00 1.865117669105529785e+00 -8.214989900588989258e-01
5.373000000000000000e+03 8.994295120239257812e+00 1.112994003295898438e+01 -8.282228559255599976e-02 -5.312690138816833496e-01 -1.842273771762847900e-01 6.831915974617004395e-01
5.374000000000000000e+03 8.965088844299316406e+00 1.263832569122314453e+01 9.062913060188293457e-02 -5.982702374458312988e-01 -1.522923409938812256e-01 6.614344716072082520e-01
5.375000000000000000e+03 3.283905029296875000e+01 -1.104420566558837891e+01 -6.224003434181213379e-01 1.132528930902481079e-01 -1.527442336082458496e-01 3.282616734504699707e-01
5.376000000000000000e+03 3.652722167968750000e+01 -9.503354072570800781e+00 -7.096480727195739746e-01 2.308997362852096558e-01 -1.436244845390319824e-01 2.742000222206115723e-01
5.377000000000000000e+03 7.048630523681640625e+01 1.074492359161376953e+01 1.082675810903310776e-02 6.060087680816650391e+00 1.821274280548095703e+00 -8.180618882179260254e-01
5.378000000000000000e+03 7.028517913818359375e+01 1.406328296661376953e+01 1.462671756744384766e-01 5.817753314971923828e+00 1.789206147193908691e+00 -7.173533439636230469e-01
5.379000000000000000e+03 3.874507141113281250e+01 7.278048515319824219e+00 -9.686032682657241821e-02 6.948991417884826660e-01 1.794116348028182983e-01 4.230692386627197266e-01
5.380000000000000000e+03 3.870760726928710938e+01 4.798112392425537109e+00 -2.290342152118682861e-01 5.581283569335937500e-01 9.872823208570480347e-02 3.694075942039489746e-01
5.381000000000000000e+03 4.561679458618164062e+01 -1.030195522308349609e+01 -9.777922630310058594e-01 2.374117523431777954e-01 -2.221141606569290161e-01 2.658607438206672668e-02
5.382000000000000000e+03 7.059631347656250000e+01 1.556064414978027344e+01 1.613031029701232910e-01 5.846735954284667969e+00 1.802411675453186035e+00 -6.467091441154479980e-01
5.383000000000000000e+03 7.163944244384765625e+01 -2.611949205398559570e+00 -1.470217585563659668e+00 9.655803680419921875e+00 2.455675840377807617e+00 -1.705171726644039154e-02
5.384000000000000000e+03 7.167863464355468750e+01 -8.567629456520080566e-01 -1.354041218757629395e+00 8.723064422607421875e+00 2.210706949234008789e+00 -3.300150334835052490e-01
5.385000000000000000e+03 7.197711944580078125e+01 2.322317123413085938e+00 -8.761149644851684570e-01 7.703433036804199219e+00 2.048195600509643555e+00 -5.687307715415954590e-01
5.386000000000000000e+03 8.224078178405761719e+00 2.101082801818847656e+01 1.791940480470657349e-01 -7.121741175651550293e-01 -1.598940193653106689e-01 2.311111688613891602e-01
5.387000000000000000e+03 9.963540077209472656e+00 2.145222091674804688e+01 2.058353871107101440e-01 -5.750008225440979004e-01 -1.107496321201324463e-01 2.227789759635925293e-01
5.388000000000000000e+03 3.708107376098632812e+01 6.830751419067382812e+00 -8.297592401504516602e-02 5.290960669517517090e-01 1.338360458612442017e-01 4.860031306743621826e-01
5.389000000000000000e+03 3.829103851318359375e+01 8.121738433837890625e+00 -2.576183900237083435e-02 6.926354765892028809e-01 2.000620961189270020e-01 4.635677933692932129e-01
5.390000000000000000e+03 3.206192779541015625e+01 7.899824142456054688e+00 5.077610909938812256e-02 7.371824234724044800e-02 3.734830766916275024e-02 6.042638421058654785e-01
5.391000000000000000e+03 7.164569854736328125e+01 5.654873371124267578e+00 -4.204746782779693604e-01 6.913098335266113281e+00 1.947787165641784668e+00 -7.536039352416992188e-01
5.392000000000000000e+03 7.142188262939453125e+01 3.786265373229980469e+00 -6.564000844955444336e-01 7.176937103271484375e+00 1.956161141395568848e+00 -7.559454441070556641e-01
5.393000000000000000e+03 7.108558654785156250e+01 4.427735805511474609e+00 -5.835368633270263672e-01 6.957945823669433594e+00 1.912322640419006348e+00 -8.292086720466613770e-01
5.394000000000000000e+03 9.331225395202636719e+00 1.836859321594238281e+01 3.067842125892639160e-01 -6.401725411415100098e-01 -1.000164896249771118e-01 3.271750211715698242e-01
5.395000000000000000e+03 8.041120529174804688e+00 1.767886924743652344e+01 2.447155117988586426e-01 -7.129745483398437500e-01 -1.404777020215988159e-01 3.668268620967864990e-01
5.396000000000000000e+03 8.340418815612792969e+00 1.859417533874511719e+01 2.520197927951812744e-01 -7.009541988372802734e-01 -1.346803307533264160e-01 3.204346597194671631e-01
5.397000000000000000e+03 8.370071411132812500e+00 1.149837970733642578e+01 -4.686703905463218689e-02 -5.361077785491943359e-01 -1.748924553394317627e-01 6.565144062042236328e-01
5.398000000000000000e+03 7.129317474365234375e+01 1.693089675903320312e+01 1.480807363986968994e-01 5.957869529724121094e+00 1.831785082817077637e+00 -5.766927003860473633e-01
5.399000000000000000e+03 3.851578140258789062e+01 3.254921674728393555e+00 -2.946321070194244385e-01 4.814241230487823486e-01 5.603760108351707458e-02 3.558264374732971191e-01
5.400000000000000000e+03 3.551722717285156250e+01 -1.236565589904785156e+01 -6.464499235153198242e-01 1.489468663930892944e-01 -1.492509096860885620e-01 2.356725633144378662e-01
5.401000000000000000e+03 7.149097442626953125e+01 -2.473308753967285156e+01 -8.348674774169921875e-01 8.288861274719238281e+00 2.236198186874389648e+00 -3.654009401798248291e-01
5.402000000000000000e+03 5.633837890625000000e+01 -4.394089221954345703e+00 -1.158854007720947266e+00 3.772261142730712891e-01 -2.344883531332015991e-01 4.579778015613555908e-02
5.403000000000000000e+03 5.534889984130859375e+01 -4.171103477478027344e+00 -1.053013443946838379e+00 3.863216340541839600e-01 -2.000075429677963257e-01 1.173378676176071167e-01
5.404000000000000000e+03 8.823174476623535156e+00 2.525819778442382812e+01 8.549529314041137695e-02 -7.088104486465454102e-01 -1.869945526123046875e-01 1.633698046207427979e-01
5.405000000000000000e+03 7.017243957519531250e+01 1.869831848144531250e+01 1.836018860340118408e-01 5.652414321899414062e+00 1.750804781913757324e+00 -5.498093962669372559e-01
5.406000000000000000e+03 7.008029937744140625e+01 1.667705345153808594e+01 1.878391355276107788e-01 5.685153484344482422e+00 1.761897802352905273e+00 -6.256469488143920898e-01
5.407000000000000000e+03 7.212303924560546875e+01 6.005945682525634766e+00 -3.699338734149932861e-01 6.982446670532226562e+00 1.983753919601440430e+00 -6.931201815605163574e-01
5.408000000000000000e+03 4.066598129272460938e+01 -9.499155998229980469e+00 -7.959608435630798340e-01 2.675957083702087402e-01 -1.585095524787902832e-01 1.860645264387130737e-01
5.409000000000000000e+03 9.227038383483886719e+00 1.986990356445312500e+01 2.513824701309204102e-01 -6.382111907005310059e-01 -1.160486191511154175e-01 2.653726935386657715e-01
5.410000000000000000e+03 3.108886909484863281e+01 -5.182723999023437500e+00 -6.812783479690551758e-01 1.692300885915756226e-01 -1.536144763231277466e-01 3.686755001544952393e-01
5.411000000000000000e+03 9.685966491699218750e+00 2.676195335388183594e+01 7.035785168409347534e-02 -6.687428355216979980e-01 -1.795154809951782227e-01 1.674488037824630737e-01
5.412000000000000000e+03 7.099125671386718750e+01 -1.276014447212219238e+00 -1.521842718124389648e+00 8.887449264526367188e+00 2.209681749343872070e+00 -6.065532565116882324e-01
5.413000000000000000e+03 7.250287628173828125e+01 -2.098021888732910156e+01 -6.858664155006408691e-01 9.349538803100585938e+00 2.599101781845092773e+00 -9.868973493576049805e-01
5.414000000000000000e+03 7.068590545654296875e+01 5.041928768157958984e+00 -5.035984516143798828e-01 6.737773418426513672e+00 1.870252490043640137e+00 -9.024314284324645996e-01
5.415000000000000000e+03 8.140079498291015625e+00 1.525884723663330078e+01 2.260189652442932129e-01 -6.812171936035156250e-01 -1.365594565868377686e-01 5.010873079299926758e-01
5.416000000000000000e+03 9.240020751953125000e+00 1.599231910705566406e+01 3.141956627368927002e-01 -6.651192903518676758e-01 -1.052770912647247314e-01 4.705736041069030762e-01
5.417000000000000000e+03 7.093103790283203125e+01 -3.073015689849853516e+00 -1.612873077392578125e+00 9.866597175598144531e+00 2.476117134094238281e+00 -2.943458259105682373e-01
5.418000000000000000e+03 2.828913879394531250e+01 -3.696150064468383789e+00 -7.092586159706115723e-01 7.709101587533950806e-02 -1.896502822637557983e-01 3.677129149436950684e-01
5.419000000000000000e+03 2.799872970581054688e+01 -1.096541762351989746e+00 -5.270004868507385254e-01 8.496940135955810547e-02 -1.326093226671218872e-01 2.713622748851776123e-01
5.420000000000000000e+03 4.058171844482421875e+01 2.830940961837768555e+00 -3.306169509887695312e-01 5.053221583366394043e-01 5.241155996918678284e-02 2.600335776805877686e-01
5.421000000000000000e+03 5.280075073242187500e+01 -4.585736751556396484e+00 -9.904677271842956543e-01 3.681896626949310303e-01 -1.866834312677383423e-01 1.995309889316558838e-01
5.422000000000000000e+03 1.065394115447998047e+01 1.894126701354980469e+01 3.397858738899230957e-01 -5.396420955657958984e-01 -5.995687097311019897e-02 2.840347886085510254e-01
5.423000000000000000e+03 3.142244529724121094e+01 1.168168830871582031e+01 -6.899285316467285156e-02 8.628880232572555542e-02 5.188785959035158157e-03 5.538557171821594238e-01
5.424000000000000000e+03 3.194275665283203125e+01 1.250205993652343750e+01 -3.186857700347900391e-02 1.508223563432693481e-01 3.568613529205322266e-02 4.850024878978729248e-01
5.425000000000000000e+03 9.049995422363281250e+00 1.756973457336425781e+01 3.008314371109008789e-01 -6.695982813835144043e-01 -1.106300652027130127e-01 3.722041249275207520e-01
5.426000000000000000e+03 5.701110839843750000e+01 3.151400089263916016e+00 6.451001018285751343e-02 1.441825270652770996e+00 4.519005715847015381e-01 -1.448246687650680542e-01
5.427000000000000000e+03 4.922639465332031250e+01 -3.930395543575286865e-01 -3.263628184795379639e-01 2.972398102283477783e-01 -8.736902847886085510e-03 2.858454883098602295e-01
5.428000000000000000e+03 3.067066955566406250e+01 1.397016620635986328e+01 -1.048287674784660339e-01 1.251604501157999039e-02 -2.769381552934646606e-02 3.843399286270141602e-01
5.429000000000000000e+03 3.586787796020507812e+01 1.084099102020263672e+01 1.213741824030876160e-01 4.964188337326049805e-01 1.853379011154174805e-01 5.133960247039794922e-01
5.430000000000000000e+03 1.032445335388183594e+01 1.648295974731445312e+01 3.945550024509429932e-01 -6.117868423461914062e-01 -6.516954302787780762e-02 4.237045645713806152e-01
5.431000000000000000e+03 9.614816665649414062e+00 1.779838180541992188e+01 3.380342125892639160e-01 -6.281872391700744629e-01 -8.704590052366256714e-02 3.495643138885498047e-01
5.432000000000000000e+03 3.032041740417480469e+01 -5.552430152893066406e+00 -7.025260329246520996e-01 1.322857588529586792e-01 -1.710720956325531006e-01 3.881680667400360107e-01
5.433000000000000000e+03 6.974393463134765625e+01 1.591488075256347656e+01 1.933403164148330688e-01 5.634553909301757812e+00 1.748368263244628906e+00 -6.638412475585937500e-01
5.434000000000000000e+03 2.724962043762207031e+01 -4.143880307674407959e-01 -4.763785600662231445e-01 6.534191220998764038e-02 -1.233109906315803528e-01 2.445383220911026001e-01
5.435000000000000000e+03 2.735072135925292969e+01 -1.108822464942932129e+00 -5.517274141311645508e-01 6.618073582649230957e-02 -1.456640064716339111e-01 2.714796960353851318e-01
5.436000000000000000e+03 2.927506637573242188e+01 -1.931223988533020020e+00 -5.664948821067810059e-01 1.211992055177688599e-01 -1.335887014865875244e-01 3.004191517829895020e-01
5.437000000000000000e+03 4.964269256591796875e+01 2.989476621150970459e-01 -2.405650019645690918e-01 2.884473502635955811e-01 1.436470542103052139e-02 2.872206270694732666e-01
5.438000000000000000e+03 4.902486801147460938e+01 -4.758224010467529297e+00 -8.289748430252075195e-01 3.343753218650817871e-01 -1.483798623085021973e-01 2.301978617906570435e-01
5.439000000000000000e+03 5.478750228881835938e+01 -4.613052368164062500e+00 -1.110082507133483887e+00 3.714687228202819824e-01 -2.215841412544250488e-01 1.256201565265655518e-01
5.440000000000000000e+03 5.114296340942382812e+01 -1.145964860916137695e-01 -2.958127260208129883e-01 3.576510250568389893e-01 1.855148747563362122e-02 3.121456205844879150e-01
5.441000000000000000e+03 7.059715270996093750e+01 -2.394343852996826172e+00 -1.704163193702697754e+00 9.499516487121582031e+00 2.338605880737304688e+00 -6.796081662178039551e-01
5.442000000000000000e+03 4.250709915161132812e+01 1.884693980216979980e+00 -3.404963016510009766e-01 4.396511316299438477e-01 2.974644862115383148e-02 1.954553574323654175e-01
5.443000000000000000e+03 2.920360565185546875e+01 4.524868011474609375e+00 1.397758424282073975e-01 -8.635663986206054688e-02 1.602576114237308502e-02 3.680780529975891113e-01
5.444000000000000000e+03 9.299752235412597656e+00 2.483275985717773438e+01 9.728928655385971069e-02 -6.590092778205871582e-01 -1.685159951448440552e-01 1.763066202402114868e-01
5.445000000000000000e+03 4.613282394409179688e+01 -9.492315292358398438e+00 -9.889088869094848633e-01 2.599129378795623779e-01 -2.186987847089767456e-01 5.047977343201637268e-02
5.446000000000000000e+03 5.165167999267578125e+01 3.469372391700744629e-01 -2.256850898265838623e-01 3.762052953243255615e-01 4.515606164932250977e-02 3.045137524604797363e-01
5.447000000000000000e+03 5.107771682739257812e+01 5.210120677947998047e-01 -1.973094940185546875e-01 3.503375947475433350e-01 4.590842872858047485e-02 3.004494309425354004e-01
5.448000000000000000e+03 3.065021896362304688e+01 -6.254658222198486328e+00 -7.003505825996398926e-01 1.344211101531982422e-01 -1.697788387537002563e-01 3.935202658176422119e-01
5.449000000000000000e+03 5.608520507812500000e+01 2.120038986206054688e+00 -4.286779556423425674e-03 1.061976194381713867e+00 3.173068165779113770e-01 1.658497378230094910e-02
5.450000000000000000e+03 5.723252105712890625e+01 -3.693531513214111328e+00 -9.791395068168640137e-01 4.230840504169464111e-01 -1.668166369199752808e-01 -1.243622787296772003e-02
5.451000000000000000e+03 4.671566009521484375e+01 1.606453508138656616e-01 -3.201664388179779053e-01 2.876098752021789551e-01 -9.766973555088043213e-03 2.281999289989471436e-01
5.452000000000000000e+03 1.072763729095458984e+01 -2.711015892028808594e+01 4.884621012024581432e-04 -6.201895303092896938e-05 1.279329444514587522e-04 4.861030029132962227e-04
5.453000000000000000e+03 6.329047393798828125e+01 1.175833988189697266e+01 4.305337965488433838e-01 4.055861473083496094e+00 1.345918536186218262e+00 -9.045038819313049316e-01
5.454000000000000000e+03 2.834499740600585938e+01 1.685908913612365723e+00 -1.726625859737396240e-01 3.003602102398872375e-02 -4.278796911239624023e-02 2.295982688665390015e-01
5.455000000000000000e+03 1.269729995727539062e+01 2.238438987731933594e+01 1.834731549024581909e-01 -3.359870016574859619e-01 -4.575415328145027161e-02 2.482296824455261230e-01
5.456000000000000000e+03 3.282322692871093750e+01 1.069826889038085938e+01 1.502560451626777649e-02 1.982984691858291626e-01 6.399722397327423096e-02 5.726266503334045410e-01
5.457000000000000000e+03 3.597442626953125000e+01 1.473191642761230469e+01 2.532962262630462646e-01 5.736832022666931152e-01 2.480938285589218140e-01 3.145079314708709717e-01
5.458000000000000000e+03 3.560978698730468750e+01 1.400508975982666016e+01 2.186409533023834229e-01 5.212009549140930176e-01 2.219525724649429321e-01 3.614693880081176758e-01
5.459000000000000000e+03 1.007625675201416016e+01 1.461182403564453125e+01 3.259898722171783447e-01 -6.383309364318847656e-01 -9.370231628417968750e-02 5.662278532981872559e-01
5.460000000000000000e+03 9.639342308044433594e+00 1.634637069702148438e+01 3.530574440956115723e-01 -6.442279815673828125e-01 -8.735116571187973022e-02 4.430660605430603027e-01
5.461000000000000000e+03 7.158021545410156250e+01 -2.680121612548828125e+01 -7.139742374420166016e-01 7.972973346710205078e+00 2.177699804306030273e+00 -2.479950636625289917e-01
5.462000000000000000e+03 7.039086914062500000e+01 -2.612343025207519531e+01 -8.208014965057373047e-01 7.683475494384765625e+00 2.058802366256713867e+00 -8.326583355665206909e-02
5.463000000000000000e+03 4.291408920288085938e+01 -9.139165878295898438e+00 -8.521721959114074707e-01 2.811764478683471680e-01 -1.712987273931503296e-01 1.440461874008178711e-01
5.464000000000000000e+03 6.365639114379882812e+01 -1.637935519218444824e+00 -2.235125899314880371e-01 2.394743442535400391e+00 6.513692736625671387e-01 -2.036082029342651367e+00
5.465000000000000000e+03 6.064138793945312500e+01 4.752660274505615234e+00 1.359904557466506958e-01 2.690094232559204102e+00 8.478254079818725586e-01 -8.559073805809020996e-01
5.466000000000000000e+03 3.307973861694335938e+01 -8.527634620666503906e+00 -6.815692782402038574e-01 1.748641431331634521e-01 -1.520115435123443604e-01 3.554775714874267578e-01
5.467000000000000000e+03 3.333790206909179688e+01 -7.901494026184082031e+00 -6.860771179199218750e-01 1.930630356073379517e-01 -1.479042321443557739e-01 3.530305922031402588e-01
5.468000000000000000e+03 9.242914199829101562e+00 2.591011047363281250e+01 7.811700552701950073e-02 -6.843399405479431152e-01 -1.818668842315673828e-01 1.647503525018692017e-01
5.469000000000000000e+03 6.186738967895507812e+01 6.708277702331542969e+00 1.894036382436752319e-01 3.351319789886474609e+00 1.062216997146606445e+00 -1.009412169456481934e+00
5.470000000000000000e+03 6.157239913940429688e+01 8.334723472595214844e+00 2.892550528049468994e-01 3.457131147384643555e+00 1.123915910720825195e+00 -9.394862055778503418e-01
5.471000000000000000e+03 6.332124328613281250e+01 1.420408153533935547e+01 4.983068406581878662e-01 4.124165534973144531e+00 1.386741757392883301e+00 -7.643524408340454102e-01
5.472000000000000000e+03 6.276283645629882812e+01 1.457767581939697266e+01 5.344349145889282227e-01 4.025121688842773438e+00 1.367866992950439453e+00 -7.281118035316467285e-01
5.473000000000000000e+03 3.693780899047851562e+01 1.056992149353027344e+01 1.348272860050201416e-01 6.204844713211059570e-01 2.265935242176055908e-01 4.995597302913665771e-01
5.474000000000000000e+03 3.794186401367187500e+01 1.007792091369628906e+01 1.226080954074859619e-01 7.171328663825988770e-01 2.519222795963287354e-01 4.806507229804992676e-01
5.475000000000000000e+03 3.121377944946289062e+01 1.480691051483154297e+01 -2.436715736985206604e-02 7.195754349231719971e-02 1.427711639553308487e-02 3.255294859409332275e-01
5.476000000000000000e+03 9.464282035827636719e+00 -2.884660339355468750e+01 3.925890778191387653e-04 1.152733602793887258e-05 1.212349234265275300e-04 6.182975484989583492e-04
5.477000000000000000e+03 4.151657867431640625e+01 2.362960815429687500e+00 -3.401611745357513428e-01 4.800370335578918457e-01 4.196275770664215088e-02 2.238402813673019409e-01
5.478000000000000000e+03 6.311262512207031250e+01 1.521186923980712891e+01 5.110464096069335938e-01 4.104781150817871094e+00 1.384748220443725586e+00 -7.028674483299255371e-01
5.479000000000000000e+03 3.248523712158203125e+01 -7.546957492828369141e+00 -6.857351660728454590e-01 1.756907999515533447e-01 -1.530133038759231567e-01 3.683376610279083252e-01
5.480000000000000000e+03 6.175185012817382812e+01 2.211354827880859375e+01 3.133377432823181152e-01 4.000672817230224609e+00 1.294203162193298340e+00 -5.369340181350708008e-01
5.481000000000000000e+03 4.737525558471679688e+01 4.643534421920776367e-01 -2.657662034034729004e-01 2.724533379077911377e-01 2.006136346608400345e-03 2.298716008663177490e-01
5.482000000000000000e+03 4.860729598999023438e+01 -6.017171859741210938e+00 -9.404941201210021973e-01 3.253472745418548584e-01 -1.845440566539764404e-01 1.733992993831634521e-01
5.483000000000000000e+03 7.018056488037109375e+01 2.874847173690795898e+00 -8.124412894248962402e-01 6.951328754425048828e+00 1.841666221618652344e+00 -1.051432609558105469e+00
5.484000000000000000e+03 9.890413284301757812e+00 2.033005523681640625e+01 2.521149218082427979e-01 -5.839001536369323730e-01 -9.953556954860687256e-02 2.481881082057952881e-01
5.485000000000000000e+03 1.170743083953857422e+01 2.067996597290039062e+01 2.633466720581054688e-01 -4.113497734069824219e-01 -4.440093040466308594e-02 2.378619611263275146e-01
5.486000000000000000e+03 6.943860626220703125e+01 -2.542615127563476562e+01 -8.965431451797485352e-01 7.474342346191406250e+00 1.973339796066284180e+00 9.024219214916229248e-02
5.487000000000000000e+03 6.978761291503906250e+01 2.153228187561035156e+01 1.742533147335052490e-01 5.512790203094482422e+00 1.706113100051879883e+00 -4.763178825378417969e-01
5.488000000000000000e+03 5.775722885131835938e+01 -3.560324192047119141e+00 -9.514054059982299805e-01 4.517956376075744629e-01 -1.498829275369644165e-01 -6.473689526319503784e-02
5.489000000000000000e+03 1.353474140167236328e+01 2.246417236328125000e+01 1.755883842706680298e-01 -2.677010297775268555e-01 -2.763378992676734924e-02 2.721050679683685303e-01
5.490000000000000000e+03 6.999398803710937500e+01 2.388511657714843750e+01 1.543166935443878174e-01 5.498796463012695312e+00 1.695934057235717773e+00 -4.147759079933166504e-01
5.491000000000000000e+03 6.789308166503906250e+01 2.311045265197753906e+01 2.015417367219924927e-01 5.113301753997802734e+00 1.594452977180480957e+00 -4.686946570873260498e-01
5.492000000000000000e+03 5.483349227905273438e+01 2.401034593582153320e+00 1.335749868303537369e-02 8.784028887748718262e-01 2.675281167030334473e-01 1.733089238405227661e-01
5.493000000000000000e+03 6.931038665771484375e+01 2.472368621826171875e+01 1.578977853059768677e-01 5.362820148468017578e+00 1.656215429306030273e+00 -4.110487699508666992e-01
5.494000000000000000e+03 3.270785140991210938e+01 1.773951148986816406e+01 1.700881123542785645e-01 2.181020975112915039e-01 1.164570599794387817e-01 1.989237070083618164e-01
5.495000000000000000e+03 8.420138359069824219e+00 1.577483463287353516e+01 2.568754851818084717e-01 -6.847755312919616699e-01 -1.283700168132781982e-01 4.788396060466766357e-01
5.496000000000000000e+03 3.287098312377929688e+01 1.673786926269531250e+01 1.509120613336563110e-01 2.460879087448120117e-01 1.190999895334243774e-01 2.355405390262603760e-01
5.497000000000000000e+03 6.119786071777343750e+01 1.799149894714355469e+01 4.818215966224670410e-01 3.869463920593261719e+00 1.305385589599609375e+00 -5.454896092414855957e-01
5.498000000000000000e+03 6.193946456909179688e+01 1.866603088378906250e+01 4.344800710678100586e-01 4.003177165985107422e+00 1.331297159194946289e+00 -5.518973469734191895e-01
5.499000000000000000e+03 7.125824737548828125e+01 6.221562862396240234e+00 -3.568367958068847656e-01 6.726941108703613281e+00 1.911031246185302734e+00 -8.092529177665710449e-01
5.500000000000000000e+03 7.135395812988281250e+01 7.027232170104980469e+00 -2.841418087482452393e-01 6.634551048278808594e+00 1.905122756958007812e+00 -8.052058219909667969e-01
5.501000000000000000e+03 6.291402435302734375e+01 1.077043151855468750e+01 3.955002427101135254e-01 3.939052343368530273e+00 1.300365805625915527e+00 -9.440296888351440430e-01
5.502000000000000000e+03 6.214119338989257812e+01 1.039796733856201172e+01 4.091595113277435303e-01 3.749074935913085938e+00 1.247470259666442871e+00 -9.238103032112121582e-01
5.503000000000000000e+03 7.182141876220703125e+01 -2.783909034729003906e+01 -6.266425848007202148e-01 7.923458099365234375e+00 2.189044475555419922e+00 -2.033933848142623901e-01
5.504000000000000000e+03 8.778341293334960938e+00 2.249815940856933594e+01 1.524122655391693115e-01 -6.786877512931823730e-01 -1.578826457262039185e-01 1.996935158967971802e-01
5.505000000000000000e+03 8.744250297546386719e+00 2.046240997314453125e+01 2.133621871471405029e-01 -6.709794998168945312e-01 -1.372852027416229248e-01 2.472864240407943726e-01
5.506000000000000000e+03 6.996051025390625000e+01 -2.963929748535156250e+01 -5.559459328651428223e-01 6.969528198242187500e+00 1.924074769020080566e+00 9.602829813957214355e-02
5.507000000000000000e+03 6.942691802978515625e+01 2.321419334411621094e+01 1.687428504228591919e-01 5.406967639923095703e+00 1.672713160514831543e+00 -4.469690024852752686e-01
5.508000000000000000e+03 7.113079833984375000e+01 1.380182743072509766e+01 1.087028160691261292e-01 6.050665855407714844e+00 1.847810626029968262e+00 -6.835830807685852051e-01
5.509000000000000000e+03 7.061507415771484375e+01 -2.709697723388671875e+01 -7.542248964309692383e-01 7.602767944335937500e+00 2.054562807083129883e+00 -6.342035531997680664e-02
5.510000000000000000e+03 3.016199493408203125e+01 2.056710815429687500e+01 2.980144619941711426e-01 -2.363844402134418488e-02 8.231280744075775146e-02 1.916027218103408813e-01
5.511000000000000000e+03 3.518751525878906250e+01 1.514961433410644531e+01 2.117345780134201050e-01 4.838223159313201904e-01 2.086670696735382080e-01 3.030955791473388672e-01
5.512000000000000000e+03 6.854792022705078125e+01 2.400518417358398438e+01 1.864379644393920898e-01 5.231859207153320312e+00 1.625489234924316406e+00 -4.450365304946899414e-01
5.513000000000000000e+03 3.476700592041015625e+01 1.915825653076171875e+01 2.688152194023132324e-01 4.740963876247406006e-01 2.228734791278839111e-01 1.626470535993576050e-01
5.514000000000000000e+03 3.452334594726562500e+01 1.736791419982910156e+01 2.238699942827224731e-01 4.286835491657257080e-01 1.957660615444183350e-01 2.082222104072570801e-01
5.515000000000000000e+03 6.280734634399414062e+01 1.649267387390136719e+01 5.034163594245910645e-01 4.067502498626708984e+00 1.371275663375854492e+00 -6.334551572799682617e-01
5.516000000000000000e+03 6.278689956665039062e+01 1.805545997619628906e+01 4.449790716171264648e-01 4.128116130828857422e+00 1.371928572654724121e+00 -5.837190747261047363e-01
5.517000000000000000e+03 5.963160705566406250e+01 2.892964744567871094e+01 3.626980185508728027e-01 3.480064630508422852e+00 1.152828812599182129e+00 -4.237861931324005127e-01
5.518000000000000000e+03 3.817008590698242188e+01 2.597061347961425781e+01 4.094690084457397461e-01 7.512838244438171387e-01 3.482258617877960205e-01 2.023231536149978638e-01
5.519000000000000000e+03 3.585028457641601562e+01 2.638933753967285156e+01 4.097805619239807129e-01 5.603770613670349121e-01 2.910472750663757324e-01 1.796555966138839722e-01
5.520000000000000000e+03 6.862726593017578125e+01 -2.850546836853027344e+01 -6.766543388366699219e-01 6.521533012390136719e+00 1.753463506698608398e+00 2.692845463752746582e-01
5.521000000000000000e+03 3.063450050354003906e+01 1.864600372314453125e+01 1.987733989953994751e-01 6.753203924745321274e-03 6.165798008441925049e-02 1.889939904212951660e-01
5.522000000000000000e+03 3.067878341674804688e+01 1.641224288940429688e+01 3.233173862099647522e-02 -4.468039609491825104e-03 8.359109051525592804e-03 2.336496710777282715e-01
5.523000000000000000e+03 2.302188110351562500e+01 2.859189033508300781e+01 3.319417238235473633e-01 -1.881811767816543579e-01 4.312816634774208069e-02 3.635033071041107178e-01
5.524000000000000000e+03 2.063363456726074219e+01 2.767711067199707031e+01 2.613492608070373535e-01 -2.219269722700119019e-01 1.182668842375278473e-02 3.963401317596435547e-01
5.525000000000000000e+03 6.030911254882812500e+01 2.275110816955566406e+01 3.029802143573760986e-01 3.695975542068481445e+00 1.199686765670776367e+00 -5.481328368186950684e-01
5.526000000000000000e+03 6.886200714111328125e+01 -3.137523841857910156e+01 -4.169598221778869629e-01 6.264719009399414062e+00 1.754327654838562012e+00 2.236218899488449097e-01
5.527000000000000000e+03 6.719953155517578125e+01 -3.550223159790039062e+01 -9.818826802074909210e-03 5.299119472503662109e+00 1.586790204048156738e+00 2.434047162532806396e-01
5.528000000000000000e+03 6.745986938476562500e+01 -2.846281814575195312e+01 -6.601671576499938965e-01 5.940780639648437500e+00 1.584184050559997559e+00 4.443383812904357910e-01
5.529000000000000000e+03 1.311679935455322266e+01 2.829914474487304688e+01 8.655163645744323730e-02 -4.669367074966430664e-01 -1.141155213117599487e-01 2.250871807336807251e-01
5.530000000000000000e+03 9.743495941162109375e+00 -3.631307601928710938e+01 -4.975175834260880947e-04 4.435010487213730812e-04 -1.620496186660602689e-05 8.831076556816697121e-04
5.531000000000000000e+03 4.536501693725585938e+01 3.081149673461914062e+01 6.568374633789062500e-01 1.247984647750854492e+00 5.714466571807861328e-01 8.537244796752929688e-02
5.532000000000000000e+03 1.340611457824707031e+01 2.955621719360351562e+01 8.953760564327239990e-02 -4.763123393058776855e-01 -1.160324215888977051e-01 2.185158729553222656e-01
5.533000000000000000e+03 1.195347213745117188e+01 3.223659896850585938e+01 7.930006086826324463e-02 -6.088604927062988281e-01 -1.588681191205978394e-01 1.646498441696166992e-01
5.534000000000000000e+03 1.329991531372070312e+01 3.710482788085937500e+01 1.011434048414230347e-01 -6.009634733200073242e-01 -1.499460190534591675e-01 9.345531463623046875e-02
5.535000000000000000e+03 6.159469223022460938e+01 2.983152389526367188e+01 3.179553151130676270e-01 3.876497030258178711e+00 1.258335709571838379e+00 -4.174450635910034180e-01
5.536000000000000000e+03 5.776042556762695312e+01 -4.135824584960937500e+01 6.259930133819580078e-01 1.370229244232177734e+00 5.988666415214538574e-01 3.358474373817443848e-02
5.537000000000000000e+03 4.748176574707031250e+01 -7.655838489532470703e+00 -9.991102218627929688e-01 3.002605140209197998e-01 -2.096548974514007568e-01 1.072259619832038879e-01
5.538000000000000000e+03 4.849093627929687500e+01 -6.904186725616455078e+00 -1.007077693939208984e+00 3.125691711902618408e-01 -2.083525657653808594e-01 1.288529634475708008e-01
5.539000000000000000e+03 2.866489791870117188e+01 -1.142141461372375488e+00 -5.110816955566406250e-01 1.001964807510375977e-01 -1.232655718922615051e-01 2.753284573554992676e-01
5.540000000000000000e+03 2.895299530029296875e+01 1.888172268867492676e+00 -1.550492197275161743e-01 3.222775086760520935e-02 -3.684644028544425964e-02 2.488417625427246094e-01
5.541000000000000000e+03 2.878776168823242188e+01 -4.394744396209716797e+00 -7.174223661422729492e-01 8.701895177364349365e-02 -1.891210228204727173e-01 3.818332552909851074e-01
5.542000000000000000e+03 2.938649940490722656e+01 4.042359352111816406e+00 9.102617204189300537e-02 -6.507056206464767456e-02 7.786681875586509705e-03 3.503094315528869629e-01
5.543000000000000000e+03 2.961750030517578125e+01 3.515628576278686523e+00 2.839883416891098022e-02 -2.855264768004417419e-02 -4.614419958670623600e-05 3.333900570869445801e-01
5.544000000000000000e+03 9.845818519592285156e+00 1.396971035003662109e+01 2.598817646503448486e-01 -6.372590661048889160e-01 -1.132131814956665039e-01 6.167786717414855957e-01
5.545000000000000000e+03 3.836051559448242188e+01 -1.028766536712646484e+01 -7.417281270027160645e-01 2.364499866962432861e-01 -1.515834480524063110e-01 2.186946272850036621e-01
5.546000000000000000e+03 3.117798614501953125e+01 4.125709533691406250e+00 -2.053438918665051460e-03 2.323708683252334595e-02 6.355094257742166519e-03 4.200552999973297119e-01
5.547000000000000000e+03 6.138300704956054688e+01 7.320863246917724609e+00 2.426012158393859863e-01 3.299764633178710938e+00 1.062709689140319824e+00 -9.362288713455200195e-01
5.548000000000000000e+03 6.203293609619140625e+01 7.717996120452880859e+00 2.381018847227096558e-01 3.511513233184814453e+00 1.124884605407714844e+00 -9.977604746818542480e-01
5.549000000000000000e+03 6.970626831054687500e+01 1.202786636352539062e+01 1.061822921037673950e-01 5.762487411499023438e+00 1.760600924491882324e+00 -8.099775910377502441e-01
5.550000000000000000e+03 4.547554779052734375e+01 -9.521682739257812500e+00 -9.589359164237976074e-01 2.645660042762756348e-01 -2.083109766244888306e-01 6.194144487380981445e-02
5.551000000000000000e+03 4.188395690917968750e+01 -8.599282264709472656e+00 -8.134728670120239258e-01 2.908450663089752197e-01 -1.567883342504501343e-01 1.805811524391174316e-01
5.552000000000000000e+03 3.912024688720703125e+01 -9.359729766845703125e+00 -7.598860263824462891e-01 2.636221349239349365e-01 -1.488791704177856445e-01 2.207347452640533447e-01
5.553000000000000000e+03 4.135721206665039062e+01 -9.432759284973144531e+00 -8.099288940429687500e-01 2.722776532173156738e-01 -1.612953692674636841e-01 1.701872497797012329e-01
5.554000000000000000e+03 5.090126037597656250e+01 -5.230459690093994141e+00 -9.843852519989013672e-01 3.393169641494750977e-01 -1.935204863548278809e-01 1.924100220203399658e-01
5.555000000000000000e+03 4.795593261718750000e+01 -7.273285865783691406e+00 -9.948377013206481934e-01 3.060951828956604004e-01 -2.066227495670318604e-01 1.179997995495796204e-01
5.556000000000000000e+03 4.914112854003906250e+01 -5.627934932708740234e+00 -9.257426857948303223e-01 3.280708193778991699e-01 -1.793015599250793457e-01 1.888489276170730591e-01
5.557000000000000000e+03 3.337545776367187500e+01 -1.022988414764404297e+01 -6.535629034042358398e-01 1.463449150323867798e-01 -1.521653831005096436e-01 3.319083154201507568e-01
5.558000000000000000e+03 3.825704193115234375e+01 5.766150951385498047e+00 -1.732997149229049683e-01 5.749074816703796387e-01 1.204823255538940430e-01 4.131918549537658691e-01
5.559000000000000000e+03 3.759523010253906250e+01 8.226890563964843750e+00 -6.531883031129837036e-03 6.216573119163513184e-01 1.845376342535018921e-01 4.951487779617309570e-01
5.560000000000000000e+03 3.849949645996093750e+01 6.524588584899902344e+00 -1.336537003517150879e-01 6.316766738891601562e-01 1.494068801403045654e-01 4.192966520786285400e-01
5.561000000000000000e+03 3.735070037841796875e+01 7.548296928405761719e+00 -4.742923378944396973e-02 5.733118653297424316e-01 1.577647924423217773e-01 4.905403554439544678e-01
5.562000000000000000e+03 4.000917434692382812e+01 -9.553703308105468750e+00 -7.783810496330261230e-01 2.649097144603729248e-01 -1.540413945913314819e-01 1.976580917835235596e-01
5.563000000000000000e+03 3.583415985107421875e+01 -1.097230625152587891e+01 -6.840600371360778809e-01 1.870047748088836670e-01 -1.491165757179260254e-01 2.628867030143737793e-01
5.564000000000000000e+03 3.745954132080078125e+01 -1.047455883026123047e+01 -7.219509482383728027e-01 2.233307808637619019e-01 -1.495860517024993896e-01 2.359569370746612549e-01
5.565000000000000000e+03 8.720477104187011719e+00 1.371330070495605469e+01 1.804294586181640625e-01 -6.362381577491760254e-01 -1.367426067590713501e-01 6.045787930488586426e-01
5.566000000000000000e+03 3.585350036621093750e+01 -1.163838672637939453e+01 -6.696048974990844727e-01 1.714769750833511353e-01 -1.494383811950683594e-01 2.476026117801666260e-01
5.567000000000000000e+03 8.949982643127441406e+00 2.340662574768066406e+01 1.212995722889900208e-01 -6.769201159477233887e-01 -1.666861474514007568e-01 1.869049817323684692e-01
5.568000000000000000e+03 3.124299430847167969e+01 6.854435443878173828e+00 8.588860183954238892e-02 -1.032670307904481888e-02 2.266857028007507324e-02 5.685925483703613281e-01
5.569000000000000000e+03 3.912439727783203125e+01 -1.008567237854003906e+01 -7.580300569534301758e-01 2.461974471807479858e-01 -1.535497754812240601e-01 2.060547620058059692e-01
5.570000000000000000e+03 6.983080291748046875e+01 1.066921138763427734e+01 3.832943737506866455e-02 5.882915496826171875e+00 1.776373505592346191e+00 -8.604596257209777832e-01
5.571000000000000000e+03 8.688498497009277344e+00 1.805554771423339844e+01 2.809680104255676270e-01 -6.818608045578002930e-01 -1.202678456902503967e-01 3.479675650596618652e-01
5.572000000000000000e+03 4.704544448852539062e+01 -5.773531198501586914e-01 -3.790577054023742676e-01 2.964628338813781738e-01 -2.477846480906009674e-02 2.455275058746337891e-01
5.573000000000000000e+03 4.353410339355468750e+01 1.365576148033142090e+00 -3.366052806377410889e-01 3.910374641418457031e-01 1.632965542376041412e-02 1.836121082305908203e-01
5.574000000000000000e+03 5.066660308837890625e+01 -4.028723716735839844e+00 -8.048333525657653809e-01 3.507626056671142578e-01 -1.362212300300598145e-01 2.540357410907745361e-01
5.575000000000000000e+03 4.382414627075195312e+01 -9.865995407104492188e+00 -8.954572677612304688e-01 2.622250318527221680e-01 -1.899696886539459229e-01 9.461308270692825317e-02
5.576000000000000000e+03 4.468202209472656250e+01 -9.718300819396972656e+00 -9.294295907020568848e-01 2.603660821914672852e-01 -2.007190585136413574e-01 7.940061390399932861e-02
5.577000000000000000e+03 4.461808395385742188e+01 9.231100082397460938e-01 -3.261360824108123779e-01 3.420948684215545654e-01 4.787634126842021942e-03 1.868932843208312988e-01
5.578000000000000000e+03 3.621493148803710938e+01 1.311751365661621094e+01 2.232706993818283081e-01 5.811337232589721680e-01 2.413213253021240234e-01 4.083404541015625000e-01
5.579000000000000000e+03 3.515667724609375000e+01 1.047656440734863281e+01 8.659307658672332764e-02 4.205219149589538574e-01 1.521344929933547974e-01 5.348594188690185547e-01
5.580000000000000000e+03 5.990333557128906250e+01 4.684046745300292969e+00 1.532533317804336548e-01 2.467864036560058594e+00 7.863351702690124512e-01 -7.341479063034057617e-01
5.581000000000000000e+03 6.005364990234375000e+01 5.754186630249023438e+00 1.759180128574371338e-01 2.690598249435424805e+00 8.599548339843750000e-01 -7.560412883758544922e-01
5.582000000000000000e+03 7.020870971679687500e+01 9.162881851196289062e+00 -7.485103607177734375e-02 6.048763275146484375e+00 1.792173624038696289e+00 -8.810223340988159180e-01
5.583000000000000000e+03 7.109047698974609375e+01 9.497713088989257812e+00 -7.404253631830215454e-02 6.327699184417724609e+00 1.876097083091735840e+00 -7.916036844253540039e-01
5.584000000000000000e+03 6.944502258300781250e+01 1.147012329101562500e+01 9.108623862266540527e-02 5.746138572692871094e+00 1.751167416572570801e+00 -8.547459840774536133e-01
5.585000000000000000e+03 6.994875335693359375e+01 8.717066764831542969e+00 -9.596633911132812500e-02 6.034076690673828125e+00 1.781433224678039551e+00 -9.184532165527343750e-01
5.586000000000000000e+03 7.056211090087890625e+01 3.300800800323486328e+00 -7.679935097694396973e-01 7.044097900390625000e+00 1.882831335067749023e+00 -9.586032629013061523e-01
5.587000000000000000e+03 7.002068328857421875e+01 -9.871673583984375000e-01 -1.529647827148437500e+00 8.366611480712890625e+00 2.051089048385620117e+00 -1.160209298133850098e+00
5.588000000000000000e+03 8.734744071960449219e+00 1.628376579284667969e+01 2.896978259086608887e-01 -6.777723431587219238e-01 -1.164223551750183105e-01 4.523057639598846436e-01
5.589000000000000000e+03 7.116579437255859375e+01 5.341385841369628906e+00 -4.698559939861297607e-01 6.817536354064941406e+00 1.904304146766662598e+00 -8.272835016250610352e-01
5.590000000000000000e+03 7.062182617187500000e+01 4.140565872192382812e+00 -6.280688643455505371e-01 6.889125823974609375e+00 1.878317117691040039e+00 -9.229435324668884277e-01
5.591000000000000000e+03 7.017914581298828125e+01 3.809216976165771484e+00 -6.659560799598693848e-01 6.770009040832519531e+00 1.831215858459472656e+00 -1.018562436103820801e+00
5.592000000000000000e+03 3.728075790405273438e+01 5.195218563079833984e+00 -1.790977567434310913e-01 4.875325858592987061e-01 9.253045171499252319e-02 4.375528693199157715e-01
5.593000000000000000e+03 9.602020263671875000e+00 2.351051902770996094e+01 1.260031312704086304e-01 -6.278728842735290527e-01 -1.505609303712844849e-01 1.940522044897079468e-01
5.594000000000000000e+03 5.681018066406250000e+01 -4.036433219909667969e+00 -1.061335086822509766e+00 4.342048168182373047e-01 -1.881390810012817383e-01 2.035159617662429810e-02
5.595000000000000000e+03 5.592794799804687500e+01 -3.855235099792480469e+00 -9.823756217956542969e-01 4.206231832504272461e-01 -1.685257256031036377e-01 9.714420139789581299e-02
5.596000000000000000e+03 2.866052627563476562e+01 -1.826814055442810059e+00 -5.723068714141845703e-01 1.034299656748771667e-01 -1.406630724668502808e-01 2.963066697120666504e-01
5.597000000000000000e+03 6.992480468750000000e+01 2.005786705017089844e+01 1.831800788640975952e-01 5.571984767913818359e+00 1.726549506187438965e+00 -5.113692879676818848e-01
5.598000000000000000e+03 6.919412231445312500e+01 1.714657211303710938e+01 2.220987677574157715e-01 5.466147422790527344e+00 1.706473946571350098e+00 -6.242443919181823730e-01
5.599000000000000000e+03 5.556295776367187500e+01 1.775810599327087402e+00 -4.406863823533058167e-02 9.269727468490600586e-01 2.648712396621704102e-01 9.280791133642196655e-02
5.600000000000000000e+03 5.756324386596679688e+01 -2.917439699172973633e+00 -7.836004495620727539e-01 5.066948533058166504e-01 -8.307167887687683105e-02 -5.549314990639686584e-02
5.601000000000000000e+03 3.885580444335937500e+01 3.806606054306030273e+00 -2.747575640678405762e-01 5.147301554679870605e-01 7.199177145957946777e-02 3.491428792476654053e-01
5.602000000000000000e+03 3.932759475708007812e+01 3.465913295745849609e+00 -2.971757054328918457e-01 5.252813100814819336e-01 6.843169033527374268e-02 3.232662677764892578e-01
5.603000000000000000e+03 7.050119018554687500e+01 1.742225456237792969e+01 1.751500219106674194e-01 5.756053447723388672e+00 1.779361009597778320e+00 -5.863946080207824707e-01
5.604000000000000000e+03 3.833446502685546875e+01 4.138354778289794922e+00 -2.545141577720642090e-01 5.074683427810668945e-01 7.588625699281692505e-02 3.744313120841979980e-01
5.605000000000000000e+03 2.805423355102539062e+01 -1.769110918045043945e+00 -5.880900621414184570e-01 8.631677180528640747e-02 -1.505319774150848389e-01 2.941695451736450195e-01
5.606000000000000000e+03 2.809141349792480469e+01 -2.424848079681396484e+00 -6.415099501609802246e-01 8.201674371957778931e-02 -1.678479611873626709e-01 3.189699649810791016e-01
5.607000000000000000e+03 5.329224014282226562e+01 -4.933137416839599609e+00 -1.091270923614501953e+00 3.556666970252990723e-01 -2.206812500953674316e-01 1.608830839395523071e-01
5.608000000000000000e+03 6.924082183837890625e+01 3.053752660751342773e+00 -7.469233274459838867e-01 6.534051418304443359e+00 1.736138463020324707e+00 -1.254451870918273926e+00
5.609000000000000000e+03 7.074095153808593750e+01 2.368155002593994141e+00 -9.048552513122558594e-01 7.337745666503906250e+00 1.929867148399353027e+00 -8.933704495429992676e-01
5.610000000000000000e+03 7.043608093261718750e+01 6.503350257873535156e+00 -3.186782896518707275e-01 6.436287879943847656e+00 1.835282921791076660e+00 -9.201592206954956055e-01
5.611000000000000000e+03 9.545553207397460938e+00 2.418946075439453125e+01 1.095609590411186218e-01 -6.365108489990234375e-01 -1.580849587917327881e-01 1.864477545022964478e-01
5.612000000000000000e+03 6.200428771972656250e+01 -1.181182265281677246e+00 -1.281427294015884399e-01 1.634759068489074707e+00 4.519848823547363281e-01 -1.325158476829528809e+00
5.613000000000000000e+03 6.118082809448242188e+01 -1.069186329841613770e+00 -1.633258163928985596e-01 1.361425280570983887e+00 3.594298064708709717e-01 -9.994730353355407715e-01
5.614000000000000000e+03 5.377207565307617188e+01 -4.531897068023681641e+00 -1.042814612388610840e+00 3.731188774108886719e-01 -2.009087204933166504e-01 1.691876649856567383e-01
5.615000000000000000e+03 6.960066986083984375e+01 -2.063171148300170898e+00 -1.720461010932922363e+00 8.786818504333496094e+00 2.119907140731811523e+00 -1.405163884162902832e+00
5.616000000000000000e+03 3.294186019897460938e+01 8.018332481384277344e+00 3.354507684707641602e-02 1.565207839012145996e-01 5.701975896954536438e-02 5.927542448043823242e-01
5.617000000000000000e+03 3.256435012817382812e+01 8.994365692138671875e+00 3.150931373238563538e-02 1.373417377471923828e-01 5.065531656146049500e-02 6.077207922935485840e-01
5.618000000000000000e+03 6.332026672363281250e+01 1.012867259979248047e+01 3.409338295459747314e-01 4.021025657653808594e+00 1.308587789535522461e+00 -9.913871884346008301e-01
5.619000000000000000e+03 6.361717605590820312e+01 1.323729705810546875e+01 4.620348513126373291e-01 4.177591323852539062e+00 1.391887903213500977e+00 -8.252663016319274902e-01
5.620000000000000000e+03 4.812033843994140625e+01 -2.050860881805419922e+00 -5.242977738380432129e-01 3.130008578300476074e-01 -6.338907778263092041e-02 2.773499786853790283e-01
5.621000000000000000e+03 6.977826690673828125e+01 -2.434687423706054688e+01 -9.432915449142456055e-01 7.833685398101806641e+00 2.067118167877197266e+00 2.262690104544162750e-02
5.622000000000000000e+03 5.961339950561523438e+01 -1.639976859092712402e+00 -3.621081709861755371e-01 9.134172201156616211e-01 1.653927117586135864e-01 -5.024255514144897461e-01
5.623000000000000000e+03 5.817564010620117188e+01 -1.021630883216857910e+00 -3.244247734546661377e-01 8.407331109046936035e-01 1.548925042152404785e-01 -2.166925966739654541e-01
5.624000000000000000e+03 4.666626358032226562e+01 -7.757664680480957031e+00 -9.594803452491760254e-01 3.037422299385070801e-01 -1.967214345932006836e-01 1.177429705858230591e-01
5.625000000000000000e+03 6.996494293212890625e+01 1.264338111877441406e+01 1.173965260386466980e-01 5.798810958862304688e+00 1.774862289428710938e+00 -7.822000384330749512e-01
5.626000000000000000e+03 3.293199539184570312e+01 9.583402633666992188e+00 2.954183705151081085e-02 1.869467943906784058e-01 6.494658440351486206e-02 5.989304780960083008e-01
5.627000000000000000e+03 5.305658340454101562e+01 6.350623369216918945e-01 -1.790718287229537964e-01 5.208893418312072754e-01 1.025452464818954468e-01 2.898368835449218750e-01
5.628000000000000000e+03 3.289134979248046875e+01 -7.719906806945800781e+00 -6.869146823883056641e-01 1.859051138162612915e-01 -1.503028720617294312e-01 3.615675866603851318e-01
5.629000000000000000e+03 9.989666938781738281e+00 2.530929183959960938e+01 9.485060721635818481e-02 -6.118004322052001953e-01 -1.550849378108978271e-01 1.832767724990844727e-01
5.630000000000000000e+03 6.963605499267578125e+01 -2.728167343139648438e+01 -7.705221772193908691e-01 7.180160999298095703e+00 1.922891616821289062e+00 9.408105164766311646e-02
5.631000000000000000e+03 5.804970169067382812e+01 3.725655078887939453e+00 1.050001159310340881e-01 1.779900670051574707e+00 5.654702186584472656e-01 -3.477305471897125244e-01
5.632000000000000000e+03 5.848048400878906250e+01 4.493362426757812500e+00 1.321205347776412964e-01 2.040358066558837891e+00 6.517435908317565918e-01 -4.426140487194061279e-01
5.633000000000000000e+03 7.114595794677734375e+01 1.457738304138183594e+01 1.290102154016494751e-01 6.012544155120849609e+00 1.842466354370117188e+00 -6.583395004272460938e-01
5.634000000000000000e+03 3.261845016479492188e+01 -8.290419578552246094e+00 -6.803724169731140137e-01 1.653805971145629883e-01 -1.544975340366363525e-01 3.647426664829254150e-01
5.635000000000000000e+03 3.279233169555664062e+01 1.202864742279052734e+01 1.207244955003261566e-02 2.191563099622726440e-01 6.936863064765930176e-02 5.083372592926025391e-01
5.636000000000000000e+03 6.461317443847656250e+01 -1.052760004997253418e+00 -3.652399182319641113e-01 3.451455116271972656e+00 9.258645176887512207e-01 -2.305515527725219727e+00
5.637000000000000000e+03 7.210540771484375000e+01 -2.230771827697753906e+01 -7.868469953536987305e-01 8.967308998107910156e+00 2.454138755798339844e+00 -7.420009374618530273e-01
5.638000000000000000e+03 5.230383682250976562e+01 4.651583731174468994e-02 -2.589548826217651367e-01 4.377866089344024658e-01 5.364951491355895996e-02 3.085518181324005127e-01
5.639000000000000000e+03 6.800428009033203125e+01 1.908811569213867188e+01 2.514110803604125977e-01 5.185817241668701172e+00 1.631168484687805176e+00 -5.789978504180908203e-01
5.640000000000000000e+03 7.052339935302734375e+01 2.078906250000000000e+01 1.625456213951110840e-01 5.691029071807861328e+00 1.756072402000427246e+00 -4.835410416126251221e-01
5.641000000000000000e+03 6.283246994018554688e+01 -1.372261285781860352e+00 -1.712020635604858398e-01 1.895403146743774414e+00 5.172603130340576172e-01 -1.648352503776550293e+00
5.642000000000000000e+03 2.861891555786132812e+01 -3.205192804336547852e+00 -6.719778776168823242e-01 9.838037937879562378e-02 -1.720792502164840698e-01 3.446591794490814209e-01
5.643000000000000000e+03 2.869781875610351562e+01 2.898501455783843994e-01 -3.480791449546813965e-01 7.671841979026794434e-02 -8.140822499990463257e-02 2.455414682626724243e-01
5.644000000000000000e+03 3.443175888061523438e+01 1.350813198089599609e+01 1.361755728721618652e-01 3.887322545051574707e-01 1.574723422527313232e-01 4.071432948112487793e-01
5.645000000000000000e+03 4.609298324584960938e+01 -8.445001602172851562e+00 -9.573457837104797363e-01 2.892066538333892822e-01 -2.004417330026626587e-01 9.441084414720535278e-02
5.646000000000000000e+03 4.446620178222656250e+01 -8.081653594970703125e+00 -8.817672133445739746e-01 3.001463115215301514e-01 -1.744862645864486694e-01 1.486445218324661255e-01
5.647000000000000000e+03 7.176617431640625000e+01 1.068908929824829102e+00 -1.079662680625915527e+00 8.044281005859375000e+00 2.089385509490966797e+00 -5.144560337066650391e-01
5.648000000000000000e+03 4.170709228515625000e+01 1.663582205772399902e+00 -3.625145852565765381e-01 4.537950754165649414e-01 2.738414146006107330e-02 2.265600264072418213e-01
5.649000000000000000e+03 5.035841751098632812e+01 -8.075030148029327393e-02 -2.864077985286712646e-01 3.260467946529388428e-01 1.189169660210609436e-02 3.018976449966430664e-01
5.650000000000000000e+03 5.412276458740234375e+01 2.470956563949584961e+00 1.947001367807388306e-02 7.509099841117858887e-01 2.311140000820159912e-01 2.365952134132385254e-01
5.651000000000000000e+03 2.978774452209472656e+01 -3.321236371994018555e+00 -6.427478790283203125e-01 1.378809809684753418e-01 -1.514600664377212524e-01 3.399585485458374023e-01
5.652000000000000000e+03 2.868085670471191406e+01 -4.395169615745544434e-01 -4.364936351776123047e-01 9.325353056192398071e-02 -1.029720306396484375e-01 2.595357596874237061e-01
5.653000000000000000e+03 5.390624237060546875e+01 -2.187575101852416992e+00 -6.199050545692443848e-01 4.577257335186004639e-01 -4.865379631519317627e-02 2.398954778909683228e-01
5.654000000000000000e+03 6.375706863403320312e+01 1.262838268280029297e+01 4.425700008869171143e-01 4.185092449188232422e+00 1.388298630714416504e+00 -8.602996468544006348e-01
5.655000000000000000e+03 6.383858489990234375e+01 1.376936817169189453e+01 4.613305330276489258e-01 4.235390663146972656e+00 1.409016370773315430e+00 -8.034470081329345703e-01
5.656000000000000000e+03 8.442415237426757812e+00 1.449010467529296875e+01 2.107373625040054321e-01 -6.583088636398315430e-01 -1.342714577913284302e-01 5.532102584838867188e-01
5.657000000000000000e+03 5.651559448242187500e+01 2.702642202377319336e+00 4.115699976682662964e-02 1.252130746841430664e+00 3.879863023757934570e-01 -5.674977228045463562e-02
5.658000000000000000e+03 5.432657241821289062e+01 9.133594632148742676e-01 -1.390137523412704468e-01 6.824311614036560059e-01 1.630252152681350708e-01 2.192336767911911011e-01
5.659000000000000000e+03 6.233956146240234375e+01 6.043457984924316406e+00 1.491879224777221680e-01 3.419548273086547852e+00 1.070620894432067871e+00 -1.089207649230957031e+00
5.660000000000000000e+03 6.085240554809570312e+01 5.959269046783447266e+00 1.796045899391174316e-01 2.983826398849487305e+00 9.490293264389038086e-01 -8.855376839637756348e-01
5.661000000000000000e+03 3.525956344604492188e+01 1.232500171661376953e+01 1.425749212503433228e-01 4.557986557483673096e-01 1.795120686292648315e-01 4.625172019004821777e-01
5.662000000000000000e+03 3.139060020446777344e+01 1.355902004241943359e+01 -6.155435740947723389e-02 9.142863005399703979e-02 8.962281979620456696e-03 4.187604784965515137e-01
5.663000000000000000e+03 3.185810279846191406e+01 1.413405513763427734e+01 -5.148754571564495564e-04 1.532882750034332275e-01 4.583201929926872253e-02 3.735708296298980713e-01
5.664000000000000000e+03 1.423512744903564453e+01 2.528078842163085938e+01 1.223729699850082397e-01 -3.170640170574188232e-01 -5.840731784701347351e-02 2.928346693515777588e-01
5.665000000000000000e+03 6.731185150146484375e+01 -1.329124450683593750e+00 -1.196724176406860352e+00 6.317759990692138672e+00 1.536310791969299316e+00 -2.440636634826660156e+00
5.666000000000000000e+03 5.640913772583007812e+01 -3.566256999969482422e+00 -9.341358542442321777e-01 4.412195086479187012e-01 -1.478749066591262817e-01 7.576873153448104858e-02
5.667000000000000000e+03 5.825992965698242188e+01 -2.780832767486572266e+00 -7.270469069480895996e-01 5.914354920387268066e-01 -4.068341851234436035e-02 -1.582310646772384644e-01
5.668000000000000000e+03 3.158642387390136719e+01 -7.167975902557373047e+00 -6.924453377723693848e-01 1.503539532423019409e-01 -1.626274287700653076e-01 3.859182894229888916e-01
5.669000000000000000e+03 6.256337738037109375e+01 9.758079528808593750e+00 3.479585945606231689e-01 3.804818868637084961e+00 1.245833277702331543e+00 -9.713642001152038574e-01
5.670000000000000000e+03 6.182093811035156250e+01 9.364028930664062500e+00 3.495746552944183350e-01 3.605642318725585938e+00 1.186565160751342773e+00 -9.351450204849243164e-01
5.671000000000000000e+03 6.935639953613281250e+01 -1.351441979408264160e+00 -1.587797999382019043e+00 8.134897232055664062e+00 1.964129686355590820e+00 -1.567705988883972168e+00
5.672000000000000000e+03 6.870038604736328125e+01 -1.647715926170349121e+00 -1.559385061264038086e+00 7.852003097534179688e+00 1.887785434722900391e+00 -1.916139245033264160e+00
5.673000000000000000e+03 4.072141647338867188e+01 2.163260459899902344e+00 -3.528961837291717529e-01 4.833820760250091553e-01 3.914577513933181763e-02 2.578646838665008545e-01
5.674000000000000000e+03 6.118202590942382812e+01 5.477408409118652344e+00 1.604788452386856079e-01 2.977277994155883789e+00 9.413270354270935059e-01 -9.573456048965454102e-01
5.675000000000000000e+03 1.059917068481445312e+01 2.206836509704589844e+01 1.866521239280700684e-01 -5.275043845176696777e-01 -1.022556796669960022e-01 2.188592851161956787e-01
5.676000000000000000e+03 9.535843849182128906e+00 1.925564384460449219e+01 2.843733429908752441e-01 -6.236300468444824219e-01 -1.017770171165466309e-01 2.857898473739624023e-01
5.677000000000000000e+03 1.052694606781005859e+01 2.086730957031250000e+01 2.409757971763610840e-01 -5.279700756072998047e-01 -8.609827607870101929e-02 2.330573350191116333e-01
5.678000000000000000e+03 3.339471054077148438e+01 -9.420493125915527344e+00 -6.701490879058837891e-01 1.640515178442001343e-01 -1.518292725086212158e-01 3.415290117263793945e-01
5.679000000000000000e+03 7.138133239746093750e+01 -1.395772695541381836e-01 -1.310920596122741699e+00 8.413652420043945312e+00 2.130819320678710938e+00 -5.552885532379150391e-01
5.680000000000000000e+03 1.128135013580322266e+01 2.284246444702148438e+01 1.636059880256652832e-01 -4.743697643280029297e-01 -9.322913736104965210e-02 2.230112105607986450e-01
5.681000000000000000e+03 9.942052841186523438e+00 2.257667922973632812e+01 1.672496348619461060e-01 -5.818257927894592285e-01 -1.243728473782539368e-01 2.088586688041687012e-01
5.682000000000000000e+03 2.988098335266113281e+01 -4.833628654479980469e+00 -7.000812292098999023e-01 1.276902258396148682e-01 -1.717173010110855103e-01 3.784722983837127686e-01
5.683000000000000000e+03 2.856716918945312500e+01 1.025160074234008789e+00 -2.539568543434143066e-01 5.599804595112800598e-02 -5.938764289021492004e-02 2.347261309623718262e-01
5.684000000000000000e+03 5.429337692260742188e+01 -4.111938476562500000e+00 -1.003147363662719727e+00 3.856204152107238770e-01 -1.852580755949020386e-01 1.676319688558578491e-01
5.685000000000000000e+03 5.332033157348632812e+01 -3.051025152206420898e+00 -7.517518401145935059e-01 4.093683063983917236e-01 -1.027150526642799377e-01 2.474593371152877808e-01
5.686000000000000000e+03 4.963091278076171875e+01 -5.152786254882812500e+00 -9.107624888420104980e-01 3.357637226581573486e-01 -1.724996268749237061e-01 2.042145431041717529e-01
5.687000000000000000e+03 6.889967346191406250e+01 2.232906723022460938e+01 1.853356063365936279e-01 5.328609466552734375e+00 1.654183506965637207e+00 -4.726282954216003418e-01
5.688000000000000000e+03 1.754093170166015625e+01 2.497747993469238281e+01 1.677056550979614258e-01 -1.826755553483963013e-01 -4.490971565246582031e-03 4.178337454795837402e-01
5.689000000000000000e+03 9.595281600952148438e+00 1.533911800384521484e+01 3.266276419162750244e-01 -6.507349014282226562e-01 -9.723218530416488647e-02 5.144941806793212891e-01
5.690000000000000000e+03 3.067692756652832031e+01 4.045503139495849609e+00 1.458830013871192932e-02 2.992070047184824944e-03 5.274110939353704453e-03 4.029031693935394287e-01
5.691000000000000000e+03 3.115326690673828125e+01 6.203719139099121094e+00 8.934786170721054077e-02 -1.655901037156581879e-02 2.183665521442890167e-02 5.386949777603149414e-01
5.692000000000000000e+03 6.760915374755859375e+01 2.505013465881347656e+01 1.954263001680374146e-01 5.038220882415771484e+00 1.570094108581542969e+00 -4.351365864276885986e-01
5.693000000000000000e+03 4.708870315551757812e+01 -8.023484230041503906e+00 -9.891794323921203613e-01 2.973762154579162598e-01 -2.075409591197967529e-01 9.666890650987625122e-02
5.694000000000000000e+03 6.979507446289062500e+01 4.355884552001953125e+00 -5.762513875961303711e-01 6.539675712585449219e+00 1.789027333259582520e+00 -1.076383352279663086e+00
5.695000000000000000e+03 7.106198120117187500e+01 7.657465934753417969e+00 -2.205485105514526367e-01 6.478919029235839844e+00 1.877511143684387207e+00 -8.285316228866577148e-01
5.696000000000000000e+03 4.381300354003906250e+01 5.102126598358154297e-01 -3.758486807346343994e-01 3.712799847126007080e-01 -1.370611949823796749e-03 2.053832709789276123e-01
5.697000000000000000e+03 5.865734863281250000e+01 3.842377662658691406e+00 1.146116554737091064e-01 1.947876691818237305e+00 6.187465190887451172e-01 -4.668737053871154785e-01
5.698000000000000000e+03 6.182128143310546875e+01 2.769683074951171875e+01 3.077211380004882812e-01 3.941458225250244141e+00 1.274753808975219727e+00 -4.544117450714111328e-01
5.699000000000000000e+03 1.119243812561035156e+01 2.140646743774414062e+01 2.215188741683959961e-01 -4.693732857704162598e-01 -7.435631752014160156e-02 2.304606437683105469e-01
5.700000000000000000e+03 7.171053314208984375e+01 6.538493156433105469e+00 -3.248077630996704102e-01 6.818307876586914062e+00 1.948050022125244141e+00 -7.466394901275634766e-01
5.701000000000000000e+03 7.088566589355468750e+01 6.776419162750244141e+00 -2.981309890747070312e-01 6.540534019470214844e+00 1.872720837593078613e+00 -8.504518866539001465e-01
5.702000000000000000e+03 6.367892837524414062e+01 1.110892963409423828e+01 3.787066042423248291e-01 4.146244525909423828e+00 1.357485413551330566e+00 -9.515368342399597168e-01
5.703000000000000000e+03 1.737011146545410156e+01 2.645753479003906250e+01 1.647484153509140015e-01 -2.278662472963333130e-01 -1.893535070121288300e-02 3.781084120273590088e-01
5.704000000000000000e+03 6.515586090087890625e+01 2.088725471496582031e+01 3.062404692173004150e-01 4.597277641296386719e+00 1.471055507659912109e+00 -5.404792428016662598e-01
5.705000000000000000e+03 3.299396514892578125e+01 1.930949401855468750e+01 2.476779222488403320e-01 2.537698447704315186e-01 1.504343301057815552e-01 1.673150807619094849e-01
5.706000000000000000e+03 1.286127758026123047e+01 2.684240150451660156e+01 9.593341499567031860e-02 -4.499473869800567627e-01 -1.062041968107223511e-01 2.359076738357543945e-01
5.707000000000000000e+03 3.194181823730468750e+01 1.978132629394531250e+01 2.614187300205230713e-01 1.381012946367263794e-01 1.198559999465942383e-01 1.685715019702911377e-01
5.708000000000000000e+03 3.216201782226562500e+01 1.337776279449462891e+01 -9.371086023747920990e-03 1.801100820302963257e-01 5.122169852256774902e-02 4.249148070812225342e-01
5.709000000000000000e+03 3.375624084472656250e+01 1.834053993225097656e+01 2.232122719287872314e-01 3.415535688400268555e-01 1.694297492504119873e-01 1.860066056251525879e-01
5.710000000000000000e+03 3.425835800170898438e+01 2.274201202392578125e+01 3.359313011169433594e-01 4.100645184516906738e-01 2.237987518310546875e-01 1.582120805978775024e-01
5.711000000000000000e+03 6.718148040771484375e+01 2.765279579162597656e+01 1.846773028373718262e-01 4.930140495300292969e+00 1.534445285797119141e+00 -3.905523717403411865e-01
5.712000000000000000e+03 6.283082199096679688e+01 2.369135665893554688e+01 2.835540771484375000e-01 4.156866550445556641e+00 1.332126259803771973e+00 -5.158683657646179199e-01
5.713000000000000000e+03 3.347044754028320312e+01 1.136275863647460938e+01 4.388955608010292053e-02 2.752858996391296387e-01 9.575263410806655884e-02 5.323303341865539551e-01
5.714000000000000000e+03 3.178553581237792969e+01 1.642994880676269531e+01 7.787120342254638672e-02 1.241675689816474915e-01 6.061163172125816345e-02 2.430591881275177002e-01
5.715000000000000000e+03 1.175659942626953125e+01 2.875534629821777344e+01 7.360094785690307617e-02 -5.569748878479003906e-01 -1.450121849775314331e-01 1.953560560941696167e-01
5.716000000000000000e+03 1.409172153472900391e+01 3.053294372558593750e+01 1.015462055802345276e-01 -4.586962759494781494e-01 -1.071450188755989075e-01 2.166211456060409546e-01
5.717000000000000000e+03 6.444733428955078125e+01 1.643229866027832031e+01 4.311880767345428467e-01 4.404871940612792969e+00 1.450817942619323730e+00 -6.750917434692382812e-01
5.718000000000000000e+03 3.172718048095703125e+01 1.739999580383300781e+01 1.305815875530242920e-01 1.055858805775642395e-01 7.085023820400238037e-02 2.002751976251602173e-01
5.719000000000000000e+03 3.957623672485351562e+01 2.644677162170410156e+01 4.329347908496856689e-01 8.276707530021667480e-01 3.781816661357879639e-01 2.094962596893310547e-01
5.720000000000000000e+03 3.449485778808593750e+01 2.518145751953125000e+01 3.974047899246215820e-01 4.280511438846588135e-01 2.476367801427841187e-01 1.814438998699188232e-01
5.721000000000000000e+03 6.230538940429687500e+01 1.952091979980468750e+01 3.887770473957061768e-01 4.057867050170898438e+00 1.333993196487426758e+00 -5.457435846328735352e-01
5.722000000000000000e+03 2.008551025390625000e+01 2.605062103271484375e+01 2.454336434602737427e-01 -2.095862925052642822e-01 1.075420342385768890e-02 4.444234371185302734e-01
5.723000000000000000e+03 2.437254333496093750e+01 2.732699012756347656e+01 3.729452192783355713e-01 -1.689724624156951904e-01 6.119182333350181580e-02 3.729517161846160889e-01
5.724000000000000000e+03 1.509618568420410156e+01 2.373384857177734375e+01 1.364328563213348389e-01 -2.078159600496292114e-01 -2.141493186354637146e-02 3.335515558719635010e-01
5.725000000000000000e+03 6.254516220092773438e+01 2.066459655761718750e+01 3.452655673027038574e-01 4.129146575927734375e+00 1.342323660850524902e+00 -5.447872877120971680e-01
5.726000000000000000e+03 3.191589927673339844e+01 2.842640876770019531e+01 4.502655863761901855e-01 2.452256977558135986e-01 2.086473852396011353e-01 1.963039189577102661e-01
5.727000000000000000e+03 3.835674667358398438e+01 3.055253601074218750e+01 5.318329930305480957e-01 7.363049387931823730e-01 3.804413676261901855e-01 1.531060189008712769e-01
5.728000000000000000e+03 4.335438537597656250e+01 3.250048065185546875e+01 6.400840282440185547e-01 1.098606228828430176e+00 5.216071009635925293e-01 9.255009144544601440e-02
5.729000000000000000e+03 6.490980529785156250e+01 2.685967445373535156e+01 2.394752055406570435e-01 4.479237556457519531e+00 1.415613770484924316e+00 -4.297807812690734863e-01
5.730000000000000000e+03 6.558805847167968750e+01 2.867030143737792969e+01 2.251349538564682007e-01 4.618502140045166016e+00 1.453091144561767578e+00 -3.704889714717864990e-01
5.731000000000000000e+03 2.329081916809082031e+01 -3.865398788452148438e+01 -5.095369648188352585e-03 -7.923624361865222454e-04 -1.766319503076374531e-03 1.606764621101319790e-03
5.732000000000000000e+03 3.304590988159179688e+01 -7.177411079406738281e+00 -6.858210563659667969e-01 1.985885351896286011e-01 -1.461697667837142944e-01 3.597152531147003174e-01
5.733000000000000000e+03 5.366569900512695312e+01 7.612881660461425781e-01 -1.662076711654663086e-01 5.834015607833862305e-01 1.251581758260726929e-01 2.621515989303588867e-01
5.734000000000000000e+03 3.905001449584960938e+01 -8.255944252014160156e+00 -7.494521141052246094e-01 2.848879992961883545e-01 -1.393692344427108765e-01 2.447590082883834839e-01
5.735000000000000000e+03 3.357772827148437500e+01 -8.694728851318359375e+00 -6.812617778778076172e-01 1.854347437620162964e-01 -1.487481147050857544e-01 3.460320830345153809e-01
5.736000000000000000e+03 6.403674316406250000e+01 1.202976036071777344e+01 4.032750129699707031e-01 4.260443687438964844e+00 1.399115562438964844e+00 -9.025756120681762695e-01
5.737000000000000000e+03 3.987856674194335938e+01 -8.844663619995117188e+00 -7.719522714614868164e-01 2.780364751815795898e-01 -1.481747478246688843e-01 2.179616689682006836e-01
5.738000000000000000e+03 3.421467590332031250e+01 -8.176974296569824219e+00 -6.889710426330566406e-01 2.136606127023696899e-01 -1.425931304693222046e-01 3.362939059734344482e-01
5.739000000000000000e+03 5.685942840576171875e+01 -1.526503920555114746e+00 -4.738560318946838379e-01 7.122560143470764160e-01 7.152000069618225098e-02 -1.232261420227587223e-03
5.740000000000000000e+03 3.925450897216796875e+01 -8.870911598205566406e+00 -7.586457729339599609e-01 2.750876843929290771e-01 -1.450674235820770264e-01 2.270354479551315308e-01
5.741000000000000000e+03 2.990109062194824219e+01 -2.079963445663452148e+00 -5.591350793838500977e-01 1.398797631263732910e-01 -1.257766038179397583e-01 3.083791434764862061e-01
5.742000000000000000e+03 2.933708763122558594e+01 -1.253818511962890625e+00 -5.022903680801391602e-01 1.173370108008384705e-01 -1.154860109090805054e-01 2.850749492645263672e-01
5.743000000000000000e+03 1.043778038024902344e+01 2.338057518005371094e+01 1.408577412366867065e-01 -5.517902374267578125e-01 -1.232797428965568542e-01 2.074338644742965698e-01
5.744000000000000000e+03 6.204455566406250000e+01 -2.600726485252380371e-01 -7.448959350585937500e-02 1.974795341491699219e+00 5.700917243957519531e-01 -1.331315994262695312e+00
5.745000000000000000e+03 5.626579284667968750e+01 -2.637641906738281250e+00 -7.116733193397521973e-01 5.151518583297729492e-01 -5.895644426345825195e-02 8.961728215217590332e-02
5.746000000000000000e+03 3.259030914306640625e+01 7.503546714782714844e+00 3.821124508976936340e-02 1.255399882793426514e-01 4.912536963820457458e-02 5.905560851097106934e-01
5.747000000000000000e+03 5.116676330566406250e+01 -4.316304683685302734e+00 -8.749415278434753418e-01 3.497813642024993896e-01 -1.575480401515960693e-01 2.326796948909759521e-01
5.748000000000000000e+03 5.010017395019531250e+01 -7.899189591407775879e-01 -3.778702020645141602e-01 3.216490447521209717e-01 -1.686634868383407593e-02 3.019936680793762207e-01
5.749000000000000000e+03 3.947221374511718750e+01 -9.720100402832031250e+00 -7.685869336128234863e-01 2.574879825115203857e-01 -1.533296853303909302e-01 2.068445384502410889e-01
5.750000000000000000e+03 3.975512313842773438e+01 -8.138406753540039062e+00 -7.578703761100769043e-01 2.931907474994659424e-01 -1.394038945436477661e-01 2.333458513021469116e-01
5.751000000000000000e+03 5.960714340209960938e+01 -9.700546860694885254e-01 -2.462622821331024170e-01 1.037733435630798340e+00 2.374413311481475830e-01 -5.405877828598022461e-01
5.752000000000000000e+03 2.925352478027343750e+01 1.256740808486938477e+00 -2.356868684291839600e-01 5.670447275042533875e-02 -5.369471758604049683e-02 2.576519846916198730e-01
5.753000000000000000e+03 3.789690017700195312e+01 -9.910566329956054688e+00 -7.346494197845458984e-01 2.409035563468933105e-01 -1.481237709522247314e-01 2.372167408466339111e-01
5.754000000000000000e+03 6.669320678710937500e+01 -1.365346193313598633e+00 -9.992915391921997070e-01 5.612785339355468750e+00 1.384048104286193848e+00 -2.579259634017944336e+00
5.755000000000000000e+03 6.549451446533203125e+01 -4.369135200977325439e-01 -5.584635138511657715e-01 4.382801055908203125e+00 1.147301197052001953e+00 -2.288697481155395508e+00
5.756000000000000000e+03 4.781332778930664062e+01 -2.972965240478515625e-01 -3.417282998561859131e-01 2.835485637187957764e-01 -1.745392382144927979e-02 2.565075457096099854e-01
5.757000000000000000e+03 4.604346466064453125e+01 -1.198289990425109863e-01 -3.556210994720458984e-01 3.069952428340911865e-01 -1.458775252103805542e-02 2.229872345924377441e-01
5.758000000000000000e+03 3.621687698364257812e+01 1.021889686584472656e+01 1.000420302152633667e-01 5.193259119987487793e-01 1.858103871345520020e-01 5.198281407356262207e-01
5.759000000000000000e+03 4.375909042358398438e+01 -9.041078567504882812e+00 -8.815565705299377441e-01 2.807579338550567627e-01 -1.802395880222320557e-01 1.298201233148574829e-01
5.760000000000000000e+03 3.779337310791015625e+01 6.676511287689208984e+00 -1.104513779282569885e-01 5.812472701072692871e-01 1.412387639284133911e-01 4.560774266719818115e-01
5.761000000000000000e+03 3.774857711791992188e+01 4.362400054931640625e+00 -2.303559929132461548e-01 4.878586828708648682e-01 7.725080847740173340e-02 4.023633003234863281e-01
5.762000000000000000e+03 5.158066177368164062e+01 -3.766268968582153320e+00 -8.108406066894531250e-01 3.615342080593109131e-01 -1.347919255495071411e-01 2.531594932079315186e-01
5.763000000000000000e+03 6.958425903320312500e+01 9.171030044555664062e+00 -5.811641365289688110e-02 5.876996994018554688e+00 1.745664119720458984e+00 -9.419553279876708984e-01
5.764000000000000000e+03 3.052213668823242188e+01 -4.438748836517333984e+00 -6.716272234916687012e-01 1.575088202953338623e-01 -1.542355120182037354e-01 3.612380623817443848e-01
5.765000000000000000e+03 3.141865158081054688e+01 -6.011472702026367188e+00 -6.878496408462524414e-01 1.690493226051330566e-01 -1.556400954723358154e-01 3.778986334800720215e-01
5.766000000000000000e+03 5.060902404785156250e+01 -4.615952968597412109e+00 -8.830071687698364258e-01 3.452233672142028809e-01 -1.613351404666900635e-01 2.230403423309326172e-01
5.767000000000000000e+03 3.645359420776367188e+01 -1.058070373535156250e+01 -6.995546817779541016e-01 2.058324068784713745e-01 -1.481166929006576538e-01 2.565994262695312500e-01
5.768000000000000000e+03 3.865892410278320312e+01 2.347481250762939453e+00 -3.422042727470397949e-01 4.571546018123626709e-01 3.448509424924850464e-02 3.350062072277069092e-01
5.769000000000000000e+03 6.920783233642578125e+01 1.096104145050048828e+01 6.911765038967132568e-02 5.684987068176269531e+00 1.726231455802917480e+00 -8.944483995437622070e-01
5.770000000000000000e+03 3.908635330200195312e+01 2.884382009506225586e+00 -3.207981288433074951e-01 4.868955910205841064e-01 4.982924088835716248e-02 3.267225027084350586e-01
5.771000000000000000e+03 6.935097503662109375e+01 3.990516662597656250e+00 -6.081915497779846191e-01 6.400210380554199219e+00 1.737605571746826172e+00 -1.177378535270690918e+00
5.772000000000000000e+03 6.910689544677734375e+01 -6.707442402839660645e-01 -1.410323977470397949e+00 7.662357330322265625e+00 1.875609993934631348e+00 -1.601414322853088379e+00
5.773000000000000000e+03 7.022986602783203125e+01 4.717990398406982422e+00 -5.348154306411743164e-01 6.627150535583496094e+00 1.827700614929199219e+00 -9.826502203941345215e-01
5.774000000000000000e+03 5.482878875732421875e+01 -3.647038459777832031e+00 -9.173189997673034668e-01 4.175439774990081787e-01 -1.499325186014175415e-01 1.673092097043991089e-01
5.775000000000000000e+03 7.040130615234375000e+01 1.482755279541015625e+01 1.568456441164016724e-01 5.829342842102050781e+00 1.795856595039367676e+00 -6.803901791572570801e-01
5.776000000000000000e+03 7.002275085449218750e+01 7.551603317260742188e-01 -1.196985483169555664e+00 7.541439056396484375e+00 1.903336048126220703e+00 -1.153594613075256348e+00
5.777000000000000000e+03 6.967310333251953125e+01 1.793741607666015625e+01 2.068835794925689697e-01 5.565088272094726562e+00 1.731591582298278809e+00 -5.868181586265563965e-01
5.778000000000000000e+03 6.936907196044921875e+01 1.928753662109375000e+01 2.060375064611434937e-01 5.473292827606201172e+00 1.703799128532409668e+00 -5.490625500679016113e-01
5.779000000000000000e+03 6.663789367675781250e+01 1.885803413391113281e+01 3.042891323566436768e-01 4.884561538696289062e+00 1.556655168533325195e+00 -5.939079523086547852e-01
5.780000000000000000e+03 7.030119323730468750e+01 -1.688129782676696777e+00 -1.645917296409606934e+00 8.837376594543457031e+00 2.157437801361083984e+00 -1.002055883407592773e+00
5.781000000000000000e+03 6.226521301269531250e+01 8.737243652343750000e+00 2.927300035953521729e-01 3.661229133605957031e+00 1.186187744140625000e+00 -9.879449605941772461e-01
5.782000000000000000e+03 1.217194652557373047e+01 2.353733634948730469e+01 1.437219232320785522e-01 -4.064982235431671143e-01 -7.883288711309432983e-02 2.388574779033660889e-01
5.783000000000000000e+03 7.077007293701171875e+01 5.937887668609619141e+00 -3.811601698398590088e-01 6.616203308105468750e+00 1.870512962341308594e+00 -8.727711439132690430e-01
5.784000000000000000e+03 7.023066711425781250e+01 5.680558204650878906e+00 -4.116291999816894531e-01 6.449343204498291016e+00 1.811314105987548828e+00 -9.720264673233032227e-01
5.785000000000000000e+03 4.574669647216796875e+01 -1.018767118453979492e+00 -4.368047416210174561e-01 3.194641470909118652e-01 -3.520217537879943848e-02 2.392822057008743286e-01
5.786000000000000000e+03 5.817949676513671875e+01 -1.611852645874023438e+00 -4.423210918903350830e-01 7.675916552543640137e-01 9.758116304874420166e-02 -1.984847933053970337e-01
5.787000000000000000e+03 5.887039184570312500e+01 -9.839413762092590332e-01 -2.857198715209960938e-01 9.625788331031799316e-01 2.030576914548873901e-01 -3.709563016891479492e-01
5.788000000000000000e+03 4.112998962402343750e+01 -8.077616691589355469e+00 -7.855231761932373047e-01 3.002581894397735596e-01 -1.455795019865036011e-01 2.084975540637969971e-01
5.789000000000000000e+03 2.865526008605957031e+01 -2.509630441665649414e+00 -6.293398737907409668e-01 1.033574715256690979e-01 -1.577947139739990234e-01 3.170101046562194824e-01
5.790000000000000000e+03 1.048780632019042969e+01 2.439268875122070312e+01 1.154252365231513977e-01 -5.620918273925781250e-01 -1.339999735355377197e-01 1.990957558155059814e-01
5.791000000000000000e+03 1.078570938110351562e+01 2.606996345520019531e+01 8.553815633058547974e-02 -5.721202492713928223e-01 -1.459746360778808594e-01 1.942200958728790283e-01
5.792000000000000000e+03 6.130036163330078125e+01 6.340140342712402344e+00 1.955834329128265381e-01 3.140168428421020508e+00 1.000725507736206055e+00 -9.479590058326721191e-01
5.793000000000000000e+03 6.061262512207031250e+01 5.456856250762939453e+00 1.671337932348251343e-01 2.809836626052856445e+00 8.930911421775817871e-01 -8.445704579353332520e-01
5.794000000000000000e+03 5.782766723632812500e+01 3.003113985061645508e+00 7.299033552408218384e-02 1.572514295578002930e+00 4.936513900756835938e-01 -2.907531857490539551e-01
5.795000000000000000e+03 3.455556106567382812e+01 -9.387496948242187500e+00 -6.836601495742797852e-01 1.941809803247451782e-01 -1.468437463045120239e-01 3.167448341846466064e-01
5.796000000000000000e+03 3.403352737426757812e+01 -1.016741847991943359e+01 -6.661656498908996582e-01 1.663927584886550903e-01 -1.499318778514862061e-01 3.174726665019989014e-01
5.797000000000000000e+03 6.999772644042968750e+01 7.844780921936035156e+00 -1.794764250516891479e-01 6.140967845916748047e+00 1.788447499275207520e+00 -9.411469101905822754e-01
5.798000000000000000e+03 4.088690185546875000e+01 1.472912669181823730e+00 -3.844819068908691406e-01 4.540534317493438721e-01 2.087146043777465820e-02 2.580336928367614746e-01
5.799000000000000000e+03 3.401027679443359375e+01 -9.428427696228027344e+00 -6.762512922286987305e-01 1.820597201585769653e-01 -1.482574641704559326e-01 3.276554346084594727e-01
5.800000000000000000e+03 6.874157714843750000e+01 1.065340518951416016e+01 7.163838297128677368e-02 5.563695907592773438e+00 1.690600275993347168e+00 -9.170909523963928223e-01
5.801000000000000000e+03 3.208292770385742188e+01 1.545551300048828125e+01 5.572189763188362122e-02 1.613760739564895630e-01 6.512939184904098511e-02 2.965903580188751221e-01
5.802000000000000000e+03 5.004389190673828125e+01 -3.862294912338256836e+00 -7.630692720413208008e-01 3.460362553596496582e-01 -1.251099109649658203e-01 2.597025036811828613e-01
5.803000000000000000e+03 3.529639053344726562e+01 1.318463039398193359e+01 1.693880558013916016e-01 4.707540869712829590e-01 1.920426487922668457e-01 4.168658852577209473e-01
5.804000000000000000e+03 4.537398910522460938e+01 -8.667972564697265625e+00 -9.392220973968505859e-01 2.838020622730255127e-01 -1.966260224580764771e-01 1.046312972903251648e-01
5.805000000000000000e+03 5.749447250366210938e+01 -1.610552668571472168e+00 -4.630354046821594238e-01 7.014482617378234863e-01 7.152386009693145752e-02 -7.469829171895980835e-02
5.806000000000000000e+03 3.704685592651367188e+01 8.900558471679687500e+00 4.127424210309982300e-02 5.871430039405822754e-01 1.885251849889755249e-01 5.155181288719177246e-01
5.807000000000000000e+03 3.664706039428710938e+01 7.708656787872314453e+00 -2.317088469862937927e-02 5.165560245513916016e-01 1.480155438184738159e-01 5.153587460517883301e-01
5.808000000000000000e+03 6.942254638671875000e+01 1.433768272399902344e+01 1.845577359199523926e-01 5.594464302062988281e+00 1.733706593513488770e+00 -7.274196147918701172e-01
5.809000000000000000e+03 4.272118377685546875e+01 1.108204841613769531e+00 -3.671505451202392578e-01 4.143136441707611084e-01 1.414893381297588348e-02 2.076455056667327881e-01
5.810000000000000000e+03 1.190680599212646484e+01 2.194679450988769531e+01 1.993365287780761719e-01 -3.997868001461029053e-01 -6.013508141040802002e-02 2.364220917224884033e-01
5.811000000000000000e+03 3.987628936767578125e+01 2.003908395767211914e+00 -3.646073937416076660e-01 4.694061279296875000e-01 3.143961727619171143e-02 2.924576997756958008e-01
5.812000000000000000e+03 5.746658325195312500e+01 2.644294977188110352e+00 5.130889266729354858e-02 1.449634194374084473e+00 4.502829313278198242e-01 -2.085171937942504883e-01
5.813000000000000000e+03 5.750657653808593750e+01 3.496364355087280273e+00 9.096001833677291870e-02 1.607738852500915527e+00 5.096096396446228027e-01 -2.311953157186508179e-01
5.814000000000000000e+03 2.989509391784667969e+01 2.968025684356689453e+00 -4.248258471488952637e-02 4.509772639721632004e-03 -1.139184366911649704e-02 3.218354284763336182e-01
5.815000000000000000e+03 3.106063461303710938e+01 5.513230800628662109e+00 7.070723176002502441e-02 -1.005137432366609573e-02 1.819675602018833160e-02 4.920617043972015381e-01
5.816000000000000000e+03 3.365240478515625000e+01 -6.641687870025634766e+00 -6.820777654647827148e-01 2.259892970323562622e-01 -1.368265300989151001e-01 3.477779924869537354e-01
5.817000000000000000e+03 3.242409515380859375e+01 -6.617446422576904297e+00 -6.868605017662048340e-01 1.893583685159683228e-01 -1.492506414651870728e-01 3.665706515312194824e-01
5.818000000000000000e+03 3.393413162231445312e+01 9.643641471862792969e+00 4.620870202779769897e-02 2.868291139602661133e-01 9.991134703159332275e-02 5.758168101310729980e-01
5.819000000000000000e+03 6.849956512451171875e+01 -9.726378321647644043e-01 -1.409672856330871582e+00 7.320676326751708984e+00 1.773301005363464355e+00 -1.944201350212097168e+00
5.820000000000000000e+03 6.790792846679687500e+01 -1.201712727546691895e+00 -1.310646772384643555e+00 6.908943176269531250e+00 1.679489016532897949e+00 -2.180073022842407227e+00
5.821000000000000000e+03 6.614519500732421875e+01 -5.589640140533447266e-01 -7.414297461509704590e-01 4.988752365112304688e+00 1.274196743965148926e+00 -2.349291563034057617e+00
5.822000000000000000e+03 6.250236129760742188e+01 7.084101676940917969e+00 1.967291831970214844e-01 3.588548421859741211e+00 1.135583281517028809e+00 -1.065759181976318359e+00
5.823000000000000000e+03 3.712738037109375000e+01 9.458540916442871094e+00 7.283957302570343018e-02 6.107154488563537598e-01 2.050665020942687988e-01 5.108910799026489258e-01
5.824000000000000000e+03 6.884387207031250000e+01 1.849672508239746094e+01 2.285422980785369873e-01 5.370905399322509766e+00 1.679834365844726562e+00 -5.837132334709167480e-01
5.825000000000000000e+03 6.912738800048828125e+01 2.073049926757812500e+01 1.998016387224197388e-01 5.392901897430419922e+00 1.677811026573181152e+00 -5.106199383735656738e-01
5.826000000000000000e+03 9.369988441467285156e+00 2.198205947875976562e+01 1.748114377260208130e-01 -6.266295313835144043e-01 -1.355454325675964355e-01 2.131763100624084473e-01
5.827000000000000000e+03 9.350853919982910156e+00 2.092522048950195312e+01 2.119428217411041260e-01 -6.269371509552001953e-01 -1.244982928037643433e-01 2.343379408121109009e-01
5.828000000000000000e+03 5.325670242309570312e+01 -4.062229633331298828e+00 -9.317021965980529785e-01 3.815964460372924805e-01 -1.650317162275314331e-01 2.077963948249816895e-01
5.829000000000000000e+03 6.380001831054687500e+01 1.471935176849365234e+01 4.716418385505676270e-01 4.261241436004638672e+00 1.419865012168884277e+00 -7.528231739997863770e-01
5.830000000000000000e+03 5.084263229370117188e+01 -1.187466502189636230e+00 -4.231272041797637939e-01 3.503353893756866455e-01 -2.183754369616508484e-02 3.117752671241760254e-01
5.831000000000000000e+03 6.824854278564453125e+01 2.143285751342773438e+01 2.155946940183639526e-01 5.205878734588623047e+00 1.626442074775695801e+00 -5.066576600074768066e-01
5.832000000000000000e+03 3.244216156005859375e+01 -5.344420433044433594e+00 -6.702767610549926758e-01 2.060779482126235962e-01 -1.392596513032913208e-01 3.571240603923797607e-01
5.833000000000000000e+03 3.043214035034179688e+01 -2.901629686355590820e+00 -6.035338044166564941e-01 1.598019301891326904e-01 -1.331195682287216187e-01 3.287194669246673584e-01
5.834000000000000000e+03 2.921842956542968750e+01 -3.339265823364257812e+00 -6.616789698600769043e-01 1.175374537706375122e-01 -1.632424443960189819e-01 3.427528738975524902e-01
5.835000000000000000e+03 4.865169525146484375e+01 -5.168593883514404297e+00 -8.637828230857849121e-01 3.314079642295837402e-01 -1.597124487161636353e-01 2.134774178266525269e-01
5.836000000000000000e+03 4.807635879516601562e+01 -1.177830219268798828e+00 -4.186126291751861572e-01 3.020589649677276611e-01 -3.496609628200531006e-02 2.717217803001403809e-01
5.837000000000000000e+03 5.020653152465820312e+01 -3.191344261169433594e+00 -6.802811026573181152e-01 3.451103866100311279e-01 -1.005512028932571411e-01 2.781667411327362061e-01
5.838000000000000000e+03 3.755674743652343750e+01 3.732133388519287109e+00 -2.551452517509460449e-01 4.556217789649963379e-01 6.014296412467956543e-02 3.940218985080718994e-01
5.839000000000000000e+03 3.000099945068359375e+01 5.134886264801025391e+00 1.198296472430229187e-01 -7.055996358394622803e-02 1.478090509772300720e-02 4.429162144660949707e-01
5.840000000000000000e+03 2.987920379638671875e+01 1.499552369117736816e+00 -2.076587975025177002e-01 6.787121295928955078e-02 -4.193627461791038513e-02 2.841362953186035156e-01
5.841000000000000000e+03 2.957994651794433594e+01 2.125055789947509766e+00 -1.288422942161560059e-01 3.166333585977554321e-02 -2.915368974208831787e-02 2.817052602767944336e-01
5.842000000000000000e+03 4.173585128784179688e+01 -7.395710468292236328e+00 -7.831326723098754883e-01 3.126200437545776367e-01 -1.411537826061248779e-01 2.122659385204315186e-01
5.843000000000000000e+03 4.634930419921875000e+01 -8.109368085861206055e-01 -4.147253632545471191e-01 3.082772195339202881e-01 -3.193444013595581055e-02 2.404997646808624268e-01
5.844000000000000000e+03 4.227323150634765625e+01 -8.173931121826171875e+00 -8.175270557403564453e-01 2.991634309291839600e-01 -1.555090844631195068e-01 1.840641051530838013e-01
5.845000000000000000e+03 6.513092803955078125e+01 1.179700756072998047e+01 3.289425969123840332e-01 4.534535408020019531e+00 1.459043502807617188e+00 -9.357209205627441406e-01
5.846000000000000000e+03 3.199184799194335938e+01 7.363972663879394531e+00 5.328363552689552307e-02 6.636146456003189087e-02 3.589352965354919434e-02 5.881066918373107910e-01
5.847000000000000000e+03 3.359329986572265625e+01 7.845559597015380859e+00 2.044529840350151062e-02 2.114684283733367920e-01 6.957411766052246094e-02 5.769752860069274902e-01
5.848000000000000000e+03 3.356514358520507812e+01 1.509764862060546875e+01 1.164758801460266113e-01 3.053487837314605713e-01 1.265473961830139160e-01 3.150188326835632324e-01
5.849000000000000000e+03 6.417504882812500000e+01 2.367168045043945312e+01 2.758877575397491455e-01 4.394656658172607422e+00 1.401163339614868164e+00 -4.991054832935333252e-01
5.850000000000000000e+03 3.479047393798828125e+01 1.431440067291259766e+01 1.736007928848266602e-01 4.412641227245330811e-01 1.844594776630401611e-01 3.494652509689331055e-01
5.851000000000000000e+03 3.444988250732421875e+01 1.578411102294921875e+01 1.862982809543609619e-01 4.191933274269104004e-01 1.816474795341491699e-01 2.751714587211608887e-01
5.852000000000000000e+03 1.380095386505126953e+01 2.326594924926757812e+01 1.467336565256118774e-01 -2.757788598537445068e-01 -3.871356323361396790e-02 2.802793979644775391e-01
5.853000000000000000e+03 1.556465339660644531e+01 2.494868087768554688e+01 1.359276324510574341e-01 -2.307022809982299805e-01 -2.843239344656467438e-02 3.452104628086090088e-01
5.854000000000000000e+03 6.365007781982421875e+01 2.029327774047851562e+01 3.470859825611114502e-01 4.304153442382812500e+00 1.395371913909912109e+00 -5.473651289939880371e-01
5.855000000000000000e+03 6.368017196655273438e+01 1.727407455444335938e+01 4.394948184490203857e-01 4.281669616699218750e+00 1.416349411010742188e+00 -6.250648498535156250e-01
5.856000000000000000e+03 3.305916976928710938e+01 1.367606830596923828e+01 5.370837822556495667e-02 2.509849667549133301e-01 9.140800684690475464e-02 4.065159261226654053e-01
5.857000000000000000e+03 6.640134429931640625e+01 2.607547950744628906e+01 2.062496989965438843e-01 4.809812545776367188e+00 1.504818677902221680e+00 -4.211936891078948975e-01
5.858000000000000000e+03 6.895256042480468750e+01 1.229165267944335938e+01 1.449058353900909424e-01 5.548948287963867188e+00 1.708156228065490723e+00 -8.530743718147277832e-01
5.859000000000000000e+03 6.872884368896484375e+01 1.632266235351562500e+01 2.404495328664779663e-01 5.373913288116455078e+00 1.684308886528015137e+00 -6.689153313636779785e-01
5.860000000000000000e+03 6.953118133544921875e+01 1.513186359405517578e+01 1.951178163290023804e-01 5.606044769287109375e+00 1.740348815917968750e+00 -6.985821723937988281e-01
5.861000000000000000e+03 1.857522201538085938e+01 2.507565498352050781e+01 1.991383731365203857e-01 -1.899948120117187500e-01 2.743068151175975800e-03 4.484094381332397461e-01
5.862000000000000000e+03 3.136437034606933594e+01 1.818110847473144531e+01 1.689120084047317505e-01 6.949508935213088989e-02 7.152212411165237427e-02 1.807018369436264038e-01
5.863000000000000000e+03 6.550821685791015625e+01 -3.325074386596679688e+01 -1.599559038877487183e-01 4.506803512573242188e+00 1.304054379463195801e+00 4.414544701576232910e-01
5.864000000000000000e+03 3.280929946899414062e+01 2.263584709167480469e+01 3.447921872138977051e-01 2.651471793651580811e-01 1.829818040132522583e-01 1.699522137641906738e-01
5.865000000000000000e+03 1.139340400695800781e+01 2.728888130187988281e+01 7.731548696756362915e-02 -5.534154176712036133e-01 -1.428299695253372192e-01 1.992033571004867554e-01
5.866000000000000000e+03 6.536174011230468750e+01 1.692115592956542969e+01 3.794964849948883057e-01 4.616096496582031250e+00 1.498677968978881836e+00 -6.642740368843078613e-01
5.867000000000000000e+03 3.378462600708007812e+01 2.030925369262695312e+01 2.842515110969543457e-01 3.536741733551025391e-01 1.913776993751525879e-01 1.586134135723114014e-01
5.868000000000000000e+03 3.237071228027343750e+01 2.113716506958007812e+01 3.048568069934844971e-01 1.979773193597793579e-01 1.508502364158630371e-01 1.642808020114898682e-01
5.869000000000000000e+03 3.737728881835937500e+01 2.753482437133789062e+01 4.411356449127197266e-01 6.756330132484436035e-01 3.350305855274200439e-01 1.787296235561370850e-01
5.870000000000000000e+03 3.309620285034179688e+01 2.669129562377929688e+01 4.261865317821502686e-01 3.085613548755645752e-01 2.204243689775466919e-01 1.921465694904327393e-01
5.871000000000000000e+03 6.142572402954101562e+01 2.346592140197753906e+01 2.962113022804260254e-01 3.910706281661987305e+00 1.262075304985046387e+00 -5.313936471939086914e-01
5.872000000000000000e+03 1.590100765228271484e+01 2.649345588684082031e+01 1.363095641136169434e-01 -2.735710442066192627e-01 -4.117844998836517334e-02 3.355587124824523926e-01
5.873000000000000000e+03 2.548140525817871094e+01 2.615378570556640625e+01 3.979639708995819092e-01 -1.665663719177246094e-01 6.941927969455718994e-02 3.654796779155731201e-01
5.874000000000000000e+03 1.601572608947753906e+01 2.819394302368164062e+01 1.405133605003356934e-01 -3.129417300224304199e-01 -5.172850936651229858e-02 3.069641888141632080e-01
5.875000000000000000e+03 3.360292816162109375e+01 -7.305827617645263672e+00 -6.881470680236816406e-01 2.153633087873458862e-01 -1.418351233005523682e-01 3.493406772613525391e-01
5.876000000000000000e+03 3.438201904296875000e+01 -6.528736591339111328e+00 -6.815125942230224609e-01 2.423906177282333374e-01 -1.317365914583206177e-01 3.376286327838897705e-01
5.877000000000000000e+03 4.188063049316406250e+01 9.214605093002319336e-01 -3.976141214370727539e-01 4.250222146511077881e-01 8.222430944442749023e-03 2.343219518661499023e-01
5.878000000000000000e+03 4.355354690551757812e+01 -6.355404853820800781e+00 -7.832699418067932129e-01 3.296028077602386475e-01 -1.361001431941986084e-01 2.146306335926055908e-01
5.879000000000000000e+03 4.499005889892578125e+01 2.034689188003540039e-01 -3.581953942775726318e-01 3.327629268169403076e-01 -7.629746571183204651e-03 2.069756537675857544e-01
5.880000000000000000e+03 3.752943801879882812e+01 5.932601928710937500e+00 -1.428918540477752686e-01 5.318465232849121094e-01 1.166864037513732910e-01 4.487685561180114746e-01
5.881000000000000000e+03 4.172743988037109375e+01 -8.032452583312988281e+00 -7.991412281990051270e-01 3.015829920768737793e-01 -1.492674797773361206e-01 2.007755190134048462e-01
5.882000000000000000e+03 3.974372863769531250e+01 -7.514390468597412109e+00 -7.482016682624816895e-01 3.024481236934661865e-01 -1.337260752916336060e-01 2.457171529531478882e-01
5.883000000000000000e+03 6.778746032714843750e+01 1.118739414215087891e+01 1.531053334474563599e-01 5.265680313110351562e+00 1.625635743141174316e+00 -9.325568675994873047e-01
5.884000000000000000e+03 3.605766296386718750e+01 -9.985816955566406250e+00 -6.991437077522277832e-01 2.119428962469100952e-01 -1.461602449417114258e-01 2.773362994194030762e-01
5.885000000000000000e+03 5.522827148437500000e+01 -3.038198232650756836e+00 -8.016369342803955078e-01 4.628210663795471191e-01 -1.016447544097900391e-01 1.578949093818664551e-01
5.886000000000000000e+03 5.687240982055664062e+01 -3.155181884765625000e+00 -8.544906377792358398e-01 5.082625150680541992e-01 -1.038684397935867310e-01 2.281991764903068542e-02
5.887000000000000000e+03 5.753105163574218750e+01 -1.038881301879882812e+00 -3.626166284084320068e-01 8.306170105934143066e-01 1.404001116752624512e-01 -1.123797893524169922e-01
5.888000000000000000e+03 5.666389846801757812e+01 -2.063081979751586914e+00 -5.946083068847656250e-01 5.957251787185668945e-01 3.350671613588929176e-04 3.910842537879943848e-02
5.889000000000000000e+03 3.021235656738281250e+01 2.407258510589599609e+00 -1.128814145922660828e-01 4.196965694427490234e-02 -2.127352729439735413e-02 3.141076862812042236e-01
5.890000000000000000e+03 3.017932891845703125e+01 3.775467157363891602e+00 2.628330327570438385e-02 -2.040214464068412781e-02 1.764347311109304428e-03 3.746016025543212891e-01
5.891000000000000000e+03 1.158144283294677734e+01 2.488592910766601562e+01 1.136763840913772583e-01 -4.915864765644073486e-01 -1.133730262517929077e-01 2.208411097526550293e-01
5.892000000000000000e+03 4.740377807617187500e+01 -5.048706054687500000e+00 -8.005905747413635254e-01 3.295302391052246094e-01 -1.413180977106094360e-01 2.208561301231384277e-01
5.893000000000000000e+03 4.821880722045898438e+01 -5.514883041381835938e+00 -8.727952837944030762e-01 3.274559974670410156e-01 -1.636017858982086182e-01 1.991342604160308838e-01
5.894000000000000000e+03 4.107101821899414062e+01 -7.430694103240966797e+00 -7.708653807640075684e-01 3.113878667354583740e-01 -1.378432661294937134e-01 2.253112196922302246e-01
5.895000000000000000e+03 4.292844772338867188e+01 -8.343421936035156250e+00 -8.377064466476440430e-01 2.956677973270416260e-01 -1.626115888357162476e-01 1.704519540071487427e-01
5.896000000000000000e+03 4.875069427490234375e+01 -3.600549697875976562e+00 -6.944974064826965332e-01 3.283821940422058105e-01 -1.098345667123794556e-01 2.605127990245819092e-01
5.897000000000000000e+03 5.219648361206054688e+01 -4.217289924621582031e+00 -9.106751084327697754e-01 3.663022816181182861e-01 -1.633118540048599243e-01 2.262402772903442383e-01
5.898000000000000000e+03 3.192647171020507812e+01 6.051774978637695312e+00 4.164685681462287903e-02 5.408933386206626892e-02 2.872085757553577423e-02 5.318337678909301758e-01
5.899000000000000000e+03 5.546988296508789062e+01 -2.324391365051269531e+00 -6.473454833030700684e-01 5.207989215850830078e-01 -3.796396777033805847e-02 1.507290005683898926e-01
5.900000000000000000e+03 4.123396682739257812e+01 -8.732366561889648438e+00 -8.036766052246093750e-01 2.858707308769226074e-01 -1.553417593240737915e-01 1.923871189355850220e-01
5.901000000000000000e+03 3.180716705322265625e+01 3.956448316574096680e+00 -4.609319940209388733e-02 7.550488412380218506e-02 8.823505602777004242e-03 4.316112995147705078e-01
5.902000000000000000e+03 3.873021316528320312e+01 -9.787956237792968750e+00 -7.524964809417724609e-01 2.506080865859985352e-01 -1.505665034055709839e-01 2.198999822139739990e-01
5.903000000000000000e+03 3.875480651855468750e+01 -9.034073829650878906e+00 -7.494183182716369629e-01 2.674263715744018555e-01 -1.445975750684738159e-01 2.368858456611633301e-01
5.904000000000000000e+03 3.549991989135742188e+01 -1.036894607543945312e+01 -6.862193942070007324e-01 1.954894363880157471e-01 -1.472189873456954956e-01 2.796555161476135254e-01
5.905000000000000000e+03 6.799291229248046875e+01 1.050817489624023438e+01 9.952649474143981934e-02 5.343690872192382812e+00 1.632965207099914551e+00 -9.627262353897094727e-01
5.906000000000000000e+03 6.968083953857421875e+01 1.008649826049804688e+01 -5.951978731900453568e-03 5.863195419311523438e+00 1.757173061370849609e+00 -8.930411934852600098e-01
5.907000000000000000e+03 4.992039108276367188e+01 -4.545581340789794922e+00 -8.512387275695800781e-01 3.370498120784759521e-01 -1.542566716670989990e-01 2.355695664882659912e-01
5.908000000000000000e+03 3.832079696655273438e+01 -9.424375534057617188e+00 -7.429407238960266113e-01 2.566490173339843750e-01 -1.458875089883804321e-01 2.373638898134231567e-01
5.909000000000000000e+03 3.804491806030273438e+01 3.582877635955810547e+00 -2.723210155963897705e-01 4.759134054183959961e-01 6.107772141695022583e-02 3.760564029216766357e-01
5.910000000000000000e+03 3.906863021850585938e+01 1.759568691253662109e+00 -3.692488968372344971e-01 4.522182941436767578e-01 2.489081770181655884e-02 3.177572786808013916e-01
5.911000000000000000e+03 6.037659072875976562e+01 -9.978967308998107910e-01 -1.888099908828735352e-01 1.204450964927673340e+00 3.046922981739044189e-01 -7.581998705863952637e-01
5.912000000000000000e+03 6.896633911132812500e+01 1.014220428466796875e+01 3.866425529122352600e-02 5.638437747955322266e+00 1.703130602836608887e+00 -9.264186620712280273e-01
5.913000000000000000e+03 6.925619506835937500e+01 9.654805183410644531e+00 -1.544245239347219467e-02 5.779162406921386719e+00 1.729115962982177734e+00 -9.379421472549438477e-01
5.914000000000000000e+03 4.747257614135742188e+01 -4.304408073425292969e+00 -7.398805022239685059e-01 3.297440707683563232e-01 -1.230409294366836548e-01 2.420482039451599121e-01
5.915000000000000000e+03 6.775761413574218750e+01 1.692758750915527344e+01 2.759049832820892334e-01 5.148252964019775391e+00 1.627247333526611328e+00 -6.591038107872009277e-01
5.916000000000000000e+03 3.305626296997070312e+01 1.588929080963134766e+01 1.193076595664024353e-01 2.628079652786254883e-01 1.146346926689147949e-01 2.705086767673492432e-01
5.917000000000000000e+03 6.705460357666015625e+01 7.992710471153259277e-01 -8.184110522270202637e-01 5.688701152801513672e+00 1.461086988449096680e+00 -1.942687988281250000e+00
5.918000000000000000e+03 6.746680450439453125e+01 -1.468008756637573242e-01 -1.022449493408203125e+00 6.175944805145263672e+00 1.546048641204833984e+00 -2.072473287582397461e+00
5.919000000000000000e+03 3.262885284423828125e+01 1.459091472625732422e+01 3.871624544262886047e-02 2.139321714639663696e-01 7.579452544450759888e-02 3.454083800315856934e-01
5.920000000000000000e+03 3.014386749267578125e+01 -7.671921253204345703e-01 -4.417546391487121582e-01 1.317145526409149170e-01 -9.301201999187469482e-02 2.880517840385437012e-01
5.921000000000000000e+03 2.955443191528320312e+01 1.621541082859039307e-01 -3.536869287490844727e-01 9.782865643501281738e-02 -7.675748318433761597e-02 2.680796980857849121e-01
5.922000000000000000e+03 6.942306518554687500e+01 3.432089090347290039e-01 -1.240239500999450684e+00 7.428462028503417969e+00 1.856466650962829590e+00 -1.382620215415954590e+00
5.923000000000000000e+03 4.525840377807617188e+01 -7.788673400878906250e+00 -8.961329460144042969e-01 3.064097762107849121e-01 -1.769169420003890991e-01 1.439160853624343872e-01
5.924000000000000000e+03 7.104447174072265625e+01 5.646494626998901367e-01 -1.216149091720581055e+00 7.994403362274169922e+00 2.033476352691650391e+00 -7.581636905670166016e-01
5.925000000000000000e+03 7.018320465087890625e+01 1.839630603790283203e+00 -9.980487823486328125e-01 7.252500534057617188e+00 1.876335501670837402e+00 -1.069363236427307129e+00
5.926000000000000000e+03 6.968840026855468750e+01 2.438037157058715820e+00 -8.594295978546142578e-01 6.887356758117675781e+00 1.808378100395202637e+00 -1.172999739646911621e+00
5.927000000000000000e+03 3.680101776123046875e+01 6.086218357086181641e+00 -1.192731037735939026e-01 4.809139668941497803e-01 1.084922626614570618e-01 4.786991775035858154e-01
5.928000000000000000e+03 5.550484848022460938e+01 2.417754411697387695e+00 1.820464618504047394e-02 1.029888153076171875e+00 3.144278526306152344e-01 9.540166705846786499e-02
5.929000000000000000e+03 5.878730773925781250e+01 -3.368234038352966309e-01 -1.919346004724502563e-01 1.067658066749572754e+00 2.627170383930206299e-01 -3.752706050872802734e-01
5.930000000000000000e+03 3.342142868041992188e+01 1.016090965270996094e+01 3.631430491805076599e-02 2.473418265581130981e-01 8.509683609008789062e-02 5.769553780555725098e-01
5.931000000000000000e+03 5.875460815429687500e+01 3.232650279998779297e+00 1.017261743545532227e-01 1.843954443931579590e+00 5.837041735649108887e-01 -4.744817912578582764e-01
5.932000000000000000e+03 3.693273925781250000e+01 8.341932296752929688e+00 4.120130091905593872e-03 5.542761683464050293e-01 1.675188988447189331e-01 5.137698054313659668e-01
5.933000000000000000e+03 6.990557098388671875e+01 6.378339767456054688e+00 -3.178294301033020020e-01 6.262228965759277344e+00 1.783319830894470215e+00 -9.942089319229125977e-01
5.934000000000000000e+03 6.975351715087890625e+01 5.319751262664794922e+00 -4.454451799392700195e-01 6.366581439971923828e+00 1.776340842247009277e+00 -1.053560733795166016e+00
5.935000000000000000e+03 5.918111801147460938e+01 4.584347724914550781e+00 1.373332887887954712e-01 2.236895322799682617e+00 7.122685909271240234e-01 -5.851067900657653809e-01
5.936000000000000000e+03 6.295861434936523438e+01 -4.337626397609710693e-01 -1.036056056618690491e-01 2.392517328262329102e+00 6.866735219955444336e-01 -1.658039450645446777e+00
5.937000000000000000e+03 6.031530380249023438e+01 -2.309209853410720825e-01 -1.091305539011955261e-01 1.377865195274353027e+00 3.806203901767730713e-01 -7.691173553466796875e-01
5.938000000000000000e+03 3.364200592041015625e+01 1.279704475402832031e+01 7.261879742145538330e-02 3.120740950107574463e-01 1.154078692197799683e-01 4.528183937072753906e-01
5.939000000000000000e+03 6.209257125854492188e+01 4.994203090667724609e+00 1.129885390400886536e-01 3.206283330917358398e+00 9.957815408706665039e-01 -1.108728408813476562e+00
5.940000000000000000e+03 3.107017898559570312e+01 -3.137206554412841797e+00 -6.028696298599243164e-01 1.796154081821441650e-01 -1.269762814044952393e-01 3.341048061847686768e-01
5.941000000000000000e+03 1.411241912841796875e+01 2.411515045166015625e+01 1.332799792289733887e-01 -2.842016816139221191e-01 -4.527650773525238037e-02 2.962573468685150146e-01
5.942000000000000000e+03 5.486319732666015625e+01 1.739610433578491211e+00 -5.092526599764823914e-02 8.262488245964050293e-01 2.325970828533172607e-01 1.739404052495956421e-01
5.943000000000000000e+03 6.298131179809570312e+01 6.418287754058837891e+00 1.302519887685775757e-01 3.670942068099975586e+00 1.140358209609985352e+00 -1.148991703987121582e+00
5.944000000000000000e+03 3.980541610717773438e+01 2.718359708786010742e+00 -3.325494229793548584e-01 4.993751645088195801e-01 5.004772171378135681e-02 2.960862815380096436e-01
5.945000000000000000e+03 6.933786773681640625e+01 1.359114265441894531e+01 1.729233413934707642e-01 5.587936401367187500e+00 1.728257894515991211e+00 -7.686250209808349609e-01
5.946000000000000000e+03 3.525049972534179688e+01 8.082408905029296875e+00 9.149490855634212494e-03 3.890352249145507812e-01 1.194554194808006287e-01 5.543603897094726562e-01
5.947000000000000000e+03 3.314886474609375000e+01 8.633613586425781250e+00 3.093382902443408966e-02 1.913760900497436523e-01 6.669297814369201660e-02 5.974733829498291016e-01
5.948000000000000000e+03 5.268799209594726562e+01 -3.542679786682128906e+00 -8.073161244392395020e-01 3.928260505199432373e-01 -1.243470087647438049e-01 2.504681944847106934e-01
5.949000000000000000e+03 5.136576080322265625e+01 -2.109587192535400391e+00 -5.573559999465942383e-01 3.702216446399688721e-01 -5.614030733704566956e-02 3.010242283344268799e-01
5.950000000000000000e+03 7.037511444091796875e+01 1.037943959236145020e-01 -1.325898408889770508e+00 7.995970249176025391e+00 2.001021623611450195e+00 -1.005734682083129883e+00
5.951000000000000000e+03 6.469293975830078125e+01 1.230311584472656250e+01 3.681265711784362793e-01 4.425410270690917969e+00 1.438061118125915527e+00 -9.018725156784057617e-01
5.952000000000000000e+03 6.115130996704101562e+01 -2.515342533588409424e-01 -6.909620016813278198e-02 1.641865491867065430e+00 4.718307852745056152e-01 -1.030879020690917969e+00
5.953000000000000000e+03 6.381975173950195312e+01 -7.709411382675170898e-01 -2.292971760034561157e-01 2.830162525177001953e+00 7.802596092224121094e-01 -1.996175527572631836e+00
5.954000000000000000e+03 6.630149078369140625e+01 1.793213337659835815e-01 -7.082921862602233887e-01 5.112731456756591797e+00 1.321331739425659180e+00 -2.145503997802734375e+00
5.955000000000000000e+03 6.495674133300781250e+01 1.457157993316650391e+01 4.098108708858489990e-01 4.514101982116699219e+00 1.477173924446105957e+00 -7.790478467941284180e-01
5.956000000000000000e+03 6.447193908691406250e+01 1.279691505432128906e+01 4.061787426471710205e-01 4.383399009704589844e+00 1.436873316764831543e+00 -8.587144017219543457e-01
5.957000000000000000e+03 3.117044830322265625e+01 -2.482560634613037109e+00 -5.637452602386474609e-01 1.817015558481216431e-01 -1.146131157875061035e-01 3.233990371227264404e-01
5.958000000000000000e+03 4.894891738891601562e+01 -1.236348390579223633e+00 -4.257535934448242188e-01 3.048048913478851318e-01 -3.628461062908172607e-02 2.862583994865417480e-01
5.959000000000000000e+03 4.727431106567382812e+01 -1.350621342658996582e+00 -4.514023065567016602e-01 3.023901283740997314e-01 -4.470365867018699646e-02 2.594578564167022705e-01
5.960000000000000000e+03 4.104007339477539062e+01 7.584208250045776367e-01 -4.140674471855163574e-01 4.341509640216827393e-01 6.025053095072507858e-03 2.590212523937225342e-01
5.961000000000000000e+03 5.589494705200195312e+01 -3.263972043991088867e+00 -8.708002567291259766e-01 4.461752176284790039e-01 -1.273875087499618530e-01 1.082720831036567688e-01
5.962000000000000000e+03 5.468093872070312500e+01 -2.187226533889770508e+00 -6.186907291412353516e-01 5.008858442306518555e-01 -3.534146398305892944e-02 2.083503901958465576e-01
5.963000000000000000e+03 3.046940612792968750e+01 3.272322654724121094e+00 -4.036146029829978943e-02 2.160358615219593048e-02 -5.627362988889217377e-03 3.594465553760528564e-01
5.964000000000000000e+03 3.045629501342773438e+01 4.615027427673339844e+00 6.821651011705398560e-02 -3.534577786922454834e-02 9.861218743026256561e-03 4.288265705108642578e-01
5.965000000000000000e+03 6.946662902832031250e+01 8.354910850524902344e+00 -1.169160008430480957e-01 5.923192501068115234e+00 1.741882920265197754e+00 -9.703295230865478516e-01
5.966000000000000000e+03 6.333324050903320312e+01 1.908971214294433594e+01 3.853620588779449463e-01 4.256633281707763672e+00 1.392598628997802734e+00 -5.675535202026367188e-01
5.967000000000000000e+03 6.465006256103515625e+01 1.782234954833984375e+01 3.918436765670776367e-01 4.471309185028076172e+00 1.458945870399475098e+00 -6.172492504119873047e-01
5.968000000000000000e+03 6.436396789550781250e+01 1.419402885437011719e+01 4.418912231922149658e-01 4.348291873931884766e+00 1.437054991722106934e+00 -7.884480953216552734e-01
5.969000000000000000e+03 4.568394470214843750e+01 -6.414647102355957031e+00 -8.479400873184204102e-01 3.235184252262115479e-01 -1.573265045881271362e-01 1.861035972833633423e-01
5.970000000000000000e+03 4.653090286254882812e+01 -1.545144557952880859e+00 -4.743031859397888184e-01 3.145369887351989746e-01 -4.792985320091247559e-02 2.528786957263946533e-01
5.971000000000000000e+03 4.749356842041015625e+01 -2.858895301818847656e+00 -6.037055253982543945e-01 3.224278986454010010e-01 -8.438329398632049561e-02 2.653263509273529053e-01
5.972000000000000000e+03 5.140167999267578125e+01 -7.784906625747680664e-01 -3.634188473224639893e-01 3.702963292598724365e-01 2.063241554424166679e-03 3.073235154151916504e-01
5.973000000000000000e+03 5.058828735351562500e+01 -1.840847253799438477e+00 -5.078709125518798828e-01 3.441349267959594727e-01 -4.912079125642776489e-02 3.011316359043121338e-01
5.974000000000000000e+03 3.553831481933593750e+01 1.153567314147949219e+01 1.320734322071075439e-01 4.741081297397613525e-01 1.818544715642929077e-01 4.937802553176879883e-01
5.975000000000000000e+03 6.271157455444335938e+01 8.110511779785156250e+00 2.424670755863189697e-01 3.741135597229003906e+00 1.195080757141113281e+00 -1.043934702873229980e+00
5.976000000000000000e+03 6.408105468750000000e+01 1.047931289672851562e+01 3.169571161270141602e-01 4.226494312286376953e+00 1.363035440444946289e+00 -9.984670281410217285e-01
5.977000000000000000e+03 6.948435211181640625e+01 7.422275543212890625e+00 -2.038773745298385620e-01 6.006294250488281250e+00 1.740725040435791016e+00 -1.002634882926940918e+00
5.978000000000000000e+03 6.675141906738281250e+01 -6.375745534896850586e-01 -9.385936260223388672e-01 5.608076095581054688e+00 1.400844693183898926e+00 -2.349334716796875000e+00
5.979000000000000000e+03 2.982442092895507812e+01 -2.719901800155639648e+00 -6.102039813995361328e-01 1.382039934396743774e-01 -1.415999829769134521e-01 3.231625258922576904e-01
5.980000000000000000e+03 3.030364990234375000e+01 -3.475642442703247070e+00 -6.377425789833068848e-01 1.535526216030120850e-01 -1.452569961547851562e-01 3.419792950153350830e-01
5.981000000000000000e+03 6.728201293945312500e+01 2.214682769775390625e+01 2.272810637950897217e-01 5.006214618682861328e+00 1.570048689842224121e+00 -4.935229122638702393e-01
5.982000000000000000e+03 6.686482238769531250e+01 2.393623352050781250e+01 2.196896225214004517e-01 4.903309822082519531e+00 1.536899805068969727e+00 -4.580499231815338135e-01
5.983000000000000000e+03 4.980525970458984375e+01 -1.529916763305664062e+00 -4.616945087909698486e-01 3.249608874320983887e-01 -4.102008417248725891e-02 2.973079085350036621e-01
5.984000000000000000e+03 4.886317825317382812e+01 -2.101680994033813477e+00 -5.277357101440429688e-01 3.182734251022338867e-01 -6.283869594335556030e-02 2.809787988662719727e-01
5.985000000000000000e+03 3.697940826416015625e+01 -1.000873279571533203e+01 -7.166308164596557617e-01 2.276358157396316528e-01 -1.466985046863555908e-01 2.552566528320312500e-01
5.986000000000000000e+03 2.999249458312988281e+01 -3.869687557220458984e+00 -6.610039472579956055e-01 1.429743617773056030e-01 -1.554088741540908813e-01 3.510141372680664062e-01
5.987000000000000000e+03 3.169271469116210938e+01 -4.052163600921630859e+00 -6.384428143501281738e-01 1.934316754341125488e-01 -1.335033327341079712e-01 3.466866910457611084e-01
5.988000000000000000e+03 6.567347717285156250e+01 3.137480020523071289e-01 -5.590092539787292480e-01 4.571501255035400391e+00 1.203747510910034180e+00 -2.124495983123779297e+00
5.989000000000000000e+03 4.758071899414062500e+01 -5.762856006622314453e+00 -8.770585656166076660e-01 3.281557857990264893e-01 -1.646708399057388306e-01 1.949841529130935669e-01
5.990000000000000000e+03 6.603823852539062500e+01 1.058672142028808594e+01 2.168962210416793823e-01 4.774030208587646484e+00 1.497277975082397461e+00 -1.000128626823425293e+00
5.991000000000000000e+03 6.442304229736328125e+01 1.143187713623046875e+01 3.464128375053405762e-01 4.337485313415527344e+00 1.405169486999511719e+00 -9.496135711669921875e-01
5.992000000000000000e+03 6.924587249755859375e+01 6.403151035308837891e+00 -2.989805042743682861e-01 6.042553424835205078e+00 1.723071932792663574e+00 -1.073881506919860840e+00
5.993000000000000000e+03 6.317217636108398438e+01 7.474574089050292969e+00 1.804840862751007080e-01 3.825336694717407227e+00 1.201746225357055664e+00 -1.109261751174926758e+00
5.994000000000000000e+03 4.457965469360351562e+01 -8.871527671813964844e+00 -9.057317972183227539e-01 2.859868109226226807e-01 -1.859234869480133057e-01 1.148794516921043396e-01
5.995000000000000000e+03 6.847969055175781250e+01 1.452066516876220703e+01 2.343958765268325806e-01 5.345544338226318359e+00 1.673982024192810059e+00 -7.557935714721679688e-01
5.996000000000000000e+03 6.411758422851562500e+01 8.882228851318359375e+00 2.207329273223876953e-01 4.192638874053955078e+00 1.324011564254760742e+00 -1.084751963615417480e+00
5.997000000000000000e+03 6.298449707031250000e+01 9.126590728759765625e+00 2.926052808761596680e-01 3.883230686187744141e+00 1.252750754356384277e+00 -1.020364046096801758e+00
5.998000000000000000e+03 3.402643585205078125e+01 1.070444011688232422e+01 6.040288135409355164e-02 3.180151581764221191e-01 1.135254129767417908e-01 5.481190085411071777e-01
5.999000000000000000e+03 3.061757087707519531e+01 5.831276178359985352e-01 -3.120529353618621826e-01 1.145467683672904968e-01 -5.925184488296508789e-02 2.952506840229034424e-01
6.000000000000000000e+03 3.205868148803710938e+01 6.703279972076416016e+00 4.935928434133529663e-02 5.969559773802757263e-02 3.271646425127983093e-02 5.609025955200195312e-01
6.001000000000000000e+03 6.849340057373046875e+01 1.543147945404052734e+01 2.416308671236038208e-01 5.333055496215820312e+00 1.672405838966369629e+00 -7.062170505523681641e-01
6.002000000000000000e+03 6.437850952148437500e+01 1.521226024627685547e+01 4.447141289710998535e-01 4.372963905334472656e+00 1.445303440093994141e+00 -7.362452149391174316e-01
6.003000000000000000e+03 1.285343933105468750e+01 2.532555580139160156e+01 1.089419573545455933e-01 -4.068637788295745850e-01 -8.937654644250869751e-02 2.464615553617477417e-01
6.004000000000000000e+03 1.439506816864013672e+01 2.668627738952636719e+01 1.123860329389572144e-01 -3.432137668132781982e-01 -6.924831867218017578e-02 2.839884161949157715e-01
6.005000000000000000e+03 6.285056686401367188e+01 2.203164672851562500e+01 3.086640238761901855e-01 4.174527645111083984e+00 1.344957470893859863e+00 -5.281014442443847656e-01
6.006000000000000000e+03 6.467123413085937500e+01 2.255932998657226562e+01 2.723792493343353271e-01 4.479333877563476562e+00 1.425513863563537598e+00 -5.107048153877258301e-01
6.007000000000000000e+03 6.627068328857421875e+01 2.284436798095703125e+01 2.419516444206237793e-01 4.786278724670410156e+00 1.508469104766845703e+00 -4.932844042778015137e-01
6.008000000000000000e+03 6.854016113281250000e+01 1.990816879272460938e+01 2.265566885471343994e-01 5.282421588897705078e+00 1.652693510055541992e+00 -5.441296100616455078e-01
6.009000000000000000e+03 6.617433929443359375e+01 2.028183555603027344e+01 2.901553511619567871e-01 4.791577816009521484e+00 1.524519920349121094e+00 -5.532675385475158691e-01
6.010000000000000000e+03 6.571529388427734375e+01 2.467503929138183594e+01 2.398599237203598022e-01 4.672761917114257812e+00 1.473786592483520508e+00 -4.608229696750640869e-01
6.011000000000000000e+03 6.497643280029296875e+01 -3.545981216430664062e+01 4.896308481693267822e-02 4.185598850250244141e+00 1.270368576049804688e+00 3.501735627651214600e-01
6.012000000000000000e+03 6.765846252441406250e+01 2.054233932495117188e+01 2.419580966234207153e-01 5.096067905426025391e+00 1.601407766342163086e+00 -5.355961918830871582e-01
6.013000000000000000e+03 6.571163177490234375e+01 1.937258148193359375e+01 3.226855099201202393e-01 4.707549095153808594e+00 1.509070396423339844e+00 -5.786827206611633301e-01
6.014000000000000000e+03 3.467364883422851562e+01 2.811415672302246094e+01 4.551871716976165771e-01 4.582797586917877197e-01 2.740400731563568115e-01 1.919433623552322388e-01
6.015000000000000000e+03 1.765537452697753906e+01 3.030741310119628906e+01 1.835714876651763916e-01 -2.962581217288970947e-01 -3.380599245429039001e-02 2.894337773323059082e-01
6.016000000000000000e+03 1.454034996032714844e+01 2.947950363159179688e+01 1.071769073605537415e-01 -4.187699556350708008e-01 -9.347791224718093872e-02 2.398780733346939087e-01
6.017000000000000000e+03 1.364561176300048828e+01 3.501290893554687500e+01 1.271392107009887695e-01 -5.442624092102050781e-01 -1.251369565725326538e-01 1.367813944816589355e-01
6.018000000000000000e+03 1.434315204620361328e+01 3.269446563720703125e+01 1.090297996997833252e-01 -4.780619740486145020e-01 -1.107096523046493530e-01 1.894824653863906860e-01
6.019000000000000000e+03 6.371328735351562500e+01 2.966317367553710938e+01 2.852375507354736328e-01 4.215663909912109375e+00 1.350270509719848633e+00 -3.865965902805328369e-01
6.020000000000000000e+03 6.334341430664062500e+01 2.743881607055664062e+01 2.697928249835968018e-01 4.181780338287353516e+00 1.335471987724304199e+00 -4.478574395179748535e-01
6.021000000000000000e+03 1.954629135131835938e+01 3.029952049255371094e+01 2.276142984628677368e-01 -2.550753355026245117e-01 -8.238312788307666779e-03 3.076523840427398682e-01
6.022000000000000000e+03 5.753464889526367188e+01 -5.274942517280578613e-01 -2.792145311832427979e-01 8.631877303123474121e-01 1.751919686794281006e-01 -1.354218870401382446e-01
6.023000000000000000e+03 6.973332977294921875e+01 -3.093038499355316162e-01 -1.399829864501953125e+00 7.829477310180664062e+00 1.928894162178039551e+00 -1.316036939620971680e+00
6.024000000000000000e+03 3.433731842041015625e+01 9.137701034545898438e+00 4.017652198672294617e-02 3.129625320434570312e-01 1.059417203068733215e-01 5.714272260665893555e-01
6.025000000000000000e+03 5.557344436645507812e+01 -7.051488161087036133e-01 -3.564250767230987549e-01 6.529411673545837402e-01 8.895482867956161499e-02 1.330365687608718872e-01
6.026000000000000000e+03 6.860541534423828125e+01 1.116174125671386719e+01 1.137003377079963684e-01 5.504162788391113281e+00 1.685359001159667969e+00 -8.966409564018249512e-01
6.027000000000000000e+03 6.873233795166015625e+01 1.170376491546630859e+01 1.310319602489471436e-01 5.515160560607910156e+00 1.693857789039611816e+00 -8.800909519195556641e-01
6.028000000000000000e+03 4.809697341918945312e+01 -4.971900939941406250e+00 -8.267499804496765137e-01 3.316704332828521729e-01 -1.485238522291183472e-01 2.250794470310211182e-01
6.029000000000000000e+03 4.939194869995117188e+01 -3.692013502120971680e+00 -7.293304204940795898e-01 3.315176963806152344e-01 -1.193438172340393066e-01 2.633101344108581543e-01
6.030000000000000000e+03 6.156970596313476562e+01 1.384439945220947266e+00 1.729759573936462402e-02 2.303693771362304688e+00 6.962974071502685547e-01 -1.159988045692443848e+00
6.031000000000000000e+03 6.103639984130859375e+01 5.536597967147827148e-01 -2.082036621868610382e-02 1.828470706939697266e+00 5.422950983047485352e-01 -1.007870197296142578e+00
6.032000000000000000e+03 3.406900787353515625e+01 -7.633251667022705078e+00 -6.887742877006530762e-01 2.188013792037963867e-01 -1.409918665885925293e-01 3.401652276515960693e-01
6.033000000000000000e+03 3.571729278564453125e+01 -9.478557586669921875e+00 -6.970093250274658203e-01 2.155265808105468750e-01 -1.444448232650756836e-01 2.899567484855651855e-01
6.034000000000000000e+03 6.846164703369140625e+01 1.313681221008300781e+01 1.975967735052108765e-01 5.392504215240478516e+00 1.677030205726623535e+00 -8.268048167228698730e-01
6.035000000000000000e+03 6.918173980712890625e+01 1.291715908050537109e+01 1.608913838863372803e-01 5.565023422241210938e+00 1.717774391174316406e+00 -8.042877316474914551e-01
6.036000000000000000e+03 5.824675369262695312e+01 2.698115587234497070e+00 6.827617436647415161e-02 1.629457712173461914e+00 5.093201398849487305e-01 -3.664673864841461182e-01
6.037000000000000000e+03 5.823619842529296875e+01 3.191079378128051758e+00 8.761230111122131348e-02 1.726815462112426758e+00 5.443283319473266602e-01 -3.759332597255706787e-01
6.038000000000000000e+03 3.595367431640625000e+01 7.939043998718261719e+00 -3.578888950869441032e-03 4.500510096549987793e-01 1.339416354894638062e-01 5.391674637794494629e-01
6.039000000000000000e+03 3.257428741455078125e+01 4.911870479583740234e+00 -3.124710172414779663e-02 1.233573779463768005e-01 2.763308398425579071e-02 4.901327788829803467e-01
6.040000000000000000e+03 4.047368240356445312e+01 -8.120862007141113281e+00 -7.747225761413574219e-01 2.962858676910400391e-01 -1.435310095548629761e-01 2.218876183032989502e-01
6.041000000000000000e+03 5.707712554931640625e+01 2.187212705612182617e+00 1.830541901290416718e-02 1.294694066047668457e+00 3.938998281955718994e-01 -1.436526179313659668e-01
6.042000000000000000e+03 5.899789428710937500e+01 1.209009170532226562e+00 -3.348362166434526443e-03 1.467782616615295410e+00 4.393302798271179199e-01 -5.086089372634887695e-01
6.043000000000000000e+03 4.929097366333007812e+01 -4.304046154022216797e+00 -7.960171699523925781e-01 3.377180397510528564e-01 -1.374897360801696777e-01 2.438810467720031738e-01
6.044000000000000000e+03 3.187890625000000000e+01 4.753670215606689453e+00 -3.190227784216403961e-03 6.183570995926856995e-02 1.759364455938339233e-02 4.730147421360015869e-01
6.045000000000000000e+03 4.291728973388671875e+01 2.436384260654449463e-01 -4.132893383502960205e-01 3.884804248809814453e-01 -7.442675530910491943e-03 2.235210090875625610e-01
6.046000000000000000e+03 4.667515945434570312e+01 -4.955415248870849609e+00 -7.797911167144775391e-01 3.310277462005615234e-01 -1.346290111541748047e-01 2.260198742151260376e-01
6.047000000000000000e+03 4.370127105712890625e+01 -8.281617164611816406e+00 -8.595003485679626465e-01 2.985619008541107178e-01 -1.682815402746200562e-01 1.534923017024993896e-01
6.048000000000000000e+03 5.306040573120117188e+01 -3.448974341154098511e-02 -2.744568288326263428e-01 4.902601540088653564e-01 6.474100053310394287e-02 2.920919358730316162e-01
6.049000000000000000e+03 5.736252212524414062e+01 -8.552210777997970581e-02 -2.133607715368270874e-01 9.311102628707885742e-01 2.153248488903045654e-01 -1.283595412969589233e-01
6.050000000000000000e+03 6.832694244384765625e+01 1.770185279846191406e+01 2.542365789413452148e-01 5.281259536743164062e+00 1.660648941993713379e+00 -6.218599677085876465e-01
6.051000000000000000e+03 6.749945831298828125e+01 1.830636787414550781e+01 2.788867950439453125e-01 5.077599048614501953e+00 1.606945753097534180e+00 -6.157907843589782715e-01
6.052000000000000000e+03 4.200446319580078125e+01 1.452513933181762695e-01 -4.331656098365783691e-01 4.086574912071228027e-01 -7.352427113801240921e-03 2.422108352184295654e-01
6.053000000000000000e+03 3.970719146728515625e+01 -6.965280055999755859e+00 -7.335459589958190918e-01 3.133854269981384277e-01 -1.260481625795364380e-01 2.539432644844055176e-01
6.054000000000000000e+03 3.065682411193847656e+01 -1.639854073524475098e+00 -5.108103156089782715e-01 1.588281542062759399e-01 -1.055946424603462219e-01 3.066887259483337402e-01
6.055000000000000000e+03 5.810829162597656250e+01 -4.361858069896697998e-01 -2.373097836971282959e-01 9.703753590583801270e-01 2.199196815490722656e-01 -2.385127693414688110e-01
6.056000000000000000e+03 5.952890396118164062e+01 -2.568026185035705566e-01 -1.359255462884902954e-01 1.235030889511108398e+00 3.297315835952758789e-01 -5.718121528625488281e-01
6.057000000000000000e+03 3.767522811889648438e+01 3.200794696807861328e+00 -2.842231690883636475e-01 4.461186230182647705e-01 4.856863617897033691e-02 3.807477653026580811e-01
6.058000000000000000e+03 3.837176513671875000e+01 1.464124083518981934e+00 -3.780222237110137939e-01 4.222715198993682861e-01 1.327478978782892227e-02 3.353212475776672363e-01
6.059000000000000000e+03 3.651008605957031250e+01 5.301165103912353516e+00 -1.474376618862152100e-01 4.330239892005920410e-01 8.567589521408081055e-02 4.670083820819854736e-01
6.060000000000000000e+03 6.694004058837890625e+01 3.668212413787841797e+00 -4.215556383132934570e-01 5.312678813934326172e+00 1.467336893081665039e+00 -1.511479973793029785e+00
6.061000000000000000e+03 7.064525604248046875e+01 1.226121664047241211e+00 -1.111096382141113281e+00 7.661302566528320312e+00 1.965061902999877930e+00 -9.169732928276062012e-01
6.062000000000000000e+03 6.868027496337890625e+01 2.692465066909790039e+00 -7.473131418228149414e-01 6.349664688110351562e+00 1.680705428123474121e+00 -1.392677307128906250e+00
6.063000000000000000e+03 4.499928283691406250e+01 -7.013617515563964844e+00 -8.611985445022583008e-01 3.172687590122222900e-01 -1.631789356470108032e-01 1.746913492679595947e-01
6.064000000000000000e+03 5.306160354614257812e+01 -1.516974210739135742e+00 -4.916034340858459473e-01 4.433214664459228516e-01 -1.448458805680274963e-02 2.814446389675140381e-01
6.065000000000000000e+03 6.834318542480468750e+01 3.378675460815429688e+00 -6.239079236984252930e-01 6.033771514892578125e+00 1.622959017753601074e+00 -1.394855976104736328e+00
6.066000000000000000e+03 6.973347473144531250e+01 3.432651042938232422e+00 -7.138883471488952637e-01 6.688029289245605469e+00 1.792242169380187988e+00 -1.122690916061401367e+00
6.067000000000000000e+03 3.179601287841796875e+01 5.454303264617919922e+00 3.107672743499279022e-02 4.643350467085838318e-02 2.325307019054889679e-02 5.014539361000061035e-01
6.068000000000000000e+03 6.136526489257812500e+01 4.829718589782714844e+00 1.302728354930877686e-01 2.931051492691040039e+00 9.183973073959350586e-01 -9.977983236312866211e-01
6.069000000000000000e+03 6.005881500244140625e+01 3.858287572860717773e+00 1.156362369656562805e-01 2.341402292251586914e+00 7.371115684509277344e-01 -7.644276618957519531e-01
6.070000000000000000e+03 4.627347183227539062e+01 -5.690044403076171875e+00 -8.230627775192260742e-01 3.283699154853820801e-01 -1.484078615903854370e-01 2.043161094188690186e-01
6.071000000000000000e+03 4.453230667114257812e+01 -6.397966861724853516e+00 -8.096215724945068359e-01 3.271628618240356445e-01 -1.447376012802124023e-01 2.017035335302352905e-01
6.072000000000000000e+03 3.081199645996093750e+01 2.789300918579101562e+00 -9.906195849180221558e-02 4.985040426254272461e-02 -1.476346608251333237e-02 3.473764061927795410e-01
6.073000000000000000e+03 3.056288528442382812e+01 1.794793486595153809e+00 -1.875439584255218506e-01 7.455736398696899414e-02 -3.389597684144973755e-02 3.101069927215576172e-01
6.074000000000000000e+03 5.039000320434570312e+01 -2.517067193984985352e+00 -5.923480391502380371e-01 3.448799848556518555e-01 -7.424041628837585449e-02 2.920371592044830322e-01
6.075000000000000000e+03 6.826541137695312500e+01 -3.333483636379241943e-01 -1.218459963798522949e+00 6.899446010589599609e+00 1.704295873641967773e+00 -1.900597572326660156e+00
6.076000000000000000e+03 5.222988128662109375e+01 -7.220792770385742188e-01 -3.633913695812225342e-01 4.136767685413360596e-01 1.508561708033084869e-02 3.084867596626281738e-01
6.077000000000000000e+03 5.149789810180664062e+01 -1.444858670234680176e+00 -4.730766713619232178e-01 3.716032505035400391e-01 -3.044202364981174469e-02 3.077277839183807373e-01
6.078000000000000000e+03 4.007011795043945312e+01 1.293719887733459473e+00 -3.943073749542236328e-01 4.489068984985351562e-01 1.637984998524188995e-02 2.851113379001617432e-01
6.079000000000000000e+03 6.483465576171875000e+01 1.365154838562011719e+01 4.005341231822967529e-01 4.457075595855712891e+00 1.457282900810241699e+00 -8.311866521835327148e-01
6.080000000000000000e+03 3.129021835327148438e+01 -1.862089157104492188e+00 -5.217577815055847168e-01 1.786994785070419312e-01 -1.029174849390983582e-01 3.166100978851318359e-01
6.081000000000000000e+03 6.542359161376953125e+01 1.390569877624511719e+01 3.729772269725799561e-01 4.617771625518798828e+00 1.497224688529968262e+00 -8.191398382186889648e-01
6.082000000000000000e+03 5.429948425292968750e+01 -3.249333143234252930e+00 -8.192562460899353027e-01 4.301157295703887939e-01 -1.167421564459800720e-01 2.006609588861465454e-01
6.083000000000000000e+03 3.596263122558593750e+01 9.178633689880371094e+00 4.992327094078063965e-02 4.795379638671875000e-01 1.588383764028549194e-01 5.405203104019165039e-01
6.084000000000000000e+03 3.347029495239257812e+01 9.167677879333496094e+00 3.394537046551704407e-02 2.306995689868927002e-01 7.939348369836807251e-02 5.912966728210449219e-01
6.085000000000000000e+03 5.380649185180664062e+01 1.328633725643157959e-02 -2.660184204578399658e-01 5.637995004653930664e-01 8.933433145284652710e-02 2.564624249935150146e-01
6.086000000000000000e+03 6.728778076171875000e+01 8.644165039062500000e+00 1.523228920996189117e-02 5.190772533416748047e+00 1.561801433563232422e+00 -1.086950182914733887e+00
6.087000000000000000e+03 6.900363159179687500e+01 8.858382225036621094e+00 -5.431364849209785461e-02 5.734259128570556641e+00 1.703983664512634277e+00 -9.864817857742309570e-01
6.088000000000000000e+03 3.531675720214843750e+01 6.428411006927490234e+00 -6.407085061073303223e-02 3.550283610820770264e-01 8.728725463151931763e-02 5.200935006141662598e-01
6.089000000000000000e+03 6.854364013671875000e+01 5.991286754608154297e+00 -2.957014441490173340e-01 5.803938388824462891e+00 1.652471065521240234e+00 -1.165407776832580566e+00
6.090000000000000000e+03 5.832231140136718750e+01 9.203729033470153809e-01 -5.787051469087600708e-02 1.269838929176330566e+00 3.635905086994171143e-01 -3.397729396820068359e-01
6.091000000000000000e+03 3.033955192565917969e+01 -1.033973619341850281e-01 -3.811520934104919434e-01 1.227461844682693481e-01 -7.752177864313125610e-02 2.876894772052764893e-01
6.092000000000000000e+03 6.916085815429687500e+01 5.761076927185058594e+00 -3.599820733070373535e-01 6.087146759033203125e+00 1.718149304389953613e+00 -1.104751944541931152e+00
6.093000000000000000e+03 6.372286987304687500e+01 9.500247001647949219e+00 2.787351906299591064e-01 4.096556663513183594e+00 1.312587499618530273e+00 -1.039527297019958496e+00
6.094000000000000000e+03 6.524656677246093750e+01 1.021333694458007812e+01 2.356795370578765869e-01 4.548160076141357422e+00 1.435151934623718262e+00 -1.029355406761169434e+00
6.095000000000000000e+03 6.484164428710937500e+01 1.082815551757812500e+01 2.971366047859191895e-01 4.444051742553710938e+00 1.422356605529785156e+00 -9.904350638389587402e-01
6.096000000000000000e+03 6.340676498413085938e+01 8.501275062561035156e+00 2.312338203191757202e-01 3.959148406982421875e+00 1.257114648818969727e+00 -1.074164152145385742e+00
6.097000000000000000e+03 3.250091171264648438e+01 -4.073791503906250000e+00 -6.266923546791076660e-01 2.211511433124542236e-01 -1.216623708605766296e-01 3.444527685642242432e-01
6.098000000000000000e+03 4.020136260986328125e+01 -6.264421463012695312e+00 -7.220454216003417969e-01 3.270029723644256592e-01 -1.185127273201942444e-01 2.568098306655883789e-01
6.099000000000000000e+03 4.426577377319335938e+01 -2.717711329460144043e-01 -4.158304333686828613e-01 3.508148193359375000e-01 -1.950468309223651886e-02 2.218318134546279907e-01
6.100000000000000000e+03 6.889427185058593750e+01 5.282532691955566406e+00 -4.137869179248809814e-01 6.064457416534423828e+00 1.695201158523559570e+00 -1.167438387870788574e+00
6.101000000000000000e+03 6.937631225585937500e+01 4.875221729278564453e+00 -4.863740503787994385e-01 6.272030353546142578e+00 1.735696911811828613e+00 -1.129049062728881836e+00
6.102000000000000000e+03 5.932441329956054688e+01 3.878681421279907227e+00 1.261333823204040527e-01 2.130715131759643555e+00 6.770545840263366699e-01 -6.095775365829467773e-01
6.103000000000000000e+03 6.480084991455078125e+01 -2.386850118637084961e-01 -4.036948680877685547e-01 3.779776573181152344e+00 1.012824535369873047e+00 -2.149683237075805664e+00
6.104000000000000000e+03 3.395309829711914062e+01 1.422435188293457031e+01 1.225781589746475220e-01 3.504079282283782959e-01 1.418958306312561035e-01 3.652634620666503906e-01
6.105000000000000000e+03 3.428527450561523438e+01 1.197884845733642578e+01 9.464965015649795532e-02 3.605067729949951172e-01 1.365469247102737427e-01 4.895210266113281250e-01
6.106000000000000000e+03 3.491336441040039062e+01 9.461741447448730469e+00 5.528733134269714355e-02 3.820925056934356689e-01 1.312139481306076050e-01 5.564961433410644531e-01
6.107000000000000000e+03 3.657456207275390625e+01 9.685611724853515625e+00 8.352228254079818726e-02 5.521383881568908691e-01 1.906982064247131348e-01 5.240040421485900879e-01
6.108000000000000000e+03 6.438856506347656250e+01 1.878841781616210938e+01 3.773710727691650391e-01 4.415519714355468750e+00 1.437867283821105957e+00 -5.844023227691650391e-01
6.109000000000000000e+03 3.092509841918945312e+01 -3.843518257141113281e+00 -6.398283243179321289e-01 1.737824976444244385e-01 -1.398137360811233521e-01 3.463186621665954590e-01
6.110000000000000000e+03 3.249140930175781250e+01 -3.392240047454833984e+00 -5.985941886901855469e-01 2.192462235689163208e-01 -1.138043999671936035e-01 3.370362222194671631e-01
6.111000000000000000e+03 4.544845962524414062e+01 -4.114641189575195312e+00 -6.830366849899291992e-01 3.365830183029174805e-01 -1.039361059665679932e-01 2.419835031032562256e-01
6.112000000000000000e+03 6.365618133544921875e+01 6.824512958526611328e+00 1.204775497317314148e-01 3.957685947418212891e+00 1.223449110984802246e+00 -1.177727937698364258e+00
6.113000000000000000e+03 6.728588104248046875e+01 -7.002736926078796387e-01 -1.073000907897949219e+00 6.094389438629150391e+00 1.506416559219360352e+00 -2.267686367034912109e+00
6.114000000000000000e+03 4.740908050537109375e+01 -2.116718530654907227e+00 -5.187639594078063965e-01 3.163916468620300293e-01 -6.071169301867485046e-02 2.674685120582580566e-01
6.115000000000000000e+03 4.812349700927734375e+01 -3.585240125656127930e+00 -6.850381493568420410e-01 3.280140757560729980e-01 -1.071072295308113098e-01 2.612595856189727783e-01
6.116000000000000000e+03 3.174631881713867188e+01 2.789774179458618164e+00 -1.287082433700561523e-01 9.673811495304107666e-02 -9.591040201485157013e-03 3.790948390960693359e-01
6.117000000000000000e+03 3.095071983337402344e+01 3.636291742324829102e+00 -2.675725519657135010e-02 2.964103221893310547e-02 8.651330135762691498e-04 3.951548337936401367e-01
6.118000000000000000e+03 3.332440185546875000e+01 -5.556617736816406250e+00 -6.679258346557617188e-01 2.307963818311691284e-01 -1.311388313770294189e-01 3.486939072608947754e-01
6.119000000000000000e+03 6.510430908203125000e+01 1.566134071350097656e+01 4.041644036769866943e-01 4.549798011779785156e+00 1.486188769340515137e+00 -7.215030193328857422e-01
6.120000000000000000e+03 5.399395370483398438e+01 -2.794650316238403320e+00 -7.090570926666259766e-01 4.510335028171539307e-01 -7.740706950426101685e-02 2.342737913131713867e-01
6.121000000000000000e+03 5.387331390380859375e+01 -7.312593460083007812e-01 -3.750067651271820068e-01 5.201519727706909180e-01 4.354356601834297180e-02 2.558980286121368408e-01
6.122000000000000000e+03 6.597084808349609375e+01 1.604551506042480469e+01 3.638750314712524414e-01 4.734956264495849609e+00 1.529649376869201660e+00 -7.115046381950378418e-01
6.123000000000000000e+03 3.320508193969726562e+01 5.880162715911865234e+00 -1.652119122445583344e-02 1.684917807579040527e-01 4.559117928147315979e-02 5.284034609794616699e-01
6.124000000000000000e+03 3.298296737670898438e+01 6.781599521636962891e+00 1.422525104135274887e-02 1.510620713233947754e-01 4.958619549870491028e-02 5.597952008247375488e-01
6.125000000000000000e+03 3.104297447204589844e+01 -3.925198614597320557e-01 -4.027569591999053955e-01 1.507013887166976929e-01 -7.561667263507843018e-02 3.036418557167053223e-01
6.126000000000000000e+03 2.982690620422363281e+01 8.547631502151489258e-01 -2.799725234508514404e-01 8.404411375522613525e-02 -5.877852067351341248e-02 2.744902670383453369e-01
6.127000000000000000e+03 3.376578521728515625e+01 -8.099636077880859375e+00 -6.879404187202453613e-01 2.014937400817871094e-01 -1.459340006113052368e-01 3.458634912967681885e-01
6.128000000000000000e+03 3.466087722778320312e+01 -8.828487396240234375e+00 -6.892352104187011719e-01 2.109167128801345825e-01 -1.434955596923828125e-01 3.211641609668731689e-01
6.129000000000000000e+03 6.569837951660156250e+01 2.185098075866699219e+01 2.675149142742156982e-01 4.689815044403076172e+00 1.487198948860168457e+00 -5.168093442916870117e-01
6.130000000000000000e+03 4.482685470581054688e+01 -8.769380450248718262e-01 -4.462025761604309082e-01 3.366240561008453369e-01 -3.287355974316596985e-02 2.330569773912429810e-01
6.131000000000000000e+03 4.691108322143554688e+01 -6.207939624786376953e+00 -8.719918727874755859e-01 3.240543603897094727e-01 -1.643812507390975952e-01 1.856208294630050659e-01
6.132000000000000000e+03 3.241814804077148438e+01 5.623092651367187500e+00 1.088722329586744308e-02 9.180939197540283203e-02 3.080898523330688477e-02 5.209546685218811035e-01
6.133000000000000000e+03 6.432782745361328125e+01 7.251008033752441406e+00 1.008198112249374390e-01 4.201094150543212891e+00 1.290574193000793457e+00 -1.181636333465576172e+00
6.134000000000000000e+03 6.384539031982421875e+01 7.876944541931152344e+00 1.729386597871780396e-01 4.071043968200683594e+00 1.273194789886474609e+00 -1.126752734184265137e+00
6.135000000000000000e+03 6.525736999511718750e+01 2.345818138122558594e+01 2.592122256755828857e-01 4.610939502716064453e+00 1.461045503616333008e+00 -4.894179403781890869e-01
6.136000000000000000e+03 6.440458679199218750e+01 2.519455146789550781e+01 2.536760568618774414e-01 4.423653125762939453e+00 1.403198719024658203e+00 -4.763880372047424316e-01
6.137000000000000000e+03 6.670568084716796875e+01 2.119417762756347656e+01 2.626983523368835449e-01 4.889254093170166016e+00 1.545585751533508301e+00 -5.253822207450866699e-01
6.138000000000000000e+03 3.473767852783203125e+01 1.118020153045654297e+01 9.628666192293167114e-02 3.916811943054199219e-01 1.463903486728668213e-01 5.194131731986999512e-01
6.139000000000000000e+03 1.315813827514648438e+01 2.401858901977539062e+01 1.388840973377227783e-01 -3.502183258533477783e-01 -6.340026110410690308e-02 2.622945010662078857e-01
6.140000000000000000e+03 6.700115203857421875e+01 1.229317188262939453e+01 2.404125481843948364e-01 5.029287338256835938e+00 1.580909967422485352e+00 -8.952408432960510254e-01
6.141000000000000000e+03 1.452909946441650391e+01 2.813913154602050781e+01 1.130977421998977661e-01 -3.852818906307220459e-01 -8.165524899959564209e-02 2.669673860073089600e-01
6.142000000000000000e+03 6.712098693847656250e+01 1.968400955200195312e+01 2.762407958507537842e-01 4.984139442443847656e+00 1.578114032745361328e+00 -5.674289464950561523e-01
6.143000000000000000e+03 1.754804801940917969e+01 2.826913452148437500e+01 1.720051169395446777e-01 -2.721495330333709717e-01 -3.004332259297370911e-02 3.362433314323425293e-01
6.144000000000000000e+03 2.983122825622558594e+01 2.373050498962402344e+01 3.938083350658416748e-01 7.237255107611417770e-03 1.203136742115020752e-01 2.261367440223693848e-01
6.145000000000000000e+03 2.654770660400390625e+01 2.703155326843261719e+01 4.153245389461517334e-01 -8.863539993762969971e-02 9.800674021244049072e-02 3.152104914188385010e-01
6.146000000000000000e+03 2.633273696899414062e+01 3.206723403930664062e+01 4.182617366313934326e-01 -6.145115010440349579e-03 1.236349865794181824e-01 2.308604866266250610e-01
6.147000000000000000e+03 6.154309082031250000e+01 -3.303546524047851562e+01 1.123551186174154282e-02 2.526710748672485352e+00 7.613838911056518555e-01 4.450905323028564453e-01
6.148000000000000000e+03 3.635597610473632812e+01 2.954561805725097656e+01 4.963438808917999268e-01 6.163194775581359863e-01 3.337990045547485352e-01 1.735038310289382935e-01
6.149000000000000000e+03 7.868538856506347656e+00 3.989648818969726562e+01 3.715936094522476196e-02 -9.740021228790283203e-01 -2.810528278350830078e-01 1.561054494231939316e-02
6.150000000000000000e+03 6.702449798583984375e+01 1.457219362258911133e+00 -6.888506412506103516e-01 5.585763454437255859e+00 1.469073891639709473e+00 -1.802461147308349609e+00
6.151000000000000000e+03 6.082300567626953125e+01 3.928667545318603516e+00 1.194590628147125244e-01 2.584016561508178711e+00 8.110426664352416992e-01 -9.093374013900756836e-01
6.152000000000000000e+03 5.799395370483398438e+01 2.243364334106445312e+00 3.404759988188743591e-02 1.478469729423522949e+00 4.537551999092102051e-01 -3.160801827907562256e-01
6.153000000000000000e+03 5.851106262207031250e+01 1.794739961624145508e+00 2.479121461510658264e-02 1.497854113578796387e+00 4.567935764789581299e-01 -4.092966616153717041e-01
6.154000000000000000e+03 6.693190002441406250e+01 7.933180779218673706e-02 -8.695668578147888184e-01 5.671625614166259766e+00 1.440617561340332031e+00 -2.116631031036376953e+00
6.155000000000000000e+03 6.776168823242187500e+01 -6.041654348373413086e-01 -1.200533747673034668e+00 6.577179908752441406e+00 1.612993836402893066e+00 -2.127259969711303711e+00
6.156000000000000000e+03 6.908003997802734375e+01 9.657985568046569824e-01 -1.092253804206848145e+00 6.984237670898437500e+00 1.767595171928405762e+00 -1.452695965766906738e+00
6.157000000000000000e+03 3.695146942138671875e+01 -8.959487915039062500e+00 -7.185364365577697754e-01 2.493487745523452759e-01 -1.407563090324401855e-01 2.734288573265075684e-01
6.158000000000000000e+03 3.790471649169921875e+01 -8.972659111022949219e+00 -7.335003018379211426e-01 2.597478032112121582e-01 -1.421257406473159790e-01 2.548974752426147461e-01
6.159000000000000000e+03 3.701023101806640625e+01 3.826957464218139648e+00 -2.405361235141754150e-01 4.272724390029907227e-01 5.602089315652847290e-02 4.122022390365600586e-01
6.160000000000000000e+03 3.710379028320312500e+01 4.489866256713867188e+00 -2.052648067474365234e-01 4.582719206809997559e-01 7.590213418006896973e-02 4.278085827827453613e-01
6.161000000000000000e+03 6.795294952392578125e+01 9.051548957824707031e+00 1.199878379702568054e-02 5.399792194366455078e+00 1.623537302017211914e+00 -1.036638140678405762e+00
6.162000000000000000e+03 5.116432189941406250e+01 -2.786157846450805664e+00 -6.469324231147766113e-01 3.626473546028137207e-01 -8.528550714254379272e-02 2.871311902999877930e-01
6.163000000000000000e+03 6.562893676757812500e+01 9.581823348999023438e+00 1.805516034364700317e-01 4.669868469238281250e+00 1.455126047134399414e+00 -1.063802719116210938e+00
6.164000000000000000e+03 4.636223602294921875e+01 -3.062064170837402344e+00 -6.131864190101623535e-01 3.235834240913391113e-01 -8.688089996576309204e-02 2.550542056560516357e-01
6.165000000000000000e+03 4.812961959838867188e+01 -4.312819004058837891e+00 -7.540282607078552246e-01 3.291240334510803223e-01 -1.274712681770324707e-01 2.400335520505905151e-01
6.166000000000000000e+03 3.322203826904296875e+01 5.060681343078613281e+00 -5.416240543127059937e-02 1.746219396591186523e-01 3.613786399364471436e-02 4.966601431369781494e-01
6.167000000000000000e+03 5.585488891601562500e+01 8.627772331237792969e-02 -2.413832545280456543e-01 7.649478316307067871e-01 1.570693850517272949e-01 8.872302621603012085e-02
6.168000000000000000e+03 4.299952316284179688e+01 -7.674335002899169922e+00 -8.226950764656066895e-01 3.116491436958312988e-01 -1.533137857913970947e-01 1.848739087581634521e-01
6.169000000000000000e+03 4.428581619262695312e+01 -7.397128582000732422e+00 -8.482013940811157227e-01 3.131625652313232422e-01 -1.605116575956344604e-01 1.715946346521377563e-01
6.170000000000000000e+03 4.041368484497070312e+01 -7.487669944763183594e+00 -7.576214075088500977e-01 3.065808713436126709e-01 -1.353121548891067505e-01 2.330263257026672363e-01
6.171000000000000000e+03 3.634675598144531250e+01 -7.080883979797363281e+00 -6.968967318534851074e-01 2.720148861408233643e-01 -1.274645477533340454e-01 3.054215312004089355e-01
6.172000000000000000e+03 4.874082565307617188e+01 -4.256087779998779297e+00 -7.765932679176330566e-01 3.300648927688598633e-01 -1.339585185050964355e-01 2.433445304632186890e-01
6.173000000000000000e+03 5.197538375854492188e+01 -3.088309526443481445e+00 -7.167468070983886719e-01 3.766562640666961670e-01 -1.020271629095077515e-01 2.724687159061431885e-01
6.174000000000000000e+03 5.220947265625000000e+01 -2.310688495635986328e+00 -6.091013550758361816e-01 3.897590935230255127e-01 -6.580267101526260376e-02 2.870907783508300781e-01
6.175000000000000000e+03 5.860493469238281250e+01 3.094735741615295410e-01 -1.130913272500038147e-01 1.191850781440734863e+00 3.236278593540191650e-01 -3.776313066482543945e-01
6.176000000000000000e+03 5.742588806152343750e+01 1.327084064483642578e+00 -5.200434848666191101e-02 1.167489409446716309e+00 3.346455097198486328e-01 -1.717105358839035034e-01
6.177000000000000000e+03 3.326696395874023438e+01 3.393322944641113281e+00 -1.441346108913421631e-01 1.815177351236343384e-01 1.121493801474571228e-02 4.291464090347290039e-01
6.178000000000000000e+03 3.502659988403320312e+01 -9.167590141296386719e+00 -6.918811202049255371e-01 2.123726606369018555e-01 -1.438525468111038208e-01 3.093725442886352539e-01
6.179000000000000000e+03 3.522987365722656250e+01 -9.766773223876953125e+00 -6.882587671279907227e-01 2.013573348522186279e-01 -1.460704356431961060e-01 2.953029870986938477e-01
6.180000000000000000e+03 5.762650680541992188e+01 1.830350041389465332e+00 1.065754331648349762e-02 1.320606350898742676e+00 3.993791639804840088e-01 -2.306651920080184937e-01
6.181000000000000000e+03 5.791682815551757812e+01 1.352240741252899170e-01 -1.753295361995697021e-01 1.032942175865173340e+00 2.572838068008422852e-01 -2.220774292945861816e-01
6.182000000000000000e+03 5.936098861694335938e+01 5.028516650199890137e-01 -6.203070655465126038e-02 1.373558759689331055e+00 3.934583961963653564e-01 -5.561078786849975586e-01
6.183000000000000000e+03 3.718003082275390625e+01 2.803171396255493164e+00 -2.919009923934936523e-01 4.091596603393554688e-01 3.517760708928108215e-02 3.841000795364379883e-01
6.184000000000000000e+03 3.768728637695312500e+01 2.366304636001586914e+00 -3.255456387996673584e-01 4.213254451751708984e-01 2.873394079506397247e-02 3.623801767826080322e-01
6.185000000000000000e+03 6.653969573974609375e+01 4.889487743377685547e+00 -2.477449625730514526e-01 5.064060211181640625e+00 1.444894552230834961e+00 -1.383669972419738770e+00
6.186000000000000000e+03 6.326600646972656250e+01 4.562678933143615723e-01 -1.244304701685905457e-01 2.809523582458496094e+00 8.055279254913330078e-01 -1.661465287208557129e+00
6.187000000000000000e+03 6.899172973632812500e+01 4.499957084655761719e+00 -5.183207392692565918e-01 6.194245815277099609e+00 1.702777624130249023e+00 -1.205425500869750977e+00
6.188000000000000000e+03 6.343589782714843750e+01 3.477311849594116211e+00 -3.627107292413711548e-02 3.564236402511596680e+00 1.058389544486999512e+00 -1.397712826728820801e+00
6.189000000000000000e+03 3.811045455932617188e+01 1.987847208976745605e+00 -3.496292531490325928e-01 4.274088144302368164e-01 2.333386987447738647e-02 3.470287621021270752e-01
6.190000000000000000e+03 3.929497528076171875e+01 1.091914415359497070e+00 -4.038485586643218994e-01 4.335959851741790771e-01 8.924230933189392090e-03 3.058814108371734619e-01
6.191000000000000000e+03 5.305487060546875000e+01 -7.590800523757934570e-01 -3.726643323898315430e-01 4.781149625778198242e-01 3.163518756628036499e-02 2.872094511985778809e-01
6.192000000000000000e+03 5.225199890136718750e+01 -1.506644725799560547e+00 -4.807603955268859863e-01 4.113151133060455322e-01 -2.083357796072959900e-02 2.994063198566436768e-01
6.193000000000000000e+03 6.842588806152343750e+01 8.509796142578125000e+00 -5.885576084256172180e-02 5.571987628936767578e+00 1.653939604759216309e+00 -1.040774106979370117e+00
6.194000000000000000e+03 6.860688018798828125e+01 9.376557350158691406e+00 -4.018632695078849792e-03 5.581466197967529297e+00 1.673234224319458008e+00 -9.861612319946289062e-01
6.195000000000000000e+03 3.333327102661132812e+01 -4.826486587524414062e+00 -6.459690332412719727e-01 2.371459007263183594e-01 -1.226469352841377258e-01 3.441275656223297119e-01
6.196000000000000000e+03 3.255016708374023438e+01 -4.745361804962158203e+00 -6.472613811492919922e-01 2.178307771682739258e-01 -1.288291811943054199e-01 3.496371805667877197e-01
6.197000000000000000e+03 6.817719268798828125e+01 1.255142784118652344e+01 1.958946287631988525e-01 5.324121475219726562e+00 1.656004786491394043e+00 -8.518484830856323242e-01
6.198000000000000000e+03 6.574289703369140625e+01 1.227199554443359375e+01 3.101954758167266846e-01 4.688654422760009766e+00 1.499655008316040039e+00 -9.042047858238220215e-01
6.199000000000000000e+03 3.082241058349609375e+01 -1.012918829917907715e+00 -4.601774513721466064e-01 1.538899540901184082e-01 -9.188625216484069824e-02 3.022293746471405029e-01
6.200000000000000000e+03 4.601406478881835938e+01 -4.607223033905029297e+00 -7.342380881309509277e-01 3.305824100971221924e-01 -1.210967078804969788e-01 2.331478148698806763e-01
6.201000000000000000e+03 6.543973541259765625e+01 1.326836299896240234e+01 3.627547323703765869e-01 4.613791942596435547e+00 1.492964029312133789e+00 -8.454202413558959961e-01
6.202000000000000000e+03 3.563795852661132812e+01 7.166389942169189453e+00 -3.545897454023361206e-02 3.974901735782623291e-01 1.086093634366989136e-01 5.324199795722961426e-01
6.203000000000000000e+03 3.639459228515625000e+01 8.627831459045410156e+00 2.899497374892234802e-02 5.075623393058776855e-01 1.609671860933303833e-01 5.332551002502441406e-01
6.204000000000000000e+03 4.115136718750000000e+01 2.743272483348846436e-02 -4.481149017810821533e-01 4.123202860355377197e-01 -1.073837839066982269e-02 2.610420882701873779e-01
6.205000000000000000e+03 6.187841033935546875e+01 6.473435163497924805e-01 -1.165145821869373322e-02 2.197286128997802734e+00 6.556903719902038574e-01 -1.277049899101257324e+00
6.206000000000000000e+03 6.405831146240234375e+01 5.417036637663841248e-02 -2.257842570543289185e-01 3.266871690750122070e+00 9.123262166976928711e-01 -1.947052121162414551e+00
6.207000000000000000e+03 4.962833023071289062e+01 -2.275498867034912109e+00 -5.528942346572875977e-01 3.274276852607727051e-01 -6.763996928930282593e-02 2.887250185012817383e-01
6.208000000000000000e+03 4.880070114135742188e+01 -2.880895853042602539e+00 -6.191701889038085938e-01 3.227164745330810547e-01 -8.893611282110214233e-02 2.773916721343994141e-01
6.209000000000000000e+03 3.206116485595703125e+01 -1.512205362319946289e+00 -4.902722239494323730e-01 1.983755677938461304e-01 -8.756899833679199219e-02 3.222281634807586670e-01
6.210000000000000000e+03 3.578040695190429688e+01 -5.496281147003173828e+00 -6.631419062614440918e-01 2.850302159786224365e-01 -1.134335175156593323e-01 3.219361007213592529e-01
6.211000000000000000e+03 3.790981292724609375e+01 7.250201702117919922e-01 -4.113137722015380859e-01 3.918878436088562012e-01 -5.827781744301319122e-03 3.356439471244812012e-01
6.212000000000000000e+03 4.022919464111328125e+01 5.971413850784301758e-01 -4.267774522304534912e-01 4.277695715427398682e-01 2.976382675115019083e-04 2.810212969779968262e-01
6.213000000000000000e+03 5.496751022338867188e+01 1.076854467391967773e+00 -1.238782480359077454e-01 7.573838233947753906e-01 1.900516748428344727e-01 1.717098206281661987e-01
6.214000000000000000e+03 5.458138656616210938e+01 1.480221003293991089e-01 -2.475250512361526489e-01 6.418331861495971680e-01 1.182924360036849976e-01 2.070076912641525269e-01
6.215000000000000000e+03 6.961909484863281250e+01 1.383688688278198242e+00 -1.056049346923828125e+00 7.180707931518554688e+00 1.837397575378417969e+00 -1.247889518737792969e+00
6.216000000000000000e+03 3.388360595703125000e+01 8.814087867736816406e+00 3.248530253767967224e-02 2.622675001621246338e-01 8.842584490776062012e-02 5.832152366638183594e-01
6.217000000000000000e+03 3.106605720520019531e+01 1.240331292152404785e+00 -2.533033490180969238e-01 1.105607822537422180e-01 -4.282276332378387451e-02 3.140105605125427246e-01
6.218000000000000000e+03 3.117672729492187500e+01 2.290388584136962891e+00 -1.542536765336990356e-01 8.477965742349624634e-02 -2.084220759570598602e-02 3.456988930702209473e-01
6.219000000000000000e+03 4.585534667968750000e+01 -1.604946136474609375e+00 -4.898005723953247070e-01 3.206074833869934082e-01 -5.075792968273162842e-02 2.478058189153671265e-01
6.220000000000000000e+03 4.399053955078125000e+01 -6.825504302978515625e+00 -8.216610550880432129e-01 3.216078579425811768e-01 -1.500159502029418945e-01 1.948199421167373657e-01
6.221000000000000000e+03 6.843428039550781250e+01 7.622146606445312500e+00 -1.367917656898498535e-01 5.635871410369873047e+00 1.649723887443542480e+00 -1.090458512306213379e+00
6.222000000000000000e+03 3.181569480895996094e+01 -2.657408237457275391e+00 -5.671913623809814453e-01 1.991037875413894653e-01 -1.104262694716453552e-01 3.289740681648254395e-01
6.223000000000000000e+03 6.560890197753906250e+01 1.121584510803222656e+01 2.678637802600860596e-01 4.650867938995361328e+00 1.475619554519653320e+00 -9.719380736351013184e-01
6.224000000000000000e+03 6.447760009765625000e+01 9.859213829040527344e+00 2.638222873210906982e-01 4.327336788177490234e+00 1.377347826957702637e+00 -1.040952801704406738e+00
6.225000000000000000e+03 3.553364562988281250e+01 -8.932822227478027344e+00 -6.981106996536254883e-01 2.224681675434112549e-01 -1.426927596330642700e-01 3.014998733997344971e-01
6.226000000000000000e+03 3.132540702819824219e+01 2.209334373474121094e-01 -3.522344529628753662e-01 1.471135765314102173e-01 -6.153626367449760437e-02 3.121454715728759766e-01
6.227000000000000000e+03 6.823061370849609375e+01 5.097384452819824219e+00 -3.864918351173400879e-01 5.781891822814941406e+00 1.618619918823242188e+00 -1.258467316627502441e+00
6.228000000000000000e+03 6.855727386474609375e+01 4.206486225128173828e+00 -5.248396396636962891e-01 6.013675212860107422e+00 1.646650671958923340e+00 -1.289960026741027832e+00
6.229000000000000000e+03 3.175526237487792969e+01 -3.312660932540893555e+00 -6.003718376159667969e-01 1.985310763120651245e-01 -1.205522343516349792e-01 3.353783190250396729e-01
6.230000000000000000e+03 3.249026870727539062e+01 -2.754409313201904297e+00 -5.646559000015258789e-01 2.188984304666519165e-01 -1.037272438406944275e-01 3.311543762683868408e-01
6.231000000000000000e+03 6.756333923339843750e+01 1.463376617431640625e+01 2.719293534755706787e-01 5.142494201660156250e+00 1.624327182769775391e+00 -7.646064758300781250e-01
6.232000000000000000e+03 6.789461517333984375e+01 1.351067352294921875e+01 2.397490441799163818e-01 5.219745635986328125e+00 1.637848377227783203e+00 -8.129781484603881836e-01
6.233000000000000000e+03 6.848943328857421875e+01 6.883651256561279297e+00 -2.174478620290756226e-01 5.736533164978027344e+00 1.655725598335266113e+00 -1.122696161270141602e+00
6.234000000000000000e+03 6.896207427978515625e+01 7.089401721954345703e+00 -2.102377563714981079e-01 5.901674270629882812e+00 1.707430958747863770e+00 -1.060295462608337402e+00
6.235000000000000000e+03 6.451036071777343750e+01 8.276981353759765625e+00 1.581357270479202271e-01 4.287127017974853516e+00 1.333578824996948242e+00 -1.130362987518310547e+00
6.236000000000000000e+03 6.818253326416015625e+01 6.324759483337402344e+00 -2.460473328828811646e-01 5.633920192718505859e+00 1.616361856460571289e+00 -1.192232251167297363e+00
6.237000000000000000e+03 4.508761215209960938e+01 -5.847509860992431641e+00 -7.973982691764831543e-01 3.302708566188812256e-01 -1.401382237672805786e-01 2.092160284519195557e-01
6.238000000000000000e+03 6.414628601074218750e+01 6.175408363342285156e+00 4.171515256166458130e-02 4.082186698913574219e+00 1.237170577049255371e+00 -1.250816345214843750e+00
6.239000000000000000e+03 6.279574203491210938e+01 5.304955005645751953e+00 8.912804722785949707e-02 3.484260082244873047e+00 1.072016477584838867e+00 -1.191627740859985352e+00
6.240000000000000000e+03 6.621910858154296875e+01 1.804933547973632812e+01 3.308439552783966064e-01 4.792411327362060547e+00 1.536976575851440430e+00 -6.204783916473388672e-01
6.241000000000000000e+03 6.533206176757812500e+01 1.845223999023437500e+01 3.503436446189880371e-01 4.636880397796630859e+00 1.496167182922363281e+00 -6.051589846611022949e-01
6.242000000000000000e+03 3.843555831909179688e+01 -8.559352874755859375e+00 -7.395811080932617188e-01 2.743725478649139404e-01 -1.395625621080398560e-01 2.502781152725219727e-01
6.243000000000000000e+03 3.555562210083007812e+01 9.823968887329101562e+00 7.301482558250427246e-02 4.473547935485839844e-01 1.561108827590942383e-01 5.432781577110290527e-01
6.244000000000000000e+03 3.450620651245117188e+01 1.007661151885986328e+01 6.217137724161148071e-02 3.512699604034423828e-01 1.240324005484580994e-01 5.554405450820922852e-01
6.245000000000000000e+03 4.686503601074218750e+01 -4.242369651794433594e+00 -7.171538472175598145e-01 3.308564126491546631e-01 -1.158892288804054260e-01 2.400669008493423462e-01
6.246000000000000000e+03 3.294982147216796875e+01 4.402979373931884766e+00 -7.077629119157791138e-02 1.498477309942245483e-01 2.372143231332302094e-02 4.666451811790466309e-01
6.247000000000000000e+03 6.036278533935546875e+01 2.068552017211914062e+00 7.442758977413177490e-02 2.041933774948120117e+00 6.349084377288818359e-01 -8.337935805320739746e-01
6.248000000000000000e+03 6.694308471679687500e+01 1.638380241394042969e+01 3.109696507453918457e-01 4.970347404479980469e+00 1.584395170211791992e+00 -6.904247403144836426e-01
6.249000000000000000e+03 6.731874084472656250e+01 1.398657798767089844e+01 2.728895843029022217e-01 5.095700740814208984e+00 1.610577106475830078e+00 -8.019621372222900391e-01
6.250000000000000000e+03 6.586521911621093750e+01 1.002943515777587891e+00 -5.293383598327636719e-01 4.751680374145507812e+00 1.266702651977539062e+00 -1.978079438209533691e+00
6.251000000000000000e+03 6.673252105712890625e+01 1.347058486938476562e+01 2.936663329601287842e-01 4.933226108551025391e+00 1.568067789077758789e+00 -8.397975564002990723e-01
6.252000000000000000e+03 3.607248687744140625e+01 6.256902217864990234e+00 -9.065284579992294312e-02 4.225352704524993896e-01 9.956472367048263550e-02 5.009073019027709961e-01
6.253000000000000000e+03 3.383089447021484375e+01 7.157618999481201172e+00 -1.245763414772227407e-04 2.361465990543365479e-01 7.080660760402679443e-02 5.635216832160949707e-01
6.254000000000000000e+03 3.958234405517578125e+01 -2.503557503223419189e-01 -4.658177495002746582e-01 4.049759507179260254e-01 -1.825253851711750031e-02 2.961458265781402588e-01
6.255000000000000000e+03 4.290285873413085938e+01 -6.632195711135864258e-01 -4.604295492172241211e-01 3.788532912731170654e-01 -2.447287179529666901e-02 2.385984659194946289e-01
6.256000000000000000e+03 4.350913619995117188e+01 -7.115769386291503906e+00 -8.154942393302917480e-01 3.202561438083648682e-01 -1.485714316368103027e-01 1.915730834007263184e-01
6.257000000000000000e+03 5.692000961303710938e+01 -9.723423123359680176e-01 -3.764377534389495850e-01 7.375764846801757812e-01 1.083416119217872620e-01 -2.168312110006809235e-02
6.258000000000000000e+03 4.813078689575195312e+01 -2.839142084121704102e+00 -6.006500720977783203e-01 3.224931359291076660e-01 -8.344707638025283813e-02 2.689415216445922852e-01
6.259000000000000000e+03 6.565084838867187500e+01 1.492295551300048828e+01 3.758848905563354492e-01 4.655218124389648438e+00 1.509330868721008301e+00 -7.636376619338989258e-01
6.260000000000000000e+03 5.525271987915039062e+01 4.936613142490386963e-01 -1.934173703193664551e-01 7.523133754730224609e-01 1.676688045263290405e-01 1.442873030900955200e-01
6.261000000000000000e+03 5.471947097778320312e+01 -1.472583532333374023e+00 -5.009240508079528809e-01 5.283280611038208008e-01 8.221207186579704285e-03 2.010505199432373047e-01
6.262000000000000000e+03 3.412897872924804688e+01 -4.863318920135498047e+00 -6.456021666526794434e-01 2.568303644657135010e-01 -1.166315451264381409e-01 3.390333652496337891e-01
6.263000000000000000e+03 6.487635040283203125e+01 6.623753070831298828e+00 2.242528088390827179e-02 4.399030208587646484e+00 1.326436638832092285e+00 -1.246839404106140137e+00
6.264000000000000000e+03 3.336462402343750000e+01 2.400675773620605469e+01 3.791544437408447266e-01 3.343326449394226074e-01 2.140461206436157227e-01 1.772239357233047485e-01
6.265000000000000000e+03 3.191143417358398438e+01 2.505492019653320312e+01 4.093299508094787598e-01 2.095953971147537231e-01 1.856776028871536255e-01 1.912314593791961670e-01
6.266000000000000000e+03 3.001676940917968750e+01 2.787525367736816406e+01 4.393779933452606201e-01 1.187788918614387512e-01 1.674470603466033936e-01 2.250041812658309937e-01
6.267000000000000000e+03 2.743935012817382812e+01 2.968963241577148438e+01 4.318139255046844482e-01 1.325059495866298676e-02 1.335193514823913574e-01 2.611091732978820801e-01
6.268000000000000000e+03 2.139219474792480469e+01 2.966679191589355469e+01 2.799802422523498535e-01 -2.183188796043395996e-01 1.849840395152568817e-02 3.373208343982696533e-01
6.269000000000000000e+03 1.999501037597656250e+01 3.306080245971679688e+01 2.355063408613204956e-01 -2.613234519958496094e-01 -7.745132781565189362e-03 2.351232916116714478e-01
6.270000000000000000e+03 2.810282325744628906e+01 2.751152420043945312e+01 4.288326203823089600e-01 1.125220660469494760e-04 1.286835521459579468e-01 2.746632993221282959e-01
6.271000000000000000e+03 3.743340301513671875e+01 -8.444061279296875000e+00 -7.230172157287597656e-01 2.640995085239410400e-01 -1.376753002405166626e-01 2.703766822814941406e-01
6.272000000000000000e+03 4.166952514648437500e+01 -6.701871395111083984e+00 -7.634719610214233398e-01 3.233363926410675049e-01 -1.320406645536422729e-01 2.306453287601470947e-01
6.273000000000000000e+03 3.213071441650390625e+01 1.426118373870849609e+00 -2.584122121334075928e-01 1.501208394765853882e-01 -3.248741105198860168e-02 3.438276350498199463e-01
6.274000000000000000e+03 5.308299255371093750e+01 -2.313447237014770508e+00 -6.193757653236389160e-01 4.330103993415832520e-01 -5.590961128473281860e-02 2.737447917461395264e-01
6.275000000000000000e+03 6.613387298583984375e+01 1.416159057617187500e+01 3.445445895195007324e-01 4.778378963470458984e+00 1.536877036094665527e+00 -8.012008666992187500e-01
6.276000000000000000e+03 5.555492782592773438e+01 -1.547531962394714355e+00 -5.087500214576721191e-01 5.959686636924743652e-01 2.616558223962783813e-02 1.439788341522216797e-01
6.277000000000000000e+03 5.472798156738281250e+01 -6.604367494583129883e-01 -3.578127324581146240e-01 6.066263318061828613e-01 7.464408874511718750e-02 1.965684145689010620e-01
6.278000000000000000e+03 3.254898452758789062e+01 3.689216136932373047e+00 -9.934630990028381348e-02 1.298929452896118164e-01 9.163992479443550110e-03 4.309876263141632080e-01
6.279000000000000000e+03 5.626908874511718750e+01 -1.531548380851745605e+00 -4.939532279968261719e-01 5.959357619285583496e-01 3.059474937617778778e-02 8.099813759326934814e-02
6.280000000000000000e+03 3.920018005371093750e+01 -7.229506492614746094e+00 -7.348545193672180176e-01 3.032733798027038574e-01 -1.294743418693542480e-01 2.580268681049346924e-01
6.281000000000000000e+03 3.882788467407226562e+01 -6.612332820892333984e+00 -7.125784158706665039e-01 3.114340007305145264e-01 -1.203433200716972351e-01 2.724137604236602783e-01
6.282000000000000000e+03 3.405983352661132812e+01 -4.115337371826171875e+00 -6.179139614105224609e-01 2.596985995769500732e-01 -1.074646115303039551e-01 3.377269208431243896e-01
6.283000000000000000e+03 6.813840484619140625e+01 1.755569219589233398e+00 -8.210426568984985352e-01 6.219776153564453125e+00 1.619620084762573242e+00 -1.604304909706115723e+00
6.284000000000000000e+03 5.802513885498046875e+01 1.452700257301330566e+00 -1.588069833815097809e-02 1.321752548217773438e+00 3.917615711688995361e-01 -3.116619586944580078e-01
6.285000000000000000e+03 5.759337234497070312e+01 7.221668362617492676e-01 -9.791828691959381104e-02 1.101736664772033691e+00 3.011455237865447998e-01 -1.917463690042495728e-01
6.286000000000000000e+03 6.644718170166015625e+01 8.638586997985839844e-01 -6.667666435241699219e-01 5.173765182495117188e+00 1.352099657058715820e+00 -2.000297784805297852e+00
6.287000000000000000e+03 3.146294975280761719e+01 -1.266552567481994629e+00 -4.736637473106384277e-01 1.783239692449569702e-01 -8.860193938016891479e-02 3.138038516044616699e-01
6.288000000000000000e+03 3.169207572937011719e+01 -6.874738931655883789e-01 -4.297524094581604004e-01 1.759216040372848511e-01 -7.614924013614654541e-02 3.154726028442382812e-01
6.289000000000000000e+03 3.360044479370117188e+01 4.121052265167236328e+00 -1.193884611129760742e-01 1.955347806215286255e-01 2.284389920532703400e-02 4.506514370441436768e-01
6.290000000000000000e+03 4.751394653320312500e+01 -3.586223125457763672e+00 -6.685166358947753906e-01 3.268510103225708008e-01 -1.024997010827064514e-01 2.563830614089965820e-01
6.291000000000000000e+03 5.631388092041015625e+01 8.384041786193847656e-01 -1.177382692694664001e-01 9.309856891632080078e-01 2.439742237329483032e-01 1.235910318791866302e-02
6.292000000000000000e+03 5.670669555664062500e+01 1.576427102088928223e+00 -4.093072563409805298e-02 1.119600176811218262e+00 3.236008584499359131e-01 -6.505245715379714966e-02
6.293000000000000000e+03 3.634653472900390625e+01 -8.439459800720214844e+00 -7.080296874046325684e-01 2.488256990909576416e-01 -1.377612054347991943e-01 2.920365333557128906e-01
6.294000000000000000e+03 3.557235717773437500e+01 -8.185709953308105469e+00 -6.991881132125854492e-01 2.402836829423904419e-01 -1.376713216304779053e-01 3.100574016571044922e-01
6.295000000000000000e+03 6.754849243164062500e+01 9.630051612854003906e+00 6.770399957895278931e-02 5.252563953399658203e+00 1.596080422401428223e+00 -1.023369312286376953e+00
6.296000000000000000e+03 6.688013458251953125e+01 1.098557758331298828e+01 1.876311153173446655e-01 5.016630172729492188e+00 1.561278343200683594e+00 -9.643105268478393555e-01
6.297000000000000000e+03 6.786717987060546875e+01 1.189989662170410156e+01 1.821854263544082642e-01 5.261024951934814453e+00 1.632963061332702637e+00 -8.961825370788574219e-01
6.298000000000000000e+03 6.744335174560546875e+01 1.293527889251708984e+01 2.402009665966033936e-01 5.135604381561279297e+00 1.612741589546203613e+00 -8.536503911018371582e-01
6.299000000000000000e+03 3.756278610229492188e+01 1.855332136154174805e+00 -3.485030233860015869e-01 4.058541357517242432e-01 1.720533706247806549e-02 3.604708909988403320e-01
6.300000000000000000e+03 3.396835327148437500e+01 -2.700940370559692383e+00 -5.564832687377929688e-01 2.612523138523101807e-01 -8.856928348541259766e-02 3.348037302494049072e-01
6.301000000000000000e+03 3.857400512695312500e+01 8.818659782409667969e-01 -4.071808159351348877e-01 4.177970886230468750e-01 3.184884786605834961e-03 3.247095942497253418e-01
6.302000000000000000e+03 6.062683105468750000e+01 2.723991155624389648e+00 7.747846841812133789e-02 2.285985946655273438e+00 7.090393304824829102e-01 -8.866364955902099609e-01
6.303000000000000000e+03 6.913365936279296875e+01 2.010596752166748047e+00 -9.088617563247680664e-01 6.712451934814453125e+00 1.741077065467834473e+00 -1.360412001609802246e+00
6.304000000000000000e+03 6.801982116699218750e+01 2.449561834335327148e+00 -7.307263016700744629e-01 6.038395881652832031e+00 1.592300891876220703e+00 -1.540466189384460449e+00
6.305000000000000000e+03 6.731473541259765625e+01 4.431737899780273438e+00 -3.706715404987335205e-01 5.436317443847656250e+00 1.519693851470947266e+00 -1.392926692962646484e+00
6.306000000000000000e+03 3.466534805297851562e+01 -7.383517742156982422e+00 -6.900111436843872070e-01 2.351801395416259766e-01 -1.364492923021316528e-01 3.314323425292968750e-01
6.307000000000000000e+03 4.531528854370117188e+01 -1.356548190116882324e+00 -4.759796857833862305e-01 3.283458352088928223e-01 -4.429015517234802246e-02 2.419775873422622681e-01
6.308000000000000000e+03 4.371085357666015625e+01 -9.597311615943908691e-01 -4.662832617759704590e-01 3.612723052501678467e-01 -3.150328993797302246e-02 2.349812984466552734e-01
6.309000000000000000e+03 6.754940795898437500e+01 6.755721092224121094e+00 -1.693937927484512329e-01 5.404422283172607422e+00 1.570508480072021484e+00 -1.185759067535400391e+00
6.310000000000000000e+03 6.700778961181640625e+01 1.762669754028320312e+01 3.039638698101043701e-01 4.981347084045410156e+00 1.585593342781066895e+00 -6.414302587509155273e-01
6.311000000000000000e+03 3.945976257324218750e+01 4.287866055965423584e-01 -4.330077469348907471e-01 4.213908314704895020e-01 -3.485072404146194458e-03 3.007645905017852783e-01
6.312000000000000000e+03 3.138965225219726562e+01 3.276636123657226562e+00 -8.182864636182785034e-02 6.949058920145034790e-02 -3.701417241245508194e-03 3.870715200901031494e-01
6.313000000000000000e+03 3.169451141357421875e+01 8.264029622077941895e-01 -3.041862249374389648e-01 1.472526788711547852e-01 -4.708006605505943298e-02 3.248830735683441162e-01
6.314000000000000000e+03 6.863909149169921875e+01 4.901861667633056641e+00 -4.361196160316467285e-01 5.973973274230957031e+00 1.661356091499328613e+00 -1.217206120491027832e+00
6.315000000000000000e+03 6.833248901367187500e+01 5.554239749908447266e+00 -3.231399953365325928e-01 5.766442298889160156e+00 1.632990717887878418e+00 -1.205739259719848633e+00
6.316000000000000000e+03 4.034806442260742188e+01 -1.084675416350364685e-01 -4.571397900581359863e-01 4.139769077301025391e-01 -1.294885762035846710e-02 2.807388007640838623e-01
6.317000000000000000e+03 3.260567855834960938e+01 -1.751304507255554199e+00 -5.012071728706359863e-01 2.182323634624481201e-01 -8.489245176315307617e-02 3.287618756294250488e-01
6.318000000000000000e+03 3.329280090332031250e+01 -4.106148242950439453e+00 -6.210654973983764648e-01 2.403035163879394531e-01 -1.142285987734794617e-01 3.414442837238311768e-01
6.319000000000000000e+03 6.244835662841796875e+01 3.551220893859863281e+00 4.581416770815849304e-02 3.085448980331420898e+00 9.393789172172546387e-01 -1.245107173919677734e+00
6.320000000000000000e+03 6.333162307739257812e+01 4.607636451721191406e+00 2.764949761331081390e-02 3.626700162887573242e+00 1.096304893493652344e+00 -1.293839573860168457e+00
6.321000000000000000e+03 3.522709655761718750e+01 8.813035011291503906e+00 3.337932750582695007e-02 3.978542983531951904e-01 1.293700933456420898e-01 5.560730695724487305e-01
6.322000000000000000e+03 4.559560775756835938e+01 -5.223371028900146484e+00 -7.661167979240417480e-01 3.332950472831726074e-01 -1.298465281724929810e-01 2.222224473953247070e-01
6.323000000000000000e+03 6.485754394531250000e+01 9.243552207946777344e+00 1.999824643135070801e-01 4.423520565032958984e+00 1.387050986289978027e+00 -1.083773612976074219e+00
6.324000000000000000e+03 6.756901550292968750e+01 7.274963855743408203e+00 -1.130526959896087646e-01 5.376714229583740234e+00 1.579098343849182129e+00 -1.150096654891967773e+00
6.325000000000000000e+03 6.089751052856445312e+01 1.876478791236877441e+00 3.522736579179763794e-02 2.179848670959472656e+00 6.645227670669555664e-01 -9.599656462669372559e-01
6.326000000000000000e+03 5.934747695922851562e+01 3.199461221694946289e+00 1.021026968955993652e-01 1.990202307701110840e+00 6.276915073394775391e-01 -6.139428615570068359e-01
6.327000000000000000e+03 5.388840103149414062e+01 -1.479128956794738770e+00 -4.919971823692321777e-01 5.019776225090026855e-01 2.994123147800564766e-03 2.521662414073944092e-01
6.328000000000000000e+03 6.714032745361328125e+01 5.026077747344970703e+00 -2.991420030593872070e-01 5.314465999603271484e+00 1.504597187042236328e+00 -1.343062996864318848e+00
6.329000000000000000e+03 6.806370544433593750e+01 3.989129781723022461e+00 -5.026348233222961426e-01 5.838889598846435547e+00 1.600876450538635254e+00 -1.365217804908752441e+00
6.330000000000000000e+03 4.671065521240234375e+01 -2.264851093292236328e+00 -5.401482582092285156e-01 3.164398372173309326e-01 -6.711252778768539429e-02 2.582623362541198730e-01
6.331000000000000000e+03 4.363188934326171875e+01 -7.631085395812988281e+00 -8.400577902793884277e-01 3.091903924942016602e-01 -1.592602282762527466e-01 1.785416901111602783e-01
6.332000000000000000e+03 4.237990188598632812e+01 -7.515321254730224609e+00 -8.013418912887573242e-01 3.082850277423858643e-01 -1.479170620441436768e-01 2.015829533338546753e-01
6.333000000000000000e+03 5.560160064697265625e+01 1.104352593421936035e+00 -1.082952246069908142e-01 8.819150924682617188e-01 2.320859581232070923e-01 9.039507806301116943e-02
6.334000000000000000e+03 6.622303009033203125e+01 1.287587070465087891e+01 3.049320876598358154e-01 4.810445785522460938e+00 1.534613370895385742e+00 -8.761084079742431641e-01
6.335000000000000000e+03 3.523594284057617188e+01 -6.423420429229736328e+00 -6.805666089057922363e-01 2.640991806983947754e-01 -1.249402165412902832e-01 3.256897032260894775e-01
6.336000000000000000e+03 3.489509582519531250e+01 -4.833841323852539062e+00 -6.424016356468200684e-01 2.738728523254394531e-01 -1.105586364865303040e-01 3.325276076793670654e-01
6.337000000000000000e+03 3.394884872436523438e+01 4.898643970489501953e+00 -8.423276245594024658e-02 2.246255129575729370e-01 4.211782291531562805e-02 4.882354438304901123e-01
6.338000000000000000e+03 3.288107681274414062e+01 -1.302737832069396973e+00 -4.759918153285980225e-01 2.214904278516769409e-01 -7.635041326284408569e-02 3.296466171741485596e-01
6.339000000000000000e+03 3.190171432495117188e+01 -2.062461376190185547e+00 -5.283877849578857422e-01 2.000888437032699585e-01 -9.848968684673309326e-02 3.241662681102752686e-01
6.340000000000000000e+03 3.507671737670898438e+01 2.084411144256591797e+00 -2.846938073635101318e-01 2.973480820655822754e-01 3.796282690018415451e-03 3.942249715328216553e-01
6.341000000000000000e+03 6.762929534912109375e+01 6.211681842803955078e+00 -2.208830714225769043e-01 5.453143596649169922e+00 1.569678187370300293e+00 -1.221785187721252441e+00
6.342000000000000000e+03 6.632381439208984375e+01 5.500850200653076172e+00 -1.875032335519790649e-01 4.947160243988037109e+00 1.427897214889526367e+00 -1.342314839363098145e+00
6.343000000000000000e+03 3.197057151794433594e+01 -1.147040873765945435e-01 -3.839919567108154297e-01 1.761400699615478516e-01 -6.235556676983833313e-02 3.221226632595062256e-01
6.344000000000000000e+03 3.415832138061523438e+01 7.996612071990966797e+00 1.096105482429265976e-02 2.817554771900177002e-01 8.781495690345764160e-02 5.672193169593811035e-01
6.345000000000000000e+03 3.418709945678710938e+01 5.800289154052734375e+00 -5.648635700345039368e-02 2.543542385101318359e-01 5.936036258935928345e-02 5.219722390174865723e-01
6.346000000000000000e+03 6.549580383300781250e+01 8.101413726806640625e+00 8.832420408725738525e-02 4.616489887237548828e+00 1.411444306373596191e+00 -1.154156327247619629e+00
6.347000000000000000e+03 6.018614959716796875e+01 5.787255167961120605e-01 -1.807788759469985962e-02 1.595764756202697754e+00 4.733060598373413086e-01 -7.698177099227905273e-01
6.348000000000000000e+03 6.681398010253906250e+01 1.452579116821289062e+01 3.138085603713989258e-01 4.940524578094482422e+00 1.576299905776977539e+00 -7.792605757713317871e-01
6.349000000000000000e+03 6.741075897216796875e+01 1.548782062530517578e+01 2.917639017105102539e-01 5.087288856506347656e+00 1.613715887069702148e+00 -7.262541651725769043e-01
6.350000000000000000e+03 6.502956390380859375e+01 5.150222182273864746e-01 -3.921234607696533203e-01 4.091619491577148438e+00 1.109848737716674805e+00 -2.025024175643920898e+00
6.351000000000000000e+03 6.528022766113281250e+01 1.204408049583435059e+00 -4.217507541179656982e-01 4.333138942718505859e+00 1.173416495323181152e+00 -1.914345979690551758e+00
6.352000000000000000e+03 4.694299697875976562e+01 -3.587258338928222656e+00 -6.631047725677490234e-01 3.268592357635498047e-01 -1.008736565709114075e-01 2.542487680912017822e-01
6.353000000000000000e+03 6.853038787841796875e+01 5.956804752349853516e-01 -1.077601432800292969e+00 6.762137889862060547e+00 1.705361008644104004e+00 -1.663985967636108398e+00
6.354000000000000000e+03 6.645803833007812500e+01 1.524939918518066406e+01 3.373784422874450684e-01 4.841096401214599609e+00 1.553542494773864746e+00 -7.485746145248413086e-01
6.355000000000000000e+03 6.471417999267578125e+01 1.985174179077148438e+01 3.344424664974212646e-01 4.501486778259277344e+00 1.450778841972351074e+00 -5.612027049064636230e-01
6.356000000000000000e+03 3.480284500122070312e+01 -8.170112609863281250e+00 -6.929734945297241211e-01 2.240065336227416992e-01 -1.406900882720947266e-01 3.240492045879364014e-01
6.357000000000000000e+03 3.685245513916015625e+01 -7.834397792816162109e+00 -7.111567854881286621e-01 2.668617963790893555e-01 -1.332885026931762695e-01 2.908868789672851562e-01
6.358000000000000000e+03 4.202965927124023438e+01 -6.420966386795043945e-01 -4.716778695583343506e-01 3.919682204723358154e-01 -2.391289547085762024e-02 2.496344745159149170e-01
6.359000000000000000e+03 6.500875854492187500e+01 4.924500465393066406e+00 -1.073001474142074585e-01 4.379331588745117188e+00 1.281609416007995605e+00 -1.388973474502563477e+00
6.360000000000000000e+03 6.394174957275390625e+01 5.094322204589843750e+00 -7.819900056347250938e-04 3.923337936401367188e+00 1.176766753196716309e+00 -1.314616084098815918e+00
6.361000000000000000e+03 3.743899154663085938e+01 -9.463224411010742188e+00 -7.259385585784912109e-01 2.451408356428146362e-01 -1.442393213510513306e-01 2.547211349010467529e-01
6.362000000000000000e+03 4.121053314208984375e+01 -7.141074538230895996e-01 -4.814491868019104004e-01 3.988472819328308105e-01 -2.478057146072387695e-02 2.660797834396362305e-01
6.363000000000000000e+03 4.033041000366210938e+01 -6.872664451599121094e+00 -7.419028878211975098e-01 3.165688216686248779e-01 -1.276002228260040283e-01 2.474816739559173584e-01
6.364000000000000000e+03 3.562200164794921875e+01 2.563565254211425781e+00 -2.716199457645416260e-01 3.267250359058380127e-01 1.653152890503406525e-02 4.010548889636993408e-01
6.365000000000000000e+03 6.404566955566406250e+01 2.155754470825195312e+01 3.037917017936706543e-01 4.381826877593994141e+00 1.405685544013977051e+00 -5.315364599227905273e-01
6.366000000000000000e+03 6.301603698730468750e+01 3.388270950317382812e+01 3.228107988834381104e-01 4.032207012176513672e+00 1.306505441665649414e+00 -3.107197284698486328e-01
6.367000000000000000e+03 6.178681564331054688e+01 -3.861560058593750000e+01 3.857099711894989014e-01 2.912200689315795898e+00 9.893732070922851562e-01 1.926359534263610840e-01
6.368000000000000000e+03 6.824388885498046875e+01 1.162871241569519043e+00 -9.817583560943603516e-01 6.444568634033203125e+00 1.638843178749084473e+00 -1.689817070960998535e+00
6.369000000000000000e+03 4.448595809936523438e+01 -5.319148540496826172e+00 -7.480438947677612305e-01 3.363664746284484863e-01 -1.235032305121421814e-01 2.264575958251953125e-01
6.370000000000000000e+03 4.269889831542968750e+01 -1.488005876541137695e+00 -5.135009288787841797e-01 3.711270391941070557e-01 -4.271216318011283875e-02 2.521580457687377930e-01
6.371000000000000000e+03 3.819567871093750000e+01 -6.988730430603027344e+00 -7.145172357559204102e-01 2.988975346088409424e-01 -1.246859207749366760e-01 2.787903249263763428e-01
6.372000000000000000e+03 3.458489608764648438e+01 8.622123718261718750e+00 2.531025186181068420e-02 3.307624161243438721e-01 1.068217977881431580e-01 5.656546354293823242e-01
6.373000000000000000e+03 3.866153335571289062e+01 -7.620108604431152344e+00 -7.313295006752014160e-01 2.939823269844055176e-01 -1.312041580677032471e-01 2.609031200408935547e-01
6.374000000000000000e+03 3.811473846435546875e+01 -4.766641557216644287e-01 -4.704157412052154541e-01 3.788658976554870605e-01 -2.746494859457015991e-02 3.219780325889587402e-01
6.375000000000000000e+03 5.652029418945312500e+01 -2.056902796030044556e-01 -2.646867930889129639e-01 7.957372665405273438e-01 1.593151390552520752e-01 1.820355840027332306e-02
6.376000000000000000e+03 4.053052520751953125e+01 -4.871998786926269531e+00 -6.797284483909606934e-01 3.433236777782440186e-01 -1.009214296936988831e-01 2.689300775527954102e-01
6.377000000000000000e+03 4.322697830200195312e+01 -6.767058372497558594e+00 -7.969253659248352051e-01 3.262878060340881348e-01 -1.411912590265274048e-01 2.064019143581390381e-01
6.378000000000000000e+03 3.507269287109375000e+01 5.667601585388183594e+00 -8.655844628810882568e-02 3.237164318561553955e-01 7.114739716053009033e-02 5.071282982826232910e-01
6.379000000000000000e+03 3.449819564819335938e+01 6.652831077575683594e+00 -3.097396157681941986e-02 2.864398956298828125e-01 7.663977891206741333e-02 5.429111719131469727e-01
6.380000000000000000e+03 4.689453506469726562e+01 -2.932952404022216797e+00 -6.019552350044250488e-01 3.251906037330627441e-01 -8.302939683198928833e-02 2.615593075752258301e-01
6.381000000000000000e+03 6.259084701538085938e+01 1.068153142929077148e+00 -3.420849516987800598e-02 2.628734827041625977e+00 7.783578634262084961e-01 -1.434162855148315430e+00
6.382000000000000000e+03 6.410319519042968750e+01 1.877196550369262695e+00 -1.815267205238342285e-01 3.641564369201660156e+00 1.038011312484741211e+00 -1.665174245834350586e+00
6.383000000000000000e+03 4.098950195312500000e+01 -6.785974025726318359e+00 -7.492002844810485840e-01 3.206987679004669189e-01 -1.285504549741744995e-01 2.371027469635009766e-01
6.384000000000000000e+03 3.638087463378906250e+01 4.515496253967285156e+00 -1.862058788537979126e-01 4.010382890701293945e-01 6.444972008466720581e-02 4.461896121501922607e-01
6.385000000000000000e+03 6.459744262695312500e+01 5.540230274200439453e+00 -2.338426560163497925e-02 4.229539394378662109e+00 1.261846661567687988e+00 -1.318663835525512695e+00
6.386000000000000000e+03 3.775241470336914062e+01 1.285719394683837891e+00 -3.765445947647094727e-01 3.976691663265228271e-01 6.337368860840797424e-03 3.458261787891387939e-01
6.387000000000000000e+03 3.400568389892578125e+01 -3.403886795043945312e+00 -5.903040766716003418e-01 2.592537403106689453e-01 -9.931510686874389648e-02 3.360155522823333740e-01
6.388000000000000000e+03 3.293900299072265625e+01 2.690122365951538086e+00 -1.777028888463973999e-01 1.688345521688461304e-01 -2.660503145307302475e-03 4.010956287384033203e-01
6.389000000000000000e+03 3.233672332763671875e+01 2.939967155456542969e+00 -1.352092474699020386e-01 1.258444041013717651e-01 -2.809450961649417877e-03 3.968067467212677002e-01
6.390000000000000000e+03 6.210999298095703125e+01 1.735009908676147461e+00 6.584519054740667343e-03 2.536455154418945312e+00 7.629119157791137695e-01 -1.268575787544250488e+00
6.391000000000000000e+03 6.144287872314453125e+01 2.602850198745727539e+00 5.032547563314437866e-02 2.524919986724853516e+00 7.725735902786254883e-01 -1.061433076858520508e+00
6.392000000000000000e+03 4.463624954223632812e+01 -2.525113105773925781e+00 -5.655419230461120605e-01 3.412328660488128662e-01 -6.729272007942199707e-02 2.493628412485122681e-01
6.393000000000000000e+03 3.579196929931640625e+01 5.512844562530517578e+00 -1.220694705843925476e-01 3.848974108695983887e-01 7.884837687015533447e-02 4.850720465183258057e-01
6.394000000000000000e+03 3.872525405883789062e+01 2.659943103790283203e-01 -4.396917819976806641e-01 4.044361710548400879e-01 -1.057668868452310562e-02 3.156580030918121338e-01
6.395000000000000000e+03 3.801751327514648438e+01 1.406071484088897705e-01 -4.382073581218719482e-01 3.891301751136779785e-01 -1.472315192222595215e-02 3.299751877784729004e-01
6.396000000000000000e+03 3.407035446166992188e+01 1.970824718475341797e+00 -2.630537748336791992e-01 2.382457852363586426e-01 -7.442400325089693069e-03 3.885265290737152100e-01
6.397000000000000000e+03 3.662150192260742188e+01 2.357769727706909180e+00 -3.067327141761779785e-01 3.746272027492523193e-01 2.036834880709648132e-02 3.835753202438354492e-01
6.398000000000000000e+03 6.655937957763671875e+01 1.476549386978149414e+00 -6.053259372711181641e-01 5.217174530029296875e+00 1.383554577827453613e+00 -1.868868827819824219e+00
6.399000000000000000e+03 6.436455535888671875e+01 8.077737092971801758e-01 -2.768320441246032715e-01 3.624038934707641602e+00 1.004162073135375977e+00 -1.865985512733459473e+00
6.400000000000000000e+03 3.325342178344726562e+01 -3.408099889755249023e+00 -5.934410691261291504e-01 2.434339076280593872e-01 -1.050021424889564514e-01 3.376373946666717529e-01
6.401000000000000000e+03 4.561288833618164062e+01 -2.231212377548217773e+00 -5.369641780853271484e-01 3.277594745159149170e-01 -6.276141852140426636e-02 2.512741386890411377e-01
6.402000000000000000e+03 4.227696228027343750e+01 -6.559155464172363281e+00 -7.677394151687622070e-01 3.241147100925445557e-01 -1.330874115228652954e-01 2.222240120172500610e-01
6.403000000000000000e+03 4.043253707885742188e+01 -8.368476033210754395e-01 -4.924317300319671631e-01 3.973402976989746094e-01 -2.852742932736873627e-02 2.798614799976348877e-01
6.404000000000000000e+03 5.950007629394531250e+01 1.691773891448974609e+00 3.801170736551284790e-02 1.686352133750915527e+00 5.173091888427734375e-01 -6.261160969734191895e-01
6.405000000000000000e+03 3.503023910522460938e+01 -5.607306480407714844e+00 -6.654547452926635742e-01 2.685478031635284424e-01 -1.190720871090888977e-01 3.301028907299041748e-01
6.406000000000000000e+03 3.550101852416992188e+01 -7.297183036804199219e+00 -6.948008537292480469e-01 2.538030147552490234e-01 -1.322993487119674683e-01 3.175907135009765625e-01
6.407000000000000000e+03 3.491088485717773438e+01 3.893598556518554688e+00 -1.746857911348342896e-01 2.923491001129150391e-01 3.529899567365646362e-02 4.475678503513336182e-01
6.408000000000000000e+03 3.518918609619140625e+01 3.194705009460449219e+00 -2.191212177276611328e-01 3.081312775611877441e-01 2.670302055776119232e-02 4.268280863761901855e-01
6.409000000000000000e+03 6.001072692871093750e+01 3.059526681900024414e+00 1.008100137114524841e-01 2.183574438095092773e+00 6.853153109550476074e-01 -7.636707425117492676e-01
6.410000000000000000e+03 6.155465698242187500e+01 4.097394943237304688e+00 1.048659756779670715e-01 2.886903047561645508e+00 8.975307345390319824e-01 -1.041953325271606445e+00
6.411000000000000000e+03 6.641508483886718750e+01 9.928510665893554688e+00 1.510467380285263062e-01 4.896800994873046875e+00 1.514354348182678223e+00 -1.030215263366699219e+00
6.412000000000000000e+03 6.679306793212890625e+01 9.252413749694824219e+00 8.715919405221939087e-02 5.038258075714111328e+00 1.537625074386596680e+00 -1.063185930252075195e+00
6.413000000000000000e+03 6.390951538085937500e+01 4.013926982879638672e+00 -5.455916002392768860e-02 3.812739133834838867e+00 1.127453923225402832e+00 -1.413145899772644043e+00
6.414000000000000000e+03 6.752037811279296875e+01 3.812222242355346680e+00 -4.902696907520294189e-01 5.592763900756835938e+00 1.530748248100280762e+00 -1.446158766746520996e+00
6.415000000000000000e+03 6.638682556152343750e+01 1.168724346160888672e+01 2.485975474119186401e-01 4.878005027770996094e+00 1.537980794906616211e+00 -9.349531531333923340e-01
6.416000000000000000e+03 4.437532806396484375e+01 -1.455944657325744629e+00 -4.915658533573150635e-01 3.446739017963409424e-01 -4.406758025288581848e-02 2.404590547084808350e-01
6.417000000000000000e+03 3.884012985229492188e+01 -3.793376386165618896e-01 -4.680166542530059814e-01 3.963786661624908447e-01 -2.149140462279319763e-02 3.114074766635894775e-01
6.418000000000000000e+03 4.154078292846679688e+01 -6.024933338165283203e+00 -7.310686111450195312e-01 3.332540690898895264e-01 -1.193443611264228821e-01 2.430886477231979370e-01
6.419000000000000000e+03 3.229963302612304688e+01 -9.831601977348327637e-01 -4.510063827037811279e-01 2.007257044315338135e-01 -7.508420199155807495e-02 3.243907988071441650e-01
6.420000000000000000e+03 3.230294418334960938e+01 4.670174717903137207e-01 -3.418776392936706543e-01 1.775166690349578857e-01 -4.930828884243965149e-02 3.334738612174987793e-01
6.421000000000000000e+03 6.769203948974609375e+01 5.653107166290283203e+00 -2.775223255157470703e-01 5.512638092041015625e+00 1.570534706115722656e+00 -1.261523604393005371e+00
6.422000000000000000e+03 6.692480468750000000e+01 6.760715007781982422e+00 -1.177837699651718140e-01 5.151835918426513672e+00 1.510215640068054199e+00 -1.219629168510437012e+00
6.423000000000000000e+03 3.480653762817382812e+01 -4.094483852386474609e+00 -6.183131933212280273e-01 2.777084708213806152e-01 -1.021814197301864624e-01 3.337742090225219727e-01
6.424000000000000000e+03 6.703587341308593750e+01 7.297930240631103516e+00 -7.823532819747924805e-02 5.147684097290039062e+00 1.520834565162658691e+00 -1.181557059288024902e+00
6.425000000000000000e+03 3.258002471923828125e+01 -4.435251653194427490e-01 -4.146780371665954590e-01 2.021792232990264893e-01 -6.374964863061904907e-02 3.298113346099853516e-01
6.426000000000000000e+03 4.086719131469726562e+01 -6.150708198547363281e+00 -7.301766872406005859e-01 3.279439806938171387e-01 -1.206698119640350342e-01 2.510765194892883301e-01
6.427000000000000000e+03 6.288158035278320312e+01 4.036889076232910156e+00 3.388098254799842834e-02 3.360618352890014648e+00 1.018349766731262207e+00 -1.284790992736816406e+00
6.428000000000000000e+03 4.124191665649414062e+01 -1.453062295913696289e+00 -5.199224948883056641e-01 3.848309814929962158e-01 -4.052745923399925232e-02 2.682672441005706787e-01
6.429000000000000000e+03 6.594974517822265625e+01 4.671450138092041016e+00 -2.282508164644241333e-01 4.816028594970703125e+00 1.376333236694335938e+00 -1.430065035820007324e+00
6.430000000000000000e+03 6.494080352783203125e+01 7.693527698516845703e+00 9.810484200716018677e-02 4.421296596527099609e+00 1.355820417404174805e+00 -1.174899458885192871e+00
6.431000000000000000e+03 3.317214965820312500e+01 -7.819004058837890625e-01 -4.416951537132263184e-01 2.263434529304504395e-01 -6.460551172494888306e-02 3.350913524627685547e-01
6.432000000000000000e+03 3.256694793701171875e+01 2.037820100784301758e+00 -2.159755825996398926e-01 1.566039025783538818e-01 -1.781150698661804199e-02 3.698407113552093506e-01
6.433000000000000000e+03 3.494860458374023438e+01 7.354448795318603516e+00 -1.509462483227252960e-02 3.433667421340942383e-01 9.848164021968841553e-02 5.522077083587646484e-01
6.434000000000000000e+03 3.749553298950195312e+01 -1.165839076042175293e+00 -5.000358819961547852e-01 3.555487096309661865e-01 -4.334614425897598267e-02 3.251788914203643799e-01
6.435000000000000000e+03 3.525313186645507812e+01 4.976590633392333984e+00 -1.274960339069366455e-01 3.273899853229522705e-01 5.996818095445632935e-02 4.807991683483123779e-01
6.436000000000000000e+03 6.794301605224609375e+01 2.691834270954132080e-01 -1.080102682113647461e+00 6.418192386627197266e+00 1.601426959037780762e+00 -1.913931369781494141e+00
6.437000000000000000e+03 6.598261260986328125e+01 8.928476333618164062e+00 1.075955107808113098e-01 4.792440414428710938e+00 1.470010757446289062e+00 -1.099070668220520020e+00
6.438000000000000000e+03 6.553443145751953125e+01 1.828171014785766602e+00 -3.944201469421386719e-01 4.572487831115722656e+00 1.253420233726501465e+00 -1.798664450645446777e+00
6.439000000000000000e+03 5.629830169677734375e+01 -8.513518571853637695e-01 -3.677539527416229248e-01 7.154505848884582520e-01 1.043089851737022400e-01 5.832980573177337646e-02
6.440000000000000000e+03 3.801609039306640625e+01 -8.001252174377441406e+00 -7.286548614501953125e-01 2.786656022071838379e-01 -1.349967867136001587e-01 2.678025960922241211e-01
6.441000000000000000e+03 6.611823272705078125e+01 8.288568496704101562e+00 5.795620009303092957e-02 4.849893093109130859e+00 1.472354769706726074e+00 -1.132606029510498047e+00
6.442000000000000000e+03 6.767557525634765625e+01 9.188236594200134277e-01 -8.882158398628234863e-01 6.120599269866943359e+00 1.569715023040771484e+00 -1.817908048629760742e+00
6.443000000000000000e+03 6.193870162963867188e+01 2.657078981399536133e+00 3.202788531780242920e-02 2.711572170257568359e+00 8.230800032615661621e-01 -1.180195450782775879e+00
6.444000000000000000e+03 6.370555877685546875e+01 1.208652973175048828e+00 -1.415628790855407715e-01 3.318681955337524414e+00 9.531357288360595703e-01 -1.687357783317565918e+00
6.445000000000000000e+03 4.249791336059570312e+01 -2.189343929290771484e+00 -5.516048073768615723e-01 3.674106299877166748e-01 -5.525825545191764832e-02 2.568915784358978271e-01
6.446000000000000000e+03 3.967278671264648438e+01 -9.651830196380615234e-01 -4.968204498291015625e-01 3.941006958484649658e-01 -3.081592358648777008e-02 2.945086956024169922e-01
6.447000000000000000e+03 6.490943145751953125e+01 3.939399719238281250e+00 -1.642069667577743530e-01 4.286933898925781250e+00 1.236818075180053711e+00 -1.485625863075256348e+00
6.448000000000000000e+03 6.294675064086914062e+01 2.920898199081420898e+00 -1.440858561545610428e-02 3.188592910766601562e+00 9.522553086280822754e-01 -1.366066932678222656e+00
6.449000000000000000e+03 6.606591796875000000e+01 1.643287777900695801e+00 -5.340943336486816406e-01 4.902755260467529297e+00 1.310598373413085938e+00 -1.876641154289245605e+00
6.450000000000000000e+03 3.433055114746093750e+01 -1.438372850418090820e+00 -4.868795573711395264e-01 2.696256339550018311e-01 -6.517617404460906982e-02 3.390291631221771240e-01
6.451000000000000000e+03 3.522373962402343750e+01 -1.244242429733276367e+00 -4.826389551162719727e-01 2.954797446727752686e-01 -5.614775791764259338e-02 3.407526910305023193e-01
6.452000000000000000e+03 3.740201187133789062e+01 -5.709340095520019531e+00 -6.778204441070556641e-01 3.072288930416107178e-01 -1.111774593591690063e-01 3.017916977405548096e-01
6.453000000000000000e+03 3.950372314453125000e+01 -6.372279167175292969e+00 -7.176732420921325684e-01 3.191978931427001953e-01 -1.195425987243652344e-01 2.659966349601745605e-01
6.454000000000000000e+03 3.602377319335937500e+01 -6.260865688323974609e+00 -6.816673874855041504e-01 2.781312167644500732e-01 -1.210608482360839844e-01 3.164396584033966064e-01
6.455000000000000000e+03 4.398628997802734375e+01 -5.868841648101806641e+00 -7.736697196960449219e-01 3.326674401760101318e-01 -1.323006749153137207e-01 2.182616591453552246e-01
6.456000000000000000e+03 4.440229034423828125e+01 -4.233835697174072266e+00 -6.813411712646484375e-01 3.422267436981201172e-01 -1.017343401908874512e-01 2.423329949378967285e-01
6.457000000000000000e+03 6.225283432006835938e+01 4.245138168334960938e+00 8.440086245536804199e-02 3.153172254562377930e+00 9.712719917297363281e-01 -1.161683678627014160e+00
6.458000000000000000e+03 6.181556320190429688e+01 3.340398788452148438e+00 7.088761776685714722e-02 2.826756238937377930e+00 8.692931532859802246e-01 -1.135031342506408691e+00
6.459000000000000000e+03 6.754158020019531250e+01 1.612293839454650879e+00 -7.812523245811462402e-01 5.865148544311523438e+00 1.525168895721435547e+00 -1.733393430709838867e+00
6.460000000000000000e+03 3.645699310302734375e+01 3.835091829299926758e+00 -2.218008041381835938e-01 3.925159573554992676e-01 5.121454969048500061e-02 4.262316823005676270e-01
6.461000000000000000e+03 3.562184143066406250e+01 4.294538497924804688e+00 -1.758431345224380493e-01 3.489396870136260986e-01 5.192896723747253418e-02 4.523940682411193848e-01
6.462000000000000000e+03 3.552351379394531250e+01 -4.053618431091308594e+00 -6.160098910331726074e-01 2.937858104705810547e-01 -9.666722267866134644e-02 3.283174335956573486e-01
6.463000000000000000e+03 3.619299316406250000e+01 -4.024425029754638672e+00 -6.178390383720397949e-01 3.065899610519409180e-01 -9.337472915649414062e-02 3.233903348445892334e-01
6.464000000000000000e+03 3.395204162597656250e+01 3.082333803176879883e+00 -1.875572651624679565e-01 2.272638380527496338e-01 1.191196963191032410e-02 4.225375652313232422e-01
6.465000000000000000e+03 3.351836776733398438e+01 2.360555648803710938e+00 -2.214769124984741211e-01 2.057222127914428711e-01 -4.726408515125513077e-03 3.949492573738098145e-01
6.466000000000000000e+03 6.112984848022460938e+01 3.172307729721069336e+00 8.169881254434585571e-02 2.525677919387817383e+00 7.822130322456359863e-01 -9.723493456840515137e-01
6.467000000000000000e+03 6.107220840454101562e+01 2.315759658813476562e+00 7.807952165603637695e-02 2.358328342437744141e+00 7.309223413467407227e-01 -9.938994646072387695e-01
6.468000000000000000e+03 3.731570816040039062e+01 8.381599932909011841e-02 -4.363296031951904297e-01 3.658234179019927979e-01 -2.115185745060443878e-02 3.382160067558288574e-01
6.469000000000000000e+03 6.172140502929687500e+01 2.192569732666015625e+00 5.160484835505485535e-02 2.535424947738647461e+00 7.761089205741882324e-01 -1.162567973136901855e+00
6.470000000000000000e+03 6.692772674560546875e+01 6.188261032104492188e+00 -1.724210381507873535e-01 5.185774803161621094e+00 1.504006147384643555e+00 -1.262641668319702148e+00
6.471000000000000000e+03 6.618893432617187500e+01 6.849678993225097656e+00 -5.747232586145401001e-02 4.861840724945068359e+00 1.441310524940490723e+00 -1.243280768394470215e+00
6.472000000000000000e+03 6.732611846923828125e+01 2.285248279571533203e+00 -6.265776753425598145e-01 5.624103069305419922e+00 1.499257683753967285e+00 -1.659451603889465332e+00
6.473000000000000000e+03 3.852249145507812500e+01 -4.977732181549072266e+00 -6.645625233650207520e-01 3.275269865989685059e-01 -1.011106595396995544e-01 2.930302023887634277e-01
6.474000000000000000e+03 3.302315902709960938e+01 -2.121626377105712891e+00 -5.275406837463378906e-01 2.340503633022308350e-01 -8.804710209369659424e-02 3.316658735275268555e-01
6.475000000000000000e+03 3.321058273315429688e+01 -2.718262672424316406e+00 -5.591468811035156250e-01 2.392738610506057739e-01 -9.596191346645355225e-02 3.337209820747375488e-01
6.476000000000000000e+03 3.363706970214843750e+01 1.330285787582397461e+00 -2.977137863636016846e-01 2.223951816558837891e-01 -2.259558439254760742e-02 3.687195479869842529e-01
6.477000000000000000e+03 3.708148956298828125e+01 -5.098367691040039062e+00 -6.568552255630493164e-01 3.096333146095275879e-01 -1.041665822267532349e-01 3.084791898727416992e-01
6.478000000000000000e+03 3.753529739379882812e+01 -7.384793281555175781e+00 -7.127457857131958008e-01 2.856734693050384521e-01 -1.281216889619827271e-01 2.836332619190216064e-01
6.479000000000000000e+03 3.777996826171875000e+01 -6.349565029144287109e+00 -6.960413455963134766e-01 3.041570782661437988e-01 -1.175652742385864258e-01 2.901480793952941895e-01
6.480000000000000000e+03 4.498271942138671875e+01 -1.894950747489929199e+00 -5.148213505744934082e-01 3.353065848350524902e-01 -5.385442450642585754e-02 2.442489415407180786e-01
6.481000000000000000e+03 4.211369323730468750e+01 -5.210303306579589844e+00 -7.070153951644897461e-01 3.415052294731140137e-01 -1.096530556678771973e-01 2.468470335006713867e-01
6.482000000000000000e+03 6.520117950439453125e+01 8.644892692565917969e+00 1.417406499385833740e-01 4.520085811614990234e+00 1.398547887802124023e+00 -1.125555753707885742e+00
6.483000000000000000e+03 4.613469314575195312e+01 -2.580645799636840820e+00 -5.625375509262084961e-01 3.249980807304382324e-01 -7.126183807849884033e-02 2.541682422161102295e-01
6.484000000000000000e+03 4.280582046508789062e+01 -4.873280525207519531e+00 -7.036226391792297363e-01 3.436453044414520264e-01 -1.079932004213333130e-01 2.447746545076370239e-01
6.485000000000000000e+03 4.197396469116210938e+01 -1.396445155143737793e+00 -5.117128491401672363e-01 3.822066187858581543e-01 -3.885187953710556030e-02 2.590402662754058838e-01
6.486000000000000000e+03 3.674177932739257812e+01 -6.014487266540527344e+00 -6.797736883163452148e-01 2.933331131935119629e-01 -1.159321665763854980e-01 3.071171045303344727e-01
6.487000000000000000e+03 3.417588424682617188e+01 9.410305023193359375e-01 -3.359915316104888916e-01 2.513945996761322021e-01 -2.537908218801021576e-02 3.657504618167877197e-01
6.488000000000000000e+03 3.407023620605468750e+01 -2.031162977218627930e+00 -5.240578651428222656e-01 2.619395256042480469e-01 -7.863549888134002686e-02 3.355463445186614990e-01
6.489000000000000000e+03 6.539369201660156250e+01 3.416558027267456055e+00 -2.580215036869049072e-01 4.541244029998779297e+00 1.284966707229614258e+00 -1.577617406845092773e+00
6.490000000000000000e+03 6.676129913330078125e+01 4.291296005249023438e+00 -3.409624099731445312e-01 5.181651115417480469e+00 1.452206611633300781e+00 -1.434632301330566406e+00
6.491000000000000000e+03 6.564385986328125000e+01 5.275887966156005859e+00 -1.363623142242431641e-01 4.676656246185302734e+00 1.362088203430175781e+00 -1.374210119247436523e+00
6.492000000000000000e+03 6.468724822998046875e+01 1.490759015083312988e+00 -2.698577642440795898e-01 3.976557493209838867e+00 1.112010002136230469e+00 -1.800543189048767090e+00
6.493000000000000000e+03 6.548181915283203125e+01 7.161088943481445312e+00 9.644391946494579315e-03 4.619317531585693359e+00 1.388688564300537109e+00 -1.218678712844848633e+00
6.494000000000000000e+03 6.532848358154296875e+01 5.950777053833007812e+00 -6.328926235437393188e-02 4.543578147888183594e+00 1.344086647033691406e+00 -1.308826208114624023e+00
6.495000000000000000e+03 3.289424133300781250e+01 1.213881373405456543e-01 -3.745045661926269531e-01 2.055679559707641602e-01 -5.068098381161689758e-02 3.391005694866180420e-01
6.496000000000000000e+03 4.337689971923828125e+01 -1.741752862930297852e+00 -5.225864648818969727e-01 3.621524274349212646e-01 -4.813022166490554810e-02 2.476444542407989502e-01
6.497000000000000000e+03 4.071863174438476562e+01 -5.524559020996093750e+00 -7.031766176223754883e-01 3.371829092502593994e-01 -1.097981184720993042e-01 2.591172456741333008e-01
6.498000000000000000e+03 6.500720977783203125e+01 2.093441963195800781e+00 -3.015100955963134766e-01 4.211474418640136719e+00 1.172989249229431152e+00 -1.731006979942321777e+00
6.499000000000000000e+03 3.475300598144531250e+01 -3.397390604019165039e+00 -5.870547890663146973e-01 2.804030776023864746e-01 -9.199552237987518311e-02 3.346457183361053467e-01
6.500000000000000000e+03 3.721905517578125000e+01 1.162140130996704102e+00 -3.794155716896057129e-01 3.806373775005340576e-01 3.665416152216494083e-04 3.541293144226074219e-01
6.501000000000000000e+03 6.680374145507812500e+01 1.974292874336242676e+00 -6.203830242156982422e-01 5.352660655975341797e+00 1.419683337211608887e+00 -1.754718661308288574e+00
6.502000000000000000e+03 3.730438995361328125e+01 6.581682562828063965e-01 -4.043918251991271973e-01 3.727874755859375000e-01 -9.481299668550491333e-03 3.442896604537963867e-01
6.503000000000000000e+03 3.709591674804687500e+01 -6.714138984680175781e+00 -6.982849240303039551e-01 2.891882359981536865e-01 -1.227290108799934387e-01 2.975037693977355957e-01
6.504000000000000000e+03 3.841909027099609375e+01 -5.970050334930419922e+00 -6.940029263496398926e-01 3.159508705139160156e-01 -1.134156137704849243e-01 2.854938507080078125e-01
6.505000000000000000e+03 6.251570510864257812e+01 2.311086177825927734e+00 7.094674743711948395e-03 2.875822544097900391e+00 8.648751974105834961e-01 -1.334599256515502930e+00
6.506000000000000000e+03 6.018863296508789062e+01 1.364799857139587402e+00 2.179529145359992981e-02 1.775928854942321777e+00 5.393172502517700195e-01 -7.743247747421264648e-01
6.507000000000000000e+03 3.974377441406250000e+01 -1.730181694030761719e+00 -5.343152880668640137e-01 3.802436292171478271e-01 -4.622149839997291565e-02 2.922247946262359619e-01
6.508000000000000000e+03 3.549388885498046875e+01 -3.369534015655517578e+00 -5.895113348960876465e-01 2.981452941894531250e-01 -8.740980923175811768e-02 3.305009901523590088e-01
6.509000000000000000e+03 3.561354064941406250e+01 -4.763741493225097656e+00 -6.429272890090942383e-01 2.889627218246459961e-01 -1.061893627047538757e-01 3.260564804077148438e-01
6.510000000000000000e+03 4.335567855834960938e+01 -5.399523258209228516e+00 -7.330678105354309082e-01 3.384055197238922119e-01 -1.183986961841583252e-01 2.345045357942581177e-01
6.511000000000000000e+03 3.799345397949218750e+01 -5.354220867156982422e+00 -6.703134775161743164e-01 3.209205567836761475e-01 -1.048178672790527344e-01 2.960886955261230469e-01
6.512000000000000000e+03 4.050811386108398438e+01 -1.595135688781738281e+00 -5.258223414421081543e-01 3.857834935188293457e-01 -4.201164841651916504e-02 2.808094322681427002e-01
6.513000000000000000e+03 3.934553909301757812e+01 -5.224287509918212891e+00 -6.802293062210083008e-01 3.359160125255584717e-01 -1.032939851284027100e-01 2.815604805946350098e-01
6.514000000000000000e+03 3.673207092285156250e+01 3.318574428558349609e+00 -2.576862573623657227e-01 3.994016349315643311e-01 4.251461476087570190e-02 4.042235910892486572e-01
6.515000000000000000e+03 3.586029052734375000e+01 3.578515291213989258e+00 -2.198651582002639771e-01 3.554255962371826172e-01 4.066813364624977112e-02 4.280264377593994141e-01
6.516000000000000000e+03 3.644594955444335938e+01 1.419824361801147461e+00 -3.518415689468383789e-01 3.528925478458404541e-01 3.152963763568550348e-04 3.688106834888458252e-01
6.517000000000000000e+03 3.309845352172851562e+01 1.695167183876037598e+00 -2.582273483276367188e-01 1.908801198005676270e-01 -2.020416781306266785e-02 3.698523938655853271e-01
6.518000000000000000e+03 6.353242492675781250e+01 2.360705614089965820e+00 -9.398434311151504517e-02 3.426156044006347656e+00 9.996514916419982910e-01 -1.530370354652404785e+00
6.519000000000000000e+03 3.547327804565429688e+01 -2.701518058776855469e+00 -5.572118759155273438e-01 3.023475110530853271e-01 -7.645931839942932129e-02 3.338825702667236328e-01
6.520000000000000000e+03 4.426742553710937500e+01 -3.171690464019775391e+00 -6.104091405868530273e-01 3.467910587787628174e-01 -7.908541709184646606e-02 2.482635229825973511e-01
6.521000000000000000e+03 3.682193374633789062e+01 8.967933058738708496e-01 -3.871771991252899170e-01 3.630281686782836914e-01 -7.244704756885766983e-03 3.555960655212402344e-01
6.522000000000000000e+03 3.697294998168945312e+01 1.732210516929626465e+00 -3.434095978736877441e-01 3.801685869693756104e-01 1.102769281715154648e-02 3.663901388645172119e-01
6.523000000000000000e+03 3.619897460937500000e+01 2.954630374908447266e+00 -2.613535225391387939e-01 3.631585240364074707e-01 3.054150193929672241e-02 4.060399234294891357e-01
6.524000000000000000e+03 6.589875793457031250e+01 7.724498271942138672e+00 3.002719953656196594e-02 4.789108753204345703e+00 1.445740818977355957e+00 -1.176119923591613770e+00
6.525000000000000000e+03 3.459059143066406250e+01 4.514880180358886719e+00 -1.263254731893539429e-01 2.732873260974884033e-01 4.408855363726615906e-02 4.748398661613464355e-01
6.526000000000000000e+03 3.646165847778320312e+01 -5.330128192901611328e+00 -6.620837450027465820e-01 2.967661619186401367e-01 -1.095952764153480530e-01 3.152690827846527100e-01
6.527000000000000000e+03 6.575330352783203125e+01 2.380275726318359375e+00 -3.970824778079986572e-01 4.704038143157958984e+00 1.292086720466613770e+00 -1.721316099166870117e+00
6.528000000000000000e+03 6.708925628662109375e+01 2.983768224716186523e+00 -5.372525453567504883e-01 5.458736896514892578e+00 1.476445317268371582e+00 -1.578664779663085938e+00
6.529000000000000000e+03 3.344485092163085938e+01 -1.701889514923095703e+00 -5.033966898918151855e-01 2.429056167602539062e-01 -7.814732193946838379e-02 3.342558741569519043e-01
6.530000000000000000e+03 4.497854995727539062e+01 -4.722179889678955078e+00 -7.207651138305664062e-01 3.363567590713500977e-01 -1.153225079178810120e-01 2.333943098783493042e-01
6.531000000000000000e+03 4.291751861572265625e+01 -3.897269964218139648e+00 -6.503505706787109375e-01 3.501874208450317383e-01 -9.004893153905868530e-02 2.535219788551330566e-01
6.532000000000000000e+03 3.324576187133789062e+01 7.126147150993347168e-01 -3.361203670501708984e-01 2.122093141078948975e-01 -3.717331215739250183e-02 3.518223762512207031e-01
6.533000000000000000e+03 3.268572998046875000e+01 1.067410469055175781e+00 -2.987670302391052246e-01 1.818401664495468140e-01 -3.507805615663528442e-02 3.489256799221038818e-01
6.534000000000000000e+03 4.526131820678710938e+01 -2.911592721939086914e+00 -5.970488786697387695e-01 3.342280983924865723e-01 -7.884622365236282349e-02 2.492591142654418945e-01
6.535000000000000000e+03 4.401423645019531250e+01 -2.116471052169799805e+00 -5.386449694633483887e-01 3.519588410854339600e-01 -5.600583553314208984e-02 2.451106458902359009e-01
6.536000000000000000e+03 6.614086151123046875e+01 6.163681030273437500e+00 -1.063106730580329895e-01 4.859517574310302734e+00 1.425962090492248535e+00 -1.288572549819946289e+00
6.537000000000000000e+03 6.540779113769531250e+01 4.345890998840332031e+00 -1.869163215160369873e-01 4.549304962158203125e+00 1.308716535568237305e+00 -1.469316244125366211e+00
6.538000000000000000e+03 6.443045806884765625e+01 4.496022701263427734e+00 -7.578657567501068115e-02 4.097896099090576172e+00 1.206632852554321289e+00 -1.403089165687561035e+00
6.539000000000000000e+03 4.007619476318359375e+01 -5.662420272827148438e+00 -7.044154405593872070e-01 3.311634659767150879e-01 -1.119755879044532776e-01 2.659289836883544922e-01
6.540000000000000000e+03 3.875973129272460938e+01 -4.028170585632324219e+00 -6.323129534721374512e-01 3.411504328250885010e-01 -8.734875917434692383e-02 2.970966696739196777e-01
6.541000000000000000e+03 4.208884429931640625e+01 -3.302305698394775391e+00 -6.115126013755798340e-01 3.595094978809356689e-01 -7.560092955827713013e-02 2.627292573451995850e-01
6.542000000000000000e+03 3.375154495239257812e+01 -1.127374649047851562e+00 -4.678950905799865723e-01 2.498001605272293091e-01 -6.542847305536270142e-02 3.373991250991821289e-01
6.543000000000000000e+03 3.347626876831054688e+01 -2.243611216545104980e-01 -4.063813090324401855e-01 2.325316369533538818e-01 -5.215490236878395081e-02 3.420572280883789062e-01
6.544000000000000000e+03 6.449356842041015625e+01 2.472840070724487305e+00 -2.011566013097763062e-01 3.969689846038818359e+00 1.130560040473937988e+00 -1.642484545707702637e+00
6.545000000000000000e+03 3.740644836425781250e+01 -5.470409989356994629e-01 -4.665603637695312500e-01 3.630068898200988770e-01 -3.106604330241680145e-02 3.325207233428955078e-01
6.546000000000000000e+03 3.472048950195312500e+01 -2.182456731796264648e+00 -5.342248678207397461e-01 2.817768156528472900e-01 -7.573441416025161743e-02 3.353437781333923340e-01
6.547000000000000000e+03 3.472222900390625000e+01 -2.752142190933227539e+00 -5.587570667266845703e-01 2.785761058330535889e-01 -8.405427634716033936e-02 3.344478309154510498e-01
6.548000000000000000e+03 3.622684860229492188e+01 -3.375611782073974609e+00 -5.915008187294006348e-01 3.122179806232452393e-01 -8.378484845161437988e-02 3.250421285629272461e-01
6.549000000000000000e+03 3.892391586303710938e+01 -1.063465118408203125e+00 -5.013659596443176270e-01 3.830991983413696289e-01 -3.548002615571022034e-02 3.064277172088623047e-01
6.550000000000000000e+03 6.630333709716796875e+01 2.267699480056762695e+00 -4.872996211051940918e-01 5.059931278228759766e+00 1.371789574623107910e+00 -1.728275895118713379e+00
6.551000000000000000e+03 6.532489776611328125e+01 2.595150709152221680e+00 -3.025322854518890381e-01 4.447352409362792969e+00 1.243446111679077148e+00 -1.677655577659606934e+00
6.552000000000000000e+03 3.626680755615234375e+01 -4.671026229858398438e+00 -6.410683989524841309e-01 3.021320700645446777e-01 -1.016808971762657166e-01 3.194922506809234619e-01
6.553000000000000000e+03 3.471210479736328125e+01 5.386102795600891113e-01 -3.721471726894378662e-01 2.773571312427520752e-01 -2.843701094388961792e-02 3.618070185184478760e-01
6.554000000000000000e+03 3.665379333496093750e+01 1.868423447012901306e-02 -4.303835332393646240e-01 3.485768735408782959e-01 -2.454199641942977905e-02 3.460001051425933838e-01
6.555000000000000000e+03 3.405059814453125000e+01 -5.653125643730163574e-01 -4.337703287601470947e-01 2.566826045513153076e-01 -5.312631651759147644e-02 3.439032733440399170e-01
6.556000000000000000e+03 3.671171188354492188e+01 -6.156798601150512695e-01 -4.657798409461975098e-01 3.427355289459228516e-01 -3.691329061985015869e-02 3.387669026851654053e-01
6.557000000000000000e+03 4.169515228271484375e+01 -2.595861434936523438e+00 -5.761098861694335938e-01 3.681992590427398682e-01 -6.237317994236946106e-02 2.654428780078887939e-01
6.558000000000000000e+03 4.252071380615234375e+01 -3.507683992385864258e+00 -6.256979703903198242e-01 3.561278879642486572e-01 -8.087102323770523071e-02 2.586610019207000732e-01
6.559000000000000000e+03 3.763203811645507812e+01 -4.768604755401611328e+00 -6.508576869964599609e-01 3.217013478279113770e-01 -9.874691069126129150e-02 3.052110075950622559e-01
6.560000000000000000e+03 3.560013580322265625e+01 6.128323078155517578e-01 -3.830156028270721436e-01 3.137787580490112305e-01 -2.077104896306991577e-02 3.615606725215911865e-01
6.561000000000000000e+03 4.117677688598632812e+01 -4.721363067626953125e+00 -6.758602261543273926e-01 3.461170792579650879e-01 -9.892294555902481079e-02 2.630694210529327393e-01
6.562000000000000000e+03 4.182386398315429688e+01 -4.555630207061767578e+00 -6.774990558624267578e-01 3.490428328514099121e-01 -9.853686392307281494e-02 2.586694359779357910e-01
6.563000000000000000e+03 3.991205978393554688e+01 -5.043091297149658203e+00 -6.764287948608398438e-01 3.399691283702850342e-01 -1.009379103779792786e-01 2.747360169887542725e-01
6.564000000000000000e+03 3.815726089477539062e+01 -4.339686870574951172e+00 -6.382681131362915039e-01 3.336539268493652344e-01 -9.138425439596176147e-02 3.007034957408905029e-01
6.565000000000000000e+03 3.643955230712890625e+01 5.597423315048217773e-01 -3.983717262744903564e-01 3.462938368320465088e-01 -1.562336459755897522e-02 3.548681735992431641e-01
6.566000000000000000e+03 3.462367630004882812e+01 -8.996140360832214355e-01 -4.596637487411499023e-01 2.779540419578552246e-01 -5.451291054487228394e-02 3.425585627555847168e-01
6.567000000000000000e+03 3.380670928955078125e+01 3.522560000419616699e-01 -3.699970543384552002e-01 2.400394380092620850e-01 -3.898728638887405396e-02 3.528888821601867676e-01
6.568000000000000000e+03 3.605125808715820312e+01 1.980463266372680664e+00 -3.134920001029968262e-01 3.421514332294464111e-01 8.597825653851032257e-03 3.836778402328491211e-01
6.569000000000000000e+03 4.389988327026367188e+01 -4.827994346618652344e+00 -7.117772102355957031e-01 3.414677083492279053e-01 -1.110928580164909363e-01 2.372079044580459595e-01
6.570000000000000000e+03 4.367858123779296875e+01 -2.770268678665161133e+00 -5.852686762809753418e-01 3.525898754596710205e-01 -6.980364769697189331e-02 2.521004974842071533e-01
6.571000000000000000e+03 4.309225082397460938e+01 -2.430666446685791016e+00 -5.647169351577758789e-01 3.592588901519775391e-01 -6.163741275668144226e-02 2.532139420509338379e-01
6.572000000000000000e+03 6.397190856933593750e+01 2.942406654357910156e+00 -1.206012517213821411e-01 3.715024948120117188e+00 1.078327059745788574e+00 -1.525226950645446777e+00
6.573000000000000000e+03 6.442933654785156250e+01 3.474420547485351562e+00 -1.343502998352050781e-01 4.037847042083740234e+00 1.171049118041992188e+00 -1.511366844177246094e+00
6.574000000000000000e+03 6.633824157714843750e+01 3.592450857162475586e+00 -3.627653717994689941e-01 5.017957687377929688e+00 1.396557688713073730e+00 -1.536244392395019531e+00
6.575000000000000000e+03 6.623252105712890625e+01 4.131997108459472656e+00 -2.922641038894653320e-01 4.962683200836181641e+00 1.401125669479370117e+00 -1.471038699150085449e+00
6.576000000000000000e+03 3.694830322265625000e+01 -3.505183219909667969e+00 -5.993277430534362793e-01 3.246171474456787109e-01 -8.241317421197891235e-02 3.189475238323211670e-01
6.577000000000000000e+03 4.190583801269531250e+01 -2.054274082183837891e+00 -5.475744009017944336e-01 3.744652569293975830e-01 -5.193274840712547302e-02 2.636105716228485107e-01
6.578000000000000000e+03 6.637373352050781250e+01 2.943035125732421875e+00 -4.354627430438995361e-01 5.059354305267333984e+00 1.387167453765869141e+00 -1.635143160820007324e+00
6.579000000000000000e+03 4.095934677124023438e+01 -4.013750076293945312e+00 -6.468604803085327148e-01 3.541159033775329590e-01 -8.782336860895156860e-02 2.713927030563354492e-01
6.580000000000000000e+03 3.629599761962890625e+01 -2.686832666397094727e+00 -5.620513558387756348e-01 3.187699317932128906e-01 -7.298441976308822632e-02 3.272782564163208008e-01
6.581000000000000000e+03 3.819379425048828125e+01 -1.121546268463134766e+00 -4.997946619987487793e-01 3.737170398235321045e-01 -3.782328963279724121e-02 3.182425200939178467e-01
6.582000000000000000e+03 6.491099548339843750e+01 2.993813991546630859e+00 -2.361389994621276855e-01 4.222469329833984375e+00 1.195899128913879395e+00 -1.608909010887145996e+00
6.583000000000000000e+03 4.337290191650390625e+01 -4.354317188262939453e+00 -6.778875589370727539e-01 3.465871810913085938e-01 -9.939011186361312866e-02 2.460523247718811035e-01
6.584000000000000000e+03 4.487728881835937500e+01 -3.604221582412719727e+00 -6.431988477706909180e-01 3.386025726795196533e-01 -9.137888252735137939e-02 2.463100552558898926e-01
6.585000000000000000e+03 6.574408721923828125e+01 2.898958444595336914e+00 -3.505042791366577148e-01 4.693961620330810547e+00 1.303037285804748535e+00 -1.638353824615478516e+00
6.586000000000000000e+03 3.683374786376953125e+01 -4.556618213653564453e+00 -6.409391164779663086e-01 3.113389611244201660e-01 -9.888004511594772339e-02 3.145674765110015869e-01
6.587000000000000000e+03 4.241864395141601562e+01 -4.300599575042724609e+00 -6.649528145790100098e-01 3.505888581275939941e-01 -9.430919587612152100e-02 2.541098296642303467e-01
6.588000000000000000e+03 4.079525756835937500e+01 -3.221184015274047852e+00 -6.028673648834228516e-01 3.648456931114196777e-01 -7.140649110078811646e-02 2.763533592224121094e-01
6.589000000000000000e+03 3.530477142333984375e+01 -2.104499101638793945e+00 -5.312681794166564941e-01 2.969716191291809082e-01 -7.028897106647491455e-02 3.352880477905273438e-01
6.590000000000000000e+03 3.524192428588867188e+01 1.364182829856872559e-01 -4.050092995166778564e-01 2.994864284992218018e-01 -3.165686130523681641e-02 3.548415303230285645e-01
6.591000000000000000e+03 3.609556579589843750e+01 1.747920662164688110e-01 -4.165821373462677002e-01 3.288019895553588867e-01 -2.633404359221458435e-02 3.514879941940307617e-01
6.592000000000000000e+03 3.510503768920898438e+01 1.066984891891479492e+00 -3.467665612697601318e-01 2.951328456401824951e-01 -1.549011096358299255e-02 3.705421984195709229e-01
6.593000000000000000e+03 4.150830841064453125e+01 -3.211110353469848633e+00 -6.076372861862182617e-01 3.631304800510406494e-01 -7.335204631090164185e-02 2.692691385746002197e-01
6.594000000000000000e+03 3.966868209838867188e+01 -4.392858982086181641e+00 -6.518423557281494141e-01 3.482836782932281494e-01 -9.106760472059249878e-02 2.837721705436706543e-01
6.595000000000000000e+03 3.576999664306640625e+01 -2.574773728847503662e-01 -4.329870641231536865e-01 3.174960315227508545e-01 -3.464730456471443176e-02 3.488403856754302979e-01
6.596000000000000000e+03 4.213541030883789062e+01 -3.791900873184204102e+00 -6.407735347747802734e-01 3.558438420295715332e-01 -8.547890931367874146e-02 2.605700492858886719e-01
6.597000000000000000e+03 4.332543182373046875e+01 -3.371047019958496094e+00 -6.208137869834899902e-01 3.526106774806976318e-01 -8.046093583106994629e-02 2.523399293422698975e-01
6.598000000000000000e+03 3.459619140625000000e+01 1.527287244796752930e+00 -3.055756986141204834e-01 2.695156037807464600e-01 -1.081802789121866226e-02 3.814395964145660400e-01
6.599000000000000000e+03 3.599800872802734375e+01 1.044365644454956055e+00 -3.639832139015197754e-01 3.329627513885498047e-01 -9.306136518716812134e-03 3.663899302482604980e-01
6.600000000000000000e+03 3.679071807861328125e+01 -4.054582595825195312e+00 -6.211034059524536133e-01 3.170448839664459229e-01 -9.121756255626678467e-02 3.182083964347839355e-01
6.601000000000000000e+03 3.813876342773437500e+01 -2.475446224212646484e+00 -5.632811188697814941e-01 3.533582091331481934e-01 -6.297686696052551270e-02 3.111028969287872314e-01
6.602000000000000000e+03 4.385141754150390625e+01 -3.783961772918701172e+00 -6.492844223976135254e-01 3.465879559516906738e-01 -9.080894291400909424e-02 2.486794739961624146e-01
6.603000000000000000e+03 6.581871795654296875e+01 3.823539733886718750e+00 -2.854623496532440186e-01 4.746648788452148438e+00 1.338356018066406250e+00 -1.528180241584777832e+00
6.604000000000000000e+03 4.227392959594726562e+01 -2.782441616058349609e+00 -5.893097519874572754e-01 3.632731735706329346e-01 -6.781097501516342163e-02 2.615292072296142578e-01
6.605000000000000000e+03 4.281019973754882812e+01 -3.024587154388427734e+00 -6.014526486396789551e-01 3.575580120086669922e-01 -7.316839694976806641e-02 2.570566236972808838e-01
6.606000000000000000e+03 4.001255416870117188e+01 -3.391561508178710938e+00 -6.118824481964111328e-01 3.595351576805114746e-01 -7.570419460535049438e-02 2.855893373489379883e-01
6.607000000000000000e+03 3.896782684326171875e+01 -1.798673152923583984e+00 -5.345248579978942871e-01 3.740427196025848389e-01 -4.814464226365089417e-02 3.037353456020355225e-01
6.608000000000000000e+03 3.622675323486328125e+01 -1.376817703247070312e+00 -4.983621835708618164e-01 3.266857266426086426e-01 -5.150293931365013123e-02 3.361982107162475586e-01
6.609000000000000000e+03 3.763525390625000000e+01 -3.806984901428222656e+00 -6.163917183876037598e-01 3.333970606327056885e-01 -8.489838987588882446e-02 3.102096915245056152e-01
6.610000000000000000e+03 3.436549758911132812e+01 -1.000984199345111847e-02 -4.022945463657379150e-01 2.654401361942291260e-01 -4.105632752180099487e-02 3.515378534793853760e-01
6.611000000000000000e+03 3.795074081420898438e+01 -3.168783903121948242e+00 -5.927368402481079102e-01 3.441112041473388672e-01 -7.458769530057907104e-02 3.100594282150268555e-01
6.612000000000000000e+03 3.740267562866210938e+01 -2.293319940567016602e+00 -5.532153844833374023e-01 3.438478112220764160e-01 -6.281027942895889282e-02 3.203518986701965332e-01
6.613000000000000000e+03 3.935155105590820312e+01 -3.723692893981933594e+00 -6.199843883514404297e-01 3.542505502700805664e-01 -7.972014695405960083e-02 2.909838259220123291e-01
6.614000000000000000e+03 3.606584548950195312e+01 -7.673915624618530273e-01 -4.667001366615295410e-01 3.269315361976623535e-01 -4.193058609962463379e-02 3.424655795097351074e-01
6.615000000000000000e+03 3.555037689208984375e+01 1.553933978080749512e+00 -3.268870115280151367e-01 3.156104087829589844e-01 -3.382975701242685318e-03 3.782962560653686523e-01
6.616000000000000000e+03 3.575041580200195312e+01 -1.706951141357421875e+00 -5.147634148597717285e-01 3.115858137607574463e-01 -6.095328927040100098e-02 3.353717029094696045e-01
6.617000000000000000e+03 3.634365463256835938e+01 -1.998224139213562012e+00 -5.329113006591796875e-01 3.258530199527740479e-01 -6.211749091744422913e-02 3.312005698680877686e-01
6.618000000000000000e+03 3.684765625000000000e+01 -1.252973318099975586e+00 -4.968725442886352539e-01 3.411584794521331787e-01 -4.671421647071838379e-02 3.326979875564575195e-01
6.619000000000000000e+03 4.064141082763671875e+01 -2.391281843185424805e+00 -5.682672262191772461e-01 3.736181855201721191e-01 -5.839471518993377686e-02 2.785167694091796875e-01
6.620000000000000000e+03 3.981353378295898438e+01 -2.555830001831054688e+00 -5.730816721916198730e-01 3.691084384918212891e-01 -6.119196861982345581e-02 2.899031043052673340e-01
6.621000000000000000e+03 3.755234527587890625e+01 -1.757719278335571289e+00 -5.265700221061706543e-01 3.544668257236480713e-01 -5.163095518946647644e-02 3.219707310199737549e-01
6.622000000000000000e+03 4.029943084716796875e+01 -4.166200637817382812e+00 -6.450850963592529297e-01 3.512969911098480225e-01 -8.813643455505371094e-02 2.778849601745605469e-01
6.623000000000000000e+03 3.698418426513671875e+01 -1.870732545852661133e+00 -5.313750505447387695e-01 3.351393640041351318e-01 -5.887070298194885254e-02 3.252226412296295166e-01
6.624000000000000000e+03 3.714190292358398438e+01 -2.876353025436401367e+00 -5.739505887031555176e-01 3.335980772972106934e-01 -7.210574299097061157e-02 3.204454779624938965e-01
6.625000000000000000e+03 3.907160949707031250e+01 -4.658061504364013672e+00 -6.562945842742919922e-01 3.393756151199340820e-01 -9.507569670677185059e-02 2.880385518074035645e-01
6.626000000000000000e+03 3.491999435424804688e+01 -3.726232647895812988e-01 -4.320468604564666748e-01 2.866169214248657227e-01 -4.362897947430610657e-02 3.494519591331481934e-01
6.627000000000000000e+03 3.821983337402343750e+01 -1.794806957244873047e+00 -5.328372716903686523e-01 3.622332215309143066e-01 -5.118121579289436340e-02 3.137280941009521484e-01
6.628000000000000000e+03 3.895317077636718750e+01 -2.590397596359252930e+00 -5.732127428054809570e-01 3.620344102382659912e-01 -6.335350126028060913e-02 3.004305660724639893e-01
6.629000000000000000e+03 3.876283264160156250e+01 -3.351164579391479492e+00 -6.033506393432617188e-01 3.505384922027587891e-01 -7.584365457296371460e-02 3.000713884830474854e-01
6.630000000000000000e+03 5.449599456787109375e+01 2.460121726989746094e+01 5.006628632545471191e-01 2.256267547607421875e+00 8.270791172981262207e-01 -5.953705310821533203e-01
6.631000000000000000e+03 5.898889923095703125e+01 3.515960311889648438e+01 4.427734613418579102e-01 3.384298086166381836e+00 1.148121476173400879e+00 -2.038578540086746216e-01
6.632000000000000000e+03 6.066192626953125000e+01 3.241632843017578125e+01 3.660100698471069336e-01 3.744550228118896484e+00 1.233168125152587891e+00 -3.377556502819061279e-01
6.633000000000000000e+03 3.337765502929687500e+01 2.975802612304687500e+01 4.720220267772674561e-01 3.533907234668731689e-01 2.476238310337066650e-01 1.853643357753753662e-01
6.634000000000000000e+03 3.226697158813476562e+01 3.328940963745117188e+01 5.016328096389770508e-01 3.210924863815307617e-01 2.468175739049911499e-01 1.556041538715362549e-01
6.635000000000000000e+03 6.049354553222656250e+01 2.723658943176269531e+01 3.404580056667327881e-01 3.666458606719970703e+00 1.202075004577636719e+00 -4.805732369422912598e-01
6.636000000000000000e+03 3.749309158325195312e+01 3.336318588256835938e+01 5.666055679321289062e-01 6.863731741905212402e-01 3.758936226367950439e-01 1.253377050161361694e-01
6.637000000000000000e+03 2.451201248168945312e+01 3.466668319702148438e+01 3.641713559627532959e-01 -7.310546189546585083e-02 8.731976896524429321e-02 1.858937591314315796e-01
6.638000000000000000e+03 6.755651855468750000e+01 3.763937377929687500e+01 2.000253498554229736e-01 4.863083362579345703e+00 1.518932580947875977e+00 -1.368726640939712524e-01
6.639000000000000000e+03 2.254488945007324219e+01 3.202194213867187500e+01 3.044048845767974854e-01 -1.778080314397811890e-01 3.797905892133712769e-02 2.680447697639465332e-01
6.640000000000000000e+03 6.753366851806640625e+01 -3.751262664794921875e+01 7.449969649314880371e-02 5.276869297027587891e+00 1.605410695075988770e+00 1.264865100383758545e-01
6.641000000000000000e+03 6.928007507324218750e+01 -3.977629852294921875e+01 1.127406060695648193e-01 6.185536384582519531e+00 1.889483213424682617e+00 3.679175302386283875e-02
6.642000000000000000e+03 1.675885009765625000e+01 3.733057022094726562e+01 1.704718917608261108e-01 -4.160294234752655029e-01 -7.366725057363510132e-02 1.092129126191139221e-01
6.643000000000000000e+03 6.514410400390625000e+01 -3.808083724975585938e+01 1.983289569616317749e-01 4.299519062042236328e+00 1.349354386329650879e+00 2.415560334920883179e-01
6.644000000000000000e+03 7.216172027587890625e+01 -3.876044082641601562e+01 1.363431569188833237e-03 7.332627773284912109e+00 2.200197458267211914e+00 1.663713455200195312e-01
6.645000000000000000e+03 1.582691097259521484e+01 3.449289321899414062e+01 1.588177680969238281e-01 -4.250349104404449463e-01 -7.986515015363693237e-02 1.674808859825134277e-01
6.646000000000000000e+03 5.693655014038085938e+01 3.281622314453125000e+01 5.103214979171752930e-01 2.965079784393310547e+00 1.042620420455932617e+00 -2.905453741550445557e-01
6.647000000000000000e+03 6.225391006469726562e+01 4.045242309570312500e+01 3.541383147239685059e-01 3.936534881591796875e+00 1.287201881408691406e+00 -7.374269515275955200e-02
6.648000000000000000e+03 5.481010818481445312e+01 3.388875579833984375e+01 5.727244019508361816e-01 2.574755430221557617e+00 9.442439675331115723e-01 -2.398562282323837280e-01
6.649000000000000000e+03 5.616383743286132812e+01 3.700071334838867188e+01 5.284544825553894043e-01 2.902691602706909180e+00 1.029343843460083008e+00 -1.555559486150741577e-01
6.650000000000000000e+03 4.818537139892578125e+01 3.700294876098632812e+01 6.891251206398010254e-01 1.661850094795227051e+00 7.052925825119018555e-01 -3.091958910226821899e-02
6.651000000000000000e+03 3.714930343627929688e+01 3.683452987670898438e+01 5.964985489845275879e-01 6.687365174293518066e-01 3.795705139636993408e-01 8.483371138572692871e-02
6.652000000000000000e+03 2.804145050048828125e+01 3.645917129516601562e+01 4.341530501842498779e-01 8.672282844781875610e-02 1.562627702951431274e-01 1.283372342586517334e-01
6.653000000000000000e+03 5.225317001342773438e+01 3.747798156738281250e+01 6.347951292991638184e-01 2.274888038635253906e+00 8.729049563407897949e-01 -8.030360937118530273e-02
6.654000000000000000e+03 5.089056396484375000e+01 3.209954071044921875e+01 6.711775660514831543e-01 1.964419603347778320e+00 7.906791567802429199e-01 -1.647104173898696899e-01
6.655000000000000000e+03 4.715790939331054688e+01 3.266467666625976562e+01 6.963778138160705566e-01 1.510080337524414062e+00 6.619374752044677734e-01 -9.980281814932823181e-03
6.656000000000000000e+03 2.952229881286621094e+01 3.037372207641601562e+01 4.618757665157318115e-01 1.406093984842300415e-01 1.807455420494079590e-01 2.185986042022705078e-01
6.657000000000000000e+03 4.940903472900390625e+01 3.415504074096679688e+01 6.834760904312133789e-01 1.778869867324829102e+00 7.387037873268127441e-01 -7.174815982580184937e-02
6.658000000000000000e+03 3.488406372070312500e+01 3.185426139831542969e+01 5.181286931037902832e-01 4.950174689292907715e-01 3.039438426494598389e-01 1.623173058032989502e-01
6.659000000000000000e+03 2.650254058837890625e+01 -1.786034584045410156e+01 6.422488354473898653e-07 3.686312084028031677e-06 1.298568349739070982e-06 -1.248218040927895345e-06
6.660000000000000000e+03 2.577284622192382812e+01 -1.759991455078125000e+01 3.189229573763441294e-07 -2.798436980810947716e-06 -7.438542297677486204e-07 9.889789680528338067e-07
6.661000000000000000e+03 2.518042564392089844e+01 -1.690746498107910156e+01 -3.899353941960725933e-07 -2.050125431196647696e-06 -7.320182362491323147e-07 8.564322229176468682e-07
6.662000000000000000e+03 7.852021026611328125e+01 4.194875717163085938e+01 3.042244818061590195e-03 6.510119438171386719e+00 1.953948497772216797e+00 1.191661134362220764e-02
6.663000000000000000e+03 3.716614007949829102e+00 -4.046312332153320312e+01 -1.372775750496657565e-05 1.218483201228082180e-03 3.614266461227089167e-04 3.947121876990422606e-05
6.664000000000000000e+03 7.460639190673828125e+01 -4.052075195312500000e+01 4.415500536561012268e-02 8.513686180114746094e+00 2.567352294921875000e+00 -7.196167111396789551e-02
6.665000000000000000e+03 1.474408340454101562e+01 7.022656440734863281e+00 -9.001154303550720215e-01 -1.734845519065856934e+00 -7.904883027076721191e-01 8.239214420318603516e-01
6.666000000000000000e+03 3.693539810180664062e+01 -3.827941894531250000e+01 2.076009847223758698e-02 -9.816814213991165161e-02 -2.322241477668285370e-02 -5.843365192413330078e-02
6.667000000000000000e+03 8.296662330627441406e+00 -1.350997734069824219e+01 -5.409280493040569127e-05 -3.047873360628727823e-05 -2.537146247050259262e-05 3.776563517021713778e-06
6.668000000000000000e+03 4.143634414672851562e+01 1.286061954498291016e+01 3.753921985626220703e-01 1.603269696235656738e+00 5.935986042022705078e-01 2.832073867321014404e-01
6.669000000000000000e+03 5.054824829101562500e+01 2.035107803344726562e+01 4.931277632713317871e-01 5.533348917961120605e-01 3.139387965202331543e-01 -3.541494607925415039e-01
6.670000000000000000e+03 2.229167175292968750e+01 3.647665500640869141e+00 2.975305616855621338e-01 2.567327916622161865e-01 1.662790030241012573e-01 3.314397335052490234e-01
6.671000000000000000e+03 2.983832836151123047e+00 3.902936172485351562e+01 5.094225518405437469e-03 -1.377599835395812988e+00 -4.117516577243804932e-01 9.899059310555458069e-03
6.672000000000000000e+03 1.372494220733642578e+01 1.336214160919189453e+01 4.178485870361328125e-01 -3.173698186874389648e-01 3.014362230896949768e-02 5.204417109489440918e-01
6.673000000000000000e+03 5.067973327636718750e+01 5.717013835906982422e+00 2.128673791885375977e-01 1.261512488126754761e-01 1.017055884003639221e-01 1.801166832447052002e-01
6.674000000000000000e+03 2.144666290283203125e+01 -1.392607593536376953e+01 -7.744220056338235736e-07 -1.603871595534656080e-07 -2.804427481351012830e-07 9.461743957217549905e-07
6.675000000000000000e+03 7.832325744628906250e+01 -3.961436080932617188e+01 2.781030535697937012e-02 1.012715244293212891e+01 3.046488761901855469e+00 3.087436966598033905e-02
6.676000000000000000e+03 7.785238647460937500e+01 -3.954713821411132812e+01 3.129102289676666260e-02 9.861277580261230469e+00 2.967770576477050781e+00 -2.318716421723365784e-02
6.677000000000000000e+03 1.265385723114013672e+01 -9.253334045410156250e+00 -1.619696013221982867e-05 8.749711014388594776e-06 -2.234174644399899989e-06 7.169577656895853579e-06
6.678000000000000000e+03 8.296773910522460938e+00 -1.539532852172851562e+01 -4.936536424793303013e-05 8.450379937130492181e-06 -1.227449592988705263e-05 -1.506993885413976386e-05
6.679000000000000000e+03 7.662020874023437500e+01 -4.170693588256835938e+01 1.846577506512403488e-03 9.401568412780761719e+00 2.821024417877197266e+00 8.708028122782707214e-03
6.680000000000000000e+03 4.049826431274414062e+01 1.330615806579589844e+01 4.156580269336700439e-01 1.293467760086059570e+00 5.127377510070800781e-01 3.264421224594116211e-01
6.681000000000000000e+03 9.780172348022460938e+00 -1.044493770599365234e+01 -3.589033804018981755e-05 1.339344271400477737e-05 -6.749068234057631344e-06 -1.076160600632647402e-07
6.682000000000000000e+03 9.187464714050292969e+00 -1.033845520019531250e+01 3.666165866889059544e-05 -1.270721986657008529e-05 7.186331458797212690e-06 4.256391093804268166e-06
6.683000000000000000e+03 7.028319549560546875e+01 -1.210582637786865234e+01 2.889226198196411133e+00 1.522599124908447266e+01 5.434565067291259766e+00 -4.336325451731681824e-02
6.684000000000000000e+03 3.214272308349609375e+01 -3.769692611694335938e+01 -7.681291084736585617e-03 -2.415500953793525696e-02 -9.550890885293483734e-03 -1.752210967242717743e-02
6.685000000000000000e+03 5.947048664093017578e+00 -3.605274200439453125e+01 -8.437114593107253313e-05 7.716797990724444389e-04 2.061925915768370032e-04 6.786808371543884277e-04
6.686000000000000000e+03 2.706980705261230469e+01 9.664015769958496094e+00 3.752822056412696838e-03 -4.743909835815429688e-01 -1.411914527416229248e-01 5.776050090789794922e-01
6.687000000000000000e+03 7.824407958984375000e+01 3.766658782958984375e+01 8.012495003640651703e-03 6.492538928985595703e+00 1.950165390968322754e+00 -3.984480723738670349e-02
6.688000000000000000e+03 3.942684173583984375e+01 -3.435406494140625000e+01 -8.907876908779144287e-02 -6.043067201972007751e-02 -4.485283046960830688e-02 -1.112766936421394348e-01
6.689000000000000000e+03 5.106753921508789062e+01 4.346130847930908203e+00 1.654106378555297852e-01 2.626149654388427734e-01 1.284076869487762451e-01 2.571317851543426514e-01
6.690000000000000000e+03 7.798056030273437500e+01 -3.894808578491210938e+01 -7.092630490660667419e-03 9.942644119262695312e+00 2.980665445327758789e+00 9.297608397901058197e-03
6.691000000000000000e+03 7.533238220214843750e+01 -3.763296890258789062e+01 -9.150437079370021820e-03 8.941664695739746094e+00 2.679754257202148438e+00 2.817635796964168549e-02
6.692000000000000000e+03 5.752320480346679688e+01 1.006833648681640625e+01 3.967696428298950195e-01 3.046968698501586914e+00 1.033121585845947266e+00 -4.158208072185516357e-01
6.693000000000000000e+03 1.091905975341796875e+01 -9.038101196289062500e+00 1.476381567044882104e-05 1.035145487549016252e-05 7.534581527579575777e-06 -1.994005515371100046e-06
6.694000000000000000e+03 7.980701446533203125e+00 -9.435050010681152344e+00 -2.818712346197571605e-05 8.176344636012800038e-06 -6.003233920637285337e-06 9.517152221860669670e-08
6.695000000000000000e+03 5.533854675292968750e+01 1.716791915893554688e+01 4.773659110069274902e-01 3.167666435241699219e+00 1.093509674072265625e+00 -8.267923593521118164e-01
6.696000000000000000e+03 3.682809448242187500e+01 -1.488594913482666016e+01 -6.096153259277343750e-01 1.024290695786476135e-01 -1.521558761596679688e-01 1.353547275066375732e-01
6.697000000000000000e+03 2.748169708251953125e+01 7.909485340118408203e+00 2.697816193103790283e-01 -2.943067848682403564e-01 -7.357548922300338745e-03 5.609669089317321777e-01
6.698000000000000000e+03 1.906937789916992188e+01 1.028451800346374512e+00 -5.200710892677307129e-01 -6.782521009445190430e-01 -3.594969511032104492e-01 8.664718866348266602e-01
6.699000000000000000e+03 1.954518699645996094e+01 1.703099608421325684e+00 -4.140735864639282227e-01 -4.804493188858032227e-01 -2.683568894863128662e-01 8.244394063949584961e-01
6.700000000000000000e+03 2.673506927490234375e+01 -3.412157821655273438e+01 3.056642832234501839e-03 -2.404366852715611458e-03 1.956828346010297537e-04 1.291198888793587685e-03
6.701000000000000000e+03 2.762279510498046875e+01 -3.377767181396484375e+01 2.413065172731876373e-03 -1.490104710683226585e-03 2.768881095107644796e-04 4.896221798844635487e-04
6.702000000000000000e+03 4.613385009765625000e+01 3.298881292343139648e+00 -1.116667389869689941e-01 2.608712911605834961e-01 4.476136714220046997e-02 8.009313046932220459e-02
6.703000000000000000e+03 2.183242225646972656e+01 2.719508409500122070e+00 -1.050156429409980774e-01 1.373745203018188477e-01 9.707662276923656464e-03 4.124167263507843018e-01
6.704000000000000000e+03 5.280666351318359375e+01 2.110164833068847656e+01 4.722835421562194824e-01 1.497047543525695801e+00 5.907993316650390625e-01 -7.560971379280090332e-01
6.705000000000000000e+03 5.939488220214843750e+01 -6.648654937744140625e+00 -2.306367158889770508e+00 -3.215210884809494019e-02 -7.015557885169982910e-01 -5.315857529640197754e-01
6.706000000000000000e+03 5.189889144897460938e+01 2.163268852233886719e+01 5.590738058090209961e-01 1.216888785362243652e+00 5.327888131141662598e-01 -5.510807037353515625e-01
6.707000000000000000e+03 1.239084720611572266e+01 1.430486011505126953e+01 4.986274242401123047e-01 -5.102766156196594238e-01 -3.494761418551206589e-03 5.582093000411987305e-01
6.708000000000000000e+03 1.510890674591064453e+01 2.423709630966186523e+00 -4.438742399215698242e-01 -9.818695783615112305e-01 -4.277231395244598389e-01 7.686288952827453613e-01
6.709000000000000000e+03 7.496530532836914062e+00 -1.475390243530273438e+01 -1.073078819899819791e-04 -1.071361748472554609e-05 -3.540645047905854881e-05 2.285258960910141468e-05
6.710000000000000000e+03 1.931174468994140625e+01 -1.215589332580566406e+01 1.471910650252539199e-06 4.120317498745862395e-06 1.677668365118734073e-06 3.655436842109338613e-08
6.711000000000000000e+03 4.853200912475585938e+01 -3.353063201904296875e+01 -2.246180176734924316e-01 -3.288547396659851074e-01 -1.660418212413787842e-01 -3.831744194030761719e-01
6.712000000000000000e+03 2.322114467620849609e+00 4.210836410522460938e+00 -3.950437158346176147e-02 -4.358449578285217285e-02 -2.492666058242321014e-02 3.321496397256851196e-02
6.713000000000000000e+03 1.211299419403076172e+01 -8.611103057861328125e+00 -2.475830569892423227e-06 1.050206446961965412e-05 2.407870169918169267e-06 1.283032702303898986e-06
6.714000000000000000e+03 4.029920578002929688e+01 1.552536964416503906e+01 4.767459332942962646e-01 1.255691766738891602e+00 5.197312831878662109e-01 2.661996781826019287e-01
6.715000000000000000e+03 5.206930160522460938e+01 3.437837219238281250e+01 6.315134763717651367e-01 2.180644989013671875e+00 8.436475396156311035e-01 -1.456947475671768188e-01
6.716000000000000000e+03 4.575795364379882812e+01 2.306690216064453125e+00 -1.879846304655075073e-01 2.929473519325256348e-01 3.148881718516349792e-02 1.290185004472732544e-01
6.717000000000000000e+03 4.798963546752929688e+01 2.316145324707031250e+01 6.383156180381774902e-01 8.462195396423339844e-01 4.453605413436889648e-01 1.417362838983535767e-01
6.718000000000000000e+03 5.400905227661132812e+01 -3.088932228088378906e+01 -5.197793245315551758e-01 -1.064941138029098511e-01 -1.878820210695266724e-01 -3.453491926193237305e-01
6.719000000000000000e+03 5.274599838256835938e+01 -3.128400421142578125e+01 -5.224295258522033691e-01 -2.324254363775253296e-01 -2.264564931392669678e-01 -4.153588116168975830e-01
6.720000000000000000e+03 2.928721427917480469e+01 8.786456108093261719e+00 7.819593697786331177e-02 -1.896316707134246826e-01 -3.343072161078453064e-02 6.521611213684082031e-01
6.721000000000000000e+03 5.609668731689453125e+01 -3.318027877807617188e+01 6.143539026379585266e-02 5.798038840293884277e-01 1.923717856407165527e-01 1.873458176851272583e-02
6.722000000000000000e+03 2.124545097351074219e+01 -3.147741889953613281e+01 2.971091773360967636e-03 -1.022254466079175472e-03 5.846511339768767357e-04 1.432706601917743683e-03
6.723000000000000000e+03 6.071764373779296875e+01 -3.828795194625854492e+00 -9.899852871894836426e-01 3.574578166007995605e-01 -1.897582411766052246e-01 -6.396014094352722168e-01
6.724000000000000000e+03 7.735139465332031250e+01 3.494916534423828125e+01 8.153686299920082092e-03 6.418077945709228516e+00 1.927869439125061035e+00 -5.582597851753234863e-02
6.725000000000000000e+03 1.173468399047851562e+01 6.303808689117431641e+00 -6.713671088218688965e-01 -6.154334545135498047e-01 -3.860401809215545654e-01 5.176415443420410156e-01
6.726000000000000000e+03 2.666813087463378906e+01 -3.306190490722656250e+01 4.941202234476804733e-03 -8.480686228722333908e-04 1.227940083481371403e-03 1.465994515456259251e-03
6.727000000000000000e+03 5.663896560668945312e+01 1.706654739379882812e+01 5.147669315338134766e-01 3.385512113571166992e+00 1.170083761215209961e+00 -5.501472353935241699e-01
6.728000000000000000e+03 1.204002380371093750e+01 3.444985961914062500e+01 9.297952800989151001e-02 -6.535976529121398926e-01 -1.681854277849197388e-01 1.268152296543121338e-01
6.729000000000000000e+03 7.700745391845703125e+01 -3.467816543579101562e+01 -5.235680937767028809e-02 9.556447982788085938e+00 2.851227283477783203e+00 -3.766246140003204346e-02
6.730000000000000000e+03 2.008625221252441406e+01 -2.910632133483886719e+01 3.700935281813144684e-03 -5.861027166247367859e-04 9.344497811980545521e-04 -7.875564915593713522e-05
6.731000000000000000e+03 1.345329761505126953e+01 5.219366073608398438e+00 -6.541380882263183594e-01 -9.575681686401367188e-01 -4.835118949413299561e-01 5.576502680778503418e-01
6.732000000000000000e+03 2.755124664306640625e+01 -9.151307106018066406e+00 -6.197876930236816406e-01 -1.316777020692825317e-01 -2.254396229982376099e-01 4.866744279861450195e-01
6.733000000000000000e+03 1.844077873229980469e+01 2.004022598266601562e+01 2.474505454301834106e-01 7.322095334529876709e-02 9.620144963264465332e-02 5.897422432899475098e-01
6.734000000000000000e+03 4.200349044799804688e+01 6.732522964477539062e+00 -1.783722341060638428e-01 8.002914786338806152e-01 1.865757703781127930e-01 1.317763179540634155e-01
6.735000000000000000e+03 2.017249107360839844e+01 4.438619017601013184e-01 -6.358960866928100586e-01 -4.640160202980041504e-01 -3.299736380577087402e-01 7.243450284004211426e-01
6.736000000000000000e+03 2.009416198730468750e+01 -2.003754824399948120e-01 -7.489774823188781738e-01 -5.783236026763916016e-01 -3.981903493404388428e-01 7.464531660079956055e-01
6.737000000000000000e+03 2.131295394897460938e+01 5.162287354469299316e-01 -6.036930084228515625e-01 -2.494008690118789673e-01 -2.559281587600708008e-01 5.623189806938171387e-01
6.738000000000000000e+03 6.351113319396972656e+00 -1.563404464721679688e+01 1.105767369153909385e-04 2.355264086872921325e-06 3.387960168765857816e-05 2.979965529448236339e-06
6.739000000000000000e+03 5.952291870117187500e+01 -4.917285919189453125e+00 -1.489677786827087402e+00 1.898920238018035889e-01 -3.899357318878173828e-01 -3.512168228626251221e-01
6.740000000000000000e+03 1.214235496520996094e+01 1.993687248229980469e+01 3.112294077873229980e-01 -3.655476570129394531e-01 -1.629547961056232452e-02 2.394197583198547363e-01
6.741000000000000000e+03 1.104888725280761719e+01 2.025899505615234375e+01 2.783220112323760986e-01 -4.823628067970275879e-01 -6.121223419904708862e-02 2.433810383081436157e-01
6.742000000000000000e+03 6.818563461303710938e+00 -9.296818733215332031e+00 -2.235927240690216422e-05 1.544010592624545097e-05 -2.075749762298073620e-06 -5.874331691302359104e-06
6.743000000000000000e+03 5.983788299560546875e+01 1.414682006835937500e+01 6.929081082344055176e-01 3.558423995971679688e+00 1.275399684906005859e+00 -6.702733039855957031e-01
6.744000000000000000e+03 1.114290332794189453e+01 1.646880531311035156e+01 4.594674408435821533e-01 -5.558243989944458008e-01 -2.890709973871707916e-02 4.068885743618011475e-01
6.745000000000000000e+03 1.954056358337402344e+01 6.406395435333251953e-01 -5.879124402999877930e-01 -5.987365245819091797e-01 -3.559947013854980469e-01 8.102782368659973145e-01
6.746000000000000000e+03 5.210223388671875000e+01 2.477839279174804688e+01 6.378539204597473145e-01 1.700059533119201660e+00 7.013740539550781250e-01 -4.077423512935638428e-01
6.747000000000000000e+03 3.709676361083984375e+01 1.364164161682128906e+01 2.867355048656463623e-01 6.968875527381896973e-01 2.950869202613830566e-01 3.625634014606475830e-01
6.748000000000000000e+03 6.804845428466796875e+01 -1.867734670639038086e+00 -1.494209051132202148e+00 7.303824424743652344e+00 1.742884635925292969e+00 -2.323235034942626953e+00
6.749000000000000000e+03 1.226794528961181641e+01 3.012366485595703125e+01 7.525696605443954468e-02 -5.485211610794067383e-01 -1.419792473316192627e-01 1.916384845972061157e-01
6.750000000000000000e+03 7.048087596893310547e+00 -2.844321060180664062e+01 1.095045372494496405e-04 1.041608902596635744e-05 3.597618706407956779e-05 4.080517683178186417e-04
6.751000000000000000e+03 1.612311553955078125e+01 -8.590982437133789062e+00 9.220895663020201027e-06 1.309142589889233932e-07 2.805543090289575048e-06 -8.163533493643626571e-07
6.752000000000000000e+03 3.686555862426757812e+00 -1.347697448730468750e+01 3.564665894373320043e-05 2.132913687091786414e-05 1.709273965389002115e-05 1.487438294134335592e-05
6.753000000000000000e+03 5.342228317260742188e+01 2.521487617492675781e+01 5.778422951698303223e-01 2.020594596862792969e+00 7.795310616493225098e-01 -5.190090537071228027e-01
6.754000000000000000e+03 3.805131912231445312e+01 7.410980224609375000e+00 -6.816543638706207275e-02 6.370168924331665039e-01 1.706554293632507324e-01 4.633516669273376465e-01
6.755000000000000000e+03 1.118528079986572266e+01 1.885670852661132812e+01 3.625803589820861816e-01 -4.853897988796234131e-01 -3.684283420443534851e-02 2.764289379119873047e-01
6.756000000000000000e+03 5.874298477172851562e+01 2.108894538879394531e+01 3.052368760108947754e-01 3.446780204772949219e+00 1.125605106353759766e+00 -5.665256977081298828e-01
6.757000000000000000e+03 5.312854003906250000e+01 5.021045684814453125e+00 2.164721190929412842e-01 6.444710493087768555e-01 2.582829594612121582e-01 3.182253539562225342e-01
6.758000000000000000e+03 3.776768112182617188e+01 8.861442565917968750e+00 3.513150662183761597e-02 6.648049950599670410e-01 2.099809497594833374e-01 4.906972646713256836e-01
6.759000000000000000e+03 2.176076889038085938e+01 2.110475921630859375e+01 3.303686082363128662e-01 -2.977556586265563965e-01 9.783887304365634918e-03 6.182867884635925293e-01
6.760000000000000000e+03 4.128849506378173828e+00 -2.999915313720703125e+01 -1.520414934930158779e-05 3.072454419452697039e-04 8.761238859733566642e-05 4.704560851678252220e-04
6.761000000000000000e+03 5.099395751953125000e+01 1.097069144248962402e+00 -1.427662074565887451e-01 3.392104804515838623e-01 5.893328785896301270e-02 3.039623200893402100e-01
6.762000000000000000e+03 2.436040687561035156e+01 1.995560455322265625e+01 3.452003300189971924e-01 -5.287400484085083008e-01 -5.506192147731781006e-02 4.793542623519897461e-01
6.763000000000000000e+03 4.180666732788085938e+01 5.897181034088134766e+00 -2.102180868387222290e-01 7.167583107948303223e-01 1.519620716571807861e-01 1.590251177549362183e-01
6.764000000000000000e+03 2.133972167968750000e+01 2.537034797668457031e+01 2.894039154052734375e-01 -2.200034409761428833e-01 2.082014456391334534e-02 4.731252193450927734e-01
6.765000000000000000e+03 6.208324050903320312e+01 -2.744317626953125000e+01 -4.745308458805084229e-01 2.593034029006958008e+00 6.355509757995605469e-01 6.161960363388061523e-01
6.766000000000000000e+03 1.045576477050781250e+01 1.978782272338867188e+01 2.941696941852569580e-01 -5.430174469947814941e-01 -7.465433329343795776e-02 2.576957941055297852e-01
6.767000000000000000e+03 1.095722579956054688e+01 1.933673667907714844e+01 3.318712115287780762e-01 -4.996974766254425049e-01 -5.034788697957992554e-02 2.645581364631652832e-01
6.768000000000000000e+03 3.757921600341796875e+01 1.091206741333007812e+01 1.703812032938003540e-01 7.022008299827575684e-01 2.617745995521545410e-01 4.730930030345916748e-01
6.769000000000000000e+03 7.293045806884765625e+01 -1.420750236511230469e+01 1.314368367195129395e+00 1.061909675598144531e+01 3.580039501190185547e+00 -1.149208426475524902e+00
6.770000000000000000e+03 2.890381050109863281e+01 -8.649969100952148438e+00 -6.645596027374267578e-01 -1.442131120711565018e-02 -2.036942690610885620e-01 4.547760784626007080e-01
6.771000000000000000e+03 3.969233322143554688e+01 2.340329742431640625e+01 3.182215690612792969e-01 9.028288125991821289e-01 3.663150966167449951e-01 2.298167198896408081e-01
6.772000000000000000e+03 2.736669158935546875e+01 -7.668369293212890625e+00 -7.133135795593261719e-01 -1.013768687844276428e-01 -2.444071322679519653e-01 4.996418356895446777e-01
6.773000000000000000e+03 3.787705230712890625e+01 9.468974113464355469e+00 7.889168709516525269e-02 6.932132840156555176e-01 2.316315025091171265e-01 4.897060990333557129e-01
6.774000000000000000e+03 5.805970764160156250e+01 2.169581794738769531e+01 2.977572381496429443e-01 3.242998600006103516e+00 1.062226772308349609e+00 -5.992043018341064453e-01
6.775000000000000000e+03 5.843920516967773438e+01 -3.739594697952270508e+00 -1.012665033340454102e+00 4.229908883571624756e-01 -1.769022345542907715e-01 -1.614914387464523315e-01
6.776000000000000000e+03 5.049100494384765625e+01 5.189551115036010742e-01 -2.061819732189178467e-01 3.218167424201965332e-01 3.469042852520942688e-02 3.011792600154876709e-01
6.777000000000000000e+03 3.218717575073242188e+01 1.870262718200683594e+01 2.090005427598953247e-01 1.491679102182388306e-01 1.074505373835563660e-01 1.717296838760375977e-01
6.778000000000000000e+03 6.516333103179931641e+00 -2.076305007934570312e+01 -8.126851025735959411e-05 3.097610897384583950e-05 -1.508771947555942461e-05 -3.870745058520697057e-05
6.779000000000000000e+03 3.011095237731933594e+01 -1.008425235748291016e+01 -6.078239679336547852e-01 2.022203430533409119e-02 -1.762805879116058350e-01 4.090871810913085938e-01
6.780000000000000000e+03 2.975453948974609375e+01 -8.649236679077148438e+00 -6.661867499351501465e-01 3.756482526659965515e-02 -1.885865777730941772e-01 4.308609664440155029e-01
6.781000000000000000e+03 2.942708778381347656e+01 -5.610195994377136230e-01 -4.368049204349517822e-01 1.094750314950942993e-01 -9.819897264242172241e-02 2.717647850513458252e-01
6.782000000000000000e+03 6.006202697753906250e+01 1.957867050170898438e+01 3.894198834896087646e-01 3.707636117935180664e+00 1.229116797447204590e+00 -5.271474719047546387e-01
6.783000000000000000e+03 6.883224487304687500e+01 -1.871332898736000061e-02 -1.267834663391113281e+00 7.158400058746337891e+00 1.767169713973999023e+00 -1.665475845336914062e+00
6.784000000000000000e+03 4.790948867797851562e+01 1.833538055419921875e+00 -1.249531060457229614e-01 2.265885621309280396e-01 3.049063682556152344e-02 1.983843147754669189e-01
6.785000000000000000e+03 3.705538749694824219e+00 -2.902269935607910156e+01 1.098051725421100855e-04 2.916295197792351246e-04 1.204304135171696544e-04 3.457521961536258459e-04
6.786000000000000000e+03 7.387258052825927734e+00 8.086431503295898438e+00 -2.933119535446166992e-01 -3.117366731166839600e-01 -1.815145909786224365e-01 4.827390313148498535e-01
6.787000000000000000e+03 3.635923385620117188e+01 6.993811130523681641e+00 -6.170776113867759705e-02 4.670282304286956787e-01 1.215961426496505737e-01 5.114670991897583008e-01
6.788000000000000000e+03 5.430870437622070312e+01 3.098801374435424805e+00 7.142691314220428467e-02 8.288105130195617676e-01 2.700712382793426514e-01 2.289849817752838135e-01
6.789000000000000000e+03 4.239605331420898438e+01 -1.392677402496337891e+01 -8.112826347351074219e-01 1.365202963352203369e-01 -2.024286985397338867e-01 -1.020701369270682335e-03
6.790000000000000000e+03 2.360522079467773438e+01 -6.940043568611145020e-01 -6.899314522743225098e-01 -9.561693668365478516e-02 -2.356645166873931885e-01 3.832545876502990723e-01
6.791000000000000000e+03 7.158542633056640625e+01 2.497154235839843750e+01 1.077855229377746582e-01 5.779411315917968750e+00 1.766158938407897949e+00 -3.606823980808258057e-01
6.792000000000000000e+03 4.472643852233886719e+00 -1.849612045288085938e+01 -4.939237260259687901e-05 4.166692087892442942e-05 -2.317635335202794522e-06 -4.569486918626353145e-05
6.793000000000000000e+03 5.015972614288330078e+00 -6.269373893737792969e+00 -1.822810645535355434e-06 1.086514839698793367e-05 2.712701416385243647e-06 -1.917662075356929563e-06
6.794000000000000000e+03 9.379323959350585938e+00 1.477897071838378906e+01 2.866405844688415527e-01 -6.518713235855102539e-01 -1.095692291855812073e-01 5.557973980903625488e-01
6.795000000000000000e+03 6.091898345947265625e+01 1.278918981552124023e+00 3.693754598498344421e-02 2.020533084869384766e+00 6.172411441802978516e-01 -9.899870157241821289e-01
6.796000000000000000e+03 6.134409332275390625e+01 1.923035264015197754e+00 2.953697182238101959e-02 2.350985288619995117e+00 7.141566872596740723e-01 -1.086919426918029785e+00
6.797000000000000000e+03 6.156282806396484375e+01 2.105617904663085938e+01 3.434458076953887939e-01 3.959680080413818359e+00 1.290937781333923340e+00 -5.359985232353210449e-01
6.798000000000000000e+03 3.206994247436523438e+01 -1.150798606872558594e+01 -5.895502567291259766e-01 7.463315874338150024e-02 -1.544751375913619995e-01 3.355017006397247314e-01
6.799000000000000000e+03 3.376285171508789062e+01 1.653190803527832031e+01 1.735415458679199219e-01 3.333536088466644287e-01 1.520685404539108276e-01 2.455234229564666748e-01
6.800000000000000000e+03 3.000383377075195312e+01 -1.427138447761535645e+00 -5.072702765464782715e-01 1.370222568511962891e-01 -1.110744029283523560e-01 2.954690754413604736e-01
6.801000000000000000e+03 6.309631347656250000e+01 1.730322003364562988e+00 -6.787369400262832642e-02 3.061107873916625977e+00 8.979702591896057129e-01 -1.514219284057617188e+00
6.802000000000000000e+03 7.623289489746093750e+01 -7.211574554443359375e+00 3.500808179378509521e-01 7.700424194335937500e+00 2.415151596069335938e+00 1.251173496246337891e+00
6.803000000000000000e+03 4.309176921844482422e+00 -2.144568443298339844e+01 -4.527294731815345585e-05 5.879616765014361590e-06 -1.181799871119437739e-05 6.210632272996008396e-05
6.804000000000000000e+03 5.164510726928710938e+00 -2.096189308166503906e+01 8.795903704594820738e-05 8.879944653017446399e-05 5.302754652802832425e-05 2.475642759236507118e-05
6.805000000000000000e+03 3.078816604614257812e+01 1.964309692382812500e+01 2.525584697723388672e-01 2.100467868149280548e-02 8.206894248723983765e-02 1.760734170675277710e-01
6.806000000000000000e+03 2.497583770751953125e+01 -7.136059999465942383e-01 -6.251308321952819824e-01 -1.482749544084072113e-02 -1.919874995946884155e-01 3.016436994075775146e-01
6.807000000000000000e+03 5.581241226196289062e+01 -4.755236148834228516e+00 -1.205477356910705566e+00 3.588827252388000488e-01 -2.539784014225006104e-01 6.655137240886688232e-02
6.808000000000000000e+03 7.508121490478515625e+01 -4.746377468109130859e+00 -2.220913618803024292e-01 8.817175865173339844e+00 2.578525304794311523e+00 1.439546585083007812e+00
6.809000000000000000e+03 5.410949707031250000e+01 -5.938481807708740234e+00 -1.324497342109680176e+00 3.152320981025695801e-01 -3.027795851230621338e-01 5.070054531097412109e-02
6.810000000000000000e+03 3.160945510864257812e+01 1.821497678756713867e+00 -2.064565569162368774e-01 1.175846010446548462e-01 -2.666158601641654968e-02 3.448008596897125244e-01
6.811000000000000000e+03 5.978589630126953125e+01 2.345500946044921875e+00 7.465597987174987793e-02 1.925619482994079590e+00 6.000826358795166016e-01 -7.104547023773193359e-01
6.812000000000000000e+03 6.367598342895507812e+01 1.585330200195312500e+01 4.747076034545898438e-01 4.251839637756347656e+00 1.417964220046997070e+00 -6.905657649040222168e-01
6.813000000000000000e+03 2.543824577331542969e+01 -1.132411956787109375e+00 -6.502336859703063965e-01 -6.131767295300960541e-04 -1.952540576457977295e-01 3.101690113544464111e-01
6.814000000000000000e+03 2.992631340026855469e+01 4.287520408630371094e+00 7.937102764844894409e-02 -5.009117722511291504e-02 8.783955127000808716e-03 3.870353996753692627e-01
6.815000000000000000e+03 5.896216964721679688e+01 2.155111074447631836e+00 4.690512269735336304e-02 1.653481125831604004e+00 5.101158618927001953e-01 -5.035994052886962891e-01
6.816000000000000000e+03 5.875417709350585938e+01 2.654887199401855469e+00 7.483931630849838257e-02 1.700070500373840332e+00 5.324729681015014648e-01 -4.677944481372833252e-01
6.817000000000000000e+03 6.867562103271484375e+01 1.537862539291381836e+00 -9.420759677886962891e-01 6.611665248870849609e+00 1.700876832008361816e+00 -1.501884579658508301e+00
6.818000000000000000e+03 3.053544807434082031e+01 -2.273504495620727539e+00 -5.627291798591613770e-01 1.598824709653854370e-01 -1.208540126681327820e-01 3.156508207321166992e-01
6.819000000000000000e+03 3.067446899414062500e+01 -7.780370235443115234e+00 -6.891055107116699219e-01 1.052985638380050659e-01 -1.751420944929122925e-01 4.079446792602539062e-01
6.820000000000000000e+03 4.132611751556396484e+00 2.631328964233398438e+01 2.096515521407127380e-02 -1.121829390525817871e+00 -3.302592933177947998e-01 7.216025888919830322e-02
6.821000000000000000e+03 7.647795677185058594e+00 1.296515274047851562e+01 7.182575762271881104e-02 -5.999842286109924316e-01 -1.584475338459014893e-01 5.871999859809875488e-01
6.822000000000000000e+03 4.782230854034423828e+00 -2.090476989746093750e+01 4.423824793775565922e-05 -4.135918061365373433e-05 8.637204018668853678e-07 2.338201011298224330e-05
6.823000000000000000e+03 7.339673614501953125e+01 1.742656826972961426e+00 -7.904978394508361816e-01 8.032370567321777344e+00 2.172561883926391602e+00 -1.696766167879104614e-01
6.824000000000000000e+03 4.755454540252685547e+00 -2.142910003662109375e+01 7.476803875761106610e-05 1.055499451467767358e-04 5.409539517131634057e-05 3.754380304599180818e-05
6.825000000000000000e+03 5.925072860717773438e+01 2.596018314361572266e+00 8.597104251384735107e-02 1.845950961112976074e+00 5.795766115188598633e-01 -5.934529304504394531e-01
6.826000000000000000e+03 7.186518669128417969e+00 2.201200866699218750e+01 1.297554671764373779e-01 -7.954815626144409180e-01 -1.997178196907043457e-01 1.962897330522537231e-01
6.827000000000000000e+03 5.424218750000000000e+01 -5.027621269226074219e+00 -1.174104452133178711e+00 3.499355018138885498e-01 -2.472506910562515259e-01 1.219974458217620850e-01
6.828000000000000000e+03 6.345888519287109375e+01 5.740152835845947266e+00 6.975021213293075562e-02 3.802655220031738281e+00 1.161721587181091309e+00 -1.231684446334838867e+00
6.829000000000000000e+03 7.006148815155029297e+00 1.316938877105712891e+01 7.535469532012939453e-02 -6.110357642173767090e-01 -1.607043147087097168e-01 5.542956590652465820e-01
6.830000000000000000e+03 2.710802078247070312e+01 -2.470152616500854492e+00 -6.922705769538879395e-01 3.991244360804557800e-02 -1.957074403762817383e-01 3.332118690013885498e-01
6.831000000000000000e+03 3.111236763000488281e+01 4.784605979919433594e+00 3.795014321804046631e-02 5.762373562902212143e-03 1.311375573277473450e-02 4.527712762355804443e-01
6.832000000000000000e+03 2.923407173156738281e+01 -2.612028598785400391e+00 -6.153520941734313965e-01 1.224731951951980591e-01 -1.478636711835861206e-01 3.211241960525512695e-01
6.833000000000000000e+03 7.330101776123046875e+01 -2.329648399353027344e+01 -6.782466173171997070e-01 8.855841636657714844e+00 2.453278541564941406e+00 -8.577254414558410645e-01
6.834000000000000000e+03 7.151286315917968750e+01 -2.351078033447265625e+01 -8.600105643272399902e-01 8.599390029907226562e+00 2.321814060211181641e+00 -4.801558852195739746e-01
6.835000000000000000e+03 6.180987358093261719e+00 1.282465362548828125e+01 3.592058643698692322e-02 -5.897448062896728516e-01 -1.661472767591476440e-01 5.154980421066284180e-01
6.836000000000000000e+03 3.464080429077148438e+01 8.094489097595214844e+00 1.249057054519653320e-02 3.281671702861785889e-01 1.021973192691802979e-01 5.647310614585876465e-01
6.837000000000000000e+03 3.208005905151367188e+01 2.355707645416259766e+00 -1.820110380649566650e-01 1.293191164731979370e-01 -1.580757461488246918e-02 3.706388771533966064e-01
6.838000000000000000e+03 3.144800376892089844e+01 -7.950967311859130859e+00 -6.845336556434631348e-01 1.307685226202011108e-01 -1.661295443773269653e-01 3.918192088603973389e-01
6.839000000000000000e+03 4.132555770874023438e+01 -2.159899473190307617e+00 -5.545990467071533203e-01 3.769726753234863281e-01 -5.328790470957756042e-02 2.715471982955932617e-01
6.840000000000000000e+03 5.151877880096435547e+00 -2.146970367431640625e+01 7.207042654044926167e-05 -4.891009302809834480e-05 6.948100235604215413e-06 6.857047992525622249e-05
6.841000000000000000e+03 7.136270141601562500e+01 -2.286342811584472656e+01 -8.663280606269836426e-01 8.738774299621582031e+00 2.361733913421630859e+00 -5.142450928688049316e-01
6.842000000000000000e+03 7.393951416015625000e+01 2.078491210937500000e+00 -7.050690054893493652e-01 8.045020103454589844e+00 2.201985359191894531e+00 -1.003348827362060547e-01
6.843000000000000000e+03 3.606331253051757812e+01 -9.070086479187011719e+00 -7.049092650413513184e-01 2.312892824411392212e-01 -1.420859992504119873e-01 2.909760177135467529e-01
6.844000000000000000e+03 3.408783721923828125e+01 8.443145751953125000e+00 2.480096556246280670e-02 2.709189355373382568e-01 8.871597051620483398e-02 5.736177563667297363e-01
6.845000000000000000e+03 3.440505981445312500e+01 7.607200622558593750e+00 2.066231798380613327e-03 3.046576678752899170e-01 9.201716631650924683e-02 5.655263662338256836e-01
6.846000000000000000e+03 2.806023979187011719e+01 -3.075441598892211914e+00 -6.932899355888366699e-01 7.121166586875915527e-02 -1.866234689950942993e-01 3.444000780582427979e-01
6.847000000000000000e+03 7.370620727539062500e+01 2.184921264648437500e+01 8.017632365226745605e-02 6.261363029479980469e+00 1.902461767196655273e+00 -3.541879951953887939e-01
6.848000000000000000e+03 3.967894744873046875e+01 3.866348981857299805e+00 -2.817373871803283691e-01 5.514121651649475098e-01 8.090243488550186157e-02 3.079789578914642334e-01
6.849000000000000000e+03 5.694721221923828125e+01 3.756801486015319824e-01 -1.700109392404556274e-01 9.665309190750122070e-01 2.389559894800186157e-01 -7.251302897930145264e-02
6.850000000000000000e+03 3.812573242187500000e+01 2.787642002105712891e+00 -3.081979155540466309e-01 4.513340592384338379e-01 4.294083639979362488e-02 3.601604700088500977e-01
6.851000000000000000e+03 6.429360961914062500e+01 1.332955074310302734e+01 4.254547059535980225e-01 4.338044643402099609e+00 1.429049730300903320e+00 -8.388355374336242676e-01
6.852000000000000000e+03 6.887079620361328125e+01 3.657954692840576172e+00 -6.255722045898437500e-01 6.265526294708251953e+00 1.691986203193664551e+00 -1.281770586967468262e+00
6.853000000000000000e+03 6.775146484375000000e+01 3.158062934875488281e+00 -5.730836987495422363e-01 5.794929027557373047e+00 1.566553592681884766e+00 -1.485136747360229492e+00
6.854000000000000000e+03 5.378803253173828125e+01 -3.626605749130249023e+00 -8.734045028686523438e-01 4.046112596988677979e-01 -1.406379640102386475e-01 2.179522961378097534e-01
6.855000000000000000e+03 5.458972167968750000e+01 -2.792373657226562500e+00 -7.321329712867736816e-01 4.575884640216827393e-01 -8.236335963010787964e-02 2.029239088296890259e-01
6.856000000000000000e+03 5.704640960693359375e+01 -4.583318829536437988e-01 -2.906112372875213623e-01 8.608261942863464355e-01 1.710644960403442383e-01 -5.683510005474090576e-02
6.857000000000000000e+03 5.499434471130371094e+00 1.814193916320800781e+01 1.275593042373657227e-01 -8.272413015365600586e-01 -2.099045962095260620e-01 2.977101206779479980e-01
6.858000000000000000e+03 7.485266113281250000e+01 1.312624961137771606e-01 -6.659097671508789062e-01 8.390087127685546875e+00 2.317253112792968750e+00 4.441338777542114258e-01
6.859000000000000000e+03 7.104893493652343750e+01 2.982689380645751953e+00 -8.062662482261657715e-01 7.279273986816406250e+00 1.941902279853820801e+00 -8.123770952224731445e-01
6.860000000000000000e+03 6.630665588378906250e+01 1.723316764831542969e+01 3.354831635951995850e-01 4.808901309967041016e+00 1.543315410614013672e+00 -6.477293372154235840e-01
6.861000000000000000e+03 4.584614562988281250e+01 -3.117332935333251953e+00 -6.128968000411987305e-01 3.322088718414306641e-01 -8.420637249946594238e-02 2.512265145778656006e-01
6.862000000000000000e+03 4.642232513427734375e+01 -3.585202455520629883e+00 -6.497054696083068848e-01 3.315132856369018555e-01 -9.545766562223434448e-02 2.510091960430145264e-01
6.863000000000000000e+03 3.425218582153320312e+01 3.837414503097534180e+00 -1.527989506721496582e-01 2.422167807817459106e-01 2.682534977793693542e-02 4.496635794639587402e-01
6.864000000000000000e+03 7.322554016113281250e+01 2.130199241638183594e+01 8.868595957756042480e-02 6.181977748870849609e+00 1.881199121475219727e+00 -3.786961734294891357e-01
6.865000000000000000e+03 7.033290100097656250e+01 -2.264752769470214844e+01 -9.169855713844299316e-01 8.514822959899902344e+00 2.279351234436035156e+00 -1.893611997365951538e-01
6.866000000000000000e+03 5.625783443450927734e+00 1.919133567810058594e+01 1.265068501234054565e-01 -8.488859534263610840e-01 -2.167137265205383301e-01 2.608622610569000244e-01
6.867000000000000000e+03 6.615244865417480469e+00 1.905380249023437500e+01 1.687711030244827271e-01 -7.921682000160217285e-01 -1.870191395282745361e-01 2.893545627593994141e-01
6.868000000000000000e+03 7.290040588378906250e+01 5.714370727539062500e+00 -3.821076750755310059e-01 7.230659961700439453e+00 2.054565668106079102e+00 -5.646763443946838379e-01
6.869000000000000000e+03 6.678817749023437500e+01 8.106043815612792969e+00 1.212793681770563126e-02 5.058823108673095703e+00 1.521285295486450195e+00 -1.127788424491882324e+00
6.870000000000000000e+03 6.647043609619140625e+01 7.490323066711425781e+00 -2.943061292171478271e-02 4.947917938232421875e+00 1.475546240806579590e+00 -1.187316775321960449e+00
6.871000000000000000e+03 3.456709289550781250e+01 2.638033390045166016e+00 -2.326317727565765381e-01 2.654474079608917236e-01 9.844695217907428741e-03 4.121027588844299316e-01
6.872000000000000000e+03 5.241117000579833984e+00 1.883313941955566406e+01 1.136725246906280518e-01 -8.627842664718627930e-01 -2.247335314750671387e-01 2.625611722469329834e-01
6.873000000000000000e+03 4.007794952392578125e+01 -1.024683094024658203e+01 -7.830209136009216309e-01 2.467261850833892822e-01 -1.608884185552597046e-01 1.794324070215225220e-01
6.874000000000000000e+03 5.559968471527099609e+00 1.293102264404296875e+01 2.904827147722244263e-02 -5.906931161880493164e-01 -1.684934496879577637e-01 4.757455289363861084e-01
6.875000000000000000e+03 5.162319946289062500e+01 -4.808492660522460938e+00 -9.551975727081298828e-01 3.526141047477722168e-01 -1.807750463485717773e-01 2.060219347476959229e-01
6.876000000000000000e+03 2.942934989929199219e+01 -4.101815700531005859e+00 -6.870302557945251465e-01 1.191421523690223694e-01 -1.703664213418960571e-01 3.645192980766296387e-01
6.877000000000000000e+03 4.632180023193359375e+01 -4.074936389923095703e+00 -6.989223361015319824e-01 3.316445052623748779e-01 -1.101833507418632507e-01 2.426705807447433472e-01
6.878000000000000000e+03 6.720471191406250000e+01 1.026910305023193359e+01 1.285701692104339600e-01 5.139480113983154297e+00 1.580415010452270508e+00 -1.000045657157897949e+00
6.879000000000000000e+03 7.370795440673828125e+01 4.792161464691162109e+00 -4.409912824630737305e-01 7.530674934387207031e+00 2.126905202865600586e+00 -4.005881845951080322e-01
6.880000000000000000e+03 7.396306610107421875e+01 6.459148883819580078e+00 -2.659528255462646484e-01 7.393839836120605469e+00 2.138366222381591797e+00 -4.566619098186492920e-01
6.881000000000000000e+03 7.480375289916992188e+00 2.340509605407714844e+01 1.001474633812904358e-01 -7.862409949302673340e-01 -2.058280706405639648e-01 1.687286198139190674e-01
6.882000000000000000e+03 6.946393585205078125e+01 -2.198962783813476562e+01 -8.988869786262512207e-01 8.506561279296875000e+00 2.282302379608154297e+00 1.255339682102203369e-01
6.883000000000000000e+03 6.701278686523437500e+01 5.609117984771728516e+00 -2.233378887176513672e-01 5.228225231170654297e+00 1.501466274261474609e+00 -1.297765016555786133e+00
6.884000000000000000e+03 3.148299980163574219e+01 -6.677299499511718750e+00 -6.928939819335937500e-01 1.594026982784271240e-01 -1.600473821163177490e-01 3.823146820068359375e-01
6.885000000000000000e+03 3.219849777221679688e+01 -7.270192623138427734e+00 -6.890153884887695312e-01 1.741851717233657837e-01 -1.544490754604339600e-01 3.726587593555450439e-01
6.886000000000000000e+03 3.256510162353515625e+01 -7.121292114257812500e+00 -6.878120303153991699e-01 1.848149448633193970e-01 -1.508991271257400513e-01 3.650391399860382080e-01
6.887000000000000000e+03 4.592776870727539062e+01 -3.698127746582031250e+00 -6.581190824508666992e-01 3.297961950302124023e-01 -9.849686920642852783e-02 2.474896758794784546e-01
6.888000000000000000e+03 4.637933349609375000e+01 -9.001937866210937500e+00 -9.919397234916687012e-01 2.738234698772430420e-01 -2.154348790645599365e-01 6.536983698606491089e-02
6.889000000000000000e+03 7.336611175537109375e+01 2.030657768249511719e+01 9.101125597953796387e-02 6.253825187683105469e+00 1.903450965881347656e+00 -3.982385694980621338e-01
6.890000000000000000e+03 3.306013488769531250e+01 -6.646941184997558594e+00 -6.861643195152282715e-01 2.069654017686843872e-01 -1.437596678733825684e-01 3.571852147579193115e-01
6.891000000000000000e+03 6.512303161621093750e+01 1.271382617950439453e+01 3.607478737831115723e-01 4.545302867889404297e+00 1.471815228462219238e+00 -8.839540481567382812e-01
6.892000000000000000e+03 6.830519104003906250e+01 4.673584461212158203e+00 -4.386112689971923828e-01 5.866882324218750000e+00 1.628481388092041016e+00 -1.279216289520263672e+00
6.893000000000000000e+03 6.786405181884765625e+01 8.112497329711914062e+00 -5.764195695519447327e-02 5.422066688537597656e+00 1.609327435493469238e+00 -1.093924760818481445e+00
6.894000000000000000e+03 6.826943206787109375e+01 9.917214393615722656e+00 5.596557632088661194e-02 5.454870700836181641e+00 1.653250932693481445e+00 -9.768733382225036621e-01
6.895000000000000000e+03 3.230539321899414062e+01 -5.977614879608154297e+00 -6.803567409515380859e-01 1.957475841045379639e-01 -1.453827321529388428e-01 3.645350039005279541e-01
6.896000000000000000e+03 3.316483688354492188e+01 -6.151259422302246094e+00 -6.759693026542663574e-01 2.207615226507186890e-01 -1.365623325109481812e-01 3.524844050407409668e-01
6.897000000000000000e+03 6.735378265380859375e+01 7.726088523864746094e+00 -6.693454086780548096e-02 5.269837856292724609e+00 1.560871005058288574e+00 -1.139363169670104980e+00
6.898000000000000000e+03 3.194345092773437500e+01 -6.851078510284423828e+00 -6.900480389595031738e-01 1.720957756042480469e-01 -1.553856730461120605e-01 3.761282265186309814e-01
6.899000000000000000e+03 6.784304046630859375e+01 4.553652286529541016e+00 -4.266369938850402832e-01 5.668532848358154297e+00 1.572568774223327637e+00 -1.342393040657043457e+00
6.900000000000000000e+03 6.771860504150390625e+01 5.102519512176513672e+00 -3.312986791133880615e-01 5.565575122833251953e+00 1.570282936096191406e+00 -1.295063376426696777e+00
6.901000000000000000e+03 4.159305572509765625e+01 -3.909906625747680664e+00 -6.407203674316406250e-01 3.558221161365509033e-01 -8.546947687864303589e-02 2.641118466854095459e-01
6.902000000000000000e+03 4.666700363159179688e+01 -8.258627891540527344e+00 -9.811594486236572266e-01 2.920756042003631592e-01 -2.067251652479171753e-01 9.726131707429885864e-02
6.903000000000000000e+03 3.248067092895507812e+01 -2.202117681503295898e+00 -5.364437699317932129e-01 2.159632444381713867e-01 -9.614416211843490601e-02 3.293321132659912109e-01
6.904000000000000000e+03 3.890419387817382812e+01 -5.543232917785644531e+00 -6.853233575820922852e-01 3.261710703372955322e-01 -1.077456846833229065e-01 2.827047407627105713e-01
6.905000000000000000e+03 6.810455322265625000e+01 7.222814559936523438e+00 -1.482011824846267700e-01 5.560842514038085938e+00 1.623792409896850586e+00 -1.132258415222167969e+00
6.906000000000000000e+03 6.806582641601562500e+01 6.782081127166748047e+00 -2.019053101539611816e-01 5.558998584747314453e+00 1.607128024101257324e+00 -1.173874974250793457e+00
6.907000000000000000e+03 6.853022003173828125e+01 1.374828720092773438e+01 2.115812152624130249e-01 5.377880573272705078e+00 1.676838636398315430e+00 -7.877717614173889160e-01
6.908000000000000000e+03 7.183813476562500000e+01 1.379324817657470703e+01 8.874633163213729858e-02 6.214673042297363281e+00 1.891025900840759277e+00 -6.595529913902282715e-01
6.909000000000000000e+03 4.138715744018554688e+01 -5.378589630126953125e+00 -7.094995379447937012e-01 3.384287059307098389e-01 -1.113212406635284424e-01 2.544356584548950195e-01
6.910000000000000000e+03 4.225247573852539062e+01 -5.898693084716796875e+00 -7.413175106048583984e-01 3.331667184829711914e-01 -1.224452331662178040e-01 2.379810065031051636e-01
6.911000000000000000e+03 4.295912551879882812e+01 -5.993982791900634766e+00 -7.574385404586791992e-01 3.345534503459930420e-01 -1.268655210733413696e-01 2.256242185831069946e-01
6.912000000000000000e+03 4.278097152709960938e+01 -6.549280643463134766e+00 -7.777392268180847168e-01 3.259395062923431396e-01 -1.355399191379547119e-01 2.201865464448928833e-01
6.913000000000000000e+03 4.697284317016601562e+01 -7.240385532379150391e+00 -9.451416134834289551e-01 3.103877604007720947e-01 -1.904261559247970581e-01 1.376910209655761719e-01
6.914000000000000000e+03 3.548102569580078125e+01 -7.172495126724243164e-01 -4.595461487770080566e-01 3.035320937633514404e-01 -4.680421203374862671e-02 3.433834314346313477e-01
6.915000000000000000e+03 7.190122985839843750e+01 7.047259807586669922e+00 -2.825130820274353027e-01 6.794881820678710938e+00 1.953710675239562988e+00 -7.324225306510925293e-01
6.916000000000000000e+03 3.943500518798828125e+01 -5.768291473388671875e+00 -6.975871920585632324e-01 3.276710808277130127e-01 -1.109748259186744690e-01 2.729323506355285645e-01
6.917000000000000000e+03 4.633515167236328125e+01 -6.880988597869873047e+00 -8.975303173065185547e-01 3.166604638099670410e-01 -1.742609590291976929e-01 1.610296964645385742e-01
6.918000000000000000e+03 7.306521606445312500e+01 1.524703502655029297e+01 8.287535607814788818e-02 6.453339099884033203e+00 1.960864424705505371e+00 -5.357225537300109863e-01
6.919000000000000000e+03 3.726221466064453125e+01 -4.290283203125000000e+00 -6.330204010009765625e-01 3.211743533611297607e-01 -9.355381876230239868e-02 3.110758960247039795e-01
6.920000000000000000e+03 6.894210815429687500e+01 7.986684799194335938e+00 -1.268204003572463989e-01 5.785531520843505859e+00 1.697613358497619629e+00 -1.027867555618286133e+00
6.921000000000000000e+03 4.305350112915039062e+01 -7.165704727172851562e+00 -8.073899149894714355e-01 3.146046102046966553e-01 -1.478355824947357178e-01 2.003292739391326904e-01
6.922000000000000000e+03 6.864831542968750000e+01 6.420762538909912109e+00 -2.630853354930877686e-01 5.819703102111816406e+00 1.666985392570495605e+00 -1.121942162513732910e+00
6.923000000000000000e+03 7.002778625488281250e+01 6.944969177246093750e+00 -2.707957625389099121e-01 6.228183746337890625e+00 1.787216305732727051e+00 -9.782360792160034180e-01
6.924000000000000000e+03 7.266868591308593750e+01 1.487817764282226562e+01 8.630897104740142822e-02 6.374917507171630859e+00 1.938367962837219238e+00 -5.759642124176025391e-01
6.925000000000000000e+03 3.488814544677734375e+01 -1.708534836769104004e+00 -5.079563856124877930e-01 2.869997918605804443e-01 -6.628698110580444336e-02 3.374775946140289307e-01
6.926000000000000000e+03 4.603719329833984375e+01 -7.657938003540039062e+00 -9.234300851821899414e-01 3.045520782470703125e-01 -1.856634169816970825e-01 1.378066092729568481e-01
6.927000000000000000e+03 7.048962402343750000e+01 7.321462631225585938e+00 -2.452419549226760864e-01 6.312618732452392578e+00 1.820213079452514648e+00 -9.135411381721496582e-01
6.928000000000000000e+03 7.038825988769531250e+01 9.729104995727539062e+00 -4.376085475087165833e-02 6.080790996551513672e+00 1.811108946800231934e+00 -8.574058413505554199e-01
6.929000000000000000e+03 7.154595947265625000e+01 1.055572128295898438e+01 -2.017286419868469238e-02 6.346603393554687500e+00 1.897929191589355469e+00 -7.447103857994079590e-01
6.930000000000000000e+03 7.005469512939453125e+01 1.117722129821777344e+01 5.694947391748428345e-02 5.902441024780273438e+00 1.787817120552062988e+00 -8.163723945617675781e-01
6.931000000000000000e+03 1.109471797943115234e+01 -1.421144604682922363e+00 -2.078105126201990061e-06 -1.844155463004426565e-06 -1.176678210867976304e-06 -1.369595111100352369e-06
6.932000000000000000e+03 1.178201866149902344e+01 -7.772919535636901855e-01 6.978737587814975996e-07 -7.969663784024305642e-06 -2.181536956413765438e-06 -1.806201794352091383e-06
6.933000000000000000e+03 1.027668380737304688e+01 -1.233754158020019531e+00 3.267515239713247865e-06 3.090443669861997478e-06 1.907387741084676236e-06 3.954094722757872660e-07
6.934000000000000000e+03 1.217507266998291016e+01 -1.835481405258178711e+00 9.856335964286699891e-06 1.525591187601094134e-06 3.414578031879500486e-06 1.339866571470338386e-06
6.935000000000000000e+03 1.247813129425048828e+01 -9.059029817581176758e-01 1.271001451641495805e-06 7.899464435467962176e-06 2.751139845713623799e-06 6.112484243203653023e-07
6.936000000000000000e+03 1.107212448120117188e+01 -6.525825858116149902e-01 1.235831177837098949e-06 5.163080913916928694e-06 1.919673650263575837e-06 1.731349698275153060e-06
6.937000000000000000e+03 1.033004570007324219e+01 -4.842335283756256104e-01 -1.004672526505601127e-06 -3.589688276406377554e-06 -1.378308184030174743e-06 -4.574256990963476710e-07
6.938000000000000000e+03 1.178715801239013672e+01 -1.412433624267578125e+00 -2.676522854017093778e-06 -1.151126184595341329e-06 -1.148294700215046760e-06 -3.100176115822250722e-07
6.939000000000000000e+03 1.237739849090576172e+01 -1.387354135513305664e+00 -4.422981874085962772e-06 1.480847231505322270e-06 -8.826403927741921507e-07 1.100327153835678473e-06
6.940000000000000000e+03 8.628964424133300781e+00 -1.127831339836120605e+00 2.337863179491250776e-06 2.467439344400190748e-06 1.441590825379535090e-06 8.351094038516748697e-07
6.941000000000000000e+03 8.708888053894042969e+00 -3.878312706947326660e-01 -5.606851232187182177e-07 -2.787910261758952402e-06 -1.004578621177643072e-06 -6.915744847901805770e-07
6.942000000000000000e+03 9.537460327148437500e+00 -3.891042172908782959e-01 2.690104565772344358e-07 3.183987246302422136e-06 1.035899344969948288e-06 4.312182113608287182e-07
6.943000000000000000e+03 7.879966735839843750e+00 -3.876098990440368652e-01 9.571763257554266602e-07 2.288215455337194726e-06 9.736174888530513272e-07 3.866675513108930318e-07
6.944000000000000000e+03 7.050204277038574219e+00 -3.877464234828948975e-01 -3.439973568220011657e-07 -2.040726712948526256e-06 -7.154172294576710556e-07 -2.892781765240215464e-07
6.945000000000000000e+03 6.220408916473388672e+00 -3.876858949661254883e-01 9.419249522579775658e-07 1.851817387432674877e-06 8.381226734854863025e-07 2.492726878244866384e-07
6.946000000000000000e+03 5.390924930572509766e+00 -3.877044022083282471e-01 -4.022084283406002214e-07 -1.679916408647841308e-06 -6.246374368856777437e-07 -2.071825662142146030e-07
6.947000000000000000e+03 4.561314582824707031e+00 -3.877847492694854736e-01 9.130679927693563513e-07 1.457979465158132371e-06 7.113142714842979331e-07 2.463177395384263946e-07
6.948000000000000000e+03 3.731149196624755859e+00 -3.877427279949188232e-01 -5.589454872279020492e-07 -1.189259023703925777e-06 -5.244613134891551454e-07 -2.063468826918324339e-07
6.949000000000000000e+03 2.901477813720703125e+00 -3.876497149467468262e-01 8.825154509395360947e-07 8.729043088351318147e-07 5.266259108793747146e-07 2.547659221363574034e-07
6.950000000000000000e+03 2.072490692138671875e+00 -3.876828253269195557e-01 -7.589611641378724016e-07 -5.327602821125765331e-07 -3.875164509281603387e-07 -1.862755709680641303e-07
6.951000000000000000e+03 1.243568181991577148e+00 -3.880597949028015137e-01 8.955722705650259741e-07 2.424613967377808876e-07 3.414101001908420585e-07 1.672196390245517250e-07
6.952000000000000000e+03 4.146093726158142090e-01 -3.891866505146026611e-01 -9.294844289797765668e-07 -5.017019688580148795e-08 -2.938963916676584631e-07 -5.876549735717162548e-08
6.953000000000000000e+03 4.108035266399383545e-01 -1.129186630249023438e+00 2.896887963288463652e-06 7.529052226118437829e-08 8.916535421121807303e-07 1.589052942563284887e-07
6.954000000000000000e+03 9.449925422668457031e+00 -1.129104256629943848e+00 -4.120732342016708571e-07 -2.796889475575881079e-06 -9.626887731428723782e-07 -9.718474984765634872e-07
6.955000000000000000e+03 7.807655334472656250e+00 -1.127609968185424805e+00 -1.755625589794362895e-06 -2.448473878757795319e-06 -1.261229840565647464e-06 -7.619277653247991111e-07
6.956000000000000000e+03 6.985504627227783203e+00 -1.127746462821960449e+00 2.170874950024881400e-06 2.104256282109417953e-06 1.282539415115024894e-06 5.552444690692937002e-07
6.957000000000000000e+03 6.163320541381835938e+00 -1.127685904502868652e+00 -1.703796669971779920e-06 -1.867833589130896144e-06 -1.071489123205537908e-06 -4.209908581742638489e-07
6.958000000000000000e+03 5.341448307037353516e+00 -1.127704381942749023e+00 2.139166099368594587e-06 1.584140932209265884e-06 1.116992166316777002e-06 4.852689130530052353e-07
6.959000000000000000e+03 4.519450187683105469e+00 -1.127784729003906250e+00 -1.862655153672676533e-06 -1.338133643002947792e-06 -9.602366617400548421e-07 -4.160035018685448449e-07
6.960000000000000000e+03 3.696896553039550781e+00 -1.127742767333984375e+00 2.252829972348990850e-06 1.038162849908985663e-06 9.872977670966065489e-07 5.856839493389998097e-07
6.961000000000000000e+03 2.874836921691894531e+00 -1.127649784088134766e+00 -2.187404106734902598e-06 -7.400263939416618086e-07 -8.782291729403368663e-07 -4.754727171984995948e-07
6.962000000000000000e+03 2.053461551666259766e+00 -1.127682805061340332e+00 2.506721557438140735e-06 4.696285031968727708e-07 8.929050068218202796e-07 5.601185648629325442e-07
6.963000000000000000e+03 1.232150554656982422e+00 -1.128059864044189453e+00 -2.636772023834055290e-06 -1.979899764137371676e-07 -8.504286483912437689e-07 -3.399720469587919069e-07
