# el_label, x, y, sXX, sYY, sZZ, sXY
1.000000000000000000e+00 7.628976440429687500e+01 -1.111127758026123047e+01 5.569277203580809410e-14 6.961927779061682919e-14 3.759361596436701369e-14 -7.984595379621414746e-14
2.000000000000000000e+00 7.876461029052734375e+01 -1.186159896850585938e+01 -7.103609963709373032e-14 -7.619499107179572572e-14 -4.416932585741412121e-14 -1.340824864603119143e-14
3.000000000000000000e+00 7.794061279296875000e+01 -1.185846424102783203e+01 -2.436476212030070504e-14 8.105985365358323036e-14 1.700852830701770485e-14 4.294391990448953589e-14
4.000000000000000000e+00 7.793921661376953125e+01 -1.111346530914306641e+01 -1.576421319057861453e-14 -6.756091064879067923e-15 -6.756091064879067923e-15 1.233332148431812159e-13
5.000000000000000000e+00 7.629228210449218750e+01 -1.185227775573730469e+01 -9.963168799091010053e-14 -1.342011896575401320e-13 -7.014986600504050096e-14 -8.204210694053720720e-14
6.000000000000000000e+00 7.711446380615234375e+01 -1.111236763000488281e+01 -7.113226836979319456e-14 1.067675882058215231e-13 1.069059679784144581e-14 -2.613214210452595443e-14
7.000000000000000000e+00 7.958820343017578125e+01 -1.186484050750732422e+01 -6.493840431750011466e-14 -1.193326443519812652e-13 -5.528131392321805615e-14 -2.477257460308576048e-14
8.000000000000000000e+00 7.958792877197265625e+01 -1.111584472656250000e+01 3.412483308624404688e-14 -3.112602135670744508e-14 8.996431165203305942e-16 2.193673201260088607e-14
9.000000000000000000e+00 7.876377105712890625e+01 -1.111460208892822266e+01 -2.082362907595506490e-14 -1.461772597497607018e-13 -5.010026749474767727e-14 -2.792977979969302194e-14
1.000000000000000000e+01 7.711642456054687500e+01 -1.185536670684814453e+01 6.367026047018886636e-14 1.187891473554414379e-13 5.473782370294180688e-14 3.268477543195806578e-14
1.100000000000000000e+01 7.550591278076171875e+01 -1.185315799713134766e+01 -7.096428479569372172e-14 1.068395792300745606e-13 1.076258866912743056e-14 7.250833776711179679e-14
1.200000000000000000e+01 7.400872039794921875e+01 -1.186235332489013672e+01 -6.376351540954977581e-14 6.417467875467416927e-14 1.233491597090176860e-16 7.915015349949441892e-14
1.300000000000000000e+01 7.475933837890625000e+01 -1.111660289764404297e+01 -9.879938664067444698e-14 3.408355547665845031e-15 -2.861730966671575949e-14 5.508512415197501511e-14
1.400000000000000000e+01 7.550487518310546875e+01 -1.111314392089843750e+01 -5.727523710435120444e-15 -1.397075001258879512e-13 -4.363050787087492666e-14 -3.390269361362892309e-14
1.500000000000000000e+01 7.327114868164062500e+01 -1.113034820556640625e+01 -4.773853973802713591e-14 1.625444164031833449e-13 3.444176232192050491e-14 1.156471565646327582e-13
1.600000000000000000e+01 7.401476287841796875e+01 -1.112228488922119141e+01 -3.948521671843889524e-14 1.203306117941727038e-13 2.425361953915967927e-14 -3.933188681432692180e-14
1.700000000000000000e+01 7.475683593750000000e+01 -1.185664367675781250e+01 -2.306848153254756340e-14 8.161540562302838087e-14 1.756407688833106634e-14 -1.442252994278674788e-14
1.800000000000000000e+01 7.326156616210937500e+01 -1.187044429779052734e+01 -3.736741750986864730e-14 -1.075165076327294633e-13 -4.346517720396625428e-14 -1.554447251527011492e-14
1.900000000000000000e+01 7.105435943603515625e+01 -1.106387424468994141e+01 -2.338107395953407941e-14 -1.002045990535762807e-14 -1.002045990535762807e-14 -3.523168830787092032e-14
2.000000000000000000e+01 7.176927185058593750e+01 -1.183115673065185547e+01 -1.536816870593635254e-13 -2.011263300816159422e-14 -5.213829652847730423e-14 2.608591104626481472e-14
2.100000000000000000e+01 7.027862548828125000e+01 -1.177425003051757812e+01 -1.436307805547168415e-13 -1.988088919836414337e-13 -1.027319031167601981e-13 3.795058275339428799e-14
2.200000000000000000e+01 7.251478576660156250e+01 -1.185943984985351562e+01 -9.900341993700906285e-14 4.907186107656370810e-14 -1.497946765813360642e-14 -1.637756499427850398e-14
2.300000000000000000e+01 7.252994537353515625e+01 -1.111947536468505859e+01 -5.658128588055533204e-14 6.725277615620556260e-14 3.201446574475300816e-15 -1.694427746983667715e-13
2.400000000000000000e+01 7.031662750244140625e+01 -1.103516387939453125e+01 -1.090909385937678666e-13 -9.250421067162617472e-14 -6.047854545724457020e-14 8.668359676973838579e-14
2.500000000000000000e+01 7.179203796386718750e+01 -1.109148502349853516e+01 -3.784258605261936470e-14 1.667855442514035169e-13 3.868288678200888786e-14 1.470471016002186659e-13
2.600000000000000000e+01 7.102397155761718750e+01 -1.180325317382812500e+01 -1.200622853090096975e-13 -5.704316278229773496e-15 -3.772998149261137801e-14 -8.723325508393654087e-16
2.700000000000000000e+01 1.865523719787597656e+01 1.631908798217773438e+01 2.109947145386564804e-13 -9.257748918595903875e-14 3.552517167156737932e-14 1.451024189854082519e-14
2.800000000000000000e+01 1.747743797302246094e+01 2.193792343139648438e+01 9.598388300531904282e-14 1.783887978740877900e-13 8.231180223094297643e-14 2.627544652667422598e-14
2.900000000000000000e+01 6.750090599060058594e+00 3.423121261596679688e+01 -2.309544259125866777e-14 -4.421125737643499809e-14 -2.019201015971468921e-14 -6.135650527146901956e-14
3.000000000000000000e+01 4.306966066360473633e-01 3.401405334472656250e+01 6.490335070601094269e-14 5.069119494820195637e-14 3.467836234101115411e-14 -3.060100661907670661e-14
3.100000000000000000e+01 1.229318022727966309e+00 3.066263389587402344e+01 1.317158171133770914e-14 5.139591280779037819e-14 1.937024759340877367e-14 2.606008458818655747e-15
3.200000000000000000e+01 3.886766731739044189e-01 2.836617088317871094e+01 1.246396242509176244e-13 7.666031878576524267e-15 3.969169624592518153e-14 -2.574797031129876651e-14
3.300000000000000000e+01 1.111393332481384277e+00 2.420758628845214844e+01 -3.023461743554417547e-14 -1.044595928311430055e-13 -4.040826240237979650e-14 -1.662893896203516270e-14
3.400000000000000000e+01 1.297924232482910156e+01 1.675686454772949219e+01 -3.925940112283268779e-14 1.204273903905941911e-13 2.435039644151527211e-14 -9.602548248742459602e-15
3.500000000000000000e+01 1.571195030212402344e+01 1.454512405395507812e+01 7.202112441585112323e-14 2.824964112461969545e-13 1.063552661196252858e-13 1.278748564285600575e-13
3.600000000000000000e+01 1.718442535400390625e+01 1.596071147918701172e+01 1.401000490749634841e-13 -3.145901711332742268e-14 3.259230992730399734e-14 3.441924945673190649e-15
3.700000000000000000e+01 1.789453315734863281e+01 1.617287826538085938e+01 2.142419542553591905e-13 1.375689248931874498e-13 1.055432664550694233e-13 1.230729792167303827e-13
3.800000000000000000e+01 1.639791679382324219e+01 1.598127841949462891e+01 3.153933955364965347e-14 -1.237359823977324247e-13 -2.765899522491708368e-14 1.823552668188312825e-14
3.900000000000000000e+01 2.247801589965820312e+01 1.538171195983886719e+01 3.621791926154520336e-14 1.552196515579567365e-14 1.552196515579567365e-14 -1.225163955611554764e-14
4.000000000000000000e+01 2.490836906433105469e+01 1.321718788146972656e+01 5.174856311691844457e-14 2.251977901032709006e-13 8.308390325555137235e-14 8.919327238322404677e-15
4.100000000000000000e+01 2.542096138000488281e+01 1.157390880584716797e+01 1.478585727162154417e-13 2.006208106542992087e-13 1.045438082348908171e-13 -1.025766724707145860e-13
4.200000000000000000e+01 2.613929939270019531e+01 1.007587909698486328e+01 -1.854017563389029344e-14 1.293070603933590967e-13 3.323006475021428319e-14 5.906144578396096967e-14
4.300000000000000000e+01 2.501946830749511719e+01 7.292220592498779297e+00 1.108063683532721153e-14 -4.100210364917263040e-14 -8.976440128856920386e-15 5.862187634191745600e-14
4.400000000000000000e+01 2.564653396606445312e+01 7.676908016204833984e+00 3.174008975028071167e-14 1.394180045933071654e-13 5.134742864188954203e-14 -4.046078183324135213e-14
4.500000000000000000e+01 2.488260269165039062e+01 6.148186683654785156e+00 3.754182836997188577e-14 1.608935525771165026e-14 1.608935525771165026e-14 -1.566502902058692498e-14
4.600000000000000000e+01 2.126040267944335938e+01 4.654015541076660156e+00 -1.937895644735926348e-13 -1.288036246670926088e-13 -9.677795267644742627e-14 -7.005855585332648738e-14
4.700000000000000000e+01 1.967496109008789062e+01 -2.453634977340698242e+00 1.116464912057427150e-13 1.393503910353255382e-13 7.529906738282590717e-14 -8.007807470507971592e-14
4.800000000000000000e+01 2.080355644226074219e+01 -3.666790246963500977e+00 1.233953802852461035e-13 1.472450633643873630e-13 8.119213309489003993e-14 -3.266169209007949159e-14
4.900000000000000000e+01 2.283786201477050781e+01 -5.179799079895019531e+00 7.726948285857390686e-14 2.618702509612352847e-13 1.017419181130636840e-13 -2.807610643539709683e-14
5.000000000000000000e+01 2.232279777526855469e+01 -5.577722549438476562e+00 3.613979624814963676e-16 4.304640072671193918e-14 1.302233958822918494e-14 -1.090838573983288207e-13
5.100000000000000000e+01 2.277254104614257812e+01 -6.237491130828857422e+00 1.419059639760911207e-13 1.180055266827503835e-13 7.797344855290516685e-14 -7.422700149840866235e-14
5.200000000000000000e+01 2.550308799743652344e+01 -1.089596557617187500e+01 2.267595697802091137e-13 2.687487276990807583e-13 1.486524933095451084e-13 -8.094610051689876684e-14
5.300000000000000000e+01 2.585073089599609375e+01 -1.153940677642822266e+01 -7.384534200490303069e-14 -8.772530499332603648e-15 -2.478536310652340591e-14 2.954913347072641227e-16
5.400000000000000000e+01 2.687777900695800781e+01 -1.330854225158691406e+01 1.476002751011479264e-13 -2.824463549871460144e-14 3.580669154191681858e-14 1.045625446036840822e-13
5.500000000000000000e+01 2.810061264038085938e+01 -1.361348438262939453e+01 -1.409580392404234661e-14 -2.347957982554160772e-13 -7.466747895977163263e-14 -9.791130817086209776e-15
5.600000000000000000e+01 3.447761154174804688e+01 -1.820624542236328125e+01 1.385380119000093058e-13 5.937343851162082964e-14 5.937343851162082964e-14 -9.880807042244969807e-15
5.700000000000000000e+01 3.527057266235351562e+01 -1.819948005676269531e+01 2.471755439215073125e-13 1.443048019402967674e-14 7.848181062279288578e-14 -1.144958067022866163e-14
5.800000000000000000e+01 3.769043731689453125e+01 -1.883851623535156250e+01 8.474994930016480077e-14 -9.429542616298716012e-15 2.259612175104994125e-14 -3.612323453056932865e-14
5.900000000000000000e+01 3.446415328979492188e+01 -1.891069602966308594e+01 1.692014990574072786e-13 3.888502526564049586e-15 5.192699907758703548e-14 -3.795272405268494686e-14
6.000000000000000000e+01 2.298800086975097656e+01 4.819851875305175781e+00 -1.403341147714759485e-13 2.372379636489396759e-13 2.907116008424998066e-14 3.242551558746246954e-14
6.100000000000000000e+01 2.050758171081542969e+01 4.396153450012207031e+00 -4.816904846863387032e-15 -4.781533513315699979e-14 -1.578967330690718429e-14 -1.418721097632552608e-13
6.200000000000000000e+01 1.896092987060546875e+01 4.139543056488037109e+00 2.166234856423865374e-13 -4.441420647059712845e-14 5.166278578441589608e-14 -2.896166921735610078e-14
6.300000000000000000e+01 1.700117683410644531e+01 4.237389564514160156e+00 -5.154751137655816384e-14 -1.021559478176815861e-13 -4.611103708064556717e-14 -8.604298913986174746e-14
6.400000000000000000e+01 1.462270927429199219e+01 6.326462030410766602e-01 -3.944198076867924674e-14 -1.690370628572909067e-14 -1.690370628572909067e-14 -8.889868279449847366e-14
6.500000000000000000e+01 1.611863708496093750e+01 6.307047367095947266e+00 1.440687711273466731e-13 7.032206441508551120e-14 6.431725134035601310e-14 -1.215432648190434284e-13
6.600000000000000000e+01 1.507166767120361328e+01 7.548007965087890625e+00 5.418318991721148004e-14 -2.824845053510903481e-14 7.780422831070270273e-15 -9.589390100126632399e-14
6.700000000000000000e+01 1.463280487060546875e+01 9.146708488464355469e+00 -3.319870420237513997e-14 1.916512602914352548e-13 4.753576682671803444e-14 6.196347552894429511e-15
6.800000000000000000e+01 1.458938312530517578e+01 9.943835258483886719e+00 -4.911630658937203575e-14 2.470110365706233713e-14 -7.324560710286320137e-15 5.337820368545888317e-14
6.900000000000000000e+01 1.464389514923095703e+01 1.153566837310791016e+01 -5.453481023427568519e-14 2.237888829326531437e-14 -9.646776074083342895e-15 -4.318593754631082360e-14
7.000000000000000000e+01 1.398413848876953125e+01 1.737753105163574219e+01 -3.135373769424729118e-14 1.238155357321385486e-13 2.773853839492784051e-14 1.103771818410960448e-13
7.100000000000000000e+01 3.630534410476684570e-01 2.032306861877441406e+01 -5.132042523153107494e-14 3.668885941582322729e-13 9.467045338851579062e-14 1.081627785248914439e-14
7.200000000000000000e+01 1.080902576446533203e+00 1.696866416931152344e+01 -1.004747348011146221e-14 2.473241609343007630e-13 7.118300225520193814e-14 4.848420317028583060e-14
7.300000000000000000e+01 3.598179221153259277e-01 1.469583320617675781e+01 -7.862823890245063119e-14 1.035550294061111931e-13 7.478037998131115832e-15 -3.783674491341509905e-14
7.400000000000000000e+01 1.057219624519348145e+00 1.055795955657958984e+01 4.951951121292402780e-15 4.138808165545654338e-13 1.256498296251309932e-13 2.035164368302012916e-15
7.500000000000000000e+01 9.073675155639648438e+00 3.179806470870971680e+00 2.112208791118369566e-14 -1.282005236561203909e-13 -3.212353140110736638e-14 2.456699123645766925e-14
7.600000000000000000e+01 1.143986225128173828e+01 1.535979270935058594e+00 5.937571533618304920e-14 -4.317968644316008686e-14 4.858808837313478152e-15 -7.984808831924122829e-14
7.700000000000000000e+01 1.384096336364746094e+01 9.088143110275268555e-01 2.005814812204922970e-13 8.596349001556424785e-14 8.596349001556424785e-14 -1.019533375366983574e-13
7.800000000000000000e+01 1.774067306518554688e+01 4.679829120635986328e+00 -7.996058784716375545e-15 -6.061556828305600386e-14 -2.058348845914489272e-14 -1.380195735261810497e-13
7.900000000000000000e+01 1.767307472229003906e+01 -8.904079198837280273e-01 9.230594397559646613e-14 7.387290106887489660e-14 4.985365554622048223e-14 -2.539781265072788008e-13
8.000000000000000000e+01 1.490937614440917969e+01 1.315423393249511719e+01 -7.466814303360228000e-14 1.052522123818656896e-13 9.175222667951506844e-15 1.153721351310546539e-13
8.100000000000000000e+01 4.723301696777343750e+01 1.831352424621582031e+01 7.638034220944570074e-14 3.273443189145790189e-14 3.273443189145790189e-14 1.026731410530773783e-14
8.200000000000000000e+01 4.436124801635742188e+01 2.236140060424804688e+01 1.088982487626628803e-14 2.105463427302251000e-13 6.643084926550787972e-14 3.137258841248843563e-15
8.300000000000000000e+01 3.562225723266601562e+01 2.962605667114257812e+01 -5.398515022601163560e-14 1.255540945733005231e-13 2.147068262656030846e-14 3.761290798677367764e-14
8.400000000000000000e+01 3.237781143188476562e+01 4.085169601440429688e+01 -2.326622984441355235e-14 4.149857676461268796e-14 5.469703821949856506e-15 -1.321168702732430575e-14
8.500000000000000000e+01 1.795568275451660156e+01 4.065845108032226562e+01 -6.014347383462910913e-16 6.264979583291835352e-14 1.861450785720954182e-14 3.737413956333805742e-14
8.600000000000000000e+01 2.281655120849609375e+01 4.075883483886718750e+01 -4.209188607471464616e-14 1.192134634281707961e-13 2.313647456128956059e-14 -3.547861535265449395e-14
8.700000000000000000e+01 1.813977241516113281e+01 3.712967681884765625e+01 -2.035802353517884855e-14 1.685600579471105420e-13 4.446061032357950804e-14 -7.646672940567027232e-15
8.800000000000000000e+01 1.455889987945556641e+01 3.722735977172851562e+01 1.382758162393185261e-14 4.023931659885224277e-14 1.622006938213193389e-14 2.386454003703609994e-14
8.900000000000000000e+01 1.504567527770996094e+01 2.934568214416503906e+01 1.598190065802296972e-14 1.555399689254222118e-13 5.145656036681378609e-14 -3.301813371867946822e-14
9.000000000000000000e+01 1.840299987792968750e+01 2.198877906799316406e+01 5.819028256210528882e-14 2.493869301063537935e-14 2.493869301063537935e-14 4.216890508654258518e-14
9.100000000000000000e+01 2.236944007873535156e+01 2.065074920654296875e+01 3.505128723076469943e-14 8.364840666918310630e-14 3.560990884761069952e-14 8.055576401788146212e-15
9.200000000000000000e+01 2.176529121398925781e+01 1.574889087677001953e+01 3.956748394640802191e-14 -2.346727142037846603e-13 -5.853156907721299151e-14 -6.475836577049531861e-14
9.300000000000000000e+01 5.133434677124023438e+01 1.814563560485839844e+01 6.792369909526443233e-15 2.578648998160810307e-14 9.773658221450248068e-15 4.740192545665648793e-14
9.400000000000000000e+01 5.406946182250976562e+01 1.643117713928222656e+01 -1.509367717617005056e-13 -2.019400272001981023e-13 -1.058630383333168667e-13 4.131344924366078808e-14
9.500000000000000000e+01 5.209027481079101562e+01 1.783718872070312500e+01 -4.573677049070357103e-14 -1.568543201140720766e-13 -6.077732447092726309e-14 7.617326637076454743e-14
9.600000000000000000e+01 5.546024322509765625e+01 2.314723587036132812e+01 5.815634703410649253e-14 3.636188436939233326e-14 2.835546806579693213e-14 5.178066905375117157e-14
9.700000000000000000e+01 5.536239242553710938e+01 3.360508728027343750e+01 -5.629234854268678687e-15 5.477615702600274750e-14 1.474407720209163636e-14 4.494196559497697085e-14
9.800000000000000000e+01 5.733627700805664062e+01 4.056782913208007812e+01 6.827834649632388755e-16 3.460583260380366288e-14 1.058658454005040675e-14 9.150556221494514364e-16
9.900000000000000000e+01 5.246232604980468750e+01 4.073940658569335938e+01 -5.797663120665460038e-15 1.004549227004783440e-13 2.839717766218562839e-14 1.277775035438003318e-14
1.000000000000000000e+02 5.239276123046875000e+01 3.728760910034179688e+01 -2.016682787019281886e-14 6.570236704955129126e-14 1.366066107618118391e-14 3.041256550523514790e-14
1.010000000000000000e+02 5.228993225097656250e+01 3.416101455688476562e+01 3.313650487899236219e-15 2.429561035048686396e-14 8.282778590329008955e-15 3.199186182352257990e-14
1.020000000000000000e+02 4.899529647827148438e+01 2.217428779602050781e+01 8.601999050127789870e-14 8.261665955305516618e-14 5.059099433867356166e-14 4.063622607354024086e-14
1.030000000000000000e+02 4.890205001831054688e+01 1.861338806152343750e+01 1.060135171245283822e-14 -2.242113016515806523e-13 -6.408298913219978576e-14 -3.678918538622781564e-14
1.040000000000000000e+02 4.973995590209960938e+01 1.854666328430175781e+01 1.211299262933104859e-13 2.120411458179580211e-13 9.995132434388598330e-14 -3.568893363345773673e-14
1.050000000000000000e+02 5.507222747802734375e+01 1.644001197814941406e+01 -9.475020323456567750e-14 -1.492657316108300658e-13 -7.320478180887143860e-14 -1.026803238924700948e-14
1.060000000000000000e+02 6.028757858276367188e+01 1.372660827636718750e+01 -1.127436224891351091e-13 -2.541979756028045490e-13 -1.100824753618237506e-13 -5.122788179984585910e-14
1.070000000000000000e+02 7.403701782226562500e+01 4.156945228576660156e+00 -2.594000318364986235e-13 -3.856771401810482613e-13 -1.935231488947586342e-13 1.293105027352567382e-13
1.080000000000000000e+02 6.870519256591796875e+01 -5.541863918304443359e+00 -1.362725036979650639e-13 -1.265155091556861497e-14 -4.467721358885137772e-14 3.331985701888681706e-14
1.090000000000000000e+02 7.477529907226562500e+01 -1.037390041351318359e+01 -4.334864241108300764e-14 2.717295924945309360e-14 -4.852705541412037291e-15 -1.224093119618976933e-13
1.100000000000000000e+02 7.897923278808593750e+01 -4.902553081512451172e+00 -2.194164988589264453e-13 4.321720322645987433e-14 -5.285978902855315020e-14 -1.212548805936894403e-13
1.110000000000000000e+02 5.421374893188476562e+01 1.810889244079589844e+01 -9.243819631184896357e-14 -5.303158933311295092e-15 -2.932240699706455123e-14 2.491509060696672773e-13
1.120000000000000000e+02 5.565727996826171875e+01 1.478245258331298828e+01 -1.850524128464009488e-13 -4.052836896379502507e-13 -1.771008334558107911e-13 1.242805229388632693e-13
1.130000000000000000e+02 5.525140762329101562e+01 1.177614402770996094e+01 1.397575902662567815e-13 -1.688586336728858939e-13 -8.730312683175554811e-15 3.580624430852066831e-14
1.140000000000000000e+02 5.524651718139648438e+01 1.102800559997558594e+01 -1.497536090359213867e-13 -3.386858122515074010e-13 -1.465318345177449300e-13 -3.662313304724808261e-14
1.150000000000000000e+02 6.016011047363281250e+01 6.686295032501220703e+00 -1.392281201353234854e-13 -4.028013003438274398e-13 -1.626088315647561400e-13 7.160777911385460270e-14
1.160000000000000000e+02 6.214855957031250000e+01 -5.932656288146972656e+00 -2.454154501146943446e-13 -9.374030956847689833e-14 -1.017467292602040885e-13 1.184269035511527693e-14
1.170000000000000000e+02 6.792855072021484375e+01 -8.393015861511230469e+00 -3.708133382599940187e-14 1.213608478035227423e-13 2.528385385444382322e-14 6.223649796476687923e-14
1.180000000000000000e+02 7.182781219482421875e+01 -9.638493537902832031e+00 3.940661883719727421e-14 1.541414023330245353e-13 5.806440668987972176e-14 8.137187348629740247e-14
1.190000000000000000e+02 7.105995941162109375e+01 -1.031643295288085938e+01 -6.438913394439180204e-14 -2.759534239299681752e-14 -2.759534239299681752e-14 8.566444672760201162e-14
1.200000000000000000e+02 6.845678710937500000e+01 -8.800393104553222656e+00 -2.364477700005779282e-13 1.388577160156209689e-13 -2.927701958361887680e-14 2.330751761839451597e-15
1.210000000000000000e+02 6.861833953857421875e+01 -1.021225738525390625e+01 5.880448986908190512e-14 1.395792932189915403e-13 5.951513695930110703e-14 -2.579413868912180940e-14
1.220000000000000000e+02 5.558801651000976562e+01 1.024012851715087891e+01 -1.791641379526864863e-13 -3.512903130279548813e-13 -1.591363352941924103e-13 8.343254879290482040e-14
1.230000000000000000e+02 5.392195510864257812e+01 8.646210670471191406e+00 5.329219595999468151e-14 -6.866238805823543512e-14 -4.611056358922805201e-15 -6.474630402132641738e-14
1.240000000000000000e+02 5.372367858886718750e+01 7.538282871246337891e+00 1.768197811476482362e-13 -8.434841502558479420e-14 2.774140814255313808e-14 -9.627635331761058568e-14
1.250000000000000000e+02 5.124536514282226562e+01 6.826788425445556641e+00 2.979459669434636471e-13 -5.531266769479362133e-14 7.278998638646921870e-14 2.080661218404472601e-13
1.260000000000000000e+02 4.973565292358398438e+01 5.896453380584716797e+00 5.805050179701759516e-14 2.993844863859174144e-13 1.072304950996277872e-13 1.859146246240700462e-13
1.270000000000000000e+02 4.882068634033203125e+01 6.501533508300781250e+00 -6.130901721631415446e-14 1.947565576149688782e-14 -1.255000860585176944e-14 1.178206024497058246e-13
1.280000000000000000e+02 4.807388305664062500e+01 5.806849479675292969e+00 -8.322860358799671898e-14 1.008154622744771370e-14 -2.194411813990094356e-14 1.521216285533741330e-13
1.290000000000000000e+02 4.546200942993164062e+01 6.255964279174804688e+00 -2.105878541209041388e-13 -9.025193651234983405e-14 -9.025193651234983405e-14 1.119415568269846450e-13
1.300000000000000000e+02 4.513207244873046875e+01 8.463408470153808594e+00 -1.981200170282984563e-13 -1.935670861877986093e-13 -1.175061296095764041e-13 2.184062392746044523e-13
1.310000000000000000e+02 4.309471130371093750e+01 1.118735218048095703e+01 1.174000116278784908e-14 -1.784404499432113572e-14 -1.831213022405043904e-15 2.099342021836397842e-13
1.320000000000000000e+02 4.295630645751953125e+01 1.041356945037841797e+01 6.972320365104724832e-15 2.988137420335303107e-15 2.988137420335303107e-15 1.804892498478982699e-13
1.330000000000000000e+02 4.221996688842773438e+01 1.136072826385498047e+01 -9.882187705948994316e-14 -8.810318333175512495e-14 -5.607751811737352043e-14 -8.149038228946422525e-16
1.340000000000000000e+02 3.917450332641601562e+01 1.546154022216796875e+01 2.528759689303773997e-15 1.840875542280517863e-13 5.598489337052536818e-14 2.441111684537214388e-14
1.350000000000000000e+02 2.892389297485351562e+01 2.596512413024902344e+01 6.711482074711920195e-15 6.578390582918577922e-14 2.174861615941107301e-14 1.588964691160571485e-14
1.360000000000000000e+02 2.281918144226074219e+01 2.964813613891601562e+01 -1.837395219425521503e-14 1.065028192590369849e-13 2.643866130528065711e-14 2.052087578368385484e-14
1.370000000000000000e+02 1.720051574707031250e+01 3.153135108947753906e+01 1.976574929933843511e-14 1.800370968843903463e-13 5.994085571859111838e-14 2.848854032994237173e-14
1.380000000000000000e+02 4.311332702636718750e+01 1.357655525207519531e+01 -1.806239619678295938e-13 1.409162551051354115e-14 -4.995970407121672063e-14 6.196091410131179811e-14
1.390000000000000000e+02 4.304085922241210938e+01 1.276941204071044922e+01 1.870923527864595814e-13 8.018243594044502376e-14 8.018243594044502376e-14 -5.228886510518122865e-14
1.400000000000000000e+02 4.387396621704101562e+01 1.592533874511718750e+01 3.037373141629579054e-13 3.589278668118117688e-13 1.987995542924309023e-13 1.063064380583478644e-14
1.410000000000000000e+02 4.438656616210937500e+01 1.657888412475585938e+01 4.424311936777891585e-14 -1.182915121107977474e-13 -2.221451816171882837e-14 1.096858267732835068e-13
1.420000000000000000e+02 4.573115158081054688e+01 1.755627632141113281e+01 -4.878374790175284137e-14 -1.124092206578226893e-13 -4.835789022905948031e-14 1.862979171970979841e-14
1.430000000000000000e+02 6.819614410400390625e+01 -9.431531906127929688e+00 1.461730042562336962e-13 2.456493667334080921e-13 1.175467058758816741e-13 -1.428451270029523767e-13
1.440000000000000000e+02 7.402879333496093750e+01 -1.039312458038330078e+01 -8.413643317207314398e-14 1.011943756871677702e-13 5.117383855671219298e-15 8.139710151559842455e-14
1.450000000000000000e+02 7.965844726562500000e+01 -3.241626501083374023e+00 4.775735471147790623e-13 3.876781708156418205e-13 2.595755370631697145e-13 6.975494536371265597e-14
1.460000000000000000e+02 7.896071624755859375e+01 -9.659692645072937012e-01 3.916309550960894725e-13 3.050946810728011327e-13 2.090176854296563191e-13 2.119108924794610438e-13
1.470000000000000000e+02 7.894725799560546875e+01 5.383960247039794922e+00 -4.570981722469558139e-13 -2.874010979290325674e-13 -2.233497810527965144e-13 5.972822334377597686e-14
1.480000000000000000e+02 7.893376922607421875e+01 1.094709777832031250e+01 1.936363531540932770e-13 -1.457677430366857707e-13 1.436058303522225188e-14 -1.295659543196214791e-14
1.490000000000000000e+02 7.890010833740234375e+01 1.889356422424316406e+01 5.753592589342881869e-14 -6.684364569015457946e-14 -2.792316108424317683e-15 -1.036352197092936522e-13
1.500000000000000000e+02 7.884908294677734375e+01 2.525278282165527344e+01 4.207801506317040974e-14 -7.346845977721991328e-14 -9.417133583621440512e-15 1.326026555269546603e-13
1.510000000000000000e+02 7.877723693847656250e+01 3.078965759277343750e+01 -6.191513366457859768e-14 6.496684429573712505e-14 9.155125964244951314e-16 -5.063597517630455402e-14
1.520000000000000000e+02 7.955324554443359375e+01 3.883513641357421875e+01 8.017992194665757300e-14 -1.028900204510900529e-13 -6.813029043109975619e-15 -7.782798927893908036e-14
1.530000000000000000e+02 7.955288696289062500e+01 3.647586822509765625e+01 -8.251446672203482935e-14 -1.726161937996503748e-13 -7.653919815650556124e-14 -1.965327348833843107e-14
1.540000000000000000e+02 7.577720642089843750e+01 3.873635482788085938e+01 3.301857756394382948e-14 -1.231020222824258381e-13 -2.702503510961049710e-14 -3.104371008302506119e-14
1.550000000000000000e+02 7.180629730224609375e+01 3.818232345581054688e+01 2.019030254129302454e-14 -3.709796277681989829e-14 -5.072297985954767399e-15 4.018882327080051942e-14
1.560000000000000000e+02 7.332490539550781250e+01 3.140034866333007812e+01 8.149174558899283105e-14 6.330690789977224189e-15 2.634673112544925339e-14 -3.757323973978786424e-14
1.570000000000000000e+02 7.329193115234375000e+01 2.390283775329589844e+01 9.301547255880881875e-16 -1.826051517026666682e-13 -5.450250100953561716e-14 -1.380135155465422869e-13
1.580000000000000000e+02 7.374345397949218750e+01 1.684844779968261719e+01 -5.406376843604399074e-14 -6.892113290669910075e-14 -3.689547108044928525e-14 -2.807323838183769377e-15
1.590000000000000000e+02 7.403845214843750000e+01 9.794153213500976562e+00 2.490107119525013235e-14 -3.507905974703927343e-14 -3.053396650240037050e-15 -1.275194414038921531e-13
1.600000000000000000e+02 7.400144195556640625e+01 1.057055473327636719e+01 -1.642942780519934809e-13 -1.619137224469213709e-13 -9.786239879442173994e-14 1.036449368712645536e-13
1.610000000000000000e+02 7.964516448974609375e+01 1.025925827026367188e+01 5.654788228924741145e-14 -6.726709440114594929e-14 -3.215762701833319373e-15 -4.152937488257485432e-14
1.620000000000000000e+02 6.220124816894531250e+01 4.055724716186523438e+01 2.004212090343446273e-14 -4.859920652760044146e-14 -8.567125009623435816e-15 2.221948685698742210e-14
1.630000000000000000e+02 6.578031921386718750e+01 3.712580108642578125e+01 4.294409947547435380e-14 -3.878406994975609756e-14 1.248008921242947915e-15 1.430011165905187287e-14
1.640000000000000000e+02 6.759566497802734375e+01 3.025261497497558594e+01 3.378478323923933546e-14 -5.414723167453464048e-14 -6.108734699995180956e-15 1.896523709561323545e-14
1.650000000000000000e+02 6.133449172973632812e+01 2.364786720275878906e+01 9.402005575183478708e-15 2.690490550889910321e-14 1.089207290170830095e-14 3.760919459433291479e-15
1.660000000000000000e+02 5.901362228393554688e+01 1.827635765075683594e+01 -1.390142612568007197e-13 -5.957753957059122585e-14 -5.957753957059122585e-14 -1.117028341433281766e-14
1.670000000000000000e+02 6.048691177368164062e+01 1.722286605834960938e+01 -1.683199139421685808e-14 8.428818759490322443e-14 2.023685886020590990e-14 3.620574146886252828e-15
1.680000000000000000e+02 4.237101745605468750e+01 4.024943542480468750e+01 -7.587849890512005091e-15 5.393675076340552488e-14 1.390467009246146649e-14 -6.301429613297850757e-15
1.690000000000000000e+02 4.101136398315429688e+01 3.220743942260742188e+01 -2.226382903177618472e-14 1.441529594260401725e-13 3.656673759361989129e-14 -4.685416110812839346e-15
1.700000000000000000e+02 3.725313949584960938e+01 4.047272491455078125e+01 -2.360864630147289228e-14 8.138390813041199157e-14 1.733257770164878253e-14 2.200227542205942383e-14
1.710000000000000000e+02 4.235762786865234375e+01 3.638894653320312500e+01 -3.299427110648942008e-14 1.002369709587544455e-13 2.017280961686632873e-14 9.554267370748964483e-15
1.720000000000000000e+02 3.703769683837890625e+01 3.207234954833984375e+01 -2.383835994270236402e-14 6.984771918835952498e-14 1.380280845132350609e-14 -2.107136249610442463e-14
1.730000000000000000e+02 1.030154323577880859e+01 3.955284118652343750e+01 -5.431985021292148885e-14 6.822196480698108911e-14 4.170634378217880078e-15 3.515441179802701599e-14
1.740000000000000000e+02 6.664712905883789062e+00 3.285958480834960938e+01 7.757149414998332215e-14 5.612040170142711115e-14 4.010756909423630889e-14 -4.549046347403738755e-14
1.750000000000000000e+02 1.192300915718078613e+00 3.702494812011718750e+01 -9.582007360958363917e-14 9.618710315002429456e-14 1.101074340875871050e-16 -5.646969606601815600e-15
1.760000000000000000e+02 1.550119876861572266e+00 3.874185562133789062e+01 -7.493902417013420525e-14 -9.241250580255874064e-15 -2.525408234041372907e-14 -8.402587843179751270e-14
1.770000000000000000e+02 5.049156188964843750e+00 2.607435703277587891e+00 -2.410031504603612346e-14 -1.018306058507729983e-13 -3.777927542200978928e-14 6.616838424833987320e-14
1.780000000000000000e+02 3.551681339740753174e-01 6.678359031677246094e+00 1.034152689698142336e-13 1.586981956437638619e-13 7.863403938407342864e-14 -8.947072141322898187e-14
1.790000000000000000e+02 1.072035670280456543e+00 6.592264652252197266e+00 1.023978045232428954e-14 1.416413237783145651e-13 4.556433152330154057e-14 -1.122242896485145525e-13
1.800000000000000000e+02 3.928302383422851562e+01 -1.873990249633789062e+01 2.231073263419744435e-14 -1.048156312720600891e-13 -2.475146993017197233e-14 1.281654785149606915e-14
1.810000000000000000e+02 4.391558456420898438e+01 -1.777030181884765625e+01 -1.470813894939235200e-13 5.591541888115862322e-15 -4.244695550994007083e-14 -1.489659226050835117e-13
1.820000000000000000e+02 4.178252410888671875e+01 -1.251822948455810547e+01 3.548708568212703696e-14 1.520875100662587298e-14 1.520875100662587298e-14 -9.034841017691030984e-14
1.830000000000000000e+02 4.630279159545898438e+01 -4.888783693313598633e-01 1.686372395892643539e-13 3.010278387238080056e-13 1.408995262044271390e-13 5.538671192691080325e-14
1.840000000000000000e+02 4.638255310058593750e+01 6.546397686004638672e+00 -1.651838659345178373e-13 6.645975680593177448e-14 -2.961723206094946104e-14 5.958187637928116787e-14
1.850000000000000000e+02 4.467149734497070312e+01 -1.751580429077148438e+01 -3.370855366211823745e-14 5.417990004124434433e-14 6.141404337254305693e-15 -4.019753754576187166e-14
1.860000000000000000e+02 4.543695449829101562e+01 -1.728613662719726562e+01 -2.326133399397842250e-14 -9.969143261281173535e-15 -9.969143261281173535e-15 1.317551872047654712e-14
1.870000000000000000e+02 5.128887176513671875e+01 -1.494658565521240234e+01 -1.697272557958998118e-13 7.323910188982828834e-15 -4.872100308915203182e-14 -1.382022133113668637e-15
1.880000000000000000e+02 5.806684875488281250e+01 -1.080539226531982422e+01 1.034240306786206320e-13 1.472642130852588882e-13 7.520647651729564509e-14 2.315316619254815383e-14
1.890000000000000000e+02 5.564902496337890625e+01 -6.560508728027343750e+00 -1.058126093797691347e-13 3.092215882221499568e-13 6.102269297508788881e-14 1.120172476911512893e-13
1.900000000000000000e+02 5.535170364379882812e+01 7.892046928405761719e+00 9.499874303008082332e-14 -2.795428818980205676e-13 -5.536324572614007011e-14 1.534421042137491201e-15
1.910000000000000000e+02 5.941137313842773438e+01 -9.936599731445312500e+00 1.640671105918034556e-13 2.647560176736313275e-13 1.286469439006412974e-13 -1.266559692411975413e-13
1.920000000000000000e+02 6.523319244384765625e+01 -6.053734779357910156e+00 -6.837712769039092087e-14 -2.123082796807312933e-13 -8.420561882320487523e-14 -1.609063766559379327e-13
1.930000000000000000e+02 6.263833236694335938e+01 -6.461412429809570312e+00 -2.163252622823172433e-13 -8.127308911585681694e-14 -8.927950880758400709e-14 -1.271655578147928845e-13
1.940000000000000000e+02 6.590982818603515625e+01 -6.865549564361572266e+00 -2.178915007406898030e-13 -2.763858749071229637e-13 -1.482832140495965456e-13 -3.994888594189768827e-14
1.950000000000000000e+02 6.644326782226562500e+01 -5.898088932037353516e+00 -3.066859103912494833e-13 -1.314368129308809974e-13 -1.314368129308809974e-13 -7.551792714386926231e-14
1.960000000000000000e+02 6.664443969726562500e+01 -6.682756900787353516e+00 -1.063588033292130197e-13 3.661761920157463601e-13 7.794521863883907553e-14 -1.575334914599713088e-13
1.970000000000000000e+02 7.963617706298828125e+01 1.741091918945312500e+01 -7.273068730389783965e-14 -3.117029407479453285e-14 -3.117029407479453285e-14 -4.724072831053041654e-14
1.980000000000000000e+02 7.367439270019531250e+01 1.765626525878906250e+01 1.525629369540583598e-15 1.379066809749709965e-13 4.182969549622155003e-14 -8.875519541323359518e-14
1.990000000000000000e+02 5.135785675048828125e+01 2.291810417175292969e+01 -1.437984795257460369e-14 1.082145779777478334e-13 2.815042002399150561e-14 3.607680696066442594e-14
2.000000000000000000e+02 5.502481460571289062e+01 2.135419464111328125e+01 -8.377936812722398818e-15 -1.637188648540011116e-13 -5.162903999179728476e-14 7.798159362172596420e-14
2.010000000000000000e+02 3.955380630493164062e+01 1.822599792480468750e+01 3.380073795183381746e-14 -3.126491781939820525e-14 7.607461773735375941e-16 2.026728428367128437e-14
2.020000000000000000e+02 2.727645492553710938e+01 2.919291305541992188e+01 8.796755853382313452e-16 1.261921068942267743e-13 3.812153771907272892e-14 7.594209413879990378e-15
2.030000000000000000e+02 2.465391159057617188e+01 3.208239746093750000e+01 8.588034017926408220e-15 9.518248141699922615e-14 3.113115437636780614e-14 -1.214800994545843071e-15
2.040000000000000000e+02 2.699724388122558594e+01 1.758658218383789062e+01 3.755984306669409023e-14 -4.109161131477488682e-14 -1.059529796797881174e-15 7.973496368100362747e-15
2.050000000000000000e+02 2.740153312683105469e+01 1.631847190856933594e+01 1.080529234338302447e-13 1.606857686188914447e-13 8.062160558293743340e-14 -4.930012967958516401e-15
2.060000000000000000e+02 2.755623817443847656e+01 1.170197200775146484e+01 4.681296311963983880e-14 2.006269872185505870e-14 2.006269872185505870e-14 -1.534114395034761463e-14
2.070000000000000000e+02 2.453496932983398438e+01 6.742627620697021484e+00 3.908313695464085691e-14 6.250086711200031342e-14 3.047520189761870890e-14 6.606791936453193514e-14
2.080000000000000000e+02 2.667488861083984375e+01 7.185292243957519531e+00 -4.098737205215398360e-14 2.111887325174227614e-13 5.106040644551473884e-14 -4.725888530878775973e-14
2.090000000000000000e+02 2.664573287963867188e+01 5.599142551422119141e+00 -3.336635235142750011e-14 -6.005081414767188264e-14 -2.802514893329027812e-14 -6.713277530450215136e-14
2.100000000000000000e+02 2.670950508117675781e+01 -5.050351619720458984e+00 1.191699327109455031e-13 9.682377377076209490e-14 6.479811533264406842e-14 1.187498094513050537e-14
2.110000000000000000e+02 2.628576087951660156e+01 -4.396705627441406250e+00 -3.451631096215777676e-15 -1.479270515183526893e-15 -1.479270515183526893e-15 -4.716145957919457010e-14
2.120000000000000000e+02 2.740368270874023438e+01 -1.185054111480712891e+01 6.308424241969687318e-14 -1.102167402483589242e-13 -1.413975053444474148e-14 2.722121132832638207e-14
2.130000000000000000e+02 3.383517837524414062e+01 -1.212974548339843750e+01 1.190677873137702125e-13 3.183861594507897408e-13 1.312361813188625548e-13 -8.645899073718085748e-14
2.140000000000000000e+02 3.389929580688476562e+01 -1.314450740814208984e+01 2.984259703502772920e-14 -3.868013223086441688e-14 -2.651260982267479929e-15 -7.688990367798673176e-14
2.150000000000000000e+02 4.397713470458984375e+01 -1.339937210083007812e+01 3.206350048206955961e-15 -4.437679810751458953e-14 -1.235113458719887952e-14 -3.804597221578227828e-14
2.160000000000000000e+02 6.817450046539306641e+00 2.614289665222167969e+01 -3.846336633526667437e-14 2.926664851221269514e-14 -2.759014584586541238e-15 -1.068204769430480816e-13
2.170000000000000000e+02 6.698153495788574219e+00 2.447356033325195312e+01 6.723983349277151689e-14 4.025480713739162941e-14 3.224839422192801730e-14 -1.062128697167964708e-13
2.180000000000000000e+02 1.386328792572021484e+01 1.075621604919433594e+01 -8.335332071915044216e-14 -3.572285222079758793e-14 -3.572285222079758793e-14 -3.717058738171748200e-14
2.190000000000000000e+02 1.391315174102783203e+01 1.155092239379882812e+01 7.931087969530181692e-14 1.941187011481049218e-13 8.202887289776930602e-14 1.210426683472161369e-14
2.200000000000000000e+02 2.609407806396484375e+01 1.165666580200195312e+01 3.307786987025163050e-14 1.971800272972806800e-13 6.907736643975426194e-14 6.006836467033899174e-14
2.210000000000000000e+02 3.965740585327148438e+01 1.422792339324951172e+01 1.072529126736098196e-14 1.876003421618505085e-13 5.949769485685124648e-14 1.611092749281232278e-14
2.220000000000000000e+02 3.933245849609375000e+01 1.238116741180419922e+01 -6.327097676214971447e-15 -1.200477519177007082e-14 -5.499561733340570593e-15 -4.775274956275027405e-14
2.230000000000000000e+02 2.119957160949707031e+01 1.660729026794433594e+01 1.165477219941535303e-13 -1.330547678328811156e-13 -4.952115022167696487e-15 -8.982931450551498442e-14
2.240000000000000000e+02 2.313168334960937500e+01 1.492189693450927734e+01 -1.005355771777158985e-14 -3.862188008101584413e-14 -1.460263117022964074e-14 -4.593966876288886614e-14
2.250000000000000000e+02 4.042551040649414062e+01 6.333699226379394531e+00 -1.063001344391543979e-13 -9.130815271625805640e-14 -5.928248750187645189e-14 -1.223518763518102737e-13
2.260000000000000000e+02 3.998987197875976562e+01 5.861449718475341797e+00 8.351167183457373910e-15 -1.336737795107345583e-13 -3.759678386758974478e-14 3.545367785565438010e-15
2.270000000000000000e+02 4.429413223266601562e+01 7.263174533843994141e+00 -1.229770950871011959e-13 -5.270446690294923464e-14 -5.270446690294923464e-14 9.529722388816608269e-14
2.280000000000000000e+02 2.611400794982910156e+01 1.084261798858642578e+01 1.277597954730050334e-13 1.462560948002275540e-13 8.220476437146434501e-14 7.153638440079643224e-14
2.290000000000000000e+02 5.944219207763671875e+01 1.164244270324707031e+01 -1.344472103770701435e-14 -2.116412920567453670e-13 -6.752580536829172475e-14 1.746436925197797363e-13
2.300000000000000000e+02 7.410015869140625000e+01 3.351660966873168945e+00 -1.747004640560365085e-13 -7.487162745258707508e-14 -7.487162745258707508e-14 7.228413153410537251e-14
2.310000000000000000e+02 7.964897155761718750e+01 3.901910543441772461e+00 5.606979724265270804e-13 1.030462878654631043e-13 1.991232835086079178e-13 1.471156299537833279e-14
2.320000000000000000e+02 3.287962341308593750e+01 -5.542859077453613281e+00 1.295672418097013057e-13 1.699061898119413883e-13 8.984202677598737696e-14 4.103429090116829381e-14
2.330000000000000000e+02 3.906924819946289062e+01 1.399446368217468262e+00 1.584178955008584688e-14 -3.896161144363238793e-14 -6.935946229250783412e-15 3.856362115490369336e-14
2.340000000000000000e+02 4.565276336669921875e+01 3.984500169754028320e-01 1.689056859295893966e-15 -4.502706868925350492e-14 -1.300140347487190040e-14 1.572355933605537603e-13
2.350000000000000000e+02 4.969577407836914062e+01 1.003627419471740723e+00 -1.545541377712990327e-14 1.535045690819608621e-13 4.141474760788882437e-14 2.045172706318862388e-13
2.360000000000000000e+02 5.676250457763671875e+01 -6.706992149353027344e+00 3.796485017635783943e-14 1.535235019623978903e-13 5.744650631925307671e-14 -2.451473099767797342e-14
2.370000000000000000e+02 5.973170089721679688e+01 5.815635681152343750e+00 -9.183689101072492478e-14 -4.282417248504394314e-13 -1.560235908569865271e-13 1.101816663080790182e-13
2.380000000000000000e+02 1.557210922241210938e+01 6.883601188659667969e+00 1.134344083508070922e-13 1.872973076546408100e-13 9.021951886739251747e-14 -6.451314634413340965e-14
2.390000000000000000e+02 6.806929779052734375e+01 -5.891347885131835938e+00 -1.212307570953516378e-13 3.954586088933051413e-14 -2.450546784536680039e-14 2.273828183168647224e-15
2.400000000000000000e+02 5.195464706420898438e+01 -1.295544910430908203e+01 -7.598736635576475162e-14 1.046868280539688112e-13 8.609839187087575674e-15 -4.757844034660070609e-14
2.410000000000000000e+02 5.498094940185546875e+01 -1.199237346649169922e+01 6.479681429003708582e-14 2.777006326715875106e-14 2.777006326715875106e-14 -4.013800807022883943e-14
2.420000000000000000e+02 5.042868041992187500e+01 1.086444377899169922e+00 -1.009504369746221097e-13 -4.326447444118024233e-14 -4.326447444118024233e-14 1.937596404936320349e-13
2.430000000000000000e+02 5.128719329833984375e+01 -1.331361484527587891e+01 -5.659254464249023620e-14 -3.101973701773869108e-13 -1.100369727518972496e-13 -1.061733912051908424e-13
2.440000000000000000e+02 7.962194824218750000e+01 2.376894378662109375e+01 1.296461175177496261e-13 5.556262034126478733e-14 5.556262034126478733e-14 1.284205709573557966e-14
2.450000000000000000e+02 7.368518066406250000e+01 2.425166702270507812e+01 -8.371490214367435789e-14 -8.162876163854068667e-14 -4.960309981229087117e-14 -4.514746934050802019e-14
2.460000000000000000e+02 6.166652679443359375e+01 2.523164367675781250e+01 9.872813592321730974e-15 -1.864426920684426892e-14 -2.631436599653466657e-15 4.128841772600352900e-14
2.470000000000000000e+02 4.979929351806640625e+01 3.149325752258300781e+01 -1.163874684427307002e-14 6.449702730714716031e-15 -1.556713255243329878e-15 6.158283247497536861e-14
2.480000000000000000e+02 5.446534347534179688e+01 3.105063629150390625e+01 8.121318016956341479e-15 6.638811814738479478e-14 2.235283186574187758e-14 3.640186432450273624e-14
2.490000000000000000e+02 3.940064239501953125e+01 2.442495155334472656e+01 -7.351529053480770903e-14 7.810666989484932321e-15 -1.971138841884954862e-14 1.105104828041372431e-14
2.500000000000000000e+02 2.838249015808105469e+01 2.217175292968750000e+01 -4.351877067260492837e-14 1.186019462978346595e-13 2.252495065468984592e-14 3.051507343251186333e-14
2.510000000000000000e+02 2.243975639343261719e+01 2.250167083740234375e+01 2.693210881903312232e-14 5.729328144722656280e-14 2.526761792691085279e-14 5.484284901213776209e-14
2.520000000000000000e+02 7.959848022460937500e+01 3.012234115600585938e+01 -1.209385646098667944e-13 -1.433327062724462642e-13 -7.928138261994663316e-14 -4.238894391744851831e-14
2.530000000000000000e+02 7.076007843017578125e+01 3.608287429809570312e+01 3.943016974126273277e-14 -1.203542067439514196e-13 -2.427720940674071154e-14 1.362131724281416892e-14
2.540000000000000000e+02 6.419578552246093750e+01 3.297555923461914062e+01 2.171350156154969874e-14 9.305786867540126461e-15 9.305786867540126461e-15 5.181765390036008334e-14
2.550000000000000000e+02 4.677804183959960938e+01 3.281525802612304688e+01 -2.576590157527566642e-15 9.039764650806830781e-14 2.634631607930509878e-14 -1.460112514564942260e-14
2.560000000000000000e+02 2.782979965209960938e+01 3.476742172241210938e+01 5.505515527926821071e-15 9.386140139861637310e-14 2.981007435798495309e-14 -1.587599951675955356e-14
2.570000000000000000e+02 2.101493644714355469e+01 1.602845382690429688e+01 -4.027820218739479319e-14 7.423980863657114737e-14 1.018848329000562186e-14 -9.180929975950106320e-15
2.580000000000000000e+02 2.518005180358886719e+01 1.523910617828369141e+01 1.739390119296409937e-14 7.454529445713019981e-15 7.454529445713019981e-15 -4.838083126940291578e-14
2.590000000000000000e+02 2.432820701599121094e+01 1.384320449829101562e+01 1.039339987229763451e-13 1.303261697779140027e-13 7.027805258314617776e-14 -4.845566154809514969e-14
2.600000000000000000e+02 2.529776000976562500e+01 1.243199825286865234e+01 -1.088848232904488997e-14 3.613411111123843167e-13 1.051357826210679025e-13 -2.377781402763262664e-13
2.610000000000000000e+02 2.546701240539550781e+01 9.216639518737792969e+00 -5.397224822015905810e-14 2.056237802640706325e-13 4.549545758029439890e-14 -3.851756966762737155e-14
2.620000000000000000e+02 2.546578979492187500e+01 8.460181236267089844e+00 1.289818319288654411e-14 5.127874104613079631e-14 1.925307752581508630e-14 -5.844962372176382148e-14
2.630000000000000000e+02 2.398183441162109375e+01 6.208869457244873047e+00 2.258165273424494329e-14 -8.182404677859606013e-14 -1.777271804389874560e-14 4.822121976895410445e-14
2.640000000000000000e+02 2.199035835266113281e+01 4.956965923309326172e+00 -2.583458620641909675e-13 -2.479725138334470946e-13 -1.518955181903022811e-13 -1.337431142396650063e-13
2.650000000000000000e+02 1.666484832763671875e+01 5.752738475799560547e+00 7.819760735206654489e-14 1.021396847850943035e-13 5.410118696352189671e-14 -1.710541972822776646e-13
2.660000000000000000e+02 1.475764179229736328e+01 8.329200744628906250e+00 4.559701005440661148e-14 4.241704847063841599e-14 2.640421755751350824e-14 -6.740421209464747543e-14
2.670000000000000000e+02 1.469856452941894531e+01 1.235158824920654297e+01 8.689616815818132500e-14 1.744940590674495806e-13 7.841707020056834510e-14 7.688152821620428123e-14
2.680000000000000000e+02 1.614074707031250000e+01 1.516934585571289062e+01 3.923018187428420345e-14 6.256388636327603336e-14 3.053822114889442885e-14 5.440956116643108631e-14
2.690000000000000000e+02 5.345782852172851562e+01 1.695967483520507812e+01 -7.615040325745225935e-14 -1.813264707654915764e-13 -7.724306220688315072e-14 1.849014783514638105e-13
2.700000000000000000e+02 5.462934494018554688e+01 1.586093902587890625e+01 -1.056686883176352620e-13 -6.244318755642408458e-14 -5.043356140696508838e-14 1.930363014617311745e-13
2.710000000000000000e+02 5.525692749023437500e+01 1.254125499725341797e+01 -9.359787250806661518e-14 -3.146190718974345435e-13 -1.224650806111449164e-13 9.242638867256423862e-15
2.720000000000000000e+02 5.604181289672851562e+01 1.319943523406982422e+01 1.597402833381118825e-14 -2.676596737218733812e-13 -7.550569598811091021e-14 -4.113052654947059114e-15
2.730000000000000000e+02 5.493374633789062500e+01 9.812346458435058594e+00 3.140387526846116772e-14 -2.152959342922866615e-13 -5.516761838477400592e-14 -2.239689282559215178e-13
2.740000000000000000e+02 5.270159912109375000e+01 7.589227199554443359e+00 1.037612378830543580e-13 2.274729070470687953e-13 9.937023941327879917e-14 -5.837202195126817150e-14
2.750000000000000000e+02 5.334276199340820312e+01 8.090581893920898438e+00 -6.592841642625094090e-14 -1.197569333196563113e-13 -5.570560289089310224e-14 -4.477899984405703249e-14
2.760000000000000000e+02 5.044678878784179688e+01 6.617978096008300781e+00 3.162108975270777611e-13 2.727717953853597832e-13 1.766948132947421257e-13 -8.525338968511249858e-16
2.770000000000000000e+02 4.801253509521484375e+01 6.525026321411132812e+00 -2.218601143728557434e-13 -1.408338506578288296e-13 -1.088081922197108031e-13 1.674157570929514505e-14
2.780000000000000000e+02 4.464477539062500000e+01 9.040055274963378906e+00 -2.247434280778365379e-13 -1.535072931399192320e-13 -1.134752150100740153e-13 1.963879227425899265e-13
2.790000000000000000e+02 4.364556503295898438e+01 1.002305603027343750e+01 -9.135518676175319319e-14 -2.679069802374173248e-13 -1.077786473892457242e-13 7.373825671157935302e-14
2.800000000000000000e+02 4.351984405517578125e+01 1.516855430603027344e+01 -1.087758762187071571e-13 1.821365053136098089e-13 2.200819110016304786e-14 1.852359682742027447e-13
2.810000000000000000e+02 4.463745880126953125e+01 1.766977119445800781e+01 -4.431133601321898818e-14 1.640132257438309260e-13 3.591056488630450794e-14 1.475158564094927738e-13
2.820000000000000000e+02 4.805620956420898438e+01 1.853948974609375000e+01 5.589634793435119264e-14 -6.754631711814243489e-14 -3.494990924543962124e-15 6.597851334288334924e-14
2.830000000000000000e+02 6.947447204589843750e+01 -9.598015785217285156e+00 2.780522529886517158e-14 5.766747349826920055e-14 2.564180997795349054e-14 -8.941650791647291763e-15
2.840000000000000000e+02 7.180539703369140625e+01 -1.035364151000976562e+01 -8.737623932763075030e-14 -1.746997999822058611e-13 -7.862281111532462563e-14 7.545674426002318969e-15
2.850000000000000000e+02 7.254460144042968750e+01 -1.038864707946777344e+01 -8.994754675242452868e-14 7.201999277983359149e-15 -2.482366424233235086e-14 -4.458724513732581496e-14
2.860000000000000000e+02 7.403831481933593750e+01 -9.687823295593261719e+00 -4.676312708915518479e-14 1.629624576558394433e-13 3.485980018644481426e-14 -1.863966304167710003e-15
2.870000000000000000e+02 7.552613830566406250e+01 -1.035588169097900391e+01 5.157675095389738229e-14 -9.227305199218868714e-14 -1.220888980326762310e-14 -2.125349490855483331e-14
2.880000000000000000e+02 7.635539245605468750e+01 -8.715829849243164062e+00 8.220742744305051253e-15 -1.108541969156717766e-13 -3.079003726784955430e-14 -8.739428451753905591e-15
2.890000000000000000e+02 7.335276794433593750e+01 -8.508131027221679688e+00 -6.110513299777825535e-14 2.025668315811662845e-13 4.243850889739005094e-14 -1.157554886904547942e-14
2.900000000000000000e+02 7.960338592529296875e+01 -9.558674812316894531e+00 8.523857889051328351e-14 1.051572430478195375e-13 5.711874522624713069e-14 2.746023216758028407e-14
2.910000000000000000e+02 7.959281158447265625e+01 -1.034745597839355469e+01 -2.891102681150566067e-14 1.248624006923090834e-13 2.878541182542784793e-14 2.603622070544708844e-14
2.920000000000000000e+02 7.954149627685546875e+01 4.202134704589843750e+01 4.985415021346167874e-14 -2.438488423499567820e-14 7.640779285320031811e-15 -6.243171110702173607e-15
2.930000000000000000e+02 7.860036468505859375e+01 4.010040664672851562e+01 8.377270367199499135e-14 -5.559931042040805460e-14 8.452018314289259926e-15 -3.221963914743462831e-14
2.940000000000000000e+02 7.824227905273437500e+01 4.076867294311523438e+01 1.992959935265530697e-14 -8.296064302106692656e-14 -1.890931259230371753e-14 7.480622295653188703e-14
2.950000000000000000e+02 7.955964660644531250e+01 3.962434387207031250e+01 5.656766220263169387e-14 -1.587605101636274663e-13 -3.065785608236462623e-14 3.017537256308142068e-14
2.960000000000000000e+02 7.953917694091796875e+01 3.804300689697265625e+01 -3.037698673331867827e-14 -1.731470327358264338e-13 -6.105720448549081802e-14 -5.198522073424950707e-14
2.970000000000000000e+02 7.956778717041015625e+01 3.568861007690429688e+01 7.770121216365763472e-14 -5.820137530558253114e-14 5.849950040982994370e-15 6.959413107647874353e-14
2.980000000000000000e+02 7.957212066650390625e+01 3.489444732666015625e+01 -1.175226027063346057e-14 -9.653858116555336100e-14 -3.248725073679015196e-14 -3.722226570886241412e-15
2.990000000000000000e+02 7.870233154296875000e+01 3.398461532592773438e+01 -2.527725377371881771e-14 -1.938369034509487832e-13 -6.573424936968594312e-14 -5.216637058848110076e-14
3.000000000000000000e+02 7.957727813720703125e+01 3.250946807861328125e+01 -2.198210756758529894e-14 -5.517185354951027743e-14 -2.314618833512867291e-14 -7.797252698105855417e-14
3.010000000000000000e+02 7.958313751220703125e+01 3.171298217773437500e+01 -4.999821357713069014e-14 1.615759934701921363e-13 3.347333261266571824e-14 -3.195033688031638508e-14
3.020000000000000000e+02 7.872715759277343750e+01 3.238732147216796875e+01 -5.035982549484070703e-14 2.416816746730887644e-14 -7.857496900039780824e-15 6.908570124395524426e-14
3.030000000000000000e+02 7.960454559326171875e+01 2.932833480834960938e+01 1.149737721478291674e-13 1.407763743901599418e-13 7.672504396139673277e-14 4.854582651126447546e-14
3.040000000000000000e+02 7.960886383056640625e+01 2.853492355346679688e+01 1.735938121223169761e-14 -8.406216532325788693e-14 -2.001083489449467789e-14 -2.130665130819272418e-14
3.050000000000000000e+02 7.961151123046875000e+01 2.774171829223632812e+01 -3.414113677641279765e-14 -1.976357174703763375e-13 -6.953305661284991945e-14 3.212122069522725665e-14
3.060000000000000000e+02 7.961323547363281250e+01 2.694830703735351562e+01 5.587925819760738988e-14 -1.133045954694426871e-13 -1.722760152036376807e-14 -4.101629145103913993e-15
3.070000000000000000e+02 7.961492156982421875e+01 2.615397453308105469e+01 2.901520847588615060e-14 -3.078215579568194249e-13 -8.364190145614819327e-14 -6.326720153630380206e-14
3.080000000000000000e+02 7.883815002441406250e+01 2.684056663513183594e+01 -5.825000262005145327e-15 -1.855002290012189303e-13 -5.739756814369251225e-14 2.189097359872431425e-14
3.090000000000000000e+02 7.961694335937500000e+01 2.535907554626464844e+01 2.366734907284940431e-14 1.014315008666857171e-14 1.014315008666857171e-14 2.187363144616222971e-14
3.100000000000000000e+02 7.962458801269531250e+01 2.297398185729980469e+01 -1.287652710152409341e-13 -9.434167416190724492e-15 -4.145983347760527626e-14 -1.122238102278664065e-14
3.110000000000000000e+02 7.962690734863281250e+01 2.217965507507324219e+01 1.788113148488371801e-14 5.341429067714370538e-14 2.138862715682799537e-14 -1.263486357241431720e-16
3.120000000000000000e+02 7.962906646728515625e+01 2.138539314270019531e+01 -3.857663327503941392e-15 8.984861330418522640e-14 2.579728456948791188e-14 3.286199505331439952e-14
3.130000000000000000e+02 7.963084411621093750e+01 2.059103012084960938e+01 2.032650713327741054e-14 -3.703958865422692093e-14 -5.013924710394737291e-15 -4.148956094592211319e-14
3.140000000000000000e+02 7.963230895996093750e+01 1.979619598388671875e+01 -3.926883368173331168e-14 -1.540823404196783875e-13 -5.800535155279715194e-14 -3.635738831850830743e-14
3.150000000000000000e+02 7.889043426513671875e+01 2.048553276062011719e+01 3.867497549428153270e-14 1.657498973955864180e-14 1.657498973955864180e-14 2.034028497119744899e-14
3.160000000000000000e+02 7.963368225097656250e+01 1.900098037719726562e+01 -7.742199622292472716e-14 -3.318085552411059735e-14 -3.318085552411059735e-14 6.363955721991679249e-14
3.170000000000000000e+02 7.963748168945312500e+01 1.661579895019531250e+01 1.366278374074700319e-13 -1.244490079564675167e-13 3.653648242377691494e-15 -2.949513395566864815e-14
3.180000000000000000e+02 7.963883972167968750e+01 1.582140636444091797e+01 -5.148508843647731092e-14 -2.206503886938507297e-14 -2.206503886938507297e-14 -4.404425297242255122e-14
3.190000000000000000e+02 7.964012145996093750e+01 1.502745056152343750e+01 2.967590095100808290e-14 5.846919357097718484e-14 2.644352835659558032e-14 -4.623263713055339452e-14
3.200000000000000000e+02 7.964114379882812500e+01 1.423341178894042969e+01 2.391356291589138983e-14 5.599961819128043694e-14 2.397395467096472693e-14 9.092274425492787721e-15
3.210000000000000000e+02 7.964213562011718750e+01 1.343871784210205078e+01 -1.614548304892850922e-14 -1.441723395398733509e-13 -4.809534728486032640e-14 -2.777258234314388535e-14
3.220000000000000000e+02 7.964305114746093750e+01 1.264394187927246094e+01 1.083151428114435474e-14 -8.685982028034874847e-14 -2.280849154565143394e-14 1.521464635593876291e-14
3.230000000000000000e+02 7.821035766601562500e+01 1.324394893646240234e+01 2.550925270983998155e-14 1.481853783560568849e-13 5.210838948917564939e-14 -9.241478432118685471e-15
3.240000000000000000e+02 7.964382934570312500e+01 1.184903717041015625e+01 7.597307436884572981e-16 3.255988825894018130e-16 3.255988825894018130e-16 -3.067629768369224685e-14
3.250000000000000000e+02 7.964608001708984375e+01 9.463916778564453125e+00 -1.952222021192606682e-13 -8.366666192326233098e-14 -8.366666192326233098e-14 3.798916679820761588e-14
3.260000000000000000e+02 7.964709472656250000e+01 8.669721603393554688e+00 2.518222989075086238e-13 -2.580837561889925968e-13 -1.878431509324445317e-15 8.344427172889481992e-14
3.270000000000000000e+02 7.964775085449218750e+01 7.875854492187500000e+00 -2.286468811594360995e-13 -1.437424669310100045e-13 -1.117168084928919780e-13 -1.296146968305712278e-15
3.280000000000000000e+02 7.964811706542968750e+01 7.081233501434326172e+00 2.800098206686557623e-13 -2.002524394136701025e-13 2.392721200480344562e-14 3.209655848393500044e-14
3.290000000000000000e+02 7.964855194091796875e+01 6.286211013793945312e+00 -2.965825285014545010e-13 5.589699506752289493e-14 -7.220566240187173412e-14 -8.311531123723556180e-15
3.300000000000000000e+02 7.824263763427734375e+01 6.886710643768310547e+00 2.726723740461428624e-13 -1.118951597502658435e-13 4.823316293351039008e-14 1.353146483480237999e-14
3.310000000000000000e+02 7.964894104003906250e+01 5.491355419158935547e+00 4.036751672948507563e-13 -1.930039380268824822e-13 6.320137013564319783e-14 6.709808761124619325e-15
3.320000000000000000e+02 7.964928436279296875e+01 3.106578111648559570e+00 -7.094489383983881847e-13 1.534599406100359276e-13 -1.667966979812529615e-13 -3.416126227923955982e-14
3.330000000000000000e+02 7.964993286132812500e+01 2.312442779541015625e+00 1.169927761439371050e-12 8.963909123435240267e-14 3.778700713875232653e-13 -4.567620085871131053e-14
3.340000000000000000e+02 7.965059661865234375e+01 1.518594980239868164e+00 -2.645260096037493902e-12 -8.134263119845275281e-13 -1.037605982037725916e-12 9.714809252187039945e-13
3.350000000000000000e+02 7.965113830566406250e+01 7.247061133384704590e-01 -1.825372969097016629e-12 -9.653065022666162953e-13 -8.372038956191985015e-13 -1.077085577845526831e-12
3.360000000000000000e+02 7.965199279785156250e+01 -6.953786313533782959e-02 9.495068576878540334e-13 2.239277285733670686e-13 3.520303894308934867e-13 2.963517560690409613e-13
3.370000000000000000e+02 7.965338897705078125e+01 -8.633410930633544922e-01 -7.312421067967589394e-13 1.441200132325237693e-13 -1.761366253587651198e-13 -1.941568379595220994e-13
3.380000000000000000e+02 7.965497589111328125e+01 -1.656460642814636230e+00 6.144308152544741830e-13 1.718256071280011010e-13 2.358769375567643101e-13 2.179654975389619387e-13
3.390000000000000000e+02 7.965959930419921875e+01 -4.033644199371337891e+00 -3.713138737454491078e-13 1.153711729016265730e-13 -7.678281160839947606e-14 -4.543563333729572218e-14
3.400000000000000000e+02 7.965967559814453125e+01 -4.824527740478515625e+00 2.489452058124924649e-13 -7.631299292574361681e-14 5.178966454365101224e-14 1.057237048016253234e-13
3.410000000000000000e+02 7.965695190429687500e+01 -5.615383625030517578e+00 -1.879648780372944472e-13 -3.480542744749466622e-14 -6.683109605000805975e-14 -3.419974129196742818e-14
3.420000000000000000e+02 7.554945373535156250e+01 -9.572258949279785156e+00 -8.205797017357338574e-14 -3.516770343903533047e-14 -3.516770343903533047e-14 -6.953449318072846275e-14
3.430000000000000000e+02 7.963936614990234375e+01 -7.193196296691894531e+00 -1.686463333349860760e-13 1.922489843372583024e-14 -4.482643030097148429e-14 4.057464423717601146e-15
3.440000000000000000e+02 7.962686920166015625e+01 -7.980709552764892578e+00 4.483181404238423262e-14 -4.941278844970177497e-14 -1.374291686920552265e-15 1.424277430478633477e-14
3.450000000000000000e+02 7.961461639404296875e+01 -8.769235610961914062e+00 -1.341408267015870015e-13 3.401297052709785496e-14 -3.003835651353356506e-14 2.218930537901085687e-14
3.460000000000000000e+02 4.777099788188934326e-01 4.198170852661132812e+01 2.346859279177618274e-14 -1.043194054902406298e-13 -2.425524245428661851e-14 1.542726856635853738e-14
3.470000000000000000e+02 5.649654865264892578e-01 4.105984115600585938e+01 4.100937796812365033e-14 -7.392644710366852445e-14 -9.875121757102998943e-15 3.623404338072913622e-14
3.480000000000000000e+02 2.761040496826171875e+01 4.095914077758789062e+01 -4.131665780446498737e-14 1.881721368350922075e-13 4.405664337037498712e-14 3.317948333073604539e-14
3.490000000000000000e+02 4.752674484252929688e+01 4.051775741577148438e+01 -1.136348485333794553e-14 8.663183289226578099e-14 2.258050415756846646e-14 -7.389889820409202559e-15
3.500000000000000000e+02 6.995883941650390625e+01 3.970241165161132812e+01 4.275467919154576912e-14 -1.178571265103914301e-13 -2.253073419565369828e-14 8.748235053306508552e-15
3.510000000000000000e+02 7.723630523681640625e+01 3.993395233154296875e+01 6.759682738685310333e-14 -1.678087973211363909e-14 1.524478378820207092e-14 -1.267015057324419325e-13
3.520000000000000000e+02 7.837531280517578125e+01 4.182492828369140625e+01 2.746395403035051946e-14 -1.140448412789707433e-13 -2.597426702161901441e-14 2.204248068793379645e-14
3.530000000000000000e+02 3.862375319004058838e-01 1.896591663360595703e+00 9.131914381578162820e-14 -5.236512178735663881e-14 1.168620694734067572e-14 -2.487536543936685884e-14
3.540000000000000000e+02 1.161280035972595215e+00 1.887903809547424316e+00 -2.494062085762333014e-14 -1.021907371548912147e-13 -3.813940672612800564e-14 3.982357429949411097e-16
3.550000000000000000e+02 1.907669186592102051e+00 2.650609016418457031e+00 -5.608269094758240245e-15 2.263512050319424485e-13 6.622287896003442587e-14 -1.553602082052241151e-14
3.560000000000000000e+02 4.241476535797119141e+00 3.366468429565429688e+00 5.992951225336148879e-14 -1.115687742387662384e-13 -1.549177859562142490e-14 2.710885071380720462e-14
3.570000000000000000e+02 1.849887728691101074e+00 4.979228019714355469e+00 -3.545094786846537949e-14 1.678105354327441567e-13 3.970787457521773867e-14 -2.272930074134673489e-14
3.580000000000000000e+02 3.579279184341430664e-01 5.880671501159667969e+00 -8.674190821189326633e-15 1.106598604525173279e-13 3.059570080469510567e-14 -1.043985217556459705e-14
3.590000000000000000e+02 3.531591296195983887e-01 8.275243759155273438e+00 2.350267231537601226e-14 3.532046888039125365e-13 1.130122064723140807e-13 -7.818054472037705427e-14
3.600000000000000000e+02 3.530260324478149414e-01 9.076803207397460938e+00 -7.983425796527846008e-14 1.716645895528598476e-13 2.754909947627441624e-14 2.354651982292357837e-14
3.610000000000000000e+02 3.537700176239013672e-01 9.879180908203125000e+00 3.702251924627385227e-14 1.302441634360926304e-13 5.018000717640219710e-14 -2.348072907984444235e-14
3.620000000000000000e+02 3.548683524131774902e-01 1.068149089813232422e+01 -4.751559389004622602e-14 2.541418681403784241e-13 6.198788363035237503e-14 2.936997975551414175e-14
3.630000000000000000e+02 3.558447659015655518e-01 1.148394203186035156e+01 1.369758391997835667e-13 4.018360351496635952e-13 1.616435663705922954e-13 2.621314725340367219e-14
3.640000000000000000e+02 3.579425215721130371e-01 1.308916091918945312e+01 -1.153772444337924918e-13 1.106809278559814369e-13 -1.408895841552087417e-15 8.305565301269454692e-14
3.650000000000000000e+02 3.607937097549438477e-01 1.549946022033691406e+01 1.425627600996556832e-14 2.348645637782059703e-13 7.473625803508868182e-14 -2.137232516072513910e-14
3.660000000000000000e+02 3.612051606178283691e-01 1.630343437194824219e+01 -1.052526257339439497e-13 3.666502594156656469e-13 7.841929281502194038e-14 -7.048297526407541064e-15
3.670000000000000000e+02 3.615917861461639404e-01 1.710747146606445312e+01 9.136617447314497598e-15 4.156742224731280189e-13 1.274432490962207343e-13 6.816713805837121276e-14
3.680000000000000000e+02 3.619011044502258301e-01 1.791138458251953125e+01 1.231824158735156383e-13 5.560529250589474337e-13 2.037705941482226280e-13 -3.622212732122716272e-14
3.690000000000000000e+02 3.622814714908599854e-01 1.871531105041503906e+01 -9.144869919913006795e-14 3.954417088919415235e-13 9.119790290784343667e-14 1.577647822765485680e-14
3.700000000000000000e+02 3.660331070423126221e-01 2.193132781982421875e+01 2.318589427508063912e-15 9.249557771182775889e-14 2.844425067119633888e-14 -7.169496929731317136e-14
3.710000000000000000e+02 3.676806390285491943e-01 2.273544311523437500e+01 -2.461651555881773368e-14 1.232553894559874907e-14 -3.687292814559105930e-15 -4.512339666414705297e-14
3.720000000000000000e+02 3.693006038665771484e-01 2.353971862792968750e+01 3.606028981819296708e-14 1.527072603568421783e-13 5.663026471369736470e-14 -1.296848946860749280e-14
3.730000000000000000e+02 3.712861537933349609e-01 2.434417343139648438e+01 8.611029268378467966e-15 9.519234088050526621e-14 3.114101045174205717e-14 -1.366877395774998560e-13
3.740000000000000000e+02 3.736978173255920410e-01 2.514837265014648438e+01 9.445120399231669850e-16 2.977859658078590988e-13 8.961914191437866939e-14 -7.014956192021243667e-15
3.750000000000000000e+02 3.797456324100494385e-01 2.675690841674804688e+01 -6.787515140189255211e-15 -1.630372540532137871e-13 -5.094743257914174928e-14 -6.785402216502329359e-15
3.760000000000000000e+02 3.949281275272369385e-01 2.917108154296875000e+01 -3.582526189225242186e-14 1.218991677346889513e-13 2.582217039747824322e-14 1.325256314329290377e-14
3.770000000000000000e+02 4.027930200099945068e-01 2.997673034667968750e+01 7.928955140568995363e-15 1.406509728563848372e-13 4.457397721324002360e-14 1.800774427577339631e-14
3.780000000000000000e+02 4.113702774047851562e-01 3.078280639648437500e+01 1.327519162847880241e-14 5.144031766301723763e-14 1.941465244863563311e-14 -1.592044841769967023e-14
3.790000000000000000e+02 4.192187190055847168e-01 3.158961105346679688e+01 -7.877901754332547468e-14 1.034904109566310570e-13 7.413418701618032514e-15 -3.588331075419365357e-14
3.800000000000000000e+02 4.296531677246093750e-01 3.320401763916015625e+01 1.295331656742332652e-14 5.130236987722740227e-14 1.927670635691169226e-14 2.748791151023066009e-14
3.810000000000000000e+02 4.084578454494476318e-01 3.563006210327148438e+01 2.227585113980315445e-13 2.327207708225503824e-13 1.366437887319327249e-13 -1.209797507398940875e-13
3.820000000000000000e+02 3.868404924869537354e-01 3.642381668090820312e+01 -9.864711044554885788e-14 4.922456417629471337e-14 -1.482676455840260116e-14 2.581402363459155136e-15
3.830000000000000000e+02 4.065877795219421387e-01 3.720476531982421875e+01 9.324074986497704609e-14 -5.154157536966380571e-14 1.250975251800056157e-14 -5.993258190076233838e-14
3.840000000000000000e+02 4.653361141681671143e-01 3.799442672729492188e+01 -1.064141654026455608e-13 -4.560607330694223249e-14 -4.560607330694223249e-14 -2.045545604103561621e-14
3.850000000000000000e+02 4.910427331924438477e-01 3.881418609619140625e+01 -3.221247324870085693e-14 5.482107687726153755e-14 6.782581596787972539e-15 6.557666058391517505e-14
3.860000000000000000e+02 4.399921000003814697e-01 4.033238601684570312e+01 -5.648411256678042419e-15 -9.392264526883464804e-14 -2.987131822820322802e-14 7.467117202342166138e-14
3.870000000000000000e+02 9.819521903991699219e+00 1.814097166061401367e+00 8.803462109687257287e-14 -5.377277196108067037e-14 1.027855507955074965e-14 3.029647794574805153e-14
3.880000000000000000e+02 9.019802093505859375e+00 1.837887763977050781e+00 5.918328300309402823e-14 -2.038668374198214506e-14 1.163898062536651221e-14 2.764293243091853203e-13
3.890000000000000000e+02 9.045145988464355469e+00 2.510384321212768555e+00 4.912944576444984446e-14 -7.044642240426959856e-14 -6.395092399022863153e-15 1.243589785185697516e-13
3.900000000000000000e+02 7.437129497528076172e+00 1.855856299400329590e+00 9.015108538151794804e-14 1.758890206876237428e-13 7.981203182074250724e-14 1.351127868441659441e-13
3.910000000000000000e+02 5.076191425323486328e+00 1.870038747787475586e+00 5.562400990114999000e-14 1.153407610306883546e-13 5.128943060192514558e-14 -1.124794634060725940e-13
3.920000000000000000e+02 4.290814399719238281e+00 1.873520851135253906e+00 7.636746053238385734e-14 3.272891262477359287e-14 3.272891262477359287e-14 -1.079004608914562596e-14
3.930000000000000000e+02 3.506191730499267578e+00 1.876528143882751465e+00 2.597820233669195789e-14 1.026354158996725663e-13 3.858408547090935725e-14 -3.111049016058659022e-14
3.940000000000000000e+02 1.940330386161804199e+00 1.882494926452636719e+00 3.001765502830266996e-14 1.043666089423252175e-13 4.031527851356200842e-14 -7.088152628861518756e-14
3.950000000000000000e+02 1.224400711059570312e+01 1.346466064453125000e+00 1.194189468449111113e-13 2.113078727836517623e-13 9.921804453331614648e-14 8.623437454022796211e-15
3.960000000000000000e+02 1.304804706573486328e+01 1.146924138069152832e+00 -6.633411894996438588e-15 3.174137385222874919e-13 9.323410235040699434e-14 -8.589521238375197321e-14
3.970000000000000000e+02 1.569362354278564453e+01 1.138169050216674805e+00 2.846514189180741894e-14 8.082576762828003192e-14 3.278727319483941416e-14 -1.432455499703055857e-13
3.980000000000000000e+02 1.813823699951171875e+01 3.946024417877197266e+00 5.084455873363181999e-14 -1.383378004163327013e-13 -2.624797047193119098e-14 -1.027241714000176609e-13
3.990000000000000000e+02 1.731651115417480469e+01 3.612042427062988281e+00 2.791037088673963690e-14 2.407163281637619834e-13 8.058800886811753883e-14 -1.688912681582777076e-13
4.000000000000000000e+02 1.836632919311523438e+01 -1.390672326087951660e+00 1.259404500174657326e-13 2.141027969065206760e-13 1.020129754324486382e-13 -1.379298015862992499e-13
4.010000000000000000e+02 1.904613304138183594e+01 -1.897229433059692383e+00 4.664115773288235456e-14 2.258683420418988730e-13 8.175284857718165266e-14 -1.303999632882787973e-13
4.020000000000000000e+02 2.235242080688476562e+01 -4.519826889038085938e+00 -3.606057272719735002e-15 8.995644398650248785e-14 2.590511694587106784e-14 -9.594596981059994034e-14
4.030000000000000000e+02 2.135316658020019531e+01 -4.282560825347900391e+00 7.342650115314472425e-14 5.148453955912749014e-14 3.747331356893437992e-14 -5.080393842161329276e-14
4.040000000000000000e+02 2.186080932617187500e+01 -4.920602321624755859e+00 1.603964086115822196e-13 1.202111327147648012e-13 8.418226104265139065e-14 -1.130206090391508433e-13
4.050000000000000000e+02 2.321569252014160156e+01 -6.901273727416992188e+00 8.681404661987912608e-14 1.401456533288436557e-13 6.808790998461683452e-14 -1.385411018762008895e-13
4.060000000000000000e+02 2.363168144226074219e+01 -7.572172164916992188e+00 5.706790292062113856e-14 5.877088637799843251e-14 3.475163407908044011e-14 -9.898431764998258386e-14
4.070000000000000000e+02 2.477760887145996094e+01 -9.588952064514160156e+00 6.128983361412473907e-14 3.007727530576764785e-13 1.086187821001775855e-13 -2.894376971711472291e-14
4.080000000000000000e+02 2.514670372009277344e+01 -1.024837207794189453e+01 1.152182601612411223e-15 1.720598490073665943e-13 5.196361122969915536e-14 1.911531371558139458e-13
4.090000000000000000e+02 2.745339584350585938e+01 -1.331056213378906250e+01 -8.742250765534156920e-15 4.200426898665066133e-14 9.978605466334951324e-15 2.466878426792690204e-14
4.100000000000000000e+02 2.618002891540527344e+01 -1.217670726776123047e+01 2.102592595474780945e-14 2.720790715123044823e-13 8.793149991774204532e-14 5.610105673946124381e-16
4.110000000000000000e+02 2.655518341064453125e+01 -1.276611995697021484e+01 -2.132831502285170017e-14 -2.264577143428619932e-13 -7.433580796268116075e-14 -3.686091891246488783e-14
4.120000000000000000e+02 2.719397926330566406e+01 -1.377992916107177734e+01 -1.339760686289506730e-13 -8.279579685700408365e-14 -6.503156438917093163e-14 -5.082131953769095101e-14
4.130000000000000000e+02 2.763821220397949219e+01 -1.420374011993408203e+01 1.712900383598475740e-13 1.077232243294409808e-13 8.370397880678656644e-14 6.792698727716567353e-14
4.140000000000000000e+02 2.959941482543945312e+01 -1.546657466888427734e+01 1.188333607812222179e-14 -1.092845161154015754e-13 -2.922035307944756410e-14 -9.977184822675816411e-14
4.150000000000000000e+02 3.030754852294921875e+01 -1.587746429443359375e+01 8.340925877498711616e-14 2.187506225421673167e-13 9.064796168464089865e-14 4.971904845837461784e-14
4.160000000000000000e+02 3.173327255249023438e+01 -1.667927360534667969e+01 -5.968693895792680226e-15 -1.054976486486620957e-13 -3.343990191630348552e-14 -4.729157739241998670e-14
4.170000000000000000e+02 3.101834106445312500e+01 -1.628268814086914062e+01 1.431516309571140289e-13 -7.275723331646478942e-15 4.076277279586003333e-14 -8.692928375828717913e-14
4.180000000000000000e+02 3.322340011596679688e+01 -1.743812561035156250e+01 1.118867673478244479e-14 9.629704802657790275e-14 3.224571759781469371e-14 -1.729464354286423550e-15
4.190000000000000000e+02 3.530404281616210938e+01 -1.891633415222167969e+01 1.633130344283126312e-13 6.999129466105091790e-14 6.999129466105091790e-14 2.484699491783152331e-14
4.200000000000000000e+02 3.683292007446289062e+01 -1.813700103759765625e+01 5.138824546555183226e-14 -2.372741387320510126e-14 8.298249647110608751e-15 1.434632442140135189e-13
4.210000000000000000e+02 3.610372543334960938e+01 -1.889264106750488281e+01 1.594851366856081532e-13 -1.146530244876264870e-13 1.344963636989993105e-14 -6.670692101994057932e-14
4.220000000000000000e+02 4.007241058349609375e+01 -1.868801307678222656e+01 -9.593604258445811994e-14 2.751097452331850018e-14 -2.052752160418801208e-14 -3.953276575996596265e-14
4.230000000000000000e+02 4.162683868408203125e+01 -1.840402603149414062e+01 -1.434447755076315861e-14 1.768561561305351248e-13 4.875350543740407383e-14 -2.302859983325904192e-14
4.240000000000000000e+02 4.225968933105468750e+01 -1.747655868530273438e+01 -7.954886884842596317e-14 1.165857503853534594e-14 -2.036708848178036407e-14 -2.214713499669885427e-14
4.250000000000000000e+02 4.316067886352539062e+01 -1.800927162170410156e+01 -4.418041182462778549e-14 -1.893446269457359221e-14 -1.893446269457359221e-14 1.540927081029527801e-14
4.260000000000000000e+02 4.450719451904296875e+01 -1.683739662170410156e+01 -1.246257617097028605e-14 8.616079448216587555e-14 2.210946574746856103e-14 -1.582428442838471061e-13
4.270000000000000000e+02 4.600943374633789062e+01 -1.638079071044921875e+01 8.332256325876974401e-15 9.507286180109736362e-14 3.102153476046594360e-14 -6.824600699015595517e-14
4.280000000000000000e+02 4.620460510253906250e+01 -1.707727622985839844e+01 3.463869409402534072e-14 -7.665674600079372403e-14 -1.260541472499756774e-14 3.850039766280856672e-16
4.290000000000000000e+02 4.695963668823242188e+01 -1.685164833068847656e+01 2.216389608465912237e-14 1.238761832911619565e-13 4.381202364333973420e-14 1.173838756502332964e-14
4.300000000000000000e+02 4.842967605590820312e+01 -1.628506278991699219e+01 1.091843171999390752e-14 2.755480170207533219e-14 1.154196994191747719e-14 2.666619807183568530e-14
4.310000000000000000e+02 4.769934082031250000e+01 -1.658501815795898438e+01 1.847786280809258358e-14 3.079455703565610325e-14 1.478172612253119550e-14 2.144478882936274450e-14
4.320000000000000000e+02 5.026415634155273438e+01 -1.464730834960937500e+01 -3.195584259447353803e-14 1.235574820625598425e-13 2.748049319567860693e-14 7.479023097448772583e-14
4.330000000000000000e+02 5.058943557739257812e+01 -1.530918502807617188e+01 -3.995206062138399739e-14 2.862863619128644399e-14 -3.397026905512792391e-15 -1.796784394176003524e-14
4.340000000000000000e+02 5.094629287719726562e+01 -1.429903411865234375e+01 3.488173495164691162e-14 6.070026480151785586e-14 2.867459958713625134e-14 -4.238729050913547791e-14
4.350000000000000000e+02 5.335887908935546875e+01 -1.376926708221435547e+01 -1.124020107133756607e-13 -3.673455176112991327e-14 -4.474096806472531440e-14 -2.922615694920215057e-14
4.360000000000000000e+02 5.473921966552734375e+01 -1.299309158325195312e+01 5.349879407209358340e-14 8.011674006505598022e-14 4.008465854707897458e-14 -4.783375640569388632e-14
4.370000000000000000e+02 5.540938949584960938e+01 -1.257375812530517578e+01 7.173026007802757453e-14 7.866065485334205326e-15 2.387889724549206033e-14 1.076716637398757170e-13
4.380000000000000000e+02 5.739889526367187500e+01 -1.124732017517089844e+01 -3.035736606212847966e-14 3.274064911329074845e-14 7.149849577003280013e-16 1.525939341247631309e-13
4.390000000000000000e+02 5.873836898803710938e+01 -1.036919403076171875e+01 -9.688536323042284959e-14 -7.583551028898100066e-14 -5.181626476632658629e-14 6.962419735797448217e-14
4.400000000000000000e+02 6.008578109741210938e+01 -9.506555557250976562e+00 -9.259159059046492835e-14 -2.226859105100564840e-13 -9.458324965253006589e-14 6.737993951851095620e-14
4.410000000000000000e+02 6.076625442504882812e+01 -9.087470054626464844e+00 -1.999190201405764977e-13 3.947053729864979932e-13 5.843590856428187985e-14 -7.099498126970221756e-14
4.420000000000000000e+02 6.144997787475585938e+01 -8.678005218505859375e+00 -2.178505856612056313e-13 -5.051230701075271057e-13 -2.168920967306198211e-13 -9.403675077122516934e-14
4.430000000000000000e+02 6.212962722778320312e+01 -8.263450622558593750e+00 -1.569011712004506065e-13 2.425854080058322676e-14 -3.979278793411408777e-14 -1.465905305128578640e-13
4.440000000000000000e+02 6.349705886840820312e+01 -7.460477828979492188e+00 -3.465674741544993998e-13 -1.142157115413544588e-13 -1.382349638402724512e-13 -1.607561062348314418e-13
4.450000000000000000e+02 6.415588378906250000e+01 -7.146358966827392578e+00 -5.136922246080921628e-13 -4.858776141841714136e-14 -1.686839958079527912e-13 -8.547528055355760324e-14
4.460000000000000000e+02 6.445291137695312500e+01 -6.644922256469726562e+00 -1.539951976700648650e-13 -2.947526933898964030e-13 -1.346243673179883804e-13 -2.337156347360230813e-13
4.470000000000000000e+02 6.699501037597656250e+01 -7.336488246917724609e+00 -6.414733653113680045e-14 6.401018495631738414e-14 -4.114584633146176724e-17 -2.357322507768461195e-14
4.480000000000000000e+02 6.805535888671875000e+01 -1.013655757904052734e+01 -3.647527158784358292e-14 2.245602250157407997e-13 5.642548602836916505e-14 5.700087889757080029e-14
4.490000000000000000e+02 2.889569854736328125e+01 -1.505057621002197266e+01 4.019046651471819276e-14 6.788022777622456554e-17 1.207750398172016681e-14 -1.382190904428409056e-14
4.500000000000000000e+02 2.773865127563476562e+01 -1.014599132537841797e+01 8.304272390178765728e-14 1.728425887657925042e-13 7.676559312264769064e-14 8.873864100131245713e-14
4.510000000000000000e+02 2.831755256652832031e+01 -1.302446937561035156e+01 8.124061726079087609e-14 1.720702573482224551e-13 7.599326170507764155e-14 1.230905991960991666e-14
4.520000000000000000e+02 2.709909439086914062e+01 -1.238162803649902344e+01 4.637623632016731057e-14 6.562647967374088398e-14 3.360081445935927946e-14 -1.720097249856798738e-14
4.530000000000000000e+02 2.679686737060546875e+01 -1.184070110321044922e+01 -9.088084153502720697e-14 -1.607345814335758155e-14 -3.208628905648248930e-14 -6.523109147022615462e-14
4.540000000000000000e+02 2.652435874938964844e+01 -1.118513488769531250e+01 1.102352801055084264e-13 1.387455959584588117e-13 7.469425875343202459e-14 -7.518166184007288311e-14
4.550000000000000000e+02 2.612281417846679688e+01 -1.052706623077392578e+01 1.495829962715536365e-13 6.410699743405676165e-14 6.410699743405676165e-14 4.981685365872817739e-14
4.560000000000000000e+02 2.573266220092773438e+01 -9.872826576232910156e+00 1.393553241552103472e-13 2.884784425227771010e-13 1.283501300033962345e-13 -3.220860061406601027e-14
4.570000000000000000e+02 7.328446197509765625e+01 -1.040306949615478516e+01 -1.340654882031264150e-13 7.979620924528779691e-14 -1.628078470379112214e-14 -2.617731437160302627e-14
4.580000000000000000e+02 7.256932830810546875e+01 -9.691176414489746094e+00 -1.620467201721674522e-14 2.218098887072153524e-13 6.168156263530732986e-14 -1.880753141929574629e-14
4.590000000000000000e+02 7.189617919921875000e+01 -8.959075927734375000e+00 3.567960610664257237e-14 2.440459943506279039e-13 8.391768183124703739e-14 2.022152586979471256e-14
4.600000000000000000e+02 7.106048583984375000e+01 -9.575162887573242188e+00 4.227725754115535528e-14 1.553716736431981493e-13 5.929467800005333578e-14 3.066637384568221547e-14
4.610000000000000000e+02 7.030928802490234375e+01 -1.029251194000244141e+01 2.600218353349462164e-14 5.689474228114804744e-14 2.486907876083233743e-14 -6.491204465218156083e-14
4.620000000000000000e+02 6.911859893798828125e+01 -9.091001510620117188e+00 1.211203175515568331e-13 6.334644316258533636e-14 5.534002685898993523e-14 4.900052734987773995e-14
4.630000000000000000e+02 7.330164337158203125e+01 -9.713186264038085938e+00 -1.284741220743471080e-13 8.219251288691525881e-14 -1.388448275622955475e-14 5.126108210324643866e-14
4.640000000000000000e+02 7.631107330322265625e+01 -1.034759235382080078e+01 -5.943526514050681553e-14 -4.834773260995600674e-14 -3.233490000276520449e-14 -2.016111378593064135e-14
4.650000000000000000e+02 7.331934356689453125e+01 -9.078275680541992188e+00 -9.603042238357298310e-14 1.875988513838633409e-13 2.747052700602121283e-14 -1.343621259175184490e-13
4.660000000000000000e+02 7.713080596923828125e+01 -1.034782981872558594e+01 -7.224382970647501290e-15 -7.172258934765723959e-14 -2.368409152608483281e-14 -7.469962555418582784e-14
4.670000000000000000e+02 7.965009307861328125e+01 -6.405161380767822266e+00 1.605350645169159596e-13 -6.845210704688187153e-14 2.762488520813115300e-14 5.812041250835217610e-14
4.680000000000000000e+02 6.840909576416015625e+01 -7.928518295288085938e+00 2.747952588405284252e-14 -3.397401039965594616e-14 -1.948344973516104826e-15 1.912184162909929402e-14
4.690000000000000000e+02 6.880690002441406250e+01 -9.599142074584960938e+00 3.362529709966671776e-14 1.974146350948793871e-13 6.931198101361654706e-14 1.579067145053222876e-13
4.700000000000000000e+02 6.948954010009765625e+01 -1.027744483947753906e+01 5.127905614238717491e-14 1.134786370231809227e-13 4.942730659441771368e-14 1.339549537916415178e-13
4.710000000000000000e+02 6.520411682128906250e+01 -6.817708015441894531e+00 -3.333869367638103709e-13 1.773765189632195427e-13 -4.680312398492453285e-14 -9.524576494255448944e-14
4.720000000000000000e+02 6.307490539550781250e+01 -6.978467941284179688e+00 -3.149418930942921024e-13 -8.922414673415146602e-14 -1.212498119485330705e-13 -5.519772871198300179e-14
4.730000000000000000e+02 6.749179840087890625e+01 -7.842565536499023438e+00 2.256818321631770541e-14 1.011739791337978867e-13 3.712264870503467762e-14 -4.601645399362336297e-14
4.740000000000000000e+02 6.884317779541015625e+01 -8.253495216369628906e+00 7.016440786667896279e-14 2.130742549630651461e-13 8.497160088180230608e-14 1.964020376996229722e-14
4.750000000000000000e+02 6.770668792724609375e+01 -6.873295307159423828e+00 -3.926308741021913851e-14 -6.257798776778192296e-14 -3.055232255340031844e-14 -4.161546731133378141e-14
4.760000000000000000e+02 2.456591224670410156e+01 -7.876487731933593750e+00 2.235970130294410996e-14 9.582728524809656229e-15 9.582728524809656229e-15 1.761234251973151088e-14
4.770000000000000000e+02 2.439764404296875000e+01 -8.918212890625000000e+00 1.398858395248005551e-15 -1.083822617021839782e-14 -2.831810501897707132e-15 -3.821692040519714118e-14
4.780000000000000000e+02 2.401734733581542969e+01 -8.246171951293945312e+00 2.353550670054337796e-14 4.439985773247064060e-14 2.038060882168443722e-14 -9.232474810702551160e-14
4.790000000000000000e+02 2.534370040893554688e+01 -9.211496353149414062e+00 8.905655618333951917e-14 1.754199406176978893e-13 7.934295175081665374e-14 4.161465754783620630e-14
4.800000000000000000e+02 2.495524978637695312e+01 -8.546114921569824219e+00 2.123901911548625732e-14 2.378571786147004596e-13 7.772885931905601509e-14 -5.603835470202427060e-14
4.810000000000000000e+02 1.735951614379882812e+01 2.382335215806961060e-01 6.023909940745114655e-14 1.630696039355353233e-13 6.699261506865408777e-14 -1.966944538018058908e-13
4.820000000000000000e+02 1.838089179992675781e+01 2.998152494430541992e+00 1.882118999497681133e-13 1.721641357038325437e-13 1.081128120513329127e-13 -6.780241922381066710e-14
4.830000000000000000e+02 2.626971244812011719e+01 8.602225303649902344e+00 -9.542818873433875360e-14 9.635505284280587723e-14 2.780586819687213759e-16 1.079391228633007349e-13
4.840000000000000000e+02 1.390228271484375000e+01 7.669537067413330078e+00 3.621356890032810527e-14 -5.739547427824689962e-14 -6.354571613375638306e-15 -9.090663877046878394e-14
4.850000000000000000e+02 1.237212562561035156e+01 2.043360710144042969e+00 1.666841916770668564e-14 1.443964576814532608e-13 4.831946203830844722e-14 2.440734754875686224e-15
4.860000000000000000e+02 1.437033748626708984e+01 6.026037693023681641e+00 1.021686533118904006e-13 1.181318497883721008e-13 6.609015228533146602e-14 -9.876021306092983010e-14
4.870000000000000000e+02 2.081334877014160156e+01 3.783083677291870117e+00 3.783365409019056810e-15 -2.125403192744339254e-14 -5.241200167285537531e-15 -1.877083829083386890e-13
4.880000000000000000e+02 1.973258781433105469e+01 4.206269264221191406e+00 2.223078356599836325e-13 9.527478767945921079e-14 9.527478767945921079e-14 -4.145536453177556258e-14
4.890000000000000000e+02 2.543541145324707031e+01 1.077122497558593750e+01 -8.255879026209875238e-14 2.391233641218376560e-13 4.696936944741623987e-14 -2.063920120421759707e-14
4.900000000000000000e+02 1.720196723937988281e+01 5.199295043945312500e+00 1.974071405473620811e-13 1.246351383644289657e-13 9.661268638404274522e-14 -1.137681799896067547e-13
4.910000000000000000e+02 1.540785980224609375e+01 3.414087891578674316e-01 1.080201873044847605e-13 2.064226881873937325e-13 9.433286671332169471e-14 -1.366686169616826430e-13
4.920000000000000000e+02 1.944775581359863281e+01 1.634443473815917969e+01 1.601845148494970839e-13 2.974052482149908139e-13 1.372769356956099474e-13 1.052091221217729688e-13
4.930000000000000000e+02 1.811606979370117188e+01 1.774977874755859375e+01 3.535518571158059731e-14 6.090317323809851802e-14 2.887750802371691350e-14 5.138128624285719093e-14
4.940000000000000000e+02 2.024147033691406250e+01 1.623360633850097656e+01 1.627431337207409928e-14 -1.302781396216728949e-13 -3.420114736665987032e-14 -2.982766892636531941e-14
4.950000000000000000e+02 1.874727630615234375e+01 1.697510337829589844e+01 4.486744363627753751e-14 1.107308011559157701e-13 4.667947411528435009e-14 5.514424705169336527e-14
4.960000000000000000e+02 2.543587493896484375e+01 6.562768936157226562e+00 -4.545386826258421276e-14 3.007764122400086171e-13 7.659676251560096349e-14 -3.619834263606826197e-14
4.970000000000000000e+02 2.373841476440429688e+01 1.440123271942138672e+01 1.018771520052905166e-13 5.509937124614783244e-14 4.709295494255243131e-14 -2.718242738373750217e-14
4.980000000000000000e+02 1.648839187622070312e+01 1.694495964050292969e+01 9.667761654164747087e-14 -9.581958571860602070e-14 2.574095010223192287e-16 -5.704721498791739953e-14
4.990000000000000000e+02 2.140711975097656250e+01 1.725619125366210938e+01 -5.206478762118278703e-14 -1.138153834416913424e-13 -4.976404962479634431e-14 -2.711407182489408013e-14
5.000000000000000000e+02 2.336557960510253906e+01 5.725540161132812500e+00 5.858689049306406438e-14 2.081124579307938594e-13 8.000980384953101932e-14 9.156547920805154471e-16
5.010000000000000000e+02 2.269610214233398438e+01 5.309169769287109375e+00 -2.189847424487884053e-13 -3.226053593100713934e-13 -1.624770332381633708e-13 6.414099394842776025e-14
5.020000000000000000e+02 2.429289054870605469e+01 5.693986415863037109e+00 3.133070856247734126e-14 1.506802901852719034e-13 5.460330131839066792e-14 9.995400096799930689e-14
5.030000000000000000e+02 1.529575252532958984e+01 1.387998008728027344e+01 9.652487956059857543e-14 2.586848107683642484e-13 1.065629043881834159e-13 1.431702521294264674e-13
5.040000000000000000e+02 1.723266792297363281e+01 1.691750907897949219e+01 7.032052620325329739e-14 5.301284110585842424e-14 3.700001188679941100e-14 -5.104687424714940414e-14
5.050000000000000000e+02 1.796825981140136719e+01 1.695129966735839844e+01 9.317062908947154609e-14 -5.820677852875306632e-15 2.620498693798982426e-14 6.794606245913784037e-14
5.060000000000000000e+02 1.251594924926757812e+01 1.160024929046630859e+01 -5.174495899172787752e-15 1.350352121787246062e-13 3.895821314744800368e-14 4.828648196347415378e-14
5.070000000000000000e+02 1.460395622253417969e+01 1.073937606811523438e+01 6.925348576531211234e-15 1.402208563020326815e-13 4.414386065888786792e-14 3.641563369209330214e-14
5.080000000000000000e+02 2.228665733337402344e+01 4.439980506896972656e+00 6.865298599252091238e-15 -3.859407910443424239e-13 -1.137226434983623635e-13 -4.171908993396908349e-14
5.090000000000000000e+02 2.345058631896972656e+01 1.550477409362792969e+01 1.482244299630570972e-14 5.210342587610473919e-14 2.007776066172313467e-14 -4.767099394268128898e-14
5.100000000000000000e+02 2.039012145996093750e+01 1.681705093383789062e+01 8.825632011235512442e-14 8.357508749726877406e-14 5.154942228288716954e-14 8.225067355720552809e-14
5.110000000000000000e+02 2.477678680419921875e+01 1.448040008544921875e+01 -3.674635177711811293e-15 2.729308478440634067e-13 8.077686333403735763e-14 1.135274701666560276e-14
5.120000000000000000e+02 2.619018363952636719e+01 9.326547622680664062e+00 2.691372142781412596e-14 2.631646799349657284e-13 8.702351447960332553e-14 1.107464272197267174e-13
5.130000000000000000e+02 1.530018329620361328e+01 1.550391292572021484e+01 -4.697381806445521946e-14 1.857476303844529664e-13 4.163214369599932407e-14 1.417271519327939489e-13
5.140000000000000000e+02 2.198533248901367188e+01 1.631576728820800781e+01 5.645972987636076190e-14 2.529517665206953980e-13 9.282345400131453150e-14 -5.347429449112720001e-14
5.150000000000000000e+02 2.543802833557128906e+01 9.991358757019042969e+00 3.586129128569683078e-14 1.526219743034490373e-13 5.654497866030422371e-14 -1.016892529925352007e-14
5.160000000000000000e+02 2.156194686889648438e+01 4.097681045532226562e+00 -9.788816892480900478e-14 -3.164577703617527105e-13 -1.243037790754630834e-13 -7.324950514848646566e-14
5.170000000000000000e+02 1.379142284393310547e+01 9.921760559082031250e+00 7.274729761999349648e-15 2.547479642598521332e-13 7.860680558075330837e-14 -6.000951959742734099e-14
5.180000000000000000e+02 1.318882560729980469e+01 1.155904102325439453e+01 1.006802948743366639e-15 2.291862175301390137e-13 6.905791178702172517e-14 5.415190390827169520e-14
5.190000000000000000e+02 1.341020107269287109e+01 3.311835289001464844e+00 4.564076438832997962e-14 -1.405679907326082279e-13 -2.847816925853619008e-14 -8.513613533774055941e-14
5.200000000000000000e+02 1.444841575622558594e+01 7.139040470123291016e+00 1.064213753470925894e-13 9.136011310537442420e-14 5.933444789099281969e-14 -1.234748251994349788e-13
5.210000000000000000e+02 1.552505302429199219e+01 5.882229328155517578e+00 8.776789380991398271e-14 1.187990390061994736e-14 2.989434058370959990e-14 -6.766424443319096760e-14
5.220000000000000000e+02 2.412056922912597656e+01 1.501135158538818359e+01 9.829132272638416157e-14 8.787579903113060253e-14 5.585013720488078703e-14 3.130133684799835114e-14
5.230000000000000000e+02 1.062955284118652344e+01 1.712982177734375000e+00 2.668832934868154566e-14 -8.006404106320960667e-14 -1.601271402257818666e-14 7.548329366072192848e-14
5.240000000000000000e+02 7.430458068847656250e+00 2.561027526855468750e+00 1.314164841401468942e-14 -4.011881430364405698e-14 -8.093149936295399721e-15 -2.571511559734066671e-14
5.250000000000000000e+02 5.862427234649658203e+00 1.865766286849975586e+00 1.454687742876228929e-13 6.234376621720716383e-14 6.234376621720716383e-14 -5.666001378135435661e-16
5.260000000000000000e+02 6.649335861206054688e+00 1.860936999320983887e+00 4.286075482159631966e-14 -2.738205441468050116e-14 4.643609952668156099e-15 -1.256225483879658267e-13
5.270000000000000000e+02 3.653226792812347412e-01 4.286459922790527344e+00 -8.166542800076143083e-14 2.852571694481054188e-13 6.107751972369776516e-14 1.623400815631195065e-14
5.280000000000000000e+02 1.883484601974487305e+00 3.424299478530883789e+00 -4.791273714582766630e-14 -2.053403020535471413e-14 -2.053403020535471413e-14 -6.638970379306205483e-14
5.290000000000000000e+02 2.645383358001708984e+00 4.174918651580810547e+00 -7.637104009361895401e-15 1.797307555605545670e-13 5.162809470302814896e-14 -1.878178331176511007e-14
5.300000000000000000e+02 2.722314596176147461e+00 1.879164934158325195e+00 1.684323660362460617e-14 1.444713760515720091e-13 4.839438379655898459e-14 9.699456271798287399e-14
5.310000000000000000e+02 3.770455121994018555e-01 2.691601276397705078e+00 -8.334886363178199004e-15 1.336807455096927777e-13 3.760376003094333119e-14 -7.741344457828924774e-14
5.320000000000000000e+02 8.226879119873046875e+00 1.849243283271789551e+00 8.967435491001249370e-14 -5.307003277045703460e-14 1.098129596424027993e-14 6.153677421143546877e-14
5.330000000000000000e+02 8.232802391052246094e+00 2.541081428527832031e+00 1.108743427472892729e-13 1.390194789797558061e-13 7.496814177472901908e-14 1.344148859057370249e-13
5.340000000000000000e+02 5.832804679870605469e+00 3.313741922378540039e+00 -1.636300576846462344e-15 1.823025237712716518e-13 5.419986630187702270e-14 -5.132421316287119617e-14
5.350000000000000000e+02 5.508718109130859375e+01 1.525571823120117188e+01 -1.256832772621521710e-13 -2.368680609727419339e-13 -1.087654001152155159e-13 -3.283364994276748161e-14
5.360000000000000000e+02 5.534696197509765625e+01 1.404516696929931641e+01 1.105382671788730786e-13 -4.412835317968953619e-14 1.992297386094188383e-14 -1.257573011654786188e-13
5.370000000000000000e+02 3.384688186645507812e+01 -1.791235351562500000e+01 1.535424755004163866e-13 2.488077289770213030e-13 1.207050545669677288e-13 -2.220770124055932576e-14
5.380000000000000000e+02 4.723686981201171875e+01 6.628344535827636719e+00 -3.556612740863301925e-13 -1.295507890417338381e-13 -1.455636284251882184e-13 1.807681337517158537e-13
5.390000000000000000e+02 4.612772369384765625e+01 7.284430503845214844e+00 -2.752506068123133920e-13 6.503924867206842264e-14 -6.306340540919441739e-14 1.919202101928474402e-13
5.400000000000000000e+02 4.399795150756835938e+01 8.994752883911132812e+00 -2.112852942734097517e-13 -4.565584564054925298e-13 -2.003531211379125376e-13 1.388719326166076851e-13
5.410000000000000000e+02 5.445659255981445312e+01 9.226043701171875000e+00 2.458129254073911085e-14 -2.639708655653716374e-13 -7.181686750281843223e-14 -2.045351294745461485e-14
5.420000000000000000e+02 5.614998626708984375e+01 9.407038688659667969e+00 4.642321276742203406e-14 -7.160623412575881086e-14 -7.554907085127390842e-15 -3.111089673640127229e-14
5.430000000000000000e+02 4.331658935546875000e+01 1.636373138427734375e+01 5.990384376692789448e-14 2.201146030852627056e-13 8.400553608853625343e-14 1.231303741692363340e-13
5.440000000000000000e+02 4.326999664306640625e+01 1.437973022460937500e+01 1.614385708448295986e-13 2.521917407977830594e-13 1.240890934927837974e-13 -3.931205607896580412e-14
5.450000000000000000e+02 4.503585433959960938e+01 1.710102462768554688e+01 -3.561911450756057767e-16 9.134924397859525702e-14 2.729791524389794249e-14 2.212780739890840564e-14
5.460000000000000000e+02 4.387873458862304688e+01 1.712329292297363281e+01 8.883679517924028546e-14 2.839842618874988123e-13 1.118463164423953715e-13 -3.459231056983369523e-14
5.470000000000000000e+02 4.963260269165039062e+01 6.525321006774902344e+00 1.500178155528289481e-13 -1.644613942643549653e-13 -4.333075815743468034e-15 1.099374362161995022e-13
5.480000000000000000e+02 5.199984359741210938e+01 7.161196231842041016e+00 2.727311106988372646e-13 -6.611903949696462668e-14 6.198362136056179139e-14 6.255906843987205090e-14
5.490000000000000000e+02 4.303656387329101562e+01 1.196566104888916016e+01 -2.949190642132643037e-13 -3.322731629770703243e-13 -1.881576627360895260e-13 1.291614655941214496e-13
5.500000000000000000e+02 4.212294387817382812e+01 1.061786746978759766e+01 3.005524973863360483e-14 -2.158739224704386839e-13 -5.574560317479423932e-14 7.874441116523245299e-14
5.510000000000000000e+02 4.566797256469726562e+01 7.868531703948974609e+00 -1.285351626566580419e-13 -2.495280186903120478e-13 -1.134189584698491737e-13 1.799338943900968824e-13
5.520000000000000000e+02 4.458338546752929688e+01 8.080805778503417969e+00 -1.730479908673698830e-13 -1.971190951351869947e-13 -1.110501258007670633e-13 1.152681330376589819e-13
5.530000000000000000e+02 4.991588211059570312e+01 1.922730636596679688e+01 -4.184069676014048889e-14 -6.368267458506382539e-14 -3.165701275881400989e-14 -6.917753994422834452e-14
5.540000000000000000e+02 4.899483489990234375e+01 1.935488128662109375e+01 7.677059400516828003e-14 -1.284926619314966101e-14 1.917639732716604900e-14 -4.523255888225739818e-14
5.550000000000000000e+02 5.658981323242187500e+01 1.174544334411621094e+01 -2.995860327935188916e-14 -1.283940164744593743e-14 -1.283940164744593743e-14 5.983072110665732524e-14
5.560000000000000000e+02 5.447290420532226562e+01 1.697748756408691406e+01 -1.786035241143485441e-13 -7.654436844561560149e-14 -7.654436844561560149e-14 2.146650912582259707e-13
5.570000000000000000e+02 5.528549957275390625e+01 1.330389499664306641e+01 1.870121862001996454e-14 -2.207399302407708763e-13 -6.061161772139000981e-14 3.321214492118217121e-14
5.580000000000000000e+02 5.634633255004882812e+01 1.450354576110839844e+01 8.568590037809006854e-14 1.282244303140236963e-13 6.417309988526048725e-14 -4.853003104086407726e-14
5.590000000000000000e+02 5.279971694946289062e+01 1.743557357788085938e+01 -4.550592690752246205e-14 -1.338799134487783649e-13 -5.381575041282435357e-14 5.203527699330044720e-14
5.600000000000000000e+02 5.054964065551757812e+01 1.837919616699218750e+01 1.505832811958887629e-13 1.878474623301460561e-14 5.081040975333031562e-14 -4.763429369914265465e-14
5.610000000000000000e+02 4.645647430419921875e+01 1.796995925903320312e+01 5.813769875673974186e-14 7.066710498021544495e-14 3.864143976583384044e-14 3.855488993928339603e-15
5.620000000000000000e+02 2.329658126831054688e+01 -5.846132278442382812e+00 1.951882606620312412e-15 9.233841583066240699e-14 2.828709048409688148e-14 -1.475063289829020574e-13
5.630000000000000000e+02 2.380846786499023438e+01 -5.446443080902099609e+00 1.825386358993846825e-13 1.382789688959482066e-13 9.624527737284171991e-14 -7.405177409854427073e-14
5.640000000000000000e+02 2.416316795349121094e+01 -7.198909759521484375e+00 -2.282385333518283793e-14 2.647240337095430052e-13 7.257005597578053413e-14 -3.257882516278370888e-14
5.650000000000000000e+02 2.373822021484375000e+01 -6.519708156585693359e+00 8.784943258954847067e-14 1.291516535644604557e-13 6.510032991196082475e-14 -8.074372062887719137e-14
5.660000000000000000e+02 2.122774505615234375e+01 -2.175337314605712891e+00 1.120835805353166681e-13 -1.487173353757233196e-14 2.916355443813647974e-14 -5.609770799470427394e-14
5.670000000000000000e+02 5.306579971313476562e+01 7.011707305908203125e+00 4.719794637043049634e-14 -8.271194059522590791e-14 -1.065419979209792853e-14 -3.776464208081302398e-14
5.680000000000000000e+02 4.613514328002929688e+01 1.864885330200195312e+01 1.188438318025161755e-13 -9.775751578676092346e-14 6.325894042396923087e-15 4.629711327849839186e-14
5.690000000000000000e+02 5.059229278564453125e+01 5.986281394958496094e+00 2.117806797985455347e-13 1.136386246062583150e-13 9.762579199906751271e-14 7.460944026222576797e-14
5.700000000000000000e+02 5.233857345581054688e+01 6.490573883056640625e+00 2.046298108173902341e-13 1.334494445287201514e-13 1.014237725380749688e-13 -1.724085284260379325e-13
5.710000000000000000e+02 5.191735076904296875e+01 1.941773796081542969e+01 1.209283866619725867e-13 2.895097627342996249e-14 4.496380888062076475e-14 5.514703887228751544e-14
5.720000000000000000e+02 4.497603225708007812e+01 7.512991428375244141e+00 -2.133433268372217362e-13 -6.855737630156663598e-14 -8.457020890875743824e-14 1.327985302019413227e-13
5.730000000000000000e+02 4.417390823364257812e+01 9.535820007324218750e+00 -1.564925489541679759e-13 2.443366316836215885e-14 -3.961766556633515568e-14 1.830590800472320367e-13
5.740000000000000000e+02 5.550055313110351562e+01 9.021924972534179688e+00 4.820789339959495254e-15 -4.554434086811998128e-13 -1.351867971949652358e-13 1.797582976838674879e-14
5.750000000000000000e+02 4.142353820800781250e+01 1.326212882995605469e+01 2.354427857374514349e-14 3.296587856209745593e-14 1.695304764897254818e-14 3.390544477664160505e-14
5.760000000000000000e+02 4.297071838378906250e+01 1.549581241607666016e+01 1.813961849651823943e-13 1.349299090427219516e-13 9.489782413661315696e-14 5.927379355570583375e-14
5.770000000000000000e+02 4.266448974609375000e+01 1.467269039154052734e+01 -7.407648035554978416e-14 7.119257033937412271e-14 -8.651719460615143673e-16 8.095342565782662203e-14
5.780000000000000000e+02 4.242761230468750000e+01 1.383568096160888672e+01 1.592964990601228314e-13 6.826992720058641662e-14 6.826992720058641662e-14 2.617012136781494275e-14
5.790000000000000000e+02 5.313659286499023438e+01 1.798310852050781250e+01 -4.958972007985604225e-14 -2.125273596703409346e-14 -2.125273596703409346e-14 1.718673624641689490e-13
5.800000000000000000e+02 5.596215820312500000e+01 1.249314498901367188e+01 1.210312355200105720e-15 -9.098319022010983859e-14 -2.693186317947841857e-14 1.496486989232062581e-14
5.810000000000000000e+02 5.383036422729492188e+01 1.750148582458496094e+01 -3.207722580394686829e-14 -2.425021175620628577e-13 -8.237380504268199122e-14 9.443916596007032038e-14
5.820000000000000000e+02 5.160296630859375000e+01 1.875410461425781250e+01 6.765833553135092160e-14 -1.675451837272919076e-14 1.527114514758651925e-14 3.647843949106631400e-14
5.830000000000000000e+02 5.078024291992187500e+01 1.902612686157226562e+01 2.094904924445500916e-14 1.004800626383528517e-13 3.642873220958964264e-14 2.782428523424428785e-14
5.840000000000000000e+02 5.433639144897460938e+01 8.064779281616210938e+00 -3.548521882151128848e-14 -6.095890122976427294e-14 -2.893323601538266843e-14 1.097593695618959142e-13
5.850000000000000000e+02 5.492276763916015625e+01 8.570199966430664062e+00 6.082124821144008209e-14 -1.569375461833374952e-13 -2.883488871394286612e-14 -1.364383595253010339e-13
5.860000000000000000e+02 4.889993667602539062e+01 5.843285560607910156e+00 3.561466578464247967e-14 1.067653249337864596e-13 4.271399789315503959e-14 1.890600170991948992e-13
5.870000000000000000e+02 4.500038528442382812e+01 1.875414657592773438e+01 9.550092514758537487e-14 1.781818101268331511e-13 8.210482125995191560e-14 1.708855767394018565e-13
5.880000000000000000e+02 4.699387359619140625e+01 1.914786911010742188e+01 2.391276501085507628e-14 1.024832786179503269e-14 1.024832786179503269e-14 -9.786659330157654324e-15
5.890000000000000000e+02 4.228271484375000000e+01 1.299130630493164062e+01 -2.442893435282422754e-13 -5.894448747460409588e-14 -9.097014591272212236e-14 1.854850535589359223e-14
5.900000000000000000e+02 7.897519683837890625e+01 -3.333365678787231445e+00 -3.088177500179534185e-13 5.065333257545968915e-14 -7.744932489393493991e-14 -9.976902252484612377e-14
5.910000000000000000e+02 7.893864440917968750e+01 9.354201316833496094e+00 1.032380696772486339e-13 -2.760117438424525282e-13 -5.183210428244024170e-14 -4.805924335251655910e-14
5.920000000000000000e+02 7.894866180419921875e+01 2.997081279754638672e+00 5.673591479439521468e-13 1.439918063256273584e-14 1.745275067044707584e-13 2.108974988732342098e-14
5.930000000000000000e+02 7.945681762695312500e+01 4.115967178344726562e+01 4.917450622317787873e-15 2.107478747382664740e-15 2.107478747382664740e-15 -5.318258312035639701e-14
5.940000000000000000e+02 7.872000122070312500e+01 3.945393371582031250e+01 -5.483339612444640410e-14 -1.150019207467323223e-13 -5.095059709423269134e-14 -6.525223341258962195e-14
5.950000000000000000e+02 7.780776977539062500e+01 3.542576980590820312e+01 8.901540393463011624e-14 -7.601489662061641089e-15 2.442417470528701617e-14 8.484200484087239813e-14
5.960000000000000000e+02 7.779115295410156250e+01 3.466467285156250000e+01 2.297718493336070589e-14 -2.417828578408359741e-13 -6.564169916173714925e-14 -3.581162466180162762e-14
5.970000000000000000e+02 7.871035766601562500e+01 3.318731689453125000e+01 7.579138326056084063e-14 -3.614440018985531911e-14 1.189409509061824591e-14 1.541979434763196544e-14
5.980000000000000000e+02 7.957350158691406250e+01 3.330524826049804688e+01 8.862073401505465853e-14 1.294822132543241300e-13 6.543088282556092095e-14 -1.009529526624754550e-14
5.990000000000000000e+02 7.894139099121093750e+01 8.560749053955078125e+00 -1.882072920905350499e-13 -8.066026416665011967e-14 -8.066026416665011967e-14 4.641084947452391030e-14
6.000000000000000000e+02 7.824958038330078125e+01 3.706724882125854492e+00 2.300105364418797427e-13 9.857595290171591862e-14 9.857595290171591862e-14 -6.365357730925974566e-15
6.010000000000000000e+02 7.894460296630859375e+01 6.974672317504882812e+00 -2.598162299454614965e-13 -2.028517057019868508e-13 -1.388003888257507978e-13 8.491846142282336030e-14
6.020000000000000000e+02 7.964902496337890625e+01 4.696939945220947266e+00 -5.137433989506334786e-13 -1.744248056536820690e-13 -2.064504708680636735e-13 -1.860056400083184153e-14
6.030000000000000000e+02 7.894763946533203125e+01 4.590090751647949219e+00 3.545897570792627684e-13 -3.103675086033041985e-14 9.706590322093242018e-14 1.000627057883181348e-13
6.040000000000000000e+02 7.895033264160156250e+01 2.203504562377929688e+00 -8.420373773243561288e-13 -4.523750623229572110e-13 -3.883237318941940019e-13 9.153688007232374524e-13
6.050000000000000000e+02 7.895215606689453125e+01 1.411829710006713867e+00 -1.240307878104529582e-12 2.462055895529474681e-13 -2.982307055390126527e-13 1.220126701496210275e-13
6.060000000000000000e+02 7.896514892578125000e+01 -1.755975365638732910e+00 -5.215501966936153533e-13 -2.692724515584998812e-13 -2.372467998966454328e-13 -1.985156424010384169e-13
6.070000000000000000e+02 7.895664215087890625e+01 -1.738484054803848267e-01 -6.109722103242454239e-13 -4.677244919495948672e-13 -3.236090052611412249e-13 -5.336322746532506933e-13
6.080000000000000000e+02 7.965682220458984375e+01 -2.449034214019775391e+00 -5.146165069601360553e-13 1.454576747678820725e-13 -1.107476469471707636e-13 -1.420634714466989523e-13
6.090000000000000000e+02 7.829139709472656250e+01 -3.408900499343872070e+00 2.550357386214840982e-13 1.550519830801136423e-13 1.230263178657320378e-13 6.416137694927048774e-14
6.100000000000000000e+02 7.897005462646484375e+01 -2.545262098312377930e+00 3.354176474328757207e-13 2.352523286851954110e-13 1.712009982564322019e-13 1.969233424329447368e-13
6.110000000000000000e+02 7.478451538085937500e+01 -9.627758979797363281e+00 -1.811782128946677617e-14 -5.351572795477509137e-14 -2.149006443445938136e-14 -7.666932952225813391e-14
6.120000000000000000e+02 7.897044372558593750e+01 -5.683547496795654297e+00 1.712403954528748939e-13 -1.096150554764745155e-13 1.848760368698600803e-14 6.954555204288781489e-14
6.130000000000000000e+02 7.891009521484375000e+01 -7.234150886535644531e+00 9.043337774591528322e-14 1.302590576634371500e-13 6.620773401093751898e-14 2.039211661130583414e-14
6.140000000000000000e+02 7.720065307617187500e+01 -8.746910095214843750e+00 8.620489440553172344e-14 -1.003078913333621536e-13 -4.230898654832655412e-15 -3.182733075571611558e-14
6.150000000000000000e+02 7.877590942382812500e+01 -1.035124015808105469e+01 9.336055420503669433e-14 1.315135608921658150e-13 6.746223723966618402e-14 7.126532030514790006e-15
6.160000000000000000e+02 7.880284881591796875e+01 -9.568870544433593750e+00 -7.846670633127744710e-14 -1.251304832319832805e-13 -6.107915957948364949e-14 5.899460599057665920e-16
6.170000000000000000e+02 7.891220092773437500e+01 1.650592422485351562e+01 4.422325136296811898e-14 1.104547158489559144e-13 4.640339219645628344e-14 -9.287059816109281135e-15
6.180000000000000000e+02 7.887173461914062500e+01 2.286673736572265625e+01 4.930865083103454227e-14 1.355096454968771069e-13 5.544549262531846268e-14 1.125235430006477078e-13
6.190000000000000000e+02 7.881657409667968750e+01 2.920711517333984375e+01 1.339674170344274176e-14 -1.713401285002164043e-14 -1.121181407501140644e-15 -2.683591806347702946e-14
6.200000000000000000e+02 7.959093475341796875e+01 3.091707611083984375e+01 5.922126396044891106e-14 1.168824423098541176e-13 5.283110849295911959e-14 -2.521619116855125520e-14
6.210000000000000000e+02 7.879998779296875000e+01 2.999695205688476562e+01 -2.712309272578233843e-14 1.125129195134232443e-14 -4.761540232332004199e-15 -5.100423714968346442e-15
6.220000000000000000e+02 7.882730865478515625e+01 2.841891288757324219e+01 1.722309530508437520e-14 -3.836962350492814644e-14 -6.343957867030068296e-15 4.998602985521738429e-14
6.230000000000000000e+02 7.883366394042968750e+01 2.763033866882324219e+01 -1.184926926001660108e-14 -5.078258133288122284e-15 -5.078258133288122284e-15 4.748616457732682261e-14
6.240000000000000000e+02 7.884307861328125000e+01 2.604751014709472656e+01 6.181853802727371727e-14 -2.480120330026341913e-13 -5.585804849260814220e-14 1.667990662853734846e-14
6.250000000000000000e+02 7.961925506591796875e+01 2.456415748596191406e+01 -9.577144036588408627e-14 4.706045598243217831e-15 -2.731961792207249218e-14 2.371985833931559290e-14
6.260000000000000000e+02 7.885621643066406250e+01 2.445745468139648438e+01 4.045380228175597670e-14 1.088392410594253568e-13 4.478791401879393674e-14 6.548505312363667522e-15
6.270000000000000000e+02 7.810051727294921875e+01 2.357423782348632812e+01 2.392226363832558600e-14 1.932561912148383909e-13 6.515353713357555088e-14 1.036373135747392649e-13
6.280000000000000000e+02 7.887859344482421875e+01 2.207271194458007812e+01 -6.176740434231386967e-14 -2.647174471813451557e-14 -2.647174471813451557e-14 -1.388748294692872948e-14
6.290000000000000000e+02 7.888494873046875000e+01 2.127922439575195312e+01 -6.522779439447896725e-16 2.259592693347207276e-14 6.583094749797744130e-15 2.614627739034973419e-14
6.300000000000000000e+02 7.743839263916015625e+01 1.793975639343261719e+01 -5.266868823125721299e-14 -2.513270353551172454e-13 -9.119871605947280080e-14 -7.715529604102044914e-14
6.310000000000000000e+02 7.963492584228515625e+01 1.820606803894042969e+01 1.699381195659210864e-13 -1.867127431126863052e-14 4.538005442342868401e-14 4.634250408007585531e-14
6.320000000000000000e+02 7.890820312500000000e+01 1.730205917358398438e+01 2.607072374552054511e-14 -4.005853808386472537e-13 -1.123543939092128130e-13 1.716567832972179519e-14
6.330000000000000000e+02 7.890423583984375000e+01 1.809795188903808594e+01 5.557041812657721042e-15 -1.119957804881360763e-13 -3.193162084031385406e-14 -6.584667435870911190e-14
6.340000000000000000e+02 7.891629791259765625e+01 1.571160411834716797e+01 1.105658059140542104e-13 4.738534732781282677e-14 4.738534732781282677e-14 4.140223523719198384e-14
6.350000000000000000e+02 7.891993713378906250e+01 1.491971683502197266e+01 -3.562308529213818742e-14 3.048391278444827213e-14 -1.541752324054213984e-15 -3.547687724104672813e-14
6.360000000000000000e+02 7.821584320068359375e+01 1.244992637634277344e+01 -1.514350744683066324e-14 3.926087496016091027e-14 7.235209745779305757e-15 5.700951863363279415e-14
6.370000000000000000e+02 7.892613220214843750e+01 1.333230876922607422e+01 -5.623104792126104590e-14 -6.984996890786743240e-14 -3.782430369348582788e-14 1.506333984413119054e-13
6.380000000000000000e+02 7.964450836181640625e+01 1.105427360534667969e+01 2.100227679486046939e-14 1.005028715415565155e-13 3.645154450092509546e-14 4.059813330783632046e-14
6.390000000000000000e+02 7.953777313232421875e+01 3.725646209716796875e+01 6.436856120816888960e-14 -2.011682107786599838e-13 -4.103989487114732826e-14 -4.453756496090345574e-14
6.400000000000000000e+02 7.857826232910156250e+01 3.789013671875000000e+01 5.851702721557452969e-14 -2.265514978307819893e-13 -5.041033915168316448e-14 5.019027554506352417e-17
6.410000000000000000e+02 7.951839447021484375e+01 4.039712524414062500e+01 -6.833642267507766821e-14 -1.207889311575366387e-13 -5.673760750503700767e-14 -2.651049647547139981e-14
6.420000000000000000e+02 7.957212829589843750e+01 3.410007476806640625e+01 7.686650354578588445e-15 -1.339585723163921882e-13 -3.788157667324737465e-14 4.860776156036770990e-14
6.430000000000000000e+02 7.868776702880859375e+01 3.556510162353515625e+01 -6.799475668920959559e-15 -9.441595725731555255e-14 -3.036463021668413254e-14 -7.653387878959680424e-14
6.440000000000000000e+02 4.526229476928710938e+01 6.915177345275878906e+00 -4.283769858477205761e-14 7.314288741734967236e-14 9.091555294520568820e-15 6.357332601970508423e-14
6.450000000000000000e+02 5.592594909667968750e+01 1.179236125946044922e+01 -4.859901340408846748e-14 -3.410847992935117645e-13 -1.169051427928405329e-13 -3.829146608081909764e-14
6.460000000000000000e+02 6.373821640014648438e+01 -6.638552665710449219e+00 -2.024199763969031229e-13 5.050142907483089194e-14 -4.557556318018213259e-14 3.302521533763498780e-15
6.470000000000000000e+02 4.085232162475585938e+01 -1.857487297058105469e+01 1.262103485957788429e-14 -6.321740955153240527e-14 -1.517891172995999849e-14 -6.751203600070115884e-14
6.480000000000000000e+02 3.848572921752929688e+01 -1.878514671325683594e+01 5.614719843574644820e-14 6.981403438211311596e-14 3.778836916773151144e-14 -1.240330991092561310e-15
6.490000000000000000e+02 3.605296325683593750e+01 -1.817089843750000000e+01 7.935239786224443370e-14 7.975912275472521462e-14 4.773345754034361010e-14 8.292859976467229638e-15
6.500000000000000000e+02 4.150067901611328125e+01 -1.765124702453613281e+01 -1.221278107262730936e-14 -9.673594661852719101e-14 -3.268461957789577099e-14 9.650250603232980035e-15
6.510000000000000000e+02 4.064830780029296875e+01 -1.705675697326660156e+01 5.456320277866764934e-15 -8.916347207007374598e-14 -2.511214672350822047e-14 5.688653622595504777e-14
6.520000000000000000e+02 4.436629486083984375e+01 -1.615260696411132812e+01 3.306214893875059069e-14 -7.733240724215953432e-14 -1.328107681339632529e-14 -6.643479982717387378e-14
6.530000000000000000e+02 6.238851547241210938e+01 -7.364164352416992188e+00 -1.774300785505403266e-13 -3.029051483379938126e-14 -6.231618004818098577e-14 -1.436549718156904243e-13
6.540000000000000000e+02 3.919347000122070312e+01 -1.798766899108886719e+01 6.463893412493246227e-14 2.564571547746669067e-13 9.632882192649530606e-14 1.073185052109792981e-13
6.550000000000000000e+02 5.197690582275390625e+01 -1.455665588378906250e+01 -1.191417993586353988e-14 -1.309211799301740475e-13 -4.285061075502000216e-14 -6.336445447117575180e-14
6.560000000000000000e+02 5.231008529663085938e+01 -1.356040382385253906e+01 -7.519052519283295211e-14 -3.067302000499955161e-13 -1.145762223162330451e-13 -9.768173005490418670e-14
6.570000000000000000e+02 5.607127761840820312e+01 -1.213552188873291016e+01 8.406736949368581735e-14 1.961571909677578551e-13 8.406736949368581735e-14 6.405133042876320904e-14
6.580000000000000000e+02 5.366555023193359375e+01 -1.279528522491455078e+01 4.564778798552861228e-14 -1.062517722459979663e-13 -1.818119629458034292e-14 -4.036150957182314813e-14
6.590000000000000000e+02 6.281065368652343750e+01 -7.847763538360595703e+00 -2.483648865996695987e-13 -1.407553002104322548e-13 -1.167360614640414185e-13 -7.906011728533307581e-14
6.600000000000000000e+02 4.987667083740234375e+01 -1.564594554901123047e+01 -1.451142435653519219e-14 -5.197012999526122445e-14 -1.994446647494551444e-14 7.762625313595741816e-14
6.610000000000000000e+02 4.816789627075195312e+01 -1.560035514831542969e+01 -2.285917122095155324e-14 -5.554773627831563476e-14 -2.352207275799992475e-14 2.032630384537006951e-14
6.620000000000000000e+02 4.673733901977539062e+01 -1.614063835144042969e+01 2.618562545888148546e-14 5.697336049118040258e-14 2.494769527679879806e-14 9.136075685041433747e-14
6.630000000000000000e+02 4.526341247558593750e+01 -1.660948562622070312e+01 -1.438510294497936937e-14 1.310878082515579135e-13 3.501080922028131093e-14 -3.345870265960074197e-14
6.640000000000000000e+02 3.689810943603515625e+01 -1.886913299560546875e+01 1.757345489830988705e-13 1.896921747283897286e-13 1.096280184686992953e-13 7.536137512642593350e-14
6.650000000000000000e+02 5.266449356079101562e+01 -1.415798377990722656e+01 -3.263196800989444368e-14 8.890345158999151537e-15 -7.122487448191650722e-15 2.379346380836609709e-14
6.660000000000000000e+02 5.061886596679687500e+01 -1.366047382354736328e+01 -8.467335041667869988e-14 7.808879411153046846e-14 -1.975365959808227448e-15 1.011553511852218701e-13
6.670000000000000000e+02 4.887561798095703125e+01 -1.529844570159912109e+01 -2.077944275522859707e-14 8.259642563001115545e-14 1.854509350718205191e-14 5.969290545800726155e-14
6.680000000000000000e+02 3.996803283691406250e+01 -1.791181945800781250e+01 8.221629757207415956e-14 -1.051539396193252457e-14 2.151026955838318544e-14 -3.258870495508048304e-14
6.690000000000000000e+02 6.102025985717773438e+01 -8.163193702697753906e+00 -2.076894835582529519e-13 -2.262626257144503827e-13 -1.301856300713055692e-13 -1.545189486345383001e-13
6.700000000000000000e+02 4.239728546142578125e+01 -1.821314430236816406e+01 3.202625813744468253e-14 -5.490088432155183773e-14 -6.862387770528851835e-15 7.876840591456227281e-15
6.710000000000000000e+02 4.300551605224609375e+01 -1.728117179870605469e+01 1.214886887921859393e-13 -1.766881590039084959e-13 -1.655983970826405138e-14 2.969186116931672205e-15
6.720000000000000000e+02 6.034032058715820312e+01 -8.567971229553222656e+00 -1.831043590404604626e-13 -2.157261457143289096e-13 -1.196491500711840961e-13 3.266798994944891676e-13
6.730000000000000000e+02 5.673385620117187500e+01 -1.169158458709716797e+01 5.496123033684602310e-14 2.065586064822419465e-13 7.845595240097910650e-14 -1.767108594868949112e-14
6.740000000000000000e+02 5.563510513305664062e+01 -1.156706809997558594e+01 9.035125620761308429e-14 1.302238617504128393e-13 6.617253809791320829e-14 2.760108527637920167e-14
6.750000000000000000e+02 3.279872512817382812e+01 -1.646489334106445312e+01 -1.420524312192644398e-14 1.311648814734944768e-13 3.508789260661324128e-14 -1.147616479927823785e-14
6.760000000000000000e+02 5.965999221801757812e+01 -8.979552268981933594e+00 -5.498310411567591816e-14 1.136886537602549430e-13 1.761166658743960195e-14 -1.027628028786760350e-13
6.770000000000000000e+02 3.761296463012695312e+01 -1.809668731689453125e+01 4.562722541370106688e-14 -9.482284478012220630e-14 -1.475868682636587853e-14 -8.626282637692623406e-15
6.780000000000000000e+02 5.405407333374023438e+01 -1.338724899291992188e+01 -6.276642210535990363e-14 -1.184017890242666793e-13 -5.435046537176704828e-14 -4.354267309534349747e-15
6.790000000000000000e+02 5.299186706542968750e+01 -1.317941856384277344e+01 -1.578433699933948220e-13 2.385473986583636768e-14 -4.019658886886094684e-14 9.414120687428056966e-14
6.800000000000000000e+02 5.432707595825195312e+01 -1.240191841125488281e+01 3.174173299419838501e-14 1.360359985465645072e-14 1.360359985465645072e-14 1.158605546572322176e-15
6.810000000000000000e+02 4.745431518554687500e+01 -1.588116455078125000e+01 -4.132410491813724718e-14 -1.771033067920167736e-14 -1.771033067920167736e-14 2.029840088602161835e-14
6.820000000000000000e+02 6.170128250122070312e+01 -7.763072967529296875e+00 -2.126542079363899496e-13 -3.198922517936436671e-13 -1.597639392742628006e-13 -6.329044412037646006e-14
6.830000000000000000e+02 4.915522766113281250e+01 -1.596920013427734375e+01 4.968661387275835617e-14 4.416973582136059229e-14 2.815690490823568454e-14 3.875815751783369401e-14
6.840000000000000000e+02 5.629516601562500000e+01 -1.113172531127929688e+01 -9.719576353614187147e-14 2.328503600872167123e-13 4.069638235345424127e-14 8.031326526134613397e-14
6.850000000000000000e+02 5.898170089721679688e+01 -9.397657394409179688e+00 -1.705777310850517536e-13 6.414810224892111834e-14 -3.192888661796011718e-14 -9.387264321989233218e-14
6.860000000000000000e+02 5.830512619018554688e+01 -9.823542594909667969e+00 1.578936363166166812e-13 2.191775339238470621e-14 5.394341860676631073e-14 -3.130828251816583641e-14
6.870000000000000000e+02 5.519024658203125000e+01 -1.099819946289062500e+01 -5.011741059456715705e-15 3.752974493675953482e-13 1.110857079608153219e-13 2.737775233434139657e-15
6.880000000000000000e+02 2.125885963439941406e+00 3.569082641601562500e+01 1.105882488990246604e-13 2.761497085689013087e-13 1.160213824969932861e-13 -9.325581349891101657e-14
6.890000000000000000e+02 4.256570935249328613e-01 3.482438659667968750e+01 -1.335606430140356959e-13 1.257635217754432544e-13 -2.339138023291979611e-15 3.777450154431906404e-14
6.900000000000000000e+02 3.838253915309906006e-01 2.756167030334472656e+01 -2.691056877118444546e-14 -1.030349986103420989e-13 -3.898367156971067893e-14 8.324177664439241786e-14
6.910000000000000000e+02 1.966944098472595215e+00 2.891475677490234375e+01 4.601144802890509006e-15 -4.377903001597828470e-14 -1.175336564862962743e-14 -2.880424306191120554e-14
6.920000000000000000e+02 3.641766905784606934e-01 2.112711334228515625e+01 9.495223753314477322e-14 3.151994995304746583e-13 1.230455217967121873e-13 -2.063086131781893123e-14
6.930000000000000000e+02 1.822018146514892578e+00 2.245315551757812500e+01 4.167467152621506798e-14 1.786057399525385614e-14 1.786057399525385614e-14 -4.565132180698455722e-14
6.940000000000000000e+02 1.098968625068664551e+00 2.259668350219726562e+01 -8.512166123873787793e-14 1.236476063681477000e-13 1.155778404704271498e-14 -6.805033560307663376e-14
6.950000000000000000e+02 2.578684568405151367e+00 2.391308975219726562e+01 -6.774030799185440377e-14 -1.662844124547535607e-13 -7.020741681160874714e-14 -9.722601277675421705e-14
6.960000000000000000e+02 1.127758383750915527e+00 2.581749725341796875e+01 -6.700789554302255535e-14 -7.446861595254705701e-14 -4.244295412629724151e-14 -1.899071991242479163e-13
6.970000000000000000e+02 1.119208574295043945e+00 2.501290702819824219e+01 9.748304323053263998e-14 2.247822425156115189e-13 9.667958843434867888e-14 -7.579494757520288672e-14
6.980000000000000000e+02 3.764832019805908203e-01 2.595247268676757812e+01 2.034683084181383023e-14 -1.742837238459873928e-13 -4.618106976472455272e-14 -5.944984173049611478e-15
6.990000000000000000e+02 1.137856245040893555e+00 2.662273979187011719e+01 -1.339555077511890221e-14 1.315118939313256186e-13 3.543490506444438304e-14 2.120268140204904783e-14
7.000000000000000000e+02 1.182555317878723145e+00 2.904258155822753906e+01 -1.025246392367647544e-14 1.786098802495847404e-13 5.050722616832190037e-14 -3.934553166807424132e-15
7.010000000000000000e+02 2.855537414550781250e+00 3.045113754272460938e+01 -6.367669792058799905e-14 6.421188044171757814e-14 1.605544598773421885e-16 -3.452286064442242064e-14
7.020000000000000000e+02 1.267050981521606445e+00 3.229108047485351562e+01 -5.997540788657551580e-14 1.573000491797080236e-13 2.919739171031339453e-14 -6.231980534919523418e-14
7.030000000000000000e+02 1.250612854957580566e+00 3.147762298583984375e+01 3.405240499299022616e-14 3.746936300726838587e-14 2.145653040007758361e-14 1.089613018952564905e-14
7.040000000000000000e+02 4.254747927188873291e-01 3.239628982543945312e+01 1.336482380792430522e-14 5.147872891310932564e-14 1.945306539279361563e-14 9.485420532796134951e-15
7.050000000000000000e+02 1.278406023979187012e+00 3.310751342773437500e+01 2.522570165448302648e-14 -8.069088610175925713e-14 -1.663955397893015359e-14 -4.362857324762339783e-14
7.060000000000000000e+02 1.244584798812866211e+00 3.559820938110351562e+01 2.190453120807806658e-14 5.513860581226465163e-14 2.311294059788304711e-14 3.660134058358112397e-14
7.070000000000000000e+02 3.182696819305419922e+00 3.947364807128906250e+01 5.363609133657992745e-14 1.114220093693910779e-16 1.612425470920442194e-14 3.438211764990664610e-14
7.080000000000000000e+02 1.413232922554016113e+00 3.776439666748046875e+01 2.595555436974827240e-14 -3.462714056462479206e-14 -2.601475562001424359e-15 5.761079682970252080e-14
7.090000000000000000e+02 4.203630685806274414e-01 3.962037658691406250e+01 -3.369080662780736535e-14 -1.516917694970379427e-13 -5.561477046576134009e-14 7.768643313279394169e-14
7.100000000000000000e+02 1.862119197845458984e+00 4.044335556030273438e+01 -6.880056284885513462e-14 -7.523690194076101956e-14 -4.321124011451120406e-14 -5.720317069416586131e-14
7.110000000000000000e+02 1.695628046989440918e+00 4.173754501342773438e+01 -2.326915041401568518e-14 -1.701008176544296924e-13 -5.801098940409407656e-14 -2.138494086944154465e-14
7.120000000000000000e+02 3.626371920108795166e-01 1.951919364929199219e+01 4.255577213860793628e-14 1.783665039669160568e-13 6.627668249284401902e-14 -2.199121994803186070e-14
7.130000000000000000e+02 1.088806390762329102e+00 2.098773574829101562e+01 3.268621877610018711e-14 2.656385853470888403e-13 8.949744699678074955e-14 -3.408737390118467270e-14
7.140000000000000000e+02 3.586233258247375488e-01 1.389231777191162109e+01 1.816627631743422677e-13 2.379837863233924544e-13 1.258939648493204166e-13 -4.503343498888506824e-14
7.150000000000000000e+02 1.785832881927490234e+00 1.522054481506347656e+01 -4.812844933243902446e-14 4.140075326834746772e-13 1.097637266993765903e-13 7.870094821064294033e-14
7.160000000000000000e+02 1.062012314796447754e+00 7.377946376800537109e+00 8.007058015756240987e-14 8.006691419896669326e-14 4.804124898458508874e-14 -6.382222495718986588e-14
7.170000000000000000e+02 3.536470234394073486e-01 7.476030826568603516e+00 1.895730886722693520e-14 1.453774031495366770e-13 4.930041428265544146e-14 -4.933711452619407578e-14
7.180000000000000000e+02 3.611732721328735352e-01 5.083409786224365234e+00 5.808649053288053588e-14 -4.373221281091764501e-14 4.306284587138288142e-15 -5.852228559611108438e-15
7.190000000000000000e+02 4.259760379791259766e+00 2.619808673858642578e+00 2.453219004078677906e-14 5.626474289190282196e-14 2.423908106565300646e-14 -1.202485376897155511e-13
7.200000000000000000e+02 1.083039164543151855e+00 5.807616233825683594e+00 5.178822458764067993e-14 2.051987459074020026e-13 7.709609182613916256e-14 -9.915814913954990040e-14
7.210000000000000000e+02 1.054660558700561523e+00 8.168225288391113281e+00 -8.166138257140534429e-14 1.480060648692549385e-13 1.990340231766262596e-14 -1.899560661490409114e-14
7.220000000000000000e+02 2.418600320816040039e+00 1.033136177062988281e+01 -1.340670026980361057e-14 2.687599762966202954e-13 7.660597823406709028e-14 -1.853753289109486002e-14
7.230000000000000000e+02 1.065761804580688477e+00 1.215408039093017578e+01 7.475109805232457716e-14 1.006626084028815205e-13 5.262411058130911368e-14 1.243051207756515342e-13
7.240000000000000000e+02 1.060797214508056641e+00 1.135608959197998047e+01 1.075868469427353549e-14 1.876146536305273171e-13 5.951200632552805514e-14 -3.574403227964368171e-15
7.250000000000000000e+02 3.569794893264770508e-01 1.228648948669433594e+01 -4.258271456259420107e-14 2.562559539565079092e-13 6.410197622274543816e-14 -1.838683725944884745e-14
7.260000000000000000e+02 1.069436311721801758e+00 1.295348739624023438e+01 -4.275576678185004365e-15 2.726732956179894751e-13 8.051931788422700409e-14 -9.483046807664749500e-14
7.270000000000000000e+02 1.071837902069091797e+00 1.375485897064208984e+01 1.252906910436269589e-14 1.197469722121966007e-13 3.968281256437437843e-14 6.016170770112641564e-14
7.280000000000000000e+02 1.077811241149902344e+00 1.536040496826171875e+01 -8.972125343023606980e-14 3.046801634772056122e-13 6.448766759308000029e-14 8.217277363111244459e-14
7.290000000000000000e+02 2.495788335800170898e+00 1.669206428527832031e+01 -3.885891378097548754e-14 3.722292385346243071e-13 1.000110977649078248e-13 3.231506926740408681e-15
7.300000000000000000e+02 1.081928491592407227e+00 1.777267456054687500e+01 5.745902207808170625e-14 4.592593124373711699e-13 1.550154996770095051e-13 4.840753313603216035e-14
7.310000000000000000e+02 1.083149313926696777e+00 1.857660675048828125e+01 7.561293713549688267e-14 4.670395472271271498e-13 1.627957480192926409e-13 1.321343615036038588e-14
7.320000000000000000e+02 1.093954920768737793e+00 2.179227066040039062e+01 -1.027823235999784576e-14 1.847051733837399429e-14 2.457685789974376096e-15 -8.305101804840717139e-14
7.330000000000000000e+02 1.619104766845703125e+01 8.327130228281021118e-03 7.239144044412712531e-14 3.741570042074121583e-13 1.339645354283408585e-13 -1.017577745698362846e-13
7.340000000000000000e+02 1.695121192932128906e+01 -4.076069295406341553e-01 1.801345531071696371e-13 2.144533736789938638e-13 1.183763780358490503e-13 -1.943260954711742428e-14
7.350000000000000000e+02 1.585010528564453125e+01 1.986572146415710449e+00 1.128169145559951292e-13 9.410105751258071582e-14 6.207539229819911131e-14 -1.265633512706129671e-13
7.360000000000000000e+02 1.543925666809082031e+01 4.850986003875732422e+00 3.950781216933985096e-14 1.827791119412419674e-13 6.668607723317454550e-14 -4.303560613883213037e-14
7.370000000000000000e+02 1.071502494812011719e+01 2.357770681381225586e+00 1.341757956097814480e-14 -2.230043542406426327e-13 -6.287603494499818813e-14 -2.861098741279745339e-14
7.380000000000000000e+02 2.024665451049804688e+01 -3.057969331741333008e+00 1.399726959772779056e-13 2.853452066645112417e-14 5.055216296023963551e-14 -6.383272138947224117e-14
7.390000000000000000e+02 2.073371315002441406e+01 -2.617567777633666992e+00 4.891219536600627249e-14 2.039661706676118569e-13 7.586350981008543881e-14 -5.516650707754720828e-14
7.400000000000000000e+02 2.183581733703613281e+01 -3.870463609695434570e+00 1.469163332656897580e-13 6.296414670030336946e-14 6.296414670030336946e-14 -7.368979965073282901e-14
7.410000000000000000e+02 2.129443168640136719e+01 -3.236736774444580078e+00 1.262337131525959055e-13 9.985111695809401056e-14 6.782545174371240604e-14 -4.220536816085598830e-14
7.420000000000000000e+02 2.014104461669921875e+01 -2.008809804916381836e+00 1.004306297955510907e-13 8.879264782202939132e-14 5.676698260764778681e-14 -2.741004546545546677e-14
7.430000000000000000e+02 7.795449066162109375e+01 -1.035041713714599609e+01 -1.527057763551185887e-14 -1.209219085539919858e-13 -4.085774551803797450e-14 6.169996019092169326e-14
7.440000000000000000e+02 7.886992645263671875e+01 -8.007653236389160156e+00 -1.611150720216142362e-13 1.597054330145300516e-13 -4.228904898093496399e-16 -1.899905700361473153e-15
7.450000000000000000e+02 7.883349609375000000e+01 -8.785981178283691406e+00 1.136446690333699217e-13 -8.854798404928088118e-14 7.529005664633301592e-15 -1.222287347019384435e-14
7.460000000000000000e+02 3.074634170532226562e+01 -1.532666110992431641e+01 1.019305015284403815e-13 -9.356834832765711929e-14 2.508645197905326127e-15 -1.076390021494295912e-13
7.470000000000000000e+02 3.007502937316894531e+01 -1.490272808074951172e+01 4.342559704840695534e-14 1.861097064762180786e-14 1.861097064762180786e-14 4.312573044441998793e-14
7.480000000000000000e+02 3.246034622192382812e+01 -1.706348037719726562e+01 4.873263115745193885e-14 1.123873129976749041e-13 4.833598256891169509e-14 -5.826614960912496199e-14
7.490000000000000000e+02 3.142034912109375000e+01 -1.573565483093261719e+01 4.782830490164535764e-14 1.577506842601744674e-13 6.167369539329323191e-14 -9.563608450091284907e-15
7.500000000000000000e+02 2.798958015441894531e+01 -1.218862152099609375e+01 1.020279170936382040e-13 -2.490017164626014828e-14 2.313832448124636398e-14 8.561130726862306584e-14
7.510000000000000000e+02 2.876107597351074219e+01 -1.400647163391113281e+01 6.019672065503411940e-14 3.918061892722174422e-13 1.356008675571646060e-13 -2.541492203863605914e-14
7.520000000000000000e+02 3.355498504638671875e+01 -1.674910163879394531e+01 6.336702945133540488e-14 2.715729761025836159e-14 2.715729761025836159e-14 -1.209470891494479616e-13
7.530000000000000000e+02 3.209841537475585938e+01 -1.612036323547363281e+01 1.854346720392332365e-14 5.369814835842756651e-14 2.167248483811185650e-14 -9.982891114234879182e-14
7.540000000000000000e+02 1.884653091430664062e+01 -8.554937243461608887e-01 1.365311536787386371e-13 1.957662005593052701e-13 9.968920491616045654e-14 -1.618514485846392348e-13
7.550000000000000000e+02 1.814919853210449219e+01 -2.760176062583923340e-01 1.023018204437259326e-13 4.098512165501971838e-13 1.536459083876715037e-13 -1.127140237698262548e-13
7.560000000000000000e+02 1.935062980651855469e+01 7.196477055549621582e-01 2.360316091610647343e-14 4.676251248204865707e-13 1.473684862291976816e-13 -2.269655952980356717e-14
7.570000000000000000e+02 7.024665069580078125e+01 -9.521841049194335938e+00 2.706171502435839732e-14 3.447335326272130129e-14 1.846052065553049903e-14 6.175494956985744244e-14
7.580000000000000000e+02 1.655874824523925781e+01 4.775288105010986328e+00 6.662902787011107386e-14 2.859043839349706406e-13 1.057600255744035878e-13 -8.100792036952117470e-14
7.590000000000000000e+02 1.401022911071777344e+01 1.636474132537841797e+00 -6.079928909404075116e-16 1.369922784152238782e-13 4.091528616021085363e-14 -7.056740581419182479e-14
7.600000000000000000e+02 2.774303436279296875e+01 -1.122945499420166016e+01 6.315795461489873142e-14 1.929148843709399541e-13 7.682185643913611028e-14 1.399979443353696618e-13
7.610000000000000000e+02 2.836900901794433594e+01 -1.162011432647705078e+01 2.540564946308334791e-16 -1.371439718516817563e-13 -4.106697282040515373e-14 -5.303697138045980475e-14
7.620000000000000000e+02 2.766329956054687500e+01 -1.275248718261718750e+01 6.868967607166417966e-14 -3.918798946911557224e-14 8.850506658390940029e-15 -2.094917629939709730e-14
7.630000000000000000e+02 3.988853073120117188e+01 -1.716735267639160156e+01 2.677510533302890697e-15 1.384003453291579588e-13 4.232335985040851234e-14 -9.145446579943497523e-14
7.640000000000000000e+02 4.073405075073242188e+01 -1.780048942565917969e+01 -4.417372026434447652e-14 2.681935518122641887e-14 -5.206309609638712019e-15 -3.095211532824077016e-14
7.650000000000000000e+02 7.262203979492187500e+01 -9.036939620971679688e+00 2.196538967830534081e-15 2.754470642459677654e-13 8.329307973594171632e-14 1.616260022953980302e-13
7.660000000000000000e+02 2.717164611816406250e+01 -1.071676731109619141e+01 1.005216892255127170e-13 5.451845911026188818e-14 4.651204280666648705e-14 -1.889518069461172678e-14
7.670000000000000000e+02 2.629806709289550781e+01 -9.458160400390625000e+00 6.438615916468104494e-14 1.133770947134640772e-13 5.332897413056446323e-14 7.083945246805917195e-14
7.680000000000000000e+02 6.807608795166015625e+01 -7.424933910369873047e+00 3.430480048248127356e-14 -3.104889053653046849e-14 9.767725602687678949e-16 -1.379468371129344284e-14
7.690000000000000000e+02 7.201812744140625000e+01 -8.299700736999511719e+00 -4.078534452983846592e-14 9.689793997562368144e-14 1.683377863373556466e-14 7.402376780117625454e-14
7.700000000000000000e+02 4.140554428100585938e+01 -1.691393852233886719e+01 7.325353215487594941e-16 1.375667835938967909e-13 4.148979811514734439e-14 -4.508311855343921648e-14
7.710000000000000000e+02 4.375165557861328125e+01 -1.706488609313964844e+01 -4.251222786885548721e-14 -3.384761817614573287e-13 -1.142965252607860971e-13 -5.150373332571227258e-14
7.720000000000000000e+02 2.691613197326660156e+01 9.458732604980468750e+00 -1.381339043393355406e-14 3.983092474553126539e-14 7.805260378182608122e-15 -7.483302307898301309e-14
7.730000000000000000e+02 2.681262779235839844e+01 1.168878173828125000e+01 4.931572186207822117e-14 1.126372080459056568e-13 4.858587761714244779e-14 -6.346189036516430848e-14
7.740000000000000000e+02 7.401240539550781250e+01 -9.027233123779296875e+00 -5.059462641595138810e-14 2.406753825910917105e-14 -7.958126108239486213e-15 1.820235585522911315e-13
7.750000000000000000e+02 7.634394836425781250e+01 -9.548767089843750000e+00 6.176598810322606048e-14 -6.503075801380514553e-14 -9.794326672396200251e-16 -1.171369803691852448e-15
7.760000000000000000e+02 7.762789916992187500e+01 -5.734103679656982422e+00 5.172830547695191072e-14 -2.358167507836642085e-14 8.443988441949289159e-15 6.343838350681210714e-14
7.770000000000000000e+02 1.482998085021972656e+01 1.399592876434326172e+00 1.350721834728063619e-13 1.036390279694245076e-13 7.161336275504290305e-14 -1.085864796517010955e-13
7.780000000000000000e+02 1.605321693420410156e+01 5.319095134735107422e+00 1.132125941388437140e-13 1.343027116384662434e-13 7.425459444369841844e-14 -1.062934530432664559e-13
7.790000000000000000e+02 4.653286361694335938e+01 -1.545779418945312500e+01 -1.462784564700350676e-14 8.523281906647195427e-14 2.118149202584053425e-14 3.480675898328774998e-14
7.800000000000000000e+02 4.722818756103515625e+01 -1.520289039611816406e+01 5.694994172425471568e-14 2.440711884986110358e-14 2.440711884986110358e-14 2.416621929153019155e-14
7.810000000000000000e+02 5.162745285034179688e+01 -1.393558025360107422e+01 4.812964873109233654e-15 9.356459427763488823e-14 2.951326723700346821e-14 -9.819775607889866254e-14
7.820000000000000000e+02 4.362913513183593750e+01 6.528287410736083984e+00 -2.033179600700006640e-14 8.278826842816888743e-14 1.873694138753746741e-14 -7.547880099796969167e-14
7.830000000000000000e+02 5.594813156127929688e+01 1.115301227569580078e+01 -4.741709412267591794e-14 -2.490763671703088988e-13 -8.894803432213729821e-14 -6.540396750662896830e-14
7.840000000000000000e+02 5.690498352050781250e+01 1.376236915588378906e+01 -3.243788904475596035e-14 -1.054038516082149435e-13 -4.135252117945173445e-14 -1.578313217967530768e-13
7.850000000000000000e+02 4.058863449096679688e+01 -1.633031272888183594e+01 -4.669511373162245349e-14 1.629916091417521473e-13 3.488894828422572925e-14 -8.137091803313289962e-14
7.860000000000000000e+02 3.840283584594726562e+01 -1.804649543762207031e+01 8.384810315682778015e-14 -3.269152120234999903e-14 1.534697492515651324e-14 6.165245858323967210e-14
7.870000000000000000e+02 3.282839202880859375e+01 -1.503439331054687500e+01 6.665263637241694572e-14 6.859749855821217768e-14 4.057503980156237922e-14 -2.164477500227537932e-13
7.880000000000000000e+02 5.454323196411132812e+01 -1.141400909423828125e+01 4.582452649217090557e-14 1.568919283769301676e-13 6.081493951004893206e-14 -1.927808702061571677e-14
7.890000000000000000e+02 5.390599060058593750e+01 -1.181635093688964844e+01 5.221462774955207276e-14 2.237769736494147482e-14 2.237769736494147482e-14 1.893249265475695632e-16
7.900000000000000000e+02 2.509933853149414062e+01 -7.483301639556884766e+00 2.005420298139409807e-14 1.973173279498988131e-13 6.521146063464058895e-14 -1.161857339938149325e-13
7.910000000000000000e+02 2.589414024353027344e+01 -8.803967475891113281e+00 3.328235378811418566e-14 1.629544481122902067e-13 5.887103955368178099e-14 -1.911823835094167423e-13
7.920000000000000000e+02 4.397379302978515625e+01 8.371675491333007812e+00 -2.092605331637659161e-13 -4.393213630339218301e-14 -7.595780151777378753e-14 3.901821018516792028e-14
7.930000000000000000e+02 4.408697891235351562e+01 7.813062667846679688e+00 -3.088069622063371877e-13 5.065795737535169763e-14 -7.744469670591114241e-14 7.974722363588218621e-14
7.940000000000000000e+02 6.058707427978515625e+01 -7.645354747772216797e+00 -7.263088649392054896e-14 -5.115124903504186804e-13 -1.752430123756754110e-13 3.054409210365843785e-13
7.950000000000000000e+02 4.995093536376953125e+01 -1.399700641632080078e+01 -8.781659079284281650e-16 1.140010124061480168e-13 3.393685614645758353e-14 -2.994545732801050242e-14
7.960000000000000000e+02 4.791819763183593750e+01 -1.493092346191406250e+01 -3.623734680922342799e-14 9.884707798373665311e-14 1.878292002998032534e-14 -4.115185568611540168e-14
7.970000000000000000e+02 4.288581848144531250e+01 -1.656281852722167969e+01 3.399726653625576023e-14 -5.405616546830943614e-14 -6.017669340802923872e-15 -1.285488507090856714e-13
7.980000000000000000e+02 4.957501602172851562e+01 -1.498003673553466797e+01 -2.465277365115790126e-14 -1.056547478493893508e-14 -1.056547478493893508e-14 -6.842015696411143932e-14
7.990000000000000000e+02 1.499860286712646484e+01 1.484029293060302734e+01 2.382762803526065204e-14 2.618420617047506616e-13 8.570090302565183671e-14 8.918361790169124226e-14
8.000000000000000000e+02 1.391601467132568359e+01 1.233375453948974609e+01 9.844755625943932276e-14 1.794446617122899545e-13 8.336766606914514099e-14 6.713688172023044021e-14
8.010000000000000000e+02 3.833629608154296875e+01 -1.731142234802246094e+01 1.145308891128959949e-13 1.405865712473391982e-13 7.653524081857598915e-14 9.458163012553491567e-14
8.020000000000000000e+02 1.408818244934082031e+01 8.291156768798828125e+00 1.751013478093130238e-13 7.504343283934455933e-14 7.504343283934455933e-14 -1.489081888393986586e-13
8.030000000000000000e+02 2.605784988403320312e+01 1.256615924835205078e+01 1.130582579595904025e-13 9.420449039983583295e-14 6.217882518545422843e-14 -7.055959955854992915e-14
8.040000000000000000e+02 5.840884685516357422e+00 2.593158245086669922e+00 4.686586540939355339e-14 -2.566557772245344621e-14 6.360085797862263801e-15 -1.266596826336383042e-13
8.050000000000000000e+02 1.802901506423950195e+00 6.530423641204833984e+00 8.147773905217703394e-14 1.950473474138930685e-13 8.295752593982103074e-14 -3.591418341105517831e-14
8.060000000000000000e+02 2.686882972717285156e+00 2.639263391494750977e+00 7.356389667345294980e-14 1.687802323032880358e-13 7.270323666014322228e-14 -5.245434484988861779e-14
8.070000000000000000e+02 5.035893917083740234e+00 3.341400623321533203e+00 7.656497506315640411e-14 3.073192470903068907e-13 1.151652693565444197e-13 -4.344124005287684775e-14
8.080000000000000000e+02 3.472242116928100586e+00 2.630280256271362305e+00 -2.633585014020882464e-14 -5.703774177143530744e-14 -2.501207825111959743e-14 3.517373092548799207e-14
8.090000000000000000e+02 1.743844389915466309e+00 8.086663246154785156e+00 5.507405173728850689e-14 4.647863921535856646e-14 3.046580660816776420e-14 -7.765848782179812781e-14
8.100000000000000000e+02 6.631384372711181641e+00 3.284615993499755859e+00 5.365790412903762019e-14 1.144981462072869327e-13 5.044681577852372367e-14 -1.624892101838130987e-14
8.110000000000000000e+02 6.634429931640625000e+00 2.577413082122802734e+00 1.326200163142415844e-13 3.313428361979148251e-13 1.391888584641523541e-13 -2.255218657559233432e-15
8.120000000000000000e+02 8.245633125305175781e+00 3.222027063369750977e+00 5.009808553787555019e-14 1.587234575543827741e-13 6.264646191123796060e-14 1.004521783137292401e-13
8.130000000000000000e+02 9.872939109802246094e+00 2.456153154373168945e+00 3.806886582228066751e-14 -7.518666949885705053e-14 -1.113534076415973600e-14 1.009452734617756475e-13
8.140000000000000000e+02 9.920485496520996094e+00 3.120565891265869141e+00 1.136688535180799264e-13 -4.278667670816124757e-14 2.126465202653606695e-14 1.310702035187821801e-13
8.150000000000000000e+02 9.907371520996093750e+00 5.873627185821533203e+00 7.251241707778577350e-14 7.682769757834037594e-14 4.480203575209056044e-14 2.380688589244828873e-14
8.160000000000000000e+02 3.600617218017578125e+01 -1.744544792175292969e+01 1.995242350245202134e-13 1.770122812433730375e-13 1.129609575908734065e-13 7.301563596361776431e-14
8.170000000000000000e+02 7.552190399169921875e+01 -8.755176544189453125e+00 -3.211520676130175111e-14 3.198728784560740668e-14 -3.837486407130302919e-17 -8.151335509354318276e-14
8.180000000000000000e+02 7.894684600830078125e+01 -6.460905075073242188e+00 -2.414668942227193860e-13 -1.034858166499251497e-13 -1.034858166499251497e-13 -2.990422715226995209e-14
8.190000000000000000e+02 5.696085357666015625e+01 -1.069321441650390625e+01 8.909058657902840794e-14 3.584383224258802514e-13 1.342586659252090198e-13 2.901629267805863610e-14
8.200000000000000000e+02 2.334326744079589844e+01 -4.773899078369140625e+00 6.129245602812943838e-15 5.266691962646334602e-14 1.763884956878288696e-14 -1.659273304692454598e-13
8.210000000000000000e+02 7.897900390625000000e+01 -4.119722366333007812e+00 2.636309952893517439e-13 2.148281722056267357e-14 8.553414595525998809e-14 8.354132137585942863e-14
8.220000000000000000e+02 7.391246032714843750e+01 -8.442779541015625000e+00 8.366950689517392136e-16 1.376114256183488815e-13 4.153443675146764602e-14 -7.702155970304436217e-14
8.230000000000000000e+02 7.756909179687500000e+01 -3.181767761707305908e-01 -4.000915538541344185e-13 1.030378852986263416e-13 -8.911609921139970747e-14 -1.782397336278981892e-13
8.240000000000000000e+02 7.829880523681640625e+01 -4.188866615295410156e+00 -2.416806175759705910e-13 -1.950793042729270788e-13 -1.310279738441638697e-13 -1.479152222797278093e-13
8.250000000000000000e+02 7.894602966308593750e+01 6.178938865661621094e+00 3.562124011556588865e-13 -1.218432364551158553e-13 7.031074805491019375e-14 8.525731356524065413e-15
8.260000000000000000e+02 7.755075836181640625e+01 5.230212688446044922e+00 -2.204241157004530050e-13 -1.859693768337805642e-13 -1.219180464050173551e-13 1.495537363654236840e-13
8.270000000000000000e+02 7.875129699707031250e+01 3.158711814880371094e+01 7.494861258309712393e-14 2.608755767831427708e-13 1.007472574874983262e-13 -9.262006445001982891e-14
8.280000000000000000e+02 7.804338073730468750e+01 2.830968475341796875e+01 -6.028994171307713867e-14 -1.173404499650934629e-13 -5.328911614819846487e-14 -5.269690120466435923e-14
8.290000000000000000e+02 7.808736419677734375e+01 -8.000388145446777344e+00 8.029402067278451627e-14 3.441172314547907840e-14 3.441172314547907840e-14 -2.851359895265394295e-14
8.300000000000000000e+02 7.870212554931640625e+01 3.477729034423828125e+01 -1.170723623432215824e-14 -9.651928236688311902e-14 -3.246795532625169900e-14 1.814767411865980673e-14
8.310000000000000000e+02 7.681909942626953125e+01 3.461290359497070312e+01 -8.445524112682661205e-15 -2.649498560814127907e-14 -1.048215300095047681e-14 -1.341451330170908424e-14
8.320000000000000000e+02 7.894332885742187500e+01 7.769350051879882812e+00 2.685846065952207651e-13 -2.508998868042122687e-13 5.305415852599254176e-15 4.549477317767301743e-14
8.330000000000000000e+02 7.824527740478515625e+01 6.090183734893798828e+00 -2.375654198100846104e-13 -1.018137532832544268e-13 -1.018137532832544268e-13 1.893362447076898936e-13
8.340000000000000000e+02 7.895401763916015625e+01 6.199441552162170410e-01 -9.483362446022214343e-13 2.798344238622019198e-13 -2.005505272484678359e-13 -2.712587099384933254e-13
8.350000000000000000e+02 7.826261138916015625e+01 -2.589761018753051758e-01 -2.684721206198253940e-13 2.966990531299423806e-13 8.468084835232779495e-15 -2.568528885676241158e-13
8.360000000000000000e+02 7.893596649169921875e+01 1.015167140960693359e+01 -1.241145993488915189e-13 6.118540461612365089e-14 -1.887875841983036040e-14 2.326220813197998893e-13
8.370000000000000000e+02 7.823677062988281250e+01 8.470416069030761719e+00 1.906894645442233638e-13 -1.012797362794602696e-13 2.682291780180257046e-14 -4.615632962640114911e-14
8.380000000000000000e+02 7.894779205322265625e+01 3.794638872146606445e+00 -5.311454401302206918e-13 -9.038090913703056284e-14 -1.864579047801753764e-13 2.579061638731394712e-13
8.390000000000000000e+02 7.825276184082031250e+01 2.113801479339599609e+00 -5.764316975132022236e-13 2.104673314969052189e-13 -1.097893138706472482e-13 1.201172137015732444e-13
8.400000000000000000e+02 7.760800170898437500e+01 3.611215972900390625e+01 -2.731516422283582907e-14 -1.489593496294128183e-13 -5.288235398626800476e-14 7.573382567772901641e-15
8.410000000000000000e+02 7.864466857910156250e+01 3.869634246826171875e+01 -1.614365515182833444e-14 -9.842060705918947994e-14 -3.436928001855805992e-14 7.081190018035088407e-14
8.420000000000000000e+02 7.861923980712890625e+01 3.633252716064453125e+01 7.445911732507654729e-15 -1.569372209226857495e-13 -4.484739267235013371e-14 -7.705523095676361511e-15
8.430000000000000000e+02 7.823986816406250000e+01 7.680802345275878906e+00 -2.476162449995683579e-13 -1.518721942910666867e-13 -1.198465290766850821e-13 3.359952696927945293e-14
8.440000000000000000e+02 7.824726104736328125e+01 5.295443058013916016e+00 2.179236066775225300e-13 -1.353589142898473097e-13 2.476940839392892391e-14 1.101853119378840007e-13
8.450000000000000000e+02 7.825090789794921875e+01 2.907195806503295898e+00 -4.141817639725930977e-13 -4.520121798558263126e-13 -2.598581885695366855e-13 5.400627319483708444e-13
8.460000000000000000e+02 7.825521850585937500e+01 1.324046373367309570e+00 -7.502456230053244912e-13 1.359756491431385328e-13 -1.842809894481503563e-13 6.498393403248092781e-14
8.470000000000000000e+02 7.825829315185546875e+01 5.337880253791809082e-01 -8.311349655384936419e-13 9.806885629905139762e-15 -2.463984149093240150e-13 -2.645770430000082829e-13
8.480000000000000000e+02 7.826885223388671875e+01 -1.049250364303588867e+00 -3.224551702041278389e-13 -2.296969580685426227e-13 -1.656456411923065697e-13 -4.234712081864488997e-13
8.490000000000000000e+02 7.830204010009765625e+01 -4.960520744323730469e+00 1.577216276419518559e-13 -2.390691540132133808e-14 4.014441163931008194e-14 8.145726795990779201e-14
8.500000000000000000e+02 7.798885345458984375e+01 -9.565505027770996094e+00 8.981181141669292156e-14 -9.876206975715021152e-14 -2.685077502137186989e-15 5.087708818693817414e-14
8.510000000000000000e+02 7.886410522460937500e+01 2.366176795959472656e+01 -6.551632473301635673e-14 1.767252421063392892e-14 -1.435314100374767560e-14 1.380506240599614978e-14
8.520000000000000000e+02 7.812414550781250000e+01 2.198657417297363281e+01 2.668312179012182622e-14 5.718657562466325506e-14 2.516090871621575603e-14 2.977692148842941977e-14
8.530000000000000000e+02 7.786610412597656250e+01 3.224725723266601562e+01 6.099161703031902304e-14 1.633921134242682927e-13 6.731511778112347910e-14 -3.464222791548128566e-14
8.540000000000000000e+02 7.730933380126953125e+01 2.431130599975585938e+01 6.434342804655796000e-14 2.105795464217574686e-13 8.247689234049462859e-14 -3.736023805860771985e-14
8.550000000000000000e+02 7.811296844482421875e+01 2.278045845031738281e+01 -5.362010951893113331e-14 -6.873099772696303345e-14 -3.670533251258142893e-14 -1.405014207192176179e-15
8.560000000000000000e+02 7.889536285400390625e+01 1.969018363952636719e+01 -5.167855414976198214e-14 -6.789889966463472093e-14 -3.587323783838490543e-14 7.103536780062730260e-14
8.570000000000000000e+02 7.816426849365234375e+01 1.880385780334472656e+01 -7.634886477105983643e-15 -1.405249343538333973e-13 -4.444794887508395076e-14 2.015221993998447120e-14
8.580000000000000000e+02 7.817980957031250000e+01 1.721106719970703125e+01 -2.694290255987998386e-15 -1.841584881551866504e-13 -5.605583407392381035e-14 -1.372452397227236914e-14
8.590000000000000000e+02 7.855928039550781250e+01 3.709470748901367188e+01 -3.186227255885624998e-14 -1.051571549563930230e-13 -4.110582791576160300e-14 3.146719267533432118e-14
8.600000000000000000e+02 7.682506561279296875e+01 3.886948013305664062e+01 -1.102107297025652077e-13 -1.158595924278041367e-13 -6.782109460623172992e-14 3.612958388954194688e-14
8.610000000000000000e+02 7.893157958984375000e+01 1.174232196807861328e+01 6.557716202741994960e-14 5.097997219684347048e-14 3.496713958965266822e-14 8.049104731257944456e-14
8.620000000000000000e+02 7.822875976562500000e+01 1.006264019012451172e+01 2.210796785440463652e-13 -3.170101171585254507e-13 -2.877913022909101004e-14 -1.497009168103385912e-13
8.630000000000000000e+02 7.892910003662109375e+01 1.253754806518554688e+01 1.393328455948561126e-14 -8.553048677292784951e-14 -2.147916142636232401e-14 9.150927221925411748e-14
8.640000000000000000e+02 7.748799896240234375e+01 1.397340393066406250e+01 8.507189635902079328e-14 -9.291564337322779504e-15 2.273410003002587776e-14 -5.162757970699621834e-14
8.650000000000000000e+02 7.892300415039062500e+01 1.412734889984130859e+01 -6.925470972792089480e-15 8.853383521092994535e-14 2.448250986436441984e-14 4.743952694325100083e-14
8.660000000000000000e+02 7.819367980957031250e+01 1.561969947814941406e+01 -5.017694430526492555e-14 1.157484481525972164e-13 1.967144912132061385e-14 7.989932364815474641e-14
8.670000000000000000e+02 7.819947814941406250e+01 1.483009147644042969e+01 1.343747975304093734e-13 1.033401473117881442e-13 7.131448887367011769e-14 1.192022148306312590e-13
8.680000000000000000e+02 7.820481872558593750e+01 1.403894042968750000e+01 3.068459013624586645e-15 9.281694878827961848e-14 2.876562174764819846e-14 2.213903736172310316e-14
8.690000000000000000e+02 7.823305511474609375e+01 9.263315200805664062e+00 -2.137955611158925961e-13 -1.831285638539612015e-13 -1.190772334251979925e-13 8.352095870380743525e-14
8.700000000000000000e+02 7.815447998046875000e+01 1.960322952270507812e+01 3.366802482965801369e-14 -1.685746404663304721e-13 -4.047198638506763202e-14 -9.391056996713859073e-14
8.710000000000000000e+02 7.807704162597656250e+01 2.516360855102539062e+01 4.017515893529541304e-14 -7.428397632257277561e-14 -1.023264504677661932e-14 6.495941835788854660e-15
8.720000000000000000e+02 7.792229461669921875e+01 3.144489097595214844e+01 -4.070765805604809051e-14 -1.744613940888716658e-14 -1.744613940888716658e-14 1.083098929012364653e-13
8.730000000000000000e+02 7.805135345458984375e+01 2.752956771850585938e+01 2.985439832156534974e-15 -4.447147606222688621e-14 -1.244581084784528169e-14 -4.345118760780940226e-14
8.740000000000000000e+02 7.805860900878906250e+01 2.674598312377929688e+01 7.424123504005432361e-15 -8.832013218646947439e-14 -2.426880175770626535e-14 7.949427926904131803e-15
8.750000000000000000e+02 7.813421630859375000e+01 2.119344902038574219e+01 -3.633957013342986597e-14 -6.132504985593978386e-14 -2.929938802968996836e-14 1.730894040022270403e-14
8.760000000000000000e+02 7.814402770996093750e+01 2.040026092529296875e+01 -5.921539571619033326e-15 8.896409406681723975e-14 2.491276702618581973e-14 9.154579627993972291e-15
8.770000000000000000e+02 7.778980255126953125e+01 3.386428451538085938e+01 1.313066747888648467e-14 -8.587447024093960990e-14 -2.182313981217640086e-14 1.633506088098528319e-14
8.780000000000000000e+02 7.781787109375000000e+01 3.305514144897460938e+01 -4.452870838440696477e-14 2.666721620543828497e-14 -5.358448161910372293e-15 8.423282552147068336e-14
8.790000000000000000e+02 7.803044128417968750e+01 2.908731269836425781e+01 1.133419106589010281e-14 9.635940998028655335e-14 3.230807955152334432e-14 1.438309208876258766e-14
8.800000000000000000e+02 7.818708038330078125e+01 1.641330718994140625e+01 7.129398390008298558e-14 7.630551193075346683e-14 4.427984671637186231e-14 5.024466289533201235e-14
8.810000000000000000e+02 5.854750061035156250e+01 -8.859214782714843750e+00 4.089506240156220995e-14 1.204660964081519237e-13 4.840834628766152448e-14 -6.255753361617162611e-15
8.820000000000000000e+02 4.928007888793945312e+01 -1.432313537597656250e+01 -1.033338318341334161e-13 2.073442871390607234e-13 3.120313862435726560e-14 2.997589291587124394e-14
8.830000000000000000e+02 5.620222473144531250e+01 1.548447704315185547e+01 5.455931659150564661e-14 -7.097876567095998124e-14 -4.925835401462658192e-15 -1.171405366370142920e-13
8.840000000000000000e+02 5.615864562988281250e+01 1.386792182922363281e+01 2.425945898429805042e-14 -5.843654011204735266e-13 -1.680317939910941361e-13 2.819086652484925626e-13
8.850000000000000000e+02 5.763095855712890625e+01 -1.025632762908935547e+01 -6.934651285281021038e-14 -2.971993649986993946e-14 -2.971993649986993946e-14 9.453786223908439146e-14
8.860000000000000000e+02 1.218045234680175781e+01 1.033091545104980469e+01 4.376933318279811747e-14 -1.184945560726499703e-13 -2.241756889983462925e-14 -3.972472375460452121e-14
8.870000000000000000e+02 1.295432949066162109e+01 1.004884529113769531e+01 1.827777329716038374e-14 -3.791761623108715062e-14 -5.891953557804387870e-15 -2.540063598094766811e-14
8.880000000000000000e+02 3.705221712589263916e-01 3.488947629928588867e+00 -2.154600079623016085e-14 3.651694899698028351e-14 4.491284206115152625e-15 -5.422675451575466321e-14
8.890000000000000000e+02 1.205144286155700684e+00 2.985148239135742188e+01 -5.988042500000220758e-14 2.008791150456303021e-14 -1.193775370981857431e-14 -3.108556028688300166e-14
8.900000000000000000e+02 2.092978715896606445e+00 3.220133972167968750e+01 1.183917059440625641e-13 7.361477963666041013e-14 5.760194702946960787e-14 6.513727410098826831e-15
8.910000000000000000e+02 1.104524374008178711e+00 2.340169715881347656e+01 6.648411747349480816e-14 1.657460383134787274e-13 6.966904944659749188e-14 -7.890962324752850976e-14
8.920000000000000000e+02 1.862596273422241211e+00 2.487314033508300781e+01 -2.814029120400823869e-14 -2.408148821412409157e-13 -8.068654929306931511e-14 -1.507406429768296668e-14
8.930000000000000000e+02 1.143775463104248047e+00 3.636170196533203125e+01 1.759932125163995997e-13 2.126785076175807809e-13 1.166015119744359674e-13 3.443564377942601347e-15
8.940000000000000000e+02 2.729588985443115234e+00 3.835456085205078125e+01 -2.125461638017699800e-14 1.376635300030662826e-14 -2.246479183367700375e-15 6.688498767424416735e-14
8.950000000000000000e+02 1.231385469436645508e+00 3.973305130004882812e+01 8.218844543470254366e-15 1.407752088728245199e-13 4.469821661781149535e-14 -3.595790386366065627e-14
8.960000000000000000e+02 1.150246977806091309e+00 2.742905807495117188e+01 3.635665648204187972e-14 6.133237499686763905e-14 2.930670978248603453e-14 -1.210260055150777503e-13
8.970000000000000000e+02 1.284886121749877930e+00 3.393197631835937500e+01 -1.016419953303419887e-13 9.369198803290193500e-14 -2.385001892770484584e-15 5.582380464461654535e-14
8.980000000000000000e+02 1.282272577285766602e+00 3.476585388183593750e+01 7.974224985841590896e-14 1.485526247369320374e-13 6.848846170097802610e-14 -7.869791922082355895e-14
8.990000000000000000e+02 2.379615783691406250e+00 3.726634979248046875e+01 -1.115606935444494324e-14 8.672072391788243628e-14 2.266939687725101626e-14 -6.510053319986816578e-14
9.000000000000000000e+02 1.164391160011291504e+00 2.823513793945312500e+01 -4.153657805075830489e-14 -2.465561392203663438e-13 -8.642781314845832119e-14 3.149893947019741236e-14
9.010000000000000000e+02 2.004190683364868164e+00 2.972846794128417969e+01 -1.310311603821114404e-14 8.588627449209254583e-14 2.183494745146112581e-14 -4.004583733304041548e-15
9.020000000000000000e+02 1.878246903419494629e+00 2.567954063415527344e+01 -1.937063214636682712e-14 2.204530503459312119e-13 6.032472427402318926e-14 5.099362636795320980e-14
9.030000000000000000e+02 1.915835499763488770e+00 2.729391479492187500e+01 -4.043894193572934725e-14 7.417092114103684963e-14 1.011959410040542962e-14 -1.633582553997841701e-15
9.040000000000000000e+02 1.895323395729064941e+00 2.648565483093261719e+01 -3.662710393770481077e-14 7.580456986948369558e-14 1.175323944072048654e-14 -1.666181976460803793e-13
9.050000000000000000e+02 2.071753501892089844e+00 3.137798690795898438e+01 -5.501684313203095145e-14 -2.357864778261293398e-14 -2.357864778261293398e-14 -2.881354009554026874e-14
9.060000000000000000e+02 2.116010427474975586e+00 3.386272811889648438e+01 9.091139570750056409e-14 6.183749801276505753e-14 4.582466879370604429e-14 -1.263162209379220524e-13
9.070000000000000000e+02 1.084282040596008301e+00 1.938031005859375000e+01 -1.045076450102407420e-14 3.157777316541154899e-13 9.159809548223499243e-14 1.814814337491258561e-14
9.080000000000000000e+02 1.805250883102416992e+00 2.084568214416503906e+01 1.117591601402546930e-13 1.393986786895826113e-13 7.534735503708298032e-14 2.395484560767466992e-14
9.090000000000000000e+02 1.079369664192199707e+00 1.616443824768066406e+01 5.876796580839629969e-14 4.826957518584695794e-13 1.624391132671806903e-13 1.622593932045640619e-13
9.100000000000000000e+02 1.793779373168945312e+00 1.763306617736816406e+01 1.480674916985898204e-14 2.579759593879932256e-13 8.183481426142155679e-14 8.210293068241364400e-14
9.110000000000000000e+02 1.052654266357421875e+00 9.760840415954589844e+00 -1.308860382272583611e-13 3.099135802587388300e-13 5.370826193181778285e-14 -2.142697233835019754e-14
9.120000000000000000e+02 1.753622174263000488e+00 1.123094654083251953e+01 -5.725424339275350660e-14 2.042172176806508754e-13 4.408889160874285285e-14 -2.501291046099027478e-15
9.130000000000000000e+02 1.093918681144714355e+00 5.022572994232177734e+00 -1.083798917039975607e-13 -9.219947532225838960e-14 -6.017381010787678508e-14 -1.266256928955308836e-13
9.140000000000000000e+02 2.611991167068481445e+00 5.732733726501464844e+00 1.281854092002095852e-14 1.656219784798920736e-13 5.353215700582003578e-14 -9.793107622578511862e-14
9.150000000000000000e+02 1.137251496315002441e+00 2.667488336563110352e+00 1.131341588879279658e-13 1.857389161094916141e-13 8.966192046634680057e-14 -6.007894919404788148e-14
9.160000000000000000e+02 1.075486540794372559e+00 1.455725479125976562e+01 1.705730046412060746e-14 1.445631131078914389e-13 4.848612424101020335e-14 1.602574003405424219e-13
9.170000000000000000e+02 1.789035677909851074e+00 1.602482032775878906e+01 -5.841214420791371320e-14 2.265964380108315135e-13 5.045528949612805569e-14 2.201212980336778036e-14
9.180000000000000000e+02 1.730216503143310547e+00 8.870388031005859375e+00 -2.033402539771723971e-14 3.115420519218120576e-13 8.736240897366798208e-14 6.356773560225320585e-14
9.190000000000000000e+02 1.050680756568908691e+00 8.963744163513183594e+00 -7.631216622158709662e-14 1.502985832579212255e-13 2.219592578852659648e-14 -1.142772129095886990e-13
9.200000000000000000e+02 1.742497920989990234e+00 1.044303321838378906e+01 -1.608878232462612745e-13 2.055537679087823810e-13 1.339978085765749019e-14 -5.564843155508522599e-14
9.210000000000000000e+02 1.764269709587097168e+00 1.202162456512451172e+01 -4.851700367413530612e-14 1.164598474080735802e-13 2.038285176492876660e-14 -5.887465807843245136e-14
9.220000000000000000e+02 1.775802850723266602e+00 1.361650848388671875e+01 -3.076648297565230672e-14 4.900747776342972983e-13 1.377925009336811168e-13 5.726888689834563895e-14
9.230000000000000000e+02 1.781819939613342285e+00 1.441764259338378906e+01 -1.095743843424791530e-14 1.325568073275856795e-13 3.647980829630907695e-14 6.804437249112796349e-14
9.240000000000000000e+02 1.791578292846679688e+00 1.682922744750976562e+01 9.852596440530075883e-14 4.539839641368170753e-13 1.657529772073826346e-13 1.822964115815242647e-13
9.250000000000000000e+02 1.796013474464416504e+00 1.843652343750000000e+01 3.532701678388670830e-14 2.438948836728377367e-13 8.376657115345687021e-14 -2.328135954691740866e-14
9.260000000000000000e+02 1.085641503334045410e+00 2.018383789062500000e+01 9.279182917919584495e-14 1.770207786778998926e-13 8.094378303475507908e-14 -5.954714125218016352e-14
9.270000000000000000e+02 1.813094854354858398e+00 2.164934349060058594e+01 -5.442739290403668384e-14 2.054287187407133342e-13 4.530039605693710059e-14 -3.449611473207991885e-14
9.280000000000000000e+02 1.800428390502929688e+00 2.004262351989746094e+01 -4.353619922252763286e-14 1.643454252894804846e-13 3.624276782008585551e-14 -5.863239310299056539e-14
9.290000000000000000e+02 2.448040199279785156e+01 1.571506977081298828e+01 -2.817261059314367377e-14 -5.782492675876840793e-14 -2.579925985032090890e-14 2.374190660693262234e-14
9.300000000000000000e+02 5.922716522216796875e+01 -8.448762893676757812e+00 -2.825025911985801219e-13 -2.125744377615493286e-13 -1.485231073327861195e-13 -2.160290108149491572e-14
9.310000000000000000e+02 5.718923950195312500e+01 -9.709723472595214844e+00 1.317189900987975060e-13 1.479528983052216806e-13 8.390156787645847158e-14 -3.222462647742806163e-14
9.320000000000000000e+02 5.786735153198242188e+01 -9.281002998352050781e+00 -1.513612233597014245e-13 1.524479056446564895e-13 3.260063583765903349e-16 -2.027255791080088965e-14
9.330000000000000000e+02 1.317041587829589844e+01 1.224770164489746094e+01 3.488569906584006175e-14 2.894567181430107716e-13 9.730272008045756649e-14 3.362075700306943471e-14
9.340000000000000000e+02 1.653734016418457031e+01 7.270065546035766602e-01 1.161921036815782848e-13 1.412985126039018047e-13 7.724718217513859564e-14 -2.954651158611730499e-14
9.350000000000000000e+02 1.672465896606445312e+01 1.996014118194580078e+00 1.149886663751736871e-13 9.503180442007805317e-14 6.300613920569644866e-14 -1.181307249286181471e-13
9.360000000000000000e+02 6.126843261718750000e+01 -7.252643108367919922e+00 -1.302659287947052769e-13 -5.582825664978731395e-14 -5.582825664978731395e-14 -1.601791073911618124e-13
9.370000000000000000e+02 2.333964920043945312e+01 -1.518834829330444336e+00 -3.753050099836825401e-15 -8.024289376408824670e-14 -2.519878294741928482e-14 -1.253168711379606948e-13
9.380000000000000000e+02 2.192841148376464844e+01 3.519951343536376953e+00 1.815455541432330067e-14 -1.866610029521362235e-13 -5.055193595540977136e-14 -2.832454966915625566e-14
9.390000000000000000e+02 1.155065250396728516e+01 2.214875936508178711e+00 1.366494113366365989e-14 -1.542719131695374779e-13 -4.218209169546544013e-14 2.916652074751776430e-15
9.400000000000000000e+02 1.164296722412109375e+01 2.916294813156127930e+00 1.151940007141152855e-13 4.936885793292537794e-14 4.936885793292537794e-14 1.191523957408055501e-13
9.410000000000000000e+02 2.173457145690917969e+01 -1.735563158988952637e+00 1.004985144040758394e-13 2.718255308342687471e-13 1.116972183148878806e-13 -1.048992842459309238e-13
9.420000000000000000e+02 1.950886535644531250e+01 -1.421080112457275391e+00 6.352102681740981471e-14 2.102270994005367433e-13 8.212443854301032520e-14 -1.029339780729207621e-13
9.430000000000000000e+02 2.232995605468750000e+01 -3.452089071273803711e+00 9.437397152818605139e-14 2.234497851506811461e-13 9.534712429315472804e-14 -7.483490688025770665e-14
9.440000000000000000e+02 4.537933731079101562e+01 1.815785026550292969e+01 -3.847214498473201794e-14 -1.648806213631372197e-14 -1.648806213631372197e-14 -9.186760950759004923e-15
9.450000000000000000e+02 4.426448822021484375e+01 1.830651664733886719e+01 -3.802681571864717502e-14 1.209556407940834410e-13 2.487864684500452200e-14 -4.960211725407205618e-14
9.460000000000000000e+02 5.748312377929687500e+01 1.297761249542236328e+01 -5.747716891194368238e-14 -1.847613994307786833e-13 -7.267157118044306752e-14 -1.043774509640500725e-13
9.470000000000000000e+02 7.716438293457031250e+01 -9.553885459899902344e+00 -4.637413229032633089e-14 -6.562557843068500540e-14 -3.359991321630340089e-14 -9.467722287583024698e-14
9.480000000000000000e+02 7.410544586181640625e+01 -7.575267314910888672e+00 -2.098052837690676797e-14 8.822911341408931629e-14 2.017457483352840669e-14 -3.902363373712918956e-15
9.490000000000000000e+02 5.990708541870117188e+01 -8.044476509094238281e+00 -2.815640786930223571e-13 -3.379873421069379269e-13 -1.858654289504935164e-13 -2.787571199260388544e-14
9.500000000000000000e+02 1.372542381286621094e+01 1.299434757232666016e+01 1.126881858768032096e-13 1.512345749934279615e-13 7.917682487293756233e-14 1.254040003350470611e-13
9.510000000000000000e+02 4.510425567626953125e+01 -1.593243026733398438e+01 -1.099792864200574427e-13 1.129943442415223820e-13 9.045173676153054655e-16 -8.962949604512590596e-14
9.520000000000000000e+02 3.755022811889648438e+01 -1.736118507385253906e+01 6.360278243747879978e-14 2.725833508833864355e-14 2.725833508833864355e-14 1.196565497510113096e-13
9.530000000000000000e+02 3.306856155395507812e+01 -1.587926673889160156e+01 1.573935616170848983e-13 -2.404751270617018488e-14 4.000381433446123514e-14 -1.153904988053511271e-13
9.540000000000000000e+02 2.941023254394531250e+01 -1.446467876434326172e+01 6.245377208013297432e-14 -6.473599732442422705e-14 -6.846677956335244734e-16 -4.711656344485830317e-14
9.550000000000000000e+02 3.183703231811523438e+01 -1.518711757659912109e+01 -7.535433797670014477e-15 -9.473137199808231990e-14 -3.068004156931911086e-14 -7.485070912692168288e-14
9.560000000000000000e+02 3.121081352233886719e+01 -1.477544307708740234e+01 6.453426118144256485e-14 1.534726528805083201e-13 6.540207015282711867e-14 -2.858102616338717428e-14
9.570000000000000000e+02 3.057739830017089844e+01 -1.434476947784423828e+01 1.059577366168198975e-13 -7.468578164769590355e-14 9.381586151924019290e-15 -7.881183498783389529e-14
9.580000000000000000e+02 3.828882980346679688e+01 -1.658353805541992188e+01 5.432371607129275748e-14 1.147834946665579614e-13 5.073216084966296335e-14 1.995592683072186513e-13
9.590000000000000000e+02 3.244921875000000000e+01 -1.556549549102783203e+01 7.138031349806714387e-14 2.135953631847431478e-13 8.549270232721672969e-14 3.279602135111865657e-14
9.600000000000000000e+02 1.498709774017333984e+01 6.483741760253906250e+00 1.281947367270247495e-13 -2.798299210350543159e-14 3.006352355646238483e-14 -1.202748160398711685e-13
9.610000000000000000e+02 5.144063949584960938e+01 2.053390884399414062e+01 5.463024035424514369e-14 -5.665119998002170199e-14 -6.062883959527358424e-16 4.112315820986242598e-14
9.620000000000000000e+02 4.831000137329101562e+01 4.374510765075683594e+00 -5.640311419416628447e-14 1.817065107320020578e-13 3.759101726728483750e-14 2.456355431557089020e-13
9.630000000000000000e+02 4.329276275634765625e+01 9.324864387512207031e+00 -2.136999209317522186e-13 4.566716471123000165e-14 -5.040982754378302289e-14 3.402057688296419857e-14
9.640000000000000000e+02 1.873427581787109375e+01 2.489579468965530396e-01 2.571966348664106450e-13 4.276243259233175609e-13 2.054462828159075993e-13 -1.416236648354302075e-13
9.650000000000000000e+02 2.000871849060058594e+01 -9.479511380195617676e-01 9.844483220148095293e-14 1.165359312955277504e-13 6.449422701622353760e-14 -1.182284115443590911e-13
9.660000000000000000e+02 1.762755012512207031e+01 8.711735010147094727e-01 8.518005230198980038e-14 3.567623898127064708e-13 1.325827333120352391e-13 -2.905241693919313750e-14
9.670000000000000000e+02 2.121251678466796875e+01 3.157616853713989258e+00 2.533391688975834138e-14 -1.035199825708855992e-13 -2.345581953493158789e-14 -1.209204042234776622e-13
9.680000000000000000e+02 4.799062347412109375e+01 1.939911460876464844e+01 7.751356387265470604e-14 -3.540632278467223393e-14 1.263217249580133109e-14 7.614964431593151950e-14
9.690000000000000000e+02 4.648423004150390625e+01 1.993169784545898438e+01 7.252423488146586550e-14 1.392520894736648876e-14 2.593483424979253771e-14 4.224150597451764577e-14
9.700000000000000000e+02 1.425780582427978516e+01 1.509332466125488281e+01 -5.824794856515436159e-14 1.809158698502441598e-13 3.680037638552693946e-14 1.900328581560389862e-13
9.710000000000000000e+02 2.468559646606445312e+01 -6.805358886718750000e+00 -5.518943117723169867e-15 -6.527281292507611243e-14 -2.123752833749908975e-14 -2.546569996975805994e-14
9.720000000000000000e+02 2.425357818603515625e+01 -6.123849868774414062e+00 -3.356421247164252664e-14 1.028521411376888406e-13 2.078637995506660979e-14 -1.325395820655703161e-13
9.730000000000000000e+02 2.274017715454101562e+01 1.594497013092041016e+01 4.003115994613039297e-14 -1.200966409653503320e-13 -2.401964193407372938e-14 -4.039355791041546184e-14
9.740000000000000000e+02 2.222279739379882812e+01 1.695856285095214844e+01 -6.718194387302436899e-14 -3.947998612058301049e-13 -1.385945394907772688e-13 -8.999774531301060754e-14
9.750000000000000000e+02 2.263332557678222656e+01 3.892531394958496094e+00 -4.786615710999225781e-14 -2.149556032303434616e-13 -7.884652945735343144e-14 -3.466640562392771241e-14
9.760000000000000000e+02 2.685046577453613281e+01 1.017270183563232422e+01 1.693314915097565015e-14 7.257064042851413960e-15 7.257064042851413960e-15 -1.054966322091253905e-13
9.770000000000000000e+02 2.681732177734375000e+01 1.091045570373535156e+01 4.564905514681770471e-14 2.025676718378499608e-13 7.446501775658712075e-14 -6.868194435492164240e-14
9.780000000000000000e+02 4.137030792236328125e+01 1.233425998687744141e+01 -1.173015406596283894e-13 -4.521142541022340339e-15 -3.654680521430510309e-14 -9.811621391113238555e-15
9.790000000000000000e+02 4.223330688476562500e+01 1.215493011474609375e+01 -1.003740903463218662e-14 1.329511045526643453e-13 3.687410552138774278e-14 -6.596923663804502014e-14
9.800000000000000000e+02 5.149082183837890625e+01 6.136961936950683594e+00 1.600009729742224440e-13 3.659530089985402190e-13 1.577861918813233677e-13 1.078723427857392059e-13
9.810000000000000000e+02 5.286305236816406250e+01 5.850374698638916016e+00 6.862799174431333249e-14 1.084038661245366464e-13 5.310955871590770927e-14 -8.505115421620842997e-14
9.820000000000000000e+02 4.582680511474609375e+01 -1.570074653625488281e+01 7.801646088596674022e-15 2.621903752051887859e-14 1.020620491332807633e-14 -7.702070589383352983e-14
9.830000000000000000e+02 4.424627685546875000e+01 -1.546911144256591797e+01 3.148990882843026064e-15 9.285146707494612572e-14 2.880013664618291669e-14 5.996213318622614641e-14
9.840000000000000000e+02 5.487496566772460938e+01 1.759649658203125000e+01 -8.781852838070966071e-16 -1.033159967083960296e-13 -3.125825675230099743e-14 -4.248959853663664132e-14
9.850000000000000000e+02 6.195329666137695312e+01 -6.858814716339111328e+00 -1.640443694512355721e-13 -1.274934205517525010e-13 -8.746133564564370633e-14 -7.687194573247199333e-16
9.860000000000000000e+02 5.595008850097656250e+01 8.290813446044921875e+00 1.422997733101921680e-14 -1.311542833972584310e-13 -3.507729114224540645e-14 7.096706306376071582e-14
9.870000000000000000e+02 4.645705032348632812e+01 5.680320739746093750e+00 -1.850332766780565796e-13 -3.354902347683236252e-14 -6.557468869121396704e-14 8.455606007040650240e-14
9.880000000000000000e+02 5.239120101928710938e+01 1.840558242797851562e+01 2.335154639099279450e-14 -3.574314374208201195e-14 -3.717479374733354686e-15 4.670968693347996373e-15
9.890000000000000000e+02 3.912073516845703125e+01 -1.724841880798339844e+01 1.015966485744777825e-13 1.121678433729095259e-13 6.412935232760069715e-14 1.903925286742338963e-13
9.900000000000000000e+02 5.351538848876953125e+01 6.414871692657470703e+00 1.867975988733422410e-13 -7.435333815655753575e-14 3.373327685978269597e-14 -6.502821691496338263e-14
9.910000000000000000e+02 5.017127227783203125e+01 1.998171424865722656e+01 9.914498963568135759e-14 2.026190359157714616e-13 9.052920766543584574e-14 1.040273857994770262e-14
9.920000000000000000e+02 4.817940139770507812e+01 5.087292671203613281e+00 -1.616458364188909369e-14 -6.927678340652634187e-15 -6.927678340652634187e-15 1.647951252455731597e-13
9.930000000000000000e+02 2.366032218933105469e+01 5.241958141326904297e+00 4.077182588400028729e-14 4.034911239760713419e-14 2.433628148448222644e-14 6.161910581390858677e-14
9.940000000000000000e+02 5.475497817993164062e+01 7.438942432403564453e+00 1.124064085084378051e-13 -1.805805667758758615e-13 -2.045224917429731143e-14 -7.706834302678711168e-14
9.950000000000000000e+02 4.570375442504882812e+01 1.929389762878417969e+01 -1.718589870023864985e-14 2.694782636240237311e-14 2.928578298649116979e-15 -7.669750522621560096e-14
9.960000000000000000e+02 5.741364288330078125e+01 1.761157608032226562e+01 2.660225047244977464e-14 5.715191503646160909e-14 2.512624812801411006e-14 -1.880794731247284815e-15
9.970000000000000000e+02 4.167560195922851562e+01 1.418379878997802734e+01 -4.791911022172280765e-14 1.624670314731221921e-13 3.436437739185935203e-14 -1.747244634640475382e-15
9.980000000000000000e+02 1.553027153015136719e+01 1.623559188842773438e+01 7.666701204011444615e-14 -1.289365664881641713e-14 1.913200771853224014e-14 1.479982992711945111e-13
9.990000000000000000e+02 1.449182987213134766e+01 1.574726867675781250e+01 -1.288290525961691829e-14 4.022970446896680097e-14 8.204039254585196450e-15 2.277299984872194205e-13
1.000000000000000000e+03 2.577030754089355469e+01 5.896439075469970703e+00 -1.400813601400152653e-13 -1.428392147129805417e-14 -4.630958499161376418e-14 2.712658588965681516e-14
1.001000000000000000e+03 2.398348045349121094e+01 4.701757907867431641e+00 -9.105088509325440227e-14 -3.902180499299606753e-14 -3.902180499299606753e-14 1.025375869823964836e-13
1.002000000000000000e+03 2.461249351501464844e+01 5.120913982391357422e+00 -1.785403320683515843e-14 3.809922009497847262e-14 6.073556151146288981e-15 9.257149388675837282e-15
1.003000000000000000e+03 2.545232963562011719e+01 1.391709518432617188e+01 1.027216031961215859e-13 -9.322930475579374598e-14 2.847689405043409873e-15 -4.154044390912957352e-14
1.004000000000000000e+03 2.633826065063476562e+01 6.226648807525634766e+00 -1.632933324419594961e-14 1.760055046585301541e-13 4.790285396539910312e-14 -2.163168156697672234e-14
1.005000000000000000e+03 6.838896942138671875e+01 -6.486588001251220703e+00 -6.973505703011112500e-14 1.073663930656852672e-13 1.128939996363929540e-14 4.547829669278302678e-14
1.006000000000000000e+03 6.738562774658203125e+01 -6.268679618835449219e+00 -1.920118252764224653e-13 9.211116536124355075e-15 -5.484021304560590671e-14 -2.512916192135266485e-14
1.007000000000000000e+03 1.956343078613281250e+01 1.694041061401367188e+01 1.274457156561631388e-13 -8.263325462255777243e-14 1.344373593838935760e-14 5.805380183738009792e-14
1.008000000000000000e+03 5.106800460815429688e+01 1.973507881164550781e+01 1.145015834669868907e-14 7.353363388031344816e-14 2.549513775280693589e-14 5.843459396914774118e-14
1.009000000000000000e+03 1.660118293762207031e+01 1.782749557495117188e+01 9.240488420009934645e-14 6.247757031781903114e-14 4.646473432249643987e-14 -6.632658289783266437e-14
1.010000000000000000e+03 2.301070022583007812e+01 1.659598731994628906e+01 1.005608628052573339e-13 1.345994035629669017e-13 7.054807991046727067e-14 -8.613886310509556721e-15
1.011000000000000000e+03 2.376282119750976562e+01 1.617740249633789062e+01 2.427442605647603391e-14 1.040332557378014985e-14 1.040332557378014985e-14 -5.833152700012583791e-14
1.012000000000000000e+03 6.618855285644531250e+01 -5.197166919708251953e+00 8.359114046568513756e-15 1.408353278832888411e-13 4.475833224014402756e-14 -1.469630894843781954e-13
1.013000000000000000e+03 6.332978439331054688e+01 -6.067405700683593750e+00 -2.711457360721203358e-13 -3.907110095527355220e-13 -1.985570182664458949e-13 -2.434226153708984181e-14
1.014000000000000000e+03 4.900150680541992188e+01 5.166015148162841797e+00 1.729769519081495593e-14 2.361680458400766680e-13 7.603971976816864542e-14 1.426476395772341421e-13
1.015000000000000000e+03 4.983568572998046875e+01 5.232777595520019531e+00 -4.971791682235708609e-14 2.531980159391211682e-13 6.104403142909511915e-14 1.925736452896772977e-13
1.016000000000000000e+03 5.349597167968750000e+01 1.858832359313964844e+01 -3.685955010722212488e-14 -3.867242423104440274e-14 -2.265959331791949499e-14 5.499033777704546988e-14
1.017000000000000000e+03 5.272718429565429688e+01 1.902783966064453125e+01 4.464870923611037601e-14 1.913516206922781515e-14 1.913516206922781515e-14 1.147810416591427130e-13
1.018000000000000000e+03 2.004429244995117188e+01 3.485661029815673828e+00 -8.056503902865389671e-15 1.795510083928836265e-13 5.144835092348899741e-14 -1.786416880308200339e-13
1.019000000000000000e+03 1.927354049682617188e+01 1.935174942016601562e+01 7.979027323839343877e-14 -3.443059165141211520e-14 1.360790278202850256e-14 -2.454106525200810962e-14
1.020000000000000000e+03 4.251041030883789062e+01 1.762679672241210938e+01 5.429278920432260847e-14 4.807778524254513464e-13 1.605211867291081451e-13 3.187299260783670041e-14
1.021000000000000000e+03 5.677549743652343750e+01 1.309220981597900391e+01 4.977359060391421675e-14 -2.531741634913264871e-13 -6.102017220503686001e-14 1.095622616069380495e-13
1.022000000000000000e+03 1.639725112915039062e+01 3.888459444046020508e+00 1.012873934573034485e-13 1.349107864269047385e-13 7.085945599814152951e-14 -1.886162531499965822e-13
1.023000000000000000e+03 2.284936141967773438e+01 -4.108259201049804688e+00 1.372575013716681447e-13 6.454351755749015984e-14 6.054030432349477575e-14 -3.806068009587840195e-14
1.024000000000000000e+03 4.262972640991210938e+01 9.678165435791015625e+00 -8.900464322806819761e-14 -2.440241205717980089e-13 -9.990862710708078853e-14 1.512375836544566088e-13
1.025000000000000000e+03 4.921759033203125000e+01 2.017918014526367188e+01 1.646746907130007542e-14 2.993296189797260698e-14 1.392012929078180472e-14 -5.775771977660146272e-14
1.026000000000000000e+03 4.199692916870117188e+01 1.506452655792236328e+01 1.593514952153221587e-13 1.140444482556832173e-13 8.201878304130161279e-14 -6.548616358383052560e-14
1.027000000000000000e+03 1.318968963623046875e+01 6.117769241333007812e+00 9.007084086822686464e-14 1.987301111432832057e-13 8.664028289294758989e-14 3.115899126714637146e-14
1.028000000000000000e+03 1.431154060363769531e+01 4.957706451416015625e+00 1.335656438965562853e-13 7.153958957346884251e-14 6.153157004100753835e-14 -2.874507950461138717e-14
1.029000000000000000e+03 1.468918704986572266e+01 1.645006752014160156e+01 -1.852486297226983020e-14 1.293136198165026340e-13 3.323662756148960951e-14 7.034484621323486286e-14
1.030000000000000000e+03 5.658234024047851562e+01 8.638992309570312500e+00 -2.376129349702937876e-13 -3.305888549021140932e-13 -1.704605423827332267e-13 -1.735494106552219057e-14
1.031000000000000000e+03 5.239915084838867188e+01 5.205274581909179688e+00 1.763514464667159665e-13 -1.592270491347115569e-14 4.812862212716026433e-14 -2.871926871664265413e-14
1.032000000000000000e+03 1.119844079017639160e+00 3.452544450759887695e+00 -7.737303771857342860e-14 1.040929766427806102e-13 8.015980999635796689e-15 -5.332287125817949600e-15
1.033000000000000000e+03 2.702050399780273438e+01 8.766560554504394531e+00 9.952404026770944601e-14 8.840411042099205474e-14 5.637844520661045022e-14 -6.812278063698939956e-14
1.034000000000000000e+03 7.112828826904296875e+01 -8.863818168640136719e+00 1.443411904757108122e-13 2.448642959403113384e-13 1.167616486353120764e-13 4.755344271026133718e-14
1.035000000000000000e+03 6.898991394042968750e+01 -7.686338901519775391e+00 -1.762870313051431714e-13 6.170126123352867586e-14 -3.437573102148434867e-14 6.492636967338552556e-14
1.036000000000000000e+03 4.718279647827148438e+01 2.077626037597656250e+01 8.561422783822519866e-14 8.244276030085206930e-14 5.041709847460225380e-14 1.647715060494763287e-16
1.037000000000000000e+03 1.319239330291748047e+01 1.850262999534606934e+00 3.701953430216772811e-14 -7.563638300747688170e-14 -1.158505511981251443e-14 -1.461665125957259392e-13
1.038000000000000000e+03 4.329272460937500000e+01 8.226188659667968750e+00 -2.019926245580908053e-13 -1.323192179740126373e-13 -1.002935527596310328e-13 6.148784958840206039e-14
1.039000000000000000e+03 7.803034973144531250e+01 -8.778598785400390625e+00 -1.000726059094056430e-13 2.862688029198678583e-15 -2.916297506760055780e-14 1.965622963332434858e-14
1.040000000000000000e+03 1.248125648498535156e+01 2.759166002273559570e+00 -5.860677289743496457e-15 -1.855155162518509759e-13 -5.741285539432455787e-14 -1.123921309210788866e-13
1.041000000000000000e+03 5.653002929687500000e+01 1.113289070129394531e+01 -5.740189139985529820e-14 -3.906083898171097690e-13 -1.344030816545840890e-13 1.842456241285365948e-14
1.042000000000000000e+03 5.625848388671875000e+01 1.061056232452392578e+01 3.361622029460394068e-14 -1.056892881589124866e-13 -2.162192035929256378e-14 2.234034998823113821e-14
1.043000000000000000e+03 1.972716712951660156e+01 1.762921905517578125e+01 1.215613303377424681e-13 9.784866330814906421e-14 6.582299809376745969e-14 6.388057536286032012e-14
1.044000000000000000e+03 1.890516853332519531e+01 1.771104812622070312e+01 3.829509476996513506e-14 1.641218323083278724e-14 1.641218323083278724e-14 1.402278765110995251e-13
1.045000000000000000e+03 8.286991119384765625e+00 5.269419193267822266e+00 -3.882931844979842229e-14 2.121136111806615210e-13 5.198528849688528741e-14 8.733381314136867690e-14
1.046000000000000000e+03 6.443592834472656250e+01 -5.201200485229492188e+00 -1.897464390471226281e-13 -2.643236920573527327e-13 -1.362210447523534707e-13 -8.266683100858693289e-14
1.047000000000000000e+03 6.334369277954101562e+01 -5.060589790344238281e+00 -2.492612778508263016e-13 -2.583762739351291859e-13 -1.522912655357866463e-13 -1.049323473299940482e-15
1.048000000000000000e+03 1.078417778015136719e+01 3.035418748855590820e+00 -3.102543450015510240e-14 -1.047985144302619742e-13 -4.074718400149876518e-14 -1.159713330142059240e-13
1.049000000000000000e+03 2.642765235900878906e+01 7.890275955200195312e+00 1.036955182907427914e-14 5.019504370528185544e-14 1.816937849090025092e-14 2.951535771431729183e-14
1.050000000000000000e+03 2.601714515686035156e+01 6.906706809997558594e+00 -5.908563704493455249e-14 -2.532241757046641700e-14 -2.532241757046641700e-14 -4.176102822925353841e-14
1.051000000000000000e+03 4.143823623657226562e+01 1.149250507354736328e+01 3.498178309524480056e-14 1.499219178706726052e-14 1.499219178706726052e-14 5.350228723596806013e-14
1.052000000000000000e+03 4.192690658569335938e+01 9.907214164733886719e+00 -9.763072511895232175e-14 -4.184174030473150618e-14 -4.184174030473150618e-14 1.038874457921952488e-13
1.053000000000000000e+03 1.832266998291015625e+01 8.701192140579223633e-01 2.536210987318793242e-13 2.230721304289501328e-13 1.430079606167325434e-13 -3.335958286411304374e-14
1.054000000000000000e+03 1.662909507751464844e+01 3.400477886199951172e+00 1.663494916901570031e-13 7.129264219989453477e-14 7.129264219989453477e-14 -1.352763793994668506e-13
1.055000000000000000e+03 4.343409347534179688e+01 1.790350151062011719e+01 6.664376624339329869e-14 2.115654114571985378e-13 8.346275059967211973e-14 1.231294797024440335e-13
1.056000000000000000e+03 4.127104187011718750e+01 1.561890029907226562e+01 2.282077182932072679e-14 2.156596028059926118e-13 7.154410934127539146e-14 -1.203809662088210775e-14
1.057000000000000000e+03 3.444924545288085938e+01 -1.754748344421386719e+01 1.483450677835368436e-13 -7.367638942511189892e-14 2.240060282990112561e-14 2.958842277634744777e-14
1.058000000000000000e+03 3.677619552612304688e+01 -1.740370559692382812e+01 1.353691057902686734e-13 1.952681722913740536e-13 9.919118342449281811e-14 4.270859382295155715e-14
1.059000000000000000e+03 2.063208770751953125e+01 -1.554981708526611328e+00 7.328542612171362602e-14 1.400665472278336821e-13 6.400559064961147682e-14 -2.044303514989707915e-14
1.060000000000000000e+03 1.925552177429199219e+01 3.191795110702514648e+00 3.420061204183720560e-14 -3.109354272537792618e-14 9.321204773004286050e-16 -1.395116661084827570e-13
1.061000000000000000e+03 4.445096588134765625e+01 6.669713973999023438e+00 -1.850394024203311227e-13 -2.623063983901718910e-13 -1.342037375326454729e-13 5.000149667683424781e-14
1.062000000000000000e+03 7.030689239501953125e+01 -8.746337890625000000e+00 9.753747017959141230e-14 1.333036735466294753e-13 6.925234311786626629e-14 5.474895032773693937e-14
1.063000000000000000e+03 5.223632812500000000e+01 -1.199002361297607422e+01 -7.603661623944990566e-14 1.732921531966136186e-13 2.917665973189639828e-14 -2.651920905636685755e-14
1.064000000000000000e+03 5.261746215820312500e+01 -1.258540248870849609e+01 -7.541153302943054415e-14 -9.443753288054801409e-15 -2.545658589524560367e-14 1.205302049437978126e-14
1.065000000000000000e+03 1.498046207427978516e+01 2.195376157760620117e+00 3.618094119119986962e-14 6.125706360346136470e-14 2.923140177721154920e-14 -1.130689576797801188e-13
1.066000000000000000e+03 1.542005348205566406e+01 3.767251968383789062e+00 1.160338491279109749e-14 5.072382943359377006e-14 1.869816421921216554e-14 -1.095229389493947159e-13
1.067000000000000000e+03 2.938813209533691406e+01 -1.146161270141601562e+01 -8.693741188644903140e-15 -1.123843924280727713e-13 -3.632343923798235508e-14 -7.080765146308745650e-14
1.068000000000000000e+03 2.717506980895996094e+01 8.088925361633300781e+00 -5.571189380459235993e-15 3.178689950145141552e-13 9.368933851384292355e-14 -8.329642043388568728e-14
1.069000000000000000e+03 2.774725341796875000e+01 8.932294845581054688e+00 -5.087741683572170881e-14 6.969729291319073927e-14 5.645962484427530237e-15 -1.500864862079287487e-13
1.070000000000000000e+03 2.995354270935058594e+01 -1.288893413543701172e+01 -4.472586038507808670e-14 1.381006582961558093e-13 2.801244005094967460e-14 2.324885889273126116e-14
1.071000000000000000e+03 3.170700073242187500e+01 -1.422654628753662109e+01 1.697233967137921212e-14 1.559644476284774428e-13 5.188103568173722813e-14 -9.417141545731144703e-14
1.072000000000000000e+03 4.995958328247070312e+01 -1.239008617401123047e+01 1.214352935292569227e-14 2.911478024815450372e-13 9.098739827979179795e-14 -2.640931330772419011e-14
1.073000000000000000e+03 5.326832580566406250e+01 -1.220567321777343750e+01 1.902925415170082096e-14 3.103086906354468599e-14 1.501803645635388373e-14 2.268089958467472966e-14
1.074000000000000000e+03 2.827072715759277344e+01 -9.577627182006835938e+00 -1.023360812323764746e-13 1.892629687344558713e-15 -3.013303446824586174e-14 4.608053034201725628e-14
1.075000000000000000e+03 2.671632003784179688e+01 -1.009420299530029297e+01 9.169921088734642178e-14 3.481185608875114745e-13 1.319453308548310111e-13 -3.797914809250749202e-14
1.076000000000000000e+03 3.983558273315429688e+01 -1.643968582153320312e+01 6.435527973155594217e-14 -6.392106353773907568e-14 1.302635823016831456e-16 7.806813328388104156e-14
1.077000000000000000e+03 4.133535385131835938e+01 -1.619003295898437500e+01 5.070545220677014076e-14 -2.402004003955893890e-14 8.005624327789718359e-15 1.215299697899033249e-13
1.078000000000000000e+03 2.995037078857421875e+01 -1.389846706390380859e+01 1.055206201821916323e-13 2.711184412824280132e-13 1.129917150512541046e-13 9.377988802997030277e-15
1.079000000000000000e+03 6.972614288330078125e+01 -7.785368442535400391e+00 1.584295083225653253e-15 1.836827808994814792e-13 5.558012343008685019e-14 -4.496064436552982269e-14
1.080000000000000000e+03 4.634364700317382812e+01 -1.479589939117431641e+01 -5.399791331846086340e-14 1.141108827438022666e-13 1.803389048878924206e-14 -4.618838135312525184e-14
1.081000000000000000e+03 7.127001190185546875e+01 -8.181798934936523438e+00 5.547165239086146449e-14 -6.772833433411201698e-14 -3.677004328865281571e-15 8.921791257165967437e-15
1.082000000000000000e+03 7.473578643798828125e+01 -8.886137008666992188e+00 -6.548469991089767017e-14 1.091879746882053193e-13 1.311098412725818924e-14 -1.644010990710376152e-13
1.083000000000000000e+03 7.217734527587890625e+01 -7.657208919525146484e+00 2.846009018730999429e-14 -1.067829195021668259e-14 5.334539809941172411e-15 7.298046037938418773e-14
1.084000000000000000e+03 4.362142181396484375e+01 -1.636268997192382812e+01 1.461251096252641490e-13 -6.001374967996592896e-15 4.203712031247697212e-14 2.460718972606846383e-14
1.085000000000000000e+03 4.207132720947265625e+01 -1.602793502807617188e+01 1.647683217349902446e-14 7.061499381923446589e-15 7.061499381923446589e-15 -6.419192434548026682e-14
1.086000000000000000e+03 2.727647018432617188e+01 -9.593202590942382812e+00 -1.277925654836684077e-13 -5.476824235014360331e-14 -5.476824235014360331e-14 -3.047449843675601421e-15
1.087000000000000000e+03 4.868801116943359375e+01 -1.304361724853515625e+01 -1.122660246558916664e-13 2.721426328646664450e-13 4.796298314025879139e-14 2.097565793746005575e-14
1.088000000000000000e+03 4.767104339599609375e+01 -1.427852058410644531e+01 -3.983246295736347919e-14 1.201817914934719123e-13 2.410479754439299321e-14 4.523406660090351084e-14
1.089000000000000000e+03 7.455744171142578125e+01 -8.146397590637207031e+00 -8.218690891693622436e-14 5.627893577596701502e-14 -7.772392958730299506e-15 3.989663756157925401e-14
1.090000000000000000e+03 5.029362106323242188e+01 -1.302485656738281250e+01 -3.563060016844622757e-14 1.677335435259705299e-13 3.963088266844411178e-14 1.613110297058297296e-15
1.091000000000000000e+03 6.950652313232421875e+01 -8.514778137207031250e+00 -7.636326602522905405e-14 5.877478272955580230e-14 -5.276545581625038603e-15 7.315181853274552171e-14
1.092000000000000000e+03 4.964070129394531250e+01 -1.335420036315917969e+01 1.431745402337219423e-15 1.836174035084806033e-13 5.551474265095418525e-14 -3.110266357615396049e-14
1.093000000000000000e+03 4.352936172485351562e+01 7.668914318084716797e+00 -1.204956409173521537e-13 -2.346447959978431586e-13 -1.065421283640531624e-13 -9.992912530440434260e-14
1.094000000000000000e+03 4.293793487548828125e+01 5.683986663818359375e+00 -4.508707927950057759e-14 -2.023268298777594620e-13 -7.422417579649662200e-14 -8.945754835683328299e-14
1.095000000000000000e+03 3.385527420043945312e+01 -1.415261936187744141e+01 9.795793055834486895e-14 1.735159460775417828e-13 8.144216366839235333e-14 -1.005352688577230980e-13
1.096000000000000000e+03 2.825424766540527344e+01 -1.063101673126220703e+01 4.051071611954788765e-14 -1.224587189701945630e-15 1.178583919776146280e-14 1.504414878805183930e-14
1.097000000000000000e+03 7.828923034667968750e+01 -5.725374698638916016e+00 -1.837952939799311625e-13 5.848343727701821315e-14 -3.759355497799481138e-14 -1.072452334729100121e-13
1.098000000000000000e+03 5.584856796264648438e+01 -1.057172584533691406e+01 6.608330148285407324e-14 2.113252064658843743e-13 8.322255238462153426e-14 7.416710610464241626e-14
1.099000000000000000e+03 5.408648681640625000e+01 -1.083304595947265625e+01 5.082278321062380644e-14 1.533151725149548006e-13 6.124138332954179309e-14 4.158746440209755424e-14
1.100000000000000000e+03 2.549707221984863281e+01 -8.147033691406250000e+00 1.021941117341530758e-13 -1.339120803719832942e-14 2.664087178671278172e-14 -3.230214354462898618e-14
1.101000000000000000e+03 2.561713790893554688e+01 -7.064156055450439453e+00 1.491700507691082200e-13 1.554319146264068752e-13 9.138059097390724417e-14 6.902663933060909640e-14
1.102000000000000000e+03 4.566128540039062500e+01 -1.503512096405029297e+01 5.196070421262417860e-14 2.510236213771471769e-13 9.089529530523915435e-14 -4.092437312966899776e-14
1.103000000000000000e+03 5.764962005615234375e+01 1.369529247283935547e+01 -8.054796115037135551e-14 -2.632752956616135620e-13 -1.031469763659691175e-13 1.686303820105233831e-13
1.104000000000000000e+03 5.665858840942382812e+01 1.241297054290771484e+01 8.737966134073765767e-14 -5.405347190353716746e-14 9.997855984127199808e-15 -6.576726756100286300e-15
1.105000000000000000e+03 5.842099189758300781e+00 4.031456470489501953e+00 3.055461970675327210e-14 3.333514833527700949e-13 1.091718268520988633e-13 -7.216917222250401887e-14
1.106000000000000000e+03 4.215247726440429688e+01 -1.674762916564941406e+01 8.643201443187670252e-14 1.056687154226895742e-13 5.763021760111716740e-14 8.426110964564539896e-14
1.107000000000000000e+03 1.594896793365478516e+01 4.329413890838623047e+00 5.201051652618630949e-14 -6.921167876013448184e-14 -5.160347907854799174e-15 -1.915472853030938949e-13
1.108000000000000000e+03 4.701074981689453125e+01 -1.454511833190917969e+01 -1.307659797773145366e-14 8.589763828611290952e-14 2.184631293954738401e-14 3.169650821107858341e-14
1.109000000000000000e+03 4.860229873657226562e+01 -1.463638114929199219e+01 5.350125046764062087e-14 1.373064802048101773e-13 5.724231716885616605e-14 -4.091326259849986310e-15
1.110000000000000000e+03 2.684329795837402344e+01 -8.995653152465820312e+00 1.141988793026266213e-13 1.404442832647276318e-13 7.639294605970084473e-14 -1.533062142945046391e-13
1.111000000000000000e+03 2.642844772338867188e+01 -8.362277984619140625e+00 1.251180284595268533e-13 2.823767424314088670e-13 1.222484299120280005e-13 -1.913254134928901035e-14
1.112000000000000000e+03 1.865655064582824707e+00 4.201017856597900391e+00 1.157405046776178656e-14 1.422131591091377323e-13 4.613616007786112971e-14 7.330878729039889963e-15
1.113000000000000000e+03 2.661390066146850586e+00 3.403955459594726562e+00 -4.021656529388899226e-15 1.355292831087262506e-13 3.945228746558143706e-14 -2.140432098327472304e-14
1.114000000000000000e+03 5.041227340698242188e+00 4.076641082763671875e+00 2.774794723690594128e-14 5.764292309532598191e-14 2.561726296314206092e-14 1.943369205522401527e-14
1.115000000000000000e+03 3.449693679809570312e+00 3.387226819992065430e+00 6.780733201490474205e-14 7.481123739157963248e-14 4.278556878906623895e-14 -9.347163749387141229e-14
1.116000000000000000e+03 8.260277748107910156e+00 3.899215221405029297e+00 8.308628850033084046e-14 1.728612505956864109e-13 7.678426172880517542e-14 1.021643503845183487e-13
1.117000000000000000e+03 6.641695022583007812e+00 3.986897706985473633e+00 -4.598957763820698402e-15 2.267837610411826965e-13 6.665544174553825196e-14 -4.159401450787867174e-15
1.118000000000000000e+03 9.093826293945312500e+00 3.851829051971435547e+00 8.126873197837614082e-14 1.720823055448642003e-13 7.600530990171938672e-14 6.457121214673358645e-14
1.119000000000000000e+03 7.462728023529052734e+00 4.632597446441650391e+00 3.255214023681340940e-14 2.427056494148926991e-13 8.257734367177541057e-14 1.904405774651998437e-15
1.120000000000000000e+03 7.433314800262451172e+00 3.254863739013671875e+00 1.631863182994033878e-13 3.901936282760254393e-13 1.660139853278813638e-13 -6.594830708919307682e-16
1.121000000000000000e+03 2.684865951538085938e+01 1.250976943969726562e+01 5.964017257484299783e-14 2.556007299260934507e-14 2.556007299260934507e-14 4.467287762719438296e-15
1.122000000000000000e+03 5.159462738037109375e+01 -1.234778976440429688e+01 5.160384584381415285e-14 5.642914521070130363e-14 3.240989629991510024e-14 -5.062329678715005166e-14
1.123000000000000000e+03 2.283321380615234375e+01 -3.030610561370849609e+00 1.677048663785082883e-13 7.187351706633079984e-14 7.187351706633079984e-14 -8.346610485014324676e-14
1.124000000000000000e+03 5.724662017822265625e+01 1.165332984924316406e+01 -8.085371293927584579e-14 -3.549082414674303854e-13 -1.307285849667591537e-13 -5.798050299425649978e-14
1.125000000000000000e+03 5.785542678833007812e+01 1.222283744812011719e+01 2.502242475857030871e-15 -3.191842406699563206e-13 -9.500460449807582308e-14 8.557705685612612776e-16
1.126000000000000000e+03 3.747739028930664062e+01 -1.589252662658691406e+01 1.162622786671924091e-13 4.982668940531169433e-14 4.982668940531169433e-14 4.340573581985973650e-14
1.127000000000000000e+03 7.824125671386718750e+01 -6.481597900390625000e+00 1.247065195249599800e-13 -3.805624503136657844e-14 2.599508370333073609e-14 1.231372317479773049e-13
1.128000000000000000e+03 4.272369384765625000e+01 -1.514401245117187500e+01 -3.740702815861404740e-14 -1.532844353833648365e-13 -5.720743974022002298e-14 -1.482388837332690446e-13
1.129000000000000000e+03 6.149125289916992188e+01 -6.338137626647949219e+00 -8.725826457873717135e-14 -1.288982890692777494e-13 -6.484696541677811843e-14 -2.290824322771778387e-13
1.130000000000000000e+03 7.753070068359375000e+01 9.197377204895019531e+00 2.593099617410193902e-13 -1.176219088490706999e-13 4.250641383470553369e-14 -6.009114646848834340e-14
1.131000000000000000e+03 7.755787658691406250e+01 2.842966556549072266e+00 -3.383086454207540061e-13 -7.736572782423862399e-15 -1.038135641904039397e-13 1.811287529468116886e-13
1.132000000000000000e+03 7.753524780273437500e+01 8.405014991760253906e+00 -2.649922653270159190e-13 -2.965719033201641430e-13 -1.684692560151648810e-13 1.277786334857519690e-13
1.133000000000000000e+03 7.755931091308593750e+01 2.050595283508300781e+00 -5.046366428028414841e-13 -1.247709617915870872e-13 -1.888222922203502963e-13 2.756914976257546224e-13
1.134000000000000000e+03 7.756126403808593750e+01 1.261086821556091309e+00 -6.056395077287668460e-13 4.267044345900722346e-13 -5.368052329686109903e-14 8.137361498603695731e-14
1.135000000000000000e+03 7.735562133789062500e+01 2.193437576293945312e+01 -6.582454816406093506e-15 -2.821051912918156636e-15 -2.821051912918156636e-15 -6.518884146681711012e-14
1.136000000000000000e+03 7.724504089355468750e+01 2.821571922302246094e+01 7.447118754457492107e-15 -1.340612191570722533e-13 -3.798423029019101782e-14 -6.423783353122144990e-14
1.137000000000000000e+03 7.746217346191406250e+01 1.634431838989257812e+01 -4.106045998407371542e-15 -4.751068109895215108e-14 -1.548501927270233558e-14 -7.778997444026630737e-14
1.138000000000000000e+03 7.747144317626953125e+01 1.555272769927978516e+01 2.498421256122082545e-14 5.645846949133524750e-14 2.443280427695364299e-14 -1.067063172305489360e-13
1.139000000000000000e+03 7.747988128662109375e+01 1.476383399963378906e+01 -4.160738661701697538e-14 1.651720616833649014e-13 3.706940082583848328e-14 -1.323403057062674804e-13
1.140000000000000000e+03 7.800766754150390625e+01 2.986623954772949219e+01 -1.293713908516371663e-14 -9.704638758182768110e-14 -3.299505715306447207e-14 -5.629715714872834953e-14
1.141000000000000000e+03 7.723403167724609375e+01 2.897797966003417969e+01 6.675653682185894722e-14 -1.714100425996827742e-14 1.488465926034743259e-14 -3.101121874620133348e-15
1.142000000000000000e+03 7.734058380126953125e+01 2.272601318359375000e+01 7.724892198081225597e-15 4.906161536603372009e-14 1.703595184571801008e-14 -5.559872088547676561e-14
1.143000000000000000e+03 7.630990600585937500e+01 3.110309410095214844e+01 -1.148942425303455667e-14 4.082691013062612895e-14 8.801245763277471684e-15 7.622559267811412909e-14
1.144000000000000000e+03 7.681847381591796875e+01 3.374359512329101562e+01 -4.838954893249605704e-14 -1.351157548476131232e-13 -5.505158842352732285e-14 4.311490536335407797e-14
1.145000000000000000e+03 7.541555023193359375e+01 -7.858533382415771484e+00 -9.325521041145257151e-15 8.750524583362936926e-14 2.345391709893205473e-14 -1.720874419526563504e-13
1.146000000000000000e+03 7.755605316162109375e+01 3.640813112258911133e+00 -2.386401352135608667e-13 -1.937762423393982192e-13 -1.297249119106350101e-13 3.134933989918514685e-13
1.147000000000000000e+03 7.827574920654296875e+01 -1.835522890090942383e+00 9.391085457020886818e-14 1.317494019697357244e-13 6.769807831723609337e-14 1.031724957746039950e-13
1.148000000000000000e+03 7.693172454833984375e+01 -4.276488304138183594e+00 -1.014935273953472550e-13 -2.265010146671256330e-13 -9.839836058586279299e-14 -1.704906967556554798e-13
1.149000000000000000e+03 7.756433105468750000e+01 4.725941419601440430e-01 -4.958125381614164606e-13 1.626365939166353469e-14 -1.438646565158491208e-13 -1.178477075040179622e-13
1.150000000000000000e+03 7.822447967529296875e+01 1.085874366760253906e+01 -5.934352808418738578e-14 -2.541876756821659367e-13 -9.405936316278507014e-14 1.882980804699535549e-13
1.151000000000000000e+03 7.752481842041015625e+01 9.995669364929199219e+00 -1.286407639482581300e-13 -4.668903067980845201e-13 -1.786593198686500794e-13 1.900665497385489733e-13
1.152000000000000000e+03 7.751132202148437500e+01 1.159032154083251953e+01 -1.958144001221358288e-14 3.735890313468284707e-14 5.333239190850663433e-15 -8.283167039638619777e-14
1.153000000000000000e+03 7.686283111572265625e+01 4.389033794403076172e+00 -1.796845821005338406e-13 -2.142605212175630047e-13 -1.181835255744181912e-13 2.193392765591911653e-13
1.154000000000000000e+03 7.824845886230468750e+01 4.502955436706542969e+00 -4.059332351594863164e-13 -1.282204458710398121e-13 -1.602461110854214166e-13 2.776896280195367828e-13
1.155000000000000000e+03 7.753946685791015625e+01 7.614302158355712891e+00 1.572743129306386489e-13 -6.984956910831632837e-14 2.622742314669669617e-14 -6.155562577670956048e-14
1.156000000000000000e+03 7.754374694824218750e+01 6.819572925567626953e+00 -2.380427940266299780e-13 -1.051644512982006716e-14 -7.456777301748443443e-14 1.207879824806357139e-13
1.157000000000000000e+03 7.755355834960937500e+01 4.438110828399658203e+00 5.028319611816850498e-14 -2.420100693467392566e-14 7.824657432674731600e-15 3.550797012647453899e-14
1.158000000000000000e+03 7.689322662353515625e+01 -1.920884013175964355e+00 -1.170688031107772198e-13 -1.416742428667766562e-13 -7.762291243801344720e-14 -3.079452315433821308e-14
1.159000000000000000e+03 7.759598541259765625e+01 -2.677647352218627930e+00 4.638339544263750391e-14 1.987859780483523103e-14 1.987859780483523103e-14 4.704185175077868486e-14
1.160000000000000000e+03 7.828309631347656250e+01 -2.623120069503784180e+00 -2.365622075398837731e-13 -1.928857057799729380e-13 -1.288343753512097289e-13 -2.913006478828111812e-13
1.161000000000000000e+03 7.758569335937500000e+01 -1.889999270439147949e+00 -2.409670770212035684e-13 -3.320263443525039992e-13 -1.718980318331231327e-13 -3.228256420864661358e-13
1.162000000000000000e+03 7.757630920410156250e+01 -1.106846570968627930e+00 -1.344323280081868854e-13 1.253899328118590617e-13 -2.712718516546699758e-15 -5.103181400134722268e-14
1.163000000000000000e+03 7.822044372558593750e+01 1.165462970733642578e+01 2.177135560591306196e-13 -4.394703730700028066e-14 5.212995494801274388e-14 7.231292387804844068e-14
1.164000000000000000e+03 7.751806640625000000e+01 1.079396915435791016e+01 1.925604451282272866e-13 -3.749835728386607947e-13 -5.472694441176727265e-14 -1.366753119100977409e-13
1.165000000000000000e+03 7.749603271484375000e+01 1.317841625213623047e+01 -1.177950932054663141e-15 9.099706123165407501e-14 2.694573249695676048e-14 -5.884001612495564498e-15
1.166000000000000000e+03 7.680374145507812500e+01 1.154439353942871094e+01 2.480591957971373107e-13 6.056013844698768245e-14 9.258580366136928697e-14 -1.477426986090310534e-13
1.167000000000000000e+03 7.817227935791015625e+01 1.800734329223632812e+01 6.594391374105390558e-14 -1.547421180992172851e-13 -2.663946062982265606e-14 -4.665241310668546970e-14
1.168000000000000000e+03 7.745108032226562500e+01 1.714169311523437500e+01 3.107076770349215256e-14 5.906698876756780181e-14 2.704132694131798631e-14 -3.342012200291920310e-14
1.169000000000000000e+03 7.667627716064453125e+01 1.869412612915039062e+01 -2.151993589837725152e-14 -2.837285257000637939e-13 -9.157454119003774484e-14 2.574304439119400913e-15
1.170000000000000000e+03 7.732455444335937500e+01 2.351707077026367188e+01 2.217182261897952811e-14 -1.277506339646475308e-13 -3.167364509776629533e-14 -4.760503718114449112e-14
1.171000000000000000e+03 7.808799743652343750e+01 2.436928367614746094e+01 7.774750251422508224e-15 4.908298431322705158e-14 1.705732079291134157e-14 1.075134176565378796e-13
1.172000000000000000e+03 7.754833221435546875e+01 -6.444459915161132812e+00 -1.397829741496200984e-13 2.374741841972699552e-13 2.930736369192131485e-14 -2.994179475754657482e-14
1.173000000000000000e+03 7.742396545410156250e+01 1.873921012878417969e+01 4.751911077084322588e-14 -1.168875109550104874e-13 -2.081052039406335735e-14 -1.737180007049116126e-13
1.174000000000000000e+03 7.737084197998046875e+01 2.113953208923339844e+01 3.628646455576881036e-14 1.555134195247234730e-14 1.555134195247234730e-14 2.203492896569255073e-15
1.175000000000000000e+03 7.738874053955078125e+01 2.034102249145507812e+01 1.010104238479466593e-14 -2.244257297362439729e-13 -6.429740366433595034e-14 -1.201875648700403976e-13
1.176000000000000000e+03 7.649597930908203125e+01 2.584165000915527344e+01 -6.565876856969021791e-14 1.761147515799352248e-14 -1.441418836232218753e-14 -6.697232693550145277e-14
1.177000000000000000e+03 7.806739807128906250e+01 2.595634460449218750e+01 5.133701691290189217e-14 -1.610022201279856513e-13 -3.289955927045923323e-14 -4.952746993449642920e-14
1.178000000000000000e+03 7.729761505126953125e+01 2.510171508789062500e+01 -3.989647493125338118e-14 -1.543513309786720411e-13 -5.827434211179080559e-14 -5.754178143219318767e-15
1.179000000000000000e+03 7.725670623779296875e+01 2.744694709777832031e+01 -2.664102594670918200e-14 -1.029194768688637684e-13 -3.886814982823234843e-14 -7.009547971356319684e-14
1.180000000000000000e+03 7.816339111328125000e+01 -7.235745906829833984e+00 -1.249164075130260176e-13 1.294681863887175988e-13 1.365533895641534833e-15 -5.991731921408576314e-15
1.181000000000000000e+03 7.717607879638671875e+01 3.050524330139160156e+01 1.298531577810469947e-14 -4.018581460977187214e-14 -8.160149395390267624e-15 -6.421315437927024861e-14
1.182000000000000000e+03 7.710278320312500000e+01 3.128456497192382812e+01 6.171637907757127062e-14 1.179517773600494146e-13 5.390044693128620557e-14 -1.578625874769021276e-13
1.183000000000000000e+03 7.721545410156250000e+01 2.973862648010253906e+01 -5.397577272425258324e-15 4.343770284328911380e-14 1.141203762890750928e-14 -6.785564423311728557e-15
1.184000000000000000e+03 7.689244842529296875e+01 3.289852142333984375e+01 8.954166211662742403e-14 3.837499708194552772e-14 3.837499708194552772e-14 -5.459505121748441103e-14
1.185000000000000000e+03 7.797147369384765625e+01 3.065081214904785156e+01 1.109830340150809447e-13 2.305679518838088526e-13 1.024652978025460126e-13 -1.700807429735797655e-14
1.186000000000000000e+03 7.772383880615234375e+01 3.870506668090820312e+01 1.274029438804585856e-13 8.850314381911913303e-15 4.087597705519467606e-14 -8.114808060536923828e-14
1.187000000000000000e+03 1.491296672821044922e+01 5.428499221801757812e+00 1.041634633365193241e-13 -2.970380560442242857e-14 2.233789698081588976e-14 -1.475129968262628433e-13
1.188000000000000000e+03 5.651596832275390625e+01 -1.014036846160888672e+01 -1.353666121252719567e-13 2.164914298177778029e-13 2.433744530775175385e-14 5.400158605332015804e-14
1.189000000000000000e+03 5.539305496215820312e+01 -1.001231098175048828e+01 -1.249627029457911487e-13 3.582031047645595212e-13 6.997211783512508054e-14 -2.858380104332237936e-14
1.190000000000000000e+03 1.425101661682128906e+01 1.349223995208740234e+01 8.486201514721833372e-14 1.393090693800266844e-13 6.725132603579986323e-14 6.358897241230676567e-14
1.191000000000000000e+03 1.311612224578857422e+01 1.082485485076904297e+01 -3.999193215627715181e-14 -6.289034641367499678e-14 -3.086468458742518128e-14 5.561583095101130247e-14
1.192000000000000000e+03 2.431372451782226562e+01 -5.037130832672119141e+00 -5.575469692051596149e-14 -2.389487059281138193e-14 -2.389487059281138193e-14 -5.976383938514212568e-14
1.193000000000000000e+03 4.898686599731445312e+01 -1.367699909210205078e+01 -4.931795464092718351e-14 7.036562901362869438e-14 6.314303667063168868e-15 3.453612179224463397e-14
1.194000000000000000e+03 5.834140014648437500e+01 -7.382796764373779297e+00 -3.012139149216608303e-13 3.284178213668748070e-13 8.161171764157603564e-15 9.618155339015388439e-14
1.195000000000000000e+03 5.810770797729492188e+01 -8.323466300964355469e+00 -3.180903619930813830e-13 9.284049672772976165e-16 -9.514858654658189807e-14 8.900955940729406157e-15
1.196000000000000000e+03 1.105997681617736816e+00 4.238161563873291016e+00 6.669272474774459725e-14 3.030882836374537703e-13 1.109343059036912993e-13 -1.094946412726928442e-13
1.197000000000000000e+03 2.523076295852661133e+00 2.150204467773437500e+01 1.349244744793323680e-13 2.408285701936685452e-13 1.127259161124057052e-13 -3.212357205868883459e-14
1.198000000000000000e+03 2.128829002380371094e+00 3.473332214355468750e+01 -8.402212438177528164e-14 -5.888495799907106365e-14 -4.287212539188026139e-14 8.232946795009091212e-15
1.199000000000000000e+03 3.963176965713500977e+00 3.760292053222656250e+01 1.200254580105289751e-14 5.143948502963008665e-15 5.143948502963008665e-15 2.321474379374764696e-14
1.200000000000000000e+03 1.938584327697753906e+00 2.810358238220214844e+01 -1.306941479952555829e-13 -5.601177480813943066e-14 -5.601177480813943066e-14 -8.320401930373561017e-14
1.201000000000000000e+03 2.885337591171264648e+00 3.130275344848632812e+01 7.776234083739508307e-14 1.477040874591634134e-13 6.763993119947298016e-14 -2.218840413595497829e-14
1.202000000000000000e+03 2.659542322158813477e+00 2.634350395202636719e+01 -1.853243036462060012e-14 2.208122736307299716e-13 6.068395433508552705e-14 2.965805227274354028e-14
1.203000000000000000e+03 1.832876920700073242e+00 2.325833129882812500e+01 -2.841963081155144538e-14 1.708239533984232117e-13 4.272129592902858264e-14 -6.661167385908772776e-14
1.204000000000000000e+03 1.770339369773864746e+00 7.307544231414794922e+00 -1.912444032618147022e-14 1.748076103357323885e-13 4.670494947820597043e-14 -1.191070625374684999e-13
1.205000000000000000e+03 2.416412830352783203e+00 8.046436309814453125e+00 -5.709955484779413726e-14 1.814080298739167985e-13 3.729254318546315616e-14 -3.082898045463251802e-14
1.206000000000000000e+03 1.732101082801818848e+00 9.656749725341796875e+00 -9.104676512499895735e-14 3.727384882950407485e-13 8.450752169439704198e-14 3.369393048531683921e-14
1.207000000000000000e+03 1.770537495613098145e+00 1.281741142272949219e+01 -2.310954907796224089e-14 -5.565504180020559855e-14 -2.362937658582399403e-14 1.016762290139382185e-13
1.208000000000000000e+03 2.478498220443725586e+00 1.427990055084228516e+01 -9.712911220758832509e-14 5.531355538532234384e-13 1.368019331713168918e-13 4.358430052953631006e-14
1.209000000000000000e+03 3.107577085494995117e+00 1.021041011810302734e+01 -2.212462662078487630e-13 8.818396994613245110e-14 -3.991868752326217795e-14 9.049081674413449183e-15
1.210000000000000000e+03 2.461605310440063477e+00 1.268091773986816406e+01 -7.300099923428921000e-14 2.432195612446508282e-13 5.106556318209762302e-14 -4.752363731491335286e-14
1.211000000000000000e+03 2.452920198440551758e+00 1.188851451873779297e+01 -3.184462378036725938e-14 2.151070527213125305e-13 5.497872664940450793e-14 8.438351607091901241e-14
1.212000000000000000e+03 2.394126415252685547e+00 9.566924095153808594e+00 -1.034514203360030471e-13 1.844184256260400501e-13 2.429009955413202748e-14 -2.104272092402596772e-14
1.213000000000000000e+03 1.797950387001037598e+00 1.923968505859375000e+01 -1.487661647075501619e-15 3.196190599512316322e-13 9.543942377935113464e-14 -4.573041435546737477e-14
1.214000000000000000e+03 2.537488937377929688e+00 2.230202674865722656e+01 -4.926574691819021745e-14 1.618899106567081581e-13 3.378724641104995097e-14 -2.544018733738676041e-14
1.215000000000000000e+03 3.198619604110717773e+00 1.736680793762207031e+01 1.528136714119398415e-14 3.725567489058778659e-13 1.163514407433521858e-13 -1.915143187807867575e-14
1.216000000000000000e+03 2.500020980834960938e+00 1.829718399047851562e+01 6.501062573471480532e-14 2.108654911922233643e-13 8.276283711096052431e-14 8.193707485507767396e-14
1.217000000000000000e+03 2.501883268356323242e+00 1.909897994995117188e+01 6.899785376292960626e-14 6.695033541909188937e-15 2.270786572558351757e-14 3.997621122477611200e-14
1.218000000000000000e+03 2.505421161651611328e+00 1.990126609802246094e+01 1.288024049396485626e-13 4.212086137777432127e-13 1.650033056152175326e-13 -4.775539230554570747e-14
1.219000000000000000e+03 1.830565690994262695e+00 5.755781650543212891e+00 -1.959370335522393064e-14 1.288555443986275084e-13 3.277855214361448388e-14 -6.618711384086956029e-14
1.220000000000000000e+03 2.491159439086914062e+00 1.588786983489990234e+01 7.044053044308849765e-15 1.860226789230853828e-13 5.792001806555896470e-14 1.755682594748939063e-13
1.221000000000000000e+03 3.444419384002685547e+00 5.739641666412353516e+00 1.682399201506298847e-14 1.444631225625339632e-13 4.838613708378451672e-14 -4.974006503986189154e-14
1.222000000000000000e+03 2.476522684097290039e+00 7.283031940460205078e+00 -1.787821938561105772e-14 3.808885579983586900e-14 6.063190161937790854e-15 -1.124261613167677754e-13
1.223000000000000000e+03 2.711704015731811523e+00 2.797279739379882812e+01 -4.998318043638282082e-14 1.158314844864824500e-13 1.975449053740353095e-14 -5.604460834627384910e-15
1.224000000000000000e+03 2.607235431671142578e+00 2.472363281250000000e+01 4.057060134891876668e-14 2.918930830549115729e-13 9.973910532114910188e-14 -1.031913473398780867e-13
1.225000000000000000e+03 1.846850991249084473e+00 2.406554794311523438e+01 7.834818948129762539e-14 1.708306483468383097e-13 7.475365270369349613e-14 -9.566030286694074403e-14
1.226000000000000000e+03 2.683995246887207031e+00 2.715648460388183594e+01 -1.010651184594167640e-13 9.393922678581009822e-14 -2.137768010301768079e-15 -1.108088027259625241e-13
1.227000000000000000e+03 3.461767673492431641e+00 2.702150917053222656e+01 -4.577254238613201465e-15 1.810421116407029407e-13 5.293945755944010068e-14 5.122417518366867428e-14
1.228000000000000000e+03 2.555307149887084961e+00 2.310543632507324219e+01 6.034619825330198029e-14 7.161360670053171229e-14 3.958794148615010777e-14 -2.252038345303825073e-14
1.229000000000000000e+03 2.106299161911010742e+00 3.302650070190429688e+01 -8.925548695319987513e-14 7.612501937408894248e-14 -3.939140697249753423e-15 4.476737516388891447e-14
1.230000000000000000e+03 2.950220346450805664e+00 3.466062545776367188e+01 9.013457840344185623e-14 1.301309998343394558e-13 6.607967618183982483e-14 -1.139863621242923064e-13
1.231000000000000000e+03 2.922584772109985352e+00 3.297019195556640625e+01 1.351732311152820110e-13 1.494332815040605444e-13 8.538195107529733541e-14 -2.153326650290113969e-14
1.232000000000000000e+03 2.926710128784179688e+00 3.379928970336914062e+01 -6.284470150221335705e-14 -7.268439187113270861e-14 -4.065873004488289311e-14 4.888034353905772178e-14
1.233000000000000000e+03 2.042292356491088867e+00 3.054962348937988281e+01 2.045161389958687070e-14 5.451592817581549233e-14 2.249026296143388781e-14 -6.007810893736420521e-14
1.234000000000000000e+03 2.804602146148681641e+00 2.961160850524902344e+01 2.464958372507854156e-14 -8.093779281775209666e-14 -1.688646238898888763e-14 -9.679977902143227508e-14
1.235000000000000000e+03 5.606526184082031250e+01 -9.590347290039062500e+00 5.531350117521371956e-14 2.524605416213965281e-13 9.233220877322492748e-14 9.096828921650174093e-14
1.236000000000000000e+03 5.473153686523437500e+01 -1.042759513854980469e+01 7.934366325849234736e-14 1.712572683491841996e-13 7.518027948230296409e-14 2.037771874526840554e-14
1.237000000000000000e+03 2.757186317443847656e+01 1.027043533325195312e+01 -2.461099290400163564e-14 8.095432690088250061e-14 1.690300155431697510e-14 8.479043747504355633e-14
1.238000000000000000e+03 2.754344177246093750e+01 1.097080039978027344e+01 1.356414573759970321e-13 2.411358601944052493e-13 1.130331925606152532e-13 -2.070668431912534718e-14
1.239000000000000000e+03 5.742526626586914062e+01 -8.741676330566406250e+00 9.689205817883794758e-14 3.160308657563365431e-13 1.238768744700469160e-13 1.742682875175566304e-14
1.240000000000000000e+03 4.292758941650390625e+01 8.756460189819335938e+00 -6.355313275424254171e-14 -2.302568942805227614e-13 -8.814300743280323314e-14 1.044325284344123361e-13
1.241000000000000000e+03 4.272797393798828125e+01 7.901316642761230469e+00 8.105315023483865983e-15 -3.282206592018083180e-13 -9.603461011446420836e-14 2.032242274040575031e-14
1.242000000000000000e+03 3.596236038208007812e+01 -1.671395301818847656e+01 7.025121180311358349e-14 3.010766413740970093e-14 3.010766413740970093e-14 6.735588378280893407e-14
1.243000000000000000e+03 2.179074668884277344e+01 -2.807277917861938477e+00 4.558384462130743789e-15 -2.664074981396837710e-14 -6.624709478496347906e-15 -8.502402883310555826e-14
1.244000000000000000e+03 2.220906257629394531e+01 -2.258950471878051758e-01 -1.269646483759677424e-14 2.175945377656460233e-13 6.146941815146980681e-14 -8.486704991105681328e-14
1.245000000000000000e+03 2.654094505310058594e+01 1.443012619018554688e+01 9.787224301133472942e-15 1.414473735621840644e-13 4.537037791903925088e-14 -1.570093813535282379e-14
1.246000000000000000e+03 4.559569549560546875e+01 5.508893489837646484e+00 -5.501785279530407857e-14 2.051756659536552174e-13 4.504734326987898385e-14 8.737790628847094676e-14
1.247000000000000000e+03 4.459576034545898438e+01 6.024700164794921875e+00 -4.249211930668767012e-14 7.329098943411119227e-14 9.239660699413877742e-15 -2.347295501145454238e-14
1.248000000000000000e+03 6.014465332031250000e+01 -7.121443748474121094e+00 -1.971574758920929815e-13 2.243228389500750986e-13 8.149611458493476873e-15 1.085707993777815239e-13
1.249000000000000000e+03 5.946675109863281250e+01 -7.516858100891113281e+00 -2.995818924964727126e-13 -1.741431976919061153e-13 -1.421175324775245108e-13 3.289923062167569856e-14
1.250000000000000000e+03 2.229646873474121094e+01 -2.377917289733886719e+00 2.116268111814791075e-14 -2.196850286319967926e-13 -5.955670256008877006e-14 -4.091476777604713400e-14
1.251000000000000000e+03 2.945105552673339844e+01 -1.243804359436035156e+01 -2.038342435920111051e-14 -4.304896554247622520e-14 -1.902971663169002181e-14 -1.240165197098630490e-13
1.252000000000000000e+03 2.519579315185546875e+01 -6.392337799072265625e+00 -6.870343188672758949e-14 6.205757072498888083e-14 -1.993757586191960071e-15 -9.016064668942655458e-14
1.253000000000000000e+03 2.555974960327148438e+01 1.607934188842773438e+01 -1.232782678158928294e-14 1.319694950107502818e-13 3.589249936760546822e-14 -4.673017750750699251e-14
1.254000000000000000e+03 3.372461318969726562e+01 -1.606627845764160156e+01 4.020929775120155036e-14 2.688627857676262334e-13 9.272162031226383050e-14 -5.943085379291751513e-14
1.255000000000000000e+03 3.229038619995117188e+01 -1.464506149291992188e+01 1.012240760504302950e-13 3.178874264514464087e-13 1.257334487176839377e-13 -2.995680756950371004e-14
1.256000000000000000e+03 1.937138366699218750e+01 -3.544978499412536621e-01 7.668299046963145127e-14 2.244462347098311050e-13 9.033876755383876689e-14 -1.525167389300821630e-13
1.257000000000000000e+03 7.726415252685546875e+01 -7.942978858947753906e+00 -1.042717073709148456e-13 -1.361897790722044199e-13 -7.213844186717763285e-14 3.628512963184393758e-14
1.258000000000000000e+03 7.637209320068359375e+01 -7.824727058410644531e+00 3.055979677212689039e-15 -1.359431366304911237e-13 -3.986614776360988821e-14 6.442498715498318207e-16
1.259000000000000000e+03 4.655114364624023438e+01 4.865386486053466797e+00 4.375838274085601387e-14 -7.274830558920072909e-14 -8.696976854503414567e-15 8.888971102152115611e-14
1.260000000000000000e+03 4.727262496948242188e+01 5.772249221801757812e+00 -3.998023632534146443e-14 5.741086825503029928e-15 -1.027174493465482508e-14 1.317247770278931474e-13
1.261000000000000000e+03 1.748813247680664062e+01 2.877534151077270508e+00 8.352044370777550464e-14 -5.570742231766380448e-14 8.343905570000562794e-15 -1.220527178673672108e-13
1.262000000000000000e+03 1.398893642425537109e+01 1.446512317657470703e+01 1.424746551206140799e-13 1.068115187225979201e-13 7.478585350821631561e-14 1.069031338061729453e-13
1.263000000000000000e+03 1.331460666656494141e+01 2.578379392623901367e+00 4.886145131620216187e-14 1.581934724274175474e-13 6.211647678427273389e-14 -6.617889423314940456e-14
1.264000000000000000e+03 1.414879703521728516e+01 2.397747993469238281e+00 1.265892908075896828e-13 2.372563408757633052e-13 1.091536935707640432e-13 -1.048227802301349154e-13
1.265000000000000000e+03 1.382765769958496094e+01 6.623906612396240234e+00 1.152495389704008555e-13 6.501145582700311454e-15 3.652520587415011843e-14 -7.955126764573258735e-14
1.266000000000000000e+03 3.437518692016601562e+01 -1.683765602111816406e+01 6.125326211959408740e-14 -1.949955056093893163e-14 1.252611465344267289e-14 6.440021313534188829e-14
1.267000000000000000e+03 3.523262023925781250e+01 -1.748846054077148438e+01 6.989335732355758668e-14 -1.579665285839255973e-14 1.622901066192315028e-14 1.207727104765967188e-14
1.268000000000000000e+03 1.193617630004882812e+01 1.167921924591064453e+01 -1.172696515632301595e-13 4.124347415782221582e-14 -2.280785288280920420e-14 -1.784017676425761478e-13
1.269000000000000000e+03 4.496170806884765625e+01 -1.526024913787841797e+01 5.869458565010976514e-14 1.166567249700697917e-13 5.260539115317479364e-14 -1.760002462779935994e-13
1.270000000000000000e+03 2.387508392333984375e+01 -1.084367632865905762e+00 1.468322940447949754e-13 2.942965695359317513e-13 1.323386658504815960e-13 -5.969802153700867753e-14
1.271000000000000000e+03 2.303068923950195312e+01 3.317806959152221680e+00 9.062870354355212488e-14 -1.784761303590814974e-13 -2.635422906109834845e-14 2.601501608264552429e-14
1.272000000000000000e+03 2.384581375122070312e+01 -4.361638545989990234e+00 9.165948165398840608e-14 8.503358336475058676e-14 5.300791815036898225e-14 -9.723919260941349396e-14
1.273000000000000000e+03 2.335068511962890625e+01 -3.692023038864135742e+00 -1.392195413856336939e-13 3.183637706759279151e-14 -3.221494997303862851e-14 -1.570986857312231533e-13
1.274000000000000000e+03 4.911273193359375000e+01 4.481881618499755859e+00 -6.087641377322886016e-14 2.712912631087222026e-13 6.312445954403250736e-14 1.014027796735102183e-13
1.275000000000000000e+03 5.052228546142578125e+01 2.083388900756835938e+01 1.007986147891562489e-14 3.863315239547790436e-14 1.461390348469170097e-14 -2.855248792932828239e-14
1.276000000000000000e+03 2.164183807373046875e+01 1.797935867309570312e+01 1.009778672895859930e-13 -2.474719834301896890e-15 2.955094326249733949e-14 -1.302693304790214501e-13
1.277000000000000000e+03 2.078480720520019531e+01 1.821857452392578125e+01 8.674792383988466637e-14 6.005315873486988254e-14 4.404032612767908028e-14 2.952812419489830864e-14
1.278000000000000000e+03 4.403009414672851562e+01 1.966397285461425781e+01 2.493849311085982734e-14 1.708162420104714085e-13 5.872642053639937076e-14 1.085458085177057330e-13
1.279000000000000000e+03 4.399391937255859375e+01 1.898997879028320312e+01 1.780999765797330187e-14 1.906366503458961636e-13 6.253399626463332361e-14 1.247462013244729495e-13
1.280000000000000000e+03 1.700715827941894531e+01 1.284758210182189941e+00 6.111737092980018549e-14 3.763089557844156996e-14 2.962447927484616883e-14 -1.170843614119523868e-13
1.281000000000000000e+03 1.667908096313476562e+01 2.758893728256225586e+00 6.495842140010962829e-14 7.359027666756223773e-14 4.156460806504884420e-14 -2.463170184312246658e-13
1.282000000000000000e+03 3.998296356201171875e+01 1.294889163970947266e+01 -8.313488616864660868e-15 -5.789217439851682134e-14 -1.986169949753750774e-14 1.772974467435274593e-14
1.283000000000000000e+03 4.051877975463867188e+01 1.369803524017333984e+01 -2.919412893940057097e-14 2.619939313240615686e-13 6.983994003777194148e-14 -1.786086876271950064e-14
1.284000000000000000e+03 2.586925697326660156e+01 1.479238319396972656e+01 6.866658256539023841e-14 2.124323259617907911e-13 8.432967188052795104e-14 -1.421186099034334183e-14
1.285000000000000000e+03 2.627586364746093750e+01 1.567896747589111328e+01 9.842880633811890156e-14 -3.567173801759552718e-15 2.845849098910557817e-14 4.561051514771763404e-14
1.286000000000000000e+03 5.158107376098632812e+01 5.347245216369628906e+00 -8.990378056003989898e-15 2.249017215950194215e-13 6.477340229937497695e-14 -6.679807531759229811e-14
1.287000000000000000e+03 5.404030990600585938e+01 5.817636489868164062e+00 1.564508478281087522e-13 -7.020248369172393810e-14 2.587451195142087546e-14 -1.025073445180477161e-13
1.288000000000000000e+03 4.818119812011718750e+01 2.036504364013671875e+01 7.203984045585365426e-14 5.374969200733388519e-14 3.773685940014308293e-14 1.860823388416922922e-15
1.289000000000000000e+03 4.570633316040039062e+01 2.055888366699218750e+01 -7.078432417572007307e-15 2.556072859611051989e-14 5.544689107671437953e-15 -4.672317423909909395e-14
1.290000000000000000e+03 5.503777694702148438e+01 1.962189102172851562e+01 2.363305270881507769e-14 7.875487371619693810e-14 3.071637928275632035e-14 1.252612109089307202e-13
1.291000000000000000e+03 5.461327362060546875e+01 1.880194473266601562e+01 1.797318363745952635e-14 -3.583048029283386615e-13 -1.020994812132858254e-13 5.533373171012594127e-14
1.292000000000000000e+03 1.329511070251464844e+01 7.215210914611816406e+00 1.248859549845063310e-13 1.335867180762839723e-13 7.754180056298437540e-14 -1.396757075912457083e-14
1.293000000000000000e+03 2.369357681274414062e+01 3.720528841018676758e+00 -7.602159326309740339e-14 -7.833163506937648735e-14 -4.630596985499488283e-14 1.525667884128695251e-13
1.294000000000000000e+03 2.332063674926757812e+01 4.287497997283935547e+00 -1.163670532546359770e-13 -1.871244451707651524e-13 -9.104744952762033883e-14 1.572912535895837349e-13
1.295000000000000000e+03 5.229933929443359375e+01 2.014529228210449219e+01 -1.027491368491050341e-14 8.709836508708629355e-14 2.304703465832308451e-14 1.390066311840118529e-13
1.296000000000000000e+03 5.619437408447265625e+01 6.614181518554687500e+00 6.523484552024838568e-14 -1.550460064156378159e-13 -2.694334894624318688e-14 -3.632068468683788409e-14
1.297000000000000000e+03 5.577218627929687500e+01 7.234887123107910156e+00 7.441757713527730189e-14 -1.911426339472679925e-13 -3.501751433309177597e-14 -1.392922896573415767e-14
1.298000000000000000e+03 5.073633956909179688e+01 4.577668190002441406e+00 5.760543680521229559e-14 6.194504002625389472e-13 2.031167389230509324e-13 4.355189304897436053e-14
1.299000000000000000e+03 4.320563125610351562e+01 1.887232780456542969e+01 -4.855446285919468030e-14 2.536966405182472517e-13 6.154264923195762460e-14 3.353628748943744686e-14
1.300000000000000000e+03 1.367730998992919922e+01 1.593591117858886719e+01 -8.773071245166130794e-14 1.911558612137723157e-13 3.102754530625966012e-14 8.716507062574846421e-14
1.301000000000000000e+03 1.426015853881835938e+01 3.200315475463867188e+00 -2.709927754743733652e-15 -1.161397578924709163e-15 -1.161397578924709163e-15 -8.934441186013442060e-14
1.302000000000000000e+03 5.549118423461914062e+01 1.708412170410156250e+01 7.908777121699503421e-15 -1.681765756387024191e-13 -4.808034124916676921e-14 9.792949058010785857e-14
1.303000000000000000e+03 5.528840637207031250e+01 1.828479576110839844e+01 2.062216567758241859e-14 8.838071367692299646e-15 8.838071367692299646e-15 3.258512031164770284e-14
1.304000000000000000e+03 5.346497726440429688e+01 -1.122881412506103516e+01 5.887614208015604089e-14 1.379489546953025642e-14 2.180131177312565754e-14 -2.926115973871448728e-14
1.305000000000000000e+03 4.898577499389648438e+01 -1.209087944030761719e+01 1.771313774638887811e-14 4.079121480697611712e-13 1.276875876083174988e-13 1.109261388120138733e-14
1.306000000000000000e+03 6.163602828979492188e+01 -5.401032924652099609e+00 -1.005185314866853530e-13 -2.592276403029416393e-14 -3.793238848568726562e-14 -1.652832601686804459e-13
1.307000000000000000e+03 1.992658042907714844e+01 1.839346122741699219e+01 4.403180603502088609e-16 -2.743169732165318120e-13 -8.216300225903291898e-14 -1.888624788514998293e-14
1.308000000000000000e+03 2.057011795043945312e+01 1.748014450073242188e+01 1.240699437719122722e-13 -3.585857197112296557e-13 -7.035473278179521506e-14 6.368815319416666620e-15
1.309000000000000000e+03 4.439235305786132812e+01 2.034047508239746094e+01 -5.390593909291620245e-14 2.056521999135169088e-13 4.552387722974067519e-14 -4.757904004592736213e-14
1.310000000000000000e+03 4.512260818481445312e+01 1.986977767944335938e+01 3.890334658828960637e-15 -8.983461354363300733e-14 -2.578328311486979829e-14 1.234689027450677767e-13
1.311000000000000000e+03 2.049415397644042969e+01 2.787087202072143555e+00 -6.779886846169577708e-14 1.310716671917150355e-13 1.898183724731352523e-14 -1.224989212714536202e-13
1.312000000000000000e+03 2.169000053405761719e+01 2.529537200927734375e+00 1.887022371585382607e-14 4.240045001300402072e-14 1.838120279628371184e-14 -3.995728512060266191e-14
1.313000000000000000e+03 2.190513420104980469e+01 1.877931594848632812e+01 1.374913197345600108e-14 -2.228622559934112513e-13 -6.273393669776680670e-14 -7.158894618330535059e-15
1.314000000000000000e+03 1.317016887664794922e+01 8.793879508972167969e+00 1.187786576994226406e-13 1.424070415626324526e-13 7.835570435760566554e-14 -4.047684835418487170e-14
1.315000000000000000e+03 1.388200759887695312e+01 9.080247879028320312e+00 -1.508911946128746462e-14 -1.894705638043336915e-13 -6.136790294680727342e-14 -4.125791776363879615e-14
1.316000000000000000e+03 5.387621307373046875e+01 1.926141166687011719e+01 7.044074643649004749e-15 9.452078605486774476e-14 3.046945901423632475e-14 1.797899665516994316e-13
1.317000000000000000e+03 2.433748626708984375e+01 4.127293109893798828e+00 -3.105744895742952594e-14 -1.331033502546038333e-14 -1.331033502546038333e-14 -1.652843342064575644e-14
1.318000000000000000e+03 7.073497772216796875e+01 -7.345971584320068359e+00 1.053376339605303913e-13 9.089564767094521214e-14 5.886998245656360762e-14 1.131041654512656910e-14
1.319000000000000000e+03 4.074979400634765625e+01 1.149748039245605469e+01 -9.719818266223922976e-14 -8.740731527239961607e-14 -5.538165005801801155e-14 -4.185954154915100256e-14
1.320000000000000000e+03 4.237789916992187500e+01 1.583191013336181641e+01 -1.504238018325797233e-14 1.765570654087278424e-13 4.845440455120142431e-14 -2.803398687506192949e-14
1.321000000000000000e+03 4.087781524658203125e+01 1.462902259826660156e+01 2.892196370092060820e-14 8.102154743557660188e-14 3.298305300213598412e-14 2.237130480728854662e-15
1.322000000000000000e+03 5.349330902099609375e+01 5.270667552947998047e+00 8.633424650097282216e-14 -1.460034079314026512e-13 -1.790074537981033859e-14 -1.006333010629065217e-13
1.323000000000000000e+03 5.511904907226562500e+01 5.737667083740234375e+00 9.419685355078338818e-14 -1.426337211318448595e-13 -1.453105858025254687e-14 -3.739430233561449879e-14
1.324000000000000000e+03 2.553521728515625000e+01 4.912173748016357422e+00 2.379800390496338014e-14 5.595009386892037251e-14 2.392442865453876799e-14 -1.539629087741155311e-14
1.325000000000000000e+03 2.520571136474609375e+01 5.526192665100097656e+00 -4.911362318899513413e-14 2.992079511671824621e-13 7.502829466651123047e-14 -3.362094335031783066e-14
1.326000000000000000e+03 1.172040557861328125e+01 3.652606725692749023e+00 7.076237246985903062e-14 -6.117516568185724091e-14 2.876162629323599992e-15 4.148920265098542462e-15
1.327000000000000000e+03 1.311207866668701172e+01 4.976167678833007812e+00 -7.185424537271487000e-15 -1.231757073725733842e-13 -3.910834126701935587e-14 1.257839437398015556e-14
1.328000000000000000e+03 1.082940006256103516e+01 3.737855434417724609e+00 1.142965117082589410e-13 2.319880127842760542e-13 1.038853587030132142e-13 -1.043944305865107322e-14
1.329000000000000000e+03 1.922067070007324219e+01 1.828925251960754395e+00 -1.894509634619342270e-14 4.493901724269416809e-13 1.291335202831256357e-13 -1.269030860213612999e-13
1.330000000000000000e+03 1.828298759460449219e+01 1.482317566871643066e+00 6.663093877644007956e-14 2.115599091311731739e-13 8.345725504991033383e-14 -2.291218159210933747e-13
1.331000000000000000e+03 2.114447021484375000e+01 -1.103678584098815918e+00 7.826317447844760578e-14 1.279026933193386228e-13 6.184976304984129980e-14 -6.423436408426949629e-14
1.332000000000000000e+03 2.609376335144042969e+01 5.270614147186279297e+00 -1.077577697211618002e-13 3.198256817802530572e-13 6.362037361772737709e-14 1.371588423621037528e-14
1.333000000000000000e+03 2.694846725463867188e+01 6.518621444702148438e+00 -4.100669456774674870e-15 8.974446890925441567e-14 2.569314017455710114e-14 -1.151428534766282819e-13
1.334000000000000000e+03 5.461087799072265625e+01 6.334394454956054688e+00 1.215780134986715888e-13 5.210486244398328248e-14 5.210486244398328248e-14 -1.010158143656229857e-13
1.335000000000000000e+03 5.518857955932617188e+01 6.809962749481201172e+00 2.101155858189648201e-14 -2.197497961592756455e-13 -5.962147008736762288e-14 2.178992426218277073e-14
1.336000000000000000e+03 4.307852172851562500e+01 7.373551845550537109e+00 -1.337333428675854807e-13 -1.488161807325361075e-13 -8.476485708003647646e-14 4.401695818273022864e-14
1.337000000000000000e+03 5.069075775146484375e+01 5.294835567474365234e+00 3.830099011927802499e-14 1.641470908308149956e-14 1.641470908308149956e-14 2.093528394262259007e-13
1.338000000000000000e+03 5.298517990112304688e+01 4.712034225463867188e+00 -1.011256914795408135e-13 4.816231709780204040e-14 -1.588901163689527413e-14 -1.021541250027790948e-13
1.339000000000000000e+03 5.689579391479492188e+01 9.639086723327636719e+00 -7.278889540803315517e-14 -2.599499933884918956e-13 -9.982166054032029501e-14 -6.475537066199382741e-14
1.340000000000000000e+03 4.861288833618164062e+01 2.131260299682617188e+01 3.906537297967103972e-14 5.304566278553158112e-15 1.331098215863208561e-14 -2.323303123507886730e-14
1.341000000000000000e+03 1.993002510070800781e+01 1.293989270925521851e-01 1.545329348425633631e-13 3.407340869957670160e-13 1.485801092620045449e-13 -1.073126505192478763e-13
1.342000000000000000e+03 3.750448608398437500e+01 -1.662819862365722656e+01 1.306674901743395956e-13 1.024940528770394016e-14 4.227506880801965017e-14 2.436589714445002580e-14
1.343000000000000000e+03 2.482284164428710938e+01 1.651045417785644531e+01 1.209619291666838570e-13 1.433427215900145990e-13 7.929139793751496801e-14 6.431165414664055668e-15
1.344000000000000000e+03 2.406723785400390625e+01 1.694104385375976562e+01 7.697096134290717928e-14 2.617422879998276830e-13 1.016139754804468165e-13 -3.430576398245877533e-15
1.345000000000000000e+03 4.260852432250976562e+01 1.662151908874511719e+01 8.371280150196516723e-14 3.587691734950777811e-14 3.587691734950777811e-14 3.298283954983327604e-14
1.346000000000000000e+03 1.568899536132812500e+01 1.706283187866210938e+01 3.637370556120421428e-14 -2.131660191244388880e-13 -5.303769305253086541e-14 2.458699984873771033e-14
1.347000000000000000e+03 1.735474395751953125e+01 1.777522277832031250e+01 5.080801095602369144e-14 -6.972703393403473227e-14 -5.675707740436259502e-15 2.599123986781609608e-14
1.348000000000000000e+03 2.853243255615234375e+01 -1.251066398620605469e+01 4.298527882923806887e-14 1.327996415091681204e-13 5.273547508508232007e-14 -9.362962607919328439e-14
1.349000000000000000e+03 2.934683990478515625e+01 -1.342754173278808594e+01 3.009379312586546451e-14 -9.978133668983330679e-15 6.034698091174524326e-15 -5.535036743721001573e-14
1.350000000000000000e+03 5.608810043334960938e+01 1.660366630554199219e+01 -2.910748424516003408e-14 -2.297916360232549193e-13 -7.766973641933766492e-14 1.747790314440920284e-14
1.351000000000000000e+03 5.700842666625976562e+01 1.446234416961669922e+01 8.615914107385283516e-14 -2.375803546950105982e-13 -4.542636340872097112e-14 1.668949809081887725e-13
1.352000000000000000e+03 1.582180786132812500e+01 1.792633438110351562e+01 7.721593682378027901e-14 1.474699133424337005e-13 6.740575708274326727e-14 2.881430920145637564e-14
1.353000000000000000e+03 4.736875152587890625e+01 4.989348411560058594e+00 -1.505295589782421062e-13 -6.451267200568294724e-14 -6.451267200568294724e-14 1.217233643524204267e-13
1.354000000000000000e+03 6.556133270263671875e+01 -5.519392967224121094e+00 -3.664039557871312525e-13 -1.570302725741393179e-13 -1.570302725741393179e-13 -1.006645328617376822e-13
1.355000000000000000e+03 6.277296829223632812e+01 -5.510456562042236328e+00 -5.597483739537556513e-14 -5.258355803192636679e-14 -3.256751896700375848e-14 -1.052451582914809558e-13
1.356000000000000000e+03 1.908981132507324219e+01 1.850050544738769531e+01 2.761953026583861132e-14 -3.391400658567245152e-14 -1.888343277114978326e-15 8.044741495140048104e-14
1.357000000000000000e+03 4.956396484375000000e+01 2.106887435913085938e+01 6.326657812005462289e-14 1.186161493462942196e-13 5.456481891753101054e-14 2.035218747817226642e-14
1.358000000000000000e+03 4.772632217407226562e+01 2.172452926635742188e+01 2.616265731348373785e-14 8.555785610151953047e-14 3.351615521034710665e-14 1.650128601468625611e-14
1.359000000000000000e+03 1.674682235717773438e+01 1.868506813049316406e+01 -1.510025286234617514e-14 -9.797343464941141167e-14 -3.392210760877999165e-14 7.362507786323312792e-15
1.360000000000000000e+03 1.828031539916992188e+01 1.855569648742675781e+01 -4.620517716943635736e-15 -1.980221787936599538e-15 -1.980221787936599538e-15 1.151397906054910103e-13
1.361000000000000000e+03 6.951252746582031250e+01 -5.736392021179199219e+00 -1.290472448952501017e-13 5.907141366768425828e-14 -2.099274936826975302e-14 -8.534755645544112729e-15
1.362000000000000000e+03 6.711801910400390625e+01 -5.588664054870605469e+00 -1.436357272271288066e-13 1.671965788475199277e-13 7.068257010776641397e-15 -1.497911630886708534e-13
1.363000000000000000e+03 2.722186279296875000e+01 5.894003868103027344e+00 -2.613169148299801514e-14 2.633063851589095838e-13 7.115241420141069084e-14 -6.442863956105174261e-14
1.364000000000000000e+03 5.637053680419921875e+01 7.610572814941406250e+00 -7.768091047797784365e-14 -2.048578727443725600e-13 -8.476163835483691011e-14 -5.858865909785793136e-14
1.365000000000000000e+03 5.726942062377929688e+01 8.951883316040039062e+00 -1.294296158964314269e-13 -5.546983635222255127e-14 -5.546983635222255127e-14 1.707174576400308230e-13
1.366000000000000000e+03 4.121303176879882812e+01 1.008080577850341797e+01 4.903106796982394100e-14 -1.848659571777877542e-13 -4.075046710120232285e-14 7.666625648672549531e-15
1.367000000000000000e+03 5.563183593750000000e+01 1.593173885345458984e+01 -2.593552034647981369e-14 -2.398699728428654865e-13 -7.974164677095746390e-14 1.027831791032551845e-13
1.368000000000000000e+03 4.229385375976562500e+01 1.877680969238281250e+01 -9.495866820728032787e-14 2.338091200683456439e-13 4.165513555831959480e-14 -6.218226075108829187e-14
1.369000000000000000e+03 1.977614593505859375e+01 2.379601001739501953e+00 -9.075328514943428737e-14 4.259961117582602985e-14 -1.444610286970883506e-14 -1.563961633810340146e-13
1.370000000000000000e+03 1.350340270996093750e+01 8.155665397644042969e+00 6.517629182667059040e-14 -2.008220521300396744e-13 -4.069372605813165178e-14 1.798292621041884531e-14
1.371000000000000000e+03 4.041189575195312500e+01 1.608721733093261719e+01 1.040808462839429814e-15 2.406385366578861484e-13 7.250380444677809177e-14 -3.844799438133990332e-14
1.372000000000000000e+03 4.181570434570312500e+01 8.115816116333007812e+00 5.949095247459110225e-15 -1.804541894601455199e-13 -5.235152521448731278e-14 5.176634403254720684e-14
1.373000000000000000e+03 4.235802841186523438e+01 9.026802062988281250e+00 -1.349495009147919436e-14 -5.783549857698308885e-15 -5.783549857698308885e-15 1.236476842951788474e-14
1.374000000000000000e+03 6.685772705078125000e+01 -4.880219936370849609e+00 -2.543849191623953621e-13 -1.090221053083421932e-13 -1.090221053083421932e-13 -1.821896583251159107e-13
1.375000000000000000e+03 6.589209747314453125e+01 -4.522060871124267578e+00 -2.182556300403190597e-13 -1.392890794024714829e-13 -1.072634141880898784e-13 1.675326815209904341e-14
1.376000000000000000e+03 5.677876281738281250e+01 1.505386257171630859e+01 -1.617718003825430184e-13 -2.094430450469766947e-13 -1.113644563393613451e-13 6.479465943821927087e-14
1.377000000000000000e+03 5.670939254760742188e+01 1.615529251098632812e+01 -1.185765912135915492e-14 -2.795875510275269704e-13 -8.743355974123734331e-14 2.075844989066384649e-14
1.378000000000000000e+03 7.580916595458984375e+01 4.011451721191406250e+01 -1.682139501204670679e-14 -1.330242746467799608e-13 -4.495370208349412644e-14 1.976810913312948559e-14
1.379000000000000000e+03 7.742324829101562500e+01 3.690280914306640625e+01 3.636855560088490813e-14 -1.445417949826749426e-13 -3.245197350860290486e-14 -3.949303991473973596e-14
1.380000000000000000e+03 7.753793334960937500e+01 3.782062530517578125e+01 -1.046599669451454828e-13 -2.736090163029530897e-13 -1.134806970073086452e-13 -2.678331943503490555e-15
1.381000000000000000e+03 4.469796657562255859e+00 3.861105728149414062e+01 -3.543320422228629640e-14 3.056528893375688727e-14 -1.460373951284112300e-15 -3.424149662813527617e-14
1.382000000000000000e+03 1.843563079833984375e+00 3.655622482299804688e+01 2.322202150083045591e-14 5.570324475116794627e-14 2.367757953678634175e-14 -2.110117805584777601e-14
1.383000000000000000e+03 2.881642341613769531e+01 -1.105057525634765625e+01 -1.470651637307859166e-14 1.938576117124432563e-13 5.374532809358963104e-14 2.893130478026292862e-14
1.384000000000000000e+03 3.439796447753906250e+00 4.152435779571533203e+00 1.299154824653059662e-14 5.567806330867902317e-15 5.567806330867902317e-15 -1.001967809394731235e-13
1.385000000000000000e+03 1.755828475952148438e+01 2.147070646286010742e+00 4.624005375103955318e-14 -1.174356835734191584e-13 -2.135868793027434487e-14 -1.488315764033854016e-13
1.386000000000000000e+03 4.570488357543945312e+01 4.716835021972656250e+00 -1.775061488854673408e-13 -1.675759682927269179e-13 -1.035246378639637088e-13 6.564184146327228797e-14
1.387000000000000000e+03 7.050400543212890625e+01 -8.019900321960449219e+00 -1.775972489730104353e-13 -2.591168924391540340e-13 -1.310142451341547720e-13 6.767013300624027949e-14
1.388000000000000000e+03 7.001741790771484375e+01 -7.081563472747802734e+00 -9.608411071990174968e-14 2.447645222353883598e-13 4.460412480989869866e-14 1.086300696612326963e-14
1.389000000000000000e+03 4.679231262207031250e+01 -1.389607238769531250e+01 -4.319698963220659771e-14 2.102417496823924536e-13 5.011342699861622008e-14 -9.680954361724822266e-14
1.390000000000000000e+03 7.272750091552734375e+01 -8.404251098632812500e+00 -2.239989979255490454e-14 1.734038395729067816e-13 4.530118210351215258e-14 2.034763721717961632e-14
1.391000000000000000e+03 7.164144897460937500e+01 -6.900891780853271484e+00 2.589753049527898469e-15 -2.176558053527868214e-14 -5.752748351604353508e-15 4.218522571737028104e-14
1.392000000000000000e+03 4.279464340209960938e+01 -1.585146903991699219e+01 7.900778420171991612e-14 -1.033923651989204773e-13 -7.315374637973347249e-15 -2.194294584630194361e-14
1.393000000000000000e+03 4.128320693969726562e+01 -1.547480201721191406e+01 2.813303213165026934e-14 1.950608050733590448e-13 6.695815099209620480e-14 -4.747376740311080867e-14
1.394000000000000000e+03 2.877268218994140625e+01 -9.000519752502441406e+00 1.385840904923399397e-13 3.338988699246037140e-13 1.417448921908412429e-13 1.319408720733966645e-13
1.395000000000000000e+03 7.292447662353515625e+01 -7.774446964263916016e+00 -6.114379158149094162e-14 8.817289075518236485e-14 8.108728566261300813e-15 3.551378754875628152e-14
1.396000000000000000e+03 3.826354980468750000e+01 -1.585999584197998047e+01 7.961801384197622622e-14 -1.162894328494154875e-14 2.039672108240710852e-14 2.108752761168300460e-13
1.397000000000000000e+03 4.932221221923828125e+01 -1.271864891052246094e+01 3.049152591657819378e-14 1.960715932062401246e-13 6.796893234871370648e-14 5.896158398761147668e-14
1.398000000000000000e+03 5.094597625732421875e+01 -1.269025135040283203e+01 -3.548006886119198233e-14 1.334848437296518031e-13 2.940143178291158843e-14 -2.251445761053925965e-14
1.399000000000000000e+03 4.200852584838867188e+01 -1.531479072570800781e+01 1.131860989482535995e-13 4.850832666862363307e-14 4.850832666862363307e-14 2.481082830504965919e-14
1.400000000000000000e+03 4.351883697509765625e+01 -1.566450977325439453e+01 6.402631246363310602e-14 -6.406205047774365946e-14 -1.072193908815010876e-17 -3.018583172591411679e-14
1.401000000000000000e+03 7.357157897949218750e+01 -8.006073951721191406e+00 4.835533748351469267e-16 2.975883970669779277e-13 8.942158672602465441e-14 -1.175610173445584827e-13
1.402000000000000000e+03 4.832971954345703125e+01 -1.398813056945800781e+01 9.867241301374923834e-14 3.625448194693320358e-13 1.383651765211879603e-13 -6.775224776827890039e-14
1.403000000000000000e+03 4.616109085083007812e+01 -1.414453887939453125e+01 -2.886137035200582457e-14 1.706346381465800865e-13 4.253198067718545750e-14 -1.300612314245400136e-14
1.404000000000000000e+03 2.780798721313476562e+01 -9.058621406555175781e+00 -3.833068031814518273e-14 2.580782538629672329e-13 6.592427612920476188e-14 1.107147820688172968e-13
1.405000000000000000e+03 7.591014099121093750e+01 -6.438126087188720703e+00 -2.594973864153242438e-14 -5.687226541485970732e-14 -2.484660189454399731e-14 -1.814899820056295465e-13
1.406000000000000000e+03 4.195537567138671875e+01 -1.460700702667236328e+01 -5.399529090445616408e-14 -1.603936845536238498e-13 -6.431669568674261428e-14 -6.063910224646251734e-14
1.407000000000000000e+03 5.122960662841796875e+01 -1.174011898040771484e+01 -4.955432003189144327e-15 2.495064701721338984e-13 7.336531149303507360e-14 -9.535062084516099379e-14
1.408000000000000000e+03 3.669490814208984375e+01 -1.591796875000000000e+01 4.843286280928685295e-14 -7.074495747246348221e-14 -6.693628314249694053e-15 8.467644716913386160e-14
1.409000000000000000e+03 2.763742446899414062e+01 9.592478752136230469e+00 3.017118144405840641e-14 1.501833596720403285e-13 5.410636064076372598e-14 -4.173172088927853962e-14
1.410000000000000000e+03 2.903300857543945312e+01 9.820395469665527344e+00 1.850982474932427735e-13 2.165806732091005160e-13 1.205036775659557025e-13 6.134314247969313572e-14
1.411000000000000000e+03 5.285820388793945312e+01 -1.161528491973876953e+01 -7.446288323356003991e-14 1.383828557928630520e-14 -1.818737963509529931e-14 4.422553835192570559e-14
1.412000000000000000e+03 4.196419143676757812e+01 6.760232925415039062e+00 -4.065090007231847435e-14 -2.919275064738879877e-13 -9.977352196386193861e-14 -8.558843060278362169e-14
1.413000000000000000e+03 4.282526016235351562e+01 6.372338294982910156e+00 -1.215201306551880189e-13 -2.920458132596968903e-14 -4.521741393316049129e-14 1.730721414707619976e-14
1.414000000000000000e+03 5.803156280517578125e+01 1.273326683044433594e+01 4.312840029226973348e-14 -2.217088817223211716e-13 -5.357414273494953694e-14 7.614955622450500505e-14
1.415000000000000000e+03 5.730432891845703125e+01 1.230962371826171875e+01 6.740656345810905337e-14 1.203904190965124354e-13 5.633909883214459347e-14 -1.813635945255038379e-14
1.416000000000000000e+03 2.602338218688964844e+01 -7.718943595886230469e+00 -2.215277454206167340e-14 3.565135383090667354e-13 1.003082301465410553e-13 -7.676206268932353471e-14
1.417000000000000000e+03 4.375182342529296875e+01 5.844236373901367188e+00 -8.054818476706943065e-14 -3.090263505159396296e-13 -1.168723592296500025e-13 -5.339116667768366298e-14
1.418000000000000000e+03 2.653529930114746094e+01 -7.265130043029785156e+00 1.058933079027199464e-13 2.741375919670940853e-13 1.140092658951860627e-13 -1.457847717870573712e-14
1.419000000000000000e+03 6.035356903076171875e+01 -6.197643280029296875e+00 -1.192343207674639860e-13 1.319033722307558221e-13 3.800714337844719390e-15 -3.697084684835955093e-14
1.420000000000000000e+03 6.082043838500976562e+01 -6.731253147125244141e+00 -1.320095020709149969e-13 -6.801324233625047344e-14 -6.000682264452328329e-14 2.235155691174967041e-13
1.421000000000000000e+03 7.584942626953125000e+01 3.568700027465820312e+01 2.503205128801585383e-14 -8.077387500179944446e-14 -1.672254626710212994e-14 -7.765315998455989827e-15
1.422000000000000000e+03 7.696314239501953125e+01 3.551222229003906250e+01 6.867414487554332481e-14 -1.078210735755077976e-13 -1.174407877939593128e-14 -7.533929805968869742e-14
1.423000000000000000e+03 9.947805404663085938e+00 3.798866510391235352e+00 1.302879245462795765e-13 1.008673515128259354e-14 4.211239782456535630e-14 8.319394299979507301e-14
1.424000000000000000e+03 6.666693687438964844e+00 4.689291000366210938e+00 2.827740212124618679e-14 4.238774316354249061e-13 1.356464447059904654e-13 -7.616954620206020654e-14
1.425000000000000000e+03 3.050895881652832031e+01 -1.334307575225830078e+01 3.390505852961765709e-14 -8.840889446307814703e-14 -1.635115111885132588e-14 -8.732337091919492589e-14
1.426000000000000000e+03 5.872658252716064453e+00 4.749029159545898438e+00 4.319920885852840398e-14 2.015177440065421544e-13 7.341508314901573629e-14 -5.050860005576234685e-15
1.427000000000000000e+03 7.444414615631103516e+00 3.943216800689697266e+00 2.872131514824322052e-14 1.038110298678257548e-13 3.975970282719433480e-14 -3.575310484954172252e-14
1.428000000000000000e+03 4.239597320556640625e+00 4.119685649871826172e+00 6.998607016183225338e-14 7.574497940757846104e-14 4.371931419319685652e-14 -4.372398981506570026e-14
1.429000000000000000e+03 5.071062564849853516e+00 4.814312934875488281e+00 5.739532520044818287e-14 7.034894585269957368e-14 3.832328063831796916e-14 3.016061979023909254e-15
1.430000000000000000e+03 8.274250030517578125e+00 4.580498218536376953e+00 3.020082082094872888e-14 5.869415874550434897e-14 2.666849353112274446e-14 9.290659197915343559e-14
1.431000000000000000e+03 4.837640380859375000e+01 -1.242907047271728516e+01 -2.288998755012208557e-15 3.192756389130968486e-13 9.509599596495277307e-14 -8.758461282078709720e-15
1.432000000000000000e+03 3.907061386108398438e+01 -1.652159309387207031e+01 1.390365365292476132e-14 5.958708647893972907e-15 5.958708647893972907e-15 6.962311315580199667e-14
1.433000000000000000e+03 3.904154586791992188e+01 -1.580499839782714844e+01 9.523852111678957066e-16 -9.109373140785831380e-14 -2.704240436722689378e-14 9.830999810880522438e-14
1.434000000000000000e+03 1.483575534820556641e+01 4.321854591369628906e+00 8.673623478521255703e-14 -8.578277892439933189e-15 2.344738647490872407e-14 -1.315062831850830061e-13
1.435000000000000000e+03 7.641406250000000000e+01 2.963512229919433594e+01 1.612682968936407502e-14 -1.760922950424376188e-13 -4.798964096117477873e-14 -1.271067805045170140e-13
1.436000000000000000e+03 7.640000915527343750e+01 3.036785125732421875e+01 -2.714261514115065554e-14 3.411839902397670321e-14 2.092735291902756388e-15 -4.697963548673696199e-14
1.437000000000000000e+03 2.736848640441894531e+01 -8.493217468261718750e+00 6.886659753742307988e-14 4.412728049716513334e-13 1.530418180422168928e-13 -3.436703834586315141e-15
1.438000000000000000e+03 2.481932640075683594e+01 -4.616997241973876953e+00 1.398401793667458648e-13 1.514334041193346470e-13 8.738208046683501595e-14 -3.524213730630824937e-14
1.439000000000000000e+03 7.763066101074218750e+01 -4.997527599334716797e+00 -1.299165310920946670e-13 3.582338147910951731e-14 -2.822794556152190271e-14 -5.246949657524910271e-14
1.440000000000000000e+03 7.760631561279296875e+01 -3.463800907135009766e+00 -9.831709963303500444e-14 -1.336377975511351957e-13 -6.958646712237198662e-14 -1.326712313143643684e-13
1.441000000000000000e+03 7.375619506835937500e+01 -7.049671649932861328e+00 -3.132301072705269418e-14 7.807774880189827238e-14 1.402642091423390511e-14 -9.662271525413823614e-14
1.442000000000000000e+03 7.652688598632812500e+01 2.349882507324218750e+01 2.432354888521909980e-14 1.476772263503400850e-13 5.160023070719527150e-14 -8.551504366823350911e-14
1.443000000000000000e+03 7.651396179199218750e+01 2.429243087768554688e+01 5.221879515165256391e-14 -1.606243079082386727e-13 -3.252165382697583262e-14 -1.091096749625611317e-13
1.444000000000000000e+03 7.671980285644531250e+01 1.709110641479492188e+01 -7.867478505696814950e-14 -1.709706188473061883e-13 -7.489362320416137475e-14 -6.937094128300902440e-14
1.445000000000000000e+03 7.740753936767578125e+01 1.954022598266601562e+01 -1.410210415510402410e-14 -9.754565590599367786e-14 -3.349432886536225784e-14 -8.755397394501901465e-14
1.446000000000000000e+03 7.670011901855468750e+01 1.789088821411132812e+01 3.867115029349173227e-14 1.657334988377275747e-14 1.657334988377275747e-14 -6.728656938266922016e-14
1.447000000000000000e+03 7.682389068603515625e+01 9.948904991149902344e+00 2.061969437425550944e-13 -2.318865314609314110e-13 -7.706874960260179375e-15 -1.666108250713074779e-13
1.448000000000000000e+03 7.750399017333984375e+01 1.238409233093261719e+01 1.558028201896141662e-13 6.677263722412035696e-14 6.677263722412035696e-14 -1.836554454522076885e-13
1.449000000000000000e+03 7.681414794921875000e+01 1.074765491485595703e+01 -7.315701592690987409e-14 -2.143567983704797175e-13 -8.625414428921687748e-14 1.504912188789175875e-13
1.450000000000000000e+03 7.539301300048828125e+01 -5.852064132690429688e+00 -9.546744362924630689e-14 -4.091461869824841724e-14 -4.091461869824841724e-14 -1.032401567664306685e-13
1.451000000000000000e+03 7.692108154296875000e+01 -3.496176958084106445e+00 -4.782803723923402528e-14 7.100416988311403221e-14 6.952838607317875924e-15 2.335381474522554152e-14
1.452000000000000000e+03 7.761729431152343750e+01 -4.238561153411865234e+00 6.124619447668219752e-14 -6.525352767893302652e-14 -1.202201061818080133e-15 1.290662455383229101e-13
1.453000000000000000e+03 7.686816406250000000e+01 3.594285488128662109e+00 -1.179083008529327459e-13 1.324716703519912553e-13 4.369009494464837218e-15 1.312491646398780687e-13
1.454000000000000000e+03 7.754759216308593750e+01 6.023042201995849609e+00 1.717038241189766667e-13 -1.791454354652111114e-14 4.613678349411030888e-14 1.793848239167641218e-14
1.455000000000000000e+03 7.687128448486328125e+01 2.801582336425781250e+00 -3.709903478171794333e-13 -2.047468097843285761e-13 -1.727211581224741277e-13 1.860751136506522130e-13
1.456000000000000000e+03 7.673558044433593750e+01 1.629578208923339844e+01 8.034815624250943311e-15 4.919444029655856143e-14 1.716877677624285142e-14 -2.581617171014578827e-14
1.457000000000000000e+03 7.685699462890625000e+01 5.181394100189208984e+00 -2.497923243100744380e-15 1.819332580638502450e-13 5.383060059445561596e-14 9.659823769602848137e-15
1.458000000000000000e+03 7.625348663330078125e+01 -4.303936958312988281e+00 -1.293526781997664243e-13 1.318956252674202342e-14 -3.484893444779743610e-14 2.157671590496349628e-14
1.459000000000000000e+03 7.690857696533203125e+01 -2.709199905395507812e+00 -1.679213679998264874e-13 -2.092191437458312819e-13 -1.131421548789500464e-13 -2.768304249028963326e-13
1.460000000000000000e+03 7.616060638427734375e+01 5.137588024139404297e+00 -1.145369877501162259e-13 -7.196276045765351292e-14 -5.594992446233092165e-14 1.960703599262689223e-13
1.461000000000000000e+03 7.612516784667968750e+01 9.914891242980957031e+00 -1.020368956428790996e-13 -4.373009861668129827e-14 -4.373009861668129827e-14 2.157262676870733142e-13
1.462000000000000000e+03 7.728578948974609375e+01 2.588665199279785156e+01 1.772377478614049762e-14 5.334685330201510700e-14 2.132118808763350248e-14 -4.849654952252500928e-14
1.463000000000000000e+03 7.650501251220703125e+01 2.507604026794433594e+01 -3.083565168612509289e-14 -5.896622572816243024e-14 -2.694056390191261474e-14 -1.087350898882309680e-13
1.464000000000000000e+03 7.727103424072265625e+01 2.666970634460449219e+01 6.187842664477638532e-14 1.180212205091971112e-13 5.396989685669748016e-14 -1.007713267757275044e-13
1.465000000000000000e+03 7.591596984863281250e+01 1.865657615661621094e+01 1.680359715575899943e-14 -1.071758309813437837e-13 -2.711166963945566694e-14 -9.252099547650896594e-14
1.466000000000000000e+03 7.647543334960937500e+01 2.660999488830566406e+01 -9.368414789594214920e-15 1.332378082646509809e-13 3.716081939776974541e-14 1.630734765701701700e-14
1.467000000000000000e+03 7.699955749511718750e+01 3.208021163940429688e+01 2.022883576412951717e-14 5.442045062200098759e-14 2.239478540761938308e-14 -2.572779229242927457e-14
1.468000000000000000e+03 7.683186340332031250e+01 9.152664184570312500e+00 -1.062455719648240648e-13 -2.742885671196126918e-13 -1.141602410477046692e-13 1.892384090141502329e-13
1.469000000000000000e+03 7.683784484863281250e+01 8.359376907348632812e+00 2.085500148225546968e-13 -2.308780608101940190e-13 -6.698414050401680850e-15 -3.855706511989194507e-14
1.470000000000000000e+03 7.684287261962890625e+01 7.565623760223388672e+00 -1.858673263042953661e-13 -1.254083778013184713e-13 -9.338270581067328879e-14 1.002896631843372410e-13
1.471000000000000000e+03 7.687153625488281250e+01 2.011142015457153320e+00 -4.942735131775732871e-13 2.456779896707617095e-13 -7.457866247305433571e-14 1.281364066501450294e-13
1.472000000000000000e+03 7.687021636962890625e+01 1.222029209136962891e+00 -3.926446028122004828e-13 1.062294376812447649e-13 -8.592454682878128414e-14 2.353224392963055439e-14
1.473000000000000000e+03 7.687981414794921875e+01 -1.136806845664978027e+00 -2.185623508349152089e-13 -1.394205253633581942e-13 -1.073948669252401678e-13 -2.578947255402197491e-13
1.474000000000000000e+03 7.674880981445312500e+01 1.550495624542236328e+01 -1.143968563133883690e-14 -4.902722413430930098e-15 -4.902722413430930098e-15 -1.160658225040874566e-15
1.475000000000000000e+03 7.676070404052734375e+01 1.471612453460693359e+01 1.166261233637513883e-13 1.414845210391188490e-13 7.743319738661921803e-14 7.101463243407851733e-15
1.476000000000000000e+03 7.679333496093750000e+01 1.233753967285156250e+01 -5.819268135941191300e-14 2.081122681954136744e-14 -1.121443754780728982e-14 -2.943776949634879792e-14
1.477000000000000000e+03 7.654369354248046875e+01 2.270938682556152344e+01 6.738552993596283458e-14 2.887951379773601168e-14 2.887951379773601168e-14 -1.205940458170323692e-13
1.478000000000000000e+03 7.656581115722656250e+01 2.191646194458007812e+01 -4.403312634762741873e-14 -1.561241912660660258e-13 -6.004719562292121227e-14 -7.960072081732508242e-14
1.479000000000000000e+03 7.665017700195312500e+01 1.949768257141113281e+01 9.734162938592264003e-14 -9.553500975338288792e-14 5.419859427014848356e-16 -9.061704159393432767e-14
1.480000000000000000e+03 2.748279571533203125e+00 2.878962707519531250e+01 -8.315066978058574532e-14 1.011494727765679252e-14 -2.191071793672481199e-14 -5.894841093121577780e-14
1.481000000000000000e+03 3.678934574127197266e+00 3.037543678283691406e+01 8.139980524476606027e-14 1.201015808614987190e-14 2.802298899927477965e-14 -2.366044406026338726e-14
1.482000000000000000e+03 7.641178131103515625e+01 2.889312362670898438e+01 2.306867126792774836e-14 1.013884682048334096e-13 3.733714116420198958e-14 -2.611697852070420794e-14
1.483000000000000000e+03 7.642161560058593750e+01 2.814156532287597656e+01 -4.985350053919113469e-15 -1.851403687476438353e-13 -5.703771466638099530e-14 2.211152742566217799e-14
1.484000000000000000e+03 7.644603729248046875e+01 2.738142776489257812e+01 3.099000692361971766e-15 -1.816756516276676892e-13 -5.357299415827306011e-14 2.513395782190001870e-14
1.485000000000000000e+03 1.265925407409667969e+01 6.731278896331787109e+00 1.117217822703582553e-13 9.363171316837531899e-14 6.160604795399371447e-14 -5.548370058750320966e-14
1.486000000000000000e+03 9.921985626220703125e+00 5.174140930175781250e+00 3.626469242089258582e-14 1.070439106820066100e-13 4.299258025324340093e-14 2.841665941997247730e-14
1.487000000000000000e+03 5.674334335327148438e+01 -9.166067123413085938e+00 -1.130412088804280679e-13 1.345575669116361173e-13 6.454905207076751944e-15 -5.318038761095711386e-14
1.488000000000000000e+03 5.493326950073242188e+01 -9.450888633728027344e+00 7.078945041911685609e-14 4.177607492252856380e-14 3.376965861893316267e-14 -1.590830535336783258e-14
1.489000000000000000e+03 7.529631805419921875e+01 3.154948997497558594e+01 8.275523414322596971e-14 3.546652649843128058e-14 3.546652649843128058e-14 -9.946380097856661467e-15
1.490000000000000000e+03 7.594122314453125000e+01 3.268747711181640625e+01 -2.195249360168339409e-14 3.634273803665259706e-14 4.317072822270992538e-15 6.011866487487874111e-14
1.491000000000000000e+03 7.613840484619140625e+01 3.186418914794921875e+01 2.851664827126405843e-14 -3.352952816651835755e-14 -1.503864646202647537e-15 -1.062903529026795052e-14
1.492000000000000000e+03 3.723634481430053711e+00 3.211512374877929688e+01 8.240488776371443502e-14 8.106732787230980231e-14 4.904166604605998681e-14 -3.376102862375006224e-16
1.493000000000000000e+03 2.633516550064086914e+00 4.953539371490478516e+00 3.428483760998038421e-14 1.061954005092922981e-13 4.214407008052908910e-14 -9.958585334406827583e-14
1.494000000000000000e+03 3.308229684829711914e+00 2.374423599243164062e+01 -2.404539851193383815e-14 -1.030517054881937428e-14 -1.030517054881937428e-14 1.638658928329855130e-14
1.495000000000000000e+03 3.673043060302734375e+01 -1.666704750061035156e+01 1.051705380769596410e-13 4.507308629521193655e-14 4.507308629521193655e-14 1.410255782595057350e-13
1.496000000000000000e+03 5.878774642944335938e+01 -7.916751861572265625e+00 -4.545839480665433974e-14 1.177706749396628672e-13 2.169368437871573713e-14 -2.669194787343221603e-14
1.497000000000000000e+03 3.406457424163818359e+00 2.537425804138183594e+01 -8.028321422644344590e-15 3.168159365494332969e-13 9.263628004876206523e-14 3.592057342760926475e-14
1.498000000000000000e+03 2.485060930252075195e+00 1.508342933654785156e+01 3.973346174648839657e-14 2.915343205560361195e-13 9.938033604601007043e-14 1.438565182232919015e-14
1.499000000000000000e+03 3.197628974914550781e+00 1.656355094909667969e+01 -4.870580477697944791e-15 2.724182912670208845e-13 8.026431353325841345e-14 5.131495001056002314e-14
1.500000000000000000e+03 3.190814018249511719e+00 1.896526527404785156e+01 6.584115848015659189e-14 1.654704883313415364e-13 6.939349268819672290e-14 3.843243946829652535e-14
1.501000000000000000e+03 2.498437881469726562e+00 1.749536705017089844e+01 5.806795745199461178e-14 2.536410209467987453e-13 9.351268809862714471e-14 1.103049265425634640e-13
1.502000000000000000e+03 2.387733697891235352e+00 8.805821418762207031e+00 4.393691356921469726e-14 4.763396166222733097e-13 1.560829509259301084e-13 -6.593252961824280778e-14
1.503000000000000000e+03 3.140622854232788086e+00 1.254951763153076172e+01 1.943159480164661362e-14 1.455806775043505530e-13 4.950368186120573943e-14 4.437526836601184826e-15
1.504000000000000000e+03 2.470298528671264648e+00 1.347861480712890625e+01 9.492114634178285687e-15 -4.168290129833059077e-14 -9.657236083948986249e-15 1.902995718904704203e-14
1.505000000000000000e+03 2.439357042312622070e+00 1.110482025146484375e+01 -6.110494326239807039e-14 3.398197521986556779e-13 8.361444403612999787e-14 -7.126390406606009087e-14
1.506000000000000000e+03 3.167009353637695312e+00 1.415104770660400391e+01 5.108057938218654725e-14 2.048954674547034949e-13 7.679281337344065483e-14 -4.449857095214365676e-14
1.507000000000000000e+03 3.847255706787109375e+00 1.005871677398681641e+01 -1.766685734845856084e-15 2.051221199188615896e-13 6.100663323040794728e-14 -5.215995007874091316e-14
1.508000000000000000e+03 3.130129575729370117e+00 1.097600555419921875e+01 -9.057365317824417339e-14 1.899374619173874179e-13 2.980914600987476237e-14 6.967442302361487316e-14
1.509000000000000000e+03 3.193238019943237305e+00 1.816696548461914062e+01 -8.794333974427876593e-15 6.485742119147902551e-14 1.681892675803840775e-14 -7.786856554524435037e-14
1.510000000000000000e+03 3.196401834487915039e+00 1.976379013061523438e+01 3.868764371904066801e-14 -2.917053060149006616e-14 2.855134612891538359e-15 3.690510353912546115e-14
1.511000000000000000e+03 2.512098550796508789e+00 2.070239448547363281e+01 -1.004322628750733970e-13 9.421044673552092519e-14 -1.866544037184441653e-15 -2.981017600193862360e-14
1.512000000000000000e+03 2.555114269256591797e+00 6.509154796600341797e+00 -6.004043291187033393e-14 6.577028553939393007e-14 1.718955957663668294e-15 -1.504438663490342831e-13
1.513000000000000000e+03 3.515167951583862305e+00 2.866849327087402344e+01 4.654466373953114466e-14 1.114496068674829254e-13 4.739828321498329444e-14 -1.661591667750407508e-14
1.514000000000000000e+03 2.635324716567993164e+00 2.553402328491210938e+01 -1.590206949681014642e-14 -9.831707252798069230e-14 -3.426574209921748326e-14 -7.630720599664797543e-14
1.515000000000000000e+03 4.033569812774658203e+00 2.355344963073730469e+01 -5.554234237250751938e-14 9.057351087670903467e-14 1.050935038185386514e-14 -6.312019727424192372e-14
1.516000000000000000e+03 3.852364301681518555e+00 1.403479003906250000e+01 -1.317012566170137899e-15 4.111941093610377296e-13 1.229631224316032889e-13 -1.480372018003960066e-14
1.517000000000000000e+03 3.273521423339843750e+00 2.293859291076660156e+01 -3.385792961643242782e-14 3.124040807403645481e-14 -7.852560815539656389e-16 -7.229996766208723891e-14
1.518000000000000000e+03 3.867765426635742188e+00 1.963240051269531250e+01 2.802435102825396457e-14 1.721387518204692268e-13 6.004893034639718907e-14 -7.835669369208805857e-14
1.519000000000000000e+03 3.208845138549804688e+00 2.055918312072753906e+01 6.206403528044232565e-14 2.553536266984568481e-13 9.522529385028524751e-14 -7.270438184868791009e-14
1.520000000000000000e+03 2.909278154373168945e+00 3.214136123657226562e+01 -6.273982527081611860e-14 1.886245134152982061e-14 -1.316321217878588939e-14 2.678239066340824120e-14
1.521000000000000000e+03 3.717910051345825195e+00 3.453676605224609375e+01 -1.328934724309331628e-14 -9.719732885302839742e-14 -3.314600520052876642e-14 1.270376219584395949e-13
1.522000000000000000e+03 4.595757484436035156e+00 3.382567214965820312e+01 2.059766270848424619e-14 1.003294669565946151e-13 3.627813991596319509e-14 1.012072370354388795e-13
1.523000000000000000e+03 3.050997495651245117e+00 9.481165885925292969e+00 3.338186660688940988e-14 3.803141070297944015e-13 1.241087853147415654e-13 2.407731810151816920e-14
1.524000000000000000e+03 3.071815252304077148e+00 8.057019233703613281e+00 -8.565612208779639636e-15 3.165856520079973757e-13 9.240601583611687819e-14 -7.089104016267874786e-14
1.525000000000000000e+03 3.355361938476562500e+00 2.455757141113281250e+01 7.740107450912754594e-15 -4.243375873662184883e-14 -1.040809521630613882e-14 -2.442436782879899015e-14
1.526000000000000000e+03 1.192213821411132812e+01 1.215323925018310547e+01 4.984874275512640729e-14 2.958694487326107847e-13 1.037154574463211576e-13 -1.346976729373755566e-13
1.527000000000000000e+03 3.426408767700195312e+00 3.661811447143554688e+01 -2.290164822919046189e-14 1.960642748415758474e-13 5.194878815312220510e-14 6.327064387820144353e-14
1.528000000000000000e+03 5.561330032348632812e+01 -9.040539741516113281e+00 -2.021972135080388200e-13 3.365403387824844605e-13 4.030293554945461876e-14 4.026905423156444674e-14
1.529000000000000000e+03 3.682834863662719727e+00 3.126302719116210938e+01 -7.598120673217231835e-14 1.046894707967642446e-13 8.612479388784167328e-15 4.072123091199489342e-14
1.530000000000000000e+03 2.476055526733398438e+01 -5.714428901672363281e+00 6.272987771588356409e-14 1.641370822895102388e-13 6.806008664636542527e-14 2.233707874698884210e-14
1.531000000000000000e+03 2.892123031616210938e+01 -1.292298221588134766e+01 6.986798699272142588e-14 7.569436749491412209e-14 4.366870566866430659e-14 1.179383332531105943e-13
1.532000000000000000e+03 5.698004150390625000e+01 -8.204097747802734375e+00 -2.066757680795061614e-13 4.867751980577178506e-14 -4.739947244924123948e-14 -2.448182715580893287e-14
1.533000000000000000e+03 5.629614257812500000e+01 -8.623686790466308594e+00 5.488291705867467951e-14 3.209024300628027238e-13 1.127355993930587164e-13 9.693842137423885896e-14
1.534000000000000000e+03 5.184915924072265625e+01 -1.140195560455322266e+01 3.759568272475831419e-14 8.473885655668755845e-14 3.670036212324694069e-14 3.885508688611979261e-15
1.535000000000000000e+03 1.510940837860107422e+01 3.024911403656005859e+00 7.686149758106761154e-14 1.244425434010140719e-13 6.039121297225086282e-14 -1.813275007575554376e-13
1.536000000000000000e+03 4.550862503051757812e+01 -1.437928485870361328e+01 2.920740702788172938e-14 1.251746051782057570e-14 1.251746051782057570e-14 -5.348188051820280953e-14
1.537000000000000000e+03 4.483374786376953125e+01 -1.459221458435058594e+01 3.400807806479451412e-14 -1.226779501551852891e-13 -2.660096298236994811e-14 -1.522183258346326840e-14
1.538000000000000000e+03 1.257699108123779297e+01 9.335657119750976562e+00 3.002104654822347618e-14 -1.586998897096583705e-13 -3.860365532012272061e-14 5.632372581942663835e-16
1.539000000000000000e+03 9.101112365722656250e+00 5.226951599121093750e+00 7.136382684878178617e-14 -6.091739661534881223e-14 3.133928519458476468e-15 4.204018657174603268e-14
1.540000000000000000e+03 5.721313095092773438e+01 -7.251399517059326172e+00 -1.552203732300277972e-13 2.766091121344377290e-13 3.641661963844390615e-14 -5.471953117941290301e-14
1.541000000000000000e+03 1.240323829650878906e+01 1.096726894378662109e+01 1.527323562490034287e-14 7.517209375590069853e-14 2.713359932246008077e-14 -8.326295246807377537e-14
1.542000000000000000e+03 2.720699501037597656e+01 1.415686225891113281e+01 -7.694478633077112689e-15 1.797061577237663021e-13 5.160350364250346211e-14 5.363660379151301630e-16
1.543000000000000000e+03 3.980149841308593750e+01 -1.572548103332519531e+01 6.523541557342188782e-15 2.795803554826400451e-15 2.795803554826400451e-15 9.755899159271524956e-14
1.544000000000000000e+03 3.110402870178222656e+01 -1.379136276245117188e+01 3.525449721107458412e-14 1.151892708821378175e-13 4.513313076677689939e-14 3.339426716923721283e-14
1.545000000000000000e+03 1.331594467163085938e+01 1.469198703765869141e+01 1.492416995920505668e-14 1.893998738226876366e-13 6.129721296516121853e-14 4.780472901010795507e-16
1.546000000000000000e+03 4.414333343505859375e+01 -1.478577709197998047e+01 3.545055484517785349e-14 6.094404088373764350e-14 2.891837905748782800e-14 -8.516539524387051197e-14
1.547000000000000000e+03 3.330987930297851562e+01 -1.536006355285644531e+01 3.311587115639724743e-14 1.056944110141774806e-13 4.164308397354606062e-14 -8.069798084972545915e-15
1.548000000000000000e+03 3.329024887084960938e+01 -1.456659984588623047e+01 1.466420707736323936e-13 4.854943148348798976e-14 5.855744762781750490e-14 -4.329992107595694029e-14
1.549000000000000000e+03 5.968947219848632812e+01 -6.589278221130371094e+00 -2.850679761690066982e-13 1.752091717153667072e-13 -3.295763862558656609e-14 -2.869385434009323610e-14
1.550000000000000000e+03 5.766249847412109375e+01 -7.788753509521484375e+00 3.010650539633785705e-14 1.272801579844246023e-13 4.721599833660237999e-14 4.421669193982458168e-14
1.551000000000000000e+03 2.526457977294921875e+01 -5.290514469146728516e+00 -1.029685302409051595e-13 -4.412936961922624135e-14 -4.412936961922624135e-14 -9.756348425546748637e-14
1.552000000000000000e+03 3.222814559936523438e+01 -1.369124412536621094e+01 1.372490716997770699e-13 1.188691479232437120e-13 7.683546317640080336e-14 2.118860879666336489e-14
1.553000000000000000e+03 3.163988685607910156e+01 -1.324946880340576172e+01 9.088858680429690029e-14 5.324942079615833934e-14 4.324140126369703518e-14 -8.621666477536676920e-14
1.554000000000000000e+03 6.100511550903320312e+01 -5.804366588592529297e+00 -1.574949074151579809e-13 -1.189676341380868640e-13 -8.293876246597345347e-14 1.221044072059404573e-13
1.555000000000000000e+03 7.658074951171875000e+01 -6.973453044891357422e+00 -6.617316151416238745e-14 2.690212419151349899e-13 6.085442479791813852e-14 -7.999114879590069060e-14
1.556000000000000000e+03 6.876878356933593750e+01 -7.075375556945800781e+00 -1.073697676449471283e-13 -1.489552567662116855e-13 -7.689750664572128636e-14 2.557726606737271285e-14
1.557000000000000000e+03 3.442657089233398438e+01 -1.609525299072265625e+01 9.079713435104774799e-14 1.761658988174222285e-13 8.008890995054099293e-14 3.221646446794831919e-14
1.558000000000000000e+03 3.518898010253906250e+01 -1.677108192443847656e+01 1.594574624251554607e-13 2.055917556424008419e-13 1.095147667755196064e-13 2.314887342957146904e-14
1.559000000000000000e+03 4.750322723388671875e+01 4.225234985351562500e+00 5.956649426095902977e-14 1.399058684658713303e-13 5.984170542991731900e-14 1.438783716733310625e-13
1.560000000000000000e+03 6.329284286499023438e+01 -4.062487602233886719e+00 -1.616458025375730467e-13 -1.035899813736466946e-13 -7.957073585099228019e-14 1.451344198901555194e-14
1.561000000000000000e+03 6.453887176513671875e+01 -5.910994052886962891e+00 -1.524105413272872078e-13 -1.110697498600890509e-13 -7.904409142197102445e-14 -1.291556922175529643e-13
1.562000000000000000e+03 2.569756317138671875e+01 -5.959756374359130859e+00 1.583100512660140513e-13 1.135981093263252473e-13 8.157245088820722079e-14 -1.015751915358579366e-14
1.563000000000000000e+03 5.695706558227539062e+01 1.029952621459960938e+01 -1.127171001934906824e-13 -2.084356450458846322e-13 -9.634582357181259438e-14 -3.234135439382328225e-14
1.564000000000000000e+03 1.175309848785400391e+01 1.117861080169677734e+01 -1.334251274833539013e-15 2.739338703788840590e-13 8.177988586885800992e-14 5.064160963946968963e-14
1.565000000000000000e+03 1.841696548461914062e+01 2.160962581634521484e+00 1.188561239446467299e-13 1.653157184712192307e-13 8.525155543526521940e-14 1.380062818851727352e-14
1.566000000000000000e+03 2.790618133544921875e+01 8.277801513671875000e+00 8.995590188541624510e-14 3.855253179955824006e-14 3.855253179955824006e-14 -3.775596846343313995e-14
1.567000000000000000e+03 1.294954013824462891e+01 7.816834449768066406e+00 5.739473566551689387e-14 -2.041570038024964617e-13 -4.402868111872022816e-14 3.038457106632839327e-15
1.568000000000000000e+03 4.048241043090820312e+01 1.023568725585937500e+01 -1.463678353866293413e-13 1.202747211721810761e-13 -7.827933756114711233e-15 5.201261039163192212e-14
1.569000000000000000e+03 4.102861022949218750e+01 9.417260169982910156e+00 -1.502646883875038974e-13 -1.864820282785131789e-14 -5.067386465410113339e-14 -1.765247684659655095e-15
1.570000000000000000e+03 5.720926284790039062e+01 1.096780300140380859e+01 -3.055552094980915068e-14 1.241576286226120374e-13 2.808062959133543479e-14 -2.329297618027252777e-15
1.571000000000000000e+03 5.789764404296875000e+01 1.165093421936035156e+01 -8.664183465730695977e-14 8.618733880066693082e-15 -2.340693048728196418e-14 6.664552807192358763e-14
1.572000000000000000e+03 1.604087066650390625e+01 3.440363407135009766e+00 1.722631741841573055e-14 5.313365510919119961e-14 2.110799158887548960e-14 -1.698869181183254584e-13
1.573000000000000000e+03 2.334692764282226562e+01 -2.606305599212646484e+00 -3.782682446353685668e-14 2.953945071946899315e-14 -2.486212165572006423e-15 -7.422557848305727513e-14
1.574000000000000000e+03 5.711186218261718750e+01 1.686830139160156250e+01 3.232631447681183490e-14 -1.233987142069264964e-13 -2.732171856378168284e-14 -5.569771023789058667e-15
1.575000000000000000e+03 5.425963211059570312e+01 -9.850270271301269531e+00 -5.308846081925749916e-14 4.347572920160996945e-13 1.145006534248108054e-13 1.711883910180452689e-14
1.576000000000000000e+03 5.360097122192382812e+01 -1.024073219299316406e+01 9.868398687194052110e-14 2.252969268394175439e-13 9.719427275815470391e-14 -3.391809267261000627e-14
1.577000000000000000e+03 2.666836166381835938e+01 1.661423492431640625e+01 -6.649198471550890610e-14 6.300533283033066256e-14 -1.045994951454586302e-15 -5.816483769236976964e-14
1.578000000000000000e+03 2.591443824768066406e+01 1.696145820617675781e+01 4.966512295282062006e-14 2.128505196803773952e-14 2.128505196803773952e-14 -7.228388758861656327e-14
1.579000000000000000e+03 1.366501045227050781e+01 1.388290309906005859e+01 3.579800437200977847e-14 -1.897120867789137827e-14 5.048038962345404237e-15 1.234294242334621483e-13
1.580000000000000000e+03 2.235915946960449219e+01 2.923805236816406250e+00 3.489284802391488804e-14 -1.337365006064128448e-13 -2.965309882406799713e-14 -3.763347733486480107e-14
1.581000000000000000e+03 4.960908126831054688e+01 -1.175380802154541016e+01 -6.457798248108099007e-15 1.802361699557858410e-13 5.213350909825942292e-14 1.287393941587023152e-14
1.582000000000000000e+03 2.281386184692382812e+01 -1.948546171188354492e+00 2.014722888304606996e-13 1.320962111396595251e-13 1.000705527015414986e-13 -2.183638571340556361e-14
1.583000000000000000e+03 1.374040126800537109e+01 5.531728267669677734e+00 1.577762985364994375e-13 -6.963442951597731412e-14 2.644256104496981591e-14 -7.230197343610633709e-14
1.584000000000000000e+03 1.349116992950439453e+01 3.986855983734130859e+00 7.040607653092598173e-14 1.674268769414830049e-13 7.134988807460176941e-14 -1.371667400973039519e-13
1.585000000000000000e+03 1.258048915863037109e+01 3.500712633132934570e+00 -1.692708778320509838e-14 -9.875636414321750656e-14 -3.470503710258608654e-14 -1.107956093407760911e-13
1.586000000000000000e+03 5.769802474975585938e+01 1.445667362213134766e+01 -6.908407494069651600e-14 -7.535841389924233247e-14 -4.333274529672893893e-14 -1.734834877750029980e-13
1.587000000000000000e+03 5.740914535522460938e+01 1.568615818023681641e+01 3.402898622606453927e-14 -1.769982408252393502e-13 -4.289077705737880108e-14 -3.441485377925213029e-14
1.588000000000000000e+03 1.988071441650390625e+01 1.222144603729248047e+00 -1.646284156090263573e-13 1.124487601558005201e-13 -1.565389561952821446e-14 -1.617350052713142916e-13
1.589000000000000000e+03 4.239796447753906250e+01 8.441938400268554688e+00 -2.330761722946911307e-13 -9.988978909433385289e-14 -9.988978909433385289e-14 6.250184289395555037e-14
1.590000000000000000e+03 2.435120010375976562e+01 -3.941986322402954102e+00 -6.342433631241484182e-14 6.432003638468658524e-14 2.687111440001781378e-16 -3.395704602378833703e-14
1.591000000000000000e+03 2.385889625549316406e+01 -3.271272897720336914e+00 1.220794976610276028e-13 9.807073501812840766e-14 6.604506980374680314e-14 -5.823571063313243146e-14
1.592000000000000000e+03 2.048188400268554688e+01 6.017469763755798340e-01 4.911617784036405310e-14 2.498045444544044758e-13 8.967621160623287513e-14 -6.841134104519641657e-14
1.593000000000000000e+03 2.053708457946777344e+01 -4.811983704566955566e-01 2.109222152946350903e-14 1.920433213495331692e-13 6.394066049200675117e-14 -2.558633270804012289e-14
1.594000000000000000e+03 2.347529983520507812e+01 2.722377061843872070e+00 -2.424607586373143248e-14 -1.476440226588077165e-13 -5.156703040379469194e-14 7.931499288729368380e-14
1.595000000000000000e+03 6.223191452026367188e+01 -4.979187011718750000e+00 -2.444379063309271016e-13 -9.761051152469904513e-14 -1.026145246790614862e-13 4.475343300157710869e-14
1.596000000000000000e+03 6.900482177734375000e+01 -6.109777927398681641e+00 -8.456296508299251946e-14 -5.911674687102130843e-14 -4.310391426383050617e-14 -8.802564381818109816e-16
1.597000000000000000e+03 5.845594024658203125e+01 1.374651813507080078e+01 -5.588038983362492162e-14 -2.755789574402506270e-13 -9.943780553741538020e-14 -9.756113966826948647e-14
1.598000000000000000e+03 3.826164627075195312e+01 -1.514026165008544922e+01 1.173178172447428280e-13 -4.122283365896352303e-14 2.282849338166789699e-14 1.728976391311004557e-13
1.599000000000000000e+03 4.847381210327148438e+01 3.672421216964721680e+00 -4.575436844721572638e-14 5.522778415145701558e-13 1.519570466635908335e-13 9.581598752264608443e-14
1.600000000000000000e+03 4.923245239257812500e+01 3.803824186325073242e+00 6.835774080029416444e-14 1.207980655608398290e-13 5.674674190834019805e-14 3.232869701108587179e-13
1.601000000000000000e+03 2.103790283203125000e+01 2.122632741928100586e+00 4.365201911960339687e-14 4.158348334724545903e-14 2.557065074005465677e-14 -1.115071305689968595e-13
1.602000000000000000e+03 5.251016998291015625e+01 2.242848777770996094e+01 -1.443016679183919265e-14 -6.184357378009571263e-15 -6.184357378009571263e-15 6.282565342529550234e-14
1.603000000000000000e+03 4.487657546997070312e+01 2.107694053649902344e+01 -2.246318670624195685e-15 1.134146623187406999e-13 3.335050267091847764e-14 1.245314361206966217e-14
1.604000000000000000e+03 5.629415130615234375e+01 1.977028846740722656e+01 2.565763424747409538e-14 -8.622464043759811569e-14 -1.817010185703720609e-14 1.201318622893630603e-14
1.605000000000000000e+03 4.628200912475585938e+01 2.138250350952148438e+01 -1.008048404813185681e-14 2.999300298140578080e-14 5.973756188201945552e-15 3.851642786721447276e-14
1.606000000000000000e+03 4.536848449707031250e+01 2.192411041259765625e+01 2.081916351825714023e-14 1.919262952775405151e-13 6.382363442001409704e-14 -6.828917856541161235e-14
1.607000000000000000e+03 2.103092765808105469e+01 1.902221870422363281e+01 3.766002673556353986e-14 -1.897392562077299116e-13 -4.562376951927626934e-14 -5.117811353199698543e-14
1.608000000000000000e+03 2.247692298889160156e+01 1.768343734741210938e+01 8.927654758040040606e-14 2.670161184173402980e-13 1.068877991216958534e-13 -2.434106891470010775e-14
1.609000000000000000e+03 2.328562355041503906e+01 1.733697128295898438e+01 6.959995188689227508e-14 -6.167334302758717413e-14 2.377982742494825011e-15 -6.795540692661194981e-14
1.610000000000000000e+03 2.274913978576660156e+01 1.850223922729492188e+01 5.113547050530041493e-14 -2.068395368176600968e-13 -4.671122091014744127e-14 -3.907424988495826479e-14
1.611000000000000000e+03 4.053112792968750000e+01 1.222525978088378906e+01 -5.487846505350391091e-14 6.798255263850555563e-14 3.931227291940030122e-15 1.396592158597626671e-14
1.612000000000000000e+03 7.145048522949218750e+01 -7.527721881866455078e+00 -1.007261697552434832e-13 -4.316835991858940236e-14 -4.316835991858940236e-14 1.325365462994873567e-13
1.613000000000000000e+03 5.310392761230468750e+01 1.969840812683105469e+01 3.329340926214174878e-14 -7.723329083480362511e-14 -1.318196464120515235e-14 7.217308212658854472e-14
1.614000000000000000e+03 2.410807609558105469e+01 3.131508350372314453e+00 3.611615672326207171e-14 1.298557209027453863e-13 4.979156464305495300e-14 1.927604905934462293e-14
1.615000000000000000e+03 5.093455886840820312e+01 2.180466651916503906e+01 5.458627595615085648e-14 1.148960212995348007e-13 5.084468748263980264e-14 -4.218228820710920313e-14
1.616000000000000000e+03 4.472496795654296875e+01 5.316355228424072266e+00 -1.253880761156386803e-13 -9.948869527688641856e-14 -6.746303006250481404e-14 2.275668023433378290e-14
1.617000000000000000e+03 5.154873657226562500e+01 4.554738998413085938e+00 2.651761494036012495e-14 5.711564169752839093e-14 2.508997648314678641e-14 5.884618421887755080e-14
1.618000000000000000e+03 5.234593200683593750e+01 4.481031894683837891e+00 -4.790391783878085452e-14 -2.264095215562950125e-13 -8.229402809157779219e-14 -1.393373535042014000e-13
1.619000000000000000e+03 4.004576873779296875e+01 1.508245849609375000e+01 -2.774883153930287477e-14 1.139227465618217194e-13 2.585217738666767406e-14 -4.466021871979766744e-14
1.620000000000000000e+03 5.611362457275390625e+01 5.654382705688476562e+00 1.302441363310383182e-13 -1.143174232576607552e-13 4.778013329090205832e-15 -5.051037374275389735e-14
1.621000000000000000e+03 1.083414268493652344e+01 4.449929714202880859e+00 4.023668402045217640e-14 -7.425760310472706571e-14 -1.020627606409564569e-14 8.304037253832607934e-14
1.622000000000000000e+03 2.619679450988769531e+01 1.352236366271972656e+01 5.323646458019713756e-14 3.773854872265308691e-13 1.291865784269416451e-13 -1.654956824793246684e-13
1.623000000000000000e+03 2.844420051574707031e+01 9.092681884765625000e+00 -1.019108876335137609e-14 8.713428606031345391e-14 2.308295901968203390e-14 -5.338578971253449268e-14
1.624000000000000000e+03 1.763179588317871094e+01 1.487826824188232422e+00 9.419301140933464267e-14 1.776212776036581453e-13 8.154428873677690981e-14 -8.420871218752824794e-15
1.625000000000000000e+03 5.700402450561523438e+01 7.951190471649169922e+00 2.636814242428994759e-14 -3.432692227255812467e-13 -9.507032070225560072e-14 1.183511974403930744e-13
1.626000000000000000e+03 5.279106521606445312e+01 2.093011474609375000e+01 7.374457218923408108e-14 -4.274047275495442000e-14 9.301229830283898325e-15 8.877209541459721298e-14
1.627000000000000000e+03 2.225419044494628906e+01 -1.300320863723754883e+00 -1.743026939958741001e-14 6.115630734031957116e-14 1.311781205984600615e-14 -8.438758182906583305e-14
1.628000000000000000e+03 2.436915588378906250e+01 1.777937316894531250e+01 1.190572570001699471e-13 5.273590283672068349e-15 3.729925507453719924e-14 6.724108053702811203e-16
1.629000000000000000e+03 2.532339096069335938e+01 3.933447599411010742e+00 -5.549164575654845499e-14 1.592216620051670195e-13 3.111900453577239045e-14 -5.229914469702910684e-14
1.630000000000000000e+03 2.495219993591308594e+01 4.527694225311279297e+00 -6.163730685787918717e-14 1.337123364504935741e-13 2.162250820015795827e-14 -6.754021170465862589e-14
1.631000000000000000e+03 4.769733047485351562e+01 3.474023580551147461e+00 -5.063745917802814356e-15 -2.170176973171375305e-15 -2.170176973171375305e-15 1.450347546054497894e-13
1.632000000000000000e+03 5.410815429687500000e+01 4.681207180023193359e+00 -1.693387082304671082e-14 3.849357491829755173e-14 6.467911397981841726e-15 -1.175762774901362162e-13
1.633000000000000000e+03 4.999180603027343750e+01 3.868178844451904297e+00 -1.578997620588912243e-13 2.068343597522864785e-13 1.468038032445811297e-14 1.336323358826912999e-13
1.634000000000000000e+03 4.992073059082031250e+01 4.549506664276123047e+00 -4.304615678122312994e-14 7.305354238207328876e-14 9.002216188474816000e-15 3.548614039335790116e-13
1.635000000000000000e+03 5.352220153808593750e+01 2.038262367248535156e+01 5.046489823788170848e-14 7.309762875291198059e-14 3.706875708079857001e-14 2.002993853677387248e-13
1.636000000000000000e+03 2.680257606506347656e+01 4.094293594360351562e+00 -3.584664778010469843e-14 2.133918990945490868e-13 5.326357302264106419e-14 -9.337759650793545085e-14
1.637000000000000000e+03 2.696245574951171875e+01 5.004596233367919922e+00 2.254691760714393894e-14 2.841686575719842844e-13 9.201467306195823537e-14 -1.927454913340162501e-13
1.638000000000000000e+03 1.203671646118164062e+01 1.610876274108886719e+01 4.960082637586044063e-14 1.127593908544811951e-13 4.870806720198156414e-14 3.578593584657729920e-14
1.639000000000000000e+03 1.384136199951171875e+01 1.662733840942382812e+01 -3.916537368942388242e-14 1.662186284879380027e-13 3.811597779480695170e-14 2.283628201902448973e-13
1.640000000000000000e+03 7.739316558837890625e+01 -7.168826580047607422e+00 9.529935841119316353e-14 4.084258362828212252e-14 4.084258362828212252e-14 1.612878294734044343e-14
1.641000000000000000e+03 4.185329437255859375e+01 1.638549232482910156e+01 7.698796298822446760e-14 7.874578674673879397e-14 4.672012492048897847e-14 -1.935426509813362173e-13
1.642000000000000000e+03 5.756873321533203125e+01 9.926156997680664062e+00 -3.503262878900258170e-14 -2.208932499804874827e-13 -7.677776329203384043e-14 1.732830052407832722e-13
1.643000000000000000e+03 1.842051315307617188e+01 1.938191032409667969e+01 2.918064078674849349e-14 1.497588403114036293e-13 5.368184466825881573e-14 1.201922404919092413e-13
1.644000000000000000e+03 1.590462779998779297e+01 2.793456792831420898e+00 7.082428041390795292e-14 1.676061091131220149e-13 7.152911346997720132e-14 -9.919965375396536111e-14
1.645000000000000000e+03 4.154561614990234375e+01 1.738261985778808594e+01 -4.803370107399210567e-15 2.495716307227002773e-13 7.343047881986503045e-14 -1.757451911050481735e-14
1.646000000000000000e+03 6.516307830810546875e+01 -4.879937171936035156e+00 1.863686105668758280e-14 -1.292656167653158383e-13 -3.318862789843460281e-14 -1.862674104584696733e-13
1.647000000000000000e+03 5.574919128417968750e+01 1.902257919311523438e+01 1.163501481710746757e-14 -4.076451429559958817e-14 -8.738849928250930904e-15 4.779474206814335324e-14
1.648000000000000000e+03 3.975558471679687500e+01 1.029054164886474609e+01 3.253135066015599985e-14 -7.755989318673772726e-14 -1.350856191094157097e-14 7.433096293422286616e-14
1.649000000000000000e+03 4.068939590454101562e+01 1.088614082336425781e+01 -5.595855742212933748e-14 -2.984879325044348386e-13 -1.063339479944087895e-13 4.795088242757431646e-15
1.650000000000000000e+03 1.749782371520996094e+01 1.859399032592773438e+01 5.388635907930747204e-14 1.374715228805167833e-13 5.740736662082635000e-14 2.537062221549465924e-14
1.651000000000000000e+03 4.991741943359375000e+01 2.202930450439453125e+01 2.605950564116710916e-14 3.404383301956401264e-14 1.803100210643910489e-14 7.882937534610563735e-15
1.652000000000000000e+03 2.103290176391601562e+01 1.049800276756286621e+00 6.723935237805747644e-14 2.189692519102490187e-13 8.586257789836015952e-14 -1.110864804548632179e-13
1.653000000000000000e+03 1.499414062500000000e+01 1.805181884765625000e+01 4.594921651827031661e-14 1.969252160698240633e-14 1.969252160698240633e-14 1.041666007465559540e-13
1.654000000000000000e+03 1.485101127624511719e+01 1.722123527526855469e+01 3.375463225444887139e-14 6.021721885235767346e-14 2.819155702610785796e-14 1.666907443239468156e-13
1.655000000000000000e+03 5.769474792480468750e+01 8.280107498168945312e+00 -5.850268864184340889e-14 -3.453292339583580173e-13 -1.211495774576867857e-13 3.743240865384557525e-14
1.656000000000000000e+03 1.251165771484375000e+01 5.583319187164306641e+00 1.812996232091954041e-13 -1.380205628606634427e-14 5.024927075456507575e-14 -1.585735394989823410e-13
1.657000000000000000e+03 1.847089004516601562e+01 2.022479438781738281e+01 8.967646232798526240e-14 -1.216955545666961735e-13 -9.605726316360557737e-15 6.993690836957361379e-14
1.658000000000000000e+03 6.494433593750000000e+01 -4.168821811676025391e+00 -8.369390250284602928e-14 -1.731216624049902730e-13 -7.704466676184545948e-14 -4.174389105866468941e-14
1.659000000000000000e+03 4.170362854003906250e+01 9.207826614379882812e+00 -6.347800431995287429e-14 -2.102086544110773336e-13 -8.210600032981449359e-14 4.384745672558927609e-14
1.660000000000000000e+03 4.168610000610351562e+01 7.212521553039550781e+00 -7.143440163394701448e-14 -1.507109866592803993e-13 -6.664361716559458193e-14 1.335691675536168632e-14
1.661000000000000000e+03 4.134711837768554688e+01 1.861248779296875000e+01 1.323649492828348970e-14 2.573029950995314730e-13 8.116184997295980419e-14 2.888148357285485156e-15
1.662000000000000000e+03 2.014749526977539062e+01 1.922856521606445312e+01 -7.751955747778947747e-15 -3.322266718796943775e-15 -3.322266718796943775e-15 1.068649969947557676e-13
1.663000000000000000e+03 1.764020919799804688e+01 1.936565017700195312e+01 -2.388368806384173065e-14 -1.017377642634903490e-13 -3.768643722285892894e-14 9.089005725349333376e-14
1.664000000000000000e+03 4.219205474853515625e+01 2.004006576538085938e+01 3.686089519554236471e-14 1.988013161209611912e-13 7.069866203969835117e-14 -2.618771593619530907e-14
1.665000000000000000e+03 3.063089370727539062e+00 3.561809539794921875e+01 -2.729354455389011030e-14 -3.457270683930244171e-14 -1.855987592617753396e-14 5.121200840241431351e-14
1.666000000000000000e+03 3.850075006484985352e+00 4.158469009399414062e+01 9.284791461876534119e-15 -7.608496488007918113e-14 -2.004005244897726773e-14 -4.206093718488786853e-15
1.667000000000000000e+03 7.626203918457031250e+01 4.168985366821289062e+01 1.792444705574040842e-14 -1.524464148666693220e-13 -4.035659000446549516e-14 -3.158637698727657928e-14
1.668000000000000000e+03 7.644767761230468750e+01 3.797047805786132812e+01 6.455087657973590520e-14 2.766466018126832044e-14 2.766466018126832044e-14 -5.714078163540289856e-14
1.669000000000000000e+03 7.366262817382812500e+01 3.959320449829101562e+01 4.129039639496831504e-14 -1.195569657814685161e-13 -2.347997013832370250e-14 -3.955782777080932289e-15
1.670000000000000000e+03 5.159682273864746094e+00 3.675774002075195312e+01 -1.280016814012030230e-15 4.520237062801725492e-14 1.317670626066859765e-14 1.960884237509020675e-15
1.671000000000000000e+03 4.487363338470458984e+00 3.989717483520507812e+01 6.507788862105626931e-15 2.566452740159885088e-14 9.651694794408048617e-15 4.953345676336762260e-14
1.672000000000000000e+03 3.050237846374511719e+01 -1.232825851440429688e+01 9.327494627912359670e-15 -6.904095672851653584e-15 7.270197606335947107e-16 -9.787227858671851410e-14
1.673000000000000000e+03 3.978020477294921875e+01 -1.502162075042724609e+01 4.426843210037466336e-14 1.897218615391250973e-14 1.897218615391250973e-14 9.577270752717317870e-14
1.674000000000000000e+03 4.054681777954101562e+01 -1.561540317535400391e+01 1.124736222668683283e-13 2.312067638038373119e-13 1.031041164988380499e-13 3.052535641249153053e-14
1.675000000000000000e+03 7.028224182128906250e+01 -5.597830772399902344e+00 -8.717980899903068903e-14 -7.167598898303109700e-14 -4.765673668411310460e-14 -5.280494872741611778e-14
1.676000000000000000e+03 6.941838073730468750e+01 -6.652713775634765625e+00 -7.822906954385935863e-14 -1.250286359904054234e-13 -6.097731233790579242e-14 4.859472741737536072e-14
1.677000000000000000e+03 5.829349136352539062e+01 1.031594467163085938e+01 -4.383394824414646451e-14 3.840270861184789941e-14 -1.629372376733514202e-15 -3.760976041234168066e-14
1.678000000000000000e+03 4.572055816650390625e+01 -1.287212371826171875e+01 -4.218502242946294001e-14 7.342260480158735447e-14 9.371273525791198183e-15 9.922587789401235425e-14
1.679000000000000000e+03 4.033051300048828125e+01 9.535520553588867188e+00 -2.516475255173039605e-14 -1.937886835593274903e-13 -6.568602947806465031e-14 1.683058667477713155e-13
1.680000000000000000e+03 4.742036819458007812e+01 -1.363826656341552734e+01 -7.191977861777804071e-14 2.436829221481168206e-13 5.152894780248613860e-14 6.276035734945756284e-14
1.681000000000000000e+03 4.596986007690429688e+01 -1.349521255493164062e+01 2.961994595451246381e-14 1.499471120186557371e-13 5.387011637551092358e-14 -3.590323974537665275e-14
1.682000000000000000e+03 1.325660037994384766e+01 1.339305114746093750e+01 6.213059851756935759e-14 2.210689313900116026e-13 8.495985761702157246e-14 9.098650381299949741e-14
1.683000000000000000e+03 7.100279235839843750e+01 -6.710320949554443359e+00 -5.846726233585744503e-14 1.350709230877808475e-13 2.298109822557702075e-14 9.143273432214021890e-14
1.684000000000000000e+03 7.305267333984375000e+01 -7.112449169158935547e+00 -4.393080815573088826e-14 -1.103293888540801682e-13 -4.627805842531695912e-14 8.364368361346921632e-14
1.685000000000000000e+03 4.716723632812500000e+01 -1.299905109405517578e+01 -6.321572056783558019e-15 1.802945542427741854e-13 5.219189338524776733e-14 -4.478128005675104106e-14
1.686000000000000000e+03 5.059770584106445312e+01 -1.206358623504638672e+01 -1.044260757374201529e-14 1.556529156867408892e-13 4.356309421266885140e-14 -3.310981910598911546e-15
1.687000000000000000e+03 5.024001693725585938e+01 -1.142968654632568359e+01 -4.829428144285247138e-14 2.538081507116873858e-13 6.165415942539775873e-14 -1.864296138797370828e-14
1.688000000000000000e+03 5.649273681640625000e+01 1.727923774719238281e+01 -3.289423312728689819e-14 -1.409752848312295637e-14 -1.409752848312295637e-14 5.115004286012497792e-14
1.689000000000000000e+03 4.343663024902343750e+01 -1.496757698059082031e+01 7.598208087017388479e-14 -1.318720099888507843e-14 1.883846336846357883e-14 1.848300090995062817e-14
1.690000000000000000e+03 4.123952102661132812e+01 -1.476738548278808594e+01 -4.026688243908768672e-14 -1.725723581505640702e-14 -1.725723581505640702e-14 -4.381294521518634688e-14
1.691000000000000000e+03 6.846603393554687500e+01 -4.925061225891113281e+00 -7.974462155066822100e-14 -7.992721474904193601e-14 -4.790154953466033150e-14 6.752204877717065193e-15
1.692000000000000000e+03 7.519947814941406250e+01 -6.954164981842041016e+00 -4.173581375247967240e-14 -4.076225102356452468e-14 -2.474941841637372242e-14 -6.344911710831971363e-14
1.693000000000000000e+03 2.744746398925781250e+01 -7.395105838775634766e+00 7.325469576638724001e-15 9.464138321776602303e-14 3.059005617713460301e-14 4.020629247830469211e-14
1.694000000000000000e+03 4.190354156494140625e+01 -1.390555477142333984e+01 1.272580538126330540e-13 3.747958161274406175e-13 1.506161596267693858e-13 -6.868371973597908742e-14
1.695000000000000000e+03 4.805319976806640625e+01 -1.335569095611572266e+01 -1.122781643320917150e-14 8.668997323376531616e-14 2.263864788719979065e-14 1.820362572702363679e-14
1.696000000000000000e+03 4.656192016601562500e+01 -1.323202991485595703e+01 -6.844692998150825325e-14 2.909222342195594280e-13 6.674259127141535242e-14 6.393023944565668151e-15
1.697000000000000000e+03 5.191580963134765625e+01 -1.046519374847412109e+01 -4.317412651889430963e-14 2.560024945936351104e-13 6.384851008360906133e-14 1.040562526823194528e-14
1.698000000000000000e+03 5.086857223510742188e+01 -1.112582111358642578e+01 -3.039074593651387712e-14 3.272634442087751783e-14 7.006788888585580889e-16 -2.695791960700185536e-14
1.699000000000000000e+03 2.694646263122558594e+01 -7.889486312866210938e+00 2.067596446700750712e-13 3.173660065216438175e-13 1.572376940022629510e-13 -1.645231802356594830e-13
1.700000000000000000e+03 3.747390747070312500e+01 -1.515321731567382812e+01 7.602527277422027607e-14 -5.891963891606344372e-14 5.131691512699765312e-15 7.571014263652378617e-14
1.701000000000000000e+03 3.494779586791992188e+01 -1.444445991516113281e+01 4.185645157295941887e-14 2.009422765984411607e-13 7.283961574091474267e-14 -9.696023416669655171e-15
1.702000000000000000e+03 3.105801391601562500e+01 -1.279352664947509766e+01 -2.029930551720928594e-14 1.771635274464347654e-13 4.705926674817423327e-14 7.404969378562581417e-14
1.703000000000000000e+03 7.701005554199218750e+01 -5.726133823394775391e+00 -1.108273425831120262e-13 1.355063657853053383e-13 7.403704927778920197e-15 -6.551345837352284818e-14
1.704000000000000000e+03 4.257058715820312500e+01 7.010345458984375000e+00 -3.683222821247549017e-14 -5.009845145610876405e-14 -2.607920423938845517e-14 -2.774916569380056659e-15
1.705000000000000000e+03 4.386503219604492188e+01 5.138364791870117188e+00 -2.675505013393676690e-14 -5.721740084767973356e-14 -2.519173393923223453e-14 -8.371631160649858905e-14
1.706000000000000000e+03 2.643252754211425781e+01 4.671520233154296875e+00 1.091998433138622465e-14 3.249366379264040372e-13 1.007569882019963836e-13 4.469961252810857044e-14
1.707000000000000000e+03 2.806761360168457031e+01 5.549088478088378906e+00 -9.150869623684998455e-14 9.803483437369198139e-14 1.957841906920720042e-15 3.184906900927444995e-14
1.708000000000000000e+03 4.336606979370117188e+01 -1.426723098754882812e+01 -6.645320415905181521e-14 2.460257475175864350e-13 5.387176300756038594e-14 -3.748904127669899777e-14
1.709000000000000000e+03 3.668582534790039062e+01 -1.437133789062500000e+01 4.247259350318756399e-14 4.107801474190556079e-14 2.506518213471475853e-14 7.690300219548307226e-14
1.710000000000000000e+03 5.447877883911132812e+01 -8.881645202636718750e+00 -7.495553114821029705e-14 3.567592727314605749e-13 8.454111840921693655e-14 -8.028700046371767263e-15
1.711000000000000000e+03 9.102008819580078125e+00 4.531477928161621094e+00 1.119826684181125798e-13 2.309963743722664997e-13 1.028937135147400816e-13 2.394195884841514299e-14
1.712000000000000000e+03 5.926532745361328125e+00 5.466911315917968750e+00 4.777972586805442901e-14 6.622797471024510774e-14 3.420230949586350322e-14 2.577655767326859915e-14
1.713000000000000000e+03 3.725705623626708984e+00 8.124100685119628906e+00 -2.396239097716881122e-14 2.184851420877070849e-13 5.835682956832621837e-14 -4.687758156911997487e-14
1.714000000000000000e+03 4.305516242980957031e+00 5.666188716888427734e+00 -4.302244663496358756e-14 3.018184389479844354e-13 7.763880277610393787e-14 -1.042297216417853445e-13
1.715000000000000000e+03 3.612891912460327148e+00 2.949641036987304688e+01 -3.185186082986860012e-14 5.497562650881755719e-14 6.937129110761624043e-15 5.304479457676064547e-14
1.716000000000000000e+03 4.461516857147216797e+00 3.125858879089355469e+01 1.361316658357591969e-13 1.259119642994495705e-14 4.461686079729361432e-14 4.527129200486944283e-14
1.717000000000000000e+03 7.566309356689453125e+01 3.028167343139648438e+01 -5.108849405804569144e-14 -2.048988691390196681e-13 -7.679620828149325007e-14 -4.221044697040772509e-14
1.718000000000000000e+03 7.527367591857910156e+00 6.020238876342773438e+00 1.460930240172221561e-15 2.293808589251544738e-13 6.925253285324645125e-14 -4.063388487447402997e-14
1.719000000000000000e+03 3.439964532852172852e+00 4.932301521301269531e+00 6.018579731814632794e-14 3.002996072296038044e-13 1.081456227195777553e-13 -5.917292887234679166e-14
1.720000000000000000e+03 4.257308483123779297e+00 4.884584903717041016e+00 -5.487221733848496319e-15 1.806521241192599048e-13 5.254947342612885375e-14 -2.254469329862444915e-14
1.721000000000000000e+03 5.134819984436035156e+00 5.541339874267578125e+00 2.361050977395685174e-14 1.473716304154978896e-13 5.129464493674844305e-14 -1.953447034122243742e-14
1.722000000000000000e+03 7.488518238067626953e+00 5.326113700866699219e+00 3.906479699726690680e-14 3.369986852509027075e-13 1.128190490790222100e-13 -1.126509943541551678e-14
1.723000000000000000e+03 7.557757568359375000e+01 3.088502311706542969e+01 1.674124299475346356e-13 -1.975371296115795150e-14 4.429761407947346852e-14 -1.117011011139180943e-13
1.724000000000000000e+03 7.695592498779296875e+01 -5.041277885437011719e+00 1.582727987569938072e-14 9.828502080125658957e-14 3.423369037249338054e-14 2.887942570630949723e-14
1.725000000000000000e+03 7.570519256591796875e+01 2.352084922790527344e+01 8.775514088186012196e-14 8.336029349437223956e-14 5.133463166812242406e-14 -7.348204618569387225e-14
1.726000000000000000e+03 1.232599639892578125e+01 7.820264339447021484e+00 -5.006100582357654594e-14 9.292265850009695516e-14 1.285849546414294386e-14 -2.761355190729689046e-14
1.727000000000000000e+03 7.659196472167968750e+01 2.111353111267089844e+01 5.240969604917294911e-14 -2.328965030540513376e-14 8.736014061943523507e-15 -1.819277963954063493e-13
1.728000000000000000e+03 7.598216247558593750e+01 1.704901313781738281e+01 4.070049893357789716e-14 4.031854467260662100e-14 2.430571375948171325e-14 1.200947622462733219e-14
1.729000000000000000e+03 7.423048400878906250e+01 -5.654183864593505859e+00 -7.636494653859640658e-14 -7.847878163297350440e-14 -4.645311641859189988e-14 -1.360029845904123236e-13
1.730000000000000000e+03 7.482730102539062500e+01 2.517283439636230469e+01 -8.358739319192648454e-14 -2.188269639276374523e-13 -9.072430984637461227e-14 -4.318097732137170242e-14
1.731000000000000000e+03 7.569036865234375000e+01 2.509458923339843750e+01 9.063891537276422272e-14 -9.840759663311965388e-14 -2.330605436897813416e-15 -1.302993086690906743e-13
1.732000000000000000e+03 7.600521850585937500e+01 1.625391006469726562e+01 -9.833830594990246310e-15 -4.996544695459910479e-14 -1.793978343428339478e-14 -5.164597726261058175e-14
1.733000000000000000e+03 2.830950736999511719e+01 -8.510313987731933594e+00 -7.265913673677737439e-14 -7.689057452808095716e-14 -4.486491270183114166e-14 6.485994873779363235e-14
1.734000000000000000e+03 2.787021255493164062e+01 -7.972103595733642578e+00 1.777209157833095632e-13 2.134189499387526001e-13 1.173419678481349426e-13 -1.311250370436556345e-13
1.735000000000000000e+03 7.662137603759765625e+01 2.030431175231933594e+01 -1.860107899686377214e-14 -1.452247339311235619e-13 -4.914774506424232636e-14 2.078600895463571241e-14
1.736000000000000000e+03 7.514197540283203125e+01 1.861562347412109375e+01 4.448313462371289440e-14 1.105660972933880659e-13 4.651477025275664590e-14 4.621170864049263527e-14
1.737000000000000000e+03 7.609639739990234375e+01 1.150810146331787109e+01 -1.708114105345402700e-14 -3.019596223996327822e-14 -1.418313132683837047e-14 1.403341283240031045e-13
1.738000000000000000e+03 7.483526611328125000e+01 -5.652477741241455078e+00 -9.985367160946292953e-14 -1.342963283981757350e-13 -7.024499796941252594e-14 -6.626739223547853386e-14
1.739000000000000000e+03 7.618379974365234375e+01 3.557389020919799805e+00 -1.924982254760537748e-13 3.187813240376063950e-14 -4.818603063219337179e-14 1.712791421280140947e-13
1.740000000000000000e+03 7.613652038574218750e+01 9.119051933288574219e+00 1.484490427718782035e-13 -1.880091948010947922e-13 -1.186804713342428166e-14 6.729733517142882232e-15
1.741000000000000000e+03 7.619148254394531250e+01 2.772664070129394531e+00 -3.573850742254192081e-13 2.983876166984256173e-14 -9.826389918768385634e-14 1.427033946739542092e-13
1.742000000000000000e+03 7.622211456298828125e+01 -2.722856283187866211e+00 -1.084160701752406863e-13 -1.837168790578061484e-13 -8.763988341466133480e-14 -1.476486000248546787e-15
1.743000000000000000e+03 7.557151794433593750e+01 2.808111953735351562e+01 1.497016046010917617e-14 1.436686327630637416e-13 4.759163711991892809e-14 -3.263227675340371788e-15
1.744000000000000000e+03 7.624159240722656250e+01 -3.509699344635009766e+00 -8.354024394995052116e-14 -1.273048642414301157e-13 -6.325352703640332863e-14 -1.664374882489813579e-13
1.745000000000000000e+03 7.685195922851562500e+01 5.973043918609619141e+00 -1.438429453673450986e-13 2.985492305847617378e-14 -3.419640398215524624e-14 6.362763099601945194e-14
1.746000000000000000e+03 7.686943817138671875e+01 4.360176026821136475e-01 -4.544040111634922718e-13 1.712630146206983728e-13 -8.494230031809088532e-14 -1.685840018744635266e-14
1.747000000000000000e+03 7.677204132080078125e+01 1.392639827728271484e+01 -7.492543098539666824e-14 5.939100258681509481e-14 -4.660329112497535106e-15 -1.641904250363965256e-13
1.748000000000000000e+03 7.569828796386718750e+01 2.582767105102539062e+01 1.903719085041659376e-14 -1.290940553240471633e-13 -3.301705968090234977e-14 -8.266363261217810066e-14
1.749000000000000000e+03 7.687187194824218750e+01 -3.506386280059814453e-01 -2.335592656776963594e-13 3.715602180315649705e-14 -5.892096706372473847e-14 -7.869999953374201551e-14
1.750000000000000000e+03 7.558042907714843750e+01 -4.292551517486572266e+00 -1.074218229017535886e-13 -9.178887440701097300e-14 -5.976320919262936848e-14 -1.433481426008770265e-13
1.751000000000000000e+03 7.619087219238281250e+01 1.987884879112243652e+00 -3.145006228100905021e-13 4.821781808463793118e-14 -7.988483599662490886e-14 1.331873928636304050e-14
1.752000000000000000e+03 7.684752655029296875e+01 6.768910408020019531e+00 9.088524610635292933e-14 -5.255107940059684790e-14 1.150025018113341388e-14 -9.019876994831657613e-14
1.753000000000000000e+03 7.547208404541015625e+01 4.297477722167968750e+00 -2.765329469318206224e-13 -3.472688716449345847e-13 -1.871405455730265621e-13 2.092004006007744388e-13
1.754000000000000000e+03 7.617165374755859375e+01 4.346011161804199219e+00 -2.102155390948726166e-13 -4.434142262350546093e-14 -7.636708783788706545e-14 5.041601088429797928e-14
1.755000000000000000e+03 7.678292846679687500e+01 1.313213253021240234e+01 1.184256685771156725e-13 5.002908199882747861e-15 3.702857383778082601e-14 -1.658904811479081087e-13
1.756000000000000000e+03 7.611122131347656250e+01 1.071191120147705078e+01 1.565165369272342177e-13 -9.304980153361161466e-14 1.904001994046042312e-14 -1.386903287527163631e-13
1.757000000000000000e+03 7.538780212402343750e+01 1.147085666656494141e+01 8.891401747897556551e-14 -7.627136633858375148e-14 3.792795426820838936e-15 -1.369525559581294405e-14
1.758000000000000000e+03 7.602348327636718750e+01 1.546278572082519531e+01 6.923327471215767748e-14 7.542235472236466509e-14 4.339668950798306057e-14 -5.711701050277115388e-14
1.759000000000000000e+03 7.619691467285156250e+01 -1.933181643486022949e+00 -2.057792684081322099e-13 -2.483194314235881439e-13 -1.362296099495161061e-13 -1.678190870773796362e-13
1.760000000000000000e+03 3.484604835510253906e+00 2.785089874267578125e+01 -6.551259101178485977e-14 6.342507492514484757e-14 -6.262551859810062439e-16 -2.288463980760959554e-14
1.761000000000000000e+03 4.361927986145019531e+00 2.927173805236816406e+01 -3.978396185080369796e-14 1.202025810701293218e-13 2.412558373291861374e-14 9.459178605057249473e-15
1.762000000000000000e+03 7.614432525634765625e+01 8.323736190795898438e+00 -1.541995155694697583e-13 -2.490892962812157885e-13 -1.209866489762165265e-13 2.947364574623634326e-13
1.763000000000000000e+03 7.618133544921875000e+01 1.201404571533203125e+00 -4.710145034420021304e-13 1.641442380238486431e-13 -9.206107691494061496e-14 -1.697935479824837224e-14
1.764000000000000000e+03 7.603936004638671875e+01 1.467467689514160156e+01 -5.336649091386425070e-14 -9.149777289996219309e-14 -4.345927846652157533e-14 -7.825471092523864081e-14
1.765000000000000000e+03 7.595214080810546875e+01 1.784972572326660156e+01 -3.218295923268672809e-14 -1.281700711276007043e-13 -4.810590809164669301e-14 -7.483778679227837127e-14
1.766000000000000000e+03 7.571772003173828125e+01 2.272330665588378906e+01 -1.972753625495600460e-14 -3.133013258007320834e-14 -1.531729997288240608e-14 -7.469396737409816911e-14
1.767000000000000000e+03 7.575888061523437500e+01 2.191797637939453125e+01 5.177953064147006179e-14 -9.218614641180039593e-14 -1.212198506991227914e-14 -1.152115512367823946e-13
1.768000000000000000e+03 7.558611297607421875e+01 2.960115623474121094e+01 -2.465560443526762513e-14 8.093521106132886556e-14 1.688388232663155103e-14 6.096003286578180469e-14
1.769000000000000000e+03 7.555287933349609375e+01 2.884803962707519531e+01 -1.950999955937626068e-14 -1.456142742191704476e-13 -4.953728196415742302e-14 4.010734754218104269e-17
1.770000000000000000e+03 2.662201499938964844e+01 -6.160922050476074219e+00 3.208239461074925084e-16 9.163939680874311211e-14 2.758806468591400857e-14 1.669779088218567575e-14
1.771000000000000000e+03 2.612216377258300781e+01 -6.620882511138916016e+00 3.297938450244142575e-15 1.413402162710598702e-15 1.413402162710598702e-15 -1.152827968720418483e-13
1.772000000000000000e+03 6.823204803466796875e+01 -4.254773616790771484e+00 -2.123607415133524356e-13 -9.101174539482767556e-14 -9.101174539482767556e-14 -2.428732636826271690e-14
1.773000000000000000e+03 6.779621887207031250e+01 -5.249857902526855469e+00 -1.939753425158480260e-13 8.369608784784994537e-15 -5.568171994991231999e-14 -8.225339083890031988e-14
1.774000000000000000e+03 4.198682785034179688e+00 2.519256782531738281e+01 -6.631575442863496539e-14 -5.129651179736419153e-14 -3.528367919017338927e-14 6.648591318334298728e-14
1.775000000000000000e+03 3.338292121887207031e+00 6.553966522216796875e+00 -5.009627627550021500e-14 1.844094403005355765e-13 4.029394683581835612e-14 -4.608073362992459732e-14
1.776000000000000000e+03 7.577431488037109375e+01 3.358934783935546875e+01 8.050348853250871572e-14 1.162602102127352141e-14 2.763885278143137642e-14 -7.503248917366603377e-14
1.777000000000000000e+03 3.247730493545532227e+00 2.214087104797363281e+01 7.833113362587171280e-14 1.708233299821740325e-13 7.474634111529279701e-14 -5.579665893272293953e-14
1.778000000000000000e+03 3.987723588943481445e+00 2.275663566589355469e+01 5.242237443832745147e-14 1.368441086358265779e-13 5.677994221174077760e-14 -2.435066071579481545e-14
1.779000000000000000e+03 3.189504146575927734e+00 1.575987052917480469e+01 -5.027926588529324503e-14 2.072064850429378158e-13 4.707816574729337122e-14 -1.186013093290583242e-13
1.780000000000000000e+03 3.900414943695068359e+00 1.645458412170410156e+01 2.750817423239487747e-14 2.634194403404455098e-13 8.727828166134668497e-14 -1.472631966457221830e-13
1.781000000000000000e+03 3.179018974304199219e+00 1.495532989501953125e+01 -5.423644457267125241e-14 5.715181474776065418e-13 1.551845132431728391e-13 -7.943652517456573081e-14
1.782000000000000000e+03 3.890701770782470703e+00 1.564766025543212891e+01 3.488355437841761386e-14 6.097124216099258920e-13 1.933788009280193454e-13 -5.605040628679780479e-14
1.783000000000000000e+03 3.802419424057006836e+00 1.165192317962646484e+01 3.823386106414222718e-14 1.078878401005421706e-13 4.383650967177896152e-14 -4.714544049209609677e-14
1.784000000000000000e+03 3.024748563766479492e+00 8.772132873535156250e+00 -1.020119115590668868e-13 2.765372566354562522e-13 5.235760352291680964e-14 -3.780212498279492128e-14
1.785000000000000000e+03 3.720720767974853516e+00 9.359279632568359375e+00 -1.042634877631946899e-13 2.755722895968898412e-13 5.139263987248218757e-14 -2.378894573462544265e-14
1.786000000000000000e+03 3.226470232009887695e+00 2.134956359863281250e+01 -8.231960848658487206e-14 2.392258483321918483e-13 4.707187398656116628e-14 -3.012015617931580735e-14
1.787000000000000000e+03 4.589383125305175781e+00 1.719630622863769531e+01 2.440970230035022920e-14 3.078424559536940830e-13 9.967565238900438773e-14 8.768598572391449186e-15
1.788000000000000000e+03 3.153002023696899414e+00 1.334770298004150391e+01 -1.081473845481080442e-13 2.739077682115814705e-13 4.972811171091023885e-14 -1.475244588761050885e-14
1.789000000000000000e+03 3.134333372116088867e+00 1.175946331024169922e+01 -4.030408073799930657e-14 3.029834683924287342e-13 7.880381866802108060e-14 -3.518221480748769114e-14
1.790000000000000000e+03 4.796469211578369141e+00 2.985154151916503906e+01 1.327425650410503366e-14 2.001304937743197954e-13 6.402142677759334322e-14 8.738956823808874397e-14
1.791000000000000000e+03 3.442080974578857422e+00 2.619431114196777344e+01 -6.974371709496385296e-14 -2.989016301721374169e-14 -2.989016301721374169e-14 2.727485731300778593e-14
1.792000000000000000e+03 4.252212524414062500e+00 2.604146766662597656e+01 1.135126555604085499e-14 2.564950476405952751e-13 8.035389573776002825e-14 7.457788320274286176e-14
1.793000000000000000e+03 4.496466159820556641e+00 1.083043766021728516e+01 -1.834099922447523373e-14 -3.073590169812463746e-14 -1.472307078499972971e-14 5.835905218277981366e-14
1.794000000000000000e+03 3.800394296646118164e+00 1.243465614318847656e+01 -1.565877690099665154e-13 2.531476005381005923e-13 2.896795081369293867e-14 -1.594990686835245919e-13
1.795000000000000000e+03 3.821078777313232422e+00 1.322939109802246094e+01 -2.243264947442754481e-14 1.505143259377186848e-13 3.842450446364664707e-14 -5.017926178740861332e-14
1.796000000000000000e+03 3.826148271560668945e+00 1.086526870727539062e+01 -7.607766006794206004e-14 5.889718915482941575e-14 -5.154141697450266915e-15 -1.578261447313794585e-13
1.797000000000000000e+03 3.898940563201904297e+00 2.041080093383789062e+01 1.269187527427537154e-13 1.916465982220935671e-13 9.556960935521233158e-14 3.134954996335606592e-14
1.798000000000000000e+03 3.931141614913940430e+00 2.118640136718750000e+01 3.973967896832124314e-14 1.085331911149234330e-13 4.448186068616022393e-14 -6.398909044779896305e-14
1.799000000000000000e+03 3.894359588623046875e+00 1.726161575317382812e+01 4.895907355743911449e-14 2.497372154994931259e-13 8.960888265132152530e-14 -8.774888639057759621e-14
1.800000000000000000e+03 3.871469497680664062e+00 1.805991172790527344e+01 2.053563617982270828e-14 3.290576361739128153e-13 1.048779796732415837e-13 -8.228550694012841393e-15
1.801000000000000000e+03 3.751399993896484375e+00 3.294742965698242188e+01 -1.952607624471514730e-14 -8.368318753606326238e-15 -8.368318753606326238e-15 3.033004416738184494e-14
1.802000000000000000e+03 4.548521995544433594e+00 3.210356140136718750e+01 -1.241960534252312814e-14 6.330373237325298552e-14 1.526523963387826227e-14 9.429645107285333783e-14
1.803000000000000000e+03 3.168972015380859375e+00 7.326640605926513672e+00 -7.240368515241263347e-14 1.062226952989846207e-13 1.014570219693864891e-14 -5.636566178537048832e-14
1.804000000000000000e+03 4.487759590148925781e+00 6.351101875305175781e+00 -2.414855865457993939e-14 2.641563183469752829e-13 7.200232706068565580e-14 -1.472320122807360687e-13
1.805000000000000000e+03 4.276998043060302734e+00 2.776368141174316406e+01 8.532382259225906179e-15 3.656735253953959791e-15 3.656735253953959791e-15 3.251827882419749786e-15
1.806000000000000000e+03 5.042210102081298828e+00 2.681669616699218750e+01 1.681011930945285754e-14 2.817100394104932182e-13 8.955604812420359107e-14 -4.743575087037214116e-15
1.807000000000000000e+03 4.394702434539794922e+00 8.260416030883789062e+00 8.186756394329419706e-15 3.695162123333595172e-13 1.133108838420431030e-13 -4.155350515717623483e-15
1.808000000000000000e+03 5.516634368896484375e+01 -8.486590385437011719e+00 2.014352260568206404e-14 3.860782678798135859e-13 1.218665332492971376e-13 7.452331395214895071e-14
1.809000000000000000e+03 4.106557369232177734e+00 2.436475753784179688e+01 -2.631471328004304083e-14 2.632279702367845697e-13 7.107397217423136460e-14 1.209425083952692104e-13
1.810000000000000000e+03 4.251256942749023438e+00 2.689962959289550781e+01 -4.042009375858704456e-14 -4.019837102618196989e-14 -2.418554011305706214e-14 2.996489842821588312e-14
1.811000000000000000e+03 1.273116874694824219e+01 1.540295505523681641e+01 -2.503564440177810657e-14 -1.072956200748103814e-14 -1.072956200748103814e-14 2.517229453309274834e-14
1.812000000000000000e+03 7.570607757568359375e+01 3.457567596435546875e+01 3.308821722473528903e-14 -7.732123318351935559e-14 -1.326990444882204107e-14 -1.305472674000040037e-14
1.813000000000000000e+03 7.450897216796875000e+01 3.106912612915039062e+01 1.870605517814878660e-14 1.452697283212817103e-13 4.919273606626868578e-14 -1.245469029423134852e-14
1.814000000000000000e+03 1.114739418029785156e+01 1.006872749328613281e+01 3.406351806525820258e-14 6.034959993761815356e-14 2.832393472323654904e-14 -4.936467359016594170e-14
1.815000000000000000e+03 1.250190353393554688e+01 1.221925640106201172e+01 -9.067386903436561868e-15 2.248687211913943940e-13 6.474040189574994941e-14 -1.382318636996855005e-14
1.816000000000000000e+03 2.828664588928222656e+01 1.035545253753662109e+01 1.418955827402895720e-13 2.438161977001696012e-13 1.157135232901160271e-13 -1.889776753323264141e-14
1.817000000000000000e+03 2.829880142211914062e+01 1.170834064483642578e+01 5.419304599258573107e-14 2.519803484792026982e-13 9.185201563103109756e-14 3.625498203518526252e-14
1.818000000000000000e+03 4.436937808990478516e+00 3.044382286071777344e+01 7.006752254410612141e-15 3.002893793067657087e-15 3.002893793067657087e-15 3.912493633652196212e-14
1.819000000000000000e+03 4.619361877441406250e+00 3.296218109130859375e+01 -3.300187322719102742e-15 -2.428984036205016767e-14 -8.277008601892312661e-15 3.666755145500209812e-14
1.820000000000000000e+03 4.667621994018554688e+01 4.048176765441894531e+00 -6.971760052810116112e-15 -2.987897074736519699e-15 -2.987897074736519699e-15 8.580626714802669364e-14
1.821000000000000000e+03 5.901754379272460938e+01 -6.983829975128173828e+00 -1.040050342940648798e-13 -4.457358757808428662e-14 -4.457358757808428662e-14 -3.494574353740502459e-14
1.822000000000000000e+03 5.922345733642578125e+01 -6.046803951263427734e+00 -3.430339779592062044e-14 2.483665129029283269e-13 6.421892775583873392e-14 -1.754889636385037477e-13
1.823000000000000000e+03 5.653369903564453125e+01 -7.664775848388671875e+00 2.268561586412504161e-14 2.842280989560908022e-13 9.207411444606475315e-14 7.461075485735990664e-14
1.824000000000000000e+03 6.991112518310546875e+01 -6.120063304901123047e+00 -3.022600141640470472e-14 -4.418691432715726730e-13 -1.416285437452063922e-13 3.955834615497304252e-14
1.825000000000000000e+03 5.788887023925781250e+01 -6.843560695648193359e+00 8.982117621295776511e-14 -1.869389686722389837e-14 2.133818295668721277e-14 9.850844776395153990e-14
1.826000000000000000e+03 5.298343658447265625e+01 -1.063149356842041016e+01 -2.953587962856336901e-14 2.647069033152177342e-13 7.055130541193041505e-14 6.928160302399621884e-15
1.827000000000000000e+03 5.242247390747070312e+01 -1.102690124511718750e+01 3.462992899708715322e-14 2.435961317642093560e-13 8.346781924482848947e-14 -5.548329739982031661e-14
1.828000000000000000e+03 2.532943344116210938e+01 -4.183655738830566406e+00 -3.806033789456771121e-14 -6.206252417366442398e-14 -3.003685895928281946e-14 -1.502324875829810780e-13
1.829000000000000000e+03 2.577172660827636719e+01 -4.851148605346679688e+00 7.161548372554282782e-14 7.644330047434921838e-14 4.441763525996761386e-14 -6.812051058869075804e-14
1.830000000000000000e+03 2.042636299133300781e+01 1.694017648696899414e+00 3.939530925328553479e-14 1.298313534589187745e-13 5.076800050772718731e-14 -1.760799757952527522e-13
1.831000000000000000e+03 5.855985260009765625e+01 -6.442867755889892578e+00 -4.444316144486606945e-14 4.842133638494061643e-13 1.319310600437356706e-13 -1.093122649147536263e-13
1.832000000000000000e+03 1.418793296813964844e+01 3.953151941299438477e+00 6.946955624686015907e-14 7.552361920527481121e-14 4.349795060276141767e-14 -7.015100441732161074e-14
1.833000000000000000e+03 3.380688858032226562e+01 -1.547929382324218750e+01 5.279945317765433188e-14 6.837928931847231384e-14 3.635362071595892031e-14 3.376531503397964262e-14
1.834000000000000000e+03 3.516400527954101562e+01 -1.603158760070800781e+01 7.176214239816222640e-14 -1.499574424324804506e-14 1.702991927706766495e-14 2.136090885066204564e-14
1.835000000000000000e+03 3.275979614257812500e+01 -1.316857528686523438e+01 -2.665020608979152411e-14 1.715822715029138856e-13 4.347962080978283461e-14 -1.640810696947742064e-13
1.836000000000000000e+03 3.279239273071289062e+01 -1.412992954254150391e+01 2.560098807209351679e-14 1.240156946997724233e-14 1.140076700851134356e-14 -1.812535581693919262e-13
1.837000000000000000e+03 2.754350280761718750e+01 1.493162631988525391e+01 6.358620092050334960e-14 2.725123017597707448e-14 2.725123017597707448e-14 9.440581319073923505e-14
1.838000000000000000e+03 2.696757316589355469e+01 1.532288551330566406e+01 -1.640623621251011480e-15 6.792330098977922281e-14 1.988480316820681604e-14 -5.674041308991655073e-16
1.839000000000000000e+03 5.852623748779296875e+01 1.182862663269042969e+01 -7.798841731914904485e-14 -3.079293005477101719e-13 -1.157753092614205448e-13 8.510093942471624873e-14
1.840000000000000000e+03 2.973135948181152344e+01 -8.794683456420898438e+00 4.021984161732897189e-14 1.888031289469516150e-13 6.870689455741596507e-14 8.818931641809552024e-14
1.841000000000000000e+03 2.620101737976074219e+01 -5.512421607971191406e+00 -5.315589819438609753e-14 -1.600339462727931594e-13 -6.395695062964834587e-14 -9.039666394984949283e-14
1.842000000000000000e+03 5.333615875244140625e+01 -8.647823333740234375e+00 -1.281427898904355378e-13 2.767760250588918725e-13 4.458997258341597381e-14 1.237150996474508172e-14
1.843000000000000000e+03 9.947131156921386719e+00 4.484019279479980469e+00 1.285635958586314742e-13 1.923515329221164860e-13 9.627453727897167246e-14 5.724807699289749530e-14
1.844000000000000000e+03 1.308263397216796875e+01 1.287776947021484375e+01 2.219530237227741731e-14 -3.623867834501651175e-14 -4.213012283601959979e-15 1.253802020973610043e-13
1.845000000000000000e+03 2.811275863647460938e+01 7.621762752532958984e+00 -2.337648674672910534e-16 2.286545518898064344e-13 6.852623937042556790e-14 -2.269750481857270297e-14
1.846000000000000000e+03 2.335536766052246094e+01 1.694973826408386230e+00 -1.567968946683800241e-15 8.797047698584289921e-14 2.592075148001148771e-14 -3.541257558188886517e-15
1.847000000000000000e+03 4.536055755615234375e+01 -1.373601055145263672e+01 2.716292021496223563e-14 5.739220134293870901e-14 2.536653612855710449e-14 6.282463698575879718e-14
1.848000000000000000e+03 4.471768569946289062e+01 -1.392587471008300781e+01 1.102404774996727788e-13 -4.425598071605002515e-14 1.979534801864728938e-14 -9.389590613275572428e-14
1.849000000000000000e+03 6.469651794433593750e+01 -3.597939014434814453e+00 -2.135438669696818753e-14 -1.006537789314393416e-13 -3.660244850267613259e-14 -7.609190377398308835e-14
1.850000000000000000e+03 5.800344085693359375e+01 1.100142288208007812e+01 -6.280155703201201201e-14 -2.556696987367906848e-13 -9.554137944114624026e-14 8.893872373598107894e-14
1.851000000000000000e+03 4.219300079345703125e+01 7.569099903106689453e+00 -1.663977386868326080e-13 -1.628152094482887557e-13 -9.876388579578912474e-14 4.006107174999237611e-16
1.852000000000000000e+03 4.138227462768554688e+01 6.720662593841552734e+00 -6.424988172786319507e-14 -1.647885116123209981e-13 -6.871151596917618454e-14 3.289591702878603974e-14
1.853000000000000000e+03 1.377460193634033203e+01 4.510276317596435547e+00 8.328029970283354344e-14 -3.293486699183258148e-14 1.510362913567393078e-14 -7.969848874822896279e-14
1.854000000000000000e+03 2.898103523254394531e+01 1.042348766326904297e+01 4.248830427029323675e-14 2.469640160776553905e-13 8.683569678201094599e-14 5.976745113362921802e-14
1.855000000000000000e+03 2.834467315673828125e+01 9.716168403625488281e+00 -8.535209485797251583e-14 1.464243223198158361e-13 1.832166823855299609e-14 8.931353412107521234e-15
1.856000000000000000e+03 5.938422775268554688e+01 1.383859157562255859e+01 -3.913117388714554279e-14 -1.677050188444387940e-14 -1.677050188444387940e-14 7.561816163471554719e-14
1.857000000000000000e+03 5.677758026123046875e+01 6.970685958862304688e+00 1.134474729869855425e-13 -3.173872568842245334e-13 -6.118192839290811924e-14 7.558520866493556589e-14
1.858000000000000000e+03 5.740260696411132812e+01 7.296712398529052734e+00 3.598821070251341514e-14 -4.176516852629971743e-14 -1.733087220080948600e-15 5.792871201172958284e-14
1.859000000000000000e+03 2.221419715881347656e+01 1.902091741561889648e+00 1.073936810791140117e-13 -5.691377002927516804e-14 1.514397331495165311e-14 -4.280104238694668051e-14
1.860000000000000000e+03 6.658090209960937500e+01 -4.165235042572021484e+00 -1.278233839304213082e-13 -5.478145267598898138e-14 -5.478145267598898138e-14 -1.953423317199720621e-13
1.861000000000000000e+03 6.560184478759765625e+01 -3.850524902343750000e+00 -1.419429623752271885e-13 -1.065836465309957792e-13 -7.455798131661417472e-14 -7.780915804245572276e-14
1.862000000000000000e+03 4.085447692871093750e+01 8.790269851684570312e+00 -2.140709247507813912e-14 1.052029015118083333e-13 2.513874355805200550e-14 1.080947804139517632e-13
1.863000000000000000e+03 2.160855865478515625e+01 1.480309486389160156e+00 4.998230968651304340e-14 1.999127351561078708e-14 2.099207513004373860e-14 -6.758273275861079177e-14
1.864000000000000000e+03 2.107815551757812500e+01 -2.697221562266349792e-02 1.669203647915520894e-13 1.172882456304882859e-13 8.526258719237025940e-14 -3.133786429681574559e-14
1.865000000000000000e+03 1.598074245452880859e+01 1.881979751586914062e+01 2.068249644628355338e-14 -8.263797090200808437e-14 -1.858664216731076985e-14 -3.732564502128361741e-16
1.866000000000000000e+03 1.514513206481933594e+01 1.893851661682128906e+01 7.135364212462400046e-14 1.220820319836057877e-13 5.803070155484257864e-14 5.576602344508664599e-14
1.867000000000000000e+03 3.333747100830078125e+01 -1.364031791687011719e+01 7.326252912708344778e-14 3.510796254407866357e-13 1.273026416269765204e-13 -1.731743952881545368e-14
1.868000000000000000e+03 3.366970443725585938e+01 -1.499766921997070312e+01 2.104894153399060330e-14 1.005228750716388730e-13 3.647154464287566400e-14 -2.843679339312871202e-14
1.869000000000000000e+03 6.112312316894531250e+01 -4.863639831542968750e+00 -1.533302700302066612e-13 -1.572148715465321311e-13 -9.316354111776892211e-14 1.143833020921664057e-13
1.870000000000000000e+03 6.169990158081054688e+01 -4.453508853912353516e+00 -4.748988135789937448e-14 4.398446599887355368e-14 -1.051624226542919975e-15 -1.138901662865385300e-13
1.871000000000000000e+03 4.215581893920898438e+01 5.546249389648437500e+00 -1.241092325481377157e-13 -7.438724657950201991e-15 -3.946438987233180651e-14 -9.120717791861587126e-15
1.872000000000000000e+03 2.486454772949218750e+01 -3.511881113052368164e+00 5.692881333441840441e-14 7.014901219582966863e-14 3.812334698144806411e-14 -7.019891260081831397e-14
1.873000000000000000e+03 1.206697750091552734e+01 6.240282058715820312e+00 6.460048560539069507e-14 -6.381597724217091816e-14 2.353538483367809174e-16 8.289617640224258583e-16
1.874000000000000000e+03 2.437813568115234375e+01 -2.842188358306884766e+00 -1.412130910252371030e-13 -1.476894608942302262e-14 -4.679460960973873263e-14 -1.530418790285890951e-14
1.875000000000000000e+03 4.414428710937500000e+00 3.463385009765625000e+01 -5.131533964571576012e-14 1.610115036090875584e-13 3.290884952782471840e-14 3.272155402604432113e-15
1.876000000000000000e+03 4.446808338165283203e+00 3.593250656127929688e+01 5.500275528005221792e-14 2.357260843769901082e-14 2.357260843769901082e-14 -1.512055963022364974e-14
1.877000000000000000e+03 2.621973037719726562e+01 1.782907104492187500e+01 -6.617840634217178608e-14 1.088906728999826379e-13 1.281368064496961334e-14 -7.736994774238184491e-14
1.878000000000000000e+03 5.800423049926757812e+01 1.739549255371093750e+01 2.017287907356800358e-14 -1.743582762978729273e-13 -4.625561882847829820e-14 1.542726348416085386e-14
1.879000000000000000e+03 5.590302276611328125e+01 1.776746749877929688e+01 4.760447475126751427e-14 -1.168509326842162577e-13 -2.077393704107144412e-14 8.166790133696741338e-14
1.880000000000000000e+03 4.828216171264648438e+01 2.254595375061035156e+01 5.603271685072734598e-14 1.612668738782893629e-13 6.518987823514454938e-14 -7.803585794045886370e-14
1.881000000000000000e+03 4.686619567871093750e+01 2.232582092285156250e+01 6.409810697624238052e-14 9.609703983080863932e-14 4.805854539736802156e-14 4.053940766657023256e-15
1.882000000000000000e+03 2.697563934326171875e+01 1.334486770629882812e+01 1.449187585255209965e-13 -2.939385592023134597e-14 3.465747112040007405e-14 1.470936274259454501e-13
1.883000000000000000e+03 2.284053993225097656e+01 2.314014673233032227e+00 1.176682313868901431e-13 -1.497311524984237807e-13 -9.618877349899628004e-15 -1.830626409737422938e-14
1.884000000000000000e+03 4.686048889160156250e+01 3.193849802017211914e+00 5.924179773315624981e-15 2.538934249066192653e-15 2.538934249066192653e-15 9.731283026571599382e-14
1.885000000000000000e+03 3.864875793457031250e+01 1.284719085693359375e+01 7.767827451144598827e-15 2.721158801760603652e-13 8.396511567629327821e-14 -4.508978639680000233e-14
1.886000000000000000e+03 1.271470546722412109e+01 4.276988506317138672e+00 1.055243403508959732e-13 -9.202813072142421169e-14 4.048863651171180980e-15 -3.445912565030627081e-15
1.887000000000000000e+03 1.178888797760009766e+01 4.442262649536132812e+00 1.056231247213365587e-13 1.825199063068549954e-13 8.644291066371018184e-14 -1.222961077025630505e-13
1.888000000000000000e+03 1.203408622741699219e+01 7.253592014312744141e+00 1.014772304814420822e-13 -7.088713025859422201e-14 9.177031083293894775e-15 6.856488440161109810e-14
1.889000000000000000e+03 6.728108978271484375e+01 -3.818127155303955078e+00 -1.242541768260718715e-13 -5.325178910027886237e-14 -5.325178910027886237e-14 -1.492118874204390044e-13
1.890000000000000000e+03 2.167163276672363281e+01 -6.609479188919067383e-01 1.696995679829199632e-13 3.014831223210889810e-13 1.413548098017081145e-13 -6.871264760519371628e-14
1.891000000000000000e+03 2.278462409973144531e+01 -8.681262135505676270e-01 1.667794727192375981e-13 1.515410789475896136e-13 9.549616143429001669e-14 -1.771456923206973788e-14
1.892000000000000000e+03 1.883555030822753906e+01 1.237963557243347168e+00 2.905299427684998603e-13 3.301093393862780667e-14 9.706226436739101571e-14 -1.087416018775294591e-13
1.893000000000000000e+03 2.395744323730468750e+01 2.114256143569946289e+00 -3.119711113790460399e-14 -2.480792806423826047e-14 -1.680151176064285934e-14 -3.076995242260426033e-14
1.894000000000000000e+03 5.876059722900390625e+01 1.127854537963867188e+01 -1.155111976122030759e-13 -9.525574637880493412e-14 -6.323008116442332960e-14 -7.894899333891688964e-14
1.895000000000000000e+03 2.860252189636230469e+01 8.465862274169921875e+00 -2.741738585297637254e-14 2.627553936148524505e-13 7.060140232856282339e-14 -9.653774090886968473e-14
1.896000000000000000e+03 2.738036537170410156e+01 7.418660640716552734e+00 1.932814412669960416e-15 2.370382400562406899e-14 7.690991398433266735e-15 -9.423047059439401685e-14
1.897000000000000000e+03 1.183777236938476562e+01 9.712491035461425781e+00 1.422867357790680298e-13 8.385550283665499371e-14 6.784267022946419146e-14 4.142777158648580649e-14
1.898000000000000000e+03 1.207076263427734375e+01 8.737576484680175781e+00 -4.176149917957221180e-14 -7.508646888932865582e-14 -3.505439075948343919e-14 4.685753060519257107e-14
1.899000000000000000e+03 4.352590942382812500e+01 2.074527359008789062e+01 8.102310597619954979e-14 6.903740003717101503e-14 4.501815112638481164e-14 7.791944173218823266e-14
1.900000000000000000e+03 2.893771553039550781e+01 -1.201154708862304688e+01 2.786996572108971226e-14 -6.811988717244157887e-14 -1.207497728243850724e-14 4.718257780463551432e-14
1.901000000000000000e+03 2.356929779052734375e+01 1.817079544067382812e+01 -2.903367718226808336e-14 3.330794434751663258e-14 1.282279662530620094e-15 -2.203623805511253225e-14
1.902000000000000000e+03 2.514757156372070312e+01 1.736178398132324219e+01 -4.923309210400766966e-14 1.619038968647332211e-13 3.380124278347038103e-14 -8.911439159297804280e-14
1.903000000000000000e+03 3.959968948364257812e+01 9.607679367065429688e+00 -1.989301871016882495e-13 1.434989551230697602e-13 -1.662937264290415690e-14 -9.838074907682348158e-14
1.904000000000000000e+03 2.777515220642089844e+01 1.737805366516113281e+01 -6.879226362003793699e-15 6.567818256484128647e-14 1.763968643733477420e-14 -1.119138215801597502e-13
1.905000000000000000e+03 2.986021995544433594e+01 -1.087309837341308594e+01 7.444099590220298879e-14 3.521599244854511923e-13 1.279802815373071168e-13 6.962422446302879431e-14
1.906000000000000000e+03 2.877169227600097656e+01 -1.004066658020019531e+01 -1.193748181224250568e-14 2.193495222697211533e-13 6.222361628770503583e-14 8.673412397910799931e-15
1.907000000000000000e+03 5.010404205322265625e+01 2.433117675781250000e+01 3.419442531319046019e-14 1.290321202749439289e-13 4.896796401525349562e-14 7.298851735677847063e-14
1.908000000000000000e+03 2.303796768188476562e+01 1.944419097900390625e+01 2.461020346929479463e-14 6.773591697305583748e-14 2.770383545507883183e-14 1.840641896712347236e-14
1.909000000000000000e+03 2.130100059509277344e+01 1.985985374450683594e+01 1.517162894067950601e-14 -1.307507162436050141e-13 -3.467372737672377858e-14 -1.019939222733331000e-14
1.910000000000000000e+03 4.898117828369140625e+01 2.317538738250732422e+00 7.556642486229725453e-14 2.382648928416636336e-13 9.414939260068283522e-14 2.381325388614574656e-13
1.911000000000000000e+03 4.868944549560546875e+01 2.986593723297119141e+00 -9.855971019791937016e-14 -8.799082610536773652e-14 -5.596516089098613200e-14 3.046504021275708851e-13
1.912000000000000000e+03 5.153212738037109375e+01 3.812259912490844727e+00 4.495077134949662656e-14 1.565174584990808304e-13 6.044046963219959490e-14 7.975386437418865992e-14
1.913000000000000000e+03 5.432403945922851562e+01 3.542338609695434570e+00 -4.443439973605967097e-14 7.245858643992186821e-14 8.407255164125711916e-15 -7.437550331472128629e-14
1.914000000000000000e+03 5.694623565673828125e+01 1.915523338317871094e+01 7.143249919794748132e-15 -1.856612736814144959e-13 -5.355540636615627181e-14 1.710337058612176886e-14
1.915000000000000000e+03 5.561415100097656250e+01 2.037178421020507812e+01 2.635505237712307963e-14 -1.145200877487526081e-13 -2.644951010326909019e-14 5.308220378687613164e-15
1.916000000000000000e+03 5.564388275146484375e+01 6.204775810241699219e+00 5.056880546358728801e-14 -1.413154126052654225e-13 -2.722398112606390363e-14 -7.627564893716506922e-14
1.917000000000000000e+03 5.461034393310546875e+01 5.225542545318603516e+00 4.570036162649879219e-14 -2.616507982771288515e-14 5.860584539635772111e-15 -1.331703708895223826e-13
1.918000000000000000e+03 6.278456115722656250e+01 -4.532915592193603516e+00 -1.791976296354209214e-14 -1.961029503659474788e-15 -5.964237655457175352e-15 -1.366928895378191622e-13
1.919000000000000000e+03 6.223657226562500000e+01 -4.019197940826416016e+00 -2.686626691516397214e-13 -1.937755918180947279e-13 -1.387314742251621880e-13 3.648488710586081374e-14
1.920000000000000000e+03 5.660981750488281250e+01 6.039844989776611328e+00 6.024283990494622154e-14 -4.774420876013651949e-13 -1.251597702431675452e-13 3.768229692581274992e-14
1.921000000000000000e+03 2.589021110534667969e+01 4.312923431396484375e+00 -1.026986926489642515e-13 2.762429228506807499e-13 5.206326635000951830e-14 -2.586467789890325303e-14
1.922000000000000000e+03 5.378699874877929688e+01 -9.258011817932128906e+00 1.559024956387152633e-14 3.841268665996655507e-13 1.199151319691491024e-13 -4.084624111654836659e-15
1.923000000000000000e+03 5.523304748535156250e+01 4.656861782073974609e+00 7.421718946874766853e-14 -5.969453176126598981e-14 4.356796126398377461e-15 3.047303349327373789e-14
1.924000000000000000e+03 5.414656829833984375e+01 2.088238906860351562e+01 -6.030906432889435176e-14 4.277968021601692705e-14 -5.258814640940164334e-15 7.614639848567764102e-14
1.925000000000000000e+03 5.344778060913085938e+01 2.170969200134277344e+01 1.779938306459478460e-15 -7.215274655959086347e-14 -2.111184220065370765e-14 1.322314247030956236e-13
1.926000000000000000e+03 5.075596618652343750e+01 3.868252754211425781e+00 -1.758504773003918831e-13 -1.668663850758894673e-13 -1.028150614233898363e-13 1.745032070232799271e-13
1.927000000000000000e+03 5.235252380371093750e+01 3.715352296829223633e+00 -2.390747105493473690e-14 3.100105892481219705e-13 8.583093274745073886e-14 -1.019492243447064905e-13
1.928000000000000000e+03 2.218016242980957031e+01 1.966090965270996094e+01 6.258918215521283579e-14 -8.755343862019634993e-14 -7.489277278308233143e-15 -5.913850630040332415e-15
1.929000000000000000e+03 4.208696746826171875e+01 6.190200328826904297e+00 -1.018870317975872908e-13 4.783602645399252784e-14 -1.621530228070478669e-14 -7.006502040877993220e-14
1.930000000000000000e+03 2.730214691162109375e+01 4.437248229980468750e+00 -1.098656484798538058e-13 1.816694716752845218e-13 2.154114560337649920e-14 -1.027810378039645256e-13
1.931000000000000000e+03 2.039111328125000000e+01 2.013554763793945312e+01 6.985950311072172680e-14 -3.868663405576754089e-14 9.351861224706024128e-15 -2.202531302415884629e-14
1.932000000000000000e+03 3.877623748779296875e+01 1.186738586425781250e+01 1.331402470097862306e-14 2.286261695098098373e-14 1.085299249558788204e-14 6.242949950399645509e-14
1.933000000000000000e+03 4.018971633911132812e+01 1.123583030700683594e+01 -7.912914708240251227e-14 1.183845857851079444e-14 -2.018720578883786282e-14 8.663705739148444551e-14
1.934000000000000000e+03 4.253465270996093750e+01 2.124721717834472656e+01 -5.525555734535794739e-14 1.421662402601234221e-13 2.607320385799010570e-14 -6.908905125926163501e-15
1.935000000000000000e+03 4.321758270263671875e+01 1.984829330444335938e+01 -4.737855751170763630e-14 2.542006047930728263e-13 6.204661350678319920e-14 1.686696707867488265e-14
1.936000000000000000e+03 5.074515151977539062e+01 3.173881053924560547e+00 -5.293402807824820061e-15 5.009918261494883396e-13 1.487095358963450020e-13 1.117327801461454051e-13
1.937000000000000000e+03 2.546811866760253906e+01 1.821935844421386719e+01 5.865772277624525799e-14 2.513902477299049393e-14 2.513902477299049393e-14 -1.100973153790596459e-13
1.938000000000000000e+03 2.469718360900878906e+01 1.867155265808105469e+01 3.801985988408432271e-14 1.535470698071222939e-13 5.747008094024105840e-14 -1.306915933438866639e-14
1.939000000000000000e+03 5.687601089477539062e+01 1.792128944396972656e+01 6.900935816441921417e-15 -4.279340553789423574e-14 -1.076774032351263122e-14 7.713337482834550785e-14
1.940000000000000000e+03 5.644700241088867188e+01 2.069376564025878906e+01 1.673996804076125638e-14 -1.072030986659817942e-13 -2.713893901815957188e-14 3.566835412097124625e-14
1.941000000000000000e+03 4.904474258422851562e+01 2.302048492431640625e+01 -9.509719366954019065e-16 -9.190945801738209520e-14 -2.785812928268478067e-14 2.224755244666174608e-14
1.942000000000000000e+03 1.623061752319335938e+01 1.977934646606445312e+01 1.052386395259188867e-13 4.510227505057431974e-14 4.510227505057431974e-14 5.286123914895884957e-14
1.943000000000000000e+03 1.743177413940429688e+01 2.090929222106933594e+01 6.288667367881570214e-14 4.982690624574619143e-14 3.381407363855538917e-14 2.972009913019581229e-14
1.944000000000000000e+03 4.108017349243164062e+01 1.992156982421875000e+01 -8.628177111582452374e-14 1.002749451398457503e-13 4.197952461316252146e-15 5.061952579646887551e-14
1.945000000000000000e+03 4.007220458984375000e+01 1.947238922119140625e+01 6.077651809556147700e-14 7.179802949007149659e-14 3.977236427568989208e-14 -1.123972571644756696e-14
1.946000000000000000e+03 4.056700134277343750e+01 1.723063659667968750e+01 2.678808103074789559e-14 1.944844025408842825e-13 6.638174168335786440e-14 -7.900558466891413351e-16
1.947000000000000000e+03 4.592050170898437500e+01 2.293747711181640625e+01 -4.547243861291981604e-14 9.488918440055116310e-14 1.482502305866304632e-14 -3.598787866559809145e-14
1.948000000000000000e+03 4.479114151000976562e+01 2.338478660583496094e+01 5.033452631477211558e-14 7.876062676397468931e-14 3.872854524599768367e-14 -2.408776201775781473e-14
1.949000000000000000e+03 7.041585540771484375e+01 -6.453731536865234375e+00 -1.325533514331608820e-13 -1.597482183427617608e-13 -8.769046822227136162e-14 9.004391369083365043e-15
1.950000000000000000e+03 4.462388229370117188e+01 -1.325401496887207031e+01 2.278985173861415581e-14 -8.173481693980050311e-14 -1.768348989916908309e-14 -2.518233695571539532e-14
1.951000000000000000e+03 6.916339874267578125e+01 -4.636701107025146484e+00 -2.138268945586774272e-13 -1.145155747572096372e-13 -9.850274215001883493e-14 4.473859298434121334e-14
1.952000000000000000e+03 6.930950164794921875e+01 -5.250177383422851562e+00 -6.227147703735669282e-14 -2.668777708319993586e-14 -2.668777708319993586e-14 -6.624782238626517050e-14
1.953000000000000000e+03 3.750268173217773438e+01 -1.441696548461914062e+01 1.352509277534677534e-13 1.221373313766002319e-14 4.423939581094278595e-14 6.057335893722842757e-14
1.954000000000000000e+03 4.051467514038085938e+01 -1.491019630432128906e+01 -3.759493394763294138e-14 -1.533649644997261974e-13 -5.728796885658138383e-14 1.074179468789869529e-13
1.955000000000000000e+03 2.984535598754882812e+01 -9.822777748107910156e+00 6.902865188089177262e-14 1.582582535072235563e-13 6.818607093880824088e-14 2.779013625394278347e-14
1.956000000000000000e+03 5.716718292236328125e+01 6.356544971466064453e+00 -4.606412500789483500e-14 -3.399984016116269769e-13 -1.158187586634829014e-13 3.016146047043924243e-15
1.957000000000000000e+03 5.862731170654296875e+01 9.652268409729003906e+00 -6.504571322752186746e-14 -3.938843337863290328e-13 -1.376790120712761967e-13 2.408092985000526154e-13
1.958000000000000000e+03 7.232192230224609375e+01 -7.030200004577636719e+00 -7.937676530607104541e-14 -1.712714578451166036e-13 -7.519446897823536813e-14 1.412967372228443597e-13
1.959000000000000000e+03 7.127384948730468750e+01 -6.098805427551269531e+00 -8.093781992280640880e-14 -3.468763904584948321e-14 -3.468763904584948321e-14 -5.626465480047630752e-14
1.960000000000000000e+03 7.305004119873046875e+01 -6.434520721435546875e+00 -7.085347255740212513e-14 -3.036577540522882035e-14 -3.036577540522882035e-14 2.761694512128359119e-14
1.961000000000000000e+03 4.861805725097656250e+01 -1.147549247741699219e+01 -4.607723030165475353e-14 1.175054655357457567e-13 2.142846989260094315e-14 1.617886461737980119e-14
1.962000000000000000e+03 4.923708724975585938e+01 -1.112044334411621094e+01 1.545128872667677483e-14 3.726295801868145796e-13 1.164242584717617435e-13 -1.858086540261049552e-14
1.963000000000000000e+03 4.405378723144531250e+01 -1.409698677062988281e+01 1.247169278658158409e-13 -3.805178624993223180e-14 2.599954248476508273e-14 -2.462357600194957190e-15
1.964000000000000000e+03 1.425399112701416016e+01 1.904873275756835938e+01 4.652697769159247487e-14 1.571929842151750800e-13 6.111598857203026647e-14 5.553794118931358603e-14
1.965000000000000000e+03 7.441708374023437500e+01 -7.025573253631591797e+00 -7.440586097555088041e-14 -3.188822564836012174e-14 -3.188822564836012174e-14 -1.450798303107708742e-13
1.966000000000000000e+03 5.146835708618164062e+01 -1.084814262390136719e+01 -3.940152308698659234e-14 2.919325480139900453e-13 7.575930442878242577e-14 -5.370956636255655448e-14
1.967000000000000000e+03 4.821199798583984375e+01 -1.088936901092529297e+01 1.068076833574127527e-13 4.804087357958286564e-13 1.761649230354669915e-13 6.429848109024485781e-14
1.968000000000000000e+03 4.266419219970703125e+01 -1.443767070770263672e+01 1.854543808018499496e-13 3.082351810856226448e-13 1.481068685662417783e-13 -4.690666868052868754e-14
1.969000000000000000e+03 4.119713211059570312e+01 -1.406794452667236328e+01 6.852963999595055710e-16 2.936984571255023876e-16 2.936984571255023876e-16 -5.439651008277979205e-14
1.970000000000000000e+03 4.695043182373046875e+01 -1.234586524963378906e+01 4.191713301330071695e-14 2.009682838980536568e-13 7.286562304052723871e-14 1.240237330424418666e-14
1.971000000000000000e+03 4.883754348754882812e+01 -1.049869346618652344e+01 -4.414204462024895470e-14 1.640857724216973623e-13 3.598311834043452229e-14 -6.013277983191178677e-14
1.972000000000000000e+03 4.115208053588867188e+01 -1.337333202362060547e+01 4.500182371929353775e-14 1.107883926200654845e-13 4.673706557943406448e-14 3.053290178198567184e-14
1.973000000000000000e+03 9.098444938659667969e+00 5.956803321838378906e+00 6.651329606446182430e-14 3.487623330324790549e-13 1.245826900843349794e-13 3.671419247720970891e-14
1.974000000000000000e+03 2.923256111145019531e+01 -8.412751197814941406e+00 -1.223729640840651167e-13 -6.694608754886140906e-15 -3.872027142816890366e-14 -2.093959127456596764e-14
1.975000000000000000e+03 7.626893615722656250e+01 -5.139923095703125000e+00 -6.852126559295929065e-14 -6.490783828656549598e-15 -2.250361558881440460e-14 -1.544996633883952142e-13
1.976000000000000000e+03 2.762185478210449219e+01 1.246312522888183594e+01 7.215259748179214672e-14 2.825527626541118886e-13 1.064116039750130638e-13 -2.090863391440971747e-14
1.977000000000000000e+03 3.442205810546875000e+01 -1.261140823364257812e+01 1.113341664411675314e-13 4.199577494025559521e-14 4.599898139798740127e-14 6.537508029499580764e-14
1.978000000000000000e+03 4.777371978759765625e+01 -1.274467372894287109e+01 -4.741975380613029645e-14 2.999338787317701316e-13 7.575424255988963407e-14 1.451240115492996585e-13
1.979000000000000000e+03 4.803175735473632812e+01 -1.183945941925048828e+01 2.900013806568860208e-14 3.098097950057776551e-13 1.016429778885608037e-13 6.290075475453085763e-14
1.980000000000000000e+03 7.471603393554687500e+01 2.970260620117187500e+01 1.112924890320308308e-14 -1.782341228816555767e-13 -5.013146202412915864e-14 -1.216015677908688364e-13
1.981000000000000000e+03 3.216538238525390625e+01 -1.272433948516845703e+01 1.394672273719380073e-13 1.512735656140559715e-13 8.722223518529276243e-14 1.811681840245722708e-14
1.982000000000000000e+03 4.516029834747314453e+00 7.584606170654296875e+00 -4.526891353635355275e-15 4.098184465395338094e-13 1.215874596100993688e-13 -1.568588602106693597e-13
1.983000000000000000e+03 3.903110122680664062e+01 -1.509642696380615234e+01 2.960579033989794995e-14 -7.881369846031785475e-14 -1.476237311375232925e-14 1.320055853905668930e-13
1.984000000000000000e+03 3.828326034545898438e+01 -1.442557907104492188e+01 1.005300917923494797e-13 4.308432408582640871e-14 4.308432408582640871e-14 1.828921806753050494e-13
1.985000000000000000e+03 6.707959651947021484e+00 5.397205829620361328e+00 -1.126852187203889778e-15 1.367699085496471012e-13 4.069291629463407667e-14 -4.490524841077939144e-14
1.986000000000000000e+03 6.770215034484863281e+00 6.122063636779785156e+00 1.201362956598089893e-13 2.573662582962960022e-13 1.132507648315787818e-13 -7.445239357754124265e-14
1.987000000000000000e+03 3.976218414306640625e+01 -1.362686538696289062e+01 8.127825262870327916e-14 1.720863848555381770e-13 7.600938921239336343e-14 7.354722706505098517e-14
1.988000000000000000e+03 3.835663080215454102e+00 7.447681903839111328e+00 -2.396973814095329502e-14 2.642329443355156959e-13 7.207896660175322490e-14 1.272151160184708391e-14
1.989000000000000000e+03 7.465103912353515625e+01 3.332646942138671875e+01 7.042507717399879019e-14 9.880860235914057377e-14 5.077010453756816699e-14 2.697269355566786486e-14
1.990000000000000000e+03 2.877757835388183594e+01 -7.958522319793701172e+00 -1.966678196978124266e-14 1.288242245083698334e-13 3.274723225335680887e-14 1.226640181572688504e-13
1.991000000000000000e+03 5.963191032409667969e+00 3.111923408508300781e+01 7.988236943668250434e-14 3.423529973509316371e-14 3.423529973509316371e-14 -3.984392839533751340e-14
1.992000000000000000e+03 4.009798049926757812e+00 6.768383979797363281e+00 -5.090835725521901389e-14 2.069368710676949830e-13 4.680855516018232743e-14 -2.570686719050030433e-14
1.993000000000000000e+03 5.892821121215820312e+01 1.562013816833496094e+01 -4.810781222171212068e-14 -2.036214350343429347e-13 -7.551877417681651661e-14 2.449133764174070416e-14
1.994000000000000000e+03 5.806597137451171875e+01 1.514970588684082031e+01 -1.014146991211439808e-13 -3.065314115816702989e-13 -1.223838332108442839e-13 -8.726701781721409729e-15
1.995000000000000000e+03 4.256806850433349609e+00 2.856764221191406250e+01 -4.452234399059953277e-16 2.285639396932409584e-13 6.843561362133293580e-14 3.819572425272504956e-14
1.996000000000000000e+03 5.922017097473144531e+00 3.025750732421875000e+01 -2.047452105861241600e-14 1.056025790901679584e-13 2.553841605421394712e-14 3.288147172890356490e-15
1.997000000000000000e+03 7.570126342773437500e+01 2.431957244873046875e+01 -5.167003892754323466e-15 -4.796537854943362655e-14 -1.593971502911791654e-14 -1.250798780955825196e-13
1.998000000000000000e+03 7.484880065917968750e+01 2.275324440002441406e+01 7.052640941954471665e-14 5.310107822203979921e-14 3.708824561484899696e-14 -5.787651445338798384e-14
1.999000000000000000e+03 5.403886413574218750e+01 -8.297892570495605469e+00 -9.235449251600129361e-15 8.754385020723343125e-14 2.349251977847022221e-14 2.758976891620388422e-14
2.000000000000000000e+03 7.486666870117187500e+01 2.358324623107910156e+01 -7.035368246094061973e-14 -1.674044204039853989e-13 -7.132743153710416339e-14 -1.913898727001761557e-14
2.001000000000000000e+03 5.309499740600585938e+01 -9.626921653747558594e+00 6.000408529873555341e-17 2.802502696054587350e-13 8.409308541396445791e-14 -2.251706816608269740e-14
2.002000000000000000e+03 7.526898193359375000e+01 1.620403480529785156e+01 1.053948950818306765e-14 -6.410949787531705635e-14 -1.607100344187643859e-14 -7.526057142943909373e-15
2.003000000000000000e+03 7.587649536132812500e+01 1.946785354614257812e+01 3.128502299343423332e-14 -3.234308234103568103e-14 -3.174181060359217718e-16 -6.893646759117619260e-14
2.004000000000000000e+03 7.523662567138671875e+01 1.699961280822753906e+01 2.248066607814149659e-14 7.826099252157547870e-14 3.022249808813486094e-14 -2.331755157068769041e-14
2.005000000000000000e+03 7.432449340820312500e+01 -6.338356494903564453e+00 -2.538549780811433926e-14 3.487144858353545540e-14 2.845785910252692646e-15 -3.254590607432161775e-14
2.006000000000000000e+03 7.568335723876953125e+01 2.656414222717285156e+01 3.789766352298162833e-14 -5.238456627569380852e-14 -4.346070995220243510e-15 4.338362571883755750e-15
2.007000000000000000e+03 7.583779907226562500e+01 2.028350639343261719e+01 4.988852958672483628e-14 -4.724562416096554640e-14 7.928712253871370193e-16 -1.722717292169245740e-13
2.008000000000000000e+03 7.544428253173828125e+01 9.087831497192382812e+00 -1.151519743274043162e-13 -1.637282160977387990e-13 -8.366405983804836577e-14 2.115597736059016132e-13
2.009000000000000000e+03 7.608200073242187500e+01 1.230185794830322266e+01 1.440166345553772764e-13 3.884594062435534068e-14 5.485876984341435392e-14 -2.424920141530680084e-14
2.010000000000000000e+03 7.542824554443359375e+01 9.882616996765136719e+00 2.798068139762532186e-14 -2.167630224619854218e-13 -5.663470316634097723e-14 -7.753436361370748264e-15
2.011000000000000000e+03 7.398402404785156250e+01 2.513389587402343750e+01 -2.126772506206870555e-14 -1.006166382307681351e-13 -3.656530780200492603e-14 -1.308216721935965068e-14
2.012000000000000000e+03 7.529296112060546875e+01 1.541337394714355469e+01 9.626767673561538625e-16 -4.533837362616019440e-14 -1.331270925881153713e-14 5.207340025219046875e-14
2.013000000000000000e+03 7.580148315429687500e+01 2.110218238830566406e+01 -5.996847153377045034e-15 -7.119650057224938267e-14 -2.315800444474287040e-14 1.246038743783458094e-14
2.014000000000000000e+03 7.551628875732421875e+01 2.742247343063354492e+00 -2.020832638597105935e-13 9.639667942996574257e-14 -3.170597803942888648e-14 -7.424497045535171508e-15
2.015000000000000000e+03 7.552061462402343750e+01 1.973696351051330566e+00 -2.722118591733796444e-13 1.120925184269760955e-13 -4.803580086866834908e-14 1.358956621278634147e-13
2.016000000000000000e+03 7.615420532226562500e+01 5.931786060333251953e+00 -1.782011123136351821e-14 1.753665978708116024e-13 4.726394717768055143e-14 1.607444781665315348e-13
2.017000000000000000e+03 7.614878845214843750e+01 7.527359962463378906e+00 1.442270104344209325e-13 -1.898186469118101627e-13 -1.367748907974428510e-14 8.192312252837050113e-14
2.018000000000000000e+03 7.617419433593750000e+01 -1.144949913024902344e+00 -1.738384284612204400e-13 -5.162670895712644092e-14 -6.763953817618545417e-14 -1.312024084211896313e-13
2.019000000000000000e+03 7.553668212890625000e+01 -2.729827404022216797e+00 -9.677026161728635723e-14 -2.244767685535137280e-13 -9.637410769598730997e-14 -1.437333596327611263e-13
2.020000000000000000e+03 7.606795501708984375e+01 1.309473323822021484e+01 -7.143360881110838445e-14 3.801201974712453691e-14 -1.002647553334902811e-14 4.800349842019185909e-14
2.021000000000000000e+03 7.439508056640625000e+01 3.441875457763671875e+01 3.090043276593110178e-14 -7.825885122228481983e-14 -1.420752587571929432e-14 -1.866774726607626361e-14
2.022000000000000000e+03 7.616275787353515625e+01 -3.615230917930603027e-01 -3.130103869240091763e-13 -8.839635159919520535e-14 -1.204220235898403879e-13 -2.060099730779099692e-13
2.023000000000000000e+03 7.556410980224609375e+01 -3.509409904479980469e+00 -6.915068561166859418e-14 -1.897643283829686389e-13 -7.767450690889660114e-14 -3.147599207710687248e-15
2.024000000000000000e+03 7.615129089355468750e+01 6.729235649108886719e+00 -5.558907148614164462e-14 -9.484138971946939195e-16 -1.696124523383607530e-14 3.073961441293904251e-13
2.025000000000000000e+03 7.475984954833984375e+01 4.235266208648681641e+00 -1.255971238470210416e-13 -1.682047106850784179e-13 -8.814054764912440665e-14 1.452385981664042203e-13
2.026000000000000000e+03 7.616764068603515625e+01 4.185961782932281494e-01 -2.517325811777354483e-13 2.123712447218983890e-13 -1.180839822624568658e-14 -2.396551923924961081e-13
2.027000000000000000e+03 7.485158538818359375e+01 -2.738986492156982422e+00 -1.445758524834181435e-13 -1.077120299420100680e-13 -7.568636472762846346e-14 -7.910998380900383098e-14
2.028000000000000000e+03 7.443190002441406250e+01 1.773905372619628906e+01 -4.477064132293352705e-14 -1.106893168702910435e-13 -4.663798644152783446e-14 -1.402024434998252675e-14
2.029000000000000000e+03 7.549630737304687500e+01 3.513949871063232422e+00 -2.467494524677205092e-13 7.725402620135241039e-14 -5.084863126804221867e-14 1.031507981786271289e-13
2.030000000000000000e+03 7.605383300781250000e+01 1.388622188568115234e+01 1.018778906180205224e-13 -2.496447161135211673e-14 2.307402451615439554e-14 2.722945295890316642e-14
2.031000000000000000e+03 7.470599365234375000e+01 1.063228702545166016e+01 8.549905846245292595e-14 -7.773491729869477784e-14 2.329241925610970806e-15 -5.510973892942222507e-14
2.032000000000000000e+03 7.540858459472656250e+01 1.067711544036865234e+01 -9.894823404642955067e-14 1.177219400520096437e-13 5.632109684091659782e-15 2.264373719996007339e-13
2.033000000000000000e+03 7.545404815673828125e+01 8.292428970336914062e+00 1.081603949741778703e-13 -1.366493452680667131e-13 -8.546683563507347786e-15 -1.011709365914513492e-14
2.034000000000000000e+03 7.545655059814453125e+01 7.496087074279785156e+00 -1.929455503517623488e-15 -4.657785726666814619e-14 -1.455219374635243618e-14 1.497257721451428214e-13
2.035000000000000000e+03 7.549808502197265625e+01 1.197944641113281250e+00 -1.882681835950472671e-13 5.656647974463732687e-14 -3.951051251037569767e-14 -1.142792728937164215e-13
2.036000000000000000e+03 7.545049285888671875e+01 4.196348786354064941e-01 -3.332041402775293149e-13 -5.548932742737181997e-15 -1.016259288093984692e-13 -8.640630528786164000e-14
2.037000000000000000e+03 7.531299591064453125e+01 1.462730216979980469e+01 7.787520628355082408e-14 -1.237586032596217980e-14 1.964980404138647746e-14 2.073694541819895432e-14
2.038000000000000000e+03 7.533042144775390625e+01 1.384214591979980469e+01 -1.371719442677318823e-13 -1.502898689829598733e-13 -8.623854533046024229e-14 -2.985122999482614503e-14
2.039000000000000000e+03 4.695885658264160156e+00 2.256483078002929688e+01 -3.269708451474756528e-14 1.689907572601304087e-13 4.088810317886756862e-14 1.091112055510968203e-15
2.040000000000000000e+03 7.519364166259765625e+01 1.780251121520996094e+01 -2.248791837423588791e-14 -2.383924221222022410e-13 -7.826410282655779649e-14 -2.846758812295908936e-14
2.041000000000000000e+03 2.826856040954589844e+01 1.101841735839843750e+01 1.324555699497298455e-13 1.940195237543768103e-13 9.794252811123199676e-14 -2.232415302421374148e-14
2.042000000000000000e+03 7.562496948242187500e+01 2.732163047790527344e+01 4.112899765500079713e-15 4.751361860921322899e-14 1.548795678296341349e-14 2.084394939635969557e-14
2.043000000000000000e+03 7.429312133789062500e+01 2.629965019226074219e+01 -2.291855670088355224e-14 3.592870833203469505e-14 3.903045658751932295e-15 -2.482268507224532489e-14
2.044000000000000000e+03 7.494667816162109375e+01 2.191601562500000000e+01 -8.141817569532611154e-14 -1.035199283607769749e-13 -5.548143053920456813e-14 -1.839619527945011296e-14
2.045000000000000000e+03 7.500917816162109375e+01 2.109703826904296875e+01 3.531900724033747163e-14 -9.924065692487604728e-14 -1.917649388892203599e-14 -9.618155339015388439e-14
2.046000000000000000e+03 4.844472408294677734e+00 2.413422012329101562e+01 -6.582347920848150014e-14 1.090427864647823541e-13 1.296579082163754060e-14 5.808899436227261959e-15
2.047000000000000000e+03 3.957900762557983398e+00 2.196772384643554688e+01 5.069607385797814114e-15 1.851764862325147587e-13 5.707382537498834063e-14 -5.848038795840809767e-14
2.048000000000000000e+03 4.746620655059814453e+00 2.334132194519042969e+01 -1.156055723291202555e-14 2.238002128453556172e-13 6.367190032597475069e-14 1.171705825897192965e-13
2.049000000000000000e+03 2.774217224121093750e+01 1.323072814941406250e+01 -1.011467453304777664e-13 4.815329111471609858e-14 -1.589803592591532144e-14 -7.644976502980266320e-14
2.050000000000000000e+03 2.834793472290039062e+01 -7.447977066040039062e+00 2.895425259686994213e-14 1.496618177694933327e-13 5.358481873821673014e-14 3.346070504548805113e-14
2.051000000000000000e+03 2.703465652465820312e+01 -6.789724826812744141e+00 7.166443545363054834e-14 2.594680655228220889e-13 9.933975300344122239e-14 -2.191003590579568283e-13
2.052000000000000000e+03 2.752804183959960938e+01 -6.302894115447998047e+00 1.379919805808912936e-13 3.336451124061334816e-13 1.414911346723710106e-13 -8.956052045816509377e-14
2.053000000000000000e+03 4.601299762725830078e+00 1.555763626098632812e+01 1.004055305152580513e-13 1.345328335495762917e-13 7.048150989707666070e-14 -3.735285531943945136e-14
2.054000000000000000e+03 4.487439632415771484e+00 1.875896835327148438e+01 -3.670996408873701544e-14 1.215200086824436143e-13 2.544301134523290625e-14 -4.996850643760458732e-14
2.055000000000000000e+03 4.192595958709716797e+00 8.942910194396972656e+00 -6.976965663194056866e-14 1.073515666009765279e-13 1.127457349893055613e-14 -3.981114144401519395e-14
2.056000000000000000e+03 3.875725984573364258e+00 1.484164714813232422e+01 1.168645089282948496e-14 -1.786699619905993824e-14 -1.854163380110899172e-15 -1.864733885424511850e-14
2.057000000000000000e+03 4.611439228057861328e+00 1.637581634521484375e+01 5.242262346601394424e-15 4.140052287538581455e-13 1.257742418244237048e-13 7.888858294911871294e-15
2.058000000000000000e+03 5.330011367797851562e+00 1.018705463409423828e+01 7.685550058780105109e-15 2.320485383705550575e-13 7.192023262743776901e-14 -5.943784012066646860e-14
2.059000000000000000e+03 4.518051147460937500e+00 1.949680709838867188e+01 4.432307419580203828e-15 1.391524021661025290e-13 4.307541329922129347e-14 1.999716547679188799e-14
2.060000000000000000e+03 3.856246709823608398e+00 1.884873962402343750e+01 -1.895424769015555816e-14 8.337865039240513476e-14 1.932731996364192573e-14 -4.411313030356148190e-14
2.061000000000000000e+03 4.442863464355468750e+00 1.158636283874511719e+01 -1.228954682160401934e-13 2.675871677015884131e-13 4.340750442465360348e-14 -2.985878552871565339e-14
2.062000000000000000e+03 5.346047401428222656e+00 1.632853507995605469e+01 8.480228746597564399e-15 1.180117608452421751e-13 3.794759442115637482e-14 -7.449299017263724676e-15
2.063000000000000000e+03 4.476678848266601562e+00 1.311447620391845703e+01 -1.884199990042495498e-13 1.022523672721334376e-13 -2.585029189132708599e-14 -4.006183270321636569e-14
2.064000000000000000e+03 4.611698150634765625e+00 1.002627944946289062e+01 -5.467975451220984107e-14 6.806771671915429200e-14 4.016388831489924732e-15 -2.949482902380763660e-14
2.065000000000000000e+03 5.535097122192382812e+00 2.943587303161621094e+01 6.299801446566638541e-14 4.123674024589154413e-15 2.013650578474700942e-14 -5.723938982299045519e-14
2.066000000000000000e+03 4.599009990692138672e+00 2.023645591735839844e+01 -1.370715640872186697e-14 2.228802537494745106e-13 6.275192767756648804e-14 -1.181196660664587950e-13
2.067000000000000000e+03 5.337448596954345703e+00 1.999421501159667969e+01 6.307565011747992556e-14 2.100362120555435141e-13 8.193355797428067411e-14 2.045822753283903228e-14
2.068000000000000000e+03 5.369133949279785156e+00 2.826908683776855469e+01 1.802847964232218159e-14 1.335416017133814193e-13 4.547102576196379586e-14 8.068583439726183248e-15
2.069000000000000000e+03 5.545063972473144531e+00 2.384981346130371094e+01 -2.070489538554074610e-14 1.741302685809992257e-13 4.602761111160459662e-14 6.208157902684585672e-14
2.070000000000000000e+03 4.842904567718505859e+00 9.207109451293945312e+00 8.706268128308436438e-14 2.889428063132526425e-13 1.128016408578902396e-13 -6.847032841964320604e-14
2.071000000000000000e+03 5.291227340698242188e+00 6.959788322448730469e+00 -5.477457476845727646e-14 1.595289791109580357e-13 3.142632164156340668e-14 -6.255282750111668122e-14
2.072000000000000000e+03 5.023260116577148438e+00 2.497620964050292969e+01 -4.706733388996388323e-14 1.628320823445980614e-13 3.472942487520343235e-14 3.073103295274381974e-14
2.073000000000000000e+03 5.381562232971191406e+00 3.205205917358398438e+01 8.277006060793470898e-14 8.122383245590808487e-14 4.919816724152648035e-14 -2.476051624204864826e-14
2.074000000000000000e+03 3.913098335266113281e+00 3.523423767089843750e+01 2.013178611716490846e-14 2.831335968629666855e-13 9.097961912920421446e-14 8.629061413979385864e-14
2.075000000000000000e+03 5.585107421875000000e+01 -8.078351974487304688e+00 -2.255427425769743199e-13 2.007199880480273202e-13 -7.446823139958900356e-15 1.323340410505895876e-14
2.076000000000000000e+03 5.608879089355468750e+01 -7.117966651916503906e+00 -1.950068931203322031e-13 3.281841486936498686e-13 3.995317870487437306e-14 2.060113046137030529e-14
2.077000000000000000e+03 7.300370788574218750e+01 -5.768921375274658203e+00 -4.136671406351592750e-14 -1.549814421762663041e-13 -5.890444653312149059e-14 4.332132729259995096e-14
2.078000000000000000e+03 4.521729278564453125e+01 -1.313358497619628906e+01 1.486009259437162666e-13 1.793516032845728081e-14 4.996082554283888533e-14 -1.498252036487551092e-14
2.079000000000000000e+03 6.170309543609619141e+00 3.188370323181152344e+01 -2.471998232739074097e-14 1.228119592377703920e-14 -3.731635836380815807e-15 4.612325214277792143e-15
2.080000000000000000e+03 5.472834014892578125e+01 -7.921540260314941406e+00 -1.972980562562828832e-13 3.729531874302471905e-13 5.269653867456293439e-14 1.377124376854407459e-14
2.081000000000000000e+03 5.108196258544921875e+00 1.090131187438964844e+01 -6.613679330753907681e-14 1.089085080257200244e-13 1.283151492367405264e-14 -5.513766475866025210e-15
2.082000000000000000e+03 1.148998641967773438e+01 1.063473606109619141e+01 3.028555122072847106e-14 1.044814191761278543e-13 4.043009213549643432e-14 4.643578951262286592e-14
2.083000000000000000e+03 1.239321422576904297e+01 1.284909820556640625e+01 1.507551950028634957e-14 3.267175755199830389e-13 1.025379325718389634e-13 4.385020534750311630e-15
2.084000000000000000e+03 8.294482231140136719e+00 5.957413196563720703e+00 7.978854529118104000e-14 3.087007917085965447e-13 1.165468004223069176e-13 2.662094618366157156e-14
2.085000000000000000e+03 3.510449600219726562e+01 -1.525909805297851562e+01 7.455863861418124405e-14 1.234555941634005172e-13 5.940427051090088617e-14 1.026253192669412950e-13
2.086000000000000000e+03 2.778993225097656250e+01 4.745535850524902344e+00 7.227161577527674297e-14 2.597283011492729221e-13 9.959997507736489952e-14 -7.705080605664715865e-14
2.087000000000000000e+03 6.051146697998046875e+01 -5.261810779571533203e+00 -5.133827052166382854e-14 1.152507315927905895e-13 1.917373764371167050e-14 -2.997039397797766902e-14
2.088000000000000000e+03 1.077307796478271484e+01 5.145864486694335938e+00 6.185405920094977361e-14 7.225983185291454114e-14 4.023416663853293662e-14 2.666458023890642959e-14
2.089000000000000000e+03 5.809725570678710938e+01 -5.891666412353515625e+00 -1.145932985004496918e-13 -2.623594091001428541e-14 -4.224877351720508767e-14 9.545338965858546354e-14
2.090000000000000000e+03 4.759887313842773438e+01 2.329165840148925781e+01 -3.488739990799814839e-14 7.655015537471124287e-14 1.249882748704687560e-14 3.888903766071163948e-14
2.091000000000000000e+03 4.329853439331054688e+01 -1.356451606750488281e+01 1.477922737533679531e-14 -3.941699329673524488e-14 -7.391329776419534869e-15 -5.617422895115922743e-14
2.092000000000000000e+03 2.923353004455566406e+01 8.659921646118164062e+00 7.739376630885863584e-14 2.619235123929586351e-13 1.017951795447870345e-13 -4.272415890039030217e-14
2.093000000000000000e+03 4.302572631835937500e+01 4.980779170989990234e+00 -4.975816105174703241e-14 -6.707587501923739648e-14 -3.505020980485579196e-14 -3.667818680068782311e-15
2.094000000000000000e+03 5.066790580749511719e+00 1.155227565765380859e+01 -2.151597347824999590e-14 1.737826598119732169e-13 4.568000573071037684e-14 6.225790418140988991e-14
2.095000000000000000e+03 5.891758346557617188e+01 -4.528020381927490234e+00 -1.257028742164198465e-13 -8.121711040243867474e-15 -4.014737625462547199e-14 -8.839683271390924579e-15
2.096000000000000000e+03 2.761356735229492188e+01 6.767702102661132812e+00 -5.480472575324774054e-14 2.052670099866871212e-13 4.513868391477909858e-14 -7.988104806528478763e-14
2.097000000000000000e+03 2.833965682983398438e+01 6.971046924591064453e+00 -2.877698554166856215e-14 -3.520846605258899642e-14 -1.919563513946408867e-14 -4.074718400149876518e-14
2.098000000000000000e+03 1.312579345703125000e+01 1.415831565856933594e+01 1.675081006248611143e-14 1.215562887976404105e-13 4.149212914981818823e-14 3.510578194245925210e-14
2.099000000000000000e+03 1.260304450988769531e+01 1.422334098815917969e+01 6.829997315329142116e-14 3.495280508167969424e-13 1.253484078686528669e-13 -3.163359399188832299e-14
2.100000000000000000e+03 3.908561706542968750e+01 1.042645359039306641e+01 -1.225247117306316191e-13 1.533686778921669602e-13 9.253191203713317936e-15 -7.159324064034792989e-15
2.101000000000000000e+03 3.962170410156250000e+01 1.086844825744628906e+01 -1.477095355750801531e-13 -1.548059911597038374e-13 -9.075465395467705032e-14 4.378041830297883449e-15
2.102000000000000000e+03 2.584873771667480469e+01 -3.735241413116455078e+00 1.423434531052161778e-13 9.245811852676838472e-14 7.044047284484808436e-14 -8.984991434679220901e-14
2.103000000000000000e+03 4.123144531250000000e+01 7.638739109039306641e+00 -7.102187625984343611e-14 -6.475116260231186804e-14 -4.073191030339387564e-14 -3.801795914215068406e-14
2.104000000000000000e+03 4.139023208618164062e+01 8.585650444030761719e+00 3.589384784405749707e-14 1.068849734197838131e-13 4.283364637915239304e-14 -4.350461844612220352e-14
2.105000000000000000e+03 6.754093933105468750e+01 -4.557785987854003906e+00 -1.637366864272113420e-13 -1.159238178539967468e-13 -8.389814586335156421e-14 -1.551017208547764148e-13
2.106000000000000000e+03 2.162445449829101562e+01 4.123522937297821045e-01 1.547047402293208473e-13 8.774778863587795463e-14 7.273575594905420938e-14 -1.888017296485227509e-14
2.107000000000000000e+03 5.782676696777343750e+01 1.654085731506347656e+01 -3.400095282364221094e-14 -1.518246791308575094e-13 -5.574769026397627392e-14 -1.303027120474727421e-14
2.108000000000000000e+03 5.869728851318359375e+01 1.651266288757324219e+01 -7.177244740099852222e-15 -1.632042889504123351e-13 -5.111445731194493025e-14 5.407888289195479647e-14
2.109000000000000000e+03 3.667322158813476562e+01 -1.514921092987060547e+01 1.040731560718148596e-13 9.035372954381906685e-14 5.832806432943746233e-14 1.254227095987860141e-14
2.110000000000000000e+03 3.592195510864257812e+01 -1.596161270141601562e+01 8.261803513456150716e-14 1.269096318919776811e-13 6.285830146321447209e-14 6.882441529664981572e-14
2.111000000000000000e+03 6.220182418823242188e+01 -3.063622713088989258e+00 -1.068001820336318686e-13 -1.544300033988130205e-13 -7.836906037311797135e-14 4.409794130875131779e-14
2.112000000000000000e+03 6.431710052490234375e+01 -4.065525531768798828e+00 -1.363736733131851175e-13 -1.041968093295868314e-13 -7.217114411520522688e-14 -9.969265403432167605e-14
2.113000000000000000e+03 4.581480407714843750e+01 3.889441251754760742e+00 5.689219440604270650e-14 7.013331836938294095e-14 3.810765315500133643e-14 2.271922071046122982e-13
2.114000000000000000e+03 2.927865409851074219e+01 -9.432737350463867188e+00 3.765644209213075966e-15 1.717501873143775781e-13 5.265474945707719623e-14 4.857905391971936715e-14
2.115000000000000000e+03 3.416618728637695312e+01 -1.083194923400878906e+01 9.285995095694582480e-14 3.979712135467224077e-14 3.979712135467224077e-14 1.357627524940438479e-13
2.116000000000000000e+03 3.207067871093750000e+01 -1.179352188110351562e+01 3.032591742286282199e-14 1.359525014267559673e-13 4.988352531607245788e-14 9.689658472290807456e-14
2.117000000000000000e+03 3.328710174560546875e+01 -1.262909030914306641e+01 3.220022854041534877e-14 1.510529440244823274e-13 5.497595176946930284e-14 -6.964151071141636007e-14
2.118000000000000000e+03 4.219614028930664062e+01 4.851944923400878906e+00 -7.829088262021818845e-14 -3.355323492464611090e-14 -3.355323492464611090e-14 -9.075410507732722953e-14
2.119000000000000000e+03 5.317636489868164062e+01 3.442644834518432617e+00 -4.341082140567505132e-14 1.186482146255454784e-13 2.257121559426887580e-14 -1.006642008248223585e-13
2.120000000000000000e+03 2.712293815612792969e+01 -5.688458442687988281e+00 -3.669898315360881069e-14 -1.529809807478132999e-13 -5.690399188093206440e-14 -1.107178991500631926e-13
2.121000000000000000e+03 2.637825393676757812e+01 -3.273327827453613281e+00 -5.114909079509226408e-14 6.958085637612937413e-14 5.529530182530901367e-15 -4.934898653998279205e-14
2.122000000000000000e+03 6.009481811523437500e+01 1.202293968200683594e+01 -1.550922476382943227e-13 -1.236567949815595147e-13 -8.362471007545071999e-14 -2.891215505939140340e-14
2.123000000000000000e+03 5.358718109130859375e+01 4.104034900665283203e+00 4.083082342284244382e-14 1.147196893687071895e-13 4.666515248221217438e-14 -5.989157195358807417e-14
2.124000000000000000e+03 5.566735839843750000e+01 5.184537887573242188e+00 1.123364164819402877e-13 -1.348596120843634227e-13 -6.756959697166477208e-15 -6.489446024819656156e-14
2.125000000000000000e+03 2.515463066101074219e+01 2.942305803298950195e+00 -1.403678876691488719e-13 3.134423059644730891e-14 -3.270709983231590012e-14 -5.307585696900235517e-14
2.126000000000000000e+03 2.573111343383789062e+01 3.343440055847167969e+00 -4.524958847966194589e-15 2.153777373462006928e-13 6.325583096601986033e-14 3.535550038432050228e-15
2.127000000000000000e+03 5.146920394897460938e+01 3.087351083755493164e+00 -5.068819221640393988e-15 3.180842904609154642e-13 9.390464073650781063e-14 8.441271499067676265e-14
2.128000000000000000e+03 5.976211547851562500e+01 1.110401248931884766e+01 -6.087257163178011465e-14 1.966270265910726595e-14 -1.236296086120844406e-14 -7.736818591385155597e-14
2.129000000000000000e+03 6.033949279785156250e+01 1.300005245208740234e+01 -7.255481615899353476e-14 -6.540813490872945946e-14 -4.138888599794325607e-14 1.843029174370888756e-14
2.130000000000000000e+03 5.004695892333984375e+01 3.207559823989868164e+00 -7.153507171148642488e-16 9.119532115142020556e-14 2.714399072265699653e-14 2.297255810058962400e-13
2.131000000000000000e+03 3.422915267944335938e+01 -1.473446941375732422e+01 4.012718976542650751e-14 -2.855358229589613495e-14 3.472081859694285504e-15 -3.306171525788159649e-14
2.132000000000000000e+03 2.387009429931640625e+01 -2.177406787872314453e+00 1.279196339782837089e-13 1.920755492591103009e-13 9.599855361596548731e-14 -7.903474017823333697e-14
2.133000000000000000e+03 2.386948204040527344e+01 -4.646497545763850212e-04 1.470838696063930806e-13 1.801833964150401091e-13 9.818017845117724129e-14 -3.512681631163841814e-15
2.134000000000000000e+03 2.885708618164062500e+01 1.609206390380859375e+01 6.679343357704134454e-14 -4.000066676002923816e-14 8.037830214510221366e-15 -2.764012333085225787e-14
2.135000000000000000e+03 3.881664657592773438e+01 1.466818332672119141e+01 1.068115915674313840e-14 2.333323963731037676e-13 7.320406352493216695e-14 -6.273615253595682395e-14
2.136000000000000000e+03 3.918201828002929688e+01 1.350249767303466797e+01 3.899695982258720439e-14 2.454677357644624580e-13 8.533940291629085739e-14 -6.595387484851361615e-14
2.137000000000000000e+03 1.411884689331054688e+01 1.818348884582519531e+01 2.370072894723480178e-14 3.303292969020210634e-14 1.702009708301130408e-14 9.851078557488596177e-14
2.138000000000000000e+03 2.388745880126953125e+01 1.069379806518554688e+00 8.376193618916949468e-14 -8.423258157598187412e-15 2.260160374828457108e-14 -5.387151906207157670e-14
2.139000000000000000e+03 2.646611595153808594e+01 1.858499908447265625e+01 4.443707297204120554e-14 2.477992041161752867e-13 8.767088482053084220e-14 -4.504646574374562840e-14
2.140000000000000000e+03 5.329536056518554688e+01 2.356062126159667969e+01 7.283132159429522856e-14 -3.099787374211734198e-15 2.091946068954152194e-14 1.260261833042550239e-13
2.141000000000000000e+03 5.179577636718750000e+01 2.424793434143066406e+01 -4.925219439103414865e-14 4.751833827679532996e-14 -5.201563684035246174e-16 -1.866856168825504862e-15
2.142000000000000000e+03 5.796448516845703125e+01 9.292156219482421875e+00 -7.259375934577649847e-14 -2.598663471908846390e-13 -9.973803467150377244e-14 -4.930713040689422080e-15
2.143000000000000000e+03 5.907719421386718750e+01 1.070282936096191406e+01 -9.626904172920988656e-14 -4.125815832099581637e-14 -4.125815832099581637e-14 1.818766220528650335e-13
2.144000000000000000e+03 2.538939094543457031e+01 -3.067927837371826172e+00 -3.710370904833407146e-14 7.560030618018742654e-14 1.154897998658895378e-14 -7.843881523039025749e-14
2.145000000000000000e+03 6.626830291748046875e+01 -3.453014373779296875e+00 -2.301628397420596439e-13 -2.816450143851984000e-13 -1.535423670801991380e-13 -4.812200510577631374e-14
2.146000000000000000e+03 1.756794548034667969e+01 2.007192802429199219e+01 2.964138266434157565e-14 2.185827202832307803e-13 7.446722681851355996e-14 3.124740329563135445e-15
2.147000000000000000e+03 1.698120498657226562e+01 1.953804588317871094e+01 -4.547752419873513086e-14 1.177624756607334455e-13 2.168548679385221001e-14 -3.616427497092969401e-14
2.148000000000000000e+03 5.970525741577148438e+01 1.263642406463623047e+01 -2.277290260933959726e-14 -3.300164503651503711e-13 -1.058368074170062956e-13 1.013575481141268386e-13
2.149000000000000000e+03 3.440577697753906250e+01 -1.539276409149169922e+01 4.630148905070390758e-15 1.392372003285180515e-13 4.316020468537323795e-14 -7.950281058488606334e-14
2.150000000000000000e+03 1.263402748107910156e+01 1.478434848785400391e+01 8.544152120841183584e-14 1.738706428182704156e-13 7.779364717512560201e-14 -1.659574543489816117e-14
2.151000000000000000e+03 2.275565910339355469e+01 2.052355259656906128e-01 1.014510673277672914e-13 2.264828271756821887e-13 9.838016631815577062e-14 -1.477143975441973928e-14
2.152000000000000000e+03 7.690979766845703125e+01 -6.310661792755126953e+00 1.096795112956287788e-13 -9.024734220564392673e-14 5.829651319918518690e-15 9.046153312108201616e-14
2.153000000000000000e+03 7.644597625732421875e+01 -5.893675804138183594e+00 -8.908691384416911330e-14 2.820765268498476308e-13 5.789688390170355525e-14 5.369548867497318800e-14
2.154000000000000000e+03 5.636037063598632812e+01 1.846164894104003906e+01 6.701335721146645108e-14 -1.703093910473615913e-14 1.499472441557955088e-14 5.188836082266508332e-14
2.155000000000000000e+03 4.020815277099609375e+01 8.831763267517089844e+00 -1.447966638083719726e-13 -6.205571402876849940e-14 -6.205571402876849940e-14 1.716215975485890083e-14
2.156000000000000000e+03 2.784582901000976562e+01 6.144138813018798828e+00 -2.403329102298578518e-14 1.727038108877143596e-13 4.460115680645151959e-14 -1.004472790751623212e-13
2.157000000000000000e+03 2.749823188781738281e+01 5.302740097045898438e+00 -5.615295825978777744e-14 2.046891844388609716e-13 4.456086853134831605e-14 -1.248464222627920783e-13
2.158000000000000000e+03 2.276113891601562500e+01 1.271592617034912109e+00 8.606100722471574094e-14 3.974272151066778058e-14 3.774111828180187755e-14 -1.028191102408777119e-14
2.159000000000000000e+03 2.218281555175781250e+01 8.432612419128417969e-01 4.572388203737814960e-14 8.857980538304333074e-14 4.029110419324737069e-14 -5.522694457239969712e-14
2.160000000000000000e+03 1.141304588317871094e+01 5.903388023376464844e+00 9.310544821011443317e-14 6.277780622817100142e-14 4.676497700911198818e-14 -3.613609926697222696e-14
2.161000000000000000e+03 1.168154525756835938e+01 5.229355812072753906e+00 6.387513402320715850e-14 4.499583011415876632e-15 2.051241561860667889e-14 -3.044361985066385869e-15
2.162000000000000000e+03 1.102625083923339844e+01 7.160480499267578125e+00 1.667576294335938042e-14 7.577317544032666219e-14 2.773468270095193894e-14 -1.118885190119593698e-13
2.163000000000000000e+03 2.456038475036621094e+01 2.531447649002075195e+00 -4.998792382088744490e-14 -2.142339616524688989e-14 -2.142339616524688989e-14 2.229317194713496819e-14
2.164000000000000000e+03 6.982907104492187500e+01 -5.291490077972412109e+00 -2.205885552887011658e-14 -2.839594878678575185e-13 -9.180550335783146942e-14 2.157325492834101521e-14
2.165000000000000000e+03 1.076425743103027344e+01 6.733520030975341797e+00 1.045898461696399828e-13 9.057517106128565310e-14 5.854950584690404858e-14 1.800648389074788192e-14
2.166000000000000000e+03 3.958060455322265625e+01 1.730042648315429688e+01 1.012376963402221441e-13 3.178932811431778305e-13 1.257392898568882034e-13 3.711655345594623567e-14
2.167000000000000000e+03 3.848117446899414062e+01 1.660119056701660156e+01 9.641380982429101354e-14 4.073277902038457965e-13 1.511224820413201164e-13 -1.541551852531422573e-14
2.168000000000000000e+03 3.976819610595703125e+01 -1.432395935058593750e+01 1.116871352346837654e-13 -1.808888325585678025e-13 -2.076050987479156895e-14 3.923121525447985369e-14
2.169000000000000000e+03 4.483531951904296875e+01 4.557779788970947266e+00 -1.587480520030392500e-14 -2.967896382214535445e-14 -1.366613036792160493e-14 -1.898966213768026046e-14
2.170000000000000000e+03 4.492733383178710938e+01 3.760977268218994141e+00 -2.373605869146477865e-14 -5.592354446822163372e-14 -2.389788094790592371e-14 -1.131669492273820743e-13
2.171000000000000000e+03 2.609421539306640625e+01 1.749303817749023438e+00 9.795056475983554556e-14 1.106052369918147926e-13 6.256673917024238585e-14 -4.273800280688022646e-14
2.172000000000000000e+03 4.936683654785156250e+01 3.146717309951782227e+00 -4.204890762297096296e-14 3.022356941540654818e-13 7.805603087713067212e-14 2.128738401914812006e-13
2.173000000000000000e+03 4.953435897827148438e+01 2.538430690765380859e+00 -1.093076163979390947e-13 -6.972159259438157064e-14 -5.370876337532255740e-14 2.214042344643799010e-13
2.174000000000000000e+03 4.042082595825195312e+01 1.839317512512207031e+01 4.817770938051954555e-14 1.121494864748766307e-13 4.809815943424521067e-14 4.035069804328439425e-14
2.175000000000000000e+03 3.817052459716796875e+01 1.218780136108398438e+01 -6.072302627087647342e-14 -1.458641726555329893e-14 -2.259283356914870006e-14 -5.585725228163772316e-14
2.176000000000000000e+03 5.687539672851562500e+01 2.364413452148437500e+01 2.976070588968718345e-14 -7.874731140604385171e-14 -1.469598097728064268e-14 1.465466779231126143e-14
2.177000000000000000e+03 2.156657600402832031e+01 2.066980171203613281e+01 6.820309968917984134e-14 1.436072669201010621e-13 6.354311066041062883e-14 -2.806913874237298295e-14
2.178000000000000000e+03 4.402907943725585938e+01 2.151726722717285156e+01 -4.986692347030627359e-14 1.501945134018897732e-13 3.009827901235412329e-14 4.757354788429736525e-14
2.179000000000000000e+03 2.388299369812011719e+01 1.910668182373046875e+01 7.712100306511791153e-15 3.305185875899087182e-15 3.305185875899087182e-15 2.014345484304628370e-14
2.180000000000000000e+03 2.330710792541503906e+01 2.057997512817382812e+01 3.787309617937946460e-14 -1.808188506964656522e-14 5.937363417623164538e-15 2.385441926386583193e-15
2.181000000000000000e+03 2.583372497558593750e+01 1.903067016601562500e+01 2.406023683510383898e-14 1.475643744567115001e-13 5.148738220169847557e-14 -2.300567742764044604e-14
2.182000000000000000e+03 5.605406951904296875e+01 2.186552429199218750e+01 1.949310125207853739e-14 -1.060231885467201318e-13 -2.595902551076612053e-14 4.338689780711280086e-14
2.183000000000000000e+03 7.607009887695312500e+01 3.691261672973632812e+01 -8.153649264553038123e-15 -2.322491699825735001e-13 -7.212084391066547751e-14 -1.502869213083034283e-14
2.184000000000000000e+03 7.438222503662109375e+01 3.565538024902343750e+01 3.621191888014685389e-14 -9.885798099183371046e-14 -1.879381795587969917e-14 -1.032777362301685528e-14
2.185000000000000000e+03 4.984515380859375000e+01 2.578950500488281250e+01 -1.062695328328359945e-14 1.212606946278393938e-13 3.319012545268534842e-14 -4.501809861034208188e-15
2.186000000000000000e+03 5.012382888793945312e+01 2.310275077819824219e+01 -2.901388371635664487e-14 -1.039364178490737034e-13 -3.988509080844228338e-14 -6.667919593751105156e-15
2.187000000000000000e+03 5.737915802001953125e+01 1.835863304138183594e+01 1.265942239274744918e-13 -3.724723031091684011e-14 2.680410011784636892e-14 -1.606793040634379999e-14
2.188000000000000000e+03 5.775203704833984375e+01 1.965243911743164062e+01 6.613724054093522708e-14 5.469055841745206967e-15 2.148188887245248285e-14 8.959782378916217316e-14
2.189000000000000000e+03 2.510921287536621094e+01 1.958840370178222656e+01 3.797217531728569462e-14 -2.947715991652791190e-14 2.548505509611929433e-15 -6.307138784768934192e-14
2.190000000000000000e+03 2.427043914794921875e+01 2.014284896850585938e+01 4.453145954741964674e-14 1.908491099259900653e-14 1.908491099259900653e-14 1.572761967319133425e-14
2.191000000000000000e+03 2.078953552246093750e+01 2.094768905639648438e+01 4.830848110318024247e-14 9.265897544955079695e-15 1.727231469558342808e-14 1.709128173189855548e-14
2.192000000000000000e+03 4.265411758422851562e+01 2.318077087402343750e+01 6.844687577139962897e-14 1.894626897860560155e-13 7.737286831198397774e-14 8.467744036820407647e-17
2.193000000000000000e+03 4.335667037963867188e+01 2.216653251647949219e+01 9.734646424998556757e-15 -8.732990323728415105e-14 -2.327857789071862554e-14 -5.502736836343353338e-15
2.194000000000000000e+03 3.862543869018554688e+01 2.129128646850585938e+01 1.634905555933981874e-14 1.814322346874175373e-13 5.933438690462061738e-14 3.266952206264391034e-14
2.195000000000000000e+03 6.648380756378173828e+00 3.929736709594726562e+01 -1.823797460710069318e-14 3.621462260931448962e-15 -4.384953619147478540e-15 -4.014041025566725263e-14
2.196000000000000000e+03 7.323284912109375000e+01 3.722226333618164062e+01 2.649838729245745234e-14 -1.487718639687357625e-13 -3.668204588279551370e-14 6.166714952267685068e-15
2.197000000000000000e+03 7.616691589355468750e+00 6.701290130615234375e+00 9.915020735863644408e-14 4.249294601084419032e-14 4.249294601084419032e-14 -4.885138517665699176e-14
2.198000000000000000e+03 1.166780567169189453e+01 8.174427032470703125e+00 6.047899269064072048e-14 9.454599375537803274e-14 4.650749593380562597e-14 -3.195749261465478941e-14
2.199000000000000000e+03 3.452316284179687500e+01 -1.371491527557373047e+01 9.426743511221219451e-14 2.805928232818555301e-13 1.124580775182203174e-13 3.474898456002142866e-14
2.200000000000000000e+03 3.587250137329101562e+01 -1.516850090026855469e+01 -1.369262979367645572e-14 1.700720524155409363e-14 9.943725284841729677e-16 6.916596608603706176e-14
2.201000000000000000e+03 7.076190948486328125e+01 -5.862548828125000000e+00 -2.551666831388660350e-13 -2.809232067888661755e-13 -1.608269723993305256e-13 1.479069145805811392e-13
2.202000000000000000e+03 7.488094329833984375e+01 -4.247994899749755859e+00 -1.131491276541718438e-13 -2.772472193230540727e-13 -1.171189068036732062e-13 -6.169247919593154328e-14
2.203000000000000000e+03 4.710261535644531250e+01 -1.176568794250488281e+01 -8.851157518507610233e-14 2.365721550948163276e-13 4.441817397292206759e-14 2.083145735445358915e-14
2.204000000000000000e+03 5.652763366699218750e+01 -5.178592681884765625e+00 -9.884418451918883242e-14 2.664571037772067719e-13 5.028387713265809744e-14 -7.281554645268556447e-14
2.205000000000000000e+03 7.242276763916015625e+01 -6.414272308349609375e+00 -4.232323787766410772e-14 -1.096404258073106763e-13 -4.558909876667925631e-14 7.038664220698417906e-14
2.206000000000000000e+03 7.155604553222656250e+01 -5.497570514678955078e+00 -2.640307677354014615e-13 -2.046579323112390769e-13 -1.406066018824758679e-13 1.272820417856992958e-13
2.207000000000000000e+03 5.501014709472656250e+01 2.975039243698120117e+00 -2.515805760331529806e-14 -3.767896097125328359e-13 -1.205843015500071558e-13 -3.053010318512794363e-14
2.208000000000000000e+03 5.777545547485351562e+01 6.651127338409423828e+00 8.285868990037066270e-16 -1.826486824198919612e-13 -5.454602833862912115e-14 9.727870500233701256e-14
2.209000000000000000e+03 5.357721710205078125e+01 2.433478116989135742e+00 7.214543497119016435e-14 3.740515926511922551e-13 1.338591103195937992e-13 -1.892398489701605652e-14
2.210000000000000000e+03 3.832778549194335938e+01 -1.371554279327392578e+01 8.919368065310462335e-14 1.297277579413377846e-13 6.567643428883815360e-14 2.074319855422876446e-13
2.211000000000000000e+03 4.048614120483398438e+01 -1.421259403228759766e+01 3.958995742456457301e-14 6.271807346473062816e-14 3.069240825034902365e-14 1.617885919636893877e-13
2.212000000000000000e+03 5.006610107421875000e+01 2.591578960418701172e+00 -9.732182914374762350e-14 4.158001254504078981e-13 9.554349363538258699e-14 2.634745449158620856e-13
2.213000000000000000e+03 2.670880699157714844e+01 3.154970645904541016e+00 -4.809292138249939008e-14 3.453963460728348700e-13 8.919102435778203386e-14 -4.424869284457184915e-14
2.214000000000000000e+03 7.368781280517578125e+01 -6.389598369598388672e+00 2.088183718009038042e-14 5.470030691964201941e-14 2.267464339932630940e-14 -6.864930309326625069e-14
2.215000000000000000e+03 2.628086853027343750e+01 3.728599786758422852e+00 -1.346651468722009914e-13 6.238260776003645702e-14 -2.168476003958346582e-14 4.853174882368110898e-14
2.216000000000000000e+03 2.721490669250488281e+01 3.535544633865356445e+00 -5.027003661429996217e-14 1.614594959467585689e-13 3.335683508923215079e-14 -8.458428998447259373e-14
2.217000000000000000e+03 4.987882232666015625e+01 -1.079011726379394531e+01 -4.196606441259770337e-14 1.192673889337247939e-13 2.319039837277766386e-14 -1.029492399125643901e-14
2.218000000000000000e+03 4.762667846679687500e+01 -1.130507469177246094e+01 -1.370435950593003327e-14 1.085040735103286191e-13 2.843991386250639686e-14 3.163671446126600784e-14
2.219000000000000000e+03 5.068107986450195312e+01 2.483964204788208008e+00 -2.821872476085809239e-15 9.029252633118226012e-14 2.624119590241905109e-14 1.935784025479739268e-13
2.220000000000000000e+03 7.247063446044921875e+01 -5.838008403778076172e+00 -3.352404616928372771e-14 -6.011840060059919777e-14 -2.809273369215169874e-14 1.223535433126504701e-13
2.221000000000000000e+03 7.182602691650390625e+01 -6.298666954040527344e+00 -1.280525029545218074e-13 -2.150079701952745115e-13 -1.029181419449388957e-13 1.627248954073207132e-13
2.222000000000000000e+03 3.648120498657226562e+01 -1.192785453796386719e+01 9.430211602920457459e-14 -5.335754878704008705e-15 2.668990991216112219e-14 -2.101956473731392966e-14
2.223000000000000000e+03 4.045789337158203125e+01 -1.351812362670898438e+01 1.112890229732106662e-13 -8.955755245471791470e-14 6.519440647328057087e-15 6.219212021459433193e-14
2.224000000000000000e+03 4.260517120361328125e+01 -1.373493385314941406e+01 -7.315295694502663149e-14 1.439968207606751038e-14 -1.762598144424819963e-14 -6.446103687721832509e-14
2.225000000000000000e+03 1.086841392517089844e+01 1.098645496368408203e+01 7.229082309438868148e-15 2.318529211935843604e-13 7.172460189793991581e-14 -6.127771765484721356e-15
2.226000000000000000e+03 3.795737457275390625e+01 1.505753898620605469e+01 5.625981993641337997e-14 9.273777492463386452e-14 4.469927710306145774e-14 1.592196968887293895e-13
2.227000000000000000e+03 2.790877342224121094e+01 1.398122596740722656e+01 1.782483530351694490e-13 -6.086069961799139838e-14 3.521629602515341517e-14 1.086488348291461681e-13
2.228000000000000000e+03 5.054754257202148438e+01 -1.049571418762207031e+01 1.781004000962066458e-14 2.363876238850592948e-13 7.625929781315127221e-14 -8.807865325760264041e-14
2.229000000000000000e+03 7.493271636962890625e+01 -6.240122318267822266e+00 -3.470718517814032344e-14 7.662739122697367899e-14 1.257606079821046996e-14 -1.005306406696993005e-13
2.230000000000000000e+03 4.750049209594726562e+01 -1.217993450164794922e+01 3.291722160147537990e-14 4.487413858469263550e-13 1.444975866390918462e-13 -6.278906837823769460e-14
2.231000000000000000e+03 2.763053321838378906e+01 -5.207564830780029297e+00 4.241696715547547958e-14 2.011824951422824803e-13 7.307984106101964028e-14 -7.414776664839070608e-14
2.232000000000000000e+03 3.010761070251464844e+01 -8.143182754516601562e+00 -7.419843277116366931e-14 -1.461767040961473030e-13 -6.611254106019329169e-14 -2.643464331979206161e-13
2.233000000000000000e+03 4.629573059082031250e+01 -1.250910854339599609e+01 -1.744842809191064770e-14 1.068994746238408067e-13 2.683531497601858440e-14 1.580022733742997287e-14
2.234000000000000000e+03 5.121730327606201172e+00 3.044796371459960938e+01 1.541319426690695993e-13 2.033093880965744504e-13 1.072323992296932149e-13 -5.806739502211763493e-14
2.235000000000000000e+03 7.500002288818359375e+01 3.045368003845214844e+01 -2.337552419966366923e-14 -1.015199819283559013e-13 -3.746865149959269226e-14 2.655924999784946283e-14
2.236000000000000000e+03 7.557392120361328125e+01 -5.117758274078369141e+00 -3.579226148862739432e-14 7.616235658640391204e-14 1.211102954577249202e-14 -7.737593795938482732e-14
2.237000000000000000e+03 3.432472991943359375e+01 -1.164536762237548828e+01 3.629066245105540267e-14 1.555314105045231543e-14 1.555314105045231543e-14 5.376329874459857827e-14
2.238000000000000000e+03 2.895880317687988281e+01 4.632993698120117188e+00 -1.135642822185436995e-13 2.258352874281652212e-13 3.368130291813917210e-14 -1.468090379081951613e-13
2.239000000000000000e+03 1.028518867492675781e+01 8.898883819580078125e+00 1.394226124525402288e-13 1.400159861371461784e-14 4.602726213403032784e-14 5.313328580282619673e-14
2.240000000000000000e+03 1.141026782989501953e+01 9.115448951721191406e+00 1.914412198374387114e-14 -1.061727474601509291e-13 -2.610858781232870685e-14 -1.853470549511692517e-14
2.241000000000000000e+03 2.964072799682617188e+01 -7.831396579742431641e+00 6.136632407739359141e-14 2.629985462808230590e-14 2.629985462808230590e-14 1.085618682623856746e-13
2.242000000000000000e+03 6.375656890869140625e+01 -3.573479890823364258e+00 1.586871503341316658e-14 -2.219538707557214274e-13 -6.182554468381340484e-14 -6.512443308150789312e-14
2.243000000000000000e+03 1.531716251373291016e+01 1.987750816345214844e+01 8.939705665187216987e-14 1.069394478026876316e-13 5.890094998111522484e-14 -4.621754300343332289e-14
2.244000000000000000e+03 5.997464179992675781e+00 6.195262432098388672e+00 -1.443242498167657262e-14 1.310675201184052785e-13 3.499052786339225396e-14 -4.472411210907495382e-14
2.245000000000000000e+03 5.231723308563232422e+00 6.247740745544433594e+00 3.557127398082053638e-14 2.439995633925912122e-13 8.387125764947392370e-14 -1.026359139550455518e-14
2.246000000000000000e+03 3.903666687011718750e+01 -1.439344120025634766e+01 9.442194069805495693e-14 8.621749147952328940e-14 5.419182965327347390e-14 7.540814489764152695e-14
2.247000000000000000e+03 3.265398025512695312e+01 -1.219496822357177734e+01 2.405434487392273807e-14 1.818750635122420856e-13 6.177882234644285764e-14 -1.487158378214725740e-13
2.248000000000000000e+03 2.032520294189453125e+01 2.154134750366210938e+01 1.880905777266669854e-14 7.668744925106579791e-14 2.864895142949339113e-14 -8.962666356695028758e-14
2.249000000000000000e+03 1.943351173400878906e+01 2.028180885314941406e+01 -4.245938148327629141e-15 1.811841014677170736e-13 5.308145077458602257e-14 3.962461462463442996e-14
2.250000000000000000e+03 1.159186458587646484e+01 6.771207809448242188e+00 1.255787737252517244e-13 -2.206862215756513756e-13 -2.853223367749353756e-14 -1.470309334353214759e-13
2.251000000000000000e+03 7.395266723632812500e+01 2.268155479431152344e+01 -1.516739547000912902e-14 -5.225126023045492674e-14 -2.022559671013921673e-14 -5.868297113433701417e-14
2.252000000000000000e+03 7.490157318115234375e+01 2.438108444213867188e+01 1.995945726404602105e-14 7.718047663647642498e-14 2.914197881490401820e-14 -7.663124014468600254e-15
2.253000000000000000e+03 5.104269409179687500e+01 -9.596363067626953125e+00 -3.758751393901499371e-14 1.440193857183899584e-13 3.192956085618613160e-14 -4.956588118458851722e-14
2.254000000000000000e+03 2.930817985534667969e+01 -1.045643043518066406e+01 9.096601239193952138e-14 1.848165853213581955e-13 8.273478337974746188e-14 1.089030768504622299e-14
2.255000000000000000e+03 3.104781150817871094e+01 -1.174864482879638672e+01 -5.372197200710204096e-15 1.349504817789448641e-13 3.887348274766826151e-14 7.416489704271597705e-14
2.256000000000000000e+03 1.843662261962890625e+01 2.109243011474609375e+01 5.681357280787856234e-14 1.844769996484085794e-13 7.238717139807296364e-14 5.646070227018420984e-14
2.257000000000000000e+03 7.372089385986328125e+01 3.066519546508789062e+01 5.508424323770987063e-14 -2.051472056466274729e-13 -4.501888973911481739e-14 -6.490225295131130112e-14
2.258000000000000000e+03 5.987579345703125000e+01 -5.654064655303955078e+00 -3.755861995111825502e-13 -4.658813685851602437e-14 -1.266522965063382467e-13 3.473603850845559393e-14
2.259000000000000000e+03 7.452812957763671875e+01 1.613692283630371094e+01 -7.944493451766607151e-14 -5.692330423212946244e-14 -4.091047162493866018e-14 -2.528213776569268600e-15
2.260000000000000000e+03 7.357047271728515625e+01 2.147865867614746094e+01 7.294645031248603306e-14 1.685156056580386363e-13 7.243861679115740082e-14 -1.693796470268738030e-13
2.261000000000000000e+03 3.158476829528808594e+01 -1.226904106140136719e+01 1.395601892378991668e-14 -3.976979945992560606e-14 -7.744133398511054284e-15 -1.106573938925749234e-13
2.262000000000000000e+03 5.018560886383056641e+00 2.763760757446289062e+01 -1.362973861378236062e-13 -1.499150602919316344e-13 -8.586373663943200341e-14 1.168295196913096690e-13
2.263000000000000000e+03 6.146532535552978516e+00 2.880335044860839844e+01 3.924744779388103511e-14 1.083222324772120659e-13 4.427090204844885690e-14 -9.257582900138242032e-14
2.264000000000000000e+03 7.489107513427734375e+01 2.588156127929687500e+01 4.770873434267915159e-14 -2.540590893045091558e-13 -6.190510479448310677e-14 -2.092757526517621813e-14
2.265000000000000000e+03 7.420426177978515625e+01 2.441747093200683594e+01 4.729861793027756445e-14 -1.627329591609785742e-13 -3.463030169158394511e-14 -8.580292645008272268e-14
2.266000000000000000e+03 7.455709838867187500e+01 1.534686279296875000e+01 5.093142026830685398e-14 2.182775275360714778e-14 2.182775275360714778e-14 2.599813979820442961e-14
2.267000000000000000e+03 7.508438873291015625e+01 1.944052124023437500e+01 -6.476430177738967675e-14 -5.063160448629672183e-14 -3.461877187910591958e-14 -3.240226283899444448e-14
2.268000000000000000e+03 7.436380767822265625e+01 1.855953216552734375e+01 -3.338005056825049666e-14 7.719616368665957462e-14 1.314483410492931284e-14 -1.013575481141268386e-13
2.269000000000000000e+03 7.475449371337890625e+01 9.053778648376464844e+00 4.320102150903552818e-14 -1.873645417418620673e-13 -4.324905844154021406e-14 -5.054579327247628318e-14
2.270000000000000000e+03 2.978080368041992188e+01 8.845470428466796875e+00 -2.212922024986442582e-14 -9.483951777665595995e-15 -9.483951777665595995e-15 1.197108869145776730e-14
2.271000000000000000e+03 7.487638854980468750e+01 -4.985916137695312500e+00 -2.440755422479599229e-14 3.529056726210046124e-14 3.264904165301224861e-15 -1.472159254310018150e-13
2.272000000000000000e+03 7.476648712158203125e+01 8.262310981750488281e+00 -1.334455414008992036e-13 -1.486928527354158813e-13 -8.464151553038909426e-14 1.619792218106666515e-13
2.273000000000000000e+03 6.135172367095947266e+00 2.289723968505859375e+01 -2.361818897465665923e-14 1.728817149116920748e-13 4.477905744229744578e-14 1.453355224524926353e-14
2.274000000000000000e+03 7.536725616455078125e+01 1.226317501068115234e+01 -7.922423838919306904e-14 -1.107777132286665023e-14 -2.709060393005745249e-14 5.796419252782417098e-14
2.275000000000000000e+03 2.995377731323242188e+01 -1.188362312316894531e+01 -4.866043769232450758e-15 2.009343890276363287e-13 5.882050217991680041e-14 3.053584945664211681e-14
2.276000000000000000e+03 7.486612701416015625e+01 1.957256197929382324e+00 -1.487227767153764812e-13 7.351451126449623508e-14 -2.256247760238500044e-14 -2.224633238040452099e-13
2.277000000000000000e+03 7.545552062988281250e+01 5.092533111572265625e+00 -7.600055296468760657e-14 -9.696191976226158776e-15 -2.570902373638401378e-14 1.169998207475528296e-13
2.278000000000000000e+03 7.484194183349609375e+01 2.693164110183715820e+00 -2.543969267014556390e-13 -1.752535562418028325e-14 -8.157668605294349229e-14 2.573235441188318623e-14
2.279000000000000000e+03 7.549813842773437500e+01 -1.939371466636657715e+00 -1.688916611815652336e-13 -2.663119020012566507e-14 -5.865685541450726959e-14 -5.328884170952355448e-14
2.280000000000000000e+03 7.493134307861328125e+01 2.652458381652832031e+01 7.189134541580460835e-14 -6.069132013359485045e-14 3.360007330553043195e-15 -1.144713935186808529e-13
2.281000000000000000e+03 7.325512695312500000e+01 2.485581207275390625e+01 1.952408402322320519e-14 -2.832948448310695921e-13 -7.913122739532096883e-14 -8.857824684242038282e-14
2.282000000000000000e+03 4.670560359954833984e+00 2.178607749938964844e+01 -2.875704808015609043e-15 1.360203995878078720e-13 3.994340733279484745e-14 8.750517807099358891e-14
2.283000000000000000e+03 5.395345687866210938e+00 2.237552452087402344e+01 -5.993231762648279504e-14 2.945713605765482024e-13 7.039171085214054879e-14 1.605700435895057732e-13
2.284000000000000000e+03 7.503576660156250000e+01 2.027274131774902344e+01 -2.786759064070561120e-14 -1.194325349474509648e-14 -1.194325349474509648e-14 5.213117806358857909e-14
2.285000000000000000e+03 7.379023742675781250e+01 1.605155563354492188e+01 2.161603686844093541e-14 -1.279888331819425962e-13 -3.191183753879778262e-14 4.599874084063038104e-14
2.286000000000000000e+03 7.545429992675781250e+01 -1.146121144294738770e+00 -2.487736308186966339e-13 -6.086631714049758890e-14 -9.289198235487919342e-14 -1.787912130629329410e-13
2.287000000000000000e+03 7.348205566406250000e+01 -4.967990398406982422e+00 -1.907582910533854592e-14 1.470011958026092719e-14 -1.312712603413401444e-15 1.264441889815273376e-14
2.288000000000000000e+03 7.457976531982421875e+01 1.456469440460205078e+01 -3.716369338055977925e-15 2.128274465028941881e-14 5.269912466615090177e-15 3.000560344352913578e-14
2.289000000000000000e+03 7.545114898681640625e+01 5.894484996795654297e+00 -8.716305807546578799e-14 -1.974839156137012108e-13 -8.539409413962917306e-14 2.377428223905575511e-13
2.290000000000000000e+03 7.310041046142578125e+01 2.341902732849121094e+01 -8.866711753924630401e-14 7.750757196158582912e-15 -2.427490717119007435e-14 -8.626032424160004486e-14
2.291000000000000000e+03 7.484066009521484375e+01 1.220521688461303711e+00 -2.963664199034238278e-13 1.932424625048292932e-13 -3.093719399584193841e-14 -1.244895164601370063e-14
2.292000000000000000e+03 2.961458015441894531e+01 1.105430698394775391e+01 7.857115735213516389e-16 2.290914853653180927e-13 6.896315929341007012e-14 -6.877527637428075200e-15
2.293000000000000000e+03 2.910240936279296875e+01 9.237999916076660156e+00 4.441745907711458496e-14 2.477908015493385241e-13 8.766247547743050150e-14 -1.523341999418170722e-13
2.294000000000000000e+03 7.534793090820312500e+01 1.305391311645507812e+01 1.062529309870698102e-13 2.266149744798492266e-14 3.867432836110983041e-14 -4.926425275207126087e-14
2.295000000000000000e+03 7.473279571533203125e+01 9.843843460083007812e+00 -3.154124029558329212e-14 -5.926862326659579350e-14 -2.724295974628008349e-14 1.624903282673034743e-13
2.296000000000000000e+03 5.241291427612304688e+01 -1.001293563842773438e+01 7.972371677752998487e-14 2.328979836676431381e-13 9.378651690981551492e-14 -7.580579637319131980e-14
2.297000000000000000e+03 7.542746734619140625e+01 -3.596411347389221191e-01 -2.042444718127617298e-13 2.327232915926014112e-13 8.543648644457335628e-15 -1.391497865283614077e-13
2.298000000000000000e+03 7.413945007324218750e+01 -3.477366924285888672e+00 -1.907799683205715913e-13 -2.190156828682857104e-13 -1.229387007776680529e-13 -3.074922044418726408e-14
2.299000000000000000e+03 7.545388031005859375e+01 6.697033405303955078e+00 1.075107325620950835e-14 1.418604545899010416e-13 4.578345555862443905e-14 1.209448123248857421e-13
2.300000000000000000e+03 7.480040740966796875e+01 3.449140548706054688e+00 -1.385807565706595468e-13 -1.051427011861810756e-13 -7.311703597179947112e-14 6.217728019735843659e-14
2.301000000000000000e+03 7.476639556884765625e+01 7.470347404479980469e+00 6.766595226337086908e-16 2.290447291466296553e-13 6.891642340351236684e-14 1.304131092396201841e-13
2.302000000000000000e+03 7.470463562011718750e+01 4.567427933216094971e-01 -2.674379543776000956e-13 -6.886531682360683138e-14 -1.008909752617248579e-13 -1.710130213166457386e-14
2.303000000000000000e+03 7.396247863769531250e+01 1.134916591644287109e+01 1.118122589416521706e-13 -4.358235913002120321e-14 2.046896960467611132e-14 -9.135408223078997358e-14
2.304000000000000000e+03 7.459980773925781250e+01 1.378588867187500000e+01 3.813364351395488738e-14 -1.895362800085134691e-13 -4.542078993192803782e-14 5.263425464788543118e-14
2.305000000000000000e+03 2.793385696411132812e+01 -6.891815185546875000e+00 8.325340471269232490e-14 -1.007091765802556674e-14 2.195474670932309053e-14 -1.067085127399482192e-13
2.306000000000000000e+03 4.650311470031738281e+00 2.100409317016601562e+01 8.174703115489991012e-15 3.503444313357560042e-15 3.503444313357560042e-15 4.101749900238456934e-16
2.307000000000000000e+03 5.442718982696533203e+00 2.311609458923339844e+01 5.560644243782393581e-14 2.525860651279160374e-13 9.245775260853517086e-14 -7.209274443967326335e-15
2.308000000000000000e+03 5.541102600097656250e+01 -7.524615287780761719e+00 1.227958147897957250e-14 2.340174224107344214e-13 7.388910311508997686e-14 1.202756427440276887e-13
2.309000000000000000e+03 5.430397415161132812e+01 -7.340488910675048828e+00 1.593582037162644127e-14 3.270862855737910468e-13 1.029066290731198152e-13 5.909409382187993942e-14
2.310000000000000000e+03 7.398875427246093750e+01 2.707647514343261719e+01 3.749819092659523873e-15 -6.701936098099658956e-14 -1.898086146535828828e-14 -6.975388149033090457e-14
2.311000000000000000e+03 2.841431808471679688e+01 -6.392801284790039062e+00 1.581561758726840461e-13 2.965359620181462486e-13 1.364076359462382260e-13 -4.670273364001595318e-14
2.312000000000000000e+03 5.166670799255371094e+00 1.799958419799804688e+01 -2.117132932453937716e-14 1.281794223713383918e-13 3.210242672819357823e-14 4.594740386776319241e-14
2.313000000000000000e+03 7.422588348388671875e+01 2.110996246337890625e+01 1.253696040211249585e-13 9.948078060102727438e-14 6.745511538664566986e-14 1.442634667324707576e-14
2.314000000000000000e+03 7.419764709472656250e+01 2.028290557861328125e+01 7.706604756750005253e-15 -8.819906746138431175e-14 -2.414773872668699722e-14 -1.061266011051845148e-13
2.315000000000000000e+03 4.584082126617431641e+00 1.474233722686767578e+01 -3.223456386796524908e-14 2.606908829430598651e-13 6.853689843303381601e-14 5.037890745307645191e-14
2.316000000000000000e+03 5.299742698669433594e+00 1.719154548645019531e+01 3.400407668115168480e-14 5.407090790734980779e-13 1.724139494369003600e-13 6.073593844112441797e-15
2.317000000000000000e+03 6.044553279876708984e+00 1.970063781738281250e+01 -5.979179147240151759e-14 1.573787351523761591e-13 2.927608445924510805e-14 -1.032900503951557358e-13
2.318000000000000000e+03 4.530862331390380859e+00 1.799381256103515625e+01 4.648440242753168472e-14 3.173030414804767219e-13 1.091362379157870266e-13 -2.395670060982915683e-14
2.319000000000000000e+03 1.117968559265136719e+01 1.149247932434082031e+01 -3.175745053756763581e-14 7.789156418382819913e-14 1.384023290803204284e-14 1.784243393765545804e-14
2.320000000000000000e+03 1.006210708618164062e+01 1.239769077301025391e+01 1.021953653429150122e-13 4.098055987437898562e-13 1.536002905812641761e-13 -8.303719785883977023e-15
2.321000000000000000e+03 5.977906227111816406e+00 1.045717430114746094e+01 -2.468750539012711659e-14 3.096762755082360652e-13 8.549663256009198964e-14 -6.226993882552447901e-14
2.322000000000000000e+03 4.544965267181396484e+00 1.391969966888427734e+01 -2.543516273794364790e-14 3.093558666612122865e-13 8.517621016054105487e-14 -6.967421295944395410e-14
2.323000000000000000e+03 7.396333694458007812e+00 1.109882259368896484e+01 3.880054304651429919e-14 6.237975495307010454e-14 3.035408973868850002e-14 9.351145481865594244e-14
2.324000000000000000e+03 4.438177108764648438e+00 1.233962154388427734e+01 7.524388149224639499e-14 3.525040231499437793e-13 1.283243666492725477e-13 9.733020460553007402e-14
2.325000000000000000e+03 5.067381858825683594e+00 1.225417900085449219e+01 -8.028554356704839523e-14 1.485957082207611801e-13 2.049304905730065657e-14 1.043114298280092833e-14
2.326000000000000000e+03 5.138072967529296875e+00 1.931328010559082031e+01 -5.805017653636584951e-14 6.662325449354258855e-14 2.571922794229958634e-15 -4.402860742685381704e-15
2.327000000000000000e+03 6.397116184234619141e+00 2.019188308715820312e+01 1.114589902984726086e-14 5.423504527424238830e-13 1.660489101903625531e-13 1.343939404750173205e-14
2.328000000000000000e+03 5.264143466949462891e+00 1.377186489105224609e+01 -8.146211976462966464e-14 1.480914593428653281e-13 1.998880187347069903e-14 -4.289655382207907541e-14
2.329000000000000000e+03 5.321907997131347656e+00 1.548641967773437500e+01 6.518497899657763051e-15 3.459257619936595418e-13 1.057332796620610860e-13 -4.859750907357414385e-14
2.330000000000000000e+03 7.479828643798828125e+01 2.723747634887695312e+01 -8.036621498494489479e-15 -4.919521617873824637e-14 -1.716955096435664185e-14 -8.942620136152129584e-14
2.331000000000000000e+03 5.107897758483886719e+00 2.590079498291015625e+01 -6.226367755797837522e-14 -9.531085773048508791e-14 -4.727235990891268114e-14 -3.943963702851419409e-15
2.332000000000000000e+03 6.171984481811523438e+01 -3.524700880050659180e+00 2.526020638862237766e-14 3.942014425929903088e-14 1.940410519437642256e-14 -1.184749320133279826e-13
2.333000000000000000e+03 6.118743133544921875e+01 -3.923868417739868164e+00 -1.441380923037499651e-13 -2.161829200895970526e-13 -1.080963050732568209e-13 5.626474289190282196e-14
2.334000000000000000e+03 5.837744712829589844e+00 2.686071014404296875e+01 7.721175417508673727e-15 9.481097276633349002e-14 3.075964572570207001e-14 6.928444227843541525e-14
2.335000000000000000e+03 2.962767601013183594e+01 1.047902870178222656e+01 1.411695738605389661e-13 5.180107102813191755e-13 1.977540852425574425e-13 -3.438676574320470407e-15
2.336000000000000000e+03 4.601225852966308594e+00 6.946557998657226562e+00 -1.078876029313169393e-13 1.367662493673149626e-13 8.663592744953280828e-15 -1.483650848661463573e-13
2.337000000000000000e+03 5.773565769195556641e+00 2.458222961425781250e+01 -8.554291613439585912e-15 8.783577164217515332e-14 2.378444460154373330e-14 7.779038779234456746e-14
2.338000000000000000e+03 6.293628692626953125e+00 2.510415077209472656e+01 -6.701799895201740465e-14 5.134216009695762029e-14 -4.702752334144293112e-15 3.233110868329329424e-14
2.339000000000000000e+03 2.921369361877441406e+01 -7.416967868804931641e+00 -7.953575000213888857e-14 -3.408675048493549353e-14 -3.408675048493549353e-14 1.673359327080022052e-14
2.340000000000000000e+03 6.002009201049804688e+01 -4.707085609436035156e+00 -2.386109430700666945e-13 -1.022618337123519516e-13 -1.022618337123519516e-13 -1.019100575412254517e-14
2.341000000000000000e+03 1.321100997924804688e+01 1.830797386169433594e+01 -1.057004706878821379e-14 6.409640613408429388e-14 1.605790661844599260e-14 7.144828619801840697e-14
2.342000000000000000e+03 1.285593318939208984e+01 1.605912208557128906e+01 7.357311916818265463e-14 3.153133678636399484e-14 3.153133678636399484e-14 -6.115821147038499883e-14
2.343000000000000000e+03 8.271668434143066406e+00 6.612967967987060547e+00 1.831514947299092699e-14 2.366040848487960258e-13 7.647577232941515923e-14 1.333582817607389601e-14
2.344000000000000000e+03 1.149518299102783203e+01 1.191932487487792969e+01 -8.069176701602440160e-14 1.055300933986737244e-13 7.451499608860691348e-15 1.132118894074315985e-13
2.345000000000000000e+03 5.631486129760742188e+01 -6.152758121490478516e+00 -9.658803433714585607e-14 1.873598661199932236e-13 2.723155190654646257e-14 -8.048497578041352574e-14
2.346000000000000000e+03 5.743333053588867188e+01 -6.296304225921630859e+00 -1.153473204538318919e-13 3.851994407038511481e-13 8.095564149601663928e-14 -1.042569689976326208e-13
2.347000000000000000e+03 5.497953033447265625e+01 -6.958840370178222656e+00 -1.141679524356564723e-13 1.340746768165382297e-13 5.972017229561232474e-15 -6.579412274059556059e-15
2.348000000000000000e+03 5.863195419311523438e+01 1.733503723144531250e+01 -8.522802824812228395e-14 -2.652810425756574331e-13 -1.051527232800129885e-13 -4.779291586510907297e-14
2.349000000000000000e+03 6.712793350219726562e+00 3.134279251098632812e+01 2.177939564264839978e-14 1.923378177646345444e-13 6.423516368337170435e-14 -9.998005570145684917e-14
2.350000000000000000e+03 5.551058769226074219e+00 3.400817108154296875e+01 -1.075625625081375741e-14 -4.609824349501023821e-15 -4.609824349501023821e-15 -2.013835909283560183e-14
2.351000000000000000e+03 6.943029880523681641e+00 3.035948944091796875e+01 1.007453398049057425e-13 1.575539422234498166e-13 7.748978596375938332e-14 -7.424300703297997961e-14
2.352000000000000000e+03 5.929438018798828125e+01 1.475081634521484375e+01 -5.797722328268473113e-14 -2.764775984109152374e-13 -1.003364465080799905e-13 -6.775793305342087125e-14
2.353000000000000000e+03 5.840881347656250000e+01 1.450206756591796875e+01 2.256849831257408401e-14 -5.895421141283857525e-14 -1.091571359126616847e-14 2.135142377571869199e-13
2.354000000000000000e+03 5.875189971923828125e+01 -5.492276668548583984e+00 -1.813897475147832616e-13 -2.054977824191006608e-14 -6.058185637175528271e-14 1.681500838362440936e-14
2.355000000000000000e+03 5.809077835083007812e+01 7.611022472381591797e+00 2.644277449727252399e-14 -2.631730825018024911e-13 -7.101909121551286397e-14 1.648066415055240291e-14
2.356000000000000000e+03 2.972292709350585938e+01 9.891135215759277344e+00 -1.877294536999345870e-14 1.749582466750720933e-13 4.685558920567746422e-14 -3.549045009699353104e-14
2.357000000000000000e+03 2.896902275085449219e+01 1.104903793334960938e+01 3.398477788248144282e-14 3.348215530784431904e-13 1.106418965777719587e-13 3.843227344983886351e-14
2.358000000000000000e+03 5.939517974853515625e+01 -5.098145008087158203e+00 -1.507075172123284457e-13 3.071375348061983201e-13 4.692900324528188893e-14 -1.275043709936946046e-13
2.359000000000000000e+03 5.697769546508789062e+01 -5.740951538085937500e+00 -4.230566702620626451e-14 1.763105313872317947e-13 4.020145761424176456e-14 -1.624108257548741857e-14
2.360000000000000000e+03 6.965009307861328125e+01 -3.692513942718505859e+00 -2.241933445530988611e-13 -1.875847567556210294e-13 -1.235334263268578203e-13 -5.511907323250096746e-14
2.361000000000000000e+03 4.593163681030273438e+01 3.003999471664428711e+00 1.206143576671075274e-14 -1.320836614995130054e-13 -3.600666585636819184e-14 1.395598588950497376e-13
2.362000000000000000e+03 3.732066726684570312e+01 1.611361312866210938e+01 8.747954346587788477e-14 4.263742950285503985e-13 1.541561474825703382e-13 -7.564180401833930922e-15
2.363000000000000000e+03 6.044414520263671875e+01 1.143963718414306641e+01 -1.874055144195866524e-14 -3.090713787874156682e-14 -1.489430696561665907e-14 1.442982289646260741e-13
2.364000000000000000e+03 4.140336227416992188e+01 6.114295959472656250e+00 9.239634610799102310e-14 1.311003307866501211e-13 6.704900035788691204e-14 1.094156368156365411e-13
2.365000000000000000e+03 4.310403823852539062e+01 4.255634784698486328e+00 -1.330711934957942710e-13 3.447138475815188230e-14 -2.957994567061132674e-14 1.409005849956112069e-14
2.366000000000000000e+03 4.391307449340820312e+01 -1.270149612426757812e+01 2.807738206701566180e-14 1.492860061914555447e-13 5.320901732457430922e-14 -6.402781001788385162e-14
2.367000000000000000e+03 1.122854614257812500e+01 1.609962654113769531e+01 1.331989260642402195e-13 2.858400094309793138e-13 1.257116698065441351e-13 1.120397516624939416e-13
2.368000000000000000e+03 6.273717880249023438e+01 -3.547142982482910156e+00 1.229910135324904785e-13 -6.738580776276953399e-14 1.668156173091628336e-14 -8.954597859652663194e-14
2.369000000000000000e+03 6.070706558227539062e+01 -3.360489368438720703e+00 -2.563689888092531011e-14 2.806750600166385556e-13 7.651144935715351036e-14 -6.842770572173736965e-14
2.370000000000000000e+03 4.184714508056640625e+01 -1.320904159545898438e+01 7.956847935522079474e-14 7.985172717278263277e-14 4.782606195840102825e-14 -1.333478818902125718e-13
2.371000000000000000e+03 4.085937881469726562e+01 5.809133529663085938e+00 -1.195017290689121686e-14 -2.338762592878768087e-13 -7.374792643970520811e-14 -5.695783607132312576e-14
2.372000000000000000e+03 4.078215789794921875e+01 7.010749340057373047e+00 -9.775167464755665780e-14 -8.764452515521228837e-14 -5.561885994083068385e-14 9.021061485705098026e-14
2.373000000000000000e+03 2.441554260253906250e+01 -6.435006856918334961e-01 -1.484719054616740180e-15 2.277530987697569398e-14 6.387177299647245343e-15 -1.065788895939639991e-13
2.374000000000000000e+03 2.446349906921386719e+01 1.498901009559631348e+00 -5.008013479214086343e-16 1.713514313078645657e-13 5.125518675393354873e-14 -4.139365309937040327e-14
2.375000000000000000e+03 4.396336746215820312e+01 4.401072025299072266e+00 -4.407107342366441138e-14 -1.103895010882809113e-13 -4.633817065951770231e-14 -7.881351550120124783e-14
2.376000000000000000e+03 4.725863647460937500e+01 2.418965339660644531e+00 -5.037043034734033087e-14 3.444202659620004825e-13 8.821495102321122439e-14 2.154850869138039138e-13
2.377000000000000000e+03 2.490710639953613281e+01 -2.401878833770751953e+00 4.695786673999252647e-14 -7.039825502869103552e-15 1.197541279465350050e-14 -3.819116975656766319e-15
2.378000000000000000e+03 2.617298316955566406e+01 2.758128166198730469e+00 -5.218495787947564912e-14 -2.236498170633729327e-14 -2.236498170633729327e-14 1.257852397002108547e-14
2.379000000000000000e+03 2.768665122985839844e+01 3.898717641830444336e+00 3.870914819150556019e-14 1.080915345836978847e-13 4.404020415493467566e-14 -1.186785722863750725e-13
2.380000000000000000e+03 4.799092483520507812e+01 2.755620002746582031e+00 2.045546112323329974e-14 8.883078463344656894e-14 3.278587389641055005e-14 6.977434580633656847e-14
2.381000000000000000e+03 6.699000549316406250e+01 -3.018509387969970703e+00 -1.016157644140314176e-13 2.201335503652598370e-15 -2.982432822842134845e-14 -1.526028923452132924e-13
2.382000000000000000e+03 5.843796157836914062e+01 6.935474395751953125e+00 -3.837096859324838627e-14 -1.308220702990817164e-13 -5.075791065125949408e-14 2.344683082129532525e-14
2.383000000000000000e+03 1.064663028717041016e+01 6.308578491210937500e+00 7.593142829992807763e-14 -1.320890875925731164e-14 1.881675560809134562e-14 3.977400751960756542e-14
2.384000000000000000e+03 3.881623077392578125e+01 9.720599174499511719e+00 -1.718169572275437401e-14 -9.886548231561459454e-14 -3.481415188685138551e-14 1.007273013912610149e-13
2.385000000000000000e+03 2.810280609130859375e+01 1.533845710754394531e+01 8.142902449331454462e-14 8.064910366053709700e-14 4.862343844615549249e-14 4.062138266817255650e-14
2.386000000000000000e+03 2.854402351379394531e+01 1.713524436950683594e+01 -1.589526782224369439e-14 -7.543867874132414997e-14 -2.740018430788353221e-14 -8.482116105410636431e-14
2.387000000000000000e+03 2.890230369567871094e+01 -5.906473636627197266e+00 -9.239109450371804644e-14 -8.534713463303339465e-14 -5.332146941865179013e-14 2.134560296530516044e-14
2.388000000000000000e+03 6.986752319335937500e+01 -4.326387405395507812e+00 -4.685206216048509731e-14 -1.344568309772850578e-13 -5.439266794133104654e-14 -1.040330405914328959e-13
2.389000000000000000e+03 2.495538139343261719e+01 -1.978071033954620361e-01 7.600719370299408029e-14 7.832546189325689800e-14 4.629979667887529349e-14 6.122346688864147013e-14
2.390000000000000000e+03 3.837822341918945312e+01 1.395009326934814453e+01 2.344145385614615495e-14 5.579728573710390771e-14 2.377162221678819770e-14 3.451800545156875899e-14
2.391000000000000000e+03 1.211630916595458984e+01 1.682912445068359375e+01 1.321822696871005620e-13 1.939023892621669076e-13 9.782539361902209407e-14 7.714938036291682510e-14
2.392000000000000000e+03 1.196166419982910156e+01 1.541905689239501953e+01 8.564435510609313962e-14 3.670472603699119485e-14 3.670472603699119485e-14 7.449454871326019467e-14
2.393000000000000000e+03 3.826181030273437500e+01 1.579589080810546875e+01 -4.302439481074227245e-14 -1.099409259919421900e-13 -4.588959556317898092e-14 -1.756925225963879011e-14
2.394000000000000000e+03 3.944562149047851562e+01 1.635009574890136719e+01 -8.246506945461685306e-15 4.221673195487635200e-14 1.019106758752769473e-14 -4.160786434359922681e-14
2.395000000000000000e+03 2.544282913208007812e+01 -1.949075818061828613e+00 -5.571197257865645458e-14 1.777135567610638178e-13 3.660047660997492458e-14 -6.368397562767080800e-14
2.396000000000000000e+03 3.389207839965820312e+01 -1.130000782012939453e+01 8.096718486102182089e-15 1.864738154470566012e-13 5.837116136579376113e-14 -1.226758901710575667e-13
2.397000000000000000e+03 3.030109596252441406e+01 -9.108444213867187500e+00 1.057224511928633870e-14 -1.834451271714044457e-14 -2.331680109949642310e-15 -2.524757746619199494e-13
2.398000000000000000e+03 2.332311439514160156e+01 -4.357679188251495361e-01 -2.101520421170146452e-14 1.282463311979079035e-13 3.216933894289487894e-14 -5.114093895000788870e-14
2.399000000000000000e+03 2.440298652648925781e+01 -1.740287542343139648e+00 5.081764637931518273e-16 2.309326402251832971e-14 7.080432262360474710e-15 -1.288298488071396020e-13
2.400000000000000000e+03 4.140524291992187500e+01 5.493337154388427734e+00 -2.246442100265269581e-13 -5.052513922109043432e-14 -8.255080104734024982e-14 -3.437044892402527085e-14
2.401000000000000000e+03 6.033791542053222656e+00 1.621109580993652344e+01 -1.058585795518825201e-13 2.748886730220834185e-13 5.070903007393934292e-14 4.806970251534925520e-14
2.402000000000000000e+03 1.309348011016845703e+01 1.750857734680175781e+01 -1.872758347341532030e-16 2.744254205388346746e-13 8.227144958133578156e-14 7.847237806389226189e-14
2.403000000000000000e+03 2.851639747619628906e+01 1.316318416595458984e+01 9.282898343239420758e-14 -5.171804960202655566e-14 1.233327997970370613e-14 1.369175091229038466e-13
2.404000000000000000e+03 2.882645034790039062e+01 1.537804412841796875e+01 1.492657383870936438e-14 5.214805095989788475e-14 2.012238743958217474e-14 -1.454115182485202912e-14
2.405000000000000000e+03 2.681141090393066406e+01 -3.930345535278320312e+00 1.633324280946729656e-13 2.072524552150512012e-13 1.111754663481699656e-13 -4.590097629785828970e-14
2.406000000000000000e+03 2.708800506591796875e+01 1.845326995849609375e+01 -1.423188484921643349e-14 1.311534702456290669e-13 3.507647460248425331e-14 -1.580511844448059811e-13
2.407000000000000000e+03 2.681316184997558594e+01 1.910718154907226562e+01 5.851201108646088972e-15 1.268930435987386529e-13 3.982327434395166454e-14 -7.124127134570945596e-14
2.408000000000000000e+03 5.989958953857421875e+01 1.598622894287109375e+01 2.101956643137982417e-14 9.008385129429669069e-15 9.008385129429669069e-15 -6.286122457391544668e-15
2.409000000000000000e+03 1.333495903015136719e+01 1.916182708740234375e+01 8.934904004815821810e-14 8.404339507314673163e-14 5.201772985876512712e-14 1.264697033079645316e-13
2.410000000000000000e+03 5.565395355224609375e+00 3.297790908813476562e+01 -4.539057118450179340e-14 4.917332207111761722e-14 1.134824461303447253e-15 2.766277976812541589e-14
2.411000000000000000e+03 5.181946754455566406e+00 3.504469299316406250e+01 4.115640933523984080e-14 -5.237013283427259525e-15 1.077581847673059548e-14 -2.681214693084528478e-14
2.412000000000000000e+03 3.580731201171875000e+01 -1.431551742553710938e+01 1.480232088161073656e-13 1.320649454595104744e-13 8.402644086167448956e-14 3.944160807418245485e-14
2.413000000000000000e+03 3.677768707275390625e+01 -1.360238838195800781e+01 1.593846311442187469e-13 6.830769809377038038e-14 6.830769809377038038e-14 6.378353926842286747e-14
2.414000000000000000e+03 1.114932632446289062e+01 6.418257713317871094e+00 8.721878606713154292e-14 1.288813755153869756e-13 6.483005186288734456e-14 -4.784026500686058836e-14
2.415000000000000000e+03 1.062290573120117188e+01 7.970686435699462891e+00 7.704510721897803172e-14 -1.499844627834978628e-13 -2.188180700816912821e-14 2.100804000703358765e-14
2.416000000000000000e+03 2.948223876953125000e+01 8.077170372009277344e+00 1.352323167455506819e-14 1.659239965475650669e-13 5.383416829722945107e-14 1.256889489947669858e-14
2.417000000000000000e+03 5.838792037963867188e+01 1.795816230773925781e+01 3.640559804573423319e-14 4.991561092411445077e-14 2.589636201332824739e-14 5.959043480018022532e-14
2.418000000000000000e+03 5.748513412475585938e+01 2.084094619750976562e+01 -3.288906961444043597e-14 -1.742236319405773837e-13 -6.213381046650534589e-14 4.198979488764797985e-14
2.419000000000000000e+03 2.331627655029296875e+01 6.375184655189514160e-01 -2.132254164628321486e-14 1.374077717927746356e-13 3.482556989098037348e-14 -2.681422385563195232e-14
2.420000000000000000e+03 1.068385505676269531e+01 5.784404754638671875e+00 8.096338676528633260e-14 1.262004959085363809e-13 6.214916547977317185e-14 5.619199970239262265e-14
2.421000000000000000e+03 5.431103515625000000e+01 2.246560096740722656e+01 3.673945438782862116e-14 1.002661190565353605e-14 1.402982005745123661e-14 3.531553101712193998e-14
2.422000000000000000e+03 5.361887741088867188e+01 -7.693276882171630859e+00 -1.407937622825011781e-13 4.200447769556886479e-13 8.377530575720895656e-14 -3.323216539192347385e-14
2.423000000000000000e+03 2.632958030700683594e+01 1.972483444213867188e+01 2.431824645896928788e-14 5.331361911729663727e-14 2.328955882584683029e-14 -7.154711800230403873e-14
2.424000000000000000e+03 2.113893890380859375e+01 2.168406677246093750e+01 8.486391250102018335e-14 1.507476191401832533e-13 7.068346288049282000e-14 3.210788077334094867e-15
2.425000000000000000e+03 2.483419799804687500e+01 2.123650360107421875e+01 2.592540677308959735e-14 -5.751553611632251317e-14 -9.477038294750106395e-15 3.265866310026011021e-14
2.426000000000000000e+03 4.386541366577148438e+01 2.413554000854492188e+01 -2.349404782590706897e-14 3.568207266658497689e-14 3.656407028686898750e-15 7.777703855309583969e-14
2.427000000000000000e+03 4.794630813598632812e+01 2.531035995483398438e+01 1.468637054146109538e-14 1.092337957825199879e-13 3.717604905016137773e-14 2.376679412898884819e-14
2.428000000000000000e+03 4.046940994262695312e+01 2.118450164794921875e+01 1.307447954833037065e-14 2.561938901583966921e-14 1.160816048454771723e-14 6.214062738766484850e-14
2.429000000000000000e+03 7.407873535156250000e+01 3.192870712280273438e+01 -4.131195846567362051e-14 -6.345607633101435496e-14 -3.143041111663275045e-14 7.274435502753473504e-14
2.430000000000000000e+03 7.352906036376953125e+01 3.287265396118164062e+01 4.821267151245041405e-14 -1.365063728828337652e-14 1.036861077546987961e-14 6.817894823875477947e-15
2.431000000000000000e+03 7.438580322265625000e+01 3.821147155761718750e+01 2.231482549739857713e-14 -8.193840300273896871e-14 -1.788707257397575967e-14 3.049073648187135277e-14
2.432000000000000000e+03 5.937927246093750000e+00 3.782305145263671875e+01 -2.975031067784200504e-15 -9.277690784679701319e-14 -2.872558419429738219e-14 4.325912796921717318e-14
2.433000000000000000e+03 4.663918304443359375e+01 2.420562553405761719e+01 6.300395047256074355e-14 2.700169088158416858e-14 2.700169088158416858e-14 -1.467207707223441588e-15
2.434000000000000000e+03 4.497763824462890625e+01 2.628330612182617188e+01 1.196618775882495392e-14 2.800384097246914894e-14 1.199100836527834668e-14 1.919193868768227090e-14
2.435000000000000000e+03 4.866672897338867188e+01 2.402170181274414062e+01 2.819769970904134615e-14 1.208472832572729874e-14 1.208472832572729874e-14 -9.407120807151947428e-14
2.436000000000000000e+03 4.525770950317382812e+01 2.464901733398437500e+01 -1.846055580739781009e-15 1.364616834245366284e-13 4.038468778139181481e-14 -7.032335868142891577e-14
2.437000000000000000e+03 6.061964035034179688e+01 -4.314926624298095703e+00 -4.734254505892217246e-14 1.913084762220768065e-13 4.318977968775956910e-14 -3.112105435550474586e-14
2.438000000000000000e+03 7.335084533691406250e+01 -3.420046329498291016e+00 -4.619954524737006352e-14 -2.028035942305828065e-13 -7.470094014931996651e-14 -4.139692942281038290e-14
2.439000000000000000e+03 7.486921691894531250e+01 -3.499039173126220703e+00 -5.809165404572699809e-14 -1.621492653688938468e-13 -6.607227650201261127e-14 -1.600154877308065937e-13
2.440000000000000000e+03 7.015602874755859375e+01 -4.826491832733154297e+00 -2.450276852077049039e-13 9.365511160651027178e-15 -7.069864848717119510e-14 -6.598749866838782285e-14
2.441000000000000000e+03 7.106071472167968750e+01 -5.270261287689208984e+00 -8.754019441303308169e-15 -4.950267219793261231e-14 -1.747700698355100779e-14 1.182082504661485442e-14
2.442000000000000000e+03 2.716974258422851562e+01 2.588088989257812500e+00 -5.832196569221723137e-14 1.789638654826376796e-14 -1.212767459021898628e-14 -3.330680254710373378e-14
2.443000000000000000e+03 2.813265228271484375e+01 3.393106460571289062e+00 -2.603871945264148863e-14 1.032179238456311376e-13 2.315376080967712635e-14 -1.401838307978423015e-13
2.444000000000000000e+03 3.046574211120605469e+01 -1.127718639373779297e+01 -9.817134897973506247e-14 -1.106998607364184650e-13 -6.266136291484605825e-14 -1.567489356629064856e-13
2.445000000000000000e+03 4.728362655639648438e+01 -9.799173355102539062e+00 -5.061843481803281197e-14 4.015026700866786147e-13 1.052652702417805619e-13 5.300036939274305192e-14
2.446000000000000000e+03 2.442190551757812500e+01 4.376056492328643799e-01 1.340769129835189810e-14 3.791479052917511028e-14 1.539674488707128142e-14 -6.813825084673805210e-14
2.447000000000000000e+03 2.504075050354003906e+01 1.925278186798095703e+00 1.785200540995943164e-14 5.340180879963296601e-14 2.137614358525136149e-14 -9.447017414220340581e-14
2.448000000000000000e+03 4.498299789428710938e+01 2.102558135986328125e+00 9.421914745795512136e-14 1.750415947170819164e-14 3.351699207889899390e-14 1.001525319383085588e-13
2.449000000000000000e+03 4.042824172973632812e+01 -1.282469463348388672e+01 7.620499961310048254e-14 2.614140186870533844e-13 1.012857061676725179e-13 1.687197304339315557e-14
2.450000000000000000e+03 4.457718276977539062e+01 -1.184527492523193359e+01 -2.004918346414866909e-14 8.290938736336267434e-14 1.885806201679714883e-14 -6.106333700402893916e-14
2.451000000000000000e+03 4.246444702148437500e+01 -1.234857177734375000e+01 1.199097516158681431e-13 -1.773648502373381675e-13 -1.723653094169372291e-14 -1.436310380527328068e-13
2.452000000000000000e+03 4.949911117553710938e+01 -1.014329147338867188e+01 6.926609893292967612e-14 2.813156879753059281e-13 1.051745360724706813e-13 -4.310316209857334435e-14
2.453000000000000000e+03 7.201029968261718750e+01 -5.747548103332519531e+00 -1.678593651880874726e-13 1.956217170672944206e-14 -4.448915533390197796e-14 -3.335987085531511021e-14
2.454000000000000000e+03 7.417063903808593750e+01 -2.745620727539062500e+00 -1.268209577067955229e-14 -5.118613323994158915e-14 -1.916046802555998463e-14 -9.532558932750373470e-14
2.455000000000000000e+03 3.975989151000976562e+01 -1.293116760253906250e+01 8.742801675763051117e-14 -5.403274670138374924e-14 1.001858118628061803e-14 5.307703265073314414e-14
2.456000000000000000e+03 4.254019546508789062e+01 -1.303785514831542969e+01 7.448541430995700430e-14 1.691751664971430369e-13 7.309817763026180137e-14 -6.631562567962698274e-14
2.457000000000000000e+03 4.110214996337890625e+01 -1.268115043640136719e+01 1.275289281729014013e-13 8.904305109002849661e-15 4.092997032338445418e-14 4.005694701717660289e-14
2.458000000000000000e+03 6.778418731689453125e+01 -2.714568138122558594e+00 -1.568995584497190343e-13 -1.358690856221103638e-13 -8.783059457680153503e-14 -1.039562587488301881e-13
2.459000000000000000e+03 6.893751525878906250e+01 -3.973392009735107422e+00 -5.149162075456653609e-14 -1.593206767685692582e-13 -6.324368790168802268e-14 -1.418984236887946629e-14
2.460000000000000000e+03 4.839488220214843750e+01 -9.888836860656738281e+00 -3.833986215529341934e-14 3.324196115855188038e-13 8.822392957245211997e-14 7.790808471443144700e-14
2.461000000000000000e+03 5.903933715820312500e+01 9.095520019531250000e+00 -2.054353188214383397e-13 -1.337946545004395360e-13 -1.017689960623215095e-13 1.961086890141651266e-15
2.462000000000000000e+03 4.404155349731445312e+01 3.634697914123535156e+00 -4.676305593838761543e-14 2.570964037636961491e-14 -6.316024414495515979e-15 5.605252386916594054e-15
2.463000000000000000e+03 4.589203643798828125e+01 2.087788343429565430e+00 -4.266041797704352156e-14 1.875962357461222196e-13 4.348074566953678832e-14 9.685411787906453296e-14
2.464000000000000000e+03 1.133502769470214844e+01 7.642590045928955078e+00 1.335165430906698480e-13 3.434590529734563025e-14 5.035873451640464349e-14 -1.051558674663131965e-13
2.465000000000000000e+03 4.322847366333007812e+01 -1.286634445190429688e+01 4.244369443309314177e-15 1.390718594972140121e-13 4.299487063033277656e-14 6.283967605573729728e-15
2.466000000000000000e+03 1.111414813995361328e+01 1.236800098419189453e+01 1.244749610459713884e-13 5.222936341232886637e-13 1.940305826165361625e-13 8.154378051700855723e-14
2.467000000000000000e+03 1.218517398834228516e+01 1.347751903533935547e+01 2.340154166367153232e-14 1.472820753160505869e-13 5.120508644916935137e-14 -4.869497546074880168e-14
2.468000000000000000e+03 1.073408412933349609e+01 9.488952636718750000e+00 1.240501774110551458e-14 5.106738599700011427e-14 1.904172078261850976e-14 -6.760031716259579104e-14
2.469000000000000000e+03 1.051155662536621094e+01 1.044280147552490234e+01 -2.955479895647324107e-14 1.017110319036750032e-13 2.164686886772099195e-14 -6.948690348161992714e-14
2.470000000000000000e+03 2.802380561828613281e+01 -5.814867973327636719e+00 6.592232541232723522e-15 -8.867665174210059842e-14 -2.462532639553507291e-14 -7.263260766486936970e-14
2.471000000000000000e+03 2.776055526733398438e+01 -4.101470947265625000e+00 7.032699753497032025e-14 3.046458484784464460e-13 1.124918504158932409e-13 -6.296824633976808028e-14
2.472000000000000000e+03 3.040311431884765625e+01 -7.503643035888671875e+00 8.097840296537525684e-14 8.045598014856311653e-14 4.843031493418151201e-14 5.546827018830307807e-15
2.473000000000000000e+03 2.735003089904785156e+01 -3.456644058227539062e+00 -1.110326023831542663e-14 -1.420113890848381799e-13 -4.593439344169336636e-14 -7.462404988650001014e-14
2.474000000000000000e+03 2.722750854492187500e+01 -4.577325820922851562e+00 -8.239866207155211592e-15 -3.531371413145007951e-15 -3.531371413145007951e-15 -9.932613948991295127e-14
2.475000000000000000e+03 9.614066123962402344e+00 7.575872898101806641e+00 -1.083927140887530963e-14 -9.614729937776692048e-14 -3.209597233713550046e-14 -8.019777740118569365e-14
2.476000000000000000e+03 1.098532772064208984e+01 8.534019470214843750e+00 9.528430155352277109e-14 -7.354124362431158080e-14 6.522917294060062363e-15 -7.526839801387172346e-14
2.477000000000000000e+03 2.913747978210449219e+01 1.237534999847412109e+01 7.734190078743236052e-14 1.703993798276778882e-13 7.432238418453307460e-14 -3.826088903845616465e-15
2.478000000000000000e+03 3.757224655151367188e+01 -1.368685626983642578e+01 7.879695431301653175e-14 1.252720258256012631e-13 6.122069539683805406e-14 8.734907328694641038e-14
2.479000000000000000e+03 3.694635009765625000e+01 -1.284876918792724609e+01 6.007459883283078339e-14 2.574625761067941832e-14 2.574625761067941832e-14 9.236136025913763148e-14
2.480000000000000000e+03 1.128693389892578125e+01 1.765267753601074219e+01 9.803935414149853034e-14 1.335187657051234433e-13 6.946743527636023430e-14 9.261643237274200247e-14
2.481000000000000000e+03 1.127916336059570312e+01 1.683996963500976562e+01 -5.319716563957632705e-14 -2.279878454807589966e-14 -2.279878454807589966e-14 5.910069390260494493e-14
2.482000000000000000e+03 5.254499435424804688e+00 7.686903476715087891e+00 1.128975571747714221e-14 4.165970140471847438e-13 1.283660271177503032e-13 -1.333250103065708111e-14
2.483000000000000000e+03 3.107832527160644531e+01 8.916188240051269531e+00 2.955735233729273916e-15 2.757724333179306653e-13 8.361844880790461620e-14 -5.519892811063631388e-14
2.484000000000000000e+03 6.059892177581787109e+00 6.953825950622558594e+00 7.138652733176820142e-14 2.593489659141745562e-13 9.922064661853011169e-14 -4.576084316706453825e-14
2.485000000000000000e+03 7.414717102050781250e+01 2.186381721496582031e+01 1.270405221992509937e-13 8.694990562242103233e-15 4.072065492959076050e-14 -1.577427933012378464e-14
2.486000000000000000e+03 7.416046905517578125e+01 2.380584526062011719e+01 -1.224304333637121897e-16 -4.580341843112532840e-14 -1.377775491080961839e-14 -6.132595109899566244e-14
2.487000000000000000e+03 4.717344665527343750e+01 -1.080312252044677734e+01 -4.683320974817805835e-15 4.211891523487470979e-13 1.249517389513218890e-13 6.719737342519155332e-14
2.488000000000000000e+03 5.126300430297851562e+01 -1.027770328521728516e+01 5.772969315044271243e-14 2.992469824453919403e-13 1.070930047116294692e-13 -2.243430796493826873e-14
2.489000000000000000e+03 5.322317504882812500e+01 -7.066764354705810547e+00 -6.725501909944989198e-14 3.371840025072347924e-13 8.097869434470911232e-14 -8.969094997951509995e-14
2.490000000000000000e+03 7.448719787597656250e+01 1.693304252624511719e+01 2.447956557783976389e-14 -1.038861311970611101e-13 -2.382196985517299331e-14 -1.353654449138706403e-14
2.491000000000000000e+03 7.358723449707031250e+01 1.848116111755371094e+01 -3.173755881583431582e-14 -1.360181176810479689e-14 -1.360181176810479689e-14 -2.504627805339793706e-14
2.492000000000000000e+03 6.350792884826660156e+00 2.412609291076660156e+01 -4.781056125546627456e-14 -6.624118842422227482e-14 -3.421552320984067030e-14 6.920819576065537215e-14
2.493000000000000000e+03 2.999176406860351562e+01 -7.301487922668457031e+00 -3.349610085828791384e-14 -6.010642016659323295e-14 -2.808075664627752294e-14 -3.247141596406100117e-13
2.494000000000000000e+03 2.880888938903808594e+01 -6.931638717651367188e+00 1.450901979940452668e-13 -1.665732303609765430e-13 -6.444912335881519336e-15 4.508990836954440695e-14
2.495000000000000000e+03 7.408117675781250000e+01 8.232330322265625000e+00 -3.362522933703093742e-14 1.685929770355726331e-13 4.049032634244158213e-14 9.830213764305470447e-15
2.496000000000000000e+03 5.252394104003906250e+01 -7.359441280364990234e+00 -2.201547388944354033e-14 2.650704905137607481e-13 7.291650600373469904e-14 -2.877619949509351016e-14
2.497000000000000000e+03 7.467699432373046875e+01 1.142077636718750000e+01 -1.240987428921189184e-13 1.526940873004464794e-13 8.578604847157573349e-15 1.801518732368750930e-13
2.498000000000000000e+03 7.406806945800781250e+01 9.014240264892578125e+00 -1.591430573476618204e-13 -1.597060699833063868e-13 -9.565473955454317778e-14 1.756073585157391648e-13
2.499000000000000000e+03 7.383639526367187500e+01 1.448336791992187500e+01 -5.233839027457424034e-15 -1.394959180719274050e-13 -4.341892920504616948e-14 2.455083323595584621e-14
2.500000000000000000e+03 7.428365325927734375e+01 1.940136146545410156e+01 -9.109253836195210612e-16 -3.903965854170005686e-16 -3.903965854170005686e-16 -5.453912332604310409e-14
2.501000000000000000e+03 7.292449188232421875e+01 1.755459403991699219e+01 -3.307112748799148627e-14 7.732855832444721078e-14 1.327722958974989625e-14 -6.356826415081229253e-14
2.502000000000000000e+03 7.358986663818359375e+01 2.595411872863769531e+01 1.508396950096815847e-14 1.094041917064532410e-13 3.734644836222641984e-14 2.169051266384474340e-16
2.503000000000000000e+03 7.413733673095703125e+01 -4.209758758544921875e+00 -1.259636519439569224e-13 -3.284901105467252780e-13 -1.363361328129628069e-13 -1.179329935574111032e-13
2.504000000000000000e+03 7.416725158691406250e+01 2.605062961578369141e+00 -2.974302119700122926e-13 -1.732210430866257256e-13 -1.411953778722441211e-13 3.896880529445341870e-15
2.505000000000000000e+03 7.480693054199218750e+01 -1.958719849586486816e+00 -3.190389236975253728e-14 -1.280504700754483971e-13 -4.798630703949438581e-14 -1.802049178281639463e-13
2.506000000000000000e+03 7.332733154296875000e+01 -4.198565483093261719e+00 -1.192945617506727118e-13 -1.883790839247653781e-13 -9.230209505788414259e-14 2.111868283873573338e-14
2.507000000000000000e+03 5.700193405151367188e+00 2.766121101379394531e+01 -3.887442803643739730e-14 7.484142564581977575e-14 1.079010029925425024e-14 -3.748222096740770615e-14
2.508000000000000000e+03 5.376327037811279297e+00 2.161786651611328125e+01 5.939455334892998484e-14 2.542095494609958317e-13 9.408123016535138716e-14 -1.139071018632859325e-14
2.509000000000000000e+03 6.204343795776367188e+00 2.355900573730468750e+01 5.245196976950451673e-14 5.714908255828599071e-13 1.871828294577534968e-13 -5.560692016440618723e-14
2.510000000000000000e+03 7.474084472656250000e+01 5.046018123626708984e+00 -1.921171013073708078e-13 -2.424642246961344894e-13 -1.303744032220624516e-13 2.239839444560104420e-13
2.511000000000000000e+03 7.425672149658203125e+01 1.267867088317871094e+00 -1.820940452460298453e-13 1.964653889878140158e-13 4.311401936689124997e-15 -9.615536313142478142e-14
2.512000000000000000e+03 7.464783477783203125e+01 1.221008586883544922e+01 7.501787954939179159e-15 -1.797887468242553854e-13 -5.168608596672896738e-14 4.604136692666800645e-14
2.513000000000000000e+03 7.328724670410156250e+01 1.048638725280761719e+01 -1.332117196498755485e-14 -9.721096947161098067e-14 -3.315964243097956066e-14 -7.952303773166649603e-14
2.514000000000000000e+03 7.472309112548828125e+01 -1.168362617492675781e+00 -1.954001468008198517e-13 5.350992747315229392e-14 -4.256706478186073062e-14 -5.516571848987331453e-15
2.515000000000000000e+03 7.474478912353515625e+01 5.864340782165527344e+00 -2.302644498144122698e-14 1.960107965694179999e-13 5.189530310470077956e-14 1.111975569674343578e-13
2.516000000000000000e+03 7.330309295654296875e+01 4.058301925659179688e+00 -2.185288218827310947e-13 -4.790426004009154526e-14 -7.992992525447314978e-14 6.338109019825982626e-14
2.517000000000000000e+03 7.265440368652343750e+01 2.440681838989257812e+01 -2.031822823325094701e-14 -2.374625561289700482e-13 -7.733423683332560361e-14 -1.824742749479205117e-14
2.518000000000000000e+03 7.463586425781250000e+01 -3.544294238090515137e-01 -1.935220646925861487e-13 1.000657618831918283e-13 -2.803689219807101174e-14 -4.743263548319213985e-14
2.519000000000000000e+03 7.475691223144531250e+01 6.673449039459228516e+00 -4.409560773298163219e-15 -2.306445507672949535e-13 -7.051623824791408701e-14 1.270103000636929602e-13
2.520000000000000000e+03 7.462148284912109375e+01 1.300019168853759766e+01 -5.892526999109679031e-14 1.119991618436615155e-13 1.592216789458259646e-14 7.319679259411293604e-14
2.521000000000000000e+03 7.407589721679687500e+01 7.451049327850341797e+00 -7.901838227795596192e-14 -2.168688134889656949e-13 -8.876615940770285484e-14 7.176745498880740537e-14
2.522000000000000000e+03 7.405975341796875000e+01 6.662394046783447266e+00 -4.884134953029792281e-14 1.163208391370337824e-13 2.024384688202075788e-14 -1.092482766577862474e-14
2.523000000000000000e+03 7.407432556152343750e+01 6.824676990509033203e-01 -3.402872872804857396e-13 -1.000864565921591454e-13 -1.321121218065407499e-13 -2.009255155104808926e-14
2.524000000000000000e+03 7.380464935302734375e+01 -4.892591536045074463e-01 -2.499127207261642170e-13 -1.071054527078223184e-13 -1.071054527078223184e-13 -5.327127085806571127e-14
2.525000000000000000e+03 1.171051120758056641e+01 1.267196083068847656e+01 -5.782658016708144832e-14 1.124700240709083920e-13 1.639303350996126202e-14 -2.925115119740973046e-14
2.526000000000000000e+03 5.616446018218994141e+00 1.120958137512207031e+01 -7.756629675581896977e-14 1.497611035834386928e-13 2.165844103184638020e-14 -9.282630003201730595e-14
2.527000000000000000e+03 7.385740661621093750e+01 1.371134757995605469e+01 -2.116989106259493936e-14 1.281800322350604149e-13 3.210304336817917936e-14 1.322975000492450370e-14
2.528000000000000000e+03 7.309280395507812500e+01 1.361446475982666016e+01 1.425656400116763478e-14 -2.226447921426649712e-13 -6.251646607075694861e-14 -1.432188108342266619e-13
2.529000000000000000e+03 8.929638862609863281e+00 3.294997024536132812e+01 -4.904317376470609946e-15 -2.497732448929375348e-14 -8.964492729135898480e-15 1.641739925972197922e-14
2.530000000000000000e+03 6.879961490631103516e+00 6.889768123626708984e+00 -8.670008341902374349e-14 8.593770125045214342e-15 -2.343189424230344292e-14 -5.559271711594662713e-14
2.531000000000000000e+03 9.000418663024902344e+00 6.719604492187500000e+00 2.871460325916917744e-14 1.495591031661774872e-13 5.348211429929625171e-14 -5.422076429875168080e-14
2.532000000000000000e+03 5.996582031250000000e+00 1.737892150878906250e+01 6.258622770429281279e-14 3.013283524609666753e-13 1.091743747272042042e-13 5.731309524192873539e-14
2.533000000000000000e+03 6.636832237243652344e+00 1.621770858764648438e+01 -3.885929663986764648e-14 1.205988569641727737e-13 2.452186979135743267e-14 -3.199791980316134266e-14
2.534000000000000000e+03 5.393033981323242188e+00 2.081601905822753906e+01 -6.568426680250141411e-15 3.403170757351747788e-13 1.001245934035763230e-13 -5.880822359031340207e-14
2.535000000000000000e+03 6.099124431610107422e+00 2.219478034973144531e+01 9.015969123626205173e-14 1.758927205275373495e-13 7.981572488439253599e-14 -7.273492924489768918e-14
2.536000000000000000e+03 7.470062255859375000e+01 2.801721000671386719e+01 3.702637239915091208e-15 4.733779489815397035e-14 1.531212968377236583e-14 1.166547009848423275e-15
2.537000000000000000e+03 7.381446075439453125e+01 2.792216491699218750e+01 2.824144218450345273e-14 -3.364747242222583534e-14 -1.621809431305717367e-15 -8.121540956028058811e-14
2.538000000000000000e+03 5.305386543273925781e+00 1.465656852722167969e+01 3.990584311565001374e-14 2.687327357170365971e-13 9.259157026167419424e-14 -9.043595950233851433e-14
2.539000000000000000e+03 5.059832096099853516e+00 1.870845985412597656e+01 1.742202438087883665e-14 4.192251201132896066e-13 1.309941467363823220e-13 -3.345724660996441183e-15
2.540000000000000000e+03 6.685353755950927734e+00 8.928105354309082031e+00 -3.928151884715139208e-14 -1.683493737480740854e-14 -1.683493737480740854e-14 -6.240246898858367586e-14
2.541000000000000000e+03 5.111336231231689453e+00 8.428816795349121094e+00 -4.523361597937557155e-14 1.178670063026882042e-13 2.179001743580696870e-14 -1.785568492108230432e-13
2.542000000000000000e+03 5.598887920379638672e+00 9.406507492065429688e+00 -8.112327948067363237e-14 1.024857282372337863e-13 6.408733017605446405e-15 -1.396095424596038859e-13
2.543000000000000000e+03 1.065110015869140625e+01 1.191164398193359375e+01 9.702010923167206369e-14 4.158004778161139559e-14 4.158004778161139559e-14 -3.634888071958608524e-14
2.544000000000000000e+03 5.602783203125000000e+00 1.249026679992675781e+01 -9.769555363260337688e-14 9.538332309318858782e-14 -6.936699029782655672e-16 -3.756703945861396277e-14
2.545000000000000000e+03 6.071017265319824219e+00 2.147945022583007812e+01 -1.878011499567219800e-13 2.855213895175401362e-13 2.931606780248730004e-14 6.635490090332527013e-14
2.546000000000000000e+03 5.772910594940185547e+00 1.813183212280273438e+01 -1.098212910584719926e-13 4.104432180414285813e-13 9.018657945013969224e-14 -2.174002046906233637e-14
2.547000000000000000e+03 6.369607448577880859e+00 1.836512184143066406e+01 -1.016959953747953449e-14 4.139254856840718366e-14 9.366885048091473653e-15 -1.944866590366557679e-14
2.548000000000000000e+03 6.041733264923095703e+00 1.176209163665771484e+01 -3.484991361788446207e-14 3.081527207341415442e-14 -1.210392082176266031e-15 -1.005667513783066458e-13
2.549000000000000000e+03 5.121199607849121094e+00 1.297085285186767578e+01 -2.285470058105594504e-14 3.595607766062637600e-14 3.930413293277718739e-15 -5.282038844397866917e-14
2.550000000000000000e+03 6.125250339508056641e+00 1.288716316223144531e+01 -7.195133567726094692e-14 2.436693967260150639e-13 5.151542238038438193e-14 -5.400950072917930223e-14
2.551000000000000000e+03 6.281941413879394531e+00 9.667864799499511719e+00 -4.500690591697706355e-14 1.065264345376064348e-13 1.845585858618881137e-14 -1.875902523053828153e-14
2.552000000000000000e+03 4.532030105590820312e+01 -1.187565135955810547e+01 1.739481497210759731e-13 3.490549049887242683e-13 1.569009137024346412e-13 7.170306015602534444e-14
2.553000000000000000e+03 7.309816741943359375e+01 2.096181106567382812e+01 1.118014982350902520e-13 3.647718927043616666e-14 4.448360557403156779e-14 -1.325482827880045122e-13
2.554000000000000000e+03 7.336763763427734375e+01 2.019280815124511719e+01 2.053104017905090645e-14 1.003009117818767781e-13 3.624958812937714714e-14 -5.726700987333452342e-14
2.555000000000000000e+03 6.661734104156494141e+00 2.702634239196777344e+01 2.902612164837857500e-14 3.531523963778808450e-14 1.930240872466317675e-14 -1.172574813938440097e-13
2.556000000000000000e+03 7.275236511230468750e+01 2.562097549438476562e+01 -5.528021616851841458e-14 -1.723821009980835983e-13 -6.829869243947517266e-14 -5.144360584491847882e-15
2.557000000000000000e+03 6.079210758209228516e+00 7.764861106872558594e+00 -1.976812268565664166e-14 1.059053222180438014e-13 2.584115918208979013e-14 -1.117886639918734548e-13
2.558000000000000000e+03 7.360418701171875000e+01 -5.695353031158447266e+00 -8.247881002308721232e-14 -2.641028129697631233e-13 -1.039744801215915226e-13 4.077341491780933636e-14
2.559000000000000000e+03 5.979647159576416016e+00 2.595034599304199219e+01 4.155875834963598759e-16 1.603064333837930788e-13 4.821660513345746302e-14 6.770751765240029529e-14
2.560000000000000000e+03 7.018876075744628906e+00 2.533510780334472656e+01 3.582280549670538439e-14 8.397905445047329498e-14 3.594055662890088820e-14 -1.325544898454419918e-13
2.561000000000000000e+03 6.870517730712890625e+00 2.394371414184570312e+01 -9.276032632982156301e-14 9.749841857259120004e-14 1.421427270490241163e-15 -2.411137153650322329e-13
2.562000000000000000e+03 2.963659286499023438e+01 -6.908244609832763672e+00 -1.097953989553403231e-13 1.816995718380981506e-13 2.157125254245370605e-14 1.117559752963730169e-13
2.563000000000000000e+03 5.456224060058593750e+01 -6.380105495452880859e+00 -4.323357129113261643e-14 4.046675917534353628e-13 1.084302122373280441e-13 8.469107034593525984e-14
2.564000000000000000e+03 2.809680747985839844e+01 1.468170070648193359e+01 2.874695314149071368e-14 5.807107453324050761e-14 2.604540762479300858e-14 3.192105325726390941e-14
2.565000000000000000e+03 2.914054679870605469e+01 7.150345325469970703e+00 1.958591742837276911e-14 2.600241799221442163e-13 8.388302801930896946e-14 -9.049382201703135009e-14
2.566000000000000000e+03 3.000462532043457031e+01 8.384050369262695312e+00 -3.267543435261574536e-14 2.147509871753411348e-13 5.462266449156490122e-14 -7.817748862550336075e-14
2.567000000000000000e+03 7.056885528564453125e+01 -5.098763942718505859e+00 -7.946348792734272970e-14 -1.713086324271057004e-13 -7.523163678396088683e-14 1.802083601700615878e-13
2.568000000000000000e+03 5.521998977661132812e+01 -5.992872714996337891e+00 -1.804446620335548035e-13 2.543609582943834324e-13 2.217489057231448318e-14 -1.505020846175649657e-14
2.569000000000000000e+03 6.524983978271484375e+01 -3.208679199218750000e+00 -1.676448557882612156e-13 -1.633496940142697973e-13 -9.929836358550658826e-14 -6.508147157042315500e-14
2.570000000000000000e+03 6.264247894287109375e+01 -2.504346132278442383e+00 8.483442220192857763e-14 -1.923971371759966575e-13 -3.226881449222042397e-14 -9.283651863749298183e-14
2.571000000000000000e+03 5.961847686767578125e+01 1.682597541809082031e+01 1.989689202243002941e-14 -2.202275091889999148e-13 -6.009918311709189220e-14 7.294582689623685390e-14
2.572000000000000000e+03 5.828154373168945312e+01 -4.926370620727539062e+00 2.754086462196120993e-14 9.186739097308965762e-14 3.582247684792184972e-14 1.931185314202506220e-14
2.573000000000000000e+03 5.587565612792968750e+01 -5.589852809906005859e+00 -4.154785375335215414e-14 1.880730407565270323e-13 4.395755745620517907e-14 1.142597572546116824e-13
2.574000000000000000e+03 2.883996963500976562e+01 5.148440837860107422e+00 1.253043960367135334e-14 1.426230417404458772e-13 4.654604270916927466e-14 -1.338694102402324115e-13
2.575000000000000000e+03 4.873163604736328125e+01 1.421397328376770020e+00 -3.877051064633645072e-15 1.355912588154109533e-13 3.951425978413435069e-14 1.633120993039388624e-13
2.576000000000000000e+03 4.937652587890625000e+01 1.674818992614746094e+00 -1.343757055497288300e-13 1.597274152135771952e-13 7.605512221528151762e-15 2.869955250013600523e-13
2.577000000000000000e+03 4.134525680541992188e+01 4.782402515411376953e+00 -6.646582156183411527e-14 1.087674939806611285e-13 1.269050172564810397e-14 1.569717730906701469e-14
2.578000000000000000e+03 4.225175476074218750e+01 4.128283500671386719e+00 -3.970707836424731962e-14 2.873363100729629804e-14 -3.292034418843543288e-15 -5.170832566379207629e-14
2.579000000000000000e+03 3.905529403686523438e+01 -1.369245147705078125e+01 1.739038871673842523e-13 -1.697166204502140868e-14 4.707966668967590584e-14 1.147248122239721835e-13
2.580000000000000000e+03 3.908478164672851562e+01 -1.299267482757568359e+01 6.434589460650036452e-14 1.648296570847668230e-13 6.875266821788558746e-14 1.492986506992921569e-13
2.581000000000000000e+03 4.314709091186523438e+01 -1.217647266387939453e+01 1.121405299484923637e-14 9.630791715335706993e-14 3.225659350085743893e-14 -5.793519011971018373e-14
2.582000000000000000e+03 3.251270675659179688e+01 -9.848756790161132812e+00 5.781501986141732163e-14 -2.497278371507011263e-13 -5.757383908814792117e-14 -4.190189997277729561e-14
2.583000000000000000e+03 3.293051910400390625e+01 -1.164692783355712891e+01 1.788747914979044173e-13 7.666062879982393774e-14 7.666062879982393774e-14 3.100967291107259438e-14
2.584000000000000000e+03 6.800086975097656250e+01 -3.522604703903198242e+00 -4.801960559871684686e-14 1.395484883247657959e-13 2.745866515662786361e-14 -8.908410169478422902e-14
2.585000000000000000e+03 2.852963638305664062e+01 6.334325313568115234e+00 -9.145075918325779041e-14 2.353125019057683565e-13 4.315852417200588542e-14 3.829221146981268142e-14
2.586000000000000000e+03 2.930867576599121094e+01 6.440240859985351562e+00 -9.647616500173608611e-14 -8.709787719610867507e-14 -5.507221198172707055e-14 -2.287530787622310546e-13
2.587000000000000000e+03 5.697721099853515625e+01 5.515812397003173828e+00 3.313834802268558755e-14 1.057040468609854456e-13 4.165271982035402554e-14 -7.020148927504386155e-15
2.588000000000000000e+03 5.751844406127929688e+01 5.738619804382324219e+00 1.391576537703755057e-14 -2.799795172179347924e-13 -7.981912656870870926e-14 1.335617814263168057e-14
2.589000000000000000e+03 1.192804527282714844e+01 1.474639225006103516e+01 1.314629354269743200e-14 1.428869772068103172e-13 4.680997817553371465e-14 3.231622123221235265e-14
2.590000000000000000e+03 5.953589248657226562e+01 -4.137467384338378906e+00 -5.031466169809310773e-14 2.643800163602133546e-13 6.421960538219653736e-14 -1.250387326231366947e-13
2.591000000000000000e+03 5.608734512329101562e+01 -4.611376762390136719e+00 1.126013548353142768e-13 3.799520919244014916e-13 1.477660360607938039e-13 1.129480064571098882e-14
2.592000000000000000e+03 6.075724029541015625e+01 1.237442588806152344e+01 -5.830109480039688541e-14 -1.851145105258300561e-13 -7.302468227549444024e-14 8.602408336447903148e-14
2.593000000000000000e+03 8.290216445922851562e+00 2.090907478332519531e+01 2.632228406052559977e-14 1.942847738158753890e-13 6.618211973461254893e-14 -1.540673309958530413e-14
2.594000000000000000e+03 3.788362884521484375e+01 1.324783611297607422e+01 -4.833084954925133403e-14 -5.502643154499387013e-14 -3.100718602233945576e-14 -2.243475519833441900e-14
2.595000000000000000e+03 5.954112243652343750e+01 1.023305606842041016e+01 -8.665996116237820179e-14 -5.289626701064642500e-13 -1.846867927687845246e-13 -7.222573369458987202e-14
2.596000000000000000e+03 3.757229614257812500e+01 1.435521793365478516e+01 3.177899566761399619e-14 -7.788232813657133824e-14 -1.383100024890697097e-14 -5.022609593312819809e-14
2.597000000000000000e+03 5.478043365478515625e+01 4.104983806610107422e+00 4.363543760262794668e-14 -1.071142076403651389e-13 -1.904363168894751546e-14 -1.021205282879592002e-13
2.598000000000000000e+03 5.592300415039062500e+01 4.132873535156250000e+00 1.061278072801014050e-13 -2.676042572265739791e-16 3.175806040128965890e-14 -5.131924954980028597e-14
2.599000000000000000e+03 6.126464843750000000e+01 -3.036040782928466797e+00 -2.236981352108161070e-13 -3.360631000912106536e-13 -1.679283746563661750e-13 5.057528357156788890e-14
2.600000000000000000e+03 1.005178260803222656e+01 6.445408821105957031e+00 1.955320264425755572e-13 3.354296549719359977e-13 1.592885030691007509e-13 3.155083209667799982e-14
2.601000000000000000e+03 1.009039688110351562e+01 9.884754180908203125e+00 7.988388901378987855e-15 1.521141746634382952e-13 4.803076949296165854e-14 2.249186385370419844e-14
2.602000000000000000e+03 4.384191131591796875e+01 -1.200423717498779297e+01 7.241255528143628051e-14 7.678489869758151065e-14 4.475923687133169515e-14 -8.590391310618616938e-14
2.603000000000000000e+03 9.943382263183593750e+00 1.083424949645996094e+01 9.859071160378887755e-14 7.084750944545345486e-14 5.083146699239905753e-14 1.038544860461516894e-13
2.604000000000000000e+03 9.501941680908203125e+00 1.032124996185302734e+01 -4.924693939862938297e-14 1.561790925535752605e-13 3.207964831817601559e-14 -2.696630692724556744e-14
2.605000000000000000e+03 6.168790054321289062e+01 -2.670507907867431641e+00 -1.034116165637456730e-13 -1.586966371031409140e-13 -7.863247406718690269e-14 -5.244558652921400832e-14
2.606000000000000000e+03 6.424135589599609375e+01 -3.084923028945922852e+00 -1.798580002380228970e-13 -3.990935322018343556e-14 -6.593020535983554198e-14 -7.009524254433796564e-14
2.607000000000000000e+03 6.321726989746093750e+01 -3.047118425369262695e+00 -5.437139047369601852e-14 -1.605548647590909761e-13 -6.447787589220974058e-14 -2.409805346806695447e-14
2.608000000000000000e+03 1.643533134460449219e+01 2.080753135681152344e+01 3.047221695351258475e-14 1.960633126121477665e-13 6.796065853088492648e-14 2.233352290267626855e-14
2.609000000000000000e+03 5.626963806152343750e+01 4.720170974731445312e+00 3.263742967833833941e-14 -3.062691701812003675e-13 -8.208952045679271392e-14 -5.840971830555277688e-14
2.610000000000000000e+03 4.836292266845703125e+01 2.075386285781860352e+00 -4.128847278314510053e-16 -1.769505957513518878e-16 -1.769505957513518878e-16 1.965307528262877357e-13
2.611000000000000000e+03 4.763134002685546875e+01 9.407936334609985352e-01 3.479903743094057977e-14 1.521667178112223739e-13 5.608972894434113843e-14 9.003225682341353675e-14
2.612000000000000000e+03 3.941270828247070312e+01 8.106603622436523438e+00 -1.231453361592166340e-13 -5.277657312368309872e-14 -5.277657312368309872e-14 -1.012542575284068602e-13
2.613000000000000000e+03 4.018771362304687500e+01 8.078652381896972656e+00 -6.666008348608920553e-14 1.773106672337682044e-13 3.319517376905098405e-14 5.461190378500298259e-14
2.614000000000000000e+03 3.854951858520507812e+01 1.089538860321044922e+01 -2.705850476948830352e-14 3.415444535808005722e-14 2.128782896555531275e-15 5.980985699110055731e-14
2.615000000000000000e+03 2.646427917480468750e+01 -2.141200542449951172e+00 -2.311943564652259309e-14 2.188464118041064110e-13 5.871809250846196648e-14 -7.091281229755497240e-14
2.616000000000000000e+03 2.664100074768066406e+01 2.174437761306762695e+00 -5.847805692373725384e-14 2.580219837702152352e-13 5.986317263293253199e-14 -1.082718102999279119e-13
2.617000000000000000e+03 6.587149047851562500e+01 -2.767099142074584961e+00 -7.315774776337630181e-14 1.573693432510570034e-13 2.526347762986467377e-14 -1.037663810671100861e-13
2.618000000000000000e+03 2.918583869934082031e+01 1.677880477905273438e+01 -4.089243405832687986e-15 1.926890044008297553e-13 5.657992723970793614e-14 5.574724980684370168e-14
2.619000000000000000e+03 2.815517997741699219e+01 1.615944290161132812e+01 -1.879789557248778137e-14 -8.056240475618793584e-15 -8.056240475618793584e-15 -5.157322306167206813e-15
2.620000000000000000e+03 4.049021148681640625e+01 4.659129142761230469e+00 -5.080534110817394589e-14 -1.132756133901194340e-13 -4.922428634948801396e-14 -5.989599007744095260e-14
2.621000000000000000e+03 2.494091796875000000e+01 -1.293206691741943359e+00 1.648587137029894345e-13 2.693844225378633217e-13 1.302729354512449644e-13 -1.147223964860066142e-15
2.622000000000000000e+03 2.592341041564941406e+01 -2.610172510147094727e+00 1.764359803548519456e-14 9.906343730351971355e-14 3.501211026288829353e-14 -5.352563400509323041e-15
2.623000000000000000e+03 3.814513397216796875e+01 1.152654933929443359e+01 8.228984036068656693e-14 3.326482427186416846e-13 1.244814256014248333e-13 -3.079038963355561209e-14
2.624000000000000000e+03 3.861857223510742188e+01 1.745979690551757812e+01 1.818575163777067655e-14 3.066936895418370668e-14 1.465653634699290442e-14 -7.369240851221037225e-15
2.625000000000000000e+03 3.752722549438476562e+01 1.685025978088378906e+01 -1.163356639076766272e-14 8.651608075782579732e-14 2.246475541126027181e-14 -3.415729392988167343e-15
2.626000000000000000e+03 2.601451683044433594e+01 -3.784574270248413086e-01 1.192203752170203912e-13 1.883472896960572407e-13 9.227030082917600518e-14 -3.888353533468627554e-14
2.627000000000000000e+03 5.391562271118164062e+01 2.967741489410400391e+00 -1.125263280449782799e-13 -9.397651656428002154e-14 -6.195085812616199505e-14 -8.617541765896727379e-14
2.628000000000000000e+03 6.027882003784179688e+01 1.514594078063964844e+01 -4.841296431128995492e-14 -5.506162406988639180e-14 -3.104237854723197743e-14 -7.842797490273129696e-15
2.629000000000000000e+03 2.598128509521484375e+01 -1.485534191131591797e+00 1.000378436772503266e-14 -4.146361124455003044e-14 -9.437948571267267689e-15 -4.022937920831505532e-14
2.630000000000000000e+03 2.950146865844726562e+01 1.619189262390136719e+01 1.632414940255875330e-14 2.357508177390499338e-13 7.562248489087833314e-14 1.954484988295809161e-14
2.631000000000000000e+03 2.891470527648925781e+01 1.814597702026367188e+01 1.053320282964854623e-14 3.247708634142310036e-13 1.005912204660869280e-13 1.600920561211065934e-14
2.632000000000000000e+03 7.287080383300781250e+01 3.406589126586914062e+01 5.926712571234504789e-14 3.683793382640819514e-14 2.883151752281279401e-14 2.537674965183509684e-14
2.633000000000000000e+03 2.829176139831542969e+01 4.996757507324218750e+00 -2.795887368736531264e-14 4.455271058762672043e-13 1.252704672849783152e-13 -1.608281243641387914e-13
2.634000000000000000e+03 5.207978057861328125e+01 2.224519968032836914e+00 -1.613031607697497372e-14 2.675926971326680892e-13 7.543871262264204014e-14 -1.911061505441638553e-14
2.635000000000000000e+03 5.220945358276367188e+01 2.951873779296875000e+00 -3.362036059165011970e-14 4.431007698344618939e-13 1.228441176906458487e-13 -6.497738138560096854e-14
2.636000000000000000e+03 1.023501205444335938e+01 6.908455371856689453e+00 6.289567933311090986e-14 1.642081381893895076e-13 6.813114254624469401e-14 -5.662086264798284196e-14
2.637000000000000000e+03 9.672366142272949219e+00 6.881380558013916016e+00 8.153780385253273089e-14 2.179485704325440087e-13 8.984590957501759068e-14 9.622620219086955307e-14
2.638000000000000000e+03 5.261616516113281250e+01 -8.983350753784179688e+00 4.961974570377031268e-14 4.558996409553817131e-13 1.516558146424928921e-13 -7.236028996045890116e-14
2.639000000000000000e+03 3.620691680908203125e+01 -1.266418647766113281e+01 2.135381850726716935e-13 6.864088697390233196e-14 8.465371958109313422e-14 1.199317202623881307e-13
2.640000000000000000e+03 3.086655235290527344e+01 -1.062662315368652344e+01 9.648248725565439221e-14 2.243534270038663458e-13 9.625077292260350581e-14 5.538745392777259802e-14
2.641000000000000000e+03 5.549356079101562500e+01 3.534210443496704102e+00 -3.548711617531313811e-14 -1.067106608155024561e-13 -4.265933377487103606e-14 -5.032405021128047440e-14
2.642000000000000000e+03 5.880293655395507812e+01 1.893590354919433594e+01 -3.695714016120708184e-15 -1.583877390103538476e-15 -1.583877390103538476e-15 6.998785909541685446e-14
2.643000000000000000e+03 3.866311264038085938e+01 1.977223587036132812e+01 9.314181641673774381e-14 1.314198180618272871e-13 6.736848763306407806e-14 2.782797152163073856e-14
2.644000000000000000e+03 2.815237617492675781e+01 -4.729258060455322266e+00 -7.431692251608917887e-14 1.390083980947398254e-14 -1.812482455787467472e-14 -6.205055729218561522e-14
2.645000000000000000e+03 1.547562408447265625e+01 2.084838867187500000e+01 5.422623951972273260e-14 3.643426460528463411e-16 1.637717535912276701e-14 2.195494576206569529e-15
2.646000000000000000e+03 1.439361667633056641e+01 1.996864128112792969e+01 9.207563910536981089e-14 1.767138410428692463e-13 8.063684539972443277e-14 1.062881472288848550e-13
2.647000000000000000e+03 5.051875305175781250e+01 1.794634222984313965e+00 -1.660926577480223432e-13 2.033231303591107042e-13 1.116913907282107710e-14 1.706786025446743738e-13
2.648000000000000000e+03 7.614298820495605469e+00 3.210408020019531250e+01 4.255032741082298564e-14 8.686228006402757496e-14 3.882378224245516818e-14 -4.920360180491606394e-14
2.649000000000000000e+03 5.389922332763671875e+01 -6.741589546203613281e+00 -1.833621416594960474e-13 1.044200194518472846e-13 -2.368263801754734443e-14 -9.027755925900427664e-15
2.650000000000000000e+03 5.928483963012695312e+01 9.672330856323242188e+00 -9.378682184167652647e-14 2.800622960538040607e-13 5.588263955313282905e-14 2.041887607617549200e-14
2.651000000000000000e+03 5.723854827880859375e+01 2.219626617431640625e+01 3.487931582554955334e-14 -7.927196700170495436e-15 8.085635059987359569e-15 5.955267068325983959e-14
2.652000000000000000e+03 6.117350387573242188e+01 1.564541912078857422e+01 -9.583504406989341168e-15 -8.417137836334506740e-14 -2.812646423817725949e-14 3.898134392317162411e-14
2.653000000000000000e+03 2.700019264221191406e+01 2.022195816040039062e+01 7.943494630515204880e-14 2.170473409291925893e-13 8.894468684792974922e-14 -4.584406923632995678e-14
2.654000000000000000e+03 3.766063690185546875e+01 1.766298866271972656e+01 -7.081963274412636858e-15 2.485950898259425834e-13 7.245393792310733660e-14 -1.365408725347754329e-14
2.655000000000000000e+03 5.391980743408203125e+01 2.612012672424316406e+01 3.143923381181135124e-14 3.634942959693590603e-14 2.033659868381099828e-14 2.791642039604892711e-14
2.656000000000000000e+03 1.653130912780761719e+01 2.184561729431152344e+01 5.748870888881707497e-14 1.762544379008492996e-15 1.777537603328722959e-14 3.439971221828701242e-14
2.657000000000000000e+03 1.926547050476074219e+01 2.224470329284667969e+01 -8.480526902194997912e-15 8.786738291176668381e-14 2.381605756520115830e-14 7.166385269496283739e-14
2.658000000000000000e+03 1.756898498535156250e+01 2.305708885192871094e+01 2.215033508717358102e-14 -3.625794665050065257e-14 -4.232283553701416193e-15 3.353078516341208293e-14
2.659000000000000000e+03 7.258219909667968750e+01 3.212069702148437500e+01 5.797720295389399703e-14 -1.124054733840640363e-13 -1.632848112905101179e-14 4.116153896676841284e-14
2.660000000000000000e+03 7.277021789550781250e+01 2.976094818115234375e+01 8.736890741043931707e-14 -9.980902958501083888e-14 -3.732035635931919837e-15 -5.807252465364620697e-14
2.661000000000000000e+03 2.652507400512695312e+01 2.122137641906738281e+01 -1.938887045978710671e-14 3.744143124879972806e-14 5.415768575516965305e-15 -8.498839246294867533e-14
2.662000000000000000e+03 2.121548461914062500e+01 2.265099906921386719e+01 5.758594149489829062e-14 9.330611370345076594e-14 4.526761588187835916e-14 -5.032894013248497347e-15
2.663000000000000000e+03 2.374248504638671875e+01 2.189306449890136719e+01 5.931627395207653142e-14 1.855495737525941768e-13 7.345975905478571710e-14 1.252671943496701246e-14
2.664000000000000000e+03 2.569236946105957031e+01 2.046923828125000000e+01 6.873820767141006205e-14 3.339889942301915715e-13 1.208181639586122791e-13 -1.756996715544627274e-14
2.665000000000000000e+03 2.565867233276367188e+01 2.233057975769042969e+01 4.729006628564208503e-14 8.889359382055136982e-14 4.085509599897896305e-14 4.889913072982782216e-14
2.666000000000000000e+03 3.948893356323242188e+01 2.225128555297851562e+01 -2.578922250989594545e-14 1.547946612470013639e-13 3.870163331519752004e-14 -5.735108975181077429e-14
2.667000000000000000e+03 4.051778030395507812e+01 2.330004119873046875e+01 -2.875466791757430585e-14 3.393869929015080888e-13 9.318969749518013490e-14 3.979165968622834504e-15
2.668000000000000000e+03 5.640999603271484375e+01 2.522443199157714844e+01 4.465770811414200570e-14 7.701281154676511975e-15 1.570769745827191310e-14 2.739026894020297337e-14
2.669000000000000000e+03 7.268913269042968750e+01 3.563636398315429688e+01 1.277064713608435861e-14 -2.884007594371185146e-14 -4.820829150508016206e-15 2.258253364851008776e-14
2.670000000000000000e+03 7.155540466308593750e+01 3.307826995849609375e+01 9.322563202093445134e-14 5.640630412024564416e-15 2.965987847577782055e-14 -3.512607685187546513e-14
2.671000000000000000e+03 5.463094329833984375e+01 2.454732894897460938e+01 1.827514918908978991e-14 -2.648100448231389958e-14 -2.461757053835353891e-15 4.944937010862779370e-14
2.672000000000000000e+03 5.188347625732421875e+01 2.584996986389160156e+01 -1.602863315978888398e-15 9.081495592425797847e-14 2.676362718956066394e-14 6.901386607376450155e-14
2.673000000000000000e+03 4.948672866821289062e+01 2.759531211853027344e+01 4.351302694218959696e-15 1.848686405781646558e-13 5.676598310877002673e-14 3.948802547969199050e-14
2.674000000000000000e+03 4.064770507812500000e+01 2.568817710876464844e+01 -4.943788434186302538e-14 1.846916039159249290e-13 4.057611722747128669e-14 -2.339932074328383155e-14
2.675000000000000000e+03 9.915182113647460938e+00 3.571831512451171875e+01 3.018514732329273531e-14 1.498754178794507123e-15 9.505169952994316218e-15 6.629478697505863244e-15
2.676000000000000000e+03 7.233372211456298828e+00 4.132966613769531250e+01 2.186857465946712153e-14 6.656093319741540615e-14 2.652885167943840050e-14 1.104322000191520006e-14
2.677000000000000000e+03 3.872485351562500000e+01 1.833894538879394531e+01 2.234968937350756413e-14 2.383331704734759082e-13 7.820486473035861974e-14 -7.149490011517170562e-15
2.678000000000000000e+03 6.143315315246582031e+00 3.564229583740234375e+01 3.643212372951044886e-14 1.700232158839340424e-13 6.193660086759381067e-14 -6.392176064585466597e-15
2.679000000000000000e+03 4.715328979492187500e+01 2.711124420166015625e+01 3.859013667428454197e-14 1.251971345605368269e-13 4.913618137044641065e-14 -1.420070387236210818e-14
2.680000000000000000e+03 4.467849349975585938e+01 3.143585586547851562e+01 -3.601624749306753248e-14 1.732871252090387171e-13 4.118126467004407099e-14 3.105739135918911265e-14
2.681000000000000000e+03 7.460510253906250000e+01 3.695822906494140625e+01 1.791935522305710760e-16 -9.142509747308777412e-14 -2.737377212652224862e-14 -1.014710996569698556e-14
2.682000000000000000e+03 4.776744461059570312e+01 -1.033368206024169922e+01 2.642073300591907259e-14 1.028250699646945931e-13 3.877373953593138411e-14 2.994590794953844171e-14
2.683000000000000000e+03 4.170831680297851562e+01 -1.183125305175781250e+01 2.041693366022084843e-13 -1.870045459630154117e-13 5.149436429428269277e-15 -1.790586315287764907e-13
2.684000000000000000e+03 4.104636383056640625e+01 -1.198810577392578125e+01 -2.851101719623071185e-14 3.353194051635213779e-14 1.506277101915546191e-15 3.139875241319617372e-14
2.685000000000000000e+03 5.343426895141601562e+01 1.858956933021545410e+00 -7.310112530491824634e-14 1.059237943125575232e-13 9.846801210511551411e-15 8.232291530321095285e-14
2.686000000000000000e+03 5.812218856811523438e+01 5.996274471282958984e+00 -9.117817042830420049e-14 -3.021443230159792659e-13 -1.179967446451532509e-13 7.823783125266575711e-14
2.687000000000000000e+03 2.994270324707031250e+01 -5.009534835815429688e+00 9.483068491708199210e-14 -3.711168200005998674e-13 -8.288583984742900479e-14 -5.908632144755593396e-14
2.688000000000000000e+03 5.658434677124023438e+01 5.200007915496826172e+00 -6.731511121661813788e-16 1.255266100482280156e-13 3.745604087307397023e-14 1.305396220806220864e-13
2.689000000000000000e+03 5.843851852416992188e+01 5.333974838256835938e+00 8.187671867538812154e-14 -1.021628257252132910e-13 -6.085830929101424674e-15 1.368618759989281841e-13
2.690000000000000000e+03 3.975891876220703125e+01 -1.223683929443359375e+01 -1.453732831812812321e-14 1.767735128199374173e-13 4.867085535054278822e-14 7.703618965610933844e-14
2.691000000000000000e+03 3.740417861938476562e+01 1.116918754577636719e+01 -3.302730200330054877e-14 3.159639230484491412e-14 -4.292726977784535811e-16 2.273290232543846018e-14
2.692000000000000000e+03 6.166229629516601562e+01 1.496343517303466797e+01 -4.677803486902686048e-14 -4.864207317099508709e-14 -2.862603410607247878e-14 -2.088983655924425004e-14
2.693000000000000000e+03 3.552809524536132812e+01 -1.075096416473388672e+01 5.986571373177429489e-14 2.544114821156212569e-13 9.428315604371323433e-14 -2.859028931569834731e-14
2.694000000000000000e+03 3.100225639343261719e+01 -9.254752159118652344e+00 5.450071715814869960e-15 2.768414295549470605e-13 8.468745182118458947e-14 -1.832892900497685995e-14
2.695000000000000000e+03 6.372723770141601562e+01 -2.547492504119873047e+00 -4.754512484671929995e-14 -1.494084532743106264e-13 -5.908607072580354669e-14 -9.582918768409609545e-14
2.696000000000000000e+03 6.479570770263671875e+01 -2.601808071136474609e+00 7.173370411399111052e-15 -4.267664712831291396e-14 -1.065098276096425670e-14 -1.655148322001961936e-13
2.697000000000000000e+03 4.464307785034179688e+01 -1.014163970947265625e+01 -5.503815448098386964e-14 6.791411915263098620e-14 3.862789570900724417e-15 -3.740598800215481912e-14
2.698000000000000000e+03 3.162000846862792969e+01 -1.131194877624511719e+01 -8.466955570907500062e-14 -1.277888520912276449e-13 -6.373752166246443585e-14 -1.572077158121937268e-13
2.699000000000000000e+03 3.088449668884277344e+01 -7.646188735961914062e+00 -3.086768986032203954e-14 3.252193843004611007e-14 4.962754391259920940e-16 -5.061923441713502003e-14
2.700000000000000000e+03 5.694432067871093750e+01 4.392644405364990234e+00 1.444812558438687833e-14 7.481847444108097323e-14 2.677998170170624997e-14 4.942982736446874248e-14
2.701000000000000000e+03 5.925947570800781250e+01 -2.556345939636230469e+00 -1.050737459280109976e-13 -3.195373111074262251e-13 -1.273833198211365980e-13 -6.958089703371084234e-14
2.702000000000000000e+03 6.013272857666015625e+01 -3.753440141677856445e+00 -1.984889710275952734e-13 6.435196444460038884e-15 -5.761612974913843388e-14 -4.852059170569987534e-14
2.703000000000000000e+03 4.498686218261718750e+01 2.938743114471435547e+00 -1.627094556907581618e-14 1.590221179834528514e-14 -1.106199353427902597e-16 8.084537135881128544e-14
2.704000000000000000e+03 3.156245231628417969e+01 -1.069739246368408203e+01 -1.748007832501775188e-14 -1.904952568300768978e-13 -6.239260274881405777e-14 -1.773705016411622482e-13
2.705000000000000000e+03 3.510241699218750000e+01 -1.310814857482910156e+01 9.902463641827188856e-14 1.339410217937250791e-13 6.988969814122544810e-14 -3.787523409053833445e-14
2.706000000000000000e+03 3.767934036254882812e+01 -1.296042442321777344e+01 2.573920521436057901e-14 -1.184438696210862729e-14 4.168445221565701339e-15 1.561712591928790528e-13
2.707000000000000000e+03 3.034293937683105469e+01 -1.026931381225585938e+01 -1.574507668342106648e-13 2.985286985061202936e-13 4.232337340293566841e-14 -2.302255066276293061e-13
2.708000000000000000e+03 7.351489257812500000e+01 -2.705666065216064453e+00 -2.230571684389698328e-13 -1.413468815733218142e-13 -1.093212163589402097e-13 -6.083330064324656353e-15
2.709000000000000000e+03 4.524396133422851562e+01 -1.254907894134521484e+01 -4.107203807742973445e-14 -1.091041997415900799e-13 -4.505287270095865992e-14 9.509823890819710246e-14
2.710000000000000000e+03 4.600537490844726562e+01 -1.179455661773681641e+01 4.878311770924008417e-14 3.869146485407232161e-13 1.307093268256703800e-13 1.061407092859539825e-13
2.711000000000000000e+03 5.022032165527343750e+01 -9.834997177124023438e+00 -6.174099046688669157e-14 6.504147128652201792e-14 9.901450929235451615e-16 -2.928269131623369159e-14
2.712000000000000000e+03 1.030344200134277344e+01 1.137349700927734375e+01 4.493159791170257822e-14 1.925639958903421767e-14 1.925639958903421767e-14 -6.274253577624733236e-14
2.713000000000000000e+03 4.237409973144531250e+01 -1.166624641418457031e+01 1.030455492527330985e-13 8.991332662135545495e-14 5.788766140697385043e-14 -6.950636491061604194e-14
2.714000000000000000e+03 7.301366424560546875e+01 1.674990844726562500e+01 -5.349578541106493612e-14 -1.144286624005577679e-13 -5.037733535992634792e-14 -6.517046423999348082e-14
2.715000000000000000e+03 7.306580352783203125e+01 1.595745849609375000e+01 2.315991535107187610e-14 9.925677765592819113e-15 9.925677765592819113e-15 -1.147617022028910028e-13
2.716000000000000000e+03 5.291518783569335938e+01 -8.013960838317871094e+00 -3.104001024311145440e-14 2.955160530344891345e-13 7.934280944928151502e-14 -8.539290151723943900e-14
2.717000000000000000e+03 5.351853179931640625e+01 -6.128113746643066406e+00 3.313626432163534197e-14 5.174616703011725161e-13 1.651793936005563346e-13 -7.055756667947651883e-14
2.718000000000000000e+03 7.588502407073974609e+00 2.185186004638671875e+01 -7.471793501837367679e-14 5.947992749374964028e-14 -4.571401664464147876e-15 -3.701930729733786396e-14
2.719000000000000000e+03 7.252035140991210938e+00 2.462476348876953125e+01 -1.983196593058345059e-13 -6.211866551740843900e-14 -7.813149812459924126e-14 -1.053065918970794157e-13
2.720000000000000000e+03 7.234986114501953125e+01 2.373781967163085938e+01 -3.605464180250067541e-14 -4.272105401641884681e-13 -1.389795532347540274e-13 -8.008800870748511436e-14
2.721000000000000000e+03 7.373659515380859375e+01 2.340513610839843750e+01 6.699474959168116861e-15 -2.258835344248408261e-13 -6.575522190545995960e-14 3.141899650063555149e-14
2.722000000000000000e+03 2.989015197753906250e+01 5.582675457000732422e+00 -1.915861868793833247e-16 9.141979165870617319e-14 2.736846122994296415e-14 -6.472949888765289206e-14
2.723000000000000000e+03 7.381811523437500000e+01 1.526192283630371094e+01 -3.590577067982304860e-14 7.611370979017720306e-14 1.206238190251283579e-14 2.876939951459295264e-14
2.724000000000000000e+03 3.839253997802734375e+01 -1.300691032409667969e+01 1.270190821012900928e-13 5.443674753590616033e-14 5.443674753590616033e-14 1.286163287417957379e-13
2.725000000000000000e+03 4.039556121826171875e+01 -1.212874317169189453e+01 9.164876160500795566e-14 -1.437257566650265717e-13 -1.562309750156604810e-14 -2.175783865414077783e-14
2.726000000000000000e+03 7.348660278320312500e+01 1.932455062866210938e+01 -5.632213784440877336e-14 -2.413805883416577508e-14 -2.413805883416577508e-14 -3.813536807303549714e-14
2.727000000000000000e+03 7.230557250976562500e+01 1.663927841186523438e+01 -1.926595242661335167e-14 -8.256836512253451499e-15 -8.256836512253451499e-15 -4.514629704690902023e-14
2.728000000000000000e+03 7.334223175048828125e+01 9.730063438415527344e+00 -1.689775435461532416e-13 -7.241894529799036695e-14 -7.241894529799036695e-14 1.699798477970346222e-13
2.729000000000000000e+03 7.338812255859375000e+01 8.969341278076171875e+00 -4.618855753597828073e-14 2.089596535083740325e-13 4.883132743646600993e-14 -1.254495368262914523e-13
2.730000000000000000e+03 7.339920806884765625e+01 8.207153320312500000e+00 -6.115171980987724187e-14 -1.634607298692594690e-13 -6.738373422611465546e-14 1.279039808094184494e-13
2.731000000000000000e+03 7.341321563720703125e+01 3.211395025253295898e+00 -2.430126412600319696e-13 -1.956501638217950090e-13 -1.315988333930317999e-13 3.749613263653341078e-14
2.732000000000000000e+03 7.360005187988281250e+01 1.776400566101074219e+00 -2.339211452578177086e-13 -8.750024833924056888e-15 -7.280135018048958240e-14 -8.560819018737717001e-14
2.733000000000000000e+03 7.422718048095703125e+01 1.909186720848083496e+00 -3.410807335353649439e-13 1.740791891061480023e-13 -5.010046061825965125e-14 2.396081380182102372e-13
2.734000000000000000e+03 7.455869674682617188e+00 2.397565650939941406e+01 3.964992735723017747e-14 2.914985147792897857e-13 9.934453704552731468e-14 2.862081299498560327e-14
2.735000000000000000e+03 6.932096958160400391e+00 7.685322284698486328e+00 5.271328959812783543e-14 9.121783189902643585e-14 4.317933746558581809e-14 1.477809912745105259e-15
2.736000000000000000e+03 8.038950920104980469e+00 7.187943935394287109e+00 5.330981763342935997e-14 1.372244332054073368e-13 5.716027694571690354e-14 6.513843284206011219e-14
2.737000000000000000e+03 7.283707427978515625e+01 -5.098852634429931641e+00 -1.060419994544127553e-13 -3.657032088179995588e-13 -1.415235658698554833e-13 -1.103113030065903943e-14
2.738000000000000000e+03 4.961413955688476562e+01 -6.564564704895019531e+00 -4.209644311197087430e-14 -1.804133252026381834e-14 -1.804133252026381834e-14 -6.488584084092530180e-14
2.739000000000000000e+03 7.402024078369140625e+01 5.004669666290283203e+00 -4.111395604392345526e-14 1.196325753304722239e-13 2.355558646359098840e-14 6.387769375677376099e-15
2.740000000000000000e+03 7.260322570800781250e+01 3.809024810791015625e+00 -3.017042724592217118e-13 -3.123056284068392863e-13 -1.842029675493128682e-13 1.242962167653099970e-13
2.741000000000000000e+03 6.873013305664062500e+01 -3.271006822586059570e+00 -1.550937519688086463e-13 2.503314734864960089e-14 -3.901817969198181912e-14 -3.896387132753566240e-14
2.742000000000000000e+03 7.388750457763671875e+01 1.292759227752685547e+01 8.594190083980463024e-14 -1.461715541358279968e-13 -1.806889666643336778e-14 7.225565767455047195e-14
2.743000000000000000e+03 7.248517608642578125e+01 1.192026138305664062e+01 -3.192060941199954816e-14 2.150744859985564972e-13 5.494616331478026361e-14 1.136747963012378626e-13
2.744000000000000000e+03 7.341536712646484375e+01 -1.540839910507202148e+00 -1.861856616146642662e-13 7.461559310955462321e-14 -3.347102190678560851e-14 -2.226409161198983355e-14
2.745000000000000000e+03 7.191280364990234375e+01 -4.889079570770263672e+00 -3.599457700214497846e-14 3.032470108355056482e-14 -1.700962648523382005e-15 -1.499646083312142220e-14
2.746000000000000000e+03 7.404041290283203125e+01 5.849245548248291016e+00 -7.961157639157709354e-14 -1.256211389251415955e-13 -6.156981527264196452e-14 6.274971861564004882e-14
2.747000000000000000e+03 7.329486083984375000e+01 4.980046272277832031e+00 -1.860674971303905023e-13 -1.483696385152707964e-13 -1.003311406936983896e-13 1.000238913505431537e-13
2.748000000000000000e+03 7.337610626220703125e+01 7.444789886474609375e+00 -3.324801846056428534e-14 1.687546451320173779e-13 4.065198766262274888e-14 2.339716419740012210e-14
2.749000000000000000e+03 7.352565765380859375e+01 2.381753325462341309e-01 -1.041302528687233775e-13 1.612520203085263115e-13 1.713652853787498570e-14 -2.099425200471818215e-14
2.750000000000000000e+03 7.358206176757812500e+01 -2.073938608169555664e+00 -1.207277686024813002e-13 -1.432423651264239095e-13 -7.919104147392427850e-14 -7.357165549524979919e-14
2.751000000000000000e+03 7.335064697265625000e+01 6.666831016540527344e+00 -1.768546518000208012e-13 -2.587986519964752263e-13 -1.306959911389488083e-13 8.894786491554784735e-14
2.752000000000000000e+03 7.374230194091796875e+01 1.162707686424255371e+00 -1.423662077983112173e-13 1.677406586027274660e-13 7.612332530819443388e-15 1.615832034146391649e-13
2.753000000000000000e+03 7.296564483642578125e+01 1.554850339889526367e+00 -1.879979868611367233e-13 1.024332325232947538e-13 -2.566942664016576975e-14 6.238987191459210990e-14
2.754000000000000000e+03 7.399554443359375000e+01 -1.271497607231140137e+00 -4.859412771804870468e-14 -1.580788993628401418e-13 -6.200191049595890624e-14 -9.812863819040271163e-14
2.755000000000000000e+03 2.867086982727050781e+01 1.391307640075683594e+01 -5.414356910407071288e-14 -6.895533270897744038e-14 -3.692967088272762488e-14 -4.219876469199919378e-14
2.756000000000000000e+03 7.308067321777343750e+01 1.516530132293701172e+01 2.613411950294131959e-15 -9.038186459019506569e-14 -2.633053585549775116e-14 -3.906751766709348761e-14
2.757000000000000000e+03 7.195514678955078125e+01 2.515790367126464844e+01 -2.088589955010541205e-14 2.486637587869764895e-15 -5.519778292209162607e-15 -5.598058705502152732e-14
2.758000000000000000e+03 5.062364959716796875e+01 -8.850360870361328125e+00 3.019395985407596905e-14 2.302572737512831313e-13 7.813536737110229891e-14 2.347387827736704957e-14
2.759000000000000000e+03 1.118294811248779297e+01 1.537651348114013672e+01 -1.273912395791934257e-14 -5.459624553394003960e-15 -5.459624553394003960e-15 8.593806547461946277e-14
2.760000000000000000e+03 1.219141387939453125e+01 1.760332107543945312e+01 -2.726203662231814484e-14 3.406721790517180937e-14 2.041554808372572985e-15 5.699975234375095207e-15
2.761000000000000000e+03 7.392378997802734375e+01 1.213497257232666016e+01 -6.865981307807578204e-14 1.632531322582828071e-14 -1.570035029448742930e-14 1.070173206237264030e-13
2.762000000000000000e+03 7.307240295410156250e+01 1.438238430023193359e+01 -1.277587947035778524e-15 4.520341078447648320e-14 1.317774726416077319e-14 -3.272905831444052061e-14
2.763000000000000000e+03 7.324034881591796875e+01 1.125158977508544922e+01 -1.172494040876589927e-13 -9.600069491525614618e-14 -6.397502970087454166e-14 1.484295271327734644e-13
2.764000000000000000e+03 6.654743671417236328e+00 1.770122718811035156e+01 -1.888021531649963780e-14 2.206632229370675269e-13 6.053490364142308233e-14 -6.746448695917409144e-14
2.765000000000000000e+03 6.829555988311767578e+00 1.555152988433837891e+01 -1.729782495626247529e-13 1.546212160044579953e-13 -5.507109643933553664e-15 -2.531477902734807772e-14
2.766000000000000000e+03 7.316159820556640625e+01 2.683986854553222656e+01 3.471408002633097345e-14 1.292548289536996076e-13 4.919067608214096332e-14 6.212692578271006294e-14
2.767000000000000000e+03 7.130152130126953125e+01 2.612961578369140625e+01 1.006270872292054641e-13 -1.913477243407207817e-13 -2.721618842294916407e-14 -5.684713225324877772e-14
2.768000000000000000e+03 6.612894535064697266e+00 1.061093044281005859e+01 6.087574969939821279e-15 2.313637020683045886e-13 7.123538277266014407e-14 -1.027925506757836061e-13
2.769000000000000000e+03 7.563683986663818359e+00 1.733159255981445312e+01 -5.377232811581630911e-14 2.270566682805244541e-14 -9.319998386329159112e-15 2.247752019777539412e-14
2.770000000000000000e+03 6.073073387145996094e+00 1.904237747192382812e+01 -2.344263123194283843e-14 2.187079049765713878e-13 5.857957890466336526e-14 -9.415154914656654467e-15
2.771000000000000000e+03 9.001910209655761719e+00 1.081634044647216797e+01 6.453857766134177276e-14 5.625373485172030508e-14 3.623769578679769676e-14 -1.843334106231900305e-14
2.772000000000000000e+03 7.520984172821044922e+00 2.109518432617187500e+01 -2.831626060473442508e-15 4.105449975203706581e-13 1.223140105909362174e-13 -4.584264706801151681e-15
2.773000000000000000e+03 6.577983379364013672e+00 1.927404975891113281e+01 1.038137217385321290e-14 3.247058112838818733e-13 1.005261547832106417e-13 5.224236638450875658e-14
2.774000000000000000e+03 6.851078987121582031e+00 1.190407562255859375e+01 1.532670034453103430e-14 2.353233168224388994e-13 7.519501107932161088e-14 -8.737824510164984848e-14
2.775000000000000000e+03 6.685774803161621094e+00 2.066429519653320312e+01 -8.078374124156906255e-14 4.686388538517605173e-13 1.163565229410357116e-13 5.356277894092917324e-14
2.776000000000000000e+03 6.070680141448974609e+00 2.076526260375976562e+01 5.315131066394376824e-14 3.430357668927908055e-13 1.188561239446467299e-13 5.881008028653378350e-14
2.777000000000000000e+03 5.554265022277832031e+00 1.884896278381347656e+01 9.473484356261664165e-16 9.190790625302272532e-14 2.785657582425951628e-14 5.110341539044452319e-14
2.778000000000000000e+03 5.984784126281738281e+00 1.371566295623779297e+01 -2.420698698728154102e-14 -1.018763185248704184e-13 -3.782499148423899837e-14 -6.249919337489653892e-14
2.779000000000000000e+03 5.913811206817626953e+00 8.600083351135253906e+00 -3.099796691574153995e-14 2.154699080833891167e-13 5.534158201148109413e-14 -6.541350425058210447e-15
2.780000000000000000e+03 7.693580627441406250e+00 7.771453857421875000e+00 -5.273949679751588349e-14 2.728331504286523853e-16 -1.573999821268250859e-14 -3.976914216235853672e-14
2.781000000000000000e+03 6.717824459075927734e+00 1.445750808715820312e+01 -6.472127504476800006e-15 2.946074102987833454e-13 8.644057962903933801e-14 -5.110506202249398555e-14
2.782000000000000000e+03 6.857865810394287109e+00 1.243953323364257812e+01 3.070314185185663014e-14 1.504113402838597180e-13 5.433434464071490444e-14 -1.253440710599629249e-13
2.783000000000000000e+03 8.464670181274414062e+00 1.190711212158203125e+01 4.421653608576228689e-14 4.182541967390381032e-14 2.581258537264711356e-14 -2.418387145815097117e-14
2.784000000000000000e+03 2.927060699462890625e+01 -6.436391830444335938e+00 1.981354533567292187e-13 1.764170949082599638e-13 1.123657644794967547e-13 -4.558831610823599334e-14
2.785000000000000000e+03 7.280635833740234375e+01 1.838199806213378906e+01 2.094954391169620567e-14 1.004802727025237707e-13 3.642894566189235073e-14 -5.865527654509358757e-14
2.786000000000000000e+03 7.201953887939453125e+01 1.826192092895507812e+01 -1.919107471407607152e-14 3.752620230616093844e-14 5.500538362328754802e-15 -9.975062496923176036e-14
2.787000000000000000e+03 7.169181823730468750e+01 2.870487594604492188e+01 4.855072574983139433e-14 -7.069444720375281377e-14 -6.643115927956657479e-15 1.368467191913700157e-14
2.788000000000000000e+03 7.226019287109375000e+01 2.653804779052734375e+01 3.598430079842888929e-14 -3.032910565487628718e-14 1.696558924230606898e-15 -3.583484352895176250e-14
2.789000000000000000e+03 7.228963470458984375e+01 2.299384498596191406e+01 -2.128664947217626113e-14 -2.836285351547063183e-13 -9.147455742094384723e-14 -8.242313624153008167e-14
2.790000000000000000e+03 7.255923461914062500e+01 2.005196762084960938e+01 4.540747796212898924e-14 6.521129800431471613e-14 3.318563278993311161e-14 -5.878709520047709081e-14
2.791000000000000000e+03 7.657613754272460938e+00 2.626957511901855469e+01 6.731433173454842711e-14 7.459994671695294177e-14 4.257428150257133725e-14 -5.372933272341368083e-15
2.792000000000000000e+03 6.477221012115478516e+00 2.793538665771484375e+01 5.702039453667553937e-14 2.443731049223303586e-14 2.443731049223303586e-14 -7.379940571410753547e-14
2.793000000000000000e+03 6.662708282470703125e+00 1.374484825134277344e+01 -5.673860361578297873e-14 2.501891380700393963e-13 5.803516033627692527e-14 2.214138533705289208e-14
2.794000000000000000e+03 5.102753829956054688e+01 -7.867267131805419922e+00 -4.095634015309837506e-14 1.883265543295084554e-13 4.421106425292302411e-14 -1.665259998038376432e-14
2.795000000000000000e+03 5.990548324584960938e+01 -2.297618389129638672e+00 -6.113663161198780102e-15 2.261346085429341568e-13 6.600628247102613422e-14 1.300864391250503016e-13
2.796000000000000000e+03 5.763379287719726562e+01 -5.331391334533691406e+00 -1.058176238148168802e-13 3.206571835313865027e-13 6.445186859259724454e-14 -1.330532363973124799e-13
2.797000000000000000e+03 5.125223541259765625e+01 1.674086213111877441e+00 -1.138185699796389130e-14 4.087300905174749699e-14 8.847345531431786980e-15 -1.352733131401977901e-14
2.798000000000000000e+03 5.137097930908203125e+01 2.367684125900268555e+00 -1.305701017141960851e-13 4.015508628732455954e-13 8.129423105822028428e-14 6.510735689729124642e-14
2.799000000000000000e+03 2.975209808349609375e+01 -5.978087425231933594e+00 -8.290787625658477267e-14 -4.472904793946519408e-13 -1.590595060177446562e-13 -2.472488495408944886e-14
2.800000000000000000e+03 2.940977096557617188e+01 -5.441813468933105469e+00 5.066437110882830719e-14 6.746424978994886024e-14 3.543858457556725572e-14 -1.021140637325057554e-13
2.801000000000000000e+03 3.021403312683105469e+01 9.123934745788574219e+00 2.579213799730039475e-14 1.025556728298862574e-13 3.850434240112304840e-14 -9.096094374678315164e-14
2.802000000000000000e+03 2.973247528076171875e+01 9.332360267639160156e+00 1.741909567976041018e-13 2.576570684240109266e-13 1.295544075664845085e-13 7.407636515906895758e-14
2.803000000000000000e+03 5.416447067260742188e+01 -5.788129806518554688e+00 -9.317625338824131465e-14 4.175768075504598942e-13 9.732016895917100507e-14 -6.144192007387014320e-14
2.804000000000000000e+03 6.113225555419921875e+01 -2.502313613891601562e+00 -1.113217201390405767e-14 -5.052187983830939977e-14 -1.849621462392779525e-14 1.569717222686933117e-14
2.805000000000000000e+03 2.561315727233886719e+01 2.346145153045654297e+00 1.842834356793020267e-14 9.939975681742471703e-14 3.534842977679329701e-14 -3.674510240352091284e-15
2.806000000000000000e+03 7.417739868164062500e+01 -4.940424442291259766e+00 4.142479680677504938e-14 1.775348361973249495e-14 1.775348361973249495e-14 -8.395217978912281054e-14
2.807000000000000000e+03 5.480653381347656250e+01 -5.417286396026611328e+00 -4.957017394756520201e-14 3.905141726483207787e-13 1.022831992714134941e-13 4.483484303220361400e-14
2.808000000000000000e+03 4.140010833740234375e+01 4.019064426422119141e+00 -9.765570920276453459e-14 -1.791052928797748356e-13 -8.302830401289360007e-14 -4.955992315483753047e-15
2.809000000000000000e+03 2.754761505126953125e+01 -1.192748069763183594e+00 -9.624633446995989328e-14 9.600441508396048707e-14 -7.257466304092020947e-17 -5.057543942563018369e-14
2.810000000000000000e+03 5.717485809326171875e+01 -4.764263629913330078e+00 -1.044136904216654005e-13 3.555720713525889476e-13 7.534751766740885315e-14 6.498692914098241902e-14
2.811000000000000000e+03 5.844513320922851562e+01 8.636372566223144531e+00 -1.010776952046175958e-13 -4.779530178751489888e-13 -1.737092186673144800e-13 4.018001412814907469e-14
2.812000000000000000e+03 3.737824630737304688e+01 1.249529933929443359e+01 -1.164362575404925479e-14 2.466400835735710340e-13 7.049893844699936518e-14 -1.529911417550485625e-14
2.813000000000000000e+03 3.681499481201171875e+01 1.176005840301513672e+01 -3.113311610467364710e-14 1.696610381482152596e-13 4.155837390255705255e-14 1.770250917696673115e-14
2.814000000000000000e+03 4.776761245727539062e+01 1.787187933921813965e+00 6.960218127760944840e-14 1.213313981620126047e-13 5.728007450951297375e-14 8.767360210222563399e-14
2.815000000000000000e+03 4.814580154418945312e+01 1.177122473716735840e+00 -7.680652175465901843e-14 2.415886230216351960e-13 4.943462834721377985e-14 2.065523723197501549e-13
2.816000000000000000e+03 3.958686828613281250e+01 5.123820781707763672e+00 4.932743463367285364e-14 6.689127604684458328e-14 3.486561422059476778e-14 8.646997506044085124e-14
2.817000000000000000e+03 5.781683349609375000e+01 -4.352500438690185547e+00 -2.234508829053807877e-13 2.702429209230916562e-13 1.403761530166481794e-14 -1.991551590524789916e-13
2.818000000000000000e+03 5.441186141967773438e+01 -4.836242675781250000e+00 -4.696163095441012458e-14 3.687566473963704849e-13 9.653850662665400262e-14 -2.741794828285334940e-14
2.819000000000000000e+03 3.070556640625000000e+01 9.512404441833496094e+00 4.088742216437797616e-14 2.005269729562705883e-13 7.242431887500774823e-14 6.209734061592836474e-15
2.820000000000000000e+03 3.018247413635253906e+01 1.056505012512207031e+01 -1.977359451849590444e-14 3.575332033472350401e-13 1.013278816321822040e-13 4.229347652802938062e-14
2.821000000000000000e+03 4.029218673706054688e+01 5.346965789794921875e+00 7.702054326350765701e-14 3.075144847965172179e-13 1.153605070627547469e-13 -2.860583745247814724e-14
2.822000000000000000e+03 9.469240188598632812e+00 1.121890163421630859e+01 1.416024449660355927e-14 -2.216823797554674791e-14 -2.402398043682956591e-15 -1.345841247826643286e-14
2.823000000000000000e+03 2.851937484741210938e+01 4.519265651702880859e+00 -1.381363827577392067e-13 -5.920130786421159974e-14 -5.920130786421159974e-14 1.910843479161015296e-14
2.824000000000000000e+03 2.767144584655761719e+01 2.993346452713012695e+00 -7.833551278620901753e-15 1.796465537093339115e-13 5.154390301620286052e-14 -7.352250047925473764e-14
2.825000000000000000e+03 4.371993255615234375e+01 -1.131891250610351562e+01 6.254186350664742156e-14 7.255460609482261569e-14 4.052894088044101117e-14 -1.236189698782669266e-13
2.826000000000000000e+03 4.304247283935546875e+01 -1.149509429931640625e+01 8.112322527056500809e-14 3.476709751256551462e-14 3.476709751256551462e-14 7.635517516651688097e-14
2.827000000000000000e+03 3.038639450073242188e+01 -6.947623729705810547e+00 -1.305537031563372419e-13 3.555031160944188695e-14 -2.850101543118953307e-14 4.929805953106207450e-14
2.828000000000000000e+03 3.008305931091308594e+01 -6.470693111419677734e+00 2.907685807488616034e-15 1.613744673913813932e-13 4.928464591730935540e-14 -3.442838462236474939e-13
2.829000000000000000e+03 8.802605628967285156e+00 7.481868267059326172e+00 -4.321762335480171247e-14 7.298006057983308370e-14 8.928730998102821920e-15 -2.662210153660162643e-14
2.830000000000000000e+03 4.011841583251953125e+01 7.314935684204101562e+00 -5.018939230145777475e-14 -1.816380569173367543e-13 -6.954823544326471652e-14 -1.325307593703917153e-13
2.831000000000000000e+03 3.947655487060546875e+01 8.869712829589843750e+00 -6.158191090312875593e-14 -7.214319880420941300e-14 -4.011753358982780848e-14 6.469512967878510157e-14
2.832000000000000000e+03 3.247068023681640625e+01 -1.136101913452148438e+01 6.089436748357886231e-15 4.836070915470794263e-14 1.633504394032633811e-14 -8.660270851140738912e-14
2.833000000000000000e+03 3.291456985473632812e+01 -1.109437561035156250e+01 4.342890725316482514e-14 -7.288950936963980998e-14 -8.838180634942495451e-15 -5.281572637463698150e-14
2.834000000000000000e+03 1.240907764434814453e+01 1.928120613098144531e+01 -1.255082514561292259e-14 4.037202294476446851e-14 8.346359424448758502e-15 1.093716300658948912e-14
2.835000000000000000e+03 5.886933898925781250e+01 7.927054882049560547e+00 -7.707541744596257960e-14 1.271862830169463027e-14 -1.930703521862107974e-14 2.887955445531747989e-14
2.836000000000000000e+03 6.115515136718750000e+01 1.175957775115966797e+01 -1.036243980163595313e-13 -1.816633052754285105e-13 -8.558630963228369692e-14 3.576192076845674528e-14
2.837000000000000000e+03 6.653833007812500000e+01 -2.269720077514648438e+00 -1.306947307539232939e-13 -1.732488257672956666e-13 -9.118306966687111936e-14 -1.424259879955966368e-13
2.838000000000000000e+03 6.094010543823242188e+01 1.333351993560791016e+01 -5.401155054891165763e-14 -2.976535034074356822e-13 -1.054995121211460551e-13 5.580653194875613565e-14
2.839000000000000000e+03 7.876685619354248047e+00 8.808246612548828125e+00 1.927873669488626082e-15 2.352998438454045882e-13 7.116831809202833758e-14 8.018492282917816238e-14
2.840000000000000000e+03 2.549991798400878906e+01 2.532616555690765381e-01 1.107959837293387775e-14 -2.241622719964617844e-14 -3.400988690365337568e-15 -5.069221138773866153e-14
2.841000000000000000e+03 2.498008537292480469e+01 8.787309527397155762e-01 1.053873514064024297e-13 5.517402534198703745e-14 4.816841234689048235e-14 -1.753056487680589720e-14
2.842000000000000000e+03 5.996281814575195312e+01 9.454966545104980469e+00 -2.806178954570942574e-13 -4.862723721951733857e-13 -2.300670775851748617e-13 -3.958659300969807893e-14
2.843000000000000000e+03 7.215218544006347656e+00 1.646265983581542969e+01 -6.429040378405984080e-14 3.155790787110618334e-13 7.538660315572695558e-14 1.194098802042437013e-13
2.844000000000000000e+03 1.346292495727539062e+01 2.007126045227050781e+01 1.569963031648226315e-14 1.211057892424455273e-13 4.104162281835972703e-14 6.409704310286062912e-14
2.845000000000000000e+03 2.746808242797851562e+01 -2.324466943740844727e+00 -1.009467502637191854e-15 9.106926909634160960e-14 2.701794036164429508e-14 -7.112009820040704478e-14
2.846000000000000000e+03 2.700691032409667969e+01 -1.666641235351562500e+00 4.153195325086629641e-14 -7.370249159241448744e-14 -9.651160316618331153e-15 -6.714539948354802945e-14
2.847000000000000000e+03 2.905889511108398438e+01 -4.864086627960205078e+00 -8.394076178499382257e-14 -1.732274534319705461e-13 -7.715046456508931061e-14 -4.715922680034560777e-14
2.848000000000000000e+03 2.869468116760253906e+01 -4.256468296051025391e+00 1.222565343232673296e-13 1.438975484992568998e-13 7.984622484675726883e-14 -6.892871554564292125e-14
2.849000000000000000e+03 2.990409851074218750e+01 1.726254844665527344e+01 -1.499566695149160810e-15 2.395498079413305170e-13 7.141507573022246036e-14 -2.188825631702952246e-14
2.850000000000000000e+03 3.591835021972656250e+01 -1.345704269409179688e+01 9.430893295036407720e-14 4.041811170149046950e-14 4.041811170149046950e-14 2.765963727589110244e-14
2.851000000000000000e+03 7.307683563232421875e+01 2.272778892517089844e+01 -3.513160289482335219e-14 -3.810639954623940007e-13 -1.248586737473411645e-13 -8.963690250121669756e-14
2.852000000000000000e+03 5.186780929565429688e+01 -9.324377059936523438e+00 -9.050729153495858798e-15 3.735664392840593040e-13 1.093547114298064338e-13 6.438874769736785408e-14
2.853000000000000000e+03 3.711142349243164062e+01 1.365158367156982422e+01 -7.260230421414839985e-14 6.038662544180853353e-14 -3.664704139921728249e-15 -3.743732822120322823e-14
2.854000000000000000e+03 9.838824272155761719e+00 8.271006584167480469e+00 9.708383999062347725e-14 5.304509612048986800e-14 4.503868320502625588e-14 -1.568100575603803559e-14
2.855000000000000000e+03 7.067445373535156250e+01 -4.606457710266113281e+00 -3.046510187675564862e-14 -1.960602632935376510e-13 -6.795760921227481099e-14 5.876038316945247919e-14
2.856000000000000000e+03 8.222890853881835938e+00 3.478366851806640625e+01 2.176001383474932688e-14 3.220119415797521867e-14 1.618836324485031092e-14 -4.558580211444854258e-14
2.857000000000000000e+03 3.662118911743164062e+01 1.710825347900390625e+01 8.338359028855352184e-14 2.644905778767525639e-13 1.043622450285809633e-13 3.173706414859311931e-14
2.858000000000000000e+03 2.960849380493164062e+01 1.468995571136474609e+01 7.270947759889859197e-15 1.403689718713213574e-13 4.429197284004475488e-14 3.830523206027787453e-14
2.859000000000000000e+03 4.730287170410156250e+01 1.415303707122802734e+00 -4.593370903907198488e-14 1.633179133380888159e-13 3.521526264495776493e-14 2.060988776560537805e-13
2.860000000000000000e+03 6.085448837280273438e+01 1.442843818664550781e+01 -1.341362730524625624e-13 -7.464357907813190529e-14 -6.263395292867290909e-14 8.850938645194039722e-14
2.861000000000000000e+03 7.051984405517578125e+01 2.861361122131347656e+01 4.032185148923270179e-14 -5.134562954390957390e-14 -3.307133204644824818e-15 -2.507077255216663692e-14
2.862000000000000000e+03 7.377241516113281250e+01 2.975805091857910156e+01 8.872911357472174076e-14 -7.724186619636162765e-15 2.430147690067954724e-14 1.091053788114526579e-13
2.863000000000000000e+03 3.486823272705078125e+01 -1.202040672302246094e+01 1.329461578802523802e-14 1.086373287335906657e-13 3.657958200123205550e-14 -5.220259988170106169e-14
2.864000000000000000e+03 3.550246429443359375e+01 -1.238013935089111328e+01 1.081913896037837997e-13 -3.369642076218176685e-14 2.234848997485425204e-14 -6.560715377001632986e-14
2.865000000000000000e+03 2.604754638671875000e+01 7.064021825790405273e-01 4.974887418251333626e-14 1.703179460801288597e-14 2.003419945131174051e-14 -7.087130768313951168e-14
2.866000000000000000e+03 2.547778892517089844e+01 -8.379916548728942871e-01 -4.762588774417410298e-14 2.533985289665269952e-14 -6.685810623663010488e-15 -1.561083890194020496e-13
2.867000000000000000e+03 6.869158744812011719e+00 2.336955070495605469e+01 1.693675073506737544e-14 3.732661965974437557e-13 1.170608884349180756e-13 -8.953649860378096181e-15
2.868000000000000000e+03 4.671209335327148438e+01 1.831028580665588379e+00 1.003795164393819772e-13 1.345216933722540031e-13 7.047036294349079411e-14 5.656082834081324617e-14
2.869000000000000000e+03 1.117681407928466797e+01 1.464714145660400391e+01 5.846312881507484405e-14 2.505562590900383552e-14 2.505562590900383552e-14 6.647807982264677951e-14
2.870000000000000000e+03 1.145060920715332031e+01 1.326454544067382812e+01 7.452225685503077734e-14 3.750702276972966986e-13 1.348777453656982428e-13 8.528124224600058811e-14
2.871000000000000000e+03 3.676877212524414062e+01 1.473429012298583984e+01 -5.916195132535037593e-14 2.039582830968070248e-14 -1.162983605766795478e-14 5.090313953226392740e-14
2.872000000000000000e+03 3.658804321289062500e+01 1.293224620819091797e+01 -9.215052359417066907e-14 -5.179868629157221779e-15 -2.919911626939400429e-14 6.771957940156919653e-14
2.873000000000000000e+03 2.986649894714355469e+01 7.491378307342529297e+00 3.019619517402377315e-15 3.673017022910035623e-13 1.110964009047414602e-13 -1.080932455902513384e-14
2.874000000000000000e+03 2.830925750732421875e+01 -3.626136302947998047e+00 -1.197508181652936089e-15 -4.626416708498198860e-14 -1.423850187060038408e-14 -1.120794470145340671e-13
2.875000000000000000e+03 2.790020942687988281e+01 -2.980504751205444336e+00 1.086328648699586355e-14 -1.325971532009292964e-13 -3.652016094591627182e-14 -4.583720488132540793e-14
2.876000000000000000e+03 5.966790771484375000e+01 -3.180749177932739258e+00 -1.140304637417240488e-14 8.661487868079353891e-14 2.256354994609622439e-14 -4.693456655767945518e-14
2.877000000000000000e+03 6.022826385498046875e+01 -2.838189363479614258e+00 -2.343892495457883252e-13 -1.147497082163578819e-13 -1.047416886838965777e-13 -8.319827811441912052e-15
2.878000000000000000e+03 4.317105865478515625e+01 3.507207870483398438e+00 -5.153574439485490710e-14 6.941514962659212085e-14 5.363821738927753574e-15 -5.024545571817064238e-14
2.879000000000000000e+03 7.613190650939941406e+00 2.260505104064941406e+01 7.934615861755495853e-15 2.779062516135993866e-13 8.575226032730975945e-14 1.058261754594523596e-13
2.880000000000000000e+03 2.731445884704589844e+01 1.949481010437011719e+01 -1.062896786644534908e-13 9.170012568292945643e-14 -4.376864454501199972e-15 -5.421636311555774745e-14
2.881000000000000000e+03 4.988621902465820312e+01 2.053807973861694336e+00 6.573202675523234784e-14 1.196727585734899679e-13 5.562143830912212594e-14 2.471384913122626203e-13
2.882000000000000000e+03 6.008367156982421875e+01 1.058431243896484375e+01 -2.054610144129262461e-13 -1.566811459220718294e-13 -1.086426481004994227e-13 9.631679405864429500e-14
2.883000000000000000e+03 8.115507125854492188e+00 3.081427383422851562e+01 1.939610073302486942e-14 1.226899847992998782e-13 4.262582515147765594e-14 6.730921057334932761e-15
2.884000000000000000e+03 1.036934757232666016e+01 7.422928333282470703e+00 5.891154128108769261e-14 -4.337862060115223184e-14 4.659875102837806801e-15 8.007685497763566973e-14
2.885000000000000000e+03 7.289879608154296875e+01 3.069293975830078125e+01 6.691857083653690585e-14 2.867938701735413265e-14 2.867938701735413265e-14 9.727301294093146367e-14
2.886000000000000000e+03 6.110456085205078125e+01 1.852476882934570312e+01 6.251658126723777520e-14 -6.470907522922869637e-14 -6.577482415368355543e-16 -1.081233067895493935e-14
2.887000000000000000e+03 5.935649871826171875e+01 1.762582778930664062e+01 3.072502579508189224e-14 -7.833402709041953349e-14 -1.428270174385400798e-14 7.593067613467091581e-14
2.888000000000000000e+03 5.982735824584960938e+01 1.976791954040527344e+01 3.369670536525204430e-14 -9.993592867303668914e-14 -1.987176563708267785e-14 2.424230826118204535e-14
2.889000000000000000e+03 3.487745666503906250e+01 1.122574043273925781e+01 8.984566562952878144e-15 1.868543297520175450e-13 5.875166889449112695e-14 5.746184777999374660e-14
2.890000000000000000e+03 2.930852127075195312e+01 1.310399341583251953e+01 -1.588906754106979291e-14 -2.968507601189274148e-14 -1.367224255766899196e-14 -1.179978152947985803e-13
2.891000000000000000e+03 3.919762420654296875e+01 1.901217079162597656e+01 1.419903182932422819e-14 9.186832609746342637e-14 3.182020890269560143e-14 -2.874067493328566480e-14
2.892000000000000000e+03 3.775960540771484375e+01 1.858035659790039062e+01 2.683533784590816026e-15 -2.172538882193146559e-14 -5.712556638257136957e-15 -5.172251261862563856e-15
2.893000000000000000e+03 5.864396667480468750e+01 2.100951385498046875e+01 1.156945904096789990e-13 -1.904302690742317589e-14 2.899546922008333638e-14 5.182057362292926891e-15
2.894000000000000000e+03 5.852824783325195312e+01 2.237015342712402344e+01 -1.360025068638300721e-14 -1.659569969511900944e-13 -5.386717547711805665e-14 -6.090478598883009020e-15
2.895000000000000000e+03 7.403158664703369141e+00 2.820151901245117188e+01 5.272072993553651721e-14 1.369719767295440871e-13 5.690781369359007580e-14 -7.651214731230204791e-14
2.896000000000000000e+03 8.346303939819335938e+00 2.955306434631347656e+01 5.757275488597543567e-14 1.619268819507899138e-13 6.584989308390867824e-14 -2.148144841531991062e-14
2.897000000000000000e+03 1.920782661437988281e+01 2.399012374877929688e+01 -8.997211917822437593e-15 9.908368477909088035e-14 2.702594312892995371e-14 3.507908007583000753e-14
2.898000000000000000e+03 3.810741043090820312e+01 2.552573776245117188e+01 -2.105872476453139047e-14 1.482437219854637611e-13 3.815549696399404833e-14 2.346076790140944751e-14
2.899000000000000000e+03 2.819531250000000000e+01 2.097025108337402344e+01 -1.988346655021604875e-14 1.287313625922964500e-13 3.265436694915163640e-14 -7.739560267628828316e-15
2.900000000000000000e+03 7.466441345214843750e+01 2.883895111083984375e+01 -4.240261841734899173e-14 -1.817254978225477102e-14 -1.817254978225477102e-14 -3.898937379551159488e-14
2.901000000000000000e+03 7.374356842041015625e+01 2.881348228454589844e+01 3.594963682209545430e-14 -2.133477585136017707e-13 -5.321943582982553711e-14 1.192509903758659506e-14
2.902000000000000000e+03 2.198697853088378906e+01 2.140872955322265625e+01 8.903786724839130029e-14 1.754119310741486526e-13 7.933493543100383905e-14 5.244584741536176264e-14
2.903000000000000000e+03 1.974491119384765625e+01 2.533425712585449219e+01 6.177904596314093277e-14 1.408540981333999964e-13 6.078994187370956315e-14 -4.598863065537195371e-14
2.904000000000000000e+03 4.171966171264648438e+01 2.439085960388183594e+01 -3.873972269276965141e-14 9.132169677308465267e-15 -8.882266158748240020e-15 5.350011883162308912e-14
2.905000000000000000e+03 3.798595046997070312e+01 2.040722846984863281e+01 -3.401321786071845321e-14 1.226757546457860060e-13 2.659875900264119242e-14 -2.300371569933460508e-14
2.906000000000000000e+03 2.300381851196289062e+01 2.401761245727539062e+01 4.881771392293773881e-14 1.067049077677247049e-13 4.665678718482509091e-14 1.459305101583795779e-15
2.907000000000000000e+03 2.450922584533691406e+01 2.327435874938964844e+01 -2.244784185736949794e-14 1.325497125796194775e-14 -2.757861137470617695e-15 1.493972487224843465e-14
2.908000000000000000e+03 5.584951400756835938e+01 2.687767982482910156e+01 2.592761752908193107e-14 -5.751458743942158836e-14 -9.476090464882128833e-15 4.093758684364616485e-14
2.909000000000000000e+03 7.289808654785156250e+01 4.143799209594726562e+01 3.735725734966633196e-15 -1.127763450659534372e-13 -3.271218541813121494e-14 4.074199677172977985e-14
2.910000000000000000e+03 7.052520751953125000e+01 3.004715919494628906e+01 5.833969917400094740e-14 -1.351255939823284291e-13 -2.303576742605870781e-14 3.044150015071335480e-14
2.911000000000000000e+03 4.315727615356445312e+01 2.544269180297851562e+01 -1.261590522804931225e-14 1.146894265755676878e-13 3.062205708188187048e-14 -4.435354620607951173e-15
2.912000000000000000e+03 4.217362594604492188e+01 2.695337486267089844e+01 -4.532986263910618319e-14 3.490216877446647437e-14 -3.128308879369917812e-15 2.008578883999721093e-14
2.913000000000000000e+03 4.965814590454101562e+01 2.952770042419433594e+01 2.001653542622969933e-14 6.576720233946592442e-14 2.573512082148891877e-14 5.082673716042158951e-14
2.914000000000000000e+03 4.609798812866210938e+01 2.926641654968261719e+01 -2.170132122776818190e-14 1.193739795598072750e-13 2.930179699139195959e-14 -6.765046320713914013e-15
2.915000000000000000e+03 5.353171157836914062e+01 2.767847442626953125e+01 2.039043779200437612e-14 7.736518402908648673e-14 2.932668620751407995e-14 5.950788635727261022e-14
2.916000000000000000e+03 5.168317794799804688e+01 2.758829307556152344e+01 2.612190486432543896e-14 1.598856816257057667e-13 5.580227645522913005e-14 -5.498726135338104226e-16
2.917000000000000000e+03 5.178928375244140625e+01 2.941250801086425781e+01 -6.760783627406856747e-15 1.114798967656767392e-13 3.141573372972272793e-14 -7.525626003173756934e-15
2.918000000000000000e+03 4.400322723388671875e+01 2.814127731323242188e+01 3.758904198645184047e-14 1.190492203515663983e-13 4.699148039547136613e-14 1.267063880303499063e-14
2.919000000000000000e+03 4.098244857788085938e+01 -1.129075622558593750e+01 6.322584599968705810e-14 -1.787824852354444327e-13 -3.466699177072721239e-14 -1.735835799643141442e-14
2.920000000000000000e+03 7.251065826416015625e+01 -4.391512870788574219e+00 -4.382279112616523087e-14 4.984522587432940743e-14 1.806730805614079234e-15 -3.078448708446267050e-15
2.921000000000000000e+03 8.472987174987792969e+00 9.313425064086914062e+00 7.458497795070906378e-14 3.064706962600111106e-13 1.143167049737214835e-13 1.043449520039298195e-13
2.922000000000000000e+03 4.669651794433593750e+01 -1.028893756866455078e+01 1.363136220653565767e-14 1.716892009421752685e-13 5.559616962223963565e-14 4.864512587773699159e-14
2.923000000000000000e+03 4.508031463623046875e+01 -1.073726844787597656e+01 7.740313788138705742e-14 1.704256175202520374e-13 7.434862865337080184e-14 4.103009300588170150e-14
2.924000000000000000e+03 1.228743362426757812e+01 1.842079353332519531e+01 1.761175298480022189e-14 1.676762163361003588e-13 5.558639147389653201e-14 3.458517855241781402e-14
2.925000000000000000e+03 6.934421539306640625e+00 1.707474899291992188e+01 -1.920349560521460858e-14 3.120265818726958296e-13 8.784692537202459794e-14 4.569047505793844000e-14
2.926000000000000000e+03 7.323602199554443359e+00 1.375615882873535156e+01 2.918197571067336626e-14 1.955103559516530032e-13 6.740770187039016315e-14 4.204290808860556075e-15
2.927000000000000000e+03 2.659003257751464844e+01 1.151521086692810059e+00 -5.176250189109846134e-14 6.502882000242182770e-14 3.979894840473946829e-15 -1.350254950167537049e-13
2.928000000000000000e+03 2.553945350646972656e+01 1.317536115646362305e+00 2.674662385017748112e-14 -5.693767329904668439e-15 6.315856701971959627e-15 -9.428105540200404366e-14
2.929000000000000000e+03 3.523170089721679688e+01 -1.139110374450683594e+01 1.200431491406653284e-13 -1.717936129995174116e-14 3.085913482755477111e-14 -5.633758433723490278e-14
2.930000000000000000e+03 3.847408676147460938e+01 -1.231093025207519531e+01 2.427858668231294703e-14 1.476579546567241552e-13 5.158096240171113067e-14 9.560561841986600640e-14
2.931000000000000000e+03 4.557573699951171875e+01 -1.126071357727050781e+01 -5.257779481975324853e-14 1.604704596199629796e-13 3.236779876243656151e-14 1.331188170762206968e-13
2.932000000000000000e+03 4.660726165771484375e+01 -1.132733058929443359e+01 4.342813814724871824e-14 1.455453325135275255e-15 1.346507693349542970e-14 -4.423395108315783530e-14
2.933000000000000000e+03 5.876548767089843750e+01 6.256655216217041016e+00 -3.228297349496672686e-14 -5.170960231185017797e-13 -1.648136922077769739e-13 3.821254971518930899e-14
2.934000000000000000e+03 5.993015670776367188e+01 7.378166198730468750e+00 -7.733352532564991000e-14 1.260801088098090217e-14 -1.941765263933480784e-14 4.759528613785569962e-14
2.935000000000000000e+03 5.977465820312500000e+01 8.813049316406250000e+00 -7.873459913557145917e-14 -2.624981395443759524e-13 -1.023698202487315079e-13 5.288323151240136022e-14
2.936000000000000000e+03 4.162616348266601562e+01 -1.114001750946044922e+01 1.880563745362568567e-14 -1.481591576041416808e-14 1.196916423260160553e-15 -6.631490400755592207e-15
2.937000000000000000e+03 6.079508972167968750e+01 1.639369010925292969e+01 -2.520819856566096362e-14 -5.655446204118168285e-14 -2.452879852086597284e-14 1.845953132104810601e-14
2.938000000000000000e+03 7.237037658691406250e+01 1.586824798583984375e+01 -5.699409585772918785e-14 -2.442604156590276465e-14 -2.442604156590276465e-14 -2.455841079270198318e-14
2.939000000000000000e+03 4.980616760253906250e+01 -9.128396034240722656e+00 -2.454205755110581803e-15 1.819519876563799321e-13 5.384933696324888108e-14 -9.607330385004420568e-16
2.940000000000000000e+03 2.712620925903320312e+01 1.587241411209106445e+00 -1.584341585334457514e-14 1.190250697481742836e-13 3.095449718488844926e-14 -8.911196569061710648e-15
2.941000000000000000e+03 2.961872482299804688e+01 -4.409428119659423828e+00 7.136234284705819664e-14 7.633481249446488759e-14 4.430914728008328307e-14 -1.692089800523974286e-13
2.942000000000000000e+03 6.829785823822021484e+00 2.201533699035644531e+01 -7.456225036266833639e-14 1.052975930190477860e-13 9.220603305133603239e-15 8.024727123035965692e-14
2.943000000000000000e+03 7.250325012207031250e+01 1.113599395751953125e+01 -5.990799761650122957e-14 -2.544295882919017648e-13 -9.430127577252089832e-14 -5.876692226380528239e-14
2.944000000000000000e+03 3.139001083374023438e+01 -7.829616546630859375e+00 1.004043294225388447e-14 2.788087415019763204e-13 8.665475021568669334e-14 -4.396769135838612952e-14
2.945000000000000000e+03 3.121191978454589844e+01 -7.019753456115722656e+00 -9.612652335363666700e-14 4.744538163498242256e-14 -1.460434387084898894e-14 -4.001545934342008726e-14
2.946000000000000000e+03 5.421751022338867188e+01 1.090059876441955566e+00 -5.744461574171480511e-14 2.113182879007712012e-14 -1.089383557727153715e-14 1.807725247705144200e-13
2.947000000000000000e+03 3.061840248107910156e+01 -8.362834930419921875e+00 -8.087820235584686213e-14 1.025907603226933196e-13 6.513768067680295037e-15 -8.471137203161505091e-14
2.948000000000000000e+03 3.171927452087402344e+01 -9.966587066650390625e+00 2.093388227250147365e-14 3.749792631350251648e-13 1.187739414199723287e-13 -1.444769698571556765e-15
2.949000000000000000e+03 3.050107192993164062e+01 8.601728439331054688e+00 1.576465872990887029e-14 1.440091264553328143e-13 4.793213758845157879e-14 -4.212352783749227780e-14
2.950000000000000000e+03 7.015754699707031250e+01 -2.752093553543090820e+00 -2.425518011266170060e-13 -1.244887117788371148e-14 -7.650020075961397326e-14 6.557482421648552773e-14
2.951000000000000000e+03 6.775984191894531250e+01 -1.877367019653320312e+00 -6.795769730370132544e-14 -6.249252383746985856e-15 -2.226208414390484086e-14 -5.115368171366638239e-14
2.952000000000000000e+03 6.676335811614990234e+00 1.131191062927246094e+01 -3.147138718248912448e-14 2.152670131993356106e-13 5.513868712742758804e-14 -2.832413631707799556e-14
2.953000000000000000e+03 9.752276420593261719e+00 1.172566795349121094e+01 -7.205248496369026645e-14 6.062226323147110185e-14 -3.429068256083291251e-15 1.010640071521899663e-13
2.954000000000000000e+03 7.579840660095214844e+00 2.331809043884277344e+01 -2.460599879774462428e-14 -1.054542805617626755e-14 -1.054542805617626755e-14 -6.675802082358253675e-14
2.955000000000000000e+03 9.399755477905273438e+00 2.534614753723144531e+01 6.419346763951016416e-15 2.086304219661716530e-13 6.451492850145443270e-14 1.981601901069208332e-14
2.956000000000000000e+03 3.211172485351562500e+01 1.196813678741455078e+01 -3.202513666582251783e-14 7.777684204145207669e-14 1.372551076565592040e-14 -6.870786356310762399e-14
2.957000000000000000e+03 5.285749053955078125e+01 -6.432443618774414062e+00 1.236180042607070567e-14 1.654262393301769718e-13 5.333641107984135599e-14 -8.940234552559482573e-15
2.958000000000000000e+03 7.155796813964843750e+01 2.386349296569824219e+01 4.423831499690208946e-14 -1.640445185290342889e-13 -3.594186105963965983e-14 -4.949051558107361859e-14
2.959000000000000000e+03 7.272872924804687500e+01 8.204886436462402344e+00 -6.261316335201549954e-14 2.019205251136205193e-13 4.179220920610786372e-14 7.624557757347164705e-15
2.960000000000000000e+03 7.263766479492187500e+01 9.640763282775878906e+00 -7.777548678873646981e-14 3.529407059037030503e-14 -1.274442469010325998e-14 -8.445695721557774927e-14
2.961000000000000000e+03 5.563184738159179688e+01 2.437647104263305664e+00 -9.950229015568985008e-15 -1.129228885420920092e-13 -3.686193535200159299e-14 -9.798779355193326657e-14
2.962000000000000000e+03 7.267927551269531250e+01 1.922303009033203125e+01 -7.657606103037006839e-14 -1.243202047383762388e-13 -6.026888108587660775e-14 -7.980451694443446709e-14
2.963000000000000000e+03 7.184503173828125000e+01 1.912508964538574219e+01 6.644668539348974612e-14 -8.590022004253614063e-14 -5.836061665263339235e-15 -1.917382912326997396e-14
2.964000000000000000e+03 7.349948883056640625e+01 2.462569475173950195e+00 -2.502291451302041114e-13 7.576272644188933314e-14 -5.233992763937350690e-14 1.609644492348016875e-13
2.965000000000000000e+03 7.264169311523437500e+01 5.124217987060546875e+00 -1.967385672776988947e-13 7.185371174195809979e-15 -5.686595671346855729e-14 5.860736158533330631e-14
2.966000000000000000e+03 7.319860076904296875e+01 1.203513622283935547e+01 9.043870388908761826e-14 -1.899953041032895196e-13 -2.986698141951328600e-14 -1.093683588246525951e-13
2.967000000000000000e+03 7.173442077636718750e+01 1.104595947265625000e+01 -3.283960966658436287e-14 8.801356724593561998e-15 -7.211475882597240261e-15 2.030773417266082403e-13
2.968000000000000000e+03 6.538616943359375000e+01 -2.104485750198364258e+00 -9.148127947441325736e-14 -1.307081613083349581e-13 -6.665683087957174902e-14 -4.635087954185830583e-14
2.969000000000000000e+03 3.086695289611816406e+01 -6.595559597015380859e+00 -2.721298494434264831e-14 -1.489155478616444039e-13 -5.283856238289495744e-14 -1.134712305670901311e-13
2.970000000000000000e+03 3.912353515625000000e+01 -1.230206298828125000e+01 8.132583555154823673e-14 8.060487498816326646e-14 4.857921316191345096e-14 7.402824691140133528e-14
2.971000000000000000e+03 3.211528015136718750e+01 -1.090796756744384766e+01 4.122593379955047377e-14 -1.939298873397665712e-13 -4.581118402918575583e-14 2.430475796750403150e-13
2.972000000000000000e+03 7.036179351806640625e+01 -3.426656246185302734e+00 -8.820368887314453121e-14 7.949367787564876747e-15 -2.407629657978378052e-14 2.826149314843085653e-14
2.973000000000000000e+03 7.334718322753906250e+01 5.858346939086914062e+00 2.375129003792230548e-14 7.880554661523347937e-14 3.076705218179286161e-14 -6.402861808731553223e-15
2.974000000000000000e+03 4.842711639404296875e+01 5.461632609367370605e-01 1.708077513522081314e-14 1.445731826355683980e-13 4.849618699242358444e-14 1.639943606260296782e-13
2.975000000000000000e+03 7.224520111083984375e+01 4.491813182830810547e+00 -7.376956304930987196e-14 1.513882742039049378e-13 2.328560995824673074e-14 4.413331679276044639e-14
2.976000000000000000e+03 1.048503494262695312e+01 1.680160140991210938e+01 1.219976132919506351e-13 3.725413261299742596e-13 1.483616831818301840e-13 1.251914967092399023e-13
2.977000000000000000e+03 7.869936943054199219e+00 2.472393417358398438e+01 -4.736708190933823504e-14 2.545077016702975564e-14 -6.574893776802427994e-15 5.317273382124572401e-14
2.978000000000000000e+03 7.770404338836669922e+00 2.543903160095214844e+01 -5.535172268992562261e-14 1.592816319378326240e-13 3.117897108030620590e-14 -3.057884146091295607e-14
2.979000000000000000e+03 6.945122528076171875e+01 -3.015776634216308594e+00 -5.786216232712970697e-14 6.670382426748541760e-14 2.652498920919892089e-15 -5.537295272371560440e-14
2.980000000000000000e+03 2.954978561401367188e+01 4.595732212066650391e+00 -4.645093107358798379e-14 1.630962482039241546e-13 3.499359751079310354e-14 -4.649434659433245021e-14
2.981000000000000000e+03 7.304097747802734375e+01 -6.786245703697204590e-01 -2.269554173501414640e-13 -1.430175558059590402e-13 -1.109918905915774356e-13 5.801088098387682801e-15
2.982000000000000000e+03 7.314801788330078125e+01 1.283248233795166016e+01 -7.048333948824272999e-14 6.129475318148239205e-14 -2.756576612006106548e-15 -3.964197541192135410e-14
2.983000000000000000e+03 7.293526458740234375e+01 -2.537446498870849609e+00 -1.115342898334176214e-13 -1.850532531030846251e-13 -8.897626423620338953e-14 -7.931810488634189610e-15
2.984000000000000000e+03 7.311727905273437500e+01 -1.987390279769897461e+00 -5.755312405038987000e-14 -9.329204618026276652e-14 -4.525355174682214876e-14 8.852041143278185920e-14
2.985000000000000000e+03 5.455672073364257812e+01 2.374414920806884766e+00 -1.418054313296474023e-13 3.072814287632778807e-14 -3.332318755243542097e-14 -3.279068462003448085e-15
2.986000000000000000e+03 7.254563140869140625e+01 1.037460517883300781e+01 -9.981718820635879230e-14 2.584762881974091847e-14 -2.219086900183148831e-14 1.365895379657269815e-13
2.987000000000000000e+03 7.555576801300048828e+00 1.906970977783203125e+01 -4.784246051625987151e-14 5.628206776499278252e-13 1.544934698834848907e-13 5.010747066293112784e-14
2.988000000000000000e+03 4.231127166748046875e+01 3.384116411209106445e+00 -1.393086492516848462e-13 -1.969565596770042615e-13 -1.008795640338594479e-13 -1.251119586214268289e-14
2.989000000000000000e+03 7.124110412597656250e+01 1.810226631164550781e+01 1.241555821910114710e-13 7.458585886497420825e-15 3.948425110087902534e-14 1.850497294460240472e-14
2.990000000000000000e+03 7.948749065399169922e+00 1.181315040588378906e+01 1.115168545072313389e-13 1.850457856606216311e-13 8.896879001747681759e-14 1.125974449312297510e-13
2.991000000000000000e+03 7.317750930786132812e+00 1.800517272949218750e+01 7.461830022685404795e-15 2.777036142275618458e-13 8.554963649379937474e-14 2.785440572584865077e-14
2.992000000000000000e+03 6.965222835540771484e+00 1.866966629028320312e+01 -4.584688816197841910e-14 1.633551285776593809e-13 3.525247110826475183e-14 4.995527917110026417e-14
2.993000000000000000e+03 7.039706230163574219e+00 1.970818519592285156e+01 -5.092218422104999309e-14 4.699989312670349584e-13 1.257230132717737647e-13 4.554023513001805024e-14
2.994000000000000000e+03 7.332623481750488281e+00 9.403924942016601562e+00 5.200571215530948310e-14 8.233628487125041473e-14 4.030260012440750605e-14 1.083580721352762899e-13
2.995000000000000000e+03 6.197472000122070312e+01 -2.112202405929565430e+00 -8.731660143188046952e-14 -8.317234704777187737e-14 -5.114668522152206187e-14 -4.703984597675958668e-14
2.996000000000000000e+03 8.898219108581542969e+00 1.679493141174316406e+01 1.102421647893037093e-13 4.724664060050225156e-14 4.724664060050225156e-14 4.719400597315986934e-14
2.997000000000000000e+03 7.375669479370117188e+00 1.246020030975341797e+01 2.119076026034939081e-14 2.378364974582602986e-13 7.770817816261585409e-14 6.683298662754633135e-14
2.998000000000000000e+03 7.340329170227050781e+00 1.310505294799804688e+01 -6.792532031632547707e-14 6.239104420819110985e-14 -1.660281985407362909e-15 3.948654825423197900e-14
2.999000000000000000e+03 6.730011940002441406e+00 1.304988002777099609e+01 -1.726028513366652251e-14 8.410463216710142853e-14 2.005330512647000851e-14 -3.490697314534330076e-14
3.000000000000000000e+03 7.924083232879638672e+00 1.245875167846679688e+01 -1.734981821025719656e-14 3.831531175235020070e-14 6.289648232034490694e-15 6.410403620687316062e-14
3.001000000000000000e+03 7.075117492675781250e+01 2.397601509094238281e+01 8.834058125588208771e-15 -1.563422920855886411e-13 -4.425247061151660333e-14 -3.752831311226549615e-14
3.002000000000000000e+03 6.707136535644531250e+01 -1.640926718711853027e+00 -5.897890411731693261e-14 -9.390309574841201878e-14 -4.586460131497140102e-14 -1.443607738774513316e-13
3.003000000000000000e+03 5.544906616210937500e+01 -5.021349906921386719e+00 -4.978872877674754560e-14 5.505488100999988976e-13 1.502280288015467313e-13 -4.670837149131287780e-14
3.004000000000000000e+03 5.906741333007812500e+01 -3.554690837860107422e+00 -1.012544133824691550e-13 -1.749287292709261754e-13 -8.285494008551316791e-14 -2.668771270869594453e-15
3.005000000000000000e+03 8.548118591308593750e+00 2.632896232604980469e+01 -1.944845245136286871e-14 8.316684472174651344e-14 1.911551768111509342e-14 -3.057639014756360213e-15
3.006000000000000000e+03 7.543626785278320312e+00 2.719436073303222656e+01 -2.566475101829692601e-14 -1.099917937085565997e-14 -1.099917937085565997e-14 -4.540004778911567451e-14
3.007000000000000000e+03 7.244981384277343750e+01 2.080541801452636719e+01 1.506227359905718682e-14 9.795715806429697303e-14 3.390583102366555301e-14 9.190026940397028055e-14
3.008000000000000000e+03 7.218592834472656250e+01 1.743138313293457031e+01 3.845574981500496370e-14 -6.394439336620530087e-15 9.618392847053798544e-15 -6.310318207639747934e-14
3.009000000000000000e+03 3.128019714355468750e+01 9.936608314514160156e+00 3.491767625366480610e-14 4.724742190369279893e-13 1.522175668931119441e-13 -1.228896406293630839e-13
3.010000000000000000e+03 3.038011932373046875e+01 1.006419754028320312e+01 6.198248972454425965e-14 3.925715275857749598e-13 1.363662058707221236e-13 1.693320166701837992e-14
3.011000000000000000e+03 5.195942687988281250e+01 1.532803297042846680e+00 -2.135672823484757732e-13 4.117316025880474184e-13 5.944929200611334674e-14 4.947993105736472885e-14
3.012000000000000000e+03 4.227134323120117188e+01 -1.098043346405029297e+01 1.415691565712084987e-13 -1.223313036155873612e-13 5.771358512488477741e-15 -1.777199400013543262e-13
3.013000000000000000e+03 2.970040130615234375e+01 1.164286613464355469e+01 6.734275816025828143e-14 1.203630836492386447e-13 5.631174983234364662e-14 2.730318717696165326e-14
3.014000000000000000e+03 5.378584671020507812e+01 -5.189412117004394531e+00 -3.675710655444940078e-14 3.960054940216339858e-13 1.077745138684631232e-13 -7.680408568790271506e-15
3.015000000000000000e+03 5.672438430786132812e+01 -4.193552970886230469e+00 -4.136394934797608947e-14 3.368424517178475464e-13 8.864354969452190036e-14 -1.380089754499450039e-13
3.016000000000000000e+03 5.503528594970703125e+01 -4.449756622314453125e+00 -1.431010664782947361e-14 4.513765934372609978e-13 1.311199412934449526e-13 6.739637873395126766e-14
3.017000000000000000e+03 8.433485031127929688e+00 8.185850143432617188e+00 6.953440508930194830e-14 1.836272223144051752e-14 2.636913853503591865e-14 1.172631819255790311e-14
3.018000000000000000e+03 7.265277862548828125e+00 1.042698860168457031e+01 3.316050979271754906e-14 2.887173464714842819e-13 9.656335518519465477e-14 1.218242629170973590e-13
3.019000000000000000e+03 2.930105781555175781e+01 5.793105125427246094e+00 9.858033714425090688e-14 3.625053545102535635e-13 1.383257115621094879e-13 -1.684891003030531548e-14
3.020000000000000000e+03 3.011986923217773438e+01 6.278397560119628906e+00 -7.435526939167727556e-14 -3.186654160491041166e-14 -3.186654160491041166e-14 3.394520450318572191e-14
3.021000000000000000e+03 5.627969360351562500e+01 -3.622731447219848633e+00 4.018210799359468732e-14 3.374775502454352427e-13 1.132978937447640111e-13 2.446629595968807802e-14
3.022000000000000000e+03 5.565328216552734375e+01 -4.042354583740234375e+00 -2.145273162671573752e-13 9.106351604856385840e-14 -3.703914142083077066e-14 -1.414324386772580766e-13
3.023000000000000000e+03 3.858988952636718750e+01 8.060851097106933594e+00 -1.244466633692695168e-13 3.816761292327157384e-14 -2.588371581142574068e-14 2.029257838154219229e-14
3.024000000000000000e+03 6.189938735961914062e+01 1.208431243896484375e+01 -1.375201696767434922e-14 -5.164466944374002111e-14 -1.961900592342431110e-14 1.033950147179794887e-13
3.025000000000000000e+03 6.143415069580078125e+01 1.274041748046875000e+01 -8.610334531955129989e-14 -2.656561765273374176e-13 -1.055278572316929731e-13 5.402992777573528693e-14
3.026000000000000000e+03 3.990202713012695312e+01 6.654873847961425781e+00 -1.667294909990860163e-14 1.301072964643434915e-13 3.403030420933046696e-14 8.703108356601998996e-14
3.027000000000000000e+03 4.648597717285156250e+01 1.049141407012939453e+00 -8.379524830091911181e-14 1.928425003233993906e-13 3.271417425149136804e-14 7.070268036400012557e-14
3.028000000000000000e+03 4.054585647583007812e+01 3.902502059936523438e+00 -8.294965192154335476e-14 1.020109815168908016e-14 -2.182456621565957711e-14 -3.825159115779415420e-14
3.029000000000000000e+03 3.467830276489257812e+01 -1.109622669219970703e+01 1.855487334959105006e-14 2.824577865438021584e-13 9.030379525751253134e-14 -1.094751324098516831e-13
3.030000000000000000e+03 3.185969924926757812e+01 -8.529721260070800781e+00 2.105233898314204030e-15 2.754079245475410387e-13 8.325395359004214568e-14 2.093207470419203298e-14
3.031000000000000000e+03 4.291517639160156250e+01 -1.081536579132080078e+01 3.046144269442351005e-14 -5.557152096347453551e-14 -7.533023141902128739e-15 -2.661337201504722361e-14
3.032000000000000000e+03 1.198579502105712891e+01 1.409843349456787109e+01 6.468125866724086515e-14 1.192224352011481137e-13 5.517110816051669364e-14 3.362963052022487076e-14
3.033000000000000000e+03 4.409098815917968750e+01 2.847938776016235352e+00 1.386572605864555552e-15 1.835980369471745810e-13 5.549538286591174097e-14 -1.554279166308958349e-13
3.034000000000000000e+03 3.268474197387695312e+01 -1.051622104644775391e+01 -9.058049635742504088e-16 2.248727293513008013e-14 6.474440327939277873e-15 -5.897634946594801364e-14
3.035000000000000000e+03 3.095433616638183594e+01 -9.971607208251953125e+00 1.531919393855246669e-14 -2.221893730201124351e-13 -6.206105372446799051e-14 -1.006648581223894279e-13
3.036000000000000000e+03 6.428318023681640625e+01 -2.029637336730957031e+00 -1.559457993511106921e-13 -1.283117492464902476e-13 -8.527726457928028192e-14 -8.046108267503737643e-14
3.037000000000000000e+03 8.389055252075195312e+00 1.787581634521484375e+01 -5.029065339623613184e-14 2.336513686522490030e-13 5.500821694849611365e-14 8.346265573198202725e-14
3.038000000000000000e+03 7.573095798492431641e+00 1.584821224212646484e+01 5.715358877356538359e-14 1.617472432033362217e-13 6.567024756019140819e-14 4.301363410418035382e-14
3.039000000000000000e+03 1.162406826019287109e+01 2.031189727783203125e+01 -1.793136562085358154e-14 3.806607738981830635e-14 6.040413869502596345e-15 -2.126058796245514082e-14
3.040000000000000000e+03 9.168443679809570312e+00 2.160643768310546875e+01 -4.667159332074309608e-14 4.862431258415705893e-14 5.858151861011257761e-16 -8.150317036938539705e-15
3.041000000000000000e+03 1.655800437927246094e+01 2.286799812316894531e+01 1.662782956063249638e-15 6.933904541034721647e-14 2.130054758877480969e-14 3.184726991129448181e-14
3.042000000000000000e+03 6.597921752929687500e+01 -1.604876637458801270e+00 -7.653194755447706443e-14 -7.855035252888470376e-14 -4.652469070263488826e-14 -1.098584859692518234e-13
3.043000000000000000e+03 5.713581085205078125e+01 4.969317436218261719e+00 -2.516961113271584671e-14 -2.852926770692543190e-13 -9.313868578296469192e-14 -5.022069186292471565e-14
3.044000000000000000e+03 6.014062500000000000e+01 1.004363250732421875e+01 -1.612572922415900223e-13 2.968973266022356672e-13 4.069201166344640908e-14 4.984760773097708653e-14
3.045000000000000000e+03 5.218560409545898438e+01 -8.310862541198730469e+00 -1.025857120063276839e-13 2.191026494350462039e-13 3.495508122861555600e-14 6.635583602769903888e-14
3.046000000000000000e+03 1.453252506256103516e+01 2.092106437683105469e+01 5.888764817571154331e-14 2.362088169239598065e-15 1.837491950588097944e-14 2.666012145747208295e-14
3.047000000000000000e+03 1.253413867950439453e+01 2.018522071838378906e+01 8.950214972370390543e-14 1.984863824949084643e-13 8.639656102083642653e-14 4.654049294929886449e-14
3.048000000000000000e+03 3.636668777465820312e+01 1.406157779693603516e+01 -4.141637729927934164e-14 5.087654608585193139e-14 2.838051440653076817e-15 2.910447558413138680e-14
3.049000000000000000e+03 3.706951522827148438e+01 1.541915035247802734e+01 -3.131122341655870334e-14 -5.917004218406254901e-14 -2.714438035781273351e-14 -1.396928091864507726e-13
3.050000000000000000e+03 3.092423820495605469e+01 1.041780090332031250e+01 -5.168790200536788060e-14 2.523537477074067059e-13 6.019974964485350077e-14 7.541019810550567137e-14
3.051000000000000000e+03 3.601579284667968750e+01 1.217381191253662109e+01 1.234426514999664715e-14 -5.189828804880690372e-14 -1.186620653082989807e-14 1.041525128945772205e-13
3.052000000000000000e+03 9.098432540893554688e+00 8.717701911926269531e+00 -3.967269899098416208e-14 7.449931242655555286e-14 1.044798369185823833e-14 -6.261224178016888686e-14
3.053000000000000000e+03 3.735610198974609375e+01 -1.141238307952880859e+01 7.557845950641184363e-14 -5.911112934851511791e-14 4.940198539149249363e-15 1.433957119711948280e-13
3.054000000000000000e+03 3.795991516113281250e+01 -1.156579399108886719e+01 2.699470116570342609e-14 2.174484279703764456e-13 7.333294128192280326e-14 -2.891902280252774127e-14
3.055000000000000000e+03 2.949941062927246094e+01 1.388767910003662109e+01 3.504703851350127186e-14 -3.073078900725501050e-14 1.294874830698054726e-15 6.797887312738268295e-14
3.056000000000000000e+03 2.879254341125488281e+01 1.465603446960449219e+01 1.483210527054162897e-13 -7.368668256948693318e-14 2.239031307365788037e-14 8.018923592094558128e-15
3.057000000000000000e+03 8.491950988769531250e+00 2.730530548095703125e+01 5.654988467513472061e-14 1.157375654732908932e-13 5.168623504452768413e-14 2.244620369564950813e-15
3.058000000000000000e+03 3.870121002197265625e+01 8.904453277587890625e+00 -1.035701675789445220e-13 1.386165758999330366e-13 1.051392351273609110e-14 -1.141133086461632029e-13
3.059000000000000000e+03 3.780828094482421875e+01 1.047757625579833984e+01 1.014575793170657825e-13 1.121082393584771353e-13 6.406974831316830654e-14 -2.006929710851416970e-14
3.060000000000000000e+03 7.254375457763671875e+01 2.142796134948730469e+01 1.477993507136422628e-15 1.150107976520195474e-13 3.494663800419732513e-14 -1.089216268720070990e-14
3.061000000000000000e+03 7.162738323211669922e+00 2.925925636291503906e+01 2.303972645805417441e-14 7.850059442543119714e-14 3.046209660385879037e-14 -4.739664335919741012e-14
3.062000000000000000e+03 2.758904075622558594e+01 -8.253703266382217407e-02 -1.048433190850399377e-13 -4.493285152046451458e-14 -4.493285152046451458e-14 3.739107344601956540e-14
3.063000000000000000e+03 2.857884597778320312e+01 -1.364547967910766602e+00 -8.366372780113304208e-14 -1.731087332940833834e-13 -7.703173765093856984e-14 -9.051358837788847644e-14
3.064000000000000000e+03 4.903078079223632812e+01 7.797088623046875000e-01 -5.640892484018444897e-14 6.732664420546971562e-14 3.275316529563585162e-15 2.307795339377693988e-13
3.065000000000000000e+03 5.192290115356445312e+01 -4.567196369171142578e+00 -1.925770740790477831e-14 3.348788260582047371e-13 9.468633017407912522e-14 1.136701613369504871e-14
3.066000000000000000e+03 3.920195770263671875e+01 6.340229034423828125e+00 5.466455196487252088e-14 2.064314566724637090e-13 7.832880259120086897e-14 4.197951529580010166e-14
3.067000000000000000e+03 6.152864074707031250e+01 1.381890296936035156e+01 -7.072009536139567398e-14 -2.290393081357672278e-13 -8.992782104914887054e-14 -8.212286814392611572e-15
3.068000000000000000e+03 7.055828094482421875e+01 -4.054573535919189453e+00 -3.361730110864463716e-13 1.075560674594980282e-13 -6.858508444333721865e-14 1.427394443961893522e-13
3.069000000000000000e+03 7.242683410644531250e+01 -9.768570661544799805e-01 -3.398256882055500361e-13 -1.570773133958980328e-13 -1.490709004804344207e-13 -6.186430491147976163e-14
3.070000000000000000e+03 6.856798553466796875e+01 -2.533054828643798828e+00 4.401124918066573466e-14 1.561148129172740262e-13 6.003781727412921265e-14 -1.543311648182638107e-14
3.071000000000000000e+03 5.404175186157226562e+01 1.918012380599975586e+00 -7.156849880795863178e-15 -1.403200743533422612e-13 -4.424307532206565863e-14 8.023969367361351995e-15
3.072000000000000000e+03 3.781087493896484375e+01 -1.224770450592041016e+01 1.350965238115786615e-13 1.036494566390711025e-13 7.162379142468949800e-14 1.821349467729868610e-13
3.073000000000000000e+03 4.410863113403320312e+01 2.046344757080078125e+00 -7.199717710036634966e-14 -7.660687947712296886e-14 -4.458121765087315336e-14 -9.033270957420000413e-14
3.074000000000000000e+03 2.655337715148925781e+01 8.449010550975799561e-02 4.012113178578774475e-14 -1.711844099631931737e-14 6.900807490950412390e-15 -1.100693768443274101e-13
3.075000000000000000e+03 2.651803398132324219e+01 -1.017421245574951172e+00 -4.522532945605258273e-15 -9.344012786823355232e-14 -2.938879743947034329e-14 -1.721561532653376192e-13
3.076000000000000000e+03 2.846036338806152344e+01 -2.503190517425537109e+00 -7.485360936773308160e-14 1.367083140077886630e-14 -1.835483296656979096e-14 -1.061551969374838200e-13
3.077000000000000000e+03 1.068795680999755859e+01 1.295479774475097656e+01 2.044241385123026812e-15 1.495666925813848858e-13 4.548327724651288206e-14 1.230338818699510187e-14
3.078000000000000000e+03 1.125331020355224609e+01 1.392866706848144531e+01 -8.091942914345562343e-15 8.803392314172403532e-14 2.398259440702672080e-14 5.789269617081232999e-14
3.079000000000000000e+03 2.887383842468261719e+01 -3.152453660964965820e+00 4.687861156118383610e-14 2.009083376823105754e-14 2.009083376823105754e-14 -1.492328531799494429e-13
3.080000000000000000e+03 6.066557884216308594e+00 1.543172740936279297e+01 -7.244164578097678220e-14 2.434592783449873732e-13 5.130528705869774608e-14 -2.241852604706502661e-14
3.081000000000000000e+03 2.815574645996093750e+01 1.831605911254882812e+01 4.398243650793193238e-14 5.316282692389463771e-14 2.914357801310843432e-14 -1.179268322397527755e-14
3.082000000000000000e+03 6.211820220947265625e+01 1.316770935058593750e+01 -1.019927347331410494e-13 -1.866828902834932746e-13 -8.660268818261665502e-14 1.092512649900241606e-13
3.083000000000000000e+03 5.277521896362304688e+01 2.041318893432617188e+00 -8.967545944097571331e-14 3.733262071876908283e-13 8.509522025825638769e-14 -3.249542291066526145e-14
3.084000000000000000e+03 2.381572341918945312e+01 2.562665748596191406e+01 -2.280691437030364643e-14 7.382214007841184089e-15 -4.627410447551917605e-15 4.118242425814886212e-15
3.085000000000000000e+03 9.618589401245117188e+00 9.319835662841796875e+00 9.964782905075297847e-14 1.113326350055988956e-13 6.329413718402648881e-14 2.706409349287428739e-14
3.086000000000000000e+03 6.164083099365234375e+01 1.676606750488281250e+01 5.888885435062843343e-14 -1.120147675786817287e-13 -1.593777532366870420e-14 -4.145539163682987471e-14
3.087000000000000000e+03 3.083361244201660156e+01 1.274104881286621094e+01 -1.779877531845512964e-15 -9.226470363546054876e-14 -2.821337320669733972e-14 2.298607030897740350e-14
3.088000000000000000e+03 3.010052871704101562e+01 1.298866748809814453e+01 2.651529237601875366e-14 7.999011880383682938e-14 3.195162437039621162e-14 6.041902275797511601e-14
3.089000000000000000e+03 4.612903213500976562e+01 -1.077692890167236328e+01 5.221854442990017664e-14 2.968850751176865810e-13 1.047310838313969539e-13 5.309731739575399012e-14
3.090000000000000000e+03 4.623862838745117188e+01 -8.802074432373046875e+00 -1.356530549511108380e-14 1.099933878245633323e-13 2.892842486824226400e-14 1.375378353958914279e-13
3.091000000000000000e+03 3.665120315551757812e+01 1.866727066040039062e+01 -9.191349328234281468e-15 1.790646488508337852e-13 5.096198799330736717e-14 -7.703568990667045840e-15
3.092000000000000000e+03 1.571861839294433594e+01 2.272337913513183594e+01 4.609345267666056789e-14 -1.174985130893146934e-13 -2.142151744616987985e-14 -7.579272318727405813e-18
3.093000000000000000e+03 5.179413986206054688e+01 -7.625010490417480469e+00 -3.574680207738120327e-15 2.615359372213493794e-13 7.738837917931409849e-14 6.638286993124360713e-15
3.094000000000000000e+03 7.082920074462890625e+01 3.155247497558593750e+01 1.752485587474140322e-14 -1.183044547742317931e-13 -3.023387882281416972e-14 5.681053365366381391e-14
3.095000000000000000e+03 7.197784423828125000e+01 3.106617355346679688e+01 1.061029722740879089e-13 -6.890467336246805519e-14 1.115948967348595611e-14 -7.296346551033047745e-14
3.096000000000000000e+03 3.613913726806640625e+01 1.574446487426757812e+01 -2.755323638518880625e-15 2.275739004794358200e-13 6.744556763126421939e-14 6.911429707625454943e-14
3.097000000000000000e+03 3.598536682128906250e+01 1.505723190307617188e+01 -5.551892699371362150e-14 2.195712348377308609e-14 -1.006854173060851843e-14 6.793460379742738420e-14
3.098000000000000000e+03 1.560501289367675781e+01 2.181792259216308594e+01 3.823403047073167804e-14 1.993898075076591669e-13 7.128715342639632691e-14 3.180433211713226682e-14
3.099000000000000000e+03 1.467156505584716797e+01 2.188715362548828125e+01 1.595093821566903602e-13 2.056140088919911069e-13 1.095370200251098713e-13 2.210770053080648306e-14
3.100000000000000000e+03 6.223925018310546875e+01 1.430699062347412109e+01 -5.824248012044688783e-14 -2.479969354873823306e-13 -9.187182264946969212e-14 4.224202435868136540e-14
3.101000000000000000e+03 5.984838485717773438e+01 2.100642395019531250e+01 -7.506569455926429685e-15 -9.471899854078882908e-14 -3.066767150015740906e-14 -2.718271368087367412e-14
3.102000000000000000e+03 5.874252700805664062e+01 1.984366989135742188e+01 -2.764542406303617528e-14 -1.948518386571396199e-13 -6.674917779961320186e-14 -2.443402739252947820e-14
3.103000000000000000e+03 2.055699729919433594e+01 2.348701667785644531e+01 8.608830201440806351e-14 9.408366962023947955e-14 5.405159149039426292e-14 -2.501204098166991824e-14
3.104000000000000000e+03 3.635441589355468750e+01 1.645481872558593750e+01 -9.398594234691706739e-14 -1.317815892217313878e-13 -6.773025879296817875e-14 -9.206546115747560322e-14
3.105000000000000000e+03 6.941561889648437500e+01 3.198734664916992188e+01 8.039275760938005555e-14 1.408267846031037158e-16 2.416007491453080885e-14 -5.986491752080387585e-15
3.106000000000000000e+03 1.851880455017089844e+01 2.727742958068847656e+01 9.056544034678759569e-14 1.074401865760500618e-13 5.940168875447765506e-14 3.561738645446906049e-14
3.107000000000000000e+03 5.839026260375976562e+01 2.391001510620117188e+01 4.279384938315859699e-14 4.121569486528406379e-14 2.520286395215915604e-14 3.192628792087794098e-14
3.108000000000000000e+03 1.063461399078369141e+01 3.357331466674804688e+01 1.197939808467033199e-14 1.657176423809549742e-14 8.565348781533043548e-15 -3.800212301416881766e-14
3.109000000000000000e+03 6.014920806884765625e+01 1.812575721740722656e+01 1.817084216383310635e-14 -3.582200996336132315e-13 -1.020147711422968173e-13 4.625881722488713044e-14
3.110000000000000000e+03 2.826083564758300781e+01 1.923218345642089844e+01 -7.498261587373170056e-14 3.649101623626714586e-14 -1.154748073827231367e-14 1.165948390488774980e-14
3.111000000000000000e+03 8.631114959716796875e+00 3.780937194824218750e+01 1.598788409876237410e-14 -3.889899876817135005e-14 -6.873334400822692786e-15 -1.068506736676176974e-14
3.112000000000000000e+03 7.288163661956787109e+00 3.652444839477539062e+01 8.396906115576158874e-15 4.934962350875912729e-14 1.732395829437752277e-14 -5.762036491387470538e-14
3.113000000000000000e+03 2.743961715698242188e+01 2.190864753723144531e+01 -9.132588958617356145e-15 2.477162626499801457e-13 7.157509719461774278e-14 -1.049909874209324634e-14
3.114000000000000000e+03 2.560199356079101562e+01 2.477236557006835938e+01 2.308756518484920278e-14 7.852109262275475121e-14 3.048259818931413345e-14 1.724228907166915764e-14
3.115000000000000000e+03 3.837646865844726562e+01 2.320108032226562500e+01 -2.796852647483222265e-14 1.910333192632271415e-13 4.891943919177119127e-14 6.981835086201232388e-14
3.116000000000000000e+03 3.754550552368164062e+01 2.201714324951171875e+01 -5.464225128143720966e-14 5.092718510357058248e-14 -1.114520022766577606e-15 -9.643221923836663850e-15
3.117000000000000000e+03 2.681963729858398438e+01 2.341674613952636719e+01 -1.734305888733810724e-14 6.119368521021600893e-14 1.315518738864360215e-14 -2.240108225054927155e-14
3.118000000000000000e+03 3.913035583496093750e+01 3.033906364440917969e+01 -3.259911329593634388e-14 4.321763690732886853e-14 3.185557083417757396e-15 4.128711668339654639e-14
3.119000000000000000e+03 3.656069183349609375e+01 2.657665252685546875e+01 -5.083018289045102001e-14 1.497816898721887613e-13 2.968545209452132239e-14 -2.761256087874860293e-14
3.120000000000000000e+03 6.675248718261718750e+01 4.066017913818359375e+01 8.813557387165812940e-15 -5.341144803457271995e-14 -1.337936651659571430e-14 -1.506696446751908114e-14
3.121000000000000000e+03 6.859352874755859375e+01 3.684476852416992188e+01 9.310353222158774394e-15 -2.460419122943518361e-14 -4.588151317479628039e-15 -2.527579179485185679e-14
3.122000000000000000e+03 9.428930282592773438e+00 3.127354621887207031e+01 5.280948882401340083e-14 9.125905868663519716e-14 4.322056425319457940e-14 2.133842181997833848e-14
3.123000000000000000e+03 4.906023788452148438e+01 -9.476355552673339844e+00 -3.586851478267101545e-14 1.894098993046513385e-14 -5.078257709771648656e-15 -8.569498057128463464e-14
3.124000000000000000e+03 4.355558013916015625e+01 -1.065211963653564453e+01 1.532633340985828374e-13 6.568428797832509547e-14 6.568428797832509547e-14 -7.714996312158453606e-14
3.125000000000000000e+03 4.642822647094726562e+01 2.355138361454010010e-01 3.114474417297355413e-14 -1.239051043841130073e-13 -2.782810704690229925e-14 4.325459803701525718e-14
3.126000000000000000e+03 4.782811355590820312e+01 3.261596858501434326e-01 -1.501672016715385055e-14 1.536925832911970047e-13 4.160275842899317789e-14 2.264920428941483155e-13
3.127000000000000000e+03 5.811926651000976562e+01 4.390103816986083984e+00 6.909365657739585664e-14 1.096757301405522356e-13 5.363081601538442766e-14 1.128109175627285687e-13
3.128000000000000000e+03 5.778681182861328125e+01 5.068697452545166016e+00 -2.887253763438242526e-14 -1.038758448289496539e-13 -3.982451440018644484e-14 9.895838488926944621e-15
3.129000000000000000e+03 5.521601104736328125e+01 -3.471182107925415039e+00 6.264185405200489720e-14 7.016729862072135226e-13 2.292944480120073791e-13 3.705843344323743460e-14
3.130000000000000000e+03 5.661404800415039062e+01 3.822886705398559570e+00 3.549441378767020754e-15 -2.272335558649654641e-13 -6.710523656932101955e-14 -1.019771086693301021e-13
3.131000000000000000e+03 6.193665695190429688e+01 -6.800625324249267578e-01 -5.824296801142450630e-14 6.654062473547203704e-14 2.489298541873564280e-15 -3.657123025637212810e-14
3.132000000000000000e+03 7.877350330352783203e+00 1.518856716156005859e+01 -3.401548113275351670e-14 2.599276317186843821e-13 6.777364720865833303e-14 7.242288908339278297e-14
3.133000000000000000e+03 4.564119338989257812e+01 -1.024096775054931641e+01 1.104897152503364621e-13 1.388546260394293852e-13 7.480330238692975420e-14 1.667504567585964548e-13
3.134000000000000000e+03 3.612518692016601562e+01 -1.100120830535888672e+01 1.355535031688200401e-14 2.345641855663188613e-13 7.443585949441083871e-14 -8.081486292611708006e-15
3.135000000000000000e+03 3.046966171264648438e+01 6.991679668426513672e+00 4.528879170555971667e-14 2.024132814484880249e-13 7.431062059096160688e-14 -1.235919325865905694e-14
3.136000000000000000e+03 3.039459991455078125e+01 8.028904914855957031e+00 1.271490643892439487e-13 3.347170088839612756e-13 1.385598314687305765e-13 -8.764018157025876832e-14
3.137000000000000000e+03 6.059502029418945312e+01 8.762586593627929688e+00 -6.798741121949100630e-14 -3.951450440724951774e-13 -1.389397359099694973e-13 7.731844136292520542e-14
3.138000000000000000e+03 6.064961242675781250e+01 9.362278938293457031e+00 3.971993717141958716e-15 -2.728033998786877357e-13 -8.064942214492526462e-14 1.744482244206077559e-13
3.139000000000000000e+03 3.714450073242187500e+01 -1.211781597137451172e+01 1.909661359979827194e-14 5.393521255157331107e-14 2.190954733719170655e-14 -2.161459860649649761e-14
3.140000000000000000e+03 3.856333923339843750e+01 -1.164910030364990234e+01 4.032669990582278541e-14 -1.199699790465497129e-13 -2.389298170933900484e-14 1.404389435690281407e-13
3.141000000000000000e+03 4.788902282714843750e+01 -9.301031112670898438e+00 8.732342512930355016e-14 2.290064297048866049e-13 9.489895577263068871e-14 -3.255502311344938941e-15
3.142000000000000000e+03 3.252643966674804688e+01 -9.131412506103515625e+00 -1.191500155782237655e-14 2.693992761076263731e-13 7.724527804507316797e-14 -3.948109336205166131e-14
3.143000000000000000e+03 3.255310440063476562e+01 -8.444777488708496094e+00 4.512283423427007611e-15 -4.381711261728683804e-14 -1.179144909697112803e-14 -3.970222317139365797e-14
3.144000000000000000e+03 4.035366821289062500e+01 -1.142439746856689453e+01 1.027676953409793759e-14 2.331590866558319597e-13 7.303075380766035907e-14 8.217051035907738110e-14
3.145000000000000000e+03 3.974808883666992188e+01 -1.153665828704833984e+01 5.845789076332902345e-14 -1.579504214054006095e-13 -2.984775715974240240e-14 3.013344104406054380e-14
3.146000000000000000e+03 3.086852645874023438e+01 -3.774222612380981445e+00 -1.980323643648506868e-15 4.490223974975074417e-14 1.287657453536913965e-14 -3.992683936834655334e-14
3.147000000000000000e+03 3.022974395751953125e+01 -3.984595537185668945e+00 4.813347054375034795e-14 -2.512231789513885011e-14 6.903345625176859901e-15 -7.052398351718378033e-14
3.148000000000000000e+03 3.056676483154296875e+01 -6.075049877166748047e+00 -1.484059321829947486e-13 -2.351686011724252179e-13 -1.150723532303624119e-13 -3.108068137710681689e-14
3.149000000000000000e+03 3.583673095703125000e+01 -1.167993068695068359e+01 8.657947270359830916e-14 1.286073840738727325e-13 6.455605364510952349e-14 2.239282706744533114e-14
3.150000000000000000e+03 7.146632385253906250e+01 1.727687835693359375e+01 -4.013546697138707653e-14 -6.295186133443639309e-14 -3.092619950818657759e-14 -2.758915566435007211e-14
3.151000000000000000e+03 5.974387359619140625e+01 8.100874900817871094e+00 -7.122636356583778028e-14 -3.507822287848738618e-13 -1.266025722842026302e-13 4.969314873194642310e-15
3.152000000000000000e+03 5.915867996215820312e+01 7.191802978515625000e+00 -3.581295619759471138e-14 -4.042314714295530687e-13 -1.320133238835730083e-13 9.465438178537458752e-15
3.153000000000000000e+03 6.052923202514648438e+01 -2.373216629028320312e+00 -8.635997258564682977e-15 -9.520304060069498253e-14 -3.115171017193177350e-14 -1.293844859810017178e-13
3.154000000000000000e+03 8.565305709838867188e+00 2.543168449401855469e+01 7.107250850129850916e-14 5.333512020162974043e-14 3.732228759443893817e-14 3.571564905261413736e-14
3.155000000000000000e+03 3.325424957275390625e+01 -9.655570030212402344e+00 6.165049346680204212e-14 7.217258745934734820e-14 4.014692563309753270e-14 -4.246862600086262485e-14
3.156000000000000000e+03 3.365419769287109375e+01 -1.061701965332031250e+01 -5.270019785689507297e-14 -2.258579980755470035e-14 -2.258579980755470035e-14 -1.564253961821096550e-13
3.157000000000000000e+03 7.089672851562500000e+01 9.945109367370605469e+00 -1.363102068285132473e-13 -2.414224690387017924e-13 -1.133198014049117963e-13 1.600441513257416792e-13
3.158000000000000000e+03 5.142623138427734375e+01 -8.589834213256835938e+00 -2.530421822056171111e-14 2.064723446468935686e-13 5.435043826671273615e-14 -1.357765692954794601e-14
3.159000000000000000e+03 2.853748512268066406e+01 3.787881851196289062e+00 4.157078124116843354e-14 3.323538276187032459e-13 1.121773843520273983e-13 -3.624843616456888129e-14
3.160000000000000000e+03 2.937331008911132812e+01 3.937826156616210938e+00 -9.257211560894165747e-14 1.204545632075421091e-13 8.364734110173546039e-15 -3.600242052723655328e-14
3.161000000000000000e+03 6.844027709960937500e+01 -1.021536946296691895e+00 -5.728960193610369012e-14 2.042020524027632344e-13 4.407373649525057890e-14 2.670065113696525397e-15
3.162000000000000000e+03 7.274517059326171875e+01 3.014249086380004883e+00 -2.505578210187930921e-13 1.671237611191103700e-13 -2.503022000278389003e-14 1.543410920444056311e-14
3.163000000000000000e+03 5.316099166870117188e+01 -5.510682582855224609e+00 -1.233572299213017698e-13 1.530118805097291368e-13 8.896395515341389004e-15 -6.182038117096694263e-14
3.164000000000000000e+03 5.020935821533203125e+01 -8.101720809936523438e+00 -1.249151251051438746e-14 2.462767132154625171e-13 7.013556131262727034e-14 6.188700115930144061e-15
3.165000000000000000e+03 7.264672851562500000e+01 -3.141456842422485352e+00 -7.400731503320878701e-14 -2.947853820853968410e-13 -1.106378104908344040e-13 -5.304968619203103905e-15
3.166000000000000000e+03 7.266720581054687500e+01 5.875942707061767578e+00 -1.944336212216304927e-13 -1.290796489876802622e-13 -9.705398377329865767e-14 1.556818367796919400e-13
3.167000000000000000e+03 7.177457427978515625e+01 4.996902942657470703e+00 -1.786991914035432338e-13 -1.680872644847439257e-13 -1.040359408322442947e-13 2.271499232198853635e-13
3.168000000000000000e+03 2.816623497009277344e+01 2.460730791091918945e+00 5.591569755499826988e-14 -1.320877577508459272e-14 1.281207636456751370e-14 -1.536933828902992127e-13
3.169000000000000000e+03 2.864021492004394531e+01 2.906872272491455078e+00 6.726017583603277616e-14 2.289861822293154381e-13 8.887390877485717988e-14 -6.283491657760667537e-14
3.170000000000000000e+03 3.526618957519531250e+01 1.266734886169433594e+01 -5.194668073514943640e-14 -3.513031879287531467e-14 -2.612309918078106752e-14 -4.280898755599192584e-14
3.171000000000000000e+03 5.115412902832031250e+01 1.013329863548278809e+00 -1.285955662701926405e-13 3.566461633398160247e-13 6.841517641038158404e-14 9.207361977882355664e-14
3.172000000000000000e+03 3.040840721130371094e+01 1.382560539245605469e+01 -6.225943731104442019e-15 4.308268761817231340e-14 1.105702325082365614e-14 3.521167122526140669e-14
3.173000000000000000e+03 3.025955200195312500e+01 -5.560910701751708984e+00 1.478410628511298008e-13 6.336045647566471151e-14 6.336045647566471151e-14 -2.624075273478104764e-13
3.174000000000000000e+03 3.078898620605468750e+01 -5.173475742340087891e+00 -6.145964677939028120e-14 1.941110168652074308e-14 -1.261456268082791418e-14 -1.796099991554622050e-14
3.175000000000000000e+03 7.242175292968750000e+01 1.270963573455810547e+01 -1.786453472131521725e-14 -2.592864345538764548e-13 -8.314529620356836404e-14 5.489971202795283778e-14
3.176000000000000000e+03 7.176546478271484375e+01 1.254363536834716797e+01 5.039213471958077506e-14 -2.415432017268716314e-14 7.871344194661494126e-15 1.052856600188868674e-13
3.177000000000000000e+03 7.200371551513671875e+01 -2.177869319915771484e+00 -1.025601993739563844e-13 4.754752703215771314e-14 -1.650380170253960138e-14 -4.129841949104470777e-14
3.178000000000000000e+03 7.172572326660156250e+01 2.000417709350585938e+01 4.448867760731972654e-14 -3.808897523148143185e-15 1.220393466052618545e-14 -5.792531710367698761e-14
3.179000000000000000e+03 7.096225738525390625e+01 1.901549911499023438e+01 -5.639474212051562296e-15 6.620950261573138595e-14 1.817100987635666270e-14 -4.559098595608573889e-14
3.180000000000000000e+03 7.258834838867187500e+01 6.676867008209228516e+00 -5.513312042689823278e-14 6.787341413731773354e-14 3.822089214268681659e-15 7.354679507824788548e-15
3.181000000000000000e+03 7.120663452148437500e+01 3.550668716430664062e+00 -6.637612416085167388e-14 -1.199488099991319334e-13 -5.589747957036872439e-14 8.106734650703464190e-15
3.182000000000000000e+03 4.215620803833007812e+01 -1.028774070739746094e+01 -7.673999239884987666e-14 5.861333147354555462e-14 -5.437999378734128045e-15 -1.729399907784631707e-13
3.183000000000000000e+03 7.232677459716796875e+00 8.324169158935546875e+00 -7.512781087341824371e-14 1.965571124916062895e-13 3.642878980783005594e-14 -4.183053998806996257e-15
3.184000000000000000e+03 7.170927429199218750e+01 4.006035327911376953e+00 -3.078272229131706617e-13 -2.577410669873242410e-13 -1.696704842596430396e-13 1.896370972580274650e-13
3.185000000000000000e+03 7.265253448486328125e+01 7.476305007934570312e+00 -1.538771551585355057e-13 -2.489511418193868231e-13 -1.208484945143875611e-13 8.253975573770805374e-14
3.186000000000000000e+03 7.279842376708984375e+01 -7.543507218360900879e-02 -2.387648184633966997e-13 -1.252032603028113700e-13 -1.091904209193569897e-13 -8.888491342690790775e-14
3.187000000000000000e+03 7.146429443359375000e+01 -2.288072824478149414e+00 -3.314370804717581276e-13 -9.629351081699016879e-14 -1.283191760313717733e-13 -8.858351877548409359e-15
3.188000000000000000e+03 7.318394470214843750e+01 8.800923228263854980e-01 -2.189826960171878389e-13 -4.809877607423081181e-14 -8.012443790048062731e-14 -1.354679037132364150e-13
3.189000000000000000e+03 6.928874206542968750e+01 -2.308207988739013672e+00 -2.317608724291403410e-13 1.065531804499489366e-13 -3.756230623850470574e-14 1.315207200146360084e-14
3.190000000000000000e+03 5.844878768920898438e+01 -3.948725461959838867e+00 -6.075528806177149521e-14 1.398092118421942476e-13 2.371617713412682571e-14 2.589669066211178206e-14
3.191000000000000000e+03 7.227393341064453125e+01 1.349063205718994141e+01 -5.808342766174326433e-14 -2.489289902137502286e-14 -2.489289902137502286e-14 9.661868337730930567e-14
3.192000000000000000e+03 7.120844268798828125e+01 1.182569694519042969e+01 -5.973674110709356611e-14 -1.628543084891340142e-13 -6.677731284598920070e-14 1.961869252123382701e-13
3.193000000000000000e+03 7.945998668670654297e+00 1.837729644775390625e+01 2.401707500072707523e-15 1.840331001739387018e-13 5.593044270454407274e-14 8.137508543523339077e-14
3.194000000000000000e+03 3.385762405395507812e+01 -1.015739250183105469e+01 1.126310890798946918e-13 4.600289875596186295e-13 1.717980277352385010e-13 1.450502756371752772e-14
3.195000000000000000e+03 7.225937652587890625e+01 1.428683853149414062e+01 -3.017598581493523280e-14 -1.293256510724854341e-14 -1.293256510724854341e-14 -7.583497835229012496e-15
3.196000000000000000e+03 7.880174636840820312e+00 9.933045387268066406e+00 5.864814113954591734e-14 2.538896556100039836e-13 9.376134309062311711e-14 8.629603515065628616e-14
3.197000000000000000e+03 8.435744285583496094e+00 1.042005157470703125e+01 6.355525372474246648e-14 -9.285827721984205030e-14 -8.790906879123285694e-15 2.686566247245281147e-14
3.198000000000000000e+03 1.063054370880126953e+01 1.958987998962402344e+01 -7.329640366871004176e-15 1.798625267820930240e-13 5.175986253643481694e-14 -1.131160154421977787e-14
3.199000000000000000e+03 8.943152427673339844e+00 1.219188880920410156e+01 -5.182238373233755135e-14 3.009064893956525655e-13 7.472522627798364181e-14 4.945829444776006500e-14
3.200000000000000000e+03 7.395230770111083984e+00 1.180596637725830078e+01 3.020527621425128650e-14 1.959489157304233897e-13 6.784625487289697165e-14 1.257785379755321786e-13
3.201000000000000000e+03 1.135358047485351562e+01 1.852776336669921875e+01 3.656741860810948375e-14 1.986755486689528727e-13 7.057288781142645462e-14 -1.122981712503058616e-14
3.202000000000000000e+03 9.203385353088378906e+00 1.169573497772216797e+01 -1.488520474956546435e-14 -5.213032086624595773e-14 -2.010465734593024772e-14 -8.165041857693608462e-14
3.203000000000000000e+03 8.759958267211914062e+00 1.450900268554687500e+01 -3.179604474677633075e-14 1.236259765348066142e-13 2.754897750353001162e-14 6.522185542296929373e-14
3.204000000000000000e+03 2.815299415588378906e+01 1.449057340621948242e+00 9.174421205376814825e-14 -6.933955363011556905e-14 6.721397865908952662e-15 -1.533842361933421272e-13
3.205000000000000000e+03 7.272455596923828125e+01 8.919315338134765625e+00 -9.350118877933522032e-14 -8.582288932258361203e-14 -5.379722410820200751e-14 1.636475650086330336e-13
3.206000000000000000e+03 5.736231994628906250e+01 -3.776796102523803711e+00 -3.289778727753357723e-14 2.260934359654340198e-13 5.795869020179880704e-14 1.213754379460391976e-15
3.207000000000000000e+03 7.168008422851562500e+01 2.088099288940429688e+01 -1.430113148672036705e-14 -2.900453247261895739e-14 -1.299169901839520788e-14 -4.573520856194883411e-14
3.208000000000000000e+03 5.567895507812500000e+01 1.014015078544616699e+00 -6.344397392426398552e-14 2.015644731201762796e-13 4.143615043640004603e-14 -6.282630394659899364e-14
3.209000000000000000e+03 3.967585372924804688e+01 4.515216827392578125e+00 1.792850900223896642e-15 7.683646563989387883e-16 7.683646563989387883e-16 5.595252654754488686e-14
3.210000000000000000e+03 9.523538589477539062e+00 2.633690452575683594e+01 2.814443997138389025e-14 5.781285145707235062e-14 2.578718793675664062e-14 5.485362327122683679e-14
3.211000000000000000e+03 1.150077724456787109e+01 1.941533088684082031e+01 9.586097513654065483e-14 2.698380256217769446e-13 1.097096995498689220e-13 5.751133483290413184e-14
3.212000000000000000e+03 2.705373954772949219e+01 -5.491582155227661133e-01 9.905111805633484701e-14 4.245047916700064872e-14 4.245047916700064872e-14 2.539732069399211478e-14
3.213000000000000000e+03 6.317200851440429688e+01 -1.983862757682800293e+00 -1.492443186179234771e-13 -6.968071817247886712e-14 -6.567751171474706107e-14 -6.618784567733598800e-14
3.214000000000000000e+03 6.138291168212890625e+01 -1.350254297256469727e+00 -7.394988619938494545e-14 1.405814145107563140e-14 -1.796752206924007861e-14 1.952446518804946962e-14
3.215000000000000000e+03 1.606958007812500000e+01 2.354494476318359375e+01 -2.883887993319032839e-14 -9.217821225418346490e-16 -8.928198214378998965e-15 4.772784679410099762e-14
3.216000000000000000e+03 3.963364791870117188e+01 6.151485443115234375e+00 -1.482050566254874968e-13 2.910533955773758619e-13 4.285450371844558293e-14 3.015180429484054341e-15
3.217000000000000000e+03 3.800279617309570312e+01 9.733467102050781250e+00 -7.385764092329716313e-14 -2.146570681621495780e-13 -8.655441408088673794e-14 -7.229447211232545301e-14
3.218000000000000000e+03 4.573855972290039062e+01 1.210411787033081055e+00 6.794671298044133168e-14 7.487097015502000574e-14 4.284530494063840123e-14 1.322932648845087655e-13
3.219000000000000000e+03 7.085002899169921875e+01 1.999455070495605469e+01 3.820046086096609561e-14 -7.513027065709707020e-14 -1.107894361646565018e-14 -3.843840935650877366e-14
3.220000000000000000e+03 8.435126304626464844e+00 2.837767028808593750e+01 6.791617744269281415e-15 1.172880694476352570e-13 3.722390641168124570e-14 -8.608419559867977466e-15
3.221000000000000000e+03 3.135809707641601562e+01 -6.147279739379882812e+00 -1.864743304430885318e-13 -1.714194649941880311e-13 -1.073681413416884001e-13 4.759008556731779502e-16
3.222000000000000000e+03 4.153475952148437500e+01 -1.044679927825927734e+01 4.659876881606996035e-14 -1.172819437053607139e-13 -2.120495314441358387e-14 3.228540617359124121e-14
3.223000000000000000e+03 3.946558761596679688e+01 5.669525623321533203e+00 1.510406654348789290e-13 2.934864536726505824e-13 1.333581411532697159e-13 2.705476427199322853e-14
3.224000000000000000e+03 4.145738220214843750e+01 3.267468452453613281e+00 -2.220220738486343437e-14 8.198666355194172972e-14 1.793533820537620421e-14 3.354339578993080495e-14
3.225000000000000000e+03 3.032891845703125000e+01 1.151245021820068359e+01 -3.665202364701303228e-14 7.579389047808471336e-14 1.174255920228855707e-14 -5.755320536555280642e-14
3.226000000000000000e+03 3.058390426635742188e+01 1.081502437591552734e+01 1.133927004484842904e-13 2.773516279922644268e-13 1.172233019203564042e-13 1.837430964215895635e-14
3.227000000000000000e+03 5.110101699829101562e+01 3.710433244705200195e-01 -3.017090361725170700e-14 3.988281601675913723e-13 1.105971732381569317e-13 4.051117690547119399e-14
3.228000000000000000e+03 5.266499710083007812e+01 1.343065500259399414e+00 -6.972331376533039138e-14 1.073714278295237468e-13 1.129443303341188046e-14 4.576735007416534579e-15
3.229000000000000000e+03 4.322006225585937500e+01 2.738686800003051758e+00 -1.242637178051897440e-13 -2.591351612457604148e-13 -1.150196610047796164e-13 9.672554505393490820e-14
3.230000000000000000e+03 4.717302322387695312e+01 1.746717989444732666e-01 -9.084183736187204095e-14 1.669470497175223889e-13 2.283156472313464108e-14 1.165868481400531009e-13
3.231000000000000000e+03 4.091026687622070312e+01 -1.059044742584228516e+01 7.693346150026633690e-14 7.872243574244888742e-14 4.669677052806728290e-14 -3.891533972778978001e-14
3.232000000000000000e+03 6.242461776733398438e+01 1.542823123931884766e+01 3.837512921908529939e-14 -9.793088649040493365e-14 -1.786672684258271138e-14 2.777795422609537213e-14
3.233000000000000000e+03 7.159252166748046875e+01 2.302035713195800781e+01 6.708493488364122848e-14 -3.830078615374432616e-13 -9.477687460800882091e-14 5.604721466665255059e-14
3.234000000000000000e+03 7.086183929443359375e+01 2.096849822998046875e+01 5.509837852353365040e-14 1.608664373584089979e-13 6.478944171526418438e-14 5.150844621703079551e-14
3.235000000000000000e+03 4.277955627441406250e+01 -1.013153076171875000e+01 1.512059249510200321e-13 1.105534934431329219e-13 7.852782822875131741e-14 5.366328448231857950e-14
3.236000000000000000e+03 7.283048248291015625e+01 2.269906282424926758e+00 -1.951955036407632127e-13 -2.209080628926690659e-13 -1.248310672495242524e-13 -9.983491491187893030e-14
3.237000000000000000e+03 8.636445045471191406e+00 1.303295326232910156e+01 -3.414843481228634070e-14 3.111590439518543971e-14 -9.097590192511518896e-16 8.712041504876921749e-14
3.238000000000000000e+03 5.341433715820312500e+01 1.118274688720703125e+00 -5.996636157469883988e-14 2.945567780573282723e-13 7.037712155665704072e-14 1.349855167557091964e-14
3.239000000000000000e+03 1.043160533905029297e+01 1.606684684753417969e+01 -1.221343718434825254e-13 -1.438451950868530060e-13 -7.979387143435337504e-14 1.248645013340182741e-13
3.240000000000000000e+03 6.484599304199218750e+01 -1.437404274940490723e+00 -5.740376842486641373e-14 -9.001117586742227172e-14 -4.422448464293932124e-14 -1.247145155159820606e-13
3.241000000000000000e+03 6.652197265625000000e+01 -1.094356775283813477e+00 -8.214723389368683293e-14 -1.724588083017869478e-13 -7.638181265864213421e-14 -1.026335998610336531e-13
3.242000000000000000e+03 6.198891448974609375e+01 1.607182502746582031e+01 -5.462447375394023641e-14 -9.203691275902134428e-14 -4.399841493744893750e-14 -2.239385028324561433e-14
3.243000000000000000e+03 6.221895980834960938e+01 1.776369476318359375e+01 4.936943730346129988e-14 -2.459261906530979536e-14 7.433046149071809161e-15 1.037260961801386716e-13
3.244000000000000000e+03 3.937451553344726562e+01 6.800219535827636719e+00 -1.386414176822101108e-13 -5.941774849915759660e-14 -5.941774849915759660e-14 -1.387347852769530050e-15
3.245000000000000000e+03 7.173844146728515625e+01 1.023487567901611328e+01 -5.425169794198540785e-14 -2.325072744741290415e-14 -2.325072744741290415e-14 4.651231385720960843e-14
3.246000000000000000e+03 7.210719299316406250e+01 8.848363876342773438e+00 -1.677083392135920309e-14 3.856344836018245348e-14 6.537784416350269842e-15 -3.657069493154946338e-14
3.247000000000000000e+03 4.676451492309570312e+01 -9.288404464721679688e+00 -1.261756795372477244e-14 1.318453132044192233e-13 3.576832433753798779e-14 5.976046480588026455e-14
3.248000000000000000e+03 4.986294555664062500e+01 3.179974257946014404e-01 -5.035094858955348196e-14 2.986776678846198019e-13 7.449801816021214829e-14 2.840543826630043123e-13
3.249000000000000000e+03 9.005390167236328125e+00 9.824065208435058594e+00 8.606217951831474089e-14 6.547813371149055484e-14 4.546209464656794652e-14 -1.670633575055757714e-14
3.250000000000000000e+03 8.768543243408203125e+00 1.742383384704589844e+01 1.983481636585755076e-14 2.372553921988623804e-13 7.712705935069077978e-14 2.190579159310358098e-14
3.251000000000000000e+03 7.736150264739990234e+00 1.672036170959472656e+01 -1.781859673645382752e-14 4.041219941151863448e-13 1.158910207382790603e-13 3.501857608889115923e-15
3.252000000000000000e+03 8.662982940673828125e+00 1.136892986297607422e+01 2.023817684347183760e-14 1.916772946961020629e-13 6.357464061483922291e-14 4.760544714509096220e-14
3.253000000000000000e+03 8.517725944519042969e+00 2.461383056640625000e+01 -6.125420402023143418e-14 1.110010453236713601e-13 1.492405137459244108e-14 1.931976485326889099e-15
3.254000000000000000e+03 6.075461578369140625e+01 1.085536003112792969e+01 -9.778857817900263316e-14 -2.020377138159390462e-13 -8.994788556560343040e-14 5.319670146552123169e-14
3.255000000000000000e+03 6.148110961914062500e+01 1.114981269836425781e+01 -2.987436415868155448e-14 -8.142972244846308216e-14 -3.339122462689067539e-14 1.068899268684593562e-13
3.256000000000000000e+03 7.287663269042968750e+01 2.202103996276855469e+01 6.714865209006548596e-14 -1.771012806892069413e-13 -3.298578722448972100e-14 -2.741089143961153701e-16
3.257000000000000000e+03 2.801991271972656250e+01 -1.846844553947448730e+00 1.636138192160144222e-13 2.436926155931651988e-14 5.639492507963222989e-14 -4.022298241549739084e-14
3.258000000000000000e+03 7.208389282226562500e+01 -1.562701582908630371e+00 -1.845902039077432222e-13 1.239180995635897828e-14 -5.165951962537128350e-14 -1.343454020990078601e-13
3.259000000000000000e+03 6.848635101318359375e+01 -1.776878714561462402e+00 -2.136586534865619891e-13 -3.203227342662290367e-13 -1.601944217468481702e-13 -7.040451799030303381e-14
3.260000000000000000e+03 3.088934516906738281e+01 1.125267410278320312e+01 5.256698667934628366e-14 1.597815575595656901e-13 6.370456191642087651e-14 6.325259868829313792e-14
3.261000000000000000e+03 3.054807281494140625e+01 1.208448314666748047e+01 -8.513706029771896111e-15 -3.648731216118880280e-15 -3.648731216118880280e-15 7.568423698086496065e-14
3.262000000000000000e+03 6.265290069580078125e+01 1.247427368164062500e+01 2.232114775131688322e-14 -1.963130585825798025e-13 -5.219757528225794918e-14 6.772180201602279181e-14
3.263000000000000000e+03 6.779921531677246094e+00 2.131094932556152344e+01 2.867017468701979488e-14 -3.346373064717564350e-14 -1.438066915101696673e-15 -3.906670112733233446e-14
3.264000000000000000e+03 1.042489528656005859e+01 1.371388816833496094e+01 3.908219844213529914e-14 3.141306930288384480e-13 1.059638623590944406e-13 3.264843094225727826e-14
3.265000000000000000e+03 4.325182723999023438e+01 1.951539039611816406e+00 3.692140722929421193e-14 1.988272556579379069e-13 7.072460157667506686e-14 -1.565502556147985169e-14
3.266000000000000000e+03 1.359318447113037109e+01 2.101521301269531250e+01 7.277335743564872228e-14 2.370678523280767003e-13 9.295236563962305798e-14 1.038683706102230819e-13
3.267000000000000000e+03 1.189304065704345703e+01 2.296845054626464844e+01 4.235635008963817283e-14 3.384093678025779095e-13 1.142297113019066779e-13 -8.331691185494566332e-14
3.268000000000000000e+03 3.044329833984375000e+01 1.568630599975585938e+01 -8.142014081176374152e-14 1.481094435464014314e-13 2.000679115920448586e-14 5.708433535979787199e-14
3.269000000000000000e+03 3.551377105712890625e+01 1.982747268676757812e+01 9.965777152348784945e-15 1.643993643475616384e-13 5.230954287348960063e-14 3.395262112367188057e-14
3.270000000000000000e+03 7.115998840332031250e+01 1.250884914398193359e+01 -2.404357866164666228e-15 3.192261992940315096e-13 9.504655634588743407e-14 -4.370017463672069835e-14
3.271000000000000000e+03 7.236668395996093750e+01 1.509014034271240234e+01 -2.587297204552276714e-14 -5.683936665518835030e-14 -2.481370144080674578e-14 -2.816036588485816561e-14
3.272000000000000000e+03 2.812188339233398438e+01 3.838666677474975586e-01 7.865245049221494811e-14 9.947518340731181796e-14 5.343828881460531421e-14 -1.123929237439175166e-13
3.273000000000000000e+03 8.400660514831542969e+00 2.254992675781250000e+01 -5.339473099232570907e-14 1.143693836467771230e-13 1.829239816802767649e-14 -1.208765075880191553e-13
3.274000000000000000e+03 1.372280025482177734e+01 2.198755073547363281e+01 5.706779450040389001e-14 9.308404876973500053e-14 4.504555433629438277e-14 4.208433054082513780e-14
3.275000000000000000e+03 3.939613723754882812e+01 7.389909744262695312e+00 -2.122059716532301299e-13 4.630743013979594924e-14 -4.976956211521707529e-14 -2.265253075720528864e-14
3.276000000000000000e+03 5.520386505126953125e+01 1.856615304946899414e+00 -1.944542176747759282e-14 -1.455865999587177551e-13 -4.950960431557294150e-14 1.205172114583869317e-14
3.277000000000000000e+03 5.584145736694335938e+01 -3.060321092605590820e+00 -1.778137776993829466e-13 3.813035770374589850e-13 6.104694522243367394e-14 -2.056881141104804911e-13
3.278000000000000000e+03 3.054312705993652344e+01 1.476393413543701172e+01 6.756531776121524335e-14 7.470751312499065988e-14 4.268184791060905536e-14 9.821520495761210112e-14
3.279000000000000000e+03 2.959530067443847656e+01 1.547194480895996094e+01 1.187410358840373936e-13 -1.321147781018633394e-13 -4.012121903018131194e-15 7.963473766048681513e-14
3.280000000000000000e+03 3.535591888427734375e+01 1.691832351684570312e+01 4.815415170019050894e-14 2.036412894866265755e-13 7.553862862910015741e-14 1.002599831498654503e-13
3.281000000000000000e+03 3.585580825805664062e+01 1.339033508300781250e+01 8.757824652115553388e-14 1.465805931223206765e-14 3.067089022535697540e-14 1.062244435749877536e-13
3.282000000000000000e+03 7.168457031250000000e+01 -2.960518836975097656e+00 -1.223266550987728296e-13 -9.817666157038024144e-14 -6.615099635599863692e-14 8.079461036834822973e-14
3.283000000000000000e+03 7.130114746093750000e+01 -3.909641027450561523e+00 -4.540397463385914545e-14 -4.233432045674598299e-14 -2.632148954362107524e-14 8.459126953595796916e-14
3.284000000000000000e+03 3.168858909606933594e+01 5.562437057495117188e+00 -4.269641687730182933e-14 -1.326758391735974318e-13 -5.261167613764342055e-14 -4.902272300122759163e-14
3.285000000000000000e+03 3.674180221557617188e+01 -1.122252368927001953e+01 1.189989540283445391e-13 1.425014484668016279e-13 7.845011803803841888e-14 -3.229952790688786490e-14
3.286000000000000000e+03 3.273716735839843750e+01 1.191590690612792969e+01 2.397515745774982804e-14 2.390298245794064691e-13 7.890149173123486848e-14 -7.057809198185438504e-14
3.287000000000000000e+03 7.083609771728515625e+01 -2.498991966247558594e+00 -8.708185810901020174e-14 -8.307174663869237863e-14 -5.104607803617898509e-14 1.193740337699158993e-13
3.288000000000000000e+03 2.987551116943359375e+01 -3.320517539978027344e+00 -1.503773640982794535e-13 -1.869649556430607457e-14 -5.072215908462178457e-14 -1.573363563999591319e-13
3.289000000000000000e+03 2.944311523437500000e+01 -2.680077314376831055e+00 -1.780799866021778172e-14 -9.913389689220411527e-14 -3.508256985157269525e-14 -8.805217161953968197e-14
3.290000000000000000e+03 2.022942733764648438e+01 2.681679916381835938e+01 1.637051090389377017e-14 1.557065159316431413e-13 5.162310737303471564e-14 -4.570093422077113610e-14
3.291000000000000000e+03 1.820172500610351562e+01 2.573847770690917969e+01 2.181615009629565838e-14 1.008516729329722583e-13 3.680034928047262732e-14 4.300892121286183090e-14
3.292000000000000000e+03 3.777340316772460938e+01 1.952653121948242188e+01 4.063488776148357906e-14 6.316590317207576577e-14 3.114023456956237224e-14 -6.660016776353222534e-14
3.293000000000000000e+03 3.177491378784179688e+01 -9.230009078979492188e+00 -8.436898098554412861e-14 -2.191619281888268489e-13 -9.105927410756400886e-14 -5.698870195192107246e-14
3.294000000000000000e+03 3.671716308593750000e+01 1.780210304260253906e+01 2.128233976854063125e-14 7.774742628125982935e-14 2.970892845968742257e-14 7.877842800839418569e-14
3.295000000000000000e+03 3.696364212036132812e+01 2.084102058410644531e+01 -7.791760367069269083e-15 1.453512603246526202e-13 4.126784837791240557e-14 -2.266045051526211634e-14
3.296000000000000000e+03 6.150870132446289062e+01 7.613438129425048828e+00 -7.775783462211569019e-14 -3.332478675063983709e-14 -3.332478675063983709e-14 1.215812118950804210e-13
3.297000000000000000e+03 5.581020736694335938e+01 1.522994399070739746e+00 -1.023368605026879485e-13 2.476776684407714507e-14 -2.327072928342936720e-14 -1.627959513071999820e-13
3.298000000000000000e+03 5.715245056152343750e+01 3.532915353775024414e+00 -5.395629011943278708e-14 4.836173237050822582e-14 -1.678367409380663103e-15 2.533488928358178932e-14
3.299000000000000000e+03 6.100758361816406250e+01 1.966254234313964844e+01 -1.044884732665125882e-13 -3.421619541518761132e-13 -1.339951234821321058e-13 4.328984816014819215e-14
3.300000000000000000e+03 8.245819091796875000e+00 1.679925727844238281e+01 -3.269597138110597512e-17 9.148788633140184090e-14 2.743655590263863187e-14 1.722157572797700098e-13
3.301000000000000000e+03 3.628858184814453125e+01 1.115791988372802734e+01 -4.245062146853578744e-14 3.249389960661291932e-13 8.474651373453073733e-14 7.440978443216256233e-14
3.302000000000000000e+03 3.706745910644531250e+01 1.014805126190185547e+01 -1.349698618927780425e-13 -1.264706519848654565e-13 -7.843215416329304968e-14 4.552849864150089465e-14
3.303000000000000000e+03 9.633235931396484375e+00 2.973267555236816406e+01 -9.317327691446466303e-15 1.675729189741168024e-13 4.747667780831757445e-14 4.152508889586174756e-14
3.304000000000000000e+03 3.515731430053710938e+01 1.393680953979492188e+01 -1.066166266058300727e-13 1.601864257558260896e-13 1.607094076143834177e-14 -3.743453978874086707e-14
3.305000000000000000e+03 1.484721374511718750e+01 2.284550857543945312e+01 -3.721233255348996294e-14 -1.074500392632925239e-13 -4.339871222266110384e-14 4.711184038914441319e-14
3.306000000000000000e+03 2.916053390502929688e+01 2.055597305297851562e+01 -3.095897290698174098e-14 1.697356583627365745e-13 4.163300766960552346e-14 3.560876365906601171e-14
3.307000000000000000e+03 2.903850936889648438e+01 1.930029869079589844e+01 4.971418648925737815e-14 4.418155362504068429e-14 2.816872271191577654e-14 1.091273542342362235e-13
3.308000000000000000e+03 7.029835510253906250e+01 2.551839447021484375e+01 6.597915031165968447e-14 -6.858655489253365212e-14 -7.822222212951375486e-16 5.493974619317186503e-14
3.309000000000000000e+03 2.200112342834472656e+01 2.626188850402832031e+01 5.358673642080931387e-14 1.487808492942402361e-13 6.071028011908619071e-14 1.084781754779663189e-15
3.310000000000000000e+03 3.219293212890625000e+01 2.234820365905761719e+01 -4.512340682854242002e-14 -1.933860244249935301e-14 -1.933860244249935301e-14 8.531611967463673118e-14
3.311000000000000000e+03 7.188601684570312500e+01 2.757396697998046875e+01 1.597499801712920497e-13 6.846427721626802132e-14 6.846427721626802132e-14 -5.847754870396890126e-14
3.312000000000000000e+03 9.496251106262207031e+00 2.736607170104980469e+01 -2.358619823430475881e-14 8.139352364842922238e-14 1.734219830186369687e-14 -2.568469186794118675e-14
3.313000000000000000e+03 3.631107330322265625e+01 2.269132614135742188e+01 -2.919239760405638318e-14 1.304606921624651417e-13 3.038048667345673304e-14 3.632254815932184355e-14
3.314000000000000000e+03 7.275863647460937500e+01 2.876289749145507812e+01 1.346476437833789286e-14 -2.458595935346530315e-13 -6.971845518434494071e-14 -3.807734292801678855e-14
3.315000000000000000e+03 6.915972137451171875e+01 3.018427848815917969e+01 2.848435937531472451e-14 -9.073205511564430559e-14 -1.867430668921980091e-14 2.272935495145535917e-14
3.316000000000000000e+03 7.074886322021484375e+01 2.298338890075683594e+01 2.363784691529653703e-14 -1.274496848525539724e-14 3.267863698418931387e-15 1.973845450964611253e-14
3.317000000000000000e+03 4.083904266357421875e+01 2.859030914306640625e+01 -2.960014910046923631e-14 1.188481957162604297e-13 2.677441500117689471e-14 -2.441565694196942693e-14
3.318000000000000000e+03 2.135189437866210938e+01 2.471960639953613281e+01 -2.060234510661666796e-14 2.548363504538322249e-14 1.464386769871729548e-15 1.291789195550325717e-14
3.319000000000000000e+03 3.931799316406250000e+01 2.704321861267089844e+01 -3.712467480784450991e-14 7.130216962648525114e-14 1.025324827618563292e-14 2.236017902952636138e-14
3.320000000000000000e+03 3.578406524658203125e+01 2.493279647827148438e+01 -1.922873210484510320e-14 1.747629141011716736e-13 4.666025324364525551e-14 1.926578302002390081e-14
3.321000000000000000e+03 3.327529907226562500e+01 -8.975233078002929688e+00 4.906277749523735299e-14 -1.619768907759958076e-13 -3.387423330660117859e-14 -6.776672694947926540e-15
3.322000000000000000e+03 3.119994544982910156e+01 -8.503024101257324219e+00 -9.951029800517319224e-14 -4.264727202570213482e-14 -4.264727202570213482e-14 -1.049924104362838506e-13
3.323000000000000000e+03 7.140740203857421875e+01 -1.566421389579772949e+00 -8.491144799002009469e-14 5.511127714125443888e-14 -8.940050746409928389e-15 1.047595847960061666e-13
3.324000000000000000e+03 6.998777770996093750e+01 -2.054849386215209961e+00 -6.048108655608633311e-14 6.558143107347411127e-14 1.530103185809743999e-15 1.965226890726298747e-14
3.325000000000000000e+03 4.852624893188476562e+01 -8.774957656860351562e+00 7.376742175001921309e-14 2.603693627888092887e-13 1.002410299406376881e-13 3.709584519445176254e-14
3.326000000000000000e+03 2.708971786499023438e+01 5.427070260047912598e-01 8.278131598173782413e-14 2.975883564093964595e-14 3.376204548680324102e-14 -1.213734601241073588e-14
3.327000000000000000e+03 5.216990280151367188e+01 -6.700696468353271484e+00 -4.878284327056517378e-14 3.679761302523981703e-13 9.575798948268168798e-14 2.573685046276721206e-14
3.328000000000000000e+03 4.029747772216796875e+01 -1.070806026458740234e+01 1.355559815872237062e-13 -2.164102772851672629e-13 -2.425628938700942483e-14 4.295051998521454140e-14
3.329000000000000000e+03 5.282346343994140625e+01 -4.889709472656250000e+00 1.001034463790151721e-14 1.872939466279061049e-13 5.919128577037968686e-14 -3.187541173393405869e-14
3.330000000000000000e+03 5.144712066650390625e+01 -6.935746192932128906e+00 -1.216346766147111125e-14 2.464173071321795749e-13 7.027614845308075009e-14 -1.206355504314478300e-14
3.331000000000000000e+03 7.208785247802734375e+01 2.825819969177246094e+00 -1.346086328339601845e-13 -1.491913146842160920e-13 -8.513998425545288296e-14 2.030074547321961825e-14
3.332000000000000000e+03 7.229959106445312500e+01 1.289302468299865723e+00 -1.599334136263494410e-13 -2.279194221592797942e-14 -5.481760743030958394e-14 -1.458780470552090147e-14
3.333000000000000000e+03 2.905189704895019531e+01 3.383807659149169922e+00 -5.523632630932348575e-14 2.050820315435339380e-13 4.495371224788949349e-14 -1.544616078921409730e-13
3.334000000000000000e+03 4.711581802368164062e+01 8.852198123931884766e-01 9.735260693291905576e-14 -4.977935042795554599e-14 1.427197661267587403e-14 1.918449665620769462e-13
3.335000000000000000e+03 4.870154571533203125e+01 -9.734742343425750732e-02 -1.401357870890740376e-13 -4.862046027831294637e-14 -5.662687658190834750e-14 2.499200661958828062e-13
3.336000000000000000e+03 4.493408584594726562e+01 1.265480160713195801e+00 -5.535411471096866876e-14 -6.947414377730248836e-14 -3.744847517478909482e-14 4.391997121620371675e-15
3.337000000000000000e+03 4.489027786254882812e+01 4.562628567218780518e-01 4.000633510451226393e-14 1.772738992275937897e-13 6.518407097725817390e-14 4.451668729281953174e-14
3.338000000000000000e+03 5.662379837036132812e+01 2.331589460372924805e+00 -3.602558179614627487e-14 1.103755758666280506e-13 2.230499652707863822e-14 -1.662174087604939565e-13
3.339000000000000000e+03 5.691725540161132812e+01 -3.197440862655639648e+00 -1.839559320843120460e-13 -3.308730920541583242e-14 -6.511297441979743694e-14 -1.950526057944296232e-13
3.340000000000000000e+03 4.410723114013671875e+01 1.234182834625244141e+00 7.906212305935217399e-14 -1.186718146575218777e-14 2.015848290159646949e-14 2.012660905179129017e-14
3.341000000000000000e+03 7.316480636596679688e+00 1.438615226745605469e+01 -3.402384981827238919e-14 7.692024778628916981e-14 1.286891989862480254e-14 -5.365485481042750471e-14
3.342000000000000000e+03 8.008316993713378906e+00 1.377318572998046875e+01 -5.240001276851993794e-14 1.147956919409984233e-13 1.871870476818308232e-14 2.772375936406414748e-14
3.343000000000000000e+03 7.001644897460937500e+01 2.020972633361816406e+01 -2.876855925790927637e-14 -1.038312841196604996e-13 -3.977995369089729061e-14 3.083884330627034709e-14
3.344000000000000000e+03 7.050434875488281250e+01 1.786144447326660156e+01 4.564868922858449085e-15 4.770732149172313141e-14 1.568165627734152689e-14 -7.146849979227168359e-14
3.345000000000000000e+03 6.127942657470703125e+01 -1.929063796997070312e+00 -1.922916036470323498e-13 -1.281616414557096295e-13 -9.613596946506444696e-14 -8.408931781141507078e-14
3.346000000000000000e+03 6.017164230346679688e+01 -9.351533651351928711e-01 4.151463905039147126e-15 -6.684722355732378163e-14 -1.880872742981726936e-14 -8.975285792356402226e-14
3.347000000000000000e+03 9.528705596923828125e+00 2.842739295959472656e+01 4.241140723120970235e-14 1.554291634633941932e-13 5.935217459651295768e-14 -2.913421999310716881e-14
3.348000000000000000e+03 3.163948059082031250e+01 -6.562956809997558594e+00 -2.667679784213762562e-14 1.144256130819476525e-14 -4.570270875479563386e-15 -5.680575638784129966e-14
3.349000000000000000e+03 3.159007835388183594e+01 -7.278721332550048828e+00 -1.063819917031770534e-13 -1.370941798669103595e-13 -7.304284943814715048e-14 -9.057407330658601152e-14
3.350000000000000000e+03 6.275922393798828125e+01 -1.331795454025268555e+00 3.669196379157491431e-15 -1.356803395764077935e-13 -3.960334054513119095e-14 -2.503586632441028720e-14
3.351000000000000000e+03 3.049413108825683594e+01 -4.628958225250244141e+00 -3.037113542971904556e-14 -1.301620114046043303e-14 -1.301620114046043303e-14 -6.909157626447740008e-14
3.352000000000000000e+03 7.140202331542968750e+01 1.783841848373413086e+00 -1.395760135074197716e-13 -2.428220927282176422e-13 -1.147194318706912242e-13 5.676805325729311624e-14
3.353000000000000000e+03 7.200792694091796875e+01 3.462588071823120117e+00 -2.019626192629672690e-13 9.644838909732972310e-14 -3.165427176019669497e-14 -7.336491846974754760e-14
3.354000000000000000e+03 7.217797088623046875e+01 -2.679442405700683594e+00 -2.883987536630994164e-13 -1.235994677916893436e-13 -1.235994677916893436e-13 -7.456474402766505305e-14
3.355000000000000000e+03 7.160704803466796875e+01 6.016466140747070312e+00 -1.545485066962656862e-13 -2.048412641223427977e-14 -5.250979162661588429e-14 2.001857338750079318e-13
3.356000000000000000e+03 7.101074981689453125e+01 4.897952079772949219e+00 -1.912105321083198972e-13 -2.649511740646787183e-13 -1.368485132071523003e-13 1.335598840725149561e-13
3.357000000000000000e+03 6.863524436950683594e+00 9.974225044250488281e+00 2.823499456970895299e-14 3.380762195800274261e-13 1.098933633978879665e-13 -7.224598964049051136e-15
3.358000000000000000e+03 8.116197586059570312e+00 2.411606407165527344e+01 1.325948424950491866e-14 7.430906205033865897e-14 2.627056253470035768e-14 -4.136083226673019364e-14
3.359000000000000000e+03 7.131922149658203125e+01 5.395621299743652344e+00 -2.397684644144665311e-13 1.259968285304349789e-13 -3.413149076520946568e-14 3.163440714351768712e-14
3.360000000000000000e+03 7.042020416259765625e+01 3.766676187515258789e+00 -5.053190532027310167e-14 1.155963210352703441e-13 1.951932200399374151e-14 -3.732161420324587101e-15
3.361000000000000000e+03 6.061035156250000000e+01 8.139891624450683594e+00 -1.576250929910191778e-13 -1.133045615881247969e-13 -8.127889637374319243e-14 1.224340724290118310e-13
3.362000000000000000e+03 6.072355651855468750e+01 7.500093460083007812e+00 -9.153202013608557897e-14 -2.908582391863284711e-13 -1.147170737309660682e-13 1.564809615434495371e-13
3.363000000000000000e+03 7.174814605712890625e+01 6.811556816101074219e+00 -1.282811340876446882e-13 -7.785310211175927586e-14 -6.184026950456847360e-14 1.216976823134596764e-13
3.364000000000000000e+03 7.091991424560546875e+01 4.078208446502685547e+00 -2.444286364023523506e-13 -1.047551260145718199e-13 -1.047551260145718199e-13 1.325657113379272167e-13
3.365000000000000000e+03 7.149083709716796875e+01 1.314686489105224609e+01 -4.679815698372183363e-14 -2.030601435696471890e-13 -7.495748948838434900e-14 -6.661081073251447562e-15
3.366000000000000000e+03 7.053253173828125000e+01 1.067807865142822266e+01 -4.375265679813257480e-14 1.756903948496243983e-13 3.958132107663436816e-14 6.104194603397897906e-15
3.367000000000000000e+03 8.182641983032226562e+00 1.738000106811523438e+01 -5.391325406944869059e-14 3.429019221345974699e-13 8.669660041954463381e-14 2.890130626140297032e-14
3.368000000000000000e+03 7.207012939453125000e+01 -4.537845849990844727e-01 -1.529747330327943522e-13 -6.556060083923523352e-14 -6.556060083923523352e-14 -7.753875124437425992e-14
3.369000000000000000e+03 7.130640411376953125e+01 -8.165982365608215332e-01 -1.760947073922713990e-13 -3.042239040979693998e-13 -1.440955780260613772e-13 2.298655989402091648e-14
3.370000000000000000e+03 9.250687599182128906e+00 1.778853416442871094e+01 1.239715253197049005e-13 2.818853820068384364e-13 1.217570694874575699e-13 3.415806727096251660e-14
3.371000000000000000e+03 8.181828498840332031e+00 2.010048103332519531e+01 -1.166199027537867527e-14 3.152586427589837426e-13 9.107899981083966701e-14 3.563464898593410313e-14
3.372000000000000000e+03 8.744017601013183594e+00 1.374372386932373047e+01 5.102128707587874623e-14 1.591191100321770469e-13 6.304212116529581134e-14 7.689305464055051775e-14
3.373000000000000000e+03 7.969544887542724609e+00 1.310514450073242188e+01 8.526425415321045587e-14 1.280437209169246748e-13 6.399239048816146580e-14 -3.666332984279298268e-15
3.374000000000000000e+03 7.011167144775390625e+01 1.871798133850097656e+01 3.353504065693908853e-14 -7.712973597480410337e-14 -1.307840893417268335e-14 3.779476596054917592e-14
3.375000000000000000e+03 6.740141296386718750e+01 -1.004990935325622559e+00 -1.233477024947110534e-13 -9.861425234345896906e-14 -6.658858712907736455e-14 -1.042185137018272756e-13
3.376000000000000000e+03 4.620254516601562500e+01 -9.770537376403808594e+00 3.258412420090173178e-14 1.396462477853402037e-14 1.396462477853402037e-14 3.909123797774839704e-14
3.377000000000000000e+03 4.180725097656250000e+01 -8.820281028747558594e+00 -5.981240486620589825e-14 -1.628867396866184869e-13 -6.680974404347367335e-14 -5.631075033346588654e-14
3.378000000000000000e+03 3.107733535766601562e+01 -5.673738479614257812e+00 -1.342269394591366627e-13 -1.177488197955578117e-14 -4.380054465283854392e-14 -2.147173294741490379e-14
3.379000000000000000e+03 4.341966247558593750e+01 -9.991979598999023438e+00 -4.040493525696298160e-14 -2.918220949176680845e-13 -9.966811040764203544e-14 -1.194140543826077705e-13
3.380000000000000000e+03 4.201630401611328125e+01 -9.580453872680664062e+00 3.255700898219422712e-14 -1.232998485213229745e-13 -2.722284949004637189e-14 -1.002461460196391041e-13
3.381000000000000000e+03 7.023659515380859375e+01 5.340379714965820312e+00 -8.196469490542174219e-14 -1.266296231284061435e-13 -6.257829269964293450e-14 -3.898178438030419635e-14
3.382000000000000000e+03 7.191939544677734375e+01 9.488069534301757812e+00 -2.047812060982506788e-13 -8.776337404210743376e-14 -8.776337404210743376e-14 2.898270002899688835e-13
3.383000000000000000e+03 6.134548950195312500e+01 8.800573348999023438e+00 -6.457461383104975972e-14 -7.342578286920545261e-14 -4.140011765482384809e-14 1.746213715075536910e-13
3.384000000000000000e+03 8.362726211547851562e+00 2.339983367919921875e+01 3.297755067611062019e-14 2.657634583323048583e-13 8.962229965320603342e-14 6.976124051257664993e-14
3.385000000000000000e+03 9.226523399353027344e+00 2.249042892456054688e+01 7.283510952563534979e-15 3.005026782965103394e-13 9.233585440302990999e-14 7.176679091497675800e-14
3.386000000000000000e+03 5.799554824829101562e+01 -3.370445728302001953e+00 -2.001913446212505443e-13 1.086452434094498098e-13 -2.746383205760611484e-14 -2.408433966583772845e-13
3.387000000000000000e+03 5.862493515014648438e+01 -2.967974424362182617e+00 -4.735488463489777311e-14 3.228371617345487943e-13 8.264468617921391647e-14 4.210908084354390846e-14
3.388000000000000000e+03 5.403812026977539062e+01 -4.254734516143798828e+00 -2.531913616482875384e-14 5.038471267808375398e-13 1.435583965071762780e-13 -2.433972552044576243e-14
3.389000000000000000e+03 5.183229446411132812e+01 8.878579139709472656e-01 -8.610821745306390662e-14 1.918512278296230500e-13 3.172290175771502740e-14 -1.503785025105605633e-13
3.390000000000000000e+03 4.087916183471679688e+01 8.182974815368652344e+00 -8.252943548827870734e-15 -2.641245071776082004e-14 -1.039961811057001778e-14 1.160999464969170170e-13
3.391000000000000000e+03 7.252807617187500000e+01 5.721421837806701660e-01 -1.791617798129613304e-13 1.062201745289335919e-13 -2.188248124639514264e-14 5.779669684470231661e-14
3.392000000000000000e+03 7.055229949951171875e+01 -1.081478238105773926e+00 -1.326395048482920114e-13 5.753187368780915412e-14 -2.253228765407896267e-14 4.001091247055922617e-14
3.393000000000000000e+03 7.161786651611328125e+01 1.651019668579101562e+01 -7.495631041852177101e-14 -3.212413448856581144e-14 -3.212413448856581144e-14 -1.000959704662227057e-13
3.394000000000000000e+03 3.233735656738281250e+01 1.084549427032470703e+01 3.264776348029484188e-14 2.198711725924853977e-13 7.575567912776817736e-14 -6.302138579874702606e-14
3.395000000000000000e+03 3.888060379028320312e+01 6.689012527465820312e+00 -1.331517361646827879e-13 1.716897159382071991e-13 1.156139156036507104e-14 -3.227472678219225899e-14
3.396000000000000000e+03 3.332172775268554688e+01 -1.025108242034912109e+01 1.596921650904442602e-13 -2.306239983598627752e-14 4.098893059277693152e-14 -9.242673172090787662e-16
3.397000000000000000e+03 3.439970779418945312e+01 -1.029074192047119141e+01 4.410642519075101686e-14 4.177822638621458973e-14 2.576539547308968198e-14 -2.668633882125549805e-14
3.398000000000000000e+03 7.068530273437500000e+01 -1.794766664505004883e+00 -2.515511128391156870e-13 -1.078076226923053993e-13 -1.078076226923053993e-13 1.030937776146838639e-14
3.399000000000000000e+03 3.206785964965820312e+01 8.965585708618164062e+00 -2.265159563283151989e-14 1.761554091614034312e-13 4.605114168687932108e-14 -1.062140775857792555e-14
3.400000000000000000e+03 3.165371131896972656e+01 9.426700592041015625e+00 2.010018670603463953e-14 2.259313748457017490e-13 7.380946846552091656e-14 -5.641987867025834158e-14
3.401000000000000000e+03 3.965879058837890625e+01 3.794585466384887695e+00 6.277414704583886285e-14 -2.018515427503961290e-13 -4.172321667848810645e-14 2.954750769686327605e-14
3.402000000000000000e+03 4.060256576538085938e+01 3.151874065399169922e+00 -3.358607947420884365e-14 -1.973978299612058618e-13 -6.929517587994302175e-14 9.732357741975075638e-15
3.403000000000000000e+03 4.408011245727539062e+01 -9.897700309753417969e+00 7.695543692304990246e-14 3.298090153844995820e-14 3.298090153844995820e-14 -2.923598253139030045e-14
3.404000000000000000e+03 4.263293457031250000e+01 -9.429048538208007812e+00 -1.003468074150908051e-15 -9.193195521246116941e-14 -2.788062647776385489e-14 -1.537173573108382985e-13
3.405000000000000000e+03 6.283486557006835938e+01 1.363963127136230469e+01 -3.934913918139659739e-14 -3.371205495750900782e-13 -1.129409066269460027e-13 -2.833060764879501842e-14
3.406000000000000000e+03 6.297249221801757812e+01 1.480229568481445312e+01 8.882429297293881199e-14 -4.199660503254390442e-14 1.404830739855800897e-14 3.158855894414870635e-14
3.407000000000000000e+03 9.623987197875976562e+00 1.604957962036132812e+01 9.353729271167898762e-14 1.315893059664410836e-13 6.753798231394145257e-14 -2.497897408595853123e-15
3.408000000000000000e+03 5.309473800659179688e+01 -3.949535846710205078e+00 6.117828953936671477e-14 3.464759132810329989e-13 1.222962567803617673e-13 2.771447249483045133e-14
3.409000000000000000e+03 4.927158355712890625e+01 1.463586837053298950e-01 9.225938426855179175e-14 2.225435276597548251e-13 9.444087357849198505e-14 2.152899711803379912e-13
3.410000000000000000e+03 3.185667610168457031e+01 -5.777509212493896484e+00 -7.081635896178523071e-14 -3.034986812647938459e-14 -3.034986812647938459e-14 2.516393601196924290e-14
3.411000000000000000e+03 8.890782356262207031e+00 1.926035690307617188e+01 -1.914150804006864437e-14 4.035550376941393624e-13 1.153240643172320778e-13 -5.272711910505765640e-15
3.412000000000000000e+03 7.105455780029296875e+01 -3.197804689407348633e+00 -2.271756323639004260e-13 6.276733012467936024e-14 -4.932249134939267754e-14 1.128853683706604327e-14
3.413000000000000000e+03 7.207807159423828125e+01 -3.656261920928955078e+00 -1.907763904534023891e-13 -8.176130535412703959e-14 -8.176130535412703959e-14 -2.210356870408977659e-14
3.414000000000000000e+03 6.422534942626953125e+01 -9.221145510673522949e-01 -1.002282905651109834e-13 -1.802078316215025011e-13 -8.413083597835768757e-14 -1.887988497365020862e-14
3.415000000000000000e+03 5.318326187133789062e+01 3.845065534114837646e-01 -3.629454863821740540e-14 -1.555480631722661738e-14 -1.555480631722661738e-14 1.080051118120895284e-14
3.416000000000000000e+03 6.546253204345703125e+01 -9.054974913597106934e-01 -5.941401477792609964e-14 -8.265183513728874276e-14 -4.261975700744352613e-14 -1.238674512285087119e-16
3.417000000000000000e+03 5.197422027587890625e+01 -1.146475553512573242e+00 -2.025784732019933476e-13 4.682554833517014320e-15 -5.936877644227914197e-14 1.281740691231117446e-13
3.418000000000000000e+03 5.053848266601562500e+01 -2.934696078300476074e-01 -1.557193637273870945e-13 2.077688200522245787e-13 1.561483893033031867e-14 2.143274164916053603e-13
3.419000000000000000e+03 4.236191558837890625e+01 2.621220350265502930e+00 -2.240950811079208370e-15 4.479053982093042507e-14 1.276487714764766232e-14 -6.997947685737082590e-14
3.420000000000000000e+03 4.244393157958984375e+01 1.026829957962036133e+00 3.485851608449677674e-14 2.436941165355477334e-13 8.356579046363971086e-14 4.890473131167506760e-14
3.421000000000000000e+03 3.672664642333984375e+01 1.068469619750976562e+01 1.246027342719988051e-13 2.249672345112918581e-13 1.048709933454926302e-13 1.598928339719123820e-14
3.422000000000000000e+03 7.067252349853515625e+01 1.168327999114990234e+01 -2.179998362546436280e-14 -9.342850488213132881e-15 -9.342850488213132881e-15 -9.133447172399514202e-14
3.423000000000000000e+03 3.776407623291015625e+01 8.109400749206542969e+00 -9.760889199770389490e-14 2.326733098724498294e-13 4.051932536242378036e-14 -9.654680077327351673e-14
3.424000000000000000e+03 6.906085205078125000e+01 -8.220667839050292969e-01 -1.781855370718010700e-13 3.801214171986894153e-14 -4.205201792795328075e-14 -4.778619719977145186e-14
3.425000000000000000e+03 6.916790771484375000e+01 -1.579789519309997559e+00 -1.066228607683218643e-13 -2.058238291174213641e-13 -9.373400764334932633e-14 5.069096455524030320e-14
3.426000000000000000e+03 5.879185485839843750e+01 -1.969943404197692871e+00 -1.195032977739304836e-13 3.147918937237287329e-13 5.858657878493947480e-14 8.819585551244832344e-14
3.427000000000000000e+03 5.907802581787109375e+01 5.588027477264404297e+00 -6.347285435963356814e-14 -1.187045524809332564e-13 -5.465322205217004736e-14 -7.306758957647055408e-14
3.428000000000000000e+03 6.041645431518554688e+01 6.009410858154296875e+00 -5.808975669192514846e-14 -2.536503450854821207e-13 -9.352203256610125415e-14 8.163625618605799272e-14
3.429000000000000000e+03 3.151842117309570312e+01 1.501923370361328125e+01 -7.569254468001163083e-14 3.618676200161340117e-14 -1.185173327886016384e-14 2.054403874665947094e-14
3.430000000000000000e+03 3.124292373657226562e+01 1.350731277465820312e+01 2.971486446658178071e-14 7.564249519722426873e-14 3.160720722151545703e-14 3.273877886454321096e-14
3.431000000000000000e+03 5.757954788208007812e+01 3.044168949127197266e+00 4.020653642379350134e-15 1.723137229928670740e-15 1.723137229928670740e-15 -6.561996768444239292e-14
3.432000000000000000e+03 6.341136550903320312e+01 1.295640945434570312e+01 3.598740432714762905e-14 -5.892211902853300431e-14 -6.880414749228791482e-15 -6.260066114571402607e-14
3.433000000000000000e+03 6.129076385498046875e+01 9.905519485473632812e+00 -6.589818073816575139e-14 -4.857515756816199737e-13 -1.654949235378039285e-13 1.781154027437684140e-13
3.434000000000000000e+03 6.192578887939453125e+01 1.009094524383544922e+01 6.797024694384784516e-14 -6.237179284336591412e-14 1.679537161880821292e-15 8.100938404245403013e-14
3.435000000000000000e+03 8.366580009460449219e+00 2.172257995605468750e+01 -7.324496505188918261e-14 2.888659363792234203e-13 6.468629343107934471e-14 -6.000350905163362447e-14
3.436000000000000000e+03 5.618378067016601562e+01 1.941230893135070801e+00 -2.331194760070865596e-14 -5.574178475026801693e-14 -2.371611953588641242e-14 -1.551693479652851981e-13
3.437000000000000000e+03 5.611677169799804688e+01 2.927368640899658203e+00 7.383327856166823494e-15 -2.249649576867296386e-13 -6.527448666217988693e-14 -1.117352534823513877e-13
3.438000000000000000e+03 7.115907287597656250e+01 1.494252967834472656e+01 -3.854127981388691393e-14 2.923325847343193062e-14 -2.792406105674963453e-15 -5.834549965562374485e-14
3.439000000000000000e+03 3.179907608032226562e+01 1.039687633514404297e+01 6.079338421560720462e-14 2.548090590522716914e-13 9.468073298036366880e-14 -2.571758893354664927e-14
3.440000000000000000e+03 3.443265914916992188e+01 1.461950397491455078e+01 7.666661901682692015e-14 -1.043957265469200313e-13 -8.318732597841112242e-15 1.071932798600572223e-13
3.441000000000000000e+03 3.638121414184570312e+01 -1.034328651428222656e+01 -3.537847615301477518e-15 -1.516220421683364423e-15 -1.516220421683364423e-15 -7.812338016083275605e-14
3.442000000000000000e+03 7.082996368408203125e+01 2.194952392578125000e+01 2.852089698852748600e-14 -1.021541317790426728e-13 -2.208997043715455605e-14 -6.491265451590358393e-14
3.443000000000000000e+03 7.204878997802734375e+01 2.240501594543457031e+01 -4.202942586518411405e-14 2.773833849515228850e-14 -4.287326295712842392e-15 -8.613410277993199804e-14
3.444000000000000000e+03 4.025267028808593750e+01 -9.976902008056640625e+00 8.525301910819807483e-14 -1.007158359532869807e-13 -4.638844545306903405e-15 5.513724378328546671e-14
3.445000000000000000e+03 3.661904144287109375e+01 -9.729768753051757812e+00 -7.177343842954680975e-15 3.629315814893119274e-13 1.067262733267862473e-13 5.848822131910430544e-14
3.446000000000000000e+03 6.133956909179687500e+01 9.380501747131347656e+00 -1.031402407599725513e-13 -1.814558025321419410e-13 -8.537881366526070548e-14 7.544790123605385479e-14
3.447000000000000000e+03 1.276546764373779297e+01 2.205930328369140625e+01 4.747733510588464378e-14 2.491021711820140538e-13 8.897385188636960929e-14 8.809219900849513119e-14
3.448000000000000000e+03 5.342824935913085938e+01 -4.583025932312011719e+00 -1.556489312437570049e-13 4.479914974143267559e-13 8.770276714066549406e-14 1.351488365664010871e-13
3.449000000000000000e+03 1.265634155273437500e+01 2.111268997192382812e+01 2.406525127015158444e-14 1.246910560914749055e-13 4.462688966738910523e-14 8.232513961173044265e-15
3.450000000000000000e+03 7.127068519592285156e+00 1.494202613830566406e+01 4.863717732055995724e-14 2.495992507730443455e-13 8.947092470113632290e-14 -8.132209505405316174e-14
3.451000000000000000e+03 7.991641998291015625e+00 1.447213172912597656e+01 -1.030910586389231776e-14 2.700875005416658592e-13 7.793352280790338815e-14 5.689119151903315741e-14
3.452000000000000000e+03 7.077835083007812500e+01 1.708125114440917969e+01 6.887054809908907393e-14 -6.198595239523263523e-14 2.065378880563521063e-15 2.524447698679186530e-14
3.453000000000000000e+03 5.875853729248046875e+01 4.684092998504638672e+00 7.991121599073419679e-14 -1.150328510018342604e-14 2.052237842013228397e-14 -7.135187351983013349e-14
3.454000000000000000e+03 3.026413345336914062e+01 4.390259742736816406e+00 -1.206306969326600628e-14 1.778339032022097088e-13 4.973125250907865780e-14 -1.148605543359673686e-13
3.455000000000000000e+03 2.944215965270996094e+01 5.229119300842285156e+00 -2.357703875882632971e-13 1.277102880913039140e-13 -3.241803459247231955e-14 2.952534253869952552e-14
3.456000000000000000e+03 6.316008377075195312e+01 1.171245002746582031e+01 -2.337661009590204925e-14 -1.015204427142792076e-13 -3.746911567364778761e-14 -3.255303131547392093e-14
3.457000000000000000e+03 5.172449874877929688e+01 -3.043837070465087891e+00 -1.367773895446372512e-13 7.291509654091046788e-14 -1.915868925637075060e-14 9.714540234522991979e-14
3.458000000000000000e+03 5.252568054199218750e+01 -5.799015522003173828e+00 7.736358483088207061e-14 3.534124761502693834e-13 1.292328196495981518e-13 2.456441117410033265e-14
3.459000000000000000e+03 4.151020050048828125e+01 2.502617120742797852e+00 -1.349904888391095792e-13 -2.179813946533160074e-13 -1.058915664029803916e-13 1.015125619197379536e-13
3.460000000000000000e+03 3.394422531127929688e+01 -9.575220108032226562e+00 8.650755113604694652e-15 -8.779442965808556543e-14 -2.374310261745414541e-14 -4.774665092553004309e-14
3.461000000000000000e+03 3.495449447631835938e+01 -1.050181102752685547e+01 4.647220515309122280e-14 2.486713905538312508e-13 8.854308481071396231e-14 -1.301565463480286455e-13
3.462000000000000000e+03 5.462554931640625000e+01 -3.879232406616210938e+00 -1.319806351880725703e-13 3.208821825872315570e-13 5.667046489737405379e-14 -4.953807817512784206e-14
3.463000000000000000e+03 7.175048065185546875e+01 2.173732948303222656e+01 4.361172406823661529e-14 2.245700099403474814e-13 8.045451647563026110e-14 5.950081871436072034e-14
3.464000000000000000e+03 3.026032066345214844e+01 1.652880668640136719e+01 8.180124465165597436e-14 8.080862368142760488e-14 4.878296185517778938e-14 7.829415555552637906e-14
3.465000000000000000e+03 7.211817169189453125e+01 2.067711830139160156e+00 -2.213044201018754542e-13 1.953261872719973952e-14 -6.053154261468837727e-14 6.505438684490175150e-14
3.466000000000000000e+03 7.007196044921875000e+01 1.213823080062866211e+00 -2.341103385369164291e-13 -2.375858570210359622e-13 -1.415088478253639925e-13 1.949026623280407725e-15
3.467000000000000000e+03 1.282963180541992188e+01 2.306232452392578125e+01 -3.656847570522765711e-14 3.007874304445865010e-14 -1.946920052340586280e-15 3.598574414257101062e-14
3.468000000000000000e+03 2.903217887878417969e+01 -2.020846366882324219e+00 5.344410962501884577e-14 1.601574640052935705e-13 6.408047513841233500e-14 -7.740513010287899953e-14
3.469000000000000000e+03 3.336956024169921875e+01 1.677756690979003906e+01 -1.181972136268458207e-13 2.124120107235838439e-13 2.826443743495551247e-14 -1.881195394771995044e-13
3.470000000000000000e+03 4.810467529296875000e+01 -3.557746112346649170e-01 -4.452279270630334074e-14 2.666975222208236435e-14 -5.355911721749819290e-15 1.413963347449143093e-13
3.471000000000000000e+03 3.078482627868652344e+01 -1.424479246139526367e+00 -9.926379108873145674e-14 3.209323769126528995e-15 -2.881634208052978596e-14 -8.981009024574410082e-14
3.472000000000000000e+03 5.804876327514648438e+01 3.421200037002563477e+00 3.265309978786254397e-14 -7.750770918092328432e-14 -1.345638298732481156e-14 1.471198515659924433e-13
3.473000000000000000e+03 7.182577514648437500e+01 2.423342168331146240e-01 -1.900734208698171002e-13 -2.644638251881464841e-13 -1.363611778831472221e-13 -8.190378984838236898e-14
3.474000000000000000e+03 4.932043838500976562e+01 -8.360629081726074219e+00 -3.146799227443652924e-14 1.008910904582056844e-13 2.082692911631756766e-14 -2.661863547778146183e-14
3.475000000000000000e+03 3.519062042236328125e+01 1.509659957885742188e+01 -1.149460436772678507e-13 1.794921497674448196e-13 1.936383047180037509e-14 6.419888356817490815e-14
3.476000000000000000e+03 1.782551383972167969e+01 2.432825469970703125e+01 1.169574792645854816e-14 1.422653092336342850e-13 4.618831697862126051e-14 6.705751134494092325e-14
3.477000000000000000e+03 1.652488517761230469e+01 2.459946250915527344e+01 6.676408557948487754e-14 2.861317953406494752e-14 2.861317953406494752e-14 2.388699318640191693e-14
3.478000000000000000e+03 3.000706481933593750e+01 -2.228242635726928711e+00 -2.565573689367224575e-14 -1.099531605358323311e-14 -1.099531605358323311e-14 -1.624287049263248295e-13
3.479000000000000000e+03 2.964497756958007812e+01 -1.532627940177917480e+00 -3.235594368930679032e-14 -1.454008083639352078e-13 -5.332702595478577834e-14 -1.388937386328017998e-13
3.480000000000000000e+03 6.949756622314453125e+01 1.953948783874511719e+01 -2.038476775345545583e-14 -1.587743354353925510e-15 -6.591753544101051215e-15 -8.853315758457214191e-14
3.481000000000000000e+03 4.730295944213867188e+01 -8.774670600891113281e+00 1.500237312309325721e-14 1.665579160052901853e-13 5.446808436682278043e-14 1.176688954607207904e-13
3.482000000000000000e+03 4.491278457641601562e+01 -8.180903434753417969e+00 6.373759620136379422e-14 1.245368825425474668e-13 5.648234226792066270e-14 9.479115219536773940e-14
3.483000000000000000e+03 3.670041656494140625e+01 7.576740741729736328e+00 -7.166433380967687783e-14 1.065395601601570874e-13 1.046256959920995738e-14 -4.492288363674122598e-14
3.484000000000000000e+03 3.722775650024414062e+01 8.990486145019531250e+00 6.041742864196838342e-15 2.770950244430914200e-13 8.494102638053821486e-14 -1.075634400342709296e-13
3.485000000000000000e+03 5.819357299804687500e+01 -2.409188508987426758e+00 -5.376856728953050002e-14 -1.602965129339148365e-13 -6.421952406703360094e-14 -2.137551474799131990e-13
3.486000000000000000e+03 4.571076202392578125e+01 -9.244286537170410156e+00 -1.546109736820597963e-14 -6.626184586373991270e-15 -6.626184586373991270e-15 1.564982545681006809e-13
3.487000000000000000e+03 8.102831840515136719e+00 1.626202774047851562e+01 -1.088214821666532231e-14 1.669022857203258936e-13 4.680604116639487666e-14 6.000318379098187882e-14
3.488000000000000000e+03 6.182347106933593750e+01 6.426813453435897827e-02 -7.222358561903563512e-14 -1.682058084397780595e-13 -7.212881957289682400e-14 1.716758076572132835e-14
3.489000000000000000e+03 6.375468826293945312e+01 -1.513282656669616699e+00 -6.196985199297122549e-14 -1.838273999167638895e-13 -7.373917828342596570e-14 -7.279592239336357684e-14
3.490000000000000000e+03 7.187789154052734375e+01 7.624843597412109375e+00 -3.608817414281657865e-14 1.904129116750766237e-13 4.629742159849119243e-14 6.934916914813279987e-14
3.491000000000000000e+03 1.039102458953857422e+01 1.532359981536865234e+01 1.593953105356177291e-13 2.055651249265391667e-13 1.094881292833943531e-13 2.969548435274860232e-14
3.492000000000000000e+03 9.686728477478027344e+00 1.680279922485351562e+01 2.445104428443981709e-14 1.934828165739421735e-13 6.538015571641575541e-14 4.010110792691465309e-14
3.493000000000000000e+03 6.970251464843750000e+01 2.442137908935546875e+01 5.851714241205535627e-14 -1.579250239695101365e-13 -2.982236311198371848e-14 1.151405495470117502e-13
3.494000000000000000e+03 7.078369140625000000e+01 2.727857971191406250e+01 5.017190276516286795e-14 -1.281096759843955782e-14 1.120828046531369832e-14 2.838498038774516646e-14
3.495000000000000000e+03 3.096588134765625000e+01 7.690912246704101562e+00 -3.238409906447352327e-14 1.920003733909755872e-13 4.788487992625836687e-14 -5.608174650584621390e-14
3.496000000000000000e+03 3.189226150512695312e+01 1.297898006439208984e+01 -2.402819696684099782e-14 1.269550464104776677e-13 3.087805415546464316e-14 -6.545802853745452676e-14
3.497000000000000000e+03 3.247029876708984375e+01 1.352493381500244141e+01 8.056827045934767187e-16 3.452925839015215078e-16 3.452925839015215078e-16 -3.544464594333780749e-14
3.498000000000000000e+03 1.095736408233642578e+01 3.160404777526855469e+01 3.220210895355825331e-15 5.856877754051997842e-14 1.853669602254297277e-14 -4.804053747690939513e-14
3.499000000000000000e+03 3.294638061523437500e+01 1.289678096771240234e+01 -7.226124809200235033e-14 2.435365819598855897e-13 5.138260083799132960e-14 -2.617829523575594675e-14
3.500000000000000000e+03 3.567590713500976562e+01 1.449031162261962891e+01 -8.590424514310149307e-14 9.471787368103487537e-14 2.644089366061314582e-15 8.411003962543669998e-14
3.501000000000000000e+03 2.977656555175781250e+01 2.329500961303710938e+01 1.587298238540143375e-14 2.126819770645327345e-13 6.856649037607909225e-14 5.483304714687213532e-14
3.502000000000000000e+03 2.664757156372070312e+01 2.674081039428710938e+01 -3.468784233375682424e-14 9.951115181438402457e-14 1.944699216656180230e-14 -1.099908196206672573e-14
3.503000000000000000e+03 7.119861602783203125e+01 2.466263389587402344e+01 6.317091083085993319e-14 -2.109746567984654986e-13 -4.434112446790802742e-14 -7.829993570835844241e-14
3.504000000000000000e+03 1.041387367248535156e+01 2.788788223266601562e+01 2.038914860785865507e-14 1.231155748095819069e-13 4.305141854989147365e-14 9.541945582465256176e-15
3.505000000000000000e+03 3.402857589721679688e+01 1.272209262847900391e+01 -6.799180901455315063e-14 1.023946281496906918e-13 1.032084658757420961e-14 1.012530378009628140e-13
3.506000000000000000e+03 6.135544967651367188e+01 1.756665039062500000e+01 -2.004917160568740753e-14 -3.288491440961438528e-13 -1.046694943717361992e-13 -8.271898113308348566e-14
3.507000000000000000e+03 6.108022308349609375e+01 2.090223884582519531e+01 4.602462955563026148e-14 1.112267355584013739e-13 4.717540851776995392e-14 4.210172859756174113e-14
3.508000000000000000e+03 7.002513885498046875e+01 3.393245315551757812e+01 4.807552332576278675e-14 -3.086601951135005406e-14 5.162850890213935631e-15 8.224041937634606753e-15
3.509000000000000000e+03 6.276626968383789062e+01 1.645707130432128906e+01 5.965706579994303760e-14 1.170692096865919019e-13 5.301788264596048184e-14 2.588563518808421893e-14
3.510000000000000000e+03 6.219391632080078125e+01 1.861301231384277344e+01 -4.594608249636547570e-14 -2.713214039291172996e-13 -9.518024525001847480e-14 -1.282241694278759420e-14
3.511000000000000000e+03 3.669194793701171875e+01 1.969743347167968750e+01 -4.454240321309817230e-14 4.953682117823411668e-14 1.498325686002314854e-15 4.241855280115273963e-14
3.512000000000000000e+03 6.117676544189453125e+01 2.221097564697265625e+01 -5.328153605035348614e-15 -1.395363452604339582e-13 -4.345934961728914470e-14 -1.512342598971715829e-14
3.513000000000000000e+03 5.985177612304687500e+01 2.236533546447753906e+01 5.884405647211404800e-14 7.096982777930055386e-14 3.894416595305073836e-14 2.860798552803238415e-14
3.514000000000000000e+03 5.821861648559570312e+01 2.570191574096679688e+01 2.332537942566974103e-15 -7.906450152786806407e-14 -2.301958909676615067e-14 2.999263367504077793e-14
3.515000000000000000e+03 5.789240646362304688e+01 2.784788131713867188e+01 3.948895382780218122e-14 1.084257331271029634e-13 4.437440608647154339e-14 6.002803234952253097e-14
3.516000000000000000e+03 3.574501419067382812e+01 2.123671913146972656e+01 -3.784441903191722301e-14 8.672059516887445363e-14 1.466285351871352699e-14 5.703982208435376400e-14
3.517000000000000000e+03 3.549295806884765625e+01 1.858222770690917969e+01 -4.302202311848996041e-14 -1.843800990792426875e-14 -1.843800990792426875e-14 -8.493877835509620194e-15
3.518000000000000000e+03 5.988967514038085938e+01 2.390746307373046875e+01 -4.658512819748737710e-14 -1.343424205430335250e-13 -5.427826767147488074e-14 2.579940723405373115e-14
3.519000000000000000e+03 1.189519596099853516e+01 3.663632202148437500e+01 2.746182289545522764e-14 4.608256322109066661e-14 2.206331600437035773e-14 -2.506951555527291153e-14
3.520000000000000000e+03 3.714731216430664062e+01 2.409577751159667969e+01 -4.574553897577354755e-14 3.758345495713175111e-14 -2.448625925570544100e-15 1.979149867741849221e-15
3.521000000000000000e+03 3.765400314331054688e+01 2.840377044677734375e+01 -2.918176903463423622e-14 9.043316090548078612e-14 1.837541925531985948e-14 -7.567007797811865777e-15
3.522000000000000000e+03 2.450261306762695312e+01 2.743530464172363281e+01 5.124618109963834101e-14 1.935287054308926225e-13 7.343246426509339453e-14 4.874650894525975331e-14
3.523000000000000000e+03 4.322665023803710938e+01 3.365380859375000000e+01 -6.485573305481514769e-15 1.001601010247252233e-13 2.810235937456429661e-14 1.638323333876152976e-14
3.524000000000000000e+03 1.099319362640380859e+01 2.994307899475097656e+01 5.531153267064430057e-14 1.380823081743864922e-13 5.801815191469605892e-14 -6.125625045183200057e-14
3.525000000000000000e+03 5.369429779052734375e+01 2.917023086547851562e+01 4.555573583295280393e-14 7.671257563641314947e-14 3.668049411843614382e-14 4.112791175876241712e-14
3.526000000000000000e+03 9.568982124328613281e+00 1.450513076782226562e+01 7.284639200449277707e-14 1.684727254621168346e-13 7.239573659523559912e-14 3.001464297914223367e-14
3.527000000000000000e+03 6.958533477783203125e+01 1.813982576131820679e-01 -2.550640091931316578e-13 -2.923169247891904687e-13 -1.642142774841912067e-13 -5.150264912353978708e-14
3.528000000000000000e+03 3.759574508666992188e+01 -1.071437263488769531e+01 3.525165118037180967e-14 2.896135479872607998e-13 9.745955670097117274e-14 1.196117857538148144e-13
3.529000000000000000e+03 5.926181793212890625e+01 1.895714700222015381e-01 -1.078221374488895490e-13 -2.177755453183424783e-13 -9.767930415254325038e-14 -5.627865794916031561e-14
3.530000000000000000e+03 5.664707946777343750e+01 1.425690054893493652e+00 -1.352684647236077065e-13 3.352969757310780841e-14 -3.052162946752361161e-14 -1.446874439920212141e-13
3.531000000000000000e+03 4.999557495117187500e+01 -3.053711056709289551e-01 5.083107820427626780e-15 2.766841660298280381e-13 8.453018151980198902e-14 1.317353073414934128e-13
3.532000000000000000e+03 8.075298309326171875e+00 1.111518573760986328e+01 -4.073428877190976571e-15 1.812580440558805850e-13 5.315538319835416692e-14 6.574104596205471163e-14
3.533000000000000000e+03 4.083738708496093750e+01 -9.899000167846679688e+00 1.255828394833985451e-13 -2.664354197337570618e-13 -4.225577678561298622e-14 -6.098337709380813321e-14
3.534000000000000000e+03 3.701591491699218750e+01 -9.330725669860839844e+00 8.847634539073390147e-14 3.791843277084830377e-14 3.791843277084830377e-14 -5.461513436866381049e-15
3.535000000000000000e+03 4.127164077758789062e+01 -9.124788284301757812e+00 1.499653266151534936e-13 -1.644838914594340396e-13 -4.355570469723700489e-15 3.354657724568069210e-14
3.536000000000000000e+03 4.142658615112304688e+01 -9.763112068176269531e+00 1.293593714541156278e-14 5.129492276355514246e-14 1.926925754917353795e-14 -7.096949574238523017e-14
3.537000000000000000e+03 3.578152465820312500e+01 1.076828193664550781e+01 7.369441428622947043e-14 3.518399493192964078e-13 1.276603063711523323e-13 -1.042765744222297689e-14
3.538000000000000000e+03 4.668794631958007812e+01 -8.329009056091308594e+00 -3.814475319809107479e-14 1.666560498544272795e-13 3.855338899690086141e-14 1.338714973294144461e-13
3.539000000000000000e+03 5.994097900390625000e+01 -1.640608191490173340e+00 -1.396326901759864514e-13 -1.284689992190821139e-13 -8.043050817377328521e-14 1.381736725362091300e-14
3.540000000000000000e+03 5.619667434692382812e+01 1.114706277847290039e+00 3.342546508675048322e-14 -5.430122565247726130e-14 -6.262728254421328147e-15 -1.716060155304913182e-13
3.541000000000000000e+03 3.887142944335937500e+01 -1.056660366058349609e+01 3.653407261504197645e-14 -1.559085976640672833e-13 -3.581235649826805534e-14 -2.721274438698562809e-14
3.542000000000000000e+03 5.250054168701171875e+01 6.864998936653137207e-01 -7.534957087527299757e-14 4.709677743283680051e-13 1.186854569701703555e-13 1.928878741843179090e-13
3.543000000000000000e+03 1.512132167816162109e+01 2.378189659118652344e+01 8.467587118672972868e-14 -9.461291105227701698e-15 2.256437326212095557e-14 3.374126946267298754e-14
3.544000000000000000e+03 5.115052795410156250e+01 -6.243000030517578125e+00 -1.205777285743364624e-13 1.542031069891661166e-13 1.008761267741594900e-14 -7.349083499955458287e-14
3.545000000000000000e+03 5.068625640869140625e+01 -7.145184040069580078e+00 -4.314165805196015779e-14 1.645145201708067551e-13 3.641185592514854796e-14 -5.069712417883273647e-14
3.546000000000000000e+03 6.876522827148437500e+01 1.764510917663574219e+01 4.487237675616234656e-14 -7.227087716254673722e-14 -8.219550121915317198e-15 4.125523097513010551e-14
3.547000000000000000e+03 6.927867126464843750e+01 1.715601539611816406e+01 -8.833939032755824816e-14 -2.037069243756434167e-13 -8.761389644383957287e-14 -3.847213820846843990e-14
3.548000000000000000e+03 2.868653488159179688e+01 1.915964603424072266e+00 -3.865842785862397268e-14 1.149660743124045204e-13 2.289229529138687991e-14 -8.802461933183139409e-14
3.549000000000000000e+03 2.920436859130859375e+01 2.398525238037109375e+00 -5.013743021827551244e-15 2.644559681105277532e-14 6.429556052064272498e-15 -1.157298676378662461e-13
3.550000000000000000e+03 5.222395324707031250e+01 -5.172997474670410156e+00 -3.609200273173816809e-14 3.962905307727804249e-13 1.080595573958731404e-13 1.129236610361399051e-13
3.551000000000000000e+03 3.194607734680175781e+01 -7.885857105255126953e+00 3.734302634911951246e-14 1.990079515025097723e-13 7.090529064498335421e-14 -2.769880238530624678e-14
3.552000000000000000e+03 7.106656646728515625e+01 1.565067386627197266e+01 -8.898316924878940659e-14 5.336625374463901950e-14 -1.068507414302534778e-14 -4.369421152477202808e-14
3.553000000000000000e+03 4.744760894775390625e+01 -6.167265176773071289e-01 -5.293206465587646514e-14 2.175073137008695645e-13 4.937257471349792981e-14 1.699533119488630395e-13
3.554000000000000000e+03 9.086055755615234375e+00 2.075911903381347656e+01 8.370875946074086971e-15 4.153460615805709688e-13 1.271150746511365281e-13 2.629979872390778711e-14
3.555000000000000000e+03 7.106565093994140625e+01 1.119544792175292969e+01 -1.115395007801091298e-13 8.945020288711469370e-14 -6.626787673832436332e-15 1.116839097332206210e-13
3.556000000000000000e+03 6.982712554931640625e+01 1.031695556640625000e+01 -1.138397915430994223e-13 1.983794191743291913e-14 -2.820055421007359314e-14 1.644909116685008832e-13
3.557000000000000000e+03 3.579438400268554688e+01 -1.010538196563720703e+01 -5.622185591971744223e-14 1.589087206006062347e-13 3.080605635494802763e-14 5.239859652943212875e-14
3.558000000000000000e+03 3.318789291381835938e+01 -7.610573768615722656e+00 -1.025182543024083515e-13 -1.811892378755092237e-13 -8.511224900862798814e-14 -7.798766515389188303e-14
3.559000000000000000e+03 5.373979949951171875e+01 -1.470588445663452148e-01 -1.261728216480836884e-13 1.289297309322798291e-13 8.270702865116478023e-16 1.895193393495683831e-13
3.560000000000000000e+03 3.255041503906250000e+01 -7.799116611480712891e+00 -8.997455863311246832e-15 3.621515251312629191e-13 1.059462237450008171e-13 -1.812269342297938290e-14
3.561000000000000000e+03 3.209310913085937500e+01 -6.228103637695312500e+00 -9.917498137827773785e-14 1.633757013138822933e-13 1.926021801356044005e-14 -4.161951274068986795e-14
3.562000000000000000e+03 3.000231933593750000e+01 3.621267557144165039e+00 5.759193848816485106e-14 2.534370012029912855e-13 9.330868190734684098e-14 8.226858322184227301e-15
3.563000000000000000e+03 4.240361785888671875e+01 1.836194515228271484e+00 -2.300960257831802247e-14 -1.013631588603694511e-13 -3.731182843160624207e-14 2.393888242475071537e-14
3.564000000000000000e+03 7.054164123535156250e+01 2.139485359191894531e+00 -1.206500448592412456e-13 -2.804619058695279055e-13 -1.203335797976198829e-13 1.398646128791423623e-14
3.565000000000000000e+03 6.125624084472656250e+01 -7.616127729415893555e-01 -1.283943518995064870e-13 -1.922789997967772058e-13 -9.620200415363239221e-14 -7.684804669786521325e-15
3.566000000000000000e+03 6.080611419677734375e+01 -1.147346019744873047e+00 -1.211180949371032378e-13 -9.765870431126602580e-14 -6.563303909688442128e-14 -7.008316724264190833e-14
3.567000000000000000e+03 7.046432495117187500e+01 1.238110828399658203e+01 -1.003986458314627683e-13 9.422485307188782633e-14 -1.852137065542830072e-15 5.565382546089334137e-14
3.568000000000000000e+03 6.331674194335937500e+01 -1.052172660827636719e+00 -1.758983854838885863e-13 -2.469510869667485009e-13 -1.268548390246856949e-13 -3.806240465495901171e-14
3.569000000000000000e+03 6.257211303710937500e+01 -6.337018609046936035e-01 -1.017341050811582104e-13 -8.935128299140254748e-14 -5.732561777702094297e-14 -1.165640798944309053e-13
3.570000000000000000e+03 7.068412780761718750e+01 4.517826080322265625e+00 -1.188582381388830767e-13 -1.424411397209571217e-13 -7.838981606845749073e-14 3.948004981746064401e-14
3.571000000000000000e+03 2.865165519714355469e+01 8.594681620597839355e-01 5.392927993281074195e-14 2.518672932976667722e-13 9.173897400202232766e-14 -8.440438696273935837e-14
3.572000000000000000e+03 7.096096801757812500e+01 6.196513175964355469e+00 -1.419749869968969791e-13 3.065547761384873615e-14 -3.339584942678268387e-14 2.490260093675287362e-14
3.573000000000000000e+03 7.032559204101562500e+01 4.341421127319335938e+00 -1.265710355535104581e-13 2.660119032601299116e-13 4.183226031198583605e-14 4.815648612299314180e-14
3.574000000000000000e+03 8.469039916992187500e+00 1.242673301696777344e+01 1.824958912287344415e-13 5.533705207927917813e-14 7.134988807460176941e-14 4.761245041349886076e-14
3.575000000000000000e+03 3.853488159179687500e+01 4.248513698577880859e+00 7.970646441046030928e-14 -1.488438820980431121e-13 -2.074122632271437755e-14 -6.809522157301753365e-14
3.576000000000000000e+03 7.110929870605468750e+01 -7.415021955966949463e-02 -1.268612493700305155e-13 1.743856388502010302e-13 1.425731786049069111e-14 1.101384676277690489e-13
3.577000000000000000e+03 6.971957397460937500e+01 1.198748397827148438e+01 -5.555458369266123853e-14 1.591946924761264426e-13 3.109203161860002451e-14 3.824792181106664857e-14
3.578000000000000000e+03 1.046232986450195312e+01 1.874955368041992188e+01 2.426045509504402148e-14 1.934011354927725468e-13 6.529847463524612872e-14 1.627546533688236513e-14
3.579000000000000000e+03 8.205659866333007812e+00 1.934563636779785156e+01 -4.898302426105567708e-14 2.535129766702282073e-13 6.135898538393858015e-14 -4.445215354663412111e-14
3.580000000000000000e+03 3.973728942871093750e+01 3.028940439224243164e+00 1.101815985454432378e-13 2.434521259987807579e-14 4.035804351300298354e-14 5.323110794383870137e-15
3.581000000000000000e+03 3.374880599975585938e+01 1.157344150543212891e+01 4.361893401268364390e-14 1.869382910458811803e-14 1.869382910458811803e-14 2.677671723672753190e-14
3.582000000000000000e+03 6.997523498535156250e+01 7.257817745208740234e+00 -6.188313614796311923e-14 1.922960624284666964e-14 -1.279605812450198762e-14 4.987145679063997861e-14
3.583000000000000000e+03 4.246944427490234375e+01 -8.665118217468261719e+00 7.774533919207779475e-14 7.907038332465379793e-14 4.704471472214040439e-14 -6.846126855523937405e-14
3.584000000000000000e+03 3.102833938598632812e+01 -4.323441982269287109e+00 -1.881994553417070531e-14 -9.956759131372547311e-14 -3.551626088496226408e-14 -1.788926977744093733e-14
3.585000000000000000e+03 3.143172073364257812e+01 -3.930081129074096680e+00 -3.963439954924111164e-15 -9.320051241185067781e-14 -2.914918537121925779e-14 -4.802421345794991026e-14
3.586000000000000000e+03 9.797328948974609375e+00 1.978728103637695312e+01 4.502677730991964944e-14 2.480519316425816578e-13 8.792361234693721328e-14 3.899790511135634019e-14
3.587000000000000000e+03 8.994480133056640625e+00 1.996888732910156250e+01 -3.855987049301325131e-14 3.037309715802488652e-13 7.955133540836836770e-14 -7.033736521824471288e-14
3.588000000000000000e+03 6.985019683837890625e+01 -1.339257597923278809e+00 -2.340201329161656352e-13 -5.454339576022905478e-14 -8.656905758647887028e-14 -1.269652514634261875e-13
3.589000000000000000e+03 4.994887542724609375e+01 -8.905475139617919922e-01 7.164170108932624292e-14 9.933000873641600892e-14 5.129151430297539116e-14 2.642110163465771766e-13
3.590000000000000000e+03 3.181330871582031250e+01 1.138299083709716797e+01 2.277105777158047739e-14 5.550997216139524904e-14 2.348430864107953903e-14 -6.508300300599179078e-14
3.591000000000000000e+03 5.500676345825195312e+01 1.111968636512756348e+00 -1.004720124372221468e-13 -1.345613345141855044e-13 -7.051000408542229536e-14 -1.128932491652016867e-13
3.592000000000000000e+03 5.542724227905273438e+01 -2.513085842132568359e+00 5.912475048533991431e-15 5.172320904911487105e-13 1.569433737700146048e-13 3.025750426577898666e-14
3.593000000000000000e+03 3.741336441040039062e+01 7.306451797485351562e+00 -3.623439913456698303e-14 1.878418380313762875e-14 -5.235064260615627380e-15 -4.291805829454396759e-14
3.594000000000000000e+03 2.808987426757812500e+01 -7.182217836380004883e-01 2.321152439092172282e-13 9.947796167537881207e-14 9.947796167537881207e-14 -1.043439762219745826e-13
3.595000000000000000e+03 7.093329620361328125e+01 1.370855903625488281e+01 -8.383708495224989621e-14 1.041820980613589187e-13 6.103503848029412024e-15 -1.685294360120014046e-14
3.596000000000000000e+03 7.008673095703125000e+01 1.132109737396240234e+01 -1.430251181161121266e-13 2.360846977980668449e-13 2.791787221052052098e-14 1.137870722124623146e-13
3.597000000000000000e+03 6.185478210449218750e+01 6.317822933197021484e+00 -9.098022221666265952e-14 6.759426257108881730e-15 -2.526623726320682828e-14 1.161367822657272120e-13
3.598000000000000000e+03 3.172177314758300781e+01 -3.321954250335693359e+00 -5.141778658662027324e-14 -6.778714552570577756e-14 -3.576147692319238403e-14 -1.274373351121830047e-14
3.599000000000000000e+03 3.102393341064453125e+01 -3.088131189346313477e+00 -5.597455279230528769e-14 -2.527438436490669904e-13 -9.261551757715896782e-14 -4.657991725079586864e-14
3.600000000000000000e+03 9.359448432922363281e+00 1.281238079071044922e+01 2.085102042740337447e-15 1.838974122720521409e-13 5.579475480265751186e-14 3.729527401968510403e-14
3.601000000000000000e+03 9.557643890380859375e+00 1.365287780761718750e+01 2.341911590326116455e-14 7.866318409372255460e-14 3.062468966028193684e-14 7.838631951645122498e-14
3.602000000000000000e+03 3.214432907104492188e+01 9.903492927551269531e+00 -4.288599640342449781e-14 2.561259852210812094e-13 6.397199393479158225e-14 -1.132893963102371560e-13
3.603000000000000000e+03 3.266255187988281250e+01 1.018612003326416016e+01 1.589841031447800784e-14 -2.219411449327218788e-13 -6.181281886081385624e-14 1.575599527692435331e-14
3.604000000000000000e+03 4.987606430053710938e+01 -7.345513820648193359e+00 -1.640393414636606706e-13 8.982574341460936029e-14 -2.226407975352857199e-14 8.012274383458611871e-15
3.605000000000000000e+03 3.254193496704101562e+01 -5.944114685058593750e+00 -1.272889942321303591e-13 3.694947112490264141e-14 -2.710185591572877861e-14 9.100613464858506307e-14
3.606000000000000000e+03 5.847680664062500000e+01 2.864084243774414062e+00 1.711930496992551676e-14 -1.156188317828765744e-13 -2.954985906032485399e-14 -6.443971197573825083e-14
3.607000000000000000e+03 5.756547164916992188e+01 3.985796451568603516e+00 5.282930261871557343e-14 -1.575032286668318071e-13 -3.140217781443487011e-14 -1.194898672195188194e-13
3.608000000000000000e+03 5.855249786376953125e+01 3.765695333480834961e+00 1.760460063859360658e-14 -1.011136771642169585e-13 -2.505272228006064777e-14 -7.087742664915047675e-14
3.609000000000000000e+03 5.279284667968750000e+01 -2.106258124113082886e-01 -3.010380302242293693e-13 9.973844802358203254e-14 -6.038987127206241201e-14 3.019041993398280388e-13
3.610000000000000000e+03 4.905386734008789062e+01 -7.453665733337402344e-01 1.093968936705796979e-13 1.726994876315515737e-13 8.462891168013395027e-14 1.394084907192436051e-13
3.611000000000000000e+03 8.791248321533203125e+00 1.606428337097167969e+01 -7.778639657309710520e-14 -1.046155146560735771e-14 -2.647438407279815997e-14 1.505761390140775147e-13
3.612000000000000000e+03 3.134326171875000000e+01 -4.788917064666748047e+00 -3.550577800520704486e-14 7.658712666879299857e-15 -8.354119093278555147e-15 -4.904538452069843318e-15
3.613000000000000000e+03 2.914772987365722656e+01 -8.667128086090087891e-01 6.600809173340146940e-14 6.546183002132180406e-14 3.944097449353790863e-14 -1.238955634049951349e-13
3.614000000000000000e+03 6.699250030517578125e+01 -5.818433165550231934e-01 -4.988084530382734527e-14 -2.529916922656971767e-13 -9.086175957679146209e-14 -9.433578050666024950e-14
3.615000000000000000e+03 4.155673599243164062e+01 1.712116599082946777e+00 2.665967083594414366e-14 1.029274728598858490e-13 3.887614243112264001e-14 -6.362353135655474112e-14
3.616000000000000000e+03 7.173558807373046875e+01 1.507879352569580078e+01 -3.977144609197506842e-14 7.445699466051072801e-14 1.040566338471457172e-14 -5.319932726765772002e-14
3.617000000000000000e+03 5.709636306762695312e+01 1.791177034378051758e+00 -2.911351173161269568e-14 -1.391859040132323311e-13 -5.048982472345350803e-14 6.516556500142656194e-14
3.618000000000000000e+03 5.667115783691406250e+01 3.242329120635986328e+00 1.527714383491897421e-14 6.547347418324770893e-15 6.547347418324770893e-15 -1.000845050282486715e-13
3.619000000000000000e+03 1.049494075775146484e+01 1.754217720031738281e+01 -3.135818969941805978e-14 3.231172518132832683e-14 2.860611316170247852e-16 -3.578284332928687375e-15
3.620000000000000000e+03 5.170454788208007812e+01 2.897312641143798828e-01 -1.355026388403374193e-13 4.451878861215508021e-13 9.290557553961673043e-14 -3.588431025307141364e-14
3.621000000000000000e+03 5.078599929809570312e+01 -1.752088904380798340e+00 -1.373243695406561882e-13 2.270901294700727879e-13 2.692973035051723224e-14 7.301333203400123262e-14
3.622000000000000000e+03 6.512248229980468750e+01 -1.277548670768737793e-01 -4.705360856808657455e-14 2.558511636872786571e-14 -6.440547998620791553e-15 4.692372792408638915e-14
3.623000000000000000e+03 4.513028335571289062e+01 -9.671701431274414062e+00 6.653019606582544210e-14 -6.870782290552615579e-14 -6.532879777948312223e-16 6.476390875410215076e-14
3.624000000000000000e+03 3.699420166015625000e+01 -1.052234649658203125e+01 2.024389685696464589e-15 1.838713914199124888e-13 5.576873395051785975e-14 -2.652350012527764783e-14
3.625000000000000000e+03 3.914171981811523438e+01 -1.098289394378662109e+01 8.125129665218985830e-14 -2.854346533437412958e-13 -6.125501039559722027e-14 -2.051527011963892588e-14
3.626000000000000000e+03 1.075147819519042969e+01 2.045936775207519531e+01 4.249300699721639263e-14 1.783396022005112602e-13 6.624978750270280048e-14 4.006718595144301287e-14
3.627000000000000000e+03 6.168420410156250000e+01 1.058881950378417969e+01 7.694934506209324954e-14 -2.872783391380528961e-13 -6.309870296617239860e-14 6.122165762626613494e-14
3.628000000000000000e+03 1.386299991607666016e+01 2.301079750061035156e+01 8.270926397111258432e-14 1.040732509395049521e-13 5.603475650606433434e-14 2.563952214196295668e-15
3.629000000000000000e+03 1.097415733337402344e+01 2.545502662658691406e+01 -6.757133508327253790e-14 1.197314410160757459e-13 1.564803245746732019e-14 -4.110917877810094101e-14
3.630000000000000000e+03 6.317538452148437500e+01 1.026168632507324219e+01 -5.967928516821541240e-14 -1.628296835472914372e-13 -6.675268790414662368e-14 -1.188053832829744083e-13
3.631000000000000000e+03 6.230369567871093750e+01 1.135651397705078125e+01 -2.388739976221659900e-14 -3.304940956322388601e-13 -1.063144526840947846e-13 1.404187909611470664e-13
3.632000000000000000e+03 3.193451690673828125e+01 1.419367599487304688e+01 4.253567035270369723e-14 1.783578981121719531e-13 6.626806986183633730e-14 9.890673493772824711e-16
3.633000000000000000e+03 3.149113082885742188e+01 1.236939716339111328e+01 6.960098950225266159e-15 7.160932410195039455e-14 2.357082628037798777e-14 7.989705190579021038e-15
3.634000000000000000e+03 3.592183685302734375e+01 9.456500053405761719e+00 -3.463708134329376853e-14 -8.347088889222933905e-14 -3.543239107065693227e-14 1.527483380666522228e-13
3.635000000000000000e+03 3.728481292724609375e+01 9.587091445922851562e+00 -1.381209193242541322e-13 1.695600582683753910e-13 9.431743207895682685e-15 4.927149318970439063e-14
3.636000000000000000e+03 3.089204406738281250e+01 5.903277397155761719e+00 2.036517079918778034e-15 2.067520688073948287e-13 6.263657534267760840e-14 -2.025961016516916041e-14
3.637000000000000000e+03 3.120031547546386719e+01 6.606039047241210938e+00 -7.451079819332032117e-14 -1.005596227490225536e-13 -5.252112492745014682e-14 -1.294404985757377502e-13
3.638000000000000000e+03 6.090640640258789062e+01 6.841804027557373047e+00 -7.547226190361688847e-14 -1.924735734291568856e-13 -8.038375195508484783e-14 1.353087699393698551e-13
3.639000000000000000e+03 3.462205505371093750e+01 1.330343151092529297e+01 1.192132194826819869e-13 5.395081489846173528e-14 5.194920828146404324e-14 9.375757548807372999e-14
3.640000000000000000e+03 2.762135314941406250e+01 9.922980666160583496e-01 2.222184160858078905e-14 1.567845110466911662e-13 5.370190579658158658e-14 -3.669920338217509681e-14
3.641000000000000000e+03 6.397119522094726562e+01 1.226547908782958984e+01 2.173696776232043187e-14 -2.194389011863154271e-13 -5.931058189067098252e-14 -1.319283885018200306e-14
3.642000000000000000e+03 7.008308410644531250e+01 2.102304649353027344e+01 1.339450062367089633e-13 1.031559481389464350e-13 7.113028970082840852e-14 4.989599025292425216e-14
3.643000000000000000e+03 6.938172149658203125e+01 1.822460746765136719e+01 -2.552478729409262542e-14 -2.809579995142075931e-14 -1.608617719009355213e-14 -5.432652822067764176e-14
3.644000000000000000e+03 3.128837013244628906e+01 -2.353052854537963867e+00 -2.658666506622029552e-14 -1.028961800746824862e-13 -3.884485303405106615e-14 2.752740357436344459e-14
3.645000000000000000e+03 3.039625358581542969e+01 -2.789647340774536133e+00 5.972369002344227185e-14 -1.459701906873431265e-13 -2.587394952154389860e-14 -7.878359829750422594e-14
3.646000000000000000e+03 4.066114044189453125e+01 2.386537551879882812e+00 3.056759625150520798e-14 -3.265054852462541402e-14 -6.248856395844144471e-16 -9.526583623527262734e-14
3.647000000000000000e+03 5.185921096801757812e+01 -6.045588970184326172e+00 -1.620864223004711557e-13 4.491176040007788250e-14 -3.515239924774433977e-14 7.542789092970791920e-14
3.648000000000000000e+03 5.779608535766601562e+01 -1.900308728218078613e+00 4.938714029205891476e-14 -2.458503134416829133e-14 7.440633023180365929e-15 1.219592342291105427e-14
3.649000000000000000e+03 4.414140319824218750e+01 -3.504656851291656494e-01 -8.801648950960364731e-15 1.334807102088692021e-13 3.740371795385617759e-14 5.617486591993556266e-14
3.650000000000000000e+03 4.558549499511718750e+01 -3.497653603553771973e-01 2.300117121236105316e-14 9.857644926302300964e-15 9.857644926302300964e-15 1.002824803449445246e-13
3.651000000000000000e+03 7.161128997802734375e+01 9.905640482902526855e-01 -1.397941956421053233e-13 1.688429533989663223e-13 8.714626480025352423e-15 3.683058158042602781e-14
3.652000000000000000e+03 6.139461517333984375e+01 8.212182044982910156e+00 -9.354616284070263466e-14 -4.060987928312248529e-13 -1.498934846686991729e-13 1.799881993664112501e-13
3.653000000000000000e+03 6.208192062377929688e+01 9.506505966186523438e+00 2.429104992509884681e-14 -2.183442906729740618e-13 -5.821597137732961724e-14 3.811122763403874958e-14
3.654000000000000000e+03 3.698612594604492188e+01 8.302041053771972656e+00 6.450198244988859797e-17 -4.572330605497401668e-14 -1.369764084059241216e-14 4.117341436868891813e-14
3.655000000000000000e+03 5.106752777099609375e+01 -4.386548519134521484e+00 2.045875404851904555e-13 -3.956445156845685152e-14 4.950692769145961791e-14 5.124007568615453201e-14
3.656000000000000000e+03 4.952394866943359375e+01 -4.465054273605346680e-01 -1.246338508743491391e-13 1.410270283799114344e-13 4.917955030437877809e-15 3.033764103647917931e-13
3.657000000000000000e+03 4.327629089355468750e+01 1.146451950073242188e+00 -4.000859837654732742e-14 2.860440766086318198e-14 -3.421256918243712093e-15 -5.235187419206158155e-14
3.658000000000000000e+03 3.415724182128906250e+01 1.621545219421386719e+01 8.996328801271630260e-14 1.300575993472621872e-13 6.600626891849897815e-14 6.741652456556876394e-14
3.659000000000000000e+03 3.200630950927734375e+01 4.415703296661376953e+00 -1.274805549683166554e-15 1.367064962750838553e-13 4.062950740820261974e-14 -7.578186938649728033e-14
3.660000000000000000e+03 1.042510318756103516e+01 2.609574127197265625e+01 -1.560469952243521106e-15 1.365840762972830857e-13 4.050708065413827219e-14 2.526859201480019523e-14
3.661000000000000000e+03 1.277995109558105469e+01 2.663565444946289062e+01 -2.371631096533249189e-14 1.499641882028723838e-13 3.787436334066855703e-14 -4.587323427476981685e-14
3.662000000000000000e+03 3.237038803100585938e+01 1.540540027618408203e+01 -1.023380442312317364e-15 7.962556937586573458e-14 2.358065694476382118e-14 -6.843232713349758911e-14
3.663000000000000000e+03 3.120147514343261719e+01 1.700652885437011719e+01 -1.040854617664725701e-13 -1.589854279043095842e-13 -7.892126486835557286e-14 -5.946621911253127668e-14
3.664000000000000000e+03 8.722667694091796875e+00 1.529647541046142578e+01 1.090026574318732344e-13 4.127230241596224758e-13 1.565177024445696397e-13 2.201700532501217611e-14
3.665000000000000000e+03 6.960599517822265625e+01 4.974104881286621094e+00 3.576045031926031181e-14 -2.591797761651581933e-13 -6.702579843139572224e-14 7.705375373130360361e-14
3.666000000000000000e+03 7.120709991455078125e+01 9.184452056884765625e+00 -5.085219897081605378e-14 -2.047975911035823660e-13 -7.669493702231952592e-14 2.720204974899359529e-14
3.667000000000000000e+03 6.988825988769531250e+01 2.196824073791503906e+01 3.876573676864572549e-14 -7.488801245791876227e-14 -1.083668287618850049e-14 6.341587275920587685e-14
3.668000000000000000e+03 6.877327728271484375e+01 1.894110298156738281e+01 4.999102396147439564e-14 -6.435830194511174551e-14 -4.310184750343920568e-15 4.032597145748814671e-14
3.669000000000000000e+03 3.023835372924804688e+01 -9.749218225479125977e-01 -3.175517201893952174e-15 -1.360935989045601677e-15 -1.360935989045601677e-15 -1.198460276331803076e-13
3.670000000000000000e+03 4.701657485961914062e+01 -7.815389633178710938e+00 1.150702119310717531e-13 3.695724553210572028e-13 1.453927988203859711e-13 4.620589121821089273e-14
3.671000000000000000e+03 4.780207824707031250e+01 -8.201068878173828125e+00 -2.639155780308384547e-14 -9.137483114986591493e-14 -3.532991702469810702e-14 6.510293877343836799e-14
3.672000000000000000e+03 4.574920272827148438e+01 -8.321026802062988281e+00 4.734459318458863336e-15 -1.323643614419695025e-13 -3.828896902769059196e-14 2.272562970055333476e-13
3.673000000000000000e+03 5.924626922607421875e+01 -1.419894099235534668e+00 -4.669423959362088705e-14 -2.945175028336299849e-13 -1.023635250998675139e-13 2.187761800672848207e-15
3.674000000000000000e+03 5.667468261718750000e+01 -1.456790268421173096e-01 -2.773313940692204160e-14 -1.948894198149433987e-13 -6.678677250994413672e-14 -6.213160818084248471e-14
3.675000000000000000e+03 3.253469467163085938e+01 8.548519134521484375e+00 2.401805120619878581e-15 2.755350472522649641e-13 8.338105596597533697e-14 3.578529887780096397e-14
3.676000000000000000e+03 3.150691604614257812e+01 8.367277145385742188e+00 8.849838857615324739e-14 3.581845106973013948e-13 1.340048677491573192e-13 -6.492951385968573352e-14
3.677000000000000000e+03 8.897928237915039062e+00 1.825970458984375000e+01 2.077762332845789484e-14 1.461575408227486217e-13 5.008054856773559715e-14 1.435775394517842252e-14
3.678000000000000000e+03 1.884918785095214844e+01 2.899317741394042969e+01 -2.541846136580616124e-15 1.476012237780488512e-13 4.351781183130863651e-14 -1.751701722008927511e-15
3.679000000000000000e+03 1.676010704040527344e+01 2.598465538024902344e+01 -1.881004880121498607e-14 1.291914031266092056e-13 3.311440409533260298e-14 -8.041252227617128739e-15
3.680000000000000000e+03 3.365203094482421875e+01 1.533872127532958984e+01 -5.284770017432993683e-14 1.603547752481587763e-13 3.225212455502772524e-14 -9.844250116681010909e-14
3.681000000000000000e+03 3.337829208374023438e+01 1.226119327545166016e+01 -6.024035640434487193e-15 -2.581729741693268923e-15 -2.581729741693268923e-15 9.771337139416534472e-16
3.682000000000000000e+03 6.953306579589843750e+01 2.682334136962890625e+01 6.489194625440911079e-14 -4.081559038231902248e-14 7.222907439253384299e-15 2.789749810352373967e-15
3.683000000000000000e+03 1.687612915039062500e+01 2.754772567749023438e+01 -9.057285188507607082e-15 1.676843614049211562e-13 4.758812362725371725e-14 4.401081888792852947e-14
3.684000000000000000e+03 1.537136840820312500e+01 2.481271934509277344e+01 -4.150154476805986703e-14 2.796457252503443958e-14 -4.061091842314217687e-15 3.579271549828712262e-14
3.685000000000000000e+03 3.395124435424804688e+01 1.388496685028076172e+01 -9.579873515557640884e-14 1.419471907636998820e-13 1.384453752946998920e-14 2.496352801664887544e-14
3.686000000000000000e+03 3.118382453918457031e+01 2.005983734130859375e+01 -9.380645267726209213e-14 2.842365760618269233e-14 -1.961483682725792543e-14 2.159388018060665743e-14
3.687000000000000000e+03 1.182978057861328125e+01 2.211277770996093750e+01 -1.806302842217478999e-14 1.066360744822990314e-13 2.657191483447680913e-14 -4.856262486867442274e-14
3.688000000000000000e+03 3.321910095214843750e+01 2.131319808959960938e+01 -2.247243800009186832e-14 -3.250651904227429279e-14 -1.649368812914938504e-14 1.517591831552440179e-14
3.689000000000000000e+03 6.919969940185546875e+01 2.848168945312500000e+01 6.575595374192638731e-14 -6.332077467615174204e-14 7.305540056060132788e-16 2.663538131914867935e-14
3.690000000000000000e+03 7.170764923095703125e+01 1.577825260162353516e+01 -8.889602649917588417e-14 -8.384924834537246796e-14 -5.182358313099086344e-14 -5.077012486635890109e-14
3.691000000000000000e+03 6.962739562988281250e+01 1.601781845092773438e+01 -2.290068261163059199e-14 -1.928183768250615882e-13 -6.471571596753517008e-14 -4.283151863238889023e-14
3.692000000000000000e+03 6.222978591918945312e+01 1.962703514099121094e+01 -5.994191959197286979e-14 -1.171912908512137697e-13 -5.313996381058234963e-14 -4.092146272446223199e-14
3.693000000000000000e+03 3.001406860351562500e+01 1.913428115844726562e+01 -6.574963233504102847e-15 2.488123639413086785e-13 7.267122559100058776e-14 -6.277163305205141208e-14
3.694000000000000000e+03 3.069318580627441406e+01 1.781933784484863281e+01 -3.995894869331106936e-14 1.201275813848476370e-13 2.405058912983461250e-14 2.788205626937882015e-14
3.695000000000000000e+03 3.081641387939453125e+01 2.251475143432617188e+01 -6.357521829130925034e-15 1.116527185919709286e-13 3.158855894414870635e-14 1.583844885214187592e-14
3.696000000000000000e+03 3.035918807983398438e+01 2.140207481384277344e+01 -3.937502789639647782e-14 1.890042620024748321e-13 4.488876853775761178e-14 -2.736883392443975604e-14
3.697000000000000000e+03 2.939554023742675781e+01 2.186247253417968750e+01 2.003232708498183488e-15 9.236042513476386273e-14 2.830909809413244271e-14 5.686107102742879449e-14
3.698000000000000000e+03 2.066928291320800781e+01 2.842154693603515625e+01 6.845474978967730495e-14 1.094019081056274434e-13 5.335699736859142450e-14 -1.507667315916050993e-14
3.699000000000000000e+03 6.805723571777343750e+01 1.975036811828613281e+01 -1.289924706626829551e-14 -5.127919844392231363e-14 -1.925353322954070912e-14 5.201886827104623690e-14
3.700000000000000000e+03 6.246630859375000000e+01 1.708764839172363281e+01 -7.876833137566291443e-14 -1.481352340055794303e-13 -6.807106419336184100e-14 2.871058493486740304e-14
3.701000000000000000e+03 1.021940612792968750e+01 2.525606727600097656e+01 -1.710255235229472121e-14 1.299231853829282968e-13 3.384618973978348322e-14 1.350539146661999812e-14
3.702000000000000000e+03 1.109718227386474609e+01 2.310945320129394531e+01 1.167278909842322035e-14 2.787809893144924805e-14 1.186526632425844580e-14 1.583255519689488050e-14
3.703000000000000000e+03 6.001750946044921875e+01 2.574066162109375000e+01 3.910073491115301225e-14 8.538388231041707521e-14 3.734538448884466844e-14 2.934878021491026112e-14
3.704000000000000000e+03 5.665296173095703125e+01 2.984273529052734375e+01 1.427531392248805597e-14 4.329063759485503315e-14 1.726978545520292674e-14 6.965850558047007035e-14
3.705000000000000000e+03 6.233346939086914062e+01 2.075301742553710938e+01 -9.941299594239030174e-15 -9.576245504037961265e-14 -3.171112799974819263e-14 -3.052202926707471564e-14
3.706000000000000000e+03 2.251649665832519531e+01 2.790705871582031250e+01 -7.942763471675134967e-15 6.522238397152838041e-14 1.718388614995597363e-14 -3.422381354481192177e-15
3.707000000000000000e+03 3.515108108520507812e+01 2.348423576354980469e+01 8.184453311745835263e-15 7.213404407211548852e-14 2.409554963867487076e-14 1.075223792651198301e-14
3.708000000000000000e+03 1.236875629425048828e+01 2.979912376403808594e+01 1.924748880242910243e-14 1.683772479083023299e-13 5.628741965796671409e-14 -1.932833979131041990e-14
3.709000000000000000e+03 1.258508777618408203e+01 3.402362060546875000e+01 5.302367381022085949e-15 3.658565353339797432e-14 1.256640631667766544e-14 1.137268024301333821e-14
3.710000000000000000e+03 3.467995452880859375e+01 2.743662261962890625e+01 -1.843714424025217485e-14 9.503800470125195465e-14 2.298025796889334449e-14 7.319425827153475117e-14
3.711000000000000000e+03 6.248910140991210938e+01 2.196987152099609375e+01 2.715556458084827929e-14 3.451357377518872449e-14 1.850074116799792223e-14 2.695859553929376429e-14
3.712000000000000000e+03 6.299568939208984375e+01 2.451191902160644531e+01 5.246566798632751327e-14 2.248528579583582154e-14 2.248528579583582154e-14 7.577404957832822863e-14
3.713000000000000000e+03 1.277442550659179688e+01 3.164035606384277344e+01 1.546686905070857043e-14 1.896324487412129334e-13 6.152979465995009334e-14 -2.504586978351736049e-14
3.714000000000000000e+03 6.805777740478515625e+01 3.438864135742187500e+01 4.784103750090848428e-14 -7.099859301818930990e-14 -6.947266824590837136e-15 2.151415235741339915e-14
3.715000000000000000e+03 5.160842132568359375e+01 -2.463311553001403809e-01 -7.789798130543659771e-14 2.868717904284251441e-13 6.269214070401749050e-14 2.527019460113640037e-15
3.716000000000000000e+03 5.227526092529296875e+01 1.003260985016822815e-01 -3.728740338953921707e-14 2.977063311582900385e-14 -2.255031251519653418e-15 -4.002912367892519363e-14
3.717000000000000000e+03 6.052766036987304688e+01 3.889326333999633789e+00 7.130586946639885793e-14 5.343513107577795018e-14 3.742230185671893694e-14 -1.452544952807582890e-14
3.718000000000000000e+03 6.363011169433593750e+01 -6.236549615859985352e-01 -2.284494276150357550e-14 3.596025861525402323e-14 3.934595094938313220e-15 -1.328371549043361188e-13
3.719000000000000000e+03 2.863204002380371094e+01 -2.367002218961715698e-01 -6.003039726551126498e-14 -2.429759410164933353e-14 -2.529839741014817955e-14 -2.506746404147466162e-14
3.720000000000000000e+03 5.910407257080078125e+01 4.058770656585693359e+00 1.158175118309845431e-13 -7.552610778807384434e-15 3.247946819807077945e-14 -1.830832746963374086e-14
3.721000000000000000e+03 6.001761627197265625e+01 5.155599594116210938e+00 7.740338182687586666e-14 1.029740325669305234e-14 2.631023586388385460e-14 1.194743089183436524e-13
3.722000000000000000e+03 5.709950256347656250e+01 2.685716867446899414e+00 -1.028405740557611359e-13 -3.549623024982559438e-14 -4.150103993642330347e-14 -5.498648885933314634e-14
3.723000000000000000e+03 5.369886779785156250e+01 -3.684734344482421875e+00 -1.226214361169444822e-13 4.049574532042493624e-13 8.470080106043331725e-14 1.542965923214886792e-13
3.724000000000000000e+03 5.419319152832031250e+01 -3.317978620529174805e+00 2.845931091699852034e-14 6.527101450472250210e-13 2.043508320458825578e-13 -6.390383149946013419e-14
3.725000000000000000e+03 3.631178665161132812e+01 -8.874367713928222656e+00 5.262455442657347493e-14 9.117980350782650678e-14 4.314130907438588902e-14 1.135357710895391198e-14
3.726000000000000000e+03 3.481695175170898438e+01 -8.928086280822753906e+00 -3.958230702298497217e-14 -1.084657469635312566e-13 -4.441441653476804752e-14 -1.366295043683102284e-13
3.727000000000000000e+03 3.839458847045898438e+01 -1.035584259033203125e+01 4.165647725850804561e-14 -6.221138513194668374e-14 -6.166471853811823084e-15 9.105209804443487043e-14
3.728000000000000000e+03 3.326898574829101562e+01 -8.278811454772949219e+00 -3.668178838477954840e-14 2.587849368389932847e-13 6.663093877644007956e-14 -6.939030784431504673e-14
3.729000000000000000e+03 2.981991386413574219e+01 1.811263680458068848e+00 3.314183441029648625e-14 1.800508391469266001e-13 6.395779766259560017e-14 -8.079970950669070062e-15
3.730000000000000000e+03 3.794638824462890625e+01 5.745829105377197266e+00 -5.478717184244884242e-14 2.227073235029630727e-14 -9.754932017052349996e-15 -5.828422190408757975e-14
3.731000000000000000e+03 3.841595077514648438e+01 6.286724567413330078e+00 4.391866678546494512e-15 8.337610929356337186e-14 2.633039185989671793e-14 -2.711598103715719132e-14
3.732000000000000000e+03 3.814286422729492188e+01 -1.092683601379394531e+01 9.115541573520916097e-14 1.076930292989372595e-13 5.965453147736485273e-14 -1.088522040516501366e-13
3.733000000000000000e+03 6.608464050292968750e+01 -4.784991741180419922e-01 -1.347864962003564315e-13 -9.207885105430579920e-14 -6.805960553165138482e-14 -1.434108094864466887e-13
3.734000000000000000e+03 6.575775909423828125e+01 1.875119060277938843e-01 8.365935202892752637e-15 -3.166712497695151063e-13 -9.249159326884387466e-14 -1.170821523500259476e-13
3.735000000000000000e+03 4.898935699462890625e+01 -7.537472724914550781e+00 4.271194807342268418e-14 -2.744582921934517195e-14 4.579835571519958945e-15 -3.514474545803294991e-14
3.736000000000000000e+03 3.158303451538085938e+01 7.283733367919921875e+00 1.060808816548235167e-13 2.227481572672843080e-13 9.864870964375327400e-14 -1.841374580211722206e-14
3.737000000000000000e+03 4.317083740234375000e+01 -8.651044845581054688e+00 -1.188575605125252732e-13 -3.483201140713765298e-13 -1.401533105066868345e-13 -9.451117731311409198e-14
3.738000000000000000e+03 5.118885040283203125e+01 -8.803645372390747070e-01 -2.086821790673806798e-13 2.079459515821543980e-13 -2.208698231667487969e-16 1.627020526227991593e-14
3.739000000000000000e+03 5.438063430786132812e+01 1.889381706714630127e-01 -1.104663100359379313e-13 4.415919534336495977e-14 -1.989213508539824926e-14 9.742865693905533586e-14
3.740000000000000000e+03 4.092411804199218750e+01 -8.675430297851562500e+00 2.407555966111966927e-14 -9.262153489921626237e-14 -2.056379324905533573e-14 -1.128570181779158313e-14
3.741000000000000000e+03 3.520038604736328125e+01 -9.864567756652832031e+00 -2.020939296985824196e-14 1.285916766948988488e-13 3.251468443988582424e-14 -1.061180630130761915e-13
3.742000000000000000e+03 5.837257766723632812e+01 3.325624465942382812e-01 -1.673514300228051699e-13 -8.315977707883462355e-14 -7.515336416337101144e-14 -1.547048757545924080e-13
3.743000000000000000e+03 7.013209533691406250e+01 1.685395050048828125e+01 -7.820392282972127296e-14 -2.165197681520611428e-13 -8.841710729453472473e-14 -1.157176703634257842e-13
3.744000000000000000e+03 3.365084457397460938e+01 9.671795845031738281e+00 -1.144447221452377095e-13 -3.761000096969870088e-14 -4.561641388516231299e-14 8.428896008895112035e-14
3.745000000000000000e+03 6.941703796386718750e+01 2.083806610107421875e+01 5.208724077054860402e-14 -1.149297399870990999e-13 -1.885275112021786437e-14 4.244274575619221695e-15
3.746000000000000000e+03 6.810370635986328125e+01 1.824216079711914062e+01 -5.749431370582905668e-15 -2.464041925210572366e-15 -2.464041925210572366e-15 1.158858978830140662e-13
3.747000000000000000e+03 6.942507171630859375e+01 1.094179344177246094e+01 -3.415242264340201395e-14 1.226160964212449911e-13 2.653910077810017754e-14 -1.939481493701093739e-14
3.748000000000000000e+03 3.248764038085937500e+01 -7.206829071044921875e+00 -1.653069093285677860e-13 -7.084581537955894626e-14 -7.084581537955894626e-14 -1.991214539174418485e-14
3.749000000000000000e+03 6.020256805419921875e+01 -1.639806926250457764e-01 -8.265515550644197962e-14 -2.184274354270765439e-13 -9.032477456955012585e-14 -9.686591535395389085e-14
3.750000000000000000e+03 9.631619453430175781e+00 1.901984024047851562e+01 2.240992527451860644e-14 1.468570951694905813e-13 5.078010630260934577e-14 3.314255608236754691e-14
3.751000000000000000e+03 6.991737365722656250e+01 4.350403308868408203e+00 -1.590397599856782640e-13 2.334200202374313304e-14 -4.070932501688828697e-14 -1.088775066198505170e-13
3.752000000000000000e+03 7.073190307617187500e+01 1.447202682495117188e+00 -1.174885113242735146e-13 -4.601270587283176269e-15 -3.662693453111535991e-14 -2.909611028674430333e-14
3.753000000000000000e+03 8.534145355224609375e+00 1.876204872131347656e+01 3.970957880550761432e-14 2.915240748455061315e-13 9.937009711174366045e-14 -5.661729155707721783e-14
3.754000000000000000e+03 7.024533843994140625e+01 4.204958379268646240e-01 -5.920825353437908500e-14 1.347533602714598433e-13 2.266353032705833298e-14 4.082343390741059730e-14
3.755000000000000000e+03 7.084195709228515625e+01 5.633350849151611328e+00 -1.538778598899476213e-13 2.555424032373455195e-14 -3.849708841096276257e-14 1.732753751679944054e-13
3.756000000000000000e+03 2.915995025634765625e+01 2.600237727165222168e-01 5.092302447773366936e-14 -6.967774339276811002e-14 -5.626415928620216375e-15 -6.613742350005183401e-14
3.757000000000000000e+03 6.777275848388671875e+01 -5.830152034759521484e-01 -7.541298992609982155e-14 -1.695727027762120032e-13 -7.349570713306718961e-14 -6.059352509763665795e-14
3.758000000000000000e+03 6.661997222900390625e+01 -5.483196675777435303e-02 5.464468057192993500e-14 -6.808274647177037231e-14 -4.031420278171899546e-15 -8.536898130680897756e-14
3.759000000000000000e+03 3.232797622680664062e+01 -6.685634136199951172e+00 3.260908456779142151e-14 -7.752657429872453210e-14 -1.347524810512605933e-14 -6.711273789310190363e-14
3.760000000000000000e+03 6.493952178955078125e+01 1.412196636199951172e+01 -2.414059485080985445e-14 -2.105063763276418531e-13 -7.039408932065643887e-14 -1.215101627714647303e-14
3.761000000000000000e+03 1.014306545257568359e+01 1.807989501953125000e+01 1.219452734320738974e-13 2.352660438426773526e-13 1.071633965376780906e-13 6.343468366689850035e-14
3.762000000000000000e+03 6.455065917968750000e+01 1.160338306427001953e+01 -1.657110050307802895e-13 -2.826171371581032155e-13 -1.344984507881813451e-13 3.840509639772620928e-15
3.763000000000000000e+03 4.329952239990234375e+01 -9.322093963623046875e+00 1.278030686922143611e-13 2.149010678610674407e-13 1.028112396107318249e-13 -1.017745746213121263e-14
3.764000000000000000e+03 4.443410110473632812e+01 -8.391057014465332031e+00 1.014069064180292412e-13 -4.804179447380312051e-14 1.600953426089419401e-14 7.481791201120399637e-14
3.765000000000000000e+03 3.849212646484375000e+01 5.275555610656738281e+00 -3.203176385160183548e-14 3.202304957664048324e-14 -2.613882877451748199e-18 -9.765883306027400845e-14
3.766000000000000000e+03 3.798194122314453125e+01 4.713969707489013672e+00 1.716310843175982565e-14 2.451222378015410069e-14 1.250259932476099900e-14 -5.111319692691941585e-14
3.767000000000000000e+03 3.645198822021484375e+01 9.797370910644531250e+00 -3.474638586293925246e-14 7.984166442136925168e-15 -8.028666165053877091e-15 6.557879510694225589e-14
3.768000000000000000e+03 3.599452972412109375e+01 7.797822952270507812e+00 6.177285245823060933e-14 -6.502781711541227860e-14 -9.764896512643849585e-16 -1.246006133014988804e-14
3.769000000000000000e+03 7.061101531982421875e+01 7.581719875335693359e+00 -1.165435071582079929e-13 -4.196268983333584224e-15 -3.622193419771518874e-14 1.823443739751295922e-13
3.770000000000000000e+03 6.955735015869140625e+01 8.611720085144042969e+00 -6.662135713974073892e-14 -6.572465418045944641e-14 -3.970380542893912901e-14 -1.569201718435234150e-14
3.771000000000000000e+03 4.789720153808593750e+01 -1.378122925758361816e+00 9.563811060372268136e-14 9.556805928491885621e-16 2.897813553785072438e-14 1.235113221550662721e-13
3.772000000000000000e+03 7.042945098876953125e+01 1.550569915771484375e+01 8.975056077021106860e-14 -5.303737118001090878e-14 1.101395586062051124e-14 -9.225848980175949121e-14
3.773000000000000000e+03 3.089039802551269531e+01 -7.002067565917968750e-01 5.372734050192173871e-14 2.060298004251392978e-13 7.792713956761287974e-14 -5.264258945208641349e-14
3.774000000000000000e+03 4.449682235717773438e+01 -7.813091278076171875e+00 2.504937649991899329e-14 -6.932871160839071401e-14 -1.328380087135469512e-14 6.615958188195200651e-14
3.775000000000000000e+03 3.889761352539062500e+01 5.847469806671142578e+00 -1.030927391522905301e-13 2.760740312572618205e-13 5.189439169724953393e-14 -1.059299878174678466e-13
3.776000000000000000e+03 3.746979522705078125e+01 6.216454029083251953e+00 -4.529756696689327122e-14 1.178396030927786331e-13 2.176261083776560856e-14 -6.706275617295032188e-14
3.777000000000000000e+03 6.891561126708984375e+01 -5.328342318534851074e-03 -1.678876764173165004e-13 1.955003372459528793e-14 -4.450129501010202659e-14 4.733108724424466354e-15
3.778000000000000000e+03 3.240218734741210938e+01 -3.673991203308105469e+00 -3.006168380090094849e-14 -1.501364272704988623e-13 -5.405943162735404872e-14 -8.492562393342534266e-14
3.779000000000000000e+03 3.611786270141601562e+01 1.027232742309570312e+01 -1.477153089516486384e-13 2.455123506838602365e-13 2.933910709865261701e-14 4.586593285076448478e-14
3.780000000000000000e+03 4.526969528198242188e+01 -8.703430175781250000e+00 6.306633953132370629e-14 2.702843171172898684e-14 2.702843171172898684e-14 6.657394362348523220e-14
3.781000000000000000e+03 3.255501937866210938e+01 9.550361633300781250e+00 6.500417473178851657e-14 1.937061215638927192e-13 7.761308685582529732e-14 2.926708558121347836e-14
3.782000000000000000e+03 3.440167617797851562e+01 1.000225162506103516e+01 1.382976307258421134e-13 1.965232582787704296e-13 1.004462694118891941e-13 1.724484711116986563e-14
3.783000000000000000e+03 5.647858810424804688e+01 -2.604364395141601562e+00 1.920740381523323992e-14 4.657412151255757582e-13 1.454845900868140252e-13 2.436736251144877574e-14
3.784000000000000000e+03 3.607862472534179688e+01 -9.462347030639648438e+00 -1.408691261919501822e-14 1.998420146812757148e-13 5.572653138095386149e-14 -7.115125546033884696e-14
3.785000000000000000e+03 3.406498718261718750e+01 -8.839207649230957031e+00 -4.288671468736376946e-14 2.737092948395126318e-14 -4.654735306913867707e-15 1.346387838187506486e-14
3.786000000000000000e+03 3.162525939941406250e+01 -5.284508228302001953e+00 -1.700323265703147096e-14 1.757167003048343279e-13 4.761403944730790982e-14 5.502507290414647423e-14
3.787000000000000000e+03 3.226183700561523438e+01 -4.924753665924072266e+00 -1.028331404946160321e-13 -4.407134786233932178e-14 -4.407134786233932178e-14 1.128564167845232807e-14
3.788000000000000000e+03 4.955846786499023438e+01 -1.379480004310607910e+00 -2.539597763855094836e-13 2.114167402342964630e-13 -1.276290694901234882e-14 2.318693197514432036e-13
3.789000000000000000e+03 5.938286972045898438e+01 4.937437534332275391e+00 4.332668392895838716e-14 -7.293331791367180239e-14 -8.881990026007435118e-15 1.906458728406258685e-14
3.790000000000000000e+03 5.968283081054687500e+01 4.307583808898925781e+00 -1.049861423924741688e-14 -1.646277244301413978e-13 -5.253790295606936001e-14 6.369586119398668034e-14
3.791000000000000000e+03 5.355985260009765625e+01 -3.057292699813842773e+00 4.218941006012971728e-14 2.925868640250850472e-13 1.004328862913225762e-13 9.173400700081962844e-14
3.792000000000000000e+03 3.453474807739257812e+01 1.203112030029296875e+01 1.249286522213115258e-14 6.254277152596687817e-14 2.251069000798987252e-14 5.566608033357421659e-14
3.793000000000000000e+03 5.249168395996093750e+01 -4.260104179382324219e+00 -5.516360344860402054e-14 1.936754657474656915e-13 4.155355597915307009e-14 -5.702329985968462162e-15
3.794000000000000000e+03 5.279777908325195312e+01 -3.265985488891601562e+00 -1.320095833860779333e-13 1.264282596799212732e-13 -1.674394401341566807e-15 -2.330712459510698997e-14
3.795000000000000000e+03 6.441432952880859375e+01 -1.818107962608337402e-01 -5.328150979233212126e-14 -6.858588404243942671e-14 -3.656021543992603318e-14 -1.619108086535828162e-13
3.796000000000000000e+03 6.166094589233398438e+01 6.979212284088134766e+00 -6.995279193140052643e-14 -1.214816685831190957e-13 -5.743033815435588663e-14 7.931491834839432542e-14
3.797000000000000000e+03 5.755909347534179688e+01 -2.796316623687744141e+00 3.615403264853149501e-14 1.298719568302783567e-13 4.980779718245613441e-14 1.110762415205968079e-14
3.798000000000000000e+03 5.823690032958984375e+01 -1.502494692802429199e+00 7.803645425165373073e-14 -4.240652967668623319e-13 -1.038086513993098647e-13 -1.296502374860050710e-13
3.799000000000000000e+03 4.331041336059570312e+01 3.294669985771179199e-01 9.564342997063143836e-14 8.674099172224433718e-14 5.471532650786273266e-14 -9.092164311209644662e-15
3.800000000000000000e+03 3.236878967285156250e+01 -5.515721321105957031e+00 1.943396818796482017e-14 8.328843630132486825e-15 8.328843630132486825e-15 -4.443285135983209011e-14
3.801000000000000000e+03 7.014226531982421875e+01 1.309147930145263672e+01 -4.186614840613958610e-14 1.193102149195379713e-13 2.323321758232726325e-14 -5.001375154951512303e-14
3.802000000000000000e+03 4.070842742919921875e+01 1.593093395233154297e+00 8.206196816908442604e-14 3.516941444558878416e-14 3.516941444558878416e-14 2.307502570909805012e-14
3.803000000000000000e+03 6.357310485839843750e+01 1.416495800018310547e+01 3.319730829207806488e-14 -1.687763833855757123e-13 -4.067372252804929422e-14 -3.067397681341677007e-14
3.804000000000000000e+03 6.366641235351562500e+01 1.535600376129150391e+01 4.556462629076718507e-14 -1.763435588959111344e-13 -3.923367842629046920e-14 -3.351817114876157189e-14
3.805000000000000000e+03 6.877740478515625000e+01 2.036546134948730469e+01 1.234376777225001942e-13 -1.758528896502256633e-13 -1.572456357831764073e-14 3.660546732810014692e-14
3.806000000000000000e+03 6.668776702880859375e+01 1.805685997009277344e+01 -9.736577321305117660e-14 -8.747913689006320270e-14 -5.545347506381338720e-14 7.076066485143736595e-14
3.807000000000000000e+03 4.554627227783203125e+01 -1.061108708381652832e+00 9.483653960881341383e-14 8.639517866306650751e-14 5.436951683681669201e-14 1.092090217628786941e-13
3.808000000000000000e+03 6.955256652832031250e+01 9.455538749694824219e+00 -1.653573924922241423e-13 -2.538712512781260422e-13 -1.257685904205996241e-13 -2.866881265804060996e-14
3.809000000000000000e+03 6.260126495361328125e+01 8.753225326538085938e+00 -9.185158872642568140e-14 -3.024329105292405950e-13 -1.182853592634688922e-13 1.171001501060892069e-13
3.810000000000000000e+03 6.212010192871093750e+01 8.345839500427246094e+00 -1.874443119167026883e-13 -2.862125412974453331e-13 -1.420970546089916908e-13 7.645242132512525268e-14
3.811000000000000000e+03 6.429954528808593750e+01 1.476554870605468750e+01 -5.883478654353929693e-14 -1.181465271752821233e-13 -5.309439343802006828e-14 4.413280179672851578e-14
3.812000000000000000e+03 1.173379039764404297e+01 2.121548080444335938e+01 1.201214420900459379e-13 3.488617814767502878e-13 1.406949643595334365e-13 -2.759728718064371339e-14
3.813000000000000000e+03 1.085019207000732422e+01 2.134342575073242188e+01 5.128395876908588280e-14 3.651109633812793520e-13 1.249184674971537401e-13 2.786237799994820824e-14
3.814000000000000000e+03 6.378256607055664062e+01 1.100004482269287109e+01 -8.571203642671054723e-14 -1.532556769207396585e-13 -7.169031400423506173e-14 4.005038081776948755e-14
3.815000000000000000e+03 3.981734085083007812e+01 2.270310640335083008e+00 3.489419311223512787e-14 -3.079629514726386907e-14 1.229370278875972257e-15 7.610209866253624111e-15
3.816000000000000000e+03 7.094986724853515625e+01 1.635374069213867188e+01 -7.271153080676273639e-14 -2.599168168020138392e-13 -9.978850428263297268e-14 -9.246798476653800281e-14
3.817000000000000000e+03 6.983792114257812500e+01 1.753609275817871094e+01 4.205043228227602070e-14 -1.535444406168540166e-13 -3.344820283918657766e-14 1.974381622820223225e-14
3.818000000000000000e+03 3.198328971862792969e+01 -2.596111297607421875e+00 -7.768431216229401692e-14 -1.247951801576149822e-13 -6.074384972885177314e-14 -2.675136554061621069e-14
3.819000000000000000e+03 6.515465545654296875e+01 1.098353672027587891e+01 -1.018952107477259783e-13 -2.981590397754113608e-13 -1.200162744793148439e-13 4.284300778728544756e-14
3.820000000000000000e+03 3.300002288818359375e+01 1.121562385559082031e+01 -9.310327302950588413e-14 2.872502176442040533e-14 -1.931347605715200144e-14 4.046188636420457174e-14
3.821000000000000000e+03 3.204792022705078125e+01 7.931743621826171875e+00 -7.871699440279572579e-14 1.692839797376791133e-13 2.717009627809137406e-14 -1.594382483297799441e-14
3.822000000000000000e+03 1.262873172760009766e+01 2.407128334045410156e+01 3.622463453875103545e-14 1.552484337375044376e-14 1.552484337375044376e-14 -7.276632367405472257e-14
3.823000000000000000e+03 1.222732639312744141e+01 2.503982353210449219e+01 -6.854470468867571165e-14 1.637464611874226567e-14 -1.565101740157344434e-14 -3.760752424536092930e-14
3.824000000000000000e+03 1.352234935760498047e+01 2.452398872375488281e+01 2.411774190189293343e-14 7.896260007618158272e-14 3.092410225460917594e-14 4.854857428614536841e-14
3.825000000000000000e+03 4.849784851074218750e+01 -1.055129170417785645e+00 -1.698365433748863507e-13 3.618469185309031166e-13 5.760311932306860783e-14 2.186176315931848135e-13
3.826000000000000000e+03 5.715081787109375000e+01 -2.199012994766235352e+00 -2.200091373189341781e-13 2.259670044395950539e-13 1.787359797385083826e-15 -1.816586161010325107e-13
3.827000000000000000e+03 5.237143707275390625e+01 -1.607935667037963867e+00 -1.341318278235553718e-13 1.026432492603687741e-13 -9.446575601835052738e-15 -3.375807798447830188e-14
3.828000000000000000e+03 5.241038513183593750e+01 -7.241459488868713379e-01 4.316180727170944309e-14 8.891148993266095868e-14 3.962198882249794163e-14 -3.683427803220784558e-14
3.829000000000000000e+03 7.092045593261718750e+01 6.856364607810974121e-01 -1.616893874649069640e-13 -2.522992394431849972e-13 -1.241965921381857352e-13 -7.145792712702405541e-15
3.830000000000000000e+03 7.040320587158203125e+01 -3.462544679641723633e-01 -1.339613099268777141e-13 -2.404157873215490016e-13 -1.123131264640225835e-13 -9.619434019952563530e-14
3.831000000000000000e+03 5.843370056152343750e+01 1.156188130378723145e+00 -2.234137489809731592e-14 3.617607583395084092e-14 4.150410196052762776e-15 -6.463168352290396546e-14
3.832000000000000000e+03 5.705327987670898438e+01 8.626253008842468262e-01 1.010024024459361611e-14 -8.717322247083283959e-14 -2.312189543020141957e-14 -3.225223297524497379e-14
3.833000000000000000e+03 4.875483322143554688e+01 -2.735885858535766602e+00 6.222001809174509956e-14 3.810345864784653314e-14 3.009704234425113201e-14 1.933305674838708965e-13
3.834000000000000000e+03 4.410997009277343750e+01 4.284830689430236816e-01 -1.187775751913160496e-14 4.066048170901781500e-14 8.634817341669157736e-15 1.037332281975545528e-14
3.835000000000000000e+03 3.099753570556640625e+01 4.020966529846191406e+00 -8.642983586313636446e-15 2.250506096583559934e-13 6.492229036271154885e-14 -2.562090859294704343e-14
3.836000000000000000e+03 3.055992507934570312e+01 5.169409751892089844e+00 -6.415968288337597913e-14 5.256715608593573452e-14 -3.477757827473836570e-15 -4.291760767301602830e-14
3.837000000000000000e+03 5.549586105346679688e+01 -1.082499504089355469e+00 -1.504153382793707583e-13 -6.446371350133164868e-14 -6.446371350133164868e-14 -1.624220506354911997e-13
3.838000000000000000e+03 5.510187911987304688e+01 3.129661381244659424e-01 -1.355280074771076856e-14 1.771954572004144635e-13 4.909279634288804539e-14 -9.007658036347745978e-14
3.839000000000000000e+03 6.917110443115234375e+01 9.970612525939941406e+00 -1.674559471122327725e-13 -1.632687312170394422e-13 -9.921740078827623321e-14 -5.448989207708278965e-15
3.840000000000000000e+03 7.013962554931640625e+01 9.689399719238281250e+00 -3.862018262698954651e-14 6.323967042441919553e-15 -9.688865141232409078e-15 7.128422608053061604e-14
3.841000000000000000e+03 6.805372619628906250e+01 2.645903587341308594e+01 4.214082425027521062e-14 -5.056607124123355113e-14 -2.527573843177617977e-15 4.199218013242744796e-14
3.842000000000000000e+03 6.898580169677734375e+01 2.179505729675292969e+01 1.794395524095521166e-13 -3.747470270296787698e-14 4.258945694485434530e-14 1.783487332156826616e-14
3.843000000000000000e+03 5.160094070434570312e+01 -5.412022590637207031e+00 -5.558974572436765904e-14 3.421834213548913262e-13 8.597809963983849002e-14 -4.612020875339843673e-14
3.844000000000000000e+03 5.039806747436523438e+01 -6.403501987457275391e+00 -1.128192235678093444e-14 1.781686912805460765e-13 5.006603042301965845e-14 5.433050588739794795e-14
3.845000000000000000e+03 9.999296188354492188e+00 2.148137283325195312e+01 5.188393931068041587e-14 3.424926087094298799e-13 1.183129657612858043e-13 -1.740503459402280989e-14
3.846000000000000000e+03 4.487622070312500000e+01 -1.037101149559020996e+00 8.786623094695841796e-14 8.340790352227150928e-14 5.138224169602169378e-14 8.205809892258136840e-14
3.847000000000000000e+03 4.486945343017578125e+01 -3.093034327030181885e-01 -5.144939955027769823e-15 -9.370686870771929855e-14 -2.965554505521966755e-14 2.490662095512054253e-14
3.848000000000000000e+03 4.024772262573242188e+01 -9.229355812072753906e+00 -7.301605609195960245e-14 -2.142963947569451189e-13 -8.619373389941870078e-14 4.836448353352090779e-14
3.849000000000000000e+03 6.324794387817382812e+01 1.848559951782226562e+01 -4.116160334127240417e-14 -4.051616084733283829e-14 -2.450332993420793054e-14 -4.139002102209257683e-14
3.850000000000000000e+03 3.414439392089843750e+01 1.847062873840332031e+01 3.726805376889213983e-14 3.362286577629491902e-13 1.120490148148051146e-13 -5.261627213841522238e-15
3.851000000000000000e+03 3.148796653747558594e+01 -1.608641862869262695e+00 -5.665360555359190420e-14 -1.386574909794172084e-13 -5.859332794346319706e-14 2.176384581180270533e-14
3.852000000000000000e+03 3.061845207214355469e+01 -2.126691818237304688e+00 -2.651433014659067278e-14 -1.028651854450765568e-13 -3.881385501631334778e-14 -3.354834246234277007e-14
3.853000000000000000e+03 3.657791900634765625e+01 6.009838104248046875e+00 -2.606682400583138631e-14 2.662410900468661912e-16 -7.740175213548534938e-15 -6.794092605134569030e-14
3.854000000000000000e+03 3.695457077026367188e+01 6.607862472534179688e+00 3.424544041353769219e-14 2.319936235305186667e-13 7.987171715033783426e-14 -5.678504135008324849e-14
3.855000000000000000e+03 3.864984893798828125e+01 -1.105645370483398438e+01 -2.428339910000277234e-15 9.046118075537595837e-14 2.640985202067864385e-14 1.385981851205822513e-13
3.856000000000000000e+03 3.969426727294921875e+01 -1.081269073486328125e+01 1.161840670329747360e-13 1.412950702620041632e-13 7.724373983324095416e-14 5.160579740772462676e-14
3.857000000000000000e+03 7.156391143798828125e+01 3.016262531280517578e+00 -2.024700665372719532e-13 5.047996187181567895e-14 -4.559703038319734558e-14 2.214824325460704180e-13
3.858000000000000000e+03 6.937271881103515625e+01 3.795303106307983398e+00 2.904904913619485440e-14 1.954533811274888899e-13 6.735073382248962792e-14 1.176225864754285033e-13
3.859000000000000000e+03 3.332716751098632812e+01 1.043121528625488281e+01 9.128104088568234076e-14 3.912044367376972531e-14 3.912044367376972531e-14 3.604718452443304855e-14
3.860000000000000000e+03 1.008561038970947266e+01 2.238187217712402344e+01 -1.187225598719962908e-16 1.829529095494913937e-13 5.485025885636034271e-14 -3.402541174702712612e-14
3.861000000000000000e+03 4.804569244384765625e+01 -6.783209800720214844e+00 -1.037993069318357553e-13 -2.274892242897647021e-13 -9.938655665597470601e-14 -2.516948068964196955e-14
3.862000000000000000e+03 1.022201728820800781e+01 2.334209823608398438e+01 -2.329398372596328676e-14 5.864328933482404471e-14 1.060479151325163794e-14 -2.015249099052759257e-14
3.863000000000000000e+03 7.025429534912109375e+01 6.717127799987792969e+00 -1.769791317619492932e-13 -1.215991554410350561e-13 -8.957348345038987358e-14 1.508165201882447071e-13
3.864000000000000000e+03 3.344409179687500000e+01 8.695617675781250000e+00 8.705911019217874025e-14 -9.994179691729526693e-14 -3.864806356348136906e-15 2.012609236169346505e-14
3.865000000000000000e+03 2.964876365661621094e+01 7.586711049079895020e-01 -8.055321953090791021e-14 1.122813999979502264e-14 -2.079752352052068737e-14 -3.035308346354716191e-14
3.866000000000000000e+03 1.416900825500488281e+01 2.395195579528808594e+01 -5.100492239933779315e-14 -6.761020373115614324e-14 -3.558453851677453872e-14 3.199814003172762877e-14
3.867000000000000000e+03 1.436816883087158203e+01 2.483505439758300781e+01 1.307708146413774641e-13 1.475465257784469575e-13 8.349520212594732649e-14 8.832688473312498567e-15
3.868000000000000000e+03 9.908463478088378906e+00 2.061273384094238281e+01 3.556450110537429099e-14 3.354985831250517636e-13 1.113189198481169540e-13 3.461193886432041913e-15
3.869000000000000000e+03 5.906617736816406250e+01 -5.807620882987976074e-01 -1.994193249118050848e-13 -1.283569333720285810e-13 -9.833287477464466853e-14 -6.691424080411054187e-14
3.870000000000000000e+03 3.424949645996093750e+01 1.988748550415039062e+01 -7.591427757681207256e-14 -9.659215599946719549e-15 -2.567204736010457455e-14 -4.716539320020161907e-14
3.871000000000000000e+03 3.260884475708007812e+01 1.860513114929199219e+01 -7.731893603016640193e-14 3.548973520118604841e-14 -1.254875923225456935e-14 -3.619333836541588356e-14
3.872000000000000000e+03 3.294932937622070312e+01 2.003485679626464844e+01 2.124349483757954904e-14 2.149836298565022119e-13 7.086813639178499158e-14 3.627432572660170898e-15
3.873000000000000000e+03 3.242356872558593750e+01 1.248169231414794922e+01 -1.040424460452792077e-13 -4.458962021770991602e-14 -4.458962021770991602e-14 -4.030588661224285274e-14
3.874000000000000000e+03 1.113814449310302734e+01 2.692460250854492188e+01 -4.753760658227947078e-14 1.855060159303145717e-13 4.139051907746556236e-14 -6.919368100407122246e-14
3.875000000000000000e+03 6.301509475708007812e+01 1.763045883178710938e+01 -3.059438112736328347e-15 -2.300659391728937520e-13 -6.993761310098572936e-14 -6.523553669913334518e-14
3.876000000000000000e+03 6.522906494140625000e+01 1.771363449096679688e+01 -9.438463736705787754e-14 -1.205147228755878985e-13 -6.446980536228830161e-14 1.903789388776281483e-14
3.877000000000000000e+03 3.419431686401367188e+01 2.554327964782714844e+01 -9.876981841455169386e-15 1.864248196732556234e-14 2.629649995409470524e-15 5.370959685574265563e-14
3.878000000000000000e+03 3.231988525390625000e+01 2.569089317321777344e+01 -1.255369828137000918e-14 9.755947948369286804e-14 2.550173444540015238e-14 -3.069268607715572306e-14
3.879000000000000000e+03 1.165894603729248047e+01 2.372797775268554688e+01 -1.298564391866846579e-13 7.016234788255124033e-14 -1.790822468073459406e-14 3.178100144163309437e-14
3.880000000000000000e+03 6.769830322265625000e+01 2.834869384765625000e+01 6.982116301139720815e-14 -8.445401631718488233e-14 -4.389857516395607312e-15 -2.023003177465104024e-14
3.881000000000000000e+03 6.753433227539062500e+01 1.740299224853515625e+01 4.479729236758593636e-14 -1.638049505064964606e-13 -3.570229981336540959e-14 3.307618258062069994e-14
3.882000000000000000e+03 3.237697219848632812e+01 1.722585868835449219e+01 7.029851689915184165e-14 1.902562580136796244e-13 7.816643653960758664e-14 5.494721363563485894e-14
3.883000000000000000e+03 3.196322441101074219e+01 2.049649238586425781e+01 -8.737533639050897721e-15 1.106327147406237221e-13 3.056855509280149985e-14 1.776056650923743541e-14
3.884000000000000000e+03 1.139262580871582031e+01 2.874234962463378906e+01 7.197563366438588378e-15 1.403375164557921218e-13 4.426052420077909721e-14 -1.153027597445427377e-13
3.885000000000000000e+03 3.284366989135742188e+01 1.469939422607421875e+01 -4.928477805444912707e-14 1.275685286572514343e-13 2.348512687490658668e-14 -2.206576392958792265e-14
3.886000000000000000e+03 3.293589782714843750e+01 1.594265460968017578e+01 -1.520583382515552917e-13 1.178359303579193385e-13 -1.026672202927760708e-14 3.771039809087085859e-14
3.887000000000000000e+03 1.533392906188964844e+01 2.753619956970214844e+01 -3.237245574958056565e-15 2.044918731959957658e-13 6.037639328380570158e-14 -8.047211951434009997e-15
3.888000000000000000e+03 1.544094371795654297e+01 2.605718994140625000e+01 3.338120592119055152e-14 1.058081302695440540e-13 4.175679984078084495e-14 4.224443840258104016e-15
3.889000000000000000e+03 6.597392272949218750e+01 2.822188377380371094e+01 3.397697840310312523e-14 -3.118938619742564478e-14 8.362776405274204537e-16 6.906522337542242429e-14
3.890000000000000000e+03 6.576706695556640625e+01 3.028278732299804688e+01 4.216100735134238608e-14 -6.199515456117160594e-14 -5.950245518201481565e-15 3.817731314458353009e-14
3.891000000000000000e+03 6.243551254272460938e+01 2.692912483215332031e+01 6.117423563968115569e-15 -2.883202574258114659e-14 -6.814380060660846228e-15 3.572934049317355587e-14
3.892000000000000000e+03 6.374312973022460938e+01 2.169972229003906250e+01 -9.936704440500175595e-15 1.861688632572543189e-14 2.604054565567576890e-15 6.182345759463137025e-14
3.893000000000000000e+03 6.969870758056640625e+01 2.309208488464355469e+01 8.129348566922670050e-14 -5.666183193757563796e-14 7.389495950088729309e-15 1.029766210996173326e-13
3.894000000000000000e+03 6.858705139160156250e+01 2.302993583679199219e+01 3.822167395409713231e-14 -1.666230765558565641e-13 -3.852042247459372404e-14 5.857890805456913985e-14
3.895000000000000000e+03 2.485300445556640625e+01 2.955610466003417969e+01 -1.587712543530469134e-15 6.794597436771132593e-14 1.990747824020481366e-14 3.406802089240580644e-14
3.896000000000000000e+03 5.506141281127929688e+01 2.835070800781250000e+01 4.775369485151940985e-14 8.909229419745007261e-14 4.105379637587766584e-14 3.667163754193965286e-14
3.897000000000000000e+03 3.303923416137695312e+01 -6.973853588104248047e+00 -6.631378253593375738e-14 3.833383534646711555e-13 9.510736653523671480e-14 -1.037683123022298259e-13
3.898000000000000000e+03 5.184826660156250000e+01 -2.047187566757202148e+00 -1.731828114075184555e-13 1.240867136478393680e-16 -5.191761734066324685e-14 1.247654730180888794e-13
3.899000000000000000e+03 5.203172683715820312e+01 -3.939843475818634033e-01 -1.384808744455193197e-13 3.409718525321930871e-13 6.074729207074941462e-14 1.398916789699389263e-13
3.900000000000000000e+03 2.919933128356933594e+01 1.341138958930969238e+00 1.141365783352901730e-13 3.164727696211826896e-15 3.519039036949458965e-14 -2.077353317576219327e-13
3.901000000000000000e+03 3.017732810974121094e+01 3.307479023933410645e-01 -1.061865371565322291e-13 -9.125946526244987922e-14 -5.923380004806827470e-14 -6.704809233856745543e-14
3.902000000000000000e+03 5.475164031982421875e+01 -2.877875566482543945e+00 -2.113103257910670107e-13 1.953818644416863148e-13 -4.778537642484556244e-15 -4.077380794109686235e-14
3.903000000000000000e+03 3.626720809936523438e+01 8.427334785461425781e+00 -1.093677286321398379e-13 1.361319097812480061e-13 8.029253158886324321e-15 -1.505118051676676560e-13
3.904000000000000000e+03 3.265845108032226562e+01 6.441454887390136719e+00 3.717293874517905994e-14 1.989350524589372782e-13 7.083239837767443814e-14 9.550181283811409738e-15
3.905000000000000000e+03 3.459503555297851562e+01 -9.662057876586914062e+00 1.895612979736435721e-14 1.453769017060319024e-13 4.929990945101887789e-14 -3.970129482328346726e-14
3.906000000000000000e+03 3.713074874877929688e+01 -9.867658615112304688e+00 -9.009179307521014701e-14 9.864207568171037832e-14 2.565085120763248294e-15 5.357239784707819308e-14
3.907000000000000000e+03 3.384544372558593750e+01 -7.341520786285400391e+00 -7.430654805655120820e-14 1.054071855298953364e-13 9.330191580816417363e-15 3.430183586716588351e-14
3.908000000000000000e+03 3.480123138427734375e+01 -7.654198169708251953e+00 -4.363822264695851882e-14 1.071130150179754048e-13 1.904243737249188689e-14 -6.210226695954959575e-14
3.909000000000000000e+03 6.256487655639648438e+01 6.453541755676269531e+00 -9.367339057751201958e-15 -1.412674231066057828e-13 -4.519042746346096928e-14 7.961737856726578549e-15
3.910000000000000000e+03 3.739799880981445312e+01 -8.485316276550292969e+00 3.429382971174843586e-14 -3.105359326345362436e-14 9.720712097741513076e-16 -2.120846494301290019e-14
3.911000000000000000e+03 4.078385925292968750e+01 -9.248907089233398438e+00 6.306080332398045218e-14 -1.872488980276393322e-14 1.330077456458472404e-14 -1.880463964881382011e-15
3.912000000000000000e+03 4.623351669311523438e+01 -1.165252804756164551e+00 -6.527744111309990993e-14 -2.797604812740384084e-14 -2.797604812740384084e-14 1.465596036458877149e-13
3.913000000000000000e+03 6.250056076049804688e+01 5.152138695120811462e-02 -2.197980702610055626e-13 -2.697274353061175287e-15 -6.674860181720906893e-14 -5.951866061636168492e-14
3.914000000000000000e+03 6.953828430175781250e+01 1.664053916931152344e+01 2.918922970083365209e-14 -2.162450719791347842e-13 -5.611675268349033963e-14 3.820976128272694783e-14
3.915000000000000000e+03 5.954079437255859375e+01 -3.167272508144378662e-01 -4.755213150325898752e-14 7.112241568255073254e-14 7.071084406754576251e-15 -5.192577596201120027e-14
3.916000000000000000e+03 3.820840835571289062e+01 -8.905801773071289062e+00 8.942418203497504159e-15 -2.706732407653511530e-13 -7.851924270279794782e-14 -1.041562669445994516e-13
3.917000000000000000e+03 3.966989898681640625e+01 -1.004270458221435547e+01 2.819017805646972796e-14 -1.709222905354676469e-13 -4.281963306607301789e-14 -3.326712413572255334e-14
3.918000000000000000e+03 5.755055618286132812e+01 2.158497810363769531e+00 6.495464702129666312e-14 -6.294933378812178626e-14 6.015944040568485269e-16 -1.225757641004285303e-13
3.919000000000000000e+03 5.753629302978515625e+01 1.275478601455688477e+00 -1.606257309235900599e-13 -3.072610533857316785e-15 -4.910950322073968921e-14 -1.165725502239034483e-13
3.920000000000000000e+03 6.792154693603515625e+01 3.906712532043457031e-01 -2.179663784532270832e-13 1.953349625333309497e-14 -5.952986178005617579e-14 -3.960259515613760717e-14
3.921000000000000000e+03 3.407794189453125000e+01 1.081255435943603516e+01 -2.345746616698105025e-14 -5.580415009210845656e-14 -2.377848487772685204e-14 4.722890034245495749e-14
3.922000000000000000e+03 6.709297180175781250e+01 3.368332684040069580e-01 -9.005275502073709082e-14 5.290785984237572626e-14 -1.114346889232158827e-14 -1.527580145710416559e-13
3.923000000000000000e+03 6.901340484619140625e+01 1.158214569091796875e+01 -1.056281527089114602e-13 -2.239373339269889324e-14 -3.840656430582380099e-14 1.595605836042859882e-13
3.924000000000000000e+03 4.250695037841796875e+01 -7.943154335021972656e+00 -1.061067254241376335e-17 2.287502056264739680e-13 6.862187277830236742e-14 -6.053934209406669487e-15
3.925000000000000000e+03 5.935359573364257812e+01 2.616279840469360352e+00 -1.509829452217212320e-13 -2.648673652367455889e-13 -1.247550917822873306e-13 -9.291626848354286872e-14
3.926000000000000000e+03 5.895742416381835938e+01 3.179182767868041992e+00 8.957084070759444017e-14 9.557618910714660299e-14 5.554410758916959734e-14 7.312408328592062690e-14
3.927000000000000000e+03 6.971873474121093750e+01 -5.949736833572387695e-01 -1.221014392024932782e-13 -6.578240403977029735e-15 -3.860390604187510788e-14 3.410209194567616342e-14
3.928000000000000000e+03 2.965251922607421875e+01 2.952170848846435547e+00 -2.326498470598108853e-14 2.187840295216070263e-13 5.865571700222615981e-14 -6.376244475990444638e-14
3.929000000000000000e+03 3.131319808959960938e+01 4.790750503540039062e+00 -3.600050284464396955e-14 7.607311319508119896e-14 1.202178276631798992e-14 -5.544511993082167078e-14
3.930000000000000000e+03 3.546121597290039062e+01 -9.207551956176757812e+00 -5.046733803687693568e-17 1.372312230215125273e-13 4.115422399023592470e-14 9.582484409914257539e-14
3.931000000000000000e+03 5.862871170043945312e+01 -1.011087656021118164e+00 -1.250333116122742672e-13 2.152011208123028041e-13 2.705033937187677207e-14 1.459533313435609769e-13
3.932000000000000000e+03 3.878894424438476562e+01 3.632493257522583008e+00 1.874029902614038345e-14 -1.749722328830971563e-13 -4.686958218996610526e-14 -5.906442056367172677e-14
3.933000000000000000e+03 6.897303771972656250e+01 4.536247253417968750e+00 -8.276625912406743169e-14 -1.955995722379214041e-13 -8.350975076384936635e-14 1.331417750572230774e-13
3.934000000000000000e+03 6.988753509521484375e+01 3.686321735382080078e+00 -5.283680055436466849e-14 -2.264434333673712857e-14 -2.264434333673712857e-14 -7.730223931671012516e-14
3.935000000000000000e+03 6.934484863281250000e+01 1.265127468109130859e+01 -3.965947172447983893e-14 2.575087766718692217e-13 6.535479216184317264e-14 2.175627299844107299e-13
3.936000000000000000e+03 6.815942382812500000e+01 1.295330905914306641e+01 -1.170515778487618563e-13 -5.016496048312717171e-14 -5.016496048312717171e-14 7.713212121958357148e-14
3.937000000000000000e+03 4.896207427978515625e+01 -1.743185758590698242e+00 1.550214797296171204e-14 9.242680541277428774e-14 3.237868821800646280e-14 1.988904510920666557e-13
3.938000000000000000e+03 4.136569976806640625e+01 -8.114060401916503906e+00 7.267283834173215995e-14 3.114550311449429398e-14 3.114550311449429398e-14 9.362984969589135953e-14
3.939000000000000000e+03 3.189453315734863281e+01 -6.926813125610351562e+00 -1.202755207712832841e-13 1.314571417216151006e-13 3.354485946286366038e-15 -9.324096670541154319e-14
3.940000000000000000e+03 3.199759864807128906e+01 -7.341270446777343750e+00 -5.801433010203804752e-14 2.088766476676749001e-14 -1.113799960058116725e-14 1.220511051166356387e-13
3.941000000000000000e+03 3.809055709838867188e+01 3.724697589874267578e+00 -5.721560513783155444e-14 -1.045851366664532489e-13 -4.854022254128544100e-14 -1.673904138671696018e-14
3.942000000000000000e+03 5.139133071899414062e+01 -4.835788726806640625e+00 -8.088427388801278095e-14 3.313428904080234494e-13 7.513758902176134735e-14 8.199876595869209917e-14
3.943000000000000000e+03 6.983734130859375000e+01 6.049125194549560547e+00 -7.650972140994111159e-14 1.044629674104048667e-13 8.385972614293000366e-15 7.357343087630724421e-14
3.944000000000000000e+03 5.357823562622070312e+01 -1.108437061309814453e+00 -1.903186809537604773e-13 -8.156514607607009970e-14 -8.156514607607009970e-14 6.127603714147986103e-14
3.945000000000000000e+03 6.732862091064453125e+01 1.897142982482910156e+01 4.549558971743417057e-14 -1.263330396241227338e-13 -2.425123429438021116e-14 -4.290968960902509510e-15
3.946000000000000000e+03 6.567018890380859375e+01 2.076499176025390625e+01 7.010969207938517675e-15 2.588017521370621771e-14 9.867343453548362703e-15 -5.644383191497374594e-15
3.947000000000000000e+03 3.986986160278320312e+01 1.488116025924682617e+00 -2.836728417541112962e-14 1.479709096138120961e-13 3.588108813974005828e-14 -2.327392090357462140e-14
3.948000000000000000e+03 4.532523727416992188e+01 -7.813200950622558594e+00 1.364785817318343517e-14 5.160003080741971948e-14 1.957436728710400947e-14 -4.291655396402964395e-14
3.949000000000000000e+03 4.616682052612304688e+01 -1.859473347663879395e+00 -3.813659118861133235e-14 2.940669355157993214e-14 -2.618968909944593797e-15 7.526686657830308769e-14
3.950000000000000000e+03 4.684319686889648438e+01 -9.935948848724365234e-01 5.406769866891925069e-14 6.892282019633003132e-14 3.689715498194842680e-14 -2.590385783139497432e-15
3.951000000000000000e+03 3.313267898559570312e+01 -3.976922750473022461e+00 -3.266921713078289879e-14 2.147536570231908803e-13 5.462533095128285776e-14 2.701563643202776338e-14
3.952000000000000000e+03 7.022782897949218750e+01 2.650187730789184570e+00 -4.179179246589781460e-14 -2.924164545486246380e-13 -1.002624768148621670e-13 -1.340484797815455487e-13
3.953000000000000000e+03 4.835401535034179688e+01 -2.075561523437500000e+00 -1.404705480623560931e-13 2.829304444808972141e-13 4.273796892556233629e-14 2.041914407740000326e-13
3.954000000000000000e+03 5.057335281372070312e+01 -1.006564140319824219e+00 -6.308470998188375756e-14 1.102165437367151613e-13 1.413954894060329495e-14 2.217645334810216737e-15
3.955000000000000000e+03 5.323460388183593750e+01 -6.308687925338745117e-01 1.598535485838187276e-14 1.898546559764638375e-13 6.175200189520099747e-14 -1.035675790462577128e-13
3.956000000000000000e+03 3.885600280761718750e+01 2.879246711730957031e+00 -4.050010449078468577e-14 -1.088590887354454195e-13 -4.480775830668221049e-14 -2.422626545716104890e-14
3.957000000000000000e+03 5.801158142089843750e+01 2.518553018569946289e+00 -2.361223263897156699e-14 6.279604792972307004e-14 1.175514441781886146e-14 1.008649815146395179e-13
3.958000000000000000e+03 5.843969345092773438e+01 1.999606251716613770e+00 -1.232433480356093236e-13 -9.856952222758036397e-14 -6.654386378946233749e-14 -9.121180102444198523e-14
3.959000000000000000e+03 6.967806243896484375e+01 1.372864532470703125e+01 1.792292917269892871e-15 1.723341792620597390e-13 5.223794148439230012e-14 1.184283384249654181e-13
3.960000000000000000e+03 6.994026184082031250e+01 1.470302104949951172e+01 4.567823034965293183e-14 -4.905003811971064831e-14 -1.011542733357964890e-15 2.695381827347125003e-14
3.961000000000000000e+03 2.973207092285156250e+01 -3.233538568019866943e-01 -4.203231932973193474e-14 1.649899428234416487e-13 3.688728874217880871e-14 -7.821403301497970029e-14
3.962000000000000000e+03 3.299966812133789062e+01 -4.845923900604248047e+00 -7.862680233457208789e-14 -2.624519525318280699e-13 -1.023236264599200473e-13 1.314051169579947415e-14
3.963000000000000000e+03 3.438757324218750000e+01 -2.186042785644531250e+00 4.781148282731288723e-14 1.577434878682545949e-13 6.166649222510978134e-14 2.077198717122686472e-14
3.964000000000000000e+03 3.192911148071289062e+01 6.301086902618408203e+00 1.069392309622531345e-14 1.875869116074388443e-13 5.948425074991242623e-14 1.085693373989145630e-14
3.965000000000000000e+03 5.872283554077148438e+01 -1.444784849882125854e-01 -2.074858432852058621e-13 8.264355454319638472e-14 -3.745268662260284320e-14 4.535644253299102313e-14
3.966000000000000000e+03 7.109398651123046875e+01 2.513354063034057617e+00 -9.292548420200899550e-14 5.925741702070361910e-15 -2.609992266527829535e-14 2.036978204655263275e-14
3.967000000000000000e+03 4.882493972778320312e+01 -6.718340873718261719e+00 -1.084213217795136630e-13 -7.153317647526694339e-16 -3.274099470273322821e-14 6.805502731857147533e-15
3.968000000000000000e+03 4.805873107910156250e+01 -7.515191555023193359e+00 -5.238095452720671619e-14 2.330196785852410579e-14 -8.723695661791604217e-15 1.171289526144276422e-14
3.969000000000000000e+03 4.634274291992187500e+01 -7.500833511352539062e+00 1.336493714093264784e-13 1.945311452070455638e-13 9.845415634016432826e-14 1.631035936736427439e-13
3.970000000000000000e+03 4.578101730346679688e+01 -7.491997241973876953e+00 6.844007240276728243e-14 -1.536723358156258379e-13 -2.556968004029710334e-14 1.137120318695991616e-13
3.971000000000000000e+03 6.474987792968750000e+01 1.680566787719726562e+01 8.592134843237245190e-14 -8.927512964724670236e-15 2.309815140262398703e-14 -8.830339650949762392e-16
3.972000000000000000e+03 7.003387451171875000e+01 9.098229408264160156e+00 -1.454670531166740721e-13 -5.090528760781816431e-14 -5.891170391141356544e-14 1.124601171735573057e-13
3.973000000000000000e+03 3.304621124267578125e+01 8.135166168212890625e+00 -4.726320178868696764e-14 3.915028837144646223e-13 1.032719035612937597e-13 7.618127591431378409e-14
3.974000000000000000e+03 3.262348937988281250e+01 7.514707088470458984e+00 1.448415497783128725e-14 9.770939076282972313e-14 3.365806372219830311e-14 -4.597239811597077230e-14
3.975000000000000000e+03 1.094526863098144531e+01 2.222978019714355469e+01 4.043460512703940524e-14 2.460838607540316580e-13 8.595554145838721349e-14 -1.074856095648795209e-14
3.976000000000000000e+03 6.284273529052734375e+01 9.456403732299804688e+00 -5.820379273761399491e-15 -1.397472903456181692e-13 -4.367030147873693369e-14 1.703745922555094383e-13
3.977000000000000000e+03 6.587427520751953125e+01 1.152628612518310547e+01 -1.386865204925855077e-13 -1.509389808236269448e-13 -8.688765039486373576e-14 6.417360132876526180e-14
3.978000000000000000e+03 6.874911499023437500e+01 1.055395412445068359e+01 -1.487745473691126641e-13 -1.438246901132658739e-13 -8.777977259996627701e-14 2.007766376115396878e-13
3.979000000000000000e+03 6.495289611816406250e+01 6.321992874145507812e-01 -5.892502604560798107e-14 -1.625064286695648841e-13 -6.642943980268364856e-14 -1.954735472878971203e-13
3.980000000000000000e+03 6.417655944824218750e+01 1.350893592834472656e+01 -3.612607717314031408e-14 -1.355788447005359942e-13 -5.151147859498196591e-14 3.126941048215044205e-14
3.981000000000000000e+03 5.601598358154296875e+01 -2.122689485549926758e+00 -1.401141437032057957e-13 6.576618589992921926e-14 -2.230438666335661513e-14 -3.209019692768794174e-13
3.982000000000000000e+03 5.408232116699218750e+01 -8.369168639183044434e-01 -5.215498646567000296e-14 1.606516569080396195e-13 3.254900282677677947e-14 2.507638194315653379e-13
3.983000000000000000e+03 7.037105560302734375e+01 6.192299365997314453e+00 -1.127819693647232058e-13 3.176724562656968454e-13 6.146714810317116529e-14 1.354018893534592038e-13
3.984000000000000000e+03 6.239253234863281250e+01 7.106478691101074219e+00 -1.088577131539390785e-13 6.772406528805785531e-14 -1.234009351273141972e-14 1.083710419037646477e-13
3.985000000000000000e+03 6.830085754394531250e+01 1.691928482055664062e+01 -1.136708254107811344e-13 -2.202821258734388721e-13 -1.001858847076396442e-13 1.326966151977276853e-13
3.986000000000000000e+03 6.896076965332031250e+01 1.663861846923828125e+01 -7.511907626966615736e-14 -2.151976920229323187e-13 -8.709503116540590062e-14 -1.243523987666354802e-14
3.987000000000000000e+03 5.579785156250000000e+01 3.892715275287628174e-01 -7.834266682648152735e-14 -1.479528034375315881e-13 -6.788864040157757684e-14 -2.504001847991772778e-14
3.988000000000000000e+03 5.466028213500976562e+01 -5.958244800567626953e-01 -1.533702228802627521e-13 -4.285462230305819853e-14 -5.886745491024900079e-14 -5.711916535458896882e-14
3.989000000000000000e+03 4.929900741577148438e+01 -3.966848373413085938e+00 1.245038482576045491e-14 -4.041506915914393205e-14 -8.389405638828222045e-15 3.343562270585395679e-14
3.990000000000000000e+03 3.966773223876953125e+01 -9.263640403747558594e+00 1.006763438891541962e-13 -1.169813215479847957e-13 -4.891492874132706212e-15 -2.402170700039913537e-14
3.991000000000000000e+03 6.812807464599609375e+01 2.137993812561035156e+01 6.404816591367226697e-14 -4.117720907629261740e-14 6.861285780664473991e-15 8.820000258575808050e-14
3.992000000000000000e+03 6.645314025878906250e+01 2.181532096862792969e+01 3.198933766533976208e-14 1.052116157867696855e-13 4.116028535800647647e-14 6.257469450368299824e-15
3.993000000000000000e+03 5.093151092529296875e+01 -5.561487674713134766e+00 -2.231849145599429374e-14 1.505632505607520932e-13 3.847342908668005546e-14 8.485092918000466944e-14
3.994000000000000000e+03 5.083898544311523438e+01 -4.907783985137939453e+00 -6.933829324509005465e-14 6.178548341354006546e-14 -2.265841721267223240e-15 6.107343363676021042e-14
3.995000000000000000e+03 3.792561721801757812e+01 -1.013156604766845703e+01 4.692483923131318679e-14 2.202710534587523639e-13 8.015876645176694959e-14 -7.485953859836386171e-14
3.996000000000000000e+03 3.742021179199218750e+01 5.165435314178466797e+00 2.747498409338966496e-14 -7.615261231937869857e-14 -1.460328846779671008e-14 4.258488635507096109e-15
3.997000000000000000e+03 6.856620025634765625e+01 6.621414184570312500e+00 -5.745133101892063721e-14 -2.991276931013642226e-13 -1.069737085913381736e-13 5.243319274312978340e-14
3.998000000000000000e+03 4.249316024780273438e+01 1.862459331750869751e-01 -4.298766068588574796e-14 4.452191094500524901e-15 -1.156064108917380373e-14 2.313317621499295235e-14
3.999000000000000000e+03 4.165182876586914062e+01 5.205048620700836182e-02 2.400251662194614194e-14 1.246641678775972650e-13 4.460000484164325374e-14 -1.896496773913600858e-14
4.000000000000000000e+03 1.178733062744140625e+01 2.600502204895019531e+01 1.693600534607379166e-14 1.902620856003567340e-13 6.215942474283031594e-14 -4.368038794707283790e-14
4.001000000000000000e+03 3.698620605468750000e+01 5.645714282989501953e+00 -1.492758689011428053e-14 1.308553146481955531e-13 3.477831561691895057e-14 -5.948121498382946681e-14
4.002000000000000000e+03 3.422951126098632812e+01 1.722205734252929688e+01 -9.921086847018700805e-14 1.176093727614513362e-13 5.519551287379298454e-15 -2.419586205655230304e-14
4.003000000000000000e+03 3.535083007812500000e+01 9.250128746032714844e+00 4.539552124504554753e-14 4.083382937336565988e-13 1.361201461876765384e-13 -7.298917465434553997e-14
4.004000000000000000e+03 3.528838729858398438e+01 8.084655761718750000e+00 -7.274653698440686211e-14 -1.226789801472491503e-13 -5.862765649474951934e-14 -1.558596865935610309e-13
4.005000000000000000e+03 5.647064208984375000e+01 5.358243584632873535e-01 -8.123146252869695161e-14 -1.949418003324016047e-13 -8.285197885832956688e-14 -2.415147888536889331e-13
4.006000000000000000e+03 5.214060211181640625e+01 -3.641006231307983398e+00 1.958026975149365634e-13 4.270475574726095847e-13 1.868550751410111288e-13 -3.297561266472730235e-14
4.007000000000000000e+03 5.290096282958984375e+01 -2.072053670883178711e+00 -1.170551828209853706e-13 4.133539078512646348e-14 -2.271593964363674556e-14 2.193877675013555795e-13
4.008000000000000000e+03 6.614029693603515625e+01 1.710556602478027344e+01 1.559112031374130375e-14 -2.763130402380544609e-14 -3.612055113019242703e-15 -1.926583553606663057e-14
4.009000000000000000e+03 4.734018325805664062e+01 -6.173412322998046875e+00 4.732232468840531781e-14 -2.999756476204651356e-13 -7.579599789605748206e-14 7.097287709791066934e-14
4.010000000000000000e+03 4.721831130981445312e+01 -7.271011829376220703e+00 -9.963363955482057444e-14 -2.257039227824414462e-13 -9.760126870117860620e-14 -5.030994203051100677e-14
4.011000000000000000e+03 3.352651214599609375e+01 1.331850337982177734e+01 1.159769285138554859e-14 1.879742292810321347e-13 5.987157519976929465e-14 3.038518262411631088e-14
4.012000000000000000e+03 3.567594909667968750e+01 8.666583061218261719e+00 -4.361610492263981453e-14 -4.762020855766935234e-13 -1.559454605379317904e-13 4.235667026809223495e-15
4.013000000000000000e+03 3.513700103759765625e+01 1.039979171752929688e+01 -1.677682379954900660e-13 8.163486705202449567e-15 -4.788142403183356932e-14 -4.460531065602485468e-14
4.014000000000000000e+03 1.424451541900634766e+01 2.590671730041503906e+01 -1.257380430243898450e-14 1.089885966849488130e-13 2.892443703712659075e-14 -8.617946139425746582e-15
4.015000000000000000e+03 3.094412231445312500e+01 1.447003483772277832e-01 -9.009474074986659198e-14 9.864081529668486392e-14 2.563822829913602573e-15 -5.765546278283537138e-16
4.016000000000000000e+03 6.136959075927734375e+01 5.496556758880615234e+00 -6.697956398500279351e-14 -7.445647966447879740e-14 -4.243081445009719288e-14 4.668352970903580368e-14
4.017000000000000000e+03 6.160216140747070312e+01 4.806295871734619141e+00 -5.474399349092960720e-14 -1.835900274036253443e-13 -7.150020592955330656e-14 1.266017726851004221e-13
4.018000000000000000e+03 6.312122726440429688e+01 -5.537137985229492188e-01 -2.030846024930321042e-14 -8.703625216106413570e-15 -8.703625216106413570e-15 1.012149213183363705e-13
4.019000000000000000e+03 3.221758651733398438e+01 1.617809677124023438e+01 -1.145006263197564933e-13 4.243020119824338077e-14 -2.162112753645393376e-14 -5.416913594655063668e-14
4.020000000000000000e+03 6.355736160278320312e+01 2.055178260803222656e+01 2.204510606655381115e-15 4.669574053600342167e-14 1.467007532162181715e-14 4.573222022971092093e-14
4.021000000000000000e+03 6.687907409667968750e+01 2.434611892700195312e+01 3.846654101475298349e-14 -6.357850308507870252e-14 -7.533588112877947357e-15 2.153519773802087950e-14
4.022000000000000000e+03 1.318413639068603516e+01 2.552955818176269531e+01 5.324090980910432813e-14 1.829458486828430819e-13 7.085602720877104410e-14 2.591305533865273514e-14
4.023000000000000000e+03 6.926772308349609375e+01 1.441590499877929688e+01 2.496247769579428011e-14 1.136378385596832630e-13 4.158009521545644183e-14 1.062013975025588586e-13
4.024000000000000000e+03 6.743270111083984375e+01 2.266206932067871094e+01 7.784375086802158838e-14 1.048613236173667751e-14 2.649896496892747977e-14 -5.585498562147087065e-14
4.025000000000000000e+03 3.023223304748535156e+01 1.092914104461669922e+00 -2.912086058946307399e-14 2.162743725428462049e-13 5.614605324720176038e-14 -7.948479927629564790e-14
4.026000000000000000e+03 3.230337905883789062e+01 2.143497467041015625e+01 3.248734221634845543e-14 1.511759874185322761e-13 5.509900193978282956e-14 2.634815922299832414e-14
4.027000000000000000e+03 6.449553680419921875e+01 1.041223430633544922e+01 -1.190648464153773456e-13 -1.453891260855266765e-13 -7.933618903976577541e-14 -4.076181395456374146e-14
4.028000000000000000e+03 6.342078399658203125e+01 1.947499656677246094e+01 -4.948073404459872593e-14 -2.499607779874596369e-13 -8.983245191555161435e-14 3.909171909246243748e-14
4.029000000000000000e+03 6.471566009521484375e+01 2.036915206909179688e+01 -3.173655254069297771e-14 -8.222780366762966198e-14 -3.418930584605725520e-14 6.163610745922587508e-14
4.030000000000000000e+03 6.559420776367187500e+01 1.622779846191406250e+01 -1.098495751826467082e-13 -4.707838936399144636e-14 -4.707838936399144636e-14 -2.294845018765805100e-14
4.031000000000000000e+03 6.368576812744140625e+01 2.546324348449707031e+01 -1.949748718867942016e-14 -5.410701455019900630e-14 -2.208135102988329629e-14 3.019441725186748637e-14
4.032000000000000000e+03 1.127169513702392578e+01 2.456436920166015625e+01 -1.475574423390711709e-14 1.766799055148704500e-13 4.857724804547582098e-14 1.388466995051089795e-14
4.033000000000000000e+03 6.834325408935546875e+01 2.461390686035156250e+01 4.318257990770790755e-14 4.138229269348182859e-14 2.536946178035692084e-14 -3.494584179322690609e-14
4.034000000000000000e+03 3.117875671386718750e+01 1.889179801940917969e+01 6.854434554670607582e-14 1.895044722272781756e-13 7.741464397694255983e-14 7.628571168857845031e-14
4.035000000000000000e+03 3.310831451416015625e+01 2.254713821411132812e+01 8.436912328707926734e-14 1.047846163136634257e-13 5.674612188022280790e-14 -3.061245511639179573e-14
4.036000000000000000e+03 1.696749877929687500e+01 2.936568641662597656e+01 1.702187246406874910e-14 1.216724610604222323e-13 4.160830141260001003e-14 5.150050782424912821e-14
4.037000000000000000e+03 1.395976257324218750e+01 2.720200729370117188e+01 4.032908176247046450e-14 2.460386495234390125e-13 8.591031667526741189e-14 1.097356255343184817e-14
4.038000000000000000e+03 6.269615173339843750e+01 2.325709152221679688e+01 -2.474617597425163296e-14 -1.060550386796027880e-14 -1.060550386796027880e-14 4.776456906049626056e-15
4.039000000000000000e+03 1.490822601318359375e+01 3.161702156066894531e+01 2.186676709115768086e-14 1.466243169630579435e-13 5.054732470804491895e-14 -1.518672476186547216e-14
4.040000000000000000e+03 3.442285537719726562e+01 2.135021209716796875e+01 2.465467608715743442e-14 1.935700812963001005e-13 6.546742721503726048e-14 3.527452403456299117e-15
4.041000000000000000e+03 2.833941459655761719e+01 2.382104492187500000e+01 4.952682534242356868e-15 1.736886323785644115e-13 5.359239460089697260e-14 3.832889477269237066e-14
4.042000000000000000e+03 6.542640686035156250e+01 2.417649650573730469e+01 4.476965537658292305e-14 -7.231490254701322673e-14 -8.263573812315912204e-15 2.754576555459402332e-15
4.043000000000000000e+03 1.218213367462158203e+01 2.774545478820800781e+01 1.505365906222537378e-15 1.378980073575911125e-13 4.182101171444629895e-14 -7.492051819430259330e-14
4.044000000000000000e+03 1.341623210906982422e+01 2.869501876831054688e+01 2.478917094313778761e-15 1.840661818927266657e-13 5.596353119959561473e-14 -2.359173952384569645e-14
4.045000000000000000e+03 3.067934989929199219e+01 2.484082221984863281e+01 -7.784254469310469826e-14 5.814080906172205965e-14 -5.910522214074096642e-15 -1.649903629517834869e-14
4.046000000000000000e+03 3.276350784301757812e+01 2.392810058593750000e+01 -2.784323166720847204e-14 5.669360922562483029e-14 8.655113945151265281e-15 4.384545433970196693e-14
4.047000000000000000e+03 3.361018753051757812e+01 -6.665483474731445312e+00 -6.902657834423689409e-14 6.191907744998101371e-14 -2.132248955375695872e-15 -9.443399567096028013e-14
4.048000000000000000e+03 3.404217147827148438e+01 -8.058798789978027344e+00 -3.093861362306153662e-14 -1.276367791840093968e-13 -4.757261614805538552e-14 4.580825668332004497e-14
4.049000000000000000e+03 6.165458297729492188e+01 7.406523823738098145e-01 6.638584301688846973e-15 -1.344077437239257766e-13 -3.833074469264917405e-14 9.375691141424308261e-14
4.050000000000000000e+03 3.035292625427246094e+01 2.436257839202880859e+00 -1.374886198170406377e-15 -5.892369345102371325e-16 -5.892369345102371325e-16 -2.315463325361279828e-14
4.051000000000000000e+03 4.429970550537109375e+01 -6.869119644165039062e+00 -2.869645303717541229e-14 1.249543681415901664e-13 2.887737588657714183e-14 3.338174802227679427e-14
4.052000000000000000e+03 4.399265670776367188e+01 -7.506045818328857422e+00 1.692246332212626880e-13 6.108710813666068384e-14 6.909352105212429596e-14 -6.474751697250688554e-14
4.053000000000000000e+03 5.428607177734375000e+01 -1.513790249824523926e+00 -2.665720563125445475e-13 3.432643167107507498e-13 2.300768489572543873e-14 3.462999675972293356e-14
4.054000000000000000e+03 4.936181640625000000e+01 -5.730214595794677734e+00 -1.327857772738874620e-13 -1.115724249507689045e-14 -4.318290855649144222e-14 9.682705348233386355e-14
4.055000000000000000e+03 4.074099731445312500e+01 7.746040821075439453e-01 7.876036757189282950e-15 -4.237550319864148707e-14 -1.034984052535872431e-14 -2.994409529903131750e-14
4.056000000000000000e+03 3.902861022949218750e+01 6.467900872230529785e-01 3.142872043887003086e-14 1.049713498090833197e-13 4.092002276845189968e-14 5.429719377564833083e-14
4.057000000000000000e+03 6.888282775878906250e+01 1.595002555847167969e+01 -7.155605165879872984e-16 -3.066687814792318700e-16 -3.066687814792318700e-16 5.772906973419353327e-14
4.058000000000000000e+03 6.892302703857421875e+01 1.334110641479492188e+01 -4.374604316488041322e-14 7.275359107479159593e-14 8.702264881193123164e-15 1.175621286517852804e-13
4.059000000000000000e+03 3.330607986450195312e+01 -6.000790119171142578e+00 -4.205554497314564766e-14 2.772714241365548116e-14 -4.298521106660228852e-15 -2.060555502267358285e-13
4.060000000000000000e+03 3.866391754150390625e+01 -9.780648231506347656e+00 7.778826682184464270e-14 -1.954169112769119088e-13 -3.528859536939925323e-14 -2.325916558963345149e-14
4.061000000000000000e+03 4.033613204956054688e+01 -8.436731338500976562e+00 1.173007275079990253e-13 5.027174084458983783e-14 5.027174084458983783e-14 7.137176862969524249e-14
4.062000000000000000e+03 5.363520050048828125e+01 -2.324677944183349609e+00 -8.396478363937795453e-14 2.385207916594245248e-13 4.636680037313489766e-14 5.282291006106264522e-15
4.063000000000000000e+03 5.168816375732421875e+01 -7.073635458946228027e-01 -7.349034033231338636e-14 4.260136351758730955e-13 1.057569830320570503e-13 -8.280594092358040115e-15
4.064000000000000000e+03 5.157139968872070312e+01 -4.004004478454589844e+00 4.462629081509539644e-15 4.766350278329577195e-14 1.563783926298006194e-14 9.270785094467326459e-14
4.065000000000000000e+03 3.683875274658203125e+01 -8.838842391967773438e+00 4.413369965165260533e-14 3.849220204729664196e-13 1.287167258629678956e-13 2.372079685182115066e-14
4.066000000000000000e+03 5.799388885498046875e+01 1.647465348243713379e+00 1.600322047730536046e-14 -1.761452718710906917e-13 -4.804261440169606268e-14 2.237517761132998273e-13
4.067000000000000000e+03 6.101661300659179688e+01 -4.017182439565658569e-02 8.423834987035267591e-15 -6.501620937590310567e-14 -1.697771155433069890e-14 -1.481340176662671732e-14
4.068000000000000000e+03 6.632440185546875000e+01 5.439618229866027832e-01 -7.593023567753834357e-14 -3.254152860805020753e-14 -3.254152860805020753e-14 -9.385686807828266809e-14
4.069000000000000000e+03 6.551014709472656250e+01 8.637243509292602539e-01 -2.743831603710302630e-14 3.399166934254030381e-14 1.966006457499304243e-15 6.236015799880242905e-14
4.070000000000000000e+03 5.237449645996093750e+01 -2.618748426437377930e+00 1.376115069335118180e-13 2.705744970524920356e-13 1.224557971300430093e-13 -1.169560223679162042e-14
4.071000000000000000e+03 4.068619155883789062e+01 -7.646788597106933594e+00 4.430961484227016745e-14 -2.440781138399877870e-13 -5.993055579795250609e-14 2.642926093363202888e-14
4.072000000000000000e+03 4.190626144409179688e+01 -7.523719787597656250e+00 8.879660515995896342e-14 -1.449481132993410415e-13 -1.684545074774872891e-14 2.648525118787407743e-16
4.073000000000000000e+03 4.487788772583007812e+01 -7.275601387023925781e+00 1.126611689139175865e-13 4.828335810596467992e-14 4.828335810596467992e-14 7.865742426968122536e-14
4.074000000000000000e+03 6.859841918945312500e+01 1.224184894561767578e+01 -2.988499272810370144e-14 1.244449964084293203e-13 2.836800076528450676e-14 7.512312169902224390e-14
4.075000000000000000e+03 3.281549835205078125e+01 -6.396916389465332031e+00 -1.111596234439245212e-13 1.353639558299493673e-13 7.261300054620632716e-15 2.584321747215161807e-14
4.076000000000000000e+03 5.984994888305664062e+01 5.339770913124084473e-01 2.021822752349810431e-14 2.010269222949261775e-14 1.209627592589721662e-14 -1.072053348329625455e-13
4.077000000000000000e+03 3.752116775512695312e+01 4.142765522003173828e+00 3.365896157712239267e-14 -3.132568057490243973e-14 6.999843218418095626e-16 -2.080760660072480256e-14
4.078000000000000000e+03 4.551268005371093750e+01 -1.725900769233703613e+00 -2.497526789329782004e-14 -1.937074768166083261e-13 -6.560482273534548603e-14 1.097011072476519744e-13
4.079000000000000000e+03 5.613466262817382812e+01 -9.397684931755065918e-01 -1.189213251527945769e-13 -1.195927037955790695e-13 -7.155421275027024075e-14 -5.291742115028433280e-14
4.080000000000000000e+03 4.360832977294921875e+01 -7.954850196838378906e+00 1.259973977365755338e-13 9.974983214639313034e-14 6.772417370827510386e-14 -7.528366493571303497e-14
4.081000000000000000e+03 4.383368682861328125e+01 -8.523903846740722656e+00 2.976709929437305890e-14 -2.159974130978847828e-13 -5.586909380224033828e-14 -3.953347049137807823e-14
4.082000000000000000e+03 6.946862030029296875e+01 4.419086933135986328e+00 -1.458915826417061384e-14 -1.892562983499962437e-13 -6.115363749246982561e-14 -5.647111399917185970e-14
4.083000000000000000e+03 6.771276092529296875e+01 1.483779549598693848e+00 -1.528975513906405403e-13 -1.112784723308196666e-13 -7.925280711643806208e-14 -5.704926141951796592e-14
4.084000000000000000e+03 5.996998977661132812e+01 3.708240032196044922e+00 5.269394675374433623e-14 2.970888238109509194e-13 1.049348257483977143e-13 5.896076405971853451e-14
4.085000000000000000e+03 5.888481140136718750e+01 2.329664468765258789e+00 1.939563825303566857e-14 8.312416273153436924e-15 8.312416273153436924e-15 2.953218063568270949e-15
4.086000000000000000e+03 6.945589447021484375e+01 9.553416371345520020e-01 -1.525230001976282668e-13 2.613489834973631992e-14 -3.791643038496099460e-14 -3.972565549084650094e-14
4.087000000000000000e+03 6.830116271972656250e+01 1.046138048171997070e+00 -1.516780678920831571e-13 -1.565067791076818482e-13 -9.245545545518221719e-14 1.470199999340383173e-14
4.088000000000000000e+03 6.932962036132812500e+01 5.801825523376464844e+00 1.707060565765607801e-14 1.216933455047697343e-13 4.162918585694751206e-14 8.370712468715266891e-15
4.089000000000000000e+03 7.002389526367187500e+01 4.904697895050048828e+00 -1.576931266773426432e-13 -1.590846595081463200e-13 -9.503333585564668895e-14 1.325931416528911000e-13
4.090000000000000000e+03 3.579034042358398438e+01 -8.590135574340820312e+00 -8.581006185563039290e-14 1.119148447959600334e-13 7.831435390318660511e-15 -9.044177353648846784e-14
4.091000000000000000e+03 5.017345046997070312e+01 -5.617833614349365234e+00 -8.677981971254647431e-14 -3.719134985332057941e-14 -3.719134985332057941e-14 -2.805177795508605881e-14
4.092000000000000000e+03 3.763180541992187500e+01 3.160765886306762695e+00 6.744169838476116174e-14 1.174697817317438275e-14 2.375660262856748445e-14 -1.125826387953117458e-13
4.093000000000000000e+03 4.338709259033203125e+01 -4.788313508033752441e-01 7.121296011648042823e-14 1.677726832243972566e-13 7.169569435751602104e-14 4.979866277915294404e-14
4.094000000000000000e+03 4.376103210449218750e+01 -5.989937782287597656e+00 -8.179934052159054669e-14 -1.265587569639070598e-13 -6.250742653514385072e-14 -2.844204838553347769e-14
4.095000000000000000e+03 4.594178390502929688e+01 -6.615184307098388672e+00 -5.503963848270745918e-14 -1.665601386197437805e-13 -6.647992974260358290e-14 1.668739744910968659e-13
4.096000000000000000e+03 7.000730895996093750e+01 1.988993763923645020e+00 -1.056785274523505680e-13 2.520903678946556647e-13 4.392355416557060244e-14 -1.554065849531521826e-13
4.097000000000000000e+03 5.009991073608398438e+01 -2.111011266708374023e+00 6.380317010400843314e-14 3.476008543501496462e-13 1.234212114020055706e-13 1.576718492097076152e-13
4.098000000000000000e+03 5.568137359619140625e+01 -1.671016812324523926e+00 1.210315620512117385e-13 1.204970910377578530e-13 7.245859999244902427e-14 -6.049704465681260412e-14
4.099000000000000000e+03 5.691522979736328125e+01 -1.531202197074890137e+00 -4.663122373047695612e-14 -2.944905061995350959e-13 -1.023365149132454688e-13 -5.318897652504227247e-14
4.100000000000000000e+03 5.510759353637695312e+01 -1.934665918350219727e+00 -3.008151724676749739e-13 3.514641648463129320e-13 1.519469534189913512e-14 -4.107961055197818789e-14
4.101000000000000000e+03 4.941152572631835938e+01 -2.463549613952636719e+00 -1.419548885991245291e-13 2.022301461490280672e-13 1.808257794259741924e-14 1.460324103395166384e-13
4.102000000000000000e+03 4.729184722900390625e+01 -1.756368398666381836e+00 1.981600545816492726e-14 1.714803293936459361e-13 5.738890130257620625e-14 1.014346010072726678e-13
4.103000000000000000e+03 4.874470138549804688e+01 -4.182933330535888672e+00 -5.154860913125780542e-14 -2.209226081424393168e-14 -2.209226081424393168e-14 1.430150485884351674e-13
4.104000000000000000e+03 5.529580688476562500e+01 -4.147886931896209717e-01 -1.693913564103366465e-13 -2.327246197402627059e-13 -1.206347847136635121e-13 5.775724543815100032e-14
4.105000000000000000e+03 6.385717391967773438e+01 1.725177001953125000e+01 -3.800041878387894201e-14 -2.772363061505616483e-14 -1.971721431146076370e-14 3.299714424224650666e-14
4.106000000000000000e+03 4.592691421508789062e+01 -2.423812866210937500e+00 1.135449156572376772e-13 4.866210380613175679e-14 4.866210380613175679e-14 -6.562092991387047380e-14
4.107000000000000000e+03 3.361899566650390625e+01 7.792429924011230469e+00 6.555112084648956339e-14 2.225348675949020971e-13 8.642580059817564497e-14 -4.141979931238624901e-14
4.108000000000000000e+03 3.380912399291992188e+01 6.077246665954589844e+00 -1.963346562286688926e-15 -1.380942750558653009e-13 -4.201728957711585444e-14 -8.884923301103776760e-15
4.109000000000000000e+03 3.669335937500000000e+01 1.977716207504272461e+00 3.821871272691353127e-14 -1.208734040593004155e-13 -2.479640502802381297e-14 4.724267648630910144e-14
4.110000000000000000e+03 6.634223175048828125e+01 1.404858303070068359e+01 -1.646032138377467001e-15 -2.358091613684568100e-14 -7.568084376687825993e-15 1.035522680787031441e-14
4.111000000000000000e+03 3.344564437866210938e+01 -3.112851858139038086e+00 -9.454391344245957618e-14 -1.777716699975090409e-13 -8.169467435436422731e-14 -5.012779267740165301e-14
4.112000000000000000e+03 3.269979858398437500e+01 -2.864046335220336914e+00 -1.128813974802037046e-13 4.312415496313809493e-14 -2.092717207749332509e-14 4.209022250200623871e-14
4.113000000000000000e+03 5.750928497314453125e+01 4.154212772846221924e-01 -1.945652704704245450e-13 8.116778767392005683e-15 -5.593454912027236159e-14 -2.118176646451544465e-13
4.114000000000000000e+03 5.887367248535156250e+01 1.503587245941162109e+00 1.157004739005306274e-14 4.958591859598876495e-15 4.958591859598876495e-15 1.896033650179360097e-13
4.115000000000000000e+03 4.792613601684570312e+01 -6.092015743255615234e+00 -3.966832491284454087e-14 -1.700071019291454766e-14 -1.700071019291454766e-14 2.648670120240065838e-15
4.116000000000000000e+03 3.427368164062500000e+01 7.557687282562255859e+00 3.394063391340233771e-14 1.454598668891495666e-14 1.454598668891495666e-14 2.450331002893367006e-15
4.117000000000000000e+03 6.800405883789062500e+01 9.127427101135253906e+00 -9.015750250312634662e-14 -3.434977793198047691e-14 -3.735218446934522596e-14 1.150927904413137637e-13
4.118000000000000000e+03 3.164963150024414062e+01 -8.330971002578735352e-01 -2.267835509770117774e-14 3.105373488736240528e-13 8.635769914921639923e-14 9.611286240626334965e-14
4.119000000000000000e+03 6.092773818969726562e+01 4.673070430755615234e+00 1.884982377435215350e-14 -3.767245440296565495e-14 -5.646788765067576807e-15 -1.124702883451879354e-14
4.120000000000000000e+03 6.370149612426757812e+01 3.140438115224242210e-03 4.535339321438090765e-14 1.943716827843954692e-14 1.943716827843954692e-14 1.669955813172682713e-13
4.121000000000000000e+03 6.475987243652343750e+01 1.283856105804443359e+01 -4.235339563871814983e-14 1.191013975811172632e-13 2.302439854984066059e-14 2.226997425580851467e-15
4.122000000000000000e+03 5.817481994628906250e+01 -5.060799121856689453e-01 -6.108039285945485175e-14 -7.192826249977773978e-14 -3.990259389726434625e-14 -1.793020755740809546e-13
4.123000000000000000e+03 3.406082534790039062e+01 5.506107330322265625e+00 1.524612887652231075e-14 -2.222206929103701101e-13 -6.209236683846208749e-14 3.441754056776082094e-14
4.124000000000000000e+03 3.634693908691406250e+01 6.889853477478027344e+00 -2.290826525057441249e-14 1.619909218767670751e-15 -6.386506873069493564e-15 -1.106269752453731270e-13
4.125000000000000000e+03 6.395803451538085938e+01 9.798174858093261719e+00 -1.483962285735510034e-13 -2.466021907076426656e-13 -1.184995162975890914e-13 5.656138060629485598e-14
4.126000000000000000e+03 6.954667663574218750e+01 7.750434398651123047e+00 -9.155771572757348542e-14 1.523430768471042973e-13 1.823560799704606467e-14 -5.322770287139073908e-15
4.127000000000000000e+03 3.070225143432617188e+01 3.230783700942993164e+00 3.362885124991339680e-14 1.516652065438120478e-13 5.558821767693081228e-14 -1.486329505653860572e-13
4.128000000000000000e+03 6.228563690185546875e+01 7.764441490173339844e+00 -3.656409146269266885e-14 -2.444250585351831484e-13 -8.429674601580228188e-14 5.623440217173217293e-14
4.129000000000000000e+03 5.443212127685546875e+01 -2.211960792541503906e+00 9.231129383569132429e-15 9.545809916177219745e-14 3.140676873300898841e-14 1.287540224177013970e-13
4.130000000000000000e+03 5.488465118408203125e+01 -1.293876886367797852e+00 -5.386223219283788055e-14 2.266713529928184728e-14 -9.358528221033862726e-15 2.064243009381253047e-13
4.131000000000000000e+03 3.463347625732421875e+01 9.150962829589843750e+00 -1.349404393563222171e-13 -5.783161493091992789e-14 -5.783161493091992789e-14 -4.624346221161930448e-14
4.132000000000000000e+03 6.729943084716796875e+01 2.070519828796386719e+01 -1.400949719594776419e-14 -1.346786180841941238e-13 -4.460643212764701937e-14 -3.031192740318949634e-15
4.133000000000000000e+03 6.426288604736328125e+01 1.817702865600585938e+01 -3.635821163453303861e-14 -1.985858851492883215e-13 -7.048323106802548144e-14 4.710624319542895677e-14
4.134000000000000000e+03 6.967556762695312500e+01 6.501296043395996094e+00 -8.133143952152727119e-14 7.952103873391097588e-14 -5.431206492134503776e-16 -5.770754154480611797e-14
4.135000000000000000e+03 6.914246368408203125e+01 6.260103702545166016e+00 -1.105793516649467012e-13 -1.640203281150936533e-15 -3.366586658970840973e-14 1.528935550891953946e-15
4.136000000000000000e+03 3.767129135131835938e+01 -9.706744194030761719e+00 5.336791054108384891e-14 -2.516337290446590824e-13 -5.947974453463303335e-14 2.650360941998386455e-13
4.137000000000000000e+03 3.758396911621093750e+01 -9.096816062927246094e+00 1.407263672590199424e-14 4.177896635419731108e-13 1.295586901650658262e-13 1.426576413422753209e-13
4.138000000000000000e+03 6.302250289916992188e+01 7.826714515686035156e+00 -1.794400809581112033e-13 -1.684047866434834617e-13 -1.043534629909838307e-13 9.362527571797618631e-14
4.139000000000000000e+03 3.291297531127929688e+01 -2.069818735122680664e+00 -1.818069823920735739e-14 3.795921910132449284e-14 5.933556428041730085e-15 -2.766268998263300694e-14
4.140000000000000000e+03 6.218561935424804688e+01 1.133273482322692871e+00 -4.459567904438162603e-15 -2.764169372993646734e-13 -8.426295278933862432e-14 1.459212626761779291e-14
4.141000000000000000e+03 5.680361557006835938e+01 -8.395904302597045898e-01 -1.774400125529457251e-13 1.545617610678243214e-14 -4.859515093384898787e-14 -1.993650876981264974e-13
4.142000000000000000e+03 3.171057319641113281e+01 3.665248870849609375e+00 -4.277088801402442741e-14 2.742056900279215420e-14 -4.605095364556503063e-15 -1.341635813946820410e-13
4.143000000000000000e+03 3.393624114990234375e+01 9.024674415588378906e+00 8.319483916065326806e-15 3.466976055202519724e-13 1.065051299649170946e-13 5.685886196550235527e-14
4.144000000000000000e+03 4.963190460205078125e+01 -3.153131723403930664e+00 8.621656313141309869e-14 1.284518552722296869e-13 6.440052484346647788e-14 1.136979609582793732e-14
4.145000000000000000e+03 5.011082077026367188e+01 -4.246441841125488281e+00 -6.891273033986233809e-14 1.992207126263328965e-13 3.909239671882024092e-14 -2.247627505934293030e-14
4.146000000000000000e+03 4.421228408813476562e+01 -1.092199683189392090e+00 1.907973223315949374e-14 -3.757392075427745670e-14 -5.548256386928799438e-15 8.878181257656811431e-14
4.147000000000000000e+03 4.542179489135742188e+01 -6.885389328002929688e+00 -2.627495694163071299e-14 2.518072556023653874e-13 6.765969078406652848e-14 5.473327683008094580e-14
4.148000000000000000e+03 3.345960235595703125e+01 5.177741050720214844e+00 -1.525729107670122792e-14 -1.094784731077956541e-13 -3.742072976356883296e-14 8.230089244658234104e-14
4.149000000000000000e+03 3.911876678466796875e+01 -1.001503944396972656e+01 2.143902460075008953e-13 4.613058660106819642e-14 7.815625181544980093e-14 2.067274032079707835e-13
4.150000000000000000e+03 6.425361633300781250e+01 1.602030181884765625e+01 -6.046028003876997847e-15 -1.398440011794038762e-13 -4.376700892439085167e-14 4.214618766289722485e-14
4.151000000000000000e+03 4.160215377807617188e+01 8.965517878532409668e-01 -9.426295091978943025e-16 -2.327945880498377001e-14 -7.266626197792967756e-15 -3.736740056920970221e-14
4.152000000000000000e+03 3.987081146240234375e+01 6.783683896064758301e-01 2.046220858769112749e-14 -8.273237780617725967e-14 -1.868105076554583965e-14 5.008843783260632371e-15
4.153000000000000000e+03 3.386574935913085938e+01 -4.170620918273925781e+00 -2.007376876484931461e-13 -4.027948967747461972e-14 -7.230515150372443522e-14 -7.625147800498222050e-14
4.154000000000000000e+03 3.239109802246093750e+01 -1.055259943008422852e+00 -2.306324178673584829e-14 -9.884246843043769520e-15 -9.884246843043769520e-15 2.199220589438246470e-14
4.155000000000000000e+03 3.219697952270507812e+01 -1.832567930221557617e+00 -9.250219134507992047e-14 9.760904785176618970e-14 1.532058561368480551e-15 5.602382300478117583e-14
4.156000000000000000e+03 6.669270324707031250e+01 2.659950017929077148e+00 -7.825613394059002803e-14 -6.070296853068549159e-14 -4.168773277426172930e-14 -1.541912078703230882e-13
4.157000000000000000e+03 3.899783325195312500e+01 2.137793302536010742e+00 1.407527608056563864e-14 1.204096365800197410e-13 4.034547354406572972e-14 -5.907828479895238516e-14
4.158000000000000000e+03 5.115144729614257812e+01 -3.450391530990600586e+00 1.267369998010636767e-13 3.745724975849629157e-13 1.503928546368188401e-13 9.799721255830673439e-14
4.159000000000000000e+03 3.694150161743164062e+01 4.536345481872558594e+00 -6.855596006247882679e-14 1.636982311314059968e-14 -1.565584210124100484e-14 -1.320145741042031556e-14
4.160000000000000000e+03 6.922232055664062500e+01 3.131870269775390625e+00 -1.346799326793282625e-13 3.378192704414119396e-14 -3.026939999649022606e-14 -1.264497539879907984e-14
4.161000000000000000e+03 6.355326080322265625e+01 9.149991035461425781e+00 -7.978712227582965277e-14 -7.994542934553969249e-14 -4.791976413115808797e-14 -9.258086376522089989e-14
4.162000000000000000e+03 6.577872467041015625e+01 9.304330825805664062e+00 -6.585267135197567234e-14 1.180950614534069520e-14 -1.621295091724320875e-14 2.347843870275506672e-14
4.163000000000000000e+03 7.029959106445312500e+01 1.617825126647949219e+01 3.013494876270665646e-14 -3.073416629702230285e-13 -8.316201324581537491e-14 -7.858416608413909543e-14
4.164000000000000000e+03 6.848893737792968750e+01 1.411407756805419922e+01 -9.422269144380643335e-14 5.112074229641355716e-14 -1.293058559125081011e-14 1.100295459670157239e-13
4.165000000000000000e+03 6.461780548095703125e+01 1.924934196472167969e+01 -6.469568533239850039e-14 -3.916445889384084778e-14 -3.115804259024544665e-14 -1.619243916739249861e-14
4.166000000000000000e+03 3.162553024291992188e+01 2.343297386169433594e+01 4.563591258360810698e-14 1.110601478945989762e-13 4.700881746583576715e-14 3.092080856699377760e-15
4.167000000000000000e+03 3.423246383666992188e+01 2.271373558044433594e+01 -8.371799889612951961e-14 5.562275629238805363e-14 -8.428572442309260893e-15 6.483544576869545994e-14
4.168000000000000000e+03 6.399563598632812500e+01 2.291891479492187500e+01 9.065280671309919325e-14 1.303530986493731114e-13 6.630177499687348042e-14 1.050212264971494419e-14
4.169000000000000000e+03 6.492264556884765625e+01 2.597832489013671875e+01 3.805643815487855242e-14 -1.095052054676109998e-13 -2.143463121025927093e-14 4.678679657783325896e-14
4.170000000000000000e+03 6.573667907714843750e+01 1.877152061462402344e+01 1.354719169553405059e-14 -1.657601193891938829e-13 -4.566387822339465496e-14 1.071572148912290287e-14
4.171000000000000000e+03 6.358484649658203125e+01 3.038631057739257812e+01 5.349617165808888408e-14 -4.569949426476080379e-14 2.339003345053366177e-15 4.212043447316890510e-14
4.172000000000000000e+03 2.117362976074218750e+01 3.008940505981445312e+01 1.211868672361567090e-14 9.669562107397430828e-14 3.264429064521109924e-14 -5.363167405975999627e-15
4.173000000000000000e+03 1.937764549255371094e+01 3.095861434936523438e+01 3.503078564530935635e-14 1.293905710656947927e-13 4.932640464160899241e-14 -1.854999105168307627e-14
4.174000000000000000e+03 6.644802093505859375e+01 2.626067924499511719e+01 7.948740813777319114e-14 -8.031134080248997220e-14 -2.471806782117170944e-16 -1.494291649239368885e-14
4.175000000000000000e+03 6.093103027343750000e+01 3.091768836975097656e+01 3.730897223650810057e-14 1.598955952993204310e-14 1.598955952993204310e-14 4.780791851267084114e-14
4.176000000000000000e+03 2.761780166625976562e+01 3.187273216247558594e+01 7.383525214843533746e-15 9.466626565762456536e-14 3.061493861699314534e-14 3.598918648446865209e-14
4.177000000000000000e+03 2.231354331970214844e+01 3.152118110656738281e+01 -2.599013237223756108e-15 1.675927598738732871e-13 4.949812532507175122e-14 3.110095934586408484e-14
4.178000000000000000e+03 2.984091377258300781e+01 2.853930282592773438e+01 -3.760379391226122137e-14 1.819730008497354168e-14 -5.821947555263240828e-15 1.003841700383941923e-14
4.179000000000000000e+03 4.314227294921875000e+01 -5.957903385162353516e+00 5.200482446478076060e-14 -6.921411821502257422e-14 -5.162787362742891559e-15 -1.475108690794993405e-13
4.180000000000000000e+03 4.350394439697265625e+01 -7.200349807739257812e+00 -1.022795807466628237e-13 -3.183398098079159855e-13 -1.261858185216263584e-13 -1.792389479025879861e-13
4.181000000000000000e+03 3.524164199829101562e+01 -8.210778236389160156e+00 6.492790788521773937e-14 2.210737696422063192e-14 2.611058511601833249e-14 1.022293144234409645e-13
4.182000000000000000e+03 3.511487579345703125e+01 -6.512369632720947266e+00 -3.465682737536016078e-14 -1.485292601801149748e-14 -1.485292601801149748e-14 -2.873670404282893664e-14
4.183000000000000000e+03 6.307896041870117188e+01 3.801983222365379333e-02 -6.200679618199866905e-14 -2.553290966243043636e-13 -9.520076377613276297e-14 -2.536911924023305120e-13
4.184000000000000000e+03 6.427885437011718750e+01 1.192600488662719727e+00 -1.670552124367549740e-13 -2.545988864611353764e-13 -1.264962256036089583e-13 1.096790564389361032e-15
4.185000000000000000e+03 3.410382461547851562e+01 -3.460329532623291016e+00 -2.717186488288524104e-14 7.985680937046615857e-14 1.580548402390063306e-14 -1.129424753319643177e-14
4.186000000000000000e+03 3.835091781616210938e+01 1.321419119834899902e+00 1.255657090890732741e-13 9.956481982192205704e-14 6.753915460754045252e-14 2.897823379367260588e-15
4.187000000000000000e+03 3.959130477905273438e+01 -3.355728626251220703e+00 -2.595150894039218586e-14 1.718817145904272259e-13 4.377906389729617487e-14 3.184037167497204279e-14
4.188000000000000000e+03 3.660363769531250000e+01 -8.429482460021972656e+00 -8.173487792617270542e-14 1.022236155857718376e-13 6.146621636692918556e-15 4.534609517850736460e-14
4.189000000000000000e+03 4.490208435058593750e+01 -1.724612116813659668e+00 -5.611017631968785724e-14 2.170373018947017313e-14 -1.032193417787848413e-14 1.490757793902106054e-13
4.190000000000000000e+03 5.762242889404296875e+01 -1.360196113586425781e+00 -2.602682880412793276e-13 1.629621323951876977e-13 -2.919184872670656239e-14 -1.658050866742977192e-13
4.191000000000000000e+03 3.823940277099609375e+01 7.139225602149963379e-01 -3.431315900360477900e-14 -1.290830100144149672e-13 -4.901885036659274497e-14 -7.346381803666895971e-14
4.192000000000000000e+03 5.734484481811523438e+01 -1.016613617539405823e-01 4.539565677031710822e-14 2.024590754377483814e-13 7.435642135648554141e-14 -2.377717163784542898e-13
4.193000000000000000e+03 6.306581497192382812e+01 7.199960708618164062e+00 -2.900786300616756130e-14 -2.411866821712405073e-13 -8.105836287559606279e-14 1.466967382800481862e-14
4.194000000000000000e+03 5.370745849609375000e+01 -1.643473505973815918e+00 2.398356680085016873e-14 -3.547227615807724277e-14 -3.446613273036243201e-15 2.301658890606697594e-14
4.195000000000000000e+03 3.621782684326171875e+01 -8.077363014221191406e+00 8.362349712427025183e-14 2.245613092179132853e-13 9.245544190265506113e-14 -1.529198554622076406e-14
4.196000000000000000e+03 4.156780242919921875e+01 -6.876816749572753906e+00 5.557678950840645726e-14 6.956957389727194685e-14 3.754390868289034233e-14 1.986806918530086008e-14
4.197000000000000000e+03 3.890135574340820312e+01 -8.696426391601562500e+00 2.057746690192286190e-15 8.818914235282485949e-16 8.818914235282485949e-16 -8.449423111217991157e-16
4.198000000000000000e+03 3.944161605834960938e+01 -7.639854431152343750e+00 6.805223973314206143e-14 -9.664986096603184196e-14 -8.579285861647165806e-15 6.011799402478451571e-14
4.199000000000000000e+03 6.498200225830078125e+01 1.545288658142089844e+01 4.749716922937755048e-14 -8.830257488753878725e-14 -1.224162085041542378e-14 1.290646209291300764e-14
4.200000000000000000e+03 6.687352752685546875e+01 8.746086955070495605e-01 -6.683310182402715793e-14 -2.573975104239178968e-13 -9.726918435200987423e-14 -2.328753509472925032e-13
4.201000000000000000e+03 4.076720428466796875e+01 -5.992572009563446045e-02 5.423339779515997869e-15 4.807523872269250931e-14 1.604957350831090479e-14 -4.534833473361990497e-14
4.202000000000000000e+03 6.605847167968750000e+01 1.184881687164306641e+00 -8.272899645065182050e-14 -2.642100405646219397e-13 -1.040817077164503390e-13 -1.893737716553850481e-13
4.203000000000000000e+03 6.887772369384765625e+01 8.061892986297607422e-01 -2.378784289772811755e-13 -3.307026419201164469e-13 -1.705743294007355804e-13 -2.752579929396134495e-14
4.204000000000000000e+03 5.886834335327148438e+01 6.762915849685668945e-01 1.343014783584950411e-15 6.348313395148144633e-14 1.944784428170674012e-14 7.876799256248401271e-14
4.205000000000000000e+03 4.324250030517578125e+01 -7.635045051574707031e+00 3.745539712803405696e-14 2.676825232826585133e-13 9.154137815608684448e-14 -1.284980558373047255e-13
4.206000000000000000e+03 6.437303924560546875e+01 5.508638024330139160e-01 -7.043215836943783614e-14 1.556573981850977589e-14 -1.645992539587182862e-14 1.042878060791103609e-14
4.207000000000000000e+03 5.926556015014648438e+01 1.838784098625183105e+00 -7.659250702207395789e-14 -2.158291584732421886e-13 -8.772649761571577054e-14 -6.917264748192500368e-14
4.208000000000000000e+03 6.735157012939453125e+01 6.398732662200927734e+00 -1.353561614327687332e-14 -5.155192611227925326e-14 -1.952626259196354325e-14 8.840331992749402967e-16
4.209000000000000000e+03 6.846186065673828125e+01 2.782018899917602539e+00 -1.337785134405966581e-13 2.171720377315555783e-13 2.501805830372721279e-14 -4.272736576712860695e-15
4.210000000000000000e+03 4.686436080932617188e+01 -6.045595645904541016e+00 4.895092848861831714e-14 -7.052292642006560697e-14 -6.471600226467134204e-15 3.602512439835475755e-14
4.211000000000000000e+03 4.860683441162109375e+01 -5.927248477935791016e+00 -6.429371060068592159e-14 -1.190563489808504904e-13 -5.500501516395549240e-14 -3.487475201202974717e-14
4.212000000000000000e+03 6.363707733154296875e+01 7.739714622497558594e+00 -1.214134180563611332e-13 -2.350381174409665874e-13 -1.069354633597037474e-13 -8.152918444526147113e-14
4.213000000000000000e+03 5.624974060058593750e+01 -1.587799787521362305e+00 -1.255343214361798188e-13 3.579581292836864215e-13 6.972714235425198082e-14 -1.266613495944785006e-13
4.214000000000000000e+03 3.731381607055664062e+01 2.239661693572998047e+00 1.670393356511916394e-14 -6.146759533656731556e-14 -1.342909836202785603e-14 -1.124599816482857451e-13
4.215000000000000000e+03 5.063364028930664062e+01 -2.846847534179687500e+00 -2.621177201071051011e-13 2.510800541002250474e-13 -3.311295524547632450e-15 -7.476075422792327618e-15
4.216000000000000000e+03 3.802602386474609375e+01 2.596767663955688477e+00 -6.013546323228868840e-14 6.572955341902636528e-14 1.678227013669655703e-15 -4.360533743981431787e-14
4.217000000000000000e+03 6.830836486816406250e+01 1.117078876495361328e+01 -4.729868399884745028e-15 -5.921577518695070319e-14 -1.918369197490780304e-14 -1.148286737098986113e-14
4.218000000000000000e+03 6.785940551757812500e+01 1.182188224792480469e+01 -1.115197615243063156e-13 3.226997662142405687e-14 -2.377493580967785652e-14 6.541312901498647081e-14
4.219000000000000000e+03 4.257981491088867188e+01 -7.071603536605834961e-01 1.005467749532786004e-14 -6.431727844541032524e-14 -1.627877892977202395e-14 3.536645124977907950e-14
4.220000000000000000e+03 4.514734268188476562e+01 -6.136471748352050781e+00 -2.251315148573459352e-14 -2.384032370388727839e-13 -7.827491774322833940e-14 -2.930825138245003736e-14
4.221000000000000000e+03 5.124189376831054688e+01 -2.436807394027709961e+00 1.522909267226077445e-13 3.168977667084016403e-13 1.407566012530392374e-13 1.242537363689392993e-14
4.222000000000000000e+03 5.143886947631835938e+01 -1.475898504257202148e+00 -1.214876316950677659e-14 2.464235955047799909e-13 7.028245037820832208e-14 1.498984550580336611e-14
4.223000000000000000e+03 5.945431900024414062e+01 3.461301326751708984e+00 -6.543828250538813451e-14 -7.379592949089200382e-14 -4.177026088837861029e-14 -4.119334674800370633e-14
4.224000000000000000e+03 4.905498504638671875e+01 -3.363466978073120117e+00 -7.455225537389073565e-14 2.196792552554283073e-13 4.353809657632948249e-14 1.604887690841508285e-13
4.225000000000000000e+03 4.778543853759765625e+01 -2.438414335250854492e+00 1.157970695378355078e-14 5.071368197888566354e-14 1.868801676450405902e-14 9.494148360284643262e-14
4.226000000000000000e+03 4.765559005737304688e+01 -5.446200847625732422e+00 -1.364577802967156805e-13 -6.991964244997678213e-14 -6.191322953451317002e-14 1.343632372247452467e-13
4.227000000000000000e+03 4.777562332153320312e+01 -4.467813968658447266e+00 2.657764585939793173e-14 -1.673242301008029398e-13 -4.222397239250948175e-14 2.639521867948187855e-14
4.228000000000000000e+03 6.905248260498046875e+01 8.183339118957519531e+00 -4.802881792905118463e-15 -2.100212941112764714e-14 -7.741503361209829681e-15 -1.361317302102631882e-14
4.229000000000000000e+03 6.863660430908203125e+01 6.161732673645019531e+00 -3.934326077274265254e-14 -1.686139699001373837e-14 -1.686139699001373837e-14 1.651530949216099831e-14
4.230000000000000000e+03 5.063924026489257812e+01 -3.901947021484375000e+00 -2.628238880870992222e-13 1.618668849130699972e-13 -3.028710298508784093e-14 2.347193857191783722e-14
4.231000000000000000e+03 6.644778442382812500e+01 1.981862449645996094e+01 -2.034348252057333398e-15 -5.091196222744252819e-14 -1.588389386382796364e-14 2.223099634067471353e-14
4.232000000000000000e+03 6.802664947509765625e+01 8.160416603088378906e+00 -1.209431165649253390e-14 9.113894941471453737e-15 -8.941250145063240479e-16 -1.545594232568898996e-14
4.233000000000000000e+03 3.532458877563476562e+01 -5.398606300354003906e+00 -1.731065310084205222e-14 -7.418850723908774342e-15 -7.418850723908774342e-15 -5.717143067556634817e-14
4.234000000000000000e+03 3.907811737060546875e+01 -9.386258125305175781e+00 2.184613845076024963e-14 -2.193921178625726776e-13 -5.926379179066465497e-14 2.003499498465580175e-13
4.235000000000000000e+03 3.568028640747070312e+01 7.124739646911621094e+00 5.267017562111259155e-14 2.257293337708590752e-14 2.257293337708590752e-14 -6.659735561414734106e-14
4.236000000000000000e+03 3.240810775756835938e+01 5.151791572570800781e+00 5.538626469351465298e-14 8.614966701033779581e-16 1.687432948905241703e-14 -8.464337900287305372e-14
4.237000000000000000e+03 6.849844360351562500e+01 4.808013439178466797e+00 -1.739117069755533040e-13 1.542211589553380002e-13 -5.907164998987654222e-15 5.015308508120666642e-14
4.238000000000000000e+03 6.888236999511718750e+01 5.390925884246826172e+00 -1.047679196002071489e-13 -2.279043381965550896e-13 -9.980167733902867155e-14 -9.129586226819339650e-15
4.239000000000000000e+03 3.498080062866210938e+01 7.350835323333740234e+00 -4.489767932436272702e-14 2.552638276535207362e-13 6.310984314349468716e-14 -9.585180685191957428e-15
4.240000000000000000e+03 6.417247009277343750e+01 1.818760395050048828e+00 -1.594337421145005512e-14 8.466902038425233590e-14 2.061769503768681039e-14 -1.096553132583916179e-13
4.241000000000000000e+03 6.208321380615234375e+01 5.635848522186279297e+00 -5.963568668835433906e-14 -7.130910174412558034e-14 -3.928343652974397582e-14 1.134839225087717896e-13
4.242000000000000000e+03 3.105342674255371094e+01 1.081175565719604492e+00 -9.609085987842547194e-14 9.607104608372329935e-14 -5.943119406855173985e-18 1.976975237704715893e-14
4.243000000000000000e+03 3.642286300659179688e+01 5.438989162445068359e+00 -1.083782789532659885e-13 9.080500836932542397e-14 -5.271981344588758805e-15 -2.861162099344199961e-14
4.244000000000000000e+03 4.369464874267578125e+01 -6.653586387634277344e+00 8.090616121936983207e-14 -1.107688024420613870e-14 2.094878327610957131e-14 -2.251942461174195886e-14
4.245000000000000000e+03 6.532318115234375000e+01 1.217377185821533203e+01 -7.579761064678905425e-14 -8.395451082379365437e-14 -4.792563576354845478e-14 1.421673990011952660e-14
4.246000000000000000e+03 3.364989852905273438e+01 -2.260949611663818359e+00 -7.737698828023942266e-14 -3.316156350170393341e-14 -3.316156350170393341e-14 -2.837854632547782280e-14
4.247000000000000000e+03 6.856697082519531250e+01 7.749576568603515625e+00 -4.680110465837827860e-14 1.057574912518254029e-13 1.768691530040777948e-14 4.112055951278024979e-14
4.248000000000000000e+03 6.856627655029296875e+01 9.566764831542968750e+00 -9.233034530074096802e-14 -1.367909149667390079e-13 -6.873637808024399276e-14 1.253550350544321845e-13
4.249000000000000000e+03 6.610161590576171875e+01 1.273702144622802734e+01 1.421217947473150944e-14 6.090933879092158207e-15 6.090933879092158207e-15 -2.280397558949314764e-15
4.250000000000000000e+03 6.814423370361328125e+01 7.238362789154052734e+00 -4.525667560433162262e-14 1.178571265103914301e-13 2.178013594944430004e-14 4.298491968726843304e-14
4.251000000000000000e+03 6.800545501708984375e+01 1.602615165710449219e+01 -4.474484154639310832e-15 -2.479311006985899374e-14 -8.780278309701138734e-15 4.437243758190212439e-14
4.252000000000000000e+03 6.386959457397460938e+01 8.234772682189941406e+00 -2.831507001522376443e-13 -2.128521968056129587e-13 -1.488008799293769058e-13 -4.761942996498423619e-14
4.253000000000000000e+03 6.515431976318359375e+01 9.859341621398925781e+00 -8.595653756913318455e-14 -1.340592811456889355e-13 -6.600474425919392041e-14 1.600226671820675212e-14
4.254000000000000000e+03 6.320813369750976562e+01 8.485929489135742188e+00 -5.300257506653770212e-14 -1.370927568515589723e-13 -5.702860059186853903e-14 -1.361022111120513758e-14
4.255000000000000000e+03 3.461325073242187500e+01 3.646089553833007812e+00 -5.427665492074330855e-14 2.741197297363023866e-13 6.595292617161269133e-14 -1.342405936302464020e-14
4.256000000000000000e+03 5.972099685668945312e+01 2.046046495437622070e+00 8.785728966716720156e-15 -3.054789765328386197e-14 -6.528651283596500349e-15 -1.472461475665598485e-13
4.257000000000000000e+03 6.126708602905273438e+01 2.646326780319213867e+00 -3.925371922582250594e-14 -6.257396944348014856e-14 -3.054830761723033306e-14 1.623864650873111520e-14
4.258000000000000000e+03 3.145632743835449219e+01 2.867094039916992188e+00 -4.716697545774709011e-14 7.128747868704807256e-14 7.236151646416652539e-15 2.262472774774461348e-14
4.259000000000000000e+03 4.827147293090820312e+01 -5.150916099548339844e+00 -2.876753943024078219e-14 -3.325855758330720224e-13 -1.084059396611915249e-13 -3.728795904315261589e-14
4.260000000000000000e+03 4.961540985107421875e+01 -4.573099613189697266e+00 -1.394615759681139266e-13 -1.341145347989042280e-13 -8.207283051960001519e-14 3.037910982140097117e-15
4.261000000000000000e+03 6.808609008789062500e+01 1.503178882598876953e+01 4.258990417825049557e-14 2.241320871303534301e-13 8.001659366563620979e-14 7.180843783092735744e-14
4.262000000000000000e+03 6.569969940185546875e+01 1.479225349426269531e+01 -5.530373996752956101e-14 -1.824002103870125957e-13 -7.131118205704403690e-14 2.260758041276039743e-14
4.263000000000000000e+03 3.601771926879882812e+01 6.225529193878173828e+00 1.472991142308175544e-14 3.723204199373303380e-13 1.161150982222775019e-13 -1.179943187427923146e-13
4.264000000000000000e+03 3.322912216186523438e+01 7.083954811096191406e+00 -6.906440344752948213e-14 1.991557147060923905e-13 3.902739541044794591e-14 2.967975325685219545e-14
4.265000000000000000e+03 4.900185775756835938e+01 -4.895362377166748047e+00 -3.451225579192279680e-14 1.110241456062088794e-13 2.295356626665946698e-14 6.568178076080122274e-14
4.266000000000000000e+03 5.017659378051757812e+01 -4.869947433471679688e+00 1.992531675407398922e-14 5.429037007822525018e-14 2.226470655790954017e-14 4.609842306599505612e-14
4.267000000000000000e+03 3.370235443115234375e+01 -1.511510968208312988e+00 5.511177180849563539e-14 1.151212236432871960e-13 5.106989999078756504e-14 -3.978315547543791186e-14
4.268000000000000000e+03 3.308797073364257812e+01 -1.307427167892456055e+00 -3.346750163785681964e-14 1.000341573898638758e-13 1.996999604797575906e-14 -3.145217647524539695e-14
4.269000000000000000e+03 4.354025268554687500e+01 -1.234177231788635254e+00 -2.855612339473789785e-14 -2.409930707682889084e-13 -8.086476502517161991e-14 -2.499846981978900984e-14
4.270000000000000000e+03 3.456389999389648438e+01 8.314853668212890625e+00 1.421999420070287762e-14 1.204716529442859119e-13 4.040749668459547861e-14 -4.555984817791172356e-16
4.271000000000000000e+03 3.702018737792968750e+01 2.726135969161987305e+00 -7.294313671959637424e-14 -1.456387229781599957e-13 -6.557455994220598439e-14 -6.834758318119069087e-14
4.272000000000000000e+03 4.639728927612304688e+01 -5.735520839691162109e+00 -1.658758681355020775e-14 -1.443618174220423489e-13 -4.828481839076574633e-14 2.494026578141184114e-13
4.273000000000000000e+03 4.515122985839843750e+01 -5.311396598815917969e+00 -1.903448915412803144e-13 -8.157638789734605878e-14 -8.157638789734605878e-14 1.623656721225219535e-13
4.274000000000000000e+03 3.383634948730468750e+01 -5.652375221252441406e+00 -1.188853025356137461e-13 1.434906880815045582e-13 7.381613461481580790e-15 -6.421497380604095084e-15
4.275000000000000000e+03 3.507530975341796875e+01 -3.625282049179077148e+00 1.229066897085254184e-13 2.814290413124392876e-13 1.213007152405312650e-13 -1.459933112986713799e-14
4.276000000000000000e+03 6.973886871337890625e+01 2.936734199523925781e+00 -1.977063532419137681e-13 -1.190445040721160863e-13 -9.502525854946167194e-14 5.680907040424743211e-16
4.277000000000000000e+03 6.464601898193359375e+01 9.321230888366699219e+00 -1.104329098327617997e-13 7.848671663762338269e-14 -9.583857619728346211e-15 -2.101629180200573904e-14
4.278000000000000000e+03 3.180741500854492188e+01 -7.726967334747314453e-03 -1.369137144153001473e-13 -1.273037258291490059e-13 -7.926522800757659915e-14 4.192045338245395381e-14
4.279000000000000000e+03 6.070051193237304688e+01 3.309389352798461914e+00 -1.622460270246563890e-14 3.879754793801280799e-14 6.771883147147677098e-15 -2.849212158524336291e-14
4.280000000000000000e+03 6.244859313964843750e+01 1.755785942077636719e+00 9.149472358135207761e-14 -2.352936638930214208e-13 -4.313968277112716077e-14 -1.122250282612445582e-13
4.281000000000000000e+03 6.689182281494140625e+01 1.327367115020751953e+01 2.985165689943156120e-14 -7.870832756167941979e-14 -1.465700221511389428e-14 5.284695817346814206e-14
4.282000000000000000e+03 6.401075744628906250e+01 2.797290420532226562e+01 6.028676364545904054e-14 -9.997792795469334637e-14 -1.190734946217688120e-14 4.547723070181890724e-16
4.283000000000000000e+03 6.898283386230468750e+01 1.518182945251464844e+01 -7.974540759724327299e-15 6.520876368173653126e-14 1.717026755423001899e-14 7.384946874942205364e-14
4.284000000000000000e+03 6.031724166870117188e+01 2.805614662170410156e+01 -1.194711935311636511e-14 -6.802775031657104510e-14 -2.399246064679633889e-14 4.034469766188604478e-14
4.285000000000000000e+03 3.158781051635742188e+01 2.182168388366699219e+01 -2.722531435592288190e-14 1.255848588099447993e-13 2.950786316679998578e-14 5.410117341099474064e-14
4.286000000000000000e+03 6.413109588623046875e+01 2.418421363830566406e+01 -7.304440289657241486e-15 -1.403833239975796343e-13 -4.430632835443482076e-14 2.882634723370275376e-14
4.287000000000000000e+03 6.531763458251953125e+01 2.259612846374511719e+01 2.241166169206047776e-14 3.248047108508032854e-14 1.646764017195542079e-14 4.112390359885600977e-14
4.288000000000000000e+03 6.485471343994140625e+01 2.141391181945800781e+01 7.468970510430758547e-14 1.463872426055168319e-13 6.632308634582639861e-14 2.706938406066283775e-14
4.289000000000000000e+03 6.228585815429687500e+01 3.697555160522460938e+01 1.222009604915979750e-14 -6.200553071477547112e-15 1.805862808601380390e-15 1.684798612911809785e-15
4.290000000000000000e+03 3.239392089843750000e+01 2.797159767150878906e+01 -4.478698905881553505e-14 3.799426254841829775e-14 -2.037818334283997453e-15 -5.895755888704612424e-15
4.291000000000000000e+03 3.051260948181152344e+01 3.136903762817382812e+01 1.549666936385887123e-14 1.667697555572666968e-13 5.467992730693108094e-14 -2.889263264402308629e-14
4.292000000000000000e+03 4.318791580200195312e+01 -6.545956611633300781e+00 -2.607083555386958268e-14 -2.856788969881479678e-13 -9.352492603064907484e-14 -2.487880778126450032e-13
4.293000000000000000e+03 3.822714233398437500e+01 1.945168256759643555e+00 1.430926300301400833e-14 5.188348868915247658e-14 1.985782686290266108e-14 4.382980794710028549e-14
4.294000000000000000e+03 3.631555175781250000e+01 -7.214516997337341309e-01 3.624451948422077741e-14 1.553336621926571653e-14 1.553336621926571653e-14 -7.572801503171085191e-15
4.295000000000000000e+03 3.582509231567382812e+01 -7.643769741058349609e+00 -1.431485409809224452e-13 -1.559842512587842484e-14 -4.762408864619413484e-14 4.538571514461518450e-15
4.296000000000000000e+03 3.669379043579101562e+01 -7.678645610809326172e+00 -8.346535268488608494e-14 -1.272727583045973887e-13 -6.322143465209775770e-14 4.369356777973211481e-14
4.297000000000000000e+03 4.727515411376953125e+01 -2.861588001251220703e+00 1.461356297744690474e-14 1.435158009143247537e-13 4.743880865931172919e-14 1.293323494090323211e-13
4.298000000000000000e+03 3.449780654907226562e+01 -4.050924301147460938e+00 -1.647476642954726067e-13 -2.485519080862915592e-14 -5.688085771707665494e-14 -5.367883939536195748e-14
4.299000000000000000e+03 6.662889862060546875e+01 1.543193578720092773e+00 -1.436800846485106198e-13 7.049246203308465880e-15 -4.098924907716509913e-14 -9.249956215481164312e-14
4.300000000000000000e+03 6.477986907958984375e+01 1.290159106254577637e+00 -1.791795031303496794e-14 -1.906829186736069826e-13 -6.258025781608056448e-14 -8.438092753823220327e-14
4.301000000000000000e+03 3.469665527343750000e+01 6.637933731079101562e+00 -1.923362874937362111e-16 -1.830862257591256426e-13 -5.498356828973101351e-14 -2.474388898529404635e-14
4.302000000000000000e+03 3.394091415405273438e+01 6.801697254180908203e+00 5.679198702025073375e-14 2.302187032589969595e-13 8.610320301801616116e-14 1.128884651231155944e-13
4.303000000000000000e+03 5.796866989135742188e+01 8.007100224494934082e-01 -1.241327868403349632e-13 3.988922094109309535e-15 -3.604315942386769611e-14 5.784823032921326824e-14
4.304000000000000000e+03 6.127042007446289062e+01 1.209041357040405273e+00 -1.781222196649279166e-13 -1.678399986267814503e-13 -1.037886681980182413e-13 -7.505087317675324110e-14
4.305000000000000000e+03 6.099818420410156250e+01 7.064220309257507324e-01 5.019202149172605210e-14 -6.999103038677137456e-14 -5.939702922623480916e-15 -5.078144461466600756e-14
4.306000000000000000e+03 3.304502868652343750e+01 5.781156539916992188e+00 -4.795447892946835822e-14 -9.114182085640572945e-15 -1.712059754220302682e-14 4.770042664353248141e-14
4.307000000000000000e+03 4.572945022583007812e+01 -6.078713893890380859e+00 -7.289760700461556109e-14 1.060110183773339820e-13 9.934023581222115734e-15 4.654435203140655508e-14
4.308000000000000000e+03 4.506137466430664062e+01 -4.521794795989990234e+00 8.148256375184459444e-14 -1.082984986140300004e-14 2.119581365891270996e-14 7.822084315987562486e-14
4.309000000000000000e+03 4.207559585571289062e+01 -6.469334125518798828e+00 -5.585639762539394357e-15 -1.396466899365386705e-13 -4.356970106965743494e-14 -1.523240355464500206e-14
4.310000000000000000e+03 3.261973571777343750e+01 -2.750428318977355957e-01 -6.245161722831515938e-14 -4.964045396526478582e-14 -3.362762135807398356e-14 -2.197796811757206717e-15
4.311000000000000000e+03 5.934133529663085938e+01 1.042824029922485352e+00 -8.340660247966452667e-14 -1.415447620223275749e-13 -6.748540528483948364e-14 -7.069831645025587141e-14
4.312000000000000000e+03 6.841159057617187500e+01 3.722847461700439453e+00 -1.698581189981188122e-13 -2.704538931133301793e-14 -5.907105452571462245e-14 1.328579851385749966e-13
4.313000000000000000e+03 6.810520935058593750e+01 2.150724649429321289e+00 -8.142911258474105907e-14 -1.721510439625997813e-13 -7.607404831945496770e-14 -7.256091331390610803e-16
4.314000000000000000e+03 5.321586990356445312e+01 -1.497592329978942871e+00 -2.685621636102503151e-14 7.999209069653803739e-14 1.594076196184072286e-14 -4.481967775431597301e-14
4.315000000000000000e+03 4.277436828613281250e+01 -6.656876564025878906e+00 -1.659027190799300389e-13 -4.371087638978948808e-13 -1.809034421828420447e-13 -3.359181219319586076e-14
4.316000000000000000e+03 4.306533813476562500e+01 -6.980675220489501953e+00 9.796087145673773589e-14 4.198323207637265353e-14 4.198323207637265353e-14 -2.226019932619061059e-13
4.317000000000000000e+03 5.972883605957031250e+01 1.493669867515563965e+00 -4.504665547912581336e-14 -6.505665689320039302e-14 -3.303099506695057752e-14 -2.252575703005563201e-14
4.318000000000000000e+03 6.716141510009765625e+01 2.025941133499145508e+00 -7.306100304827270464e-14 -1.685647064639250736e-13 -7.248771082078026007e-14 -6.133440787594104937e-14
4.319000000000000000e+03 5.982512283325195312e+01 2.887325048446655273e+00 5.184167914287600432e-14 6.796881037596930186e-14 3.594314854971948636e-14 5.410301316655617698e-14
4.320000000000000000e+03 6.364978790283203125e+01 1.794355511665344238e+00 -1.609190753738831692e-13 -1.147162741318638601e-13 -8.269060214121867758e-14 -5.263313656439505550e-14
4.321000000000000000e+03 6.741246795654296875e+01 8.320688009262084961e-01 -1.642720519074575281e-13 -2.076551550069666296e-13 -1.115781661400853941e-13 -3.183587890634068758e-16
4.322000000000000000e+03 6.895304107666015625e+01 2.453872919082641602e+00 -1.488348967725386385e-13 7.346646077946439313e-14 -2.261052808741684239e-14 -4.290053487693117062e-14
4.323000000000000000e+03 6.279544448852539062e+01 5.777920246124267578e+00 -5.980049219483571377e-14 6.587311533919060214e-14 1.821787875042708491e-15 -3.302257555945486978e-14
4.324000000000000000e+03 4.818759918212890625e+01 -4.001946449279785156e+00 -2.744052340496357101e-14 -1.490130718470594751e-13 -5.293607959204645053e-14 6.955919266147039814e-14
4.325000000000000000e+03 4.820046997070312500e+01 -3.061943292617797852e+00 -6.186619548901803323e-14 6.498781005524756349e-14 9.364851321985116078e-16 1.732042786105336685e-13
4.326000000000000000e+03 3.710199356079101562e+01 3.588437080383300781e+00 -7.876833137566291443e-14 -4.519559436443922051e-14 -3.718917806084381938e-14 -2.857547979164855312e-14
4.327000000000000000e+03 4.677920913696289062e+01 -2.263934850692749023e+00 1.690197732207715520e-13 -6.481580138058273821e-14 3.126119087443028632e-14 -2.492406644570219210e-14
4.328000000000000000e+03 6.032763290405273438e+01 1.085450053215026855e+00 -6.013710308807457272e-14 -2.087768434695658204e-13 -8.067418261203940233e-14 -2.869268628165897242e-15
4.329000000000000000e+03 3.872467803955078125e+01 -7.933189868927001953e+00 2.320693669107280407e-15 -2.277601664126688297e-13 -6.763184034076080708e-14 -1.486867236050095492e-14
4.330000000000000000e+03 3.962923812866210938e+01 -8.450028419494628906e+00 4.901495062690358617e-15 -2.495295907834621518e-13 -7.338842532809974895e-14 1.453688108473197294e-13
4.331000000000000000e+03 4.009193801879882812e+01 -7.187186717987060547e+00 2.443381902242445364e-14 -1.039057349275923636e-13 -2.384157527977014135e-14 8.007980942855569273e-14
4.332000000000000000e+03 6.946839141845703125e+01 2.155907154083251953e+00 -2.265535442623825557e-13 -2.343472367116045119e-13 -1.382702275159325422e-13 1.893820827426635073e-14
4.333000000000000000e+03 6.760784912109375000e+01 2.623174428939819336e+00 -1.292540429071245556e-13 3.610730692302915878e-14 -2.794402181166815574e-14 -2.677612600773034840e-14
4.334000000000000000e+03 5.751606369018554688e+01 -7.374634146690368652e-01 -1.095797206500468551e-14 -2.563264813078280913e-13 -8.018533618125642248e-14 8.102234703467880994e-14
4.335000000000000000e+03 5.788989257812500000e+01 1.694647595286369324e-02 -2.262194880205126157e-13 -5.120025836137000186e-14 -8.322592018761981736e-14 1.895730209096335717e-13
4.336000000000000000e+03 4.170847320556640625e+01 -8.504040837287902832e-01 -4.739715835522934073e-14 2.562406590825793383e-15 -1.345042580460677206e-14 1.061920462588211711e-13
4.337000000000000000e+03 4.234310531616210938e+01 -5.410997390747070312e+00 3.722752154830012705e-14 -1.212981944704802362e-13 -2.522120221546721164e-14 -5.752598511475984222e-14
4.338000000000000000e+03 3.264857482910156250e+01 4.063160896301269531e+00 5.888401609843371687e-14 -6.626588790496421022e-14 -2.214561711365737456e-15 -2.753936706771046433e-14
4.339000000000000000e+03 6.712528228759765625e+01 1.137350654602050781e+01 -7.380410844103069135e-14 -7.738127765508431843e-14 -4.535561582883450293e-14 -4.081916147322464661e-15
4.340000000000000000e+03 6.747051239013671875e+01 8.658115386962890625e+00 -3.182818592017966353e-13 9.234822786032340081e-14 -6.778009143532104375e-14 3.641219812645923870e-14
4.341000000000000000e+03 6.800783538818359375e+01 6.629026889801025391e+00 -9.097564146248390826e-14 -3.898956014275999082e-14 -3.898956014275999082e-14 6.986232203637018912e-14
4.342000000000000000e+03 6.642626190185546875e+01 7.689643383026123047e+00 -1.184220636048921582e-13 -5.075231684567582668e-14 -5.075231684567582668e-14 3.399834735029645671e-14
4.343000000000000000e+03 6.554504394531250000e+01 1.343675231933593750e+01 -8.600016315404857004e-14 -1.283591153289007081e-13 -6.430778490013749904e-14 2.049501417373828654e-14
4.344000000000000000e+03 4.496031570434570312e+01 -2.371139526367187500e+00 5.761116952419931270e-14 7.044144862680332131e-14 3.841578680055350581e-14 -4.141149584840431511e-15
4.345000000000000000e+03 4.080534744262695312e+01 -8.917610049247741699e-01 -7.898968480170298623e-14 -1.253546149260903464e-13 -6.130329127359071539e-14 -8.224893205746597324e-14
4.346000000000000000e+03 3.800528335571289062e+01 3.546454012393951416e-02 -6.241584533288671577e-14 -2.674964945186507348e-14 -2.674964945186507348e-14 -5.433732619668923958e-14
4.347000000000000000e+03 3.433915328979492188e+01 -5.253096103668212891e+00 -8.874587127455021984e-14 7.717003780243446298e-15 -2.430865974007226371e-14 5.413837509803814951e-14
4.348000000000000000e+03 3.334009552001953125e+01 -6.054670214653015137e-01 -4.891668802875850930e-14 -1.582171486923591996e-13 -6.214014627295080806e-14 -1.556885351162388270e-14
4.349000000000000000e+03 6.853288269042968750e+01 8.626918792724609375e+00 9.184622192567187815e-14 1.322942813240454707e-13 6.724215097491520465e-14 7.652516451463545200e-14
4.350000000000000000e+03 6.411230468750000000e+01 6.207287788391113281e+00 -9.863793538466419930e-14 -4.227340184717945371e-14 -4.227340184717945371e-14 -7.195012272608047876e-14
4.351000000000000000e+03 6.848502349853515625e+01 5.696174144744873047e+00 -1.587428647732702647e-13 2.346924161901377953e-14 -4.058208711568353499e-14 6.723505622694900263e-14
4.352000000000000000e+03 6.483444976806640625e+01 8.330860137939453125e+00 -3.008310289244475744e-13 -2.204294825012068082e-13 -1.563781520724435992e-13 1.730964851976660862e-14
4.353000000000000000e+03 6.633425903320312500e+01 9.792497634887695312e+00 -1.738908631887872702e-13 -1.567333909142584747e-13 -9.918728029667187029e-14 1.102998511211435162e-13
4.354000000000000000e+03 4.979781723022460938e+01 -3.714210271835327148e+00 -1.049303940720176798e-13 1.837845739309507120e-13 2.365625294124037298e-14 1.056330926050598473e-13
4.355000000000000000e+03 3.657045364379882812e+01 3.915031671524047852e+00 1.058305597019873479e-13 -2.327047009134750738e-14 2.476802603615900489e-14 -3.469158537235074100e-15
4.356000000000000000e+03 6.645626068115234375e+01 1.553179931640625000e+01 -5.168643833243502517e-14 -1.479664372798505934e-13 -5.989586132843296995e-14 1.258787267265993118e-14
4.357000000000000000e+03 6.443296051025390625e+01 7.874292850494384766e+00 -8.495100781678865953e-14 -1.393472061914438620e-13 -6.728946284721704085e-14 -3.897403233477092499e-14
4.358000000000000000e+03 6.421944427490234375e+01 8.774168014526367188e+00 -1.283928340164650073e-13 -2.380292957095825335e-13 -1.099266416283196934e-13 4.985965253948704268e-14
4.359000000000000000e+03 6.705581665039062500e+01 1.643650054931640625e+01 -1.166023386785924876e-13 -4.221483460107450236e-15 -3.624714867448905475e-14 9.830325572654508015e-14
4.360000000000000000e+03 6.376483154296875000e+01 1.163780093193054199e+00 -2.051098955393668155e-13 -1.927781597007259540e-14 -6.731631040351321316e-14 -9.723848787800137838e-14
4.361000000000000000e+03 3.241705703735351562e+01 3.368980169296264648e+00 -8.175522704569754273e-14 -1.265398511885243438e-13 -6.248852075976113474e-14 1.886924454576680010e-14
4.362000000000000000e+03 6.862425994873046875e+01 1.775753855705261230e+00 -2.120061531928410514e-13 -1.823616805523078921e-13 -1.183103501235446831e-13 -2.799319376832216238e-14
4.363000000000000000e+03 4.444918441772460938e+01 -6.115469932556152344e+00 -6.820151743163437030e-15 1.343299251129956295e-13 3.825293285798260501e-14 1.388671756795759049e-13
4.364000000000000000e+03 3.982111740112304688e+01 -1.761747449636459351e-01 5.443970198682618333e-14 4.620677552060782622e-14 3.019394291341702397e-14 4.931046686967345549e-14
4.365000000000000000e+03 6.801284027099609375e+01 3.202224731445312500e+00 1.686015693377895808e-14 -8.427611906947074516e-14 -2.022478694664164162e-14 8.423767054992897796e-14
4.366000000000000000e+03 3.803244781494140625e+01 -8.180581092834472656e+00 6.057416531259421366e-14 3.084881288405953020e-15 1.909771304856380802e-14 -5.257636164000649426e-14
4.367000000000000000e+03 3.844126129150390625e+01 -1.866891622543334961e+00 -1.391876641476967255e-14 2.227895602377460982e-13 6.266124094210165363e-14 -7.869699764897694627e-14
4.368000000000000000e+03 3.297393035888671875e+01 1.706786632537841797e+00 6.949010187802875937e-14 1.670343144398803159e-13 7.095732557299908039e-14 -1.081123715942003405e-13
4.369000000000000000e+03 3.120003128051757812e+01 2.006227016448974609e+00 -6.757979863648150287e-14 1.540410187643795337e-13 2.593836807124848265e-14 -1.181686177945465155e-13
4.370000000000000000e+03 6.641676330566406250e+01 1.089197158813476562e+01 -7.782615291150943304e-14 -2.621088025442364078e-13 -1.019804900248555413e-13 1.353205877430499471e-13
4.371000000000000000e+03 4.546894073486328125e+01 -2.296958923339843750e+00 3.791787034097132691e-14 1.992543093411527910e-13 7.115165525988995099e-14 3.072930365027870536e-13
4.372000000000000000e+03 4.430807113647460938e+01 -1.801578760147094727e+00 1.248899394274902153e-13 -8.372858341983840935e-14 1.234840798814166793e-14 -8.738031694423883250e-15
4.373000000000000000e+03 4.673938369750976562e+01 -5.271456718444824219e+00 8.549103536637653322e-14 -1.034732670097786300e-13 -5.394669831833807938e-15 -5.462511411084836066e-14
4.374000000000000000e+03 4.381417846679687500e+01 -4.512603759765625000e+00 -1.397684068769932189e-14 -5.990074701447273275e-15 -5.990074701447273275e-15 -2.764154804026953960e-14
4.375000000000000000e+03 6.347045135498046875e+01 5.962541103363037109e+00 -1.553825868156905737e-14 3.909169537553991436e-14 7.066031008191257096e-15 -3.054423677688582889e-15
4.376000000000000000e+03 6.384525299072265625e+01 6.770782470703125000e+00 5.383018046611377783e-14 6.882102716486079852e-14 3.679536195047919400e-14 -3.698475512935346654e-14
4.377000000000000000e+03 6.739185333251953125e+01 1.252475738525390625e+01 -9.177894209867146907e-15 -3.824659366340535382e-14 -1.422734644668504495e-14 4.037530943259981520e-14
4.378000000000000000e+03 6.768776702880859375e+01 1.374415302276611328e+01 3.970124400130663200e-14 1.701481837368401528e-14 1.701481837368401528e-14 -3.200672386361510385e-15
4.379000000000000000e+03 6.276254272460937500e+01 6.189609169960021973e-01 -3.266281694983344530e-14 2.746344750464806139e-14 -1.559811384127030888e-15 -1.124359055837929888e-13
4.380000000000000000e+03 6.327120971679687500e+01 9.958561062812805176e-01 -1.143950792382650294e-13 -1.405283631432038827e-13 -7.647703271444067363e-14 -1.130574600545540889e-14
4.381000000000000000e+03 3.449583435058593750e+01 -6.969578742980957031e+00 -6.073422065830738625e-14 -2.602894977462785753e-14 -2.602894977462785753e-14 4.008869042390790505e-14
4.382000000000000000e+03 3.546076583862304688e+01 -7.120917797088623047e+00 4.375935682874535632e-15 5.906408852675640309e-14 1.903200700877939744e-14 1.053017265398303870e-13
4.383000000000000000e+03 3.297546768188476562e+01 4.686908721923828125e+00 -4.314785833313405927e-15 -1.391020409751905773e-13 -4.302504872017755277e-14 1.168177425452110452e-13
4.384000000000000000e+03 6.717102050781250000e+01 1.465858554840087891e+01 -6.121732759383977096e-14 -2.623599850825469870e-14 -2.623599850825469870e-14 3.941646813630794721e-14
4.385000000000000000e+03 6.596935272216796875e+01 3.234864807128906250e+01 5.238559287962588074e-14 -1.186224411070264245e-14 1.215700480008356094e-14 2.004423340360491496e-14
4.386000000000000000e+03 6.585684967041015625e+01 3.439675140380859375e+01 3.119959463850595360e-14 -4.381743110167500566e-14 -3.785350854247420890e-15 -3.858573040889292510e-15
4.387000000000000000e+03 4.303563308715820312e+01 -5.191648483276367188e+00 -2.667666401093195944e-14 -1.944366569877134521e-13 -6.633399613018703400e-14 -7.968328281275985359e-14
4.388000000000000000e+03 6.231327819824218750e+01 4.922661304473876953e+00 -1.017016738836737377e-13 -4.358643166443160188e-14 -4.358643166443160188e-14 1.879546119979737251e-14
4.389000000000000000e+03 4.258416748046875000e+01 -6.119471073150634766e+00 3.645935075656699109e-14 -7.587645924978306256e-14 -1.182513390321753705e-14 -1.529087423899396642e-14
4.390000000000000000e+03 6.887014770507812500e+01 3.910567522048950195e+00 -5.889476325246847943e-14 1.577631796902123629e-13 2.966052560894952284e-14 -9.308015919444120878e-14
4.391000000000000000e+03 6.526901245117187500e+01 1.504645943641662598e+00 -1.161516764930717316e-13 -1.412811924741963487e-13 -7.722986204543313971e-14 -8.015789231376538315e-14
4.392000000000000000e+03 6.503884124755859375e+01 4.347165107727050781e+00 5.022147113323618961e-14 1.587763395153457546e-13 6.269934387220094107e-14 -1.008079728091575145e-13
4.393000000000000000e+03 6.024861907958984375e+01 3.166626214981079102e+00 4.237801041616535980e-14 -2.758894390611325853e-14 4.436720461235398733e-15 3.056721678074483806e-14
4.394000000000000000e+03 4.284639739990234375e+01 -1.512972831726074219e+00 1.025563945019573181e-14 6.158395733472932232e-14 2.155187920488410569e-14 8.074475062094105260e-14
4.395000000000000000e+03 3.639980316162109375e+01 -7.202206134796142578e+00 -3.031610878133361719e-14 -1.299261889617592605e-14 -1.299261889617592605e-14 -1.077532465652234622e-14
4.396000000000000000e+03 3.786994171142578125e+01 -7.439529418945312500e+00 -7.292475271650916691e-14 -2.600082150451543672e-13 -9.987988897324634463e-14 -2.442008692428356692e-14
4.397000000000000000e+03 3.549840164184570312e+01 -1.029347181320190430e-01 -4.318057752182059839e-14 -1.557588015814112548e-13 -5.968181271453001924e-14 1.498212395345619591e-14
4.398000000000000000e+03 3.752339553833007812e+01 1.676257729530334473e+00 7.384314649550374754e-14 3.164706181574966637e-14 3.164706181574966637e-14 -1.782369960174126633e-13
4.399000000000000000e+03 6.806230926513671875e+01 4.229324340820312500e+00 -8.914375314306166587e-14 -1.297063585009583520e-13 -6.565503484845872095e-14 7.479746124772548854e-14
4.400000000000000000e+03 3.773719024658203125e+01 1.076483964920043945e+00 8.128281983035487435e-14 8.058644355123101288e-14 4.856078172498119738e-14 -3.215192055736754151e-14
4.401000000000000000e+03 3.683049392700195312e+01 1.433938622474670410e+00 3.346200947622682276e-14 2.430956098312814229e-13 8.296728375937340028e-14 8.153631307454556332e-14
4.402000000000000000e+03 6.574620056152343750e+01 1.825809240341186523e+00 -1.011887378358708456e-13 -2.263703954103954419e-13 -9.826774132913260185e-14 -6.388698570820514067e-14
4.403000000000000000e+03 6.113930511474609375e+01 4.004843711853027344e+00 4.149562739589034849e-15 1.778384001001266819e-15 1.778384001001266819e-15 1.073270111158356258e-14
4.404000000000000000e+03 4.011231231689453125e+01 -6.196077823638916016e+00 -3.897361898269266489e-14 8.623665475292197069e-14 1.417891140869514954e-14 4.918444191964917167e-14
4.405000000000000000e+03 4.176934051513671875e+01 -5.881251811981201172e+00 1.692660158629337441e-14 7.254257822697160463e-15 7.254257822697160463e-15 7.239608896094165691e-14
4.406000000000000000e+03 4.131356048583984375e+01 -6.349575519561767578e+00 6.882663791110341100e-14 -2.392896807350969324e-13 -5.113891623532984543e-14 -7.476302427622191771e-14
4.407000000000000000e+03 4.237504577636718750e+01 -7.011571884155273438e+00 -5.104361486436836959e-14 -1.591286781163492314e-13 -6.305168924946799591e-14 5.272463729852220130e-15
4.408000000000000000e+03 4.855526733398437500e+01 -3.616540431976318359e+00 6.237953133637202940e-14 -1.901686375374838506e-14 1.300880061360027221e-14 1.296500477506248861e-13
4.409000000000000000e+03 3.964024734497070312e+01 -6.012084484100341797e+00 4.316094668623503272e-14 -5.012887349144234950e-14 -2.090378846243494924e-15 9.356238521570844902e-14
4.410000000000000000e+03 6.179869461059570312e+01 4.093139171600341797e+00 -3.614138814069488281e-14 1.217636831207097314e-13 2.568668747756491788e-14 1.097290051248027420e-13
4.411000000000000000e+03 3.201042556762695312e+01 8.552300930023193359e-01 -4.854019204809933985e-14 1.393253866227225912e-13 2.723555667832108090e-14 -2.419108479072978879e-14
4.412000000000000000e+03 6.753094482421875000e+01 7.615738391876220703e+00 -1.237047709276919982e-13 -7.265379365294609426e-15 -3.929104288561031944e-14 5.316930503187523860e-14
4.413000000000000000e+03 6.407194519042968750e+01 7.486125469207763672e+00 -7.196406150026049553e-14 -2.081266609792534195e-13 -8.402722013198596351e-14 -1.402036988026530984e-13
4.414000000000000000e+03 6.762595367431640625e+01 4.738221645355224609e+00 -6.130234937295336861e-14 1.109804116010762454e-13 1.490341765199732632e-14 -2.620700965266786753e-14
4.415000000000000000e+03 6.767372131347656250e+01 5.745753765106201172e+00 -4.540463193142621479e-14 -1.945912845463006191e-14 -1.945912845463006191e-14 5.664794737350424547e-14
4.416000000000000000e+03 6.747724151611328125e+01 9.680130958557128906e+00 -2.098199679322412803e-13 3.875170312677561624e-14 -5.132047605350791020e-14 2.867663924247323970e-14
4.417000000000000000e+03 3.511582946777343750e+01 5.732925891876220703e+00 1.386848738605360454e-15 9.209625927543776958e-14 2.804493223480634956e-14 -8.800681808741189771e-14
4.418000000000000000e+03 4.771595764160156250e+01 -3.452971220016479492e+00 1.174216363790218931e-14 -8.646954137957185704e-14 -2.241821264487454252e-14 2.657462364584212838e-14
4.419000000000000000e+03 6.695503997802734375e+01 8.167983055114746094e+00 6.839560656116822068e-14 2.351916675736448470e-13 9.107618766145478273e-14 -1.494911372424898022e-13
4.420000000000000000e+03 4.441193389892578125e+01 -4.624340057373046875e+00 8.327054696547885743e-15 4.153272777779326574e-13 1.270963044010253729e-13 6.509621671996895786e-14
4.421000000000000000e+03 6.715663146972656250e+01 3.167311906814575195e+00 -1.867660553663864909e-14 -5.375520788588640519e-14 -2.172954436557069519e-14 -1.582604828979407297e-14
4.422000000000000000e+03 3.486651611328125000e+01 -4.741426944732666016e+00 -1.185544311376254822e-13 2.236966579853560955e-13 3.154266669906646836e-14 2.570066013306282482e-14
4.423000000000000000e+03 3.855261230468750000e+01 -8.912949562072753906e-01 7.709458071936126089e-14 2.274820685554262978e-13 9.137299478243626760e-14 -1.281907929416223335e-13
4.424000000000000000e+03 4.161927413940429688e+01 -1.762973308563232422e+00 6.724805055939283085e-15 -4.286888972602174996e-14 -1.084322535867309270e-14 -3.744655410406472207e-14
4.425000000000000000e+03 4.090399551391601562e+01 -5.961442470550537109e+00 -3.931600664063179817e-14 2.119050242352024660e-13 5.177670493955802145e-14 8.787639661287489044e-16
4.426000000000000000e+03 6.662387084960937500e+01 1.204498672485351562e+01 -1.097154525976466732e-13 -2.185869622242306298e-13 -9.849072783469497994e-14 8.283547865651705311e-14
4.427000000000000000e+03 3.392017745971679688e+01 -9.562288522720336914e-01 -5.994949376058721774e-15 5.461942204944281176e-14 1.458734222553170062e-14 -4.773745214772286138e-14
4.428000000000000000e+03 3.667760467529296875e+01 3.129999876022338867e+00 2.436534047439709028e-13 1.616115688539768169e-13 1.215794907241316003e-13 -3.313925265387325514e-14
4.429000000000000000e+03 3.642867660522460938e+01 2.404466390609741211e+00 9.705317739793287157e-14 3.015648034022586077e-14 3.816289664382126190e-14 -5.336645703254636053e-14
4.430000000000000000e+03 6.249349975585937500e+01 4.178771972656250000e+00 -5.924416773134266734e-14 -1.168922543395151115e-13 -5.284092729888369144e-14 -3.299331395925902272e-15
4.431000000000000000e+03 6.695401763916015625e+01 7.078176975250244141e+00 -1.080403864991779338e-15 -6.181898864880165656e-15 -2.178690713082465091e-15 -1.067001033968478785e-13
4.432000000000000000e+03 6.568872833251953125e+01 6.245957851409912109e+00 5.585964599674666381e-15 -9.043752143109325126e-15 -1.037336368909516030e-15 -5.403285512160099779e-14
4.433000000000000000e+03 6.714813995361328125e+01 5.289774894714355469e+00 -6.199158347026598181e-14 -7.231877179351628437e-14 -4.029310657913467986e-14 8.401563102720163018e-15
4.434000000000000000e+03 6.575206756591796875e+01 1.038407325744628906e+01 -1.616586232282626878e-13 -3.515275457806571295e-15 -4.955216602710657559e-14 1.499775001726714324e-14
4.435000000000000000e+03 6.528234863281250000e+01 8.814321517944335938e+00 -1.128969219000609814e-13 -1.627617718337123764e-13 -8.269760879775836515e-14 5.941162953314663153e-14
4.436000000000000000e+03 3.466922760009765625e+01 -2.943883180618286133e+00 -1.240194606082559159e-13 -9.890214867783533870e-14 -6.687648346345373418e-14 -7.317270975335660177e-14
4.437000000000000000e+03 3.418454360961914062e+01 -6.302755832672119141e+00 -6.250303551634528443e-14 6.471488248711507185e-14 6.635530642034876813e-16 1.843988015667180624e-14
4.438000000000000000e+03 3.699019622802734375e+01 -6.862446784973144531e+00 -1.078665761854342986e-13 -1.191532004221054417e-14 -3.593456641189790579e-14 3.052189035367136594e-14
4.439000000000000000e+03 3.532085418701171875e+01 -2.572275876998901367e+00 1.619475961415150177e-15 6.940611263207786472e-16 6.940611263207786472e-16 6.701221964621828855e-15
4.440000000000000000e+03 3.538058090209960938e+01 6.433335781097412109e+00 -3.127428939192662682e-14 7.809863324624577441e-14 1.404730281748256537e-14 -1.355131149438290605e-13
4.441000000000000000e+03 6.377106857299804688e+01 5.277304172515869141e+00 -1.073616700099713772e-13 9.124070178860230196e-14 -4.836290889927196204e-15 -1.706082920337886888e-14
4.442000000000000000e+03 6.670596313476562500e+01 5.942684173583984375e+00 -3.370790652894653516e-14 1.228066042954778503e-13 2.672960865233303673e-14 -1.163996606349734786e-13
4.443000000000000000e+03 3.327834701538085938e+01 3.786016225814819336e+00 -8.016321845693771819e-14 1.486481293958008543e-13 2.054547531453801423e-14 2.923269604355495377e-14
4.444000000000000000e+03 3.563941955566406250e+01 4.945758819580078125e+00 -4.396082700338158067e-14 -8.746677698529686795e-14 -3.942827916372446118e-14 -2.175109864357288592e-13
4.445000000000000000e+03 3.849552536010742188e+01 -7.203687191009521484e+00 -3.663866847853367373e-15 4.418072014462058605e-14 1.215505577727192879e-14 -3.246914794864143305e-14
4.446000000000000000e+03 4.064875793457031250e+01 -3.081715345382690430e+00 -1.292454370523804519e-13 -9.639950682594367742e-15 -4.166561504994302501e-14 1.030320577119492320e-13
4.447000000000000000e+03 3.446934509277343750e+01 5.959869861602783203e+00 4.772405208649729835e-14 1.119550619202956676e-13 4.790373487966424759e-14 9.599958360802934854e-14
4.448000000000000000e+03 3.888834381103515625e+01 -1.423617601394653320e-01 -2.595558401590142630e-15 -4.686333108681536852e-14 -1.483766756649965851e-14 -6.319143613323779940e-14
4.449000000000000000e+03 3.387879943847656250e+01 2.999327421188354492e+00 4.442644101448726957e-14 2.935455969011596666e-13 1.013916123911336176e-13 1.142568163562188155e-13
4.450000000000000000e+03 3.224139785766601562e+01 2.605498075485229492e+00 -4.378604006064976129e-14 1.184874003383115659e-13 2.241040808329854139e-14 -3.406049585170239924e-14
4.451000000000000000e+03 4.558760833740234375e+01 -2.773823499679565430e+00 -1.966361576062440608e-14 -8.427263776405752999e-15 -8.427263776405752999e-15 2.061049491882196993e-13
4.452000000000000000e+03 3.572384262084960938e+01 -1.597819089889526367e+00 7.144769666308711797e-14 7.744966878931152515e-15 2.375779863908900752e-14 2.032980378550812428e-14
4.453000000000000000e+03 3.435583114624023438e+01 4.940794944763183594e+00 -1.065769448063171032e-13 4.582606131587133036e-14 -1.822526572476008966e-14 3.267596967743841008e-14
4.454000000000000000e+03 3.629947662353515625e+01 4.799281597137451172e+00 -3.041965686506956090e-14 1.013403770622200994e-13 2.127621572033198266e-14 4.868040649405602771e-14
4.455000000000000000e+03 3.475334167480468750e+01 -5.872892856597900391e+00 -1.854366710369887566e-14 2.894338685822256396e-13 8.126706501753594436e-14 7.055314855562364040e-14
4.456000000000000000e+03 6.776140594482421875e+01 3.225322723388671875e+01 5.867462955387245382e-14 -4.348015274647371031e-14 4.558344228065749210e-15 6.788855569828285141e-15
4.457000000000000000e+03 1.762362480163574219e+01 3.407911300659179688e+01 2.855582523914046433e-14 9.230237288469084200e-14 3.625745875952303410e-14 1.284833360987473402e-14
4.458000000000000000e+03 1.491036224365234375e+01 3.426549148559570312e+01 1.089539496492743231e-14 1.533600449323685444e-13 4.927662959749654070e-14 -2.942793374976528098e-14
4.459000000000000000e+03 4.582937622070312500e+01 -5.425600528717041016e+00 1.765671755939862697e-13 -1.583024787914655979e-14 4.822108085555075474e-14 -1.369393015865708052e-13
4.460000000000000000e+03 6.474131774902343750e+01 4.997384548187255859e+00 -8.065338625911841475e-14 -1.718185869189342574e-13 -7.574159127578944384e-14 7.373117551614030707e-14
4.461000000000000000e+03 6.364055252075195312e+01 7.274300098419189453e+00 -1.798523894917802846e-13 -1.685814980450714429e-13 -1.045301676163082338e-13 -1.610325337431019882e-14
4.462000000000000000e+03 6.397146224975585938e+01 3.412760972976684570e+00 -7.959102398414491519e-14 -2.857406694069253295e-13 -1.095995039515629266e-13 1.276999610656109896e-13
4.463000000000000000e+03 4.724933242797851562e+01 -3.884946823120117188e+00 -2.040881840695979443e-14 8.275526124828028185e-14 1.870393251358296732e-14 7.140709329172753583e-14
4.464000000000000000e+03 6.132362747192382812e+01 2.020588159561157227e+00 -1.571152604719350254e-13 2.416678849767074644e-14 -3.988453854296067358e-14 -6.027213708052585328e-15
4.465000000000000000e+03 4.115178680419921875e+01 -3.297394752502441406e+00 2.792133996340658009e-14 -1.252865541347125689e-13 -2.920956526783133334e-14 1.279357801203242703e-14
4.466000000000000000e+03 6.252888870239257812e+01 2.412842750549316406e+00 -1.387287637197309742e-13 -1.370423838021857590e-14 -4.572990274756723317e-14 4.433386539555005806e-15
4.467000000000000000e+03 6.026950073242187500e+01 2.300823211669921875e+00 -1.081625328853367402e-14 -7.040252576881109170e-14 -2.436563287017048246e-14 -5.410726527195139357e-14
4.468000000000000000e+03 4.444241333007812500e+01 -5.321698188781738281e+00 -5.743188991871525650e-14 -2.076174654289456023e-13 -7.951480457141918423e-14 -4.374128283971684406e-14
4.469000000000000000e+03 4.372688674926757812e+01 -1.930992364883422852e+00 1.028612619884648749e-13 4.408339605898106695e-14 4.408339605898106695e-14 8.690545841554681017e-14
4.470000000000000000e+03 3.723427200317382812e+01 -7.482902526855468750e+00 4.849392033225673193e-14 -4.784331432547070384e-14 1.951821461429432492e-16 -9.121409140153136086e-14
4.471000000000000000e+03 3.749593734741210938e+01 -6.470874786376953125e+00 -7.559463444757261175e-14 5.910419723087478872e-14 -4.947130656789578557e-15 -2.594346178858009111e-13
4.472000000000000000e+03 3.529391479492187500e+01 1.297012567520141602e+00 -4.528482420323477753e-14 3.467692746719850533e-15 -1.254513901343800447e-14 -2.412625797114462817e-14
4.473000000000000000e+03 6.305939102172851562e+01 1.668977856636047363e+00 -4.765397874483684459e-14 1.625806558607986729e-13 3.447800516766762191e-14 -1.603020440590604070e-15
4.474000000000000000e+03 6.674784088134765625e+01 4.734230995178222656e+00 -4.475789178301145532e-14 7.231994408711528433e-14 8.268616199450917054e-15 -8.206727398346602698e-14
4.475000000000000000e+03 4.053922653198242188e+01 -6.569802284240722656e+00 1.504134002679874405e-13 -1.642918657021597006e-13 -4.163540053768151686e-15 1.931690145839069783e-14
4.476000000000000000e+03 4.103377914428710938e+01 -6.923454284667968750e+00 -8.669364596862461081e-14 5.434747703952913511e-14 -9.703850848135232160e-15 -8.657122599082384129e-14
4.477000000000000000e+03 3.912688827514648438e+01 -6.873517036437988281e+00 7.945883094019872556e-15 -6.522104227133992960e-14 -1.718254783789931184e-14 -5.010170067449443154e-14
4.478000000000000000e+03 6.306060791015625000e+01 5.039121627807617188e+00 -4.855211488386489138e-14 2.494289937625144421e-14 -7.082764991097213053e-15 -3.520613162978636357e-14
4.479000000000000000e+03 6.283610534667968750e+01 2.801843881607055664e+00 -5.004304110179822948e-15 2.073077224207936498e-14 4.717940481921509971e-15 -1.016042312134216030e-13
4.480000000000000000e+03 4.635955810546875000e+01 -2.809494972229003906e+00 -3.660994643832522766e-14 2.588157281806918730e-13 6.666173011813866789e-14 1.401340117080165926e-13
4.481000000000000000e+03 4.456770706176757812e+01 -3.172415494918823242e+00 3.412378276538945154e-14 -3.112647197823538436e-14 8.991930243879833404e-16 8.522694743408158746e-15
4.482000000000000000e+03 3.214365005493164062e+01 1.749027729034423828e+00 -1.100978981377273569e-13 2.144160906767875185e-14 -2.659688705982776041e-14 1.083301336005440541e-13
4.483000000000000000e+03 6.535259246826171875e+01 2.419535160064697266e+00 -2.808718054414949955e-14 -2.407921138956187201e-13 -8.066378782371069756e-14 -3.480999126101447239e-14
4.484000000000000000e+03 3.567183303833007812e+01 3.541580915451049805e+00 -1.943036660387309489e-14 2.204274496221333979e-13 6.029912355022537529e-14 -1.360826734500900081e-13
4.485000000000000000e+03 3.609833145141601562e+01 1.959708929061889648e+00 7.215318701672343571e-14 1.224246940802198313e-13 5.837336365145662231e-14 -3.868417088395692538e-14
4.486000000000000000e+03 6.637613677978515625e+01 8.737421035766601562e+00 -1.555764523285263490e-13 4.198287971066659574e-14 -3.407807347942382048e-14 1.383584138101370820e-13
4.487000000000000000e+03 6.690549468994140625e+01 9.212314605712890625e+00 8.271872194100162584e-15 3.545088052934607277e-15 3.545088052934607277e-15 -5.060596649304922867e-14
4.488000000000000000e+03 6.490292358398437500e+01 7.401434898376464844e+00 -2.137742836482575681e-13 -1.173524575041537399e-13 -9.933802505622882362e-14 -3.765334872780738695e-14
4.489000000000000000e+03 3.601240539550781250e+01 4.150829792022705078e+00 -1.295789240881098370e-13 -1.927866774640435432e-13 -9.670968182089872967e-14 -1.814046959522364055e-13
4.490000000000000000e+03 4.319821166992187500e+01 -2.119950532913208008e+00 1.525401576970078499e-13 -7.187849084379707709e-14 2.419849802308415843e-14 1.673626650678175509e-14
4.491000000000000000e+03 4.075494384765625000e+01 -2.445916175842285156e+00 -9.358828409510369650e-14 -1.316111661927438226e-13 -6.755983576398061352e-14 -4.686834043966543045e-15
4.492000000000000000e+03 3.606401062011718750e+01 -6.655401706695556641e+00 1.546403996066474107e-14 -3.912350315677520785e-14 -7.097839212943024209e-15 -5.641958051466090807e-14
4.493000000000000000e+03 3.547172546386718750e+01 -4.276636123657226562e+00 -5.153057410574486685e-14 -2.508392799027703290e-13 -9.071095383086230646e-14 -1.432952199823325778e-13
4.494000000000000000e+03 3.787893295288085938e+01 -2.284386396408081055e+00 -4.017418315334017609e-14 -6.296845640393899934e-14 -3.094279118955739483e-14 2.046973701652632371e-14
4.495000000000000000e+03 3.507019042968750000e+01 -1.872934222221374512e+00 -4.856190319660336208e-14 2.493870486909664091e-14 -7.086959074735542721e-15 -7.744226402728662806e-14
4.496000000000000000e+03 3.291876602172851562e+01 4.892149269580841064e-01 -5.623729224814820460e-14 -2.410169570974014797e-14 -2.410169570974014797e-14 1.573885980040139881e-14
4.497000000000000000e+03 4.590002059936523438e+01 -3.248753070831298828e+00 4.699975421330014613e-14 4.301822502275447213e-14 2.700539410962956438e-14 -8.834167392838404576e-14
4.498000000000000000e+03 4.673784255981445312e+01 -4.329708099365234375e+00 4.893240896025954911e-14 6.958141880600635099e-14 3.555414697462705442e-14 -1.984993420990014551e-14
4.499000000000000000e+03 6.631476593017578125e+01 6.630323886871337891e+00 -1.407630251509112140e-13 -1.632666441278574077e-13 -9.120890078363058651e-14 5.533737056366734575e-14
4.500000000000000000e+03 6.531362915039062500e+01 6.852829456329345703e+00 -1.865456167359294537e-13 -1.714500123903978102e-13 -1.073986887378981792e-13 -2.526360468480676191e-15
4.501000000000000000e+03 3.346530151367187500e+01 4.334412574768066406e+00 8.640941559284395779e-14 -1.002202403639802786e-13 -4.143246838417833158e-15 1.247387050828897490e-14
4.502000000000000000e+03 3.313309097290039062e+01 3.146651029586791992e+00 -3.878976539929343548e-14 2.912676271503954195e-14 -2.898901228792641685e-15 -8.890463913018356590e-14
4.503000000000000000e+03 3.578727722167968750e+01 5.578180789947509766e+00 -8.836593295199340892e-15 8.771478823225292709e-14 2.366345780348971806e-14 -1.150029642913233396e-13
4.504000000000000000e+03 6.076765060424804688e+01 1.694334268569946289e+00 -4.267367912486573489e-14 1.189641240335534422e-13 2.288713516667220671e-14 2.508498407095566957e-14
4.505000000000000000e+03 6.166357040405273438e+01 1.558971405029296875e+00 7.312667859487101407e-14 1.228418950761922535e-13 5.879057142369262245e-14 3.852626700192977871e-14
4.506000000000000000e+03 3.781953811645507812e+01 -6.774149537086486816e-01 2.553009183792480548e-16 -3.887736486907211741e-13 -1.165555011447411138e-13 -3.582685939639094347e-15
4.507000000000000000e+03 3.988196563720703125e+01 -1.022042989730834961e+00 2.081818096003832524e-14 2.834277680174163150e-13 9.127378350739026591e-14 1.714837039729077972e-13
4.508000000000000000e+03 6.587331390380859375e+01 8.269083023071289062e+00 8.922696565979992833e-14 6.397503647713811969e-14 4.596060064108141441e-14 -1.508214838013156173e-14
4.509000000000000000e+03 6.472988891601562500e+01 6.504904747009277344e+00 -7.960873036087431909e-14 -3.411802971761170034e-14 -3.411802971761170034e-14 -8.789552473440626068e-14
4.510000000000000000e+03 4.081272125244140625e+01 -1.699909448623657227e+00 8.468713333679642186e-14 4.938039994267784394e-13 1.735473337304352381e-13 1.818430524430994510e-13
4.511000000000000000e+03 3.702523040771484375e+01 7.890748381614685059e-01 -6.289363290151034347e-14 -1.184563108410155441e-13 -5.440498380038412407e-14 -1.333983650538689281e-13
4.512000000000000000e+03 6.695021057128906250e+01 1.027298164367675781e+01 -1.669012353994712983e-14 -1.287177863482178580e-14 -8.868570483024085238e-15 1.317466067610097852e-14
4.513000000000000000e+03 6.500563812255859375e+01 2.070439338684082031e+00 -1.156214067630362274e-13 -2.325558365670610250e-13 -1.044531689332710289e-13 -5.126988446963430535e-14
4.514000000000000000e+03 6.621852111816406250e+01 2.214990854263305664e+00 -2.335733603059386709e-13 -2.974038387521665827e-13 -1.592931651384424385e-13 -1.015809886293489450e-13
4.515000000000000000e+03 3.664115905761718750e+01 -6.271873950958251953e+00 5.074886942158050168e-15 1.851787495045498222e-13 5.707608864702340412e-14 4.215153074672850497e-14
4.516000000000000000e+03 3.301781082153320312e+01 2.449151754379272461e+00 -5.929649488572519625e-15 8.896061784360170810e-14 2.490929080297028808e-14 2.329898291441798164e-14
4.517000000000000000e+03 3.368117141723632812e+01 1.654462814331054688e+00 -3.712381761050188855e-14 1.213426332070249858e-13 2.526564603420964478e-14 9.651801520559402658e-14
4.518000000000000000e+03 6.127183914184570312e+01 3.328923940658569336e+00 -5.831901124129720837e-14 -7.074480839466476545e-14 -3.871914656841494995e-14 7.857182650816349478e-14
4.519000000000000000e+03 3.972178649902343750e+01 -6.617411613464355469e+00 7.034011638125739485e-14 -6.135613257697222767e-14 2.695196157725086861e-15 4.636368329188900184e-14
4.520000000000000000e+03 4.375112915039062500e+01 -5.253258228302001953e+00 -7.383148454588595033e-14 1.513617248032061990e-13 2.325907241600925351e-14 7.650482217137419272e-14
4.521000000000000000e+03 6.387283706665039062e+01 2.743968248367309570e+00 -1.561628295209879780e-13 -6.692692596952862227e-14 -6.692692596952862227e-14 -1.055821825367980749e-13
4.522000000000000000e+03 6.301016998291015625e+01 2.292491436004638672e+00 -1.180399636542539543e-13 -3.250942538172291174e-13 -1.329402625309394903e-13 -4.407924220940773186e-14
4.523000000000000000e+03 4.139625167846679688e+01 -2.582352876663208008e+00 -7.143923310987815301e-14 -3.061681225387247185e-14 -3.061681225387247185e-14 1.524933608207379443e-13
4.524000000000000000e+03 4.511223220825195312e+01 -2.983400821685791016e+00 4.042921460936307887e-14 -1.199260417535097378e-13 -2.384904780443081879e-14 -1.206612070594201627e-14
4.525000000000000000e+03 4.619701385498046875e+01 -4.814027786254882812e+00 3.034239729588460166e-14 -9.279518342966697197e-14 -1.873583516250835329e-14 1.424346616129765208e-13
4.526000000000000000e+03 6.349080657958984375e+01 2.390833377838134766e+00 -7.343519509931534239e-14 -3.147222743917280074e-14 -3.147222743917280074e-14 -7.052399029344735837e-14
4.527000000000000000e+03 3.448208236694335938e+01 4.296470165252685547e+00 -5.049131550144067559e-14 -1.131410300191960927e-13 -4.908970297856467269e-14 7.389077007593017332e-14
4.528000000000000000e+03 4.231417465209960938e+01 -2.094076633453369141e+00 5.665626566056275633e-16 4.599376028690052576e-14 1.396809761361776300e-14 5.568084920004254257e-14
4.529000000000000000e+03 4.628622055053710938e+01 -3.785099506378173828e+00 -3.114323645432744148e-14 1.239057413528893425e-13 2.782875248600810703e-14 1.872468651485659219e-13
4.530000000000000000e+03 4.441565322875976562e+01 -2.494438886642456055e+00 4.206136239542739019e-14 1.802629768545005451e-14 1.802629768545005451e-14 5.738131866363238576e-14
4.531000000000000000e+03 4.332527923583984375e+01 -2.698417425155639648e+00 2.389367458228985885e-13 1.024014586233773505e-13 1.024014586233773505e-13 -4.147249492610083355e-14
4.532000000000000000e+03 6.588027191162109375e+01 3.945010662078857422e+00 9.460254845120030787e-14 -1.195843689913780872e-13 -7.494547517306049400e-15 -5.951693266914928615e-14
4.533000000000000000e+03 4.042238616943359375e+01 -5.591134548187255859e+00 1.112615723294560488e-13 -2.382599055116702003e-13 -3.809949792178517203e-14 8.274580158432534582e-14
4.534000000000000000e+03 6.760186004638671875e+01 3.698767185211181641e+00 -9.231504449758176634e-14 6.187357568708745995e-15 -2.583830637512343764e-14 5.418598512593741923e-14
4.535000000000000000e+03 6.719223785400390625e+01 4.226876258850097656e+00 -5.152994052510032064e-14 6.941763651532525947e-14 5.366309051177365827e-15 5.451456614683630741e-15
4.536000000000000000e+03 3.616682815551757812e+01 2.855586528778076172e+00 -8.463075482382717563e-14 -8.202126993003475142e-14 -4.999560810378493592e-14 -2.720101975692973406e-13
4.537000000000000000e+03 3.437568664550781250e+01 -4.575178027153015137e-01 -3.100186326729890973e-14 -1.419610549989805404e-13 -5.188887581869701393e-14 -4.036731174751184009e-15
4.538000000000000000e+03 6.560375976562500000e+01 4.622028827667236328e+00 -1.180570669435249131e-13 -4.844936555219820848e-15 -3.687060219311789899e-14 3.515332081959095245e-14
4.539000000000000000e+03 6.625698852539062500e+01 3.290379524230957031e+00 -8.966703654534821655e-14 5.307316679236187551e-14 -1.097816194233543902e-14 -1.014377858511543440e-13
4.540000000000000000e+03 6.482167053222656250e+01 2.644062042236328125e+00 -2.736414136191196722e-14 -1.947312889280863879e-13 -6.662862807055996983e-14 -8.690579722872571189e-14
4.541000000000000000e+03 6.602962493896484375e+01 5.567281723022460938e+00 -1.553883432516001140e-13 -2.084405612251104961e-14 -5.286971964282675962e-14 3.451231339016321009e-14
4.542000000000000000e+03 6.322856903076171875e+01 4.245394706726074219e+00 -9.030806430356669301e-14 1.214248699418080113e-13 9.335039150373553724e-15 -6.542017887020646835e-15
4.543000000000000000e+03 4.571397018432617188e+01 -4.232515335083007812e+00 -7.422077411218044873e-14 1.394204542125906249e-14 -1.808361809905664752e-14 -4.191669594429993373e-14
4.544000000000000000e+03 4.419464874267578125e+01 -4.035844326019287109e+00 -2.482870070023672493e-14 4.654781470209493066e-14 6.515734031150872269e-15 3.160470339212337332e-14
4.545000000000000000e+03 3.458230209350585938e+01 2.183434486389160156e+00 -3.253369524735399976e-14 3.180793708935578112e-14 -2.177274235766639486e-16 2.214371467765784141e-14
4.546000000000000000e+03 3.625122451782226562e+01 3.376698732376098633e+00 -8.883337316613337808e-14 9.918139849988613643e-14 3.104408362455480033e-15 -1.883950488017552272e-13
4.547000000000000000e+03 4.310897064208984375e+01 -4.301401138305664062e+00 6.375104708456619251e-14 1.416992472793796032e-13 6.163509101968916992e-14 1.436796916252230938e-14
4.548000000000000000e+03 4.679521560668945312e+01 -3.325240612030029297e+00 -3.311867991765034269e-14 -1.056956171890943708e-13 -4.164429014846295074e-14 -1.842909742725325900e-14
4.549000000000000000e+03 3.482892990112304688e+01 -1.119336247444152832e+00 -3.866138569767578470e-14 1.206836822316426083e-13 2.460668828256368929e-14 3.568765630777327724e-14
4.550000000000000000e+03 3.627786254882812500e+01 -1.733701676130294800e-02 -1.944056826868982568e-14 3.741927625503134458e-14 5.393612311199160944e-15 -1.229063644478736728e-13
4.551000000000000000e+03 3.771493530273437500e+01 -5.908970832824707031e+00 -4.939161262602041746e-14 3.905907173216982553e-13 1.023597303922638146e-13 -1.458599950890371311e-13
4.552000000000000000e+03 3.482924270629882812e+01 1.657666414976119995e-01 -3.215622687287138237e-14 1.234715996979718344e-13 2.739461421922238793e-14 -7.585607624894033507e-14
4.553000000000000000e+03 3.381039047241210938e+01 4.700747966766357422e+00 1.718833815512674223e-14 9.886832834631736899e-14 3.481700130568594898e-14 4.141570306105332722e-14
4.554000000000000000e+03 3.393075180053710938e+01 3.640153169631958008e+00 5.697357733161489968e-14 -2.133370045833034301e-14 1.069196390901831425e-14 -9.149964992497330862e-15
4.555000000000000000e+03 3.633304977416992188e+01 -5.594160079956054688e+00 -9.124535369354862258e-15 -3.910515218797294343e-15 -3.910515218797294343e-15 -4.177301882765487029e-14
4.556000000000000000e+03 3.712041091918945312e+01 7.551267743110656738e-02 1.351034491529554127e-13 -3.360042143607175347e-14 3.045090899269145557e-14 1.516243693913590235e-14
4.557000000000000000e+03 3.619826889038085938e+01 6.664936542510986328e-01 9.480791667145979651e-14 -7.374540566965417931e-14 6.318753554651569335e-15 1.643428062636075743e-14
4.558000000000000000e+03 4.134976959228515625e+01 -5.370752334594726562e+00 5.439078075192456396e-14 -1.825689393501056523e-13 -3.845344588538843200e-14 -1.597604257815975898e-14
4.559000000000000000e+03 3.466854476928710938e+01 2.936964511871337891e+00 3.670880195953338254e-14 1.529851955837588373e-13 5.690819994061402376e-14 -1.606466695780461862e-13
4.560000000000000000e+03 3.604516983032226562e+01 -3.788292407989501953e+00 -8.341127810153337041e-14 3.302599079629819911e-13 7.405458624792915501e-14 1.918509838841342408e-13
4.561000000000000000e+03 6.587461853027343750e+01 7.248922824859619141e+00 -1.964765088363455703e-14 -1.285166634570900079e-13 -4.444929396340419059e-14 -1.408910897562724862e-14
4.562000000000000000e+03 3.706819915771484375e+01 -6.432179808616638184e-01 -4.651734862104808799e-14 2.581494181830637502e-14 -6.210722125525808615e-15 -1.263776409909933562e-13
4.563000000000000000e+03 6.575025939941406250e+01 2.875929355621337891e+00 -1.557117065495439157e-13 8.803329294921127812e-14 -2.030352204722071785e-14 -4.356309082453706238e-14
4.564000000000000000e+03 3.379158020019531250e+01 2.320477485656738281e+00 -2.303760040535656611e-14 1.273795928761686791e-13 3.130259723302386554e-14 -5.806073395502042711e-14
4.565000000000000000e+03 3.518436813354492188e+01 3.881530761718750000e+00 -1.703794745534174121e-14 7.276218337700854355e-14 1.671727094590663015e-14 -1.491773962388268093e-13
4.566000000000000000e+03 6.440328216552734375e+01 7.040127754211425781e+00 -1.906591204359209257e-13 -2.189638986620223715e-13 -1.228869030188775580e-13 -4.375819300547582891e-14
4.567000000000000000e+03 6.329970932006835938e+01 3.497634172439575195e+00 -1.785869527617684610e-14 -9.915562159323529356e-14 -3.510429455260387355e-14 -1.922023602557096367e-13
4.568000000000000000e+03 6.193764114379882812e+01 3.342903137207031250e+00 -4.041562142462554186e-14 7.418091612981445038e-14 1.012958908918303036e-14 -4.038165201530885540e-14
4.569000000000000000e+03 3.593154907226562500e+01 -4.912470817565917969e+00 -4.609410658609584821e-14 1.174982284862444160e-13 2.142123792529728593e-14 8.549274976106177593e-14
4.570000000000000000e+03 3.902330017089843750e+01 -6.048246860504150391e+00 7.872247640003035563e-14 3.373820320340392698e-14 3.373820320340392698e-14 -8.080974176491798056e-14
4.571000000000000000e+03 4.262157058715820312e+01 -3.209787845611572266e+00 3.024918640223694943e-14 -3.278701230869165983e-14 -7.613473060682921303e-16 -1.331955074392651012e-14
4.572000000000000000e+03 4.284008407592773438e+01 -2.530843973159790039e+00 -1.384959313031897121e-13 7.789744598061393299e-14 -1.817954627439909154e-14 -9.695062034274521540e-15
4.573000000000000000e+03 3.833539199829101562e+01 -6.023855686187744141e+00 1.236006993775946514e-14 9.679906751375658147e-14 3.274774047312516145e-14 2.670541061509587588e-14
4.574000000000000000e+03 3.697872924804687500e+01 -3.921102285385131836e+00 -1.043835377428090419e-14 4.127736902823954390e-14 9.251704660890886639e-15 1.331832864479021161e-13
4.575000000000000000e+03 4.002617645263671875e+01 -1.795899987220764160e+00 -4.427277907345997243e-14 9.540331984700736734e-14 1.533916189325103957e-14 -8.218278894868077944e-14
4.576000000000000000e+03 3.717855453491210938e+01 -5.983979225158691406e+00 8.589717750018960318e-14 -1.919416638433354971e-13 -3.181334793582284159e-14 1.331245006672967732e-14
4.577000000000000000e+03 4.189606094360351562e+01 -4.761909484863281250e+00 4.322613434185572368e-14 1.918786852496412454e-13 7.053144418338319621e-14 2.993752232336062413e-14
4.578000000000000000e+03 4.015141677856445312e+01 -3.107294797897338867e+00 -2.401324344719017040e-14 -5.604233914500815483e-14 -2.401667393062655032e-14 -9.886660717536854825e-14
4.579000000000000000e+03 3.335433578491210938e+01 1.099690079689025879e+00 -1.706991447877111850e-14 1.528126448080077693e-13 4.072281994580394249e-14 -3.043644844621593015e-14
4.580000000000000000e+03 3.547003555297851562e+01 2.854358673095703125e+00 5.850542625232893479e-14 1.165756537526221881e-13 5.252432332385897906e-14 1.129548081316763403e-14
4.581000000000000000e+03 6.417563629150390625e+01 4.685706615447998047e+00 -5.253692209191643953e-15 1.921899461408346776e-13 5.608087575597643648e-14 7.183111290292535506e-15
4.582000000000000000e+03 6.392037963867187500e+01 4.154976844787597656e+00 -1.333533977687650918e-13 8.010139182805173230e-14 -1.597560381509308125e-14 -1.393015883850365344e-13
4.583000000000000000e+03 6.467770385742187500e+01 3.382997274398803711e+00 4.525308757276705340e-14 2.023979806453288233e-13 7.429531978780240520e-14 -1.258581997301555511e-13
4.584000000000000000e+03 3.549100494384765625e+01 4.355516910552978516e+00 -1.426695811186998175e-13 7.610873601271092581e-14 -1.996825454823620422e-14 -9.205709247195673073e-14
4.585000000000000000e+03 3.370040893554687500e+01 3.231966122984886169e-02 -1.087177155484168878e-13 -8.423580665392854487e-16 -3.286802253976706112e-14 -9.665116200863882456e-14
4.586000000000000000e+03 4.009725189208984375e+01 -2.496655464172363281e+00 -4.773551413633954354e-14 1.167947710116815085e-13 2.071777706260258950e-14 1.080338431696603943e-15
4.587000000000000000e+03 3.609740447998046875e+01 1.327773690223693848e+00 9.424875295352755367e-14 -5.110957501403695646e-14 1.294175372066035806e-14 -9.466291818341701636e-14
4.588000000000000000e+03 3.983827972412109375e+01 -5.276074886322021484e+00 -4.955646217821504940e-14 7.026341585381762345e-14 6.212085848570888039e-15 -5.495352826625663975e-15
4.589000000000000000e+03 3.828720092773437500e+01 -3.142043590545654297e+00 -1.229839933234236349e-13 -9.845837117610986566e-14 -6.643270596172826115e-14 -1.781636632929711750e-13
4.590000000000000000e+03 4.480147171020507812e+01 -3.824377059936523438e+00 1.101936941759300292e-13 -6.715150489703183845e-14 1.291265644485627834e-14 -6.019667999745265119e-14
4.591000000000000000e+03 6.505350494384765625e+01 5.916016578674316406e+00 -1.061965185927826738e-13 -6.838826786771320942e-14 -5.237543526052240717e-14 2.631230431834104960e-14
4.592000000000000000e+03 6.441680908203125000e+01 5.606900215148925781e+00 -2.527278821602089304e-14 2.636744989015227247e-13 7.152051439149667567e-14 -7.311295666112549441e-14
4.593000000000000000e+03 4.131181716918945312e+01 -4.309280872344970703e+00 6.474023248916049855e-14 -1.800513372022995856e-14 1.402053064711869870e-14 3.294450283864054640e-14
4.594000000000000000e+03 6.637842559814453125e+01 4.274570465087890625e+00 -1.452623828515631210e-13 -1.080062553065683217e-13 -7.598059009218671722e-14 -1.065921033079411662e-13
4.595000000000000000e+03 6.620115661621093750e+01 4.868957042694091797e+00 4.168314524381940001e-14 2.466189416312075666e-13 8.649062911182670010e-14 -9.118214131876092865e-14
4.596000000000000000e+03 6.535244750976562500e+01 5.286015987396240234e+00 3.986331867356605885e-14 8.571070150278567445e-14 3.767220706934505670e-14 -1.056996219608689891e-13
4.597000000000000000e+03 6.187463760375976562e+01 2.000575780868530273e+00 3.326628387903887707e-14 1.057588736095953219e-13 4.170754656896390189e-14 1.134066324464007292e-13
4.598000000000000000e+03 3.906599426269531250e+01 -1.379428386688232422e+00 -5.503103178093040823e-15 -3.226151171296237630e-13 -9.843546740521610938e-14 -7.256008809205724552e-14
4.599000000000000000e+03 4.026440811157226562e+01 -4.557271003723144531e+00 6.774986252349943228e-14 -2.490443289961119522e-13 -5.438834129703647158e-14 5.030269820474608800e-14
4.600000000000000000e+03 3.701271057128906250e+01 -5.320638656616210938e+00 -1.654445796051882771e-16 -9.157279969029819000e-14 -2.752147434373266449e-14 -5.315078550351647058e-14
4.601000000000000000e+03 3.554315948486328125e+01 -8.472583889961242676e-01 -2.734612158299207924e-14 1.115570851840941291e-14 -4.857124088781389348e-15 -8.485930464178711996e-14
4.602000000000000000e+03 6.538338470458984375e+01 7.818157672882080078e+00 -4.686737312803966604e-14 -5.439922736447458385e-14 -3.037997845368838046e-14 -7.764995650595338250e-14
4.603000000000000000e+03 3.589941406250000000e+01 -2.256861448287963867e+00 -6.499867240576315264e-14 1.093962702543305188e-13 1.331928054041633600e-14 -4.800165866463042275e-14
4.604000000000000000e+03 3.638203430175781250e+01 -1.433946371078491211e+00 2.393796762916768073e-14 5.601007735411313304e-14 2.398441383379742303e-14 -8.345224739112616641e-14
4.605000000000000000e+03 6.262746047973632812e+01 3.422294139862060547e+00 -8.396518343892905856e-14 1.927696690424626769e-13 3.264134635868644330e-14 6.813112221745395991e-14
4.606000000000000000e+03 6.194598770141601562e+01 2.614569187164306641e+00 -1.127312964656866645e-13 -1.398153104794144785e-13 -7.576398005065126950e-14 -6.022913829999143598e-14
4.607000000000000000e+03 3.645745086669921875e+01 -2.152164220809936523e+00 7.178464636950487865e-14 -8.361252635353741414e-14 -3.548364164616350097e-15 -1.246022904267344439e-14
4.608000000000000000e+03 3.565959167480468750e+01 -3.200676202774047852e+00 -5.808870637107055312e-14 1.123576871733117377e-13 1.628069491829871318e-14 -1.027962030818521666e-13
4.609000000000000000e+03 3.645255661010742188e+01 -4.362457752227783203e+00 9.840162674490740558e-14 -3.578823045883141110e-15 2.844684259201493703e-14 -1.420585383268141433e-13
4.610000000000000000e+03 3.763720321655273438e+01 -1.303168296813964844e+00 2.763509873140914536e-14 2.863493134015043795e-13 9.419532211521475240e-14 1.240023708715121131e-14
4.611000000000000000e+03 6.432306671142578125e+01 2.362352848052978516e+00 -4.680601067320877551e-14 -1.573125717148002312e-13 -6.123557607165541761e-14 -1.674717629114239048e-13
4.612000000000000000e+03 3.814642333984375000e+01 -2.685107707977294922e+00 1.288567234684900864e-13 2.153526245133804973e-13 1.032628030393084595e-13 -9.551241769061372122e-14
4.613000000000000000e+03 3.765351867675781250e+01 -1.829264640808105469e+00 1.132477121248368773e-14 1.878572709716752609e-13 5.975461011414884283e-14 1.785143323920356136e-15
4.614000000000000000e+03 6.533184814453125000e+01 3.604898691177368164e+00 -1.984279033402300274e-13 -3.928958260080925302e-14 -7.131524781519085754e-14 4.701436044944259929e-15
4.615000000000000000e+03 6.449710845947265625e+01 4.129264831542968750e+00 -1.145497000205886184e-13 -1.863455678825787221e-13 -9.026857901569748655e-14 5.532764662543286638e-14
4.616000000000000000e+03 4.171366882324218750e+01 -3.616737365722656250e+00 -2.528311354764792296e-14 -5.658656797801440985e-14 -2.456090445769869984e-14 5.453942486977232662e-14
4.617000000000000000e+03 4.200772857666015625e+01 -2.872155189514160156e+00 -5.317506400888362059e-15 -9.378083162467354406e-14 -2.972950119591033502e-14 -2.185824898902691271e-13
4.618000000000000000e+03 4.395045852661132812e+01 -3.374532222747802734e+00 1.121818973435703692e-13 1.395798488726049391e-13 7.552852522010530811e-14 -2.795167729544544011e-14
4.619000000000000000e+03 3.771344375610351562e+01 -5.242398262023925781e+00 -4.993453702828790086e-14 2.435043371096495129e-14 -7.675230656383705968e-15 6.582921870373209527e-14
4.620000000000000000e+03 4.235587310791015625e+01 -4.018758773803710938e+00 -3.524272684123953836e-14 -1.066059268856403563e-13 -4.255459645687714731e-14 -1.774226382131316448e-13
4.621000000000000000e+03 3.913307571411132812e+01 -5.170365810394287109e+00 2.961996967143498694e-14 -3.305667710591132791e-14 -1.031012632683552237e-15 6.743787657210315034e-14
4.622000000000000000e+03 3.838580322265625000e+01 -4.456128120422363281e+00 -6.583611016379095626e-15 8.868035158201420520e-14 2.462902115325099617e-14 -9.180789537887451557e-14
4.623000000000000000e+03 3.811144256591796875e+01 -1.473139762878417969e+00 5.454878627790538115e-14 4.446638031201620433e-14 2.970455099341601235e-14 -4.003460906429161248e-14
4.624000000000000000e+03 4.036005401611328125e+01 -3.575340270996093750e+00 5.418107572297513330e-14 1.147223592165569350e-13 5.067103217592551501e-14 -2.249600923294806099e-14
4.625000000000000000e+03 3.413564300537109375e+01 6.724112629890441895e-01 2.357147680168147907e-14 5.585301034063787362e-14 2.382734682032216361e-14 5.434173754427853997e-14
4.626000000000000000e+03 3.444867706298828125e+01 1.406529664993286133e+00 1.364415812151159157e-15 4.633569732331171975e-14 1.431003380299600974e-14 -4.744134298188991405e-14
4.627000000000000000e+03 4.078303909301757812e+01 -3.937417507171630859e+00 3.300094784369615210e-15 -5.005548994502402593e-14 -1.402661911994356261e-14 1.541933356170865910e-13
4.628000000000000000e+03 3.538806915283203125e+01 2.082750320434570312e+00 4.228058468657217017e-14 6.387119701406832051e-14 3.184553518781850501e-14 -1.445070191979924701e-13
4.629000000000000000e+03 3.911716842651367188e+01 -4.335760593414306641e+00 -1.852628937575300644e-14 2.208149028209982490e-13 6.068658352535380440e-14 -5.593174374715105535e-14
4.630000000000000000e+03 3.931164169311523438e+01 -2.040103435516357422e+00 7.119444905845113275e-15 1.860549881478254508e-13 5.795232729029903274e-14 5.720825966811296515e-14
4.631000000000000000e+03 3.703099060058593750e+01 -1.341084122657775879e+00 8.766912976826413129e-14 8.332343062050773241e-14 5.129776879425791691e-14 -5.530334016797845698e-14
4.632000000000000000e+03 3.540915298461914062e+01 5.721973776817321777e-01 -6.073343461173233426e-14 -7.177956417182135285e-14 -3.975389895743974833e-14 -5.017973612585907572e-14
4.633000000000000000e+03 3.666692733764648438e+01 -3.262411832809448242e+00 -1.735962854585229587e-14 -7.439841047374683158e-15 -7.439841047374683158e-15 -1.927642480316002493e-13
4.634000000000000000e+03 3.840301895141601562e+01 -5.212326049804687500e+00 -7.249573391685665280e-14 1.061832438924333044e-13 1.010625417851912164e-14 -1.963178968347745190e-13
4.635000000000000000e+03 4.083670806884765625e+01 -4.952780246734619141e+00 9.756388405501859040e-14 4.181309365045536575e-14 4.181309365045536575e-14 1.208300901825096196e-13
4.636000000000000000e+03 3.700625610351562500e+01 -4.605062007904052734e+00 -1.974639967869135787e-14 1.974165324486812367e-13 5.330103898396401640e-14 2.361980511352002043e-14
4.637000000000000000e+03 3.768994140625000000e+01 -4.534352302551269531e+00 8.685624918944312434e-14 1.287260093440698028e-13 6.467467891530659374e-14 -3.608006634344546049e-14
4.638000000000000000e+03 3.946036529541015625e+01 -2.698160409927368164e+00 -4.392439103412248969e-14 2.692621008158844337e-14 -5.099453862243740268e-15 -1.393114681773333086e-13
4.639000000000000000e+03 4.327750015258789062e+01 -3.426090478897094727e+00 -1.250603489039506244e-13 -7.846344864256230706e-15 -3.987200923160488797e-14 6.437730936444813201e-14
4.640000000000000000e+03 3.729988861083984375e+01 -2.735578775405883789e+00 7.055570574809140114e-15 1.860276120429701918e-13 5.792495796170735178e-14 3.351081890277940456e-14
4.641000000000000000e+03 3.981586074829101562e+01 -4.021789550781250000e+00 6.857210112232170474e-14 2.938804188608139245e-14 2.938804188608139245e-14 6.795342571654832201e-15
4.642000000000000000e+03 3.775083923339843750e+01 -3.126189947128295898e+00 -3.020305021166590220e-14 -2.188234267180497183e-13 -7.470794680585965408e-14 3.228131669852189745e-14
4.643000000000000000e+03 3.868997192382812500e+01 -2.363818168640136719e+00 -1.530927179460832982e-14 -6.561116362398863172e-15 -6.561116362398863172e-15 -5.717550320997674684e-14
4.644000000000000000e+03 3.885709762573242188e+01 -2.942300558090209961e+00 1.101817205181876425e-13 2.302245308456740691e-13 1.021218767644112291e-13 3.474466469199043173e-14
4.645000000000000000e+03 3.764579010009765625e+01 -3.794844150543212891e+00 2.158052924729203514e-14 5.499974661902357065e-14 2.297408309870786064e-14 -1.476971079076780380e-13
4.646000000000000000e+03 3.897437667846679688e+01 -3.596389532089233398e+00 -3.931544759888661034e-14 -1.083513771868611919e-13 -4.430004675809798287e-14 -1.310435456978661928e-13
4.647000000000000000e+03 4.926682281494140625e+01 3.389432144165039062e+01 -1.825310261553865498e-14 8.939800532877309469e-14 2.134347183040986862e-14 2.202394718353139873e-15
4.648000000000000000e+03 4.265170288085937500e+01 3.006336212158203125e+01 1.059233419969636894e-14 7.888486278041437205e-14 2.684315850111015922e-14 1.528347117103496383e-14
4.649000000000000000e+03 3.440610122680664062e+01 3.346216201782226562e+01 -4.828799984651563348e-14 1.623089412438466494e-13 3.420628038632023138e-14 4.038189596079766464e-14
4.650000000000000000e+03 3.122885894775390625e+01 3.434291839599609375e+01 -1.672005768430309680e-14 1.243682348946173466e-13 3.229445587359970615e-14 6.448100991411458149e-15
4.651000000000000000e+03 5.208683776855468750e+01 3.154585838317871094e+01 -1.997632677222353770e-14 1.431419104070113385e-14 -1.698640719456721154e-15 2.349774639527125487e-15
4.652000000000000000e+03 3.322328186035156250e+01 3.061585044860839844e+01 -4.946584998164957336e-14 5.886451401185613386e-14 2.819598404380668256e-15 7.514807867778014461e-14
4.653000000000000000e+03 3.192818832397460938e+01 3.754566955566406250e+01 -3.956048067800012336e-14 1.546115666051228743e-13 3.451532543932364638e-14 4.023220829835888468e-14
4.654000000000000000e+03 4.795805358886718750e+01 3.058237457275390625e+01 7.622321590366413352e-15 1.290818173920252332e-13 4.101124144060760979e-14 -1.596256289583715404e-14
4.655000000000000000e+03 5.959900665283203125e+01 3.532278823852539062e+01 9.006700380897580266e-15 9.578882995229121705e-15 5.575675266947894768e-15 4.598444631261251747e-14
4.656000000000000000e+03 6.200516510009765625e+01 3.390387344360351562e+01 5.466373542511136774e-14 -1.088589633745692259e-14 1.313335172629633354e-14 2.473504765539060596e-14
4.657000000000000000e+03 3.910893630981445312e+01 3.474785995483398438e+01 -3.432171996560267821e-15 5.571775611962030694e-14 1.568567460164330130e-14 3.987073190592042848e-14
4.658000000000000000e+03 1.337983131408691406e+01 4.065298080444335938e+01 3.461848854658506301e-15 8.440724654596928889e-14 2.636072749786968344e-14 -3.385443984068974010e-14
4.659000000000000000e+03 2.038955688476562500e+01 3.316059875488281250e+01 -3.771694734961902884e-14 1.439639152247401688e-13 3.187409036253634198e-14 7.386609261804486654e-15
4.660000000000000000e+03 2.389053344726562500e+01 3.759653472900390625e+01 -2.332671985530877096e-14 1.043802089033263325e-13 2.431604586737232121e-14 1.587421164196613655e-15
4.661000000000000000e+03 5.649250030517578125e+01 3.684203338623046875e+01 1.933134337014138365e-14 1.972259805287351203e-14 1.171618259631105816e-14 2.885284920055644631e-14
4.662000000000000000e+03 3.604629898071289062e+01 3.669478225708007812e+01 5.440054280664166977e-16 1.088916486819378748e-13 3.283069549184745861e-14 -4.539386783673250714e-14
4.663000000000000000e+03 2.152591323852539062e+01 3.581547546386718750e+01 -8.553678361585773798e-15 1.221492525182998889e-13 3.407866979061868751e-14 -3.685096119313696628e-14
4.664000000000000000e+03 2.451651000976562500e+01 3.481799697875976562e+01 -2.700640546696858602e-14 1.256786694029191076e-13 2.960168053603787208e-14 3.236201522147270915e-14
4.665000000000000000e+03 5.815930557250976562e+01 3.225188446044921875e+01 2.734122573255694938e-14 2.799308630101697950e-16 8.286347140135791323e-15 3.854282141385091676e-14
4.666000000000000000e+03 4.527819824218750000e+01 3.533713150024414062e+01 -3.341516855424365995e-14 8.861885021377996496e-14 1.656110348142135480e-14 4.623445486325820225e-15
4.667000000000000000e+03 2.782234954833984375e+01 3.784269714355468750e+01 -3.309078542863136407e-14 9.447674034161052115e-14 1.841578545745421042e-14 -5.560465943346996551e-15
4.668000000000000000e+03 4.824109268188476562e+01 3.689619827270507812e+01 -1.689041125658898718e-14 3.851220286687356831e-14 6.486537228975490163e-15 -9.805652349933937501e-15
4.669000000000000000e+03 2.820927047729492188e+01 -1.463376808166503906e+01 -1.926881031577738768e-14 -7.688448266712430423e-14 -2.884598823368368647e-14 -2.815071140332536109e-14
4.670000000000000000e+03 1.465002918243408203e+01 1.417128849029541016e+01 -4.371829097739657333e-14 1.642673898381158404e-13 3.616472898058942231e-14 1.999693948840156055e-13
4.671000000000000000e+03 7.799038696289062500e+01 3.953025054931640625e+01 -8.113456195953105965e-14 -2.406512218233042288e-13 -9.653573513485058655e-14 1.189329125635130158e-13
4.672000000000000000e+03 4.137565231323242188e+01 1.076489925384521484e+01 -1.630794295177234732e-13 -2.414023232070842961e-14 -5.616589753509003413e-14 3.264162164439430094e-15
4.673000000000000000e+03 6.582537078857421875e+01 -6.104547023773193359e+00 -6.244992316242065078e-14 2.934923896795449405e-13 6.931273995513728692e-14 -7.669313453620776877e-14
4.674000000000000000e+03 5.414470291137695312e+01 6.942518711090087891e+00 4.366966112182880944e-14 -3.015410729272083312e-13 -7.736142320280067763e-14 1.060083078719027683e-14
4.675000000000000000e+03 6.388685226440429688e+01 -5.606933116912841797e+00 -8.946983372270025936e-14 -1.012517706396737216e-13 -5.721647927583312088e-14 -1.945628039104821405e-13
4.676000000000000000e+03 6.390303802490234375e+01 -4.589560985565185547e+00 4.804358171332182709e-15 -1.580693041736136450e-13 -4.597948608767339629e-14 -1.434247550368902835e-13
4.677000000000000000e+03 4.360681152343750000e+01 7.141416072845458984e+00 -2.546122221478569481e-13 -2.006214205180212318e-13 -1.365700900892580227e-13 -8.753079234731855895e-14
4.678000000000000000e+03 1.349769210815429688e+01 1.529247379302978516e+01 2.161379053706481701e-14 -1.361242170280210426e-14 2.400410480872224375e-15 4.677886834944695871e-14
4.679000000000000000e+03 3.983049011230468750e+01 1.182009410858154297e+01 -8.081694662716732563e-15 3.084962772975478884e-14 6.830380089518006334e-15 6.275192767756648804e-14
4.680000000000000000e+03 2.883713340759277344e+01 7.824018955230712891e+00 1.805887118446966588e-14 -2.210152227248921020e-13 -6.088691020551123545e-14 -1.124994940412092637e-13
4.681000000000000000e+03 2.838456726074218750e+01 1.242562580108642578e+01 2.153891282452753686e-14 1.236083311444494126e-13 4.354417488475897935e-14 6.442041995333158688e-14
4.682000000000000000e+03 2.867875289916992188e+01 5.719662189483642578e+00 -9.843008027567157203e-14 3.238232707154786727e-13 6.761795577668941459e-14 -1.647316994184827577e-13
4.683000000000000000e+03 1.278676891326904297e+01 1.374179649353027344e+01 2.236899325437548963e-14 1.125263483737690140e-13 4.046860164141040384e-14 6.740731562336621518e-14
4.684000000000000000e+03 2.472739791870117188e+01 3.537253856658935547e+00 5.229647061401462502e-15 1.051809125364976116e-13 3.312316919227079048e-14 -5.437996244712223204e-14
4.685000000000000000e+03 7.171098327636718750e+01 2.988434791564941406e+01 2.490027159614792429e-14 -8.083035515872236121e-14 -1.677902472995915217e-14 -1.668597646663737277e-14
4.686000000000000000e+03 3.920141220092773438e+01 1.137497520446777344e+01 2.993277216259242202e-14 -3.292261889541528430e-14 -8.969533633963245635e-16 -5.649051105366398318e-14
4.687000000000000000e+03 2.902035522460937500e+01 1.169616317749023438e+01 -8.988712958636277395e-14 7.227894769246817619e-15 -2.479777044513478690e-14 -5.558372162604678646e-14
4.688000000000000000e+03 7.497775268554687500e+01 3.237351226806640625e+01 7.465227980056610146e-14 -1.052590089742344581e-13 -9.182019260320275350e-15 -6.117746961147377260e-14
4.689000000000000000e+03 1.262744235992431641e+01 8.333662986755371094e+00 1.538716257274558297e-13 2.224990076080471391e-13 1.129111927111563218e-13 -1.621126599930453049e-13
4.690000000000000000e+03 5.853041076660156250e+01 1.307913589477539062e+01 -1.684113765598131002e-14 1.529106837894547710e-13 4.082086570351452226e-14 1.152384258981328791e-13
4.691000000000000000e+03 2.986440277099609375e+01 1.227628231048583984e+01 -7.806624270634276996e-14 -2.164607604488236192e-13 -8.835809959129720115e-14 -3.607692215714525252e-14
4.692000000000000000e+03 5.944495010375976562e+01 6.492278099060058594e+00 -1.040906930419548126e-13 -1.361121908542359260e-13 -7.206086720173629501e-14 -3.137595706251966599e-14
4.693000000000000000e+03 5.917514801025390625e+01 1.306957340240478516e+01 -1.201954930984266978e-13 -1.430142489893329594e-13 -7.896292533683332837e-14 -8.477292083369433739e-14
4.694000000000000000e+03 2.812144088745117188e+01 4.234629631042480469e+00 -1.345017169472259577e-13 1.711111450013874657e-13 1.098282739980891570e-14 -6.356144722965278993e-14
4.695000000000000000e+03 4.152419662475585938e+01 2.213625907897949219e+01 -6.784380271251467046e-16 -1.146681355554055037e-13 -3.460396913131970342e-14 6.622676175906463958e-14
4.696000000000000000e+03 1.942761039733886719e+01 2.125748825073242188e+01 7.007662814828910514e-14 7.157365723860741047e-15 2.317019663698564880e-14 8.029053089704182855e-14
4.697000000000000000e+03 3.743794441223144531e+00 3.376295471191406250e+01 1.647322720127551016e-14 5.281090506310121002e-14 2.078523984871960550e-14 -3.552147521978556155e-14
4.698000000000000000e+03 4.459259796142578125e+01 1.930909347534179688e+01 5.162411364817605375e-14 9.361047635832175917e-14 4.357037869601523838e-14 -5.351437609019127351e-14
4.699000000000000000e+03 5.191486358642578125e+01 2.143568420410156250e+01 2.372519972908097852e-14 2.160567934956190983e-14 1.359926389299945595e-14 1.071320630948932595e-13
4.700000000000000000e+03 5.293099975585937500e+01 2.736258506774902344e+00 1.366802941578934907e-14 2.117370000035215249e-13 6.762150653880430462e-14 -1.428812444878233001e-14
4.701000000000000000e+03 5.832628631591796875e+01 1.232375144958496094e+01 -7.891778864514004121e-14 -1.253238100318646020e-13 -6.127247960310139296e-14 8.932061362244836378e-14
4.702000000000000000e+03 7.288726806640625000e+01 2.777920532226562500e+01 8.861798962830555459e-14 3.797913792811212497e-14 3.797913792811212497e-14 8.800790906584796125e-14
4.703000000000000000e+03 5.879325866699218750e+01 1.261359405517578125e+01 -1.685157682883645092e-13 -1.637229441646750883e-13 -9.967160695964830119e-14 -2.895012585235091918e-14
4.704000000000000000e+03 5.912716674804687500e+01 1.216742134094238281e+01 -1.778558447436753842e-13 -1.677258321380187267e-13 -1.036745084855190957e-13 -3.470259425956620514e-14
4.705000000000000000e+03 3.793639755249023438e+01 8.934368133544921875e+00 -3.045385327921611152e-14 -3.592712607448922402e-14 -1.991429346729842176e-14 9.475799593768041706e-14
4.706000000000000000e+03 6.113061904907226562e+01 6.172909259796142578e+00 -1.261694741738761394e-13 -9.982357822291287874e-14 -6.779791978479485226e-14 3.135218254175613228e-14
4.707000000000000000e+03 3.401903915405273438e+01 2.399449157714843750e+01 1.038773593238593446e-14 1.645802092699322206e-13 5.249038440772839376e-14 4.342976445050744649e-14
4.708000000000000000e+03 3.947980880737304688e+01 2.044988632202148438e+01 -2.591314343007924959e-14 1.261472073717587183e-13 3.007022189300927184e-14 -5.662454215910571464e-14
4.709000000000000000e+03 3.798756408691406250e+01 6.844891548156738281e+00 -2.733885742843642636e-14 3.085399774213626323e-13 8.436034124948213475e-14 -1.572350986933125638e-14
4.710000000000000000e+03 3.865340423583984375e+01 7.277934074401855469e+00 -1.398430389499757953e-13 5.444463849484278140e-14 -2.561952115297944088e-14 -3.642420227738772665e-14
4.711000000000000000e+03 6.073263931274414062e+01 9.934900283813476562e+00 -7.473026781808569941e-14 -2.150310501490212967e-13 -8.692839606775845662e-14 2.718636947507402368e-13
4.712000000000000000e+03 5.425092315673828125e+01 2.003141021728515625e+01 2.320795397764245649e-14 -1.501820586294333459e-13 -3.809223037909773013e-14 5.981134776908772488e-14
4.713000000000000000e+03 3.218656539916992188e+01 6.923514366149902344e+00 8.858198564584956330e-15 1.639246870839203285e-13 5.183486560984829072e-14 -5.136266507054475239e-14
4.714000000000000000e+03 3.014489173889160156e+01 2.026652336120605469e+01 2.776226209371453896e-14 1.034000088242365001e-13 3.934868178360508006e-14 1.972081250742069997e-14
4.715000000000000000e+03 6.067907333374023438e+01 5.339921951293945312e+00 -7.035484797827604164e-14 -1.674049218474901735e-13 -7.132793298060893794e-14 1.506273660844197971e-16
4.716000000000000000e+03 9.578108787536621094e+00 1.529585170745849609e+01 -2.079001203234443623e-14 3.684094248743684241e-14 4.815279390637606030e-15 8.619875511073002428e-14
4.717000000000000000e+03 1.038182067871093750e+01 1.454615116119384766e+01 -4.412077392887750471e-14 -1.104107988847066735e-13 -4.635947184407525345e-14 -1.241157377611726287e-14
4.718000000000000000e+03 1.866351890563964844e+01 2.289363098144531250e+01 4.696517494026143658e-14 1.116298283736043284e-13 4.757850133297290840e-14 5.179391326091443981e-14
4.719000000000000000e+03 2.018620681762695312e+01 2.248900222778320312e+01 2.820199924828160898e-14 1.264639434839232024e-13 4.639978383610098012e-14 -1.825310092147276048e-14
4.720000000000000000e+03 6.787440490722656250e+01 -1.149882793426513672e+00 -1.519917953432189939e-13 -1.108902940717519658e-13 -7.886462885737036133e-14 -8.836975476465142032e-14
4.721000000000000000e+03 6.745165252685546875e+01 -1.044261530041694641e-01 -2.619962352536781003e-13 -1.923482667630718734e-13 -1.363033492497722765e-13 -1.876648759080359191e-14
4.722000000000000000e+03 9.484436988830566406e+00 1.834761619567871094e+01 -1.192224080960938015e-13 3.606632137040377550e-13 7.243224032713047045e-14 4.612393908649814467e-14
4.723000000000000000e+03 3.016726684570312500e+01 1.101696300506591797e+01 8.155448701346185159e-14 3.552085654692088701e-13 1.310289089685376385e-13 -3.927991287268339793e-14
4.724000000000000000e+03 3.118802452087402344e+01 1.177987670898437500e+01 -5.827131312197142421e-14 -2.497341966740691116e-14 -2.497341966740691116e-14 -7.474630723397490684e-14
4.725000000000000000e+03 3.134864997863769531e+01 1.598257350921630859e+01 1.355746366408540349e-14 1.430631871648935238e-13 4.698619490988049929e-14 8.094497565714481313e-14
4.726000000000000000e+03 2.765469932556152344e+01 2.022200107574462891e+00 2.520995361792767453e-14 2.152538130378855996e-13 7.213913304606259236e-14 -4.723321004609058738e-14
4.727000000000000000e+03 2.767453384399414062e+01 1.879761123657226562e+01 -2.616597598857108020e-14 1.260388549171459482e-13 2.996186605026471272e-14 -1.688407206201173599e-14
4.728000000000000000e+03 6.206322097778320312e+01 -1.415631890296936035e+00 -1.445464028419080060e-13 -1.763258321903909964e-13 -9.626167593070056316e-14 -6.362539482903870058e-14
4.729000000000000000e+03 3.567231750488281250e+01 1.140830516815185547e+01 -1.204113984085500300e-13 3.989701364420783491e-14 -2.415431509048947961e-14 5.018762708479569679e-14
4.730000000000000000e+03 7.130951690673828125e+01 -4.620473384857177734e+00 -2.766172165456770582e-13 -1.185502434067342570e-13 -1.185502434067342570e-13 -1.129012078867740881e-14
4.731000000000000000e+03 3.634201288223266602e+00 8.765667915344238281e+00 8.486964522000720046e-14 4.938821704034146443e-13 1.736255453646529112e-13 3.101883780756188591e-14
4.732000000000000000e+03 2.885593223571777344e+01 4.186567306518554688e+00 3.579586646085090862e-14 3.821656126322750535e-14 2.220372865603670309e-14 -2.041535479080716642e-13
4.733000000000000000e+03 7.232109069824218750e+01 -5.344023227691650391e+00 -1.611365798822109174e-13 -1.376849616306977109e-13 -8.964646380912530410e-14 1.385722049260240674e-13
4.734000000000000000e+03 2.777386665344238281e+01 2.007095527648925781e+01 2.631300057942369264e-14 1.485298429387826857e-13 5.245285407190145022e-14 -2.921078838340716854e-14
4.735000000000000000e+03 3.903625106811523438e+01 4.761951923370361328e+00 4.988101471041679613e-14 -7.012431949135131126e-14 -6.072991603686943990e-15 -1.142798285473298203e-13
4.736000000000000000e+03 5.805613327026367188e+01 1.867604827880859375e+01 -9.467172732606846108e-14 -4.057359645742025789e-14 -4.057359645742025789e-14 4.165267577464076831e-14
4.737000000000000000e+03 5.222474575042724609e+00 3.121031188964843750e+01 1.380034782061173235e-14 -1.696104025186283976e-14 -9.482074329138006838e-16 -3.244841554670796317e-15
4.738000000000000000e+03 6.107238769531250000e+01 1.035398769378662109e+01 1.019242470371578557e-13 1.351837207713008082e-13 7.113239034253759918e-14 1.607835365497953251e-13
4.739000000000000000e+03 3.674793624877929688e+01 9.293149948120117188e+00 9.876426526654949467e-14 -4.917435545131326746e-14 1.487697328338404706e-14 4.406433951173373970e-15
4.740000000000000000e+03 2.980531692504882812e+01 1.807879066467285156e+01 8.276115659759317178e-14 3.546906759727304348e-14 3.546906759727304348e-14 6.017204150308291810e-14
4.741000000000000000e+03 3.122148513793945312e+01 2.099326515197753906e+01 9.487302640004934007e-15 9.556788140799993281e-14 3.151655775550030181e-14 2.277944339775829496e-14
4.742000000000000000e+03 6.376822280883789062e+01 6.170800328254699707e-01 -1.205261476559804645e-13 -5.903113640400936904e-15 -3.792877673720017329e-14 -3.984928841982773862e-14
4.743000000000000000e+03 3.137763404846191406e+01 1.086645126342773438e+01 1.610707857509999924e-14 2.799790022219028618e-13 8.882582440850744776e-14 -7.381092536219019395e-14
4.744000000000000000e+03 6.028900527954101562e+01 4.511085033416748047e+00 -1.023587071764635315e-13 -1.582453921589524470e-13 -7.818122912299843574e-14 4.154404549322129880e-14
4.745000000000000000e+03 6.202694702148437500e+01 8.876770019531250000e+00 -3.241984385484765474e-14 -5.964516668110000919e-14 -2.761950316078429918e-14 -1.062908611224478578e-14
4.746000000000000000e+03 6.063115692138671875e+01 -1.769822239875793457e+00 -5.170229817733941469e-14 -4.503360100734273008e-14 -2.902076840015192782e-14 8.618709316111222707e-15
4.747000000000000000e+03 6.828926849365234375e+01 -2.526527047157287598e-01 -2.090829544004399465e-13 -1.811088713894737356e-13 -1.170575545132376827e-13 -3.125087062500093993e-14
4.748000000000000000e+03 3.621559906005859375e+01 8.972822189331054688e+00 1.250562577348153862e-14 3.713671351771724582e-13 1.151618270146467782e-13 3.393436925772444490e-14
4.749000000000000000e+03 5.956936645507812500e+01 1.880086135864257812e+01 3.533680848475696801e-14 -1.221085000691415900e-13 -2.603150781412856551e-14 3.156991744304553371e-14
4.750000000000000000e+03 6.237869262695312500e+01 1.058925151824951172e+01 -4.672033159652810852e-14 -6.577394472172606865e-14 -3.374828289547625315e-14 1.610773688910660528e-13
4.751000000000000000e+03 4.907483577728271484e+00 2.880720520019531250e+01 3.931583045777876928e-14 1.541024930275594618e-13 5.802549738441464822e-14 7.023841144121467650e-14
4.752000000000000000e+03 6.309904861450195312e+01 1.588024806976318359e+01 3.430222211418983147e-14 -1.168330297958430908e-13 -2.475924061043008328e-14 -3.326758153351407066e-14
4.753000000000000000e+03 3.555055999755859375e+01 9.853534698486328125e+00 -1.256916391714074654e-13 2.063406818455723601e-13 2.419471178580993170e-14 -1.658938421746428138e-14
4.754000000000000000e+03 9.818618774414062500e+00 1.750254058837890625e+01 7.424918867942904149e-15 1.404349591260442565e-13 4.435796348289944291e-14 6.926020358361678619e-14
4.755000000000000000e+03 3.513600921630859375e+01 1.596241855621337891e+01 -5.593784916063486434e-14 2.177758468620717008e-14 -1.024807968114148718e-14 -1.707104780885454476e-14
4.756000000000000000e+03 7.245840454101562500e+01 -2.283676385879516602e+00 -1.051909075252752124e-13 -2.738365632339034850e-13 -1.137082371619954624e-13 -1.368046030191666373e-13
4.757000000000000000e+03 7.264630889892578125e+01 -1.765364527702331543e+00 -1.345101872766985007e-13 1.711075264766367954e-13 1.097919955769582553e-14 -9.775249457544959997e-14
4.758000000000000000e+03 7.294771575927734375e+01 -1.234913945198059082e+00 -1.594745115043177952e-13 -5.690848454368430120e-14 -6.491489745914791332e-14 7.254194803445884743e-14
4.759000000000000000e+03 3.391526031494140625e+01 8.423982620239257812e+00 -7.128868486196496268e-14 2.439534034850976418e-13 5.179941558693980375e-14 1.809057732175128885e-14
4.760000000000000000e+03 6.323055267333984375e+01 6.593106746673583984e+00 -1.082251353964024110e-13 1.823725361265599032e-13 2.224422021904724767e-14 -1.513178112270887471e-14
4.761000000000000000e+03 3.348459625244140625e+01 -1.162052917480468750e+01 6.815946732800087782e-14 -1.309171277245543830e-13 -1.882729608608697813e-14 -1.058186334780900073e-13
4.762000000000000000e+03 3.344552230834960938e+01 -1.108902549743652344e+01 9.219557897070101982e-14 -6.238557745754953060e-15 2.578710662159370420e-14 2.520779368391217606e-14
4.763000000000000000e+03 5.048059844970703125e+01 3.844697177410125732e-01 -5.991384553196907325e-14 3.860811681206249846e-13 9.785020151998127802e-14 1.210032101644012426e-13
4.764000000000000000e+03 5.280288314819335938e+01 -1.118513703346252441e+00 -2.324858513168270857e-13 2.206198412976409506e-13 -3.559802074019598542e-15 2.691786409655255730e-13
4.765000000000000000e+03 3.303237915039062500e+01 9.173196792602539062e+00 2.108173864970828981e-14 1.920388219105173544e-13 6.393616782925451436e-14 -2.569178153370970524e-14
4.766000000000000000e+03 6.913759613037109375e+01 1.472964286804199219e+00 -1.526068903407243327e-13 3.753667840965257962e-14 -3.452106493457424152e-14 6.050843809698612172e-15
4.767000000000000000e+03 6.460189819335937500e+01 1.874313592910766602e+00 -1.431026385714448401e-13 -1.528316047934991095e-13 -8.878027436473590051e-14 -1.284013992136276427e-13
4.768000000000000000e+03 3.320138549804687500e+01 1.396118450164794922e+01 -1.069883995307753521e-13 1.829025754636337542e-13 2.277425108579162610e-14 7.758871941199868560e-14
4.769000000000000000e+03 3.586602783203125000e+01 1.762054824829101562e+01 1.739448903382949385e-14 1.447076237049566005e-13 4.863063483807536502e-14 -3.402697028765007403e-14
4.770000000000000000e+03 2.853086853027343750e+01 -5.333299160003662109e+00 9.729473086569906393e-14 2.704524972030331043e-13 1.103241643548615036e-13 -5.331441194013526730e-14
4.771000000000000000e+03 7.414954376220703125e+01 -2.009712934494018555e+00 -2.061699064508787371e-13 -8.835853327216619535e-14 -8.835853327216619535e-14 -4.470874693141176082e-14
4.772000000000000000e+03 9.315793037414550781e+00 2.440449523925781250e+01 6.075219723854696427e-15 2.547914068856509118e-14 9.466308081374288919e-15 -8.851187249364058859e-16
4.773000000000000000e+03 1.028145980834960938e+01 2.434280967712402344e+01 1.315624533279472277e-14 3.258950455418269110e-13 1.017153822648921013e-13 1.902532137772671925e-15
4.774000000000000000e+03 6.352109909057617188e+01 1.646169090270996094e+01 4.672447866983786557e-14 -2.087299652781329784e-13 -4.860164598248853385e-14 -7.122139656463508106e-14
4.775000000000000000e+03 7.381765842437744141e+00 2.033448410034179688e+01 -1.381593746200594774e-14 2.228336330560576339e-13 6.270530698414961135e-14 -1.192460030458725173e-13
4.776000000000000000e+03 3.499410629272460938e+01 5.038519859313964844e+00 -1.015487336147175013e-13 -8.927183807721367215e-14 -5.724617286283206763e-14 3.745951709628950188e-14
4.777000000000000000e+03 3.394928359985351562e+01 4.213612556457519531e+00 -1.400545532413005612e-13 -1.427243401046739135e-14 -4.629809922484899587e-14 -5.468967835021987245e-14
4.778000000000000000e+03 5.597133636474609375e+01 -2.779465913772583008e-01 -7.008745661748680411e-14 -9.866390202669522713e-14 -5.062540759325460937e-14 -1.936590536370796922e-13
4.779000000000000000e+03 9.249973297119140625e+00 2.343255424499511719e+01 -7.958108320547593872e-14 1.717730910852713344e-13 2.765760270275179761e-14 -5.235506581220683575e-14
4.780000000000000000e+03 3.500593185424804688e+01 4.407928466796875000e+00 -9.564210182297014362e-14 -4.098947269386317427e-14 -4.098947269386317427e-14 -1.132465364431060884e-13
4.781000000000000000e+03 6.876042175292968750e+01 3.347747325897216797e+00 5.592331746339176957e-15 -8.910518265077549405e-14 -2.505385561014407403e-14 8.627529300784392285e-14
4.782000000000000000e+03 5.109648895263671875e+01 -2.607089281082153320e-01 -5.880709873055944836e-14 4.323064530051962118e-13 1.120498076376437446e-13 -9.784469749989001958e-15
4.783000000000000000e+03 6.674346923828125000e+01 3.732891798019409180e+00 -1.340053556401349377e-13 -1.167991518660847078e-14 -4.370557870692418079e-14 -8.181802268027518754e-14
4.784000000000000000e+03 2.691926956176757812e+01 -2.801266670227050781e+00 1.437812271586763613e-13 -2.988137420335303107e-14 3.416995283727838895e-14 -7.401805541097997154e-14
4.785000000000000000e+03 3.915807342529296875e+01 -1.162781047821044922e+01 1.322256208333410371e-14 2.344215587705283932e-13 7.429323269862037060e-14 5.646426997295804495e-14
4.786000000000000000e+03 5.952714538574218750e+01 -8.427687287330627441e-01 -6.308742048731497132e-14 1.102153849956433174e-13 1.413838935249850381e-14 6.153238234560395523e-15
4.787000000000000000e+03 6.065422821044921875e+01 2.772470951080322266e+00 -1.407631708405781418e-14 -6.032707140232003093e-15 -6.032707140232003093e-15 -1.304496214418445280e-14
4.788000000000000000e+03 4.722795867919921875e+01 -4.867375373840332031e+00 -1.393694458885069709e-14 -1.060531735130529341e-13 -3.599703678582380495e-14 1.055346673765888976e-13
4.789000000000000000e+03 7.069226837158203125e+01 3.132017374038696289e+00 -1.401969903017108443e-13 -2.005234289704192763e-14 -4.807479826555993707e-14 1.521721252695576454e-13
4.790000000000000000e+03 6.337141036987304688e+00 1.675883483886718750e+01 6.045869778122450744e-14 3.004165655389606782e-13 1.082625810289346291e-13 -5.689722916988118606e-14
4.791000000000000000e+03 6.335637283325195312e+01 2.896775484085083008e+00 -8.197390384762429094e-14 -2.181354733345533536e-13 -9.003281247702693557e-14 1.276113953006460799e-13
4.792000000000000000e+03 6.431063652038574219e+00 1.224336051940917969e+01 7.056075829962177304e-14 2.132441223384393125e-13 8.514146148091289446e-14 6.760534515017069257e-14
4.793000000000000000e+03 6.854941844940185547e+00 2.271756172180175781e+01 -1.552473427590683741e-13 1.164692122043384237e-13 -1.163343848879262732e-14 -1.282337137951256034e-13
4.794000000000000000e+03 6.809357452392578125e+01 1.013127708435058594e+01 -2.551484651542364895e-14 -3.952927598422327493e-14 -1.951323691930066662e-14 4.821873965648454385e-14
4.795000000000000000e+03 6.761410522460937500e+01 1.073587703704833984e+01 -1.758642466679824490e-13 -2.354987136288927418e-13 -1.234088921548207041e-13 5.571704800007640235e-14
4.796000000000000000e+03 4.537516403198242188e+01 -3.583757877349853516e+00 6.582319460541122269e-14 2.569646969166616834e-13 9.683636406849008282e-14 1.785639100774713550e-13
4.797000000000000000e+03 2.926521110534667969e+01 -3.787046194076538086e+00 -2.862073930311919215e-15 -1.842303978642767515e-13 -5.612774039488212241e-14 -9.936955501065741769e-14
4.798000000000000000e+03 4.385673904418945312e+01 -2.625720739364624023e+00 2.111258928371318594e-14 -1.282045894142672116e-13 -3.212760054738597604e-14 -3.732245022476481100e-14
4.799000000000000000e+03 5.019146728515625000e+01 -3.334006547927856445e+00 6.006490199965061616e-14 2.544968359316501783e-13 9.436852341226931173e-14 1.338441483296134993e-13
4.800000000000000000e+03 4.715780258178710938e+01 -5.706041336059570312e+00 -8.717105406648786858e-14 -4.948685233298333319e-13 -1.746118711860172867e-13 5.789665350874190208e-14
4.801000000000000000e+03 3.819789886474609375e+01 -9.583814620971679688e+00 4.250141634031673332e-14 3.384715467971699532e-13 1.142918902964987216e-13 -6.220377538794855110e-14
4.802000000000000000e+03 7.136701202392578125e+01 4.497354984283447266e+00 -1.371469127500746232e-13 -1.302629777319170429e-14 -4.505196129350741430e-14 1.265444590477574072e-13
4.803000000000000000e+03 3.706594848632812500e+01 -2.064584970474243164e+00 4.512700163637056727e-15 1.391868662426604120e-13 4.310986721138380939e-14 -9.742362895148043433e-14
4.804000000000000000e+03 3.424755859375000000e+01 -1.456272125244140625e+00 -5.222649298707721099e-14 -1.138846775130403222e-13 -4.983335386054069116e-14 2.027067368600972246e-15
4.805000000000000000e+03 6.048530101776123047e+00 1.459709072113037109e+01 2.081794717894488306e-14 3.978050527875254261e-13 1.255868916890182097e-13 8.728467845416434945e-14
4.806000000000000000e+03 6.807042694091796875e+01 5.231319427490234375e+00 -7.166572294371037488e-14 -3.071387884149602565e-14 -3.071387884149602565e-14 1.241849369648315160e-13
4.807000000000000000e+03 6.922756195068359375e+01 5.092341899871826172e+00 -1.755173561828957118e-13 -1.209726763207186195e-13 -8.894701110633701502e-14 -9.849974026525376569e-14
4.808000000000000000e+03 3.832580184936523438e+01 -3.751340627670288086e+00 -4.481913226509794124e-14 -1.920820002620365896e-14 -1.920820002620365896e-14 1.876706526727361934e-14
4.809000000000000000e+03 3.571389389038085938e+01 -6.040572166442871094e+00 -6.737116425717740165e-14 1.083794919044464566e-13 1.230249880240048485e-14 1.174724380270664170e-13
4.810000000000000000e+03 4.670482635498046875e+01 -6.508058547973632812e+00 5.153885131170543588e-14 -1.609157143471484641e-13 -3.281306026588562408e-14 8.702783773576611148e-14
4.811000000000000000e+03 4.614080047607421875e+01 -7.944241046905517578e+00 1.006589966543944281e-13 2.261433634754769773e-13 9.804070939421413722e-14 2.343611416044666385e-13
4.812000000000000000e+03 3.622285079956054688e+01 -2.751141309738159180e+00 1.177783558344285691e-14 -6.712249063045658964e-16 3.331983033734897855e-15 9.904851597112088180e-14
4.813000000000000000e+03 4.442941665649414062e+01 -1.111452102661132812e+01 1.125939890368049534e-13 2.541338450443020314e-13 1.100183448033212330e-13 -1.056194452102136860e-13
4.814000000000000000e+03 4.401828002929687500e+01 -9.232458114624023438e+00 4.081911742751138938e-14 -1.655098855277842285e-13 -3.740723144652138843e-14 -1.378523353410751606e-13
4.815000000000000000e+03 4.416536331176757812e+01 -1.048672389984130859e+01 5.342506154810099106e-15 -4.346130456933140762e-14 -1.143563935494980310e-14 -1.154637773196839912e-13
4.816000000000000000e+03 4.458556747436523438e+01 -1.257338714599609375e+01 9.212627812308846198e-14 8.523363899436489644e-14 5.320797716811508093e-14 -6.709173147600999698e-14
4.817000000000000000e+03 6.974885559082031250e+01 1.535132217407226562e+01 9.339340553086300512e-14 1.315276419678809705e-13 6.747631153911776147e-14 6.004697878248671516e-14
4.818000000000000000e+03 6.816378021240234375e+01 6.065062999725341797e+00 -1.119784874634849325e-13 -1.852436254520459236e-13 -8.916663658516468804e-14 1.734196418195707579e-13
4.819000000000000000e+03 4.732040023803710938e+01 -6.710748195648193359e+00 -3.186140519711826158e-14 -1.966586886826410252e-13 -6.855602782511460713e-14 6.545203154418796632e-14
4.820000000000000000e+03 7.214825439453125000e+01 5.572679519653320312e+00 -1.217279180015448659e-13 3.933279144551458939e-14 -2.471853728918272514e-14 -3.469251795562566798e-14
4.821000000000000000e+03 7.210023498535156250e+01 8.270681381225585938e+00 -9.512839328111935555e-14 -1.093957349295078540e-13 -6.135723710793544727e-14 1.035232419536666337e-13
4.822000000000000000e+03 3.375050735473632812e+01 -4.945580959320068359e+00 -6.272391460393489382e-14 2.933749705842647604e-13 6.919531408359352875e-14 -5.539498913287137227e-14
4.823000000000000000e+03 4.469962692260742188e+01 -9.041522026062011719e+00 2.785816994026624888e-14 3.481469059980583924e-14 1.880185799261503699e-14 5.468720162588210087e-14
4.824000000000000000e+03 4.649950027465820312e+01 -6.997211933135986328e+00 6.981313991532081542e-14 -4.275895772436894005e-13 -1.073329318761369333e-13 1.225511798161674215e-13
4.825000000000000000e+03 4.620261383056640625e+01 -6.225287437438964844e+00 3.847601761936686460e-14 -3.952688057504843977e-13 -1.070378391498406911e-13 2.598649478924557749e-14
4.826000000000000000e+03 7.151820373535156250e+01 1.441532707214355469e+01 -1.034330769904973080e-13 -9.007940606538950012e-14 -5.805374762727147364e-14 -8.257730979045752040e-14
4.827000000000000000e+03 6.904895782470703125e+01 9.056932449340820312e+00 -4.741481645108075113e-15 8.946983372270025936e-14 2.541850498800294483e-14 4.331402925672640791e-14
4.828000000000000000e+03 3.705042266845703125e+01 -8.039891242980957031e+00 -1.051170174531544307e-14 1.770690663321569658e-13 4.996720878312939373e-14 5.484941097638014115e-15
4.829000000000000000e+03 7.033161163330078125e+01 1.419807529449462891e+01 -5.761643044583470916e-15 8.968461925526732131e-15 9.620456219313310020e-16 -1.147705384505967596e-13
4.830000000000000000e+03 7.055295562744140625e+01 1.481813621520996094e+01 -1.274656006016328808e-14 8.603908601204079964e-14 2.198775727734348512e-14 -1.024946322475753235e-13
4.831000000000000000e+03 6.868410491943359375e+01 7.017414093017578125e+00 -1.274462577572493815e-13 5.975755101254170976e-14 -2.030661202341230154e-14 9.345211507850309518e-14
4.832000000000000000e+03 6.956877136230468750e+01 5.411820411682128906e+00 -8.367427166726046361e-14 -3.789925187916431959e-13 -1.388000364600447400e-13 4.143964021214273374e-14
4.833000000000000000e+03 6.943213653564453125e+01 6.960114955902099609e+00 -1.351854419422496290e-13 -6.937435651985235374e-14 -6.136793682812516360e-14 -1.511784065446296343e-14
4.834000000000000000e+03 7.180742645263671875e+01 1.183047103881835938e+01 -6.766986873196073615e-15 -4.865108560155387285e-14 -1.662542208123816284e-14 -1.133331946898737813e-14
4.835000000000000000e+03 3.805054473876953125e+01 -6.753100872039794922e+00 7.217935017039822654e-14 -3.007603660478558316e-13 -6.857431018424814395e-14 -4.227827059256027142e-14
4.836000000000000000e+03 6.997492980957031250e+01 5.622014045715332031e+00 -2.791662368395626814e-14 -1.034661654855488500e-13 -3.941483505678564092e-14 1.745119212982412793e-13
4.837000000000000000e+03 4.310786056518554688e+01 -8.074670791625976562e+00 1.393012360193304766e-13 1.969533748331225853e-13 1.008763791899777718e-13 -1.060735836189499737e-13
4.838000000000000000e+03 7.008009338378906250e+01 8.158719062805175781e+00 2.305275869522239226e-16 9.874928294777846061e-14 2.969394275278459949e-14 4.822953763249614167e-14
4.839000000000000000e+03 7.060391998291015625e+01 8.678572654724121094e+00 -6.154980496629602893e-14 1.937246173753289641e-14 -1.265320262981576085e-14 1.992866456709471712e-13
4.840000000000000000e+03 3.193210411071777344e+01 -4.336328029632568359e+00 4.503937099577942638e-14 -2.644836152659261336e-14 5.577302417239570279e-15 -2.765192927607108830e-14
4.841000000000000000e+03 4.278447723388671875e+01 -7.394845008850097656e+00 -1.399359415236306470e-13 1.230312509856168468e-13 -5.071405213228361367e-15 -1.911479329853860154e-13
4.842000000000000000e+03 7.062989807128906250e+01 5.165641307830810547e+00 -2.647835021987038351e-13 -6.772769736533568175e-14 -9.975336257971728626e-14 7.410583512936982920e-14
4.843000000000000000e+03 6.905633544921875000e+01 7.378158092498779297e+00 -8.777303021770613278e-14 4.316200378335320609e-14 -1.338330776089928856e-14 8.798524564055298838e-16
4.844000000000000000e+03 6.899060058593750000e+01 6.707499027252197266e+00 -1.131351211173560467e-13 2.260192087742002309e-13 3.386522765230597087e-14 -8.404991383870880073e-14
4.845000000000000000e+03 7.038507080078125000e+01 5.728816986083984375e+00 -2.713254696872641203e-13 -1.620332963940193660e-13 -1.300076311796377615e-13 -1.037886614217546632e-13
4.846000000000000000e+03 7.160413360595703125e+01 8.587329864501953125e+00 -9.575255491929210439e-14 -1.325387147038323277e-13 -6.848737749880554060e-14 5.691780868236767654e-14
4.847000000000000000e+03 7.040266418457031250e+01 4.767024993896484375e+00 -1.611750826118613089e-13 -3.207052407926819226e-13 -1.445641024423738319e-13 -8.568877351384715513e-14
4.848000000000000000e+03 7.093710327148437500e+01 6.877382278442382812e+00 -6.180779087323895471e-14 2.251411676448128452e-13 4.900001235384580933e-14 6.171345850796913779e-14
4.849000000000000000e+03 7.117211151123046875e+01 8.061498641967773438e+00 -1.004469199331926854e-13 9.420416513918408730e-14 -1.872827115828937239e-15 5.892895627848324103e-14
4.850000000000000000e+03 6.800631713867187500e+01 -1.072897243499755859e+01 -1.304235497677280406e-14 5.205463339021110247e-13 1.522511907129861508e-13 -2.123145511126727641e-14
4.851000000000000000e+03 6.850318145751953125e+01 -1.083138084411621094e+01 -3.629549392698654120e-14 1.216976281033510521e-13 2.562064262460160557e-14 1.370690399290358519e-13
4.852000000000000000e+03 6.938093566894531250e+01 -1.172354316711425781e+01 -2.029374660938304542e-13 5.027964874418540397e-14 -4.579734351082762056e-14 1.589885606556650042e-15
4.853000000000000000e+03 6.942307281494140625e+01 -1.098462772369384766e+01 -7.814275349840235640e-15 -7.197539818922654709e-14 -2.393690206172003482e-14 -4.115753758312558352e-14
4.854000000000000000e+03 6.821289062500000000e+01 -1.118061161041259766e+01 1.437938547258540284e-14 1.891663908848428832e-13 6.106373002731646515e-14 4.276319102563272759e-15
4.855000000000000000e+03 6.838651275634765625e+01 -1.171088409423828125e+01 -2.996109694434860582e-14 3.291047921921523567e-14 8.848142165918679650e-16 3.330362786761742466e-14
4.856000000000000000e+03 2.766562461853027344e+01 -1.522782707214355469e+01 1.621595957827185602e-14 7.557612169547742176e-14 2.753762387390501498e-14 -1.491256899595946178e-14
4.857000000000000000e+03 2.716068267822265625e+01 -1.579503345489501953e+01 -7.485388041827620298e-14 -4.351797107350272031e-14 -3.551155476990731918e-14 -2.404358586142671395e-14
4.858000000000000000e+03 2.838861465454101562e+01 -1.562849044799804688e+01 -7.397743848709323333e-14 -2.147084186875439227e-13 -8.660575783001750461e-14 -8.467550526849651482e-14
4.859000000000000000e+03 3.358414077758789062e+01 -1.891993904113769531e+01 1.602385894328497984e-13 6.867368408962001847e-14 6.867368408962001847e-14 -5.417199637681351446e-15
4.860000000000000000e+03 3.334826278686523438e+01 -1.833867454528808594e+01 6.518552787392745129e-14 5.061181525555001962e-15 2.107401370922933059e-14 -1.964560106390220162e-14
4.861000000000000000e+03 2.911111640930175781e+01 -1.602958297729492188e+01 5.673057374344300796e-14 -2.143784654732704825e-14 1.058781866705455627e-14 4.276533401898928097e-15
4.862000000000000000e+03 2.983483314514160156e+01 -1.643087959289550781e+01 -1.963050524271623548e-14 3.733787638880020632e-14 5.312211174418601800e-15 -1.220320909210356741e-13
4.863000000000000000e+03 3.056433296203613281e+01 -1.683390235900878906e+01 7.413744639896135968e-14 1.003996148371544272e-13 5.236111701558202047e-14 2.732684311311257136e-14
4.864000000000000000e+03 3.131928253173828125e+01 -1.725506210327148438e+01 -1.894329724821345456e-14 -1.568091359885337432e-13 -5.272573081805710660e-14 -3.637560969126964194e-14
4.865000000000000000e+03 3.272276687622070312e+01 -1.886720657348632812e+01 2.152909334097660721e-13 9.226754288989974517e-14 9.226754288989974517e-14 -4.292983205251080236e-14
4.866000000000000000e+03 3.140422821044921875e+01 -1.826373291015625000e+01 -1.228072942038133889e-15 1.024133170846389107e-13 3.035557374041208956e-14 -6.559877830823387934e-14
4.867000000000000000e+03 2.787630653381347656e+01 -1.619334411621093750e+01 5.050107416802599239e-15 4.791528163280121821e-14 1.588961641841961370e-14 2.351861178137744368e-14
4.868000000000000000e+03 2.930840873718261719e+01 -1.699032974243164062e+01 2.779682612016019794e-14 2.335066208859586101e-14 1.534424578500045988e-14 -2.394333442992148397e-14
4.869000000000000000e+03 3.003084945678710938e+01 -1.739065170288085938e+01 -1.425866294881093094e-14 -1.376448325977885911e-13 -4.557105018863916168e-14 -5.520108635058591784e-14
4.870000000000000000e+03 2.859174919128417969e+01 -1.659173393249511719e+01 -6.241462560544266958e-14 -6.678120242128299244e-14 -3.875875044089677202e-14 -8.149640088207094069e-14
4.871000000000000000e+03 3.077874183654785156e+01 -1.780911064147949219e+01 5.665292792723410076e-14 -7.294094121019709109e-14 -4.886403476669128748e-15 4.490183656206785112e-14
4.872000000000000000e+03 3.285071182250976562e+01 -1.793733978271484375e+01 6.639266502024565586e-14 5.132947154340775087e-14 3.531664232434873762e-14 -7.256605120400591580e-14
4.873000000000000000e+03 3.272123336791992188e+01 -1.835006904602050781e+01 -5.113565431144996912e-15 8.931036791191837576e-14 2.525904087128695574e-14 1.002692297850341519e-15
4.874000000000000000e+03 3.211326980590820312e+01 -1.762816238403320312e+01 3.675427577033967691e-15 9.307708277077678116e-14 2.902575234201357213e-14 -1.557850663790397161e-13
4.875000000000000000e+03 3.201009750366210938e+01 -1.816357231140136719e+01 1.399082130530693302e-13 1.972135155918833260e-13 1.011365199487385125e-13 -2.231184800718238881e-13
4.876000000000000000e+03 3.197431755065917969e+01 -1.864612007141113281e+01 8.762092342916999455e-14 -1.454519691539493675e-13 -1.734931337862063300e-14 -9.625267705266893348e-14
4.877000000000000000e+03 2.530637550354003906e+01 -1.356169223785400391e+01 -1.853399398744123155e-14 2.637007027127789838e-14 2.350822842799352684e-15 -6.420811283916819101e-14
4.878000000000000000e+03 2.572761344909667969e+01 -1.414825344085693359e+01 8.872519689437363688e-14 1.867156602941566490e-13 8.263225851181180137e-14 5.872663737683386787e-14
4.879000000000000000e+03 2.658557510375976562e+01 -1.530874633789062500e+01 -1.520971493011984838e-14 8.498344579053671022e-14 2.093212044397118471e-14 -9.360093114403915046e-16
4.880000000000000000e+03 2.615420341491699219e+01 -1.473102283477783203e+01 -6.030556100062450797e-14 -7.159619170313616388e-14 -3.957052648875455936e-14 6.717058621999287289e-16
4.881000000000000000e+03 2.710262870788574219e+01 -1.476232051849365234e+01 -6.471406255922212969e-14 -2.564893555791897262e-13 -9.636102273101812554e-14 -1.606134451342066099e-15
4.882000000000000000e+03 2.591913032531738281e+01 -1.314595413208007812e+01 -7.199578796633285260e-14 1.063975093467707522e-13 1.032051793879067494e-14 2.260204251135124881e-14
4.883000000000000000e+03 2.630846977233886719e+01 -1.368895244598388672e+01 2.147481148866169955e-15 -1.820834471697937995e-13 -5.398078970039917046e-14 -2.524234924002836250e-14
4.884000000000000000e+03 2.670315742492675781e+01 -1.422815895080566406e+01 8.340448828542817994e-14 1.729976296764579313e-13 7.692063403331311777e-14 7.597361731696491982e-14
4.885000000000000000e+03 2.387622833251953125e+01 -1.096773529052734375e+01 -5.470894665570401327e-14 2.053080470389156975e-13 4.517973113140304198e-14 -1.360112380794503695e-13
4.886000000000000000e+03 2.422143554687500000e+01 -1.162815856933593750e+01 1.265787740465165734e-13 -2.581611411190537497e-14 3.022879662513064392e-14 -1.110919217945163795e-13
4.887000000000000000e+03 2.456985282897949219e+01 -1.228557014465332031e+01 7.900221411305877184e-14 -3.476833079253671688e-14 1.327016618200274264e-14 4.231600760442634501e-14
4.888000000000000000e+03 2.520655250549316406e+01 -1.190669059753417969e+01 8.545222770486513020e-14 -9.128564705084950964e-15 2.289709966226370630e-14 2.618457852615867915e-14
4.889000000000000000e+03 2.492157745361328125e+01 -1.293985366821289062e+01 -1.191226310030390340e-14 4.064569251375875492e-14 8.620028993443044907e-15 2.416247540590332754e-14
4.890000000000000000e+03 2.555294799804687500e+01 -1.255092239379882812e+01 3.004944248074722934e-14 5.862928279800824760e-14 2.660361758362664308e-14 -6.428553842681081210e-14
4.891000000000000000e+03 2.452358436584472656e+01 -1.060895919799804688e+01 -3.366766568768837786e-14 5.345823610169997409e-13 1.502744191020019549e-13 -2.635558092568216632e-14
4.892000000000000000e+03 2.486346435546875000e+01 -1.125933074951171875e+01 -8.636095175573385574e-14 5.449006317773813501e-14 -9.561266403992126767e-15 1.432881997732657342e-13
4.893000000000000000e+03 2.278476524353027344e+01 -8.988129615783691406e+00 1.114400726646286310e-13 1.850128801246866961e-13 8.893588448154188253e-14 -6.813445613913435284e-14
4.894000000000000000e+03 2.241554069519042969e+01 -8.329325675964355469e+00 5.270947794986519108e-14 2.258977747427500654e-14 2.258977747427500654e-14 -1.180691693502752826e-13
4.895000000000000000e+03 2.379572296142578125e+01 -9.280672073364257812e+00 1.332123972762333519e-13 1.943438763868030050e-13 9.826688074365819148e-14 -1.440926879496453455e-14
4.896000000000000000e+03 2.315305709838867188e+01 -9.647591590881347656e+00 3.004778907243418895e-14 1.501304641585501920e-13 5.405347867980074550e-14 -6.015188889520184379e-14
4.897000000000000000e+03 2.352040100097656250e+01 -1.030764293670654297e+01 7.490971683015920646e-14 1.350438044809415539e-13 6.298605436045115469e-14 -3.699105366634924952e-14
4.898000000000000000e+03 2.416796875000000000e+01 -9.949502944946289062e+00 -2.477382270613353969e-15 2.276930000880833527e-13 6.756468756870248615e-14 4.875264993412734699e-15
4.899000000000000000e+03 2.304839897155761719e+01 -7.944846630096435547e+00 -1.752731396435433520e-14 9.542793123632278829e-14 2.337018450396417812e-14 -9.402735209364243563e-14
4.900000000000000000e+03 2.342252731323242188e+01 -8.612430572509765625e+00 -3.040760400974660584e-15 1.359496689485803489e-13 3.987266991730374632e-14 -7.787338346864833283e-14
4.901000000000000000e+03 2.176358604431152344e+01 -5.991405963897705078e+00 5.575228118255039222e-14 1.153957300808333697e-13 5.134440304020194967e-14 -3.760795114996634547e-14
4.902000000000000000e+03 2.073557853698730469e+01 -5.794119834899902344e+00 5.216393452172479739e-14 1.138578706143256181e-13 4.980654018556240903e-14 -2.501294053065990231e-14
4.903000000000000000e+03 2.159106254577636719e+01 -7.055338859558105469e+00 7.814814740421047179e-14 1.135562252411494166e-13 5.751130772784981970e-14 -8.968658437170495129e-15
4.904000000000000000e+03 2.201800537109375000e+01 -7.684557914733886719e+00 -1.323272563166820806e-14 -2.854664340199222772e-14 -1.253381079480142546e-14 -9.126126097229805834e-14
4.905000000000000000e+03 2.264233016967773438e+01 -7.286725521087646484e+00 2.931489889702008911e-14 1.498163707891811414e-13 5.373938192229990585e-14 -6.320168862003136545e-14
4.906000000000000000e+03 2.132341575622558594e+01 -5.342503070831298828e+00 -6.251240031261012797e-14 2.019637170176669105e-13 4.183539433389067697e-14 -1.489730546224993929e-14
4.907000000000000000e+03 2.116358566284179688e+01 -6.425094127655029297e+00 -2.335242730525793897e-14 4.718050426798063579e-14 7.148422750003630144e-15 -6.355559931418494624e-14
4.908000000000000000e+03 2.220322418212890625e+01 -6.639578342437744141e+00 9.622380678169471790e-15 4.987482459363826170e-14 1.784916276738844620e-14 -1.377016312390996755e-13
4.909000000000000000e+03 1.974656295776367188e+01 -3.537436008453369141e+00 1.356034696423785713e-13 3.783724093590901116e-13 1.541927664109460361e-13 -6.371700313635014767e-14
4.910000000000000000e+03 1.870244216918945312e+01 -3.497282505035400391e+00 2.346669408272161750e-13 4.208281943404723613e-13 1.966485378398011297e-13 -1.896850460991056364e-13
4.911000000000000000e+03 1.974456596374511719e+01 -4.629005432128906250e+00 1.205114296114889738e-13 9.882842293010632440e-14 6.580195779535766287e-14 -1.530964753842373183e-13
4.912000000000000000e+03 2.026276969909667969e+01 -5.195233345031738281e+00 2.204311494620470047e-13 1.430808732128321936e-13 1.090536081577164751e-13 -6.442506169388254045e-14
4.913000000000000000e+03 2.083261680603027344e+01 -4.721695899963378906e+00 3.287094649750098296e-14 1.513403931254625467e-13 5.526340087044952221e-14 -4.139998212955228740e-14
4.914000000000000000e+03 1.920084571838378906e+01 -2.946005821228027344e+00 9.669076249298885761e-14 4.143889821128093898e-14 4.143889821128093898e-14 -9.363801509350289098e-14
4.915000000000000000e+03 1.922434425354003906e+01 -4.062799930572509766e+00 1.384080160595282938e-13 1.093578217347887516e-13 7.432974998304239800e-14 -1.125681850250997984e-13
4.916000000000000000e+03 2.029059791564941406e+01 -4.129554748535156250e+00 1.459961573293741544e-13 2.913245274356601744e-13 1.311962013637521518e-13 -6.733245146335609110e-14
4.917000000000000000e+03 1.724629974365234375e+01 -1.505973219871520996e+00 1.012927534817936737e-13 4.094187825137013403e-13 1.532134607986485042e-13 -1.825429320504931563e-13
4.918000000000000000e+03 1.620514488220214844e+01 -1.697480440139770508e+00 3.155914115107738560e-13 2.267553549442635763e-13 1.627040245155003673e-13 -1.268243593911116962e-13
4.919000000000000000e+03 1.748624420166015625e+01 -2.562495470046997070e+00 8.646580765834036009e-14 2.314983057680186640e-13 9.538923877129221185e-14 -1.280963182748173779e-13
4.920000000000000000e+03 1.812313652038574219e+01 -2.997157573699951172e+00 1.839550376175197455e-13 3.308692634652367348e-14 6.511258817277348898e-14 -2.082999978015795395e-13
4.921000000000000000e+03 1.859226417541503906e+01 -2.421155929565429688e+00 -2.843305374266658428e-15 3.190380902171052746e-13 9.485843371643404298e-14 -1.607343950863274196e-13
4.922000000000000000e+03 1.657006454467773438e+01 -1.050868153572082520e+00 5.543743225979239075e-14 1.152608011204675487e-13 5.120946730357255061e-14 -1.236152514036284802e-14
4.923000000000000000e+03 1.792063713073730469e+01 -1.962957024574279785e+00 7.112576315675828154e-14 3.048246944030615080e-14 3.048246944030615080e-14 -2.216560946290482836e-13
4.924000000000000000e+03 1.684664344787597656e+01 -2.129048585891723633e+00 4.216783104876546673e-14 1.807192735031864367e-14 1.807192735031864367e-14 -5.495906870876463013e-14
4.925000000000000000e+03 1.437439537048339844e+01 -8.830149471759796143e-02 1.011591458928255693e-13 4.335392112041029644e-14 4.335392112041029644e-14 -1.528532786725534526e-14
4.926000000000000000e+03 1.338726615905761719e+01 -4.958960413932800293e-01 1.222183331373461607e-14 5.098887620718500768e-14 1.896321268686929767e-14 1.675596510500310110e-14
4.927000000000000000e+03 1.481616306304931641e+01 -1.058209896087646484e+00 8.506589936575423283e-14 1.358133982880260771e-14 2.959417243599340996e-14 -1.024255279116065287e-13
4.928000000000000000e+03 1.552819252014160156e+01 -1.340840697288513184e+00 7.312823713549396198e-14 5.421614627512325035e-14 3.820331705606423711e-14 -1.854663476833287583e-13
4.929000000000000000e+03 1.586064529418945312e+01 -6.765008568763732910e-01 6.505358046953596540e-14 2.108838955241013058e-13 8.278124144283846575e-14 -1.685333188110316183e-13
4.930000000000000000e+03 1.362912273406982422e+01 2.041978091001510620e-01 1.470894566357131700e-14 6.303833492802158461e-15 6.303833492802158461e-15 -1.653300299398960393e-13
4.931000000000000000e+03 1.511841678619384766e+01 -3.819521367549896240e-01 8.100154390549424432e-14 2.177187466770313939e-13 8.961608581950497587e-14 -1.580142267032513814e-13
4.932000000000000000e+03 1.410233974456787109e+01 -7.764772772789001465e-01 8.121449476469755346e-14 -1.024466359726521059e-13 -6.369640753023765936e-15 -4.347425062089724235e-14
4.933000000000000000e+03 1.131013679504394531e+01 8.408998847007751465e-01 6.338828659017969880e-14 -1.858454152560157918e-14 1.344112284174707808e-14 -2.319328506106190652e-14
4.934000000000000000e+03 1.042135906219482422e+01 2.992311716079711914e-01 -6.204604430064264431e-14 1.915978701107039217e-14 -1.286587735627826509e-14 1.964034776556333045e-14
4.935000000000000000e+03 1.191366195678710938e+01 -7.340838760137557983e-02 -3.960972717355348838e-14 -1.697559736009435216e-14 -1.697559736009435216e-14 -3.683775425542337723e-14
4.936000000000000000e+03 1.265766906738281250e+01 -2.614961266517639160e-01 4.729813003929994597e-14 -1.169822160147770962e-13 -2.090522714789586067e-14 -3.474220152017981622e-14
4.937000000000000000e+03 1.286749935150146484e+01 4.488001465797424316e-01 -1.549231307341114236e-15 -9.216585150238418289e-14 -2.811452615581865738e-14 5.002381768906029313e-14
4.938000000000000000e+03 1.052962684631347656e+01 1.034987807273864746e+00 5.584825001547430445e-14 -2.181598407783799654e-14 1.020967944247771347e-14 1.300633727238306725e-13
4.939000000000000000e+03 1.116801452636718750e+01 1.136300638318061829e-01 -8.783421310155220540e-14 7.673413770711845494e-14 -3.330022999494951404e-15 2.678315976932434811e-14
4.940000000000000000e+03 1.208963775634765625e+01 6.453746557235717773e-01 -5.859552345286248021e-14 -7.086331846838100912e-14 -3.883765325399940460e-14 -9.333252757887794404e-14
4.941000000000000000e+03 8.889401435852050781e+00 3.921107649803161621e-01 3.379785465168136382e-14 -8.390678729347945258e-15 7.622153030809909746e-15 1.811942218173708680e-14
4.942000000000000000e+03 8.116916656494140625e+00 3.926678001880645752e-01 2.668039129471305726e-13 -9.153473741778037076e-14 5.258075604693684957e-14 1.436400640358187486e-13
4.943000000000000000e+03 6.570821762084960938e+00 3.927459418773651123e-01 1.530576880515166494e-13 1.984520607198857201e-14 5.187086789823838751e-14 -8.192681559202052988e-14
4.944000000000000000e+03 7.343883514404296875e+00 3.927603960037231445e-01 3.319787749821861977e-13 1.880275584753912654e-13 1.560018932610096609e-13 -6.708719815567629197e-14
4.945000000000000000e+03 5.070312023162841797e+00 1.132621407508850098e+00 1.029001103075577461e-13 8.985099854896469451e-14 5.782533333458308999e-14 -5.018036631837183292e-15
4.946000000000000000e+03 5.024641513824462891e+00 3.926214277744293213e-01 4.063002918049812839e-14 -7.408902999569630388e-14 -1.003770041396604210e-14 -1.103056516027663136e-13
4.947000000000000000e+03 2.729459524154663086e+00 1.132232308387756348e+00 -2.630370185172873493e-14 8.022888045100887155e-14 1.617755341037745154e-14 -4.015257364878982438e-14
4.948000000000000000e+03 2.704867601394653320e+00 3.922322988510131836e-01 1.274622090817120745e-13 -1.283771266374911235e-13 -2.744756796622764821e-16 3.171402824055959135e-14
4.949000000000000000e+03 1.949102401733398438e+00 1.132174730300903320e+00 -5.091803884180613055e-15 -9.368410046209710296e-14 -2.963277003333389392e-14 -2.205700052671562966e-14
4.950000000000000000e+03 1.931536912918090820e+00 3.921746909618377686e-01 5.757037641745954559e-14 -2.107793038957743448e-14 1.094773397777122279e-14 -4.655777242142285222e-14
4.951000000000000000e+03 1.158940911293029785e+00 3.918712735176086426e-01 -2.126707623483110876e-14 -5.486541058172082763e-14 -2.283974536733922311e-14 -3.273002223793449600e-15
4.952000000000000000e+03 3.899181485176086426e-01 1.130777001380920410e+00 -2.980920360811517567e-14 -1.500282238936848089e-13 -5.395122825053999538e-14 -1.988043586633077286e-14
4.953000000000000000e+03 3.864050507545471191e-01 3.907769918441772461e-01 5.723011311815212609e-14 7.027814067457269220e-14 3.825247546019108769e-14 -4.882960965364897821e-14
4.954000000000000000e+03 4.251531124114990234e+00 3.925212025642395020e-01 5.295269160220800186e-14 2.269401165469822623e-14 2.269401165469822623e-14 -1.733995027642168396e-14
4.955000000000000000e+03 3.478284358978271484e+00 3.923543989658355713e-01 9.540003335917202065e-14 8.663667792072407559e-14 5.461101270634247107e-14 -1.151304207270284832e-14
4.956000000000000000e+03 4.290175437927246094e+00 1.132521271705627441e+00 1.307038380521721721e-13 1.026498052953805223e-14 4.229064404985376224e-14 -1.739371586215524013e-13
4.957000000000000000e+03 5.797791481018066406e+00 3.927051424980163574e-01 1.865744565137175681e-13 1.943378590647457105e-13 1.142736892525281212e-13 4.129462478344100851e-14
4.958000000000000000e+03 6.630544662475585938e+00 1.132745981216430664e+00 1.941635871180458217e-13 3.746201753754979658e-14 6.948768275193140109e-14 -4.707815219476621516e-14
4.959000000000000000e+03 8.190691947937011719e+00 1.132667779922485352e+00 9.658268786518278692e-14 1.100190021008883023e-13 6.198050427931589557e-14 2.490965062256628171e-13
4.960000000000000000e+03 8.970203399658203125e+00 1.132110714912414551e+00 1.700983375419601318e-13 -2.016064046391971565e-13 -9.452421823237001919e-15 7.463099555666749541e-14
4.961000000000000000e+03 9.661880493164062500e+00 3.908598423004150391e-01 -3.904687039197121678e-14 -8.536079558040671200e-14 -3.732230114696609424e-14 -1.630816927897585367e-14
4.962000000000000000e+03 9.749707221984863281e+00 1.130859851837158203e+00 2.698111306316357261e-14 1.030652342984272885e-13 3.901390386966407942e-14 3.570320444455307718e-14
4.963000000000000000e+03 7.410632610321044922e+00 1.132760405540466309e+00 7.554265372966550984e-14 9.499947147841546202e-15 2.551277975503234846e-14 -3.626484827495488061e-14
4.964000000000000000e+03 1.169480204582214355e+00 1.131871223449707031e+00 5.114135907834972683e-14 -6.958416996901903295e-14 -5.532844622453507444e-15 -6.558757036827581044e-14
4.965000000000000000e+03 5.850488185882568359e+00 1.132705092430114746e+00 1.545606091030160556e-14 6.624025922907913685e-15 6.624025922907913685e-15 -8.027695804109502564e-14
4.966000000000000000e+03 3.509902238845825195e+00 1.132354378700256348e+00 2.972616388609815308e-14 -3.301116433158945984e-14 -9.854994348452105445e-16 1.485401564119484541e-13
4.967000000000000000e+03 7.174558258056640625e+01 -1.261206340789794922e+01 1.220978477827969200e-13 9.807859548387892756e-14 6.605293026949732305e-14 2.001604075898850282e-15
4.968000000000000000e+03 7.020059204101562500e+01 -1.329249191284179688e+01 1.165934346682509504e-13 -4.153328478665938017e-14 2.251804564210382886e-14 4.903929774193946378e-14
4.969000000000000000e+03 7.248383331298828125e+01 -1.338022518157958984e+01 1.346078738924394447e-13 -7.956375629950690476e-14 1.651323256737433076e-14 -8.006416303595401129e-15
4.970000000000000000e+03 7.172280883789062500e+01 -1.335173511505126953e+01 2.401924891078620339e-14 5.604491073703601889e-14 2.401924891078620339e-14 1.301042606982605321e-14
4.971000000000000000e+03 7.249899291992187500e+01 -1.264026165008544922e+01 6.255012377194904549e-14 7.255814330441034965e-14 4.053248147816053415e-14 -3.502807175174635357e-14
4.972000000000000000e+03 7.099210357666015625e+01 -1.258311080932617188e+01 5.604491073703601889e-14 2.401924891078620339e-14 2.401924891078620339e-14 2.101684237342145434e-14
4.973000000000000000e+03 7.023859405517578125e+01 -1.255340576171875000e+01 5.004010105043830980e-14 -7.005614350349270714e-14 -6.004812227696550847e-15 4.003208151797700565e-15
4.974000000000000000e+03 7.096171569824218750e+01 -1.332248878479003906e+01 2.652125379390152943e-14 -1.716375387086563342e-13 -4.353488801552528320e-14 -5.104090097080536681e-14
4.975000000000000000e+03 7.325147247314453125e+01 -1.265057182312011719e+01 5.604491073703601889e-14 2.401924891078620339e-14 2.401924891078620339e-14 -3.602887167211341057e-14
4.976000000000000000e+03 7.399633026123046875e+01 -1.338259124755859375e+01 7.706175649858926224e-14 3.302646513474866152e-14 3.302646513474866152e-14 5.304250758780305885e-14
4.977000000000000000e+03 7.324188995361328125e+01 -1.339066791534423828e+01 -1.235990476633475055e-13 -2.817257603419942580e-13 -1.215974478226133915e-13 -4.803849782157240678e-14
4.978000000000000000e+03 7.475421142578125000e+01 -1.263678169250488281e+01 1.105886215935214523e-13 1.846479647784823874e-13 8.857097591160115191e-14 3.903127820947815962e-14
4.979000000000000000e+03 7.550699615478515625e+01 -1.263319683074951172e+01 4.053248147816053415e-14 -1.656327256339268361e-13 -3.753007494079578510e-14 -5.004010105043830980e-14
4.980000000000000000e+03 7.550802612304687500e+01 -1.337321090698242188e+01 7.155734338404329264e-14 2.136712302317628209e-13 8.556856937423640286e-14 -7.806255641895631925e-14
4.981000000000000000e+03 7.475170898437500000e+01 -1.337682342529296875e+01 7.506014988159157020e-14 -1.050842084789754827e-13 -9.007217918028352643e-15 -9.007217918028352643e-15
4.982000000000000000e+03 7.400237274169921875e+01 -1.264252185821533203e+01 6.505213034913026604e-14 -1.551243129175455815e-13 -2.702165375408505793e-14 3.202566521438160452e-14
4.983000000000000000e+03 7.629489898681640625e+01 -1.262923431396484375e+01 -8.406736949368581735e-14 -3.602887167211341057e-14 -3.602887167211341057e-14 -1.901523745048965680e-14
4.984000000000000000e+03 7.711824798583984375e+01 -1.262617778778076172e+01 -5.654531408535133641e-14 2.151724233360498284e-14 -1.050842118671072717e-14 4.803849782157240678e-14
4.985000000000000000e+03 7.876612091064453125e+01 -1.336754131317138672e+01 -2.952365863720038397e-14 1.245998475837145625e-13 2.852285871683332696e-14 -9.307458910578006450e-14
4.986000000000000000e+03 7.958874511718750000e+01 -1.336683273315429688e+01 5.004010189747125706e-16 -4.553649124439118623e-14 -1.351082687704252897e-14 1.801443583605670529e-14
4.987000000000000000e+03 7.876528167724609375e+01 -1.262054443359375000e+01 -4.853889778175593528e-14 -6.655333022968085155e-14 -3.452766840343103605e-14 -4.303448466720996568e-14
4.988000000000000000e+03 7.794309997558593750e+01 -1.336827182769775391e+01 6.004811719476782494e-14 -2.001604075898850282e-14 1.200962445539310169e-14 2.602085213965210642e-14
4.989000000000000000e+03 7.958847045898437500e+01 -1.261783695220947266e+01 9.507618725244828400e-15 9.557658890669770702e-14 3.152526186606628700e-14 -5.004010189747125706e-15
4.990000000000000000e+03 7.794170379638671875e+01 -1.262327384948730469e+01 2.502005052521915490e-14 -3.502807175174635357e-14 -3.002406113848275424e-15 2.702165375408505793e-14
4.991000000000000000e+03 7.629741668701171875e+01 -1.337023353576660156e+01 4.003208151797700565e-15 -4.403528797570881170e-14 -1.200962445539310169e-14 2.201764398785440585e-14
4.992000000000000000e+03 7.712020111083984375e+01 -1.336917686462402344e+01 -6.255012377194904549e-14 -7.255814330441034965e-14 -4.053248147816053415e-14 -4.303448466720996568e-14
4.993000000000000000e+03 6.825671386718750000e+01 -1.325274658203125000e+01 1.070858150959731747e-13 3.432750774173126684e-13 1.351082738526229732e-13 3.302646513474866152e-14
4.994000000000000000e+03 6.819668579101562500e+01 -1.243776512145996094e+01 1.706367387882892772e-13 1.646319257135597791e-13 1.005806020610601481e-13 7.180754336413505690e-14
4.995000000000000000e+03 6.947481536865234375e+01 -1.326765632629394531e+01 -4.603689120457471473e-14 2.602085213965210642e-14 -6.004812227696550847e-15 -4.903929774193946378e-14
4.996000000000000000e+03 6.943881225585937500e+01 -1.252289867401123047e+01 1.476182999622654979e-13 1.776423517833858323e-13 9.757819552369539906e-14 -1.020818019416107336e-13
4.997000000000000000e+03 6.779605102539062500e+01 -1.314987373352050781e+01 -2.306848559830571022e-13 1.756407519426517183e-13 -1.651323256737433076e-14 1.080866150163402317e-13
4.998000000000000000e+03 6.882043457031250000e+01 -1.329185581207275391e+01 1.386110735739076727e-13 1.966575909279413836e-13 1.005806020610601481e-13 5.004010105043830980e-14
4.999000000000000000e+03 6.870730590820312500e+01 -1.274620151519775391e+01 -1.130906281707026728e-13 -1.170938346284344789e-13 -6.905533680686207210e-14 2.802245536851800944e-14
5.000000000000000000e+03 8.628964424133300781e+00 -1.127831339836120605e+00 2.121700303512122354e-13 -9.207378240914942946e-14 3.602887167211341057e-14 1.180946345488015359e-13
5.001000000000000000e+03 8.708888053894042969e+00 -3.878312706947326660e-01 2.001604042017532392e-13 4.003208151797700565e-14 7.205774334422682115e-14 1.401122768425900472e-14
5.002000000000000000e+03 9.537460327148437500e+00 -3.891042172908782959e-01 2.882309733769072846e-13 -1.281026608575264181e-13 4.803849782157240678e-14 4.003208151797700565e-15
5.003000000000000000e+03 7.879966735839843750e+00 -3.876098990440368652e-01 2.577065080430762656e-13 8.757017599123409490e-14 1.035830085984248972e-13 5.104090097080536681e-14
5.004000000000000000e+03 7.050204277038574219e+00 -3.877464234828948975e-01 1.631307258330091936e-13 2.071660171968497943e-13 1.110890215537049808e-13 9.707779556351187056e-14
5.005000000000000000e+03 6.220408916473388672e+00 -3.876858949661254883e-01 1.501202929869195624e-14 -8.506816941405287436e-14 -2.101684237342145434e-14 7.005614350349270714e-14
5.006000000000000000e+03 5.390924930572509766e+00 -3.877044022083282471e-01 2.502005094873562853e-15 9.257418236933295796e-14 2.852285871683332696e-14 -3.102486190588275849e-14
5.007000000000000000e+03 4.561314582824707031e+00 -3.877847492694854736e-01 -4.853889778175593528e-14 -6.655333022968085155e-14 -3.452766840343103605e-14 5.704571743366665393e-14
5.008000000000000000e+03 3.731149196624755859e+00 -3.877427279949188232e-01 -7.455974992140804170e-14 5.954771723458429644e-14 -4.503608959014176322e-15 2.001604075898850282e-14
5.009000000000000000e+03 2.901477813720703125e+00 -3.876497149467468262e-01 -1.326062604991781746e-13 -1.025822086780578402e-13 -7.055654346367623564e-14 5.504411081666896188e-14
5.010000000000000000e+03 2.072490692138671875e+00 -3.876828253269195557e-01 -1.261010474642651480e-13 -5.404330750817011586e-14 -5.404330750817011586e-14 -7.506014988159157020e-14
5.011000000000000000e+03 1.243568181991577148e+00 -3.880597949028015137e-01 -5.354290754798658736e-14 6.855493684667854359e-14 4.503608959014176322e-15 1.000802037949425141e-14
5.012000000000000000e+03 4.146093726158142090e-01 -3.891866505146026611e-01 -3.803047490097931360e-14 -6.204972381176551699e-14 -3.002405859738391247e-14 -5.504411081666896188e-14
5.013000000000000000e+03 4.108035266399383545e-01 -1.129186630249023438e+00 -5.154130431912068433e-14 -1.135910281308862013e-13 -4.953969770212299228e-14 3.502807175174635357e-14
5.014000000000000000e+03 9.449925422668457031e+00 -1.129104256629943848e+00 1.130906281707026728e-13 1.170938346284344789e-13 6.905533680686207210e-14 0.000000000000000000e+00
5.015000000000000000e+03 7.807655334472656250e+00 -1.127609968185424805e+00 1.486190998826325549e-13 2.466976818139843264e-13 1.185950345089850644e-13 6.305052373213257400e-14
5.016000000000000000e+03 6.985504627227783203e+00 -1.127746462821960449e+00 5.054050101062183831e-14 4.453568793589234021e-14 2.852285871683332696e-14 2.081668171172168513e-13
5.017000000000000000e+03 6.163320541381835938e+00 -1.127685904502868652e+00 5.654531408535133641e-14 -2.151724233360498284e-14 1.050842118671072717e-14 5.304250758780305885e-14
5.018000000000000000e+03 5.341448307037353516e+00 -1.127704381942749023e+00 7.506014649345978118e-15 -4.253408470702643718e-14 -1.050842118671072717e-14 1.251002475438980910e-13
5.019000000000000000e+03 4.519450187683105469e+00 -1.127784729003906250e+00 -5.004010105043830980e-14 7.005614350349270714e-14 6.004812227696550847e-15 1.100882199392720293e-14
5.020000000000000000e+03 3.696896553039550781e+00 -1.127742767333984375e+00 -4.503609128420765773e-14 -6.505213034913026604e-14 -3.302646513474866152e-14 1.441154866884536423e-13
5.021000000000000000e+03 2.874836921691894531e+00 -1.127649784088134766e+00 1.050842118671072717e-14 4.503608959014176322e-15 4.503608959014176322e-15 -8.606896933441993136e-14
5.022000000000000000e+03 2.053461551666259766e+00 -1.127682805061340332e+00 3.652927163229693908e-14 1.986592043212026537e-13 7.055654346367623564e-14 4.703769451307356075e-14
5.023000000000000000e+03 1.232150554656982422e+00 -1.128059864044189453e+00 -8.056456299613753980e-14 -3.452766840343103605e-14 -3.452766840343103605e-14 -2.011612041221202962e-13
5.024000000000000000e+03 1.109471797943115234e+01 -1.421144604682922363e+00 2.274322494656005889e-13 -3.978187814975345238e-14 5.629511410525957216e-14 -1.921539912862896271e-13
5.025000000000000000e+03 1.178201866149902344e+01 -7.772919535636901855e-01 9.407538902614712151e-14 8.606896933441993136e-14 5.404330750817011586e-14 -2.301844560228735737e-14
5.026000000000000000e+03 1.027668380737304688e+01 -1.233754158020019531e+00 1.498701065593549542e-13 -2.727185542824271669e-14 3.677947500052049234e-14 5.104090097080536681e-14
5.027000000000000000e+03 1.217507266998291016e+01 -1.835481405258178711e+00 6.355093046857968053e-14 -1.786431517037528893e-13 -3.452766840343103605e-14 5.854691731421723944e-14
5.028000000000000000e+03 1.247813129425048828e+01 -9.059029817581176758e-01 3.402726844324750755e-14 -2.141716301919463494e-13 -5.404330750817011586e-14 -8.006416303595401129e-14
5.029000000000000000e+03 1.107212448120117188e+01 -6.525825858116149902e-01 2.702165477052459464e-13 7.005614350349270714e-14 1.020818019416107336e-13 -1.140914348673333079e-13
5.030000000000000000e+03 1.033004570007324219e+01 -4.842335283756256104e-01 2.907329867303520832e-13 1.245998475837145625e-13 1.245998475837145625e-13 -4.803849782157240678e-14
5.031000000000000000e+03 1.178715801239013672e+01 -1.412433624267578125e+00 1.000802037949425141e-14 -2.702165477052459464e-13 -7.806255641895631925e-14 1.271018609371593611e-13
5.032000000000000000e+03 1.237739849090576172e+01 -1.387354135513305664e+00 7.305854326459387815e-14 -2.431948956452267829e-13 -5.104090097080536681e-14 -8.306656957331876034e-14
5.033000000000000000e+03 6.750820159912109375e+01 -1.388888740539550781e+01 1.961571909677578551e-13 2.441956955655938399e-13 1.321058605389946461e-13 0.000000000000000000e+00
5.034000000000000000e+03 6.647265625000000000e+01 -1.624384117126464844e+01 5.054050101062183831e-14 6.455173038894673754e-14 3.452766840343103605e-14 1.476808448750907554e-13
5.035000000000000000e+03 7.887950897216796875e+01 -2.603333854675292969e+01 8.506817110811876886e-15 1.866495781717436575e-13 5.854691731421723944e-14 -5.004010189747125706e-15
5.036000000000000000e+03 7.962528991699218750e+01 -1.969572830200195312e+01 8.306656957331876034e-14 -3.302646513474866152e-14 1.501202929869195624e-14 6.104892389139845998e-14
5.037000000000000000e+03 7.887081146240234375e+01 -1.802953910827636719e+01 -4.053248147816053415e-14 -1.546239129573620530e-13 -5.854691731421723944e-14 -1.501202929869195624e-14
5.038000000000000000e+03 7.961920166015625000e+01 -1.650783348083496094e+01 3.903127820947815962e-14 -2.902325867701685547e-14 3.002406113848275424e-15 4.003208151797700565e-15
5.039000000000000000e+03 6.556072235107421875e+01 -1.757946014404296875e+01 6.054852393121493148e-14 1.451162933850842773e-14 2.251804564210382886e-14 6.286287544112964532e-14
5.040000000000000000e+03 6.456515502929687500e+01 -1.884620094299316406e+01 2.602085213965210642e-14 1.341074739322559162e-13 4.803849782157240678e-14 1.103384216134296880e-13
5.041000000000000000e+03 6.140048980712890625e+01 -2.249060821533203125e+01 -8.106496295632106830e-14 -2.902325867701685547e-14 -3.302646513474866152e-14 5.254210593355363584e-15
5.042000000000000000e+03 6.026599884033203125e+01 -2.363907051086425781e+01 -1.851483749030612830e-14 -1.165934346682509504e-13 -4.053248147816053415e-14 8.306656957331876034e-14
5.043000000000000000e+03 6.184794998168945312e+01 -2.309724998474121094e+01 1.288923530623833913e-13 5.523957891584094226e-14 5.523957891584094226e-14 -9.757819552369539906e-15
5.044000000000000000e+03 5.504510116577148438e+01 -2.740084838867187500e+01 -1.261010474642651480e-13 1.861491782115601290e-13 1.801443583605670529e-14 -6.555253030931379454e-14
5.045000000000000000e+03 5.618402481079101562e+01 -2.960108184814453125e+01 -1.095878216731543953e-13 4.453568793589234021e-14 -1.951563910473907981e-14 -4.503609128420765773e-14
5.046000000000000000e+03 5.625402450561523438e+01 -3.663649368286132812e+01 -1.259759576386146329e-13 -6.542743370739970143e-14 -5.742101401567251129e-14 -2.414434890083208551e-14
5.047000000000000000e+03 5.276260757446289062e+01 -3.747380447387695312e+01 -1.175942345886180074e-13 -1.276022608973428896e-13 -7.355895000104098469e-14 -2.423817304633354985e-14
5.048000000000000000e+03 6.263052749633789062e+01 -4.089128875732421875e+01 -1.156551796607091509e-13 -3.815557743212403749e-15 -3.584122338111048189e-14 1.000802037949425141e-14
5.049000000000000000e+03 6.520087432861328125e+01 -3.665562057495117188e+01 -1.000802021008766196e-13 0.000000000000000000e+00 -3.002405859738391247e-14 -3.305774097929307931e-14
5.050000000000000000e+03 6.064542007446289062e+01 -2.936959266662597656e+01 -6.555253030931379454e-14 1.806447650970141594e-13 3.452766840343103605e-14 -7.124459171486269282e-14
5.051000000000000000e+03 5.955537033081054688e+01 -3.224410629272460938e+01 -1.110968413618740325e-13 6.676443794519093533e-14 -1.329972000856539244e-14 -4.578669122448295048e-14
5.052000000000000000e+03 5.615011215209960938e+01 -2.773256874084472656e+01 -9.344988568778592186e-14 9.720289216542596367e-14 1.125902239753544080e-15 -4.003208151797700565e-15
5.053000000000000000e+03 5.572760391235351562e+01 -2.696873092651367188e+01 -1.065854151357896462e-13 -1.486190998826325549e-13 -7.656135653840573374e-14 2.902325867701685547e-14
5.054000000000000000e+03 5.169794082641601562e+01 -3.028651618957519531e+01 -1.686351389475551632e-13 -2.652125379390152943e-14 -5.854691731421723944e-14 -5.504410996963601463e-15
5.055000000000000000e+03 4.990938568115234375e+01 -2.990215492248535156e+01 -2.664635276750787485e-13 -2.514515017645185813e-13 -1.553745061213737677e-13 -7.005613842129502361e-15
5.056000000000000000e+03 4.731180191040039062e+01 -3.902998352050781250e+01 -1.367345771113512298e-13 -1.272269507628098761e-13 -7.918845971750104740e-14 -3.828067826920286687e-14
5.057000000000000000e+03 4.976770782470703125e+01 -3.675845718383789062e+01 -1.581267126786467525e-13 -1.020818019416107336e-13 -7.806255641895631925e-14 -3.928147818956992388e-14
5.058000000000000000e+03 4.914727783203125000e+01 -3.019449806213378906e+01 -1.731387521417340758e-13 6.305052373213257400e-14 -3.302646513474866152e-14 -1.551243129175455815e-13
5.059000000000000000e+03 4.451160049438476562e+01 -3.138716888427734375e+01 -2.659631412674223760e-13 -2.969879930089097675e-13 -1.688853321513833494e-13 -5.004010105043830980e-14
5.060000000000000000e+03 4.225290298461914062e+01 -3.931513977050781250e+01 -1.592526159771914807e-13 -7.968885967768457590e-14 -7.168244676222096379e-14 1.025822035958601566e-14
5.061000000000000000e+03 4.391412353515625000e+01 -3.238916015625000000e+01 -9.707779556351187056e-14 -1.331066604593617031e-13 -6.905533680686207210e-14 -4.003208151797700565e-14
5.062000000000000000e+03 3.978568267822265625e+01 -3.217400360107421875e+01 -1.738893453057457905e-13 -2.877305869692509122e-14 -6.079872391130669573e-14 -4.203368474684290867e-14
5.063000000000000000e+03 3.375760269165039062e+01 -3.295357513427734375e+01 -1.523721063602725967e-13 -6.530233032922203029e-14 -6.530233032922203029e-14 3.002406113848275424e-15
5.064000000000000000e+03 2.769631767272949219e+01 -3.038025856018066406e+01 -1.376102736535406157e-13 1.125902282105191443e-13 -7.506014649345978118e-15 1.023320019217024979e-13
5.065000000000000000e+03 2.559422302246093750e+01 -2.928740692138671875e+01 -1.175942345886180074e-13 -2.752205540833448094e-14 -4.353488801552528320e-14 4.103288143834406265e-14
5.066000000000000000e+03 1.878021049499511719e+01 -2.509540939331054688e+01 1.100882216333379238e-13 3.002405859738391247e-14 4.203368474684290867e-14 -1.800192617586529598e-13
5.067000000000000000e+03 1.819915962219238281e+01 -2.453996276855468750e+01 1.591275125990138095e-13 2.912333731380084556e-13 1.351082738526229732e-13 -1.404875835889912716e-13
5.068000000000000000e+03 1.474988079071044922e+01 -2.116246604919433594e+01 1.531227130768114675e-13 1.771419518232023038e-13 9.907939540424598457e-14 -1.381106736137241442e-13
5.069000000000000000e+03 1.304909133911132812e+01 -1.945543670654296875e+01 1.308548674147994029e-13 3.120000189194699347e-13 1.328564672555335169e-13 -1.001114745572892484e-13
5.070000000000000000e+03 1.040951633453369141e+01 -1.756458663940429688e+01 1.245373026708893049e-13 2.363769173886060004e-13 1.082742700836067384e-13 -2.221780431074099615e-13
5.071000000000000000e+03 9.945776939392089844e+00 -1.579299736022949219e+01 1.521218996039172544e-13 3.282630515067525012e-13 1.441154866884536423e-13 -1.813953582610258741e-13
5.072000000000000000e+03 8.885479927062988281e+00 -1.472410392761230469e+01 1.301042606982605321e-14 3.372702778951103264e-13 1.050842084789754827e-13 -4.753809447325708926e-14
5.073000000000000000e+03 9.312610626220703125e+00 -1.321756649017333984e+01 7.806255641895631925e-14 5.824667462760169112e-13 1.981587908084919691e-13 3.302646513474866152e-14
5.074000000000000000e+03 9.216036796569824219e+00 -1.240517807006835938e+01 -5.104090097080536681e-14 3.212574520641831022e-13 8.106496295632106830e-14 1.451162933850842773e-14
5.075000000000000000e+03 9.390629768371582031e+00 -1.127995872497558594e+01 -2.306848559830571022e-13 1.756407519426517183e-13 -1.651323256737433076e-14 6.305052373213257400e-14
5.076000000000000000e+03 6.069675445556640625e+00 -1.862779974937438965e+00 -1.100882199392720293e-14 -1.190954344691685929e-13 -3.903127820947815962e-14 1.721379386688398627e-13
5.077000000000000000e+03 3.652977049350738525e-01 -9.140648841857910156e+00 5.004010105043830980e-14 -2.301844695754007297e-13 -5.404330750817011586e-14 7.005613842129502361e-15
5.078000000000000000e+03 1.058873414993286133e+00 -1.396675300598144531e+01 5.004010189747125706e-15 -4.553649124439118623e-13 -1.351082738526229732e-13 2.802245536851800944e-14
5.079000000000000000e+03 3.483051359653472900e-01 -1.636272621154785156e+01 -1.651323256737433076e-14 -5.789639601072593678e-13 -1.786431517037528893e-13 -3.202566521438160452e-14
5.080000000000000000e+03 1.087822318077087402e+00 -2.032938194274902344e+01 6.505213034913026604e-15 -5.919743861770854210e-13 -1.756407519426517183e-13 3.702967498061225660e-14
5.081000000000000000e+03 1.148119449615478516e+00 -2.758039665222167969e+01 -3.002405859738391247e-14 -3.102486258350911630e-13 -1.020818019416107336e-13 7.606094980195862720e-14
5.082000000000000000e+03 1.105227351188659668e+00 -3.483894729614257812e+01 3.853087824929463112e-14 1.651323256737433076e-14 1.651323256737433076e-14 7.205774334422682115e-14
5.083000000000000000e+03 1.831515431404113770e+00 -4.100006484985351562e+01 6.930553678695383635e-14 -6.179952383167375274e-14 2.251804479507088161e-15 -8.506816941405287436e-14
5.084000000000000000e+03 3.834275007247924805e-01 -3.643370056152343750e+01 -1.291034607778934751e-13 -1.010810020212436766e-13 -6.905533680686207210e-14 -5.204170427930421283e-14
5.085000000000000000e+03 5.823956489562988281e+00 -3.974551773071289062e+01 -3.290136514470277940e-14 7.168244676222096379e-14 1.163432363822250806e-14 -2.502005052521915490e-14
5.086000000000000000e+03 7.245772838592529297e+00 -3.576305007934570312e+01 -3.577867169202164632e-14 5.329270756789482311e-14 5.254210593355363584e-15 1.205966479022463345e-13
5.087000000000000000e+03 6.268640041351318359e+00 -3.063407897949218750e+01 -7.881315635923161200e-14 -3.377706846315574329e-14 -3.377706846315574329e-14 3.302646513474866152e-14
5.088000000000000000e+03 1.270354270935058594e+01 -2.260311698913574219e+01 1.276022524270134170e-14 -4.028228149806876990e-14 -8.256616283687165381e-15 -1.321058605389946461e-13
5.089000000000000000e+03 1.386598587036132812e+01 -2.354751586914062500e+01 1.335445188948517631e-14 5.723336403060368810e-15 5.723336403060368810e-15 -2.502005052521915490e-14
5.090000000000000000e+03 3.634148240089416504e-01 -2.278696823120117188e+01 2.001604075898850282e-15 -3.422742774969456114e-13 -1.020818019416107336e-13 0.000000000000000000e+00
5.091000000000000000e+03 2.166206741333007812e+01 -2.826230239868164062e+01 -9.445069238441655690e-14 -1.319807707133441310e-13 -6.792943350831734395e-14 -3.302646513474866152e-14
5.092000000000000000e+03 2.205154037475585938e+01 -2.747208595275878906e+01 -6.855493684667854359e-14 -6.505213034913026604e-15 -2.251804564210382886e-14 3.552847171192988207e-14
5.093000000000000000e+03 9.969588279724121094e+00 -1.214567661285400391e+01 -3.127506188597452275e-14 1.238492544197028478e-13 2.777225538842624519e-14 6.505213034913026604e-14
5.094000000000000000e+03 1.073087215423583984e+01 -1.062263488769531250e+01 -3.137514391089030186e-13 4.853889778175593528e-14 -7.956375629950690476e-14 2.512012950081632390e-13
5.095000000000000000e+03 1.183345031738281250e+01 -1.172142219543457031e+01 -6.199968381574716414e-13 5.454371085648543338e-14 -1.696359388679222202e-13 6.305052373213257400e-14
5.096000000000000000e+03 1.490274906158447266e+01 -1.259213638305664062e+01 -6.032333920574783903e-13 -2.977385861729214822e-14 -1.899021846892001708e-13 3.192558522234489882e-13
5.097000000000000000e+03 1.935773277282714844e+01 -7.740017414093017578e+00 2.669639411877894331e-13 2.059150105201273950e-13 1.418636800913641860e-13 -2.982389996856321668e-13
5.098000000000000000e+03 1.509752082824707031e+01 -1.194959831237792969e+01 -4.068260214384195050e-13 3.152526186606628700e-14 -1.125902282105191443e-13 3.012413994467333378e-13
5.099000000000000000e+03 1.883595085144042969e+01 -8.153341293334960938e+00 1.811451650571976879e-13 1.291034607778934751e-13 9.307458910578006450e-14 -2.031628039628544102e-13
5.100000000000000000e+03 1.910185241699218750e+01 -9.681963920593261719e+00 9.395028564796945036e-14 -1.427393901860807279e-13 -1.463672932855430986e-14 -9.207378240914942946e-14
5.101000000000000000e+03 2.273717689514160156e+01 -1.630101203918457031e+01 -8.701973603503221355e-13 8.456776945386934585e-14 -2.356888826899466993e-13 4.093280076868099915e-13
5.102000000000000000e+03 2.124296951293945312e+01 -1.078170204162597656e+01 1.628805326291810074e-13 3.900625753384262540e-13 1.658829323902821784e-13 -3.142518255165593910e-13
5.103000000000000000e+03 2.345241165161132812e+01 -1.657527351379394531e+01 -8.706977196529241958e-13 -1.901523778930283570e-13 -3.182550251980276190e-13 3.192558522234489882e-13
5.104000000000000000e+03 1.723615074157714844e+01 -5.298770904541015625e+00 2.359195195970886783e-13 1.011083713498353576e-13 1.011083713498353576e-13 -1.750152486042905187e-13
5.105000000000000000e+03 1.586786270141601562e+01 -4.243256568908691406e+00 3.279503133900990575e-13 -1.797065100894723599e-13 4.447313963493529365e-14 3.102486190588275849e-14
5.106000000000000000e+03 1.272253322601318359e+01 -2.709887981414794922e+00 1.348580670962676309e-13 -2.624603279936105205e-13 -3.828067826920286687e-14 1.160930347080674219e-13
5.107000000000000000e+03 1.101557922363281250e+01 -2.228405714035034180e+00 1.243496543798863763e-13 -2.669639411877894331e-13 -4.278428468711820143e-14 8.406736949368581735e-14
5.108000000000000000e+03 1.015670585632324219e+01 -2.035066843032836914e+00 9.557658890669770702e-14 2.697161341925352618e-13 1.095878216731543953e-13 -1.110890215537049808e-13
5.109000000000000000e+03 1.042976760864257812e+01 -1.146996593475341797e+01 -2.574563283917752354e-13 2.099182237541227791e-13 -1.426142935841666348e-14 1.411130869273524713e-13
5.110000000000000000e+03 9.323897361755371094e+00 -1.927678108215332031e+00 1.631307258330091936e-13 4.703769451307356075e-14 6.305052373213257400e-14 1.621299259126421366e-13
5.111000000000000000e+03 1.764126014709472656e+01 -4.100142669677734375e+01 -8.556856937423640286e-14 2.051644071917203133e-14 -1.951563910473907981e-14 -1.301042606982605321e-14
5.112000000000000000e+03 1.388683223724365234e+01 -3.809235763549804688e+01 -6.918044018503974324e-14 5.041540102057595618e-14 -5.629511410525957216e-15 2.552045048540268340e-14
5.113000000000000000e+03 2.078156852722167969e+01 -2.991858863830566406e+01 -6.955573676704560060e-14 -7.556054984177509870e-14 -4.353488801552528320e-14 -2.602085213965210642e-14
5.114000000000000000e+03 1.891478919982910156e+01 -2.930613899230957031e+01 -6.502085789271763727e-14 -2.786608122799360404e-14 -2.786608122799360404e-14 -7.005614350349270714e-14
5.115000000000000000e+03 2.753661537170410156e+01 -4.125357437133789062e+01 -1.060224634865172821e-13 3.127506368591953566e-16 -3.171291354520100469e-14 -2.201764398785440585e-14
5.116000000000000000e+03 2.591273307800292969e+01 -3.755462265014648438e+01 -9.551404399387244948e-14 4.816359781161828890e-15 -2.720930373915388112e-14 1.751403587587317678e-14
5.117000000000000000e+03 2.698131752014160156e+01 -3.002485847473144531e+01 -9.257418236933295796e-14 -6.255012377194904549e-14 -4.653729455289003225e-14 5.929751725449253219e-14
5.118000000000000000e+03 2.821776771545410156e+01 -3.898188400268554688e+01 -9.983000212078485536e-14 -2.752205498481800731e-15 -3.077466192579099424e-14 1.626303258728256651e-14
5.119000000000000000e+03 3.145932388305664062e+01 -3.586983871459960938e+01 -6.380113044867144478e-14 4.128308141843582690e-14 -6.755413438521264483e-15 -1.501203056924137712e-15
5.120000000000000000e+03 3.076956558227539062e+01 -3.143853378295898438e+01 -1.471179000020819694e-13 1.701363422162375377e-14 -3.903127820947815962e-14 6.004812227696550847e-15
5.121000000000000000e+03 3.786980819702148438e+01 -3.705958557128906250e+01 -1.311050606186275891e-13 -1.190954344691685929e-13 -7.506014988159157020e-14 -3.052446194569922999e-14
5.122000000000000000e+03 3.664550018310546875e+01 -3.628944015502929688e+01 -1.252878958349010197e-13 -7.943866308572460067e-15 -3.996952982888817008e-14 2.401924891078620339e-14
5.123000000000000000e+03 3.816999816894531250e+01 -3.232276535034179688e+01 -7.856295637913984775e-14 -5.654531408535133641e-14 -4.053248147816053415e-14 5.004010189747125706e-15
5.124000000000000000e+03 7.164817810058593750e+01 -4.111611557006835938e+01 -6.280032375204080974e-14 7.030634348358447139e-14 2.251804479507088161e-15 -7.881315466516571749e-15
5.125000000000000000e+03 7.198034667968750000e+01 -3.628836441040039062e+01 -1.070858150959731747e-13 -2.301844560228735737e-14 -3.903127820947815962e-14 -6.305052373213257400e-14
5.126000000000000000e+03 7.334396362304687500e+01 -3.004513168334960938e+01 -1.801443583605670529e-14 1.981587908084919691e-13 5.404330750817011586e-14 -3.502807175174635357e-14
5.127000000000000000e+03 6.665821838378906250e+01 -2.299504089355468750e+01 2.151724233360498284e-14 3.502806921064751181e-15 7.506014649345978118e-15 6.154932385158198849e-14
5.128000000000000000e+03 7.027806854248046875e+01 -1.475592422485351562e+01 8.006416303595401129e-14 4.003208084035064784e-13 1.441154866884536423e-13 -4.303448466720996568e-14
5.129000000000000000e+03 6.892016601562500000e+01 -1.560424709320068359e+01 7.105694342385976414e-14 9.907939540424598457e-14 5.104090097080536681e-14 -5.304250758780305885e-14
5.130000000000000000e+03 7.870066833496093750e+01 -3.721240997314453125e+01 6.054852393121493148e-14 -6.555253030931379454e-14 -1.501203056924137712e-15 -3.102486190588275849e-14
5.131000000000000000e+03 7.874858093261718750e+01 -3.800047302246093750e+01 3.302646513474866152e-14 1.971579908881249121e-13 6.905533680686207210e-14 5.804651735403371093e-14
5.132000000000000000e+03 7.880374908447265625e+01 -3.082273674011230469e+01 9.357498906596359300e-14 1.316054605788111176e-13 6.755413692631148659e-14 5.604491073703601889e-14
5.133000000000000000e+03 7.962242126464843750e+01 -2.689243316650390625e+01 1.266014474244486765e-13 3.287634650194631858e-13 1.366094737331735587e-13 5.004010189747125706e-15
5.134000000000000000e+03 7.478985595703125000e+01 -1.411246299743652344e+01 7.155734338404329264e-14 -1.065854151357896462e-13 -1.050842118671072717e-14 -6.405133042876320904e-14
5.135000000000000000e+03 7.249936676025390625e+01 -1.409681797027587891e+01 6.555253030931379454e-14 1.195958344293521214e-13 5.554451077685249039e-14 1.601283260719080226e-14
5.136000000000000000e+03 6.809444427490234375e+01 -1.395963191986083984e+01 3.052446194569922999e-14 2.647121345906999768e-13 8.857097591160115191e-14 1.661331391466375207e-13
5.137000000000000000e+03 6.641358947753906250e+01 -2.467771911621093750e+01 -4.253408470702643718e-14 2.752205540833448094e-14 -4.503608959014176322e-15 9.007218256841531545e-14
5.138000000000000000e+03 4.037020802497863770e-01 -3.003399085998535156e+01 1.190954344691685929e-13 -2.692157477848788893e-13 -4.503609128420765773e-14 2.101684237342145434e-14
5.139000000000000000e+03 6.364562034606933594e+00 -3.166948509216308594e+01 -4.653729455289003225e-14 7.155734338404329264e-14 7.506014649345978118e-15 1.100882199392720293e-14
5.140000000000000000e+03 7.304067230224609375e+01 -3.471307754516601562e+01 -1.251002547436781426e-15 -4.628709118466647898e-14 -1.426142935841666348e-14 -8.206576287668812530e-14
5.141000000000000000e+03 7.958309936523437500e+01 -3.407179641723632812e+01 3.077466192579099424e-14 -7.831275639904808350e-14 -1.426142935841666348e-14 7.506014988159157020e-14
5.142000000000000000e+03 1.937147712707519531e+01 -2.564220046997070312e+01 3.452766840343103605e-14 6.054852393121493148e-14 2.852285871683332696e-14 -6.455173038894673754e-14
5.143000000000000000e+03 6.878585052490234375e+01 -1.398532581329345703e+01 -1.651323256737433076e-14 2.216776431472264330e-13 6.154932385158198849e-14 -1.130906281707026728e-13
5.144000000000000000e+03 6.693715667724609375e+01 -1.553504276275634766e+01 1.090874217129708668e-13 1.611291259922750796e-13 8.106496295632106830e-14 -1.276022524270134170e-14
5.145000000000000000e+03 6.880947875976562500e+01 -1.480668449401855469e+01 -2.502005094873562853e-15 2.276824562219559311e-13 6.755413692631148659e-14 1.401122768425900472e-14
5.146000000000000000e+03 6.507372283935546875e+01 -1.822074127197265625e+01 5.554451077685249039e-14 9.507618725244828400e-15 1.951563910473907981e-14 3.959422985875052370e-14
5.147000000000000000e+03 6.350946426391601562e+01 -2.006372833251953125e+01 -2.552045048540268340e-14 1.005806020610601481e-13 2.251804564210382886e-14 1.524346512730978542e-13
5.148000000000000000e+03 6.298345565795898438e+01 -2.067033576965332031e+01 6.280032375204080974e-14 -2.502005094873562853e-16 1.876503747039789255e-14 -1.182197362329133125e-14
5.149000000000000000e+03 6.246560668945312500e+01 -2.128250885009765625e+01 2.752205498481800731e-15 7.981396305586224704e-14 2.476984885106149614e-14 9.613954055597007109e-14
5.150000000000000000e+03 6.194196701049804688e+01 -2.189276695251464844e+01 -2.502005052521915490e-14 -2.502005052521915490e-14 -1.501202929869195624e-14 -1.751403587587317678e-14
5.151000000000000000e+03 6.084206390380859375e+01 -2.307258415222167969e+01 5.604491073703601889e-14 1.841475648182988589e-13 7.205774334422682115e-14 -6.467682699086083065e-14
5.152000000000000000e+03 5.904558944702148438e+01 -2.470280265808105469e+01 -1.120898214740720378e-13 -2.081668171172168513e-13 -9.607699564314481355e-14 -1.125902282105191443e-14
5.153000000000000000e+03 5.841448974609375000e+01 -2.520937347412109375e+01 6.255012377194904549e-14 7.255814330441034965e-14 4.053248147816053415e-14 -6.179952383167375274e-14
5.154000000000000000e+03 5.776744842529296875e+01 -2.569485282897949219e+01 -1.646319257135597791e-13 -1.506206997233666689e-13 -9.457578898633065001e-14 -1.601283260719080226e-14
5.155000000000000000e+03 5.640785598754882812e+01 -2.655091285705566406e+01 2.952365863720038397e-14 1.956567910075743266e-13 6.755413692631148659e-14 -3.452766840343103605e-14
5.156000000000000000e+03 5.435314941406250000e+01 -2.784381675720214844e+01 -5.154130431912068433e-14 6.505213034913026604e-15 -1.351082687704252897e-14 -4.928949772203122803e-14
5.157000000000000000e+03 5.365348052978515625e+01 -2.828322410583496094e+01 -1.068356151158814105e-13 1.143416280711614941e-13 2.251804479507088161e-15 -7.205774334422682115e-14
5.158000000000000000e+03 5.293438720703125000e+01 -2.867093467712402344e+01 -1.713873455048281480e-13 -9.632719562323657780e-14 -8.031436301604577555e-14 -2.902325867701685547e-14
5.159000000000000000e+03 5.219044113159179688e+01 -2.899902343750000000e+01 -1.483688931262772126e-13 5.079070099071360256e-14 -2.927345865710861972e-14 -1.020818019416107336e-13
5.160000000000000000e+03 5.143205642700195312e+01 -2.930142784118652344e+01 -1.821459649775647449e-13 -7.806255641895631925e-14 -7.806255641895631925e-14 -2.101684237342145434e-14
5.161000000000000000e+03 4.760322952270507812e+01 -3.067302513122558594e+01 -2.547041082819750946e-13 -4.053248147816053415e-14 -8.857097591160115191e-14 -2.401924891078620339e-14
5.162000000000000000e+03 4.682274246215820312e+01 -3.083630752563476562e+01 -1.984089975648473114e-13 -3.928147818956992388e-14 -7.130714340395152839e-14 -7.606094980195862720e-14
5.163000000000000000e+03 4.604571151733398438e+01 -3.099431228637695312e+01 -1.358588670166346879e-13 3.327666511484042577e-14 -3.077466192579099424e-14 -3.803047490097931360e-14
5.164000000000000000e+03 4.215418243408203125e+01 -3.187164688110351562e+01 -1.018316019615189694e-13 1.393616802904465435e-13 1.125902282105191443e-14 1.000802037949425141e-14
5.165000000000000000e+03 4.294723510742187500e+01 -3.173376655578613281e+01 -1.233488409069921632e-13 -1.443656934448089846e-13 -8.031436301604577555e-14 -2.502005052521915490e-14
5.166000000000000000e+03 4.136031341552734375e+01 -3.196582984924316406e+01 -1.266014474244486765e-13 -8.506817110811876886e-15 -4.053248147816053415e-14 7.706175649858926224e-14
5.167000000000000000e+03 3.898903656005859375e+01 -3.227032089233398438e+01 -8.206576287668812530e-14 1.020818019416107336e-13 6.004812227696550847e-15 -3.102486190588275849e-14
5.168000000000000000e+03 3.733026885986328125e+01 -3.233790588378906250e+01 -1.035830085984248972e-13 1.386110735739076727e-13 1.050842118671072717e-14 1.501202929869195624e-14
5.169000000000000000e+03 3.648447418212890625e+01 -3.232746887207031250e+01 -1.256006475040816195e-13 -9.957980214069309111e-14 -6.755413692631148659e-14 -8.106496295632106830e-14
5.170000000000000000e+03 3.564596939086914062e+01 -3.226588439941406250e+01 -6.555253030931379454e-14 4.053248147816053415e-14 -7.506014649345978118e-15 2.902325867701685547e-14
5.171000000000000000e+03 3.481607437133789062e+01 -3.216404342651367188e+01 -1.261010474642651480e-13 -5.404330750817011586e-14 -5.404330750817011586e-14 9.507618725244828400e-15
5.172000000000000000e+03 3.237553405761718750e+01 -3.175897216796875000e+01 -2.206768432268593760e-13 6.555253030931379454e-14 -4.653729455289003225e-14 7.856295637913984775e-14
5.173000000000000000e+03 2.998014640808105469e+01 -3.123132896423339844e+01 -1.150922347877003649e-13 6.505213034913026604e-14 -1.501202929869195624e-14 -1.251002526260957745e-14
5.174000000000000000e+03 3.038799095153808594e+01 -3.228218078613281250e+01 -1.736391521019176043e-13 1.085870149765237602e-13 -1.951563910473907981e-14 1.901523745048965680e-14
5.175000000000000000e+03 2.920136260986328125e+01 -3.098692131042480469e+01 -2.151724301123134064e-13 -3.502807175174635357e-14 -7.506014988159157020e-14 1.065854151357896462e-13
5.176000000000000000e+03 2.843888282775878906e+01 -3.070180892944335938e+01 -2.266816563015888741e-13 -1.085870149765237602e-13 -1.005806020610601481e-13 1.200962445539310169e-14
5.177000000000000000e+03 2.628915214538574219e+01 -2.965093612670898438e+01 -1.030826086382413687e-13 1.301042606982605321e-14 -2.702165375408505793e-14 5.654531408535133641e-14
5.178000000000000000e+03 2.488383865356445312e+01 -2.894284629821777344e+01 -8.656937607086703790e-14 3.152526186606628700e-14 -1.651323256737433076e-14 3.853087824929463112e-14
5.179000000000000000e+03 2.584830856323242188e+01 -3.036887168884277344e+01 -4.178348476675114442e-14 -2.009109973657649539e-13 -7.280834328450211390e-14 8.006416303595401129e-14
5.180000000000000000e+03 2.521089553833007812e+01 -2.997655868530273438e+01 -1.209719444842521918e-13 3.965677815970757025e-14 -2.439454888092384977e-14 4.103288143834406265e-14
5.181000000000000000e+03 2.346039962768554688e+01 -2.824416351318359375e+01 -6.154932385158198849e-14 -3.502806921064751181e-15 -1.951563910473907981e-14 5.204170427930421283e-14
5.182000000000000000e+03 2.416911315917968750e+01 -2.860177040100097656e+01 -1.451162933850842773e-14 3.953167816966168813e-14 7.506014649345978118e-15 3.002406113848275424e-15
5.183000000000000000e+03 2.134635353088378906e+01 -2.707159233093261719e+01 -6.605293026949732305e-14 6.004812227696550847e-15 -1.801443583605670529e-14 -1.200962445539310169e-14
5.184000000000000000e+03 1.998899459838867188e+01 -2.616776657104492188e+01 4.503608959014176322e-15 7.055654346367623564e-14 2.251804564210382886e-14 -7.931355631941514051e-14
5.185000000000000000e+03 1.647143936157226562e+01 -2.285332870483398438e+01 1.886511780124777715e-13 1.466175000418984409e-13 1.005806020610601481e-13 -1.451788450741731129e-13
5.186000000000000000e+03 1.490986156463623047e+01 -2.350568962097167969e+01 3.347995302218145786e-14 1.058504480355888788e-13 4.179912099495745881e-14 -6.054852393121493148e-14
5.187000000000000000e+03 1.589910030364990234e+01 -2.228829574584960938e+01 1.331066604593617031e-13 2.772221471478153454e-13 1.230986477031639770e-13 -9.157338244896590096e-14
5.188000000000000000e+03 1.532596492767333984e+01 -2.172406196594238281e+01 6.555253030931379454e-14 3.953167816966168813e-14 3.152526186606628700e-14 -1.324811706735276595e-13
5.189000000000000000e+03 1.360443878173828125e+01 -2.003772544860839844e+01 7.130714340395152839e-14 1.063352151556978820e-13 5.329270756789482311e-14 -1.347955221834423734e-13
5.190000000000000000e+03 1.195037937164306641e+01 -1.827843093872070312e+01 2.016616040823038247e-13 2.236792429879605471e-13 1.276022608973428896e-13 -1.306046606584440606e-13
5.191000000000000000e+03 1.250087356567382812e+01 -1.886579322814941406e+01 6.855493684667854359e-14 1.266014474244486765e-13 5.854691731421723944e-14 -1.609414777012721509e-13
5.192000000000000000e+03 1.140415763854980469e+01 -1.768561744689941406e+01 9.107298248878237246e-14 2.592077214761540072e-13 1.050842084789754827e-13 -1.658829323902821784e-13
5.193000000000000000e+03 1.088323402404785156e+01 -1.707103729248046875e+01 1.746399520222846613e-13 3.607891166813176342e-13 1.606287260320915511e-13 -2.588949562544462513e-13
5.194000000000000000e+03 1.261732864379882812e+01 -1.182426738739013672e+01 -6.680353427553076262e-13 -5.754611739385018243e-14 -2.176744299132310489e-13 1.271018609371593611e-13
5.195000000000000000e+03 1.339834976196289062e+01 -1.202132320404052734e+01 -6.692863494320300255e-13 -1.038332085785166614e-13 -2.319358626597795014e-13 1.861491782115601290e-13
5.196000000000000000e+03 1.562914371490478516e+01 -1.293138027191162109e+01 -6.503961865605978332e-13 -1.414883835093583286e-13 -2.375653655999759861e-13 2.732189474663471174e-13
5.197000000000000000e+03 1.976029777526855469e+01 -8.320481300354003906e+00 1.491194998428160834e-13 2.011612041221202962e-13 1.050842084789754827e-13 -3.482791041242022656e-13
5.198000000000000000e+03 1.725211524963378906e+01 -1.296790790557861328e+01 -5.179150294395973297e-13 -2.677145343518011478e-13 -2.356888826899466993e-13 2.261812563414053456e-13
5.199000000000000000e+03 2.035951805114746094e+01 -1.051064205169677734e+01 1.726383521815505473e-13 3.828067691395015126e-13 1.666335391068210492e-13 -2.324362761724901860e-13
5.200000000000000000e+03 2.195909500122070312e+01 -1.207136726379394531e+01 1.761411519028352468e-13 3.042437992078345088e-13 1.441154866884536423e-13 -2.862293735361731706e-13
5.201000000000000000e+03 2.206579589843750000e+01 -1.456699466705322266e+01 -1.786431517037528893e-13 -7.656135653840573374e-14 -7.656135653840573374e-14 -4.403528797570881170e-14
5.202000000000000000e+03 2.270722389221191406e+01 -1.341723632812500000e+01 3.112494257554582200e-13 4.994002173602796191e-13 2.431948956452267829e-13 -2.101684169579509653e-13
5.203000000000000000e+03 2.208850669860839844e+01 -1.527339553833007812e+01 -4.053248080053417635e-13 -1.050842084789754827e-13 -1.531227130768114675e-13 3.732991563434873150e-13
5.204000000000000000e+03 2.275312232971191406e+01 -1.541004276275634766e+01 -2.897321868099850262e-13 -5.554451077685249039e-14 -1.035830085984248972e-13 1.526222995641007829e-13
5.205000000000000000e+03 2.420576477050781250e+01 -1.686997985839843750e+01 -9.267426236136966367e-13 -2.141716301919463494e-13 -3.422742774969456114e-13 3.732991563434873150e-13
5.206000000000000000e+03 2.459554100036621094e+01 -1.613670158386230469e+01 -3.192558522234489882e-13 2.291836696550336727e-13 -2.702165375408505793e-14 -2.381908689383371858e-13
5.207000000000000000e+03 2.499401664733886719e+01 -1.722678375244140625e+01 -7.232045366213635251e-13 2.390665790330537277e-13 -1.452413899869983704e-13 1.200962343895356499e-13
5.208000000000000000e+03 2.650587463378906250e+01 -1.785899353027343750e+01 4.608692984534035197e-13 1.451162933850842773e-14 1.426142868079030568e-13 -4.663737386730038015e-13
5.209000000000000000e+03 2.654543113708496094e+01 -1.770435523986816406e+01 1.741395520621011328e-13 1.447159666406738765e-12 4.863897912904535659e-13 -2.642117210779892922e-13
5.210000000000000000e+03 2.709436416625976562e+01 -1.801433944702148438e+01 5.109094028919736186e-13 -2.957369863321873682e-13 6.455173038894673754e-14 5.829671733412547519e-14
5.211000000000000000e+03 2.583679389953613281e+01 -1.734126281738281250e+01 -1.901523745048965680e-14 4.493601129217095203e-13 1.291034607778934751e-13 -2.922341730583755126e-13
5.212000000000000000e+03 2.309201622009277344e+01 -1.418268966674804688e+01 1.728885453853787335e-13 1.198460411857074637e-13 8.782037597132585915e-14 -1.070858150959731747e-13
5.213000000000000000e+03 2.410509109497070312e+01 -1.609174156188964844e+01 -1.906527778532118855e-13 2.156728300724969349e-13 7.506014649345978118e-15 2.101684237342145434e-14
5.214000000000000000e+03 2.233361053466796875e+01 -1.273453426361083984e+01 2.164234367890358057e-13 3.215076317154841323e-13 1.613793191961032658e-13 -3.142518255165593910e-13
5.215000000000000000e+03 1.901407432556152344e+01 -1.220474052429199219e+01 -9.532638892660594276e-14 -1.323560672953499884e-13 -6.830473686658677934e-14 8.807057595141762341e-14
5.216000000000000000e+03 2.159598350524902344e+01 -1.142242336273193359e+01 1.730136487635564047e-13 3.486544007062081230e-13 1.565004094199184959e-13 -2.752205473070812314e-13
5.217000000000000000e+03 2.052664375305175781e+01 -9.509407043457031250e+00 1.652574290519209788e-13 2.538283981872585526e-13 1.257257508822592906e-13 -2.512012950081632390e-13
5.218000000000000000e+03 2.088727378845214844e+01 -1.014079093933105469e+01 2.873552632821907427e-13 3.519070072236646363e-13 1.917786811517566137e-13 -3.012413994467333378e-13
5.219000000000000000e+03 1.633648872375488281e+01 -1.329879760742187500e+01 -5.560705975543589474e-13 -2.383159858690420130e-13 -2.383159858690420130e-13 2.311852694957677867e-13
5.220000000000000000e+03 1.894151687622070312e+01 -7.162585735321044922e+00 1.282277506831769331e-13 1.007056986629742412e-13 6.868004022485621474e-14 -2.992397996059992238e-13
5.221000000000000000e+03 1.657811546325683594e+01 -4.739600181579589844e+00 2.184875815425951773e-13 9.363754075505242858e-14 9.363754075505242858e-14 1.701363422162375377e-14
5.222000000000000000e+03 1.608441352844238281e+01 -5.382860183715820312e+00 2.927345865710861972e-13 -1.751403587587317678e-14 8.256616283687165381e-14 -5.642021409530545428e-14
5.223000000000000000e+03 1.514318656921386719e+01 -3.767419338226318359e+00 1.884009712561224292e-13 -1.075862116680249142e-14 5.329270756789482311e-14 2.902325867701685547e-14
5.224000000000000000e+03 1.187629032135009766e+01 -2.444055795669555664e+00 1.125902282105191443e-13 2.502005094873562853e-15 3.452766840343103605e-14 -1.701363388281057487e-13
5.225000000000000000e+03 1.078385925292968750e+01 -3.012949705123901367e+00 6.204972381176551699e-14 1.180946345488015359e-13 5.404330750817011586e-14 1.701363422162375377e-14
5.226000000000000000e+03 9.149085998535156250e+00 -2.746122121810913086e+00 -4.253408470702643718e-14 2.752205540833448094e-14 -4.503608959014176322e-15 1.115894215138885093e-13
5.227000000000000000e+03 8.510899543762207031e+00 -1.899286031723022461e+00 6.004811719476782494e-14 3.002405995263662808e-13 1.080866150163402317e-13 8.006416303595401129e-15
5.228000000000000000e+03 4.442547798156738281e+00 -1.854239821434020996e+00 -2.001604075898850282e-14 -1.000802021008766196e-13 -3.602887167211341057e-14 1.411130869273524713e-13
5.229000000000000000e+03 3.632229804992675781e+00 -1.855083107948303223e+00 -2.451964887096973189e-14 -1.050842118671072717e-14 -1.050842118671072717e-14 -2.001604075898850282e-14
5.230000000000000000e+03 1.155660986900329590e+00 -6.701451778411865234e+00 2.752205540833448094e-14 -1.025822086780578402e-13 -2.251804564210382886e-14 -1.511210996835501974e-13
5.231000000000000000e+03 1.119073867797851562e+00 -8.343454360961914062e+00 6.505213034913026604e-14 -1.551243129175455815e-13 -2.702165375408505793e-14 2.902325867701685547e-14
5.232000000000000000e+03 4.332950592041015625e+00 -2.564875841140747070e+00 1.351082687704252897e-14 -1.085870149765237602e-13 -2.852285871683332696e-14 5.104090097080536681e-14
5.233000000000000000e+03 5.807428359985351562e+00 -3.315311193466186523e+00 -7.606094980195862720e-14 -1.240994476235310340e-13 -6.004811719476782494e-14 1.000802021008766196e-13
5.234000000000000000e+03 3.923516273498535156e-01 -2.687072753906250000e+00 2.602085213965210642e-14 3.402726844324750755e-14 1.801443583605670529e-14 -7.606094980195862720e-14
5.235000000000000000e+03 4.022172391414642334e-01 -1.894414424896240234e+00 -8.957178260823178695e-14 1.446158866486371708e-13 1.651323256737433076e-14 -6.405133042876320904e-14
5.236000000000000000e+03 4.483421742916107178e-01 -4.204874801635742188e+01 -5.804651735403371093e-14 -2.001604075898850282e-15 -1.801443583605670529e-14 1.251002526260957745e-14
5.237000000000000000e+03 5.605801939964294434e-01 -4.119888305664062500e+01 -6.430153040885497329e-14 8.681957605095880215e-14 6.755413438521264483e-15 7.405934996122451319e-14
5.238000000000000000e+03 5.653115510940551758e-01 -4.040053558349609375e+01 1.768917586193741176e-13 7.581074982186686295e-14 7.581074982186686295e-14 5.304250758780305885e-14
5.239000000000000000e+03 5.322164893150329590e-01 -3.880112838745117188e+01 6.705373696612795809e-14 -1.701363422162375377e-14 1.501202929869195624e-14 -4.103288143834406265e-14
5.240000000000000000e+03 5.584973692893981934e-01 -3.959757614135742188e+01 -5.729591741375841818e-14 8.982198258832355120e-14 9.757819552369539906e-15 -4.803849782157240678e-14
5.241000000000000000e+03 4.127565324306488037e-01 -3.722135925292968750e+01 1.626303258728256651e-13 -6.755413692631148659e-14 2.852285871683332696e-14 3.803047490097931360e-14
5.242000000000000000e+03 3.702370226383209229e-01 -3.564527893066406250e+01 1.045838085187919542e-13 9.057258252859884395e-14 5.854691731421723944e-14 4.503609128420765773e-14
5.243000000000000000e+03 3.681014776229858398e-01 -3.485189056396484375e+01 -1.646319257135597791e-13 -7.055654346367623564e-14 -7.055654346367623564e-14 3.202566521438160452e-14
5.244000000000000000e+03 3.747730851173400879e-01 -3.405459213256835938e+01 1.336070739720723877e-13 1.150922280114367868e-14 4.353488801552528320e-14 1.060850151756061177e-13
5.245000000000000000e+03 3.872126936912536621e-01 -3.325662994384765625e+01 -6.405133042876320904e-14 6.405133042876320904e-14 0.000000000000000000e+00 -8.006416303595401129e-15
5.246000000000000000e+03 4.006714820861816406e-01 -3.245719146728515625e+01 4.203368474684290867e-14 -1.421138868477195283e-13 -3.002405859738391247e-14 2.702165375408505793e-14
5.247000000000000000e+03 1.169292688369750977e+00 -3.327727127075195312e+01 5.304250758780305885e-14 -2.301844560228735737e-14 9.007217918028352643e-15 9.707779556351187056e-14
5.248000000000000000e+03 4.092507660388946533e-01 -3.165335845947265625e+01 5.954771723458429644e-14 2.552045048540268340e-14 2.552045048540268340e-14 -5.304250758780305885e-14
5.249000000000000000e+03 3.951227068901062012e-01 -2.922475242614746094e+01 -9.257418236933295796e-14 -2.226784430675934900e-13 -9.457578898633065001e-14 -3.402726844324750755e-14
5.250000000000000000e+03 3.878701031208038330e-01 -2.841805267333984375e+01 3.102486190588275849e-14 -2.612093213168881212e-13 -6.905533680686207210e-14 2.001604075898850282e-14
5.251000000000000000e+03 3.818681836128234863e-01 -2.761285972595214844e+01 -7.355895000104098469e-14 -3.517819173980141212e-13 -1.276022608973428896e-13 2.602085213965210642e-14
5.252000000000000000e+03 3.769958019256591797e-01 -2.680851173400878906e+01 -5.504410996963601463e-15 -4.598685256380907749e-13 -1.396118734942747297e-13 5.904731727440076794e-14
5.253000000000000000e+03 3.729355931282043457e-01 -2.600442314147949219e+01 4.353488801552528320e-14 -2.787233605808930870e-13 -7.055654346367623564e-14 6.805453688649501509e-14
5.254000000000000000e+03 3.694872558116912842e-01 -2.520024299621582031e+01 -1.000802037949425141e-14 -2.101684169579509653e-13 -6.605293026949732305e-14 -3.102486190588275849e-14
5.255000000000000000e+03 1.122175931930541992e+00 -2.597101402282714844e+01 4.303448466720996568e-14 -3.933151818558827673e-13 -1.050842084789754827e-13 -3.302646513474866152e-14
5.256000000000000000e+03 3.667704761028289795e-01 -2.439598846435546875e+01 -6.154932385158198849e-14 -3.237594383125735886e-13 -1.155926347478838934e-13 -1.601283260719080226e-14
5.257000000000000000e+03 3.621667325496673584e-01 -2.198186683654785156e+01 2.251804564210382886e-14 -2.877305869692509122e-13 -7.956375629950690476e-14 -2.401924891078620339e-14
5.258000000000000000e+03 3.616760075092315674e-01 -2.117657852172851562e+01 -6.355093046857968053e-14 -4.618701254788248889e-13 -1.576263127184632240e-13 1.000802037949425141e-15
5.259000000000000000e+03 3.602960407733917236e-01 -2.037245941162109375e+01 3.753007494079578510e-14 -3.727987428307766304e-13 -1.005806020610601481e-13 -4.403528797570881170e-14
5.260000000000000000e+03 3.576089441776275635e-01 -1.956927680969238281e+01 3.953167816966168813e-14 -3.948163952889605088e-13 -1.065854151357896462e-13 -3.002405859738391247e-14
5.261000000000000000e+03 3.540561199188232422e-01 -1.876605033874511719e+01 -8.206576287668812530e-14 -5.384314955697577787e-13 -1.861491782115601290e-13 1.801443583605670529e-14
5.262000000000000000e+03 1.077884316444396973e+00 -1.952768516540527344e+01 3.652927163229693908e-14 -2.817257603419942580e-13 -7.355895000104098469e-14 1.080866150163402317e-13
5.263000000000000000e+03 3.503876030445098877e-01 -1.796315002441406250e+01 1.801443583605670529e-14 -6.785437554716888808e-13 -1.981587908084919691e-13 -1.601283260719080226e-14
5.264000000000000000e+03 3.499031662940979004e-01 -1.556284236907958984e+01 -1.200962445539310169e-14 -5.084074437486374443e-13 -1.561251128379126385e-13 -6.004812227696550847e-15
5.265000000000000000e+03 3.513250350952148438e-01 -1.476215171813964844e+01 -3.753007494079578510e-14 -4.278428468711820143e-13 -1.396118734942747297e-13 3.202566521438160452e-14
5.266000000000000000e+03 3.529615998268127441e-01 -1.396044635772705078e+01 -6.004812227696550847e-15 -2.542037218743187221e-13 -7.806255641895631925e-14 -4.103288143834406265e-14
5.267000000000000000e+03 3.545283675193786621e-01 -1.315797805786132812e+01 -8.506817110811876886e-15 -3.467778906911245240e-13 -1.065854151357896462e-13 -9.207378240914942946e-14
5.268000000000000000e+03 3.552352190017700195e-01 -1.235503959655761719e+01 -1.951563910473907981e-14 -4.658733251602931169e-13 -1.456166865690042278e-13 -5.704571743366665393e-14
5.269000000000000000e+03 3.553028106689453125e-01 -1.155224800109863281e+01 2.051644071917203133e-14 -2.657129345110670338e-13 -7.355895000104098469e-14 -3.502807175174635357e-14
5.270000000000000000e+03 1.063885211944580078e+00 -1.316808509826660156e+01 2.301844560228735737e-14 -4.933953636279686528e-13 -1.411130869273524713e-13 -2.702165375408505793e-14
5.271000000000000000e+03 3.564389646053314209e-01 -1.074940586090087891e+01 2.502005052521915490e-14 -3.502807175174635357e-14 -3.002406113848275424e-15 -7.606094980195862720e-14
5.272000000000000000e+03 3.712450563907623291e-01 -8.333433151245117188e+00 1.701363422162375377e-14 -1.070858150959731747e-13 -2.702165375408505793e-14 0.000000000000000000e+00
5.273000000000000000e+03 3.780917227268218994e-01 -7.525273323059082031e+00 6.004812227696550847e-15 -6.605293026949732305e-14 -1.801443583605670529e-14 -6.004812227696550847e-15
5.274000000000000000e+03 3.838997781276702881e-01 -6.715642929077148438e+00 -5.054050101062183831e-14 -4.453568793589234021e-14 -2.852285871683332696e-14 2.401924891078620339e-14
5.275000000000000000e+03 3.876100480556488037e-01 -5.906082153320312500e+00 6.004811719476782494e-14 -1.801443651368306309e-13 -3.602887167211341057e-14 -1.501202929869195624e-14
5.276000000000000000e+03 3.885564208030700684e-01 -5.097674369812011719e+00 -1.751403587587317678e-14 -1.676343390271881062e-13 -5.554451077685249039e-14 -7.806255641895631925e-14
5.277000000000000000e+03 3.878105282783508301e-01 -4.290488243103027344e+00 -1.751403587587317678e-14 -7.506014649345978118e-15 -7.506014649345978118e-15 2.301844560228735737e-14
5.278000000000000000e+03 3.882881999015808105e-01 -3.486294984817504883e+00 4.503609128420765773e-14 6.505213034913026604e-14 3.302646513474866152e-14 7.005613842129502361e-15
5.279000000000000000e+03 7.956028747558593750e+01 -4.203908920288085938e+01 -3.252606517456513302e-15 -2.426944889087796764e-14 -8.256616283687165381e-15 -4.503608959014176322e-15
5.280000000000000000e+03 7.947085571289062500e+01 -4.117254257202148438e+01 4.753809447325708926e-14 -2.502005094873562853e-15 1.351082687704252897e-14 2.902325867701685547e-14
5.281000000000000000e+03 7.365084075927734375e+01 -3.736936950683593750e+01 -6.630313024958908730e-14 1.088372149566155245e-13 1.276022524270134170e-14 4.653729455289003225e-14
5.282000000000000000e+03 3.325986099243164062e+01 -3.699010086059570312e+01 -1.302293640764382032e-13 8.144026631459050369e-14 -1.463672932855430986e-14 6.004811719476782494e-14
5.283000000000000000e+03 9.787038803100585938e+00 -3.991823959350585938e+01 -5.454371085648543338e-14 2.952365863720038397e-14 -7.506014649345978118e-15 -1.125902282105191443e-14
5.284000000000000000e+03 1.726377844810485840e+00 -3.941780090332031250e+01 5.729591741375841818e-14 7.030634348358447139e-14 3.828067826920286687e-14 1.331066604593617031e-13
5.285000000000000000e+03 1.555738925933837891e+00 -4.196893692016601562e+01 -6.154932385158198849e-14 7.656135653840573374e-14 4.503608959014176322e-15 4.503608959014176322e-15
5.286000000000000000e+03 7.959580993652343750e+01 -1.413400173187255859e+01 3.803047490097931360e-14 6.204972381176551699e-14 3.002405859738391247e-14 2.502005052521915490e-14
5.287000000000000000e+03 7.960739135742187500e+01 -1.492204093933105469e+01 -4.453568793589234021e-14 -1.105886215935214523e-13 -4.653729455289003225e-14 6.004812227696550847e-15
5.288000000000000000e+03 7.797084045410156250e+01 -1.411405944824218750e+01 -9.807859548387892756e-14 -4.203368474684290867e-14 -4.203368474684290867e-14 2.902325867701685547e-14
5.289000000000000000e+03 7.801990509033203125e+01 -1.486700057983398438e+01 -6.204972381176551699e-14 -1.180946345488015359e-13 -5.404330750817011586e-14 -1.601283260719080226e-14
5.290000000000000000e+03 7.961482238769531250e+01 -1.571405410766601562e+01 -4.203368474684290867e-14 -1.801443583605670529e-14 -1.801443583605670529e-14 -4.303448466720996568e-14
5.291000000000000000e+03 7.962151336669921875e+01 -1.730294418334960938e+01 -5.254210423948774134e-14 -2.251804564210382886e-14 -2.251804564210382886e-14 6.104892389139845998e-14
5.292000000000000000e+03 7.810689544677734375e+01 -1.718048477172851562e+01 5.004010189747125706e-16 -4.553649124439118623e-14 -1.351082687704252897e-14 -1.351082738526229732e-13
5.293000000000000000e+03 7.962411499023437500e+01 -1.889692306518554688e+01 -1.251002526260957745e-14 -1.426142868079030568e-13 -4.653729455289003225e-14 4.503609128420765773e-14
5.294000000000000000e+03 7.962658691406250000e+01 -2.129592132568359375e+01 1.060850151756061177e-13 -4.603689120457471473e-14 1.801443583605670529e-14 -4.003208151797700565e-15
5.295000000000000000e+03 7.962801361083984375e+01 -2.209595298767089844e+01 -5.804651735403371093e-14 1.581267126786467525e-13 3.002405859738391247e-14 3.002406113848275424e-15
5.296000000000000000e+03 7.962870788574218750e+01 -2.289591407775878906e+01 4.053248147816053415e-14 -5.504410996963601463e-15 1.050842118671072717e-14 2.301844560228735737e-14
5.297000000000000000e+03 7.962847900390625000e+01 -2.369584846496582031e+01 1.801443583605670529e-14 2.822261738547049426e-13 9.007218256841531545e-14 -7.305854326459387815e-14
5.298000000000000000e+03 7.962769317626953125e+01 -2.449552726745605469e+01 -4.203368474684290867e-14 -1.801443583605670529e-14 -1.801443583605670529e-14 -3.903127820947815962e-14
5.299000000000000000e+03 7.888881683349609375e+01 -2.443474006652832031e+01 -1.951563910473907981e-14 1.451162933850842773e-14 -1.501203056924137712e-15 -4.403528797570881170e-14
5.300000000000000000e+03 7.962477874755859375e+01 -2.609357261657714844e+01 -1.070858150959731747e-13 1.371098736933570872e-13 9.007217918028352643e-15 1.501202929869195624e-14
5.301000000000000000e+03 7.961476135253906250e+01 -2.849005126953125000e+01 7.606094980195862720e-14 1.240994476235310340e-13 6.004811719476782494e-14 -1.701363422162375377e-14
5.302000000000000000e+03 7.961068725585937500e+01 -2.928851127624511719e+01 -3.102486190588275849e-14 2.612093213168881212e-13 6.905533680686207210e-14 3.702967498061225660e-14
5.303000000000000000e+03 7.960533142089843750e+01 -3.008733940124511719e+01 6.054852393121493148e-14 2.547041082819750946e-13 9.457578898633065001e-14 1.401122768425900472e-14
5.304000000000000000e+03 7.959914398193359375e+01 -3.088642311096191406e+01 -5.504410996963601463e-15 1.806447650970141594e-13 5.254210423948774134e-14 -3.402726844324750755e-14
5.305000000000000000e+03 7.959320068359375000e+01 -3.168548774719238281e+01 -4.703769451307356075e-14 1.170938346284344789e-13 2.101684237342145434e-14 1.901523745048965680e-14
5.306000000000000000e+03 7.958602142333984375e+01 -3.327785110473632812e+01 -2.151724233360498284e-14 3.652927163229693908e-14 4.503608959014176322e-15 3.002405859738391247e-14
5.307000000000000000e+03 7.956678009033203125e+01 -3.566986465454101562e+01 -3.677947500052049234e-14 -1.576263093303314350e-14 -1.576263093303314350e-14 -3.602887167211341057e-14
5.308000000000000000e+03 7.956305694580078125e+01 -3.647047424316406250e+01 -4.553649124439118623e-14 -1.951563910473907981e-14 -1.951563910473907981e-14 -2.001604075898850282e-15
5.309000000000000000e+03 7.957237243652343750e+01 -3.726953887939453125e+01 -8.006416303595401129e-15 8.807057595141762341e-14 2.401924891078620339e-14 -2.001604075898850282e-15
5.310000000000000000e+03 7.958914947509765625e+01 -3.806204986572265625e+01 9.957980214069309111e-14 2.256808563812218171e-13 9.757819552369539906e-14 -7.005613842129502361e-15
5.311000000000000000e+03 7.959856414794921875e+01 -3.884408569335937500e+01 -2.689655410285235471e-13 -2.376904723662854463e-14 -8.782037597132585915e-14 7.906335633932337625e-14
5.312000000000000000e+03 7.950072479248046875e+01 -4.038069152832031250e+01 -1.175942345886180074e-13 1.326062604991781746e-13 4.503608959014176322e-15 2.301844560228735737e-14
5.313000000000000000e+03 7.878490447998046875e+01 -1.412228584289550781e+01 -1.851483749030612830e-14 -2.366896826103137563e-13 -7.656135653840573374e-14 -8.106496295632106830e-14
5.314000000000000000e+03 7.634338378906250000e+01 -1.410705280303955078e+01 7.506014649345978118e-15 -4.253408470702643718e-14 -1.050842118671072717e-14 -5.404330750817011586e-14
5.315000000000000000e+03 7.555488586425781250e+01 -1.410940074920654297e+01 -1.100882199392720293e-14 -1.190954344691685929e-13 -3.903127820947815962e-14 4.303448466720996568e-14
5.316000000000000000e+03 7.326340484619140625e+01 -1.411133480072021484e+01 9.357498906596359300e-14 1.316054605788111176e-13 6.755413692631148659e-14 -6.805453688649501509e-14
5.317000000000000000e+03 7.402645111083984375e+01 -1.411328887939453125e+01 -2.401924891078620339e-14 -5.604491073703601889e-14 -2.401924891078620339e-14 1.651323256737433076e-13
5.318000000000000000e+03 7.173456573486328125e+01 -1.407013225555419922e+01 1.035830085984248972e-13 -1.386110735739076727e-13 -1.050842118671072717e-14 -2.101684237342145434e-14
5.319000000000000000e+03 7.021115875244140625e+01 -1.402580165863037109e+01 6.705373696612795809e-14 -1.701363422162375377e-14 1.501202929869195624e-14 -1.200962445539310169e-14
5.320000000000000000e+03 6.948289489746093750e+01 -1.400630474090576172e+01 1.165934346682509504e-13 2.787233605808930870e-13 1.185950345089850644e-13 1.000802037949425141e-14
5.321000000000000000e+03 6.818303680419921875e+01 -1.576620578765869141e+01 1.336070739720723877e-13 4.118300210402547901e-13 1.636311257931927221e-13 -1.651323256737433076e-14
5.322000000000000000e+03 6.602451324462890625e+01 -1.692122650146484375e+01 3.058701024665627655e-14 2.114819685474986222e-13 7.262069499349918522e-14 5.882057671881615879e-14
5.323000000000000000e+03 6.804888153076171875e+01 -1.486782455444335938e+01 6.505213034913026604e-15 4.853889778175593528e-14 1.651323256737433076e-14 -6.705373696612795809e-14
5.324000000000000000e+03 1.843946838378906250e+01 -6.555922508239746094e+00 2.480112469560591393e-13 2.892943317626267552e-13 1.611916709051003371e-13 -1.281026608575264181e-13
5.325000000000000000e+03 1.703892326354980469e+01 -1.366525936126708984e+01 -5.566961279977744592e-13 -1.013312020013354409e-13 -1.974081976444802544e-13 3.362694779747432694e-13
5.326000000000000000e+03 1.999240303039550781e+01 -9.893455505371093750e+00 1.476182999622654979e-13 9.757819552369539906e-14 7.355895000104098469e-14 -1.748901452261128475e-13
5.327000000000000000e+03 2.015217399597167969e+01 -8.904833793640136719e+00 2.649623413470553190e-13 6.780433690640325084e-14 9.983000212078485536e-14 -2.822261738547049426e-13
5.328000000000000000e+03 1.849563217163085938e+01 -1.431168842315673828e+01 -6.575269300389263716e-13 -5.304250758780305885e-14 -2.131708302715792924e-13 3.032429992874674518e-13
5.329000000000000000e+03 1.942901420593261719e+01 -1.394716262817382812e+01 -4.813857645835639687e-13 -6.905533680686207210e-14 -1.651323256737433076e-13 2.667137344314340908e-13
5.330000000000000000e+03 1.993866157531738281e+01 -1.499244403839111328e+01 -7.683657312837488540e-13 -5.479391083657719763e-14 -2.469478885703396687e-13 3.682951296365977178e-13
5.331000000000000000e+03 2.063479614257812500e+01 -1.535717105865478516e+01 -7.716183378012053673e-13 -2.391916688587042428e-13 -3.032429992874674518e-13 3.652927298754965468e-13
5.332000000000000000e+03 7.408756256103515625e+01 -1.482887363433837891e+01 1.491194998428160834e-13 2.011612041221202962e-13 1.050842084789754827e-13 4.803849782157240678e-14
5.333000000000000000e+03 7.254803466796875000e+01 -1.479871749877929688e+01 7.255814330441034965e-14 1.225982477429804485e-13 5.854691731421723944e-14 -7.606094980195862720e-14
5.334000000000000000e+03 7.331517028808593750e+01 -1.481631183624267578e+01 5.854691731421723944e-14 1.165934346682509504e-13 5.254210423948774134e-14 -7.005613842129502361e-15
5.335000000000000000e+03 7.097133636474609375e+01 -1.404519367218017578e+01 8.656937607086703790e-14 1.286030608177099466e-13 6.455173038894673754e-14 -6.104892389139845998e-14
5.336000000000000000e+03 6.954075622558593750e+01 -1.476871395111083984e+01 5.554451077685249039e-14 6.955573676704560060e-14 3.753007494079578510e-14 -3.202566521438160452e-14
5.337000000000000000e+03 2.079553031921386719e+01 -1.469173908233642578e+01 -4.456070928915423224e-13 3.778027492088754935e-14 -1.223480409866251062e-13 1.210970478624298630e-13
5.338000000000000000e+03 2.202960586547851562e+01 -1.602971458435058594e+01 -6.472686969738461471e-13 -1.858989714552047867e-13 -2.499502883314408397e-13 3.662935297958636038e-13
5.339000000000000000e+03 2.183663940429687500e+01 -1.308853340148925781e+01 1.287281641958876177e-13 3.754258460098719441e-13 1.512462030617278685e-13 -1.881507780522942430e-13
5.340000000000000000e+03 2.132551193237304688e+01 -1.571366405487060547e+01 -6.795445824971102500e-13 -2.912333731380084556e-13 -2.912333731380084556e-13 4.163336342344337027e-13
5.341000000000000000e+03 1.110149288177490234e+01 -1.173178768157958984e+01 -3.397722912485551250e-13 1.451162933850842773e-14 -9.757819552369539906e-14 1.371098736933570872e-13
5.342000000000000000e+03 8.213898658752441406e+00 -1.382758808135986328e+01 9.607699564314481355e-14 2.241796429481440756e-13 9.607699564314481355e-14 -3.803047490097931360e-14
5.343000000000000000e+03 9.201785087585449219e+00 -1.394484043121337891e+01 1.823961717339200872e-13 5.356792483549033257e-13 2.154226368686687487e-13 -5.804651735403371093e-14
5.344000000000000000e+03 1.227389717102050781e+01 -1.026508045196533203e+01 -2.366896826103137563e-13 -7.856295637913984775e-14 -9.457578898633065001e-14 1.916535777735789425e-13
5.345000000000000000e+03 1.203795337677001953e+01 -1.099695014953613281e+01 -2.972381997652651098e-13 -1.301042606982605321e-14 -9.307458910578006450e-14 2.361892690976030718e-13
5.346000000000000000e+03 9.539013862609863281e+00 -1.516472434997558594e+01 6.161187554067082406e-14 4.381636384016146524e-13 1.499326514721802117e-13 -1.451162866088206993e-13
5.347000000000000000e+03 7.888651275634765625e+01 -2.122781562805175781e+01 -6.405133042876320904e-14 6.405133042876320904e-14 0.000000000000000000e+00 -3.502807175174635357e-14
5.348000000000000000e+03 7.962579345703125000e+01 -2.049565315246582031e+01 -8.106496295632106830e-14 1.100882199392720293e-14 -2.101684237342145434e-14 5.004010189747125706e-15
5.349000000000000000e+03 7.885107421875000000e+01 -2.842869758605957031e+01 -9.657739560332834206e-14 1.416134868875359998e-13 1.351082687704252897e-14 -4.303448466720996568e-14
5.350000000000000000e+03 7.961877441406250000e+01 -2.769145774841308594e+01 -1.491194998428160834e-13 1.190954344691685929e-13 -9.007217918028352643e-15 -2.401924891078620339e-14
5.351000000000000000e+03 7.787052917480468750e+01 -3.548060989379882812e+01 -1.776423585596494104e-14 -1.448660934049925131e-13 -4.878909776184769953e-14 -1.271018609371593611e-13
5.352000000000000000e+03 7.957597351074218750e+01 -3.486879348754882812e+01 6.630313024958908730e-14 -1.088372149566155245e-13 -1.276022524270134170e-14 -1.901523745048965680e-14
5.353000000000000000e+03 7.885479736328125000e+01 -1.645142555236816406e+01 -7.706175649858926224e-14 -3.302646513474866152e-14 -3.302646513474866152e-14 2.602085213965210642e-14
5.354000000000000000e+03 7.570896148681640625e+01 -1.556997489929199219e+01 -3.252606517456513302e-14 7.756215645877279075e-14 1.351082687704252897e-14 -4.503609128420765773e-14
5.355000000000000000e+03 7.505104827880859375e+01 -1.704226303100585938e+01 3.302646513474866152e-14 3.702967498061225660e-14 2.101684237342145434e-14 -2.401924891078620339e-14
5.356000000000000000e+03 7.962292480468750000e+01 -1.809933280944824219e+01 6.004812227696550847e-15 -2.261812563414053456e-13 -6.605293026949732305e-14 4.803849782157240678e-14
5.357000000000000000e+03 7.888336181640625000e+01 -2.042469787597656250e+01 9.207378240914942946e-14 -5.204170427930421283e-14 1.200962445539310169e-14 2.201764398785440585e-14
5.358000000000000000e+03 7.887602996826171875e+01 -1.882451629638671875e+01 3.702967498061225660e-14 -7.005613842129502361e-15 9.007217918028352643e-15 1.801443583605670529e-14
5.359000000000000000e+03 7.815846252441406250e+01 -2.116476249694824219e+01 6.455173038894673754e-14 5.054050101062183831e-14 3.452766840343103605e-14 1.100882199392720293e-14
5.360000000000000000e+03 7.889045715332031250e+01 -2.203031158447265625e+01 5.754611739385018243e-14 4.753809447325708926e-14 3.152526186606628700e-14 9.307458910578006450e-14
5.361000000000000000e+03 7.888488006591796875e+01 -2.523456192016601562e+01 5.954771723458429644e-14 2.552045048540268340e-14 2.552045048540268340e-14 3.102486190588275849e-14
5.362000000000000000e+03 7.962650299072265625e+01 -2.529475021362304688e+01 9.007218256841531545e-14 1.301042606982605321e-13 6.605293026949732305e-14 -2.602085213965210642e-14
5.363000000000000000e+03 7.887242126464843750e+01 -2.683223342895507812e+01 -9.257418236933295796e-14 4.178348476675114442e-13 9.757819552369539906e-14 7.105694342385976414e-14
5.364000000000000000e+03 7.810028076171875000e+01 -2.837082862854003906e+01 -1.601283260719080226e-14 1.761411519028352468e-13 4.803849782157240678e-14 1.301042606982605321e-14
5.365000000000000000e+03 7.730561065673828125e+01 -2.990400314331054688e+01 3.002406113848275424e-15 -1.130906281707026728e-13 -3.302646513474866152e-14 -1.801443583605670529e-14
5.366000000000000000e+03 7.876536560058593750e+01 -3.242087173461914062e+01 -5.004010189747125706e-16 2.056648173162992088e-13 6.154932385158198849e-14 -3.602887167211341057e-14
5.367000000000000000e+03 7.878348541259765625e+01 -3.162359237670898438e+01 -2.552045048540268340e-14 8.056456299613753980e-14 1.651323256737433076e-14 -9.007217918028352643e-15
5.368000000000000000e+03 7.958863067626953125e+01 -3.248302459716796875e+01 -2.401924891078620339e-14 -5.604491073703601889e-14 -2.401924891078620339e-14 5.304250758780305885e-14
5.369000000000000000e+03 7.875747680664062500e+01 -3.320935058593750000e+01 1.251002526260957745e-14 1.426142868079030568e-13 4.653729455289003225e-14 5.704571743366665393e-14
5.370000000000000000e+03 7.870376586914062500e+01 -3.558677291870117188e+01 4.203368474684290867e-14 1.801443583605670529e-14 1.801443583605670529e-14 5.604491073703601889e-14
5.371000000000000000e+03 7.881056976318359375e+01 -3.873122787475585938e+01 -3.402726844324750755e-14 2.141716301919463494e-13 5.404330750817011586e-14 -4.003208151797700565e-15
5.372000000000000000e+03 7.738552856445312500e+01 -3.939733123779296875e+01 -1.006157844215573027e-13 2.313846542752878710e-13 3.923065621273466586e-14 -2.326864727644501613e-14
5.373000000000000000e+03 7.872331237792968750e+01 -3.937334060668945312e+01 -1.049591118770613896e-13 1.837722682362930016e-13 2.364394724658266250e-14 -9.207378240914942946e-14
5.374000000000000000e+03 7.956597137451171875e+01 -3.961390686035156250e+01 2.349382624208806725e-13 2.379406892870361556e-13 1.418636800913641860e-13 0.000000000000000000e+00
5.375000000000000000e+03 7.846277618408203125e+01 -4.004442596435546875e+01 1.099631182551602526e-13 1.376102749240900366e-15 3.340176849301809692e-14 -3.702967498061225660e-14
5.376000000000000000e+03 7.848996734619140625e+01 -4.192109680175781250e+01 -3.052446194569922999e-14 -2.451964887096973189e-14 -1.651323256737433076e-14 4.403528797570881170e-14
5.377000000000000000e+03 1.279555702209472656e+01 -1.117310047149658203e+01 -4.916439976486441932e-13 6.380113044867144478e-14 -1.283528540613546043e-13 1.010810020212436766e-13
5.378000000000000000e+03 1.775984954833984375e+01 -1.399651718139648438e+01 -6.515221305167240295e-13 -2.792237469885494594e-13 -2.792237469885494594e-13 2.502004950877961820e-13
5.379000000000000000e+03 2.065049171447753906e+01 -2.664533233642578125e+01 -3.252606517456513302e-14 -2.502005094873562853e-15 -1.050842118671072717e-14 6.755413438521264483e-15
5.380000000000000000e+03 3.399923324584960938e+01 -3.204091644287109375e+01 -9.107298248878237246e-14 1.210970478624298630e-13 9.007217918028352643e-15 8.306656957331876034e-14
5.381000000000000000e+03 3.318809127807617188e+01 -3.189932441711425781e+01 -1.831467648979318019e-13 1.301042606982605321e-14 -5.104090097080536681e-14 -3.652927163229693908e-14
5.382000000000000000e+03 1.415976333618164062e+01 -1.228499603271484375e+01 -5.677049542268663984e-13 -6.029832395112316723e-14 -1.884009712561224292e-13 1.511210996835501974e-13
5.383000000000000000e+03 1.357373809814453125e+01 -1.138895988464355469e+01 -3.562855034871387216e-13 -2.441956955655938399e-13 -1.801443651368306309e-13 1.681347389873716347e-13
5.384000000000000000e+03 4.527774047851562500e+01 -3.118585968017578125e+01 -2.036632039230379387e-13 -4.153328478665938017e-14 -7.355895000104098469e-14 2.301844560228735737e-14
5.385000000000000000e+03 4.837965774536132812e+01 -3.045939064025878906e+01 -1.551243129175455815e-13 -1.351082738526229732e-13 -8.706977603105056640e-14 -2.602085213965210642e-14
5.386000000000000000e+03 4.874174880981445312e+01 -3.251886367797851562e+01 -1.573761195146350378e-13 -9.032238254850707970e-14 -7.430954994131627744e-14 -3.152526186606628700e-14
5.387000000000000000e+03 1.039773273468017578e+01 -1.643514060974121094e+01 2.104186237143063076e-13 3.175044320340159043e-13 1.583769194350020948e-13 -2.717802924986217894e-13
5.388000000000000000e+03 1.146294498443603516e+01 -1.879307556152343750e+01 1.067105117377037393e-13 1.372349770715347583e-13 7.318364664277154930e-14 -9.607699564314481355e-14
5.389000000000000000e+03 4.373429489135742188e+01 -3.156956672668457031e+01 -2.159230368288522772e-13 -4.678749453298179650e-14 -7.881315635923161200e-14 -4.003208151797700565e-14
5.390000000000000000e+03 4.541878128051757812e+01 -3.203295135498046875e+01 -1.341074739322559162e-13 3.402726844324750755e-14 -3.002405859738391247e-14 -6.505213034913026604e-15
5.391000000000000000e+03 1.839107513427734375e+01 -7.600839138031005859e+00 3.077466124816463644e-13 3.978187950500616799e-13 2.116696303910287069e-13 -1.734515038109146756e-13
5.392000000000000000e+03 4.694470214843750000e+01 -3.176938438415527344e+01 -2.091676170375839083e-13 -2.101684237342145434e-14 -6.905533680686207210e-14 -4.953969770212299228e-14
5.393000000000000000e+03 4.773728942871093750e+01 -3.163816833496093750e+01 -1.741395520621011328e-13 -1.661331391466375207e-13 -1.020818019416107336e-13 -7.506014649345978118e-15
5.394000000000000000e+03 1.147568702697753906e+01 -1.992224502563476562e+01 1.651323256737433076e-14 9.857899544406245607e-14 3.452766840343103605e-14 -4.903929774193946378e-14
5.395000000000000000e+03 2.996952056884765625e+01 -3.316797256469726562e+01 -1.341074739322559162e-13 3.402726844324750755e-14 -3.002405859738391247e-14 5.229190425939597708e-14
5.396000000000000000e+03 9.929693222045898438e+00 -1.809208297729492188e+01 5.901604481798813917e-14 2.540473257109376881e-13 9.391901319155682160e-14 -7.005613842129502361e-15
5.397000000000000000e+03 5.487081146240234375e+01 -2.873903656005859375e+01 -1.605036226539138799e-13 1.142165246929838229e-13 -1.388612769421312260e-14 -1.070858150959731747e-13
5.398000000000000000e+03 2.723207092285156250e+01 -3.111706542968750000e+01 -8.757017599123409490e-14 -3.753007494079578510e-14 -3.753007494079578510e-14 3.903127820947815962e-14
5.399000000000000000e+03 5.682035446166992188e+01 -2.731811332702636719e+01 -1.075862116680249142e-14 -1.418636800913641860e-13 -4.578669122448295048e-14 -5.904731727440076794e-14
5.400000000000000000e+03 5.709399414062500000e+01 -2.613844108581542969e+01 -4.003208151797700565e-14 -4.003208151797700565e-14 -2.401924891078620339e-14 -1.130906281707026728e-13
5.401000000000000000e+03 5.750197982788085938e+01 -2.688533592224121094e+01 -9.857899544406245607e-14 3.502806921064751181e-15 -2.852285871683332696e-14 -1.401122768425900472e-14
5.402000000000000000e+03 1.434433078765869141e+01 -1.164909839630126953e+01 -4.723785381952061435e-13 7.205774334422682115e-14 -1.200962343895356499e-13 9.907939540424598457e-14
5.403000000000000000e+03 6.848996734619140625e+01 -1.656391906738281250e+01 -2.852285871683332696e-14 -4.653729455289003225e-14 -2.251804564210382886e-14 -4.353488801552528320e-14
5.404000000000000000e+03 6.111504745483398438e+01 -2.487046051025390625e+01 -1.153737072242047579e-13 -4.944587355662152794e-14 -4.944587355662152794e-14 -1.801443583605670529e-14
5.405000000000000000e+03 3.156801223754882812e+01 -3.161202430725097656e+01 -2.336872557441582732e-13 -1.115894215138885093e-13 -1.035830085984248972e-13 -5.354290754798658736e-14
5.406000000000000000e+03 6.551070404052734375e+01 -1.872873878479003906e+01 3.290136514470277940e-14 -3.165036185611216912e-14 3.753007642310344279e-16 9.207378240914942946e-14
5.407000000000000000e+03 2.070557975769042969e+01 -1.115969181060791016e+01 1.451162866088206993e-13 8.506816941405287436e-14 6.905533680686207210e-14 -2.149222369084852202e-13
5.408000000000000000e+03 5.067052459716796875e+01 -2.960082054138183594e+01 -1.621299259126421366e-13 2.201764398785440585e-14 -4.203368474684290867e-14 -1.170938346284344789e-13
5.409000000000000000e+03 2.799509811401367188e+01 -3.144629859924316406e+01 -1.543737062010067107e-13 1.168436278720791366e-13 -1.125902282105191443e-14 3.202566521438160452e-14
5.410000000000000000e+03 6.740296173095703125e+01 -1.742123413085937500e+01 8.347314538800082451e-14 -9.976745381982780880e-15 2.204891983239882364e-14 1.170938346284344789e-13
5.411000000000000000e+03 6.599684906005859375e+01 -1.808608818054199219e+01 2.839775703272155033e-14 5.792141397585603979e-14 2.589575214960622429e-14 -1.301042606982605321e-14
5.412000000000000000e+03 4.057159423828125000e+01 -3.205857086181640625e+01 -1.193456412255239352e-13 1.318556673351664599e-13 3.753007324672989059e-15 -2.201764398785440585e-14
5.413000000000000000e+03 4.229567718505859375e+01 -3.277560806274414062e+01 -1.536231130369949960e-13 -1.115894215138885093e-13 -7.956375629950690476e-14 -6.004812227696550847e-15
5.414000000000000000e+03 3.645872116088867188e+01 -3.350285339355468750e+01 -8.982198258832355120e-14 1.673841322708327639e-13 2.326864727644501613e-14 -5.954771723458429644e-14
5.415000000000000000e+03 1.667014312744140625e+01 -2.526928520202636719e+01 -5.529431079676072613e-14 6.780433690640325084e-14 3.753007324672989059e-15 -1.251002475438980910e-13
5.416000000000000000e+03 1.896077919006347656e+01 -2.626107978820800781e+01 -3.640417164225105695e-14 3.014916197556158362e-14 -1.876503662336494530e-15 -1.351082738526229732e-13
5.417000000000000000e+03 2.650989913940429688e+01 -3.075891113281250000e+01 -1.258508542604369618e-13 8.331676955341052460e-14 -1.276022524270134170e-14 1.311050606186275891e-13
5.418000000000000000e+03 6.501116943359375000e+01 -1.936815071105957031e+01 4.159583308761642673e-14 1.782678585098788210e-14 1.782678585098788210e-14 9.407538902614712151e-14
5.419000000000000000e+03 2.013352394104003906e+01 -1.430738067626953125e+01 -4.793841647428298547e-13 -2.512012950081632390e-13 -2.191756433463087905e-13 1.961571909677578551e-13
5.420000000000000000e+03 2.124662590026855469e+01 -2.907728767395019531e+01 -6.505213034913026604e-14 -8.506816941405287436e-14 -4.503609128420765773e-14 -2.251804479507088161e-15
5.421000000000000000e+03 6.404061889648437500e+01 -1.945871734619140625e+01 1.070858150959731747e-13 2.632109211576222352e-13 1.110890215537049808e-13 5.079070099071360256e-14
5.422000000000000000e+03 6.729612731933593750e+01 -1.473276042938232422e+01 -2.502005052521915490e-14 1.951563910473907981e-13 5.104090097080536681e-14 1.751403519824681898e-13
5.423000000000000000e+03 1.854660797119140625e+01 -1.122364997863769531e+01 5.316760757784894098e-14 -1.144667314493391652e-13 -1.838973750026024617e-14 5.004010105043830980e-14
5.424000000000000000e+03 1.786332321166992188e+01 -1.090270328521728516e+01 -2.034130107192097525e-13 9.582678888678947127e-14 -3.227586519447336877e-14 6.505213034913026604e-14
5.425000000000000000e+03 3.459142303466796875e+01 -3.316356658935546875e+01 -7.706175649858926224e-14 1.271018609371593611e-13 1.501202929869195624e-14 1.281026608575264181e-13
5.426000000000000000e+03 3.549676513671875000e+01 -3.341976165771484375e+01 -1.338572671759005739e-13 1.125902282105191443e-14 -3.677947500052049234e-14 -2.552045048540268340e-14
5.427000000000000000e+03 2.359075927734375000e+01 -1.492095661163330078e+01 1.014563053795131120e-13 4.552397955132070351e-13 1.670088356888269066e-13 -1.200962343895356499e-13
5.428000000000000000e+03 5.090621566772460938e+01 -3.051439476013183594e+01 -1.661331391466375207e-13 -9.407538902614712151e-14 -7.806255641895631925e-14 -1.125902282105191443e-13
5.429000000000000000e+03 2.311461639404296875e+01 -2.904002380371093750e+01 -1.200962343895356499e-13 -1.200962343895356499e-13 -7.205774334422682115e-14 9.257418236933295796e-14
5.430000000000000000e+03 2.454249572753906250e+01 -2.963652610778808594e+01 -5.704571743366665393e-14 6.705373696612795809e-14 3.002406113848275424e-15 4.003208151797700565e-14
5.431000000000000000e+03 2.414322853088378906e+01 -1.550590229034423828e+01 -1.686351389475551632e-13 2.937353864914532542e-13 3.753007494079578510e-14 1.341074739322559162e-13
5.432000000000000000e+03 3.122046470642089844e+01 -3.248752593994140625e+01 -1.533729062806396537e-13 2.577065215956034216e-14 -3.828067826920286687e-14 -2.001604075898850282e-15
5.433000000000000000e+03 3.207587432861328125e+01 -3.264032745361328125e+01 -1.879005712959389007e-13 -3.477786838352280030e-14 -6.680353698603619383e-14 -9.707779556351187056e-14
5.434000000000000000e+03 4.076243972778320312e+01 -3.285098266601562500e+01 -1.240994476235310340e-13 -7.606094980195862720e-14 -6.004811719476782494e-14 -2.652125379390152943e-14
5.435000000000000000e+03 2.275597190856933594e+01 -2.786410713195800781e+01 -4.603689120457471473e-14 2.602085213965210642e-14 -6.004812227696550847e-15 7.130714340395152839e-14
5.436000000000000000e+03 6.240417480468750000e+01 -2.249091529846191406e+01 -3.448857613884935558e-14 3.097013002496297462e-14 -1.055533389473616978e-15 1.433648935244419276e-13
5.437000000000000000e+03 2.141732788085937500e+01 -1.247123527526855469e+01 1.506206997233666689e-13 6.455173038894673754e-14 6.455173038894673754e-14 -1.230986477031639770e-13
5.438000000000000000e+03 1.922558403015136719e+01 -1.464190959930419922e+01 -7.793745575128407932e-13 -3.340176713776538131e-13 -3.340176713776538131e-13 4.293440603042597559e-13
5.439000000000000000e+03 2.238479614257812500e+01 -2.867824935913085938e+01 -7.380914998113274894e-14 -1.688853321513833494e-13 -7.280834328450211390e-14 1.381106736137241442e-13
5.440000000000000000e+03 3.293302154541015625e+01 -3.277368164062500000e+01 -1.266014474244486765e-13 -8.506817110811876886e-15 -4.053248147816053415e-14 8.706977603105056640e-14
5.441000000000000000e+03 2.104017639160156250e+01 -1.182495784759521484e+01 2.186752433861252620e-13 3.567859169998494062e-13 1.726383521815505473e-13 -2.602085213965210642e-13
5.442000000000000000e+03 1.946993446350097656e+01 -1.026422595977783203e+01 1.833969716542871442e-13 1.243496543798863763e-13 9.232398238924119371e-14 -2.481988952470620680e-13
5.443000000000000000e+03 6.007825088500976562e+01 -2.481197357177734375e+01 -1.763600794265143823e-13 1.591900676762344341e-14 -4.813232196707387112e-14 2.401924891078620339e-14
5.444000000000000000e+03 6.068256378173828125e+01 -2.425346374511718750e+01 7.008741595990533590e-14 1.672903081253312996e-13 7.121331925845006405e-14 -1.891515779726613000e-13
5.445000000000000000e+03 5.013042068481445312e+01 -3.082616043090820312e+01 -1.546239129573620530e-13 1.396118734942747297e-13 -4.503608959014176322e-15 -1.251002526260957745e-14
5.446000000000000000e+03 1.199518489837646484e+01 -1.940623855590820312e+01 1.066479668248784818e-13 1.829591166069288732e-13 8.688212096378405969e-14 -8.006416303595401129e-14
5.447000000000000000e+03 3.421523284912109375e+01 -3.416452026367187500e+01 -1.868997713755718437e-13 -4.578669122448295048e-14 -6.980593674713736485e-14 4.603689120457471473e-14
5.448000000000000000e+03 6.397974014282226562e+01 -2.063027763366699219e+01 3.215076520442748664e-14 1.967826943061190548e-13 6.868004022485621474e-14 6.004811719476782494e-14
5.449000000000000000e+03 6.449895477294921875e+01 -2.000205421447753906e+01 -6.067362053312902459e-14 1.570008093801020244e-13 2.889815868697097334e-14 7.105694342385976414e-14
5.450000000000000000e+03 4.004002761840820312e+01 -3.311314773559570312e+01 -1.501202997631831404e-13 5.004010105043830980e-14 -3.002405859738391247e-14 4.228388472693467293e-14
5.451000000000000000e+03 5.882809829711914062e+01 -2.589611625671386719e+01 1.532478096787255606e-14 6.567763029935967667e-15 6.567763029935967667e-15 -2.001604075898850282e-14
5.452000000000000000e+03 4.617254257202148438e+01 -3.187826538085937500e+01 -1.996600042415697107e-13 7.455974992140804170e-14 -3.753007494079578510e-14 2.502005094873562853e-15
5.453000000000000000e+03 1.307078933715820312e+01 -2.064011955261230469e+01 -4.105340674072192886e-14 2.111604212881937337e-13 5.103210538068107816e-14 -6.214354795726698133e-14
5.454000000000000000e+03 4.147828292846679688e+01 -3.279106140136718750e+01 -1.836471648581153304e-13 5.854691731421723944e-14 -3.753007494079578510e-14 8.506816941405287436e-14
5.455000000000000000e+03 4.313098144531250000e+01 -3.259352111816406250e+01 -1.261010474642651480e-13 1.060850151756061177e-13 -6.004812227696550847e-15 -1.045838085187919542e-13
5.456000000000000000e+03 6.346031951904296875e+01 -2.125356101989746094e+01 -1.487754689409592768e-13 2.774098123794772192e-14 -3.631034749674959261e-14 1.220978477827969200e-13
5.457000000000000000e+03 2.095401000976562500e+01 -2.780398368835449219e+01 -4.803849782157240678e-14 -1.921539912862896271e-13 -7.205774334422682115e-14 -4.928949772203122803e-14
5.458000000000000000e+03 5.945982360839843750e+01 -2.536084556579589844e+01 3.721732327161518528e-14 1.595028261216786120e-14 1.595028261216786120e-14 -7.606094980195862720e-14
5.459000000000000000e+03 5.966629409790039062e+01 -2.418269920349121094e+01 -2.401924891078620339e-14 2.401924891078620339e-14 0.000000000000000000e+00 -7.280834328450211390e-14
5.460000000000000000e+03 1.762125587463378906e+01 -2.398055267333984375e+01 1.220978477827969200e-13 1.781427517435693608e-13 9.007218256841531545e-14 -1.880256746741165719e-13
5.461000000000000000e+03 1.834645652770996094e+01 -2.572300148010253906e+01 -6.317562626327729788e-15 1.345453154270870311e-13 3.846832656020579555e-14 -4.103288143834406265e-14
5.462000000000000000e+03 1.093152523040771484e+01 -1.818059730529785156e+01 1.496198998029996119e-13 4.758813785740723112e-13 1.876503780921107145e-13 -1.941555911270237411e-13
5.463000000000000000e+03 5.424961853027343750e+01 -2.945547866821289062e+01 -1.227233511211581196e-13 3.890617821943227750e-14 -2.514515051526503703e-14 3.953167816966168813e-14
5.464000000000000000e+03 1.417305469512939453e+01 -2.060405349731445312e+01 8.156536291650459680e-14 2.036632039230379387e-13 8.556856937423640286e-14 -4.240898471698055505e-14
5.465000000000000000e+03 1.482900333404541016e+01 -2.233015632629394531e+01 9.166720659446736530e-14 8.503689695764024559e-14 5.301123174325864107e-14 -8.156536291650459680e-14
5.466000000000000000e+03 1.364515590667724609e+01 -2.121984481811523438e+01 4.966480108030066343e-14 2.042887072613991384e-13 7.618605318013629835e-14 -1.150922347877003649e-13
5.467000000000000000e+03 1.704489898681640625e+01 -2.341835594177246094e+01 2.116696303910287069e-13 7.355895000104098469e-14 8.556856937423640286e-14 -1.583769194350020948e-13
5.468000000000000000e+03 1.774454879760742188e+01 -2.517440605163574219e+01 3.984442983884228795e-14 1.707618421664669484e-14 1.707618421664669484e-14 -1.671339390670045777e-13
5.469000000000000000e+03 1.714923095703125000e+01 -2.461535263061523438e+01 6.805453688649501509e-14 2.121700303512122354e-13 8.406736949368581735e-14 -1.521218996039172544e-13
5.470000000000000000e+03 1.424085044860839844e+01 -2.177213478088378906e+01 4.212750889234437301e-14 1.095565424404781885e-13 4.550521539984676844e-14 -4.003208151797700565e-14
5.471000000000000000e+03 1.655968093872070312e+01 -2.404620552062988281e+01 1.438652934846254561e-13 1.989093975250308399e-13 1.028324086581496044e-13 -1.661331391466375207e-13
5.472000000000000000e+03 4.672363996505737305e-01 -3.801165390014648438e+01 -1.115894215138885093e-13 -9.357498906596359300e-14 -6.154932385158198849e-14 -1.901523745048965680e-14
5.473000000000000000e+03 1.219589352607727051e+00 -3.709009170532226562e+01 -3.702967498061225660e-14 7.005613842129502361e-15 -9.007217918028352643e-15 3.803047490097931360e-14
5.474000000000000000e+03 1.758372426033020020e+00 -1.477460193634033203e+01 7.756215645877279075e-14 -3.327666647009314138e-13 -7.656135653840573374e-14 -1.140914348673333079e-13
5.475000000000000000e+03 1.115942716598510742e+00 -3.560500717163085938e+01 -1.095878216731543953e-13 4.453568793589234021e-14 -1.951563910473907981e-14 1.130906281707026728e-13
5.476000000000000000e+03 1.091139793395996094e+00 -2.113477516174316406e+01 4.853889778175593528e-14 -2.537033083616080376e-13 -6.154932385158198849e-14 -4.003208151797700565e-14
5.477000000000000000e+03 1.164870262145996094e+00 -2.838771247863769531e+01 -4.803849782157240678e-14 -1.120898214740720378e-13 -4.803849782157240678e-14 -2.602085213965210642e-14
5.478000000000000000e+03 2.150717973709106445e+00 -3.752888870239257812e+01 -1.005806020610601481e-13 2.552045048540268340e-14 -2.251804564210382886e-14 9.857899544406245607e-14
5.479000000000000000e+03 1.657279849052429199e+00 -3.859511184692382812e+01 -7.455974992140804170e-14 5.954771723458429644e-14 -4.503608959014176322e-15 1.220978477827969200e-13
5.480000000000000000e+03 1.374482393264770508e+00 -3.782499313354492188e+01 8.706977603105056640e-14 8.306656957331876034e-14 5.104090097080536681e-14 6.255012377194904549e-14
5.481000000000000000e+03 2.017257928848266602e+00 -2.999972534179687500e+01 2.301844560228735737e-14 -1.731387521417340758e-13 -4.503609128420765773e-14 5.904731727440076794e-14
5.482000000000000000e+03 1.237990498542785645e+00 -3.167621421813964844e+01 4.103288143834406265e-14 -5.104090097080536681e-14 -3.002406113848275424e-15 2.041636038832214672e-13
5.483000000000000000e+03 1.214103937149047852e+00 -3.248621368408203125e+01 2.852285871683332696e-14 -3.352686848306397904e-14 -1.501203056924137712e-15 2.702165375408505793e-14
5.484000000000000000e+03 4.099261760711669922e-01 -3.084455108642578125e+01 -1.531227130768114675e-13 -1.571259127582796955e-13 -9.307458910578006450e-14 -2.001604075898850282e-15
5.485000000000000000e+03 1.233727693557739258e+00 -3.084908866882324219e+01 2.652125379390152943e-14 -1.716375387086563342e-13 -4.353488801552528320e-14 3.903127820947815962e-14
5.486000000000000000e+03 1.975430011749267578e+00 -2.916802978515625000e+01 -3.002405859738391247e-14 -1.501202997631831404e-13 -5.404330750817011586e-14 -4.003208151797700565e-15
5.487000000000000000e+03 1.185820579528808594e+00 -2.919972419738769531e+01 1.651323256737433076e-14 -2.216776431472264330e-13 -6.154932385158198849e-14 1.311050606186275891e-13
5.488000000000000000e+03 1.860278844833374023e+00 -2.512561416625976562e+01 -2.802245536851800944e-14 -3.322662782932750414e-13 -1.080866150163402317e-13 -4.003208151797700565e-14
5.489000000000000000e+03 1.134178996086120605e+00 -2.677519226074218750e+01 -2.451964887096973189e-14 -1.706367387882892772e-13 -5.854691731421723944e-14 2.401924891078620339e-14
5.490000000000000000e+03 1.103421449661254883e+00 -2.436189460754394531e+01 -1.951563910473907981e-14 -1.456166865690042278e-13 -4.953969770212299228e-14 -9.007217918028352643e-15
5.491000000000000000e+03 1.111756563186645508e+00 -2.516652870178222656e+01 -3.202566521438160452e-14 -2.882309733769072846e-13 -9.607699564314481355e-14 4.203368474684290867e-14
5.492000000000000000e+03 3.650124967098236084e-01 -2.359155654907226562e+01 4.303448466720996568e-14 -3.933151818558827673e-13 -1.050842084789754827e-13 2.201764398785440585e-14
5.493000000000000000e+03 1.097853422164916992e+00 -2.355667495727539062e+01 -2.401924891078620339e-14 -3.763015561045884860e-13 -1.200962343895356499e-13 -4.703769451307356075e-14
5.494000000000000000e+03 1.094132542610168457e+00 -2.275064468383789062e+01 3.502807175174635357e-14 -3.052445991282015658e-13 -8.106496295632106830e-14 1.301042606982605321e-14
5.495000000000000000e+03 1.091329336166381836e+00 -2.194323539733886719e+01 -8.256616283687165381e-14 -3.327666647009314138e-13 -1.245998475837145625e-13 -8.006416303595401129e-15
5.496000000000000000e+03 1.836871981620788574e+00 -2.027681350708007812e+01 7.405934996122451319e-14 -3.342678781340091554e-13 -7.806255641895631925e-14 -8.106496295632106830e-14
5.497000000000000000e+03 1.051104068756103516e+00 -1.792637825012207031e+01 -4.503609128420765773e-14 -5.454370679072728656e-13 -1.771419518232023038e-13 -1.501202929869195624e-14
5.498000000000000000e+03 3.480541706085205078e-01 -1.716215705871582031e+01 -3.502806921064751181e-15 -6.420144906156555198e-13 -1.936551911668402126e-13 -4.403528797570881170e-14
5.499000000000000000e+03 1.044656515121459961e+00 -1.713313102722167969e+01 -4.653729455289003225e-14 -5.689559609035887977e-13 -1.846479647784823874e-13 3.803047490097931360e-14
5.500000000000000000e+03 1.046241998672485352e+00 -1.634582901000976562e+01 -9.007217918028352643e-15 -4.613697119661142043e-13 -1.411130869273524713e-13 -2.201764398785440585e-14
5.501000000000000000e+03 1.051042914390563965e+00 -1.555614566802978516e+01 -2.752205540833448094e-14 -3.778027695376662276e-13 -1.215974478226133915e-13 4.003208151797700565e-14
5.502000000000000000e+03 1.066761851310729980e+00 -1.236721611022949219e+01 -1.140914348673333079e-13 -3.462775042834681516e-13 -1.381106736137241442e-13 6.004812227696550847e-15
5.503000000000000000e+03 1.067354440689086914e+00 -1.156692123413085938e+01 -6.204972381176551699e-14 -1.180946345488015359e-13 -5.404330750817011586e-14 1.701363422162375377e-14
5.504000000000000000e+03 3.602181077003479004e-01 -9.945930480957031250e+00 -5.904731727440076794e-14 -2.311852694957677867e-13 -8.706977603105056640e-14 1.100882199392720293e-14
5.505000000000000000e+03 1.139092087745666504e+00 -7.525133609771728516e+00 -5.504410996963601463e-15 -1.396118734942747297e-13 -4.353488801552528320e-14 -7.005613842129502361e-15
5.506000000000000000e+03 1.099890470504760742e+00 -9.157647132873535156e+00 2.401924891078620339e-14 -2.642117210779892922e-13 -7.205774334422682115e-14 -3.402726844324750755e-14
5.507000000000000000e+03 2.727442741394042969e+00 -6.712388992309570312e+00 -1.200962445539310169e-14 -1.881507780522942430e-13 -6.004811719476782494e-14 -7.005613842129502361e-15
5.508000000000000000e+03 5.255524635314941406e+00 -1.857273101806640625e+00 -5.604491073703601889e-14 -2.401924891078620339e-14 -2.401924891078620339e-14 1.000802037949425141e-15
5.509000000000000000e+03 2.756048440933227539e+00 -2.591485977172851562e+00 -2.051644071917203133e-14 -5.454371085648543338e-14 -2.251804564210382886e-14 -2.101684237342145434e-14
5.510000000000000000e+03 2.824634075164794922e+00 -1.860617756843566895e+00 -6.905533680686207210e-14 -1.210970478624298630e-13 -5.704571743366665393e-14 7.706175649858926224e-14
5.511000000000000000e+03 1.961398601531982422e+00 -5.850597858428955078e+00 3.152526186606628700e-14 1.351082687704252897e-14 1.351082687704252897e-14 9.007217918028352643e-15
5.512000000000000000e+03 1.208642363548278809e+00 -1.880919098854064941e+00 5.254210423948774134e-14 2.251804564210382886e-14 2.251804564210382886e-14 -5.204170427930421283e-14
5.513000000000000000e+03 1.180118203163146973e+00 -2.651765584945678711e+00 2.502005094873562853e-15 9.257418236933295796e-14 2.852285871683332696e-14 -5.804651735403371093e-14
5.514000000000000000e+03 5.939281463623046875e+00 -2.588440656661987305e+00 -3.402726844324750755e-14 5.404330750817011586e-14 6.004812227696550847e-15 6.905533680686207210e-14
5.515000000000000000e+03 1.166751742362976074e+00 -5.877391338348388672e+00 6.004812227696550847e-15 -6.605293026949732305e-14 -1.801443583605670529e-14 -5.704571743366665393e-14
5.516000000000000000e+03 2.016986131668090820e+00 -1.869772315025329590e+00 -6.805453688649501509e-14 -2.121700303512122354e-13 -8.406736949368581735e-14 -9.707779556351187056e-14
5.517000000000000000e+03 1.163698554039001465e+00 -4.242826461791992188e+00 -3.352686848306397904e-14 8.506817110811876886e-15 -7.506014649345978118e-15 -2.902325867701685547e-14
5.518000000000000000e+03 1.165856122970581055e+00 -3.439448118209838867e+00 2.451964887096973189e-14 1.050842118671072717e-14 1.050842118671072717e-14 -1.301042606982605321e-13
5.519000000000000000e+03 7.545001983642578125e+00 -2.639760017395019531e+00 -2.552045048540268340e-14 8.056456299613753980e-14 1.651323256737433076e-14 1.841475648182988589e-13
5.520000000000000000e+03 6.883935928344726562e+00 -1.870404720306396484e+00 2.902325867701685547e-14 8.106496295632106830e-14 3.302646513474866152e-14 4.003208151797700565e-14
5.521000000000000000e+03 7.697190761566162109e+00 -1.881576657295227051e+00 4.603689120457471473e-14 -1.861491782115601290e-13 -4.203368474684290867e-14 2.967377862525544252e-13
5.522000000000000000e+03 1.135062408447265625e+01 -3.967548131942749023e+00 1.210970478624298630e-13 1.891515779726613000e-13 9.307458910578006450e-14 6.305052373213257400e-14
5.523000000000000000e+03 6.743766784667968750e+00 -2.610795974731445312e+00 -4.253408470702643718e-14 -1.326062604991781746e-13 -5.254210423948774134e-14 1.646319257135597791e-13
5.524000000000000000e+03 7.715621948242187500e+01 -1.410872364044189453e+01 1.030826086382413687e-13 6.705373696612795809e-14 5.104090097080536681e-14 3.702967498061225660e-14
5.525000000000000000e+03 7.805804443359375000e+01 -1.563133049011230469e+01 1.351082687704252897e-14 5.154130431912068433e-14 1.951563910473907981e-14 9.007217918028352643e-15
5.526000000000000000e+03 7.563895416259765625e+01 -1.483914089202880859e+01 8.656937607086703790e-14 -1.916535777735789425e-13 -3.152526186606628700e-14 -6.104892389139845998e-14
5.527000000000000000e+03 2.343132209777832031e+01 -1.568917846679687500e+01 -3.657931433882072314e-13 1.406126869671689428e-13 -6.755413692631148659e-14 2.276824562219559311e-13
5.528000000000000000e+03 1.437318801879882812e+01 -3.362871646881103516e+00 2.081668171172168513e-13 -3.682951296365977178e-13 -4.803849782157240678e-14 4.303448466720996568e-14
5.529000000000000000e+03 1.432672500610351562e+01 -5.088205814361572266e+00 1.862742680372106441e-13 -5.742101401567251129e-14 3.865597823934051325e-14 -7.506014988159157020e-14
5.530000000000000000e+03 1.471837615966796875e+01 -4.450699806213378906e+00 2.787233605808930870e-13 -2.236792429879605471e-13 1.651323256737433076e-14 8.606896933441993136e-14
5.531000000000000000e+03 1.671202468872070312e+01 -5.909754276275634766e+00 1.481186999224490264e-13 3.202566521438160452e-14 5.404330750817011586e-14 -1.463672932855430986e-14
5.532000000000000000e+03 1.784671401977539062e+01 -5.922059059143066406e+00 2.394418756150595851e-13 1.483688931262772126e-13 1.163432279118956081e-13 -1.511210996835501974e-13
5.533000000000000000e+03 1.560731887817382812e+01 -5.988106727600097656e+00 2.421315372595073123e-13 1.037706568894278258e-13 1.037706568894278258e-13 7.906335633932337625e-14
5.534000000000000000e+03 1.629380989074707031e+01 -7.647003650665283203e+00 1.726383521815505473e-13 1.426142868079030568e-13 9.457578898633065001e-14 -7.531034986168333445e-14
5.535000000000000000e+03 8.965506553649902344e+00 -3.505631685256958008e+00 -6.880513682677030785e-14 1.626303258728256651e-14 -1.576263093303314350e-14 1.230986477031639770e-13
5.536000000000000000e+03 1.321807956695556641e+01 -3.749599218368530273e+00 1.416134868875359998e-13 -2.366896826103137563e-13 -2.852285871683332696e-14 4.003208151797700565e-14
5.537000000000000000e+03 1.161015987396240234e+01 -3.218431711196899414e+00 1.190954344691685929e-13 -1.090874217129708668e-13 3.002406113848275424e-15 4.353488801552528320e-14
5.538000000000000000e+03 1.109630870819091797e+01 -4.690661430358886719e+00 6.555253030931379454e-14 -2.006608041619367677e-13 -4.053248147816053415e-14 6.555253030931379454e-14
5.539000000000000000e+03 1.242297649383544922e+01 -3.464323759078979492e+00 1.626303258728256651e-13 -6.755413692631148659e-14 2.852285871683332696e-14 -7.055654346367623564e-14
5.540000000000000000e+03 1.355377197265625000e+01 -3.026525735855102539e+00 1.301042606982605321e-13 1.000802037949425141e-14 4.203368474684290867e-14 -8.406736949368581735e-14
5.541000000000000000e+03 3.592283487319946289e+00 -4.185278701782226562e+01 -1.788933584601082316e-14 1.067105117377037393e-13 2.664635378394741155e-14 -4.003208151797700565e-14
5.542000000000000000e+03 1.962234687805175781e+01 -9.301795959472656250e+00 1.696359388679222202e-13 9.557658890669770702e-14 7.956375629950690476e-14 -2.707169341129023188e-13
5.543000000000000000e+03 1.924308395385742188e+01 -8.719962120056152344e+00 3.157530389496371326e-13 2.497001086801398095e-13 1.696359388679222202e-13 -2.370649791923196137e-13
5.544000000000000000e+03 6.751103973388671875e+01 -1.617862892150878906e+01 4.391018798566292958e-14 -7.268324668258802079e-14 -8.631917100857759012e-15 1.060850151756061177e-13
5.545000000000000000e+03 1.788400077819824219e+01 -7.037568092346191406e+00 1.770168484450246327e-13 -1.207217377278968495e-13 1.688853423157787165e-14 -1.851796439713421227e-13
5.546000000000000000e+03 1.654678726196289062e+01 -1.262409591674804688e+01 -3.773023560249555430e-13 -9.307458910578006450e-14 -1.411130869273524713e-13 2.446960819732502124e-13
5.547000000000000000e+03 1.731282043457031250e+01 -6.466066837310791016e+00 2.216776431472264330e-13 1.035830085984248972e-13 9.757819552369539906e-14 -2.108564787616645786e-13
5.548000000000000000e+03 1.619909095764160156e+01 -6.513422012329101562e+00 1.541547786773275752e-13 2.033191865737082882e-13 1.072421909305634746e-13 -9.707779556351187056e-14
5.549000000000000000e+03 1.541741657257080078e+01 -4.892189502716064453e+00 2.316856559034241592e-13 -1.065854151357896462e-13 3.753007494079578510e-14 1.078364150362484675e-13
5.550000000000000000e+03 1.512584114074707031e+01 -6.539943695068359375e+00 2.421940957248597259e-13 -6.204972381176551699e-14 5.404330750817011586e-14 8.913392925493941049e-15
5.551000000000000000e+03 1.498731613159179688e+01 -5.501177310943603516e+00 2.528275982668914956e-13 -2.889815868697097334e-14 6.717883356804205119e-14 4.903929774193946378e-14
5.552000000000000000e+03 1.398705196380615234e+01 -4.073449134826660156e+00 1.546239129573620530e-13 -5.954771723458429644e-14 2.852285871683332696e-14 -5.454371085648543338e-14
5.553000000000000000e+03 1.745477867126464844e+01 -1.228314590454101562e+01 -2.854787803721614559e-13 -1.223480409866251062e-13 -1.223480409866251062e-13 2.031628039628544102e-13
5.554000000000000000e+03 1.869432067871093750e+01 -1.362178325653076172e+01 -4.968982040068348205e-13 -2.587073079634433226e-13 -2.266816563015888741e-13 3.057450126409122504e-13
5.555000000000000000e+03 1.796305465698242188e+01 -1.329965686798095703e+01 -4.463576860555540371e-13 -5.404330750817011586e-14 -1.501202997631831404e-13 2.266816563015888741e-13
5.556000000000000000e+03 7.260394287109375000e+01 -1.551731872558593750e+01 1.035830085984248972e-13 1.816455650173812164e-13 8.556856937423640286e-14 -1.000802037949425141e-14
5.557000000000000000e+03 7.178565216064453125e+01 -1.477642536163330078e+01 8.406736949368581735e-14 3.602887167211341057e-14 3.602887167211341057e-14 1.601283260719080226e-14
5.558000000000000000e+03 5.253737640380859375e+01 -3.013919258117675781e+01 -1.711371387484728057e-13 -1.190954344691685929e-13 -8.706977603105056640e-14 -4.253408555405938443e-15
5.559000000000000000e+03 5.771436309814453125e+01 -2.902233886718750000e+01 -3.102486190588275849e-14 -5.904731727440076794e-14 -2.702165375408505793e-14 -1.058348151955143535e-13
5.560000000000000000e+03 7.102832794189453125e+01 -1.475935649871826172e+01 9.457578898633065001e-14 4.053248147816053415e-14 4.053248147816053415e-14 -5.804651735403371093e-14
5.561000000000000000e+03 4.623225784301757812e+01 -3.275814437866210938e+01 -1.776423517833858323e-13 -7.506014649345978118e-15 -5.554451077685249039e-14 -7.305854326459387815e-14
5.562000000000000000e+03 7.486215972900390625e+01 -1.483608722686767578e+01 -5.004010189747125706e-15 1.351082738526229732e-13 3.903127820947815962e-14 5.004010105043830980e-14
5.563000000000000000e+03 1.790142250061035156e+01 -8.060005187988281250e+00 2.133584785625822211e-13 -6.255012737183907132e-17 6.398877873967437346e-14 -1.881507780522942430e-13
5.564000000000000000e+03 2.224064826965332031e+01 -1.372358131408691406e+01 1.010810020212436766e-13 4.903929774193946378e-14 4.503609128420765773e-14 -1.969077976842967259e-13
5.565000000000000000e+03 7.109895324707031250e+01 -1.548309040069580078e+01 7.756215645877279075e-14 3.077466124816463644e-13 1.155926347478838934e-13 1.100882199392720293e-14
5.566000000000000000e+03 7.036199951171875000e+01 -1.548716449737548828e+01 4.203368474684290867e-14 1.781427517435693608e-13 6.605293026949732305e-14 -6.204972381176551699e-14
5.567000000000000000e+03 2.424441719055175781e+01 -3.033068466186523438e+01 -1.531227130768114675e-13 -1.571259127582796955e-13 -9.307458910578006450e-14 -1.701363422162375377e-14
5.568000000000000000e+03 2.530879211425781250e+01 -3.111957931518554688e+01 -1.190954344691685929e-13 -5.104090097080536681e-14 -5.104090097080536681e-14 6.305052373213257400e-14
5.569000000000000000e+03 4.854392623901367188e+01 -3.143136978149414062e+01 -1.721379386688398627e-13 1.321058605389946461e-13 -1.200962445539310169e-14 -4.653729455289003225e-14
5.570000000000000000e+03 2.039622306823730469e+01 -1.356545257568359375e+01 -2.389414892074032126e-13 -1.939053843706683988e-13 -1.298540539419051898e-13 3.502807175174635357e-14
5.571000000000000000e+03 2.043420982360839844e+01 -1.221824550628662109e+01 -3.177546523428984027e-14 -1.508709064797220112e-13 -5.479391083657719763e-14 -6.104892389139845998e-14
5.572000000000000000e+03 5.726042938232421875e+01 -2.813091087341308594e+01 -1.723881454251952050e-13 1.548741061611902392e-13 -5.254210593355363584e-15 -2.401924891078620339e-14
5.573000000000000000e+03 5.549430084228515625e+01 -2.818231391906738281e+01 -1.007056986629742412e-13 -4.315958804538763682e-14 -4.315958804538763682e-14 4.003208151797700565e-15
5.574000000000000000e+03 6.293917083740234375e+01 -2.187383842468261719e+01 -2.336247142194648047e-14 -5.576343830053162587e-14 -2.373777308615002135e-14 2.151724233360498284e-14
5.575000000000000000e+03 6.446344757080078125e+01 -2.116253280639648438e+01 -1.132157247726167659e-13 1.344827705142617735e-13 6.380112621350670851e-15 8.406736949368581735e-14
5.576000000000000000e+03 2.200904846191406250e+01 -2.954485130310058594e+01 -2.652125379390152943e-14 -6.855493684667854359e-14 -2.852285871683332696e-14 6.204972381176551699e-14
5.577000000000000000e+03 7.642470550537109375e+01 -1.484216976165771484e+01 1.115894215138885093e-13 9.357498906596359300e-14 6.154932385158198849e-14 4.703769451307356075e-14
5.578000000000000000e+03 6.394955062866210938e+01 -2.180451393127441406e+01 -6.692863443498323420e-15 8.863352760068998748e-14 2.458219886599267295e-14 2.401924891078620339e-14
5.579000000000000000e+03 1.197705173492431641e+01 -2.057003974914550781e+01 -1.851483749030612830e-14 8.356696953350228885e-14 1.951563910473907981e-14 -2.602085213965210642e-14
5.580000000000000000e+03 2.052364158630371094e+01 -2.854810523986816406e+01 -7.699920480950042667e-14 -7.875060467014277643e-14 -4.672494284389296093e-14 -9.407538902614712151e-14
5.581000000000000000e+03 2.143452644348144531e+01 -1.503463745117187500e+01 -4.283432603838926989e-13 -9.207378240914942946e-14 -1.561251128379126385e-13 1.801443651368306309e-13
5.582000000000000000e+03 3.833205032348632812e+01 -3.338960647583007812e+01 -9.957980214069309111e-14 9.457578898633065001e-14 -1.501203056924137712e-15 -2.502005094873562853e-15
5.583000000000000000e+03 1.375226688385009766e+01 -2.239547729492187500e+01 9.526384401378068523e-14 1.780802068307441033e-13 8.200321118759928973e-14 -8.807057595141762341e-14
5.584000000000000000e+03 1.548006629943847656e+01 -2.408848762512207031e+01 6.158059630799461726e-14 -1.935926327014877990e-14 1.266640025016693011e-14 -1.020818019416107336e-13
5.585000000000000000e+03 5.817619705200195312e+01 -2.640872001647949219e+01 -1.077113184343343744e-13 -4.616199119462059686e-14 -4.616199119462059686e-14 -1.441154866884536423e-13
5.586000000000000000e+03 6.127270507812500000e+01 -2.368388366699218750e+01 -7.854731676280174435e-14 1.208781152565530440e-14 -1.993785284169335287e-14 -8.006416303595401129e-15
5.587000000000000000e+03 1.252728462219238281e+01 -2.002528381347656250e+01 8.181556289659636105e-14 8.081476297622930405e-14 4.878909776184769953e-14 -1.641315257533762506e-13
5.588000000000000000e+03 8.371641159057617188e+00 -1.547271347045898438e+01 1.053344084590672469e-13 1.823961717339200872e-13 8.631917609077527365e-14 -1.341074739322559162e-13
5.589000000000000000e+03 9.414142608642578125e+00 -1.638062286376953125e+01 8.619407271259760250e-14 4.029479115826017921e-13 1.467425898675489560e-13 -6.204972381176551699e-14
5.590000000000000000e+03 1.617139053344726562e+01 -2.594802474975585938e+01 -7.046271931817477130e-14 1.070545426395605459e-13 1.097754699641573239e-14 -2.902325867701685547e-14
5.591000000000000000e+03 7.743605804443359375e+01 -2.432828521728515625e+01 -1.070858150959731747e-13 1.371098736933570872e-13 9.007217918028352643e-15 1.000802037949425141e-15
5.592000000000000000e+03 7.886215972900390625e+01 -2.763094329833984375e+01 4.453568793589234021e-14 2.707169341129023188e-13 9.457578898633065001e-14 -4.003208151797700565e-14
5.593000000000000000e+03 7.805520629882812500e+01 -3.882715988159179688e+01 1.195958344293521214e-13 5.504410996963601463e-15 3.753007494079578510e-14 -8.006416303595401129e-15
5.594000000000000000e+03 7.685485076904296875e+01 -4.036044311523437500e+01 -1.238492442553074807e-14 -7.393424658304684205e-14 -2.589575214960622429e-14 -3.302646513474866152e-14
5.595000000000000000e+03 7.867549896240234375e+01 -3.639995193481445312e+01 -3.652927163229693908e-14 -3.853087824929463112e-14 -2.251804564210382886e-14 -3.002405859738391247e-14
5.596000000000000000e+03 7.780331420898437500e+01 -3.721236038208007812e+01 4.228388472693467293e-14 1.553745061213737677e-13 5.929751725449253219e-14 -2.702165375408505793e-14
5.597000000000000000e+03 7.882321929931640625e+01 -3.002368545532226562e+01 -4.503608959014176322e-15 8.957178260823178695e-14 2.552045048540268340e-14 -7.706175649858926224e-14
5.598000000000000000e+03 7.794130706787109375e+01 -3.236351013183593750e+01 -2.001604075898850282e-15 1.821459649775647449e-13 5.404330750817011586e-14 -6.104892389139845998e-14
5.599000000000000000e+03 7.886445617675781250e+01 -1.723852539062500000e+01 3.002406113848275424e-15 4.703769451307356075e-14 1.501202929869195624e-14 2.602085213965210642e-14
5.600000000000000000e+03 7.889153289794921875e+01 -2.363359069824218750e+01 4.203368474684290867e-14 1.801443583605670529e-14 1.801443583605670529e-14 1.551243129175455815e-13
5.601000000000000000e+03 7.816529846191406250e+01 -2.357466125488281250e+01 -1.951563910473907981e-14 1.746399520222846613e-13 4.653729455289003225e-14 -6.004811719476782494e-14
5.602000000000000000e+03 7.875553131103515625e+01 -3.399050903320312500e+01 -2.001604075898850282e-15 -1.381106736137241442e-13 -4.203368474684290867e-14 -4.503609128420765773e-14
5.603000000000000000e+03 7.814439392089843750e+01 -1.955566787719726562e+01 2.001604075898850282e-14 -6.004811719476782494e-14 -1.200962445539310169e-14 -4.103288143834406265e-14
5.604000000000000000e+03 7.816716766357421875e+01 -2.277246475219726562e+01 -1.000802037949425141e-14 1.100882216333379238e-13 3.002405859738391247e-14 1.220978477827969200e-13
5.605000000000000000e+03 7.808156585693359375e+01 -2.916532325744628906e+01 -4.603689120457471473e-14 2.602085213965210642e-14 -6.004812227696550847e-15 -1.200962445539310169e-14
5.606000000000000000e+03 7.873876190185546875e+01 -3.477975082397460938e+01 8.106496295632106830e-14 -1.711371387484728057e-13 -2.702165375408505793e-14 3.402726844324750755e-14
5.607000000000000000e+03 7.774353027343750000e+01 -3.634256744384765625e+01 5.704571743366665393e-14 -6.705373696612795809e-14 -3.002406113848275424e-15 -6.505213034913026604e-15
5.608000000000000000e+03 7.883979797363281250e+01 -1.566852378845214844e+01 1.000802037949425141e-14 5.004010105043830980e-14 1.801443583605670529e-14 -9.007217918028352643e-15
5.609000000000000000e+03 7.722096252441406250e+01 -1.485056781768798828e+01 7.005614350349270714e-14 3.002405859738391247e-14 3.002405859738391247e-14 -2.902325867701685547e-14
5.610000000000000000e+03 7.734787750244140625e+01 -1.713213539123535156e+01 4.953969770212299228e-14 1.356086738128065017e-13 5.554451077685249039e-14 1.090874217129708668e-13
5.611000000000000000e+03 7.808626556396484375e+01 -1.640288925170898438e+01 1.501203056924137712e-15 -1.366094737331735587e-13 -4.053248147816053415e-14 -5.404330750817011586e-14
5.612000000000000000e+03 7.888066101074218750e+01 -1.962307357788085938e+01 -5.854691731421723944e-14 -1.165934346682509504e-13 -5.254210423948774134e-14 8.706977603105056640e-14
5.613000000000000000e+03 7.812188720703125000e+01 -1.796528816223144531e+01 -2.151724233360498284e-14 1.966575909279413836e-13 5.254210423948774134e-14 -1.601283260719080226e-14
5.614000000000000000e+03 7.816426086425781250e+01 -2.196970939636230469e+01 -7.305854326459387815e-14 8.306656957331876034e-14 3.002406113848275424e-15 8.006416303595401129e-15
5.615000000000000000e+03 7.889250946044921875e+01 -2.283208084106445312e+01 -1.451162933850842773e-14 1.996600042415697107e-13 5.554451077685249039e-14 0.000000000000000000e+00
5.616000000000000000e+03 7.815997314453125000e+01 -2.437711334228515625e+01 7.105694342385976414e-14 -6.104892389139845998e-14 3.002406113848275424e-15 1.451162866088206993e-13
5.617000000000000000e+03 7.813182067871093750e+01 -2.677637672424316406e+01 -4.103288143834406265e-14 2.111692168783180223e-13 5.104090097080536681e-14 3.302646513474866152e-14
5.618000000000000000e+03 7.815259552001953125e+01 -2.517782211303710938e+01 -6.405133042876320904e-14 6.405133042876320904e-14 0.000000000000000000e+00 1.901523745048965680e-14
5.619000000000000000e+03 7.883930969238281250e+01 -2.922609901428222656e+01 5.004010105043830980e-14 2.502004950877961820e-13 9.007218256841531545e-14 -5.604491073703601889e-14
5.620000000000000000e+03 7.798542785644531250e+01 -3.155897140502929688e+01 5.204170427930421283e-14 6.805453688649501509e-14 3.602887167211341057e-14 -3.102486190588275849e-14
5.621000000000000000e+03 7.794607543945312500e+01 -3.392094039916992188e+01 2.652125379390152943e-14 1.486190998826325549e-13 5.254210423948774134e-14 -8.807057595141762341e-14
5.622000000000000000e+03 7.792189025878906250e+01 -3.315707397460937500e+01 -3.803047490097931360e-14 -6.204972381176551699e-14 -3.002405859738391247e-14 -2.071660171968497943e-13
5.623000000000000000e+03 7.707527923583984375e+01 -3.763848876953125000e+01 6.253449093187452013e-14 3.925020234502550609e-15 1.993785284169335287e-14 -6.305052373213257400e-14
5.624000000000000000e+03 1.440505123138427734e+01 -2.411021614074707031e+01 2.165798024592307386e-14 1.007838899684011802e-13 3.673255953963797116e-14 -2.326864727644501613e-14
5.625000000000000000e+03 1.606684875488281250e+01 -2.468039703369140625e+01 2.067281655376233124e-14 1.003616745373810126e-13 3.631034749674959261e-14 -1.386110735739076727e-13
5.626000000000000000e+03 2.026189041137695312e+01 -2.730971336364746094e+01 -7.706175649858926224e-14 -3.302646513474866152e-14 -3.302646513474866152e-14 -6.705373696612795809e-14
5.627000000000000000e+03 3.741427612304687500e+01 -3.341277313232421875e+01 -9.532638892660594276e-14 -1.323560672953499884e-13 -6.830473686658677934e-14 4.103288143834406265e-14
5.628000000000000000e+03 1.597952079772949219e+01 -2.347092247009277344e+01 -2.508260052024209596e-14 8.075221128714046848e-14 1.670088424650904846e-14 -7.906335633932337625e-14
5.629000000000000000e+03 1.434260559082031250e+01 -2.293934631347656250e+01 4.825742195711975324e-14 1.121836523958370802e-13 4.813232196707387112e-14 5.204170427930421283e-14
5.630000000000000000e+03 2.383703994750976562e+01 -2.934634971618652344e+01 -4.653729455289003225e-14 7.155734338404329264e-14 7.506014649345978118e-15 -6.004812227696550847e-15
5.631000000000000000e+03 1.540535640716552734e+01 -2.289754104614257812e+01 1.047401843533822541e-13 1.363905462094944232e-13 7.233922255699479220e-14 -5.604491073703601889e-14
5.632000000000000000e+03 6.497305297851562500e+01 -2.051804542541503906e+01 6.142422047340431734e-14 2.550794048639809519e-13 9.495109234460008540e-14 1.190954344691685929e-13
5.633000000000000000e+03 2.454180717468261719e+01 -3.189714241027832031e+01 -8.975943089923471563e-14 -1.985966458558502401e-13 -8.650682438177820233e-14 7.005613842129502361e-15
5.634000000000000000e+03 1.728382110595703125e+01 -2.583932685852050781e+01 -7.212029503331565672e-14 1.978460526918385254e-13 3.771772661993050280e-14 -4.003208151797700565e-14
5.635000000000000000e+03 1.126660108566284180e+00 -3.405983352661132812e+01 -9.357498906596359300e-14 -1.316054605788111176e-13 -6.755413692631148659e-14 3.302646513474866152e-14
5.636000000000000000e+03 2.060853958129882812e+00 -3.255728149414062500e+01 5.054050101062183831e-14 4.453568793589234021e-14 2.852285871683332696e-14 1.966575909279413836e-13
5.637000000000000000e+03 1.152773976325988770e+00 -3.635211944580078125e+01 4.703769451307356075e-14 -1.170938346284344789e-13 -2.101684237342145434e-14 1.721379386688398627e-13
5.638000000000000000e+03 2.826810836791992188e+00 -3.625275802612304688e+01 2.627105211974387067e-14 1.125902282105191443e-14 1.125902282105191443e-14 4.003208151797700565e-14
5.639000000000000000e+03 2.607171297073364258e+00 -3.549209213256835938e+01 -6.154932385158198849e-14 -3.502806921064751181e-15 -1.951563910473907981e-14 1.601283260719080226e-14
5.640000000000000000e+03 1.054619550704956055e+00 -1.476294231414794922e+01 1.451162933850842773e-14 -3.953167816966168813e-14 -7.506014649345978118e-15 1.000802037949425141e-15
5.641000000000000000e+03 7.581636428833007812e+00 -1.238026046752929688e+01 2.326864727644501613e-14 2.844779804517943989e-13 9.232398238924119371e-14 -1.010810020212436766e-13
5.642000000000000000e+03 1.780376195907592773e+00 -1.867555236816406250e+01 -6.004812227696550847e-15 -4.143320343936995886e-13 -1.261010474642651480e-13 -5.604491073703601889e-14
5.643000000000000000e+03 2.638527154922485352e+00 -2.588118171691894531e+01 3.502806921064751181e-15 -1.586271126388302810e-13 -4.653729455289003225e-14 1.901523745048965680e-14
5.644000000000000000e+03 2.692371845245361328e+00 -7.581553936004638672e+00 -2.151724233360498284e-14 -1.235990476633475055e-13 -4.353488801552528320e-14 1.100882199392720293e-14
5.645000000000000000e+03 1.910589218139648438e+00 -7.543315410614013672e+00 5.804651735403371093e-14 -1.581267126786467525e-13 -3.002405859738391247e-14 -3.502807175174635357e-14
5.646000000000000000e+03 1.749373793601989746e+00 -1.633504486083984375e+01 -7.005614350349270714e-14 -3.502807039649363796e-13 -1.261010474642651480e-13 1.501202929869195624e-14
5.647000000000000000e+03 1.064131021499633789e+00 -1.872646713256835938e+01 -4.053248147816053415e-14 -4.748805515486509421e-13 -1.546239129573620530e-13 1.000802037949425141e-15
5.648000000000000000e+03 1.070820808410644531e+00 -1.076701545715332031e+01 -3.302646513474866152e-14 -1.971579908881249121e-13 -6.905533680686207210e-14 3.903127820947815962e-14
5.649000000000000000e+03 1.082828998565673828e+00 -9.964996337890625000e+00 2.101684237342145434e-14 9.007217918028352643e-15 9.007217918028352643e-15 -5.104090097080536681e-14
5.650000000000000000e+03 1.875710487365722656e+00 -8.375255584716796875e+00 3.652927163229693908e-14 -2.817257603419942580e-13 -7.355895000104098469e-14 -9.007218256841531545e-14
5.651000000000000000e+03 1.836122989654541016e+00 -2.108802223205566406e+01 1.000802037949425141e-14 -4.303448602246268129e-13 -1.261010474642651480e-13 -6.705373696612795809e-14
5.652000000000000000e+03 1.211933016777038574e+00 -3.002074813842773438e+01 -6.204972381176551699e-14 -2.782229470681824024e-13 -1.020818019416107336e-13 1.100882199392720293e-14
5.653000000000000000e+03 1.944177389144897461e+00 -2.835188484191894531e+01 -6.705373696612795809e-14 -3.032429992874674518e-13 -1.110890215537049808e-13 6.405133042876320904e-14
5.654000000000000000e+03 2.573129653930664062e+00 -3.814876937866210938e+01 3.646672333133989252e-14 -7.587330151095569852e-14 -1.182197362329133125e-14 6.004812227696550847e-15
5.655000000000000000e+03 2.882316112518310547e+00 -3.083511352539062500e+01 -6.455173038894673754e-14 -2.106688169181344938e-13 -8.256616283687165381e-14 1.601283260719080226e-14
5.656000000000000000e+03 1.920204401016235352e+00 -2.754250144958496094e+01 -2.752205540833448094e-14 -5.754611739385018243e-14 -2.552045048540268340e-14 -6.104892389139845998e-14
5.657000000000000000e+03 1.831140756607055664e+00 -2.270977592468261719e+01 0.000000000000000000e+00 -3.202566521438160452e-13 -9.607699564314481355e-14 -7.305854326459387815e-14
5.658000000000000000e+03 1.878352999687194824e+00 -2.593041610717773438e+01 -3.602887167211341057e-14 -2.441956955655938399e-13 -8.406736949368581735e-14 -1.501202929869195624e-14
5.659000000000000000e+03 2.575676679611206055e+00 -2.346772956848144531e+01 8.506817110811876886e-15 -1.336070739720723877e-13 -3.753007494079578510e-14 4.503609128420765773e-14
5.660000000000000000e+03 1.830380916595458984e+00 -2.190098571777343750e+01 6.104892389139845998e-14 -2.712173476256130034e-13 -6.305052373213257400e-14 -7.105694342385976414e-14
5.661000000000000000e+03 1.750345110893249512e+00 -1.788223457336425781e+01 -8.807057595141762341e-14 -6.325068507145870100e-13 -2.161732300326804634e-13 -6.305052373213257400e-14
5.662000000000000000e+03 2.441790819168090820e+00 -1.707657432556152344e+01 -1.851483749030612830e-14 -2.366896826103137563e-13 -7.656135653840573374e-14 5.304250758780305885e-14
5.663000000000000000e+03 1.755621790885925293e+00 -1.555898571014404297e+01 -7.506014649345978118e-15 -2.777225606605260300e-13 -8.556856937423640286e-14 -2.001604075898850282e-14
5.664000000000000000e+03 2.470308780670166016e+00 -1.402551937103271484e+01 2.301844560228735737e-14 -1.731387521417340758e-13 -4.503609128420765773e-14 7.506014988159157020e-14
5.665000000000000000e+03 1.780418276786804199e+00 -1.239664459228515625e+01 -5.154130431912068433e-14 -2.737193609790578019e-13 -9.757819552369539906e-14 2.401924891078620339e-14
5.666000000000000000e+03 1.807873487472534180e+00 -1.000713729858398438e+01 5.254210423948774134e-14 -1.376102736535406157e-13 -2.552045048540268340e-14 -7.806255641895631925e-14
5.667000000000000000e+03 1.779159426689147949e+00 -1.159963130950927734e+01 -9.657739560332834206e-14 -1.786431517037528893e-13 -8.256616283687165381e-14 -2.502005052521915490e-14
5.668000000000000000e+03 1.784813880920410156e+00 -1.080550003051757812e+01 -8.757017599123409490e-14 -1.976583908483084406e-13 -8.556856937423640286e-14 -9.707779556351187056e-14
5.669000000000000000e+03 1.839197874069213867e+00 -9.197521209716796875e+00 2.502005052521915490e-14 -3.502807175174635357e-14 -3.002406113848275424e-15 -7.205774334422682115e-14
5.670000000000000000e+03 1.939212322235107422e+00 -6.699018955230712891e+00 -2.602085213965210642e-14 -1.941555911270237411e-13 -6.605293026949732305e-14 1.501202929869195624e-14
5.671000000000000000e+03 1.168135285377502441e+00 -5.057441711425781250e+00 3.352686848306397904e-14 -1.686351389475551632e-13 -4.053248147816053415e-14 1.601283260719080226e-14
5.672000000000000000e+03 3.539936780929565430e+00 -2.571405410766601562e+00 -5.454371085648543338e-14 -1.606287260320915511e-13 -6.455173038894673754e-14 1.010810020212436766e-13
5.673000000000000000e+03 1.941618561744689941e+00 -3.391251802444458008e+00 -7.455974992140804170e-14 5.954771723458429644e-14 -4.503608959014176322e-15 5.604491073703601889e-14
5.674000000000000000e+03 1.966956019401550293e+00 -3.334371185302734375e+01 -1.851483749030612830e-14 -7.656135653840573374e-14 -2.852285871683332696e-14 1.000802037949425141e-14
5.675000000000000000e+03 1.875071644783020020e+00 -3.410054397583007812e+01 4.203368474684290867e-14 1.801443583605670529e-14 1.801443583605670529e-14 1.010810020212436766e-13
5.676000000000000000e+03 1.944420814514160156e+00 -3.627670669555664062e+01 -6.255012377194904549e-14 -7.255814330441034965e-14 -4.053248147816053415e-14 9.707779556351187056e-14
5.677000000000000000e+03 8.019989013671875000e+00 -4.167691230773925781e+00 -8.857097591160115191e-14 2.136712302317628209e-13 3.753007494079578510e-14 1.110890215537049808e-13
5.678000000000000000e+03 1.289644336700439453e+01 -4.463761806488037109e+00 1.521218996039172544e-13 -7.205774334422682115e-14 2.401924891078620339e-14 -5.904731727440076794e-14
5.679000000000000000e+03 4.255553817749023438e+01 -3.367776489257812500e+01 -1.040834085586084257e-13 1.841475648182988589e-13 2.401924891078620339e-14 1.951563910473907981e-14
5.680000000000000000e+03 4.338867187500000000e+01 -3.348809051513671875e+01 -2.076664171570333228e-13 -2.376904825306808133e-13 -1.336070739720723877e-13 -6.655333022968085155e-14
5.681000000000000000e+03 4.934477615356445312e+01 -3.114878463745117188e+01 -1.586271126388302810e-13 -1.366094737331735587e-13 -8.857097591160115191e-14 -9.407538902614712151e-14
5.682000000000000000e+03 5.155773544311523438e+01 -3.202111053466796875e+01 -1.831467648979318019e-13 1.301042606982605321e-14 -5.104090097080536681e-14 -1.100882199392720293e-14
5.683000000000000000e+03 6.446123504638671875e+01 -2.232062339782714844e+01 -1.092750700039737954e-13 1.361716186858152877e-13 8.068966298618342192e-15 6.805453688649501509e-14
5.684000000000000000e+03 1.959590530395507812e+01 -2.679133415222167969e+01 -5.254210593355363584e-15 -2.251804479507088161e-15 -2.251804479507088161e-15 -3.903127820947815962e-14
5.685000000000000000e+03 2.017003250122070312e+01 -1.147893619537353516e+01 1.889013847688331138e-13 2.639615414266882620e-13 1.358588670166346879e-13 -1.641315257533762506e-13
5.686000000000000000e+03 4.467332077026367188e+01 -3.220598220825195312e+01 -9.407538902614712151e-14 7.405934996122451319e-14 -6.004812227696550847e-15 1.351082687704252897e-14
5.687000000000000000e+03 3.179226112365722656e+01 -3.357072830200195312e+01 -5.504411081666896188e-14 4.503609128420765773e-14 -3.002406113848275424e-15 -3.352686848306397904e-14
5.688000000000000000e+03 5.041613769531250000e+01 -3.176079177856445312e+01 -1.286030608177099466e-13 -1.466175000418984409e-13 -8.256616283687165381e-14 -1.401122870069854143e-13
5.689000000000000000e+03 3.921961593627929688e+01 -3.331477737426757812e+01 -8.757017599123409490e-14 -3.753007494079578510e-14 -3.753007494079578510e-14 -4.103288143834406265e-14
5.690000000000000000e+03 3.845969390869140625e+01 -3.450860214233398438e+01 -9.157338244896590096e-14 6.505213034913026604e-15 -2.552045048540268340e-14 -4.503608959014176322e-15
5.691000000000000000e+03 6.547224426269531250e+01 -1.987421417236328125e+01 -2.308099559731029843e-14 2.188628916771281907e-13 5.873456560522016812e-14 7.205774334422682115e-14
5.692000000000000000e+03 6.287978363037109375e+01 -2.308304595947265625e+01 7.928228386300251174e-14 1.712309628939742701e-13 7.515397402709303454e-14 5.004010105043830980e-14
5.693000000000000000e+03 6.598552703857421875e+00 -3.353969097137451172e+00 -6.905533680686207210e-14 1.991596042813861822e-13 3.903127820947815962e-14 1.000802021008766196e-13
5.694000000000000000e+03 5.134732246398925781e+00 -2.571934223175048828e+00 -7.656135653840573374e-14 -7.856295637913984775e-14 -4.653729455289003225e-14 8.006416303595401129e-14
5.695000000000000000e+03 2.784783363342285156e+00 -5.822553157806396484e+00 -2.802245536851800944e-14 -1.200962445539310169e-14 -1.200962445539310169e-14 1.501203056924137712e-15
5.696000000000000000e+03 1.970129489898681641e+00 -2.619931221008300781e+00 -2.301844560228735737e-14 -1.471179000020819694e-13 -5.104090097080536681e-14 -1.501202929869195624e-14
5.697000000000000000e+03 1.956207633018493652e+00 -5.010915279388427734e+00 -3.052446194569922999e-14 5.554451077685249039e-14 7.506014649345978118e-15 -7.906335633932337625e-14
5.698000000000000000e+03 1.055684375762939453e+01 -3.768630266189575195e+00 9.257418745153064149e-15 -4.178348476675114442e-14 -9.757819552369539906e-15 3.602887167211341057e-14
5.699000000000000000e+03 8.346612930297851562e+00 -2.681642293930053711e+00 5.804651735403371093e-14 1.621299259126421366e-13 6.605293026949732305e-14 8.656937607086703790e-14
5.700000000000000000e+03 7.386497497558593750e+00 -3.391854763031005859e+00 -1.451162933850842773e-14 3.953167816966168813e-14 7.506014649345978118e-15 1.971579908881249121e-13
5.701000000000000000e+03 2.137626075744628906e+01 -1.350505542755126953e+01 -6.505213034913026604e-14 -2.502005052521915490e-14 -2.702165375408505793e-14 -6.717883356804205119e-14
5.702000000000000000e+03 2.957587432861328125e+01 -3.203099822998046875e+01 -1.486190998826325549e-13 7.355895000104098469e-14 -2.251804564210382886e-14 1.471179000020819694e-13
5.703000000000000000e+03 3.158836555480957031e+01 -3.462309265136718750e+01 -2.261812563414053456e-13 -7.405934996122451319e-14 -9.007218256841531545e-14 -2.401924891078620339e-14
5.704000000000000000e+03 7.658657073974609375e+01 -1.709393501281738281e+01 2.201764398785440585e-14 -8.206576287668812530e-14 -1.801443583605670529e-14 -7.005613842129502361e-15
5.705000000000000000e+03 3.579325866699218750e+01 -3.530948638916015625e+01 -1.381106736137241442e-13 5.804651735403371093e-14 -2.401924891078620339e-14 -4.478589130411589347e-14
5.706000000000000000e+03 1.044888305664062500e+01 -1.868873786926269531e+01 4.209623304779995523e-14 2.925469382800832685e-13 1.003929537700572194e-13 -2.391916688587042428e-13
5.707000000000000000e+03 2.279303359985351562e+01 -2.991652107238769531e+01 -5.429350748826188011e-14 -2.326864727644501613e-14 -2.326864727644501613e-14 8.406736949368581735e-14
5.708000000000000000e+03 6.595809936523437500e+01 -1.923466873168945312e+01 1.392365769122688723e-13 5.967282061276196758e-14 5.967282061276196758e-14 -4.003208151797700565e-15
5.709000000000000000e+03 6.230540847778320312e+01 -2.370659065246582031e+01 -1.203210301574733632e-13 -5.815206867068991106e-15 -3.784087165793412200e-14 5.690497443915087938e-14
5.710000000000000000e+03 2.877664566040039062e+01 -3.175153160095214844e+01 -1.251002526260957745e-14 -1.426142868079030568e-13 -4.653729455289003225e-14 7.405934996122451319e-14
5.711000000000000000e+03 4.049465942382812500e+01 -3.412946319580078125e+01 -8.644427269268936675e-14 -5.992302059285373184e-14 -4.391018798566292958e-14 -1.000802037949425141e-15
5.712000000000000000e+03 3.268332672119140625e+01 -3.363256072998046875e+01 -1.786431517037528893e-13 -7.656135653840573374e-14 -7.656135653840573374e-14 3.402726844324750755e-14
5.713000000000000000e+03 3.342289352416992188e+01 -3.389225769042968750e+01 -1.083368149964319960e-13 9.082278250869060821e-14 -5.254210593355363584e-15 6.204972381176551699e-14
5.714000000000000000e+03 1.529488849639892578e+01 -1.127971172332763672e+01 -2.857289600234624860e-13 6.054852393121493148e-14 -6.755413692631148659e-14 9.207378240914942946e-14
5.715000000000000000e+03 1.583084106445312500e+01 -1.227958679199218750e+01 -4.613697119661142043e-13 3.102486190588275849e-14 -1.291034607778934751e-13 1.286030608177099466e-13
5.716000000000000000e+03 5.181247711181640625e+01 -3.122517204284667969e+01 -1.170938346284344789e-13 -7.305854326459387815e-14 -5.704571743366665393e-14 -1.200962445539310169e-14
5.717000000000000000e+03 5.595045471191406250e+01 -2.887193679809570312e+01 -1.721379386688398627e-13 2.922341730583755126e-13 3.602887167211341057e-14 7.631114978205039145e-14
5.718000000000000000e+03 6.828191375732421875e+01 -1.757924842834472656e+01 2.902325867701685547e-14 -7.906335633932337625e-14 -1.501202929869195624e-14 -5.104090097080536681e-14
5.719000000000000000e+03 4.483127593994140625e+01 -3.307151794433593750e+01 -8.156536291650459680e-14 -1.035830085984248972e-13 -5.554451077685249039e-14 -6.755413692631148659e-14
5.720000000000000000e+03 6.696620178222656250e+01 -1.680640792846679688e+01 9.790658680921410228e-14 4.079675508007751805e-13 1.517622426382495004e-13 -6.455173038894673754e-14
5.721000000000000000e+03 6.647595977783203125e+01 -1.744453048706054688e+01 8.757017599123409490e-14 3.753007494079578510e-14 3.753007494079578510e-14 1.220978477827969200e-13
5.722000000000000000e+03 5.657711410522460938e+01 -2.852018737792968750e+01 -9.957980214069309111e-14 -6.555253030931379454e-14 -4.953969770212299228e-14 -1.045838085187919542e-13
5.723000000000000000e+03 6.963784027099609375e+01 -1.552017116546630859e+01 8.306656957331876034e-14 4.473584859759210941e-13 1.591275125990138095e-13 -1.951563910473907981e-14
5.724000000000000000e+03 1.602897262573242188e+01 -1.160813331604003906e+01 -3.245100585816396155e-13 -9.332478908587182875e-14 -1.253504543002534333e-13 1.251002475438980910e-13
5.725000000000000000e+03 7.184772491455078125e+01 -1.549777793884277344e+01 1.130906281707026728e-13 2.772221471478153454e-13 1.170938346284344789e-13 -4.903929774193946378e-14
5.726000000000000000e+03 5.001835632324218750e+01 -3.329628372192382812e+01 -1.212221376880803780e-13 -9.770329890187307020e-14 -6.567763368749146569e-14 -8.506816941405287436e-14
5.727000000000000000e+03 2.754227447509765625e+01 -3.224838256835937500e+01 -7.906335633932337625e-14 -1.711371387484728057e-13 -7.506014988159157020e-14 -1.601283260719080226e-14
5.728000000000000000e+03 5.864660644531250000e+01 -2.714799880981445312e+01 -1.580641677658214950e-13 -6.774178521731441527e-14 -6.774178521731441527e-14 -1.801443583605670529e-14
5.729000000000000000e+03 2.596677780151367188e+01 -3.157449150085449219e+01 -1.581267126786467525e-13 -2.201764398785440585e-14 -5.404330750817011586e-14 3.815557489102519573e-14
5.730000000000000000e+03 1.833495140075683594e+01 -1.191633892059326172e+01 -1.633809325893645359e-13 2.959871930885427105e-13 3.978187814975345238e-14 1.621299259126421366e-13
5.731000000000000000e+03 1.674763679504394531e+01 -1.194773769378662109e+01 -2.827265602623613150e-13 1.075862150561567032e-13 -5.254210423948774134e-14 1.281026608575264181e-13
5.732000000000000000e+03 3.085417747497558594e+01 -3.342312240600585938e+01 -2.301844695754007297e-13 -3.002405859738391247e-14 -7.806255641895631925e-14 2.602085213965210642e-14
5.733000000000000000e+03 9.904234886169433594e+00 -1.695562362670898438e+01 9.861027467673866287e-14 4.540200951742151547e-13 1.657891082447807141e-13 -1.020818019416107336e-13
5.734000000000000000e+03 9.414433479309082031e+00 -1.751962280273437500e+01 1.367814824078383840e-13 3.331263216665991678e-13 1.409723439328366967e-13 -1.090874217129708668e-13
5.735000000000000000e+03 1.453772258758544922e+01 -1.097784996032714844e+01 -2.662133209187234062e-13 -1.140914348673333079e-13 -1.140914348673333079e-13 1.751403519824681898e-13
5.736000000000000000e+03 1.096617794036865234e+01 -1.929835510253906250e+01 8.006416303595401129e-14 8.006416303595401129e-14 4.803849782157240678e-14 -1.060850151756061177e-13
5.737000000000000000e+03 4.699042510986328125e+01 -3.278345108032226562e+01 -1.366094737331735587e-13 -5.854691731421723944e-14 -5.854691731421723944e-14 4.253408470702643718e-14
5.738000000000000000e+03 3.506686401367187500e+01 -3.448672866821289062e+01 -9.907939540424598457e-14 6.905533680686207210e-14 -9.007217918028352643e-15 1.092125183148849599e-13
5.739000000000000000e+03 5.796182250976562500e+01 -2.767300605773925781e+01 7.643625316022806260e-14 1.700112354499280776e-13 7.393424658304684205e-14 -5.204170427930421283e-14
5.740000000000000000e+03 5.264059829711914062e+01 -3.134378051757812500e+01 -1.306046606584440606e-13 3.552847171192988207e-14 -2.852285871683332696e-14 -3.052446194569922999e-14
5.741000000000000000e+03 5.344926834106445312e+01 -2.996506690979003906e+01 -1.426142868079030568e-13 8.757017599123409490e-14 -1.651323256737433076e-14 -8.256616283687165381e-14
5.742000000000000000e+03 1.398449802398681641e+01 -5.678858280181884766e+00 2.406928822917819843e-13 3.452766840343103605e-14 8.256616283687165381e-14 -4.053248147816053415e-14
5.743000000000000000e+03 1.377054786682128906e+01 -1.070896244049072266e+01 -3.277626650990961288e-13 4.253408470702643718e-14 -8.556856937423640286e-14 9.907939540424598457e-14
5.744000000000000000e+03 9.959102630615234375e+00 -2.852465152740478516e+00 5.254210423948774134e-14 -1.376102736535406157e-13 -2.552045048540268340e-14 -1.501203056924137712e-15
5.745000000000000000e+03 1.362932586669921875e+01 -4.752627849578857422e+00 1.778925585397411746e-13 -3.355188848107315547e-13 -4.728789449316532501e-14 8.907137587178468041e-14
5.746000000000000000e+03 8.795905113220214844e+00 -4.221381664276123047e+00 -1.601283260719080226e-14 1.601283260719080226e-14 0.000000000000000000e+00 1.030826086382413687e-13
5.747000000000000000e+03 7.881709289550781250e+01 -1.489073181152343750e+01 2.401924891078620339e-14 5.604491073703601889e-14 2.401924891078620339e-14 1.000802037949425141e-15
5.748000000000000000e+03 1.135476303100585938e+01 -1.083828067779541016e+01 -2.291836696550336727e-13 3.903127820947815962e-14 -5.704571743366665393e-14 2.201764432666758475e-13
5.749000000000000000e+03 7.621608734130859375e+00 -1.520335674285888672e+01 4.653729455289003225e-14 2.486993087597727525e-13 8.857097591160115191e-14 -1.501202929869195624e-14
5.750000000000000000e+03 7.414725494384765625e+01 -1.554969406127929688e+01 5.504410996963601463e-15 1.396118734942747297e-13 4.353488801552528320e-14 0.000000000000000000e+00
5.751000000000000000e+03 7.337014770507812500e+01 -1.553477001190185547e+01 1.120898214740720378e-13 4.803849782157240678e-14 4.803849782157240678e-14 -4.003208151797700565e-15
5.752000000000000000e+03 8.326933860778808594e+00 -1.244643878936767578e+01 6.505213034913026604e-15 3.687955431493084024e-13 1.125902282105191443e-13 -8.406736949368581735e-14
5.753000000000000000e+03 2.488952636718750000e+00 -1.324206447601318359e+01 -5.804651735403371093e-14 -1.621299259126421366e-13 -6.605293026949732305e-14 -1.050842084789754827e-13
5.754000000000000000e+03 8.274282455444335938e+00 -1.315101718902587891e+01 1.098380216532461595e-13 2.529527151975963228e-13 1.088372149566155245e-13 -1.761411519028352468e-13
5.755000000000000000e+03 8.818723678588867188e+00 -1.156022262573242188e+01 -2.426944821325160984e-13 -1.251002526260957745e-14 -7.656135653840573374e-14 -5.204170427930421283e-14
5.756000000000000000e+03 7.587818622589111328e+00 -1.184744834899902344e+01 -1.050842084789754827e-13 2.752205473070812314e-13 5.104090097080536681e-14 -1.281026608575264181e-13
5.757000000000000000e+03 8.174337387084960938e+00 -3.436216831207275391e+00 -7.055654346367623564e-14 1.551243095294137925e-14 -1.651323256737433076e-14 6.705373696612795809e-14
5.758000000000000000e+03 1.093806076049804688e+01 -2.041272354125976562e+01 1.200962445539310169e-14 -1.321058605389946461e-13 -3.602887167211341057e-14 -5.129110433902892008e-14
5.759000000000000000e+03 1.310010910034179688e+01 -2.187440109252929688e+01 4.153328478665938017e-14 1.836471648581153304e-13 6.755413692631148659e-14 -1.224731443648027773e-13
5.760000000000000000e+03 1.737753868103027344e+01 -7.547737121582031250e+00 1.936864568469892633e-13 1.287594298760366684e-13 9.673377143791864197e-14 -1.796439651766471024e-13
5.761000000000000000e+03 1.875375938415527344e+01 -9.096378326416015625e+00 9.445069238441655690e-14 1.319807707133441310e-13 6.792943350831734395e-14 -2.121700303512122354e-13
5.762000000000000000e+03 1.836010551452636719e+01 -8.561944007873535156e+00 2.110441270526675073e-13 9.044747915042117281e-14 9.044747915042117281e-14 -1.721379386688398627e-13
5.763000000000000000e+03 1.623364639282226562e+01 -1.093102741241455078e+01 -1.225982477429804485e-13 -5.254210423948774134e-14 -5.254210423948774134e-14 1.200962343895356499e-13
5.764000000000000000e+03 1.912718963623046875e+01 -1.157740497589111328e+01 -4.628709118466647898e-14 2.089174238337557221e-13 4.878909776184769953e-14 4.303448466720996568e-14
5.765000000000000000e+03 6.792339324951171875e+01 -1.691924095153808594e+01 5.416840749821599799e-14 4.349735632444562405e-13 1.467425898675489560e-13 4.703769451307356075e-14
5.766000000000000000e+03 1.815545845031738281e+01 -1.260808372497558594e+01 -3.462775042834681516e-13 -1.941555911270237411e-13 -1.621299259126421366e-13 1.491194998428160834e-13
5.767000000000000000e+03 1.646487236022949219e+01 -1.026238822937011719e+01 -6.580273028940555879e-14 6.330072371222433825e-14 -7.506015284620688559e-16 -8.406736949368581735e-14
5.768000000000000000e+03 6.643453216552734375e+01 -1.860577011108398438e+01 1.732638419673845909e-14 1.446784451139895844e-13 4.860144608271298183e-14 6.505213034913026604e-14
5.769000000000000000e+03 1.420241069793701172e+01 -6.493547439575195312e+00 1.233801201396683700e-13 4.769447030784738917e-14 5.132237679544154885e-14 -3.912510235497962396e-14
5.770000000000000000e+03 1.965555763244628906e+01 -1.318168830871582031e+01 -2.857289600234624860e-13 -2.597081078838103796e-13 -1.636311257931927221e-13 8.406736949368581735e-14
5.771000000000000000e+03 4.554132461547851562e+01 -3.291971588134765625e+01 -1.991596042813861822e-13 2.902325867701685547e-14 -5.104090097080536681e-14 2.401924891078620339e-14
5.772000000000000000e+03 4.784706115722656250e+01 -3.272367095947265625e+01 -1.818957582212094026e-13 5.929751725449253219e-14 -3.677947500052049234e-14 -9.707779556351187056e-14
5.773000000000000000e+03 1.985234832763671875e+01 -1.084502506256103516e+01 8.581876935432816711e-14 3.677947500052049234e-14 3.677947500052049234e-14 -1.461170865291877563e-13
5.774000000000000000e+03 1.679344558715820312e+01 -7.035427093505859375e+00 7.384042243754537771e-14 -1.410505352382636357e-14 1.792061169055524095e-14 -5.004010189747125706e-15
5.775000000000000000e+03 1.894035720825195312e+01 -1.066291713714599609e+01 6.905533680686207210e-14 4.103288143834406265e-14 3.302646513474866152e-14 1.901523745048965680e-14
5.776000000000000000e+03 1.260100364685058594e+01 -5.175446987152099609e+00 1.851483647386659159e-13 1.251002475438980910e-13 9.307458910578006450e-14 -6.855493684667854359e-14
5.777000000000000000e+03 1.887983703613281250e+01 -1.291270065307617188e+01 -3.330168714572867561e-13 4.028228149806876990e-14 -8.782037597132585915e-14 2.562053217150528361e-13
5.778000000000000000e+03 7.492806243896484375e+01 -1.556017589569091797e+01 5.354290754798658736e-14 -6.855493684667854359e-14 -4.503608959014176322e-15 1.501202929869195624e-14
5.779000000000000000e+03 2.084683799743652344e+01 -1.293151855468750000e+01 6.780433690640325084e-14 4.478589130411589347e-14 3.377706846315574329e-14 -1.742959211204278547e-13
5.780000000000000000e+03 2.531775474548339844e+01 -3.256140136718750000e+01 -1.388612803302630150e-13 2.627105211974387067e-14 -3.377706846315574329e-14 9.632719562323657780e-15
5.781000000000000000e+03 6.496823883056640625e+01 -2.165969848632812500e+01 4.140818140848170903e-14 1.549992095393679103e-13 5.892222067248667483e-14 1.831467648979318019e-13
5.782000000000000000e+03 6.342663192749023438e+01 -2.244461631774902344e+01 -1.943119601853504630e-13 8.225341286175694849e-15 -5.582598660148867242e-14 8.606896933441993136e-14
5.783000000000000000e+03 2.160913467407226562e+01 -3.047639846801757812e+01 -6.255012377194904549e-14 -1.526222995641007829e-13 -6.455173038894673754e-14 5.329270756789482311e-14
5.784000000000000000e+03 6.546665954589843750e+01 -2.100584602355957031e+01 -5.054050101062183831e-14 1.155926347478838934e-13 1.951563910473907981e-14 1.030826086382413687e-13
5.785000000000000000e+03 7.046002960205078125e+01 -1.621670150756835938e+01 5.004010105043830980e-14 4.103288347122313606e-13 1.381106736137241442e-13 5.504411081666896188e-14
5.786000000000000000e+03 2.250674629211425781e+01 -3.090060424804687500e+01 -9.032238254850707970e-14 -1.073360150760649390e-13 -5.929751725449253219e-14 5.904731727440076794e-14
5.787000000000000000e+03 6.910840606689453125e+01 -1.635894012451171875e+01 5.254210423948774134e-14 3.427746910096562960e-13 1.185950345089850644e-13 1.651323256737433076e-14
5.788000000000000000e+03 1.138850593566894531e+01 -2.105575942993164062e+01 -3.002406113848275424e-15 7.305854326459387815e-14 2.101684237342145434e-14 -3.903127820947815962e-14
5.789000000000000000e+03 3.418782043457031250e+01 -3.516255950927734375e+01 -1.621299259126421366e-13 2.201764398785440585e-14 -4.203368474684290867e-14 5.179150429921244858e-14
5.790000000000000000e+03 1.555608558654785156e+01 -2.531973838806152344e+01 -7.377005094028749044e-14 -7.736668835960081037e-14 -4.534102314521920585e-14 -8.731997601114233065e-14
5.791000000000000000e+03 1.496522521972656250e+01 -2.470421028137207031e+01 -2.514906041934956288e-14 -1.077816814612627891e-14 -1.077816814612627891e-14 -4.553649124439118623e-14
5.792000000000000000e+03 1.855142402648925781e+01 -1.004230880737304688e+01 1.043336085387001899e-13 -4.678749453298179650e-14 1.726383420171551802e-14 -1.491194998428160834e-13
5.793000000000000000e+03 7.794525909423828125e+01 -3.468334579467773438e+01 -7.756215645877279075e-14 1.251002526260957745e-14 -1.951563910473907981e-14 -7.105694342385976414e-14
5.794000000000000000e+03 7.636599731445312500e+01 -3.681611251831054688e+01 4.903929774193946378e-14 2.101684237342145434e-14 2.101684237342145434e-14 -5.004010105043830980e-14
5.795000000000000000e+03 7.815191650390625000e+01 -2.035882568359375000e+01 -9.107298248878237246e-14 -3.903127820947815962e-14 -3.903127820947815962e-14 -1.000802037949425141e-15
5.796000000000000000e+03 7.670241546630859375e+01 -2.025480270385742188e+01 -9.357498906596359300e-14 2.852285871683332696e-14 -1.951563910473907981e-14 -3.202566521438160452e-14
5.797000000000000000e+03 7.811688232421875000e+01 -2.757494735717773438e+01 -7.455974992140804170e-14 3.798043693784003416e-13 9.157338244896590096e-14 -1.701363422162375377e-14
5.798000000000000000e+03 7.735689544677734375e+01 -2.832757377624511719e+01 -6.655333022968085155e-14 1.316054605788111176e-13 1.951563910473907981e-14 -6.905533680686207210e-14
5.799000000000000000e+03 7.743657684326171875e+01 -2.111143875122070312e+01 -9.957980214069309111e-14 9.457578898633065001e-14 -1.501203056924137712e-15 -3.202566521438160452e-14
5.800000000000000000e+03 7.744486999511718750e+01 -2.352418518066406250e+01 3.102486190588275849e-14 5.904731727440076794e-14 2.702165375408505793e-14 1.080866150163402317e-13
5.801000000000000000e+03 7.721158599853515625e+01 -3.149125099182128906e+01 2.051644071917203133e-14 2.146720301521298779e-13 7.055654346367623564e-14 -7.205774334422682115e-14
5.802000000000000000e+03 7.805687713623046875e+01 -2.995938491821289062e+01 2.451964887096973189e-14 1.050842118671072717e-14 1.050842118671072717e-14 8.006416303595401129e-15
5.803000000000000000e+03 7.813413238525390625e+01 -1.875752639770507812e+01 -6.054852393121493148e-14 -9.457578898633065001e-14 -4.653729455289003225e-14 -2.301844560228735737e-14
5.804000000000000000e+03 7.742689514160156250e+01 -2.030176734924316406e+01 -2.251804564210382886e-14 1.276022608973428896e-13 3.152526186606628700e-14 -1.701363422162375377e-14
5.805000000000000000e+03 7.499078369140625000e+01 -1.629346656799316406e+01 -2.502005052521915490e-14 1.951563910473907981e-13 5.104090097080536681e-14 -4.903929774193946378e-14
5.806000000000000000e+03 7.741287994384765625e+01 -1.949672889709472656e+01 -1.150922280114367868e-14 8.656937607086703790e-14 2.251804564210382886e-14 -5.004010189747125706e-15
5.807000000000000000e+03 7.741167449951171875e+01 -2.593207740783691406e+01 -5.204170427930421283e-14 9.207378240914942946e-14 1.200962445539310169e-14 4.003208151797700565e-15
5.808000000000000000e+03 7.814340972900390625e+01 -2.597689056396484375e+01 -1.951563910473907981e-14 1.746399520222846613e-13 4.653729455289003225e-14 9.207378240914942946e-14
5.809000000000000000e+03 7.658724212646484375e+01 -2.909320831298828125e+01 -6.305052373213257400e-14 -2.702165375408505793e-14 -2.702165375408505793e-14 -1.261010474642651480e-13
5.810000000000000000e+03 7.649038696289062500e+01 -1.558340930938720703e+01 7.255814330441034965e-14 -1.976583908483084406e-13 -3.753007494079578510e-14 -4.703769451307356075e-14
5.811000000000000000e+03 7.742443084716796875e+01 -2.513141632080078125e+01 -2.401924891078620339e-14 -5.604491073703601889e-14 -2.401924891078620339e-14 1.581267126786467525e-13
5.812000000000000000e+03 7.739628601074218750e+01 -2.673268508911132812e+01 -1.251002526260957745e-14 1.776423517833858323e-13 4.953969770212299228e-14 4.003208151797700565e-14
5.813000000000000000e+03 7.663558197021484375e+01 -3.432548522949218750e+01 -6.580273028940555879e-14 6.330072371222433825e-14 -7.506015284620688559e-16 -1.200962343895356499e-13
5.814000000000000000e+03 7.704986572265625000e+01 -3.316373062133789062e+01 -2.952365863720038397e-14 -3.552847171192988207e-14 -1.951563910473907981e-14 4.153328478665938017e-14
5.815000000000000000e+03 7.715323638916015625e+01 -3.392865371704101562e+01 -1.801443583605670529e-14 1.981587908084919691e-13 5.404330750817011586e-14 -5.004010105043830980e-14
5.816000000000000000e+03 7.586490631103515625e+01 -3.493715286254882812e+01 1.651323256737433076e-14 9.857899544406245607e-14 3.452766840343103605e-14 -5.604491073703601889e-14
5.817000000000000000e+03 7.802518463134765625e+01 -3.075645065307617188e+01 -2.802245536851800944e-14 -1.200962445539310169e-14 -1.200962445539310169e-14 -1.411130869273524713e-13
5.818000000000000000e+03 7.726761627197265625e+01 -3.069340324401855469e+01 1.120898214740720378e-13 -1.120898214740720378e-13 0.000000000000000000e+00 1.000802037949425141e-15
5.819000000000000000e+03 8.431967735290527344e+00 -1.651458168029785156e+01 4.441058794584645808e-14 5.222935257030714151e-13 1.700112354499280776e-13 -4.103288143834406265e-14
5.820000000000000000e+03 8.936615943908691406e+00 -1.587403488159179688e+01 8.656937607086703790e-14 1.286030608177099466e-13 6.455173038894673754e-14 -1.511210996835501974e-13
5.821000000000000000e+03 7.636335754394531250e+01 -3.843605804443359375e+01 6.924299187412857881e-14 -1.607538260221374332e-14 1.595028261216786120e-14 -3.502807175174635357e-14
5.822000000000000000e+03 7.687139892578125000e+01 -3.607362365722656250e+01 -3.440256841338515392e-14 -1.519968097782667393e-13 -5.591981074699013676e-14 -8.907137587178468041e-14
5.823000000000000000e+03 3.269808959960937500e+01 -3.450322341918945312e+01 -6.104892389139845998e-14 -4.903929774193946378e-14 -3.302646513474866152e-14 1.701363422162375377e-14
5.824000000000000000e+03 1.520724010467529297e+01 -2.805952072143554688e+01 -8.857097591160115191e-14 2.136712302317628209e-13 3.753007494079578510e-14 8.156536291650459680e-14
5.825000000000000000e+03 1.093155479431152344e+01 -9.869232177734375000e+00 -8.256616283687165381e-14 1.476182999622654979e-13 1.951563910473907981e-14 2.041636038832214672e-13
5.826000000000000000e+03 1.185466861724853516e+01 -4.924727439880371094e+00 9.307458910578006450e-14 1.701363422162375377e-14 3.302646513474866152e-14 6.555253030931379454e-14
5.827000000000000000e+03 7.397668361663818359e+00 -1.406013584136962891e+01 1.215974478226133915e-13 1.436150867282701138e-13 7.956375629950690476e-14 -4.903929774193946378e-14
5.828000000000000000e+03 3.313471078872680664e+00 -3.760958480834960938e+01 -1.294787573598993324e-13 1.732638419673845909e-13 1.313552605987193533e-14 4.403528797570881170e-14
5.829000000000000000e+03 2.692082643508911133e+00 -3.703097534179687500e+01 -1.150922280114367868e-14 -7.355895000104098469e-14 -2.552045048540268340e-14 2.602085213965210642e-14
5.830000000000000000e+03 2.588165044784545898e+00 -1.939279556274414062e+01 1.351082687704252897e-14 -4.288436467915490713e-13 -1.245998475837145625e-13 -2.251804564210382886e-14
5.831000000000000000e+03 1.869813919067382812e+00 -3.556901168823242188e+01 1.901523745048965680e-14 -1.291034607778934751e-13 -3.302646513474866152e-14 6.405133042876320904e-14
5.832000000000000000e+03 1.830365061759948730e+00 -3.484489822387695312e+01 -6.405133042876320904e-14 6.405133042876320904e-14 0.000000000000000000e+00 5.904731727440076794e-14
5.833000000000000000e+03 2.578457593917846680e+00 -9.266779899597167969e+00 -2.902325867701685547e-14 -2.411932958044926689e-13 -8.106496295632106830e-14 -1.010810020212436766e-13
5.834000000000000000e+03 2.532057523727416992e+00 -1.007862758636474609e+01 -3.552847171192988207e-14 3.052446194569922999e-14 -1.501203056924137712e-15 -1.180946345488015359e-13
5.835000000000000000e+03 2.485972881317138672e+00 -1.164690208435058594e+01 1.951563910473907981e-14 -1.746399520222846613e-13 -4.653729455289003225e-14 -8.306656957331876034e-14
5.836000000000000000e+03 3.265854835510253906e+00 -1.019052696228027344e+01 -1.601283260719080226e-14 -1.441154866884536423e-13 -4.803849782157240678e-14 -5.604491073703601889e-14
5.837000000000000000e+03 1.773707270622253418e+00 -1.319554519653320312e+01 -7.405934996122451319e-14 -3.062454261536229350e-13 -1.140914348673333079e-13 -5.004010189747125706e-15
5.838000000000000000e+03 3.186473131179809570e+00 -1.408518791198730469e+01 -1.281026608575264181e-13 -1.921539912862896271e-13 -9.607699564314481355e-14 -1.651323256737433076e-13
5.839000000000000000e+03 2.468360900878906250e+00 -1.633388137817382812e+01 -7.806255641895631925e-14 -2.622101212372551782e-13 -1.020818019416107336e-13 -1.831467648979318019e-13
5.840000000000000000e+03 1.763926744461059570e+00 -1.398789119720458984e+01 2.201764398785440585e-14 -8.206576287668812530e-14 -1.801443583605670529e-14 -1.751403519824681898e-13
5.841000000000000000e+03 2.460899114608764648e+00 -1.479557609558105469e+01 -7.856295637913984775e-14 -2.166736299928639919e-13 -8.857097591160115191e-14 1.701363422162375377e-14
5.842000000000000000e+03 4.903065204620361328e+00 -3.988468408584594727e+00 -9.507618725244828400e-15 -9.557658890669770702e-14 -3.152526186606628700e-14 8.706977603105056640e-14
5.843000000000000000e+03 2.506074666976928711e+00 -1.859607696533203125e+01 -3.002406113848275424e-15 -3.672943297162306608e-13 -1.110890215537049808e-13 -7.405934996122451319e-14
5.844000000000000000e+03 1.816388010978698730e+00 -1.947348785400390625e+01 5.704571743366665393e-14 -3.873103823336804252e-13 -9.907939540424598457e-14 -1.030826086382413687e-13
5.845000000000000000e+03 2.465522766113281250e+00 -1.556925296783447266e+01 -3.352686848306397904e-14 -1.516214996437337259e-13 -5.554451077685249039e-14 -8.907137587178468041e-14
5.846000000000000000e+03 1.742339968681335449e+00 -1.710322189331054688e+01 -1.751403587587317678e-14 -3.277626650990961288e-13 -1.035830085984248972e-13 -1.261010474642651480e-13
5.847000000000000000e+03 3.423231363296508789e+00 -4.022361278533935547e+00 -6.004811719476782494e-14 -3.002405995263662808e-13 -1.080866150163402317e-13 1.371098736933570872e-13
5.848000000000000000e+03 2.600422143936157227e+00 -2.104277229309082031e+01 1.506206997233666689e-13 -2.557049082023421516e-13 -3.152526186606628700e-14 -6.104892389139845998e-14
5.849000000000000000e+03 2.621862173080444336e+00 -2.021322822570800781e+01 -7.506014649345978118e-15 -4.378508731799068965e-13 -1.336070739720723877e-13 -4.003208151797700565e-15
5.850000000000000000e+03 3.599783658981323242e+00 -5.901770591735839844e+00 -7.731195647868102649e-14 -1.703865455844610910e-13 -7.430954994131627744e-14 4.603689120457471473e-14
5.851000000000000000e+03 2.707164049148559570e+00 -3.340592384338378906e+00 -2.852285871683332696e-14 -2.867297870488838551e-13 -9.457578898633065001e-14 -8.606896933441993136e-14
5.852000000000000000e+03 1.845643877983093262e+00 -2.432096099853515625e+01 -4.503608959014176322e-15 -2.306848559830571022e-13 -7.055654346367623564e-14 5.204170427930421283e-14
5.853000000000000000e+03 2.570372819900512695e+00 -2.266631698608398438e+01 5.254210423948774134e-14 -2.977385861729214822e-13 -7.355895000104098469e-14 6.705373696612795809e-14
5.854000000000000000e+03 2.695663452148437500e+00 -4.114812374114990234e+00 -7.005614350349270714e-14 1.301042606982605321e-13 1.801443583605670529e-14 -8.907137587178468041e-14
5.855000000000000000e+03 1.937292814254760742e+00 -4.188225746154785156e+00 2.952365863720038397e-14 -1.245998475837145625e-13 -2.852285871683332696e-14 7.806255641895631925e-14
5.856000000000000000e+03 1.898547649383544922e+00 -2.673551940917968750e+01 -1.451162933850842773e-14 -2.807249604216272010e-13 -8.857097591160115191e-14 8.006416303595401129e-15
5.857000000000000000e+03 3.436364889144897461e+00 -2.663326263427734375e+01 -1.446158866486371708e-13 -2.907329867303520832e-13 -1.306046606584440606e-13 1.100882216333379238e-13
5.858000000000000000e+03 2.576765298843383789e+00 -2.186103439331054688e+01 8.907137587178468041e-14 -4.193360339955348737e-13 -9.907939540424598457e-14 -2.602085213965210642e-14
5.859000000000000000e+03 1.836014509201049805e+00 -2.351588630676269531e+01 3.803047490097931360e-14 -2.582069215557869502e-13 -6.605293026949732305e-14 -3.602887167211341057e-14
5.860000000000000000e+03 2.667715311050415039e+00 -2.668929672241210938e+01 -6.305052373213257400e-14 -1.871499781319271860e-13 -7.506014988159157020e-14 3.002406113848275424e-15
5.861000000000000000e+03 2.725534915924072266e+00 -2.831357383728027344e+01 -7.506014649345978118e-15 -1.175942345886180074e-13 -3.753007494079578510e-14 -1.301042606982605321e-14
5.862000000000000000e+03 2.696720600128173828e+00 -2.750013542175292969e+01 -4.503609128420765773e-14 -2.251804564210382886e-13 -8.106496295632106830e-14 1.170938346284344789e-13
5.863000000000000000e+03 2.063501596450805664e+00 -3.085298347473144531e+01 8.456776945386934585e-14 -1.696359388679222202e-13 -2.552045048540268340e-14 9.507618894651417851e-14
5.864000000000000000e+03 2.812128305435180664e+00 -2.996715354919433594e+01 -1.901523745048965680e-14 -1.911531778133954140e-13 -6.305052373213257400e-14 8.356696953350228885e-14
5.865000000000000000e+03 2.094080924987792969e+00 -3.171990585327148438e+01 1.150922280114367868e-14 -2.466976818139843264e-13 -7.055654346367623564e-14 -5.804651735403371093e-14
5.866000000000000000e+03 2.976806163787841797e+00 -3.269898986816406250e+01 1.075862116680249142e-14 -1.783929584999247031e-13 -5.029030103053007406e-14 -4.603689120457471473e-14
5.867000000000000000e+03 2.761627435684204102e+00 -2.913239669799804688e+01 -2.552045048540268340e-14 -2.396920823714149273e-13 -7.956375629950690476e-14 1.020818019416107336e-13
5.868000000000000000e+03 2.775362968444824219e+00 -3.349424362182617188e+01 2.276824562219559311e-14 9.757819552369539906e-15 9.757819552369539906e-15 1.501202997631831404e-13
5.869000000000000000e+03 2.496718645095825195e+00 -3.487179565429687500e+01 -6.154932385158198849e-14 -1.636311257931927221e-13 -6.755413692631148659e-14 1.751403519824681898e-13
5.870000000000000000e+03 3.080059051513671875e+00 -3.508625793457031250e+01 -1.003304020809683839e-13 2.752205498481800731e-15 -2.927345865710861972e-14 -4.403528797570881170e-14
5.871000000000000000e+03 2.601359605789184570e+00 -3.420513916015625000e+01 -1.251002526260957745e-14 1.751403587587317678e-14 1.501203056924137712e-15 -2.702165375408505793e-14
5.872000000000000000e+03 6.393447875976562500e+01 -2.298833084106445312e+01 9.920449878242365571e-14 1.797690550022976175e-13 8.369206613541638196e-14 2.602085213965210642e-14
5.873000000000000000e+03 5.549159622192382812e+01 -2.940368461608886719e+01 -9.595189226496714241e-14 4.628709372576532075e-15 -2.739695541828859882e-14 2.301844560228735737e-14
5.874000000000000000e+03 1.201091289520263672e+01 -6.587416172027587891e+00 1.291034607778934751e-13 -5.904731727440076794e-14 2.101684237342145434e-14 1.020818019416107336e-13
5.875000000000000000e+03 1.213325786590576172e+01 -4.201760292053222656e+00 1.296038607380770036e-13 -2.647121345906999768e-13 -4.053248147816053415e-14 7.105694342385976414e-14
5.876000000000000000e+03 9.961260795593261719e+00 -1.920924186706542969e+01 5.604491073703601889e-14 1.240994476235310340e-13 5.404330750817011586e-14 -4.516119127425353985e-14
5.877000000000000000e+03 7.480204105377197266e+00 -1.655151367187500000e+01 4.553649124439118623e-14 1.951563910473907981e-14 1.951563910473907981e-14 1.401122768425900472e-14
5.878000000000000000e+03 1.853911209106445312e+01 -2.692264175415039062e+01 -8.944667923005411581e-14 5.316760757784894098e-14 -1.088372200388132080e-14 -3.502807175174635357e-14
5.879000000000000000e+03 1.790776634216308594e+01 -2.638850021362304688e+01 4.860144608271298183e-14 2.082919238835263115e-14 2.082919238835263115e-14 -5.104090097080536681e-14
5.880000000000000000e+03 1.110002803802490234e+01 -9.163358688354492188e+00 -1.971579908881249121e-13 7.005613842129502361e-15 -5.704571743366665393e-14 1.821459649775647449e-13
5.881000000000000000e+03 6.451270103454589844e+00 -4.110005378723144531e+00 -9.757819552369539906e-14 -8.757017599123409490e-14 -5.554451077685249039e-14 3.953167816966168813e-14
5.882000000000000000e+03 5.017803192138671875e+00 -3.284203290939331055e+00 -4.203368474684290867e-14 -1.801443583605670529e-14 -1.801443583605670529e-14 6.705373696612795809e-14
5.883000000000000000e+03 5.670066356658935547e+00 -4.045491695404052734e+00 -2.351884725653678038e-14 5.854691731421723944e-14 1.050842118671072717e-14 9.007218256841531545e-14
5.884000000000000000e+03 2.761669874191284180e+00 -4.940584659576416016e+00 -5.154130431912068433e-14 -1.135910281308862013e-13 -4.953969770212299228e-14 4.903929774193946378e-14
5.885000000000000000e+03 5.509153366088867188e+00 -4.774881362915039062e+00 -3.903127820947815962e-14 -1.311050606186275891e-13 -5.104090097080536681e-14 9.307458910578006450e-14
5.886000000000000000e+03 3.463524818420410156e+00 -3.295873165130615234e+00 1.401122768425900472e-14 6.004812227696550847e-15 6.004812227696550847e-15 4.903929774193946378e-14
5.887000000000000000e+03 4.232816219329833984e+00 -3.274491071701049805e+00 5.304250758780305885e-14 -2.301844560228735737e-14 9.007217918028352643e-15 7.806255641895631925e-14
5.888000000000000000e+03 3.498139381408691406e+00 -6.749491214752197266e+00 -3.502807175174635357e-14 -1.501202929869195624e-14 -1.501202929869195624e-14 4.503609128420765773e-14
5.889000000000000000e+03 6.595143890380859375e+01 -2.036082839965820312e+01 1.175942345886180074e-13 1.876503780921107145e-13 9.157338244896590096e-14 5.104090097080536681e-14
5.890000000000000000e+03 5.991051483154296875e+01 -2.600622558593750000e+01 -8.278509036055078929e-14 1.475244758167640335e-13 1.942181326517172096e-14 2.001604075898850282e-14
5.891000000000000000e+03 4.271732711791992188e+01 -3.460821533203125000e+01 -2.166736299928639919e-13 -1.386110735739076727e-13 -1.065854151357896462e-13 1.551243095294137925e-14
5.892000000000000000e+03 4.373110580444335938e+01 -3.449372100830078125e+01 -1.396118734942747297e-13 5.454371085648543338e-14 -2.552045048540268340e-14 -3.552847171192988207e-14
5.893000000000000000e+03 4.961179351806640625e+01 -3.217823791503906250e+01 -1.543737062010067107e-13 -4.328468803543351895e-14 -5.929751725449253219e-14 -4.903929774193946378e-14
5.894000000000000000e+03 5.089618301391601562e+01 -3.269600296020507812e+01 -1.796439651766471024e-13 -1.055846084391590112e-13 -8.556856937423640286e-14 -6.805453688649501509e-14
5.895000000000000000e+03 2.340644645690917969e+01 -3.111143684387207031e+01 -1.741395520621011328e-13 -1.661331391466375207e-13 -1.020818019416107336e-13 8.106496295632106830e-14
5.896000000000000000e+03 2.355513954162597656e+01 -3.016863632202148438e+01 -9.407538902614712151e-14 -8.606896933441993136e-14 -5.404330750817011586e-14 8.256616283687165381e-14
5.897000000000000000e+03 2.420950317382812500e+01 -3.104572296142578125e+01 -5.254210423948774134e-14 -2.251804564210382886e-14 -2.251804564210382886e-14 7.506014649345978118e-15
5.898000000000000000e+03 1.983624649047851562e+01 -2.799187850952148438e+01 -8.525581770505580304e-14 -1.280401023921740045e-13 -6.398877873967437346e-14 -6.405133042876320904e-14
5.899000000000000000e+03 4.120713043212890625e+01 -3.350810241699218750e+01 -1.025822086780578402e-13 2.752205540833448094e-14 -2.251804564210382886e-14 1.773296001142052325e-14
5.900000000000000000e+03 4.224131774902343750e+01 -3.553070449829101562e+01 -1.343263879034078956e-13 -5.989174813644110307e-14 -5.826544487771284642e-14 2.064545061330243930e-14
5.901000000000000000e+03 3.968466949462890625e+01 -3.591622161865234375e+01 -1.258508542604369618e-13 -7.681155651849749799e-14 -6.079872391130669573e-14 7.005613842129502361e-15
5.902000000000000000e+03 3.953271102905273438e+01 -3.450519561767578125e+01 -8.882117589169291616e-14 -3.753007324672989059e-15 -2.777225538842624519e-14 2.502005094873562853e-16
5.903000000000000000e+03 2.102204322814941406e+01 -1.404466342926025391e+01 -2.122951201768627505e-13 -1.367345771113512298e-13 -1.047089118969696253e-13 -7.606094980195862720e-14
5.904000000000000000e+03 1.680921936035156250e+01 -2.654161262512207031e+01 1.313552648338840896e-15 5.629511198767720402e-16 5.629511198767720402e-16 -6.204972381176551699e-14
5.905000000000000000e+03 6.156521224975585938e+01 -2.548961448669433594e+01 4.104852105468216605e-14 1.759222209910243223e-14 1.759222209910243223e-14 -1.235990476633475055e-13
5.906000000000000000e+03 7.731529998779296875e+01 -1.636411094665527344e+01 2.652125379390152943e-14 -1.716375387086563342e-13 -4.353488801552528320e-14 5.904731727440076794e-14
5.907000000000000000e+03 7.727391052246093750e+01 -1.560319709777832031e+01 5.754611739385018243e-14 -1.125902282105191443e-13 -1.651323256737433076e-14 7.105694342385976414e-14
5.908000000000000000e+03 6.171236038208007812e+01 -2.429995918273925781e+01 1.311832451477909500e-13 1.019723449560347439e-13 6.994667974165313939e-14 -1.160930347080674219e-13
5.909000000000000000e+03 6.500086212158203125e+01 -2.280634498596191406e+01 7.193264674231272804e-14 2.595830180581598645e-13 9.945469876251541996e-14 1.511210996835501974e-13
5.910000000000000000e+03 6.051645278930664062e+01 -2.543480873107910156e+01 -4.785084614243768908e-14 7.099439173477092857e-14 6.943063847106561298e-15 -1.120898214740720378e-13
5.911000000000000000e+03 5.929296493530273438e+01 -2.658344650268554688e+01 -1.042710568496113543e-13 1.063352138851484611e-15 -3.096231360492571194e-14 -1.511210996835501974e-13
5.912000000000000000e+03 2.914392089843750000e+01 -3.285633087158203125e+01 -4.653729455289003225e-14 -8.506817110811876886e-15 -1.651323256737433076e-14 3.677947500052049234e-14
5.913000000000000000e+03 3.665965652465820312e+01 -3.459409332275390625e+01 -6.355093046857968053e-14 -1.416134868875359998e-13 -6.154932385158198849e-14 9.257418745153064149e-15
5.914000000000000000e+03 1.973658180236816406e+01 -1.237010955810546875e+01 -1.511210996835501974e-13 -1.901523745048965680e-14 -5.104090097080536681e-14 -5.754611739385018243e-14
5.915000000000000000e+03 1.964856910705566406e+01 -1.166697883605957031e+01 9.757819552369539906e-14 8.757017599123409490e-14 5.554451077685249039e-14 -1.140914348673333079e-13
5.916000000000000000e+03 2.630726051330566406e+01 -3.281502151489257812e+01 -4.503609128420765773e-14 -6.505213034913026604e-14 -3.302646513474866152e-14 7.455974992140804170e-14
5.917000000000000000e+03 2.674744415283203125e+01 -3.192566871643066406e+01 -1.150922347877003649e-13 -1.501202929869195624e-14 -3.903127820947815962e-14 1.000802021008766196e-13
5.918000000000000000e+03 6.641887664794921875e+01 -1.973115921020507812e+01 -4.766319446330297138e-14 -6.617803364767499419e-14 -3.415236843329338967e-14 2.001604075898850282e-14
5.919000000000000000e+03 2.996661567687988281e+01 -3.568477630615234375e+01 -1.446158866486371708e-13 -5.054050101062183831e-14 -5.854691731421723944e-14 -3.152526186606628700e-14
5.920000000000000000e+03 2.114176940917968750e+01 -3.148710632324218750e+01 -1.294787573598993324e-13 -1.469927966239042982e-13 -8.294146619514108920e-14 -4.503608959014176322e-15
5.921000000000000000e+03 4.129244995117187500e+01 -3.488686370849609375e+01 -2.087923204555780510e-13 -1.352333772308006443e-13 -1.032077052401554618e-13 8.006416303595401129e-15
5.922000000000000000e+03 4.187789916992187500e+01 -3.411654663085937500e+01 -1.376102736535406157e-13 -7.506014649345978118e-15 -4.353488801552528320e-14 7.518525325976924134e-14
5.923000000000000000e+03 7.985643386840820312e+00 -1.448892784118652344e+01 1.761411519028352468e-13 3.042437992078345088e-13 1.441154866884536423e-13 -7.706175649858926224e-14
5.924000000000000000e+03 4.457463073730468750e+01 -3.387348556518554688e+01 -1.175942345886180074e-13 -2.276824562219559311e-13 -1.035830085984248972e-13 -2.267441978262823427e-14
5.925000000000000000e+03 4.412877273559570312e+01 -3.320007324218750000e+01 -1.393616802904465435e-13 3.177546523428984027e-14 -3.227586519447336877e-14 -4.803849782157240678e-14
5.926000000000000000e+03 7.420923614501953125e+01 -1.628234100341796875e+01 1.366094737331735587e-13 5.854691731421723944e-14 5.854691731421723944e-14 6.004812227696550847e-15
5.927000000000000000e+03 6.690135192871093750e+01 -2.021215820312500000e+01 5.297995589871422328e-14 2.270569562717265205e-14 2.270569562717265205e-14 -1.301042606982605321e-14
5.928000000000000000e+03 5.848356628417968750e+01 -2.850739288330078125e+01 -1.876503662336494530e-15 9.069767913051293706e-14 2.664635378394741155e-14 -4.803849782157240678e-14
5.929000000000000000e+03 5.693573379516601562e+01 -2.940276527404785156e+01 -1.153424279915285511e-13 8.782037597132585915e-14 -8.256616283687165381e-15 -6.605293026949732305e-14
5.930000000000000000e+03 6.691147613525390625e+01 -1.799682235717773438e+01 1.216599944295045435e-14 2.339687417331898223e-13 7.384042243754537771e-14 -6.605293026949732305e-14
5.931000000000000000e+03 1.158786582946777344e+01 -1.006966209411621094e+01 -2.607089349092317487e-13 2.552045048540268340e-14 -7.055654346367623564e-14 2.131708302715792924e-13
5.932000000000000000e+03 6.999371337890625000e+01 -1.764776802062988281e+01 8.506817110811876886e-15 1.866495781717436575e-13 5.854691731421723944e-14 -3.102486190588275849e-14
5.933000000000000000e+03 6.687763977050781250e+01 -1.912364387512207031e+01 -2.157979402269381841e-14 8.225341794395463202e-14 1.820208582112552848e-14 0.000000000000000000e+00
5.934000000000000000e+03 1.694820976257324219e+01 -1.127880859375000000e+01 -1.796439651766471024e-13 1.451162933850842773e-14 -4.953969770212299228e-14 7.105694342385976414e-14
5.935000000000000000e+03 1.794658660888671875e+01 -8.975220680236816406e+00 2.421940957248597259e-13 -1.421138868477195283e-13 3.002405859738391247e-14 -1.946559910872072696e-13
5.936000000000000000e+03 8.953033447265625000e+00 -1.049774456024169922e+01 -1.251002475438980910e-13 1.751403519824681898e-13 1.501202929869195624e-14 -7.506014988159157020e-14
5.937000000000000000e+03 3.170426845550537109e+00 -1.095514869689941406e+01 -7.856295637913984775e-14 -2.166736299928639919e-13 -8.857097591160115191e-14 1.401122768425900472e-14
5.938000000000000000e+03 2.833398437500000000e+01 -3.255521392822265625e+01 -1.596279261117244941e-13 -4.553649124439118623e-14 -6.154932385158198849e-14 7.330875002094922044e-14
5.939000000000000000e+03 3.045561599731445312e+01 -3.447298049926757812e+01 -1.363592669768182164e-13 -8.131516293641283255e-14 -6.530233032922203029e-14 1.200962445539310169e-14
5.940000000000000000e+03 4.538261032104492188e+01 -3.451459503173828125e+01 -1.441154866884536423e-13 -1.601283260719080226e-14 -4.803849782157240678e-14 -7.105694342385976414e-14
5.941000000000000000e+03 4.598633575439453125e+01 -3.357964324951171875e+01 -1.762662552810129180e-13 -2.127955201370462790e-13 -1.167185380464286215e-13 7.005613842129502361e-15
5.942000000000000000e+03 1.474785232543945312e+01 -1.028485774993896484e+01 -1.411130869273524713e-13 -1.291034607778934751e-13 -8.106496295632106830e-14 1.591275125990138095e-13
5.943000000000000000e+03 1.045991706848144531e+01 -1.979937362670898438e+01 1.338572688699664684e-14 3.181299353723771040e-13 9.945469876251541996e-14 -1.493071481338190121e-13
5.944000000000000000e+03 2.709593772888183594e+01 -3.314815139770507812e+01 -1.281026608575264181e-13 8.006416303595401129e-15 -3.602887167211341057e-14 7.993905965777634015e-14
5.945000000000000000e+03 2.788842582702636719e+01 -3.343953704833984375e+01 -1.376102736535406157e-13 -1.276022608973428896e-13 -7.956375629950690476e-14 -1.200962445539310169e-14
5.946000000000000000e+03 2.946286964416503906e+01 -3.411999130249023438e+01 -1.866495781717436575e-13 -1.486190998826325549e-13 -1.005806020610601481e-13 -1.751403587587317678e-14
5.947000000000000000e+03 4.648432922363281250e+01 -3.510628509521484375e+01 -1.581267126786467525e-13 -1.821459649775647449e-13 -1.020818019416107336e-13 -8.506817110811876886e-15
5.948000000000000000e+03 4.899202346801757812e+01 -3.373858261108398438e+01 -1.721379386688398627e-13 -2.802245536851800944e-14 -6.004811719476782494e-14 -2.852285871683332696e-14
5.949000000000000000e+03 3.471939468383789062e+01 -3.623788452148437500e+01 -1.073985667651537745e-13 -1.146543797403420939e-13 -6.661588191876968712e-14 6.154932385158198849e-14
5.950000000000000000e+03 5.919689559936523438e+01 -2.790048599243164062e+01 -9.839134715305952739e-14 1.865870197063912439e-13 2.645870379887858836e-14 -1.230986477031639770e-13
5.951000000000000000e+03 1.323299884796142578e+01 -9.745148658752441406e+00 -1.078364150362484675e-13 4.528629126429942198e-14 -1.876503747039789255e-14 9.707779556351187056e-14
5.952000000000000000e+03 7.266572570800781250e+01 -1.625451278686523438e+01 6.204972381176551699e-14 -4.203368474684290867e-14 6.004812227696550847e-15 -1.070858150959731747e-13
5.953000000000000000e+03 1.566353034973144531e+01 -7.123991489410400391e+00 8.397354534818435301e-14 -5.551323493230807260e-14 8.538092108323347418e-15 4.666239454293591438e-14
5.954000000000000000e+03 1.550484180450439453e+01 -1.059403228759765625e+01 -1.836471648581153304e-13 -1.015814019814272051e-13 -8.556856937423640286e-14 -9.007217918028352643e-15
5.955000000000000000e+03 5.514532089233398438e+01 -3.033121681213378906e+01 -1.100882216333379238e-13 -7.005614350349270714e-14 -5.404330750817011586e-14 -4.553649124439118623e-14
5.956000000000000000e+03 1.300959873199462891e+01 -1.047390842437744141e+01 -2.151724301123134064e-13 4.503609128420765773e-14 -5.104090097080536681e-14 1.361090737729900302e-13
5.957000000000000000e+03 7.131735801696777344e+00 -4.929476261138916016e+00 -1.133408281507944371e-13 2.259310495850500033e-13 3.377706846315574329e-14 1.080866150163402317e-13
5.958000000000000000e+03 9.760238647460937500e+00 -3.613905191421508789e+00 6.229992379185728124e-14 2.554547014459868093e-13 9.532638892660594276e-14 3.702967498061225660e-14
5.959000000000000000e+03 1.275508403778076172e+01 -8.172258377075195312e+00 4.253408470702643718e-14 -2.752205540833448094e-14 4.503608959014176322e-15 5.904731727440076794e-14
5.960000000000000000e+03 5.368704223632812500e+01 -3.148589515686035156e+01 -1.003304020809683839e-13 -1.573761195146350378e-13 -7.731195647868102649e-14 -3.803047490097931360e-14
5.961000000000000000e+03 5.723650741577148438e+01 -3.046209907531738281e+01 -1.223480409866251062e-13 8.481796943396111010e-14 -1.125902282105191443e-14 -2.602085213965210642e-14
5.962000000000000000e+03 2.860894918441772461e+00 -3.963726806640625000e+01 -7.160425545679402481e-14 -7.366840698661697440e-14 -4.358180008827601537e-14 1.748080507928649607e-14
5.963000000000000000e+03 7.535204315185546875e+01 -3.921185684204101562e+01 -3.252606517456513302e-15 1.358588670166346879e-13 3.978187814975345238e-14 1.313552648338840896e-15
5.964000000000000000e+03 1.746952056884765625e+01 -8.553556442260742188e+00 9.192522638272818125e-14 1.766493716711878270e-13 8.057238280430659150e-14 -1.035830085984248972e-13
5.965000000000000000e+03 1.693872833251953125e+01 -8.074347496032714844e+00 1.571259127582796955e-13 3.302646513474866152e-14 5.704571743366665393e-14 2.351884725653678038e-14
5.966000000000000000e+03 1.458954334259033203e+01 -6.994544506072998047e+00 1.391114735340912012e-13 -2.491996951674291250e-13 -3.302646513474866152e-14 5.054050101062183831e-14
5.967000000000000000e+03 1.331732273101806641e+01 -5.417112827301025391e+00 2.231788430277770185e-13 2.702165375408505793e-14 7.506014988159157020e-14 1.351082687704252897e-14
5.968000000000000000e+03 1.830162429809570312e+01 -9.411976814270019531e+00 6.705373696612795809e-14 -1.701363422162375377e-14 1.501202929869195624e-14 -1.626303258728256651e-13
5.969000000000000000e+03 1.458396530151367188e+01 -6.047387123107910156e+00 2.231788430277770185e-13 -5.304250758780305885e-14 5.104090097080536681e-14 1.651323256737433076e-14
5.970000000000000000e+03 1.463707542419433594e+01 -8.613075256347656250e+00 3.502807175174635357e-14 1.751403519824681898e-13 6.305052373213257400e-14 -5.817161819111254031e-15
5.971000000000000000e+03 8.403268814086914062e+00 -1.084231853485107422e+01 -2.827265602623613150e-13 2.276824562219559311e-13 -1.651323256737433076e-14 -8.731997601114233065e-14
5.972000000000000000e+03 9.857528686523437500e+00 -1.090238666534423828e+01 -2.805998705959766859e-13 1.542486028228290396e-13 -3.790537491093343148e-14 1.291034607778934751e-13
5.973000000000000000e+03 1.178451061248779297e+01 -9.354690551757812500e+00 -1.030826086382413687e-13 -6.705373696612795809e-14 -5.104090097080536681e-14 2.587073079634433226e-13
5.974000000000000000e+03 1.011519050598144531e+01 -5.176888465881347656e+00 -1.446158866486371708e-13 1.896519779328448285e-13 1.351082687704252897e-14 6.204972381176551699e-14
5.975000000000000000e+03 1.731305122375488281e+01 -1.007440948486328125e+01 3.102486190588275849e-14 5.904731727440076794e-14 2.702165375408505793e-14 4.303448466720996568e-14
5.976000000000000000e+03 1.729250717163085938e+01 -9.518012046813964844e+00 3.152526186606628700e-14 1.351082687704252897e-14 1.351082687704252897e-14 3.302646513474866152e-14
5.977000000000000000e+03 6.750480651855468750e+00 -1.518308448791503906e+01 8.056456299613753980e-14 3.452766840343103605e-14 3.452766840343103605e-14 -1.120898214740720378e-13
5.978000000000000000e+03 1.714896202087402344e+01 -1.064326763153076172e+01 -5.079070099071360256e-14 -2.176744400776264160e-14 -2.176744400776264160e-14 1.451162866088206993e-13
5.979000000000000000e+03 1.765368843078613281e+01 -1.160111999511718750e+01 -1.100882216333379238e-13 9.007218256841531545e-14 -6.004812227696550847e-15 1.861491782115601290e-13
5.980000000000000000e+03 1.939857864379882812e+01 -1.115088653564453125e+01 4.078268145825229840e-14 -3.828067826920286687e-14 7.506015284620688559e-16 -1.308548674147994029e-13
5.981000000000000000e+03 1.373468017578125000e+01 -6.212393760681152344e+00 8.006416303595401129e-14 8.006416303595401129e-14 4.803849782157240678e-14 2.902325867701685547e-14
5.982000000000000000e+03 1.033460426330566406e+01 -4.489152431488037109e+00 2.702165375408505793e-14 2.632109211576222352e-13 8.706977603105056640e-14 -8.006416303595401129e-15
5.983000000000000000e+03 6.976790618896484375e+01 -1.625451087951660156e+01 7.606094980195862720e-14 1.240994476235310340e-13 6.004811719476782494e-14 -1.055846084391590112e-13
5.984000000000000000e+03 6.598941802978515625e+01 -2.146909713745117188e+01 -1.813953582610258741e-14 1.294787573598993324e-13 3.340176849301809692e-14 5.004010105043830980e-14
5.985000000000000000e+03 1.938410949707031250e+01 -2.867105484008789062e+01 8.600642103346288481e-15 -4.206496059138732646e-14 -1.003929537700572194e-14 -6.505213034913026604e-14
5.986000000000000000e+03 2.222364997863769531e+01 -3.203284072875976562e+01 -1.336070739720723877e-13 -9.157338244896590096e-14 -6.755413692631148659e-14 3.627907165220517482e-14
5.987000000000000000e+03 1.324680614471435547e+01 -2.529111862182617188e+01 -1.204089945290457223e-14 -5.160385177304478363e-15 -5.160385177304478363e-15 -4.003208151797700565e-15
5.988000000000000000e+03 7.343064880371093750e+01 -1.627041053771972656e+01 1.110890215537049808e-13 2.992397996059992238e-13 1.230986477031639770e-13 -1.200962445539310169e-14
5.989000000000000000e+03 7.711051940917968750e+01 -3.529113388061523438e+01 -2.301844560228735737e-14 1.301042606982605321e-14 -3.002406113848275424e-15 -6.405133042876320904e-14
5.990000000000000000e+03 7.561016845703125000e+01 -3.742298126220703125e+01 -2.376904681311207100e-15 1.362341771511677013e-13 4.015718150802288777e-14 -4.403528797570881170e-14
5.991000000000000000e+03 6.337206649780273438e+01 -2.365970039367675781e+01 -8.969687921014588006e-14 -8.419246609559991046e-14 -5.216680426935009496e-14 4.603689120457471473e-14
5.992000000000000000e+03 6.550191497802734375e+01 -2.212610054016113281e+01 -8.131516293641283255e-14 1.939053843706683988e-13 3.377706846315574329e-14 9.207378240914942946e-14
5.993000000000000000e+03 7.576914978027343750e+01 -1.630992126464843750e+01 4.603689120457471473e-14 -2.602085213965210642e-14 6.004812227696550847e-15 -4.903929774193946378e-14
5.994000000000000000e+03 5.819784927368164062e+01 -3.001620674133300781e+01 -1.215974478226133915e-13 1.766415518630187753e-13 1.651323256737433076e-14 -5.504411081666896188e-14
5.995000000000000000e+03 7.733406066894531250e+01 -2.911720275878906250e+01 1.601283260719080226e-14 1.441154866884536423e-13 4.803849782157240678e-14 -5.304250758780305885e-14
5.996000000000000000e+03 7.656041717529296875e+01 -2.986978721618652344e+01 -1.401122768425900472e-14 -6.004812227696550847e-15 -6.004812227696550847e-15 7.005613842129502361e-15
5.997000000000000000e+03 7.654308319091796875e+01 -1.633348655700683594e+01 4.353488801552528320e-14 2.016616040823038247e-13 7.355895000104098469e-14 3.302646513474866152e-14
5.998000000000000000e+03 1.038294219970703125e+01 -2.088924980163574219e+01 8.506817110811876886e-15 1.866495781717436575e-13 5.854691731421723944e-14 -1.701363422162375377e-14
5.999000000000000000e+03 7.744730377197265625e+01 -2.272218513488769531e+01 -4.603689120457471473e-14 2.602085213965210642e-14 -6.004812227696550847e-15 -6.004811719476782494e-14
6.000000000000000000e+03 7.672104644775390625e+01 -2.348571014404296875e+01 -6.505213034913026604e-14 1.551243129175455815e-13 2.702165375408505793e-14 -1.070858150959731747e-13
6.001000000000000000e+03 7.669439697265625000e+01 -2.509816169738769531e+01 -9.257418236933295796e-14 9.757819552369539906e-14 1.501203056924137712e-15 -1.491194998428160834e-13
6.002000000000000000e+03 7.597684478759765625e+01 -2.021711921691894531e+01 -3.853087824929463112e-14 3.037434128001781364e-13 7.956375629950690476e-14 -6.305052373213257400e-14
6.003000000000000000e+03 7.739496612548828125e+01 -1.869929695129394531e+01 1.200962445539310169e-14 1.881507780522942430e-13 6.004811719476782494e-14 -3.002405859738391247e-14
6.004000000000000000e+03 7.662380218505859375e+01 -1.786589050292968750e+01 2.451964887096973189e-14 1.050842118671072717e-14 1.050842118671072717e-14 3.302646513474866152e-14
6.005000000000000000e+03 7.737382507324218750e+01 -1.791011047363281250e+01 -1.000802037949425141e-15 9.107298248878237246e-14 2.702165375408505793e-14 -3.903127820947815962e-14
6.006000000000000000e+03 7.744350433349609375e+01 -2.191923522949218750e+01 4.753809447325708926e-14 1.576263127184632240e-13 6.154932385158198849e-14 8.206576287668812530e-14
6.007000000000000000e+03 7.671509552001953125e+01 -2.106847000122070312e+01 -3.152526186606628700e-14 1.466175000418984409e-13 3.452766840343103605e-14 1.000802037949425141e-15
6.008000000000000000e+03 7.661176300048828125e+01 -2.830529022216796875e+01 -4.703769451307356075e-14 1.170938346284344789e-13 2.101684237342145434e-14 -6.004812227696550847e-15
6.009000000000000000e+03 7.671041107177734375e+01 -2.429070472717285156e+01 9.507618725244828400e-15 9.557658890669770702e-14 3.152526186606628700e-14 9.607699564314481355e-14
6.010000000000000000e+03 7.598635864257812500e+01 -2.346026420593261719e+01 -4.253408470702643718e-14 2.752205540833448094e-14 -4.503608959014176322e-15 3.702967498061225660e-14
6.011000000000000000e+03 7.737753295898437500e+01 -2.753250885009765625e+01 3.252606517456513302e-14 4.028227946518969649e-13 1.306046606584440606e-13 2.401924891078620339e-14
6.012000000000000000e+03 7.712973022460937500e+01 -3.230961608886718750e+01 6.104892389139845998e-14 4.903929774193946378e-14 3.302646513474866152e-14 -2.552045048540268340e-14
6.013000000000000000e+03 7.573703765869140625e+01 -3.604738998413085938e+01 -6.280032375204080974e-14 -3.978187814975345238e-14 -3.077466192579099424e-14 -1.058973601083396110e-13
6.014000000000000000e+03 7.647482299804687500e+01 -3.142081451416015625e+01 5.504411081666896188e-14 -2.051644173561156803e-13 -4.503609128420765773e-14 9.307458910578006450e-14
6.015000000000000000e+03 7.615019226074218750e+01 -3.308262252807617188e+01 3.002405859738391247e-14 1.501202997631831404e-13 5.404330750817011586e-14 -2.902325867701685547e-14
6.016000000000000000e+03 5.355149269104003906e+00 -3.069338035583496094e+01 -1.185950345089850644e-13 -9.657739560332834206e-14 -6.455173038894673754e-14 5.054050101062183831e-14
6.017000000000000000e+03 3.675992965698242188e+00 -3.077088737487792969e+01 1.000802037949425141e-14 5.004010105043830980e-14 1.801443583605670529e-14 4.403528797570881170e-14
6.018000000000000000e+03 6.645863342285156250e+01 -2.082877922058105469e+01 -6.204972381176551699e-14 2.021620040424873532e-13 4.203368474684290867e-14 4.003208151797700565e-14
6.019000000000000000e+03 1.331666278839111328e+01 -2.303326034545898438e+01 4.003208151797700565e-14 2.001604042017532392e-13 7.205774334422682115e-14 -7.005614350349270714e-14
6.020000000000000000e+03 1.386648654937744141e+01 -2.471137619018554688e+01 2.101684237342145434e-14 8.907137587178468041e-14 3.302646513474866152e-14 -1.032077035460895673e-15
6.021000000000000000e+03 1.442192935943603516e+01 -2.532045364379882812e+01 1.199711445638851348e-13 -1.737642419275681194e-13 -1.613793259723668438e-14 1.200962445539310169e-14
6.022000000000000000e+03 1.502135562896728516e+01 -2.594438934326171875e+01 -3.552847171192988207e-14 1.506206997233666689e-13 3.452766840343103605e-14 6.373857875958260921e-14
6.023000000000000000e+03 3.603493213653564453e+00 -2.992303085327148438e+01 -8.857097591160115191e-14 -2.667137344314340908e-13 -1.065854151357896462e-13 1.801443583605670529e-14
6.024000000000000000e+03 3.393657207489013672e+00 -2.582026100158691406e+01 -4.403528797570881170e-14 -1.561251128379126385e-13 -6.004811719476782494e-14 -6.204972381176551699e-14
6.025000000000000000e+03 4.028523445129394531e+00 -2.336255645751953125e+01 -2.001604075898850282e-14 -4.203368339159019307e-13 -1.321058605389946461e-13 8.606896933441993136e-14
6.026000000000000000e+03 2.611126661300659180e+00 -2.507471084594726562e+01 -2.802245536851800944e-14 -3.322662782932750414e-13 -1.080866150163402317e-13 2.602085213965210642e-14
6.027000000000000000e+03 1.563448238372802734e+01 -2.664888763427734375e+01 5.754611400571839341e-15 2.769719674965143152e-13 8.481796943396111010e-14 -2.602085213965210642e-14
6.028000000000000000e+03 3.306045532226562500e+00 -2.262422752380371094e+01 4.803849782157240678e-14 -2.081668171172168513e-13 -4.803849782157240678e-14 1.401122768425900472e-14
6.029000000000000000e+03 4.196252346038818359e+00 -1.893206214904785156e+01 5.129110433902892008e-14 -3.440256976863786953e-13 -8.782037597132585915e-14 2.802245536851800944e-14
6.030000000000000000e+03 3.151454210281372070e+00 -1.709127998352050781e+01 1.000802037949425141e-15 -9.107298248878237246e-14 -2.702165375408505793e-14 -4.253408470702643718e-14
6.031000000000000000e+03 2.641312599182128906e+00 -8.433635711669921875e+00 -1.351082687704252897e-14 -5.154130431912068433e-14 -1.951563910473907981e-14 -5.704571743366665393e-14
6.032000000000000000e+03 7.238184452056884766e+00 -4.148026943206787109e+00 -8.757017599123409490e-14 1.225982477429804485e-13 1.050842118671072717e-14 1.536231130369949960e-13
6.033000000000000000e+03 3.851578712463378906e+00 -1.488258171081542969e+01 -6.955573676704560060e-14 -7.556054984177509870e-14 -4.353488801552528320e-14 5.004010189747125706e-15
6.034000000000000000e+03 3.173101663589477539e+00 -1.557255363464355469e+01 -4.803849782157240678e-14 4.803849782157240678e-14 0.000000000000000000e+00 -1.100882199392720293e-14
6.035000000000000000e+03 3.159064292907714844e+00 -1.482408428192138672e+01 -5.254210423948774134e-14 -2.251804564210382886e-14 -2.251804564210382886e-14 -5.804651735403371093e-14
6.036000000000000000e+03 2.488910913467407227e+00 -1.086666297912597656e+01 1.601283260719080226e-14 -1.761411519028352468e-13 -4.803849782157240678e-14 -8.506816941405287436e-14
6.037000000000000000e+03 4.151567935943603516e+00 -3.969090938568115234e+00 -6.805453688649501509e-14 -2.121700303512122354e-13 -8.406736949368581735e-14 1.050842084789754827e-13
6.038000000000000000e+03 3.874010562896728516e+00 -5.203534603118896484e+00 6.905533680686207210e-14 2.812253739343378856e-13 1.050842084789754827e-13 9.207378240914942946e-14
6.039000000000000000e+03 3.493057966232299805e+00 -7.635894775390625000e+00 -1.175942345886180074e-13 -1.876503780921107145e-13 -9.157338244896590096e-14 -2.251804564210382886e-14
6.040000000000000000e+03 2.502692461013793945e+00 -1.244139671325683594e+01 -8.857097591160115191e-14 -2.667137344314340908e-13 -1.065854151357896462e-13 -1.200962343895356499e-13
6.041000000000000000e+03 3.187616109848022461e+00 -1.167194271087646484e+01 7.806255641895631925e-14 -5.804651735403371093e-14 6.004812227696550847e-15 -4.803849782157240678e-14
6.042000000000000000e+03 2.440570116043090820e+00 -1.782368850708007812e+01 -1.205966479022463345e-13 -3.948163952889605088e-13 -1.546239129573620530e-13 -5.304250758780305885e-14
6.043000000000000000e+03 5.974752902984619141e+00 -1.604389572143554688e+01 1.105886215935214523e-13 1.846479647784823874e-13 8.857097591160115191e-14 -8.706977603105056640e-14
6.044000000000000000e+03 3.234148740768432617e+00 -1.844721984863281250e+01 -8.306656957331876034e-14 -4.473584859759210941e-13 -1.591275125990138095e-13 3.702967498061225660e-14
6.045000000000000000e+03 8.974417686462402344e+00 -1.920960044860839844e+01 1.160304864071103753e-14 4.972734768719181547e-15 4.972734768719181547e-15 4.603689120457471473e-14
6.046000000000000000e+03 2.589332103729248047e+00 -2.427015495300292969e+01 5.154130431912068433e-14 -2.066656172366662658e-13 -4.653729455289003225e-14 8.006416303595401129e-15
6.047000000000000000e+03 3.323368072509765625e+00 -2.421078681945800781e+01 -8.106496295632106830e-14 -3.092478259147241060e-13 -1.170938346284344789e-13 -2.401924891078620339e-14
6.048000000000000000e+03 3.352332830429077148e+00 -2.501301956176757812e+01 -3.602887167211341057e-14 -2.441956955655938399e-13 -8.406736949368581735e-14 -2.401924891078620339e-14
6.049000000000000000e+03 3.261336803436279297e+00 -1.247736072540283203e+01 -5.454371085648543338e-14 -3.207570385514724176e-13 -1.125902282105191443e-13 -4.003208151797700565e-14
6.050000000000000000e+03 3.213840007781982422e+00 -1.331128215789794922e+01 1.851483749030612830e-14 -8.356696953350228885e-14 -1.951563910473907981e-14 2.401924891078620339e-14
6.051000000000000000e+03 3.368298768997192383e+00 -2.102302169799804688e+01 5.454371085648543338e-14 -3.197562386311053606e-13 -7.956375629950690476e-14 1.100882216333379238e-13
6.052000000000000000e+03 3.459042072296142578e+00 -2.015132713317871094e+01 7.455974992140804170e-14 -3.798043693784003416e-13 -9.157338244896590096e-14 6.305052373213257400e-14
6.053000000000000000e+03 2.996808767318725586e+00 -3.177210235595703125e+01 3.402726844324750755e-14 -5.404330750817011586e-14 -6.004812227696550847e-15 1.185950345089850644e-13
6.054000000000000000e+03 3.805293560028076172e+00 -3.164415550231933594e+01 6.104892389139845998e-14 -4.313456601449938699e-13 -1.110890215537049808e-13 1.601283260719080226e-14
6.055000000000000000e+03 3.320413827896118164e+00 -2.183474731445312500e+01 1.501203056924137712e-15 -4.568660987719352917e-13 -1.366094737331735587e-13 9.007217918028352643e-15
6.056000000000000000e+03 7.652696228027343750e+01 -3.064257049560546875e+01 -6.705373696612795809e-14 1.701363422162375377e-14 -1.501202929869195624e-14 -4.803849782157240678e-14
6.057000000000000000e+03 6.877106475830078125e+01 -1.724865531921386719e+01 8.531836939414463861e-14 4.025726150005959347e-13 1.463672932855430986e-13 6.705373696612795809e-14
6.058000000000000000e+03 7.427288818359375000e+01 -1.703277206420898438e+01 -8.556856937423640286e-14 1.005806020610601481e-13 4.503608959014176322e-15 -4.103288143834406265e-14
6.059000000000000000e+03 3.507251977920532227e+00 -2.827242279052734375e+01 -1.551243095294137925e-14 -1.896519779328448285e-13 -6.154932385158198849e-14 8.907137587178468041e-14
6.060000000000000000e+03 3.473361015319824219e+00 -2.745127105712890625e+01 -1.701363422162375377e-14 -5.304250758780305885e-14 -2.101684237342145434e-14 -3.302646513474866152e-14
6.061000000000000000e+03 3.548212528228759766e+00 -2.909390640258789062e+01 -5.704571743366665393e-14 -2.532028948488973530e-13 -9.307458910578006450e-14 8.006416303595401129e-15
6.062000000000000000e+03 4.329578399658203125e+00 -3.228573226928710938e+01 -8.043945961795986865e-14 -1.259759576386146329e-13 -6.192462720985142388e-14 -2.201764398785440585e-14
6.063000000000000000e+03 3.910660982131958008e+00 -3.449333190917968750e+01 -3.452766840343103605e-14 -2.206768432268593760e-13 -7.656135653840573374e-14 -1.731387521417340758e-13
6.064000000000000000e+03 3.958957433700561523e+00 -3.310324096679687500e+01 -1.601283260719080226e-14 -1.441154866884536423e-13 -4.803849782157240678e-14 2.061652172764827373e-13
6.065000000000000000e+03 3.293826675415039062e+01 -3.560280609130859375e+01 -1.698861456242775625e-13 -7.280834328450211390e-14 -7.280834328450211390e-14 -1.401122768425900472e-14
6.066000000000000000e+03 1.746553039550781250e+01 -2.709372329711914062e+01 -9.563914059578654259e-14 9.626464393414774223e-14 1.876503821155172140e-16 -9.007217918028352643e-15
6.067000000000000000e+03 2.495819473266601562e+01 -3.390513229370117188e+01 -1.170938346284344789e-13 -7.305854326459387815e-14 -5.704571743366665393e-14 -6.505213034913026604e-15
6.068000000000000000e+03 9.203314781188964844e+00 -5.648515701293945312e+00 -2.141716301919463494e-13 2.742197473867141744e-13 1.801443583605670529e-14 7.656135653840573374e-14
6.069000000000000000e+03 8.657744407653808594e+00 -4.887516975402832031e+00 -1.351082738526229732e-13 1.251002475438980910e-13 -3.002406113848275424e-15 1.911531778133954140e-13
6.070000000000000000e+03 6.566434383392333984e+00 -5.989768505096435547e+00 -8.513072110314170993e-14 1.007682503520630768e-13 4.691259367599473137e-15 1.120898214740720378e-13
6.071000000000000000e+03 4.767881393432617188e+00 -4.685001850128173828e+00 -1.501203056924137712e-15 -2.351884725653678038e-14 -7.506014649345978118e-15 4.553649124439118623e-14
6.072000000000000000e+03 1.521161937713623047e+01 -8.955555915832519531e+00 -1.651323256737433076e-14 -9.857899544406245607e-14 -3.452766840343103605e-14 5.254210423948774134e-14
6.073000000000000000e+03 5.983010864257812500e+01 -2.725542831420898438e+01 -8.787119794816111717e-14 -3.765908483492619307e-14 -3.765908483492619307e-14 4.653729455289003225e-14
6.074000000000000000e+03 6.277634811401367188e+01 -2.431926155090332031e+01 1.310425157058023315e-13 2.849158083940983577e-13 1.247874958747174912e-13 2.502005052521915490e-14
6.075000000000000000e+03 6.446559143066406250e+01 -2.350914192199707031e+01 -1.157177381260615645e-13 4.190858475679702655e-14 -2.214274397790028798e-14 5.604491073703601889e-14
6.076000000000000000e+03 8.909491539001464844e+00 -1.699103927612304688e+01 9.238653407833002928e-14 3.959422985875052370e-14 3.959422985875052370e-14 -6.305052373213257400e-14
6.077000000000000000e+03 3.924921751022338867e+00 -1.816308403015136719e+01 -6.830473686658677934e-14 -3.495301108009246649e-13 -1.253504543002534333e-13 -2.101684237342145434e-14
6.078000000000000000e+03 6.040858078002929688e+01 -2.662225914001464844e+01 -8.392663327543362084e-14 -2.189723554389677584e-13 -9.086969458144134038e-14 -9.707779556351187056e-14
6.079000000000000000e+03 7.582196807861328125e+01 -1.706338691711425781e+01 -6.405133042876320904e-14 6.405133042876320904e-14 0.000000000000000000e+00 5.404330750817011586e-14
6.080000000000000000e+03 1.917824935913085938e+01 -2.744943618774414062e+01 -6.261267546103788106e-14 -2.683400376901623474e-14 -2.683400376901623474e-14 -1.230986477031639770e-13
6.081000000000000000e+03 1.158368396759033203e+01 -5.627073764801025391e+00 8.656937607086703790e-14 -3.152526186606628700e-14 1.651323256737433076e-14 2.552045048540268340e-14
6.082000000000000000e+03 4.448364639282226562e+01 -3.557805633544921875e+01 -1.152798830787032935e-13 -1.955942460947490691e-13 -9.326223739678299318e-14 -2.039134072912614920e-14
6.083000000000000000e+03 1.782186126708984375e+01 -9.500570297241210938e+00 1.190954344691685929e-13 5.104090097080536681e-14 5.104090097080536681e-14 -1.621299259126421366e-13
6.084000000000000000e+03 6.216276550292968750e+01 -2.492115592956542969e+01 -1.476182999622654979e-13 -1.751403587587317678e-14 -4.953969770212299228e-14 -7.005614350349270714e-14
6.085000000000000000e+03 5.164472198486328125e+01 -3.362726211547851562e+01 -1.346313197644194437e-13 -1.034500854120781743e-13 -7.142442697396014784e-14 1.926543912464731556e-14
6.086000000000000000e+03 9.451272964477539062e+00 -1.864241600036621094e+01 1.203464411458909922e-13 2.074162104006779805e-13 9.832879546397069181e-14 -9.926705047151249128e-14
6.087000000000000000e+03 9.466197013854980469e+00 -1.974323654174804688e+01 -7.074419175467916432e-14 1.526848580294531965e-13 2.458219886599267295e-14 -1.327313638773558457e-13
6.088000000000000000e+03 6.098391342163085938e+01 -2.604680633544921875e+01 -7.312109495368271372e-14 -3.133761357506335832e-14 -3.133761357506335832e-14 2.201764398785440585e-14
6.089000000000000000e+03 6.733233642578125000e+01 -1.962631797790527344e+01 -4.247153640606939062e-14 -1.820208582112552848e-14 -1.820208582112552848e-14 1.000802037949425141e-15
6.090000000000000000e+03 7.979665279388427734e+00 -1.610348510742187500e+01 1.030826086382413687e-13 2.702165375408505793e-14 3.903127820947815962e-14 2.864795870687920909e-14
6.091000000000000000e+03 6.946299743652343750e+01 -1.766036224365234375e+01 8.706977603105056640e-14 8.306656957331876034e-14 5.104090097080536681e-14 -1.571259127582796955e-13
6.092000000000000000e+03 6.733927917480468750e+01 -1.854745483398437500e+01 9.868063939773297211e-14 4.229170453510372463e-14 4.229170453510372463e-14 5.779631737394194668e-14
6.093000000000000000e+03 1.661250495910644531e+01 -8.602396011352539062e+00 1.331066604593617031e-13 5.704571743366665393e-14 5.704571743366665393e-14 -1.521218996039172544e-13
6.094000000000000000e+03 3.731489562988281250e+01 -3.531977462768554688e+01 -1.115894215138885093e-13 -9.357498906596359300e-14 -6.154932385158198849e-14 -2.201764398785440585e-14
6.095000000000000000e+03 2.868172454833984375e+01 -3.368695831298828125e+01 -9.007218256841531545e-14 -9.007218256841531545e-14 -5.404330750817011586e-14 1.142165246929838229e-13
6.096000000000000000e+03 2.875267028808593750e+01 -3.512337875366210938e+01 -9.282438912568830025e-14 -9.983000212078485536e-14 -5.779631737394194668e-14 6.104892389139845998e-14
6.097000000000000000e+03 9.651890754699707031e+00 -6.495071887969970703e+00 -4.903929774193946378e-14 2.992397996059992238e-13 7.506014988159157020e-14 1.095878216731543953e-13
6.098000000000000000e+03 9.569054603576660156e+00 -4.330126285552978516e+00 -1.881507780522942430e-13 -1.200962445539310169e-14 -6.004811719476782494e-14 9.857899544406245607e-14
6.099000000000000000e+03 7.435100078582763672e+00 -1.590968227386474609e+01 8.156536291650459680e-14 1.035830085984248972e-13 5.554451077685249039e-14 -1.170938346284344789e-13
6.100000000000000000e+03 6.930665588378906250e+01 -1.704924583435058594e+01 9.007218256841531545e-14 1.301042606982605321e-13 6.605293026949732305e-14 -1.000802021008766196e-13
6.101000000000000000e+03 1.526989555358886719e+01 -8.296566009521484375e+00 8.006416303595401129e-14 -8.006416303595401129e-14 0.000000000000000000e+00 3.602887167211341057e-14
6.102000000000000000e+03 6.821817016601562500e+01 -1.859603309631347656e+01 -2.064154070921791345e-14 3.690457499056637447e-14 4.878909776184769953e-15 3.002406113848275424e-15
6.103000000000000000e+03 6.942341613769531250e+01 -1.821913719177246094e+01 1.193456412255239352e-13 1.884009712561224292e-13 9.232398238924119371e-14 -7.205774334422682115e-14
6.104000000000000000e+03 6.864797973632812500e+01 -1.914951515197753906e+01 2.376904681311207100e-15 1.840224749926483439e-13 5.591981074699013676e-14 1.411130869273524713e-13
6.105000000000000000e+03 6.047280883789062500e+01 -2.788267517089843750e+01 -7.255814330441034965e-14 1.175942345886180074e-13 1.351082687704252897e-14 -1.035830085984248972e-13
6.106000000000000000e+03 2.796134948730468750e+01 -3.434444427490234375e+01 -1.215974478226133915e-13 -6.355093046857968053e-14 -5.554451077685249039e-14 3.002406113848275424e-15
6.107000000000000000e+03 2.766026115417480469e+01 -3.623464202880859375e+01 -9.932960216060132685e-14 -5.829671733412547519e-14 -4.728789449316532501e-14 4.287811222075145479e-14
6.108000000000000000e+03 8.933382034301757812e+00 -1.810554695129394531e+01 1.009559054193295835e-13 1.805196617188364883e-13 8.444266607569167471e-14 -1.801443583605670529e-14
6.109000000000000000e+03 7.599381256103515625e+01 -2.184895133972167969e+01 2.652125379390152943e-14 1.486190998826325549e-13 5.254210423948774134e-14 -4.003208151797700565e-15
6.110000000000000000e+03 4.931886672973632812e+01 -3.513067626953125000e+01 -1.488692930864607411e-13 -6.380113044867144478e-14 -6.380113044867144478e-14 1.000802037949425141e-15
6.111000000000000000e+03 1.423280715942382812e+01 -9.243228912353515625e+00 -7.293344666267978504e-14 -1.685100355693774921e-13 -7.243304670249625654e-14 6.405133042876320904e-14
6.112000000000000000e+03 1.290799427032470703e+01 -2.364373779296875000e+01 -3.452766840343103605e-14 -5.004010189747125706e-16 -1.050842118671072717e-14 -1.237241510415251766e-13
6.113000000000000000e+03 1.248965263366699219e+01 -2.126015281677246094e+01 2.082919238835263115e-14 1.461796449945401699e-13 5.010264935139535636e-14 -1.511210996835501974e-13
6.114000000000000000e+03 9.388792991638183594e+00 -5.004608154296875000e+00 5.604491073703601889e-14 3.442758773376797254e-13 1.200962343895356499e-13 -2.351884725653678038e-14
6.115000000000000000e+03 3.751320266723632812e+01 -3.441989517211914062e+01 -1.346078738924394447e-13 7.956375629950690476e-14 -1.651323256737433076e-14 -4.103288143834406265e-14
6.116000000000000000e+03 1.180781269073486328e+01 -2.175063705444335938e+01 2.151724233360498284e-14 1.235990476633475055e-13 4.353488801552528320e-14 -3.727987496070402085e-14
6.117000000000000000e+03 1.246349239349365234e+01 -2.327214050292968750e+01 1.281026608575264181e-13 3.522823038056704936e-13 1.441154866884536423e-13 -1.901523745048965680e-14
6.118000000000000000e+03 1.874966430664062500e+01 -2.812891769409179688e+01 -3.740497495074990297e-14 1.212221376880803780e-13 2.514515051526503703e-14 -8.006416303595401129e-14
6.119000000000000000e+03 1.398717021942138672e+01 -9.992167472839355469e+00 -1.568757195544515093e-13 2.426944889087796764e-14 -3.978187814975345238e-14 3.302646513474866152e-14
6.120000000000000000e+03 1.249140548706054688e+01 -9.544112205505371094e+00 -8.656937607086703790e-14 1.916535777735789425e-13 3.152526186606628700e-14 1.301042606982605321e-13
6.121000000000000000e+03 7.117977905273437500e+01 -1.621662712097167969e+01 1.331066604593617031e-13 3.773023560249555430e-13 1.531227130768114675e-13 -6.805453688649501509e-14
6.122000000000000000e+03 7.055496978759765625e+01 -1.694113349914550781e+01 1.301042606982605321e-14 9.707779556351187056e-14 3.302646513474866152e-14 -9.607699564314481355e-14
6.123000000000000000e+03 5.234375000000000000e+01 -3.254420852661132812e+01 -1.451162866088206993e-13 -1.251002475438980910e-13 -8.106496295632106830e-14 1.501203056924137712e-15
6.124000000000000000e+03 5.341275024414062500e+01 -3.309665679931640625e+01 -1.473680932059101556e-13 -4.028228149806876990e-14 -5.629511410525957216e-14 -3.502806921064751181e-15
6.125000000000000000e+03 5.480213546752929688e+01 -3.367890930175781250e+01 -1.088372149566155245e-13 -1.038332085785166614e-13 -6.380113044867144478e-14 -6.705373696612795809e-14
6.126000000000000000e+03 1.040121936798095703e+01 -8.965058326721191406e+00 -1.050842084789754827e-13 1.150922347877003649e-13 3.002406113848275424e-15 1.601283260719080226e-13
6.127000000000000000e+03 7.659377288818359375e+01 -4.170053863525390625e+01 -6.567763368749146569e-14 1.319807707133441310e-13 1.989093907487672619e-14 -4.303448466720996568e-14
6.128000000000000000e+03 3.479286193847656250e+00 -3.861158752441406250e+01 3.302646513474866152e-14 1.971579908881249121e-13 6.905533680686207210e-14 -1.951563910473907981e-14
6.129000000000000000e+03 3.752725601196289062e+00 -3.612437820434570312e+01 -8.907137587178468041e-14 -6.104892389139845998e-14 -4.503609128420765773e-14 2.051644071917203133e-14
6.130000000000000000e+03 2.344165039062500000e+01 -3.227037429809570312e+01 -1.553745061213737677e-13 -1.123400282304273801e-13 -8.031436301604577555e-14 7.055654346367623564e-14
6.131000000000000000e+03 4.789513778686523438e+01 -3.394393539428710938e+01 -1.205966479022463345e-13 -7.455974992140804170e-14 -5.854691731421723944e-14 -5.854691731421723944e-14
6.132000000000000000e+03 4.685792160034179688e+01 -3.388092803955078125e+01 -1.185950345089850644e-13 6.355093046857968053e-14 -1.651323256737433076e-14 -2.552045048540268340e-14
6.133000000000000000e+03 1.653730583190917969e+01 -9.187990188598632812e+00 -4.753809447325708926e-14 2.502005094873562853e-15 -1.351082687704252897e-14 -2.301844560228735737e-14
6.134000000000000000e+03 1.397987747192382812e+01 -7.307004928588867188e+00 2.151724233360498284e-14 -3.652927163229693908e-14 -4.503608959014176322e-15 3.002406113848275424e-15
6.135000000000000000e+03 1.308854103088378906e+01 -6.102599143981933594e+00 2.031628039628544102e-13 -2.331868693365019007e-13 -9.007217918028352643e-15 -5.004010189747125706e-15
6.136000000000000000e+03 1.792916107177734375e+01 -1.018064498901367188e+01 -1.431146867680865853e-13 -1.070858150959731747e-13 -7.506014988159157020e-14 2.301844560228735737e-14
6.137000000000000000e+03 3.830562114715576172e+00 -1.551893615722656250e+01 7.105694342385976414e-14 -6.104892389139845998e-14 3.002406113848275424e-15 1.801443583605670529e-14
6.138000000000000000e+03 1.077835845947265625e+01 -2.149942016601562500e+01 -7.856295637913984775e-14 1.035830085984248972e-13 7.506014649345978118e-15 5.204170427930421283e-14
6.139000000000000000e+03 1.500179481506347656e+01 -7.613537788391113281e+00 4.553649124439118623e-14 -6.054852393121493148e-14 -4.503608959014176322e-15 -9.007217918028352643e-15
6.140000000000000000e+03 7.440989685058593750e+01 -1.859056282043457031e+01 -2.301844560228735737e-14 1.731387521417340758e-13 4.503609128420765773e-14 -7.706175649858926224e-14
6.141000000000000000e+03 1.334306144714355469e+01 -7.472218990325927734e+00 1.646319257135597791e-13 -8.957178260823178695e-14 2.251804564210382886e-14 4.953969770212299228e-14
6.142000000000000000e+03 6.606601715087890625e+01 -2.256718826293945312e+01 1.050842118671072717e-14 2.451964887096973189e-14 1.050842118671072717e-14 5.992302059285373184e-14
6.143000000000000000e+03 6.654825592041015625e+01 -2.191741561889648438e+01 -1.050842118671072717e-14 1.556247128777291100e-13 4.353488801552528320e-14 5.967282061276196758e-14
6.144000000000000000e+03 1.084521675109863281e+01 -5.385620117187500000e+00 1.271018609371593611e-13 1.230986477031639770e-13 7.506014988159157020e-14 7.305854326459387815e-14
6.145000000000000000e+03 1.167305183410644531e+01 -7.208831787109375000e+00 -2.301844560228735737e-14 1.301042606982605321e-14 -3.002406113848275424e-15 2.732189474663471174e-13
6.146000000000000000e+03 6.700627136230468750e+01 -2.128317070007324219e+01 -2.952365863720038397e-14 -7.556054984177509870e-14 -3.152526186606628700e-14 4.716279450311944288e-14
6.147000000000000000e+03 6.990184783935546875e+01 -1.696133804321289062e+01 9.807859548387892756e-14 3.622903301143953758e-13 1.381106736137241442e-13 -2.502005052521915490e-14
6.148000000000000000e+03 7.203276062011718750e+01 -1.778647613525390625e+01 -3.102486190588275849e-14 2.612093213168881212e-13 6.905533680686207210e-14 -1.110890215537049808e-13
6.149000000000000000e+03 7.578903198242187500e+01 -3.062587928771972656e+01 -4.203368474684290867e-14 -1.801443583605670529e-14 -1.801443583605670529e-14 -8.006416303595401129e-15
6.150000000000000000e+03 9.534659385681152344e+00 -1.026134967803955078e+01 -2.126704303113957639e-13 1.376102736535406157e-13 -2.251804564210382886e-14 1.100882216333379238e-13
6.151000000000000000e+03 7.663554382324218750e+01 -2.750850677490234375e+01 1.200962445539310169e-14 1.881507780522942430e-13 6.004811719476782494e-14 -7.305854326459387815e-14
6.152000000000000000e+03 7.582913208007812500e+01 -2.910080718994140625e+01 -6.655333022968085155e-14 -2.852285871683332696e-14 -2.852285871683332696e-14 -1.501202929869195624e-14
6.153000000000000000e+03 4.339017868041992188e+00 -2.904641723632812500e+01 -6.355093046857968053e-14 -1.416134868875359998e-13 -6.154932385158198849e-14 9.757819552369539906e-14
6.154000000000000000e+03 7.672344207763671875e+01 -2.268426895141601562e+01 1.050842118671072717e-14 4.503608959014176322e-15 4.503608959014176322e-15 1.060850151756061177e-13
6.155000000000000000e+03 7.523385620117187500e+01 -2.425964546203613281e+01 2.101684237342145434e-14 1.691355389077386917e-13 5.704571743366665393e-14 5.004010189747125706e-15
6.156000000000000000e+03 6.387992095947265625e+01 -2.420536231994628906e+01 8.825822424242055209e-14 1.750778070696429323e-13 7.900081142649811872e-14 -2.902325867701685547e-14
6.157000000000000000e+03 6.556864166259765625e+01 -2.325954818725585938e+01 -9.857899544406245607e-14 1.035830085984248972e-13 1.501203056924137712e-15 1.224105994519775198e-13
6.158000000000000000e+03 7.921981811523437500e+00 -4.868216991424560547e+00 -1.851483749030612830e-14 4.038236216773183340e-13 1.155926347478838934e-13 1.271018609371593611e-13
6.159000000000000000e+03 1.078321361541748047e+01 -7.618927955627441406e+00 -1.198460411857074637e-13 1.773921585795576461e-13 1.726383420171551802e-14 2.502005052521915490e-14
6.160000000000000000e+03 7.672087860107421875e+01 -2.188002204895019531e+01 -4.003208151797700565e-14 1.200962343895356499e-13 2.401924891078620339e-14 -1.010810020212436766e-13
6.161000000000000000e+03 7.597689819335937500e+01 -2.426699447631835938e+01 -2.001604075898850282e-14 2.201764432666758475e-13 6.004811719476782494e-14 -8.706977603105056640e-14
6.162000000000000000e+03 7.665727233886718750e+01 -2.670869445800781250e+01 1.401122768425900472e-14 3.262614516660183872e-13 1.020818019416107336e-13 -1.000802037949425141e-14
6.163000000000000000e+03 7.580503082275390625e+01 -2.987178802490234375e+01 1.200962445539310169e-14 1.881507780522942430e-13 6.004811719476782494e-14 -1.090874217129708668e-13
6.164000000000000000e+03 7.668125915527343750e+01 -1.944824409484863281e+01 -6.955573676704560060e-14 2.446960819732502124e-13 5.254210423948774134e-14 -5.504411081666896188e-14
6.165000000000000000e+03 7.599100494384765625e+01 -2.265627861022949219e+01 -1.070858150959731747e-13 1.371098736933570872e-13 9.007217918028352643e-15 -1.140914348673333079e-13
6.166000000000000000e+03 7.591145324707031250e+01 -1.861557388305664062e+01 -1.100882199392720293e-14 4.103288143834406265e-14 9.007217918028352643e-15 5.404330750817011586e-14
6.167000000000000000e+03 7.667655944824218750e+01 -2.590521812438964844e+01 -3.853087824929463112e-14 -1.651323256737433076e-14 -1.651323256737433076e-14 -7.005613842129502361e-15
6.168000000000000000e+03 7.665495300292968750e+01 -1.865144157409667969e+01 -6.355093046857968053e-14 1.851483749030612830e-14 -1.351082687704252897e-14 2.802245536851800944e-14
6.169000000000000000e+03 7.510873413085937500e+01 -1.780973243713378906e+01 -2.552045048540268340e-14 2.406928822917819843e-13 6.455173038894673754e-14 -3.402726844324750755e-14
6.170000000000000000e+03 7.436064910888671875e+01 -3.681339263916015625e+01 3.803047490097931360e-14 6.204972381176551699e-14 3.002405859738391247e-14 -4.703769451307356075e-14
6.171000000000000000e+03 7.636977386474609375e+01 -3.221976470947265625e+01 -4.303448466720996568e-14 7.305854326459387815e-14 9.007217918028352643e-15 -2.101684237342145434e-14
6.172000000000000000e+03 4.132593154907226562e+00 -2.573942184448242188e+01 -5.504410996963601463e-15 -1.396118734942747297e-13 -4.353488801552528320e-14 1.366094737331735587e-13
6.173000000000000000e+03 4.199557304382324219e+00 -2.656040954589843750e+01 2.502005094873562853e-15 -6.755413692631148659e-14 -1.951563910473907981e-14 6.054852393121493148e-14
6.174000000000000000e+03 7.542400360107421875e+01 -3.271809005737304688e+01 -4.093905729284259831e-14 -1.754531002635170006e-14 -1.754531002635170006e-14 -4.503609128420765773e-14
6.175000000000000000e+03 1.384722614288330078e+01 -2.596521377563476562e+01 2.636487795931122952e-14 -7.859423561181605455e-14 -1.566880678753167916e-14 8.491570348354710029e-14
6.176000000000000000e+03 1.337230587005615234e+01 -2.413908004760742188e+01 3.102486190588275849e-14 5.904731727440076794e-14 2.702165375408505793e-14 -8.925903093905118713e-14
6.177000000000000000e+03 7.591043090820312500e+01 -2.670632362365722656e+01 1.951563910473907981e-14 1.456166865690042278e-13 4.953969770212299228e-14 -9.907939540424598457e-14
6.178000000000000000e+03 7.949062347412109375e+00 -5.529149055480957031e+00 -1.886511780124777715e-13 1.936551911668402126e-13 1.501203056924137712e-15 1.911531778133954140e-13
6.179000000000000000e+03 7.596022796630859375e+01 -2.507922935485839844e+01 3.002406113848275424e-15 4.703769451307356075e-14 1.501202929869195624e-14 7.706175649858926224e-14
6.180000000000000000e+03 7.593658447265625000e+01 -2.589658164978027344e+01 -3.953167816966168813e-14 7.455974992140804170e-14 1.050842118671072717e-14 -1.030826086382413687e-13
6.181000000000000000e+03 4.055965423583984375e+00 -2.182745552062988281e+01 -7.656135653840573374e-14 -3.988195949704287369e-13 -1.426142868079030568e-13 -6.004812227696550847e-15
6.182000000000000000e+03 4.532947540283203125e+00 -3.154169845581054688e+01 -1.155926347478838934e-13 -4.953969770212299228e-14 -4.953969770212299228e-14 4.003208151797700565e-14
6.183000000000000000e+03 1.447548103332519531e+01 -2.654531478881835938e+01 5.004010189747125706e-16 2.346880827695796423e-13 7.055654346367623564e-14 3.602887167211341057e-14
6.184000000000000000e+03 1.009760570526123047e+01 -7.388730049133300781e+00 -8.581876935432816711e-14 2.834771805314273418e-13 5.929751725449253219e-14 1.751403519824681898e-13
6.185000000000000000e+03 3.413792371749877930e+00 -1.926241111755371094e+01 1.225982443548486595e-14 -3.150024186805711057e-13 -9.082278250869060821e-14 9.407538902614712151e-14
6.186000000000000000e+03 3.308850049972534180e+00 -2.341408348083496094e+01 4.003208151797700565e-15 -4.403528797570881170e-14 -1.200962445539310169e-14 -2.101684237342145434e-14
6.187000000000000000e+03 4.034097671508789062e+00 -2.414924812316894531e+01 -3.402726844324750755e-14 -1.060850151756061177e-13 -4.203368474684290867e-14 3.702967498061225660e-14
6.188000000000000000e+03 4.069905757904052734e+00 -2.493956756591796875e+01 -7.455974992140804170e-14 -2.607089349092317487e-13 -1.005806020610601481e-13 5.804651735403371093e-14
6.189000000000000000e+03 3.238506555557250977e+00 -1.635933685302734375e+01 1.951563910473907981e-14 -1.746399520222846613e-13 -4.653729455289003225e-14 -1.000802037949425141e-15
6.190000000000000000e+03 7.354813575744628906e+00 -6.391392230987548828e+00 -7.806255641895631925e-14 5.804651735403371093e-14 -6.004812227696550847e-15 -1.301042606982605321e-14
6.191000000000000000e+03 4.951939105987548828e+00 -1.489017868041992188e+01 3.352686848306397904e-14 3.117498121631145924e-13 1.035830085984248972e-13 -2.602085213965210642e-14
6.192000000000000000e+03 3.938850164413452148e+00 -1.341503810882568359e+01 -3.753007494079578510e-14 -1.075862150561567032e-13 -4.353488801552528320e-14 -1.130906281707026728e-13
6.193000000000000000e+03 4.570659160614013672e+00 -5.362972736358642578e+00 -3.352686848306397904e-14 8.506817110811876886e-15 -7.506014649345978118e-15 3.052446194569922999e-14
6.194000000000000000e+03 3.418292760848999023e+00 -8.527033805847167969e+00 7.781235643886455500e-14 1.248500543400699048e-13 6.079872391130669573e-14 -3.502807175174635357e-14
6.195000000000000000e+03 4.260935783386230469e+00 -7.558950901031494141e+00 3.252606517456513302e-15 -1.358588670166346879e-13 -3.978187814975345238e-14 2.301844560228735737e-14
6.196000000000000000e+03 4.350982666015625000e+00 -1.190529727935791016e+01 -1.291034607778934751e-13 -4.213376338362689877e-13 -1.651323256737433076e-13 -1.050842118671072717e-14
6.197000000000000000e+03 3.298157453536987305e+00 -9.365456581115722656e+00 -1.951563910473907981e-14 -1.456166865690042278e-13 -4.953969770212299228e-14 -4.003208151797700565e-15
6.198000000000000000e+03 3.092336416244506836e+00 -1.774229812622070312e+01 -8.757017599123409490e-14 -1.976583908483084406e-13 -8.556856937423640286e-14 -1.401122768425900472e-14
6.199000000000000000e+03 4.683155536651611328e+00 -1.584037208557128906e+01 -2.470729885603855508e-14 1.266640058898010901e-13 3.058701024665627655e-14 -1.791435652164635739e-13
6.200000000000000000e+03 6.998979091644287109e+00 -1.850459861755371094e+01 1.583769194350020948e-13 1.593777193553691518e-13 9.532638892660594276e-14 2.401924891078620339e-14
6.201000000000000000e+03 4.930344581604003906e+00 -1.233648204803466797e+01 3.202566521438160452e-14 -3.202566521438160452e-14 0.000000000000000000e+00 -5.529431079676072613e-14
6.202000000000000000e+03 3.979955434799194336e+00 -9.471173286437988281e+00 -4.103288143834406265e-14 5.104090097080536681e-14 3.002406113848275424e-15 -4.403528797570881170e-14
6.203000000000000000e+03 3.975111484527587891e+00 -1.021398258209228516e+01 -1.701363422162375377e-14 -5.304250758780305885e-14 -2.101684237342145434e-14 -1.040834085586084257e-13
6.204000000000000000e+03 4.591490268707275391e+00 -8.271708488464355469e+00 -9.357498906596359300e-14 1.085870149765237602e-13 4.503608959014176322e-15 -3.890617821943227750e-14
6.205000000000000000e+03 4.844164371490478516e+00 -1.848390388488769531e+01 1.388612769421312260e-14 -2.228035464457711612e-13 -6.267522715012671664e-14 1.441154866884536423e-13
6.206000000000000000e+03 3.740043640136718750e+00 -1.135379123687744141e+01 -6.874258513768147227e-14 -2.946111033624333742e-14 -2.946111033624333742e-14 -9.907939540424598457e-14
6.207000000000000000e+03 4.016136169433593750e+00 -1.262299728393554688e+01 -2.401924891078620339e-14 -5.604491073703601889e-14 -2.401924891078620339e-14 -5.804651735403371093e-14
6.208000000000000000e+03 5.506926536560058594e+00 -1.405312442779541016e+01 -8.356696953350228885e-14 7.856295637913984775e-14 -1.501203056924137712e-15 -9.907939540424598457e-14
6.209000000000000000e+03 5.979330825805664062e+01 -3.027988243103027344e+01 -4.403528797570881170e-14 4.403528797570881170e-14 0.000000000000000000e+00 2.783480538344918626e-14
6.210000000000000000e+03 5.985153961181640625e+01 -2.864493560791015625e+01 -1.701363422162375377e-14 -3.302646513474866152e-14 -1.501202929869195624e-14 1.910906329005701565e-14
6.211000000000000000e+03 3.564608097076416016e+00 -3.383300399780273438e+01 7.349639661788625461e-15 2.319045834271032946e-13 7.177627090772242813e-14 -6.805453688649501509e-14
6.212000000000000000e+03 5.037305355072021484e+00 -3.360548019409179688e+01 1.876503747039789255e-14 -1.063352151556978820e-13 -2.627105211974387067e-14 -1.261010474642651480e-13
6.213000000000000000e+03 5.252164363861083984e+00 -2.980649375915527344e+01 -4.103288143834406265e-14 -1.090874217129708668e-13 -4.503609128420765773e-14 1.090874217129708668e-13
6.214000000000000000e+03 4.106400489807128906e+00 -2.106757164001464844e+01 5.954771723458429644e-14 -2.947361864118203112e-13 -7.055654346367623564e-14 1.000802037949425141e-14
6.215000000000000000e+03 4.267020702362060547e+00 -2.027382850646972656e+01 2.627105211974387067e-14 -3.089976191583687637e-13 -8.481796943396111010e-14 3.803047490097931360e-14
6.216000000000000000e+03 5.384467601776123047e+00 -3.163114356994628906e+01 -2.351884725653678038e-14 5.854691731421723944e-14 1.050842118671072717e-14 3.152526186606628700e-14
6.217000000000000000e+03 7.570985412597656250e+01 -3.208312606811523438e+01 3.753007494079578510e-14 -2.126704303113957639e-13 -5.254210423948774134e-14 -4.703769451307356075e-14
6.218000000000000000e+03 4.280304431915283203e+00 -2.822427749633789062e+01 -5.304250758780305885e-14 2.301844560228735737e-14 -9.007217918028352643e-15 8.306656957331876034e-14
6.219000000000000000e+03 3.725154161453247070e+00 -3.530198669433593750e+01 2.902325867701685547e-14 -7.906335633932337625e-14 -1.501202929869195624e-14 1.551243129175455815e-13
6.220000000000000000e+03 5.908024787902832031e+00 -3.515565872192382812e+01 -1.276022524270134170e-14 -1.198460411857074637e-13 -3.978187814975345238e-14 -1.296038607380770036e-13
6.221000000000000000e+03 1.201406669616699219e+01 -2.249809455871582031e+01 5.004010189747125706e-15 1.851483647386659159e-13 5.704571743366665393e-14 -4.303448466720996568e-14
6.222000000000000000e+03 4.094629287719726562e+00 -4.617642402648925781e+00 -3.002405859738391247e-14 -1.501202997631831404e-13 -5.404330750817011586e-14 5.004010105043830980e-14
6.223000000000000000e+03 6.300660133361816406e+00 -4.897661685943603516e+00 5.004010105043830980e-14 9.007218256841531545e-14 4.203368474684290867e-14 4.653729455289003225e-14
6.224000000000000000e+03 6.320384025573730469e+00 -7.164229869842529297e+00 -7.506014988159157020e-14 2.652125209983563492e-13 5.704571743366665393e-14 -6.855493684667854359e-14
6.225000000000000000e+03 4.223705291748046875e+00 -6.776167392730712891e+00 -1.451162866088206993e-13 -8.506816941405287436e-14 -6.905533680686207210e-14 -3.602887167211341057e-14
6.226000000000000000e+03 5.293072223663330078e+00 -5.485894203186035156e+00 9.557658890669770702e-14 1.095878216731543953e-13 6.154932385158198849e-14 1.010810020212436766e-13
6.227000000000000000e+03 1.631601715087890625e+01 -2.729481887817382812e+01 -7.518525325976924134e-14 1.965324875497637125e-13 3.640417164225105695e-14 8.006416303595401129e-15
6.228000000000000000e+03 7.349442291259765625e+01 -1.702824211120605469e+01 1.050842118671072717e-14 -3.157530389496371326e-13 -9.157338244896590096e-14 -6.405133042876320904e-14
6.229000000000000000e+03 7.433895111083984375e+01 -1.780448722839355469e+01 3.002405859738391247e-14 -1.000802037949425141e-14 6.004812227696550847e-15 -1.100882199392720293e-14
6.230000000000000000e+03 8.407032966613769531e+00 -1.760218048095703125e+01 7.005613842129502361e-15 2.632109211576222352e-13 8.106496295632106830e-14 -8.694467095880700075e-15
6.231000000000000000e+03 9.412847518920898438e+00 -2.081936264038085938e+01 -7.861768487192784260e-15 3.626382505915459742e-13 1.064329492052838722e-13 -1.629430775420062649e-13
6.232000000000000000e+03 9.940488815307617188e+00 -2.030316734313964844e+01 5.435605917735071568e-14 2.978011446382738958e-13 1.056471601282478467e-13 -2.101684237342145434e-14
6.233000000000000000e+03 6.204582214355468750e+01 -2.612024879455566406e+01 -3.277626515465689727e-14 -1.098380216532461595e-13 -4.278428468711820143e-14 -1.087433908111140601e-13
6.234000000000000000e+03 1.811424446105957031e+01 -2.762823486328125000e+01 8.757017937936588392e-15 3.753007324672989059e-15 3.753007324672989059e-15 -7.506014988159157020e-14
6.235000000000000000e+03 1.275482559204101562e+01 -7.555638790130615234e+00 4.553649124439118623e-14 1.951563910473907981e-14 1.951563910473907981e-14 2.802245536851800944e-14
6.236000000000000000e+03 1.589734172821044922e+01 -9.142346382141113281e+00 1.851483749030612830e-14 -8.356696953350228885e-14 -1.951563910473907981e-14 -1.140914348673333079e-13
6.237000000000000000e+03 1.598846912384033203e+01 -8.357625007629394531e+00 -3.352686848306397904e-14 -1.516214996437337259e-13 -5.554451077685249039e-14 2.201764398785440585e-14
6.238000000000000000e+03 6.163170242309570312e+01 -2.744629669189453125e+01 1.551243095294137925e-14 2.952365863720038397e-14 1.351082687704252897e-14 -1.135910281308862013e-13
6.239000000000000000e+03 6.326788330078125000e+01 -2.495478439331054688e+01 -9.570169228487537816e-14 1.419887834695418571e-13 1.388612769421312260e-14 7.906335633932337625e-14
6.240000000000000000e+03 6.779969787597656250e+01 -2.009312057495117188e+01 -1.020192570287854761e-13 -4.372253630652821188e-14 -4.372253630652821188e-14 5.004010189747125706e-15
6.241000000000000000e+03 6.741803741455078125e+01 -2.066667556762695312e+01 -3.602887167211341057e-14 7.606094980195862720e-14 1.200962445539310169e-14 2.502005094873562853e-16
6.242000000000000000e+03 8.556318283081054688e+00 -5.486690521240234375e+00 -4.903929774193946378e-14 2.992397996059992238e-13 7.506014988159157020e-14 1.090874217129708668e-13
6.243000000000000000e+03 6.777201080322265625e+01 -1.908165168762207031e+01 -2.419907908768597488e-15 2.277176385824530858e-13 6.758931928680864121e-14 6.830473686658677934e-14
6.244000000000000000e+03 6.148605728149414062e+01 -2.666104507446289062e+01 -5.654531408535133641e-14 -5.854691731421723944e-14 -3.452766840343103605e-14 -1.055846084391590112e-13
6.245000000000000000e+03 6.261948776245117188e+01 -2.555911827087402344e+01 9.132317908074234769e-15 4.966480108030066343e-14 1.763913586591905891e-14 -6.305052373213257400e-14
6.246000000000000000e+03 5.632793807983398438e+01 -3.206005859375000000e+01 -1.080866150163402317e-13 -1.200962445539310169e-14 -3.602887167211341057e-14 -7.055654346367623564e-14
6.247000000000000000e+03 8.481310844421386719e+00 -1.979926681518554688e+01 5.110345265989420238e-14 1.134033798398832726e-13 4.935204941112006360e-14 1.601283260719080226e-14
6.248000000000000000e+03 1.574075794219970703e+01 -9.892851829528808594e+00 1.401122768425900472e-14 6.004812227696550847e-15 6.004812227696550847e-15 1.240994476235310340e-13
6.249000000000000000e+03 1.704355430603027344e+01 -8.971841812133789062e+00 8.381716951359405310e-14 -1.013312020013354409e-13 -5.254210593355363584e-15 -6.605293026949732305e-14
6.250000000000000000e+03 1.344948196411132812e+01 -8.977467536926269531e+00 -2.151724233360498284e-14 3.652927163229693908e-14 4.503608959014176322e-15 1.351082687704252897e-14
6.251000000000000000e+03 1.194900703430175781e+01 -8.679450035095214844e+00 -8.306656957331876034e-14 3.302646513474866152e-14 -1.501202929869195624e-14 1.921539912862896271e-13
6.252000000000000000e+03 6.998527526855468750e+01 -1.833697891235351562e+01 1.596279261117244941e-13 2.056648173162992088e-13 1.095878216731543953e-13 -1.331066604593617031e-13
6.253000000000000000e+03 6.864812469482421875e+01 -1.817539596557617188e+01 -2.176744400776264160e-14 2.194258365501369767e-13 5.929751725449253219e-14 1.000802021008766196e-13
6.254000000000000000e+03 6.909664154052734375e+01 -1.871542930603027344e+01 -5.654531408535133641e-14 2.151724233360498284e-14 -1.050842118671072717e-14 -5.304250758780305885e-14
6.255000000000000000e+03 7.061710357666015625e+01 -1.766116333007812500e+01 1.050842084789754827e-13 3.652927298754965468e-13 1.411130869273524713e-13 1.100882199392720293e-14
6.256000000000000000e+03 1.497834491729736328e+01 -9.599938392639160156e+00 -3.027426196560746574e-14 3.277626515465689727e-14 7.506015284620688559e-16 -2.401924891078620339e-14
6.257000000000000000e+03 2.628896522521972656e+01 -3.378429412841796875e+01 -8.832077593150938766e-14 -1.293536539817216613e-13 -6.530233032922203029e-14 5.554451077685249039e-14
6.258000000000000000e+03 1.768917655944824219e+01 -2.840353393554687500e+01 -8.769527259314818801e-14 5.391820751812423373e-14 -1.013312036954013354e-14 -2.401924891078620339e-14
6.259000000000000000e+03 1.110859298706054688e+01 -2.212220764160156250e+01 -3.039936195565334787e-14 1.242245510017087051e-13 2.814755705262978608e-14 -6.104892389139845998e-14
6.260000000000000000e+03 6.590553283691406250e+00 -1.446510124206542969e+01 7.155734338404329264e-14 2.136712302317628209e-13 8.556856937423640286e-14 -9.207378240914942946e-14
6.261000000000000000e+03 6.827582359313964844e+00 -1.267296409606933594e+01 8.631917609077527365e-14 3.114996325118135623e-13 1.193456412255239352e-13 -1.421138868477195283e-13
6.262000000000000000e+03 8.483001708984375000e+00 -9.870493888854980469e+00 -2.862919320015255842e-13 1.518091479347366546e-13 -4.034482979902581645e-14 -1.261010474642651480e-13
6.263000000000000000e+03 7.621865081787109375e+01 -3.557343292236328125e+01 3.437129256884073614e-14 1.473055516812166871e-14 1.473055516812166871e-14 -9.007217918028352643e-15
6.264000000000000000e+03 7.431644439697265625e+00 -1.296220016479492188e+01 5.554451077685249039e-14 6.955573676704560060e-14 3.753007494079578510e-14 -4.503608959014176322e-15
6.265000000000000000e+03 7.858572006225585938e+00 -1.113034820556640625e+01 -1.936551911668402126e-13 1.686351389475551632e-13 -7.506014649345978118e-15 -5.754611739385018243e-14
6.266000000000000000e+03 7.272943878173828125e+01 -1.701791954040527344e+01 5.004010105043830980e-14 2.502004950877961820e-13 9.007218256841531545e-14 -2.001604075898850282e-15
6.267000000000000000e+03 7.527124786376953125e+01 -2.100381088256835938e+01 1.651323256737433076e-14 2.587073079634433226e-13 8.256616283687165381e-14 -3.002405859738391247e-14
6.268000000000000000e+03 1.269201087951660156e+01 -2.589826011657714844e+01 4.090778144829818053e-14 -1.197209378075297925e-13 -2.364394724658266250e-14 1.401122768425900472e-14
6.269000000000000000e+03 2.337120056152343750e+01 -3.378952026367187500e+01 -1.170938346284344789e-13 7.005613842129502361e-15 -3.302646513474866152e-14 1.751403587587317678e-14
6.270000000000000000e+03 2.180985641479492188e+01 -3.338102340698242188e+01 -9.507618894651417851e-14 -7.506014988159157020e-14 -5.104090097080536681e-14 6.630313024958908730e-14
6.271000000000000000e+03 4.582943344116210938e+01 -3.652005386352539062e+01 -1.223480409866251062e-13 -3.527827173183811782e-14 -4.728789449316532501e-14 -4.841379779171005315e-14
6.272000000000000000e+03 5.269066619873046875e+01 -3.459916687011718750e+01 -1.120898214740720378e-13 -4.803849782157240678e-14 -4.803849782157240678e-14 -2.458219886599267295e-14
6.273000000000000000e+03 4.468728637695312500e+01 -3.817661285400390625e+01 -1.225669685103042417e-13 -1.554683302668752320e-13 -8.341059369891198894e-14 -1.601283260719080226e-14
6.274000000000000000e+03 6.127132034301757812e+01 -2.841291427612304688e+01 4.753809362622414200e-15 4.778829445334885351e-14 1.576263093303314350e-14 7.005613842129502361e-15
6.275000000000000000e+03 3.556811523437500000e+01 -3.742758941650390625e+01 -1.161712192372307828e-13 -2.691219168631138470e-14 -4.292502429350218696e-14 -3.377706846315574329e-14
6.276000000000000000e+03 7.510598754882812500e+01 -3.648498153686523438e+01 6.805453688649501509e-14 -1.080866150163402317e-13 -1.200962445539310169e-14 -4.503609128420765773e-14
6.277000000000000000e+03 7.830293273925781250e+01 -4.088238143920898438e+01 -1.348580670962676309e-13 1.023320019217024979e-13 -9.757819552369539906e-15 -2.401924891078620339e-14
6.278000000000000000e+03 7.497792816162109375e+01 -3.398452758789062500e+01 -7.405934996122451319e-14 1.741395520621011328e-13 3.002405859738391247e-14 -3.102486190588275849e-14
6.279000000000000000e+03 2.004651451110839844e+01 -2.929454612731933594e+01 -4.356616386006970099e-14 -1.867121163083053370e-14 -1.867121163083053370e-14 -5.704571743366665393e-14
6.280000000000000000e+03 2.022720336914062500e+01 -3.078093910217285156e+01 -7.455974992140804170e-14 -1.005806020610601481e-13 -5.254210423948774134e-14 -6.305052373213257400e-14
6.281000000000000000e+03 3.955717468261718750e+01 -3.752765274047851562e+01 -1.155926347478838934e-13 -4.953969770212299228e-14 -4.953969770212299228e-14 7.005613842129502361e-15
6.282000000000000000e+03 6.930687427520751953e+00 -4.151069259643554688e+01 -4.516119127425353985e-14 2.639615210978975279e-14 -5.629511410525957216e-15 2.426944889087796764e-14
6.283000000000000000e+03 4.300858020782470703e+00 -3.708548736572265625e+01 -1.876503747039789255e-14 2.627105211974387067e-14 2.251804479507088161e-15 -7.756215476470689624e-15
6.284000000000000000e+03 5.495484161376953125e+01 -3.179822540283203125e+01 -1.476182999622654979e-13 6.255012377194904549e-14 -2.552045048540268340e-14 2.451964887096973189e-14
6.285000000000000000e+03 4.324845504760742188e+01 -3.667229080200195312e+01 -1.561876577507378960e-13 1.688853359630316121e-15 -4.634964287375531455e-14 1.050842118671072717e-14
6.286000000000000000e+03 3.693168640136718750e+01 -3.856935882568359375e+01 -1.010810020212436766e-13 3.102486190588275849e-14 -2.101684237342145434e-14 2.333119727146795719e-14
6.287000000000000000e+03 2.677133560180664062e+01 -3.497044372558593750e+01 -8.957178260823178695e-14 -1.551243095294137925e-14 -3.152526186606628700e-14 5.054050101062183831e-14
6.288000000000000000e+03 6.381281852722167969e+00 -3.718874359130859375e+01 -2.089174238337557221e-14 7.468484652332213480e-14 1.613793259723668438e-14 -5.657658992989575419e-14
6.289000000000000000e+03 5.061990737915039062e+01 -3.451551437377929688e+01 -1.462421899073654274e-13 -6.267522715012671664e-14 -6.267522715012671664e-14 -6.555253030931379454e-14
6.290000000000000000e+03 1.019381618499755859e+01 -2.194225883483886719e+01 -7.756215476470689624e-15 2.254306496248664748e-13 6.530233032922203029e-14 -5.004010189747125706e-15
6.291000000000000000e+03 1.425266456604003906e+01 -7.989637851715087891e+00 6.955573676704560060e-14 -2.446960819732502124e-13 -5.254210423948774134e-14 5.004010105043830980e-14
6.292000000000000000e+03 1.312726688385009766e+01 -6.794994354248046875e+00 9.757819552369539906e-14 -7.255814330441034965e-14 7.506014649345978118e-15 -5.904731727440076794e-14
6.293000000000000000e+03 1.349402904510498047e+01 -8.196163177490234375e+00 -8.556856937423640286e-14 -2.196760433064923190e-13 -9.157338244896590096e-14 6.855493684667854359e-14
6.294000000000000000e+03 6.800227355957031250e+01 -2.354935073852539062e+01 8.181556289659636105e-14 8.081476297622930405e-14 4.878909776184769953e-14 -1.451162933850842773e-14
6.295000000000000000e+03 8.973503112792968750e+00 -6.262769699096679688e+00 -1.120898214740720378e-13 2.722181475459800604e-13 4.803849782157240678e-14 -2.101684237342145434e-14
6.296000000000000000e+03 7.586939239501953125e+01 -1.783206176757812500e+01 2.201764398785440585e-14 7.806255641895631925e-14 3.002405859738391247e-14 2.001604075898850282e-14
6.297000000000000000e+03 6.502869415283203125e+01 -2.404304504394531250e+01 1.726383420171551802e-14 -3.978187814975345238e-14 -6.755413438521264483e-15 1.227233511211581196e-13
6.298000000000000000e+03 6.617344665527343750e+01 -2.366286659240722656e+01 1.451162933850842773e-14 -3.953167816966168813e-14 -7.506014649345978118e-15 6.480193036903850179e-14
6.299000000000000000e+03 1.130283451080322266e+01 -6.298778057098388672e+00 3.903127820947815962e-14 2.912333731380084556e-13 9.907939540424598457e-14 2.552045048540268340e-14
6.300000000000000000e+03 1.059262084960937500e+01 -6.058514595031738281e+00 -5.904731727440076794e-14 -7.105694342385976414e-14 -3.903127820947815962e-14 1.110890215537049808e-13
6.301000000000000000e+03 1.223320102691650391e+01 -7.465398311614990234e+00 5.704571743366665393e-14 -6.705373696612795809e-14 -3.002406113848275424e-15 1.020818019416107336e-13
6.302000000000000000e+03 1.254917526245117188e+01 -7.007031440734863281e+00 5.767121399576427554e-14 -2.040385140575709522e-13 -4.391018798566292958e-14 1.150922347877003649e-13
6.303000000000000000e+03 7.502539825439453125e+01 -2.992460441589355469e+01 2.101684237342145434e-14 9.007217918028352643e-15 9.007217918028352643e-15 -1.030826086382413687e-13
6.304000000000000000e+03 9.890948295593261719e+00 -5.843020439147949219e+00 -8.506817110811876886e-15 -2.652125379390152943e-14 -1.050842118671072717e-14 3.152526186606628700e-14
6.305000000000000000e+03 8.037308692932128906e+00 -6.561683177947998047e+00 -1.110890215537049808e-13 1.811451650571976879e-13 2.101684237342145434e-14 1.741395520621011328e-13
6.306000000000000000e+03 7.506712341308593750e+01 -3.140455436706542969e+01 -3.252606517456513302e-14 7.756215645877279075e-14 1.351082687704252897e-14 -4.803849782157240678e-14
6.307000000000000000e+03 1.321860885620117188e+01 -2.648842430114746094e+01 -2.652125379390152943e-14 -1.486190998826325549e-13 -5.254210423948774134e-14 4.403528797570881170e-14
6.308000000000000000e+03 1.280980968475341797e+01 -2.465931320190429688e+01 5.354290754798658736e-14 2.517017085208739235e-13 9.157338244896590096e-14 -2.952365863720038397e-14
6.309000000000000000e+03 7.585864257812500000e+01 -2.830782127380371094e+01 -1.501202929869195624e-14 8.506816941405287436e-14 2.101684237342145434e-14 -1.571259127582796955e-13
6.310000000000000000e+03 4.415657997131347656e+00 -2.987378883361816406e+01 -1.451162933850842773e-14 3.953167816966168813e-14 7.506014649345978118e-15 6.405133042876320904e-14
6.311000000000000000e+03 7.278729248046875000e+01 -1.782251167297363281e+01 2.552045048540268340e-14 -8.056456299613753980e-14 -1.651323256737433076e-14 1.421138868477195283e-13
6.312000000000000000e+03 4.488773822784423828e+00 -3.071589279174804688e+01 -4.903929774193946378e-14 -3.412734775765785544e-13 -1.170938346284344789e-13 2.201764398785440585e-14
6.313000000000000000e+03 8.321446418762207031e+00 -5.996958732604980469e+00 -2.361892690976030718e-13 3.602887167211341057e-14 -6.004811719476782494e-14 2.747201608994248589e-13
6.314000000000000000e+03 7.449166870117187500e+01 -2.343704032897949219e+01 3.352686848306397904e-14 -8.506817110811876886e-15 7.506014649345978118e-15 -1.601283260719080226e-14
6.315000000000000000e+03 7.524185943603515625e+01 -2.344495582580566406e+01 -1.000802021008766196e-13 -2.001604075898850282e-14 -3.602887167211341057e-14 -1.421138868477195283e-13
6.316000000000000000e+03 7.588556671142578125e+01 -2.750644493103027344e+01 3.853087824929463112e-14 3.367698643823996418e-13 1.125902282105191443e-13 -1.200962445539310169e-14
6.317000000000000000e+03 7.505819702148437500e+01 -2.914104652404785156e+01 1.501203056924137712e-15 2.351884725653678038e-14 7.506014649345978118e-15 -1.200962343895356499e-13
6.318000000000000000e+03 4.752955436706542969e+00 -2.484701538085937500e+01 -4.403528797570881170e-14 -1.561251128379126385e-13 -6.004811719476782494e-14 1.321058605389946461e-13
6.319000000000000000e+03 7.599157714843750000e+01 -2.103383827209472656e+01 -1.045838085187919542e-13 -9.057258252859884395e-14 -5.854691731421723944e-14 -6.104892389139845998e-14
6.320000000000000000e+03 7.525093078613281250e+01 -2.263247489929199219e+01 3.903127820947815962e-14 1.311050606186275891e-13 5.104090097080536681e-14 4.903929774193946378e-14
6.321000000000000000e+03 4.772216796875000000e+00 -2.256099128723144531e+01 3.602887167211341057e-14 -2.361892690976030718e-13 -6.004811719476782494e-14 9.407538902614712151e-14
6.322000000000000000e+03 7.526376342773437500e+01 -2.182087898254394531e+01 -6.405133042876320904e-14 6.405133042876320904e-14 0.000000000000000000e+00 -5.504411081666896188e-14
6.323000000000000000e+03 4.244246959686279297e+00 -2.739346504211425781e+01 -8.406736949368581735e-14 -1.961571909677578551e-13 -8.406736949368581735e-14 1.881507780522942430e-13
6.324000000000000000e+03 4.848175048828125000e+00 -2.562035560607910156e+01 1.801443583605670529e-14 -3.803047490097931360e-14 -6.004812227696550847e-15 -3.702967498061225660e-14
6.325000000000000000e+03 7.594818115234375000e+01 -1.941039657592773438e+01 -5.454371085648543338e-14 -5.004010189747125706e-16 -1.651323256737433076e-14 2.802245536851800944e-14
6.326000000000000000e+03 7.525633239746093750e+01 -2.018701934814453125e+01 -3.002405859738391247e-14 1.000802037949425141e-14 -6.004812227696550847e-15 -2.902325867701685547e-14
6.327000000000000000e+03 7.448729705810546875e+01 -1.937723159790039062e+01 5.604491073703601889e-14 1.841475648182988589e-13 7.205774334422682115e-14 -4.703769451307356075e-14
6.328000000000000000e+03 7.516381072998046875e+01 -1.859323310852050781e+01 5.004010189747125706e-16 -4.553649124439118623e-14 -1.351082687704252897e-14 -1.000802037949425141e-14
6.329000000000000000e+03 7.512794494628906250e+01 -2.752748489379882812e+01 5.604491073703601889e-14 3.442758773376797254e-13 1.200962343895356499e-13 -1.321058605389946461e-13
6.330000000000000000e+03 5.023536682128906250e+00 -2.816664314270019531e+01 -1.215974478226133915e-13 -1.436150867282701138e-13 -7.956375629950690476e-14 1.215974478226133915e-13
6.331000000000000000e+03 5.277971267700195312e+00 -3.260091400146484375e+01 -8.156536291650459680e-14 -1.035830085984248972e-13 -5.554451077685249039e-14 4.303448466720996568e-14
6.332000000000000000e+03 7.510421752929687500e+01 -2.833625602722167969e+01 -2.652125379390152943e-14 1.716375387086563342e-13 4.353488801552528320e-14 -5.204170427930421283e-14
6.333000000000000000e+03 4.038443565368652344e+00 -2.258750152587890625e+01 1.015814019814272051e-13 4.353488801552528320e-14 4.353488801552528320e-14 3.302646513474866152e-14
6.334000000000000000e+03 5.230933666229248047e+00 -1.902533149719238281e+01 -6.255012631304788726e-15 -2.614595280732434635e-13 -8.031436301604577555e-14 -1.876503747039789255e-14
6.335000000000000000e+03 7.522314453125000000e+01 -2.507705307006835938e+01 -4.253408470702643718e-14 1.876503780921107145e-13 4.353488801552528320e-14 -1.651323256737433076e-13
6.336000000000000000e+03 7.519837188720703125e+01 -2.590291976928710938e+01 2.051644071917203133e-14 5.454371085648543338e-14 2.251804564210382886e-14 -1.901523745048965680e-14
6.337000000000000000e+03 5.820028781890869141e+00 -2.422309303283691406e+01 -2.502005094873562853e-15 -9.257418236933295796e-14 -2.852285871683332696e-14 -3.602887167211341057e-14
6.338000000000000000e+03 4.729994773864746094e+00 -1.419261169433593750e+01 -2.652125379390152943e-14 -1.486190998826325549e-13 -5.254210423948774134e-14 -2.401924891078620339e-14
6.339000000000000000e+03 3.943388938903808594e+00 -1.418552303314208984e+01 -9.757819552369539906e-15 8.731997601114233065e-14 2.326864727644501613e-14 3.502807175174635357e-14
6.340000000000000000e+03 4.704187393188476562e+00 -2.409638786315917969e+01 1.651323256737433076e-14 -2.216776431472264330e-13 -6.154932385158198849e-14 7.506014988159157020e-14
6.341000000000000000e+03 4.959816455841064453e+00 -2.646329116821289062e+01 -9.957980214069309111e-14 -2.256808563812218171e-13 -9.757819552369539906e-14 1.561251128379126385e-13
6.342000000000000000e+03 5.690145969390869141e+00 -6.379212856292724609e+00 -1.215974478226133915e-13 -1.436150867282701138e-13 -7.956375629950690476e-14 3.402726844324750755e-14
6.343000000000000000e+03 6.019280433654785156e+00 -5.658803939819335938e+00 -8.006416303595401129e-15 1.681347389873716347e-13 4.803849782157240678e-14 7.731195647868102649e-14
6.344000000000000000e+03 4.354467868804931641e+00 -6.046558856964111328e+00 3.502806921064751181e-15 1.616295259524586081e-13 4.953969770212299228e-14 2.301844560228735737e-14
6.345000000000000000e+03 4.355682849884033203e+00 -1.523287677764892578e+01 -5.929751725449253219e-14 -2.084170238735721936e-13 -8.031436301604577555e-14 2.001604075898850282e-14
6.346000000000000000e+03 4.105089187622070312e+00 -8.784184455871582031e+00 6.605293026949732305e-14 7.405934996122451319e-14 4.203368474684290867e-14 3.903127820947815962e-14
6.347000000000000000e+03 4.641321182250976562e+00 -1.348538017272949219e+01 1.351082687704252897e-14 5.154130431912068433e-14 1.951563910473907981e-14 3.903127820947815962e-14
6.348000000000000000e+03 4.787847518920898438e+00 -2.114138031005859375e+01 -2.652125379390152943e-14 -4.688757520264486001e-13 -1.486190998826325549e-13 1.080866150163402317e-13
6.349000000000000000e+03 3.661714076995849609e+00 -1.745354843139648438e+01 2.139214234355910071e-14 -2.653376379290611764e-13 -7.318364664277154930e-14 1.301042606982605321e-14
6.350000000000000000e+03 6.136284828186035156e+00 -1.886911010742187500e+01 -5.504410996963601463e-15 -5.954771723458429644e-14 -1.951563910473907981e-14 7.506014649345978118e-15
6.351000000000000000e+03 4.797913074493408203e+00 -2.181413078308105469e+01 3.402726844324750755e-14 -2.141716301919463494e-13 -5.404330750817011586e-14 5.804651735403371093e-14
6.352000000000000000e+03 4.054236888885498047e+00 -1.623827362060546875e+01 -9.007218256841531545e-14 -1.301042606982605321e-13 -6.605293026949732305e-14 9.007217918028352643e-15
6.353000000000000000e+03 5.209392070770263672e+00 -7.896520614624023438e+00 -5.054050101062183831e-14 1.155926347478838934e-13 1.951563910473907981e-14 2.902325867701685547e-14
6.354000000000000000e+03 4.995491027832031250e+00 -9.894306182861328125e+00 -4.337851218093498329e-14 1.256319267367578263e-13 2.467602470556003180e-14 -3.541216731200828860e-14
6.355000000000000000e+03 4.568069458007812500e+00 -1.040081787109375000e+01 7.105694342385976414e-14 -1.411130869273524713e-13 -2.101684237342145434e-14 -1.976583908483084406e-14
6.356000000000000000e+03 4.651599884033203125e+00 -1.284166908264160156e+01 -1.716375387086563342e-13 -7.355895000104098469e-14 -7.355895000104098469e-14 2.301844560228735737e-14
6.357000000000000000e+03 5.073029518127441406e+00 -8.877203941345214844e+00 -1.138412281109779656e-13 -4.878909776184769953e-14 -4.878909776184769953e-14 1.401122768425900472e-14
6.358000000000000000e+03 7.959316253662109375e+00 -1.024005222320556641e+01 -3.002405995263662808e-13 2.602085213965210642e-13 -1.200962445539310169e-14 -2.871050700783625564e-14
6.359000000000000000e+03 4.179602146148681641e+00 -1.085927009582519531e+01 4.666239454293591438e-14 -1.630056224548315225e-13 -3.490296837356868243e-14 -4.803849782157240678e-14
6.360000000000000000e+03 4.683517932891845703e+00 -1.956626319885253906e+01 6.455173038894673754e-14 -1.696359388679222202e-13 -3.152526186606628700e-14 1.568757195544515093e-13
6.361000000000000000e+03 7.415697479248046875e+01 -3.378150939941406250e+01 -1.851483749030612830e-14 -1.566255127980961670e-13 -5.254210423948774134e-14 -6.555253030931379454e-14
6.362000000000000000e+03 7.474912261962890625e+01 -3.562894439697265625e+01 -6.755413692631148659e-14 6.255012377194904549e-14 -1.501203056924137712e-15 -2.001604075898850282e-15
6.363000000000000000e+03 8.954851150512695312e+00 -2.030084800720214844e+01 6.689736113153765817e-14 -6.283160298471701655e-14 1.219727444046192488e-15 1.271018609371593611e-13
6.364000000000000000e+03 7.504415130615234375e+01 -3.067142677307128906e+01 5.654531408535133641e-14 -2.151724233360498284e-14 1.050842118671072717e-14 -1.691355389077386917e-13
6.365000000000000000e+03 4.786897182464599609e+00 -3.465277099609375000e+01 -3.114996189592864062e-14 3.240096518451925089e-14 3.753007642310344279e-16 1.851483647386659159e-13
6.366000000000000000e+03 7.408142566680908203e+00 -3.160905647277832031e+01 -1.138412281109779656e-13 -2.089174238337557221e-13 -9.682759558342010631e-14 6.555253030931379454e-14
6.367000000000000000e+03 5.004742622375488281e+00 -2.733411026000976562e+01 -3.853087824929463112e-14 -1.651323256737433076e-14 -1.651323256737433076e-14 -2.001604075898850282e-15
6.368000000000000000e+03 7.438316345214843750e+01 -3.234112930297851562e+01 -1.230986477031639770e-13 1.531227130768114675e-13 9.007217918028352643e-15 -2.401924891078620339e-14
6.369000000000000000e+03 1.428225135803222656e+01 -2.730896186828613281e+01 -1.010810020212436766e-13 7.105694342385976414e-14 -9.007217918028352643e-15 5.354290754798658736e-14
6.370000000000000000e+03 4.861290931701660156e+00 -6.794559478759765625e+00 7.806255641895631925e-14 -5.804651735403371093e-14 6.004812227696550847e-15 1.010810020212436766e-13
6.371000000000000000e+03 5.051371574401855469e+00 -6.168648719787597656e+00 -8.506816941405287436e-14 5.504411081666896188e-14 -9.007217918028352643e-15 5.104090097080536681e-14
6.372000000000000000e+03 6.569574737548828125e+01 -2.445168113708496094e+01 5.504411081666896188e-14 1.951563910473907981e-13 7.506014988159157020e-14 1.551243129175455815e-13
6.373000000000000000e+03 1.364809513092041016e+01 -2.982714462280273438e+01 -4.278428468711820143e-14 2.104186237143063076e-13 5.029030103053007406e-14 2.151724233360498284e-14
6.374000000000000000e+03 1.500485038757324219e+01 -2.716786956787109375e+01 -4.103288143834406265e-14 1.311050606186275891e-13 2.702165375408505793e-14 4.278428468711820143e-14
6.375000000000000000e+03 7.455217742919921875e+01 -2.016657257080078125e+01 1.451162933850842773e-14 1.205966479022463345e-13 4.053248147816053415e-14 -4.603689120457471473e-14
6.376000000000000000e+03 7.372660160064697266e+00 -1.139282798767089844e+01 -1.421138868477195283e-13 2.421940957248597259e-13 3.002405859738391247e-14 -1.159679313298897507e-13
6.377000000000000000e+03 8.470868110656738281e+00 -1.870392036437988281e+01 -8.506817110811876886e-15 4.538636990108341207e-13 1.336070739720723877e-13 -3.002405859738391247e-14
6.378000000000000000e+03 9.516714096069335938e+00 -9.504211425781250000e+00 -1.456166865690042278e-13 2.807249604216272010e-13 4.053248147816053415e-14 2.101684169579509653e-13
6.379000000000000000e+03 6.384879684448242188e+01 -2.541195487976074219e+01 0.000000000000000000e+00 0.000000000000000000e+00 0.000000000000000000e+00 -3.778027492088754935e-14
6.380000000000000000e+03 7.870112895965576172e+00 -1.711279106140136719e+01 1.050842118671072717e-14 -5.554451077685249039e-14 -1.351082687704252897e-14 -7.968885967768457590e-14
6.381000000000000000e+03 1.597185611724853516e+01 -2.819071769714355469e+01 -5.004010189747125706e-16 4.553649124439118623e-14 1.351082687704252897e-14 -8.006416303595401129e-15
6.382000000000000000e+03 1.666531372070312500e+01 -2.852032852172851562e+01 -7.731195647868102649e-14 1.498701065593549542e-13 2.176744400776264160e-14 2.101684237342145434e-14
6.383000000000000000e+03 6.518422603607177734e+00 -1.302767944335937500e+01 -1.781427517435693608e-13 -4.203368474684290867e-14 -6.605293026949732305e-14 -5.729591741375841818e-14
6.384000000000000000e+03 6.943829059600830078e+00 -1.220376968383789062e+01 -6.305052373213257400e-14 2.932350000837968818e-13 6.905533680686207210e-14 -1.050842084789754827e-13
6.385000000000000000e+03 5.984253406524658203e+00 -1.675962257385253906e+01 -5.504411081666896188e-14 -1.150922347877003649e-13 -5.104090097080536681e-14 2.502005052521915490e-14
6.386000000000000000e+03 7.198417663574218750e+01 -1.699268150329589844e+01 2.401924891078620339e-14 5.604491073703601889e-14 2.401924891078620339e-14 -5.604491073703601889e-14
6.387000000000000000e+03 6.439654541015625000e+01 -2.472229957580566406e+01 -5.454371085648543338e-14 1.596279261117244941e-13 3.152526186606628700e-14 5.204170427930421283e-14
6.388000000000000000e+03 1.025494670867919922e+01 -9.663726806640625000e+00 -2.792237469885494594e-13 2.692157477848788893e-13 -3.002406113848275424e-15 1.556247128777291100e-13
6.389000000000000000e+03 1.126600551605224609e+01 -8.490691184997558594e+00 -3.652927163229693908e-14 1.215974478226133915e-13 2.552045048540268340e-14 1.871499781319271860e-13
6.390000000000000000e+03 9.151771545410156250e+00 -7.818120002746582031e+00 -1.391114735340912012e-13 1.691355389077386917e-13 9.007217918028352643e-15 7.005614350349270714e-14
6.391000000000000000e+03 8.906813621520996094e+00 -2.135822868347167969e+01 3.665437501047461022e-14 1.072109116978872678e-13 4.315958804538763682e-14 2.702165375408505793e-14
6.392000000000000000e+03 6.860652923583984375e+01 -2.007016181945800781e+01 -3.265116516461101515e-14 1.690104355295610206e-13 4.090778144829818053e-14 9.807859548387892756e-14
6.393000000000000000e+03 1.501303577423095703e+01 -2.897110939025878906e+01 -4.253408470702643718e-14 2.752205540833448094e-14 -4.503608959014176322e-15 -2.001604075898850282e-15
6.394000000000000000e+03 1.833287429809570312e+01 -2.884679794311523438e+01 6.505213034913026604e-15 -1.115894215138885093e-13 -3.152526186606628700e-14 -1.063352151556978820e-13
6.395000000000000000e+03 6.271448516845703125e+01 -2.639956855773925781e+01 -1.090874217129708668e-13 -1.000802037949425141e-15 -3.302646513474866152e-14 -1.130906281707026728e-13
6.396000000000000000e+03 1.266448211669921875e+01 -8.842761993408203125e+00 -7.706175649858926224e-14 -3.302646513474866152e-14 -3.302646513474866152e-14 1.511210996835501974e-13
6.397000000000000000e+03 6.905872344970703125e+01 -1.972271156311035156e+01 -8.018925963786810440e-14 1.138412281109779656e-14 -2.064154070921791345e-14 -6.004812227696550847e-15
6.398000000000000000e+03 6.820652008056640625e+01 -1.959054183959960938e+01 -6.367602707049377364e-14 1.099631182551602526e-13 1.388612769421312260e-14 2.602085213965210642e-14
6.399000000000000000e+03 1.214628982543945312e+01 -2.474091720581054688e+01 2.126704235351321859e-14 -1.738893453057457905e-13 -4.578669122448295048e-14 1.501202929869195624e-14
6.400000000000000000e+03 7.130530548095703125e+01 -1.771483039855957031e+01 1.140914348673333079e-13 1.861491782115601290e-13 9.007218256841531545e-14 5.304250758780305885e-14
6.401000000000000000e+03 1.880739212036132812e+01 -3.064554214477539062e+01 -9.707779556351187056e-14 -3.302646513474866152e-14 -3.903127820947815962e-14 -4.378508799561704745e-14
6.402000000000000000e+03 1.208846855163574219e+01 -8.045420646667480469e+00 1.851483749030612830e-14 2.366896826103137563e-13 7.656135653840573374e-14 2.311852694957677867e-13
6.403000000000000000e+03 7.356048583984375000e+01 -1.781505012512207031e+01 -3.702967498061225660e-14 1.671339390670045777e-13 3.903127820947815962e-14 -6.605293026949732305e-14
6.404000000000000000e+03 7.456702423095703125e+01 -2.097180557250976562e+01 -4.703769451307356075e-14 1.170938346284344789e-13 2.101684237342145434e-14 2.902325867701685547e-14
6.405000000000000000e+03 1.244244194030761719e+01 -2.414732170104980469e+01 1.009559054193295835e-13 1.805196617188364883e-13 8.444266607569167471e-14 -3.002406113848275424e-15
6.406000000000000000e+03 2.052145957946777344e+01 -3.259533309936523438e+01 -4.581796706902736827e-14 2.611467797921946526e-14 -5.910986811645665626e-15 -1.751403587587317678e-14
6.407000000000000000e+03 7.125653839111328125e+01 -1.695949935913085938e+01 -6.104892389139845998e-14 1.110890215537049808e-13 1.501202929869195624e-14 1.801443583605670529e-14
6.408000000000000000e+03 7.061945343017578125e+01 -1.835690879821777344e+01 1.801443583605670529e-14 -3.803047490097931360e-14 -6.004812227696550847e-15 9.907939540424598457e-14
6.409000000000000000e+03 6.256687927246093750e+01 -3.118283843994140625e+01 2.301844560228735737e-14 2.702165375408505793e-14 1.501202929869195624e-14 -1.951563910473907981e-14
6.410000000000000000e+03 6.250394439697265625e+01 -2.753475761413574219e+01 0.000000000000000000e+00 0.000000000000000000e+00 0.000000000000000000e+00 -1.851483647386659159e-13
6.411000000000000000e+03 6.973222255706787109e+00 -1.348569488525390625e+01 9.807859548387892756e-14 1.220978477827969200e-13 6.605293026949732305e-14 -1.214723444444357203e-13
6.412000000000000000e+03 5.972096920013427734e+00 -1.099364757537841797e+01 -1.515902339635846752e-13 -1.564691437397694451e-13 -9.241781331100623609e-14 -1.401122870069854143e-13
6.413000000000000000e+03 7.311151885986328125e+01 -3.602840042114257812e+01 -1.163432279118956081e-13 1.788933584601082316e-13 1.876503747039789255e-14 -2.852285871683332696e-14
6.414000000000000000e+03 4.442465782165527344e+00 -3.558652496337890625e+01 -3.990698152793112352e-14 2.864795870687920909e-14 -3.377706719260632241e-15 -1.170938346284344789e-13
6.415000000000000000e+03 6.361229896545410156e+00 -3.278639602661132812e+01 -4.778829445334885351e-14 -1.348580670962676309e-13 -5.479391083657719763e-14 3.002405859738391247e-14
6.416000000000000000e+03 7.401129913330078125e+01 -3.579548263549804688e+01 -4.828869780166417103e-14 -8.932157585187644466e-14 -4.128308141843582690e-14 -5.404330750817011586e-14
6.417000000000000000e+03 1.080776691436767578e+01 -2.309443855285644531e+01 -5.479391083657719763e-14 2.226784396794617010e-14 -9.757819552369539906e-15 -8.206576287668812530e-14
6.418000000000000000e+03 7.588789367675781250e+01 -3.404740142822265625e+01 1.676343424153198952e-14 -8.431756947377758160e-14 -2.026624073908026707e-14 -1.401122768425900472e-14
6.419000000000000000e+03 1.655595207214355469e+01 -2.928657722473144531e+01 -3.652927163229693908e-14 -3.853087824929463112e-14 -2.251804564210382886e-14 -1.701363422162375377e-14
6.420000000000000000e+03 1.670681571960449219e+01 -3.028920936584472656e+01 -1.448660934049925131e-13 5.229190425939597708e-14 -2.777225538842624519e-14 -4.453568793589234021e-14
6.421000000000000000e+03 1.952940368652343750e+01 -3.163470458984375000e+01 -7.506014988159157020e-14 -3.502807175174635357e-14 -3.302646513474866152e-14 -2.461347471053709074e-14
6.422000000000000000e+03 1.949045753479003906e+01 -3.002039909362792969e+01 -5.704571743366665393e-14 7.005613842129502361e-15 -1.501202929869195624e-14 -2.695910375906211687e-14
6.423000000000000000e+03 5.878091430664062500e+01 -3.111933517456054688e+01 -1.256006475040816195e-13 -9.957980214069309111e-14 -6.755413692631148659e-14 -1.195958344293521214e-13
6.424000000000000000e+03 4.154506683349609375e+01 -3.746218109130859375e+01 -1.363592669768182164e-13 -8.131516293641283255e-14 -6.530233032922203029e-14 4.003208151797700565e-15
6.425000000000000000e+03 7.422891998291015625e+01 -4.031745910644531250e+01 -4.178348476675114442e-14 -4.078268145825229840e-14 -2.476984885106149614e-14 1.401122768425900472e-14
6.426000000000000000e+03 2.927506637573242188e+01 -3.714668273925781250e+01 -7.405934996122451319e-14 1.401122768425900472e-14 -1.801443583605670529e-14 1.125902282105191443e-14
6.427000000000000000e+03 3.202251052856445312e+01 -4.134489059448242188e+01 -1.049591118770613896e-13 -5.642021409530545428e-14 -4.841379779171005315e-14 1.876503747039789255e-14
6.428000000000000000e+03 4.785341262817382812e+01 -3.534355163574218750e+01 -1.593777193553691518e-13 -6.830473686658677934e-14 -6.830473686658677934e-14 -2.502005052521915490e-14
6.429000000000000000e+03 4.769287872314453125e+01 -3.699829864501953125e+01 -1.342325637579064312e-13 -1.147169246531673514e-13 -7.468484652332213480e-14 5.004010189747125706e-16
6.430000000000000000e+03 2.515069198608398438e+01 -3.559876632690429688e+01 -8.782037597132585915e-14 -1.476182931860019198e-14 -3.077466192579099424e-14 1.150922280114367868e-14
6.431000000000000000e+03 3.143805885314941406e+01 -3.921251678466796875e+01 -1.313552673749829314e-13 -5.629511410525957216e-14 -5.629511410525957216e-14 -3.327666511484042577e-14
6.432000000000000000e+03 3.136558723449707031e+01 -3.739372253417968750e+01 -1.262261508424428191e-13 -4.265918469707231930e-14 -5.066560100066772043e-14 -3.753007494079578510e-14
6.433000000000000000e+03 5.983765792846679688e+01 -3.485259246826171875e+01 -1.212221376880803780e-13 -1.763913586591905891e-14 -4.165838477670526230e-14 -2.001604075898850282e-15
6.434000000000000000e+03 5.762599945068359375e+01 -3.179295730590820312e+01 -1.341074739322559162e-13 3.402726844324750755e-14 -3.002405859738391247e-14 -3.903127820947815962e-14
6.435000000000000000e+03 5.148145294189453125e+01 -3.587747573852539062e+01 -8.484924189037373887e-14 -1.049903843334740183e-13 -5.695188651190161155e-14 3.252606517456513302e-14
6.436000000000000000e+03 5.621580505371093750e+01 -3.061254119873046875e+01 -1.611291259922750796e-13 9.107298248878237246e-14 -2.101684237342145434e-14 -3.502806921064751181e-15
6.437000000000000000e+03 5.415663528442382812e+01 -3.565103149414062500e+01 -1.053344084590672469e-13 -2.226784396794617010e-14 -3.828067826920286687e-14 1.251002526260957745e-14
6.438000000000000000e+03 3.916223907470703125e+01 -3.932626724243164062e+01 -1.073360150760649390e-13 -8.031436301604577555e-14 -5.629511410525957216e-14 -2.677145377399329368e-14
6.439000000000000000e+03 3.835214996337890625e+01 -3.571729660034179688e+01 -9.707779556351187056e-14 2.702165375408505793e-14 -2.101684237342145434e-14 -2.001604075898850282e-14
6.440000000000000000e+03 3.391503524780273438e+01 -3.854397201538085938e+01 -8.706977603105056640e-14 -8.306656957331876034e-14 -5.104090097080536681e-14 8.731997601114233065e-14
6.441000000000000000e+03 1.115329074859619141e+01 -3.726780700683593750e+01 -5.954771723458429644e-14 5.454371085648543338e-14 -1.501203056924137712e-15 7.030634348358447139e-14
6.442000000000000000e+03 7.818550586700439453e+00 -3.834751510620117188e+01 -2.902325867701685547e-14 7.906335633932337625e-14 1.501202929869195624e-14 9.155774283262779756e-14
6.443000000000000000e+03 5.276735782623291016e+00 -3.626136779785156250e+01 -3.928147818956992388e-14 7.180754336413505690e-14 9.757819552369539906e-15 7.455974992140804170e-14
6.444000000000000000e+03 4.980016231536865234e+00 -3.828896331787109375e+01 -4.078268145825229840e-14 2.827265704267566820e-14 -3.753007324672989059e-15 1.951563910473907981e-14
6.445000000000000000e+03 9.831596374511718750e+00 -2.136410140991210938e+01 -2.570810216453740110e-14 -1.025196569889690046e-13 -3.846832656020579555e-14 2.101684237342145434e-14
6.446000000000000000e+03 8.662018775939941406e+00 -2.363322257995605469e+01 -2.101684237342145434e-14 1.511210996835501974e-13 3.903127820947815962e-14 -3.652927163229693908e-14
6.447000000000000000e+03 5.213568210601806641e+00 -1.550833129882812500e+01 -2.802245536851800944e-14 1.481186999224490264e-13 3.602887167211341057e-14 -7.005613842129502361e-15
6.448000000000000000e+03 5.396779537200927734e+00 -1.815795135498046875e+01 -3.753007324672989059e-15 -1.388612803302630150e-13 -4.278428468711820143e-14 -6.705373696612795809e-14
6.449000000000000000e+03 8.079679489135742188e+00 -9.315820693969726562e+00 2.251804564210382886e-14 1.926543912464731556e-13 6.455173038894673754e-14 8.006416303595401129e-14
6.450000000000000000e+03 9.668197631835937500e+00 -8.761675834655761719e+00 -2.712173476256130034e-13 3.412734775765785544e-13 2.101684237342145434e-14 1.110890215537049808e-13
6.451000000000000000e+03 1.144544982910156250e+01 -7.843179225921630859e+00 -4.853889778175593528e-14 -6.655333022968085155e-14 -3.452766840343103605e-14 1.981587908084919691e-13
6.452000000000000000e+03 7.289007186889648438e+00 -6.971490383148193359e+00 -3.252606517456513302e-14 3.978187950500616799e-13 1.095878216731543953e-13 1.401122768425900472e-14
6.453000000000000000e+03 1.102506828308105469e+01 -6.957348346710205078e+00 -4.478589130411589347e-14 7.230794332431858540e-14 8.256616283687165381e-15 2.702165375408505793e-14
6.454000000000000000e+03 7.419304656982421875e+01 -3.004775619506835938e+01 -5.504410996963601463e-15 2.051644071917203133e-14 4.503608959014176322e-15 -1.205966479022463345e-13
6.455000000000000000e+03 7.004104614257812500e+01 -1.898474311828613281e+01 -2.401924891078620339e-14 -2.161732300326804634e-13 -7.205774334422682115e-14 -1.681347389873716347e-13
6.456000000000000000e+03 7.328421783447265625e+01 -2.022448158264160156e+01 2.652125379390152943e-14 1.486190998826325549e-13 5.254210423948774134e-14 -1.311050606186275891e-13
6.457000000000000000e+03 7.429286193847656250e+01 -2.919034576416015625e+01 -4.503608959014176322e-15 8.957178260823178695e-14 2.552045048540268340e-14 -1.286030608177099466e-13
6.458000000000000000e+03 8.460142135620117188e+00 -7.516235828399658203e+00 -1.546239129573620530e-13 1.396118734942747297e-13 -4.503608959014176322e-15 1.000802021008766196e-13
6.459000000000000000e+03 1.034022808074951172e+01 -6.723096847534179688e+00 -9.007217918028352643e-15 1.791435652164635739e-13 5.104090097080536681e-14 1.351082738526229732e-13
6.460000000000000000e+03 5.913382530212402344e+00 -2.882396125793457031e+01 -1.426142868079030568e-13 -1.526222995641007829e-13 -8.857097591160115191e-14 8.306656957331876034e-14
6.461000000000000000e+03 5.127133369445800781e+00 -2.897132110595703125e+01 -1.165934346682509504e-13 4.153328478665938017e-14 -2.251804564210382886e-14 4.903929774193946378e-14
6.462000000000000000e+03 6.065839767456054688e+00 -9.029447555541992188e+00 -2.156728300724969349e-13 -9.507618725244828400e-15 -6.755413692631148659e-14 -6.280032375204080974e-14
6.463000000000000000e+03 5.533413410186767578e+00 -9.453914642333984375e+00 -1.444907832704594997e-13 -6.192462720985142388e-14 -6.192462720985142388e-14 -1.200962445539310169e-14
6.464000000000000000e+03 1.247058391571044922e+01 -2.666359519958496094e+01 -1.251002526260957745e-14 1.751403587587317678e-14 1.501203056924137712e-15 -7.005613842129502361e-15
6.465000000000000000e+03 6.680797576904296875e+01 -2.404777717590332031e+01 -3.502807175174635357e-14 1.651323256737433076e-13 3.903127820947815962e-14 3.246351348547629745e-14
6.466000000000000000e+03 7.438175201416015625e+01 -3.149731636047363281e+01 6.605293026949732305e-14 7.405934996122451319e-14 4.203368474684290867e-14 -1.251002475438980910e-13
6.467000000000000000e+03 6.108309745788574219e+00 -2.968351554870605469e+01 -1.901523745048965680e-14 1.291034607778934751e-13 3.302646513474866152e-14 -4.003208151797700565e-14
6.468000000000000000e+03 7.373792266845703125e+01 -2.257383918762207031e+01 1.150922280114367868e-14 7.355895000104098469e-14 2.552045048540268340e-14 1.501203056924137712e-15
6.469000000000000000e+03 7.450248718261718750e+01 -2.260644149780273438e+01 -1.200962445539310169e-14 -2.802245536851800944e-14 -1.200962445539310169e-14 -1.671339390670045777e-13
6.470000000000000000e+03 1.143116474151611328e+01 -2.444467163085937500e+01 7.205774334422682115e-14 1.681347389873716347e-13 7.205774334422682115e-14 5.904731727440076794e-14
6.471000000000000000e+03 5.402498245239257812e+00 -2.469770240783691406e+01 -5.254210423948774134e-14 -3.427746910096562960e-13 -1.185950345089850644e-13 -1.361090737729900302e-13
6.472000000000000000e+03 7.515619659423828125e+01 -2.672224617004394531e+01 -6.004812227696550847e-15 6.605293026949732305e-14 1.801443583605670529e-14 -1.170938346284344789e-13
6.473000000000000000e+03 5.389195442199707031e+00 -2.334702491760253906e+01 -7.005613842129502361e-15 -1.631307258330091936e-13 -5.104090097080536681e-14 -6.355093046857968053e-14
6.474000000000000000e+03 6.251758575439453125e+00 -6.547074794769287109e+00 -9.507618894651417851e-14 5.004010189747125706e-15 -2.702165375408505793e-14 -7.706175649858926224e-14
6.475000000000000000e+03 7.830823898315429688e+00 -7.197190284729003906e+00 -8.832077593150938766e-14 -1.293536539817216613e-13 -6.530233032922203029e-14 5.704571743366665393e-14
6.476000000000000000e+03 6.761619567871093750e+01 -2.172777938842773438e+01 9.807859548387892756e-14 2.822261738547049426e-13 1.140914348673333079e-13 -6.480193036903850179e-14
6.477000000000000000e+03 6.714579010009765625e+01 -2.236483764648437500e+01 4.503609128420765773e-14 6.505213034913026604e-14 3.302646513474866152e-14 -1.964073909478496194e-14
6.478000000000000000e+03 5.489255905151367188e+00 -2.256344223022460938e+01 -3.753007494079578510e-14 -1.075862150561567032e-13 -4.353488801552528320e-14 -3.502807175174635357e-14
6.479000000000000000e+03 4.726866245269775391e+00 -2.333000183105468750e+01 -1.200962445539310169e-14 -1.881507780522942430e-13 -6.004811719476782494e-14 1.361090737729900302e-13
6.480000000000000000e+03 7.453234100341796875e+01 -2.178596687316894531e+01 2.702165375408505793e-14 1.030826086382413687e-13 3.903127820947815962e-14 7.005613842129502361e-15
6.481000000000000000e+03 6.233096599578857422e+00 -3.396585083007812500e+01 -3.202566521438160452e-14 3.202566521438160452e-14 0.000000000000000000e+00 1.291034607778934751e-13
6.482000000000000000e+03 7.571997642517089844e+00 -3.425835037231445312e+01 -5.854691731421723944e-14 -1.165934346682509504e-13 -5.254210423948774134e-14 1.851483749030612830e-14
6.483000000000000000e+03 7.438053131103515625e+01 -2.838372230529785156e+01 -6.505213034913026604e-15 1.115894215138885093e-13 3.152526186606628700e-14 -1.621299259126421366e-13
6.484000000000000000e+03 6.291033744812011719e+00 -2.778952598571777344e+01 -9.701524387442303499e-14 -4.622454288370943243e-14 -4.297193636625291913e-14 4.580623735677379071e-14
6.485000000000000000e+03 6.883903980255126953e+00 -2.553831481933593750e+01 -3.677947500052049234e-14 -3.360192712183879271e-13 -1.118396214939802735e-13 8.606896933441993136e-14
6.486000000000000000e+03 7.448096466064453125e+01 -2.427150344848632812e+01 -8.506817110811876886e-15 1.336070739720723877e-13 3.753007494079578510e-14 -2.231788430277770185e-13
6.487000000000000000e+03 7.438594818115234375e+01 -2.674733352661132812e+01 6.505213034913026604e-15 4.853889778175593528e-14 1.651323256737433076e-14 -3.352686848306397904e-14
6.488000000000000000e+03 6.643072128295898438e+00 -1.916351318359375000e+01 -8.807057595141762341e-14 8.006416303595401129e-15 -2.401924891078620339e-14 -9.007217918028352643e-15
6.489000000000000000e+03 7.448815917968750000e+01 -2.509698295593261719e+01 5.004010189747125706e-15 1.851483647386659159e-13 5.704571743366665393e-14 -4.303448466720996568e-14
6.490000000000000000e+03 7.374884796142578125e+01 -2.343511581420898438e+01 7.405934996122451319e-14 1.461170865291877563e-13 6.605293026949732305e-14 -9.507618894651417851e-14
6.491000000000000000e+03 5.912971973419189453e+00 -1.534638595581054688e+01 1.551243129175455815e-13 1.351082738526229732e-13 8.706977603105056640e-14 -9.407538902614712151e-14
6.492000000000000000e+03 6.308568954467773438e+00 -1.256845664978027344e+01 3.803047490097931360e-14 3.823063556267908281e-13 1.261010474642651480e-13 3.402726844324750755e-14
6.493000000000000000e+03 7.063459873199462891e+00 -7.386173725128173828e+00 -6.716319395170394779e-14 3.372233590460960162e-13 8.101805088357033613e-14 5.329270756789482311e-14
6.494000000000000000e+03 4.902894020080566406e+00 -7.349365234375000000e+00 -1.431146867680865853e-13 -2.672141479441447753e-13 -1.230986477031639770e-13 -4.453568793589234021e-14
6.495000000000000000e+03 4.337445735931396484e+00 -1.704062461853027344e+01 -1.951563910473907981e-14 1.746399520222846613e-13 4.653729455289003225e-14 9.607699564314481355e-14
6.496000000000000000e+03 4.586861610412597656e+00 -1.781061744689941406e+01 4.328468803543351895e-14 -2.559551149586974939e-13 -6.380113044867144478e-14 4.003208151797700565e-14
6.497000000000000000e+03 5.417675018310546875e+00 -2.101156806945800781e+01 -3.002405859738391247e-14 1.000802037949425141e-14 -6.004812227696550847e-15 -1.651323256737433076e-14
6.498000000000000000e+03 4.560170650482177734e+00 -9.302455902099609375e+00 -8.494307281213878125e-14 -3.640417164225105695e-14 -3.640417164225105695e-14 -1.501202929869195624e-14
6.499000000000000000e+03 5.615977287292480469e+00 -8.467711448669433594e+00 -8.156536291650459680e-14 5.654531408535133641e-14 -7.506014649345978118e-15 -1.889013746044377468e-14
6.500000000000000000e+03 5.749514102935791016e+00 -1.267580413818359375e+01 -1.065854151357896462e-13 -2.286832561423229881e-13 -1.005806020610601481e-13 -1.326062604991781746e-13
6.501000000000000000e+03 6.157233238220214844e+00 -8.071434974670410156e+00 -1.832718682761094731e-13 1.044587119168778611e-13 -2.364394724658266250e-14 -1.271018609371593611e-13
6.502000000000000000e+03 4.724038124084472656e+00 -1.131845474243164062e+01 1.701363422162375377e-14 5.304250758780305885e-14 2.101684237342145434e-14 -5.404330750817011586e-14
6.503000000000000000e+03 6.532865047454833984e+00 -9.567122459411621094e+00 -2.286832561423229881e-13 1.351082687704252897e-14 -6.455173038894673754e-14 -8.394226611550814621e-14
6.504000000000000000e+03 4.942544460296630859e+00 -2.056825065612792969e+01 1.160930347080674219e-13 4.003208151797700565e-15 3.602887167211341057e-14 1.481186999224490264e-13
6.505000000000000000e+03 6.331485748291015625e+00 -2.177253150939941406e+01 -2.351884725653678038e-14 -1.015814019814272051e-13 -3.753007494079578510e-14 -2.001604075898850282e-15
6.506000000000000000e+03 5.322720527648925781e+00 -1.342838287353515625e+01 -5.404330750817011586e-14 1.140914348673333079e-13 1.801443583605670529e-14 -1.721379386688398627e-13
6.507000000000000000e+03 5.052452564239501953e+00 -1.084932994842529297e+01 -7.531034986168333445e-14 -1.223480409866251062e-13 -5.929751725449253219e-14 -4.378508799561704745e-14
6.508000000000000000e+03 5.368551731109619141e+00 -1.138091373443603516e+01 -3.753007494079578510e-14 -1.075862150561567032e-13 -4.353488801552528320e-14 -2.602085213965210642e-14
6.509000000000000000e+03 6.695850372314453125e+00 -2.852675819396972656e+01 -2.176744400776264160e-14 -1.008308020411519124e-13 -3.677947500052049234e-14 -8.006416303595401129e-15
6.510000000000000000e+03 6.204896450042724609e+00 -2.616937828063964844e+01 -7.255814330441034965e-14 -1.225982477429804485e-13 -5.854691731421723944e-14 1.371098736933570872e-13
6.511000000000000000e+03 1.265519332885742188e+01 -2.752835464477539062e+01 -7.005614350349270714e-14 -3.002405859738391247e-14 -3.002405859738391247e-14 1.311050606186275891e-13
6.512000000000000000e+03 1.349469947814941406e+01 -2.738622856140136719e+01 7.606094980195862720e-14 1.240994476235310340e-13 6.004811719476782494e-14 4.003208151797700565e-15
6.513000000000000000e+03 7.374131774902343750e+01 -3.135730171203613281e+01 6.655333022968085155e-14 2.687153342721682048e-13 1.005806020610601481e-13 9.257418745153064149e-15
6.514000000000000000e+03 7.350781250000000000e+01 -3.235591506958007812e+01 -2.552045048540268340e-14 -7.956375629950690476e-14 -3.152526186606628700e-14 -1.446158866486371708e-13
6.515000000000000000e+03 7.428590393066406250e+01 -3.081114196777343750e+01 -9.607699564314481355e-14 9.607699564314481355e-14 0.000000000000000000e+00 -1.401122768425900472e-14
6.516000000000000000e+03 6.821788787841796875e+00 -6.983953952789306641e+00 -7.405934996122451319e-14 3.342678781340091554e-13 7.806255641895631925e-14 1.921539912862896271e-13
6.517000000000000000e+03 5.773020744323730469e+00 -7.484354972839355469e+00 -1.593777193553691518e-13 -6.830473686658677934e-14 -6.830473686658677934e-14 -1.801443583605670529e-14
6.518000000000000000e+03 8.432546615600585938e+00 -2.090436363220214844e+01 -1.556247128777291100e-13 7.055654346367623564e-14 -2.552045048540268340e-14 -1.100882199392720293e-14
6.519000000000000000e+03 1.447750091552734375e+01 -2.829772758483886719e+01 -1.251002526260957745e-14 1.776423517833858323e-13 4.953969770212299228e-14 2.201764398785440585e-14
6.520000000000000000e+03 8.016131401062011719e+00 -1.930964469909667969e+01 1.419887834695418571e-13 -3.064956193574511212e-14 3.340176849301809692e-14 -6.004812227696550847e-15
6.521000000000000000e+03 7.914377212524414062e+00 -2.042794036865234375e+01 3.953167816966168813e-14 -5.454371085648543338e-14 -4.503608959014176322e-15 -4.253408555405938443e-15
6.522000000000000000e+03 6.457779693603515625e+01 -2.543932342529296875e+01 1.526223097284961500e-14 5.229190425939597708e-14 2.026624073908026707e-14 1.271018609371593611e-13
6.523000000000000000e+03 7.367803096771240234e+00 -1.778324127197265625e+01 -4.466078792593822233e-14 3.011163096210828227e-13 7.693665312041159110e-14 -1.451162866088206993e-13
6.524000000000000000e+03 6.540377807617187500e+01 -2.539296150207519531e+01 -9.307458910578006450e-14 -1.701363422162375377e-14 -3.302646513474866152e-14 3.702967498061225660e-14
6.525000000000000000e+03 1.050452899932861328e+01 -2.253366088867187500e+01 -2.176744400776264160e-14 -1.008308020411519124e-13 -3.677947500052049234e-14 9.207378240914942946e-14
6.526000000000000000e+03 9.869131088256835938e+00 -8.064414978027343750e+00 -8.406736949368581735e-14 1.240994476235310340e-13 1.200962445539310169e-14 5.304250758780305885e-14
6.527000000000000000e+03 8.887964248657226562e+00 -8.531897544860839844e+00 -8.431756947377758160e-14 4.671243318370155162e-13 1.148420280313450226e-13 -3.602887167211341057e-14
6.528000000000000000e+03 1.473718929290771484e+01 -3.012176704406738281e+01 -1.125902282105191443e-13 -2.502005094873562853e-15 -3.452766840343103605e-14 -2.151724233360498284e-14
6.529000000000000000e+03 6.775428009033203125e+01 -2.284263801574707031e+01 -4.761628239055223921e-14 -2.040697865139835809e-14 -2.040697865139835809e-14 -6.905533680686207210e-14
6.530000000000000000e+03 6.262779712677001953e+00 -1.383886432647705078e+01 3.753007494079578510e-14 1.075862150561567032e-13 4.353488801552528320e-14 -1.155926347478838934e-13
6.531000000000000000e+03 5.970143318176269531e+00 -1.326120853424072266e+01 3.502806921064751181e-15 1.501203056924137712e-15 1.501203056924137712e-15 -1.531227130768114675e-13
6.532000000000000000e+03 5.732861995697021484e+00 -1.468786334991455078e+01 3.903127820947815962e-14 -2.902325867701685547e-14 3.002406113848275424e-15 -1.581267126786467525e-13
6.533000000000000000e+03 7.363937377929687500e+01 -1.862067413330078125e+01 5.604491073703601889e-14 1.841475648182988589e-13 7.205774334422682115e-14 -2.351884725653678038e-14
6.534000000000000000e+03 6.444039916992187500e+01 -2.639663887023925781e+01 -7.656135653840573374e-14 -7.856295637913984775e-14 -4.653729455289003225e-14 -4.853889778175593528e-14
6.535000000000000000e+03 6.701033115386962891e+00 -1.751157379150390625e+01 8.456776945386934585e-14 -9.507618725244828400e-15 2.251804564210382886e-14 1.371098736933570872e-13
6.536000000000000000e+03 1.210313987731933594e+01 -2.370351791381835938e+01 -3.302646513474866152e-14 1.230986477031639770e-13 2.702165375408505793e-14 1.801443583605670529e-14
6.537000000000000000e+03 1.192573165893554688e+01 -2.553443336486816406e+01 -4.003208151797700565e-15 1.240994476235310340e-13 3.602887167211341057e-14 5.104090097080536681e-14
6.538000000000000000e+03 6.357080459594726562e+01 -2.639762496948242188e+01 -1.551243095294137925e-14 1.306046606584440606e-13 3.452766840343103605e-14 1.901523745048965680e-14
6.539000000000000000e+03 6.346293258666992188e+01 -2.756000518798828125e+01 -5.054050101062183831e-14 -4.453568793589234021e-14 -2.852285871683332696e-14 2.351884725653678038e-14
6.540000000000000000e+03 6.800076293945312500e+01 -2.107213401794433594e+01 -7.556054984177509870e-14 -8.957178260823178695e-14 -4.953969770212299228e-14 -2.251804564210382886e-14
6.541000000000000000e+03 6.941607666015625000e+01 -2.037310981750488281e+01 1.210970478624298630e-13 1.891515779726613000e-13 9.307458910578006450e-14 3.502807175174635357e-14
6.542000000000000000e+03 6.993402099609375000e+01 -1.989544296264648438e+01 7.674900482940866242e-14 -5.860946900330607501e-14 5.441861001940660400e-15 -1.160930347080674219e-13
6.543000000000000000e+03 7.128647613525390625e+01 -1.846905517578125000e+01 1.100882199392720293e-14 2.792237469885494594e-13 8.706977603105056640e-14 -9.207378240914942946e-14
6.544000000000000000e+03 6.953592681884765625e+01 -1.929775238037109375e+01 6.893024020494797899e-14 2.125453269332180928e-13 8.444266607569167471e-14 1.601283260719080226e-14
6.545000000000000000e+03 7.073398590087890625e+00 -1.174007034301757812e+01 -1.473680932059101556e-13 1.198460411857074637e-13 -8.256616283687165381e-15 -1.281026608575264181e-13
6.546000000000000000e+03 6.189524078369140625e+01 -3.327997207641601562e+01 -7.868805975731751889e-14 3.490296837356868243e-14 -1.313552605987193533e-14 2.502005094873562853e-15
6.547000000000000000e+03 7.056970977783203125e+01 -1.897499465942382812e+01 -2.201764398785440585e-14 8.206576287668812530e-14 1.801443583605670529e-14 8.306656957331876034e-14
6.548000000000000000e+03 1.963667869567871094e+01 -3.376856231689453125e+01 -1.367658427915002806e-13 -1.043648809951128187e-13 -7.233922255699479220e-14 1.701363422162375377e-14
6.549000000000000000e+03 1.831915664672851562e+01 -2.968920326232910156e+01 -6.104892389139845998e-14 1.110890215537049808e-13 1.501202929869195624e-14 -6.980593674713736485e-14
6.550000000000000000e+03 1.201148128509521484e+01 -2.316425704956054688e+01 -1.351082687704252897e-14 2.687153342721682048e-13 7.656135653840573374e-14 -5.604491073703601889e-14
6.551000000000000000e+03 8.895036697387695312e+00 -2.228802299499511719e+01 9.588934057587830684e-14 1.436776316410953713e-13 7.187009505322389247e-14 9.970489874260718421e-14
6.552000000000000000e+03 4.258986282348632812e+01 -4.141502761840820312e+01 -1.329815706337111880e-13 -6.842984024476445049e-14 -6.042342055303726034e-14 -2.426944889087796764e-14
6.553000000000000000e+03 4.111018753051757812e+01 -3.595212173461914062e+01 -1.038332085785166614e-13 1.251002547436781426e-15 -3.077466192579099424e-14 2.051644071917203133e-14
6.554000000000000000e+03 5.658826446533203125e+01 -3.407516098022460938e+01 -1.183448413051568782e-13 4.078268145825229840e-14 -2.326864727644501613e-14 8.256616283687165381e-15
6.555000000000000000e+03 1.585020160675048828e+01 -3.176063346862792969e+01 -1.073360150760649390e-13 7.981396305586224704e-14 -8.256616283687165381e-15 5.004010189747125706e-16
6.556000000000000000e+03 3.818472290039062500e+01 -4.139107513427734375e+01 -1.083368149964319960e-13 -1.093376216930626310e-13 -6.530233032922203029e-14 2.476984885106149614e-14
6.557000000000000000e+03 5.170033645629882812e+01 -4.113578033447265625e+01 -9.213633409823826503e-14 -1.424266385169001281e-13 -7.036888839640972892e-14 -1.663833255742021289e-14
6.558000000000000000e+03 2.110740470886230469e+01 -3.499861526489257812e+01 -6.179952383167375274e-14 1.926543912464731556e-14 -1.276022524270134170e-14 -6.004812227696550847e-15
6.559000000000000000e+03 2.284506225585937500e+01 -3.810826492309570312e+01 -7.862550806822868332e-14 -1.082117200885837974e-14 -2.683400376901623474e-14 -3.002406113848275424e-15
6.560000000000000000e+03 2.310633850097656250e+01 -3.570072174072265625e+01 -1.182197379269792070e-13 -5.066560100066772043e-14 -5.066560100066772043e-14 1.976583908483084406e-14
6.561000000000000000e+03 8.719154357910156250e+00 -6.873637676239013672e+00 -1.170938346284344789e-13 8.706977603105056640e-14 -9.007217918028352643e-15 9.307458910578006450e-14
6.562000000000000000e+03 7.660602569580078125e+00 -8.721777915954589844e+00 -1.163432279118956081e-13 2.489494884110737827e-13 3.978187814975345238e-14 1.040834085586084257e-13
6.563000000000000000e+03 7.299737548828125000e+01 -3.103860092163085938e+01 -7.330875002094922044e-14 1.058348151955143535e-13 9.757819552369539906e-15 -1.120898214740720378e-13
6.564000000000000000e+03 1.057756805419921875e+01 -8.284269332885742188e+00 -1.566255127980961670e-13 1.616295259524586081e-13 1.501203056924137712e-15 1.351082738526229732e-13
6.565000000000000000e+03 6.709934234619140625e+01 -2.551824760437011719e+01 3.002405859738391247e-14 1.501202997631831404e-13 5.404330750817011586e-14 -4.403528797570881170e-14
6.566000000000000000e+03 7.324025726318359375e+01 -2.733603668212890625e+01 -2.552045048540268340e-14 -3.197562386311053606e-13 -1.035830085984248972e-13 -1.326062604991781746e-13
6.567000000000000000e+03 9.404337882995605469e+00 -7.145449161529541016e+00 -1.153424279915285511e-13 8.782037597132585915e-14 -8.256616283687165381e-15 2.001604075898850282e-14
6.568000000000000000e+03 7.356929779052734375e+01 -2.916831588745117188e+01 1.451162933850842773e-14 1.205966479022463345e-13 4.053248147816053415e-14 -1.030826086382413687e-13
6.569000000000000000e+03 9.320987701416015625e+00 -2.183284759521484375e+01 -9.507618894651417851e-14 2.852285736158061136e-13 5.704571743366665393e-14 -9.269928574751062911e-14
6.570000000000000000e+03 5.994930267333984375e+00 -2.345145416259765625e+01 3.402726844324750755e-14 -2.141716301919463494e-13 -5.404330750817011586e-14 8.006416303595401129e-15
6.571000000000000000e+03 5.172313690185546875e+00 -1.683008766174316406e+01 -1.276022524270134170e-14 -2.799743672576154863e-13 -8.782037597132585915e-14 -7.105694342385976414e-14
6.572000000000000000e+03 7.215297222137451172e+00 -3.049793434143066406e+01 -1.000802037949425141e-14 2.702165477052459464e-13 7.806255641895631925e-14 3.602887167211341057e-14
6.573000000000000000e+03 7.519086360931396484e+00 -9.691591262817382812e+00 -4.203368474684290867e-14 1.421138868477195283e-13 3.002405859738391247e-14 3.240096518451925089e-14
6.574000000000000000e+03 8.748981475830078125e+00 -9.289220809936523438e+00 -7.405934996122451319e-14 3.342678781340091554e-13 7.806255641895631925e-14 -2.802245536851800944e-14
6.575000000000000000e+03 6.887065124511718750e+01 -2.438504600524902344e+01 1.160930347080674219e-13 1.641315257533762506e-13 8.406736949368581735e-14 4.003208151797700565e-14
6.576000000000000000e+03 7.374306488037109375e+01 -2.843064308166503906e+01 9.057258252859884395e-14 8.456776945386934585e-14 5.254210423948774134e-14 -1.040834085586084257e-13
6.577000000000000000e+03 7.435926055908203125e+01 -2.757521438598632812e+01 6.555253030931379454e-14 1.195958344293521214e-13 5.554451077685249039e-14 -9.007218256841531545e-14
6.578000000000000000e+03 7.370559692382812500e+01 -2.430817222595214844e+01 4.803849782157240678e-14 -4.803849782157240678e-14 0.000000000000000000e+00 4.653729455289003225e-14
6.579000000000000000e+03 5.559736728668212891e+00 -2.542845726013183594e+01 -5.679551406544310066e-14 -1.158428279517120796e-13 -5.179150429921244858e-14 -2.001604075898850282e-15
6.580000000000000000e+03 7.956707477569580078e+00 -2.342011070251464844e+01 1.000802037949425141e-14 -2.702165477052459464e-13 -7.806255641895631925e-14 6.204972381176551699e-14
6.581000000000000000e+03 5.709797859191894531e+00 -2.741458511352539062e+01 -6.355093046857968053e-14 -1.416134868875359998e-13 -6.154932385158198849e-14 2.201764398785440585e-14
6.582000000000000000e+03 8.707719802856445312e+00 -2.554740905761718750e+01 -7.405934996122451319e-14 1.741395520621011328e-13 3.002405859738391247e-14 -3.903127820947815962e-14
6.583000000000000000e+03 6.154977798461914062e+00 -2.264441490173339844e+01 5.254210423948774134e-14 2.251804564210382886e-14 2.251804564210382886e-14 -1.200962445539310169e-14
6.584000000000000000e+03 5.303163051605224609e+00 -2.406651306152343750e+01 -1.150922280114367868e-14 -2.336872557441582732e-13 -7.355895000104098469e-14 -9.007218256841531545e-14
6.585000000000000000e+03 6.392367362976074219e+00 -2.444623374938964844e+01 2.902325867701685547e-14 -7.906335633932337625e-14 -1.501202929869195624e-14 6.505213034913026604e-15
6.586000000000000000e+03 5.565649032592773438e+00 -2.173614883422851562e+01 9.257418745153064149e-15 -2.019118108386591670e-13 -5.779631737394194668e-14 -1.200962445539310169e-14
6.587000000000000000e+03 7.162900543212890625e+01 -3.177328300476074219e+01 -7.581074982186686295e-14 1.326062689695076471e-14 -1.876503747039789255e-14 -9.807859548387892756e-14
6.588000000000000000e+03 7.448184204101562500e+01 -2.591663169860839844e+01 -5.154130431912068433e-14 2.066656172366662658e-13 4.653729455289003225e-14 -2.512012950081632390e-13
6.589000000000000000e+03 7.439824104309082031e+00 -1.059390735626220703e+01 -8.506816941405287436e-14 5.504411081666896188e-14 -9.007217918028352643e-15 -2.401924891078620339e-14
6.590000000000000000e+03 7.379247283935546875e+01 -2.172200012207031250e+01 -4.003208151797700565e-15 4.403528797570881170e-14 1.200962445539310169e-14 -1.536231130369949960e-13
6.591000000000000000e+03 7.521604919433593750e+01 -1.938462448120117188e+01 8.506816941405287436e-14 2.652125209983563492e-13 1.050842084789754827e-13 -7.305854326459387815e-14
6.592000000000000000e+03 1.201655769348144531e+01 -2.801466369628906250e+01 -4.685004283393884306e-14 1.400497285416330007e-13 2.795990537349506838e-14 6.104892389139845998e-14
6.593000000000000000e+03 1.278434848785400391e+01 -2.843032073974609375e+01 -5.629511410525957216e-14 1.588773193951856233e-13 3.077466192579099424e-14 7.906335633932337625e-14
6.594000000000000000e+03 7.390038299560546875e+01 -2.092521667480468750e+01 9.457578898633065001e-14 4.053248147816053415e-14 4.053248147816053415e-14 -4.403528797570881170e-14
6.595000000000000000e+03 7.301752471923828125e+01 -1.953712844848632812e+01 -7.305854326459387815e-14 8.306656957331876034e-14 3.002406113848275424e-15 -6.805453688649501509e-14
6.596000000000000000e+03 7.113924407958984375e+01 -1.917629432678222656e+01 9.957980214069309111e-14 6.555253030931379454e-14 4.953969770212299228e-14 -4.453568793589234021e-14
6.597000000000000000e+03 6.796949768066406250e+01 -2.448416900634765625e+01 5.154130431912068433e-14 1.135910281308862013e-13 4.953969770212299228e-14 -3.502807175174635357e-14
6.598000000000000000e+03 7.374256896972656250e+01 -2.516951751708984375e+01 -2.877305869692509122e-14 2.164234367890358057e-13 5.629511410525957216e-14 -1.681347389873716347e-13
6.599000000000000000e+03 7.383348083496093750e+01 -2.593257522583007812e+01 -1.451162866088206993e-13 7.506014988159157020e-14 -2.101684237342145434e-14 9.407538902614712151e-14
6.600000000000000000e+03 5.677297592163085938e+00 -1.857254981994628906e+01 3.477786838352280030e-14 1.979085976046637829e-13 6.980593674713736485e-14 -1.801443583605670529e-14
6.601000000000000000e+03 6.651698589324951172e+00 -7.714117050170898438e+00 -9.970489874260718421e-14 1.860240748333824579e-13 2.589575214960622429e-14 -1.601283260719080226e-14
6.602000000000000000e+03 5.937305450439453125e+00 -2.049495124816894531e+01 2.739695541828859882e-14 -1.712622421266504769e-13 -4.315958804538763682e-14 -9.107298248878237246e-14
6.603000000000000000e+03 5.269718170166015625e+00 -1.755365180969238281e+01 5.954771723458429644e-14 2.552045048540268340e-14 2.552045048540268340e-14 1.561251128379126385e-13
6.604000000000000000e+03 6.770081996917724609e+00 -1.671912384033203125e+01 4.503608959014176322e-15 -8.957178260823178695e-14 -2.552045048540268340e-14 -1.140914348673333079e-13
6.605000000000000000e+03 5.324450492858886719e+00 -2.001933860778808594e+01 -8.656937607086703790e-14 -3.687955431493084024e-13 -1.366094737331735587e-13 2.001604075898850282e-15
6.606000000000000000e+03 5.557724475860595703e+00 -1.203476905822753906e+01 -4.428548795580057595e-14 2.677145377399329368e-14 -5.254210593355363584e-15 -1.160930347080674219e-13
6.607000000000000000e+03 5.190298080444335938e+00 -1.284113979339599609e+01 -1.411130869273524713e-13 -2.892317732972743416e-13 -1.291034607778934751e-13 -3.102486190588275849e-14
6.608000000000000000e+03 6.011460304260253906e+00 -9.999013900756835938e+00 5.060305269971067388e-14 1.589398643080108808e-13 6.286287544112964532e-14 -2.592077214761540072e-13
6.609000000000000000e+03 6.479833602905273438e+00 -1.051244926452636719e+01 -2.381283375780390843e-13 1.724506903380204625e-13 -1.970328908980790300e-14 3.502807175174635357e-14
6.610000000000000000e+03 6.293510913848876953e+00 -1.201530075073242188e+01 -6.029832395112316723e-14 -1.173440413847898212e-13 -5.329270756789482311e-14 -2.602085213965210642e-14
6.611000000000000000e+03 6.506781578063964844e+00 -1.144484138488769531e+01 -8.456776945386934585e-14 9.507618725244828400e-15 -2.251804564210382886e-14 -1.951563910473907981e-14
6.612000000000000000e+03 7.259251594543457031e+00 -2.503330421447753906e+01 -7.656135653840573374e-14 -3.988195949704287369e-13 -1.426142868079030568e-13 2.852285871683332696e-14
6.613000000000000000e+03 1.121992778778076172e+01 -2.737904548645019531e+01 -6.305052373213257400e-14 5.304250758780305885e-14 -3.002406113848275424e-15 1.668837323106492354e-13
6.614000000000000000e+03 7.283389282226562500e+01 -1.869448471069335938e+01 3.002406113848275424e-15 3.672943297162306608e-13 1.110890215537049808e-13 1.751403587587317678e-14
6.615000000000000000e+03 7.247015380859375000e+01 -2.106940460205078125e+01 -4.178348476675114442e-14 1.193456412255239352e-13 2.326864727644501613e-14 -6.004811719476782494e-14
6.616000000000000000e+03 7.258458709716796875e+01 -3.211406326293945312e+01 -7.105694342385976414e-14 6.104892389139845998e-14 -3.002406113848275424e-15 -4.603689120457471473e-14
6.617000000000000000e+03 7.326480865478515625e+01 -3.349617767333984375e+01 -6.280032375204080974e-14 1.103384216134296880e-13 1.426142935841666348e-14 -3.077466192579099424e-14
6.618000000000000000e+03 6.625264739990234375e+01 -2.549277114868164062e+01 -2.602085213965210642e-14 1.261010474642651480e-13 3.002405859738391247e-14 9.307458910578006450e-14
6.619000000000000000e+03 7.231195068359375000e+01 -2.773370933532714844e+01 -1.271018609371593611e-13 3.702967498061225660e-14 -2.702165375408505793e-14 -1.921539912862896271e-13
6.620000000000000000e+03 1.367119598388671875e+01 -2.850427055358886719e+01 -1.230986477031639770e-13 -7.005613842129502361e-15 -3.903127820947815962e-14 4.303448466720996568e-14
6.621000000000000000e+03 6.736164569854736328e+00 -1.594391059875488281e+01 1.105886215935214523e-13 1.846479647784823874e-13 8.857097591160115191e-14 -7.305854326459387815e-14
6.622000000000000000e+03 7.965641498565673828e+00 -2.158210945129394531e+01 8.106496295632106830e-14 -1.100882199392720293e-14 2.101684237342145434e-14 7.005614350349270714e-14
6.623000000000000000e+03 7.513350486755371094e+00 -1.988711929321289062e+01 9.623336470147153543e-14 2.699976201815668109e-13 1.098692941096587883e-13 -1.901523745048965680e-14
6.624000000000000000e+03 6.916504859924316406e+00 -2.007032394409179688e+01 -5.004010105043830980e-14 7.005614350349270714e-14 6.004812227696550847e-15 -6.905533680686207210e-14
6.625000000000000000e+03 7.526525497436523438e+00 -1.886592864990234375e+01 -3.853087824929463112e-14 3.037434128001781364e-13 7.956375629950690476e-14 -9.007217918028352643e-15
6.626000000000000000e+03 6.882639312744140625e+01 -2.063536262512207031e+01 -7.556054984177509870e-14 1.506206997233666689e-13 2.251804564210382886e-14 -8.006416303595401129e-15
6.627000000000000000e+03 6.726858520507812500e+01 -2.343476676940917969e+01 1.000802037949425141e-15 6.905533680686207210e-14 2.101684237342145434e-14 -4.553649124439118623e-14
6.628000000000000000e+03 6.524061584472656250e+01 -2.725074386596679688e+01 -6.455173038894673754e-14 -5.054050101062183831e-14 -3.452766840343103605e-14 -8.406736949368581735e-14
6.629000000000000000e+03 6.227584075927734375e+01 -2.885611724853515625e+01 -4.003208151797700565e-15 -3.602887167211341057e-14 -1.200962445539310169e-14 -1.218476410264415777e-13
6.630000000000000000e+03 6.991402626037597656e+00 -1.008629322052001953e+01 -2.341876692568689577e-13 -1.261010474642651480e-13 -1.080866150163402317e-13 -2.157979334506746061e-13
6.631000000000000000e+03 1.153381538391113281e+01 -2.328209686279296875e+01 9.557658890669770702e-14 2.697161341925352618e-13 1.095878216731543953e-13 -1.801443583605670529e-14
6.632000000000000000e+03 9.655681610107421875e+00 -2.237437057495117188e+01 1.055846084391590112e-13 -5.004010189747125706e-16 3.152526186606628700e-14 1.110890215537049808e-13
6.633000000000000000e+03 6.613726043701171875e+01 -2.640450859069824219e+01 1.401122768425900472e-14 1.661331391466375207e-13 5.404330750817011586e-14 -3.152526186606628700e-14
6.634000000000000000e+03 6.529137420654296875e+01 -2.635490036010742188e+01 2.001604075898850282e-15 1.381106736137241442e-13 4.203368474684290867e-14 9.907939540424598457e-14
6.635000000000000000e+03 7.238741302490234375e+01 -1.996010589599609375e+01 3.455894424797545383e-14 1.978147734591623186e-13 6.971211260163590051e-14 -5.104090097080536681e-14
6.636000000000000000e+03 7.202574157714843750e+01 -1.864387130737304688e+01 5.804651735403371093e-14 2.001604075898850282e-15 1.801443583605670529e-14 3.302646513474866152e-14
6.637000000000000000e+03 6.440342712402343750e+01 -2.742656135559082031e+01 -1.726383420171551802e-14 1.298540539419051898e-13 3.377706846315574329e-14 6.705373696612795809e-14
6.638000000000000000e+03 6.868435668945312500e+01 -2.136784744262695312e+01 9.057258252859884395e-14 8.456776945386934585e-14 5.254210423948774134e-14 2.401924891078620339e-14
6.639000000000000000e+03 7.040212249755859375e+01 -2.038955307006835938e+01 2.552045048540268340e-14 7.956375629950690476e-14 3.152526186606628700e-14 2.189254484484147098e-15
6.640000000000000000e+03 6.713324737548828125e+01 -2.465414237976074219e+01 3.427746842333927180e-14 8.331676955341052460e-14 3.527827173183811782e-14 1.301042606982605321e-14
6.641000000000000000e+03 6.455187797546386719e+00 -1.823961257934570312e+01 4.003208151797700565e-14 4.003208151797700565e-14 2.401924891078620339e-14 -9.507618894651417851e-14
6.642000000000000000e+03 7.083238983154296875e+01 -1.981002426147460938e+01 -2.502005094873562853e-15 -2.527025084412409806e-13 -7.656135653840573374e-14 8.256616283687165381e-15
6.643000000000000000e+03 7.035127258300781250e+01 -1.945929527282714844e+01 8.006416303595401129e-14 -8.006416303595401129e-14 0.000000000000000000e+00 2.176744400776264160e-14
6.644000000000000000e+03 1.577046298980712891e+01 -3.034021377563476562e+01 -6.305052373213257400e-14 -2.702165375408505793e-14 -2.702165375408505793e-14 1.601283260719080226e-14
6.645000000000000000e+03 6.829064941406250000e+01 -2.218720245361328125e+01 -4.353488801552528320e-14 1.185950345089850644e-13 2.251804564210382886e-14 4.003208151797700565e-15
6.646000000000000000e+03 9.168358802795410156e+00 -3.437003707885742188e+01 -3.052446194569922999e-14 1.356086738128065017e-13 3.152526186606628700e-14 5.704571743366665393e-14
6.647000000000000000e+03 8.456681251525878906e+00 -3.142224502563476562e+01 -2.351884725653678038e-14 5.854691731421723944e-14 1.050842118671072717e-14 4.453568793589234021e-14
6.648000000000000000e+03 6.782884120941162109e+00 -2.630920410156250000e+01 -8.006416303595401129e-15 8.807057595141762341e-14 2.401924891078620339e-14 -3.602887167211341057e-14
6.649000000000000000e+03 6.387107086181640625e+01 -3.035893630981445312e+01 -7.581074982186686295e-14 -1.468676932457266271e-13 -6.680353698603619383e-14 -1.914033913460143344e-14
6.650000000000000000e+03 1.080278778076171875e+01 -2.406320953369140625e+01 -5.054050101062183831e-14 1.155926347478838934e-13 1.951563910473907981e-14 -2.577065215956034216e-14
6.651000000000000000e+03 6.270633220672607422e+00 -2.535297203063964844e+01 -7.706175649858926224e-14 -1.931547912066566841e-13 -8.106496295632106830e-14 -9.407538902614712151e-14
6.652000000000000000e+03 8.988208770751953125e+00 -3.638528060913085938e+01 -6.442662701076906639e-14 -6.192462720985142388e-14 -3.790537491093343148e-14 1.200962445539310169e-14
6.653000000000000000e+03 7.195795440673828125e+01 -3.467454528808593750e+01 -9.732799554360363481e-14 2.099182237541227791e-13 3.377706846315574329e-14 -1.501203056924137712e-15
6.654000000000000000e+03 7.396055603027343750e+01 -3.475867462158203125e+01 -2.151724233360498284e-14 1.966575909279413836e-13 5.254210423948774134e-14 -7.506014649345978118e-15
6.655000000000000000e+03 5.830752182006835938e+01 -3.349791717529296875e+01 -7.174499167504622132e-14 3.565357339604165871e-15 -2.045389072414909026e-14 -5.504411081666896188e-14
6.656000000000000000e+03 6.059597015380859375e+01 -3.313473129272460938e+01 -8.331676955341052460e-14 -6.430153040885497329e-14 -4.428548795580057595e-14 -2.326864727644501613e-14
6.657000000000000000e+03 7.544909954071044922e+00 -3.285250091552734375e+01 -3.978187814975345238e-14 9.732799554360363481e-14 1.726383420171551802e-14 7.906335633932337625e-14
6.658000000000000000e+03 1.699022293090820312e+01 -3.157244682312011719e+01 -2.126704235351321859e-14 1.376102770416724047e-14 -2.251804479507088161e-15 2.151724233360498284e-14
6.659000000000000000e+03 6.162505340576171875e+01 -3.011403846740722656e+01 -2.226784396794617010e-14 2.476984885106149614e-14 7.506015284620688559e-16 -2.170489401273970054e-14
6.660000000000000000e+03 4.727298355102539062e+01 -4.133090209960937500e+01 -1.264763575987981614e-13 -9.995509872269894847e-14 -6.792943350831734395e-14 7.506014649345978118e-15
6.661000000000000000e+03 1.797457122802734375e+01 -3.116894912719726562e+01 -1.124651248323414732e-13 6.617803364767499419e-14 -1.388612769421312260e-14 -6.305052373213257400e-14
6.662000000000000000e+03 6.142517852783203125e+01 -3.206756591796875000e+01 -1.045838085187919542e-13 -1.050842118671072717e-14 -3.452766840343103605e-14 -9.257418745153064149e-15
6.663000000000000000e+03 6.060475158691406250e+01 -3.116876792907714844e+01 -2.652125379390152943e-14 5.154130431912068433e-14 7.506014649345978118e-15 -7.793745304077864811e-14
6.664000000000000000e+03 8.144927978515625000e+00 -8.173740386962890625e+00 -5.316760757784894098e-14 1.144667314493391652e-13 1.838973750026024617e-14 3.002405859738391247e-14
6.665000000000000000e+03 7.532106399536132812e+00 -7.748315334320068359e+00 -9.413794071523595708e-14 2.799118087922630727e-13 5.573216245598720808e-14 1.060850151756061177e-13
6.666000000000000000e+03 7.110735893249511719e+00 -8.206583023071289062e+00 -1.916535777735789425e-13 6.655333022968085155e-14 -3.753007494079578510e-14 2.664635378394741155e-14
6.667000000000000000e+03 7.375865936279296875e+01 -1.941018867492675781e+01 7.606094980195862720e-14 4.443560862148199231e-13 1.561251128379126385e-13 -3.753007494079578510e-14
6.668000000000000000e+03 6.939064788818359375e+01 -2.166532707214355469e+01 -5.254210423948774134e-14 1.376102736535406157e-13 2.552045048540268340e-14 4.003208151797700565e-14
6.669000000000000000e+03 7.062126922607421875e+01 -2.328950309753417969e+01 5.254210423948774134e-14 2.251804564210382886e-14 2.251804564210382886e-14 -1.065854151357896462e-13
6.670000000000000000e+03 7.366950988769531250e+01 -2.663202095031738281e+01 2.552045048540268340e-14 5.599487345152309725e-13 1.756407519426517183e-13 -9.107298248878237246e-14
6.671000000000000000e+03 7.192190551757812500e+01 -2.061705589294433594e+01 6.004811719476782494e-14 -2.001604075898850282e-14 1.200962445539310169e-14 1.000802037949425141e-14
6.672000000000000000e+03 5.513271331787109375e+00 -1.043829059600830078e+01 1.426924747251982067e-14 1.467191439955689569e-13 4.829651422170143371e-14 -4.995800322905863400e-14
6.673000000000000000e+03 6.761388301849365234e+00 -2.282148170471191406e+01 4.603689120457471473e-14 -2.602085213965210642e-14 6.004812227696550847e-15 2.201764398785440585e-14
6.674000000000000000e+03 6.645332813262939453e+00 -2.712003326416015625e+01 -9.307458910578006450e-14 -1.771419518232023038e-13 -8.106496295632106830e-14 6.255012377194904549e-14
6.675000000000000000e+03 7.915377140045166016e+00 -2.475259017944335938e+01 -1.926543912464731556e-14 -8.256616283687165381e-15 -8.256616283687165381e-15 -7.806255641895631925e-14
6.676000000000000000e+03 7.293739318847656250e+01 -2.423520660400390625e+01 1.501202929869195624e-14 2.351884691772360148e-13 7.506014988159157020e-14 -1.371098736933570872e-13
6.677000000000000000e+03 6.556068897247314453e+00 -2.360633659362792969e+01 -4.753809447325708926e-14 -1.576263127184632240e-13 -6.154932385158198849e-14 3.502806921064751181e-15
6.678000000000000000e+03 6.652400493621826172e+00 -2.086448097229003906e+01 -4.403528797570881170e-14 -1.561251128379126385e-13 -6.004811719476782494e-14 -4.803849782157240678e-14
6.679000000000000000e+03 1.032469940185546875e+01 -2.680468177795410156e+01 -7.543545323986100559e-14 -1.009559054193295835e-13 -5.291740759775717673e-14 5.104090097080536681e-14
6.680000000000000000e+03 7.324871826171875000e+01 -2.616440582275390625e+01 -5.879711729430900369e-14 6.630313024958908730e-14 2.251804479507088161e-15 -2.672141479441447753e-13
6.681000000000000000e+03 7.323327636718750000e+01 -2.830972480773925781e+01 -4.253408555405938443e-15 -9.332478908587182875e-14 -2.927345865710861972e-14 -9.607699564314481355e-14
6.682000000000000000e+03 7.330624389648437500e+01 -2.082563781738281250e+01 -7.956375629950690476e-14 -1.256006475040816195e-13 -6.154932385158198849e-14 -5.204170427930421283e-14
6.683000000000000000e+03 5.916349887847900391e+00 -1.808277702331542969e+01 7.055654346367623564e-14 -1.551243095294137925e-14 1.651323256737433076e-14 1.200962445539310169e-14
6.684000000000000000e+03 5.745467185974121094e+00 -1.944797706604003906e+01 1.501203056924137712e-15 -5.654531408535133641e-14 -1.651323256737433076e-14 2.502005094873562853e-15
6.685000000000000000e+03 7.267234802246093750e+01 -2.493118095397949219e+01 4.691259452302767863e-14 -2.564555216951446004e-14 6.380112621350670851e-15 -1.070858150959731747e-13
6.686000000000000000e+03 7.304044342041015625e+01 -2.546525573730468750e+01 3.828067826920286687e-14 1.994097974852143684e-13 7.130714340395152839e-14 7.906335633932337625e-14
6.687000000000000000e+03 5.976863384246826172e+00 -1.746042060852050781e+01 4.503608959014176322e-15 -8.957178260823178695e-14 -2.552045048540268340e-14 -2.251804564210382886e-13
6.688000000000000000e+03 6.307777404785156250e+00 -1.981024932861328125e+01 -4.953969770212299228e-14 2.451964887096973189e-14 -7.506014649345978118e-15 -9.007217918028352643e-15
6.689000000000000000e+03 7.076251506805419922e+00 -9.148720741271972656e+00 -1.286030608177099466e-13 2.136712302317628209e-13 2.552045048540268340e-14 1.651323256737433076e-14
6.690000000000000000e+03 1.160584068298339844e+01 -2.642789077758789062e+01 -7.005613842129502361e-15 -1.631307258330091936e-13 -5.104090097080536681e-14 8.656937607086703790e-14
6.691000000000000000e+03 7.254891967773437500e+01 -2.980792999267578125e+01 -6.655333022968085155e-14 -1.085870149765237602e-13 -5.254210423948774134e-14 -1.173440413847898212e-13
6.692000000000000000e+03 7.112485504150390625e+01 -3.300599670410156250e+01 -8.456776945386934585e-14 1.696359388679222202e-13 2.552045048540268340e-14 -3.552847171192988207e-14
6.693000000000000000e+03 1.071092987060546875e+01 -2.833148384094238281e+01 -5.954771723458429644e-14 -6.555253030931379454e-14 -3.753007494079578510e-14 6.405133042876320904e-14
6.694000000000000000e+03 7.347286224365234375e+00 -2.307627105712890625e+01 1.351082687704252897e-14 5.154130431912068433e-14 1.951563910473907981e-14 -3.202566521438160452e-14
6.695000000000000000e+03 8.472296714782714844e+00 -2.195153427124023438e+01 7.756215476470689624e-15 9.482598896642241426e-14 3.077466192579099424e-14 5.904731727440076794e-14
6.696000000000000000e+03 1.071659660339355469e+01 -2.593274879455566406e+01 -1.095878216731543953e-13 4.453568793589234021e-14 -1.951563910473907981e-14 1.291034607778934751e-13
6.697000000000000000e+03 7.832620620727539062e+00 -2.922905349731445312e+01 -6.605293026949732305e-14 6.004812227696550847e-15 -1.801443583605670529e-14 2.326864727644501613e-14
6.698000000000000000e+03 7.308436584472656250e+01 -2.148319816589355469e+01 1.138412281109779656e-14 4.878909776184769953e-15 4.878909776184769953e-15 5.504411081666896188e-14
6.699000000000000000e+03 6.700849914550781250e+01 -2.649115562438964844e+01 -9.132318246887413671e-14 1.438652934846254561e-13 1.576263093303314350e-14 -2.502005094873562853e-15
6.700000000000000000e+03 5.221604347229003906e+00 -1.612067222595214844e+01 4.753809447325708926e-14 -2.502005094873562853e-15 1.351082687704252897e-14 2.802245536851800944e-14
6.701000000000000000e+03 6.887769317626953125e+01 -2.344436264038085938e+01 -3.377706846315574329e-14 3.127506188597452275e-14 -7.506015284620688559e-16 -9.007217918028352643e-15
6.702000000000000000e+03 1.337591743469238281e+01 -3.132377815246582031e+01 -8.506816941405287436e-14 -2.502005052521915490e-14 -3.302646513474866152e-14 6.955573676704560060e-14
6.703000000000000000e+03 9.952294349670410156e+00 -2.297610855102539062e+01 -9.370008566787768611e-14 -4.015718150802288777e-14 -4.015718150802288777e-14 -4.903929774193946378e-14
6.704000000000000000e+03 6.461630249023437500e+01 -2.852673530578613281e+01 -7.656135653840573374e-14 -7.856295637913984775e-14 -4.653729455289003225e-14 -2.051644071917203133e-14
6.705000000000000000e+03 6.346599197387695312e+01 -2.890881538391113281e+01 4.653729455289003225e-14 -7.155734338404329264e-14 -7.506014649345978118e-15 -1.801443583605670529e-14
6.706000000000000000e+03 6.684049987792968750e+01 -2.762783432006835938e+01 1.100882199392720293e-14 1.190954344691685929e-13 3.903127820947815962e-14 -4.153328478665938017e-14
6.707000000000000000e+03 1.043014335632324219e+01 -2.466263008117675781e+01 -9.188613411814650078e-14 2.351259107118836011e-13 4.297193636625291913e-14 1.601283260719080226e-13
6.708000000000000000e+03 8.260857582092285156e+00 -2.802080345153808594e+01 -1.726383420171551802e-14 1.298540539419051898e-13 3.377706846315574329e-14 -2.101684237342145434e-14
6.709000000000000000e+03 7.179440307617187500e+01 -1.947032356262207031e+01 -3.302646513474866152e-14 1.230986477031639770e-13 2.702165375408505793e-14 -2.476984885106149614e-14
6.710000000000000000e+03 6.604638576507568359e+00 -8.617356300354003906e+00 -7.105694342385976414e-14 -1.190954344691685929e-13 -5.704571743366665393e-14 -3.071211023670215867e-14
6.711000000000000000e+03 7.181192779541015625e+01 -2.680144500732421875e+01 -1.751403587587317678e-14 -7.506014649345978118e-15 -7.506014649345978118e-15 -1.571259127582796955e-13
6.712000000000000000e+03 7.367997741699218750e+01 -2.780231094360351562e+01 -1.451162933850842773e-14 3.953167816966168813e-14 7.506014649345978118e-15 -1.411130869273524713e-13
6.713000000000000000e+03 6.978942871093750000e+01 -2.264901924133300781e+01 -3.452766840343103605e-14 -6.054852393121493148e-14 -2.852285871683332696e-14 3.702967498061225660e-14
6.714000000000000000e+03 6.975064277648925781e+00 -2.948412322998046875e+01 -1.273520541409875473e-13 -1.003304020809683839e-13 -6.830473686658677934e-14 3.302646513474866152e-14
6.715000000000000000e+03 1.002287673950195312e+01 -2.530668067932128906e+01 -5.054050101062183831e-14 -6.455173038894673754e-14 -3.452766840343103605e-14 -3.659182332138577465e-14
6.716000000000000000e+03 8.045651435852050781e+00 -2.637685585021972656e+01 -5.104090097080536681e-14 1.611291259922750796e-13 3.302646513474866152e-14 -2.602085213965210642e-14
6.717000000000000000e+03 7.277246856689453125e+01 -2.802076339721679688e+01 5.829671733412547519e-14 2.694659274361799195e-13 9.832879546397069181e-14 -4.891419775189358166e-14
6.718000000000000000e+03 1.218806838989257812e+01 -3.080281448364257812e+01 -9.607699564314481355e-14 9.607699564314481355e-14 0.000000000000000000e+00 1.125902282105191443e-13
6.719000000000000000e+03 1.158000469207763672e+01 -2.899388504028320312e+01 -4.203368474684290867e-14 1.421138868477195283e-13 3.002405859738391247e-14 1.396118734942747297e-13
6.720000000000000000e+03 6.329449844360351562e+01 -3.268307495117187500e+01 -1.029575052600636975e-13 1.626303258728256651e-15 -3.039936195565334787e-14 -3.102486190588275849e-14
6.721000000000000000e+03 8.755578041076660156e+00 -3.272902297973632812e+01 -1.396118734942747297e-13 -1.055846084391590112e-13 -7.355895000104098469e-14 2.952365863720038397e-14
6.722000000000000000e+03 1.749379730224609375e+01 -3.310182952880859375e+01 -1.222229511609745911e-13 -6.630313448475382357e-15 -3.865597823934051325e-14 -6.955573676704560060e-14
6.723000000000000000e+03 1.836270141601562500e+01 -3.487606048583984375e+01 -1.000176504117877840e-13 9.438814069532772133e-14 -1.688853359630316121e-15 6.004812227696550847e-15
6.724000000000000000e+03 9.189618110656738281e+00 -2.994264221191406250e+01 -1.451162933850842773e-14 3.953167816966168813e-14 7.506014649345978118e-15 8.381716951359405310e-14
6.725000000000000000e+03 6.205131912231445312e+01 -3.512762832641601562e+01 -9.757819552369539906e-14 -7.506014649345978118e-15 -3.152526186606628700e-14 1.876503747039789255e-14
6.726000000000000000e+03 6.515135955810546875e+01 -2.963848686218261719e+01 2.251804479507088161e-15 1.153424279915285511e-13 3.527827173183811782e-14 -5.354290754798658736e-14
6.727000000000000000e+03 1.447021007537841797e+01 -3.345809936523437500e+01 -6.004811719476782494e-14 1.000802021008766196e-13 1.200962445539310169e-14 7.005613842129502361e-15
6.728000000000000000e+03 1.607303237915039062e+01 -3.349158096313476562e+01 -7.330875002094922044e-14 2.577065215956034216e-14 -1.426142935841666348e-14 5.179150429921244858e-14
6.729000000000000000e+03 5.476727676391601562e+01 -3.947561645507812500e+01 -9.770329890187307020e-14 -4.616199119462059686e-14 -4.315958804538763682e-14 -1.060224617924513876e-14
6.730000000000000000e+03 2.260800552368164062e+01 -4.098609542846679688e+01 -9.651484391423950648e-14 1.582518092805608456e-14 -2.420689889585502658e-14 2.051644071917203133e-14
6.731000000000000000e+03 7.261064147949218750e+01 -3.813028335571289062e+01 -7.405934996122451319e-14 9.407538902614712151e-14 6.004812227696550847e-15 -4.528629126429942198e-14
6.732000000000000000e+03 7.463104248046875000e+01 -3.785947418212890625e+01 -5.454371085648543338e-14 -5.004010189747125706e-16 -1.651323256737433076e-14 -4.053248147816053415e-14
6.733000000000000000e+03 6.987627410888671875e+01 -2.096664810180664062e+01 9.645229222515067091e-14 6.492702697095259490e-14 4.841379779171005315e-14 -3.582558376477237849e-14
6.734000000000000000e+03 6.903961944580078125e+01 -2.251735877990722656e+01 5.204170427930421283e-14 6.805453688649501509e-14 3.602887167211341057e-14 -2.652125379390152943e-14
6.735000000000000000e+03 7.093355560302734375e+01 -2.083531951904296875e+01 1.050842118671072717e-14 8.456776945386934585e-14 2.852285871683332696e-14 1.876503747039789255e-14
6.736000000000000000e+03 7.137464904785156250e+01 -2.018383216857910156e+01 7.906335633932337625e-14 1.100882199392720293e-14 2.702165375408505793e-14 -7.506014988159157020e-14
6.737000000000000000e+03 7.301961517333984375e+01 -2.342235374450683594e+01 4.903929774193946378e-14 2.101684237342145434e-14 2.101684237342145434e-14 1.291034607778934751e-13
6.738000000000000000e+03 7.270135498046875000e+01 -2.207776260375976562e+01 -3.152526186606628700e-14 6.655333022968085155e-14 1.050842118671072717e-14 -8.206576287668812530e-14
6.739000000000000000e+03 7.218241882324218750e+01 -2.410603713989257812e+01 5.354290754798658736e-14 9.157338244896590096e-14 4.353488801552528320e-14 1.401122768425900472e-14
6.740000000000000000e+03 7.425755977630615234e+00 -2.564618873596191406e+01 -6.355093046857968053e-14 1.851483749030612830e-14 -1.351082687704252897e-14 -2.201764398785440585e-14
6.741000000000000000e+03 8.170406341552734375e+00 -2.263480567932128906e+01 -2.326864727644501613e-14 3.577867169202164632e-14 3.753007324672989059e-15 3.702967498061225660e-14
6.742000000000000000e+03 7.033462524414062500e+00 -2.441867446899414062e+01 -1.651323256737433076e-14 -9.857899544406245607e-14 -3.452766840343103605e-14 -1.501202929869195624e-14
6.743000000000000000e+03 7.400931835174560547e+00 -2.639295387268066406e+01 -6.855493684667854359e-14 -1.666335391068210492e-13 -7.055654346367623564e-14 1.220978477827969200e-13
6.744000000000000000e+03 8.029882431030273438e+00 -2.557333183288574219e+01 -1.150922280114367868e-14 -2.336872557441582732e-13 -7.355895000104098469e-14 3.402726844324750755e-14
6.745000000000000000e+03 7.060880279541015625e+01 -2.499690628051757812e+01 -4.878909776184769953e-14 -4.378508799561704745e-14 -2.777225538842624519e-14 -1.761411519028352468e-13
6.746000000000000000e+03 7.388195800781250000e+01 -2.016801643371582031e+01 -4.203368474684290867e-14 1.421138868477195283e-13 3.002405859738391247e-14 -1.301042606982605321e-14
6.747000000000000000e+03 7.209203338623046875e+01 -2.477398300170898438e+01 -5.254210423948774134e-14 -2.251804564210382886e-14 -2.251804564210382886e-14 -6.004811719476782494e-14
6.748000000000000000e+03 7.182104492187500000e+01 -2.944325828552246094e+01 3.252606517456513302e-14 2.426944821325160984e-13 8.256616283687165381e-14 -5.279230421957950559e-14
6.749000000000000000e+03 7.257354736328125000e+01 -2.650605010986328125e+01 1.015814019814272051e-13 4.353488801552528320e-14 4.353488801552528320e-14 8.757017599123409490e-14
6.750000000000000000e+03 7.138823986053466797e+00 -1.945285797119140625e+01 -7.831275639904808350e-14 -7.931355631941514051e-14 -4.728789449316532501e-14 -8.006416303595401129e-15
6.751000000000000000e+03 7.358767032623291016e+00 -2.726704597473144531e+01 -5.004010105043830980e-14 7.005614350349270714e-14 6.004812227696550847e-15 4.503609128420765773e-14
6.752000000000000000e+03 7.495060443878173828e+00 -2.823510551452636719e+01 -9.983000212078485536e-14 -4.278428468711820143e-14 -4.278428468711820143e-14 3.502807175174635357e-14
6.753000000000000000e+03 7.615441799163818359e+00 -2.232579231262207031e+01 -3.753007494079578510e-14 -1.075862150561567032e-13 -4.353488801552528320e-14 -8.006416303595401129e-15
6.754000000000000000e+03 7.016908645629882812e+00 -2.201647567749023438e+01 4.853889778175593528e-14 -9.357498906596359300e-14 -1.351082687704252897e-14 -3.502806921064751181e-15
6.755000000000000000e+03 7.046576690673828125e+01 -2.251793479919433594e+01 2.201764398785440585e-14 2.381908689383371858e-13 7.806255641895631925e-14 -7.556054984177509870e-14
6.756000000000000000e+03 6.793801879882812500e+01 -2.646435737609863281e+01 6.805453688649501509e-14 5.204170427930421283e-14 3.602887167211341057e-14 5.204170427930421283e-14
6.757000000000000000e+03 7.380490779876708984e+00 -2.118004035949707031e+01 2.502005052521915490e-14 -7.506014988159157020e-14 -1.501202929869195624e-14 -3.627907334627106933e-15
6.758000000000000000e+03 6.890048217773437500e+01 -2.628776931762695312e+01 8.381716951359405310e-14 -1.013312020013354409e-13 -5.254210593355363584e-15 -5.354290754798658736e-14
6.759000000000000000e+03 7.231336212158203125e+01 -2.869864463806152344e+01 -6.104892389139845998e-14 -8.907137587178468041e-14 -4.503609128420765773e-14 -3.140016187602040487e-14
6.760000000000000000e+03 6.550954437255859375e+01 -2.802588653564453125e+01 -7.005614350349270714e-14 2.101684169579509653e-13 4.203368474684290867e-14 -4.653729455289003225e-14
6.761000000000000000e+03 6.792424011230468750e+01 -2.763513374328613281e+01 8.381716951359405310e-14 2.189254365899534482e-13 9.082278250869060821e-14 -6.505213034913026604e-15
6.762000000000000000e+03 7.178763580322265625e+01 -2.829873275756835938e+01 1.065854151357896462e-13 3.087474124020134214e-13 1.245998475837145625e-13 -3.227586519447336877e-14
6.763000000000000000e+03 7.212001800537109375e+01 -3.072471237182617188e+01 5.704571743366665393e-14 3.332670782136420984e-13 1.170938346284344789e-13 -4.903929774193946378e-14
6.764000000000000000e+03 9.939725875854492188e+00 -2.768530082702636719e+01 -2.095429237839851327e-14 -5.473135914748836206e-14 -2.270569562717265205e-14 5.104090097080536681e-14
6.765000000000000000e+03 7.046300506591796875e+01 -2.145105934143066406e+01 -3.803047490097931360e-14 -2.201764398785440585e-14 -1.801443583605670529e-14 -8.006416303595401129e-15
6.766000000000000000e+03 7.149472045898437500e+01 -2.128336715698242188e+01 4.253408555405938443e-15 9.332478908587182875e-14 2.927345865710861972e-14 -1.060850151756061177e-13
6.767000000000000000e+03 6.975258636474609375e+01 -2.427940750122070312e+01 5.629511410525957216e-14 1.613793191961032658e-13 6.530233032922203029e-14 -1.160930347080674219e-13
6.768000000000000000e+03 1.112076854705810547e+01 -2.516013908386230469e+01 7.005614350349270714e-14 3.002405859738391247e-14 3.002405859738391247e-14 2.602085213965210642e-14
6.769000000000000000e+03 9.805035591125488281e+00 -2.410270881652832031e+01 -6.305052373213257400e-14 -6.705373696612795809e-14 -3.903127820947815962e-14 -8.556856937423640286e-14
6.770000000000000000e+03 6.623075103759765625e+01 -2.874724578857421875e+01 -4.953969770212299228e-14 2.451964887096973189e-14 -7.506014649345978118e-15 1.823336166566994626e-14
6.771000000000000000e+03 6.684484863281250000e+01 -3.203739547729492188e+01 -4.741397365329823310e-14 1.169325731078044162e-13 2.085558085279139162e-14 -1.354210187455399950e-14
6.772000000000000000e+03 7.222364044189453125e+01 -3.330378723144531250e+01 -5.154130431912068433e-14 -1.135910281308862013e-13 -4.953969770212299228e-14 -7.455974992140804170e-14
6.773000000000000000e+03 1.031860733032226562e+01 -2.355690383911132812e+01 6.473938037401556073e-15 2.315292868450974373e-13 7.140096754945299273e-14 1.556247128777291100e-13
6.774000000000000000e+03 1.008360767364501953e+01 -2.927991867065429688e+01 -6.129912387149022424e-14 -1.626303258728256651e-14 -2.326864727644501613e-14 7.061908837650149318e-14
6.775000000000000000e+03 7.146543884277343750e+01 -2.555312919616699219e+01 -4.278428468711820143e-14 -1.098380216532461595e-13 -4.578669122448295048e-14 -4.403528797570881170e-14
6.776000000000000000e+03 9.433505058288574219e+00 -2.559633636474609375e+01 -4.003208151797700565e-14 -4.003208151797700565e-14 -2.401924891078620339e-14 1.065854151357896462e-13
6.777000000000000000e+03 1.067575550079345703e+01 -3.364910507202148438e+01 -1.161868588535688862e-13 -9.554531645028507825e-14 -6.351965123590347373e-14 8.406736949368581735e-14
6.778000000000000000e+03 1.257052040100097656e+01 -2.951483726501464844e+01 -7.005614350349270714e-14 1.301042606982605321e-13 1.801443583605670529e-14 7.205774334422682115e-14
6.779000000000000000e+03 1.460984420776367188e+01 -3.166464614868164062e+01 -1.095878216731543953e-13 4.453568793589234021e-14 -1.951563910473907981e-14 2.552045048540268340e-14
6.780000000000000000e+03 9.388193130493164062e+00 -2.841007232666015625e+01 -3.315156512479454365e-14 -1.057097118173366823e-13 -4.165838477670526230e-14 8.606896933441993136e-14
6.781000000000000000e+03 6.403282165527343750e+01 -3.448706436157226562e+01 -7.900081142649811872e-14 2.333119727146795719e-14 -1.670088424650904846e-14 -3.402726844324750755e-14
6.782000000000000000e+03 6.591695404052734375e+01 -3.079994010925292969e+01 -8.725742432205349508e-14 -1.060224634865172821e-13 -5.798396566494487536e-14 -1.701363422162375377e-14
6.783000000000000000e+03 7.041159820556640625e+01 -3.635195159912109375e+01 -9.044747915042117281e-14 6.417642703067730214e-14 -7.881315466516571749e-15 -5.354290754798658736e-14
6.784000000000000000e+03 6.465285491943359375e+01 -3.180306243896484375e+01 2.251804479507088161e-15 1.153424279915285511e-13 3.527827173183811782e-14 -4.153328478665938017e-14
6.785000000000000000e+03 1.727606773376464844e+01 -3.811536788940429688e+01 -9.144828584705180785e-14 1.152173246133508799e-13 7.130714679208331741e-15 -7.130714679208331741e-15
6.786000000000000000e+03 1.104115581512451172e+01 -3.012604522705078125e+01 -9.226143747641593618e-14 2.908580697797390202e-14 -1.895268745546671574e-14 3.552847171192988207e-14
6.787000000000000000e+03 5.813346481323242188e+01 -4.077197647094726562e+01 -1.231611926159892345e-13 -8.137771462550166812e-14 -6.136167556057905981e-14 -8.381717120765994761e-15
6.788000000000000000e+03 1.293913650512695312e+01 -3.299568939208984375e+01 -1.296038607380770036e-13 1.045838085187919542e-13 -7.506014649345978118e-15 1.070858150959731747e-13
6.789000000000000000e+03 1.424665737152099609e+01 -3.558249282836914062e+01 -9.920449878242365571e-14 6.042342055303726034e-14 -1.163432363822250806e-14 7.255814330441034965e-14
6.790000000000000000e+03 7.057150268554687500e+01 -3.855364990234375000e+01 -1.045838085187919542e-13 -1.050842118671072717e-14 -3.452766840343103605e-14 -3.577867169202164632e-14
6.791000000000000000e+03 1.163399314880371094e+01 -3.221062850952148438e+01 -1.180946345488015359e-13 1.801443583605670529e-14 -3.002405859738391247e-14 2.201764398785440585e-14
6.792000000000000000e+03 7.226616668701171875e+01 -2.335902976989746094e+01 -3.577867169202164632e-14 2.134210234754074786e-13 5.329270756789482311e-14 -1.911531778133954140e-13
6.793000000000000000e+03 7.597235679626464844e+00 -2.408553314208984375e+01 6.630313448475382357e-15 -4.290938467716408355e-14 -1.088372200388132080e-14 1.165934346682509504e-13
6.794000000000000000e+03 8.672657012939453125e+00 -2.461084365844726562e+01 3.702967498061225660e-14 -1.671339390670045777e-13 -3.903127820947815962e-14 1.401122768425900472e-14
6.795000000000000000e+03 7.060578155517578125e+01 -2.416256332397460938e+01 7.606094980195862720e-14 2.842277736954390566e-13 1.080866150163402317e-13 5.804651735403371093e-14
6.796000000000000000e+03 7.236351776123046875e+01 -2.587264251708984375e+01 1.776423585596494104e-14 1.448660934049925131e-13 4.878909776184769953e-14 -1.200962343895356499e-13
6.797000000000000000e+03 7.199803924560546875e+01 -2.734545516967773438e+01 9.370008566787768611e-14 4.015718150802288777e-14 4.015718150802288777e-14 1.010810020212436766e-13
6.798000000000000000e+03 7.215148925781250000e+01 -2.532304573059082031e+01 8.957178260823178695e-14 1.756407519426517183e-13 7.956375629950690476e-14 -9.607699564314481355e-14
6.799000000000000000e+03 8.724321365356445312e+00 -2.636783027648925781e+01 -5.104090097080536681e-14 -1.591275125990138095e-13 -6.305052373213257400e-14 -4.403528797570881170e-14
6.800000000000000000e+03 8.071597099304199219e+00 -2.718827438354492188e+01 -1.035830085984248972e-13 -1.816455650173812164e-13 -8.556856937423640286e-14 -3.402726844324750755e-14
6.801000000000000000e+03 9.289048194885253906e+00 -2.722326469421386719e+01 1.901523745048965680e-14 -1.291034607778934751e-13 -3.302646513474866152e-14 5.604491073703601889e-14
6.802000000000000000e+03 6.982084655761718750e+01 -2.903881645202636719e+01 -8.006416303595401129e-14 8.006416303595401129e-14 0.000000000000000000e+00 -7.043144008549856450e-14
6.803000000000000000e+03 7.127085876464843750e+01 -3.029654502868652344e+01 -1.366094737331735587e-13 -1.386110735739076727e-13 -8.256616283687165381e-14 -7.893825973740928315e-14
6.804000000000000000e+03 7.283145141601562500e+01 -2.051745414733886719e+01 6.786688436032735014e-15 2.908580909555627016e-15 2.908580909555627016e-15 8.006416303595401129e-14
6.805000000000000000e+03 7.001537322998046875e+01 -2.202436065673828125e+01 1.916535777735789425e-13 1.736391521019176043e-13 1.095878216731543953e-13 -3.477786838352280030e-14
6.806000000000000000e+03 8.659301757812500000e+00 -2.890832328796386719e+01 -6.004811719476782494e-14 -6.004811719476782494e-14 -3.602887167211341057e-14 4.003208151797700565e-15
6.807000000000000000e+03 6.997156524658203125e+01 -2.689077186584472656e+01 3.878107822938639537e-14 1.538733062408231822e-13 5.779631737394194668e-14 -5.304250758780305885e-14
6.808000000000000000e+03 6.797116088867187500e+01 -2.544868469238281250e+01 2.476984885106149614e-14 -1.225982443548486595e-14 3.753007324672989059e-15 6.705373696612795809e-14
6.809000000000000000e+03 9.426385879516601562e+00 -2.478690910339355469e+01 -4.078268145825229840e-14 3.485293108805576079e-13 9.232398238924119371e-14 6.505213034913026604e-14
6.810000000000000000e+03 9.367011070251464844e+00 -2.342603683471679688e+01 2.552045048540268340e-14 -8.056456299613753980e-14 -1.651323256737433076e-14 1.080866150163402317e-13
6.811000000000000000e+03 9.479662895202636719e+00 -2.645141220092773438e+01 -9.757819552369539906e-15 8.731997601114233065e-14 2.326864727644501613e-14 8.907137587178468041e-14
6.812000000000000000e+03 6.796268463134765625e+01 -3.318187332153320312e+01 -6.204972381176551699e-14 2.001604075898850282e-15 -1.801443583605670529e-14 7.881315466516571749e-15
6.813000000000000000e+03 6.887216186523437500e+01 -2.532373809814453125e+01 1.976583908483084406e-14 -3.727987496070402085e-14 -5.254210593355363584e-15 -6.755413692631148659e-14
6.814000000000000000e+03 8.891598701477050781e+00 -2.772898674011230469e+01 -2.289334561224147524e-14 8.169046629468226794e-14 1.763913586591905891e-14 -1.801443583605670529e-14
6.815000000000000000e+03 7.140952301025390625e+01 -2.408909225463867188e+01 -8.757017599123409490e-14 1.225982477429804485e-13 1.050842118671072717e-14 -1.981587908084919691e-13
6.816000000000000000e+03 6.976221466064453125e+01 -2.342016029357910156e+01 2.602085213965210642e-14 1.941555911270237411e-13 6.605293026949732305e-14 -1.801443583605670529e-14
6.817000000000000000e+03 8.177085876464843750e+00 -3.027217864990234375e+01 -5.454371085648543338e-14 -8.056456299613753980e-14 -4.053248147816053415e-14 -1.726383420171551802e-14
6.818000000000000000e+03 6.901879882812500000e+01 -2.727173614501953125e+01 2.201764398785440585e-14 2.381908689383371858e-13 7.806255641895631925e-14 -4.753809447325708926e-14
6.819000000000000000e+03 6.999287414550781250e+01 -3.252009582519531250e+01 -7.255814330441034965e-14 1.175942345886180074e-13 1.351082687704252897e-14 -6.054852393121493148e-14
6.820000000000000000e+03 7.067494964599609375e+01 -3.450298309326171875e+01 -1.145918348275168364e-13 1.951563910473907981e-14 -2.852285871683332696e-14 -4.103288143834406265e-14
6.821000000000000000e+03 7.065869903564453125e+01 -3.130141830444335938e+01 8.506817110811876886e-15 1.065854151357896462e-13 3.452766840343103605e-14 -2.451964887096973189e-14
6.822000000000000000e+03 1.053434181213378906e+01 -3.135127639770507812e+01 -7.606094980195862720e-14 3.602887167211341057e-14 -1.200962445539310169e-14 9.257418236933295796e-14
6.823000000000000000e+03 5.046553421020507812e+01 -3.870565032958984375e+01 -1.128404281906109086e-13 -9.983000212078485536e-14 -6.380113044867144478e-14 1.000802037949425141e-15
6.824000000000000000e+03 1.649629974365234375e+01 -3.558232116699218750e+01 -9.932960216060132685e-14 7.180754336413505690e-14 -8.256616283687165381e-15 -2.251804564210382886e-14
6.825000000000000000e+03 7.162652587890625000e+01 -2.619730567932128906e+01 1.205966479022463345e-13 2.346880827695796423e-13 1.065854151357896462e-13 -6.004812227696550847e-15
6.826000000000000000e+03 7.168656158447265625e+01 -2.241253089904785156e+01 -4.228388472693467293e-14 -1.553745061213737677e-13 -5.929751725449253219e-14 -7.606094980195862720e-14
6.827000000000000000e+03 7.208459472656250000e+01 -2.169668388366699219e+01 1.349831704744453020e-13 -3.365196847310986117e-14 3.039936195565334787e-14 -6.004811719476782494e-14
6.828000000000000000e+03 7.139377593994140625e+01 -2.485291862487792969e+01 -3.177546523428984027e-14 1.693857456640940340e-13 4.128308141843582690e-14 -3.803047490097931360e-14
6.829000000000000000e+03 7.023830413818359375e+01 -2.766907882690429688e+01 5.254210423948774134e-14 2.251804564210382886e-14 2.251804564210382886e-14 -1.956567910075743266e-13
6.830000000000000000e+03 7.105336761474609375e+01 -2.719562911987304688e+01 1.000802037949425141e-15 2.291836696550336727e-13 6.905533680686207210e-14 7.205774334422682115e-14
6.831000000000000000e+03 7.067922210693359375e+01 -2.579181480407714844e+01 -3.252606517456513302e-14 7.756215645877279075e-14 1.351082687704252897e-14 -4.403528797570881170e-14
6.832000000000000000e+03 6.982170867919921875e+01 -2.604476165771484375e+01 -2.126704235351321859e-14 1.376102770416724047e-14 -2.251804479507088161e-15 -1.361090737729900302e-13
6.833000000000000000e+03 6.707521820068359375e+01 -2.971496009826660156e+01 -4.849198570900520311e-14 2.994743667460164627e-13 7.529471024534523105e-14 1.551243095294137925e-14
6.834000000000000000e+03 6.890930938720703125e+01 -2.983839988708496094e+01 2.239294565205794674e-14 1.239743442453533628e-13 4.391018798566292958e-14 0.000000000000000000e+00
6.835000000000000000e+03 7.117403411865234375e+01 -2.895829772949218750e+01 -4.903929774193946378e-14 -6.104892389139845998e-14 -3.302646513474866152e-14 -9.076023081960177263e-14
6.836000000000000000e+03 7.146012115478515625e+01 -2.324945068359375000e+01 8.506816941405287436e-14 2.652125209983563492e-13 1.050842084789754827e-13 7.706175649858926224e-14
6.837000000000000000e+03 7.136291503906250000e+01 -2.779298782348632812e+01 -2.001604075898850282e-15 2.201764398785440585e-14 6.004812227696550847e-15 -9.907939540424598457e-14
6.838000000000000000e+03 7.083052825927734375e+01 -2.652868270874023438e+01 -1.401122768425900472e-14 -6.004812227696550847e-15 -6.004812227696550847e-15 -1.691355389077386917e-13
6.839000000000000000e+03 6.822736358642578125e+01 -2.882488441467285156e+01 -6.530233032922203029e-14 9.782839550378716331e-14 9.757819552369539906e-15 -3.803047490097931360e-14
6.840000000000000000e+03 8.703606605529785156e+00 -2.709712219238281250e+01 -9.857899544406245607e-14 3.502806921064751181e-15 -2.852285871683332696e-14 -1.401122768425900472e-14
6.841000000000000000e+03 6.976101684570312500e+01 -2.516442108154296875e+01 8.256616283687165381e-15 -1.108388215736132165e-13 -3.077466192579099424e-14 3.202566521438160452e-14
6.842000000000000000e+03 6.681019592285156250e+01 -3.479774856567382812e+01 -7.643625316022806260e-14 6.517723372730793718e-14 -3.377706719260632241e-15 -2.036006657864762592e-14
6.843000000000000000e+03 6.792501068115234375e+01 -3.084502410888671875e+01 -1.387283571439162921e-13 9.171411866721809747e-15 -3.886708256671880801e-14 4.753809362622414200e-15
6.844000000000000000e+03 9.500102043151855469e+00 -3.112556457519531250e+01 -1.363592669768182164e-13 -8.131516293641283255e-14 -6.530233032922203029e-14 1.401122768425900472e-14
6.845000000000000000e+03 6.927752685546875000e+01 -3.403279113769531250e+01 -6.267522715012671664e-14 1.790184618382859028e-13 3.490296837356868243e-14 -2.802245536851800944e-14
6.846000000000000000e+03 6.890364837646484375e+01 -3.180188751220703125e+01 -2.602085213965210642e-14 2.061652172764827373e-13 5.404330750817011586e-14 6.129912217742432973e-15
6.847000000000000000e+03 9.847892761230468750e+00 -3.229334259033203125e+01 -9.057258252859884395e-14 7.556054984177509870e-14 -4.503608959014176322e-15 6.705373696612795809e-14
6.848000000000000000e+03 1.214463233947753906e+01 -3.492249298095703125e+01 -1.070858150959731747e-13 5.704571743366665393e-14 -1.501202929869195624e-14 -4.378508968968294196e-15
6.849000000000000000e+03 6.760671997070312500e+01 -3.823601150512695312e+01 -7.681155651849749799e-14 6.430153040885497329e-14 -3.753007324672989059e-15 -1.188452361831427231e-14
6.850000000000000000e+03 6.557961273193359375e+01 -3.331260299682617188e+01 -6.975902467438663268e-14 -7.021251764401711254e-15 -2.303408352455956626e-14 -3.052446194569922999e-14
6.851000000000000000e+03 7.048892974853515625e+01 -2.973559761047363281e+01 9.764074721278423463e-14 2.745325126084219303e-13 1.116519732029773448e-13 -7.889134766465855098e-14
6.852000000000000000e+03 7.063932800292968750e+01 -2.836118888854980469e+01 1.235990476633475055e-13 1.215974478226133915e-13 7.355895000104098469e-14 -1.198460411857074637e-13
6.853000000000000000e+03 6.973413848876953125e+01 -3.066402626037597656e+01 -9.857899544406245607e-14 -7.656135653840573374e-14 -5.254210423948774134e-14 -6.936808847604267192e-14
6.854000000000000000e+03 6.931536102294921875e+01 -2.821179199218750000e+01 -1.851483749030612830e-14 3.237594383125735886e-13 9.157338244896590096e-14 -9.507618725244828400e-15
6.855000000000000000e+03 6.850681304931640625e+01 -3.590342712402343750e+01 -1.083368149964319960e-13 -2.927345865710861972e-14 -4.128308141843582690e-14 -1.075862116680249142e-14
6.856000000000000000e+03 1.308362197875976562e+01 -4.097535324096679688e+01 -7.143224000586562150e-14 5.516921080671484401e-14 -4.878909776184769953e-15 2.752205540833448094e-14
6.857000000000000000e+03 7.103495788574218750e+01 -2.198279762268066406e+01 3.878107822938639537e-14 1.538733062408231822e-13 5.779631737394194668e-14 -6.805453688649501509e-14
6.858000000000000000e+03 6.730401611328125000e+01 -4.101879119873046875e+01 -1.027698569690607688e-13 2.458219886599267295e-14 -2.345629726151383931e-14 -1.676343424153198952e-14
6.859000000000000000e+03 6.244576644897460938e+01 -3.775407028198242188e+01 -1.063352151556978820e-13 2.877305869692509122e-14 -2.326864727644501613e-14 -1.401122768425900472e-14
6.860000000000000000e+03 5.907163238525390625e+01 -3.746830368041992188e+01 -8.375461782450521753e-14 -2.445709887594679083e-14 -3.246351348547629745e-14 -5.754611400571839341e-15
6.861000000000000000e+03 1.988409614562988281e+01 -3.688602447509765625e+01 -9.808641529204797926e-14 3.713913789541887708e-15 -2.831175100132324318e-14 2.176744400776264160e-14
6.862000000000000000e+03 2.577395057678222656e+01 -1.758779525756835938e+01 -3.356947966132173278e-13 -1.438691966124464039e-13 -1.438691966124464039e-13 -5.085325267980243813e-14
6.863000000000000000e+03 2.513094520568847656e+01 -1.682589149475097656e+01 -7.165742608658542956e-13 -1.240994476235310340e-13 -2.522020949285302960e-13 -1.220978477827969200e-13
6.864000000000000000e+03 3.566547870635986328e+00 -4.057669067382812500e+01 -1.313552605987193533e-14 1.544988095791843818e-13 4.240898471698055505e-14 3.352686848306397904e-14
6.865000000000000000e+03 3.523311614990234375e+01 -4.031346130371093750e+01 -1.312301639968052602e-13 -5.767121399576427554e-14 -5.667041407539721853e-14 -2.489495053517327278e-14
6.866000000000000000e+03 2.259671974182128906e+01 -1.449192047119140625e+01 3.602887167211341057e-14 1.641315257533762506e-13 6.004811719476782494e-14 9.757819552369539906e-14
6.867000000000000000e+03 1.732061505317687988e+00 -4.020008850097656250e+01 -7.506015284620688559e-16 6.830473686658677934e-14 2.026624073908026707e-14 3.652927163229693908e-14
6.868000000000000000e+03 1.013213729858398438e+01 -1.035046005249023438e+01 -2.424442753761607561e-13 1.248500543400699048e-13 -3.527827173183811782e-14 2.021620040424873532e-13
6.869000000000000000e+03 8.175159454345703125e+00 -1.175317573547363281e+01 -1.681347389873716347e-13 2.481988952470620680e-13 2.401924891078620339e-14 -2.001604075898850282e-14
6.870000000000000000e+03 2.156054115295410156e+01 -1.442369937896728516e+01 -2.622101212372551782e-13 -1.581267126786467525e-13 -1.261010474642651480e-13 1.851483647386659159e-13
6.871000000000000000e+03 7.786693572998046875e+01 -3.802951812744140625e+01 1.175942345886180074e-13 1.876503780921107145e-13 9.157338244896590096e-14 4.103288143834406265e-14
6.872000000000000000e+03 7.191718292236328125e+01 -1.623500442504882812e+01 2.001604075898850282e-14 2.602085213965210642e-13 8.406736949368581735e-14 1.601283260719080226e-14
6.873000000000000000e+03 6.945402622222900391e+00 -1.097485160827636719e+01 -1.963761184914369906e-13 -8.416119363918728169e-14 -8.416119363918728169e-14 -1.160930347080674219e-13
6.874000000000000000e+03 2.182349967956542969e+01 -1.400602436065673828e+01 -4.128308141843582690e-14 6.380113044867144478e-14 6.755413438521264483e-15 -1.000802037949425141e-14
6.875000000000000000e+03 2.479355430603027344e+01 -3.062852287292480469e+01 -1.446158866486371708e-13 -1.706367387882892772e-13 -9.457578898633065001e-14 4.591179121452883261e-14
6.876000000000000000e+03 1.970585703849792480e+00 -3.694635391235351562e+01 -1.801443583605670529e-14 3.803047490097931360e-14 6.004812227696550847e-15 9.107298248878237246e-14
6.877000000000000000e+03 5.112525939941406250e+01 -3.136370086669921875e+01 -1.601283260719080226e-13 1.601283260719080226e-13 0.000000000000000000e+00 -2.702165375408505793e-14
6.878000000000000000e+03 1.863228607177734375e+01 -3.243581390380859375e+01 -7.343384662286331355e-14 3.715477497065813872e-14 -1.088372200388132080e-14 -6.505213034913026604e-15
6.879000000000000000e+03 5.908562850952148438e+01 -2.938215255737304688e+01 -8.919647924996235155e-14 1.905276880275613705e-13 3.039936195565334787e-14 -6.605293026949732305e-14
6.880000000000000000e+03 7.531080627441406250e+01 -3.527844238281250000e+01 1.010810020212436766e-13 8.907137587178468041e-14 5.704571743366665393e-14 9.707779556351187056e-14
6.881000000000000000e+03 7.723784637451171875e+01 -3.458716583251953125e+01 -8.106496295632106830e-14 1.100882199392720293e-14 -2.101684237342145434e-14 -1.110890215537049808e-13
6.882000000000000000e+03 7.941960811614990234e+00 -1.822927284240722656e+01 1.476182931860019198e-14 9.782839550378716331e-14 3.377706846315574329e-14 -5.204170427930421283e-14
6.883000000000000000e+03 1.703500938415527344e+01 -2.781788825988769531e+01 -4.303448466720996568e-14 -7.005613842129502361e-15 -1.501202929869195624e-14 -4.378508799561704745e-14
6.884000000000000000e+03 1.755756187438964844e+01 -2.999154090881347656e+01 -4.878909776184769953e-14 -4.378508799561704745e-14 -2.777225538842624519e-14 3.903127820947815962e-14
6.885000000000000000e+03 7.646729278564453125e+01 -3.501624679565429688e+01 4.628709118466647898e-14 1.113392215337967450e-13 4.728789449316532501e-14 -5.004010189747125706e-15
6.886000000000000000e+03 1.680962944030761719e+01 -9.756999969482421875e+00 4.290938467716408355e-14 1.838973750026024617e-14 1.838973750026024617e-14 -2.201764398785440585e-14
6.887000000000000000e+03 6.780812072753906250e+01 -1.802214431762695312e+01 -7.455974992140804170e-14 3.798043693784003416e-13 9.157338244896590096e-14 6.605293026949732305e-14
6.888000000000000000e+03 1.135425949096679688e+01 -2.273333358764648438e+01 -5.004010189747125706e-15 1.351082738526229732e-13 3.903127820947815962e-14 6.305052373213257400e-14
6.889000000000000000e+03 1.582169342041015625e+01 -2.919984817504882812e+01 -5.604491073703601889e-14 1.361090737729900302e-13 2.401924891078620339e-14 -1.301042606982605321e-14
6.890000000000000000e+03 1.159132194519042969e+01 -2.381566047668457031e+01 -5.054050101062183831e-14 1.155926347478838934e-13 1.951563910473907981e-14 -7.205774334422682115e-14
6.891000000000000000e+03 7.476551055908203125e+01 -3.484469223022460938e+01 3.702967498061225660e-14 -7.005613842129502361e-15 9.007217918028352643e-15 -8.156536291650459680e-14
6.892000000000000000e+03 3.259654045104980469e+00 -3.441368484497070312e+01 -9.657739560332834206e-14 -1.786431517037528893e-13 -8.256616283687165381e-14 2.191756433463087905e-13
6.893000000000000000e+03 1.114166641235351562e+01 -2.356964111328125000e+01 5.354290754798658736e-14 1.115894215138885093e-13 4.953969770212299228e-14 3.089976191583687637e-14
6.894000000000000000e+03 1.718848991394042969e+01 -2.905491065979003906e+01 -9.920449878242365571e-14 1.404875835889912716e-13 1.238492442553074807e-14 -7.906335633932337625e-14
6.895000000000000000e+03 1.374230861663818359e+01 -6.726607799530029297e+00 2.852285871683332696e-14 -3.537835172387482352e-13 -9.757819552369539906e-14 1.801443583605670529e-14
6.896000000000000000e+03 1.233872127532958984e+01 -5.907146453857421875e+00 5.304250758780305885e-14 -2.301844560228735737e-14 9.007217918028352643e-15 3.953167816966168813e-14
6.897000000000000000e+03 3.474814653396606445e+00 -4.742695331573486328e+00 -4.728789449316532501e-14 -2.026624073908026707e-14 -2.026624073908026707e-14 9.707779556351187056e-14
6.898000000000000000e+03 6.903941345214843750e+01 -1.782466506958007812e+01 3.702967498061225660e-14 -1.671339390670045777e-13 -3.903127820947815962e-14 3.002405859738391247e-14
6.899000000000000000e+03 6.598305511474609375e+01 -2.731131362915039062e+01 -7.506014988159157020e-14 1.050842084789754827e-13 9.007217918028352643e-15 5.804651735403371093e-14
6.900000000000000000e+03 6.095206832885742188e+01 -2.716960906982421875e+01 -6.805453688649501509e-14 -1.200962445539310169e-14 -2.401924891078620339e-14 2.201764398785440585e-14
6.901000000000000000e+03 7.473749542236328125e+01 -3.315872192382812500e+01 7.355895000104098469e-14 3.152526186606628700e-14 3.152526186606628700e-14 2.502005094873562853e-16
6.902000000000000000e+03 5.710526466369628906e+00 -2.808892059326171875e+01 -7.556054984177509870e-14 -1.696359388679222202e-13 -7.355895000104098469e-14 -4.003208151797700565e-14
6.903000000000000000e+03 9.163004875183105469e+00 -2.274018859863281250e+01 -1.328564672555335169e-13 8.031436301604577555e-14 -1.576263093303314350e-14 -1.401122870069854143e-13
6.904000000000000000e+03 7.234525680541992188e+00 -5.696152687072753906e+00 -4.703769451307356075e-14 -4.303448466720996568e-14 -2.702165375408505793e-14 4.053248147816053415e-14
6.905000000000000000e+03 7.576570129394531250e+01 -3.137183189392089844e+01 -1.751403587587317678e-14 -7.506014649345978118e-15 -7.506014649345978118e-15 -1.591275125990138095e-13
6.906000000000000000e+03 6.763739585876464844e+00 -6.482115268707275391e+00 -2.086672170774003798e-13 9.357498906596359300e-14 -3.452766840343103605e-14 2.191756433463087905e-13
6.907000000000000000e+03 7.510585021972656250e+01 -3.211846160888671875e+01 5.254210423948774134e-14 2.251804564210382886e-14 2.251804564210382886e-14 -4.503609128420765773e-14
6.908000000000000000e+03 6.827921295166015625e+01 -2.048374557495117188e+01 -1.200962445539310169e-14 1.321058605389946461e-13 3.602887167211341057e-14 5.204170427930421283e-14
6.909000000000000000e+03 8.683678627014160156e+00 -2.283741378784179688e+01 -7.105694342385976414e-14 -2.592077214761540072e-13 -9.907939540424598457e-14 -1.901523745048965680e-14
6.910000000000000000e+03 7.101546764373779297e+00 -2.375798988342285156e+01 1.150922280114367868e-14 -8.656937607086703790e-14 -2.251804564210382886e-14 -5.904731727440076794e-14
6.911000000000000000e+03 5.634270668029785156e+00 -2.625839614868164062e+01 -3.702967498061225660e-14 -1.531227130768114675e-13 -5.704571743366665393e-14 -9.707779556351187056e-14
6.912000000000000000e+03 5.997907161712646484e+00 -2.679916000366210938e+01 -6.492702697095259490e-14 6.367602707049377364e-14 -3.753007642310344279e-16 1.200962445539310169e-14
6.913000000000000000e+03 7.290839385986328125e+01 -2.899985122680664062e+01 1.115894215138885093e-13 4.938957771406793373e-13 1.816455650173812164e-13 -7.681155651849749799e-14
6.914000000000000000e+03 5.375117778778076172e+00 -6.995147228240966797e+00 -2.270569528835947315e-13 8.569367275241407400e-14 -4.240898471698055505e-14 5.804651735403371093e-14
6.915000000000000000e+03 7.261225891113281250e+01 -2.715745544433593750e+01 -1.641315257533762506e-13 2.041636038832214672e-13 1.200962445539310169e-14 -4.003208151797700565e-14
6.916000000000000000e+03 7.302734375000000000e+01 -2.264992523193359375e+01 6.204972381176551699e-14 1.180946345488015359e-13 5.404330750817011586e-14 2.602085213965210642e-14
6.917000000000000000e+03 7.238171386718750000e+01 -2.264755439758300781e+01 -5.579471075694425464e-14 1.133408281507944371e-13 1.726383420171551802e-14 -1.070858150959731747e-13
6.918000000000000000e+03 1.445141410827636719e+01 -1.738320231437683105e+00 -3.753007494079578510e-14 5.254210423948774134e-14 4.503608959014176322e-15 -1.676343424153198952e-14
6.919000000000000000e+03 1.399005413055419922e+01 -2.351786375045776367e+00 1.366094737331735587e-13 -2.617097348295988057e-13 -3.753007494079578510e-14 -1.276022524270134170e-14
6.920000000000000000e+03 1.315893840789794922e+01 -1.124567389488220215e+00 8.894627926987058730e-14 -7.631115486424807498e-15 2.439454888092384977e-14 2.201764398785440585e-14
6.921000000000000000e+03 1.286564445495605469e+01 -2.057386875152587891e+00 2.366896826103137563e-13 -8.156536291650459680e-14 4.653729455289003225e-14 -1.811451650571976879e-13
6.922000000000000000e+03 1.515422248840332031e+01 -2.034060716629028320e+00 1.351082687704252897e-14 5.154130431912068433e-14 1.951563910473907981e-14 -1.501203056924137712e-15
6.923000000000000000e+03 1.476873493194580078e+01 -2.677469968795776367e+00 8.306656957331876034e-14 -3.302646513474866152e-14 1.501202929869195624e-14 1.351082687704252897e-14
6.924000000000000000e+03 1.380067443847656250e+01 -1.425752282142639160e+00 -3.878107738235344812e-15 -3.676696262982365182e-13 -1.114643249119744162e-13 -9.107298248878237246e-14
6.925000000000000000e+03 1.296116638183593750e+01 -1.574859380722045898e+00 -1.025822035958601566e-14 -1.874001713357553722e-13 -5.929751725449253219e-14 -1.200962445539310169e-14
6.926000000000000000e+03 1.342884063720703125e+01 -1.939940571784973145e+00 9.107298248878237246e-14 7.906335633932337625e-14 5.104090097080536681e-14 4.228388472693467293e-14
6.927000000000000000e+03 2.682331085205078125e+01 -1.744818687438964844e+01 1.828965716941036157e-13 1.130656115608252854e-12 3.940658021249487941e-13 1.601283260719080226e-14
6.928000000000000000e+03 2.875916481018066406e+01 -1.744998550415039062e+01 -6.405133042876320904e-14 -5.604491073703601889e-14 -3.602887167211341057e-14 1.468676932457266271e-13
6.929000000000000000e+03 2.876370811462402344e+01 -1.826377677917480469e+01 -4.753809447325708926e-14 1.626303258728256651e-13 3.452766840343103605e-14 1.941555911270237411e-13
6.930000000000000000e+03 2.741421890258789062e+01 -1.734025192260742188e+01 8.181556289659636105e-14 4.010714015675181932e-13 1.448660934049925131e-13 1.471179000020819694e-13
6.931000000000000000e+03 2.956935310363769531e+01 -1.817124748229980469e+01 2.562053217150528361e-13 -2.562053217150528361e-13 0.000000000000000000e+00 -7.305854326459387815e-14
6.932000000000000000e+03 2.999011230468750000e+01 -1.864334487915039062e+01 -1.961571909677578551e-13 -8.406736949368581735e-14 -8.406736949368581735e-14 -3.402726844324750755e-14
6.933000000000000000e+03 3.029630470275878906e+01 -1.815910530090332031e+01 1.621299259126421366e-13 2.982389996856321668e-13 1.381106736137241442e-13 -2.331868693365019007e-13
6.934000000000000000e+03 3.119522666931152344e+01 -1.881901931762695312e+01 -3.152526254369264480e-13 -1.351082738526229732e-13 -1.351082738526229732e-13 8.406736949368581735e-14
6.935000000000000000e+03 3.168391799926757812e+01 -1.886327171325683594e+01 6.004812227696550847e-15 1.401122768425900472e-14 6.004812227696550847e-15 -3.252606517456513302e-14
6.936000000000000000e+03 2.970970916748046875e+01 -1.785314369201660156e+01 2.942358000041639388e-13 1.261010474642651480e-13 1.261010474642651480e-13 -6.004811719476782494e-14
6.937000000000000000e+03 3.009082984924316406e+01 -1.837589454650878906e+01 -5.904731727440076794e-14 2.491996951674291250e-13 5.704571743366665393e-14 -1.080866150163402317e-13
6.938000000000000000e+03 2.937466621398925781e+01 -1.848482322692871094e+01 -4.433552862944528661e-13 -3.272622515863854442e-13 -2.311852694957677867e-13 4.703769451307356075e-14
6.939000000000000000e+03 2.746829032897949219e+01 -1.678302001953125000e+01 -3.547843171591152922e-13 -6.054852393121493148e-14 -1.245998475837145625e-13 1.301042606982605321e-13
6.940000000000000000e+03 2.810153007507324219e+01 -1.805529785156250000e+01 9.457578898633065001e-14 -2.797241605012601440e-13 -5.554451077685249039e-14 1.601283260719080226e-14
6.941000000000000000e+03 2.667152023315429688e+01 -1.641415023803710938e+01 -1.656327256339268361e-13 6.610297162076839150e-13 1.486190998826325549e-13 -2.747201608994248589e-13
6.942000000000000000e+03 2.617222595214843750e+01 -1.698502540588378906e+01 -5.024025900163264780e-13 8.827073729074375041e-13 1.140914348673333079e-13 -4.588676986126694057e-13
6.943000000000000000e+03 2.820173072814941406e+01 -1.708135604858398438e+01 -3.823063556267908281e-13 -1.180946345488015359e-13 -1.501202997631831404e-13 1.921539912862896271e-13
6.944000000000000000e+03 2.740960693359375000e+01 -1.783232307434082031e+01 1.741395520621011328e-13 1.661331391466375207e-13 1.020818019416107336e-13 6.204972381176551699e-14
6.945000000000000000e+03 3.115101432800292969e+01 -1.858682441711425781e+01 3.843079825725792542e-13 2.562053217150528361e-13 1.921539912862896271e-13 -1.251002475438980910e-13
6.946000000000000000e+03 3.059906387329101562e+01 -1.874114036560058594e+01 -1.556247128777291100e-13 -2.497001086801398095e-13 -1.215974478226133915e-13 6.004811719476782494e-14
6.947000000000000000e+03 3.059508132934570312e+01 -1.846459770202636719e+01 1.486190998826325549e-13 2.466976818139843264e-13 1.185950345089850644e-13 1.240994476235310340e-13
6.948000000000000000e+03 2.814223289489746094e+01 -1.752326393127441406e+01 2.594579282325093494e-13 -7.180754336413505690e-14 5.629511410525957216e-14 -7.005613842129502361e-15
6.949000000000000000e+03 2.914482498168945312e+01 -1.786606597900390625e+01 2.542037218743187221e-13 -3.943159817762498243e-13 -4.203368474684290867e-14 1.296038607380770036e-13
6.950000000000000000e+03 2.466052436828613281e+01 -1.399974441528320312e+01 6.089880119283797022e-13 9.472590897438570856e-13 4.668741521857144861e-13 -6.515221305167240295e-13
6.951000000000000000e+03 2.453465080261230469e+01 -1.509176063537597656e+01 2.567057081227092086e-13 6.590281163669498010e-13 2.747201608994248589e-13 -3.082470259943570490e-13
6.952000000000000000e+03 2.502702331542968750e+01 -1.576423931121826172e+01 -1.726383420171551802e-14 4.801347579068415694e-13 1.388612803302630150e-13 -4.114234452255727259e-13
6.953000000000000000e+03 2.404776763916015625e+01 -1.441548252105712891e+01 1.937802945450178838e-13 5.405581581310880956e-13 2.203015466448535187e-13 -3.302646513474866152e-13
6.954000000000000000e+03 2.511550712585449219e+01 -1.463246059417724609e+01 3.434001943480174956e-13 1.016439536705160407e-12 4.079519111844370771e-13 -8.016423896223257017e-13
6.955000000000000000e+03 2.552395820617675781e+01 -1.643102645874023438e+01 -3.329543129919343425e-13 6.350714225333842222e-13 9.063513421768767953e-14 -3.552847035667716646e-13
6.956000000000000000e+03 2.604132461547851562e+01 -1.588424587249755859e+01 1.578765194748185663e-13 8.454275148873924284e-13 3.009911926903779955e-13 -7.746207646673608505e-13
6.957000000000000000e+03 2.557597732543945312e+01 -1.526137638092041016e+01 5.508789496615207337e-13 1.151109914852843641e-12 5.105966647753201748e-13 -6.675349292425969416e-13
6.958000000000000000e+03 2.319392776489257812e+01 -1.134591865539550781e+01 3.370200711387549841e-13 8.764523395238255077e-13 3.640417231987741475e-13 -4.243400607024244708e-13
6.959000000000000000e+03 2.326423454284667969e+01 -1.306139087677001953e+01 4.093280076868099915e-13 4.613697119661142043e-13 2.612093213168881212e-13 -4.218380473489796723e-13
6.960000000000000000e+03 2.254657173156738281e+01 -1.170469474792480469e+01 1.496198998029996119e-13 5.559455348337627445e-13 2.116696303910287069e-13 -3.487794905318586380e-13
6.961000000000000000e+03 2.362532424926757812e+01 -1.373823738098144531e+01 4.968982040068348205e-13 5.789639601072593678e-13 3.227586383922065316e-13 -3.507810903725927520e-13
6.962000000000000000e+03 2.390093421936035156e+01 -1.268251132965087891e+01 3.676696262982365182e-13 8.895878825243563881e-13 3.771772661993050280e-13 -5.264218423152444704e-13
6.963000000000000000e+03 2.354633140563964844e+01 -1.201502132415771484e+01 2.622101212372551782e-13 7.986400169662788429e-13 3.182550251980276190e-13 -5.314258690221340675e-13
6.964000000000000000e+03 2.425669479370117188e+01 -1.334930610656738281e+01 3.863095824133133682e-13 1.034829231853773290e-12 4.263416605431585849e-13 -7.145726068150115573e-13
6.965000000000000000e+03 2.290430450439453125e+01 -1.238384914398193359e+01 3.177546387903712466e-13 7.080673937800985307e-13 3.077466124816463644e-13 -3.953167816966168813e-13
6.966000000000000000e+03 2.211177825927734375e+01 -9.384786605834960938e+00 2.092927204157615795e-13 7.302101631689872363e-13 2.818508772726990852e-13 -3.953167816966168813e-13
6.967000000000000000e+03 2.111507797241210938e+01 -9.119487762451171875e+00 1.025822086780578402e-13 3.527827173183811782e-13 1.366094737331735587e-13 -2.814755535856389157e-13
6.968000000000000000e+03 2.147401618957519531e+01 -9.760485649108886719e+00 2.532028948488973530e-13 6.575269300389263716e-13 2.732189474663471174e-13 -3.587875168405835202e-13
6.969000000000000000e+03 2.247536849975585938e+01 -1.003463172912597656e+01 3.335172578649431285e-13 8.749511531958020782e-13 3.625405368707507181e-13 -3.522823038056704936e-13
6.970000000000000000e+03 2.219019126892089844e+01 -1.104334068298339844e+01 3.337674646212984708e-13 6.119904387945351854e-13 2.837273601827283720e-13 -3.492799040445693226e-13
6.971000000000000000e+03 2.283775901794433594e+01 -1.068520069122314453e+01 2.652125209983563492e-13 8.456776945386934585e-13 3.332670782136420984e-13 -4.643721388322696875e-13
6.972000000000000000e+03 2.174793815612792969e+01 -8.735008239746093750e+00 1.989093975250308399e-13 6.342582709040200939e-13 2.499502883314408397e-13 -3.272622515863854442e-13
6.973000000000000000e+03 2.183270454406738281e+01 -1.040155124664306641e+01 1.326062604991781746e-13 5.029030035290371625e-13 1.906527778532118855e-13 -3.555349103231270069e-13
6.974000000000000000e+03 2.053260231018066406e+01 -6.879840850830078125e+00 2.321860694161348437e-13 3.282630515067525012e-13 1.681347389873716347e-13 -3.342678781340091554e-13
6.975000000000000000e+03 1.993260192871093750e+01 -7.313529014587402344e+00 2.026624040026708817e-13 5.329270553501574970e-13 2.206768432268593760e-13 -3.335172578649431285e-13
6.976000000000000000e+03 1.952820014953613281e+01 -6.721570968627929688e+00 1.946559910872072696e-13 3.808051692987673986e-13 1.726383521815505473e-13 -1.746399520222846613e-13
6.977000000000000000e+03 2.073616981506347656e+01 -8.501105308532714844e+00 2.592077214761540072e-13 3.512815038853034366e-13 1.831467648979318019e-13 -2.977385861729214822e-13
6.978000000000000000e+03 2.033558845520019531e+01 -7.906519412994384766e+00 2.962373998448980528e-13 4.243400607024244708e-13 2.161732300326804634e-13 -2.702165477052459464e-13
6.979000000000000000e+03 2.136049652099609375e+01 -8.103272438049316406e+00 2.537033083616080376e-13 5.319262825348447521e-13 2.356888826899466993e-13 -3.422742774969456114e-13
6.980000000000000000e+03 2.011603736877441406e+01 -6.269954204559326172e+00 1.323560672953499884e-13 2.854787803721614559e-13 1.253504543002534333e-13 -2.682149478645118323e-13
6.981000000000000000e+03 2.094775009155273438e+01 -7.490758895874023438e+00 2.074162104006779805e-13 5.006512240370020184e-13 2.124202235550404216e-13 -3.372702778951103264e-13
6.982000000000000000e+03 1.831673240661621094e+01 -5.410979747772216797e+00 3.129382874795388902e-13 2.256182979158694035e-13 1.615669674871061945e-13 -9.107298248878237246e-14
6.983000000000000000e+03 1.796581268310546875e+01 -4.379739761352539062e+00 3.711724395720483738e-13 2.505757916698020393e-13 1.865244747935659864e-13 -1.311050606186275891e-13
6.984000000000000000e+03 1.916439056396484375e+01 -5.026451110839843750e+00 1.556247128777291100e-13 2.497001086801398095e-13 1.215974478226133915e-13 -2.066656172366662658e-13
6.985000000000000000e+03 1.766269302368164062e+01 -4.787173271179199219e+00 1.565004094199184959e-13 2.500754052621456669e-13 1.219727444046192488e-13 -1.601283260719080226e-13
6.986000000000000000e+03 1.960504913330078125e+01 -5.639448642730712891e+00 2.266816563015888741e-13 1.486190998826325549e-13 1.125902282105191443e-13 -2.483239850727125830e-13
6.987000000000000000e+03 1.899693298339843750e+01 -6.071344852447509766e+00 1.301042606982605321e-13 2.101684169579509653e-13 1.020818019416107336e-13 -2.399422891277702696e-13
6.988000000000000000e+03 1.877602386474609375e+01 -4.501258850097656250e+00 1.821459649775647449e-13 2.381908689383371858e-13 1.261010474642651480e-13 -2.131708302715792924e-13
6.989000000000000000e+03 1.826732254028320312e+01 -3.990119457244873047e+00 1.801443651368306309e-13 1.801443651368306309e-13 1.080866150163402317e-13 -2.316856559034241592e-13
6.990000000000000000e+03 1.856897354125976562e+01 -4.905802249908447266e+00 1.861491782115601290e-13 3.402726844324750755e-14 6.605293026949732305e-14 -1.341074739322559162e-13
6.991000000000000000e+03 1.707021331787109375e+01 -4.268254280090332031e+00 3.257610652583620148e-13 5.954771723458429644e-14 1.155926347478838934e-13 -1.248500543400699048e-13
6.992000000000000000e+03 1.621372604370117188e+01 -3.519178628921508789e+00 1.721379386688398627e-13 2.802245536851800944e-14 6.004811719476782494e-14 -4.453568793589234021e-14
6.993000000000000000e+03 1.551975250244140625e+01 -3.071315765380859375e+00 2.569559148790645509e-13 -1.643817325097315929e-13 2.777225538842624519e-14 4.903929774193946378e-14
6.994000000000000000e+03 1.743298530578613281e+01 -3.927525758743286133e+00 1.661331391466375207e-13 2.542037218743187221e-13 1.261010474642651480e-13 -3.292638514271195582e-13
6.995000000000000000e+03 1.686964225769042969e+01 -3.746908664703369141e+00 2.922341730583755126e-13 -1.200962445539310169e-14 8.406736949368581735e-14 3.903127820947815962e-14
6.996000000000000000e+03 1.770870399475097656e+01 -3.523030519485473633e+00 2.849158083940983577e-13 2.136086717664104073e-13 1.495573548901743544e-13 -2.031628039628544102e-13
6.997000000000000000e+03 1.647576141357421875e+01 -2.802853107452392578e+00 2.758460506454424310e-13 1.182197379269792070e-13 1.182197379269792070e-13 -3.402726844324750755e-14
6.998000000000000000e+03 1.583880043029785156e+01 -2.393620014190673828e+00 1.317305639569887887e-13 1.022069053197884048e-13 7.018124010540680024e-14 -3.302646513474866152e-14
6.999000000000000000e+03 1.709996223449707031e+01 -3.162671089172363281e+00 3.232590519049172162e-13 4.703769451307356075e-14 1.110890215537049808e-13 -1.411130869273524713e-13
