# el_label, x, y, sXX, sYY, sZZ, sXY
1.000000000000000000e+00 1.999021339416503906e+01 -5.524930000305175781e+00 -2.247836738824844360e-01 2.905394554138183594e+00 8.041833043098449707e-01 -2.818099737167358398e+00
2.000000000000000000e+00 1.984098052978515625e+01 -5.393222332000732422e+00 3.844924688339233398e+00 2.583369493484497070e+00 1.928488254547119141e+00 -2.653810501098632812e+00
3.000000000000000000e+00 1.969174766540527344e+01 -5.261515140533447266e+00 2.143930435180664062e+00 1.937065839767456055e+00 1.224298834800720215e+00 -2.270476579666137695e+00
4.000000000000000000e+00 1.954251480102539062e+01 -5.129807472229003906e+00 2.105327367782592773e+00 1.624224781990051270e+00 1.118865728378295898e+00 -1.772866249084472656e+00
5.000000000000000000e+00 1.995603179931640625e+01 -5.572291851043701172e+00 7.392914772033691406e+00 4.528694152832031250e+00 3.576482772827148438e+00 -7.680175781250000000e+00
6.000000000000000000e+00 1.978401374816894531e+01 -5.472159385681152344e+00 5.316122531890869141e+00 2.883203506469726562e+00 2.459797859191894531e+00 -3.725585222244262695e+00
7.000000000000000000e+00 1.961199378967285156e+01 -5.372026443481445312e+00 5.412584781646728516e+00 2.130310297012329102e+00 2.262868404388427734e+00 -3.347584009170532227e+00
8.000000000000000000e+00 1.943997383117675781e+01 -5.271893978118896484e+00 4.177063465118408203e+00 1.729210853576660156e+00 1.771882176399230957e+00 -2.815227746963500977e+00
9.000000000000000000e+00 1.993172645568847656e+01 -5.625402450561523438e+00 1.527443408966064453e+01 2.732702493667602539e+00 5.402141094207763672e+00 -7.605203151702880859e+00
1.000000000000000000e+01 1.974350547790527344e+01 -5.560676574707031250e+00 9.859997749328613281e+00 2.408494710922241211e+00 3.680547714233398438e+00 -5.126765251159667969e+00
1.100000000000000000e+01 1.955528259277343750e+01 -5.495950698852539062e+00 7.971464157104492188e+00 1.759358644485473633e+00 2.919246912002563477e+00 -3.536560297012329102e+00
1.200000000000000000e+01 1.936705970764160156e+01 -5.431224822998046875e+00 7.125513076782226562e+00 1.301408648490905762e+00 2.528076648712158203e+00 -3.125379085540771484e+00
1.300000000000000000e+01 1.991822814941406250e+01 -5.682228565216064453e+00 2.156030845642089844e+01 1.696611046791076660e+00 6.977076053619384766e+00 -5.680251598358154297e+00
1.400000000000000000e+01 1.972100448608398438e+01 -5.655386447906494141e+00 1.432718467712402344e+01 1.186563730239868164e+00 4.654124736785888672e+00 -4.132452487945556641e+00
1.500000000000000000e+01 1.952378273010253906e+01 -5.628544807434082031e+00 1.157741069793701172e+01 1.156031370162963867e+00 3.820032596588134766e+00 -3.263591766357421875e+00
1.600000000000000000e+01 1.932655906677246094e+01 -5.601703166961669922e+00 9.710041999816894531e+00 5.932061076164245605e-01 3.090974330902099609e+00 -2.477784633636474609e+00
1.700000000000000000e+01 1.991604995727539062e+01 -5.740595340728759766e+00 2.573007011413574219e+01 1.140269398689270020e+00 8.061101913452148438e+00 -2.022798299789428711e+00
1.800000000000000000e+01 1.971737670898437500e+01 -5.752665042877197266e+00 1.811298179626464844e+01 1.054807186126708984e+00 5.750337123870849609e+00 -2.153977870941162109e+00
1.900000000000000000e+01 1.951870155334472656e+01 -5.764734745025634766e+00 1.439582633972167969e+01 4.023406803607940674e-01 4.439450263977050781e+00 -1.603891968727111816e+00
2.000000000000000000e+01 1.932002639770507812e+01 -5.776803970336914062e+00 1.254027366638183594e+01 4.094422757625579834e-01 3.884914875030517578e+00 -1.336391448974609375e+00
2.100000000000000000e+01 1.992527770996093750e+01 -5.798269271850585938e+00 2.808691787719726562e+01 2.687636613845825195e+00 9.232366561889648438e+00 1.895492553710937500e+00
2.200000000000000000e+01 1.973275566101074219e+01 -5.848788738250732422e+00 2.019330787658691406e+01 1.319402813911437988e+00 6.453813076019287109e+00 8.067235946655273438e-01
2.300000000000000000e+01 1.954023170471191406e+01 -5.899307727813720703e+00 1.660589408874511719e+01 9.700578451156616211e-01 5.272785663604736328e+00 4.462859928607940674e-01
2.400000000000000000e+01 1.934770774841308594e+01 -5.949826240539550781e+00 1.402708816528320312e+01 3.209053277969360352e-01 4.304398059844970703e+00 6.225523948669433594e-01
2.500000000000000000e+01 1.994555664062500000e+01 -5.853043556213378906e+00 2.801957130432128906e+01 5.133766651153564453e+00 9.946002006530761719e+00 5.784859657287597656e+00
2.600000000000000000e+01 1.976655387878417969e+01 -5.940078735351562500e+00 2.123233795166015625e+01 3.206195116043090820e+00 7.331559658050537109e+00 3.513472318649291992e+00
2.700000000000000000e+01 1.958754920959472656e+01 -6.027113437652587891e+00 1.720806503295898438e+01 2.001446485519409180e+00 5.762853622436523438e+00 2.981793403625488281e+00
2.800000000000000000e+01 1.940854644775390625e+01 -6.114148139953613281e+00 1.491078567504882812e+01 1.505263924598693848e+00 4.924814701080322266e+00 2.554191350936889648e+00
2.900000000000000000e+01 1.997611236572265625e+01 -5.902821063995361328e+00 2.692477035522460938e+01 9.115845680236816406e+00 1.081218433380126953e+01 8.407652854919433594e+00
3.000000000000000000e+01 1.981747817993164062e+01 -6.023041248321533203e+00 2.049215698242187500e+01 5.622740268707275391e+00 7.834468841552734375e+00 5.990317821502685547e+00
3.100000000000000000e+01 1.965884590148925781e+01 -6.143260955810546875e+00 1.718175697326660156e+01 4.229124069213867188e+00 6.423264503479003906e+00 4.914407253265380859e+00
3.200000000000000000e+01 1.950021362304687500e+01 -6.263481140136718750e+00 1.453816509246826172e+01 3.161969184875488281e+00 5.310040473937988281e+00 4.555248737335205078e+00
3.300000000000000000e+01 2.001577377319335938e+01 -5.945697307586669922e+00 2.437994003295898438e+01 1.318725013732910156e+01 1.127015686035156250e+01 9.866230010986328125e+00
3.400000000000000000e+01 1.988358306884765625e+01 -6.094501495361328125e+00 1.941129302978515625e+01 8.966320991516113281e+00 8.513284683227539062e+00 7.356768608093261719e+00
3.500000000000000000e+01 1.975139045715332031e+01 -6.243305683135986328e+00 1.581682205200195312e+01 6.760879516601562500e+00 6.773310184478759766e+00 6.359362125396728516e+00
3.600000000000000000e+01 1.961919975280761719e+01 -6.392109394073486328e+00 1.392267322540283203e+01 5.518946647644042969e+00 5.832485675811767578e+00 5.627567768096923828e+00
3.700000000000000000e+01 2.006302642822265625e+01 -5.980031013488769531e+00 2.230651664733886719e+01 1.741777992248535156e+01 1.191728878021240234e+01 9.702706336975097656e+00
3.800000000000000000e+01 1.996233367919921875e+01 -6.151724338531494141e+00 1.729498291015625000e+01 1.211937141418457031e+01 8.824306488037109375e+00 7.838228702545166016e+00
3.900000000000000000e+01 1.986164283752441406e+01 -6.323417663574218750e+00 1.463872241973876953e+01 9.735991477966308594e+00 7.312414169311523438e+00 6.699892997741699219e+00
4.000000000000000000e+01 1.976095199584960938e+01 -6.495110988616943359e+00 1.223103332519531250e+01 7.980089187622070312e+00 6.063336849212646484e+00 6.043705940246582031e+00
4.100000000000000000e+01 2.011605644226074219e+01 -6.004508495330810547e+00 1.995278358459472656e+01 2.061248207092285156e+01 1.216957950592041016e+01 8.483040809631347656e+00
4.200000000000000000e+01 2.005072021484375000e+01 -6.192520141601562500e+00 1.594093608856201172e+01 1.517429065704345703e+01 9.334568023681640625e+00 7.136463165283203125e+00
4.300000000000000000e+01 1.998538208007812500e+01 -6.380531787872314453e+00 1.281624221801757812e+01 1.222977542877197266e+01 7.513805389404296875e+00 6.252420902252197266e+00
4.400000000000000000e+01 1.992004585266113281e+01 -6.568543434143066406e+00 1.118987274169921875e+01 1.051145458221435547e+01 6.510397911071777344e+00 5.617277622222900391e+00
4.500000000000000000e+01 2.017283821105957031e+01 -6.018192768096923828e+00 1.903976440429687500e+01 2.292624092102050781e+01 1.258980178833007812e+01 6.494315624237060547e+00
4.600000000000000000e+01 2.014535522460937500e+01 -6.215327262878417969e+00 1.444947719573974609e+01 1.729846191406250000e+01 9.524381637573242188e+00 5.648944854736328125e+00
4.700000000000000000e+01 2.011787414550781250e+01 -6.412462234497070312e+00 1.201147174835205078e+01 1.428091239929199219e+01 7.887715339660644531e+00 5.024811744689941406e+00
4.800000000000000000e+01 2.009039115905761719e+01 -6.609596252441406250e+00 9.937329292297363281e+00 1.217603588104248047e+01 6.634009361267089844e+00 4.523049831390380859e+00
4.900000000000000000e+01 2.023119926452636719e+01 -6.020560264587402344e+00 1.858744621276855469e+01 2.385750770568847656e+01 1.273348617553710938e+01 4.186367034912109375e+00
5.000000000000000000e+01 2.024262237548828125e+01 -6.219273090362548828e+00 1.415499305725097656e+01 1.859826087951660156e+01 9.825976371765136719e+00 3.773175954818725586e+00
5.100000000000000000e+01 2.025404548645019531e+01 -6.417985916137695312e+00 1.145574951171875000e+01 1.533668708801269531e+01 8.037731170654296875e+00 3.292434692382812500e+00
5.200000000000000000e+01 2.026547050476074219e+01 -6.616698741912841797e+00 9.637126922607421875e+00 1.319270992279052734e+01 6.848951339721679688e+00 2.988983392715454102e+00
5.300000000000000000e+01 2.028890228271484375e+01 -6.011520385742187500e+00 1.931323051452636719e+01 2.382417106628417969e+01 1.294122028350830078e+01 2.125722646713256836e+00
5.400000000000000000e+01 2.033879470825195312e+01 -6.204206466674804688e+00 1.441538238525390625e+01 1.867208480834960938e+01 9.926239967346191406e+00 1.821143746376037598e+00
5.500000000000000000e+01 2.038868713378906250e+01 -6.396892547607421875e+00 1.185281181335449219e+01 1.560894203186035156e+01 8.238526344299316406e+00 1.557039380073547363e+00
5.600000000000000000e+01 2.043858146667480469e+01 -6.589578628540039062e+00 9.884186744689941406e+00 1.345892810821533203e+01 7.002934455871582031e+00 1.354231119155883789e+00
5.700000000000000000e+01 2.034374046325683594e+01 -5.991418838500976562e+00 2.047211647033691406e+01 2.274361038208007812e+01 1.296471881866455078e+01 5.168001651763916016e-01
5.800000000000000000e+01 2.043019485473632812e+01 -6.170704364776611328e+00 1.563022518157958984e+01 1.792472457885742188e+01 1.006648445129394531e+01 2.996154129505157471e-01
5.900000000000000000e+01 2.051664733886718750e+01 -6.349989414215087891e+00 1.270022296905517578e+01 1.491354942321777344e+01 8.284132003784179688e+00 1.523600965738296509e-01
6.000000000000000000e+01 2.060309982299804688e+01 -6.529274463653564453e+00 1.090322017669677734e+01 1.305087566375732422e+01 7.186228752136230469e+00 1.014946848154067993e-01
6.100000000000000000e+01 2.039361763000488281e+01 -5.961025238037109375e+00 2.223243713378906250e+01 2.115641975402832031e+01 1.301665687561035156e+01 -3.013742864131927490e-01
6.200000000000000000e+01 2.051332283020019531e+01 -6.120048046112060547e+00 1.711614227294921875e+01 1.637312889099121094e+01 1.004678153991699219e+01 -5.712730884552001953e-01
6.300000000000000000e+01 2.063302612304687500e+01 -6.279070854187011719e+00 1.420225143432617188e+01 1.367662811279296875e+01 8.363663673400878906e+00 -5.635038018226623535e-01
6.400000000000000000e+01 2.075272941589355469e+01 -6.438093662261962891e+00 1.209979820251464844e+01 1.177383804321289062e+01 7.162090778350830078e+00 -5.518310666084289551e-01
6.500000000000000000e+01 2.043662261962890625e+01 -5.921502590179443359e+00 2.398342704772949219e+01 1.912633514404296875e+01 1.293292903900146484e+01 -3.141035139560699463e-01
6.600000000000000000e+01 2.058499717712402344e+01 -6.054177284240722656e+00 1.883022880554199219e+01 1.458649158477783203e+01 1.002501583099365234e+01 -5.037027001380920410e-01
6.700000000000000000e+01 2.073336982727050781e+01 -6.186851024627685547e+00 1.567412853240966797e+01 1.203524303436279297e+01 8.312811851501464844e+00 -5.234162807464599609e-01
6.800000000000000000e+01 2.088174438476562500e+01 -6.319525241851806641e+00 1.359058666229248047e+01 1.023064231872558594e+01 7.146368503570556641e+00 -5.363115668296813965e-01
6.900000000000000000e+01 2.047110939025878906e+01 -5.874363422393798828e+00 2.554207992553710938e+01 1.713835144042968750e+01 1.280412960052490234e+01 5.836520791053771973e-01
7.000000000000000000e+01 2.064247512817382812e+01 -5.975611686706542969e+00 2.020654296875000000e+01 1.283574485778808594e+01 9.912686347961425781e+00 4.497002959251403809e-01
7.100000000000000000e+01 2.081384086608886719e+01 -6.076859474182128906e+00 1.691858482360839844e+01 1.046322441101074219e+01 8.214542388916015625e+00 3.232885599136352539e-01
7.200000000000000000e+01 2.098520660400390625e+01 -6.178107261657714844e+00 1.470623207092285156e+01 8.906938552856445312e+00 7.083950996398925781e+00 1.574853658676147461e-01
7.300000000000000000e+01 2.049575996398925781e+01 -5.821411609649658203e+00 2.653212928771972656e+01 1.550948047637939453e+01 1.261248302459716797e+01 2.327771663665771484e+00
7.400000000000000000e+01 2.068355941772460938e+01 -5.887358665466308594e+00 2.090313339233398438e+01 1.149595737457275391e+01 9.719727516174316406e+00 2.127466678619384766e+00
7.500000000000000000e+01 2.087135696411132812e+01 -5.953305244445800781e+00 1.753629112243652344e+01 9.376081466674804688e+00 8.073711395263671875e+00 1.804966807365417480e+00
7.600000000000000000e+01 2.105915451049804688e+01 -6.019252300262451172e+00 1.520323276519775391e+01 7.889979362487792969e+00 6.927963733673095703e+00 1.550327777862548828e+00
7.700000000000000000e+01 2.050962829589843750e+01 -5.764673709869384766e+00 2.656942176818847656e+01 1.449943161010742188e+01 1.232065582275390625e+01 4.706837654113769531e+00
7.800000000000000000e+01 2.070667266845703125e+01 -5.792795658111572266e+00 2.064835929870605469e+01 1.094239234924316406e+01 9.477226257324218750e+00 4.228693008422851562e+00
7.900000000000000000e+01 2.090371704101562500e+01 -5.820917606353759766e+00 1.725016403198242188e+01 8.892251014709472656e+00 7.842724800109863281e+00 3.659625768661499023e+00
8.000000000000000000e+01 2.110076141357421875e+01 -5.849039554595947266e+00 1.502813339233398438e+01 7.502634525299072266e+00 6.759230613708496094e+00 3.224551916122436523e+00
8.100000000000000000e+01 2.051218414306640625e+01 -5.706322193145751953e+00 2.539877510070800781e+01 1.446991252899169922e+01 1.196060657501220703e+01 7.363375186920166016e+00
8.200000000000000000e+01 2.071093368530273438e+01 -5.695542335510253906e+00 1.927087974548339844e+01 1.121087169647216797e+01 9.144525527954101562e+00 6.345264911651611328e+00
8.300000000000000000e+01 2.090968322753906250e+01 -5.684762954711914062e+00 1.603319740295410156e+01 9.172783851623535156e+00 7.561794757843017578e+00 5.492353916168212891e+00
8.400000000000000000e+01 2.110843086242675781e+01 -5.673983573913574219e+00 1.390025520324707031e+01 7.813703536987304688e+00 6.514187812805175781e+00 4.848738670349121094e+00
8.500000000000000000e+01 2.050333213806152344e+01 -5.648589134216308594e+00 2.287505912780761719e+01 1.549117946624755859e+01 1.150987148284912109e+01 9.802180290222167969e+00
8.600000000000000000e+01 2.069617843627929688e+01 -5.599320888519287109e+00 1.685317993164062500e+01 1.226615524291992188e+01 8.735799789428710938e+00 8.045248985290527344e+00
8.700000000000000000e+01 2.088902664184570312e+01 -5.550052642822265625e+00 1.389710998535156250e+01 1.012884140014648438e+01 7.207785606384277344e+00 6.889916896820068359e+00
8.800000000000000000e+01 2.108187294006347656e+01 -5.500784397125244141e+00 1.198560905456542969e+01 8.686006546020507812e+00 6.201484680175781250e+00 6.139728546142578125e+00
8.900000000000000000e+01 2.048340797424316406e+01 -5.593684196472167969e+00 1.910617065429687500e+01 1.739599227905273438e+01 1.095064926147460938e+01 1.147905445098876953e+01
9.000000000000000000e+01 2.066297340393066406e+01 -5.507812976837158203e+00 1.363637351989746094e+01 1.388509464263916016e+01 8.256440162658691406e+00 8.927136421203613281e+00
9.100000000000000000e+01 2.084253883361816406e+01 -5.421941280364990234e+00 1.107693958282470703e+01 1.149100208282470703e+01 6.770382881164550781e+00 7.571740627288818359e+00
9.200000000000000000e+01 2.102210235595703125e+01 -5.336069583892822266e+00 9.524301528930664062e+00 9.889573097229003906e+00 5.824162483215332031e+00 6.700795650482177734e+00
9.300000000000000000e+01 2.045317649841308594e+01 -5.543708801269531250e+00 1.452646446228027344e+01 1.979324150085449219e+01 1.029591178894042969e+01 1.187117195129394531e+01
9.400000000000000000e+01 2.061258697509765625e+01 -5.424520969390869141e+00 9.999686241149902344e+00 1.561435985565185547e+01 7.684213638305664062e+00 8.802789688110351562e+00
9.500000000000000000e+01 2.077199554443359375e+01 -5.305332660675048828e+00 7.967766284942626953e+00 1.295500659942626953e+01 6.276831626892089844e+00 7.315002918243408203e+00
9.600000000000000000e+01 2.093140602111816406e+01 -5.186144351959228516e+00 6.716061592102050781e+00 1.109967041015625000e+01 5.344719409942626953e+00 6.406803607940673828e+00
9.700000000000000000e+01 2.041379356384277344e+01 -5.500576019287109375e+00 9.712085723876953125e+00 2.210630989074707031e+01 9.545518875122070312e+00 1.075683784484863281e+01
9.800000000000000000e+01 2.054694747924804688e+01 -5.352632522583007812e+00 6.448248863220214844e+00 1.690554428100585938e+01 7.006137847900390625e+00 7.578817844390869141e+00
9.900000000000000000e+01 2.068010139465332031e+01 -5.204689502716064453e+00 4.987613201141357422e+00 1.409048175811767578e+01 5.723428249359130859e+00 6.179478645324707031e+00
1.000000000000000000e+02 2.081325531005859375e+01 -5.056745529174804688e+00 4.069461345672607422e+00 1.206398677825927734e+01 4.840034484863281250e+00 5.348177433013916016e+00
1.010000000000000000e+02 2.036676597595214844e+01 -5.465936183929443359e+00 5.368865489959716797e+00 2.339519691467285156e+01 8.629219055175781250e+00 8.245028495788574219e+00
1.020000000000000000e+02 2.046856880187988281e+01 -5.294899940490722656e+00 3.460753202438354492e+00 1.746743392944335938e+01 6.278456211090087891e+00 5.413882732391357422e+00
1.030000000000000000e+02 2.057037162780761719e+01 -5.123863220214843750e+00 2.515979528427124023e+00 1.429249668121337891e+01 5.042542934417724609e+00 4.340281963348388672e+00
1.040000000000000000e+02 2.067217254638671875e+01 -4.952826499938964844e+00 2.141521215438842773e+00 1.241874122619628906e+01 4.368078708648681641e+00 3.761408805847167969e+00
1.050000000000000000e+02 2.031389427185058594e+01 -5.441115379333496094e+00 2.194892168045043945e+00 2.327293968200683594e+01 7.640349864959716797e+00 4.669604301452636719e+00
1.060000000000000000e+02 2.038044929504394531e+01 -5.253531455993652344e+00 1.307881712913513184e+00 1.664974021911621094e+01 5.387286186218261719e+00 2.777396678924560547e+00
1.070000000000000000e+02 2.044700431823730469e+01 -5.065947532653808594e+00 9.553438425064086914e-01 1.355928802490234375e+01 4.354389667510986328e+00 2.101130008697509766e+00
1.080000000000000000e+02 2.051355934143066406e+01 -4.878363609313964844e+00 8.721752166748046875e-01 1.149239730834960938e+01 3.709371805191040039e+00 1.817464232444763184e+00
1.090000000000000000e+02 2.025720214843750000e+01 -5.427062988281250000e+00 4.130579531192779541e-01 2.104230308532714844e+01 6.436608314514160156e+00 9.069575667381286621e-01
1.100000000000000000e+02 2.028596115112304688e+01 -5.230110645294189453e+00 2.582287192344665527e-01 1.457479190826416016e+01 4.449906349182128906e+00 7.086068391799926758e-02
1.110000000000000000e+02 2.031472206115722656e+01 -5.033158779144287109e+00 3.006154894828796387e-01 1.147077178955078125e+01 3.531416177749633789e+00 1.081817783415317535e-02
1.120000000000000000e+02 2.034348106384277344e+01 -4.836206436157226562e+00 2.570077776908874512e-01 9.789693832397460938e+00 3.014010429382324219e+00 -3.030575811862945557e-02
1.130000000000000000e+02 2.019885826110839844e+01 -5.424316883087158203e+00 1.198626905679702759e-01 1.690063476562500000e+01 5.106149196624755859e+00 -2.461220264434814453e+00
1.140000000000000000e+02 2.018872261047363281e+01 -5.225534439086914062e+00 1.566559225320816040e-01 1.093808555603027344e+01 3.328422307968139648e+00 -1.860839366912841797e+00
1.150000000000000000e+02 2.017858695983886719e+01 -5.026751995086669922e+00 3.723092377185821533e-01 8.677720069885253906e+00 2.715008735656738281e+00 -1.532167077064514160e+00
1.160000000000000000e+02 2.016845130920410156e+01 -4.827969074249267578e+00 2.658142447471618652e-01 7.234044075012207031e+00 2.249957561492919922e+00 -1.204815745353698730e+00
1.170000000000000000e+02 2.014109611511230469e+01 -5.432982921600341797e+00 6.134613752365112305e-01 1.081838893890380859e+01 3.429554939270019531e+00 -4.162528038024902344e+00
1.180000000000000000e+02 2.009245300292968750e+01 -5.239977359771728516e+00 7.745577692985534668e-01 6.550426959991455078e+00 2.197495460510253906e+00 -2.801598072052001953e+00
1.190000000000000000e+02 2.004380989074707031e+01 -5.046971797943115234e+00 7.180913090705871582e-01 5.146918773651123047e+00 1.759503006935119629e+00 -1.753576040267944336e+00
1.200000000000000000e+02 1.999516677856445312e+01 -4.853966236114501953e+00 4.716858267784118652e-01 4.862296581268310547e+00 1.600194692611694336e+00 -1.540793895721435547e+00
1.210000000000000000e+02 2.008612823486328125e+01 -5.452728748321533203e+00 1.661196231842041016e+00 3.225258111953735352e+00 1.465936303138732910e+00 -4.159301280975341797e+00
1.220000000000000000e+02 2.000083923339843750e+01 -5.272887229919433594e+00 9.284182190895080566e-01 1.887303352355957031e+00 8.447164893150329590e-01 -1.371529579162597656e+00
1.230000000000000000e+02 1.991555023193359375e+01 -5.093045234680175781e+00 6.666314601898193359e-01 2.840936660766601562e+00 1.052270412445068359e+00 -1.240935683250427246e+00
1.240000000000000000e+02 1.983025932312011719e+01 -4.913203716278076172e+00 5.311892628669738770e-01 1.947637319564819336e+00 7.436479926109313965e-01 -1.174379229545593262e+00
1.250000000000000000e+02 2.003605461120605469e+01 -5.482798576354980469e+00 -5.341922640800476074e-01 -4.828542232513427734e+00 -1.608820319175720215e+00 8.012873530387878418e-01
1.260000000000000000e+02 1.991738510131835938e+01 -5.323003768920898438e+00 1.874525696039199829e-01 8.030615448951721191e-01 2.971542477607727051e-01 1.580893844366073608e-01
1.270000000000000000e+02 1.979871177673339844e+01 -5.163208484649658203e+00 -5.400062724947929382e-02 -2.188488095998764038e-01 -8.185482770204544067e-02 -1.863147914409637451e-01
1.280000000000000000e+02 1.968004035949707031e+01 -5.003413677215576172e+00 9.834557771682739258e-02 1.692310720682144165e-01 8.027299493551254272e-02 3.442017361521720886e-02
1.290000000000000000e+02 1.752774047851562500e+01 -3.965656518936157227e+00 1.238479018211364746e+00 -4.243201762437820435e-02 3.588141202926635742e-01 -4.627433419227600098e-01
1.300000000000000000e+02 1.688785171508789062e+01 -3.822943687438964844e+00 1.206740975379943848e+00 -3.592149019241333008e-01 2.542578279972076416e-01 -1.930207610130310059e-01
1.310000000000000000e+02 1.551973533630371094e+01 -3.074159622192382812e+00 3.685427010059356689e-01 -4.067377150058746338e-01 -1.145850680768489838e-02 3.119518756866455078e-01
1.320000000000000000e+02 1.730411148071289062e+01 -4.266711235046386719e+00 1.615261197090148926e+00 -2.998728752136230469e-01 3.946165144443511963e-01 -3.956244885921478271e-01
1.330000000000000000e+02 1.765163803100585938e+01 -3.796521902084350586e+00 8.106530308723449707e-01 -4.940113425254821777e-02 2.283755540847778320e-01 -3.216497004032135010e-01
1.340000000000000000e+02 1.745375442504882812e+01 -4.158693790435791016e+00 1.536850571632385254e+00 -1.145256236195564270e-01 4.266974925994873047e-01 -5.687165260314941406e-01
1.350000000000000000e+02 1.781906700134277344e+01 -3.668030738830566406e+00 5.157988667488098145e-01 1.792581081390380859e-01 2.085170894861221313e-01 -3.483741879463195801e-01
1.360000000000000000e+02 1.786853027343750000e+01 -3.453245639801025391e+00 2.399411946535110474e-01 1.394384726881980896e-02 7.616551220417022705e-02 -1.398033499717712402e-01
1.370000000000000000e+02 1.583878231048583984e+01 -2.396463871002197266e+00 -2.014110535383224487e-01 -1.895369738340377808e-01 -1.172844097018241882e-01 2.814098894596099854e-01
1.380000000000000000e+02 1.755776023864746094e+01 -3.479075431823730469e+00 3.965413570404052734e-01 -8.928954601287841797e-02 9.217554330825805664e-02 -2.350468337535858154e-01
1.390000000000000000e+02 1.647934150695800781e+01 -2.816188573837280273e+00 -1.081366743892431259e-02 -2.281932532787322998e-01 -7.170207798480987549e-02 1.380435526371002197e-01
1.400000000000000000e+02 1.728643989562988281e+01 -3.978047132492065430e+00 1.278797030448913574e+00 -1.544145792722702026e-01 3.373147249221801758e-01 -4.032894372940063477e-01
1.410000000000000000e+02 1.621730613708496094e+01 -3.532514095306396484e+00 8.870748877525329590e-01 -3.769773840904235840e-01 1.530292481184005737e-01 1.105379685759544373e-01
1.420000000000000000e+02 1.711912345886230469e+01 -3.205000877380371094e+00 2.180712074041366577e-01 -6.941322982311248779e-02 4.459739476442337036e-02 1.753839105367660522e-02
1.430000000000000000e+02 1.702292633056640625e+01 -4.355695724487304688e+00 2.028991460800170898e+00 -5.126584172248840332e-01 4.548998773097991943e-01 -2.969584763050079346e-01
1.440000000000000000e+02 1.816990280151367188e+01 -3.679346561431884766e+00 2.507345080375671387e-01 2.495318949222564697e-01 1.500799208879470825e-01 -2.334993183612823486e-01
1.450000000000000000e+02 1.922701072692871094e+01 -4.852026462554931641e+00 1.526171207427978516e+00 1.104517817497253418e+00 7.892067432403564453e-01 -1.307195901870727539e+00
1.460000000000000000e+02 2.131575965881347656e+01 -5.925653934478759766e+00 1.337061786651611328e+01 6.397496223449707031e+00 5.930434226989746094e+00 2.596829652786254883e+00
1.470000000000000000e+02 2.033815574645996094e+01 -3.852198600769042969e+00 6.410920619964599609e-02 5.606782436370849609e+00 1.701267480850219727e+00 -1.921904683113098145e-01
1.480000000000000000e+02 1.992813491821289062e+01 -7.079031467437744141e+00 7.261032104492187500e+00 8.564762115478515625e+00 4.747738361358642578e+00 4.321998119354248047e+00
1.490000000000000000e+02 1.902309036254882812e+01 -6.456554412841796875e+00 1.107405471801757812e+01 9.022118449211120605e-01 3.592880010604858398e+00 3.244585275650024414e+00
1.500000000000000000e+02 1.734073448181152344e+01 -4.649383544921875000e+00 2.816740512847900391e+00 -4.634911119937896729e-01 7.059748172760009766e-01 -4.638900160789489746e-01
1.510000000000000000e+02 1.748825454711914062e+01 -4.794252872467041016e+00 2.922141313552856445e+00 -5.387002825736999512e-01 7.150322794914245605e-01 -5.544587373733520508e-01
1.520000000000000000e+02 1.844576835632324219e+01 -5.832165241241455078e+00 7.842255592346191406e+00 -8.011207580566406250e-01 2.112340450286865234e+00 -3.063876032829284668e-01
1.530000000000000000e+02 1.914163208007812500e+01 -5.361209869384765625e+00 6.070069789886474609e+00 7.927197217941284180e-01 2.058836936950683594e+00 -2.552289724349975586e+00
1.540000000000000000e+02 1.938491058349609375e+01 -4.994839191436767578e+00 1.693950295448303223e+00 1.312911391258239746e+00 9.020585417747497559e-01 -1.545500159263610840e+00
1.550000000000000000e+02 1.795632743835449219e+01 -5.243630409240722656e+00 4.675352096557617188e+00 -6.103756427764892578e-01 1.219492912292480469e+00 -7.980304360389709473e-01
1.560000000000000000e+02 1.763942718505859375e+01 -4.939211845397949219e+00 3.495784759521484375e+00 -5.400043725967407227e-01 8.867341279983520508e-01 -6.164647340774536133e-01
1.570000000000000000e+02 2.119801712036132812e+01 -5.233188629150390625e+00 8.250013351440429688e+00 8.751960754394531250e+00 5.100592136383056641e+00 6.066040992736816406e+00
1.580000000000000000e+02 2.157283020019531250e+01 -5.524149417877197266e+00 1.006505775451660156e+01 5.892382144927978516e+00 4.787231922149658203e+00 4.395495891571044922e+00
1.590000000000000000e+02 2.117234802246093750e+01 -6.288529396057128906e+00 1.295033264160156250e+01 7.658329486846923828e+00 6.182598590850830078e+00 1.215691342949867249e-01
1.600000000000000000e+02 2.125869560241699219e+01 -6.105752468109130859e+00 1.350853252410888672e+01 6.751683235168457031e+00 6.078064441680908203e+00 1.249324083328247070e+00
1.610000000000000000e+02 2.140059852600097656e+01 -6.394417762756347656e+00 1.138118171691894531e+01 6.466964244842529297e+00 5.354443550109863281e+00 6.285558640956878662e-02
1.620000000000000000e+02 1.985327339172363281e+01 -6.768899440765380859e+00 9.434562683105468750e+00 8.935820579528808594e+00 5.511115074157714844e+00 5.186334133148193359e+00
1.630000000000000000e+02 1.966513633728027344e+01 -6.688609600067138672e+00 1.080055332183837891e+01 6.958714962005615234e+00 5.327780246734619141e+00 5.579633235931396484e+00
1.640000000000000000e+02 2.009784507751464844e+01 -6.949518680572509766e+00 7.823268890380859375e+00 1.006167125701904297e+01 5.365482330322265625e+00 3.662999391555786133e+00
1.650000000000000000e+02 1.916769981384277344e+01 -2.520660161972045898e+00 2.400250881910324097e-01 1.518481373786926270e+00 5.275519490242004395e-01 -4.930133223533630371e-01
1.660000000000000000e+02 1.864017677307128906e+01 -3.503558158874511719e+00 6.794304400682449341e-02 1.868317723274230957e-01 7.643244415521621704e-02 -1.019364446401596069e-01
1.670000000000000000e+02 1.861531829833984375e+01 -3.803360462188720703e+00 -1.297148168087005615e-01 -1.234203651547431946e-01 -7.594055682420730591e-02 1.430082768201828003e-01
1.680000000000000000e+02 1.998946952819824219e+01 -3.875591516494750977e+00 2.008868455886840820e-01 3.968266487121582031e+00 1.250746011734008789e+00 -8.160391449928283691e-01
1.690000000000000000e+02 2.094269371032714844e+01 -4.890316009521484375e+00 3.470617771148681641e+00 1.064873313903808594e+01 4.235805511474609375e+00 4.714051723480224609e+00
1.700000000000000000e+02 2.077660179138183594e+01 -4.735657215118408203e+00 1.629737854003906250e+00 1.053010940551757812e+01 3.647954225540161133e+00 3.060585260391235352e+00
1.710000000000000000e+02 1.833832931518554688e+01 -3.494008541107177734e+00 -2.032345384359359741e-01 -1.584606617689132690e-01 -1.085085570812225342e-01 9.759805351495742798e-02
1.720000000000000000e+02 1.896016311645507812e+01 -3.086549520492553711e+00 2.927368283271789551e-01 9.095490574836730957e-01 3.606857657432556152e-01 -4.775386154651641846e-01
1.730000000000000000e+02 1.930111885070800781e+01 -2.662606716156005859e+00 2.368025183677673340e-01 1.642078399658203125e+00 5.636643171310424805e-01 -5.570272207260131836e-01
1.740000000000000000e+02 1.960563468933105469e+01 -3.451243162155151367e+00 2.773569822311401367e-01 2.335571289062500000e+00 7.838784456253051758e-01 -7.107293605804443359e-01
1.750000000000000000e+02 1.932551956176757812e+01 -4.513445854187011719e+00 1.071200333535671234e-02 5.555464327335357666e-02 1.987999305129051208e-02 -6.496647000312805176e-02
1.760000000000000000e+02 1.944645690917968750e+01 -4.680015087127685547e+00 6.136655807495117188e-02 7.780323177576065063e-02 4.175093770027160645e-02 -4.434026405215263367e-02
1.770000000000000000e+02 1.956302261352539062e+01 -4.842691898345947266e+00 2.965724281966686249e-02 -6.576043553650379181e-03 6.924359593540430069e-03 -8.925603330135345459e-02
1.780000000000000000e+02 2.128833007812500000e+01 -5.420142173767089844e+00 1.026536750793457031e+01 7.628055095672607422e+00 5.368026733398437500e+00 5.564401626586914062e+00
1.790000000000000000e+02 2.107397651672363281e+01 -5.064229965209960938e+00 5.815340042114257812e+00 9.985912322998046875e+00 4.740375518798828125e+00 5.804899215698242188e+00
1.800000000000000000e+02 2.107777023315429688e+01 -4.774549007415771484e+00 3.209023714065551758e+00 9.637886047363281250e+00 3.854072809219360352e+00 4.409130096435546875e+00
1.810000000000000000e+02 2.057306480407714844e+01 -4.663206100463867188e+00 5.407589077949523926e-01 1.000424385070800781e+01 3.163500785827636719e+00 1.503210544586181641e+00
1.820000000000000000e+02 1.974973297119140625e+01 -4.730036735534667969e+00 5.107555389404296875e-01 2.010507822036743164e+00 7.563790082931518555e-01 -8.897982239723205566e-01
1.830000000000000000e+02 1.889369201660156250e+01 -5.334693908691406250e+00 5.881269454956054688e+00 5.184276103973388672e-01 1.919909119606018066e+00 -2.073941469192504883e+00
1.840000000000000000e+02 1.928113746643066406e+01 -6.361039161682128906e+00 1.293358516693115234e+01 2.131671190261840820e+00 4.519577026367187500e+00 3.762341976165771484e+00
1.850000000000000000e+02 1.918086814880371094e+01 -6.195005893707275391e+00 1.277679824829101562e+01 7.076047062873840332e-01 4.045320987701416016e+00 2.412816047668457031e+00
1.860000000000000000e+02 1.931857681274414062e+01 -6.542578697204589844e+00 1.185764598846435547e+01 3.093455314636230469e+00 4.485330581665039062e+00 4.555363178253173828e+00
1.870000000000000000e+02 2.006502151489257812e+01 -6.796317577362060547e+00 8.852498054504394531e+00 1.081070995330810547e+01 5.898962497711181641e+00 4.227756977081298828e+00
1.880000000000000000e+02 1.830687141418457031e+01 -3.819442272186279297e+00 3.690176606178283691e-01 2.457031905651092529e-01 1.844162642955780029e-01 -2.641838788986206055e-01
1.890000000000000000e+02 2.087129592895507812e+01 -6.603945732116699219e+00 1.053229427337646484e+01 1.031893920898437500e+01 6.255370140075683594e+00 -5.791070461273193359e-01
1.900000000000000000e+02 2.008368301391601562e+01 -7.150334358215332031e+00 6.756894111633300781e+00 9.011600494384765625e+00 4.730548381805419922e+00 3.519636869430541992e+00
1.910000000000000000e+02 2.018738746643066406e+01 -7.063029289245605469e+00 6.997862339019775391e+00 9.735614776611328125e+00 5.020043373107910156e+00 3.135451555252075195e+00
1.920000000000000000e+02 2.068632125854492188e+01 -6.727800846099853516e+00 9.263323783874511719e+00 1.140701484680175781e+01 6.201101779937744141e+00 1.163156628608703613e-01
1.930000000000000000e+02 1.909133529663085938e+01 -6.004986763000488281e+00 1.199486446380615234e+01 9.397605061531066895e-02 3.626652240753173828e+00 5.582049489021301270e-01
1.940000000000000000e+02 1.950383377075195312e+01 -6.589377403259277344e+00 1.169289493560791016e+01 4.834902286529541016e+00 4.958339214324951172e+00 5.308465003967285156e+00
1.950000000000000000e+02 1.879096031188964844e+01 -5.751196384429931641e+00 8.946087837219238281e+00 -3.223139345645904541e-01 2.587132215499877930e+00 -8.095047473907470703e-01
1.960000000000000000e+02 1.939266395568847656e+01 -6.821552753448486328e+00 9.810113906860351562e+00 4.418759822845458984e+00 4.268661975860595703e+00 4.954869747161865234e+00
1.970000000000000000e+02 1.816617774963378906e+01 -5.560793876647949219e+00 6.286838054656982422e+00 -7.693278193473815918e-01 1.655253052711486816e+00 -6.242870688438415527e-01
1.980000000000000000e+02 1.829360771179199219e+01 -5.407363891601562500e+00 5.698986053466796875e+00 -5.348446965217590332e-01 1.549242377281188965e+00 -9.895971417427062988e-01
1.990000000000000000e+02 1.906528091430664062e+01 -5.790209293365478516e+00 1.051937484741210938e+01 -1.909840404987335205e-01 3.098517417907714844e+00 -8.815840482711791992e-01
2.000000000000000000e+02 2.106870651245117188e+01 -4.584714412689208984e+00 2.228136062622070312e+00 9.309054374694824219e+00 3.461157083511352539e+00 3.687603473663330078e+00
2.010000000000000000e+02 2.155035400390625000e+01 -6.032167911529541016e+00 1.173589992523193359e+01 5.458174228668212891e+00 5.158222198486328125e+00 1.845645189285278320e+00
2.020000000000000000e+02 2.132264900207519531e+01 -5.099050045013427734e+00 6.994047164916992188e+00 8.197423934936523438e+00 4.557441234588623047e+00 5.542212963104248047e+00
2.030000000000000000e+02 2.142341041564941406e+01 -5.773069381713867188e+00 1.219641780853271484e+01 6.194159030914306641e+00 5.517173290252685547e+00 3.469632148742675781e+00
2.040000000000000000e+02 2.133018493652343750e+01 -5.612131595611572266e+00 1.202311420440673828e+01 6.755002975463867188e+00 5.633435249328613281e+00 4.545784473419189453e+00
2.050000000000000000e+02 1.975238800048828125e+01 -3.592416286468505859e+00 2.443716973066329956e-01 2.781828165054321289e+00 9.078599810600280762e-01 -7.962926030158996582e-01
2.060000000000000000e+02 2.047789573669433594e+01 -3.995739698410034180e+00 9.800370037555694580e-02 6.363321304321289062e+00 1.938397526741027832e+00 1.903603225946426392e-01
2.070000000000000000e+02 2.075543785095214844e+01 -4.305042266845703125e+00 5.514587163925170898e-01 8.466597557067871094e+00 2.705416917800903320e+00 1.578578114509582520e+00
2.080000000000000000e+02 2.148636627197265625e+01 -5.143884181976318359e+00 7.556830883026123047e+00 7.331763744354248047e+00 4.466578483581542969e+00 5.395265102386474609e+00
2.090000000000000000e+02 2.058301734924316406e+01 -7.059078693389892578e+00 7.277530670166015625e+00 1.057131767272949219e+01 5.354654312133789062e+00 9.435633420944213867e-01
2.100000000000000000e+02 2.096070289611816406e+01 -6.901460170745849609e+00 8.363443374633789062e+00 9.409941673278808594e+00 5.332015514373779297e+00 -5.120020508766174316e-01
2.110000000000000000e+02 2.024069213867187500e+01 -7.165183544158935547e+00 6.360168457031250000e+00 9.289187431335449219e+00 4.694807052612304688e+00 2.630270481109619141e+00
2.120000000000000000e+02 2.028374671936035156e+01 -6.905641078948974609e+00 8.054146766662597656e+00 1.141367626190185547e+01 5.840346813201904297e+00 2.664192199707031250e+00
2.130000000000000000e+02 2.103694725036621094e+01 -6.452946186065673828e+00 1.196417331695556641e+01 8.886298179626464844e+00 6.255141258239746094e+00 -6.041283011436462402e-01
2.140000000000000000e+02 2.099794960021972656e+01 -6.726014137268066406e+00 9.718691825866699219e+00 9.281632423400878906e+00 5.700097084045410156e+00 -6.788819432258605957e-01
2.150000000000000000e+02 2.152440071105957031e+01 -5.332839012145996094e+00 8.911282539367675781e+00 6.645732402801513672e+00 4.667104721069335938e+00 5.052765846252441406e+00
2.160000000000000000e+02 2.142684745788574219e+01 -4.984490871429443359e+00 5.979947566986083984e+00 7.788857936859130859e+00 4.130641937255859375e+00 5.138617038726806641e+00
2.170000000000000000e+02 2.160227966308593750e+01 -5.862957000732421875e+00 1.158807277679443359e+01 5.286205768585205078e+00 5.062283515930175781e+00 2.683528661727905273e+00
2.180000000000000000e+02 2.160994529724121094e+01 -5.698422908782958984e+00 1.089235496520996094e+01 5.470210075378417969e+00 4.908769607543945312e+00 3.741312265396118164e+00
2.190000000000000000e+02 2.110926628112792969e+01 -6.825090885162353516e+00 8.985519409179687500e+00 8.241037368774414062e+00 5.167966842651367188e+00 -6.277074813842773438e-01
2.200000000000000000e+02 1.974639129638671875e+01 -6.996776103973388672e+00 8.237957954406738281e+00 7.618346691131591797e+00 4.756891250610351562e+00 4.831388950347900391e+00
2.210000000000000000e+02 2.041061019897460938e+01 -7.132273197174072266e+00 6.737505435943603516e+00 9.898230552673339844e+00 4.990720748901367188e+00 1.914382338523864746e+00
2.220000000000000000e+02 1.955785560607910156e+01 -6.916039943695068359e+00 8.973559379577636719e+00 6.043214321136474609e+00 4.505032062530517578e+00 5.119524955749511719e+00
2.230000000000000000e+02 2.077260398864746094e+01 -6.964159965515136719e+00 7.839766025543212891e+00 9.945124626159667969e+00 5.335467338562011719e+00 1.647867262363433838e-01
2.240000000000000000e+02 2.131708145141601562e+01 -4.838999748229980469e+00 4.517599582672119141e+00 8.481974601745605469e+00 3.899872303009033203e+00 4.908989906311035156e+00
2.250000000000000000e+02 2.120067214965820312e+01 -4.692839145660400391e+00 3.440124273300170898e+00 8.882989883422851562e+00 3.696934223175048828e+00 4.424660682678222656e+00
2.260000000000000000e+02 2.011329269409179688e+01 -4.049522876739501953e+00 1.467691212892532349e-01 4.949443340301513672e+00 1.528863787651062012e+00 -7.264050245285034180e-01
2.270000000000000000e+02 2.056615066528320312e+01 -4.446278572082519531e+00 3.929005563259124756e-01 8.668722152709960938e+00 2.718486785888671875e+00 9.865422248840332031e-01
2.280000000000000000e+02 2.090647506713867188e+01 -4.473124027252197266e+00 1.262995004653930664e+00 9.120469093322753906e+00 3.115039348602294922e+00 2.676542282104492188e+00
2.290000000000000000e+02 1.877468490600585938e+01 -3.007063627243041992e+00 2.476799637079238892e-01 6.443273425102233887e-01 2.676022052764892578e-01 -3.898228406906127930e-01
2.300000000000000000e+02 1.919534492492675781e+01 -4.331786632537841797e+00 -3.263763338327407837e-02 7.204301655292510986e-02 1.182161457836627960e-02 -3.591305762529373169e-02
2.310000000000000000e+02 1.943146896362304688e+01 -2.807516336441040039e+00 2.287270426750183105e-01 1.930207252502441406e+00 6.476802825927734375e-01 -5.540739297866821289e-01
2.320000000000000000e+02 1.762319564819335938e+01 -4.320991516113281250e+00 1.720844864845275879e+00 -6.777688115835189819e-02 4.959203898906707764e-01 -6.114423871040344238e-01
2.330000000000000000e+02 1.789459419250488281e+01 -3.996062278747558594e+00 1.068819165229797363e+00 2.362410426139831543e-01 3.915180861949920654e-01 -5.514330863952636719e-01
2.340000000000000000e+02 1.908000755310058594e+01 -4.704289913177490234e+00 1.311382651329040527e+00 8.820451498031616211e-01 6.580283641815185547e-01 -1.125455617904663086e+00
2.350000000000000000e+02 1.861984825134277344e+01 -4.460074424743652344e+00 1.361024498939514160e+00 5.416565537452697754e-01 5.708042979240417480e-01 -9.440960288047790527e-01
2.360000000000000000e+02 1.779662704467773438e+01 -5.086750030517578125e+00 4.057913303375244141e+00 -5.868956446647644043e-01 1.041305303573608398e+00 -7.749881744384765625e-01
2.370000000000000000e+02 1.870509147644042969e+01 -4.238790035247802734e+00 6.915522217750549316e-01 4.641657173633575439e-01 3.467153906822204590e-01 -5.719336867332458496e-01
2.380000000000000000e+02 1.889186477661132812e+01 -3.883291006088256836e+00 2.048219926655292511e-02 1.774052977561950684e-01 5.936624854803085327e-02 -2.706049382686614990e-02
2.390000000000000000e+02 1.912451934814453125e+01 -6.606122970581054688e+00 1.115633106231689453e+01 1.825382709503173828e+00 3.894514083862304688e+00 3.960169315338134766e+00
2.400000000000000000e+02 1.890547180175781250e+01 -6.299192428588867188e+00 1.114951896667480469e+01 2.569213807582855225e-01 3.421932220458984375e+00 2.087613582611083984e+00
2.410000000000000000e+02 1.844919967651367188e+01 -5.543985843658447266e+00 6.511726379394531250e+00 -5.551372766494750977e-01 1.786976814270019531e+00 -9.596639871597290039e-01
2.420000000000000000e+02 1.878146362304687500e+01 -6.126172065734863281e+00 1.023759746551513672e+01 -4.569277763366699219e-01 2.934200763702392578e+00 1.007034778594970703e+00
2.430000000000000000e+02 1.858409118652343750e+01 -5.663289546966552734e+00 7.613377571105957031e+00 -5.186640024185180664e-01 2.128414154052734375e+00 -9.250342249870300293e-01
2.440000000000000000e+02 1.764606094360351562e+01 -4.622205257415771484e+00 2.656704425811767578e+00 -2.951370775699615479e-01 7.084702253341674805e-01 -6.747183203697204590e-01
2.450000000000000000e+02 1.844338989257812500e+01 -3.958809137344360352e+00 3.916612267494201660e-01 2.787925302982330322e-01 2.011361271142959595e-01 -3.864317536354064941e-01
2.460000000000000000e+02 1.748532485961914062e+01 -4.484909534454345703e+00 2.240211725234985352e+00 -3.318982720375061035e-01 5.724940299987792969e-01 -4.420748054981231689e-01
2.470000000000000000e+02 1.775870895385742188e+01 -4.157917022705078125e+00 1.354798674583435059e+00 -6.705425679683685303e-02 3.863233327865600586e-01 -6.020249128341674805e-01
2.480000000000000000e+02 1.955800819396972656e+01 -2.956578016281127930e+00 2.065785378217697144e-01 2.194537639617919922e+00 7.203348278999328613e-01 -6.076704859733581543e-01
2.490000000000000000e+02 1.848646545410156250e+01 -3.337161540985107422e+00 1.137286704033613205e-02 6.726449728012084961e-02 2.359120920300483704e-02 -1.423676013946533203e-01
2.500000000000000000e+02 1.889451789855957031e+01 -2.833761930465698242e+00 2.682878971099853516e-01 9.493249654769897461e-01 3.652838468551635742e-01 -4.803647696971893311e-01
2.510000000000000000e+02 1.995401954650878906e+01 -4.655882835388183594e+00 4.093975126743316650e-01 4.204241752624511719e+00 1.384091734886169434e+00 -1.392167329788208008e+00
2.520000000000000000e+02 2.036537361145019531e+01 -4.641860008239746094e+00 6.737297028303146362e-02 8.501290321350097656e+00 2.570598840713500977e+00 -3.751435503363609314e-02
2.530000000000000000e+02 1.968354988098144531e+01 -3.110528469085693359e+00 2.075787633657455444e-01 2.563422679901123047e+00 8.313004374504089355e-01 -6.347563862800598145e-01
2.540000000000000000e+02 2.028118705749511719e+01 -4.192017555236816406e+00 1.186344549059867859e-01 6.104356765747070312e+00 1.866897344589233398e+00 -4.280394017696380615e-01
2.550000000000000000e+02 1.857761192321777344e+01 -4.096861839294433594e+00 5.282900929450988770e-01 4.112165570259094238e-01 2.818520069122314453e-01 -4.251777529716491699e-01
2.560000000000000000e+02 1.881414604187011719e+01 -4.396607398986816406e+00 9.325451850891113281e-01 6.081396937370300293e-01 4.622054696083068848e-01 -7.423608303070068359e-01
2.570000000000000000e+02 1.873306274414062500e+01 -3.957640886306762695e+00 -1.324772387742996216e-01 -1.461319774389266968e-01 -8.358276635408401489e-02 1.056789755821228027e-01
2.580000000000000000e+02 1.847961807250976562e+01 -3.647193431854248047e+00 -8.632622659206390381e-02 -1.547161042690277100e-01 -7.231269776821136475e-02 1.423622816801071167e-01
2.590000000000000000e+02 1.923541831970214844e+01 -5.162967681884765625e+00 3.851571321487426758e+00 1.287644982337951660e+00 1.541764974594116211e+00 -2.299569845199584961e+00
2.600000000000000000e+02 1.862975311279296875e+01 -5.492899417877197266e+00 6.648514270782470703e+00 -8.136438578367233276e-02 1.970144987106323242e+00 -1.427540779113769531e+00
2.610000000000000000e+02 1.801937675476074219e+01 -4.892424106597900391e+00 3.380003213882446289e+00 -1.558621823787689209e-01 9.672423005104064941e-01 -9.755433201789855957e-01
2.620000000000000000e+02 1.837873649597167969e+01 -4.710122108459472656e+00 2.566652774810791016e+00 3.858309686183929443e-01 8.857451677322387695e-01 -1.213781476020812988e+00
2.630000000000000000e+02 2.016239929199218750e+01 -4.629487037658691406e+00 1.620196849107742310e-01 6.637917041778564453e+00 2.039981126785278320e+00 -9.693602323532104492e-01
2.640000000000000000e+02 1.992354011535644531e+01 -4.435559272766113281e+00 3.351122140884399414e-01 4.047460079193115234e+00 1.314771771430969238e+00 -1.129626870155334473e+00
2.650000000000000000e+02 1.988666343688964844e+01 -3.713737964630126953e+00 2.536868751049041748e-01 3.501807689666748047e+00 1.126648306846618652e+00 -7.838493585586547852e-01
2.660000000000000000e+02 1.957661628723144531e+01 -4.346655845642089844e+00 3.513925075531005859e-01 1.574701905250549316e+00 5.778283476829528809e-01 -7.801223993301391602e-01
2.670000000000000000e+02 1.938750076293945312e+01 -3.094449996948242188e+00 2.768137753009796143e-01 1.817332506179809570e+00 6.282439231872558594e-01 -5.992183685302734375e-01
2.680000000000000000e+02 1.902927970886230469e+01 -5.020900249481201172e+00 3.194861650466918945e+00 9.905725717544555664e-01 1.255630254745483398e+00 -1.907923102378845215e+00
2.690000000000000000e+02 1.822140502929687500e+01 -5.049432277679443359e+00 4.042387485504150391e+00 -1.359211653470993042e-01 1.171939849853515625e+00 -1.229705691337585449e+00
2.700000000000000000e+02 1.830912590026855469e+01 -4.093183994293212891e+00 8.135824203491210938e-01 3.082622885704040527e-01 3.365534245967864990e-01 -5.742356181144714355e-01
2.710000000000000000e+02 1.781830787658691406e+01 -4.757360935211181641e+00 2.887207746505737305e+00 -2.745078206062316895e-01 7.838099598884582520e-01 -8.174319267272949219e-01
2.720000000000000000e+02 1.823116493225097656e+01 -4.499031543731689453e+00 1.905777335166931152e+00 3.204458355903625488e-01 6.678669452667236328e-01 -9.180202484130859375e-01
2.730000000000000000e+02 1.911927795410156250e+01 -3.892193078994750977e+00 2.736021578311920166e-01 5.406059026718139648e-01 2.442624121904373169e-01 -3.544886708259582520e-01
2.740000000000000000e+02 1.920154953002929688e+01 -3.199459791183471680e+00 2.860823273658752441e-01 1.400204181671142578e+00 5.058859586715698242e-01 -5.714980959892272949e-01
2.750000000000000000e+02 1.882526588439941406e+01 -5.162508487701416016e+00 4.482194900512695312e+00 5.994722843170166016e-01 1.524500131607055664e+00 -1.944543123245239258e+00
2.760000000000000000e+02 1.843878173828125000e+01 -5.206008911132812500e+00 4.934080600738525391e+00 -3.298407047986984253e-02 1.470328927040100098e+00 -1.436730027198791504e+00
2.770000000000000000e+02 1.985202980041503906e+01 -4.214996337890625000e+00 2.874732017517089844e-01 3.476718664169311523e+00 1.129257559776306152e+00 -1.043525218963623047e+00
2.780000000000000000e+02 1.936875152587890625e+01 -3.591273546218872070e+00 2.800078392028808594e-01 1.600578427314758301e+00 5.641758441925048828e-01 -6.590704917907714844e-01
2.790000000000000000e+02 1.940739822387695312e+01 -3.864140987396240234e+00 3.756215870380401611e-01 1.491736412048339844e+00 5.602073669433593750e-01 -6.820411682128906250e-01
2.800000000000000000e+02 1.778223991394042969e+01 -4.451832771301269531e+00 2.075319051742553711e+00 -1.415664851665496826e-01 5.801257491111755371e-01 -6.712393164634704590e-01
2.810000000000000000e+02 1.880301856994628906e+01 -3.363500356674194336e+00 1.939195841550827026e-01 4.518148005008697510e-01 1.937203109264373779e-01 -3.356173336505889893e-01
2.820000000000000000e+02 1.902887725830078125e+01 -2.675858259201049805e+00 2.851817905902862549e-01 1.178277373313903809e+00 4.390377402305603027e-01 -4.772252440452575684e-01
2.830000000000000000e+02 1.803172302246093750e+01 -3.836246728897094727e+00 6.275836229324340820e-01 7.055626064538955688e-02 2.094419598579406738e-01 -3.274316191673278809e-01
2.840000000000000000e+02 1.928156852722167969e+01 -2.942656040191650391e+00 2.476062476634979248e-01 1.601403832435607910e+00 5.547030568122863770e-01 -5.823408365249633789e-01
2.850000000000000000e+02 1.916154670715332031e+01 -2.805060625076293945e+00 2.523525953292846680e-01 1.421300530433654785e+00 5.020959377288818359e-01 -5.417081713676452637e-01
2.860000000000000000e+02 1.817073249816894531e+01 -3.966750860214233398e+00 7.159650921821594238e-01 2.952654659748077393e-01 3.033691644668579102e-01 -4.596368372440338135e-01
2.870000000000000000e+02 1.855942344665527344e+01 -4.328791618347167969e+00 1.019515991210937500e+00 5.241954326629638672e-01 4.631134271621704102e-01 -7.110788226127624512e-01
2.880000000000000000e+02 1.803788185119628906e+01 -4.122275829315185547e+00 1.129473686218261719e+00 1.330243498086929321e-01 3.787494003772735596e-01 -6.337007880210876465e-01
2.890000000000000000e+02 1.790935325622558594e+01 -4.284838676452636719e+00 1.568001747131347656e+00 1.880805492401123047e-01 5.268246531486511230e-01 -7.063707113265991211e-01
2.900000000000000000e+02 1.949279594421386719e+01 -3.263852357864379883e+00 2.693914473056793213e-01 2.007594823837280273e+00 6.830959320068359375e-01 -6.724483966827392578e-01
2.910000000000000000e+02 1.903303337097167969e+01 -2.937647819519042969e+00 2.533776462078094482e-01 1.114676356315612793e+00 4.104161858558654785e-01 -4.959029257297515869e-01
2.920000000000000000e+02 1.864019966125488281e+01 -3.179609060287475586e+00 2.533857822418212891e-01 4.031612277030944824e-01 1.969641000032424927e-01 -3.034070730209350586e-01
2.930000000000000000e+02 1.879141998291015625e+01 -3.683327436447143555e+00 1.178668439388275146e-01 1.630098372697830200e-01 8.426300436258316040e-02 -1.167696714401245117e-01
2.940000000000000000e+02 1.894217109680175781e+01 -3.553371191024780273e+00 2.762992382049560547e-01 5.880741477012634277e-01 2.593120038509368896e-01 -3.637025952339172363e-01
2.950000000000000000e+02 1.885798454284667969e+01 -4.077890396118164062e+00 -9.182062000036239624e-02 4.853158816695213318e-02 -1.298670843243598938e-02 1.097049415111541748e-01
2.960000000000000000e+02 1.902938079833984375e+01 -4.178764343261718750e+00 -9.381646662950515747e-02 5.986542999744415283e-02 -1.018531061708927155e-02 -1.017853058874607086e-02
2.970000000000000000e+02 1.946743965148925781e+01 -4.135012626647949219e+00 3.125979006290435791e-01 1.420111536979675293e+00 5.198128223419189453e-01 -7.483997344970703125e-01
2.980000000000000000e+02 1.967033004760742188e+01 -4.540402412414550781e+00 4.030680656433105469e-01 1.685204029083251953e+00 6.264816522598266602e-01 -8.905784487724304199e-01
2.990000000000000000e+02 1.893490409851074219e+01 -4.555833339691162109e+00 1.150226473808288574e+00 7.244362831115722656e-01 5.623988509178161621e-01 -9.029152989387512207e-01
3.000000000000000000e+02 1.864520454406738281e+01 -5.019886016845703125e+00 3.668405055999755859e+00 4.413415193557739258e-01 1.232923984527587891e+00 -1.675546765327453613e+00
3.010000000000000000e+02 1.870627593994140625e+01 -4.718585968017578125e+00 2.088025331497192383e+00 6.488727331161499023e-01 8.210693597793579102e-01 -1.323601603507995605e+00
3.020000000000000000e+02 1.844203567504882812e+01 -4.213437557220458984e+00 9.320871829986572266e-01 4.189676046371459961e-01 4.053164422512054443e-01 -6.568620204925537109e-01
3.030000000000000000e+02 1.806694793701171875e+01 -5.411534309387207031e+00 5.443915367126464844e+00 -6.237744688987731934e-01 1.446042299270629883e+00 -8.084414601325988770e-01
3.040000000000000000e+02 1.830032539367675781e+01 -5.694879531860351562e+00 6.934827327728271484e+00 -8.107683062553405762e-01 1.837217807769775391e+00 -5.612232685089111328e-01
3.050000000000000000e+02 1.862166213989257812e+01 -5.966927051544189453e+00 9.182859420776367188e+00 -6.239100694656372070e-01 2.567684650421142578e+00 1.766657680273056030e-01
3.060000000000000000e+02 1.924215698242187500e+01 -6.726029872894287109e+00 1.032186508178710938e+01 3.349025011062622070e+00 4.101267337799072266e+00 4.677577972412109375e+00
3.070000000000000000e+02 2.044933509826660156e+01 -6.926346302032470703e+00 7.631246089935302734e+00 1.112267589569091797e+01 5.626176357269287109e+00 1.474292039871215820e+00
3.080000000000000000e+02 2.047784233093261719e+01 -6.775117874145507812e+00 8.612459182739257812e+00 1.203737831115722656e+01 6.194951534271240234e+00 1.276796936988830566e+00
3.090000000000000000e+02 2.123798561096191406e+01 -6.707518577575683594e+00 9.605159759521484375e+00 7.630170822143554688e+00 5.170598983764648438e+00 -6.888709068298339844e-01
3.100000000000000000e+02 2.132632255554199219e+01 -6.567408561706542969e+00 1.073763656616210938e+01 7.011528015136718750e+00 5.324748992919921875e+00 -5.048498511314392090e-01
3.110000000000000000e+02 2.148710632324218750e+01 -6.211110115051269531e+00 1.193071269989013672e+01 5.891744613647460938e+00 5.346736907958984375e+00 9.333465695381164551e-01
3.120000000000000000e+02 2.062140846252441406e+01 -4.138568878173828125e+00 2.084168642759323120e-01 7.277824401855468750e+00 2.245872259140014648e+00 6.896688938140869141e-01
3.130000000000000000e+02 2.045734024047851562e+01 -4.297827243804931641e+00 1.604928672313690186e-01 7.452891349792480469e+00 2.284015178680419922e+00 2.430562227964401245e-01
3.140000000000000000e+02 2.020741081237792969e+01 -3.702680349349975586e+00 1.054360345005989075e-01 4.849667072296142578e+00 1.486530900001525879e+00 -4.317241311073303223e-01
3.150000000000000000e+02 2.007910537719726562e+01 -3.552509307861328125e+00 1.183770447969436646e-01 3.980373382568359375e+00 1.229625105857849121e+00 -5.882611274719238281e-01
3.160000000000000000e+02 1.981130981445312500e+01 -3.263736248016357422e+00 1.964247673749923706e-01 2.992092609405517578e+00 9.565552473068237305e-01 -6.607496738433837891e-01
3.170000000000000000e+02 1.994538116455078125e+01 -3.408419847488403320e+00 1.443658620119094849e-01 3.451094150543212891e+00 1.078637957572937012e+00 -6.324834227561950684e-01
3.180000000000000000e+02 1.909923934936523438e+01 -5.572679996490478516e+00 8.615737915039062500e+00 3.239329159259796143e-01 2.681901216506958008e+00 -2.141554117202758789e+00
3.190000000000000000e+02 1.885512161254882812e+01 -5.536477565765380859e+00 7.556724548339843750e+00 -4.307350888848304749e-02 2.254095315933227539e+00 -1.764545321464538574e+00
3.200000000000000000e+02 2.017400550842285156e+01 -4.413449287414550781e+00 1.389753371477127075e-01 6.014057159423828125e+00 1.845909714698791504e+00 -7.904002070426940918e-01
3.210000000000000000e+02 2.037951660156250000e+01 -4.457275867462158203e+00 1.616060882806777954e-01 7.949020862579345703e+00 2.433188199996948242e+00 3.259016945958137512e-02
3.220000000000000000e+02 2.027437973022460938e+01 -6.782985210418701172e+00 8.380782127380371094e+00 1.194344806671142578e+01 6.097269058227539062e+00 2.724820375442504883e+00
3.230000000000000000e+02 1.818240737915039062e+01 -4.240301132202148438e+00 1.258410692214965820e+00 3.335740864276885986e-01 4.775954484939575195e-01 -6.973610520362854004e-01
3.240000000000000000e+02 1.886046791076660156e+01 -4.863760471343994141e+00 2.508156299591064453e+00 8.201504349708557129e-01 9.984920620918273926e-01 -1.517254590988159180e+00
3.250000000000000000e+02 1.928765869140625000e+01 -3.378002643585205078e+00 3.070426583290100098e-01 1.497151732444763184e+00 5.412583351135253906e-01 -5.926368832588195801e-01
3.260000000000000000e+02 1.967693901062011719e+01 -3.800582885742187500e+00 2.997748851776123047e-01 2.564221382141113281e+00 8.591988682746887207e-01 -8.318207263946533203e-01
3.270000000000000000e+02 1.867091941833496094e+01 -5.309616088867187500e+00 5.729894161224365234e+00 7.772242184728384018e-03 1.721300005912780762e+00 -1.695947289466857910e+00
3.280000000000000000e+02 2.119549560546875000e+01 -4.948000431060791016e+00 5.261546134948730469e+00 9.323604583740234375e+00 4.375545024871826172e+00 5.410673141479492188e+00
3.290000000000000000e+02 2.033360481262207031e+01 -7.012194156646728516e+00 7.229461669921875000e+00 1.047548675537109375e+01 5.311484336853027344e+00 2.103191852569580078e+00
3.300000000000000000e+02 2.114856719970703125e+01 -6.589555740356445312e+00 1.076231098175048828e+01 8.218462944030761719e+00 5.694231986999511719e+00 -6.329897046089172363e-01
3.310000000000000000e+02 1.913027191162109375e+01 -3.049382686614990234e+00 2.767433226108551025e-01 1.309146761894226074e+00 4.757670164108276367e-01 -5.497562885284423828e-01
3.320000000000000000e+02 1.899512672424316406e+01 -3.267467975616455078e+00 2.894014716148376465e-01 9.251710772514343262e-01 3.643717765808105469e-01 -4.987629950046539307e-01
3.330000000000000000e+02 1.912720870971679688e+01 -3.638706922531127930e+00 3.076856136322021484e-01 9.085911512374877930e-01 3.648830354213714600e-01 -4.975115060806274414e-01
3.340000000000000000e+02 1.855937576293945312e+01 -4.609380722045898438e+00 1.980353116989135742e+00 5.851621627807617188e-01 7.696545720100402832e-01 -1.067153096199035645e+00
3.350000000000000000e+02 1.847071838378906250e+01 -4.870970249176025391e+00 3.115747213363647461e+00 3.747473061084747314e-01 1.047148346900939941e+00 -1.371000409126281738e+00
3.360000000000000000e+02 1.840067672729492188e+01 -4.555825233459472656e+00 1.859992861747741699e+00 3.330855071544647217e-01 6.579235196113586426e-01 -9.991577267646789551e-01
3.370000000000000000e+02 1.795371627807617188e+01 -4.576021671295166016e+00 2.412362575531005859e+00 3.036170080304145813e-02 7.328172922134399414e-01 -8.558388352394104004e-01
3.380000000000000000e+02 1.909069061279296875e+01 -3.449626207351684570e+00 2.718171775341033936e-01 1.037631273269653320e+00 3.928345143795013428e-01 -5.057154893875122070e-01
3.390000000000000000e+02 1.832525062561035156e+01 -4.343937873840332031e+00 1.387937545776367188e+00 3.135241568088531494e-01 5.104385018348693848e-01 -8.247832655906677246e-01
3.400000000000000000e+02 1.806606292724609375e+01 -4.402392387390136719e+00 1.787072181701660156e+00 1.213360354304313660e-01 5.725224614143371582e-01 -8.301357626914978027e-01
3.410000000000000000e+02 1.815487480163574219e+01 -4.686147689819335938e+00 2.619241952896118164e+00 6.147695705294609070e-02 8.042157292366027832e-01 -1.085792899131774902e+00
3.420000000000000000e+02 1.974554824829101562e+01 -4.013398170471191406e+00 3.328778743743896484e-01 2.880823612213134766e+00 9.641104340553283691e-01 -9.002895355224609375e-01
3.430000000000000000e+02 1.846354103088378906e+01 -4.425595283508300781e+00 1.573339223861694336e+00 5.082580447196960449e-01 6.244791746139526367e-01 -9.038611054420471191e-01
3.440000000000000000e+02 1.824335098266601562e+01 -3.104765653610229492e+00 1.505781710147857666e-01 1.040613055229187012e-01 7.639183849096298218e-02 -6.463907659053802490e-02
3.450000000000000000e+02 1.788284873962402344e+01 -2.837625265121459961e+00 -2.099795034155249596e-03 -3.095897100865840912e-02 -9.917629882693290710e-03 1.759962528012692928e-03
3.460000000000000000e+02 1.678472328186035156e+01 -2.109142780303955078e+00 -5.510073527693748474e-02 -2.056241780519485474e-02 -2.269894629716873169e-02 2.606360986828804016e-02
3.470000000000000000e+02 1.834748458862304688e+01 -2.515492439270019531e+00 2.656123042106628418e-01 4.789115786552429199e-01 2.233571708202362061e-01 -3.114247322082519531e-01
3.480000000000000000e+02 1.708068275451660156e+01 -1.415804028511047363e+00 5.027421936392784119e-02 1.139029115438461304e-01 4.925313964486122131e-02 -1.426039040088653564e-01
3.490000000000000000e+02 1.842451477050781250e+01 -2.050693511962890625e+00 2.368389666080474854e-01 6.067220568656921387e-01 2.530682981014251709e-01 -3.436469435691833496e-01
3.500000000000000000e+02 1.887281417846679688e+01 -2.303207159042358398e+00 2.513828277587890625e-01 1.090343117713928223e+00 4.025177657604217529e-01 -4.753094017505645752e-01
3.510000000000000000e+02 1.651411819458007812e+01 -1.023108243942260742e+00 -6.541979312896728516e-02 9.745269268751144409e-02 9.609867818653583527e-03 -1.344998627901077271e-01
3.520000000000000000e+02 1.618376350402832031e+01 -1.693141698837280273e+00 -1.183063089847564697e-01 -1.700315251946449280e-02 -4.059283807873725891e-02 2.508509717881679535e-02
3.530000000000000000e+02 1.738500022888183594e+01 -2.519208908081054688e+00 -4.453853145241737366e-02 -3.374385461211204529e-02 -2.348471619188785553e-02 3.342004120349884033e-02
3.540000000000000000e+02 1.809140968322753906e+01 -2.172833204269409180e+00 2.173897176980972290e-01 3.521329462528228760e-01 1.708567887544631958e-01 -2.791947126388549805e-01
3.550000000000000000e+02 1.802930259704589844e+01 -3.241548061370849609e+00 -1.445995122194290161e-01 -8.670013397932052612e-02 -6.938989460468292236e-02 1.332236230373382568e-01
3.560000000000000000e+02 1.856222343444824219e+01 -2.806995630264282227e+00 2.082560062408447266e-01 5.468821525573730469e-01 2.265414446592330933e-01 -3.530794382095336914e-01
3.570000000000000000e+02 1.881956100463867188e+01 -2.519188642501831055e+00 2.443463355302810669e-01 9.387219548225402832e-01 3.549205064773559570e-01 -4.710778594017028809e-01
3.580000000000000000e+02 1.855767440795898438e+01 -2.436675310134887695e+00 2.539236843585968018e-01 6.595203280448913574e-01 2.740332186222076416e-01 -3.633195459842681885e-01
3.590000000000000000e+02 1.811529159545898438e+01 -2.597256660461425781e+00 1.047755628824234009e-01 2.493845224380493164e-01 1.062480285763740540e-01 -1.640661656856536865e-01
3.600000000000000000e+02 1.764656829833984375e+01 -1.802564978599548340e+00 1.666782349348068237e-01 2.342090010643005371e-01 1.202661693096160889e-01 -2.025540173053741455e-01
3.610000000000000000e+02 1.871476364135742188e+01 -2.676428556442260742e+00 2.858750224113464355e-01 7.326614260673522949e-01 3.055609166622161865e-01 -4.448759555816650391e-01
3.620000000000000000e+02 1.839815139770507812e+01 -2.944995641708374023e+00 1.402743905782699585e-01 2.661949396133422852e-01 1.219407990574836731e-01 -1.724726706743240356e-01
3.630000000000000000e+02 1.437439537048339844e+01 -8.830149471759796143e-02 -4.678285717964172363e-01 8.302304148674011230e-02 -1.154416650533676147e-01 -4.170894250273704529e-02
3.640000000000000000e+02 1.511841678619384766e+01 -3.819521367549896240e-01 -3.312983810901641846e-01 8.163438737392425537e-02 -7.489919662475585938e-02 -7.151250541210174561e-02
3.650000000000000000e+02 1.586064529418945312e+01 -6.765008568763732910e-01 -1.915046870708465576e-01 8.312442898750305176e-02 -3.251407667994499207e-02 -1.106964647769927979e-01
3.660000000000000000e+02 1.362912273406982422e+01 2.041978091001510620e-01 -5.620886087417602539e-01 6.068091094493865967e-02 -1.504223048686981201e-01 -1.726296357810497284e-02
3.670000000000000000e+02 1.552819252014160156e+01 -1.340840697288513184e+00 -2.253358811140060425e-01 -9.309490211308002472e-03 -7.039361447095870972e-02 3.346994519233703613e-02
3.680000000000000000e+02 1.338726615905761719e+01 -4.958960413932800293e-01 -6.459558010101318359e-01 -3.477785363793373108e-02 -2.042201012372970581e-01 1.469440460205078125e-01
3.690000000000000000e+02 1.481616306304931641e+01 -1.058209896087646484e+00 -3.381569981575012207e-01 -2.075659809634089470e-03 -1.020697951316833496e-01 6.565464287996292114e-02
3.700000000000000000e+02 1.410233974456787109e+01 -7.764772772789001465e-01 -4.722937345504760742e-01 -1.896672137081623077e-02 -1.473781466484069824e-01 1.064873859286308289e-01
3.710000000000000000e+02 1.131013679504394531e+01 8.408998847007751465e-01 -7.520951032638549805e-01 -3.664806019514799118e-03 -2.267279773950576782e-01 1.029724180698394775e-01
3.720000000000000000e+02 1.042135906219482422e+01 2.992311716079711914e-01 -1.005727410316467285e+00 -7.058178633451461792e-02 -3.228927552700042725e-01 1.819178760051727295e-01
3.730000000000000000e+02 1.191366195678710938e+01 -7.340838760137557983e-02 -8.477753996849060059e-01 -3.146531432867050171e-02 -2.637722194194793701e-01 1.783012747764587402e-01
3.740000000000000000e+02 1.265766906738281250e+01 -2.614961266517639160e-01 -7.823462486267089844e-01 -4.430313408374786377e-02 -2.479948252439498901e-01 1.641744971275329590e-01
3.750000000000000000e+02 1.286749935150146484e+01 4.488001465797424316e-01 -6.391701102256774902e-01 3.391396254301071167e-02 -1.815768480300903320e-01 3.463302552700042725e-02
3.760000000000000000e+02 1.052962684631347656e+01 1.034987807273864746e+00 -6.961665153503417969e-01 -5.434549972414970398e-02 -2.251536101102828979e-01 1.221029087901115417e-01
3.770000000000000000e+02 1.116801452636718750e+01 1.136300638318061829e-01 -9.053775668144226074e-01 -3.975848108530044556e-02 -2.835408151149749756e-01 2.009014636278152466e-01
3.780000000000000000e+02 1.208963775634765625e+01 6.453746557235717773e-01 -7.031918168067932129e-01 1.505298633128404617e-02 -2.064416408538818359e-01 9.337297827005386353e-02
3.790000000000000000e+02 9.769897460937500000e+00 1.127334952354431152e+00 -6.589503884315490723e-01 -6.767880171537399292e-02 -2.179887592792510986e-01 1.750157773494720459e-01
3.800000000000000000e+02 8.908253669738769531e+00 3.834950029850006104e-01 -7.957534193992614746e-01 -3.545190673321485519e-03 -2.397895902395248413e-01 6.376338750123977661e-02
3.810000000000000000e+02 8.148585319519042969e+00 3.813146948814392090e-01 -6.687700748443603516e-01 -2.171667292714118958e-03 -2.012825161218643188e-01 5.814969539642333984e-02
3.820000000000000000e+02 7.554188251495361328e+00 1.119702935218811035e+00 -4.927355945110321045e-01 -8.370213210582733154e-03 -1.503317505121231079e-01 1.491337716579437256e-01
3.830000000000000000e+02 5.871814727783203125e+00 3.743358254432678223e-01 -3.511008024215698242e-01 -4.671992268413305283e-03 -1.067318394780158997e-01 4.333017393946647644e-02
3.840000000000000000e+02 5.112776756286621094e+00 3.704028129577636719e-01 -2.613509595394134521e-01 5.571238580159842968e-04 -7.823814451694488525e-02 4.060291871428489685e-02
3.850000000000000000e+02 4.353713035583496094e+00 3.684068620204925537e-01 -1.812523305416107178e-01 -4.849015735089778900e-03 -5.583040416240692139e-02 3.401083499193191528e-02
3.860000000000000000e+02 2.836367130279541016e+00 3.604523241519927979e-01 -5.694242194294929504e-02 -5.572908092290163040e-03 -1.875459775328636169e-02 2.192231640219688416e-02
3.870000000000000000e+02 2.079849958419799805e+00 3.577947616577148438e-01 -1.985030993819236755e-02 -2.725816564634442329e-03 -6.772838067263364792e-03 1.381992921233177185e-02
3.880000000000000000e+02 2.391217708587646484e+00 1.097794771194458008e+00 -5.788912996649742126e-02 -2.131059207022190094e-02 -2.375991642475128174e-02 5.232380330562591553e-02
3.890000000000000000e+02 1.668007969856262207e+00 1.106352806091308594e+00 -2.724864147603511810e-02 -2.067144960165023804e-02 -1.437602750957012177e-02 3.010406531393527985e-02
3.900000000000000000e+02 3.545288145542144775e-01 9.535720348358154297e-01 -2.417301991954445839e-03 -2.848896896466612816e-03 -1.579859643243253231e-03 1.006245845928788185e-03
3.910000000000000000e+02 1.335685014724731445e+00 3.663527369499206543e-01 -3.845875849947333336e-03 -4.748022183775901794e-03 -2.578169340267777443e-03 4.291717894375324249e-03
3.920000000000000000e+02 3.126780033111572266e+00 1.100452303886413574e+00 -9.912804514169692993e-02 -1.367063634097576141e-02 -3.383960202336311340e-02 7.270716875791549683e-02
3.930000000000000000e+02 3.594501495361328125e+00 3.669418096542358398e-01 -1.120021566748619080e-01 -8.309353870572522283e-05 -3.362557291984558105e-02 3.046577051281929016e-02
3.940000000000000000e+02 5.340324878692626953e+00 1.110402822494506836e+00 -2.682003676891326904e-01 -1.140428427606821060e-02 -8.388139307498931885e-02 1.165874302387237549e-01
3.950000000000000000e+02 6.630899906158447266e+00 3.767811954021453857e-01 -4.489105343818664551e-01 7.286404725164175034e-04 -1.344545632600784302e-01 4.906854033470153809e-02
3.960000000000000000e+02 6.816537857055664062e+00 1.116781234741210938e+00 -4.140393435955047607e-01 -8.731432259082794189e-03 -1.268312335014343262e-01 1.372056901454925537e-01
3.970000000000000000e+02 7.389504909515380859e+00 3.797029256820678711e-01 -5.548779964447021484e-01 -3.981267567723989487e-03 -1.676577776670455933e-01 5.123482272028923035e-02
3.980000000000000000e+02 8.292314529418945312e+00 1.121314764022827148e+00 -5.733551383018493652e-01 -9.153407998383045197e-03 -1.747525632381439209e-01 1.544691622257232666e-01
3.990000000000000000e+02 9.031026840209960938e+00 1.123494982719421387e+00 -6.569683551788330078e-01 -3.316620737314224243e-02 -2.070403695106506348e-01 1.819362789392471313e-01
4.000000000000000000e+02 9.668079376220703125e+00 3.873349428176879883e-01 -9.705714583396911621e-01 -4.776297137141227722e-02 -3.055003285408020020e-01 1.110115796327590942e-01
4.010000000000000000e+02 1.010643720626831055e+00 1.130747556686401367e+00 -1.135575119405984879e-02 -1.753157563507556915e-02 -8.666197769343852997e-03 1.283746771514415741e-02
4.020000000000000000e+02 6.573658585548400879e-01 3.907475173473358154e-01 1.115728751756250858e-03 -1.259575219592079520e-04 2.969313645735383034e-04 1.667741336859762669e-03
4.030000000000000000e+02 6.078407764434814453e+00 1.114335775375366211e+00 -3.386199772357940674e-01 -7.007316220551729202e-03 -1.036881804466247559e-01 1.293187439441680908e-01
4.040000000000000000e+02 4.602215766906738281e+00 1.108406901359558105e+00 -2.042307853698730469e-01 -9.345365688204765320e-03 -6.407283991575241089e-02 1.052117571234703064e-01
4.050000000000000000e+02 3.863959550857543945e+00 1.106941819190979004e+00 -1.471867263317108154e-01 -1.448093540966510773e-02 -4.850029945373535156e-02 8.971589803695678711e-02
4.060000000000000000e+02 1.445141410827636719e+01 -1.738320231437683105e+00 -7.739967107772827148e-01 -1.636626422405242920e-01 -2.812978029251098633e-01 4.535918831825256348e-01
4.070000000000000000e+02 1.399005413055419922e+01 -2.351786375045776367e+00 -3.600890040397644043e-01 -3.180620074272155762e-01 -2.034453004598617554e-01 5.514639616012573242e-01
4.080000000000000000e+02 1.315893840789794922e+01 -1.124567389488220215e+00 -1.198706269264221191e+00 -8.162968605756759644e-02 -3.841007947921752930e-01 5.041944980621337891e-01
4.090000000000000000e+02 1.342884063720703125e+01 -1.939940571784973145e+00 -6.906343102455139160e-01 -1.768126040697097778e-01 -2.602340877056121826e-01 5.948436856269836426e-01
4.100000000000000000e+02 1.515422248840332031e+01 -2.034060716629028320e+00 -4.807696044445037842e-01 -2.095700651407241821e-01 -2.071018964052200317e-01 3.515262901782989502e-01
4.110000000000000000e+02 1.476873493194580078e+01 -2.677469968795776367e+00 -2.030312083661556244e-02 -2.905401885509490967e-01 -9.325299412012100220e-02 5.148671269416809082e-01
4.120000000000000000e+02 1.380067443847656250e+01 -1.425752282142639160e+00 -1.039928555488586426e+00 -2.574540674686431885e-01 -3.892147839069366455e-01 4.724761247634887695e-01
4.130000000000000000e+02 1.296116638183593750e+01 -1.574859380722045898e+00 -1.117602944374084473e+00 -1.474447250366210938e-01 -3.795143067836761475e-01 5.251402258872985840e-01
4.140000000000000000e+02 1.286564445495605469e+01 -2.057386875152587891e+00 -6.698980927467346191e-01 -1.356753557920455933e-01 -2.416720390319824219e-01 6.080645918846130371e-01
4.150000000000000000e+02 8.711479187011718750e+00 -1.884765386581420898e+00 -1.360562443733215332e+00 3.367950022220611572e-01 -3.071302473545074463e-01 1.460800915956497192e-01
4.160000000000000000e+02 4.224632263183593750e+00 -1.907082796096801758e+00 -7.864411473274230957e-01 4.473896697163581848e-02 -2.225106507539749146e-01 -6.401715874671936035e-01
4.170000000000000000e+02 5.459256172180175781e-01 -1.074532794952392578e+01 -4.450361058115959167e-02 -5.697111606597900391e+00 -1.722484588623046875e+00 -3.308680653572082520e-01
4.180000000000000000e+02 9.774639129638671875e+00 -1.151500225067138672e+01 3.325972557067871094e+00 9.632192611694335938e+00 3.887449502944946289e+00 4.216937065124511719e+00
4.190000000000000000e+02 1.094382953643798828e+01 -1.169316673278808594e+01 5.171971321105957031e+00 4.347088813781738281e+00 2.855717897415161133e+00 4.551973342895507812e+00
4.200000000000000000e+02 1.224556350708007812e+01 -1.161989974975585938e+01 -6.285048723220825195e-01 -6.911411881446838379e-01 -3.958938121795654297e-01 2.010227441787719727e+00
4.210000000000000000e+02 1.364973831176757812e+01 -1.190249156951904297e+01 -4.836675643920898438e+00 -1.278687477111816406e+00 -1.834608912467956543e+00 3.008977890014648438e+00
4.220000000000000000e+02 1.636831092834472656e+01 -1.304277610778808594e+01 -7.960143566131591797e+00 -2.262324333190917969e+00 -3.066740274429321289e+00 4.491593360900878906e+00
4.230000000000000000e+02 1.924600601196289062e+01 -7.117516517639160156e+00 8.075934410095214844e+00 3.778349161148071289e+00 3.556285142898559570e+00 4.694707393646240234e+00
4.240000000000000000e+02 1.885514259338378906e+01 -1.433845615386962891e+01 -9.721319198608398438e+00 -1.810626983642578125e+00 -3.459583759307861328e+00 4.209893226623535156e+00
4.250000000000000000e+02 2.265063476562500000e+01 -1.603678703308105469e+01 -6.791238307952880859e+00 -6.662304997444152832e-01 -2.237240552902221680e+00 2.468225240707397461e+00
4.260000000000000000e+02 1.661156773567199707e+00 -1.086923027038574219e+01 1.542900651693344116e-01 -3.806491851806640625e+00 -1.095660567283630371e+00 -9.789344072341918945e-01
4.270000000000000000e+02 6.213172674179077148e-01 -1.770602607727050781e+01 -7.625784724950790405e-03 -5.329265117645263672e+00 -1.601067304611206055e+00 4.404712915420532227e-01
4.280000000000000000e+02 1.175486278533935547e+01 -1.847463989257812500e+01 2.065022706985473633e+00 3.861564397811889648e+00 1.777976036071777344e+00 -2.920637130737304688e+00
4.290000000000000000e+02 9.968601226806640625e+00 -1.624470710754394531e+01 2.447294235229492188e+00 9.750995635986328125e+00 3.659487009048461914e+00 -4.547419071197509766e+00
4.300000000000000000e+02 9.302565574645996094e+00 -1.503908920288085938e+01 2.486735343933105469e+00 1.654016494750976562e+01 5.708069801330566406e+00 -2.457780122756958008e+00
4.310000000000000000e+02 9.309160232543945312e+00 -1.282374286651611328e+01 5.288950443267822266e+00 1.649802398681640625e+01 6.536092281341552734e+00 3.953110694885253906e+00
4.320000000000000000e+02 1.865050435066223145e+00 -1.758905029296875000e+01 1.161215975880622864e-01 -3.144191503524780273e+00 -9.084209799766540527e-01 1.146007061004638672e+00
4.330000000000000000e+02 6.305289268493652344e-01 -2.332424545288085938e+01 -8.325788378715515137e-02 -1.560444474220275879e+00 -4.931106865406036377e-01 3.434286713600158691e-01
4.340000000000000000e+02 6.593312263488769531e+00 -3.220492553710937500e+01 -2.958665788173675537e-01 1.465802073478698730e+00 3.509806692600250244e-01 4.124276041984558105e-01
4.350000000000000000e+02 1.738067817687988281e+01 -4.094792938232421875e+01 -2.804564237594604492e-01 9.231780767440795898e-01 1.928164958953857422e-01 -1.873685163445770741e-03
4.360000000000000000e+02 2.226740455627441406e+01 -4.090449523925781250e+01 -1.998652964830398560e-01 4.921486675739288330e-01 8.768501132726669312e-02 -4.243736341595649719e-02
4.370000000000000000e+02 2.710305976867675781e+01 -4.087458419799804688e+01 -1.507145613431930542e-01 1.609893441200256348e-01 3.082434879615902901e-03 2.884630113840103149e-03
4.380000000000000000e+02 3.199975967407226562e+01 -3.536630630493164062e+01 -2.446048259735107422e-01 -4.339404031634330750e-02 -8.639965951442718506e-02 5.943618342280387878e-02
4.390000000000000000e+02 3.281567764282226562e+01 -3.209989547729492188e+01 -3.817318677902221680e-01 -3.250957652926445007e-02 -1.242724359035491943e-01 7.105044275522232056e-02
4.400000000000000000e+02 2.847502899169921875e+01 -3.280828857421875000e+01 -2.761904001235961914e-01 -2.241797931492328644e-02 -8.958251029253005981e-02 5.321169272065162659e-02
4.410000000000000000e+02 2.875062942504882812e+01 -3.116474533081054688e+01 -3.970003426074981689e-01 -4.170818254351615906e-02 -1.316125541925430298e-01 1.270326822996139526e-01
4.420000000000000000e+02 2.557230949401855469e+01 -3.143308258056640625e+01 -2.232299894094467163e-01 3.318422660231590271e-02 -5.701373144984245300e-02 1.503299642354249954e-02
4.430000000000000000e+02 2.741842842102050781e+01 -3.064620590209960938e+01 -3.427463173866271973e-01 -6.518874317407608032e-02 -1.223805174231529236e-01 1.212634816765785217e-01
4.440000000000000000e+02 1.782753753662109375e+01 -2.657818984985351562e+01 1.275439709424972534e-01 8.646329641342163086e-01 2.976530790328979492e-01 -4.890684187412261963e-01
4.450000000000000000e+02 1.872661399841308594e+01 -2.549133300781250000e+01 3.730761706829071045e-01 6.307508945465087891e-01 3.011481165885925293e-01 -4.518426656723022461e-01
4.460000000000000000e+02 1.572101020812988281e+01 -2.249166870117187500e+01 8.019828200340270996e-01 1.216186523437500000e+00 6.054508090019226074e-01 -1.050211429595947266e+00
4.470000000000000000e+02 1.472159576416015625e+01 -2.150893402099609375e+01 1.078052878379821777e+00 1.666643142700195312e+00 8.234087824821472168e-01 -1.263368368148803711e+00
4.480000000000000000e+02 1.088633155822753906e+01 -1.943608474731445312e+01 6.764509081840515137e-01 5.027757644653320312e+00 1.711262583732604980e+00 -1.848871231079101562e+00
4.490000000000000000e+02 1.402182197570800781e+01 -2.455968666076660156e+01 2.306007966399192810e-02 1.952414870262145996e+00 5.926424860954284668e-01 -7.738354802131652832e-01
4.500000000000000000e+02 1.216766643524169922e+01 -2.481215667724609375e+01 -3.267882168292999268e-01 2.449949741363525391e+00 6.369484663009643555e-01 -4.852479994297027588e-01
4.510000000000000000e+02 6.276143789291381836e-01 -2.473415184020996094e+01 2.683331631124019623e-02 -8.447190523147583008e-01 -2.453657090663909912e-01 2.975882887840270996e-01
4.520000000000000000e+02 7.306742668151855469e-01 -3.036221122741699219e+01 2.215536870062351227e-02 8.539394140243530273e-01 2.628284394741058350e-01 1.374609023332595825e-01
4.530000000000000000e+02 8.600050926208496094e+00 -3.852648544311523438e+01 -2.205100208520889282e-01 1.385645508766174316e+00 3.495406508445739746e-01 1.199678108096122742e-01
4.540000000000000000e+02 1.754702758789062500e+01 -3.792219161987304688e+01 -2.901812791824340820e-01 9.487252235412597656e-01 1.975631862878799438e-01 -7.145880907773971558e-02
4.550000000000000000e+02 7.945996522903442383e-01 -3.179290771484375000e+01 -3.163363412022590637e-02 1.092086434364318848e+00 3.181358277797698975e-01 1.192727982997894287e-01
4.560000000000000000e+02 8.145127892494201660e-01 -3.732428359985351562e+01 -5.870949011296033859e-03 1.565753340721130371e+00 4.679647088050842285e-01 2.955228276550769806e-02
4.570000000000000000e+02 3.281265735626220703e+00 -3.923230361938476562e+01 -6.643866747617721558e-02 1.540207147598266602e+00 4.421305358409881592e-01 7.357458770275115967e-02
4.580000000000000000e+02 3.678861999511718750e+01 -3.711890029907226562e+01 -2.266770452260971069e-01 -1.372509747743606567e-01 -1.091784089803695679e-01 -2.413782663643360138e-02
4.590000000000000000e+02 3.843824768066406250e+01 -3.284901046752929688e+01 -4.044473469257354736e-01 -4.301512613892555237e-02 -1.342387497425079346e-01 -4.449506476521492004e-02
4.600000000000000000e+02 3.704742813110351562e+01 -3.261747360229492188e+01 -3.625845015048980713e-01 -1.129220123402774334e-03 -1.091141104698181152e-01 -3.993860911577939987e-03
4.610000000000000000e+02 4.289006423950195312e+01 -3.855459594726562500e+01 -6.359766423702239990e-02 -3.255096971988677979e-01 -1.167322099208831787e-01 -1.641401201486587524e-01
4.620000000000000000e+02 4.723196792602539062e+01 -3.110885047912597656e+01 -1.083053946495056152e+00 -1.567566543817520142e-01 -3.719431757926940918e-01 -4.336400926113128662e-01
4.630000000000000000e+02 4.303448104858398438e+01 -3.225818634033203125e+01 -6.160051822662353516e-01 -1.150931119918823242e-01 -2.193294912576675415e-01 -1.994647979736328125e-01
4.640000000000000000e+02 4.206799316406250000e+01 -3.491548538208007812e+01 -3.419508039951324463e-01 -1.947177350521087646e-01 -1.610005646944046021e-01 -2.178667783737182617e-01
4.650000000000000000e+02 4.822104644775390625e+01 -3.885554504394531250e+01 2.093532830476760864e-01 -4.170432090759277344e-01 -6.230697780847549438e-02 -2.270418256521224976e-01
4.660000000000000000e+02 5.233333206176757812e+01 -3.896587753295898438e+01 4.380512833595275879e-01 -3.603664413094520569e-02 1.206043958663940430e-01 -9.962727129459381104e-02
4.670000000000000000e+02 4.995182418823242188e+01 -3.027784919738769531e+01 -1.472905158996582031e+00 -3.598630130290985107e-01 -5.498304367065429688e-01 -6.762665510177612305e-01
4.680000000000000000e+02 4.858683776855468750e+01 -3.071858215332031250e+01 -1.352268457412719727e+00 -2.745088636875152588e-01 -4.880332052707672119e-01 -5.441155433654785156e-01
4.690000000000000000e+02 5.655673599243164062e+01 -3.866125106811523438e+01 5.040296912193298340e-01 8.366413116455078125e-01 4.022012948989868164e-01 -1.224441267549991608e-02
4.700000000000000000e+02 5.723843383789062500e+01 -4.123852539062500000e+01 5.655093193054199219e-01 1.062565326690673828e+00 4.884223937988281250e-01 1.894285902380943298e-02
4.710000000000000000e+02 6.125378799438476562e+01 -2.903710937500000000e+01 -5.249112248420715332e-01 1.983216524124145508e+00 4.374915957450866699e-01 3.533485233783721924e-01
4.720000000000000000e+02 6.173338317871093750e+01 -2.260592842102050781e+01 -1.732035726308822632e-01 8.113428354263305664e-01 1.914417743682861328e-01 2.068485319614410400e-01
4.730000000000000000e+02 6.073128509521484375e+01 -2.363162040710449219e+01 -6.009439229965209961e-01 2.132808566093444824e-01 -1.162989288568496704e-01 -1.673990041017532349e-01
4.740000000000000000e+02 5.854168319702148438e+01 -2.540628051757812500e+01 -1.349404454231262207e+00 -4.694023132324218750e-01 -5.456420183181762695e-01 -7.974980473518371582e-01
4.750000000000000000e+02 5.619641876220703125e+01 -2.695931816101074219e+01 -1.667290329933166504e+00 -5.646741390228271484e-01 -6.695893406867980957e-01 -9.484766721725463867e-01
4.760000000000000000e+02 5.692506027221679688e+01 -2.810581207275390625e+01 -1.146442770957946777e+00 -2.017136812210083008e-01 -4.044469296932220459e-01 -5.135868191719055176e-01
4.770000000000000000e+02 6.210993957519531250e+01 -4.089049530029296875e+01 4.192074239253997803e-01 3.022760629653930664e+00 1.032590389251708984e+00 5.493081361055374146e-02
4.780000000000000000e+02 6.073114395141601562e+01 -3.788048553466796875e+01 3.498247861862182617e-01 2.443996906280517578e+00 8.381465077400207520e-01 1.783271282911300659e-01
4.790000000000000000e+02 7.193768310546875000e+01 -3.061523437500000000e+01 -4.691680967807769775e-01 7.877007961273193359e+00 2.222352027893066406e+00 -1.290579233318567276e-02
4.800000000000000000e+02 6.714426422119140625e+01 -2.219747352600097656e+01 -8.986595869064331055e-01 7.012644767761230469e+00 1.834195494651794434e+00 8.094092011451721191e-01
4.810000000000000000e+02 7.933167266845703125e+01 -2.226800346374511719e+01 1.931689679622650146e-02 9.333538055419921875e+00 2.805856466293334961e+00 -3.144536316394805908e-01
4.820000000000000000e+02 7.800194549560546875e+01 -1.650190353393554688e+01 4.165767505764961243e-02 7.170755863189697266e+00 2.163723945617675781e+00 -1.068679332733154297e+00
4.830000000000000000e+02 7.933702087402343750e+01 -1.245788669586181641e+01 1.131155490875244141e-01 4.242253303527832031e+00 1.306610703468322754e+00 -1.688184142112731934e-01
4.840000000000000000e+02 7.818914031982421875e+01 -9.565429687500000000e+00 2.012133449316024780e-01 5.637476921081542969e+00 1.751607060432434082e+00 3.154045641422271729e-01
4.850000000000000000e+02 7.938084411621093750e+01 -5.552076816558837891e+00 -8.187513053417205811e-02 5.746368885040283203e+00 1.699348092079162598e+00 3.361468613147735596e-01
4.860000000000000000e+02 7.337894439697265625e+01 1.438742995262145996e+00 -8.567734360694885254e-01 8.099963188171386719e+00 2.172956943511962891e+00 -1.653988510370254517e-01
4.870000000000000000e+02 6.119031143188476562e+01 1.258130168914794922e+01 6.245280504226684570e-01 3.552558183670043945e+00 1.253125905990600586e+00 -9.225539565086364746e-01
4.880000000000000000e+02 5.558185577392578125e+01 1.166652870178222656e+01 1.458309143781661987e-01 3.291381359100341797e+00 1.031163692474365234e+00 7.154686003923416138e-02
4.890000000000000000e+02 5.735842132568359375e+01 1.223113441467285156e+01 5.565248727798461914e-01 3.289808273315429688e+00 1.153899908065795898e+00 -6.745889782905578613e-01
4.900000000000000000e+02 5.527358627319335938e+01 1.030451393127441406e+01 3.206683695316314697e-01 2.692581176757812500e+00 9.039748907089233398e-01 3.886302709579467773e-01
4.910000000000000000e+02 5.365939331054687500e+01 7.812374591827392578e+00 7.101812362670898438e-01 8.084612488746643066e-01 4.555927515029907227e-01 5.003089904785156250e-01
4.920000000000000000e+02 5.235745620727539062e+01 7.014750480651855469e+00 1.022756695747375488e+00 3.189854323863983154e-01 4.025226533412933350e-01 4.350133836269378662e-01
4.930000000000000000e+02 5.105950927734375000e+01 6.425755023956298828e+00 1.302628278732299805e+00 1.828439086675643921e-01 4.456416666507720947e-01 3.028565943241119385e-01
4.940000000000000000e+02 4.993929672241210938e+01 3.766781568527221680e+00 7.954074740409851074e-01 2.136186063289642334e-01 3.027078211307525635e-01 1.096834763884544373e-01
4.950000000000000000e+02 4.981281280517578125e+01 6.018470287322998047e+00 1.367128014564514160e+00 1.185602247714996338e-01 4.457064867019653320e-01 1.195219457149505615e-01
4.960000000000000000e+02 4.424536514282226562e+01 8.870136260986328125e+00 2.030957341194152832e-01 4.570204615592956543e-01 1.980348527431488037e-01 -1.990422755479812622e-01
4.970000000000000000e+02 3.914785385131835938e+01 4.603698730468750000e+00 5.799553990364074707e-01 7.648106813430786133e-01 4.034298360347747803e-01 5.017340183258056641e-01
4.980000000000000000e+02 2.653090286254882812e+01 4.910849094390869141e+00 4.130323827266693115e-01 2.705366611480712891e+00 9.355196952819824219e-01 1.129606842994689941e+00
4.990000000000000000e+02 2.400871658325195312e+01 5.810918807983398438e+00 1.139833331108093262e+00 2.107534408569335938e+00 9.742103219032287598e-01 1.597647190093994141e+00
5.000000000000000000e+02 2.495948219299316406e+01 6.764980792999267578e+00 1.398478031158447266e+00 3.701816082000732422e+00 1.530088305473327637e+00 1.835308670997619629e+00
5.010000000000000000e+02 2.146852684020996094e+01 4.528964042663574219e+00 -8.542383909225463867e-01 3.079491853713989258e-01 -1.638867706060409546e-01 1.494912356138229370e-01
5.020000000000000000e+02 1.856767845153808594e+01 3.530687808990478516e+00 -1.012127876281738281e+00 6.368170678615570068e-02 -2.845338582992553711e-01 -4.033565819263458252e-01
5.030000000000000000e+02 1.809604263305664062e+01 1.782037913799285889e-01 -2.112654969096183777e-03 5.566574931144714355e-01 1.663634628057479858e-01 -3.841115832328796387e-01
5.040000000000000000e+02 1.652073669433593750e+01 6.572997570037841797e-01 -2.302045971155166626e-01 2.828929126262664795e-01 1.580649986863136292e-02 -3.785029053688049316e-01
5.050000000000000000e+02 1.541231441497802734e+01 3.165448606014251709e-01 -3.253659009933471680e-01 1.715531349182128906e-01 -4.614382982254028320e-02 -2.131216675043106079e-01
5.060000000000000000e+02 1.385712718963623047e+01 9.169154763221740723e-01 -5.196679234504699707e-01 1.547797620296478271e-01 -1.094664484262466431e-01 -1.122537180781364441e-01
5.070000000000000000e+02 1.407901287078857422e+01 1.656736850738525391e+00 -4.778884351253509521e-01 2.468026429414749146e-01 -6.932573765516281128e-02 -1.832670718431472778e-01
5.080000000000000000e+02 1.065486621856689453e+01 1.746932268142700195e+00 -5.465233922004699707e-01 -1.054158317856490612e-03 -1.642732769250869751e-01 1.309957802295684814e-01
5.090000000000000000e+02 5.307772755622863770e-01 6.445155620574951172e+00 1.272717374376952648e-03 -3.614950478076934814e-01 -1.080667003989219666e-01 4.935958236455917358e-02
5.100000000000000000e+02 5.472364425659179688e+00 2.643381595611572266e+00 -1.988476961851119995e-01 -4.322576522827148438e-02 -7.262203842401504517e-02 2.274729013442993164e-01
5.110000000000000000e+02 6.708082580566406250e+01 -4.076998519897460938e+01 2.043314874172210693e-01 5.188226699829101562e+00 1.617767453193664551e+00 9.857659786939620972e-02
5.120000000000000000e+02 7.176119995117187500e+01 -4.084407043457031250e+01 7.230570167303085327e-02 7.631965160369873047e+00 2.311281204223632812e+00 2.186620375141501427e-03
5.130000000000000000e+02 7.925790405273437500e+01 -3.344481277465820312e+01 -5.148815736174583435e-02 1.126591300964355469e+01 3.364327430725097656e+00 -5.492628086358308792e-03
5.140000000000000000e+02 7.789678955078125000e+01 -3.068390655517578125e+01 -5.428449437022209167e-02 1.048397827148437500e+01 3.128908157348632812e+00 -1.489517241716384888e-01
5.150000000000000000e+02 7.931313323974609375e+01 -2.647717094421386719e+01 -4.892838746309280396e-02 1.064375686645507812e+01 3.178448438644409180e+00 -1.706102639436721802e-01
5.160000000000000000e+02 7.799932861328125000e+01 -2.365043830871582031e+01 -8.682907372713088989e-02 9.578054428100585938e+00 2.847367525100708008e+00 -6.457360386848449707e-01
5.170000000000000000e+02 7.799790954589843750e+01 -4.158979797363281250e+01 1.886616647243499756e-01 1.060910224914550781e+01 3.239329099655151367e+00 5.296833068132400513e-02
5.180000000000000000e+02 7.808790588378906250e+01 -2.757252931594848633e+00 -5.476002022624015808e-02 7.480976581573486328e+00 2.227864980697631836e+00 7.244777083396911621e-01
5.190000000000000000e+02 7.934621429443359375e+01 2.834266901016235352e+00 -4.174747690558433533e-02 8.530967712402343750e+00 2.546766042709350586e+00 6.312444806098937988e-02
5.200000000000000000e+02 7.304890441894531250e+01 1.005142211914062500e+01 -4.932506382465362549e-02 6.596259593963623047e+00 1.964080452919006348e+00 -7.091538310050964355e-01
5.210000000000000000e+02 5.992835235595703125e+01 1.952288246154785156e+01 5.091339349746704102e-01 3.552066087722778320e+00 1.218359947204589844e+00 -6.395800709724426270e-01
5.220000000000000000e+02 5.569739151000976562e+01 1.858859443664550781e+01 4.775149524211883545e-01 3.022082805633544922e+00 1.049879312515258789e+00 -8.560377359390258789e-01
5.230000000000000000e+02 5.393978881835937500e+01 1.745703125000000000e+01 9.334588050842285156e-01 1.803192138671875000e+00 8.209952712059020996e-01 -1.169697880744934082e+00
5.240000000000000000e+02 7.803824615478515625e+01 4.318177223205566406e+00 -9.282857179641723633e-02 8.234350204467773438e+00 2.442456722259521484e+00 1.823849277570843697e-03
5.250000000000000000e+02 7.933740997314453125e+01 8.408415794372558594e+00 -1.229198067449033260e-03 8.299895286560058594e+00 2.489599704742431641e+00 -6.141525879502296448e-02
5.260000000000000000e+02 7.263842010498046875e+01 1.696718597412109375e+01 1.151590198278427124e-01 5.988397121429443359e+00 1.831066727638244629e+00 -6.088390350341796875e-01
5.270000000000000000e+02 6.178790283203125000e+01 2.270724487304687500e+01 4.261099994182586670e-01 3.855256795883178711e+00 1.284409999847412109e+00 -5.774031281471252441e-01
5.280000000000000000e+02 5.691460037231445312e+01 2.974674987792968750e+01 5.730027556419372559e-01 3.016641616821289062e+00 1.076893329620361328e+00 -3.765032291412353516e-01
5.290000000000000000e+02 4.721641540527343750e+01 4.031745147705078125e+01 6.150121688842773438e-01 2.133784770965576172e+00 8.246390819549560547e-01 1.396002247929573059e-02
5.300000000000000000e+02 4.222939682006835938e+01 4.067996215820312500e+01 5.533577799797058105e-01 1.727539539337158203e+00 6.842691898345947266e-01 3.630948811769485474e-02
5.310000000000000000e+02 3.736069488525390625e+01 4.081610870361328125e+01 4.571621716022491455e-01 1.437852740287780762e+00 5.685044527053833008e-01 2.956591174006462097e-02
5.320000000000000000e+02 4.149834442138671875e+01 3.710324096679687500e+01 5.337505936622619629e-01 1.692905664443969727e+00 6.679968833923339844e-01 1.017791181802749634e-01
5.330000000000000000e+02 3.781617736816406250e+01 2.324879264831542969e+01 3.611375391483306885e-01 1.612160205841064453e+00 5.919893383979797363e-01 4.432917833328247070e-01
5.340000000000000000e+02 3.902706527709960938e+01 1.157385921478271484e+01 5.509744882583618164e-01 1.537416458129882812e+00 6.265172958374023438e-01 8.758772611618041992e-01
5.350000000000000000e+02 3.772470092773437500e+01 1.255491924285888672e+01 6.238297820091247559e-01 1.519097328186035156e+00 6.428781151771545410e-01 9.672805070877075195e-01
5.360000000000000000e+02 4.157120132446289062e+01 1.178053760528564453e+01 2.829885780811309814e-01 1.890049576759338379e+00 6.519114375114440918e-01 5.607244968414306641e-01
5.370000000000000000e+02 4.258229827880859375e+01 8.155220985412597656e+00 2.772834897041320801e-01 8.530263900756835938e-01 3.390929698944091797e-01 1.233519893139600754e-02
5.380000000000000000e+02 4.516828155517578125e+01 8.049329757690429688e+00 2.199217230081558228e-01 1.778336167335510254e-01 1.193265989422798157e-01 -2.045799642801284790e-01
5.390000000000000000e+02 7.801164245605468750e+01 1.128454113006591797e+01 -9.404558688402175903e-03 7.629714012145996094e+00 2.286092758178710938e+00 -2.427067011594772339e-01
5.400000000000000000e+02 7.932584381103515625e+01 1.677007484436035156e+01 1.357147004455327988e-02 7.262248039245605469e+00 2.182745933532714844e+00 -7.031118124723434448e-02
5.410000000000000000e+02 7.210066223144531250e+01 2.436599349975585938e+01 1.287768036127090454e-01 5.581588745117187500e+00 1.713109612464904785e+00 -4.169579744338989258e-01
5.420000000000000000e+02 6.471930694580078125e+01 3.078252792358398438e+01 3.021570146083831787e-01 4.311519145965576172e+00 1.384102821350097656e+00 -3.778911530971527100e-01
5.430000000000000000e+02 5.770140075683593750e+01 3.662929916381835938e+01 5.025931596755981445e-01 3.281200885772705078e+00 1.135138273239135742e+00 -1.536076664924621582e-01
5.440000000000000000e+02 5.240030288696289062e+01 4.026882934570312500e+01 5.982013344764709473e-01 2.620182037353515625e+00 9.655150175094604492e-01 -2.674407139420509338e-02
5.450000000000000000e+02 7.796260070800781250e+01 1.964566421508789062e+01 5.216449499130249023e-03 6.765458583831787109e+00 2.031202554702758789e+00 -1.788643598556518555e-01
5.460000000000000000e+02 7.927813720703125000e+01 2.375045013427734375e+01 -3.112293547019362450e-03 6.624197006225585938e+00 1.986325383186340332e+00 -4.727773740887641907e-02
5.470000000000000000e+02 7.236644744873046875e+01 2.940711593627929688e+01 9.627626836299896240e-02 5.433602333068847656e+00 1.658963561058044434e+00 -2.743649780750274658e-01
5.480000000000000000e+02 6.236937713623046875e+01 4.075762939453125000e+01 3.682985603809356689e-01 3.926057815551757812e+00 1.288306951522827148e+00 -5.000947788357734680e-02
5.490000000000000000e+02 5.749553298950195312e+01 4.056398010253906250e+01 5.030202865600585938e-01 3.274865865707397461e+00 1.133365869522094727e+00 -5.025517940521240234e-02
5.500000000000000000e+02 7.486393737792968750e+01 2.386728858947753906e+01 7.461923360824584961e-02 6.017900466918945312e+00 1.827755808830261230e+00 -3.048180341720581055e-01
5.510000000000000000e+02 7.930065155029296875e+01 2.935884094238281250e+01 -6.440304685384035110e-03 6.303512096405029297e+00 1.889121532440185547e+00 -2.954049408435821533e-02
5.520000000000000000e+02 7.021945190429687500e+01 3.764891433715820312e+01 1.350321322679519653e-01 5.062425613403320312e+00 1.559237360954284668e+00 -1.193837597966194153e-01
5.530000000000000000e+02 7.928879547119140625e+01 3.214913940429687500e+01 -2.826817100867629051e-03 6.190372467041015625e+00 1.856263637542724609e+00 -2.016001939773559570e-02
5.540000000000000000e+02 7.926732635498046875e+01 3.745959854125976562e+01 -1.971962116658687592e-02 6.018144607543945312e+00 1.799527525901794434e+00 -2.486745081841945648e-02
5.550000000000000000e+02 7.276439666748046875e+01 3.664181137084960938e+01 7.972224801778793335e-02 5.377444744110107422e+00 1.637150049209594727e+00 -1.106696054339408875e-01
5.560000000000000000e+02 7.727761077880859375e+01 3.800809097290039062e+01 -1.840478181838989258e-02 5.869569778442382812e+00 1.755349516868591309e+00 -5.863543599843978882e-02
5.570000000000000000e+02 3.246258163452148438e+01 4.085385894775390625e+01 3.723602294921875000e-01 1.135897994041442871e+00 4.524774849414825439e-01 2.606928348541259766e-02
5.580000000000000000e+02 3.241612243652343750e+01 3.755442047119140625e+01 3.673031926155090332e-01 1.145789504051208496e+00 4.539278149604797363e-01 7.992064952850341797e-02
5.590000000000000000e+02 2.720802497863769531e+01 1.596154785156250000e+01 -3.726048171520233154e-01 1.284070968627929688e+00 2.734398245811462402e-01 3.503838479518890381e-01
5.600000000000000000e+02 2.702845954895019531e+01 1.025058174133300781e+01 4.450586438179016113e-01 2.706844091415405273e+00 9.455708265304565430e-01 1.035803914070129395e+00
5.610000000000000000e+02 2.668598937988281250e+01 1.304278087615966797e+01 -2.060829102993011475e-01 1.704495549201965332e+00 4.495238065719604492e-01 5.980284810066223145e-01
5.620000000000000000e+02 2.257989501953125000e+01 4.089194869995117188e+01 2.260137647390365601e-01 5.601412653923034668e-01 2.358465194702148438e-01 2.265711314976215363e-02
5.630000000000000000e+02 2.302923011779785156e+01 3.028402137756347656e+01 2.046734392642974854e-01 5.393652319908142090e-01 2.232116013765335083e-01 1.773040741682052612e-01
5.640000000000000000e+02 2.399910354614257812e+01 2.453182220458984375e+01 1.692994683980941772e-01 5.278135538101196289e-01 2.091339081525802612e-01 2.121139466762542725e-01
5.650000000000000000e+02 1.918075180053710938e+01 1.758160018920898438e+01 -2.052652984857559204e-01 4.183123260736465454e-02 -4.903021827340126038e-02 4.191205203533172607e-01
5.660000000000000000e+02 2.125242996215820312e+01 1.823324394226074219e+01 -1.078995764255523682e-01 -1.007097810506820679e-01 -6.258280575275421143e-02 3.524626493453979492e-01
5.670000000000000000e+02 2.250805854797363281e+01 1.568354892730712891e+01 -8.893712162971496582e-01 -2.813875675201416016e-01 -3.512276411056518555e-01 4.690277576446533203e-01
5.680000000000000000e+02 2.434067344665527344e+01 1.585037517547607422e+01 -5.312415957450866699e-01 3.692221045494079590e-01 -4.860584810376167297e-02 9.906712919473648071e-02
5.690000000000000000e+02 2.359438705444335938e+01 1.487239360809326172e+01 -6.538840532302856445e-01 -1.981126666069030762e-01 -2.555990219116210938e-01 3.789959847927093506e-01
5.700000000000000000e+02 2.541654014587402344e+01 1.269530963897705078e+01 -1.468237787485122681e-01 1.482504963874816895e+00 4.007043540477752686e-01 5.417048186063766479e-02
5.710000000000000000e+02 2.566984939575195312e+01 1.128724193572998047e+01 1.526802480220794678e-01 2.509386062622070312e+00 7.986198663711547852e-01 2.020545601844787598e-01
5.720000000000000000e+02 2.574678611755371094e+01 9.945588111877441406e+00 3.348605334758758545e-02 3.227872371673583984e+00 9.784075617790222168e-01 3.821996450424194336e-01
5.730000000000000000e+02 2.578151321411132812e+01 8.679743766784667969e+00 7.240435481071472168e-01 4.163979053497314453e+00 1.466406822204589844e+00 1.083794116973876953e+00
5.740000000000000000e+02 2.613522338867187500e+01 7.485733509063720703e+00 1.243557095527648926e+00 3.585870504379272461e+00 1.448828339576721191e+00 1.272623896598815918e+00
5.750000000000000000e+02 1.771063804626464844e+01 4.104473495483398438e+01 1.529726386070251465e-01 2.811034023761749268e-01 1.302228122949600220e-01 2.171271294355392456e-02
5.760000000000000000e+02 1.792383384704589844e+01 3.516939926147460938e+01 1.373336911201477051e-01 2.941749989986419678e-01 1.294526159763336182e-01 1.143454983830451965e-01
5.770000000000000000e+02 1.749679756164550781e+01 3.240426635742187500e+01 1.280965656042098999e-01 2.915790975093841553e-01 1.259026974439620972e-01 1.653923988342285156e-01
5.780000000000000000e+02 1.628808975219726562e+01 2.059135055541992188e+01 -8.268236368894577026e-02 4.621143043041229248e-01 1.138295829296112061e-01 4.244531393051147461e-01
5.790000000000000000e+02 1.805068206787109375e+01 1.660141944885253906e+01 3.097142279148101807e-02 1.431979686021804810e-01 5.225081369280815125e-02 3.712676465511322021e-01
5.800000000000000000e+02 1.826206588745117188e+01 1.867989730834960938e+01 4.702591337263584137e-03 2.837309539318084717e-01 8.653005957603454590e-02 5.812826156616210938e-01
5.810000000000000000e+02 1.739941978454589844e+01 1.779363059997558594e+01 -8.617481589317321777e-02 5.605161786079406738e-01 1.423024237155914307e-01 6.396043300628662109e-01
5.820000000000000000e+02 1.298870563507080078e+01 4.106404495239257812e+01 8.422563225030899048e-02 1.661051809787750244e-02 3.025084361433982849e-02 1.715411804616451263e-02
5.830000000000000000e+02 8.501749038696289062e+00 4.081933975219726562e+01 2.874748967587947845e-02 -2.643578350543975830e-01 -7.068310678005218506e-02 1.598587445914745331e-02
5.840000000000000000e+02 7.663372039794921875e+00 3.183463668823242188e+01 8.160471916198730469e-03 -2.485601454973220825e-01 -7.211990654468536377e-02 6.504924595355987549e-02
5.850000000000000000e+02 8.291185379028320312e+00 2.357747459411621094e+01 -5.041250213980674744e-02 -4.785216972231864929e-02 -2.947940118610858917e-02 5.398299917578697205e-02
5.860000000000000000e+02 1.250075340270996094e+01 1.498278427124023438e+01 2.677161991596221924e-01 7.333706617355346680e-01 3.003260493278503418e-01 1.269243210554122925e-01
5.870000000000000000e+02 1.310669803619384766e+01 9.778700828552246094e+00 2.284018993377685547e-01 1.090736508369445801e+00 3.957415223121643066e-01 3.640787303447723389e-02
5.880000000000000000e+02 1.188386821746826172e+01 1.020154190063476562e+01 2.972128093242645264e-01 7.141004204750061035e-01 3.033939599990844727e-01 1.802979409694671631e-01
5.890000000000000000e+02 1.368325138092041016e+01 1.370514011383056641e+01 4.253391027450561523e-01 1.093170881271362305e+00 4.555529952049255371e-01 2.776176631450653076e-01
5.900000000000000000e+02 1.443791389465332031e+01 1.093962192535400391e+01 2.936100773513317108e-02 1.631096243858337402e+00 4.981371760368347168e-01 1.347784548997879028e-01
5.910000000000000000e+02 1.461991310119628906e+01 8.161948204040527344e+00 2.578659057617187500e-01 1.461801767349243164e+00 5.159003138542175293e-01 -3.305172026157379150e-01
5.920000000000000000e+02 1.488029956817626953e+01 1.357386469841003418e+00 -4.474356472492218018e-01 2.673400044441223145e-01 -5.402868986129760742e-02 -2.566288113594055176e-01
5.930000000000000000e+02 2.034382820129394531e+00 4.162786865234375000e+01 -1.961945928633213043e-02 -6.989487409591674805e-01 -2.155704498291015625e-01 -5.547059234231710434e-03
5.940000000000000000e+02 4.208738327026367188e+00 3.768884658813476562e+01 2.010493539273738861e-02 -5.802490115165710449e-01 -1.680432260036468506e-01 3.304361924529075623e-02
5.950000000000000000e+02 2.219967365264892578e+00 3.554628753662109375e+01 1.439604349434375763e-02 -6.637050509452819824e-01 -1.947927176952362061e-01 5.368024110794067383e-03
5.960000000000000000e+02 1.911428928375244141e+00 2.885350799560546875e+01 -5.057605449110269547e-03 -6.399969458580017090e-01 -1.935163587331771851e-01 5.854527465999126434e-03
5.970000000000000000e+02 1.988213062286376953e+00 2.325521278381347656e+01 -6.056827493011951447e-03 -6.304654479026794434e-01 -1.909566819667816162e-01 -1.339425519108772278e-02
5.980000000000000000e+02 1.901030421257019043e+00 1.751142692565917969e+01 7.434461731463670731e-03 -6.585869193077087402e-01 -1.953457444906234741e-01 -1.143642421811819077e-02
5.990000000000000000e+02 1.699610114097595215e+00 9.173947334289550781e+00 1.565440930426120758e-02 -4.807275235652923584e-01 -1.395219415426254272e-01 1.152477562427520752e-01
6.000000000000000000e+02 5.462432384490966797e+00 1.875326275825500488e+00 -2.443423122167587280e-01 -2.394963055849075317e-02 -8.048758655786514282e-02 1.819192469120025635e-01
6.010000000000000000e+02 1.226400566101074219e+01 1.378640294075012207e+00 -5.916489362716674805e-01 8.637268096208572388e-02 -1.515828669071197510e-01 9.901786223053932190e-03
6.020000000000000000e+02 1.682879829406738281e+01 -3.975629806518554688e-01 -5.057999119162559509e-02 2.094910293817520142e-01 4.767331108450889587e-02 -2.781341075897216797e-01
6.030000000000000000e+02 2.732659339904785156e+01 -8.126181364059448242e-01 1.058974027633666992e+00 1.982291817665100098e+00 9.123797416687011719e-01 1.919512152671813965e+00
6.040000000000000000e+02 3.082128524780273438e+01 -1.478797817230224609e+01 -2.899536132812500000e+00 4.019306004047393799e-01 -7.492816448211669922e-01 -4.210444986820220947e-01
6.050000000000000000e+02 3.091683197021484375e+01 -1.372865295410156250e+01 -2.411536693572998047e+00 4.182140231132507324e-01 -5.979967713356018066e-01 -6.288874149322509766e-01
6.060000000000000000e+02 3.759676361083984375e+01 -1.372595405578613281e+01 -1.891148090362548828e+00 1.880109310150146484e-01 -5.109411478042602539e-01 -5.824365019798278809e-01
6.070000000000000000e+02 4.487346267700195312e+01 -1.315349674224853516e+01 -1.822819948196411133e+00 -2.014802768826484680e-02 -5.528904199600219727e-01 -6.654556989669799805e-01
6.080000000000000000e+02 5.058054351806640625e+01 -1.496063518524169922e+01 -2.024818658828735352e+00 -4.281251132488250732e-01 -7.358831167221069336e-01 -1.004980564117431641e+00
6.090000000000000000e+02 5.423698806762695312e+01 -1.295371150970458984e+01 -2.297794580459594727e+00 -6.734923720359802246e-01 -8.913860917091369629e-01 -1.291889667510986328e+00
6.100000000000000000e+02 5.892821121215820312e+01 -9.957498550415039062e+00 -3.283767461776733398e+00 -1.163854002952575684e+00 -1.334286451339721680e+00 -1.935634255409240723e+00
6.110000000000000000e+02 5.805329895019531250e+01 -9.105559349060058594e+00 -2.998429059982299805e+00 -7.140059471130371094e-01 -1.113730430603027344e+00 -1.441477417945861816e+00
6.120000000000000000e+02 6.818534851074218750e+01 -7.228241920471191406e+00 2.513480901718139648e+00 1.520715332031250000e+01 5.316190242767333984e+00 -4.241052150726318359e+00
6.130000000000000000e+02 6.276812362670898438e+01 -5.017967224121093750e+00 -1.283050298690795898e+00 -4.449214637279510498e-01 -5.183915495872497559e-01 -1.681843400001525879e+00
6.140000000000000000e+02 6.179518127441406250e+01 -3.458760678768157959e-01 5.851632356643676758e-02 1.524181962013244629e+00 4.748094677925109863e-01 -1.682989358901977539e+00
6.150000000000000000e+02 6.089345169067382812e+01 4.892563343048095703e+00 3.802563548088073730e-01 2.526335954666137695e+00 8.719776868820190430e-01 -1.160705327987670898e+00
6.160000000000000000e+02 5.511977386474609375e+01 5.252643108367919922e+00 6.533909440040588379e-01 1.027956128120422363e+00 5.044041275978088379e-01 -7.848401553928852081e-03
6.170000000000000000e+02 5.468440246582031250e+01 8.942590713500976562e+00 4.656497836112976074e-01 1.510290384292602539e+00 5.927820801734924316e-01 5.683994293212890625e-01
6.180000000000000000e+02 2.142165756225585938e+01 -7.570621490478515625e+00 5.419137477874755859e+00 6.381009578704833984e+00 3.540044069290161133e+00 -6.142154335975646973e-01
6.190000000000000000e+02 2.112411499023437500e+01 -7.192595481872558594e+00 6.859036922454833984e+00 7.986728191375732422e+00 4.453729629516601562e+00 -4.915476739406585693e-01
6.200000000000000000e+02 2.004914665222167969e+01 -7.382648944854736328e+00 5.714021205902099609e+00 7.971182346343994141e+00 4.105561256408691406e+00 3.351732969284057617e+00
6.210000000000000000e+02 1.591910076141357422e+01 -4.131869792938232422e+00 1.613197326660156250e+00 -7.500678300857543945e-01 2.589388489723205566e-01 2.219564914703369141e-01
6.220000000000000000e+02 1.278615093231201172e+01 -2.672147750854492188e+00 -3.874348998069763184e-01 -2.270675003528594971e-01 -1.843507289886474609e-01 7.195492982864379883e-01
6.230000000000000000e+02 1.109694957733154297e+01 -2.203070402145385742e+00 -9.840451478958129883e-01 6.444029510021209717e-02 -2.758814394474029541e-01 5.403047800064086914e-01
6.240000000000000000e+02 9.459749221801757812e+00 -1.907822132110595703e+00 -1.309610724449157715e+00 2.427294850349426270e-01 -3.200643658638000488e-01 2.542637586593627930e-01
6.250000000000000000e+02 1.221704196929931641e+01 -1.061789321899414062e+01 1.039049386978149414e+00 4.281265437602996826e-01 4.401527941226959229e-01 4.967384338378906250e+00
6.260000000000000000e+02 1.458091354370117188e+01 1.227654457092285156e+01 2.291280329227447510e-01 1.843388557434082031e+00 6.217550039291381836e-01 3.663133084774017334e-01
6.270000000000000000e+02 1.490208530426025391e+01 1.354714775085449219e+01 4.104239344596862793e-01 1.683100819587707520e+00 6.280574202537536621e-01 6.510912179946899414e-01
6.280000000000000000e+02 1.552537918090820312e+01 1.593429660797119141e+01 3.932051062583923340e-01 9.378949403762817383e-01 3.993300199508666992e-01 4.759531319141387939e-01
6.290000000000000000e+02 1.539305400848388672e+01 1.468684768676757812e+01 5.350059866905212402e-01 1.226263999938964844e+00 5.283809900283813477e-01 6.756651401519775391e-01
6.300000000000000000e+02 1.395530128479003906e+01 1.607877349853515625e+01 1.637894660234451294e-01 8.965128660202026367e-01 3.180907070636749268e-01 2.297209352254867554e-01
6.310000000000000000e+02 6.690379333496093750e+01 -6.999163150787353516e+00 3.193602323532104492e+00 8.285061836242675781e+00 3.443599224090576172e+00 -5.348827362060546875e+00
6.320000000000000000e+02 6.833479309082031250e+01 -8.636025428771972656e+00 4.555136203765869141e+00 2.212865257263183594e+01 8.005136489868164062e+00 -5.436004161834716797e+00
6.330000000000000000e+02 7.022105407714843750e+01 -1.086398792266845703e+01 3.279255151748657227e+00 1.641018295288085938e+01 5.906831264495849609e+00 -5.742672681808471680e-01
6.340000000000000000e+02 6.767900848388671875e+01 -1.470690727233886719e+01 1.857995390892028809e+00 1.338279247283935547e+01 4.572236537933349609e+00 4.777146816253662109e+00
6.350000000000000000e+02 6.697330474853515625e+01 -1.589371204376220703e+01 2.174776077270507812e+00 1.079030609130859375e+01 3.889524459838867188e+00 4.171260356903076172e+00
6.360000000000000000e+02 6.704624176025390625e+01 -1.800782966613769531e+01 5.793696045875549316e-01 8.834317207336425781e+00 2.824105978012084961e+00 2.241580963134765625e+00
6.370000000000000000e+02 6.621712493896484375e+01 -1.707735061645507812e+01 1.999332427978515625e+00 7.678557395935058594e+00 2.903367042541503906e+00 3.815481185913085938e+00
6.380000000000000000e+02 6.259054565429687500e+01 -2.377843284606933594e+01 -5.395461320877075195e-01 2.102564811706542969e+00 4.689055979251861572e-01 5.160881876945495605e-01
6.390000000000000000e+02 6.809952545166015625e+01 -2.314097023010253906e+01 -1.046008586883544922e+00 7.323588848114013672e+00 1.883274078369140625e+00 4.109370708465576172e-01
6.400000000000000000e+02 2.285415077209472656e+01 -3.028616333007812500e+01 -1.497109532356262207e-01 2.146080583333969116e-01 1.946913078427314758e-02 -1.066838577389717102e-01
6.410000000000000000e+02 2.099448776245117188e+01 -2.730752754211425781e+01 7.627181708812713623e-02 2.386790663003921509e-01 9.448526054620742798e-02 -1.653982847929000854e-01
6.420000000000000000e+02 1.980478096008300781e+01 -2.645861053466796875e+01 2.298247814178466797e-01 3.909534215927124023e-01 1.862334609031677246e-01 -3.341453969478607178e-01
6.430000000000000000e+02 2.656799888610839844e+01 -1.734996223449707031e+01 -5.239965438842773438e+00 -1.884415298700332642e-01 -1.628522038459777832e+00 1.195363163948059082e+00
6.440000000000000000e+02 3.058583831787109375e+01 -1.824485397338867188e+01 -3.881537199020385742e+00 1.508801896125078201e-02 -1.159934759140014648e+00 4.514568746089935303e-01
6.450000000000000000e+02 3.318873977661132812e+01 -1.613429069519042969e+01 -2.875763893127441406e+00 2.582083046436309814e-01 -7.852666378021240234e-01 -2.838882207870483398e-01
6.460000000000000000e+02 3.466794204711914062e+01 -1.864101600646972656e+01 -3.011658906936645508e+00 7.258464395999908447e-02 -8.817223310470581055e-01 -1.215866208076477051e-02
6.470000000000000000e+02 3.975083923339843750e+01 -1.712300682067871094e+01 -2.360841035842895508e+00 9.608270227909088135e-02 -6.794275045394897461e-01 -4.812464118003845215e-01
6.480000000000000000e+02 3.878670501708984375e+01 -1.851704025268554688e+01 -2.549706220626831055e+00 1.762433908879756927e-02 -7.596246004104614258e-01 -2.438129335641860962e-01
6.490000000000000000e+02 4.301151275634765625e+01 -1.508435916900634766e+01 -2.017209768295288086e+00 -9.521282278001308441e-03 -6.080192923545837402e-01 -6.174263954162597656e-01
6.500000000000000000e+02 4.412680435180664062e+01 -1.740502166748046875e+01 -2.328708171844482422e+00 -2.002654224634170532e-01 -7.586920857429504395e-01 -7.096573114395141602e-01
6.510000000000000000e+02 4.791652679443359375e+01 1.911316490173339844e+01 7.890521883964538574e-01 3.863582313060760498e-01 3.526231348514556885e-01 4.456304609775543213e-01
6.520000000000000000e+02 4.487821960449218750e+01 1.735542297363281250e+01 1.546739935874938965e+00 1.400097250938415527e+00 8.840512037277221680e-01 1.375347495079040527e+00
6.530000000000000000e+02 4.095463943481445312e+01 1.589600658416748047e+01 8.914647102355957031e-01 1.958896994590759277e+00 8.551084995269775391e-01 7.186250686645507812e-01
6.540000000000000000e+02 4.257200622558593750e+01 1.606996917724609375e+01 1.109891057014465332e+00 2.622052907943725586e+00 1.119583249092102051e+00 1.034554719924926758e+00
6.550000000000000000e+02 4.284662628173828125e+01 1.461870861053466797e+01 7.284184694290161133e-01 3.169536352157592773e+00 1.169386506080627441e+00 1.025510907173156738e+00
6.560000000000000000e+02 5.772256088256835938e+01 1.518531513214111328e+01 9.740543365478515625e-01 3.305099725723266602e+00 1.283746242523193359e+00 -7.831783294677734375e-01
6.570000000000000000e+02 5.853931808471679688e+01 1.839924430847167969e+01 5.967247486114501953e-01 3.357428312301635742e+00 1.186245918273925781e+00 -6.254355907440185547e-01
6.580000000000000000e+02 5.579549407958984375e+01 1.296579360961914062e+01 2.892829179763793945e-01 3.858933448791503906e+00 1.244464874267578125e+00 -3.896120786666870117e-01
6.590000000000000000e+02 4.496030044555664062e+01 2.023864555358886719e+01 7.164713740348815918e-01 1.541232347488403320e+00 6.773111224174499512e-01 9.057008028030395508e-01
6.600000000000000000e+02 1.440562343597412109e+01 -3.349374389648437500e+01 -3.777531683444976807e-01 1.315755486488342285e+00 2.814007103443145752e-01 -6.575615704059600830e-02
6.610000000000000000e+02 1.917764091491699219e+01 -3.004195785522460938e+01 -1.578539162874221802e-01 8.049901723861694336e-01 1.941408663988113403e-01 -2.850452661514282227e-01
6.620000000000000000e+02 6.367304801940917969e+00 -3.403584671020507812e+01 -2.760576307773590088e-01 1.432353615760803223e+00 3.468887805938720703e-01 3.453308939933776855e-01
6.630000000000000000e+02 6.273730087280273438e+01 -2.922156333923339844e+01 -5.041088461875915527e-01 2.981716394424438477e+00 7.432822585105895996e-01 4.931877255439758301e-01
6.640000000000000000e+02 7.299347686767578125e+01 -3.300778579711914062e+01 -2.744527459144592285e-01 8.215992927551269531e+00 2.382462024688720703e+00 -3.736897185444831848e-02
6.650000000000000000e+02 6.843393707275390625e+01 -4.463780403137207031e+00 -2.108815908432006836e+00 1.033653354644775391e+01 2.468315362930297852e+00 -3.060499668121337891e+00
6.660000000000000000e+02 6.345506668090820312e+01 -6.938934803009033203e+00 -5.034455776214599609e+00 -1.275249242782592773e+00 -1.892911553382873535e+00 -2.317265033721923828e+00
6.670000000000000000e+02 6.009149169921875000e+01 -5.915574073791503906e+00 -2.108111143112182617e+00 -3.980497419834136963e-01 -7.518482208251953125e-01 -8.528710603713989258e-01
6.680000000000000000e+02 4.876648712158203125e+01 -6.789711952209472656e+00 -1.163998365402221680e+00 6.573570519685745239e-02 -3.294788002967834473e-01 -3.046691417694091797e-01
6.690000000000000000e+02 4.525822067260742188e+01 -4.398491859436035156e+00 -4.648451507091522217e-01 9.615481644868850708e-02 -1.106071025133132935e-01 -1.056840121746063232e-01
6.700000000000000000e+02 3.582971572875976562e+01 -6.520572662353515625e+00 5.038978159427642822e-02 1.486338376998901367e-01 5.970708280801773071e-02 -1.657691448926925659e-01
6.710000000000000000e+02 2.578349304199218750e+01 -3.791918754577636719e-01 7.188239693641662598e-01 2.493215322494506836e+00 9.636118412017822266e-01 2.127528429031372070e+00
6.720000000000000000e+02 3.769017791748046875e+01 -8.450611114501953125e+00 -5.978553295135498047e-01 1.262360215187072754e-01 -1.414857804775238037e-01 -4.011049866676330566e-01
6.730000000000000000e+02 3.648669815063476562e+01 -1.383325767517089844e+01 -1.949226260185241699e+00 2.125527709722518921e-01 -5.210020542144775391e-01 -5.844612121582031250e-01
6.740000000000000000e+02 4.757299804687500000e+01 -1.300205588340759277e+00 -9.018362499773502350e-03 1.146042644977569580e-01 3.167577087879180908e-02 5.151011049747467041e-02
6.750000000000000000e+02 5.030571365356445312e+01 -1.221007347106933594e+01 -2.011178970336914062e+00 -2.148654460906982422e-01 -6.678133606910705566e-01 -8.635166883468627930e-01
6.760000000000000000e+02 5.814635467529296875e+01 -5.852612018585205078e+00 -1.892092943191528320e+00 -2.210753560066223145e-01 -6.339504718780517578e-01 -6.441502571105957031e-01
6.770000000000000000e+02 4.281662368774414062e+01 -3.823206424713134766e+00 -1.973836719989776611e-01 1.194383352994918823e-01 -2.338359877467155457e-02 -4.781371355056762695e-02
6.780000000000000000e+02 4.368319702148437500e+01 -1.356551170349121094e+01 -1.832900047302246094e+00 5.234315060079097748e-03 -5.482997298240661621e-01 -6.313259005546569824e-01
6.790000000000000000e+02 6.859095764160156250e+01 -9.951139450073242188e+00 1.434504985809326172e+00 2.461973571777343750e+01 7.816272258758544922e+00 -2.287894725799560547e+00
6.800000000000000000e+02 5.358877563476562500e+01 3.041198253631591797e+00 5.815588831901550293e-01 4.790717661380767822e-01 3.181891739368438721e-01 4.998169839382171631e-03
6.810000000000000000e+02 4.598386383056640625e+01 7.153642177581787109e+00 6.529070138931274414e-01 1.935121566057205200e-01 2.539257407188415527e-01 -2.453343272209167480e-01
6.820000000000000000e+02 4.030854797363281250e+01 4.964120388031005859e+00 5.397364497184753418e-01 7.305904030799865723e-01 3.810980618000030518e-01 3.756301701068878174e-01
6.830000000000000000e+02 2.966598892211914062e+01 6.172887325286865234e+00 8.857387900352478027e-01 1.944535136222839355e+00 8.490821719169616699e-01 1.035377979278564453e+00
6.840000000000000000e+02 7.234984588623046875e+01 3.837848901748657227e+00 -6.690259575843811035e-01 7.364046096801757812e+00 2.008506059646606445e+00 -7.470489740371704102e-01
6.850000000000000000e+02 7.288592529296875000e+01 1.138718986511230469e+01 5.582705140113830566e-03 6.425668716430664062e+00 1.929375410079956055e+00 -7.430410385131835938e-01
6.860000000000000000e+02 6.032038116455078125e+01 1.179610919952392578e+01 6.094226837158203125e-01 3.291743993759155273e+00 1.170349955558776855e+00 -9.104775190353393555e-01
6.870000000000000000e+02 7.279228973388671875e+01 1.942877769470214844e+01 1.201315373182296753e-01 5.878675937652587891e+00 1.799642205238342285e+00 -5.312270522117614746e-01
6.880000000000000000e+02 5.976522064208984375e+01 1.732068634033203125e+01 6.498743891716003418e-01 3.517011642456054688e+00 1.250065803527832031e+00 -6.742566227912902832e-01
6.890000000000000000e+02 4.930850982666015625e+01 1.904435157775878906e+01 5.048607587814331055e-01 1.862743943929672241e-01 2.073405534029006958e-01 7.761730998754501343e-02
6.900000000000000000e+02 5.195450592041015625e+01 1.834546661376953125e+01 7.435871362686157227e-01 6.438955664634704590e-01 4.162448346614837646e-01 -6.234984993934631348e-01
6.910000000000000000e+02 4.967976379394531250e+01 2.446308898925781250e+01 9.147601127624511719e-01 1.496319293975830078e+00 7.233238220214843750e-01 7.227744441479444504e-03
6.920000000000000000e+02 5.090816497802734375e+01 3.140273284912109375e+01 7.131683826446533203e-01 2.262856721878051758e+00 8.928074836730957031e-01 -7.520543038845062256e-02
6.930000000000000000e+02 4.339037704467773438e+01 3.049150466918945312e+01 5.820044279098510742e-01 1.711031317710876465e+00 6.879107356071472168e-01 2.435510754585266113e-01
6.940000000000000000e+02 4.077340698242187500e+01 3.046996307373046875e+01 4.915209710597991943e-01 1.621068716049194336e+00 6.337769031524658203e-01 2.614211738109588623e-01
6.950000000000000000e+02 4.709693145751953125e+01 2.376071166992187500e+01 8.321630954742431641e-01 1.359823465347290039e+00 6.575959920883178711e-01 4.165239930152893066e-01
6.960000000000000000e+02 4.325850677490234375e+01 2.239083862304687500e+01 5.417580604553222656e-01 1.713267683982849121e+00 6.765077114105224609e-01 6.496865153312683105e-01
6.970000000000000000e+02 4.871788787841796875e+01 2.288249778747558594e+01 9.341053962707519531e-01 1.165686011314392090e+00 6.299374103546142578e-01 2.100081741809844971e-01
6.980000000000000000e+02 5.354777526855468750e+01 2.468170166015625000e+01 7.451733350753784180e-01 2.189397335052490234e+00 8.803711533546447754e-01 -4.745283722877502441e-01
6.990000000000000000e+02 5.265241622924804688e+01 2.237286376953125000e+01 8.152716159820556641e-01 1.631963729858398438e+00 7.341706156730651855e-01 -5.342851877212524414e-01
7.000000000000000000e+02 2.654391098022460938e+01 1.763212776184082031e+01 -2.534053623676300049e-01 9.646769165992736816e-01 2.133814692497253418e-01 1.849539279937744141e-01
7.010000000000000000e+02 1.859669089317321777e+00 1.609417724609375000e+01 1.395439915359020233e-02 -6.621559858322143555e-01 -1.944604814052581787e-01 2.572474302724003792e-03
7.020000000000000000e+02 7.241346740722656250e+01 2.644316864013671875e+01 1.095092445611953735e-01 5.559815883636474609e+00 1.700797557830810547e+00 -3.545800447463989258e-01
7.030000000000000000e+02 6.393442916870117188e+01 2.482010459899902344e+01 3.483666479587554932e-01 4.236127853393554688e+00 1.375348329544067383e+00 -5.362269282341003418e-01
7.040000000000000000e+02 3.841914367675781250e+01 2.936217689514160156e+01 4.232348203659057617e-01 1.539436817169189453e+00 5.888015031814575195e-01 2.923907935619354248e-01
7.050000000000000000e+02 3.108056831359863281e+01 2.550066566467285156e+01 2.046016007661819458e-01 1.170943975448608398e+00 4.126636683940887451e-01 2.364338785409927368e-01
7.060000000000000000e+02 2.436298942565917969e+01 2.220201492309570312e+01 9.801119565963745117e-02 5.164982080459594727e-01 1.843528151512145996e-01 1.814945489168167114e-01
7.070000000000000000e+02 1.882734870910644531e+01 2.195248413085937500e+01 4.135871678590774536e-02 2.707081139087677002e-01 9.362005442380905151e-02 4.438849389553070068e-01
7.080000000000000000e+02 7.838259220123291016e+00 2.495137977600097656e+01 -4.517675191164016724e-02 -1.084160357713699341e-01 -4.607783630490303040e-02 5.627888813614845276e-02
7.090000000000000000e+02 7.257995605468750000e+01 2.774670219421386719e+01 9.640920907258987427e-02 5.539902687072753906e+00 1.690893530845642090e+00 -3.145563304424285889e-01
7.100000000000000000e+02 6.320546722412109375e+01 3.369948577880859375e+01 3.492852449417114258e-01 4.044365406036376953e+00 1.318095207214355469e+00 -2.758096754550933838e-01
7.110000000000000000e+02 6.061160278320312500e+01 3.155521774291992188e+01 4.307053983211517334e-01 3.662462711334228516e+00 1.227950453758239746e+00 -3.245159685611724854e-01
7.120000000000000000e+02 2.946039581298828125e+01 3.091336822509765625e+01 2.800439596176147461e-01 9.729121327400207520e-01 3.758868277072906494e-01 1.579453945159912109e-01
7.130000000000000000e+02 2.484905815124511719e+01 2.856748390197753906e+01 2.183167934417724609e-01 6.508378386497497559e-01 2.607463896274566650e-01 1.861486434936523438e-01
7.140000000000000000e+02 1.442307376861572266e+01 3.260435485839843750e+01 7.278219610452651978e-02 1.341662853956222534e-01 6.208454445004463196e-02 1.375326067209243774e-01
7.150000000000000000e+02 7.390325069427490234e+00 3.460706329345703125e+01 5.617751274257898331e-03 -3.015104830265045166e-01 -8.876781910657882690e-02 4.931282252073287964e-02
7.160000000000000000e+02 1.917259931564331055e+00 3.160221099853515625e+01 -2.114920876920223236e-03 -6.576780080795288086e-01 -1.979378759860992432e-01 1.156930997967720032e-02
7.170000000000000000e+02 7.214010715484619141e+00 -1.866723179817199707e+00 -1.302748560905456543e+00 2.652014791965484619e-01 -3.112641274929046631e-01 -2.103975415229797363e-01
7.180000000000000000e+02 6.466981887817382812e+00 -1.866976499557495117e+00 -1.242656707763671875e+00 1.752064973115921021e-01 -3.202350735664367676e-01 -3.926019668579101562e-01
7.190000000000000000e+02 5.719041347503662109e+00 -1.872735857963562012e+00 -1.116848945617675781e+00 1.643502414226531982e-01 -2.857496142387390137e-01 -4.863840341567993164e-01
7.200000000000000000e+02 4.971794605255126953e+00 -1.885384917259216309e+00 -9.546518921852111816e-01 6.952375918626785278e-02 -2.655384540557861328e-01 -6.074882149696350098e-01
7.210000000000000000e+02 3.474749326705932617e+00 -1.947802424430847168e+00 -6.022611260414123535e-01 -8.775944262742996216e-02 -2.070061713457107544e-01 -6.540861725807189941e-01
7.220000000000000000e+02 3.664880037307739258e+00 -2.801076650619506836e+00 -5.837810635566711426e-01 -4.971765354275703430e-02 -1.900496184825897217e-01 -8.326402306556701660e-01
7.230000000000000000e+02 1.961768269538879395e+00 -2.085854053497314453e+00 -2.367678880691528320e-01 -3.159453272819519043e-01 -1.658139675855636597e-01 -4.636465311050415039e-01
7.240000000000000000e+02 1.188180804252624512e+00 -2.154153823852539062e+00 -8.946675807237625122e-02 -3.071355819702148438e-01 -1.189807057380676270e-01 -2.567205727100372314e-01
7.250000000000000000e+02 3.989311456680297852e-01 -2.195615291595458984e+00 -3.105454519391059875e-02 -2.479302883148193359e-01 -8.369544893503189087e-02 -9.379348158836364746e-02
7.260000000000000000e+02 2.000426530838012695e+00 -4.164062118530273438e+01 -2.432290231809020042e-03 1.615776896476745605e+00 4.840033650398254395e-01 7.210512994788587093e-04
7.270000000000000000e+02 9.683058857917785645e-01 -3.870391464233398438e+01 -6.674726959317922592e-03 1.601104617118835449e+00 4.783289730548858643e-01 1.940999180078506470e-02
7.280000000000000000e+02 7.646412253379821777e-01 -3.474998855590820312e+01 -5.567094683647155762e-02 1.401240348815917969e+00 4.036708176136016846e-01 6.775721162557601929e-02
7.290000000000000000e+02 9.001742601394653320e-01 -3.330500411987304688e+01 4.699822515249252319e-03 1.275056004524230957e+00 3.839267194271087646e-01 1.006563156843185425e-01
7.300000000000000000e+02 6.877660155296325684e-01 -2.895304870605468750e+01 -5.506369844079017639e-02 5.645188689231872559e-01 1.528365463018417358e-01 1.565557122230529785e-01
7.310000000000000000e+02 6.580815315246582031e-01 -2.754867744445800781e+01 3.039051778614521027e-02 1.959024220705032349e-01 6.788787990808486938e-02 1.979693174362182617e-01
7.320000000000000000e+02 6.380404233932495117e-01 -2.614336776733398438e+01 -7.388121634721755981e-02 -2.636266946792602539e-01 -1.012523770332336426e-01 2.280620187520980835e-01
7.330000000000000000e+02 6.407202482223510742e-01 -2.191814231872558594e+01 3.635078296065330505e-02 -2.392152786254882812e+00 -7.067406177520751953e-01 4.136483967304229736e-01
7.340000000000000000e+02 6.455656290054321289e-01 -2.051501464843750000e+01 -7.196576148271560669e-02 -3.314862251281738281e+00 -1.016048431396484375e+00 4.371673762798309326e-01
7.350000000000000000e+02 1.950713157653808594e+00 -2.037500762939453125e+01 -3.018258698284626007e-02 -1.904453158378601074e+00 -5.803906917572021484e-01 1.199743151664733887e+00
7.360000000000000000e+02 5.999513268470764160e-01 -1.629695892333984375e+01 8.672533929347991943e-02 -6.224981307983398438e+00 -1.841476798057556152e+00 3.578014373779296875e-01
7.370000000000000000e+02 5.787734389305114746e-01 -1.489672660827636719e+01 7.053803652524948120e-02 -6.811239242553710938e+00 -2.022210359573364258e+00 1.635988950729370117e-01
7.380000000000000000e+02 5.582131743431091309e-01 -1.350803756713867188e+01 5.914670228958129883e-02 -6.949367046356201172e+00 -2.067066192626953125e+00 4.840398672968149185e-03
7.390000000000000000e+02 1.690218329429626465e+00 -1.348034191131591797e+01 4.396364986896514893e-01 -4.392595291137695312e+00 -1.185887694358825684e+00 -1.933636516332626343e-01
7.400000000000000000e+02 5.535589456558227539e-01 -9.360147476196289062e+00 9.517164528369903564e-02 -4.637957572937011719e+00 -1.362835764884948730e+00 -4.079593122005462646e-01
7.410000000000000000e+02 5.821219682693481445e-01 -7.962909221649169922e+00 -4.275516420602798462e-02 -3.480351448059082031e+00 -1.056931972503662109e+00 -4.398590028285980225e-01
7.420000000000000000e+02 6.650576591491699219e-01 -6.523444175720214844e+00 4.942937195301055908e-02 -2.377489566802978516e+00 -6.984180212020874023e-01 -4.554317295551300049e-01
7.430000000000000000e+02 6.711323547363281250e+01 -3.742767715454101562e+01 1.087120696902275085e-01 5.257403373718261719e+00 1.609834551811218262e+00 2.163052558898925781e-01
7.440000000000000000e+02 4.882664489746093750e+01 -3.661426544189453125e+01 5.605238303542137146e-02 -3.949799239635467529e-01 -1.016782671213150024e-01 -3.318286240100860596e-01
7.450000000000000000e+02 3.039545440673828125e+01 -3.786812210083007812e+01 -1.756517589092254639e-01 -1.003590971231460571e-02 -5.570630356669425964e-02 2.950606681406497955e-02
7.460000000000000000e+02 1.197795391082763672e+01 -3.818100357055664062e+01 -3.129824697971343994e-01 1.301896929740905762e+00 2.966743707656860352e-01 5.904628708958625793e-02
7.470000000000000000e+02 7.866798400878906250e+01 4.013069915771484375e+01 -5.618759430944919586e-03 5.913247108459472656e+00 1.772288441658020020e+00 -4.053625836968421936e-02
7.480000000000000000e+02 7.903314971923828125e+01 3.876490402221679688e+01 5.657558212988078594e-04 5.963024139404296875e+00 1.789076924324035645e+00 -3.561229258775711060e-02
7.490000000000000000e+02 7.940091705322265625e+01 3.483015823364257812e+01 -7.040826603770256042e-03 6.101147174835205078e+00 1.828231811523437500e+00 -2.018111944198608398e-02
7.500000000000000000e+02 7.801362609863281250e+01 3.372020721435546875e+01 -6.394083611667156219e-03 6.007754325866699219e+00 1.800408005714416504e+00 -5.937093868851661682e-02
7.510000000000000000e+02 7.934909820556640625e+01 3.350286483764648438e+01 5.380983930081129074e-03 6.148569107055664062e+00 1.846185088157653809e+00 -1.844735816121101379e-02
7.520000000000000000e+02 7.928878784179687500e+01 3.075807571411132812e+01 9.670885279774665833e-03 6.241545200347900391e+00 1.875364899635314941e+00 -2.827972732484340668e-02
7.530000000000000000e+02 7.653915405273437500e+01 2.837672233581542969e+01 2.409298345446586609e-02 6.052631378173828125e+00 1.823017239570617676e+00 -1.515599638223648071e-01
7.540000000000000000e+02 7.927900695800781250e+01 2.655975341796875000e+01 -4.494942259043455124e-03 6.448232650756835938e+00 1.933121323585510254e+00 -3.778834640979766846e-02
7.550000000000000000e+02 7.636922454833984375e+01 2.543590545654296875e+01 3.477074950933456421e-02 6.155969142913818359e+00 1.857222080230712891e+00 -2.023285478353500366e-01
7.560000000000000000e+02 7.927167510986328125e+01 2.515561485290527344e+01 8.496430702507495880e-03 6.531487941741943359e+00 1.961995363235473633e+00 -4.268314316868782043e-02
7.570000000000000000e+02 7.930758666992187500e+01 2.095437240600585938e+01 -4.476536531001329422e-03 6.844266891479492188e+00 2.051937103271484375e+00 -5.513340979814529419e-02
7.580000000000000000e+02 7.931735229492187500e+01 1.955750083923339844e+01 1.039860118180513382e-02 6.972854614257812500e+00 2.094975948333740234e+00 -6.177914142608642578e-02
7.590000000000000000e+02 7.932302093505859375e+01 1.816336250305175781e+01 -8.058938197791576385e-03 7.111756801605224609e+00 2.131109476089477539e+00 -6.355102360248565674e-02
7.600000000000000000e+02 7.932967376708984375e+01 1.398279953002929688e+01 1.266885176301002502e-02 7.593970775604248047e+00 2.281991958618164062e+00 -7.682828605175018311e-02
7.610000000000000000e+02 7.933233642578125000e+01 1.258876132965087891e+01 -9.619805030524730682e-03 7.772411823272705078e+00 2.328837633132934570e+00 -7.935087382793426514e-02
7.620000000000000000e+02 7.933474731445312500e+01 1.119526672363281250e+01 7.664195727556943893e-03 7.955544948577880859e+00 2.388962745666503906e+00 -7.791582494974136353e-02
7.630000000000000000e+02 7.933830261230468750e+01 7.015535354614257812e+00 -1.069069653749465942e-02 8.439611434936523438e+00 2.528676271438598633e+00 -4.926377534866333008e-02
7.640000000000000000e+02 7.934036254882812500e+01 5.622988700866699219e+00 -1.817765459418296814e-02 8.537002563476562500e+00 2.555647373199462891e+00 -1.731643825769424438e-02
7.650000000000000000e+02 7.934272003173828125e+01 4.230268955230712891e+00 -6.924541667103767395e-03 8.574828147888183594e+00 2.570370912551879883e+00 7.454719394445419312e-03
7.660000000000000000e+02 7.934948730468750000e+01 3.520870208740234375e-02 -6.934015452861785889e-02 8.097418785095214844e+00 2.408423423767089844e+00 1.888398528099060059e-01
7.670000000000000000e+02 7.935216522216796875e+01 -1.370595693588256836e+00 2.106631547212600708e-02 7.671534538269042969e+00 2.307780265808105469e+00 2.367283701896667480e-01
7.680000000000000000e+02 7.810124969482421875e+01 -4.151874065399169922e+00 -1.067458018660545349e-01 7.096578598022460938e+00 2.096949815750122070e+00 8.631966114044189453e-01
7.690000000000000000e+02 7.936597442626953125e+01 -4.165463447570800781e+00 7.515211403369903564e-02 6.449254512786865234e+00 1.957322001457214355e+00 3.225761950016021729e-01
7.700000000000000000e+02 7.940068817138671875e+01 -8.311112403869628906e+00 -5.377405881881713867e-02 4.463062763214111328e+00 1.322786688804626465e+00 2.306334525346755981e-01
7.710000000000000000e+02 7.810472869873046875e+01 -1.091604518890380859e+01 3.705009818077087402e-01 5.640738487243652344e+00 1.803371787071228027e+00 -2.256525307893753052e-02
7.720000000000000000e+02 7.936717224121093750e+01 -1.107527732849121094e+01 -4.558487562462687492e-04 4.015499114990234375e+00 1.204512953758239746e+00 -3.600620850920677185e-02
7.730000000000000000e+02 7.931840515136718750e+01 -1.524020385742187500e+01 2.342356182634830475e-02 5.424987316131591797e+00 1.634523272514343262e+00 -3.678415119647979736e-01
7.740000000000000000e+02 7.805245208740234375e+01 -1.792048835754394531e+01 -1.081755757331848145e-02 7.677848815917968750e+00 2.300109386444091797e+00 -1.089387774467468262e+00
7.750000000000000000e+02 7.934031677246093750e+01 -1.804238510131835938e+01 -4.849970340728759766e-02 7.099628448486328125e+00 2.115338563919067383e+00 -4.201584160327911377e-01
7.760000000000000000e+02 7.932690429687500000e+01 -2.367396163940429688e+01 -6.339503824710845947e-02 9.876929283142089844e+00 2.944060325622558594e+00 -2.632503509521484375e-01
7.770000000000000000e+02 7.797479248046875000e+01 -2.507101058959960938e+01 -1.298867166042327881e-01 9.884178161621093750e+00 2.926287412643432617e+00 -5.245859026908874512e-01
7.780000000000000000e+02 7.932135009765625000e+01 -2.507713127136230469e+01 1.189525704830884933e-02 1.030736541748046875e+01 3.095778226852416992e+00 -2.104770392179489136e-01
7.790000000000000000e+02 7.929755401611328125e+01 -2.926833343505859375e+01 -2.439230121672153473e-02 1.105264759063720703e+01 3.308476686477661133e+00 -9.400494396686553955e-02
7.800000000000000000e+02 7.790132141113281250e+01 -3.204405975341796875e+01 -3.358593955636024475e-02 1.050205230712890625e+01 3.140539884567260742e+00 -7.631140202283859253e-02
7.810000000000000000e+02 7.928877258300781250e+01 -3.204746627807617188e+01 1.429093303158879280e-03 1.124123287200927734e+01 3.372798442840576172e+00 -5.367277190089225769e-02
7.820000000000000000e+02 7.924341583251953125e+01 -3.625203323364257812e+01 3.307015448808670044e-02 1.115318393707275391e+01 3.355876207351684570e+00 3.825904801487922668e-03
7.830000000000000000e+02 7.935901641845703125e+01 -3.758089065551757812e+01 -8.034654706716537476e-02 1.109059238433837891e+01 3.303073644638061523e+00 4.673654958605766296e-02
7.840000000000000000e+02 7.925688171386718750e+01 -3.876926422119140625e+01 4.454636573791503906e-02 1.092207431793212891e+01 3.289986133575439453e+00 6.661725789308547974e-02
7.850000000000000000e+02 7.878526306152343750e+01 -4.000254821777343750e+01 -1.050382032990455627e-01 1.068822193145751953e+01 3.174955129623413086e+00 1.752883493900299072e-01
7.860000000000000000e+02 1.043368530273437500e+01 3.774927139282226562e+01 4.575776308774948120e-02 -1.368260234594345093e-01 -2.732047811150550842e-02 4.790814965963363647e-02
7.870000000000000000e+02 2.752232360839843750e+01 4.082577896118164062e+01 2.955342829227447510e-01 8.337630629539489746e-01 3.387891948223114014e-01 2.463184669613838196e-02
7.880000000000000000e+02 6.712213897705078125e+01 4.091228866577148438e+01 2.172321975231170654e-01 4.613488197326660156e+00 1.449216246604919434e+00 -4.860324040055274963e-02
7.890000000000000000e+02 3.810867667198181152e-01 2.178347349166870117e+00 -3.307320876047015190e-03 -2.914744429290294647e-02 -9.736429899930953979e-03 1.240668259561061859e-02
7.900000000000000000e+02 2.716991424560546875e+00 2.693326473236083984e+00 -7.149927318096160889e-02 -7.241836190223693848e-02 -4.317528754472732544e-02 1.317787021398544312e-01
7.910000000000000000e+02 4.757138252258300781e+00 2.637116670608520508e+00 -1.654670089483261108e-01 -4.897300153970718384e-02 -6.433200091123580933e-02 2.077444046735763550e-01
7.920000000000000000e+02 1.606359243392944336e+00 6.461453437805175781e+00 3.544444683939218521e-03 -3.144888877868652344e-01 -9.328333288431167603e-02 1.352171599864959717e-01
7.930000000000000000e+02 5.601806640625000000e-01 9.241621017456054688e+00 2.978402655571699142e-03 -5.983548760414123535e-01 -1.786129325628280640e-01 3.973331302404403687e-02
7.940000000000000000e+02 5.843217968940734863e-01 1.204337024688720703e+01 4.201123025268316269e-03 -7.556241154670715332e-01 -2.254268974065780640e-01 2.255722694098949432e-02
7.950000000000000000e+02 1.764603972434997559e+00 1.192584896087646484e+01 1.917862705886363983e-02 -5.977780222892761230e-01 -1.735798120498657227e-01 6.864137202501296997e-02
7.960000000000000000e+02 6.213839054107666016e-01 1.626045036315917969e+01 1.393273356370627880e-03 -8.281288743019104004e-01 -2.480206787586212158e-01 -1.365239731967449188e-03
7.970000000000000000e+02 6.348636746406555176e-01 1.767547607421875000e+01 2.714093308895826340e-03 -8.202696442604064941e-01 -2.452666610479354858e-01 -6.195323541760444641e-03
7.980000000000000000e+02 6.576553583145141602e-01 2.193788528442382812e+01 -1.174878096207976341e-03 -7.668583393096923828e-01 -2.304099649190902710e-01 -8.370227180421352386e-03
7.990000000000000000e+02 6.622396111488342285e-01 2.335701179504394531e+01 -1.999731757678091526e-04 -7.513414621353149414e-01 -2.254624366760253906e-01 -7.008459419012069702e-03
8.000000000000000000e+02 6.630374789237976074e-01 2.477089500427246094e+01 -2.595388097688555717e-03 -7.406799793243408203e-01 -2.229826003313064575e-01 -3.819230245426297188e-03
8.010000000000000000e+02 6.374472379684448242e-01 2.898990249633789062e+01 7.492706063203513622e-04 -7.375149726867675781e-01 -2.210297137498855591e-01 2.202679868787527084e-03
8.020000000000000000e+02 6.330741047859191895e-01 3.039502716064453125e+01 -1.066689379513263702e-03 -7.435689568519592285e-01 -2.233906835317611694e-01 2.791747916489839554e-03
8.030000000000000000e+02 1.899748921394348145e+00 3.023354148864746094e+01 -2.814285289787221700e-05 -6.481425762176513672e-01 -1.944512128829956055e-01 1.018780563026666641e-02
8.040000000000000000e+02 6.348056793212890625e-01 3.179632186889648438e+01 5.239390884526073933e-04 -7.508065700531005859e-01 -2.250847965478897095e-01 3.184548113495111465e-03
8.050000000000000000e+02 7.449642419815063477e-01 3.595886611938476562e+01 4.033429082483053207e-03 -7.578278183937072754e-01 -2.261383235454559326e-01 -6.325068417936563492e-03
8.060000000000000000e+02 4.044246673583984375e+00 3.629392242431640625e+01 2.830965444445610046e-02 -5.414544343948364258e-01 -1.539434343576431274e-01 2.593792974948883057e-02
8.070000000000000000e+02 1.000413537025451660e+00 3.869367599487304688e+01 -4.164405108895152807e-04 -7.259318232536315918e-01 -2.179044783115386963e-01 -1.039612758904695511e-02
8.080000000000000000e+02 1.335314393043518066e+00 4.006697463989257812e+01 7.204228080809116364e-03 -7.070149779319763184e-01 -2.099432200193405151e-01 -1.678198203444480896e-02
8.090000000000000000e+02 9.874634742736816406e+00 1.846655368804931641e+00 -5.113795399665832520e-01 -2.575938031077384949e-02 -1.611416637897491455e-01 1.781073957681655884e-01
8.100000000000000000e+02 9.127805709838867188e+00 1.867509722709655762e+00 -4.737696647644042969e-01 -3.700815886259078979e-02 -1.532333493232727051e-01 2.132768779993057251e-01
8.110000000000000000e+02 8.388595581054687500e+00 1.874621748924255371e+00 -4.573952257633209229e-01 -2.257123962044715881e-02 -1.439899355173110962e-01 2.299723029136657715e-01
8.120000000000000000e+02 7.652329921722412109e+00 1.876857995986938477e+00 -4.034363031387329102e-01 -1.598501019179821014e-02 -1.258263885974884033e-01 2.155374735593795776e-01
8.130000000000000000e+02 6.189023494720458984e+00 1.877118468284606934e+00 -2.956848442554473877e-01 -2.108227647840976715e-02 -9.503014385700225830e-02 1.957087218761444092e-01
8.140000000000000000e+02 4.740911960601806641e+00 1.872080683708190918e+00 -1.951988041400909424e-01 -2.829227596521377563e-02 -6.704732775688171387e-02 1.638506054878234863e-01
8.150000000000000000e+02 4.023809432983398438e+00 1.868692755699157715e+00 -1.515093892812728882e-01 -3.134249523282051086e-02 -5.485556274652481079e-02 1.431849002838134766e-01
8.160000000000000000e+02 3.308368682861328125e+00 1.875955343246459961e+00 -1.107585132122039795e-01 -3.737381845712661743e-02 -4.443969950079917908e-02 1.212110668420791626e-01
8.170000000000000000e+02 1.866316199302673340e+00 1.988431334495544434e+00 -4.444629326462745667e-02 -5.343081802129745483e-02 -2.936313487589359283e-02 7.160172611474990845e-02
8.180000000000000000e+02 1.131798386573791504e+00 2.092985153198242188e+00 -1.762868277728557587e-02 -5.286146700382232666e-02 -2.114704437553882599e-02 3.881633654236793518e-02
8.190000000000000000e+02 1.146056842803955078e+01 1.570483803749084473e+00 -5.728794932365417480e-01 3.552263975143432617e-02 -1.612070500850677490e-01 7.144446671009063721e-02
8.200000000000000000e+02 1.306718540191650391e+01 1.170343637466430664e+00 -5.577973127365112305e-01 1.221191957592964172e-01 -1.307034194469451904e-01 -4.610998183488845825e-02
8.210000000000000000e+02 1.463425350189208984e+01 6.222352981567382812e-01 -4.345419406890869141e-01 1.687777489423751831e-01 -7.972925901412963867e-02 -1.707587391138076782e-01
8.220000000000000000e+02 1.617285919189453125e+01 -1.786075159907341003e-02 -1.901271641254425049e-01 1.848660409450531006e-01 -1.578338677063584328e-03 -2.538638114929199219e-01
8.230000000000000000e+02 1.791918945312500000e+01 -1.185101866722106934e+00 1.510431170463562012e-01 4.707994759082794189e-01 1.865527778863906860e-01 -3.141089081764221191e-01
8.240000000000000000e+02 1.845271682739257812e+01 -1.557312369346618652e+00 2.051156163215637207e-01 7.454700469970703125e-01 2.851756811141967773e-01 -3.690400719642639160e-01
8.250000000000000000e+02 1.895919799804687500e+01 -1.904442310333251953e+00 2.217418998479843140e-01 1.224643230438232422e+00 4.339155554771423340e-01 -4.473880231380462646e-01
8.260000000000000000e+02 1.969761848449707031e+01 -2.467329502105712891e+00 1.497621834278106689e-01 2.374993801116943359e+00 7.574267983436584473e-01 -4.451394379138946533e-01
8.270000000000000000e+02 1.971809387207031250e+01 -2.772554397583007812e+00 1.525065600872039795e-01 2.529867172241210938e+00 8.047121167182922363e-01 -5.213509202003479004e-01
8.280000000000000000e+02 2.098359680175781250e+01 -4.101202011108398438e+00 8.176529407501220703e-01 7.709772109985351562e+00 2.558227539062500000e+00 2.021554231643676758e+00
8.290000000000000000e+02 2.086039352416992188e+01 -3.938485860824584961e+00 3.890215754508972168e-01 7.221082687377929688e+00 2.283031225204467773e+00 1.319279670715332031e+00
8.300000000000000000e+02 2.210455131530761719e+01 -5.093394756317138672e+00 6.839642524719238281e+00 5.083795070648193359e+00 3.577031373977661133e+00 4.228197574615478516e+00
8.310000000000000000e+02 2.144906997680664062e+01 -6.889576435089111328e+00 8.479193687438964844e+00 6.652700424194335938e+00 4.539568424224853516e+00 -7.401065230369567871e-01
8.320000000000000000e+02 2.129255104064941406e+01 -7.048154354095458984e+00 7.697201251983642578e+00 7.284758567810058594e+00 4.494587898254394531e+00 -7.465825080871582031e-01
8.330000000000000000e+02 2.157857322692871094e+01 -7.344586849212646484e+00 6.420616626739501953e+00 6.094106674194335938e+00 3.754416942596435547e+00 -8.907477259635925293e-01
8.340000000000000000e+02 2.046869659423828125e+01 -7.455086231231689453e+00 5.260975837707519531e+00 8.660300254821777344e+00 4.176383018493652344e+00 1.598563671112060547e+00
8.350000000000000000e+02 1.984199905395507812e+01 -7.385446071624755859e+00 6.152397155761718750e+00 7.429846763610839844e+00 4.074673175811767578e+00 4.018866539001464844e+00
8.360000000000000000e+02 1.943302917480468750e+01 -7.227876663208007812e+00 7.343641281127929688e+00 5.010373115539550781e+00 3.706204414367675781e+00 4.619092941284179688e+00
8.370000000000000000e+02 1.906942749023437500e+01 -6.999936580657958984e+00 8.835598945617675781e+00 2.596657037734985352e+00 3.429677009582519531e+00 4.559721946716308594e+00
8.380000000000000000e+02 1.821695709228515625e+01 -6.038412094116210938e+00 7.863225936889648438e+00 -1.084415555000305176e+00 2.033643245697021484e+00 4.784168303012847900e-01
8.390000000000000000e+02 1.705013847351074219e+01 -4.877467632293701172e+00 3.095097780227661133e+00 -8.452634215354919434e-01 6.749503016471862793e-01 -2.760296761989593506e-01
8.400000000000000000e+02 1.520255851745605469e+01 -3.682708024978637695e+00 9.127641916275024414e-01 -5.329024195671081543e-01 1.139585301280021667e-01 5.114245414733886719e-01
8.410000000000000000e+02 1.194666290283203125e+01 -2.413512468338012695e+00 -6.936919689178466797e-01 2.139150537550449371e-02 -2.016901373863220215e-01 6.920698285102844238e-01
8.420000000000000000e+02 1.181292438507080078e+01 -3.136660814285278320e+00 -4.007762670516967773e-01 -2.853265032172203064e-03 -1.210888624191284180e-01 8.341373801231384277e-01
8.430000000000000000e+02 8.022491455078125000e+00 -2.613899946212768555e+00 -1.179853796958923340e+00 5.060320496559143066e-01 -2.021465152502059937e-01 -2.248347923159599304e-02
8.440000000000000000e+02 2.135854339599609375e+01 1.632111740112304688e+01 -8.757233619689941406e-01 -2.191338241100311279e-01 -3.284571468830108643e-01 3.811961412429809570e-01
8.450000000000000000e+02 2.465677833557128906e+01 1.392110538482666016e+01 -3.687466084957122803e-01 4.376360774040222168e-01 2.066683769226074219e-02 1.829392015933990479e-01
8.460000000000000000e+02 1.357303810119628906e+01 7.725450515747070312e+00 2.274140715599060059e-01 9.422072172164916992e-01 3.508863747119903564e-01 -1.316139008849859238e-03
8.470000000000000000e+02 6.939053344726562500e+01 -1.269711780548095703e+01 2.699392318725585938e+00 1.904231262207031250e+01 6.522511482238769531e+00 1.024844288825988770e+00
8.480000000000000000e+02 6.786951446533203125e+01 -1.689193534851074219e+01 6.824799776077270508e-01 1.056128978729248047e+01 3.373131036758422852e+00 2.426180362701416016e+00
8.490000000000000000e+02 6.539274597167968750e+01 -1.823051071166992188e+01 1.727938413619995117e+00 5.365210533142089844e+00 2.127944707870483398e+00 2.841476917266845703e+00
8.500000000000000000e+02 6.450691223144531250e+01 -1.934428787231445312e+01 1.117936849594116211e+00 3.333875179290771484e+00 1.335543632507324219e+00 2.031490325927734375e+00
8.510000000000000000e+02 6.267482376098632812e+01 -2.152595520019531250e+01 1.741233617067337036e-01 1.397731542587280273e+00 4.715564846992492676e-01 6.943662166595458984e-01
8.520000000000000000e+02 5.966222763061523438e+01 -2.455810928344726562e+01 -9.827197790145874023e-01 -1.488583087921142578e-01 -3.394734263420104980e-01 -5.461882948875427246e-01
8.530000000000000000e+02 5.738162994384765625e+01 -2.620381546020507812e+01 -1.579232215881347656e+00 -5.516767501831054688e-01 -6.392726898193359375e-01 -9.308508038520812988e-01
8.540000000000000000e+02 5.499166870117187500e+01 -2.768438911437988281e+01 -1.759068250656127930e+00 -5.445252656936645508e-01 -6.910780072212219238e-01 -9.420329928398132324e-01
8.550000000000000000e+02 5.251089477539062500e+01 -2.905459594726562500e+01 -1.627502202987670898e+00 -4.652278423309326172e-01 -6.278190016746520996e-01 -8.907176852226257324e-01
8.560000000000000000e+02 4.588367462158203125e+01 -3.152361297607421875e+01 -8.848060369491577148e-01 -1.521121859550476074e-01 -3.110754787921905518e-01 -3.275502622127532959e-01
8.570000000000000000e+02 3.999320983886718750e+01 -3.288959121704101562e+01 -4.595266282558441162e-01 -4.840654507279396057e-02 -1.523799598217010498e-01 -9.380244463682174683e-02
8.580000000000000000e+02 3.569934463500976562e+01 -3.262564849853515625e+01 -3.503307104110717773e-01 -3.890826553106307983e-02 -1.167716905474662781e-01 2.929881215095520020e-02
8.590000000000000000e+02 3.147025299072265625e+01 -3.176689720153808594e+01 -4.016358554363250732e-01 -1.542367041110992432e-02 -1.251178532838821411e-01 9.573701769113540649e-02
8.600000000000000000e+02 3.010692977905273438e+01 -3.150203514099121094e+01 -4.202356934547424316e-01 -4.990912228822708130e-02 -1.410434395074844360e-01 1.085624620318412781e-01
8.610000000000000000e+02 2.480357933044433594e+01 -2.934962654113769531e+01 -2.294396162033081055e-01 -1.363748963922262192e-02 -7.292313128709793091e-02 6.431941688060760498e-02
8.620000000000000000e+02 2.224972915649414062e+01 -2.804977416992187500e+01 -6.300387531518936157e-02 9.514950960874557495e-02 9.643688797950744629e-03 -6.867662072181701660e-02
8.630000000000000000e+02 2.351589965820312500e+01 -2.872617912292480469e+01 -1.554815620183944702e-01 6.206719204783439636e-02 -2.802431024610996246e-02 2.143108658492565155e-02
8.640000000000000000e+02 1.372129726409912109e+01 -2.052099800109863281e+01 1.314798593521118164e+00 2.054329395294189453e+00 1.010738372802734375e+00 -1.717855930328369141e+00
8.650000000000000000e+02 1.273280620574951172e+01 -1.951002502441406250e+01 1.708423376083374023e+00 2.935616493225097656e+00 1.393211960792541504e+00 -2.070055723190307617e+00
8.660000000000000000e+02 1.081305694580078125e+01 -1.739509391784667969e+01 2.664470911026000977e+00 6.488087177276611328e+00 2.745767354965209961e+00 -3.550637960433959961e+00
8.670000000000000000e+02 2.012406539916992188e+01 -1.489338302612304688e+01 -9.073608398437500000e+00 -1.688918948173522949e+00 -3.228758096694946289e+00 3.912477970123291016e+00
8.680000000000000000e+02 2.138513565063476562e+01 -1.547451686859130859e+01 -7.733546257019042969e+00 -1.182244062423706055e+00 -2.674736976623535156e+00 3.230895757675170898e+00
8.690000000000000000e+02 2.394164276123046875e+01 -1.652166366577148438e+01 -6.295516967773437500e+00 -4.665767252445220947e-01 -2.028628110885620117e+00 1.907733678817749023e+00
8.700000000000000000e+02 2.923785781860351562e+01 -1.801395416259765625e+01 -4.156340599060058594e+00 -1.583207212388515472e-02 -1.251651883125305176e+00 6.815500259399414062e-01
8.710000000000000000e+02 3.194405937194824219e+01 -1.842301750183105469e+01 -3.628258466720581055e+00 -1.968970522284507751e-03 -1.089068293571472168e+00 3.196318447589874268e-01
8.720000000000000000e+02 3.330315017700195312e+01 -1.857233619689941406e+01 -3.206436872482299805e+00 7.512086629867553711e-02 -9.393947720527648926e-01 1.648946255445480347e-01
8.730000000000000000e+02 3.741500091552734375e+01 -1.858794021606445312e+01 -2.806619882583618164e+00 1.218698453158140182e-02 -8.383298516273498535e-01 -1.887972652912139893e-01
8.740000000000000000e+02 3.584360504150390625e+01 -1.739790916442871094e+01 -2.738786458969116211e+00 1.198114901781082153e-01 -7.856924533843994141e-01 -2.248615920543670654e-01
8.750000000000000000e+02 4.014527130126953125e+01 -1.838907623291015625e+01 -2.269459962844848633e+00 3.131922334432601929e-02 -6.714422702789306641e-01 -3.573219478130340576e-01
8.760000000000000000e+02 4.544962310791015625e+01 -1.699581336975097656e+01 -2.334452629089355469e+00 -2.228071987628936768e-01 -7.671779394149780273e-01 -7.110325694084167480e-01
8.770000000000000000e+02 4.355478286743164062e+01 -1.624610328674316406e+01 -2.150453329086303711e+00 -8.905903249979019165e-02 -6.718536615371704102e-01 -6.060932278633117676e-01
8.780000000000000000e+02 4.676677322387695312e+01 -1.658730125427246094e+01 -2.106410026550292969e+00 -1.860746890306472778e-01 -6.877454519271850586e-01 -7.363042235374450684e-01
8.790000000000000000e+02 4.805646514892578125e+01 -1.609833717346191406e+01 -2.049791336059570312e+00 -2.755613327026367188e-01 -6.976058483123779297e-01 -8.312020301818847656e-01
8.800000000000000000e+02 5.224037933349609375e+01 -1.262097930908203125e+01 -2.146109819412231445e+00 -4.394310116767883301e-01 -7.756622433662414551e-01 -1.036503195762634277e+00
8.810000000000000000e+02 5.302215957641601562e+01 -1.362943744659423828e+01 -2.304560899734497070e+00 -6.564967036247253418e-01 -8.883172869682312012e-01 -1.223613858222961426e+00
8.820000000000000000e+02 5.542603683471679688e+01 -1.223805427551269531e+01 -2.381137132644653320e+00 -8.034685254096984863e-01 -9.553816914558410645e-01 -1.427510499954223633e+00
8.830000000000000000e+02 5.776298904418945312e+01 -1.072092342376708984e+01 -2.941282033920288086e+00 -1.077636599540710449e+00 -1.205675601959228516e+00 -1.769436717033386230e+00
8.840000000000000000e+02 6.124440002441406250e+01 -8.435038566589355469e+00 -4.071751594543457031e+00 -1.286881923675537109e+00 -1.607589960098266602e+00 -2.260648727416992188e+00
8.850000000000000000e+02 6.420256042480468750e+01 -5.955183029174804688e+00 -3.079632759094238281e+00 -5.874205827713012695e-01 -1.100116014480590820e+00 -2.204342842102050781e+00
8.860000000000000000e+02 5.071043014526367188e+01 1.877587509155273438e+01 4.661338925361633301e-01 2.357701361179351807e-01 2.105711996555328369e-01 -2.458151280879974365e-01
8.870000000000000000e+02 5.479138565063476562e+01 1.637492942810058594e+01 1.140631914138793945e+00 3.058999061584472656e+00 1.259889364242553711e+00 -1.543454885482788086e+00
8.880000000000000000e+02 4.623662567138671875e+01 5.879758358001708984e+00 9.343408346176147461e-01 1.643714457750320435e-01 3.296136856079101562e-01 -1.066225096583366394e-01
8.890000000000000000e+02 4.302091979980468750e+01 9.307835578918457031e+00 1.803356707096099854e-01 9.371997714042663574e-01 3.352606296539306641e-01 -8.701782673597335815e-02
8.900000000000000000e+02 4.648285675048828125e+01 1.955793190002441406e+01 8.941942453384399414e-01 8.628666996955871582e-01 5.271182656288146973e-01 7.548967599868774414e-01
8.910000000000000000e+02 2.024435997009277344e+01 -7.399591445922851562e+00 5.440167427062988281e+00 8.430294036865234375e+00 4.161138534545898438e+00 2.376960992813110352e+00
8.920000000000000000e+02 2.093582344055175781e+01 -7.314913272857666016e+00 6.112197399139404297e+00 8.331728935241699219e+00 4.333177566528320312e+00 2.710410393774509430e-02
8.930000000000000000e+02 2.429893493652343750e+01 -1.539759445190429688e+01 -5.643976211547851562e+00 1.827489286661148071e-01 -1.638368248939514160e+00 1.153871893882751465e+00
8.940000000000000000e+02 1.862359237670898438e+01 -1.218886375427246094e+01 -5.027513504028320312e+00 -4.923860132694244385e-01 -1.655969858169555664e+00 3.019760370254516602e+00
8.950000000000000000e+02 2.071499252319335938e+01 -7.423624515533447266e+00 5.507661342620849609e+00 8.526649475097656250e+00 4.210293292999267578e+00 7.444943189620971680e-01
8.960000000000000000e+02 2.187022972106933594e+01 -5.652225017547607422e+00 9.719168663024902344e+00 4.773744106292724609e+00 4.347873687744140625e+00 3.422475337982177734e+00
8.970000000000000000e+02 2.187005615234375000e+01 -6.092179775238037109e+00 1.026312828063964844e+01 4.489549160003662109e+00 4.425803184509277344e+00 1.585385799407958984e+00
8.980000000000000000e+02 2.181056976318359375e+01 -6.322085857391357422e+00 1.009785175323486328e+01 4.701178550720214844e+00 4.439709186553955078e+00 7.243038415908813477e-01
8.990000000000000000e+02 1.760430145263671875e+01 -1.375684261322021484e+01 -8.841658592224121094e+00 -1.797862410545349121e+00 -3.191856384277343750e+00 4.342020988464355469e+00
9.000000000000000000e+02 2.120514297485351562e+01 -7.755899429321289062e+00 4.722172260284423828e+00 6.714606285095214844e+00 3.431033611297607422e+00 -2.448382228612899780e-01
9.010000000000000000e+02 2.120844078063964844e+01 -4.419845581054687500e+00 1.951282858848571777e+00 8.480572700500488281e+00 3.129556655883789062e+00 3.475023984909057617e+00
9.020000000000000000e+02 2.104265403747558594e+01 -3.542087793350219727e+00 3.434020280838012695e-01 6.238008022308349609e+00 1.974423050880432129e+00 1.371639847755432129e+00
9.030000000000000000e+02 2.170820426940917969e+01 -4.575374126434326172e+00 4.076792716979980469e+00 6.938924312591552734e+00 3.304715156555175781e+00 4.406303882598876953e+00
9.040000000000000000e+02 2.134190750122070312e+01 -4.543670177459716797e+00 3.166139841079711914e+00 8.173672676086425781e+00 3.401943683624267578e+00 4.217213153839111328e+00
9.050000000000000000e+02 2.001321601867675781e+01 -3.029922485351562500e+00 8.266974985599517822e-02 3.336933374404907227e+00 1.025880932807922363e+00 -4.035810530185699463e-01
9.060000000000000000e+02 2.018220329284667969e+01 -3.151726961135864258e+00 5.064811557531356812e-02 3.913957118988037109e+00 1.189381599426269531e+00 -3.102920055389404297e-01
9.070000000000000000e+02 2.060557174682617188e+01 -3.600047111511230469e+00 8.693545311689376831e-02 5.767431735992431641e+00 1.756310105323791504e+00 3.590207397937774658e-01
9.080000000000000000e+02 2.031791496276855469e+01 -3.310924291610717773e+00 1.030587870627641678e-02 4.493351459503173828e+00 1.351097106933593750e+00 -1.871800720691680908e-01
9.090000000000000000e+02 2.110192298889160156e+01 -4.263345718383789062e+00 1.338412404060363770e+00 8.102197647094726562e+00 2.832182884216308594e+00 2.686489820480346680e+00
9.100000000000000000e+02 1.660221862792968750e+01 -4.578336715698242188e+00 2.432908773422241211e+00 -7.508268952369689941e-01 5.046245455741882324e-01 -4.762138240039348602e-03
9.110000000000000000e+02 1.860790061950683594e+01 -6.535372257232666016e+00 9.285711288452148438e+00 -1.971004456281661987e-01 2.726583242416381836e+00 2.566471576690673828e+00
9.120000000000000000e+02 1.808201980590820312e+01 -5.879128932952880859e+00 6.969528675079345703e+00 -1.049466371536254883e+00 1.776018738746643066e+00 9.686259925365447998e-02
9.130000000000000000e+02 1.637425231933593750e+01 -1.118535518646240234e+01 -2.835109949111938477e+00 -2.054938316345214844e+00 -1.467014551162719727e+00 3.623133182525634766e+00
9.140000000000000000e+02 1.835433197021484375e+01 -6.194892406463623047e+00 8.402663230895996094e+00 -9.355412721633911133e-01 2.240136623382568359e+00 1.099065065383911133e+00
9.150000000000000000e+02 1.771497726440429688e+01 -5.420094013214111328e+00 4.985921859741210938e+00 -9.763312339782714844e-01 1.202877163887023926e+00 -3.983198404312133789e-01
9.160000000000000000e+02 1.808995819091796875e+01 -6.415287494659423828e+00 7.745412349700927734e+00 -1.055459380149841309e+00 2.006985902786254883e+00 1.621259093284606934e+00
9.170000000000000000e+02 1.795742607116699219e+01 -5.713197708129882812e+00 6.249726772308349609e+00 -9.918540716171264648e-01 1.577361822128295898e+00 -2.130083739757537842e-01
9.180000000000000000e+02 1.784936714172363281e+01 -5.550399780273437500e+00 5.594772815704345703e+00 -1.038299918174743652e+00 1.366941809654235840e+00 -3.004811406135559082e-01
9.190000000000000000e+02 1.735809135437011719e+01 -5.373564243316650391e+00 4.578522682189941406e+00 -1.069964289665222168e+00 1.052567601203918457e+00 -2.253665477037429810e-01
9.200000000000000000e+02 1.726916122436523438e+01 -5.022901535034179688e+00 3.618891716003417969e+00 -8.085471391677856445e-01 8.431034088134765625e-01 -3.023498952388763428e-01
9.210000000000000000e+02 1.869955253601074219e+01 -1.040415644645690918e+00 1.442233026027679443e-01 9.860497713088989258e-01 3.390819132328033447e-01 -3.698154687881469727e-01
9.220000000000000000e+02 1.819247817993164062e+01 -6.918315887451171875e-01 1.126493141055107117e-01 6.423470973968505859e-01 2.264989167451858521e-01 -3.575885295867919922e-01
9.230000000000000000e+02 1.717258834838867188e+01 1.697639524936676025e-01 -8.098094910383224487e-02 3.291586637496948242e-01 7.445330917835235596e-02 -3.841188848018646240e-01
9.240000000000000000e+02 1.738152122497558594e+01 -7.965893149375915527e-01 6.759706139564514160e-02 3.013195097446441650e-01 1.106749698519706726e-01 -3.007971644401550293e-01
9.250000000000000000e+02 2.012193107604980469e+01 4.222064495086669922e+00 -1.848656058311462402e+00 -5.481462180614471436e-02 -5.710411667823791504e-01 -1.317118257284164429e-01
9.260000000000000000e+02 9.276353836059570312e+00 3.335793495178222656e+00 -2.669067978858947754e-01 2.305205166339874268e-02 -7.315642386674880981e-02 2.486223578453063965e-01
9.270000000000000000e+02 8.436033248901367188e+00 2.619021654129028320e+00 -3.342404663562774658e-01 -2.065341733396053314e-02 -1.064681634306907654e-01 2.540185153484344482e-01
9.280000000000000000e+02 6.919225692749023438e+00 1.877725481986999512e+00 -3.508500754833221436e-01 -1.887630671262741089e-02 -1.109179183840751648e-01 2.105361074209213257e-01
9.290000000000000000e+02 1.650599956512451172e+00 7.811043262481689453e+00 9.717342443764209747e-03 -4.016231894493103027e-01 -1.175717562437057495e-01 1.300463676452636719e-01
9.300000000000000000e+02 9.982162475585937500e+00 2.557791471481323242e+00 -3.928498327732086182e-01 1.452433783560991287e-02 -1.134976521134376526e-01 1.925307959318161011e-01
9.310000000000000000e+02 6.200559616088867188e+00 2.640436172485351562e+00 -2.378939241170883179e-01 -3.569138795137405396e-02 -8.207559585571289062e-02 2.462544143199920654e-01
9.320000000000000000e+02 6.936643123626708984e+00 2.635398864746093750e+00 -2.739018499851226807e-01 -2.839924395084381104e-02 -9.069032222032546997e-02 2.548901736736297607e-01
9.330000000000000000e+02 1.851635813713073730e+00 4.103531837463378906e+00 -2.188683301210403442e-02 -1.537912786006927490e-01 -5.270343273878097534e-02 1.293010413646697998e-01
9.340000000000000000e+02 6.220390796661376953e+00 3.425471544265747070e+00 -1.756667494773864746e-01 -4.995644092559814453e-02 -6.768696010112762451e-02 2.782190144062042236e-01
9.350000000000000000e+02 1.325616359710693359e+00 3.270915031433105469e+00 -2.075933665037155151e-02 -1.141733080148696899e-01 -4.047979414463043213e-02 8.517543971538543701e-02
9.360000000000000000e+02 2.590886354446411133e+00 1.912463188171386719e+00 -7.666736841201782227e-02 -4.239340499043464661e-02 -3.571823239326477051e-02 9.679674357175827026e-02
9.370000000000000000e+02 2.040147542953491211e+00 2.901338338851928711e+00 -4.614733159542083740e-02 -8.614198118448257446e-02 -3.968679532408714294e-02 1.119025647640228271e-01
9.380000000000000000e+02 4.384727478027343750e+00 -2.697984933853149414e+00 -7.450478672981262207e-01 5.956281349062919617e-02 -2.056455165147781372e-01 -8.192546367645263672e-01
9.390000000000000000e+02 7.962187767028808594e+00 -1.872219562530517578e+00 -1.338708996772766113e+00 2.384165227413177490e-01 -3.300877511501312256e-01 -5.976445600390434265e-02
9.400000000000000000e+02 2.722030401229858398e+00 -2.011426448822021484e+00 -4.181448817253112793e-01 -1.685796678066253662e-01 -1.760173738002777100e-01 -5.709578394889831543e-01
9.410000000000000000e+02 1.734330892562866211e+00 -8.228654861450195312e+00 2.514517679810523987e-02 -2.476719379425048828e+00 -7.354722619056701660e-01 -1.155334591865539551e+00
9.420000000000000000e+02 3.079152584075927734e+00 -7.492656230926513672e+00 -8.534305542707443237e-02 -8.918931484222412109e-01 -2.931708693504333496e-01 -1.603712677955627441e+00
9.430000000000000000e+02 1.938489317893981934e+00 -6.914383411407470703e+00 -1.289203464984893799e-01 -1.694013357162475586e+00 -5.468801259994506836e-01 -1.124181509017944336e+00
9.440000000000000000e+02 4.683896005153656006e-01 -3.589876413345336914e+00 -1.792335882782936096e-02 -7.352681756019592285e-01 -2.259574532508850098e-01 -1.815378963947296143e-01
9.450000000000000000e+02 6.211482286453247070e-01 -5.037379741668701172e+00 -1.138237044215202332e-01 -1.538112640380859375e+00 -4.955809116363525391e-01 -3.755775094032287598e-01
9.460000000000000000e+02 9.957655906677246094e+00 -4.999604701995849609e+00 -5.020309090614318848e-01 1.212782740592956543e+00 2.132255584001541138e-01 1.205926299095153809e+00
9.470000000000000000e+02 5.834372520446777344e+00 -2.617927312850952148e+00 -1.004362344741821289e+00 2.630647420883178711e-01 -2.223892807960510254e-01 -6.233293414115905762e-01
9.480000000000000000e+02 5.106330394744873047e+00 -2.651656150817871094e+00 -8.808572888374328613e-01 2.096158117055892944e-01 -2.013724446296691895e-01 -7.146089673042297363e-01
9.490000000000000000e+02 9.485165596008300781e+00 -2.694543123245239258e+00 -1.071636319160461426e+00 4.929390251636505127e-01 -1.736091971397399902e-01 3.957096934318542480e-01
9.500000000000000000e+02 1.025263214111328125e+01 -2.012158870697021484e+00 -1.188421249389648438e+00 2.648112177848815918e-01 -2.770830392837524414e-01 4.338745176792144775e-01
9.510000000000000000e+02 1.793248367309570312e+01 4.179008483886718750e+00 -1.102774977684020996e+00 1.935267895460128784e-01 -2.727744579315185547e-01 -1.110915616154670715e-01
9.520000000000000000e+02 1.622408103942871094e+01 5.846438884735107422e+00 9.761501103639602661e-02 4.906588196754455566e-01 1.764821559190750122e-01 -2.808969616889953613e-01
9.530000000000000000e+02 1.587459373474121094e+01 3.579711675643920898e+00 -5.266467332839965820e-01 5.561190247535705566e-01 8.841698989272117615e-03 -3.657290339469909668e-01
9.540000000000000000e+02 1.571864318847656250e+01 1.056156754493713379e+00 -3.499914705753326416e-01 2.792262732982635498e-01 -2.122956514358520508e-02 -3.420283198356628418e-01
9.550000000000000000e+02 1.723517227172851562e+01 4.980911254882812500e+00 -3.319492340087890625e-01 2.262806743383407593e-01 -3.170056641101837158e-02 -4.125563427805900574e-02
9.560000000000000000e+02 1.326773738861083984e+01 1.922442317008972168e+00 -5.086903572082519531e-01 2.208544760942459106e-01 -8.635076880455017090e-02 -1.052916720509529114e-01
9.570000000000000000e+02 1.161825847625732422e+01 2.323502302169799805e+00 -4.666799306869506836e-01 1.147010251879692078e-01 -1.055936738848686218e-01 5.920549482107162476e-02
9.580000000000000000e+02 9.200659751892089844e+00 2.601562261581420898e+00 -3.704110383987426758e-01 -3.186942311003804207e-03 -1.120793968439102173e-01 2.340187430381774902e-01
9.590000000000000000e+02 1.443526363372802734e+01 -3.299048185348510742e+00 4.306373894214630127e-01 -5.183258652687072754e-01 -2.630654722452163696e-02 6.176517009735107422e-01
9.600000000000000000e+02 1.416559791564941406e+01 -3.905280590057373047e+00 8.499493002891540527e-01 -5.432456731796264648e-01 9.201110154390335083e-02 8.970943689346313477e-01
9.610000000000000000e+02 1.488452720642089844e+01 -4.229246139526367188e+00 1.402326345443725586e+00 -8.376580476760864258e-01 1.694005131721496582e-01 7.353460788726806641e-01
9.620000000000000000e+02 1.101772022247314453e+01 -2.947170972824096680e+00 -6.903133988380432129e-01 2.655122876167297363e-01 -1.274403333663940430e-01 7.464311718940734863e-01
9.630000000000000000e+02 1.339830112457275391e+01 -3.619704961776733398e+00 3.790717422962188721e-01 -4.301104247570037842e-01 -1.531160436570644379e-02 9.233459234237670898e-01
9.640000000000000000e+02 1.091610622406005859e+01 -3.681406259536743164e+00 -4.720393121242523193e-01 3.333166539669036865e-01 -4.161678999662399292e-02 8.858302831649780273e-01
9.650000000000000000e+02 1.361557483673095703e+01 -2.978684186935424805e+00 3.223181935027241707e-03 -2.668506205081939697e-01 -7.908822596073150635e-02 7.463276386260986328e-01
9.660000000000000000e+02 1.888608169555664062e+01 4.267075061798095703e+00 -1.646787881851196289e+00 -1.243181750178337097e-01 -5.313317775726318359e-01 5.837235972285270691e-02
9.670000000000000000e+02 2.851790237426757812e+01 9.391714096069335938e+00 7.320497035980224609e-01 2.155403852462768555e+00 8.662360906600952148e-01 1.096967577934265137e+00
9.680000000000000000e+02 1.692321586608886719e+01 1.610295486450195312e+01 5.156730413436889648e-01 6.626517772674560547e-01 3.534974455833435059e-01 5.059888362884521484e-01
9.690000000000000000e+02 2.019635391235351562e+01 1.679420280456542969e+01 -5.402532219886779785e-01 -8.444715291261672974e-02 -1.874101161956787109e-01 3.400211930274963379e-01
9.700000000000000000e+02 2.023953247070312500e+01 1.900407600402832031e+01 -4.504036903381347656e-02 2.493377029895782471e-02 -6.031979806721210480e-03 4.674934148788452148e-01
9.710000000000000000e+02 1.529778289794921875e+01 6.894172668457031250e+00 2.636033594608306885e-01 8.886905312538146973e-01 3.456881642341613770e-01 -4.216155707836151123e-01
9.720000000000000000e+02 1.349019718170166016e+01 2.708609104156494141e+00 -4.516257345676422119e-01 3.244921267032623291e-01 -3.814008086919784546e-02 -1.241377219557762146e-01
9.730000000000000000e+02 2.230398178100585938e+01 1.954171752929687500e+01 1.237510051578283310e-02 1.243976950645446777e-01 4.103184118866920471e-02 2.541474699974060059e-01
9.740000000000000000e+02 1.462337398529052734e+01 3.227082490921020508e+00 -4.591057598590850830e-01 4.688441157341003418e-01 2.921507693827152252e-03 -2.442530840635299683e-01
9.750000000000000000e+02 2.579061317443847656e+01 5.766427993774414062e+00 5.965126156806945801e-01 2.951570510864257812e+00 1.064424872398376465e+00 9.678663611412048340e-01
9.760000000000000000e+02 2.144878196716308594e+01 3.487120151519775391e+00 -6.709950566291809082e-01 8.361833095550537109e-01 4.955646768212318420e-02 7.842254042625427246e-01
9.770000000000000000e+02 2.281214523315429688e+01 5.013429641723632812e+00 2.526528835296630859e-01 1.122482895851135254e+00 4.125407040119171143e-01 8.865060806274414062e-01
9.780000000000000000e+02 2.486539268493652344e+01 4.933964729309082031e+00 1.902483105659484863e-01 2.926382780075073242e+00 9.349893331527709961e-01 1.310187458992004395e+00
9.790000000000000000e+02 1.530649662017822266e+01 1.733598899841308594e+01 3.145258408039808273e-03 7.718983888626098633e-01 2.325130999088287354e-01 3.186838328838348389e-01
9.800000000000000000e+02 1.386798954010009766e+01 1.489344215393066406e+01 3.061340451240539551e-01 9.874215722084045410e-01 3.880666792392730713e-01 2.212020456790924072e-01
9.810000000000000000e+02 2.686843490600585938e+01 1.157873630523681641e+01 8.768438547849655151e-02 2.173209905624389648e+00 6.782682538032531738e-01 6.712909340858459473e-01
9.820000000000000000e+02 1.331070423126220703e+01 1.111454200744628906e+01 2.278311401605606079e-01 1.283226251602172852e+00 4.533172249794006348e-01 1.855487078428268433e-01
9.830000000000000000e+02 2.549632835388183594e+01 1.504029464721679688e+01 -5.267930030822753906e-01 9.620382785797119141e-01 1.305735856294631958e-01 1.776601970195770264e-01
9.840000000000000000e+02 2.227032661437988281e+01 1.749608802795410156e+01 -2.643409073352813721e-01 -1.110526546835899353e-01 -1.126180663704872131e-01 2.108981013298034668e-01
9.850000000000000000e+02 2.754178047180175781e+01 7.931894302368164062e+00 1.021052837371826172e+00 2.373046875000000000e+00 1.018229961395263672e+00 1.016969323158264160e+00
9.860000000000000000e+02 2.722519111633300781e+01 9.045849800109863281e+00 8.536716103553771973e-01 2.385198354721069336e+00 9.716609716415405273e-01 1.192120432853698730e+00
9.870000000000000000e+02 1.244398403167724609e+01 2.143712997436523438e+00 -4.874084889888763428e-01 1.689386367797851562e-01 -9.554095566272735596e-02 -1.712630130350589752e-02
9.880000000000000000e+02 1.589781570434570312e+01 1.792116403579711914e+00 -4.197760522365570068e-01 3.657050728797912598e-01 -1.622129231691360474e-02 -3.976835310459136963e-01
9.890000000000000000e+02 2.211271095275878906e+01 2.293060064315795898e+00 -3.883156478404998779e-01 1.655926585197448730e+00 3.802832961082458496e-01 1.184516787528991699e+00
9.900000000000000000e+02 1.436021518707275391e+01 9.553010940551757812e+00 1.366187483072280884e-01 1.585276603698730469e+00 5.165686011314392090e-01 -6.005984917283058167e-02
9.910000000000000000e+02 8.118690490722656250e+00 -1.198149776458740234e+01 2.822595357894897461e+00 7.309388160705566406e+00 3.039595127105712891e+00 -1.430339813232421875e+00
9.920000000000000000e+02 7.392451763153076172e+00 -1.295933914184570312e+01 4.543770790100097656e+00 6.167850494384765625e+00 3.213486433029174805e+00 1.925588399171829224e-02
9.930000000000000000e+02 6.871899414062500000e+01 -1.129649448394775391e+01 1.622319102287292480e+00 2.312028312683105469e+01 7.422780513763427734e+00 7.510384917259216309e-01
9.940000000000000000e+02 5.546587371826171875e+01 1.520404911041259766e+01 9.563482999801635742e-01 4.278568744659423828e+00 1.570475101470947266e+00 -1.212713837623596191e+00
9.950000000000000000e+02 1.010362243652343750e+01 -1.017964649200439453e+01 -3.024308383464813232e-01 5.579571247100830078e+00 1.583142161369323730e+00 2.930481672286987305e+00
9.960000000000000000e+02 6.330865097045898438e+01 -3.959382534027099609e+00 -7.873552441596984863e-01 3.222588896751403809e-01 -1.395289003849029541e-01 -2.241015195846557617e+00
9.970000000000000000e+02 6.564971923828125000e+01 -6.583333969116210938e+00 -2.144861698150634766e+00 3.795893192291259766e-01 -5.295817255973815918e-01 -2.710100650787353516e+00
9.980000000000000000e+02 4.307674407958984375e+01 1.054983711242675781e+01 8.807801455259323120e-02 1.342536091804504395e+00 4.291842281818389893e-01 -1.402378380298614502e-01
9.990000000000000000e+02 4.284025955200195312e+01 1.185330295562744141e+01 1.698785275220870972e-01 2.189119100570678711e+00 7.076992988586425781e-01 8.057746291160583496e-02
1.000000000000000000e+03 4.388965606689453125e+01 1.655290222167968750e+01 1.440809011459350586e+00 2.599623918533325195e+00 1.212129831314086914e+00 1.503187656402587891e+00
1.001000000000000000e+03 4.588483428955078125e+01 1.814414215087890625e+01 1.128734111785888672e+00 8.169791698455810547e-01 5.837140083312988281e-01 9.224628806114196777e-01
1.002000000000000000e+03 7.922126007080078125e+01 -3.485108184814453125e+01 5.528941750526428223e-03 1.121280670166015625e+01 3.365500688552856445e+00 3.799618780612945557e-02
1.003000000000000000e+03 7.930402374267578125e+01 -2.787409782409667969e+01 -7.701307185925543308e-04 1.088478279113769531e+01 3.265203952789306641e+00 -1.201086789369583130e-01
1.004000000000000000e+03 7.778849029541015625e+01 3.239899826049804688e+01 1.748310960829257965e-02 6.035719871520996094e+00 1.815960884094238281e+00 -7.780463993549346924e-02
1.005000000000000000e+03 7.938262939453125000e+01 3.615591430664062500e+01 1.305168028920888901e-02 6.061812877655029297e+00 1.822459459304809570e+00 -1.162400469183921814e-02
1.006000000000000000e+03 7.933861541748046875e+01 -2.086119461059570312e+01 -6.431277841329574585e-02 8.687499046325683594e+00 2.586956024169921875e+00 -3.583285510540008545e-01
1.007000000000000000e+03 7.794514465332031250e+01 -2.648323440551757812e+01 -7.239294052124023438e-02 1.010011386871337891e+01 3.008316516876220703e+00 -3.985211849212646484e-01
1.008000000000000000e+03 7.929600524902343750e+01 -3.065875434875488281e+01 -8.512375876307487488e-03 1.116353130340576172e+01 3.346505641937255859e+00 -6.164259836077690125e-02
1.009000000000000000e+03 7.780323791503906250e+01 -3.341797256469726562e+01 -9.027133882045745850e-02 1.047924613952636719e+01 3.116692543029785156e+00 -5.042086541652679443e-02
1.010000000000000000e+03 7.069345855712890625e+01 -3.500023269653320312e+01 -1.469442993402481079e-01 7.086299896240234375e+00 2.081806659698486328e+00 1.010378748178482056e-01
1.011000000000000000e+03 7.816229248046875000e+01 -3.785428619384765625e+01 -4.539791494607925415e-02 1.058711147308349609e+01 3.162513971328735352e+00 1.116281747817993164e-01
1.012000000000000000e+03 7.687155151367187500e+01 -3.868119812011718750e+01 -9.094808250665664673e-02 1.032449245452880859e+01 3.070063352584838867e+00 1.136292219161987305e-01
1.013000000000000000e+03 7.799385833740234375e+01 1.407239341735839844e+01 -1.039567723637446761e-04 7.316145896911621094e+00 2.194812536239624023e+00 -2.348641902208328247e-01
1.014000000000000000e+03 7.932763671875000000e+01 1.537665557861328125e+01 -1.007020473480224609e-02 7.423386096954345703e+00 2.223994731903076172e+00 -7.303118705749511719e-02
1.015000000000000000e+03 7.793656158447265625e+01 2.104322624206542969e+01 1.846679113805294037e-02 6.649865627288818359e+00 2.000499725341796875e+00 -1.687560677528381348e-01
1.016000000000000000e+03 7.929335021972656250e+01 2.235135269165039062e+01 7.744774688035249710e-03 6.728882789611816406e+00 2.020988225936889648e+00 -5.224760994315147400e-02
1.017000000000000000e+03 7.787667846679687500e+01 3.092496299743652344e+01 5.788498674519360065e-04 6.091052055358886719e+00 1.827489376068115234e+00 -8.136026561260223389e-02
1.018000000000000000e+03 7.790054321289062500e+01 2.814498901367187500e+01 1.994734164327383041e-03 6.218085289001464844e+00 1.866024017333984375e+00 -1.037246137857437134e-01
1.019000000000000000e+03 7.929345703125000000e+01 2.795877647399902344e+01 9.422448463737964630e-03 6.372299671173095703e+00 1.914516568183898926e+00 -3.424925357103347778e-02
1.020000000000000000e+03 7.781759643554687500e+01 2.529760551452636719e+01 7.034402806311845779e-03 6.352624893188476562e+00 1.907897710800170898e+00 -1.272209137678146362e-01
1.021000000000000000e+03 7.783423614501953125e+01 2.385592269897460938e+01 2.007361873984336853e-02 6.438443660736083984e+00 1.937555193901062012e+00 -1.411344110965728760e-01
1.022000000000000000e+03 7.797418212890625000e+01 1.825525665283203125e+01 2.061865851283073425e-02 6.892456531524658203e+00 2.073922634124755859e+00 -1.980817764997482300e-01
1.023000000000000000e+03 7.798547363281250000e+01 1.546906566619873047e+01 1.868619024753570557e-02 7.166086196899414062e+00 2.155431747436523438e+00 -2.207538932561874390e-01
1.024000000000000000e+03 7.797933197021484375e+01 1.686412048339843750e+01 1.225280691869556904e-03 7.027055263519287109e+00 2.108484268188476562e+00 -2.087931782007217407e-01
1.025000000000000000e+03 7.800366210937500000e+01 1.267724895477294922e+01 1.079284027218818665e-02 7.472383022308349609e+00 2.244952678680419922e+00 -2.369543761014938354e-01
1.026000000000000000e+03 7.670514678955078125e+01 1.135955238342285156e+01 -1.996087143197655678e-03 7.318590641021728516e+00 2.194978475570678711e+00 -3.752126097679138184e-01
1.027000000000000000e+03 7.802033233642578125e+01 8.496780395507812500e+00 -2.991872280836105347e-02 7.935665607452392578e+00 2.371724128723144531e+00 -2.101496160030364990e-01
1.028000000000000000e+03 7.933663940429687500e+01 9.801671028137207031e+00 -1.090312749147415161e-02 8.134414672851562500e+00 2.437053442001342773e+00 -7.422554492950439453e-02
1.029000000000000000e+03 7.934346008300781250e+01 -1.945165061950683594e+01 2.904956415295600891e-02 7.930287837982177734e+00 2.387801170349121094e+00 -4.062910079956054688e-01
1.030000000000000000e+03 7.931919097900390625e+01 -1.384400272369384766e+01 3.533502295613288879e-02 4.745674133300781250e+00 1.434302687644958496e+00 -3.126144409179687500e-01
1.031000000000000000e+03 7.939491271972656250e+01 -6.933476924896240234e+00 1.155348494648933411e-01 5.048172950744628906e+00 1.549112439155578613e+00 2.904620468616485596e-01
1.032000000000000000e+03 7.808002471923828125e+01 9.185616672039031982e-02 -1.132198050618171692e-01 8.055947303771972656e+00 2.382818222045898438e+00 3.964384794235229492e-01
1.033000000000000000e+03 7.934850311279296875e+01 1.436179041862487793e+00 -1.886300509795546532e-03 8.379735946655273438e+00 2.513354778289794922e+00 1.065586134791374207e-01
1.034000000000000000e+03 7.672444915771484375e+01 7.172246932983398438e+00 -9.689542651176452637e-02 7.750311851501464844e+00 2.296025037765502930e+00 -2.939625382423400879e-01
1.035000000000000000e+03 7.793625640869140625e+01 2.953546714782714844e+01 1.560668554157018661e-02 6.153605937957763672e+00 1.850763797760009766e+00 -9.051929414272308350e-02
1.036000000000000000e+03 7.797151947021484375e+01 4.166796875000000000e+01 4.657243937253952026e-02 5.893021583557128906e+00 1.781878113746643066e+00 -1.300400495529174805e-02
1.037000000000000000e+03 7.792264556884765625e+01 3.698241043090820312e+01 -6.731306202709674835e-04 5.918795108795166016e+00 1.775436520576477051e+00 -4.919413104653358459e-02
1.038000000000000000e+03 7.701226806640625000e+01 3.601091384887695312e+01 8.116934448480606079e-03 5.854949951171875000e+00 1.758920073509216309e+00 -7.678874582052230835e-02
1.039000000000000000e+03 7.801718139648437500e+01 9.891199111938476562e+00 -9.994969703257083893e-03 7.786924362182617188e+00 2.333078861236572266e+00 -2.256413549184799194e-01
1.040000000000000000e+03 7.688030242919921875e+01 1.192223429679870605e-01 -3.399781286716461182e-01 8.125172615051269531e+00 2.335558176040649414e+00 5.201935768127441406e-01
1.041000000000000000e+03 7.805466461181640625e+01 2.914727449417114258e+00 -8.784791827201843262e-02 8.244886398315429688e+00 2.447111606597900391e+00 8.952163159847259521e-02
1.042000000000000000e+03 7.808648681640625000e+01 -1.336276888847351074e+00 -1.733311265707015991e-01 7.819670200347900391e+00 2.293901681900024414e+00 6.186742186546325684e-01
1.043000000000000000e+03 7.935691070556640625e+01 -2.772868633270263672e+00 -8.660694956779479980e-02 7.114241123199462891e+00 2.108290195465087891e+00 3.123141527175903320e-01
1.044000000000000000e+03 7.821115875244140625e+01 -8.225163459777832031e+00 2.206957787275314331e-01 5.819404125213623047e+00 1.812029957771301270e+00 5.935178399085998535e-01
1.045000000000000000e+03 7.814250183105468750e+01 -5.528966903686523438e+00 9.470659494400024414e-02 6.609454154968261719e+00 2.011248111724853516e+00 8.389155268669128418e-01
1.046000000000000000e+03 7.939221954345703125e+01 -9.691524505615234375e+00 1.421920955181121826e-01 4.080600261688232422e+00 1.266837716102600098e+00 1.099684536457061768e-01
1.047000000000000000e+03 7.794583129882812500e+01 -1.366212463378906250e+01 2.858632802963256836e-01 6.216885089874267578e+00 1.950824499130249023e+00 -6.997535824775695801e-01
1.048000000000000000e+03 7.799503326416015625e+01 -1.227511787414550781e+01 2.584675848484039307e-01 5.920029163360595703e+00 1.853549003601074219e+00 -4.426476061344146729e-01
1.049000000000000000e+03 7.932893371582031250e+01 -1.663984298706054688e+01 4.415857791900634766e-02 6.235432624816894531e+00 1.883877396583557129e+00 -4.398062229156494141e-01
1.050000000000000000e+03 7.804400634765625000e+01 -2.078631401062011719e+01 -6.806249171495437622e-02 8.744697570800781250e+00 2.602990388870239258e+00 -9.131912589073181152e-01
1.051000000000000000e+03 7.806453704833984375e+01 -1.935152244567871094e+01 -8.803149312734603882e-02 8.238346099853515625e+00 2.445094347000122070e+00 -9.992886781692504883e-01
1.052000000000000000e+03 4.474270629882812500e+01 4.406021595001220703e+00 7.494288086891174316e-01 1.925233155488967896e-01 2.825856208801269531e-01 5.738336220383644104e-02
1.053000000000000000e+03 4.489384841918945312e+01 5.604334831237792969e+00 7.019409537315368652e-01 1.690055578947067261e-01 2.612839639186859131e-01 -1.965903677046298981e-02
1.054000000000000000e+03 5.692491531372070312e+01 1.108544063568115234e+01 3.990834951400756836e-01 3.147321224212646484e+00 1.063921451568603516e+00 -3.783985376358032227e-01
1.055000000000000000e+03 6.969297027587890625e+01 -8.354777336120605469e+00 2.969157934188842773e+00 1.498234462738037109e+01 5.385450839996337891e+00 -1.458054333925247192e-01
1.056000000000000000e+03 6.829792785644531250e+01 -5.771461009979248047e+00 -1.775840282440185547e+00 1.155050277709960938e+01 2.932398557662963867e+00 -2.353412151336669922e+00
1.057000000000000000e+03 4.880364990234375000e+01 5.062489032745361328e+00 1.119412899017333984e+00 1.545968651771545410e-01 3.822029232978820801e-01 3.876547887921333313e-02
1.058000000000000000e+03 5.190774917602539062e+01 5.252190589904785156e+00 1.001037120819091797e+00 2.753742933273315430e-01 3.829234242439270020e-01 1.415581256151199341e-01
1.059000000000000000e+03 1.304716014862060547e+01 -1.029297924041748047e+01 8.209344744682312012e-01 -1.604433655738830566e+00 -2.350497394800186157e-01 4.479450702667236328e+00
1.060000000000000000e+03 4.758236694335937500e+01 5.914687156677246094e+00 1.201988339424133301e+00 1.662684977054595947e-01 4.104770720005035400e-01 -8.260568231344223022e-02
1.061000000000000000e+03 7.051368713378906250e+01 -1.408136367797851562e+01 1.634829521179199219e+00 1.327881050109863281e+01 4.474092006683349609e+00 -5.621151328086853027e-01
1.062000000000000000e+03 6.834422302246093750e+01 -1.356237316131591797e+01 2.221244812011718750e+00 1.891100311279296875e+01 6.339673995971679688e+00 3.768695592880249023e+00
1.063000000000000000e+03 5.113068389892578125e+01 2.032504653930664062e+01 8.874478936195373535e-01 8.971433043479919434e-01 5.353773832321166992e-01 -4.903365969657897949e-01
1.064000000000000000e+03 4.820747375488281250e+01 2.109224700927734375e+01 9.412391185760498047e-01 8.294251561164855957e-01 5.311992764472961426e-01 4.472292065620422363e-01
1.065000000000000000e+03 6.209087753295898438e+01 -5.926329612731933594e+00 -2.248017549514770508e+00 -4.925815761089324951e-01 -8.221797347068786621e-01 -1.079908013343811035e+00
1.066000000000000000e+03 4.148341751098632812e+01 -1.814417648315429688e+01 -2.203109979629516602e+00 -4.357451573014259338e-02 -6.740053296089172363e-01 -5.016582012176513672e-01
1.067000000000000000e+03 4.101778030395507812e+01 -1.689918899536132812e+01 -2.249350786209106445e+00 7.873582839965820312e-02 -6.511844992637634277e-01 -5.130410790443420410e-01
1.068000000000000000e+03 4.473463821411132812e+01 1.907879257202148438e+01 7.642654180526733398e-01 1.663435697555541992e+00 7.283103466033935547e-01 1.044064402580261230e+00
1.069000000000000000e+03 3.453722000122070312e+01 -1.738763999938964844e+01 -2.938286781311035156e+00 1.869509071111679077e-01 -8.254007697105407715e-01 -1.414181292057037354e-01
1.070000000000000000e+03 2.014506721496582031e+01 -2.867873001098632812e+01 -5.854472890496253967e-02 5.130386948585510254e-01 1.363482028245925903e-01 -2.791239917278289795e-01
1.071000000000000000e+03 4.278012847900390625e+01 1.325013828277587891e+01 1.819956302642822266e-01 2.816743373870849609e+00 8.996217250823974609e-01 4.551171660423278809e-01
1.072000000000000000e+03 4.144096374511718750e+01 1.313608837127685547e+01 5.732890963554382324e-01 2.203277349472045898e+00 8.329699039459228516e-01 8.467770218849182129e-01
1.073000000000000000e+03 4.126577758789062500e+01 1.448560905456542969e+01 8.807184696197509766e-01 1.993985772132873535e+00 8.624112606048583984e-01 8.893430829048156738e-01
1.074000000000000000e+03 5.479580307006835938e+01 2.004658126831054688e+01 5.585776567459106445e-01 2.429734230041503906e+00 8.964935541152954102e-01 -9.533063769340515137e-01
1.075000000000000000e+03 5.453033065795898438e+01 6.589412212371826172e+00 7.130773067474365234e-01 9.982532262802124023e-01 5.133991837501525879e-01 2.664860188961029053e-01
1.076000000000000000e+03 5.609227752685546875e+01 6.928878307342529297e+00 5.143548250198364258e-01 1.631255745887756348e+00 6.436831951141357422e-01 9.152021957561373711e-04
1.077000000000000000e+03 3.423686599731445312e+01 -3.254553985595703125e+01 -3.651616573333740234e-01 -8.861646056175231934e-03 -1.122069954872131348e-01 5.752383172512054443e-02
1.078000000000000000e+03 1.983034324645996094e+01 -7.858248233795166016e+00 4.318665504455566406e+00 6.114424228668212891e+00 3.129926919937133789e+00 3.378598213195800781e+00
1.079000000000000000e+03 3.065602684020996094e+01 -1.704885673522949219e+01 -3.649038791656494141e+00 1.930815279483795166e-01 -1.036787152290344238e+00 1.784270554780960083e-01
1.080000000000000000e+03 3.442474746704101562e+01 -1.618192481994628906e+01 -2.724605560302734375e+00 2.352331876754760742e-01 -7.468117475509643555e-01 -3.385345339775085449e-01
1.081000000000000000e+03 5.425734043121337891e+00 -1.667816543579101562e+01 1.223474621772766113e+00 2.522857904434204102e+00 1.123899817466735840e+00 1.509991049766540527e+00
1.082000000000000000e+03 9.925356864929199219e+00 -1.831282997131347656e+01 7.353363633155822754e-01 6.403442382812500000e+00 2.141633749008178711e+00 -1.933753132820129395e+00
1.083000000000000000e+03 1.504896545410156250e+01 -1.239103317260742188e+01 -7.369054317474365234e+00 -2.412532091140747070e+00 -2.934475898742675781e+00 3.954869270324707031e+00
1.084000000000000000e+03 1.523029899597167969e+01 -1.127317428588867188e+01 -2.969038248062133789e+00 -2.526773214340209961e+00 -1.648743510246276855e+00 3.792201042175292969e+00
1.085000000000000000e+03 1.187014675140380859e+01 -2.051415061950683594e+01 6.741610765457153320e-01 3.437180519104003906e+00 1.233402490615844727e+00 -1.718358874320983887e+00
1.086000000000000000e+03 4.671958923339843750e+01 2.159366035461425781e+01 7.917579412460327148e-01 1.136350154876708984e+00 5.784324407577514648e-01 6.462931036949157715e-01
1.087000000000000000e+03 5.919921875000000000e+01 -2.652597236633300781e+01 -9.735823869705200195e-01 3.620024621486663818e-01 -1.834739744663238525e-01 -2.430347949266433716e-01
1.088000000000000000e+03 5.327557754516601562e+01 1.870589828491210938e+01 7.271235585212707520e-01 1.478872418403625488e+00 6.617987751960754395e-01 -8.639927506446838379e-01
1.089000000000000000e+03 5.072244262695312500e+01 -3.190606880187988281e+01 -8.055190443992614746e-01 -4.645591676235198975e-01 -3.810234665870666504e-01 -5.547780394554138184e-01
1.090000000000000000e+03 5.126147842407226562e+01 -2.971758842468261719e+01 -1.567969322204589844e+00 -4.652821123600006104e-01 -6.099754571914672852e-01 -7.924470901489257812e-01
1.091000000000000000e+03 4.228280639648437500e+01 -1.660382080078125000e+01 -2.202876806259155273e+00 -1.527932123281061649e-03 -6.613214015960693359e-01 -5.682417750358581543e-01
1.092000000000000000e+03 4.280834197998046875e+01 -1.780604362487792969e+01 -2.227053642272949219e+00 -1.207405924797058105e-01 -7.043382525444030762e-01 -6.247376799583435059e-01
1.093000000000000000e+03 4.447898101806640625e+01 -3.189784431457519531e+01 -7.508224844932556152e-01 -8.984124660491943359e-02 -2.521991133689880371e-01 -2.895852625370025635e-01
1.094000000000000000e+03 4.796657562255859375e+01 -3.255911636352539062e+01 -6.874220967292785645e-01 -3.479586541652679443e-01 -3.106142282485961914e-01 -5.014151930809020996e-01
1.095000000000000000e+03 4.667114257812500000e+01 -3.324480056762695312e+01 -5.831075310707092285e-01 -2.777654826641082764e-01 -2.582619190216064453e-01 -4.547087848186492920e-01
1.096000000000000000e+03 4.324229049682617188e+01 1.779305267333984375e+01 7.406166195869445801e-01 2.148195266723632812e+00 8.666435480117797852e-01 7.566080093383789062e-01
1.097000000000000000e+03 2.610589218139648438e+01 -2.999041366577148438e+01 -2.801478207111358643e-01 -1.877786032855510712e-02 -8.967770636081695557e-02 1.100268512964248657e-01
1.098000000000000000e+03 2.698305511474609375e+01 -3.229346466064453125e+01 -2.578563094139099121e-01 2.263761870563030243e-02 -7.056560367345809937e-02 3.025345876812934875e-02
1.099000000000000000e+03 4.981330108642578125e+01 -1.385702896118164062e+01 -2.070822000503540039e+00 -2.819572091102600098e-01 -7.058337330818176270e-01 -9.385595321655273438e-01
1.100000000000000000e+03 5.180487442016601562e+01 -1.430736732482910156e+01 -2.136116981506347656e+00 -5.645060539245605469e-01 -8.101869225502014160e-01 -1.133314609527587891e+00
1.101000000000000000e+03 3.121059226989746094e+01 -3.294389724731445312e+01 -3.434666693210601807e-01 -4.605112224817276001e-02 -1.168553382158279419e-01 7.943590730428695679e-02
1.102000000000000000e+03 6.788079071044921875e+01 -1.898368072509765625e+01 -2.995652854442596436e-01 8.890755653381347656e+00 2.577357053756713867e+00 1.269627809524536133e+00
1.103000000000000000e+03 5.375359344482421875e+01 -2.836928176879882812e+01 -1.719223856925964355e+00 -4.804494976997375488e-01 -6.599019765853881836e-01 -9.124207496643066406e-01
1.104000000000000000e+03 5.778085708618164062e+01 -2.929152870178222656e+01 -7.203465104103088379e-01 2.308783978223800659e-01 -1.468404382467269897e-01 -1.474796980619430542e-01
1.105000000000000000e+03 6.992600250244140625e+01 -9.625845909118652344e+00 4.054267406463623047e+00 1.683585166931152344e+01 6.267035484313964844e+00 -1.089846849441528320e+00
1.106000000000000000e+03 3.194608879089355469e+01 -1.721146583557128906e+01 -3.333808898925781250e+00 1.707081645727157593e-01 -9.489302039146423340e-01 4.359748680144548416e-03
1.107000000000000000e+03 4.609487915039062500e+01 -1.541485214233398438e+01 -2.089560508728027344e+00 -1.705695092678070068e-01 -6.780390143394470215e-01 -7.896210551261901855e-01
1.108000000000000000e+03 3.229976654052734375e+01 -3.333872985839843750e+01 -3.284307420253753662e-01 -2.514414489269256592e-02 -1.060724630951881409e-01 8.746753633022308350e-02
1.109000000000000000e+03 2.952787780761718750e+01 -1.570810985565185547e+01 -3.571935653686523438e+00 3.604028820991516113e-01 -9.634598493576049805e-01 -9.283015131950378418e-02
1.110000000000000000e+03 5.800849151611328125e+01 1.327018547058105469e+01 6.922888755798339844e-01 3.242530345916748047e+00 1.180445790290832520e+00 -7.426460981369018555e-01
1.111000000000000000e+03 5.654036331176757812e+01 1.413068580627441406e+01 7.494518160820007324e-01 3.843362331390380859e+00 1.377844214439392090e+00 -7.779762148857116699e-01
1.112000000000000000e+03 6.870291137695312500e+01 -1.583614826202392578e+01 4.534561336040496826e-01 1.386372852325439453e+01 4.295155525207519531e+00 1.778448820114135742e+00
1.113000000000000000e+03 6.123226928710937500e+01 -6.754892349243164062e+00 -3.411305427551269531e+00 -5.494145154953002930e-01 -1.188215970993041992e+00 -1.261324048042297363e+00
1.114000000000000000e+03 6.237292480468750000e+01 -7.664669036865234375e+00 -4.679583072662353516e+00 -1.371627092361450195e+00 -1.815363049507141113e+00 -2.451997518539428711e+00
1.115000000000000000e+03 5.460747909545898438e+01 -1.129124832153320312e+01 -2.408778190612792969e+00 -5.100055932998657227e-01 -8.756351470947265625e-01 -1.225726366043090820e+00
1.116000000000000000e+03 6.621063232421875000e+01 -1.915174865722656250e+01 3.466065526008605957e-01 6.598223209381103516e+00 2.083448886871337891e+00 2.097135305404663086e+00
1.117000000000000000e+03 5.093876647949218750e+01 2.657422065734863281e+00 5.939258933067321777e-01 2.366673648357391357e-01 2.491779774427413940e-01 6.115671992301940918e-02
1.118000000000000000e+03 4.432295227050781250e+01 7.277320861816406250e+00 5.848271250724792480e-01 3.653773665428161621e-01 2.850613594055175781e-01 -2.511503100395202637e-01
1.119000000000000000e+03 4.480707550048828125e+01 6.592924594879150391e+00 7.176895141601562500e-01 1.507155597209930420e-01 2.605215311050415039e-01 -1.598227322101593018e-01
1.120000000000000000e+03 4.155376434326171875e+01 -3.265599441528320312e+01 -5.246939063072204590e-01 -5.197244510054588318e-02 -1.729999035596847534e-01 -1.359465420246124268e-01
1.121000000000000000e+03 4.362580871582031250e+01 -3.397275924682617188e+01 -4.478538334369659424e-01 -1.841376572847366333e-01 -1.895974427461624146e-01 -2.750294506549835205e-01
1.122000000000000000e+03 5.214704895019531250e+01 -3.124939155578613281e+01 -8.622264266014099121e-01 -4.170945286750793457e-01 -3.837962746620178223e-01 -5.926541090011596680e-01
1.123000000000000000e+03 1.874859237670898438e+01 -6.704540252685546875e+00 9.547007560729980469e+00 6.030738353729248047e-01 3.045024633407592773e+00 3.244466066360473633e+00
1.124000000000000000e+03 6.350525665283203125e+01 -2.494865226745605469e+01 -7.231336832046508789e-01 3.342395305633544922e+00 7.857785224914550781e-01 6.470546126365661621e-01
1.125000000000000000e+03 6.355784606933593750e+01 -2.262020683288574219e+01 -3.010352551937103271e-01 2.947573184967041016e+00 7.939613461494445801e-01 8.501338362693786621e-01
1.126000000000000000e+03 2.790047073364257812e+01 -1.770151901245117188e+01 -4.740063190460205078e+00 -1.420212984085083008e-01 -1.464625358581542969e+00 9.380453228950500488e-01
1.127000000000000000e+03 2.712023735046386719e+01 -1.511075878143310547e+01 -4.128683567047119141e+00 4.762713015079498291e-01 -1.095723628997802734e+00 5.348832905292510986e-02
1.128000000000000000e+03 3.998469924926757812e+01 -3.538472747802734375e+01 -3.040634989738464355e-01 -1.486319154500961304e-01 -1.358086317777633667e-01 -1.332558095455169678e-01
1.129000000000000000e+03 4.734267044067382812e+01 -1.493818473815917969e+01 -2.050153017044067383e+00 -1.545461714267730713e-01 -6.614097952842712402e-01 -8.017202615737915039e-01
1.130000000000000000e+03 4.483166122436523438e+01 -1.584626674652099609e+01 -2.067734241485595703e+00 -1.681538075208663940e-01 -6.707664728164672852e-01 -7.005947232246398926e-01
1.131000000000000000e+03 6.009029769897460938e+01 -9.195853233337402344e+00 -3.678883552551269531e+00 -1.235685229301452637e+00 -1.474370598793029785e+00 -2.096269369125366211e+00
1.132000000000000000e+03 5.805454635620117188e+01 -2.729362297058105469e+01 -1.053930759429931641e+00 -7.666257023811340332e-02 -3.391779959201812744e-01 -4.154518842697143555e-01
1.133000000000000000e+03 3.715754699707031250e+01 -1.735985565185546875e+01 -2.577733755111694336e+00 7.163609564304351807e-02 -7.518293261528015137e-01 -3.213862478733062744e-01
1.134000000000000000e+03 3.603992080688476562e+01 -1.863442039489746094e+01 -2.940344095230102539e+00 3.235290944576263428e-02 -8.723973631858825684e-01 -1.284427940845489502e-01
1.135000000000000000e+03 6.359119415283203125e+01 -2.043429565429687500e+01 6.068493723869323730e-01 2.229969263076782227e+00 8.510456085205078125e-01 1.217064976692199707e+00
1.136000000000000000e+03 2.524802780151367188e+01 -1.695680999755859375e+01 -5.744418144226074219e+00 -3.067619800567626953e-01 -1.815354108810424805e+00 1.523941159248352051e+00
1.137000000000000000e+03 2.556228065490722656e+01 -1.580961608886718750e+01 -5.223639488220214844e+00 2.172227352857589722e-01 -1.501924991607666016e+00 8.264433741569519043e-01
1.138000000000000000e+03 5.267860412597656250e+01 -1.099721527099609375e+01 -2.148837089538574219e+00 -3.001830577850341797e-01 -7.347060441970825195e-01 -9.416162371635437012e-01
1.139000000000000000e+03 5.495749664306640625e+01 -9.672877311706542969e+00 -2.395314693450927734e+00 -3.439106643199920654e-01 -8.217675685882568359e-01 -1.024813652038574219e+00
1.140000000000000000e+03 2.147732162475585938e+01 -2.960080718994140625e+01 -1.042739003896713257e-01 3.739652037620544434e-01 8.090738952159881592e-02 -1.786685436964035034e-01
1.141000000000000000e+03 6.534941101074218750e+01 -2.030552291870117188e+01 1.089457273483276367e-01 5.185688972473144531e+00 1.588390350341796875e+00 1.663819074630737305e+00
1.142000000000000000e+03 2.422655487060546875e+01 -3.079814338684082031e+01 -1.859665215015411377e-01 1.469352394342422485e-01 -1.170938741415739059e-02 -1.406750362366437912e-02
1.143000000000000000e+03 3.628773880004882812e+01 -3.407199859619140625e+01 -3.330105543136596680e-01 -5.124098435044288635e-02 -1.152754575014114380e-01 8.109002374112606049e-03
1.144000000000000000e+03 4.932830810546875000e+01 -1.554969882965087891e+01 -2.065340757369995117e+00 -3.650351166725158691e-01 -7.291127443313598633e-01 -9.145370125770568848e-01
1.145000000000000000e+03 3.345679473876953125e+01 -3.422680282592773438e+01 -2.984687387943267822e-01 -4.905904456973075867e-02 -1.042583361268043518e-01 5.360963568091392517e-02
1.146000000000000000e+03 6.955675506591796875e+01 -1.489633464813232422e+01 6.110476255416870117e-01 1.391862583160400391e+01 4.358901977539062500e+00 -1.546948850154876709e-01
1.147000000000000000e+03 5.659591293334960938e+01 -1.148366355895996094e+01 -2.640892744064331055e+00 -9.695594906806945801e-01 -1.083135724067687988e+00 -1.605390787124633789e+00
1.148000000000000000e+03 5.576950454711914062e+01 -1.058366966247558594e+01 -2.562044620513916016e+00 -5.840610861778259277e-01 -9.438316822052001953e-01 -1.283242702484130859e+00
1.149000000000000000e+03 5.333605575561523438e+01 -3.039778900146484375e+01 -9.931137561798095703e-01 -3.160647451877593994e-01 -3.927535414695739746e-01 -6.264001131057739258e-01
1.150000000000000000e+03 1.771586990356445312e+01 -2.448231124877929688e+01 4.685688614845275879e-01 7.472155690193176270e-01 3.647353351116180420e-01 -6.431419253349304199e-01
1.151000000000000000e+03 1.891968917846679688e+01 -2.765317344665527344e+01 1.651327870786190033e-02 7.475851178169250488e-01 2.292295247316360474e-01 -3.466497957706451416e-01
1.152000000000000000e+03 5.452079010009765625e+01 -2.960383224487304688e+01 -1.088594913482666016e+00 -3.160877525806427002e-01 -4.214047789573669434e-01 -6.171100735664367676e-01
1.153000000000000000e+03 6.446668243408203125e+01 -2.146039390563964844e+01 -9.721012413501739502e-02 3.779850244522094727e+00 1.104791998863220215e+00 1.316565632820129395e+00
1.154000000000000000e+03 4.920360183715820312e+01 -3.218005371093750000e+01 -7.323930263519287109e-01 -3.489369750022888184e-01 -3.243989944458007812e-01 -5.677499771118164062e-01
1.155000000000000000e+03 5.916207885742187500e+01 -8.342779159545898438e+00 -3.222854375839233398e+00 -7.268926501274108887e-01 -1.184924125671386719e+00 -1.478306055068969727e+00
1.156000000000000000e+03 5.102842712402343750e+01 -1.325353050231933594e+01 -2.123495340347290039e+00 -3.300080597400665283e-01 -7.360510230064392090e-01 -9.666293859481811523e-01
1.157000000000000000e+03 2.682933425903320312e+01 -1.620775222778320312e+01 -4.756372451782226562e+00 1.932927221059799194e-01 -1.368923902511596680e+00 6.010863780975341797e-01
1.158000000000000000e+03 1.386485481262207031e+01 -2.254059028625488281e+01 4.843651950359344482e-01 2.074911355972290039e+00 7.677829265594482422e-01 -1.187403798103332520e+00
1.159000000000000000e+03 1.486297798156738281e+01 -2.350574874877929688e+01 4.195894896984100342e-01 1.755781888961791992e+00 6.526114344596862793e-01 -9.216817021369934082e-01
1.160000000000000000e+03 1.671883773803710938e+01 -2.348046302795410156e+01 6.568896174430847168e-01 1.022415399551391602e+00 5.037915110588073730e-01 -7.719972729682922363e-01
1.161000000000000000e+03 1.682912826538085938e+01 -2.550493240356445312e+01 2.379329949617385864e-01 1.136255860328674316e+00 4.122566580772399902e-01 -5.814377665519714355e-01
1.162000000000000000e+03 1.585243606567382812e+01 -2.448141670227050781e+01 3.038401007652282715e-01 1.328693151473999023e+00 4.897599816322326660e-01 -7.881944775581359863e-01
1.163000000000000000e+03 1.279306173324584961e+00 -4.009011459350585938e+01 -1.194341666996479034e-02 1.614590048789978027e+00 4.807939827442169189e-01 5.454673431813716888e-03
1.164000000000000000e+03 8.426571488380432129e-01 3.732677841186523438e+01 1.157419639639556408e-03 -7.421871423721313477e-01 -2.223089039325714111e-01 -1.024682726711034775e-02
1.165000000000000000e+03 6.773213744163513184e-01 3.457730484008789062e+01 3.071012208238244057e-03 -7.646024823188781738e-01 -2.284594476222991943e-01 1.051108120009303093e-03
1.166000000000000000e+03 6.440501809120178223e-01 3.318767547607421875e+01 -1.074602361768484116e-03 -7.592955827713012695e-01 -2.281110584735870361e-01 4.059372004121541977e-03
1.167000000000000000e+03 6.467186212539672852e-01 2.758809089660644531e+01 -2.786263357847929001e-03 -7.338804006576538086e-01 -2.209999859333038330e-01 3.580854099709540606e-04
1.168000000000000000e+03 6.570727229118347168e-01 2.618258857727050781e+01 7.645164732821285725e-04 -7.351232171058654785e-01 -2.203076034784317017e-01 -2.166640013456344604e-03
1.169000000000000000e+03 6.560880541801452637e-01 -3.602339553833007812e+01 1.844628155231475830e-02 1.512914419174194336e+00 4.594081938266754150e-01 2.456229738891124725e-02
1.170000000000000000e+03 2.606280326843261719e+00 -3.300630187988281250e+01 -8.169502764940261841e-02 1.248130083084106445e+00 3.499305248260498047e-01 2.678121030330657959e-01
1.171000000000000000e+03 3.354077816009521484e+00 2.461579704284667969e+01 -1.225667167454957962e-02 -5.074630975723266602e-01 -1.559159308671951294e-01 -5.327320657670497894e-03
1.172000000000000000e+03 1.979315280914306641e+00 2.608636283874511719e+01 -5.464757326990365982e-03 -6.301112174987792969e-01 -1.906727850437164307e-01 -3.074920736253261566e-03
1.173000000000000000e+03 2.019167900085449219e+00 3.425539016723632812e+01 3.077972447499632835e-03 -6.594526767730712891e-01 -1.969124078750610352e-01 9.260643273591995239e-03
1.174000000000000000e+03 1.934076666831970215e+00 3.293772888183593750e+01 2.131900284439325333e-03 -6.615927219390869141e-01 -1.978382319211959839e-01 9.955962188541889191e-03
1.175000000000000000e+03 2.733297586441040039e+00 3.805083465576171875e+01 8.849448524415493011e-03 -6.528795957565307617e-01 -1.932090520858764648e-01 -1.904216967523097992e-02
1.176000000000000000e+03 3.438868761062622070e+00 3.908105850219726562e+01 -4.638362443074584007e-04 -6.455633640289306641e-01 -1.938081532716751099e-01 5.517747253179550171e-03
1.177000000000000000e+03 2.050782680511474609e+00 -2.868946456909179688e+01 -4.350792244076728821e-02 6.689592599868774414e-01 1.876354068517684937e-01 4.470559954643249512e-01
1.178000000000000000e+03 1.893597960472106934e+00 -2.593760299682617188e+01 -6.145577505230903625e-02 4.356386139988899231e-02 -5.367573816329240799e-03 6.446405649185180664e-01
1.179000000000000000e+03 1.663942575454711914e+00 -9.550023078918457031e+00 6.338211148977279663e-02 -3.165853738784790039e+00 -9.307414889335632324e-01 -1.109323620796203613e+00
1.180000000000000000e+03 1.797506690025329590e+00 -1.618983650207519531e+01 3.199882209300994873e-01 -3.785494089126586914e+00 -1.039651751518249512e+00 7.979496121406555176e-01
1.181000000000000000e+03 2.392167091369628906e+00 -3.676936340332031250e+01 -2.696489728987216949e-02 1.467745661735534668e+00 4.322342574596405029e-01 1.008015200495719910e-01
1.182000000000000000e+03 5.440122485160827637e-01 7.844659328460693359e+00 1.661660266108810902e-03 -4.880144298076629639e-01 -1.459058225154876709e-01 4.565734416246414185e-02
1.183000000000000000e+03 6.520072817802429199e-01 2.051492118835449219e+01 3.341546107549220324e-04 -7.852064371109008789e-01 -2.354616820812225342e-01 -9.441193193197250366e-03
1.184000000000000000e+03 6.451289653778076172e-01 1.909352302551269531e+01 8.160913421306759119e-05 -8.042432069778442383e-01 -2.412484735250473022e-01 -8.926207199692726135e-03
1.185000000000000000e+03 6.071312427520751953e-01 1.485020256042480469e+01 4.636364523321390152e-03 -8.234529495239257812e-01 -2.456449717283248901e-01 5.090601742267608643e-03
1.186000000000000000e+03 5.946893692016601562e-01 1.344527149200439453e+01 2.924393396824598312e-03 -8.003133535385131836e-01 -2.392166852951049805e-01 1.423394959419965744e-02
1.187000000000000000e+03 4.834327220916748047e+00 -4.041299819946289062e+01 -7.221808284521102905e-02 1.531579971313476562e+00 4.378085732460021973e-01 6.933049857616424561e-02
1.188000000000000000e+03 4.109405517578125000e+00 -3.621281814575195312e+01 -1.376086473464965820e-01 1.442294359207153320e+00 3.914057314395904541e-01 2.213689833879470825e-01
1.189000000000000000e+03 1.885310769081115723e+00 -3.542523574829101562e+01 -3.953780606389045715e-02 1.435067057609558105e+00 4.186587631702423096e-01 1.274184733629226685e-01
1.190000000000000000e+03 2.323391437530517578e+00 -3.148854827880859375e+01 -4.035594314336776733e-02 1.082732796669006348e+00 3.127130568027496338e-01 3.152977824211120605e-01
1.191000000000000000e+03 1.960215568542480469e+00 -2.731497192382812500e+01 -1.334186047315597534e-01 3.986863791942596436e-01 7.958033680915832520e-02 5.317549705505371094e-01
1.192000000000000000e+03 3.233478546142578125e+00 -2.703022956848144531e+01 -1.802798211574554443e-01 6.970658898353576660e-01 1.550358235836029053e-01 7.795864939689636230e-01
1.193000000000000000e+03 1.918673396110534668e+00 -2.176757240295410156e+01 -1.319640427827835083e-01 -1.324325323104858398e+00 -4.368868172168731689e-01 1.077117204666137695e+00
1.194000000000000000e+03 1.858655095100402832e+00 -2.454979324340820312e+01 -1.669398993253707886e-01 -3.527190685272216797e-01 -1.558976918458938599e-01 7.639717459678649902e-01
1.195000000000000000e+03 3.289930343627929688e+00 -2.025767135620117188e+01 -1.573094129562377930e-01 -2.785997092723846436e-01 -1.307727396488189697e-01 1.615041971206665039e+00
1.196000000000000000e+03 6.385253667831420898e-01 -1.911236381530761719e+01 4.003127291798591614e-02 -4.310281276702880859e+00 -1.281075000762939453e+00 4.848323762416839600e-01
1.197000000000000000e+03 1.929987311363220215e+00 -1.898334121704101562e+01 -3.551452979445457458e-02 -2.495739936828613281e+00 -7.593762874603271484e-01 1.179247260093688965e+00
1.198000000000000000e+03 1.658345699310302734e+00 -1.217351913452148438e+01 3.254879117012023926e-01 -4.209233760833740234e+00 -1.165123820304870605e+00 -6.353651881217956543e-01
1.199000000000000000e+03 5.460969805717468262e-01 -1.212552452087402344e+01 1.302995085716247559e-01 -6.548687934875488281e+00 -1.925516486167907715e+00 -2.396609783172607422e-01
1.200000000000000000e+03 4.533999919891357422e+00 -3.452568769454956055e+00 -6.926625370979309082e-01 1.851900070905685425e-01 -1.522417664527893066e-01 -9.190594553947448730e-01
1.201000000000000000e+03 2.939111232757568359e+00 -2.991545200347900391e+00 -4.049640595912933350e-01 -2.888309061527252197e-01 -2.081384956836700439e-01 -8.423210382461547852e-01
1.202000000000000000e+03 2.179876327514648438e+00 -3.225093364715576172e+00 -2.486303746700286865e-01 -4.897345602512359619e-01 -2.215094715356826782e-01 -7.262480854988098145e-01
1.203000000000000000e+03 1.361733198165893555e+00 -3.453483104705810547e+00 -1.157315820455551147e-01 -7.467851042747497559e-01 -2.587549984455108643e-01 -5.429444909095764160e-01
1.204000000000000000e+03 5.418098568916320801e-01 5.006487369537353516e+00 -1.402604510076344013e-03 -2.284276783466339111e-01 -6.894908100366592407e-02 4.908392950892448425e-02
1.205000000000000000e+03 6.262132167816162109e+00 4.233189105987548828e+00 -1.198083758354187012e-01 -5.858487635850906372e-02 -5.351797491312026978e-02 3.033264279365539551e-01
1.206000000000000000e+03 1.736055970191955566e+00 1.054945468902587891e+01 1.860163919627666473e-02 -5.467650890350341797e-01 -1.584490388631820679e-01 9.284275770187377930e-02
1.207000000000000000e+03 5.735356807708740234e-01 1.064207649230957031e+01 3.403306240215897560e-03 -6.884304881095886230e-01 -2.055081576108932495e-01 3.188463672995567322e-02
1.208000000000000000e+03 1.790851712226867676e+00 1.330141258239746094e+01 1.763985678553581238e-02 -6.322592496871948242e-01 -1.843858212232589722e-01 4.402634501457214355e-02
1.209000000000000000e+03 1.929651618003845215e+00 1.893882942199707031e+01 4.086758475750684738e-03 -6.525214314460754395e-01 -1.945303976535797119e-01 -1.791485957801342010e-02
1.210000000000000000e+03 1.995998382568359375e+00 2.467422294616699219e+01 -3.791865892708301544e-03 -6.290024518966674805e-01 -1.898383051156997681e-01 -9.094479493796825409e-03
1.211000000000000000e+03 2.172965240478515625e+01 -5.004329681396484375e+00 6.501714706420898438e+00 6.438995838165283203e+00 3.882213115692138672e+00 4.871419906616210938e+00
1.212000000000000000e+03 2.073435592651367188e+01 -3.773613452911376953e+00 2.064278125762939453e-01 6.466570854187011719e+00 2.001899480819702148e+00 7.585007548332214355e-01
1.213000000000000000e+03 2.059097099304199219e+01 -3.152626514434814453e+00 -1.428883057087659836e-02 4.912508010864257812e+00 1.469465851783752441e+00 2.642133235931396484e-01
1.214000000000000000e+03 2.160820007324218750e+01 -4.833040237426757812e+00 5.220840454101562500e+00 7.114277839660644531e+00 3.700535535812377930e+00 4.816829681396484375e+00
1.215000000000000000e+03 1.744920730590820312e+01 -5.137835502624511719e+00 4.022667407989501953e+00 -9.018827676773071289e-01 9.362353682518005371e-01 -4.163992106914520264e-01
1.216000000000000000e+03 1.763092994689941406e+01 -5.632555007934570312e+00 5.421609401702880859e+00 -1.090196728706359863e+00 1.299423813819885254e+00 -9.092337638139724731e-02
1.217000000000000000e+03 1.757951736450195312e+01 -5.278894901275634766e+00 4.536469936370849609e+00 -9.318345785140991211e-01 1.081390619277954102e+00 -4.051331281661987305e-01
1.218000000000000000e+03 1.768495368957519531e+01 -5.863344192504882812e+00 6.073305130004882812e+00 -1.333946228027343750e+00 1.421807646751403809e+00 3.904963135719299316e-01
1.219000000000000000e+03 1.705802154541015625e+01 -1.216986942291259766e+01 -5.571116924285888672e+00 -1.539271473884582520e+00 -2.133116483688354492e+00 3.764376163482666016e+00
1.220000000000000000e+03 2.170758056640625000e+01 -6.534774303436279297e+00 9.783636093139648438e+00 5.275839805603027344e+00 4.517842769622802734e+00 3.880696138367056847e-03
1.221000000000000000e+03 2.218642807006835938e+01 -5.576213836669921875e+00 8.488345146179199219e+00 4.166729450225830078e+00 3.796522378921508789e+00 3.227562904357910156e+00
1.222000000000000000e+03 2.304574012756347656e+01 -1.495902156829833984e+01 -6.248733520507812500e+00 1.958586573600769043e-01 -1.815862536430358887e+00 1.545496702194213867e+00
1.223000000000000000e+03 2.159078979492187500e+01 -6.720792770385742188e+00 9.314217567443847656e+00 5.949900627136230469e+00 4.579235553741455078e+00 -5.407730340957641602e-01
1.224000000000000000e+03 1.963006210327148438e+01 -7.328184127807617188e+00 6.550652027130126953e+00 6.281002044677734375e+00 3.849496126174926758e+00 4.374698162078857422e+00
1.225000000000000000e+03 1.886365127563476562e+01 -7.402959823608398438e+00 6.788095474243164062e+00 2.268914937973022461e+00 2.717103242874145508e+00 4.389985084533691406e+00
1.226000000000000000e+03 2.320606613159179688e+01 -1.185878086090087891e+01 -2.925766468048095703e+00 1.680113196372985840e+00 -3.736959993839263916e-01 -3.410813510417938232e-01
1.227000000000000000e+03 2.074545097351074219e+01 -8.160457611083984375e+00 3.206447124481201172e+00 6.397407531738281250e+00 2.881156444549560547e+00 9.150104522705078125e-01
1.228000000000000000e+03 1.955987930297851562e+01 -1.267963981628417969e+01 -5.774731159210205078e+00 -2.010093033313751221e-01 -1.792722225189208984e+00 2.593797445297241211e+00
1.229000000000000000e+03 1.924573326110839844e+01 -1.349329757690429688e+01 -7.292808055877685547e+00 -1.076864123344421387e+00 -2.510901689529418945e+00 3.243728160858154297e+00
1.230000000000000000e+03 2.147694969177246094e+01 -4.684008121490478516e+00 4.013751506805419922e+00 7.738328933715820312e+00 3.525624036788940430e+00 4.539730548858642578e+00
1.231000000000000000e+03 2.589821243286132812e+01 -1.466168212890625000e+01 -4.400477886199951172e+00 5.893158316612243652e-01 -1.143348574638366699e+00 1.533699780702590942e-01
1.232000000000000000e+03 2.141323280334472656e+01 -4.341311931610107422e+00 2.463037014007568359e+00 7.682371616363525391e+00 3.043622732162475586e+00 3.673416376113891602e+00
1.233000000000000000e+03 1.863314819335937500e+01 -7.268022537231445312e+00 7.247063636779785156e+00 1.185228943824768066e+00 2.529687643051147461e+00 4.032989501953125000e+00
1.234000000000000000e+03 1.670599555969238281e+01 -5.254596233367919922e+00 3.644802093505859375e+00 -1.178781867027282715e+00 7.398060560226440430e-01 3.063149154186248779e-01
1.235000000000000000e+03 2.016032600402832031e+01 -2.181698799133300781e+00 2.189547196030616760e-02 3.031946897506713867e+00 9.161527156829833984e-01 -1.207094565033912659e-01
1.236000000000000000e+03 8.755463600158691406e+00 -2.641596555709838867e+00 -1.152104258537292480e+00 4.445072412490844727e-01 -2.122791111469268799e-01 1.343000233173370361e-01
1.237000000000000000e+03 1.018519687652587891e+01 -3.539257287979125977e+00 -7.178461551666259766e-01 5.948251485824584961e-01 -3.690630570054054260e-02 7.464681863784790039e-01
1.238000000000000000e+03 1.982985687255859375e+01 3.207730054855346680e-01 -8.611454814672470093e-02 1.435262799263000488e+00 4.047444760799407959e-01 6.662670522928237915e-02
1.239000000000000000e+03 1.920244026184082031e+01 -1.349278092384338379e+00 1.248708218336105347e-01 1.454345464706420898e+00 4.737648963928222656e-01 -3.400110304355621338e-01
1.240000000000000000e+03 1.944423484802246094e+01 -7.317779064178466797e-01 4.180647805333137512e-02 1.536998987197875977e+00 4.736416339874267578e-01 -2.174411118030548096e-01
1.241000000000000000e+03 1.389954376220703125e+01 -4.524326801300048828e+00 1.223909854888916016e+00 -7.502080202102661133e-01 1.421105563640594482e-01 1.189019203186035156e+00
1.242000000000000000e+03 4.746689796447753906e+00 3.457350015640258789e+00 -1.218242719769477844e-01 -7.745008915662765503e-02 -5.978230759501457214e-02 2.412907630205154419e-01
1.243000000000000000e+03 6.961500167846679688e+00 3.399429798126220703e+00 -2.045323699712753296e-01 -3.509744629263877869e-02 -7.188894599676132202e-02 2.893566489219665527e-01
1.244000000000000000e+03 3.222479820251464844e+00 3.939374208450317383e+00 -5.678569898009300232e-02 -1.326663345098495483e-01 -5.683561041951179504e-02 1.996419131755828857e-01
1.245000000000000000e+03 2.618813276290893555e+00 4.292671680450439453e+00 -3.573643416166305542e-02 -1.603749245405197144e-01 -5.883340910077095032e-02 1.783424317836761475e-01
1.246000000000000000e+03 3.383107423782348633e+00 2.612608432769775391e+00 -1.001935377717018127e-01 -6.486344337463378906e-02 -4.951709508895874023e-02 1.574932187795639038e-01
1.247000000000000000e+03 4.060298442840576172e+00 2.617371559143066406e+00 -1.309035718441009521e-01 -5.631818249821662903e-02 -5.616652593016624451e-02 1.850061565637588501e-01
1.248000000000000000e+03 5.480524063110351562e+00 3.452063083648681641e+00 -1.499600708484649658e-01 -6.430671364068984985e-02 -6.428003311157226562e-02 2.649108171463012695e-01
1.249000000000000000e+03 8.487792015075683594e+00 3.353567123413085938e+00 -2.529412508010864258e-01 9.190948330797255039e-04 -7.560664415359497070e-02 2.772625088691711426e-01
1.250000000000000000e+03 7.681128025054931641e+00 2.628070831298828125e+00 -3.133077025413513184e-01 -2.210026420652866364e-02 -1.006223931908607483e-01 2.652321755886077881e-01
1.251000000000000000e+03 8.539571762084960938e+00 4.073605537414550781e+00 -1.663814485073089600e-01 1.371686998754739761e-02 -4.579937458038330078e-02 2.906353771686553955e-01
1.252000000000000000e+03 1.079218769073486328e+01 2.464955806732177734e+00 -4.302705228328704834e-01 6.040727719664573669e-02 -1.109589785337448120e-01 1.339725553989410400e-01
1.253000000000000000e+03 1.091615867614746094e+01 3.225861310958862305e+00 -3.303552269935607910e-01 1.275563538074493408e-01 -6.083966419100761414e-02 1.441547721624374390e-01
1.254000000000000000e+03 3.911875009536743164e+00 -3.544169425964355469e+00 -5.509107708930969238e-01 -6.895734369754791260e-02 -1.859604418277740479e-01 -9.998763799667358398e-01
1.255000000000000000e+03 2.569628238677978516e+00 -4.280875205993652344e+00 -2.724156379699707031e-01 -5.742661356925964355e-01 -2.540045380592346191e-01 -1.041547417640686035e+00
1.256000000000000000e+03 6.565207481384277344e+00 -2.605264663696289062e+00 -1.089296460151672363e+00 3.891712129116058350e-01 -2.100375741720199585e-01 -4.134328961372375488e-01
1.257000000000000000e+03 4.444269180297851562e+00 -5.192528724670410156e+00 -5.879768133163452148e-01 2.997816801071166992e-01 -8.645853400230407715e-02 -1.255439996719360352e+00
1.258000000000000000e+03 1.712893128395080566e+00 -4.772350311279296875e+00 -1.322100907564163208e-01 -1.045475244522094727e+00 -3.533055782318115234e-01 -8.186728954315185547e-01
1.259000000000000000e+03 7.292459487915039062e+00 -2.604643344879150391e+00 -1.156082272529602051e+00 3.940641283988952637e-01 -2.286054491996765137e-01 -2.704898118972778320e-01
1.260000000000000000e+03 7.362957954406738281e+00 -3.357324361801147461e+00 -1.034452676773071289e+00 6.784114241600036621e-01 -1.068123728036880493e-01 -2.331360578536987305e-01
1.261000000000000000e+03 5.231940746307373047e+00 -3.429904937744140625e+00 -8.121058940887451172e-01 2.976876795291900635e-01 -1.543254554271697998e-01 -8.700729012489318848e-01
1.262000000000000000e+03 8.071974754333496094e+00 -3.348284244537353516e+00 -1.050180792808532715e+00 6.735543012619018555e-01 -1.129879206418991089e-01 -6.127451360225677490e-02
1.263000000000000000e+03 5.947957515716552734e+00 -3.353066682815551758e+00 -9.319765567779541016e-01 5.120220780372619629e-01 -1.259863525629043579e-01 -6.519111394882202148e-01
1.264000000000000000e+03 1.317590999603271484e+01 -4.275560379028320312e+00 7.099909782409667969e-01 -3.777138292789459229e-01 9.968315064907073975e-02 1.263003468513488770e+00
1.265000000000000000e+03 1.314441680908203125e+01 6.368484020233154297e+00 3.655384294688701630e-03 6.628200411796569824e-01 1.999426335096359253e-01 8.828136324882507324e-02
1.266000000000000000e+03 1.659597206115722656e+01 1.899575591087341309e+00 -3.982006013393402100e-01 3.794761896133422852e-01 -5.617320071905851364e-03 -4.718914926052093506e-01
1.267000000000000000e+03 1.263115596771240234e+01 2.936101436614990234e+00 -4.237606525421142578e-01 2.732490599155426025e-01 -4.515348002314567566e-02 -2.929511852562427521e-02
1.268000000000000000e+03 1.546364498138427734e+01 5.009296894073486328e+00 -2.892431616783142090e-01 6.479452252388000488e-01 1.076106205582618713e-01 -1.915862560272216797e-01
1.269000000000000000e+03 1.176860904693603516e+01 3.106539011001586914e+00 -3.745000660419464111e-01 2.023880630731582642e-01 -5.163359642028808594e-02 7.036241888999938965e-02
1.270000000000000000e+03 1.769901847839355469e+01 -2.852458953857421875e-01 3.121341392397880554e-02 4.317844212055206299e-01 1.388993561267852783e-01 -3.596632778644561768e-01
1.271000000000000000e+03 1.766167831420898438e+01 7.112572193145751953e-01 -1.300405263900756836e-01 4.335400760173797607e-01 9.104986488819122314e-02 -4.358485639095306396e-01
1.272000000000000000e+03 1.023467063903808594e+01 -2.793558597564697266e+00 -9.308627843856811523e-01 3.230867385864257812e-01 -1.823328137397766113e-01 5.176203846931457520e-01
1.273000000000000000e+03 9.477084159851074219e+00 -3.435838222503662109e+00 -9.024232625961303711e-01 6.159769892692565918e-01 -8.593387156724929810e-02 4.307811260223388672e-01
1.274000000000000000e+03 1.511989021301269531e+01 2.094726085662841797e+00 -4.452591240406036377e-01 3.579533398151397705e-01 -2.619173191487789154e-02 -3.245913386344909668e-01
1.275000000000000000e+03 1.078372287750244141e+01 -4.407724857330322266e+00 -3.081290125846862793e-01 6.354519128799438477e-01 9.819686412811279297e-02 1.192864537239074707e+00
1.276000000000000000e+03 1.260719680786132812e+01 -3.360539913177490234e+00 -3.482294455170631409e-02 -1.183666214346885681e-01 -4.595686867833137512e-02 9.560894370079040527e-01
1.277000000000000000e+03 1.102112579345703125e+01 4.025321483612060547e+00 -2.367745935916900635e-01 1.983451247215270996e-01 -1.152884028851985931e-02 1.677961051464080811e-01
1.278000000000000000e+03 2.049933624267578125e+01 -1.392362880706787109e+01 -7.239307403564453125e+00 -4.452660381793975830e-01 -2.305371999740600586e+00 2.382242679595947266e+00
1.279000000000000000e+03 2.179266166687011719e+01 -1.441310024261474609e+01 -6.841314315795898438e+00 7.207126915454864502e-02 -2.030772924423217773e+00 1.874509692192077637e+00
1.280000000000000000e+03 1.125325107574462891e+01 1.624183082580566406e+01 1.500271707773208618e-01 4.823729097843170166e-01 1.897200345993041992e-01 6.377858668565750122e-02
1.281000000000000000e+03 4.058408355712890625e+01 -1.568675231933593750e+01 -2.163800954818725586e+00 1.077093556523323059e-01 -6.168274879455566406e-01 -5.631226301193237305e-01
1.282000000000000000e+03 3.073367309570312500e+01 -1.589307022094726562e+01 -3.334064960479736328e+00 3.314563035964965820e-01 -9.007825851440429688e-01 -1.802272200584411621e-01
1.283000000000000000e+03 3.195665931701660156e+01 -1.603772544860839844e+01 -3.105603933334350586e+00 3.031661808490753174e-01 -8.407313227653503418e-01 -2.183721065521240234e-01
1.284000000000000000e+03 1.286414718627929688e+01 -2.154902458190917969e+01 5.828219056129455566e-01 2.827887535095214844e+00 1.023212909698486328e+00 -1.351968884468078613e+00
1.285000000000000000e+03 2.852922439575195312e+01 5.806804656982421875e+00 7.762317657470703125e-01 2.186834096908569336e+00 8.889197707176208496e-01 9.711095690727233887e-01
1.286000000000000000e+03 2.683107185363769531e+01 6.391341686248779297e+00 9.412418603897094727e-01 2.639490604400634766e+00 1.074219703674316406e+00 9.732962846755981445e-01
1.287000000000000000e+03 1.811275291442871094e+01 -1.292573547363281250e+01 -7.010923862457275391e+00 -1.294574260711669922e+00 -2.491649389266967773e+00 3.826340913772583008e+00
1.288000000000000000e+03 5.084663391113281250e+01 4.593223094940185547e+00 8.884737491607666016e-01 2.601443827152252197e-01 3.445854485034942627e-01 9.018195420503616333e-02
1.289000000000000000e+03 5.180414199829101562e+01 3.442103624343872070e+00 7.183846235275268555e-01 2.831698060035705566e-01 3.004663288593292236e-01 8.230399340391159058e-02
1.290000000000000000e+03 2.812786865234375000e+01 1.181162452697753906e+01 1.712732762098312378e-01 2.028469562530517578e+00 6.599228382110595703e-01 1.064197659492492676e+00
1.291000000000000000e+03 4.667763519287109375e+01 -1.381105136871337891e+01 -1.942702770233154297e+00 -1.157631278038024902e-01 -6.175397634506225586e-01 -7.739128470420837402e-01
1.292000000000000000e+03 4.179426193237304688e+01 -1.541486167907714844e+01 -2.087243556976318359e+00 6.491703540086746216e-02 -6.066979765892028809e-01 -5.683177113533020020e-01
1.293000000000000000e+03 4.910374450683593750e+01 -1.277757644653320312e+01 -1.973237514495849609e+00 -1.613701581954956055e-01 -6.403822898864746094e-01 -8.156936764717102051e-01
1.294000000000000000e+03 3.551136398315429688e+01 -1.502324962615966797e+01 -2.314651012420654297e+00 2.308968901634216309e-01 -6.251262426376342773e-01 -5.004987716674804688e-01
1.295000000000000000e+03 1.418008041381835938e+01 6.540677547454833984e+00 1.870707422494888306e-02 8.853039741516113281e-01 2.712033092975616455e-01 -8.756057918071746826e-02
1.296000000000000000e+03 5.148902130126953125e+01 -3.390026473999023438e+01 -1.902741044759750366e-01 -3.168100118637084961e-01 -1.521252393722534180e-01 -3.935828804969787598e-01
1.297000000000000000e+03 5.081722259521484375e+01 -1.061923980712890625e+01 -1.929923534393310547e+00 -1.400140076875686646e-01 -6.209812760353088379e-01 -7.598375082015991211e-01
1.298000000000000000e+03 1.785598754882812500e+01 2.960449218750000000e+00 -6.520310044288635254e-01 2.913214266300201416e-01 -1.082128658890724182e-01 -4.787699878215789795e-01
1.299000000000000000e+03 2.023854446411132812e+01 3.310207366943359375e+00 -7.869163751602172852e-01 1.714593619108200073e-01 -1.846370995044708252e-01 1.786432713270187378e-01
1.300000000000000000e+03 4.607081222534179688e+01 -1.270433616638183594e+01 -1.810037255287170410e+00 -4.093026742339134216e-02 -5.552902817726135254e-01 -6.862008571624755859e-01
1.301000000000000000e+03 2.463728713989257812e+01 -1.427428722381591797e+01 -4.819299697875976562e+00 7.425405979156494141e-01 -1.223027706146240234e+00 3.533441722393035889e-01
1.302000000000000000e+03 3.324061965942382812e+01 -1.732761955261230469e+01 -3.169783592224121094e+00 1.963186860084533691e-01 -8.920394778251647949e-01 -9.886162728071212769e-02
1.303000000000000000e+03 4.779253602027893066e-01 3.563170909881591797e+00 -9.447747841477394104e-03 -1.186495721340179443e-01 -3.842919319868087769e-02 3.600295633077621460e-02
1.304000000000000000e+03 2.810338211059570312e+01 -1.655464744567871094e+01 -4.325161457061767578e+00 1.949822157621383667e-01 -1.239053845405578613e+00 3.943111896514892578e-01
1.305000000000000000e+03 6.447312164306640625e+01 -2.366862106323242188e+01 -6.732124686241149902e-01 4.032546997070312500e+00 1.007800340652465820e+00 8.996111154556274414e-01
1.306000000000000000e+03 6.536997222900390625e+01 -2.244287300109863281e+01 -5.914706587791442871e-01 5.101665973663330078e+00 1.353058576583862305e+00 1.069676995277404785e+00
1.307000000000000000e+03 3.902882385253906250e+01 -1.471615695953369141e+01 -2.053378105163574219e+00 1.524701416492462158e-01 -5.702723860740661621e-01 -5.660119652748107910e-01
1.308000000000000000e+03 2.254114532470703125e+01 -3.423523712158203125e+01 -1.979207992553710938e-01 4.333668947219848633e-01 7.063382863998413086e-02 -1.047551706433296204e-01
1.309000000000000000e+03 2.619747161865234375e+01 -3.365935516357421875e+01 -2.033165693283081055e-01 6.421112269163131714e-02 -4.173163324594497681e-02 -2.254526503384113312e-02
1.310000000000000000e+03 5.530086517333984375e+01 -3.075694274902343750e+01 -6.478943824768066406e-01 -8.815354853868484497e-02 -2.208143770694732666e-01 -3.436793088912963867e-01
1.311000000000000000e+03 4.385515213012695312e+01 6.473634719848632812e+00 5.253276228904724121e-01 4.314500689506530762e-01 2.870333194732666016e-01 -3.313258662819862366e-02
1.312000000000000000e+03 9.094149589538574219e+00 -9.745154380798339844e+00 -2.501838803291320801e-01 6.498533725738525391e+00 1.874505043029785156e+00 1.838545322418212891e+00
1.313000000000000000e+03 8.472885131835937500e+00 -1.392791080474853516e+01 4.496503353118896484e+00 1.420859622955322266e+01 5.611529827117919922e+00 9.991774559020996094e-01
1.314000000000000000e+03 7.435529232025146484e+00 -1.493888187408447266e+01 3.363687038421630859e+00 6.950978279113769531e+00 3.094399690628051758e+00 7.671756744384765625e-01
1.315000000000000000e+03 2.832543373107910156e+01 -1.545307826995849609e+01 -3.885221242904663086e+00 4.088700115680694580e-01 -1.042905449867248535e+00 -1.191618479788303375e-02
1.316000000000000000e+03 2.937860870361328125e+01 -1.683762741088867188e+01 -4.033015727996826172e+00 2.236739248037338257e-01 -1.142802596092224121e+00 2.697464227676391602e-01
1.317000000000000000e+03 7.571707916259765625e+01 -1.035637187957763672e+01 1.132549405097961426e+00 7.906695842742919922e+00 2.711773633956909180e+00 1.696027815341949463e-01
1.318000000000000000e+03 7.152197265625000000e+01 -1.042060565948486328e+01 3.447769880294799805e+00 1.282399749755859375e+01 4.881530284881591797e+00 -5.609803199768066406e-01
1.319000000000000000e+03 1.147851562500000000e+01 -6.635606765747070312e+00 3.965289890766143799e-01 7.941367626190185547e-01 3.571997284889221191e-01 2.436874389648437500e+00
1.320000000000000000e+03 1.348698425292968750e+01 1.242915534973144531e+01 3.416828215122222900e-01 1.197121977806091309e+00 4.616414308547973633e-01 3.081811666488647461e-01
1.321000000000000000e+03 1.213277339935302734e+01 1.136571311950683594e+01 3.356002569198608398e-01 7.957578301429748535e-01 3.394074141979217529e-01 1.672857105731964111e-01
1.322000000000000000e+03 5.925989532470703125e+01 1.252295017242431641e+01 6.568621993064880371e-01 3.345680236816406250e+00 1.200762748718261719e+00 -7.993443608283996582e-01
1.323000000000000000e+03 5.343468093872070312e+01 -1.196941661834716797e+01 -2.261513948440551758e+00 -5.032584071159362793e-01 -8.294317126274108887e-01 -1.158206105232238770e+00
1.324000000000000000e+03 7.768672180175781250e+01 -3.640598678588867188e+01 -4.310649633407592773e-02 1.055134868621826172e+01 3.152472734451293945e+00 1.410100609064102173e-01
1.325000000000000000e+03 7.336894226074218750e+01 -2.291437339782714844e+01 -7.900420427322387695e-01 9.209815025329589844e+00 2.525932073593139648e+00 -1.016609072685241699e+00
1.326000000000000000e+03 7.789410400390625000e+01 -2.929509735107421875e+01 -5.795383080840110779e-02 1.040243053436279297e+01 3.103342771530151367e+00 -1.967263221740722656e-01
1.327000000000000000e+03 7.531774139404296875e+01 1.562461757659912109e+01 5.096985399723052979e-02 6.622985839843750000e+00 2.002186775207519531e+00 -4.611913263797760010e-01
1.328000000000000000e+03 7.664774322509765625e+01 1.555160331726074219e+01 1.938329264521598816e-02 6.901725292205810547e+00 2.076332569122314453e+00 -3.541122674942016602e-01
1.329000000000000000e+03 7.821155548095703125e+01 3.483896636962890625e+01 1.166155561804771423e-02 6.010950565338134766e+00 1.806783676147460938e+00 -4.234713315963745117e-02
1.330000000000000000e+03 7.801875305175781250e+01 -2.221945190429687500e+01 -1.375956088304519653e-01 9.210451126098632812e+00 2.721856594085693359e+00 -7.862942814826965332e-01
1.331000000000000000e+03 7.670806884765625000e+01 -2.363107490539550781e+01 -2.867360711097717285e-01 9.432271003723144531e+00 2.743660449981689453e+00 -8.885709047317504883e-01
1.332000000000000000e+03 7.649107360839843750e+01 -3.079123497009277344e+01 -9.513480216264724731e-02 9.877257347106933594e+00 2.934636831283569336e+00 -1.614296585321426392e-01
1.333000000000000000e+03 7.763682556152343750e+01 -3.487153625488281250e+01 -6.205094605684280396e-02 1.053592014312744141e+01 3.142160654067993164e+00 -3.531507391016930342e-04
1.334000000000000000e+03 7.791580963134765625e+01 -2.789053153991699219e+01 -1.127279326319694519e-01 1.028116989135742188e+01 3.050532579421997070e+00 -3.138725459575653076e-01
1.335000000000000000e+03 7.648808288574218750e+01 -2.935673522949218750e+01 -2.035870999097824097e-01 9.816621780395507812e+00 2.883910417556762695e+00 -3.048220574855804443e-01
1.336000000000000000e+03 7.653390502929687500e+01 -2.791879081726074219e+01 -1.855118572711944580e-01 9.742628097534179688e+00 2.867134809494018555e+00 -4.096024930477142334e-01
1.337000000000000000e+03 7.658039093017578125e+01 -2.649579620361328125e+01 -2.349196672439575195e-01 9.681835174560546875e+00 2.834074497222900391e+00 -5.599653720855712891e-01
1.338000000000000000e+03 7.645705413818359375e+01 -3.325814819335937500e+01 -7.731627672910690308e-02 9.853887557983398438e+00 2.932971239089965820e+00 -5.585508793592453003e-02
1.339000000000000000e+03 7.510646820068359375e+01 -2.943824005126953125e+01 -2.705497443675994873e-01 9.201315879821777344e+00 2.679229974746704102e+00 -2.869656383991241455e-01
1.340000000000000000e+03 7.660914611816406250e+01 -3.207741928100585938e+01 -1.216832101345062256e-01 9.939373970031738281e+00 2.945307254791259766e+00 -1.118745207786560059e-01
1.341000000000000000e+03 7.504231262207031250e+01 -3.998802947998046875e+01 7.257568836212158203e-02 9.364129066467285156e+00 2.831011533737182617e+00 -1.048035770654678345e-01
1.342000000000000000e+03 7.788763427734375000e+01 2.244256973266601562e+01 6.564387585967779160e-03 6.536217212677001953e+00 1.962834477424621582e+00 -1.550312936305999756e-01
1.343000000000000000e+03 7.662915802001953125e+01 1.972024345397949219e+01 3.988682851195335388e-02 6.553365707397460938e+00 1.977975726127624512e+00 -2.922250032424926758e-01
1.344000000000000000e+03 7.511569213867187500e+01 2.235511779785156250e+01 4.920681565999984741e-02 6.110640525817871094e+00 1.847954273223876953e+00 -3.289844095706939697e-01
1.345000000000000000e+03 7.660286712646484375e+01 2.109664726257324219e+01 2.619360573589801788e-02 6.437880516052246094e+00 1.939222216606140137e+00 -2.636465132236480713e-01
1.346000000000000000e+03 7.668624877929687500e+01 1.275047016143798828e+01 6.799155846238136292e-03 7.174061775207519531e+00 2.154258251190185547e+00 -3.826109468936920166e-01
1.347000000000000000e+03 7.545926666259765625e+01 8.630328178405761719e+00 -9.453758597373962402e-02 7.305268287658691406e+00 2.163219213485717773e+00 -4.819970726966857910e-01
1.348000000000000000e+03 7.666664123535156250e+01 1.414609527587890625e+01 2.553013712167739868e-02 7.034579277038574219e+00 2.118032693862915039e+00 -3.633162975311279297e-01
1.349000000000000000e+03 7.784669494628906250e+01 2.673652076721191406e+01 1.346048433333635330e-02 6.281033992767333984e+00 1.888348340988159180e+00 -1.128984317183494568e-01
1.350000000000000000e+03 7.674720001220703125e+01 -2.217687034606933594e+01 -2.419497370719909668e-01 9.189642906188964844e+00 2.684308052062988281e+00 -1.087061166763305664e+00
1.351000000000000000e+03 7.362255096435546875e+01 -1.777678489685058594e+01 -1.992117017507553101e-01 9.899967193603515625e+00 2.910226821899414062e+00 -1.690815925598144531e+00
1.352000000000000000e+03 7.679946136474609375e+01 -2.071557235717773438e+01 -2.229064255952835083e-01 8.947119712829589844e+00 2.617264032363891602e+00 -1.241702675819396973e+00
1.353000000000000000e+03 7.597769165039062500e+01 -9.334498405456542969e+00 8.108074069023132324e-01 7.759834766387939453e+00 2.571192741394042969e+00 4.675349295139312744e-01
1.354000000000000000e+03 7.795784759521484375e+01 -1.508137130737304688e+01 1.654278784990310669e-01 6.663118839263916016e+00 2.048563957214355469e+00 -1.030219793319702148e+00
1.355000000000000000e+03 7.580076599121093750e+01 -1.284428119659423828e+00 -5.416302084922790527e-01 8.324419975280761719e+00 2.334836959838867188e+00 7.704047560691833496e-01
1.356000000000000000e+03 7.704752349853515625e+01 -8.174998283386230469e+00 3.311569988727569580e-01 6.944355010986328125e+00 2.182653665542602539e+00 7.536215186119079590e-01
1.357000000000000000e+03 7.802896118164062500e+01 5.711122512817382812e+00 -5.740864947438240051e-02 8.170740127563476562e+00 2.433999538421630859e+00 -1.107709184288978577e-01
1.358000000000000000e+03 7.680127716064453125e+01 2.957499980926513672e+00 -2.551318109035491943e-01 8.080967903137207031e+00 2.347750902175903320e+00 1.047891899943351746e-01
1.359000000000000000e+03 7.702147674560546875e+01 3.461527633666992188e+01 8.457811549305915833e-03 5.881764411926269531e+00 1.767066597938537598e+00 -8.471313863992691040e-02
1.360000000000000000e+03 7.818081665039062500e+01 3.597328186035156250e+01 -3.233197610825300217e-03 5.984144210815429688e+00 1.794273257255554199e+00 -5.020418390631675720e-02
1.361000000000000000e+03 7.802339172363281250e+01 7.102861881256103516e+00 -4.259407892823219299e-02 8.063493728637695312e+00 2.406269788742065430e+00 -1.545281857252120972e-01
1.362000000000000000e+03 7.673157501220703125e+01 5.776675224304199219e+00 -1.411604136228561401e-01 7.868979454040527344e+00 2.318345785140991211e+00 -1.841376423835754395e-01
1.363000000000000000e+03 7.684996032714843750e+01 -2.752257823944091797e+00 -2.773137688636779785e-01 7.957643508911132812e+00 2.304098844528198242e+00 1.029054880142211914e+00
1.364000000000000000e+03 7.703298187255859375e+01 -9.440874099731445312e+00 5.525593161582946777e-01 6.823640823364257812e+00 2.212860107421875000e+00 5.006666183471679688e-01
1.365000000000000000e+03 7.670265960693359375e+01 -1.643564796447753906e+01 6.357777863740921021e-02 8.014099121093750000e+00 2.423303127288818359e+00 -1.504372596740722656e+00
1.366000000000000000e+03 7.440533447265625000e+01 3.521409225463867188e+01 4.664601758122444153e-02 5.612648963928222656e+00 1.697788596153259277e+00 -1.122610121965408325e-01
1.367000000000000000e+03 7.649269866943359375e+01 3.089840507507324219e+01 2.616228535771369934e-02 5.950805664062500000e+00 1.793090462684631348e+00 -1.275383085012435913e-01
1.368000000000000000e+03 7.663256835937500000e+01 1.834517669677734375e+01 2.001172117888927460e-02 6.663068294525146484e+00 2.004924058914184570e+00 -3.072771728038787842e-01
1.369000000000000000e+03 7.671875762939453125e+01 9.966919898986816406e+00 -3.254563733935356140e-02 7.463676452636718750e+00 2.229339361190795898e+00 -3.746385574340820312e-01
1.370000000000000000e+03 7.660670471191406250e+01 -1.497842216491699219e+01 4.014145731925964355e-01 7.828264236450195312e+00 2.468903541564941406e+00 -1.335086464881896973e+00
1.371000000000000000e+03 7.818832397460937500e+01 -6.886659145355224609e+00 2.966313809156417847e-02 6.191957950592041016e+00 1.866486310958862305e+00 7.516390085220336914e-01
1.372000000000000000e+03 7.807054138183593750e+01 1.505846142768859863e+00 -1.499863713979721069e-01 8.191033363342285156e+00 2.412314176559448242e+00 2.630185484886169434e-01
1.373000000000000000e+03 7.689046478271484375e+01 -1.316040754318237305e+00 -2.938445508480072021e-01 8.081784248352050781e+00 2.336381912231445312e+00 7.172263860702514648e-01
1.374000000000000000e+03 7.675849914550781250e+01 4.374378681182861328e+00 -1.845055967569351196e-01 7.989707946777343750e+00 2.341560602188110352e+00 -1.030419245362281799e-01
1.375000000000000000e+03 7.683771514892578125e+01 -4.165859222412109375e+00 -7.637919485569000244e-02 7.724709987640380859e+00 2.294499158859252930e+00 1.104231715202331543e+00
1.376000000000000000e+03 7.690676879882812500e+01 -5.552021980285644531e+00 1.394073711708188057e-03 7.522647857666015625e+00 2.257212638854980469e+00 1.175598621368408203e+00
1.377000000000000000e+03 7.522444152832031250e+01 -1.151514053344726562e+01 1.373568892478942871e+00 8.636993408203125000e+00 3.003168821334838867e+00 -4.874305129051208496e-01
1.378000000000000000e+03 7.653380584716796875e+01 -1.349610328674316406e+01 6.689026355743408203e-01 7.575124740600585938e+00 2.473208189010620117e+00 -1.039918184280395508e+00
1.379000000000000000e+03 7.687138366699218750e+01 -1.070968246459960938e+01 7.268400788307189941e-01 7.007071971893310547e+00 2.320173501968383789e+00 -1.676627248525619507e-02
1.380000000000000000e+03 7.685914611816406250e+01 -1.927319526672363281e+01 -1.478503495454788208e-01 8.588677406311035156e+00 2.532248258590698242e+00 -1.404562711715698242e+00
1.381000000000000000e+03 3.846508407592773438e+01 -1.727197837829589844e+01 -2.439077854156494141e+00 7.860008627176284790e-02 -7.081432938575744629e-01 -4.227372407913208008e-01
1.382000000000000000e+03 3.937820053100585938e+01 -1.590166282653808594e+01 -2.212807655334472656e+00 1.252291500568389893e-01 -6.262735724449157715e-01 -5.302207469940185547e-01
1.383000000000000000e+03 6.086502456665039062e+01 -5.082407951354980469e+00 -1.689548134803771973e+00 -3.479672968387603760e-01 -6.112546324729919434e-01 -1.134506225585937500e+00
1.384000000000000000e+03 5.615212249755859375e+01 8.388344764709472656e+00 4.022993147373199463e-01 2.066474437713623047e+00 7.406321763992309570e-01 7.607011590152978897e-03
1.385000000000000000e+03 1.644689750671386719e+01 4.303897380828857422e+00 -5.920115709304809570e-01 5.585593581199645996e-01 -1.003567129373550415e-02 -2.999486625194549561e-01
1.386000000000000000e+03 5.692020034790039062e+01 -9.852585792541503906e+00 -2.772373199462890625e+00 -6.726987361907958984e-01 -1.033521533012390137e+00 -1.368858814239501953e+00
1.387000000000000000e+03 5.382629013061523438e+01 -1.035042190551757812e+01 -2.255300045013427734e+00 -3.327565193176269531e-01 -7.764169573783874512e-01 -9.987227916717529297e-01
1.388000000000000000e+03 8.229602813720703125e+00 -1.602721977233886719e+01 1.941354990005493164e+00 8.797692298889160156e+00 3.221714258193969727e+00 1.064669132232666016e+00
1.389000000000000000e+03 1.500455474853515625e+01 -2.546404266357421875e+01 3.749462589621543884e-02 1.698343753814697266e+00 5.207514762878417969e-01 -6.287220120429992676e-01
1.390000000000000000e+03 5.977133560180664062e+01 -2.772077369689941406e+01 -7.415270805358886719e-01 9.248300790786743164e-01 5.499091371893882751e-02 6.376002728939056396e-02
1.391000000000000000e+03 6.023329925537109375e+01 -7.562190532684326172e+00 -3.416268110275268555e+00 -6.809677481651306152e-01 -1.229170799255371094e+00 -1.491444587707519531e+00
1.392000000000000000e+03 5.574478912353515625e+01 -2.887457466125488281e+01 -1.134899139404296875e+00 -2.969946265220642090e-01 -4.295681118965148926e-01 -5.538457036018371582e-01
1.393000000000000000e+03 5.877783584594726562e+01 -2.836120414733886719e+01 -7.812575101852416992e-01 5.199836492538452148e-01 -7.838216423988342285e-02 -9.862295538187026978e-02
1.394000000000000000e+03 1.199405193328857422e+01 -2.263299179077148438e+01 -6.829170510172843933e-03 2.926467657089233398e+00 8.758915662765502930e-01 -9.572198390960693359e-01
1.395000000000000000e+03 1.432390213012695312e+01 2.422876834869384766e+00 -4.846646189689636230e-01 3.617376387119293213e-01 -3.687809407711029053e-02 -2.312132716178894043e-01
1.396000000000000000e+03 1.944712758064270020e+00 2.747938728332519531e+01 -3.011555178090929985e-03 -6.353208422660827637e-01 -1.914997249841690063e-01 1.483092550188302994e-03
1.397000000000000000e+03 3.144601583480834961e+00 3.010257339477539062e+01 -6.374315358698368073e-03 -5.520409345626831055e-01 -1.675245761871337891e-01 1.611295342445373535e-02
1.398000000000000000e+03 3.254601955413818359e+00 2.743694877624511719e+01 -9.264462627470493317e-03 -5.307648777961730957e-01 -1.620088070631027222e-01 6.465695332735776901e-03
1.399000000000000000e+03 7.058917999267578125e+00 2.953911209106445312e+01 -1.455974020063877106e-02 -2.621372640132904053e-01 -8.300910145044326782e-02 5.728131160140037537e-02
1.400000000000000000e+03 3.261504888534545898e+00 3.145121002197265625e+01 -3.111179394181817770e-04 -5.530568361282348633e-01 -1.660103946924209595e-01 1.977728307247161865e-02
1.401000000000000000e+03 3.175939559936523438e+00 2.877644538879394531e+01 -7.715077605098485947e-03 -5.450074076652526855e-01 -1.658167541027069092e-01 1.126453187316656113e-02
1.402000000000000000e+03 6.123920440673828125e+00 3.757349014282226562e+01 2.642998844385147095e-02 -3.857886493206024170e-01 -1.078075990080833435e-01 3.868376091122627258e-02
1.403000000000000000e+03 3.325221061706542969e+00 2.604605102539062500e+01 -9.139220230281352997e-03 -5.186132192611694336e-01 -1.583257317543029785e-01 1.189948292449116707e-03
1.404000000000000000e+03 3.282518863677978516e+00 3.388893508911132812e+01 6.001294590532779694e-03 -5.724508762359619141e-01 -1.699348837137222290e-01 1.950530335307121277e-02
1.405000000000000000e+03 3.234304189682006836e+00 3.274527740478515625e+01 1.070442027412354946e-03 -5.624243021011352539e-01 -1.684061586856842041e-01 1.994797773659229279e-02
1.406000000000000000e+03 3.395442724227905273e+00 -3.456269073486328125e+01 -9.613013267517089844e-02 1.351620197296142578e+00 3.766470253467559814e-01 2.519073486328125000e-01
1.407000000000000000e+03 2.652654647827148438e+00 -3.810998535156250000e+01 -3.695397824048995972e-02 1.509315967559814453e+00 4.417085945606231689e-01 9.163068234920501709e-02
1.408000000000000000e+03 4.003159046173095703e+00 -3.240732192993164062e+01 -1.410359144210815430e-01 1.274797916412353516e+00 3.401286005973815918e-01 3.812954723834991455e-01
1.409000000000000000e+03 2.167212247848510742e+00 -3.007297134399414062e+01 -1.024861037731170654e-01 9.110567569732666016e-01 2.425711899995803833e-01 3.814782798290252686e-01
1.410000000000000000e+03 3.396571636199951172e+00 -2.836022567749023438e+01 -2.319515645503997803e-01 9.156695604324340820e-01 2.051154077053070068e-01 6.667006015777587891e-01
1.411000000000000000e+03 3.098921060562133789e+00 -2.570757484436035156e+01 -2.766275405883789062e-01 4.954755008220672607e-01 6.565438956022262573e-02 9.062795042991638184e-01
1.412000000000000000e+03 1.967210650444030762e+00 2.182301139831542969e+01 -2.561447909101843834e-03 -6.357623338699340820e-01 -1.914971321821212769e-01 -1.990749686956405640e-02
1.413000000000000000e+03 3.325256586074829102e+00 2.317406654357910156e+01 -1.012379024177789688e-02 -5.050475597381591797e-01 -1.545514017343521118e-01 -1.405731029808521271e-02
1.414000000000000000e+03 2.838050603866577148e+00 -1.101051807403564453e+01 4.671299755573272705e-01 -1.847781777381896973e+00 -4.141955375671386719e-01 -1.238616943359375000e+00
1.415000000000000000e+03 3.259085178375244141e+00 -1.883249282836914062e+01 4.860626906156539917e-02 -6.989899873733520508e-01 -1.951151192188262939e-01 1.680049896240234375e+00
1.416000000000000000e+03 1.749864220619201660e+00 -1.481493473052978516e+01 3.334798812866210938e-01 -4.239766120910644531e+00 -1.171885848045349121e+00 3.884442150592803955e-01
1.417000000000000000e+03 1.947049617767333984e+00 2.037946319580078125e+01 -1.687588955974206328e-04 -6.449588537216186523e-01 -1.935382783412933350e-01 -2.103066071867942810e-02
1.418000000000000000e+03 3.262985467910766602e+00 2.172420501708984375e+01 -8.122780360281467438e-03 -5.044938921928405762e-01 -1.537849903106689453e-01 -1.846072264015674591e-02
1.419000000000000000e+03 2.972723960876464844e+00 1.182267093658447266e+01 4.721221327781677246e-02 -4.613454639911651611e-01 -1.242399737238883972e-01 1.065472215414047241e-01
1.420000000000000000e+03 3.165276288986206055e+00 1.735414505004882812e+01 2.070387452840805054e-02 -5.092417597770690918e-01 -1.465613543987274170e-01 -7.570479996502399445e-03
1.421000000000000000e+03 4.582232475280761719e+00 -1.024423503875732422e+01 5.256285071372985840e-01 9.489207267761230469e-01 4.423647522926330566e-01 -1.895961046218872070e+00
1.422000000000000000e+03 2.686864614486694336e+00 5.253218650817871094e+00 -2.153028920292854309e-02 -2.006460726261138916e-01 -6.665290892124176025e-02 1.978381127119064331e-01
1.423000000000000000e+03 2.794224500656127930e+00 7.767067432403564453e+00 2.556171268224716187e-02 -3.258091509342193604e-01 -9.007423371076583862e-02 1.956955045461654663e-01
1.424000000000000000e+03 1.820930123329162598e+00 1.468935108184814453e+01 1.667736656963825226e-02 -6.532420516014099121e-01 -1.909693926572799683e-01 2.315961942076683044e-02
1.425000000000000000e+03 3.084083318710327148e+00 1.593269348144531250e+01 3.404833003878593445e-02 -5.071340203285217285e-01 -1.419257074594497681e-01 1.342586334794759750e-02
1.426000000000000000e+03 2.883339881896972656e+00 9.105991363525390625e+00 3.728581592440605164e-02 -3.775565922260284424e-01 -1.020812317728996277e-01 1.738737672567367554e-01
1.427000000000000000e+03 3.804787635803222656e+00 -4.598380565643310547e+00 -4.486773610115051270e-01 -1.038855314254760742e-01 -1.657688617706298828e-01 -1.191976547241210938e+00
1.428000000000000000e+03 3.290537834167480469e+00 -3.870545387268066406e+00 -4.546627700328826904e-01 -2.043889909982681274e-01 -1.977155208587646484e-01 -1.001682877540588379e+00
1.429000000000000000e+03 2.464619159698486328e+00 -5.865801334381103516e+00 -1.548050791025161743e-01 -1.043472647666931152e+00 -3.594833016395568848e-01 -1.215851187705993652e+00
1.430000000000000000e+03 3.179581403732299805e+00 -2.166981506347656250e+01 -1.924266070127487183e-01 -1.020301729440689087e-01 -8.833703398704528809e-02 1.495158195495605469e+00
1.431000000000000000e+03 2.748536109924316406e+00 -9.744740486145019531e+00 1.607737541198730469e-01 -1.710997462272644043e+00 -4.650671184062957764e-01 -1.547543048858642578e+00
1.432000000000000000e+03 2.836791515350341797e+00 -8.564523696899414062e+00 -6.253606081008911133e-02 -1.332223415374755859e+00 -4.184278249740600586e-01 -1.499576330184936523e+00
1.433000000000000000e+03 2.959897518157958984e+00 -1.607561111450195312e+01 6.210706233978271484e-01 -1.621647000312805176e+00 -3.001729249954223633e-01 1.137961030006408691e+00
1.434000000000000000e+03 2.965109586715698242e+00 -1.470621681213378906e+01 9.776602983474731445e-01 -1.919405460357666016e+00 -2.825235426425933838e-01 4.159081578254699707e-01
1.435000000000000000e+03 1.872198224067687988e+00 -2.315767478942871094e+01 -7.611395418643951416e-02 -8.157763481140136719e-01 -2.675670981407165527e-01 9.414632320404052734e-01
1.436000000000000000e+03 4.115036010742187500e+00 -3.788387298583984375e+01 -8.724835515022277832e-02 1.514901638031005859e+00 4.282959997653961182e-01 1.314310729503631592e-01
1.437000000000000000e+03 5.218012332916259766e+00 -3.215341186523437500e+01 -2.823700308799743652e-01 1.384332656860351562e+00 3.305887877941131592e-01 4.704252779483795166e-01
1.438000000000000000e+03 4.243915557861328125e+00 -2.543217086791992188e+01 -3.560376167297363281e-01 9.474631547927856445e-01 1.774276494979858398e-01 1.064822793006896973e+00
1.439000000000000000e+03 2.803394079208374023e+00 -1.224439525604248047e+01 6.550566554069519043e-01 -2.114548206329345703e+00 -4.378474354743957520e-01 -9.761816263198852539e-01
1.440000000000000000e+03 2.933564901351928711e+00 1.046874141693115234e+01 4.670448228716850281e-02 -4.242959916591644287e-01 -1.132774502038955688e-01 1.431523114442825317e-01
1.441000000000000000e+03 3.001365423202514648e+00 1.316949558258056641e+01 4.401814937591552734e-02 -4.880292117595672607e-01 -1.332033127546310425e-01 7.251182198524475098e-02
1.442000000000000000e+03 4.266759872436523438e+00 1.577816390991210938e+01 5.451841652393341064e-02 -3.700755834579467773e-01 -9.466715157032012939e-02 2.233983017504215240e-02
1.443000000000000000e+03 6.622902679443359375e+01 -2.125467681884765625e+01 -5.093331933021545410e-01 6.101448059082031250e+00 1.677634358406066895e+00 1.284457087516784668e+00
1.444000000000000000e+03 5.714945983886718750e+01 -8.231914520263671875e+00 -2.624819755554199219e+00 -4.038388431072235107e-01 -9.085975885391235352e-01 -1.029246449470520020e+00
1.445000000000000000e+03 5.606830978393554688e+01 -8.964076042175292969e+00 -2.508519172668457031e+00 -3.759174644947052002e-01 -8.653309941291809082e-01 -1.031630277633666992e+00
1.446000000000000000e+03 1.592022323608398438e+01 -2.647029304504394531e+01 -1.321256626397371292e-02 1.344693779945373535e+00 3.994443714618682861e-01 -5.566385388374328613e-01
1.447000000000000000e+03 3.136832237243652344e+01 -3.406972885131835938e+01 -2.797212302684783936e-01 -2.808142825961112976e-02 -9.234080463647842407e-02 6.848157197237014771e-02
1.448000000000000000e+03 2.525898933410644531e+01 -3.486555099487304688e+01 -1.856993585824966431e-01 1.890916079282760620e-01 1.017677132040262222e-03 -5.421268939971923828e-02
1.449000000000000000e+03 3.303577804565429688e+01 -3.715203094482421875e+01 -1.954854875802993774e-01 -7.200703769922256470e-02 -8.024775981903076172e-02 2.038631960749626160e-02
1.450000000000000000e+03 1.229569625854492188e+01 1.258407497406005859e+01 3.570771217346191406e-01 8.290524482727050781e-01 3.558388650417327881e-01 1.793191730976104736e-01
1.451000000000000000e+03 4.353121185302734375e+01 -3.653738021850585938e+01 -2.164396643638610840e-01 -2.830105721950531006e-01 -1.498350650072097778e-01 -2.444487661123275757e-01
1.452000000000000000e+03 4.508653640747070312e+01 -3.358613204956054688e+01 -4.961696863174438477e-01 -2.455078810453414917e-01 -2.225032746791839600e-01 -3.542194664478302002e-01
1.453000000000000000e+03 5.341110610961914062e+01 -3.289581298828125000e+01 -2.821545302867889404e-01 -1.464354544878005981e-01 -1.285769939422607422e-01 -3.734572529792785645e-01
1.454000000000000000e+03 4.658732604980468750e+01 -3.606504440307617188e+01 -1.126203089952468872e-01 -3.683700859546661377e-01 -1.442971229553222656e-01 -3.438631296157836914e-01
1.455000000000000000e+03 5.655750656127929688e+01 -3.012192344665527344e+01 -6.718190312385559082e-01 7.553771883249282837e-02 -1.788843870162963867e-01 -2.642542123794555664e-01
1.456000000000000000e+03 6.152666091918945312e+01 -2.487671661376953125e+01 -7.207927703857421875e-01 1.436828851699829102e+00 2.148108333349227905e-01 2.467087209224700928e-01
1.457000000000000000e+03 3.489839935302734375e+01 -3.559707260131835938e+01 -2.744533717632293701e-01 -7.033465802669525146e-02 -1.034364104270935059e-01 2.493867464363574982e-02
1.458000000000000000e+03 5.433390808105468750e+01 -3.157181739807128906e+01 -5.260937213897705078e-01 -1.084860265254974365e-01 -1.903739273548126221e-01 -3.843475282192230225e-01
1.459000000000000000e+03 5.055543899536132812e+01 -8.093265533447265625e+00 -1.565220355987548828e+00 4.193539731204509735e-03 -4.683080613613128662e-01 -4.829851090908050537e-01
1.460000000000000000e+03 4.484294509887695312e+01 -3.509751892089843750e+01 -2.929986119270324707e-01 -2.914371788501739502e-01 -1.753307431936264038e-01 -3.283920884132385254e-01
1.461000000000000000e+03 2.428468322753906250e+01 3.931117296218872070e+00 -1.407379359006881714e-01 2.475965499877929688e+00 7.005683183670043945e-01 1.474873900413513184e+00
1.462000000000000000e+03 2.317124557495117188e+01 3.977718114852905273e+00 -2.481162250041961670e-01 1.847530961036682129e+00 4.798244237899780273e-01 1.256852626800537109e+00
1.463000000000000000e+03 6.956649780273437500e+01 -1.696731185913085938e+01 -3.823662549257278442e-02 1.143908023834228516e+01 3.420253276824951172e+00 -6.023030355572700500e-02
1.464000000000000000e+03 7.049538421630859375e+01 -1.611360168457031250e+01 5.401290655136108398e-01 1.209192466735839844e+01 3.789616107940673828e+00 -2.523156106472015381e-01
1.465000000000000000e+03 2.991884803771972656e+01 -3.287747192382812500e+01 -3.072645366191864014e-01 -3.287167474627494812e-02 -1.020408645272254944e-01 8.199010789394378662e-02
1.466000000000000000e+03 2.042654991149902344e+01 2.453314781188964844e+00 -3.354179859161376953e-01 7.559747695922851562e-01 1.261670440435409546e-01 3.841695189476013184e-01
1.467000000000000000e+03 9.996751785278320312e+00 -2.046732139587402344e+01 -1.250264942646026611e-01 4.589230060577392578e+00 1.339261054992675781e+00 -8.493031859397888184e-01
1.468000000000000000e+03 8.996735572814941406e+00 -1.933341217041015625e+01 -2.670688927173614502e-01 6.006259918212890625e+00 1.721757292747497559e+00 -3.734593987464904785e-01
1.469000000000000000e+03 6.706358337402343750e+01 -2.009719085693359375e+01 -4.518666863441467285e-01 7.703832149505615234e+00 2.175589561462402344e+00 1.311811327934265137e+00
1.470000000000000000e+03 1.396484851837158203e+01 -1.091055107116699219e+01 -1.724774241447448730e+00 -2.287038564682006836e+00 -1.203543901443481445e+00 3.722857713699340820e+00
1.471000000000000000e+03 4.700635147094726562e+01 4.135555267333984375e+00 7.211879491806030273e-01 1.733989119529724121e-01 2.683760523796081543e-01 1.365432292222976685e-01
1.472000000000000000e+03 3.007388687133789062e+01 -3.429239273071289062e+01 -2.685142755508422852e-01 -3.692808374762535095e-02 -9.163270890712738037e-02 5.646649375557899475e-02
1.473000000000000000e+03 2.800896835327148438e+01 6.856022834777832031e+00 1.051014423370361328e+00 2.402842760086059570e+00 1.036157131195068359e+00 9.993610978126525879e-01
1.474000000000000000e+03 2.882122039794921875e+01 8.301869392395019531e+00 8.837987780570983887e-01 2.058732509613037109e+00 8.827593922615051270e-01 1.180897951126098633e+00
1.475000000000000000e+03 4.800199127197265625e+01 -3.483948135375976562e+01 -2.150685340166091919e-01 -3.833031058311462402e-01 -1.795114874839782715e-01 -4.174638092517852783e-01
1.476000000000000000e+03 4.924399566650390625e+01 -3.369118881225585938e+01 -3.401657342910766602e-01 -3.868762254714965820e-01 -2.181125879287719727e-01 -4.864639639854431152e-01
1.477000000000000000e+03 2.328659439086914062e+01 1.668558883666992188e+01 -4.562042951583862305e-01 7.466067560017108917e-03 -1.346214711666107178e-01 1.387373208999633789e-01
1.478000000000000000e+03 2.337963104248046875e+01 1.867022705078125000e+01 -1.026293113827705383e-01 2.044069021940231323e-01 3.053327836096286774e-02 1.382854133844375610e-01
1.479000000000000000e+03 9.028429031372070312e+00 -1.716312217712402344e+01 7.224031686782836914e-01 9.286149978637695312e+00 3.002565860748291016e+00 -1.040577173233032227e+00
1.480000000000000000e+03 4.200550842285156250e+01 1.764556884765625000e+01 8.243842124938964844e-01 2.002502202987670898e+00 8.480659127235412598e-01 6.759967803955078125e-01
1.481000000000000000e+03 5.566961669921875000e+01 4.032365798950195312e+00 5.739549994468688965e-01 9.302995204925537109e-01 4.512763619422912598e-01 -1.751549541950225830e-01
1.482000000000000000e+03 5.314568710327148438e+01 5.911142349243164062e+00 9.315583109855651855e-01 4.875773191452026367e-01 4.257406890392303467e-01 2.693394124507904053e-01
1.483000000000000000e+03 2.421536064147949219e+01 1.768005752563476562e+01 -2.414500266313552856e-01 3.638863265514373779e-01 3.673089295625686646e-02 5.779294669628143311e-02
1.484000000000000000e+03 3.804544067382812500e+01 1.524944686889648438e+01 6.869743466377258301e-01 1.610764265060424805e+00 6.893215775489807129e-01 8.249763250350952148e-01
1.485000000000000000e+03 4.165680313110351562e+01 1.051537895202636719e+01 2.173458933830261230e-01 1.639177799224853516e+00 5.569571256637573242e-01 4.465806484222412109e-01
1.486000000000000000e+03 1.567745590209960938e+01 -2.858311843872070312e+01 -2.231347411870956421e-01 1.375141501426696777e+00 3.456020355224609375e-01 -3.856875896453857422e-01
1.487000000000000000e+03 5.622665023803710938e+01 1.721523094177246094e+01 5.972533226013183594e-01 3.236131429672241211e+00 1.150015354156494141e+00 -6.030194759368896484e-01
1.488000000000000000e+03 5.248138809204101562e+01 1.982010841369628906e+01 6.695936918258666992e-01 1.363017797470092773e+00 6.097834706306457520e-01 -7.516853809356689453e-01
1.489000000000000000e+03 5.132249069213867188e+01 2.188905334472656250e+01 9.073927998542785645e-01 1.296365499496459961e+00 6.611275076866149902e-01 -3.724727034568786621e-01
1.490000000000000000e+03 1.099206829071044922e+01 -2.157374382019042969e+01 -1.106679663062095642e-01 3.922600030899047852e+00 1.143579602241516113e+00 -9.599785208702087402e-01
1.491000000000000000e+03 1.525185203552246094e+01 1.875439262390136719e+01 -1.165109798312187195e-01 6.519960761070251465e-01 1.606455296277999878e-01 3.929408788681030273e-01
1.492000000000000000e+03 1.649370574951171875e+01 1.738923454284667969e+01 -1.529292166233062744e-01 7.573038935661315918e-01 1.813123971223831177e-01 4.809628129005432129e-01
1.493000000000000000e+03 5.003230667114257812e+01 2.214480018615722656e+01 9.885359406471252441e-01 1.071515321731567383e+00 6.180154085159301758e-01 -7.997167855501174927e-02
1.494000000000000000e+03 3.984605407714843750e+01 1.425833988189697266e+01 7.469445466995239258e-01 1.796499371528625488e+00 7.630331516265869141e-01 8.369297981262207031e-01
1.495000000000000000e+03 1.255185699462890625e+01 1.617478561401367188e+01 1.619662940502166748e-01 6.722863912582397461e-01 2.502757906913757324e-01 1.136312708258628845e-01
1.496000000000000000e+03 1.353014945983886719e+01 -9.574933052062988281e+00 7.642275691032409668e-01 -1.545678853988647461e+00 -2.344353795051574707e-01 4.701549530029296875e+00
1.497000000000000000e+03 5.674583435058593750e+01 1.609569931030273438e+01 9.309353232383728027e-01 3.171239376068115234e+00 1.230652451515197754e+00 -5.890605449676513672e-01
1.498000000000000000e+03 1.918637847900390625e+01 1.985963439941406250e+01 -1.504673156887292862e-02 1.776296794414520264e-01 4.877488687634468079e-02 5.021124482154846191e-01
1.499000000000000000e+03 5.655765914916992188e+01 9.789245605468750000e+00 3.458682298660278320e-01 2.546514034271240234e+00 8.677147030830383301e-01 -1.322082281112670898e-01
1.500000000000000000e+03 5.820425415039062500e+01 1.056704139709472656e+01 4.982195794582366943e-01 2.928649902343750000e+00 1.028060913085937500e+00 -6.665562391281127930e-01
1.501000000000000000e+03 4.963393783569335938e+01 2.065996742248535156e+01 9.996035695075988770e-01 5.976136922836303711e-01 4.791651666164398193e-01 4.504911229014396667e-02
1.502000000000000000e+03 4.162872695922851562e+01 9.340317726135253906e+00 1.817196458578109741e-01 1.388956069946289062e+00 4.712027013301849365e-01 2.743182480335235596e-01
1.503000000000000000e+03 4.049621963500976562e+01 1.749248695373535156e+01 7.923990488052368164e-01 1.954453468322753906e+00 8.240557909011840820e-01 6.581956148147583008e-01
1.504000000000000000e+03 4.317844390869140625e+01 1.892363739013671875e+01 6.763252615928649902e-01 1.872407913208007812e+00 7.646199464797973633e-01 7.548182606697082520e-01
1.505000000000000000e+03 4.177803421020507812e+01 1.935080909729003906e+01 5.725310444831848145e-01 1.955353260040283203e+00 7.583652734756469727e-01 6.628166437149047852e-01
1.506000000000000000e+03 7.157617950439453125e+01 -1.331846523284912109e+01 2.338008880615234375e+00 1.324485492706298828e+01 4.674859046936035156e+00 -1.013340473175048828e+00
1.507000000000000000e+03 7.075051879882812500e+01 -1.209317207336425781e+01 2.633707761764526367e+00 1.469857788085937500e+01 5.199685573577880859e+00 -7.013900876045227051e-01
1.508000000000000000e+03 4.011284255981445312e+01 1.296176910400390625e+01 6.529974937438964844e-01 1.709788680076599121e+00 7.088358402252197266e-01 8.813601732254028320e-01
1.509000000000000000e+03 4.035644912719726562e+01 1.046947479248046875e+01 3.335913121700286865e-01 1.565927863121032715e+00 5.698557496070861816e-01 6.329274773597717285e-01
1.510000000000000000e+03 4.858605194091796875e+01 -1.441778087615966797e+01 -2.011494398117065430e+00 -2.271922379732131958e-01 -6.716060042381286621e-01 -8.590092658996582031e-01
1.511000000000000000e+03 6.953536987304687500e+01 -7.060347080230712891e+00 8.228694796562194824e-01 1.526602649688720703e+01 4.826668739318847656e+00 -1.945043206214904785e-01
1.512000000000000000e+03 1.241546630859375000e+01 1.379733467102050781e+01 3.352255225181579590e-01 7.647663354873657227e-01 3.299975693225860596e-01 1.583185791969299316e-01
1.513000000000000000e+03 6.592253112792968750e+01 -5.208312034606933594e+00 -3.185966908931732178e-01 4.162483215332031250e+00 1.153166055679321289e+00 -5.511574745178222656e+00
1.514000000000000000e+03 5.875195312500000000e+01 1.624314689636230469e+01 7.388671636581420898e-01 3.388556241989135742e+00 1.238227009773254395e+00 -5.966768264770507812e-01
1.515000000000000000e+03 7.259963226318359375e+01 -3.515917062759399414e+00 -9.812832474708557129e-01 9.869151115417480469e+00 2.666360378265380859e+00 5.711748600006103516e-01
1.516000000000000000e+03 6.944760894775390625e+01 -4.571653366088867188e+00 -2.087640762329101562e+00 1.128518199920654297e+01 2.759262323379516602e+00 -1.414012551307678223e+00
1.517000000000000000e+03 8.015721321105957031e+00 -4.115802001953125000e+01 -1.840158253908157349e-01 1.381806135177612305e+00 3.593371212482452393e-01 5.797345191240310669e-02
1.518000000000000000e+03 4.591890335083007812e+01 4.357421875000000000e+00 8.258966207504272461e-01 1.375231444835662842e-01 2.890259325504302979e-01 1.231711283326148987e-01
1.519000000000000000e+03 6.620978546142578125e+01 -3.894799232482910156e+00 -1.385455846786499023e+00 5.554514884948730469e+00 1.250717759132385254e+00 -3.828128337860107422e+00
1.520000000000000000e+03 5.165711402893066406e+00 4.006565093994140625e+01 -1.055572996847331524e-03 -4.876431524753570557e-01 -1.466096192598342896e-01 2.891083061695098877e-02
1.521000000000000000e+03 2.086420440673828125e+01 -3.101750612258911133e+00 8.180440217256546021e-02 5.149857997894287109e+00 1.569498777389526367e+00 7.124044895172119141e-01
1.522000000000000000e+03 2.115393066406250000e+01 -3.736431360244750977e+00 6.658049821853637695e-01 6.645776748657226562e+00 2.193474531173706055e+00 1.865046143531799316e+00
1.523000000000000000e+03 2.125901603698730469e+01 -3.930280208587646484e+00 1.063725709915161133e+00 7.086123943328857422e+00 2.444954872131347656e+00 2.395938396453857422e+00
1.524000000000000000e+03 1.793779182434082031e+01 -6.263381958007812500e+00 7.216522216796875000e+00 -1.234557986259460449e+00 1.794589281082153320e+00 1.179329156875610352e+00
1.525000000000000000e+03 1.767895889282226562e+01 -6.499723911285400391e+00 6.686051368713378906e+00 -1.501756429672241211e+00 1.555288553237915039e+00 1.731331586837768555e+00
1.526000000000000000e+03 2.184466743469238281e+01 -5.439620018005371094e+00 8.785839080810546875e+00 5.218811035156250000e+00 4.201395034790039062e+00 4.103968620300292969e+00
1.527000000000000000e+03 2.195390701293945312e+01 -3.875279664993286133e+00 2.140050649642944336e+00 5.971023082733154297e+00 2.433322191238403320e+00 3.315204381942749023e+00
1.528000000000000000e+03 1.805398559570312500e+01 -7.500398635864257812e+00 6.058371067047119141e+00 -2.228563427925109863e-01 1.750654458999633789e+00 3.611338376998901367e+00
1.529000000000000000e+03 1.909067916870117188e+01 -7.481801509857177734e+00 6.500835895538330078e+00 3.112489223480224609e+00 2.883997440338134766e+00 4.543220043182373047e+00
1.530000000000000000e+03 2.202231407165527344e+01 -4.503680229187011719e+00 4.154624938964843750e+00 5.873261928558349609e+00 3.008366107940673828e+00 4.137913227081298828e+00
1.531000000000000000e+03 2.231311988830566406e+01 -1.344259452819824219e+01 -5.464445590972900391e+00 8.283988833427429199e-01 -1.390814065933227539e+00 9.215065240859985352e-01
1.532000000000000000e+03 1.929041671752929688e+01 -7.595550060272216797e+00 5.728108406066894531e+00 4.050681591033935547e+00 2.933636903762817383e+00 4.304111957550048828e+00
1.533000000000000000e+03 1.363501739501953125e+01 -5.170115947723388672e+00 1.470232963562011719e+00 -7.195492982864379883e-01 2.252051234245300293e-01 1.660168528556823730e+00
1.534000000000000000e+03 1.667734336853027344e+01 -5.728455066680908203e+00 4.357238292694091797e+00 -1.574124932289123535e+00 8.349340558052062988e-01 8.106679320335388184e-01
1.535000000000000000e+03 1.707801437377929688e+01 -5.333168983459472656e+00 4.307943344116210938e+00 -1.276064515113830566e+00 9.095636606216430664e-01 4.950277507305145264e-02
1.536000000000000000e+03 1.556083679199218750e+01 -4.602881908416748047e+00 2.053505182266235352e+00 -9.349732995033264160e-01 3.355595469474792480e-01 6.355011463165283203e-01
1.537000000000000000e+03 2.001952171325683594e+01 -2.643073797225952148e+00 7.466673105955123901e-02 3.058629035949707031e+00 9.399886727333068848e-01 -3.405487537384033203e-01
1.538000000000000000e+03 1.944369125366210938e+01 -2.512868881225585938e+00 2.025482058525085449e-01 1.909395575523376465e+00 6.335831284523010254e-01 -4.786304533481597900e-01
1.539000000000000000e+03 1.894029617309570312e+01 -4.838133454322814941e-01 6.075593829154968262e-02 1.063821554183959961e+00 3.373732566833496094e-01 -3.159270286560058594e-01
1.540000000000000000e+03 1.008388042449951172e+01 3.299654483795166016e+00 -2.983928322792053223e-01 6.986071169376373291e-02 -6.855963915586471558e-02 2.073541432619094849e-01
1.541000000000000000e+03 5.503170490264892578e+00 4.298008918762207031e+00 -9.521265327930450439e-02 -8.572591841220855713e-02 -5.428157001733779907e-02 2.893684506416320801e-01
1.542000000000000000e+03 9.340754508972167969e+00 4.071672916412353516e+00 -1.920085251331329346e-01 6.453961879014968872e-02 -3.824067488312721252e-02 2.638831734657287598e-01
1.543000000000000000e+03 7.827867984771728516e+00 4.810341358184814453e+00 -9.158027172088623047e-02 -6.322611123323440552e-03 -2.937086485326290131e-02 3.102360069751739502e-01
1.544000000000000000e+03 7.714860916137695312e+00 3.373832702636718750e+00 -2.232822626829147339e-01 -2.339060604572296143e-02 -7.400186359882354736e-02 2.865194082260131836e-01
1.545000000000000000e+03 3.769683361053466797e+00 6.439337730407714844e+00 3.068544901907444000e-03 -2.132497578859329224e-01 -6.305436044931411743e-02 2.494503110647201538e-01
1.546000000000000000e+03 3.877330780029296875e+00 4.270535945892333984e+00 -6.244444847106933594e-02 -1.256518512964248657e-01 -5.642888695001602173e-02 2.332706600427627563e-01
1.547000000000000000e+03 4.044360637664794922e+00 3.405284404754638672e+00 -1.039147302508354187e-01 -8.492600172758102417e-02 -5.665221810340881348e-02 2.143907546997070312e-01
1.548000000000000000e+03 2.894391536712646484e+00 3.373862981796264648e+00 -5.781596153974533081e-02 -1.086436361074447632e-01 -4.993788152933120728e-02 1.570577770471572876e-01
1.549000000000000000e+03 1.615700602531433105e+00 5.120082378387451172e+00 -9.859185665845870972e-03 -2.219543457031250000e-01 -6.954405456781387329e-02 1.280578225851058960e-01
1.550000000000000000e+03 2.350833415985107422e+00 3.624294042587280273e+00 -4.708768427371978760e-02 -1.100566312670707703e-01 -4.714329540729522705e-02 1.401907652616500854e-01
1.551000000000000000e+03 1.242085838317871094e+01 -4.046935558319091797e+00 2.514254152774810791e-01 -1.689261049032211304e-01 2.474979124963283539e-02 1.178900718688964844e+00
1.552000000000000000e+03 1.222423934936523438e+01 -4.725261688232421875e+00 4.547792673110961914e-01 1.197288185358047485e-02 1.400256454944610596e-01 1.558091998100280762e+00
1.553000000000000000e+03 8.779147148132324219e+00 -3.372556686401367188e+00 -1.003148436546325684e+00 7.522624135017395020e-01 -7.526580244302749634e-02 2.696079909801483154e-01
1.554000000000000000e+03 9.439528465270996094e+00 -4.151872634887695312e+00 -7.875577211380004883e-01 9.820274114608764648e-01 5.834091827273368835e-02 6.533423066139221191e-01
1.555000000000000000e+03 1.956930160522460938e+01 -1.228523552417755127e-01 -3.767922520637512207e-02 1.404995799064636230e+00 4.101949632167816162e-01 -7.678657770156860352e-02
1.556000000000000000e+03 6.656255722045898438e+00 -3.356710195541381836e+00 -1.012205123901367188e+00 5.472358465194702148e-01 -1.394907981157302856e-01 -4.939880967140197754e-01
1.557000000000000000e+03 8.223559379577636719e+00 -4.688550472259521484e+00 -9.139769077301025391e-01 1.182208776473999023e+00 8.046954870223999023e-02 1.473648753017187119e-02
1.558000000000000000e+03 6.712334632873535156e+00 -4.151511192321777344e+00 -9.125162363052368164e-01 8.652735352516174316e-01 -1.417282223701477051e-02 -4.747061133384704590e-01
1.559000000000000000e+03 6.037669181823730469e+00 -4.033215045928955078e+00 -8.962901234626770020e-01 6.501790881156921387e-01 -7.383330911397933960e-02 -7.562965154647827148e-01
1.560000000000000000e+03 4.106399536132812500e+00 -7.992818832397460938e+00 -2.498766183853149414e-01 2.497929036617279053e-01 -2.511386082915123552e-05 -1.694067955017089844e+00
1.561000000000000000e+03 4.432235240936279297e+00 -7.163602352142333984e+00 -2.979243993759155273e-01 3.260903358459472656e-01 8.449775166809558868e-03 -1.587330937385559082e+00
1.562000000000000000e+03 1.294488811492919922e+01 -4.939808368682861328e+00 9.656358957290649414e-01 -4.542859494686126709e-01 1.534049808979034424e-01 1.596322178840637207e+00
1.563000000000000000e+03 1.149790287017822266e+01 -4.549431324005126953e+00 3.805356472730636597e-02 2.635563313961029053e-01 9.048296511173248291e-02 1.331317186355590820e+00
1.564000000000000000e+03 1.166393756866455078e+01 -3.849298238754272461e+00 -1.424010545015335083e-01 1.906451582908630371e-01 1.447323337197303772e-02 1.118974447250366211e+00
1.565000000000000000e+03 1.612954139709472656e+01 2.431066036224365234e+00 -4.806816577911376953e-01 4.418947994709014893e-01 -1.163605134934186935e-02 -4.524568319320678711e-01
1.566000000000000000e+03 1.301313781738281250e+01 4.632941246032714844e+00 -2.521394789218902588e-01 5.078822970390319824e-01 7.672284543514251709e-02 1.577040925621986389e-02
1.567000000000000000e+03 1.705949592590332031e+01 1.275130748748779297e+00 -2.863805592060089111e-01 3.685960471630096436e-01 2.466464415192604065e-02 -4.733477830886840820e-01
1.568000000000000000e+03 1.661548995971679688e+01 3.014522075653076172e+00 -5.866770148277282715e-01 4.643426835536956787e-01 -3.670030087232589722e-02 -4.602379202842712402e-01
1.569000000000000000e+03 8.592646598815917969e+00 5.389188766479492188e+00 -5.169775336980819702e-02 4.490014165639877319e-02 -2.039283746853470802e-03 3.013181388378143311e-01
1.570000000000000000e+03 1.499844741821289062e+01 4.079221725463867188e+00 -4.718183279037475586e-01 5.988887548446655273e-01 3.812111914157867432e-02 -2.358626425266265869e-01
1.571000000000000000e+03 1.282506561279296875e+01 3.766656160354614258e+00 -3.521253466606140137e-01 3.872489929199218750e-01 1.053709350526332855e-02 -4.600387532263994217e-03
1.572000000000000000e+03 1.133378219604492188e+01 -5.227125167846679688e+00 1.577882170677185059e-01 5.535936355590820312e-01 2.134145498275756836e-01 1.720531582832336426e+00
1.573000000000000000e+03 1.721048545837402344e+01 2.414372682571411133e+00 -4.825840592384338379e-01 4.050112366676330566e-01 -2.327184565365314484e-02 -5.314245223999023438e-01
1.574000000000000000e+03 1.913756942749023438e+01 1.079062521457672119e-01 -2.161248214542865753e-02 1.099489331245422363e+00 3.233630657196044922e-01 -2.345895171165466309e-01
1.575000000000000000e+03 1.190895462036132812e+01 3.924753189086914062e+00 -2.849496304988861084e-01 2.912694513797760010e-01 1.895944005809724331e-03 8.912039548158645630e-02
1.576000000000000000e+03 2.061467170715332031e+01 -1.295533275604248047e+01 -5.676548480987548828e+00 3.987636864185333252e-01 -1.583335518836975098e+00 1.790844321250915527e+00
1.577000000000000000e+03 1.205980300903320312e+01 -6.864186763763427734e+00 8.340026140213012695e-01 4.209182858467102051e-01 3.764762878417968750e-01 2.918503046035766602e+00
1.578000000000000000e+03 1.113065242767333984e+01 -1.046927642822265625e+01 -6.354535371065139771e-02 4.343728065490722656e+00 1.284054875373840332e+00 5.044727802276611328e+00
1.579000000000000000e+03 4.017686462402343750e+01 -1.450531482696533203e+01 -1.980436801910400391e+00 1.280313432216644287e-01 -5.557216405868530273e-01 -5.744509100914001465e-01
1.580000000000000000e+03 3.946464538574218750e+01 1.563547229766845703e+01 7.867239117622375488e-01 1.766575932502746582e+00 7.659899592399597168e-01 8.146467208862304688e-01
1.581000000000000000e+03 1.094711971282958984e+01 1.160662555694580078e+01 3.292480111122131348e-01 5.090793371200561523e-01 2.514981925487518311e-01 1.749624311923980713e-01
1.582000000000000000e+03 7.702550411224365234e+00 -1.028475093841552734e+01 8.262180685997009277e-01 5.115453243255615234e+00 1.782501459121704102e+00 -8.958048820495605469e-01
1.583000000000000000e+03 3.897796630859375000e+00 -1.088070011138916016e+01 7.978494167327880859e-01 -4.197181165218353271e-01 1.134393960237503052e-01 -1.585372805595397949e+00
1.584000000000000000e+03 8.678889274597167969e+00 -1.091014003753662109e+01 5.069026350975036621e-01 9.260636329650878906e+00 2.930261611938476562e+00 1.505804359912872314e-01
1.585000000000000000e+03 5.800496673583984375e+01 9.371459007263183594e+00 4.123189747333526611e-01 2.748387098312377930e+00 9.482118487358093262e-01 -5.408449172973632812e-01
1.586000000000000000e+03 4.423722457885742188e+01 -1.470080375671386719e+01 -1.990072846412658691e+00 -5.405043810606002808e-02 -6.132369637489318848e-01 -6.610091328620910645e-01
1.587000000000000000e+03 4.133622741699218750e+01 -1.424539661407470703e+01 -1.931554794311523438e+00 9.198983013629913330e-02 -5.518695116043090820e-01 -5.972708463668823242e-01
1.588000000000000000e+03 1.919516372680664062e+01 2.870548486709594727e+00 -6.132111549377441406e-01 1.697751283645629883e-01 -1.330308020114898682e-01 -2.123842090368270874e-01
1.589000000000000000e+03 2.125294113159179688e+01 2.507056951522827148e+00 -3.647822439670562744e-01 1.164781689643859863e+00 2.399998456239700317e-01 7.703896760940551758e-01
1.590000000000000000e+03 3.566868591308593750e+01 -1.619114112854003906e+01 -2.556954383850097656e+00 1.961956620216369629e-01 -7.082276344299316406e-01 -3.683298826217651367e-01
1.591000000000000000e+03 3.197919654846191406e+01 -1.491002941131591797e+01 -2.727144241333007812e+00 3.480537533760070801e-01 -7.137271761894226074e-01 -4.517381489276885986e-01
1.592000000000000000e+03 2.240707778930664062e+01 3.296309232711791992e+00 -3.813996613025665283e-01 1.500690221786499023e+00 3.357871770858764648e-01 1.183654308319091797e+00
1.593000000000000000e+03 2.784322929382324219e+01 -1.315880298614501953e+01 -2.665311098098754883e+00 6.861265301704406738e-01 -5.937554240226745605e-01 -7.027147412300109863e-01
1.594000000000000000e+03 5.874255371093750000e+01 -3.580105304718017578e+00 -9.144763946533203125e-01 3.135085850954055786e-02 -2.649376690387725830e-01 -6.853969693183898926e-01
1.595000000000000000e+03 5.525623321533203125e+01 -6.400794982910156250e+00 -1.773409247398376465e+00 -6.283324211835861206e-02 -5.508727431297302246e-01 -4.981741309165954590e-01
1.596000000000000000e+03 5.150408935546875000e+01 -1.161596393585205078e+01 -2.081983566284179688e+00 -2.511686682701110840e-01 -6.999456882476806641e-01 -9.038718938827514648e-01
1.597000000000000000e+03 4.845237350463867188e+01 -1.171434402465820312e+01 -1.850929498672485352e+00 -7.585406303405761719e-02 -5.780350565910339355e-01 -7.280517816543579102e-01
1.598000000000000000e+03 3.432754898071289062e+01 -1.502334308624267578e+01 -2.427532434463500977e+00 2.635714113712310791e-01 -6.491883397102355957e-01 -4.738353788852691650e-01
1.599000000000000000e+03 3.691841125488281250e+01 -1.615321731567382812e+01 -2.412058115005493164e+00 1.542599201202392578e-01 -6.773394346237182617e-01 -4.311579763889312744e-01
1.600000000000000000e+03 4.726698684692382812e+01 -1.222329425811767578e+01 -1.821231722831726074e+00 -6.455048173666000366e-02 -5.657346248626708984e-01 -7.152788639068603516e-01
1.601000000000000000e+03 4.789659881591796875e+01 -1.331132316589355469e+01 -1.964624404907226562e+00 -1.143840774893760681e-01 -6.237025260925292969e-01 -7.954562902450561523e-01
1.602000000000000000e+03 1.122684669494628906e+01 1.504611873626708984e+01 2.335545420646667480e-01 4.955974519252777100e-01 2.187455892562866211e-01 8.036779612302780151e-02
1.603000000000000000e+03 1.429283905029296875e+01 5.418946266174316406e+00 -1.745444983243942261e-01 7.074522972106933594e-01 1.598723530769348145e-01 -1.083381772041320801e-01
1.604000000000000000e+03 1.203180027008056641e+01 4.775295734405517578e+00 -1.817386150360107422e-01 3.803986608982086182e-01 5.959801003336906433e-02 1.270811706781387329e-01
1.605000000000000000e+03 2.342311286926269531e+01 -1.394336414337158203e+01 -5.325283527374267578e+00 7.674582004547119141e-01 -1.367347598075866699e+00 6.391696333885192871e-01
1.606000000000000000e+03 5.665476799011230469e+00 -1.479289340972900391e+01 2.568034648895263672e+00 2.749809741973876953e+00 1.595353364944458008e+00 9.258517026901245117e-01
1.607000000000000000e+03 1.725755310058593750e+01 -1.074635124206542969e+01 -1.816725730895996094e+00 -1.148975491523742676e+00 -8.897103667259216309e-01 3.726877212524414062e+00
1.608000000000000000e+03 4.545981979370117188e+01 -1.427518272399902344e+01 -1.936086177825927734e+00 -9.553559869527816772e-02 -6.094865202903747559e-01 -7.085074186325073242e-01
1.609000000000000000e+03 4.250408172607421875e+01 -1.393221473693847656e+01 -1.887033462524414062e+00 5.809611827135086060e-02 -5.486811995506286621e-01 -6.020658612251281738e-01
1.610000000000000000e+03 1.020899295806884766e+01 4.873695850372314453e+00 -1.259799003601074219e-01 1.750500947237014771e-01 1.472105924040079117e-02 2.335394918918609619e-01
1.611000000000000000e+03 1.262165355682373047e+01 8.621787071228027344e+00 2.656654417514801025e-01 8.043306469917297363e-01 3.209988176822662354e-01 6.792365014553070068e-02
1.612000000000000000e+03 2.318937492370605469e+01 3.064591884613037109e+00 -3.109605610370635986e-01 2.195976018905639648e+00 5.655046701431274414e-01 1.414529919624328613e+00
1.613000000000000000e+03 2.404679298400878906e+01 2.946663141250610352e+00 -2.604067325592041016e-01 2.434581995010375977e+00 6.522526144981384277e-01 1.515090823173522949e+00
1.614000000000000000e+03 5.016979980468750000e+01 -9.630125999450683594e+00 -1.757645249366760254e+00 -4.925619065761566162e-02 -5.420704483985900879e-01 -6.289086341857910156e-01
1.615000000000000000e+03 4.433711624145507812e+01 -1.204256916046142578e+01 -1.653909087181091309e+00 2.585089579224586487e-02 -4.884174764156341553e-01 -6.049315929412841797e-01
1.616000000000000000e+03 3.669391632080078125e+01 -1.497470951080322266e+01 -2.210063695907592773e+00 1.994278281927108765e-01 -6.031907796859741211e-01 -5.143375396728515625e-01
1.617000000000000000e+03 5.414433288574218750e+01 -8.752359390258789062e+00 -2.129193782806396484e+00 -1.863096505403518677e-01 -6.946510672569274902e-01 -7.815310955047607422e-01
1.618000000000000000e+03 2.284739112854003906e+01 -1.261585998535156250e+01 -4.053600311279296875e+00 1.406845688819885254e+00 -7.940264940261840820e-01 1.445283442735671997e-01
1.619000000000000000e+03 1.522630214691162109e+01 -1.022958469390869141e+01 -2.452774718403816223e-02 -2.352007627487182617e+00 -7.129606008529663086e-01 3.850991010665893555e+00
1.620000000000000000e+03 1.431113338470458984e+01 -1.001802062988281250e+01 7.232207655906677246e-01 -2.433139801025390625e+00 -5.129756927490234375e-01 4.259775638580322266e+00
1.621000000000000000e+03 3.815933609008789062e+01 -1.605805015563964844e+01 -2.312943935394287109e+00 1.348061561584472656e-01 -6.534413695335388184e-01 -4.851166903972625732e-01
1.622000000000000000e+03 2.968879699707031250e+01 -1.463295841217041016e+01 -3.103388071060180664e+00 4.584169685840606689e-01 -7.934913635253906250e-01 -4.096885025501251221e-01
1.623000000000000000e+03 2.857036781311035156e+01 -1.441195011138916016e+01 -3.272190809249877930e+00 5.322576165199279785e-01 -8.219799399375915527e-01 -3.829274475574493408e-01
1.624000000000000000e+03 1.721270561218261719e+01 3.613623142242431641e+00 -6.927357912063598633e-01 4.174016118049621582e-01 -8.260025829076766968e-02 -4.521896839141845703e-01
1.625000000000000000e+03 6.630429840087890625e+01 -2.339221763610839844e+01 -8.821076154708862305e-01 5.822780132293701172e+00 1.482201695442199707e+00 8.435524702072143555e-01
1.626000000000000000e+03 6.037702941894531250e+01 -2.578342628479003906e+01 -8.684402704238891602e-01 8.135575652122497559e-01 -1.646480336785316467e-02 2.190013416111469269e-02
1.627000000000000000e+03 3.314931488037109375e+01 -1.498698616027832031e+01 -2.581297874450683594e+00 3.138513565063476562e-01 -6.802339553833007812e-01 -4.580054879188537598e-01
1.628000000000000000e+03 2.706054496765136719e+01 -3.528219604492187500e+01 -1.879616230726242065e-01 7.240046560764312744e-02 -3.466834872961044312e-02 -1.368788164108991623e-02
1.629000000000000000e+03 1.782792472839355469e+01 -1.152990245819091797e+01 -3.356352090835571289e+00 -8.499609231948852539e-01 -1.261893987655639648e+00 3.486562728881835938e+00
1.630000000000000000e+03 5.277198410034179688e+01 4.126751899719238281e+00 7.537754178047180176e-01 4.200286269187927246e-01 3.521412014961242676e-01 9.772529453039169312e-02
1.631000000000000000e+03 7.534590911865234375e+01 1.420230865478515625e+01 3.472479060292243958e-02 6.754317283630371094e+00 2.036712646484375000e+00 -4.925669133663177490e-01
1.632000000000000000e+03 7.575804901123046875e+01 1.068742722272872925e-01 -4.817080199718475342e-01 8.226415634155273438e+00 2.323412418365478516e+00 4.362222850322723389e-01
1.633000000000000000e+03 7.491829681396484375e+01 -1.577567863464355469e+01 3.870759904384613037e-01 8.997870445251464844e+00 2.815483808517456055e+00 -1.682093143463134766e+00
1.634000000000000000e+03 7.525717926025390625e+01 -1.363874626159667969e+01 1.094791889190673828e+00 8.783086776733398438e+00 2.963363647460937500e+00 -1.228861570358276367e+00
1.635000000000000000e+03 7.699185180664062500e+01 -6.889906883239746094e+00 3.025833070278167725e-01 7.129015922546386719e+00 2.229479789733886719e+00 1.050432324409484863e+00
1.636000000000000000e+03 7.580720520019531250e+01 -6.965188026428222656e+00 3.922899961471557617e-01 8.185579299926757812e+00 2.573360681533813477e+00 1.186366677284240723e+00
1.637000000000000000e+03 7.553659820556640625e+01 -4.191235065460205078e+00 -2.976104915142059326e-01 8.556255340576171875e+00 2.477593421936035156e+00 1.293586969375610352e+00
1.638000000000000000e+03 7.354498291015625000e+01 -1.186720085144042969e+01 2.106986045837402344e+00 1.039847850799560547e+01 3.751639366149902344e+00 -8.202574849128723145e-01
1.639000000000000000e+03 7.536208343505859375e+01 -1.480477142333984375e+01 4.618176221847534180e-01 8.808526039123535156e+00 2.781103134155273438e+00 -1.577300071716308594e+00
1.640000000000000000e+03 7.659248352050781250e+01 -1.204561901092529297e+01 7.706074714660644531e-01 7.274781703948974609e+00 2.413616657257080078e+00 -4.938493072986602783e-01
1.641000000000000000e+03 7.480311584472656250e+01 -8.358128547668457031e+00 1.099601268768310547e+00 8.984670639038085938e+00 3.025281429290771484e+00 8.441077470779418945e-01
1.642000000000000000e+03 7.562770843505859375e+01 -2.705654859542846680e+00 -4.444009065628051758e-01 8.487525939941406250e+00 2.412937641143798828e+00 9.861470460891723633e-01
1.643000000000000000e+03 7.684414672851562500e+01 1.537703514099121094e+00 -2.618253231048583984e-01 8.121504783630371094e+00 2.357903957366943359e+00 2.519852221012115479e-01
1.644000000000000000e+03 7.566757965087890625e+01 1.515484333038330078e+00 -4.835540950298309326e-01 8.136440277099609375e+00 2.295865774154663086e+00 2.578763961791992188e-01
1.645000000000000000e+03 7.544738006591796875e+01 7.225678443908691406e+00 -1.566750705242156982e-01 7.447821140289306641e+00 2.187343835830688477e+00 -4.058763682842254639e-01
1.646000000000000000e+03 7.573263549804687500e+01 -1.918850135803222656e+01 -2.120604515075683594e-01 9.047162055969238281e+00 2.650530576705932617e+00 -1.568194150924682617e+00
1.647000000000000000e+03 7.255113220214843750e+01 3.137900924682617188e+01 8.598974347114562988e-02 5.422182083129882812e+00 1.652451515197753906e+00 -2.197094559669494629e-01
1.648000000000000000e+03 7.572464752197265625e+01 3.387863540649414062e+01 2.494767494499683380e-02 5.785161018371582031e+00 1.743032574653625488e+00 -1.129607185721397400e-01
1.649000000000000000e+03 7.624298095703125000e+01 3.234439086914062500e+01 1.652410812675952911e-02 5.884336471557617188e+00 1.770258188247680664e+00 -1.237605810165405273e-01
1.650000000000000000e+03 7.550346374511718750e+01 4.387093067169189453e+00 -3.151333332061767578e-01 7.782356739044189453e+00 2.240167140960693359e+00 -1.806094944477081299e-01
1.651000000000000000e+03 7.544470977783203125e+01 5.814440727233886719e+00 -2.293608486652374268e-01 7.624389171600341797e+00 2.218508481979370117e+00 -3.499337434768676758e-01
1.652000000000000000e+03 7.445234680175781250e+01 2.880556821823120117e+00 -5.632351040840148926e-01 7.878236293792724609e+00 2.194500446319580078e+00 -1.492539346218109131e-01
1.653000000000000000e+03 7.359246826171875000e+01 -2.010645866394042969e+01 -6.284253597259521484e-01 9.539782524108886719e+00 2.673407316207885742e+00 -1.481757164001464844e+00
1.654000000000000000e+03 7.684649658203125000e+01 -1.785918235778808594e+01 -2.725670486688613892e-02 8.299412727355957031e+00 2.481646776199340820e+00 -1.424357533454895020e+00
1.655000000000000000e+03 7.672396087646484375e+01 8.570035934448242188e+00 -5.862667784094810486e-02 7.604958057403564453e+00 2.263899564743041992e+00 -3.295393586158752441e-01
1.656000000000000000e+03 7.544954681396484375e+01 1.002650451660156250e+01 -4.089856892824172974e-02 7.152929306030273438e+00 2.133609294891357422e+00 -4.888509511947631836e-01
1.657000000000000000e+03 7.541533660888671875e+01 1.141559123992919922e+01 -6.962034851312637329e-03 7.014748573303222656e+00 2.102335929870605469e+00 -5.109973549842834473e-01
1.658000000000000000e+03 7.422114562988281250e+01 1.006171894073486328e+01 -4.503332450985908508e-02 6.858021259307861328e+00 2.043896436691284180e+00 -6.238491535186767578e-01
1.659000000000000000e+03 7.663378143310546875e+01 1.695627212524414062e+01 3.564809262752532959e-02 6.770885944366455078e+00 2.041960239410400391e+00 -3.297359049320220947e-01
1.660000000000000000e+03 7.528690338134765625e+01 1.845442771911621094e+01 6.000390648841857910e-02 6.400856494903564453e+00 1.938258171081542969e+00 -4.071661233901977539e-01
1.661000000000000000e+03 7.533655548095703125e+01 2.111847686767578125e+01 6.965485215187072754e-02 6.259886264801025391e+00 1.898862242698669434e+00 -3.503941595554351807e-01
1.662000000000000000e+03 7.529846954345703125e+01 1.981492424011230469e+01 4.840783774852752686e-02 6.322417259216308594e+00 1.911247491836547852e+00 -3.718770146369934082e-01
1.663000000000000000e+03 7.388438415527343750e+01 1.718071746826171875e+01 9.624230116605758667e-02 6.214793205261230469e+00 1.893310666084289551e+00 -5.315044522285461426e-01
1.664000000000000000e+03 7.531346893310546875e+01 -2.504519844055175781e+01 -4.307097494602203369e-01 9.324666976928710938e+00 2.668187141418457031e+00 -7.815709710121154785e-01
1.665000000000000000e+03 7.649782562255859375e+01 2.247333526611328125e+01 3.757030889391899109e-02 6.336773395538330078e+00 1.912303090095520020e+00 -2.445981949567794800e-01
1.666000000000000000e+03 7.545781707763671875e+01 -2.360247802734375000e+01 -4.413111209869384766e-01 9.290511131286621094e+00 2.654760122299194336e+00 -9.833772182464599609e-01
1.667000000000000000e+03 7.520085906982421875e+01 -2.651953315734863281e+01 -3.454121947288513184e-01 9.296064376831054688e+00 2.685195684432983398e+00 -5.955539345741271973e-01
1.668000000000000000e+03 7.664270782470703125e+01 -2.506731033325195312e+01 -2.255340367555618286e-01 9.562479019165039062e+00 2.801083564758300781e+00 -6.977981925010681152e-01
1.669000000000000000e+03 7.549246215820312500e+01 -2.213453102111816406e+01 -4.403602182865142822e-01 9.295428276062011719e+00 2.656520366668701172e+00 -1.207251667976379395e+00
1.670000000000000000e+03 7.637918853759765625e+01 2.391213607788085938e+01 3.195876628160476685e-02 6.239465236663818359e+00 1.881427168846130371e+00 -2.273708879947662354e-01
1.671000000000000000e+03 7.336446380615234375e+01 2.406601142883300781e+01 9.685304015874862671e-02 5.802116394042968750e+00 1.769690871238708496e+00 -3.751462399959564209e-01
1.672000000000000000e+03 7.643620300292968750e+01 2.694505691528320312e+01 1.865592971444129944e-02 6.090685367584228516e+00 1.832802295684814453e+00 -1.776001155376434326e-01
1.673000000000000000e+03 7.507596588134765625e+01 2.720973014831542969e+01 4.718950763344764709e-02 5.896293163299560547e+00 1.783044815063476562e+00 -2.281036972999572754e-01
1.674000000000000000e+03 7.667783355712890625e+01 2.967475128173828125e+01 1.256828941404819489e-02 6.025489807128906250e+00 1.811417460441589355e+00 -1.409175992012023926e-01
1.675000000000000000e+03 7.522000122070312500e+01 2.872734451293945312e+01 3.902406245470046997e-02 5.854534149169921875e+00 1.768067359924316406e+00 -1.972486823797225952e-01
1.676000000000000000e+03 7.298635101318359375e+01 -3.495093917846679688e+01 -9.242942929267883301e-02 8.237005233764648438e+00 2.443372726440429688e+00 2.809772640466690063e-02
1.677000000000000000e+03 7.589836120605468750e+01 -3.670099639892578125e+01 -1.027691960334777832e-01 9.792387008666992188e+00 2.906885147094726562e+00 -5.088979005813598633e-02
1.678000000000000000e+03 7.381584930419921875e+01 -2.942215538024902344e+01 -3.836718201637268066e-01 8.770953178405761719e+00 2.516184568405151367e+00 -2.768010199069976807e-01
1.679000000000000000e+03 7.542638397216796875e+01 -3.253093338012695312e+01 -1.467919796705245972e-01 9.393683433532714844e+00 2.774067401885986328e+00 -1.007026210427284241e-01
1.680000000000000000e+03 7.591967010498046875e+01 -3.474684143066406250e+01 -1.195568069815635681e-01 9.588211059570312500e+00 2.840596199035644531e+00 -5.490571260452270508e-02
1.681000000000000000e+03 7.555942535400390625e+01 3.013752555847167969e+01 3.584986180067062378e-02 5.860866069793701172e+00 1.769014835357666016e+00 -1.582827568054199219e-01
1.682000000000000000e+03 1.982512855529785156e+01 -1.193225193023681641e+01 -4.167742252349853516e+00 6.920951604843139648e-01 -1.042694091796875000e+00 2.018999814987182617e+00
1.683000000000000000e+03 1.423135948181152344e+01 -2.644623184204101562e+01 -2.100466489791870117e-01 1.797560334205627441e+00 4.762541055679321289e-01 -4.947826862335205078e-01
1.684000000000000000e+03 1.683679771423339844e+01 -2.763323974609375000e+01 -7.782310992479324341e-02 1.184458255767822266e+00 3.319905400276184082e-01 -4.103471636772155762e-01
1.685000000000000000e+03 4.082105159759521484e+00 -1.486601352691650391e+01 1.456642746925354004e+00 -1.179593876004219055e-01 4.016050100326538086e-01 7.520401477813720703e-01
1.686000000000000000e+03 4.534473896026611328e+00 2.162536621093750000e+01 -1.034338399767875671e-02 -3.759265840053558350e-01 -1.158809885382652283e-01 -1.345842052251100540e-02
1.687000000000000000e+03 3.217109441757202148e+00 2.026058387756347656e+01 7.874899893067777157e-04 -5.023849606513977051e-01 -1.504792422056198120e-01 -2.355053648352622986e-02
1.688000000000000000e+03 4.690351963043212891e+00 2.309764099121093750e+01 -1.811259239912033081e-02 -3.739537596702575684e-01 -1.176199093461036682e-01 -4.735147114843130112e-03
1.689000000000000000e+03 3.100340604782104492e+00 -1.743943023681640625e+01 3.386839628219604492e-01 -1.181050062179565430e+00 -2.527098357677459717e-01 1.386553049087524414e+00
1.690000000000000000e+03 4.305015087127685547e+00 -1.719195556640625000e+01 6.102226972579956055e-01 7.896055579185485840e-01 4.199484884738922119e-01 1.743149042129516602e+00
1.691000000000000000e+03 4.382669925689697266e+00 -2.170437240600585938e+01 -4.280336797237396240e-01 1.092040657997131348e+00 1.992021054029464722e-01 1.553351998329162598e+00
1.692000000000000000e+03 4.460494041442871094e+00 1.719779396057128906e+01 4.168327897787094116e-02 -3.520674407482147217e-01 -9.311524778604507446e-02 -1.211515744216740131e-03
1.693000000000000000e+03 4.506663799285888672e+00 1.868532943725585938e+01 1.781409233808517456e-02 -3.542439639568328857e-01 -1.009289622306823730e-01 -1.439125090837478638e-02
1.694000000000000000e+03 3.207287788391113281e+00 1.879566764831542969e+01 9.830147959291934967e-03 -5.058521628379821777e-01 -1.488066017627716064e-01 -2.024643495678901672e-02
1.695000000000000000e+03 4.427991390228271484e+00 2.017412185668945312e+01 -1.809454406611621380e-03 -3.755180239677429199e-01 -1.131982430815696716e-01 -1.601764932274818420e-02
1.696000000000000000e+03 6.111057281494140625e+00 2.297323417663574219e+01 -2.851056866347789764e-02 -2.290855646133422852e-01 -7.727883756160736084e-02 5.677246022969484329e-03
1.697000000000000000e+03 4.708531379699707031e+00 2.608617019653320312e+01 -1.816679909825325012e-02 -3.955455124378204346e-01 -1.241136938333511353e-01 1.184794493019580841e-02
1.698000000000000000e+03 4.293417453765869141e+00 3.000230979919433594e+01 -8.755771443247795105e-03 -4.735561311244964600e-01 -1.446935683488845825e-01 2.434318140149116516e-02
1.699000000000000000e+03 4.728454589843750000e+00 -2.795649528503417969e+01 -3.139722347259521484e-01 1.205907106399536133e+00 2.675804793834686279e-01 7.891423106193542480e-01
1.700000000000000000e+03 3.058512449264526367e+00 -2.303456306457519531e+01 -3.070418238639831543e-01 5.615687742829322815e-02 -7.526548206806182861e-02 1.249240279197692871e+00
1.701000000000000000e+03 4.148012161254882812e+00 -2.299502372741699219e+01 -3.875917196273803711e-01 8.291925191879272461e-01 1.324802339076995850e-01 1.387613415718078613e+00
1.702000000000000000e+03 3.030190229415893555e+00 1.453553962707519531e+01 3.897216543555259705e-02 -5.033532381057739258e-01 -1.393143236637115479e-01 3.983053192496299744e-02
1.703000000000000000e+03 4.241030693054199219e+00 1.307270050048828125e+01 8.439975231885910034e-02 -3.586093783378601074e-01 -8.226288855075836182e-02 9.462753683328628540e-02
1.704000000000000000e+03 4.226442337036132812e+00 1.440885448455810547e+01 6.865084171295166016e-02 -3.692743480205535889e-01 -9.018705040216445923e-02 5.212121456861495972e-02
1.705000000000000000e+03 4.760604858398437500e+00 2.459935569763183594e+01 -1.910577714443206787e-02 -3.817923069000244141e-01 -1.202694252133369446e-01 2.606213558465242386e-03
1.706000000000000000e+03 4.588463783264160156e+00 2.750248718261718750e+01 -1.485316548496484756e-02 -4.228334426879882812e-01 -1.313059777021408081e-01 2.015191316604614258e-02
1.707000000000000000e+03 5.049161911010742188e+00 -2.403990554809570312e+01 -5.045284032821655273e-01 1.367055416107177734e+00 2.587580978870391846e-01 1.258204340934753418e+00
1.708000000000000000e+03 4.102207183837890625e+00 -2.421749877929687500e+01 -4.287891983985900879e-01 8.691656589508056641e-01 1.321129351854324341e-01 1.196084856986999512e+00
1.709000000000000000e+03 3.026367664337158203e+00 -2.437636566162109375e+01 -2.221681475639343262e-01 2.320888787508010864e-01 2.976219868287444115e-03 1.075568199157714844e+00
1.710000000000000000e+03 3.864127874374389648e+00 -8.917747497558593750e+00 1.174251437187194824e-01 -2.441688776016235352e-01 -3.802311792969703674e-02 -1.852510213851928711e+00
1.711000000000000000e+03 6.537410259246826172e+00 -1.390419006347656250e+01 3.837910413742065430e+00 5.346491813659667969e+00 2.755320549011230469e+00 4.486377239227294922e-01
1.712000000000000000e+03 3.785274267196655273e+00 -1.284166717529296875e+01 1.357607841491699219e+00 -7.848399877548217773e-01 1.718303710222244263e-01 -7.035254240036010742e-01
1.713000000000000000e+03 3.571367979049682617e+00 -2.970879745483398438e+01 -1.493664532899856567e-01 1.049140453338623047e+00 2.699322104454040527e-01 5.528712272644042969e-01
1.714000000000000000e+03 4.978203296661376953e+00 -2.931004714965820312e+01 -3.505679070949554443e-01 1.323206901550292969e+00 2.917917072772979736e-01 6.713400483131408691e-01
1.715000000000000000e+03 6.835763931274414062e+00 1.331526756286621094e+01 1.718921661376953125e-01 -8.822967112064361572e-02 2.509874850511550903e-02 1.090317517518997192e-01
1.716000000000000000e+03 5.335635185241699219e+00 3.212909317016601562e+01 2.785661723464727402e-03 -4.142028689384460449e-01 -1.234251633286476135e-01 3.589904680848121643e-02
1.717000000000000000e+03 5.696202754974365234e+00 3.569102859497070312e+01 1.566606014966964722e-02 -4.109447598457336426e-01 -1.185836046934127808e-01 4.059233516454696655e-02
1.718000000000000000e+03 4.716504573822021484e+00 -1.383689022064208984e+01 2.334728717803955078e+00 1.128322243690490723e+00 1.038915276527404785e+00 6.757854670286178589e-02
1.719000000000000000e+03 4.226841449737548828e+00 1.175004005432128906e+01 8.302094787359237671e-02 -3.372134268283843994e-01 -7.625774294137954712e-02 1.393798887729644775e-01
1.720000000000000000e+03 5.626423835754394531e+00 -6.806853771209716797e+00 -5.444048047065734863e-01 1.315454483032226562e+00 2.313149124383926392e-01 -1.246728301048278809e+00
1.721000000000000000e+03 5.157780170440673828e+00 -3.072971153259277344e+01 -2.569984197616577148e-01 1.339839458465576172e+00 3.248523175716400146e-01 5.343088507652282715e-01
1.722000000000000000e+03 3.751038789749145508e+00 -3.107454681396484375e+01 -1.881239712238311768e-01 1.194028854370117188e+00 3.017714619636535645e-01 4.747857749462127686e-01
1.723000000000000000e+03 4.434006690979003906e+00 2.881230163574218750e+01 -1.172107458114624023e-02 -4.509199559688568115e-01 -1.387923061847686768e-01 2.332049049437046051e-02
1.724000000000000000e+03 5.060483455657958984e+00 3.428910064697265625e+01 5.189535673707723618e-03 -4.422869980335235596e-01 -1.311292350292205811e-01 3.177726641297340393e-02
1.725000000000000000e+03 4.301150798797607422e+00 3.317728424072265625e+01 3.007417079061269760e-03 -4.920678436756134033e-01 -1.467181295156478882e-01 2.718457393348217010e-02
1.726000000000000000e+03 4.510062694549560547e+00 3.109267425537109375e+01 -3.966928459703922272e-03 -4.634409248828887939e-01 -1.402223557233810425e-01 3.063062392175197601e-02
1.727000000000000000e+03 4.123013496398925781e+00 9.026556968688964844e+00 6.906167417764663696e-02 -2.775588929653167725e-01 -6.254916638135910034e-02 2.222003787755966187e-01
1.728000000000000000e+03 3.178514719009399414e+00 -5.167272090911865234e+00 -3.680804073810577393e-01 -3.654094636440277100e-01 -2.200469672679901123e-01 -1.205418586730957031e+00
1.729000000000000000e+03 3.735818624496459961e+00 5.289976596832275391e+00 -2.880674973130226135e-02 -1.741248816251754761e-01 -6.087949126958847046e-02 2.425166219472885132e-01
1.730000000000000000e+03 3.469304800033569336e+00 -6.595763683319091797e+00 -3.572782278060913086e-01 -3.688933849334716797e-01 -2.178514748811721802e-01 -1.490487456321716309e+00
1.731000000000000000e+03 6.542704010009765625e+01 -2.464431190490722656e+01 -8.675748109817504883e-01 5.036054134368896484e+00 1.250543713569641113e+00 7.689085602760314941e-01
1.732000000000000000e+03 6.191002368927001953e+00 -3.607603836059570312e+01 -1.735113412141799927e-01 1.423466444015502930e+00 3.749865293502807617e-01 2.249546349048614502e-01
1.733000000000000000e+03 5.519821548461914062e+01 -8.055512428283691406e+00 -2.195411443710327148e+00 -1.878221184015274048e-01 -7.149700522422790527e-01 -7.608211636543273926e-01
1.734000000000000000e+03 5.819422149658203125e+01 -7.479443550109863281e+00 -2.670083045959472656e+00 -3.982852697372436523e-01 -9.205104708671569824e-01 -1.008319854736328125e+00
1.735000000000000000e+03 5.569738388061523438e+01 -3.200459671020507812e+01 -3.275388479232788086e-01 1.311084181070327759e-01 -5.892912670969963074e-02 -1.819972395896911621e-01
1.736000000000000000e+03 5.808237838745117188e+01 -3.322367477416992188e+01 -2.785355411469936371e-02 1.025045752525329590e+00 2.991576492786407471e-01 1.213869005441665649e-01
1.737000000000000000e+03 5.306454467773437500e+01 -9.409603118896484375e+00 -2.066906213760375977e+00 -1.782750189304351807e-01 -6.735543608665466309e-01 -7.808397412300109863e-01
1.738000000000000000e+03 5.556041336059570312e+01 -3.372105789184570312e+01 -2.460877783596515656e-02 2.805392444133758545e-01 7.677914202213287354e-02 -1.137771382927894592e-01
1.739000000000000000e+03 6.448861598968505859e+00 -1.587503814697265625e+01 1.925306677818298340e+00 4.917010784149169922e+00 2.052695274353027344e+00 1.514269351959228516e+00
1.740000000000000000e+03 6.207035064697265625e+01 -3.210414409637451172e+00 -4.168609678745269775e-01 4.527056217193603516e-01 1.075339317321777344e-02 -1.569031119346618652e+00
1.741000000000000000e+03 4.912303924560546875e+01 2.701213836669921875e+00 6.359840035438537598e-01 1.869543641805648804e-01 2.468815147876739502e-01 8.830315619707107544e-02
1.742000000000000000e+03 4.805997467041015625e+01 3.576578140258789062e+00 7.127918004989624023e-01 1.960684210062026978e-01 2.726580798625946045e-01 8.330759406089782715e-02
1.743000000000000000e+03 9.104281425476074219e+00 -2.156734657287597656e+01 -6.200303435325622559e-01 4.293325424194335938e+00 1.101988554000854492e+00 -3.397103771567344666e-02
1.744000000000000000e+03 2.064717864990234375e+01 -3.130691337585449219e+01 -1.809306293725967407e-01 5.563802123069763184e-01 1.126348674297332764e-01 -2.206919342279434204e-01
1.745000000000000000e+03 2.034603500366210938e+01 -3.492558670043945312e+01 -2.299082279205322266e-01 6.767798066139221191e-01 1.340614855289459229e-01 -1.615567356348037720e-01
1.746000000000000000e+03 1.543244934082031250e+01 2.839390516281127930e+00 -5.167855024337768555e-01 4.758455753326416016e-01 -1.228197384625673294e-02 -3.544976115226745605e-01
1.747000000000000000e+03 1.402085876464843750e+01 4.431583404541015625e+00 -3.493704795837402344e-01 5.716043710708618164e-01 6.667015701532363892e-02 -9.493392705917358398e-02
1.748000000000000000e+03 5.388113784790039062e+01 4.747475147247314453e+00 7.484573721885681152e-01 6.419181227684020996e-01 4.171126484870910645e-01 9.886870533227920532e-02
1.749000000000000000e+03 5.619944000244140625e+01 2.909607648849487305e+00 4.422598779201507568e-01 9.151201844215393066e-01 4.072140157222747803e-01 -2.878037393093109131e-01
1.750000000000000000e+03 1.790070152282714844e+01 -2.885433197021484375e+01 -1.198746636509895325e-01 9.309905171394348145e-01 2.433347553014755249e-01 -3.775908052921295166e-01
1.751000000000000000e+03 4.287220001220703125e+01 6.699983119964599609e+00 5.267467498779296875e-01 5.842344164848327637e-01 3.332943618297576904e-01 3.673052415251731873e-02
1.752000000000000000e+03 4.254929351806640625e+01 4.465268611907958984e+00 5.934446454048156738e-01 4.371317327022552490e-01 3.091729283332824707e-01 1.519505232572555542e-01
1.753000000000000000e+03 1.105922317504882812e+01 1.273563861846923828e+01 3.310432732105255127e-01 5.151056647300720215e-01 2.538446784019470215e-01 1.317425221204757690e-01
1.754000000000000000e+03 4.153842926025390625e+01 8.183816909790039062e+00 3.065490126609802246e-01 1.042087554931640625e+00 4.045909643173217773e-01 2.242190092802047729e-01
1.755000000000000000e+03 1.074921703338623047e+01 1.053472995758056641e+01 3.003718256950378418e-01 4.660216271877288818e-01 2.299180328845977783e-01 1.847527176141738892e-01
1.756000000000000000e+03 5.861856079101562500e+01 1.159541130065917969e+01 5.957778096199035645e-01 3.125718116760253906e+00 1.116448760032653809e+00 -7.066385149955749512e-01
1.757000000000000000e+03 3.014699363708496094e+01 -3.574423599243164062e+01 -1.977307349443435669e-01 8.113286457955837250e-03 -5.688523501157760620e-02 2.983561903238296509e-02
1.758000000000000000e+03 6.239143753051757812e+01 -2.628069877624511719e+01 -7.259129881858825684e-01 2.431828975677490234e+00 5.117748379707336426e-01 4.767619371414184570e-01
1.759000000000000000e+03 5.887903594970703125e+01 -3.049729347229003906e+01 -4.057121276855468750e-01 1.001809358596801758e+00 1.788291633129119873e-01 1.376261860132217407e-01
1.760000000000000000e+03 4.542890167236328125e+01 -3.783655166625976562e+01 3.342433046782389283e-05 -3.903371393680572510e-01 -1.170911192893981934e-01 -2.204958200454711914e-01
1.761000000000000000e+03 3.789054489135742188e+01 -3.495549011230468750e+01 -3.101878464221954346e-01 -9.260240942239761353e-02 -1.208370774984359741e-01 -5.809119343757629395e-02
1.762000000000000000e+03 3.825439834594726562e+01 -4.097950744628906250e+01 -1.154980510473251343e-01 -2.241101861000061035e-01 -1.018824726343154907e-01 -9.012424387037754059e-03
1.763000000000000000e+03 2.677324485778808594e+01 1.455347728729248047e+01 -4.366591870784759521e-01 1.469588518142700195e+00 3.098788261413574219e-01 4.296145737171173096e-01
1.764000000000000000e+03 5.577241516113281250e+01 -3.604322433471679688e+01 3.003273904323577881e-01 5.572226047515869141e-01 2.572650015354156494e-01 -5.824568495154380798e-02
1.765000000000000000e+03 6.461880493164062500e+01 -4.671601772308349609e+00 -1.978626251220703125e-01 9.570689797401428223e-01 2.277618944644927979e-01 -3.240290641784667969e+00
1.766000000000000000e+03 7.122769927978515625e+01 -9.260632514953613281e+00 3.048590660095214844e+00 1.279553318023681641e+01 4.753237247467041016e+00 5.856525897979736328e-01
1.767000000000000000e+03 7.099385833740234375e+01 -8.048210144042968750e+00 1.998441576957702637e+00 1.362951850891113281e+01 4.688388347625732422e+00 5.517652630805969238e-01
1.768000000000000000e+03 5.206848144531250000e+01 -3.636834716796875000e+01 1.967352926731109619e-01 -1.810759752988815308e-01 4.697798285633325577e-03 -2.516906261444091797e-01
1.769000000000000000e+03 7.264792633056640625e+01 -1.790869903564453125e+01 -3.122852742671966553e-01 1.041236114501953125e+01 3.030022621154785156e+00 -1.403132557868957520e+00
1.770000000000000000e+03 7.154987335205078125e+01 -1.535042476654052734e+01 6.148538589477539062e-01 1.220781517028808594e+01 3.846800804138183594e+00 -1.146581768989562988e+00
1.771000000000000000e+03 4.372115707397460938e+01 5.514758110046386719e+00 6.388573646545410156e-01 3.630477488040924072e-01 3.005715310573577881e-01 -7.179655600339174271e-03
1.772000000000000000e+03 6.947447967529296875e+01 -5.761978149414062500e+00 -8.707402944564819336e-01 1.302158641815185547e+01 3.645253896713256836e+00 -1.213003277778625488e+00
1.773000000000000000e+03 6.761035919189453125e+01 -2.976975202560424805e+00 -1.818484544754028320e+00 7.751125812530517578e+00 1.779792428016662598e+00 -3.126394271850585938e+00
1.774000000000000000e+03 5.335906505584716797e+00 -2.504693412780761719e+01 -5.512265563011169434e-01 1.504109621047973633e+00 2.858649194240570068e-01 1.096746921539306641e+00
1.775000000000000000e+03 1.009455299377441406e+01 -2.270409393310546875e+01 -4.948473870754241943e-01 3.475860595703125000e+00 8.943039774894714355e-01 -2.992208898067474365e-01
1.776000000000000000e+03 5.890332031250000000e+01 1.428756332397460938e+01 8.151273727416992188e-01 3.411621570587158203e+00 1.268024682998657227e+00 -7.692390680313110352e-01
1.777000000000000000e+03 6.870364379882812500e+01 -1.793271064758300781e+01 -3.138076961040496826e-01 1.095381355285644531e+01 3.192001581192016602e+00 9.494782090187072754e-01
1.778000000000000000e+03 7.347267150878906250e+01 -1.650045013427734375e+01 2.862512767314910889e-01 1.035225200653076172e+01 3.191550970077514648e+00 -1.624337315559387207e+00
1.779000000000000000e+03 6.151303863525390625e+01 -4.192193508148193359e+00 -1.167883396148681641e+00 8.507620543241500854e-02 -3.248421549797058105e-01 -1.252835273742675781e+00
1.780000000000000000e+03 6.036353302001953125e+01 -3.444674253463745117e+00 -7.162346839904785156e-01 8.302959054708480835e-02 -1.899615377187728882e-01 -1.005269765853881836e+00
1.781000000000000000e+03 6.872777557373046875e+01 -1.994663238525390625e+01 -8.414547443389892578e-01 9.360673904418945312e+00 2.555765867233276367e+00 5.030621886253356934e-01
1.782000000000000000e+03 7.650269317626953125e+01 3.921881103515625000e+01 1.360550988465547562e-02 5.885751247406005859e+00 1.769807100296020508e+00 -3.754365444183349609e-02
1.783000000000000000e+03 7.463385009765625000e+01 3.822990036010742188e+01 2.767625264823436737e-02 5.555577754974365234e+00 1.674976229667663574e+00 -3.203990310430526733e-02
1.784000000000000000e+03 7.097663116455078125e+01 -1.899482154846191406e+01 -7.559650540351867676e-01 1.033225917816162109e+01 2.872888088226318359e+00 -9.151296615600585938e-01
1.785000000000000000e+03 4.515927505493164062e+01 2.415596771240234375e+01 6.777409911155700684e-01 1.525121808052062988e+00 6.608588695526123047e-01 5.140866041183471680e-01
1.786000000000000000e+03 8.035786628723144531e+00 -1.819590377807617188e+01 2.570702433586120605e-01 6.103195667266845703e+00 1.908079743385314941e+00 7.666804194450378418e-01
1.787000000000000000e+03 6.949372768402099609e+00 -1.931967353820800781e+01 -1.771951317787170410e-01 4.194492816925048828e+00 1.205189347267150879e+00 1.152967810630798340e+00
1.788000000000000000e+03 2.608652877807617188e+01 1.636637306213378906e+01 -4.086810648441314697e-01 1.014334797859191895e+00 1.816961169242858887e-01 2.073608636856079102e-01
1.789000000000000000e+03 2.446175575256347656e+01 1.996020889282226562e+01 -1.298196893185377121e-02 4.789417684078216553e-01 1.397879421710968018e-01 1.352861225605010986e-01
1.790000000000000000e+03 2.578108406066894531e+01 4.236209392547607422e+00 1.180304735898971558e-01 2.758610963821411133e+00 8.629924058914184570e-01 1.188881993293762207e+00
1.791000000000000000e+03 2.746901130676269531e+01 -1.409800529479980469e+01 -3.471317529678344727e+00 6.227207183837890625e-01 -8.545790314674377441e-01 -3.581658601760864258e-01
1.792000000000000000e+03 2.640700340270996094e+01 -1.364995193481445312e+01 -3.524524450302124023e+00 8.061508536338806152e-01 -8.155121207237243652e-01 -3.813197612762451172e-01
1.793000000000000000e+03 5.963534164428710938e+01 1.107416152954101562e+01 5.467882752418518066e-01 3.214323759078979492e+00 1.128333568572998047e+00 -8.519408106803894043e-01
1.794000000000000000e+03 2.213350677490234375e+01 2.173821449279785156e+01 1.124195531010627747e-01 2.717077136039733887e-01 1.152381747961044312e-01 2.847445905208587646e-01
1.795000000000000000e+03 2.120746994018554688e+01 2.036710739135742188e+01 6.490207463502883911e-02 1.202644780278205872e-01 5.554996430873870850e-02 3.428216874599456787e-01
1.796000000000000000e+03 7.195104980468750000e+01 -1.153100872039794922e+01 2.753647089004516602e+00 1.270234775543212891e+01 4.636798381805419922e+00 -6.345628499984741211e-01
1.797000000000000000e+03 7.274404907226562500e+01 -1.004970264434814453e+01 2.502943277359008789e+00 1.104047870635986328e+01 4.063026428222656250e+00 3.922787606716156006e-01
1.798000000000000000e+03 2.533757591247558594e+01 1.799388694763183594e+01 -2.353389710187911987e-01 6.932055354118347168e-01 1.373599618673324585e-01 1.022564619779586792e-01
1.799000000000000000e+03 1.784477806091308594e+01 -3.521942138671875000e+01 -3.039221763610839844e-01 9.313432574272155762e-01 1.882263273000717163e-01 -1.191956326365470886e-01
1.800000000000000000e+03 1.125117015838623047e+01 1.746235275268554688e+01 6.766276061534881592e-02 4.497653245925903320e-01 1.552284210920333862e-01 7.066429406404495239e-02
1.801000000000000000e+03 7.257170867919921875e+01 -1.446714591979980469e+01 1.156710982322692871e+00 1.108549976348876953e+01 3.672663211822509766e+00 -1.494870185852050781e+00
1.802000000000000000e+03 5.568909835815429688e+01 2.317952537536621094e+01 5.820222496986389160e-01 2.645238161087036133e+00 9.681780934333801270e-01 -6.687619686126708984e-01
1.803000000000000000e+03 5.405670547485351562e+01 2.278155136108398438e+01 7.038471102714538574e-01 2.193011045455932617e+00 8.690574169158935547e-01 -6.887185573577880859e-01
1.804000000000000000e+03 5.078647994995117188e+01 2.324135208129882812e+01 9.021719694137573242e-01 1.464711904525756836e+00 7.100651860237121582e-01 -1.730456352233886719e-01
1.805000000000000000e+03 3.731085205078125000e+01 1.352536392211914062e+01 6.204163432121276855e-01 1.548116326332092285e+00 6.505598425865173340e-01 9.397563934326171875e-01
1.806000000000000000e+03 7.248349761962890625e+01 -8.912067413330078125e+00 2.189783334732055664e+00 1.143095207214355469e+01 4.086220741271972656e+00 4.553637802600860596e-01
1.807000000000000000e+03 3.003684616088867188e+01 8.629037857055664062e+00 8.131524324417114258e-01 1.789207577705383301e+00 7.807080149650573730e-01 1.122112751007080078e+00
1.808000000000000000e+03 2.776985359191894531e+01 1.728012084960937500e+01 -2.340270727872848511e-01 1.248787522315979004e+00 3.044281303882598877e-01 3.305930197238922119e-01
1.809000000000000000e+03 1.497288417816162109e+01 -2.730578613281250000e+01 -1.954759061336517334e-01 1.590842604637145996e+00 4.186100363731384277e-01 -3.999685347080230713e-01
1.810000000000000000e+03 4.500839996337890625e+01 2.198665046691894531e+01 6.671773791313171387e-01 1.475744843482971191e+00 6.428766846656799316e-01 7.180569171905517578e-01
1.811000000000000000e+03 1.719830894470214844e+01 1.960597419738769531e+01 -9.388515353202819824e-02 4.762563407421112061e-01 1.147113591432571411e-01 5.169958472251892090e-01
1.812000000000000000e+03 4.027949523925781250e+01 1.168660354614257812e+01 4.543884098529815674e-01 1.763888239860534668e+00 6.654829978942871094e-01 8.356357216835021973e-01
1.813000000000000000e+03 2.163258361816406250e+01 -4.012201786041259766e+00 1.914265275001525879e+00 6.657961845397949219e+00 2.571668148040771484e+00 3.210761785507202148e+00
1.814000000000000000e+03 2.092960548400878906e+01 -3.342365741729736328e+00 1.350471228361129761e-01 5.661707401275634766e+00 1.739026308059692383e+00 9.456231594085693359e-01
1.815000000000000000e+03 2.190904045104980469e+01 1.468894243240356445e+00 -2.598677873611450195e-01 1.910989880561828613e+00 4.953366518020629883e-01 1.065894126892089844e+00
1.816000000000000000e+03 2.144905281066894531e+01 -3.564775228500366211e+00 8.690722584724426270e-01 6.208867073059082031e+00 2.123381853103637695e+00 2.219914913177490234e+00
1.817000000000000000e+03 2.134199333190917969e+01 -3.349608659744262695e+00 5.222281217575073242e-01 5.816116333007812500e+00 1.901503443717956543e+00 1.774520635604858398e+00
1.818000000000000000e+03 1.691034889221191406e+01 -9.938091278076171875e+00 2.709317207336425781e-01 -1.554337024688720703e+00 -3.850215971469879150e-01 3.715726137161254883e+00
1.819000000000000000e+03 1.611231040954589844e+01 -1.018261146545410156e+01 -9.437724202871322632e-02 -2.173015832901000977e+00 -6.802179217338562012e-01 3.906398773193359375e+00
1.820000000000000000e+03 1.796644973754882812e+01 -1.030894851684570312e+01 -7.169951200485229492e-01 -1.781286597251892090e-01 -2.685371339321136475e-01 3.511310100555419922e+00
1.821000000000000000e+03 2.187763023376464844e+01 -5.867295742034912109e+00 1.020986557006835938e+01 4.508310317993164062e+00 4.415452957153320312e+00 2.530046701431274414e+00
1.822000000000000000e+03 2.221705245971679688e+01 -5.814367771148681641e+00 8.959216117858886719e+00 3.878102540969848633e+00 3.851195573806762695e+00 2.510445594787597656e+00
1.823000000000000000e+03 2.246563148498535156e+01 -5.247191429138183594e+00 6.946296215057373047e+00 4.024236679077148438e+00 3.291160106658935547e+00 3.535686254501342773e+00
1.824000000000000000e+03 2.201297187805175781e+01 -7.385284423828125000e+00 6.261162281036376953e+00 4.911768436431884766e+00 3.351879119873046875e+00 -9.028491377830505371e-01
1.825000000000000000e+03 2.253946304321289062e+01 -5.738628387451171875e+00 7.926807880401611328e+00 3.352837324142456055e+00 3.383893489837646484e+00 2.453898429870605469e+00
1.826000000000000000e+03 2.467795562744140625e+01 -1.148575687408447266e+01 -1.834157466888427734e+00 1.486555457115173340e+00 -1.042806059122085571e-01 -9.278562664985656738e-01
1.827000000000000000e+03 1.837822723388671875e+01 -7.694859504699707031e+00 5.548847198486328125e+00 7.694393992424011230e-01 1.895485877990722656e+00 4.045792579650878906e+00
1.828000000000000000e+03 1.903523063659667969e+01 -9.624390602111816406e+00 4.252223372459411621e-01 1.915347695350646973e+00 7.021710276603698730e-01 3.112596273422241211e+00
1.829000000000000000e+03 2.039512252807617188e+01 -7.949566841125488281e+00 3.727210044860839844e+00 6.970031738281250000e+00 3.209172487258911133e+00 1.790924191474914551e+00
1.830000000000000000e+03 1.951048278808593750e+01 -7.779719829559326172e+00 4.931533336639404297e+00 5.033403873443603516e+00 2.989481210708618164e+00 3.921234846115112305e+00
1.831000000000000000e+03 2.207416725158691406e+01 -6.728474140167236328e+00 8.346525192260742188e+00 4.329450607299804688e+00 3.802792787551879883e+00 -1.629663556814193726e-01
1.832000000000000000e+03 1.735493087768554688e+01 -5.656950473785400391e+00 5.033522605895996094e+00 -1.340943098068237305e+00 1.107773900032043457e+00 1.929764747619628906e-01
1.833000000000000000e+03 2.045490837097167969e+01 -2.430834054946899414e+00 -1.925580017268657684e-02 3.703044652938842773e+00 1.105136632919311523e+00 1.281689107418060303e-01
1.834000000000000000e+03 1.578583145141601562e+01 -5.477017879486083984e+00 3.196375608444213867e+00 -1.413880944252014160e+00 5.347484350204467773e-01 1.046612977981567383e+00
1.835000000000000000e+03 1.618987846374511719e+01 -5.005373954772949219e+00 2.967164278030395508e+00 -1.225716590881347656e+00 5.224342942237854004e-01 4.501312971115112305e-01
1.836000000000000000e+03 1.520380783081054688e+01 -5.102668285369873047e+00 2.430332660675048828e+00 -1.253226161003112793e+00 3.531319200992584229e-01 1.031266331672668457e+00
1.837000000000000000e+03 2.038375663757324219e+01 -2.795605421066284180e+00 -1.717693358659744263e-02 4.033064842224121094e+00 1.204766392707824707e+00 -4.314507171511650085e-02
1.838000000000000000e+03 2.014297676086425781e+01 -1.285071730613708496e+00 -3.885371983051300049e-02 2.381901264190673828e+00 7.029142975807189941e-01 -2.255005016922950745e-02
1.839000000000000000e+03 1.999380493164062500e+01 -7.552453279495239258e-01 -1.985693536698818207e-02 2.022439718246459961e+00 6.007748246192932129e-01 9.241754189133644104e-03
1.840000000000000000e+03 1.846903800964355469e+01 -2.172278612852096558e-01 4.745434597134590149e-02 8.080078959465026855e-01 2.566386759281158447e-01 -3.515063524246215820e-01
1.841000000000000000e+03 1.879928016662597656e+01 9.768823385238647461e-01 -1.337163150310516357e-01 7.012876868247985840e-01 1.702714115381240845e-01 -2.734652757644653320e-01
1.842000000000000000e+03 7.085376739501953125e+00 4.988911628723144531e+00 -7.344451546669006348e-02 -3.508845344185829163e-02 -3.255989030003547668e-02 3.186663687229156494e-01
1.843000000000000000e+03 1.016654491424560547e+01 4.068701744079589844e+00 -2.037860900163650513e-01 1.164679974317550659e-01 -2.619542554020881653e-02 2.177074253559112549e-01
1.844000000000000000e+03 7.004438400268554688e+00 4.176975250244140625e+00 -1.349495500326156616e-01 -4.009193554520606995e-02 -5.251244455575942993e-02 3.048976063728332520e-01
1.845000000000000000e+03 5.610262870788574219e+00 6.591085433959960938e+00 2.667982690036296844e-02 -1.200088039040565491e-01 -2.799869328737258911e-02 3.070066571235656738e-01
1.846000000000000000e+03 5.598253250122070312e+00 5.169490814208984375e+00 -4.675223305821418762e-02 -1.032560691237449646e-01 -4.500249028205871582e-02 3.025557100772857666e-01
1.847000000000000000e+03 7.758533000946044922e+00 4.110022544860839844e+00 -1.560868173837661743e-01 -1.387158595025539398e-02 -5.098751932382583618e-02 3.035429716110229492e-01
1.848000000000000000e+03 8.582623481750488281e+00 4.760514259338378906e+00 -1.088512763381004333e-01 3.164287284016609192e-02 -2.316251955926418304e-02 2.983048558235168457e-01
1.849000000000000000e+03 4.709142208099365234e+00 4.345946311950683594e+00 -7.884604483842849731e-02 -1.111886575818061829e-01 -5.701041221618652344e-02 2.661414742469787598e-01
1.850000000000000000e+03 5.139215946197509766e+00 -5.696581840515136719e+00 -6.017503738403320312e-01 7.085614204406738281e-01 3.204331547021865845e-02 -1.225631237030029297e+00
1.851000000000000000e+03 4.347325325012207031e+00 -4.079479217529296875e+00 -6.550204157829284668e-01 1.761585175991058350e-01 -1.436585634946823120e-01 -1.058883190155029297e+00
1.852000000000000000e+03 7.274374485015869141e+00 -5.315171241760253906e+00 -8.499345779418945312e-01 1.429858088493347168e+00 1.739770621061325073e-01 -3.062269389629364014e-01
1.853000000000000000e+03 5.451762199401855469e+00 -4.131941795349121094e+00 -8.098922371864318848e-01 5.369609594345092773e-01 -8.187937736511230469e-02 -8.843505978584289551e-01
1.854000000000000000e+03 7.436185359954833984e+00 -4.150137901306152344e+00 -9.646710157394409180e-01 9.084846377372741699e-01 -1.685590669512748718e-02 -2.993932664394378662e-01
1.855000000000000000e+03 6.176002025604248047e+00 -5.546012878417968750e+00 -7.937967181205749512e-01 1.220166802406311035e+00 1.279110312461853027e-01 -8.822410702705383301e-01
1.856000000000000000e+03 1.201826477050781250e+01 -5.384166240692138672e+00 5.725184082984924316e-01 6.609033048152923584e-02 1.915826201438903809e-01 1.809318065643310547e+00
1.857000000000000000e+03 1.009918022155761719e+01 -4.268003463745117188e+00 -5.865847468376159668e-01 7.605465054512023926e-01 5.218851938843727112e-02 8.542969822883605957e-01
1.858000000000000000e+03 1.269280910491943359e+01 -5.604179382324218750e+00 1.011757850646972656e+00 -2.085340768098831177e-01 2.409671247005462646e-01 2.086372137069702148e+00
1.859000000000000000e+03 1.667205810546875000e+01 -9.201683998107910156e+00 1.892130970954895020e+00 -1.708953619003295898e+00 5.495323240756988525e-02 3.948518037796020508e+00
1.860000000000000000e+03 2.174491119384765625e+01 -3.400716304779052734e+00 1.026736617088317871e+00 5.726527214050292969e+00 2.025979042053222656e+00 2.452774524688720703e+00
1.861000000000000000e+03 1.586796474456787109e+01 -8.606002807617187500e+00 2.849952697753906250e+00 -2.154511928558349609e+00 2.086321711540222168e-01 3.854529380798339844e+00
1.862000000000000000e+03 1.457262706756591797e+01 -4.793539524078369141e+00 1.747480154037475586e+00 -9.089573621749877930e-01 2.515568435192108154e-01 1.158594012260437012e+00
1.863000000000000000e+03 8.791929244995117188e+00 -4.074388980865478516e+00 -9.130224585533142090e-01 9.396653175354003906e-01 7.992855273187160492e-03 2.552675306797027588e-01
1.864000000000000000e+03 1.075520515441894531e+01 -8.103939056396484375e+00 -1.666944772005081177e-01 2.470691680908203125e+00 6.911991238594055176e-01 2.976721048355102539e+00
1.865000000000000000e+03 2.301804733276367188e+01 2.185267210006713867e+00 -3.258398473262786865e-01 2.252954244613647461e+00 5.781342983245849609e-01 1.444014191627502441e+00
1.866000000000000000e+03 1.374243736267089844e+01 3.540249586105346680e+00 -4.246985018253326416e-01 4.534423351287841797e-01 8.623147383332252502e-03 -1.351307183504104614e-01
1.867000000000000000e+03 2.386146736145019531e+01 2.108552455902099609e+00 -1.954702287912368774e-01 2.536800146102905273e+00 7.023989558219909668e-01 1.611325144767761230e+00
1.868000000000000000e+03 1.771416664123535156e+01 1.818295121192932129e+00 -3.350156843662261963e-01 3.962894082069396973e-01 1.838211528956890106e-02 -5.046759247779846191e-01
1.869000000000000000e+03 2.524215888977050781e+01 3.456301689147949219e+00 -6.988373398780822754e-02 2.885714292526245117e+00 8.447491526603698730e-01 1.439721703529357910e+00
1.870000000000000000e+03 1.522632503509521484e+01 -9.352471351623535156e+00 1.618825197219848633e+00 -2.295662164688110352e+00 -2.030511051416397095e-01 4.153595447540283203e+00
1.871000000000000000e+03 2.372397422790527344e+01 -1.299623870849609375e+01 -4.157244682312011719e+00 1.169445753097534180e+00 -8.963395953178405762e-01 -1.734963431954383850e-02
1.872000000000000000e+03 1.109677600860595703e+01 4.873768329620361328e+00 -1.370897591114044189e-01 2.495435178279876709e-01 3.373612836003303528e-02 1.810447573661804199e-01
1.873000000000000000e+03 7.255974292755126953e+00 -8.948516845703125000e+00 -1.121413782238960266e-01 3.820834398269653320e+00 1.112607955932617188e+00 -6.083416342735290527e-01
1.874000000000000000e+03 1.140874004364013672e+01 -9.379636764526367188e+00 3.741801381111145020e-01 2.050941467285156250e+00 7.275364398956298828e-01 4.029833793640136719e+00
1.875000000000000000e+03 2.566946601867675781e+01 -1.294831848144531250e+01 -3.245654821395874023e+00 9.727055430412292480e-01 -6.818847656250000000e-01 -5.351539254188537598e-01
1.876000000000000000e+03 8.614112854003906250e+00 6.473546504974365234e+00 4.198851436376571655e-02 8.249138295650482178e-02 3.734397143125534058e-02 3.031935989856719971e-01
1.877000000000000000e+03 2.114503669738769531e+01 -1.202385044097900391e+01 -4.039685726165771484e+00 1.349165081977844238e+00 -8.071562051773071289e-01 1.068082451820373535e+00
1.878000000000000000e+03 2.154284286499023438e+01 -1.272313594818115234e+01 -4.993294715881347656e+00 9.478998184204101562e-01 -1.213618397712707520e+00 9.985726475715637207e-01
1.879000000000000000e+03 4.861451625823974609e+00 -1.557366371154785156e+01 1.590719103813171387e+00 1.869307160377502441e+00 1.038007855415344238e+00 1.251905202865600586e+00
1.880000000000000000e+03 4.256772613525390625e+01 5.565865039825439453e+00 5.412397980690002441e-01 5.272914171218872070e-01 3.205593526363372803e-01 1.206851080060005188e-01
1.881000000000000000e+03 4.358872604370117188e+01 4.418978214263916016e+00 6.270312070846557617e-01 3.164680004119873047e-01 2.830497622489929199e-01 1.043419390916824341e-01
1.882000000000000000e+03 2.656723594665527344e+01 3.602867841720581055e+00 2.409299463033676147e-01 2.667543649673461914e+00 8.725420832633972168e-01 1.354536294937133789e+00
1.883000000000000000e+03 5.574625015258789062e+00 1.170325469970703125e+01 1.325538009405136108e-01 -2.048635482788085938e-01 -2.169292606413364410e-02 1.560900807380676270e-01
1.884000000000000000e+03 4.742485046386718750e+01 2.303603410720825195e+00 5.448123812675476074e-01 1.392898857593536377e-01 2.052306830883026123e-01 1.354162544012069702e-01
1.885000000000000000e+03 6.135406875610351562e+01 -1.462649464607238770e+00 -4.917704313993453979e-02 9.765331149101257324e-01 2.782068252563476562e-01 -1.445513248443603516e+00
1.886000000000000000e+03 6.088867187500000000e+01 -2.497575044631958008e+00 -4.470182657241821289e-01 5.131449103355407715e-01 1.983799599111080170e-02 -1.276094079017639160e+00
1.887000000000000000e+03 1.909244155883789062e+01 -1.151696777343750000e+01 -3.341249227523803711e+00 3.294351994991302490e-01 -9.035442471504211426e-01 2.711867094039916992e+00
1.888000000000000000e+03 8.132055282592773438e+00 -4.057247161865234375e+00 -9.576163887977600098e-01 1.012349724769592285e+00 1.642000675201416016e-02 7.332056015729904175e-02
1.889000000000000000e+03 1.819491195678710938e+01 1.262069463729858398e+00 -2.103526741266250610e-01 4.756867587566375732e-01 7.960022240877151489e-02 -4.305136501789093018e-01
1.890000000000000000e+03 1.149143218994140625e+01 9.153719902038574219e+00 2.504186034202575684e-01 6.016837358474731445e-01 2.556307017803192139e-01 1.718780249357223511e-01
1.891000000000000000e+03 4.963963699340820312e+01 -1.117960929870605469e+01 -1.885022163391113281e+00 -1.044522076845169067e-01 -5.968422889709472656e-01 -7.398122549057006836e-01
1.892000000000000000e+03 4.785898208618164062e+01 -1.066217708587646484e+01 -1.684750437736511230e+00 -2.368098683655261993e-02 -5.125294327735900879e-01 -6.299165487289428711e-01
1.893000000000000000e+03 1.958498191833496094e+01 2.043343782424926758e+00 -3.326959013938903809e-01 5.473802089691162109e-01 6.440528482198715210e-02 -5.243353080004453659e-03
1.894000000000000000e+03 2.078729820251464844e+01 1.799182295799255371e+00 -3.313183784484863281e-01 1.275582432746887207e+00 2.832792103290557861e-01 5.452247858047485352e-01
1.895000000000000000e+03 3.909654998779296875e+01 8.134375572204589844e+00 4.613338410854339600e-01 1.216326117515563965e+00 5.032979846000671387e-01 6.608827710151672363e-01
1.896000000000000000e+03 5.988897323608398438e+01 1.529825878143310547e+01 7.841117978096008301e-01 3.435787200927734375e+00 1.265969753265380859e+00 -7.495752573013305664e-01
1.897000000000000000e+03 1.232836818695068359e+01 -9.710274696350097656e+00 4.748676419258117676e-01 1.208693504333496094e+00 5.050683021545410156e-01 5.056922912597656250e+00
1.898000000000000000e+03 5.758296203613281250e+01 1.714751243591308594e+01 6.490946412086486816e-01 3.317047357559204102e+00 1.189842581748962402e+00 -6.860842704772949219e-01
1.899000000000000000e+03 5.186666488647460938e+01 1.658394575119018555e+00 4.093095958232879639e-01 2.547613680362701416e-01 1.992212980985641479e-01 4.087043181061744690e-02
1.900000000000000000e+03 5.457571029663085938e+01 3.597705125808715820e+00 5.729917287826538086e-01 7.164552211761474609e-01 3.868340849876403809e-01 -5.788804218173027039e-02
1.901000000000000000e+03 7.097338199615478516e+00 -1.116474628448486328e+01 1.583391904830932617e+00 5.438758373260498047e+00 2.106645107269287109e+00 -7.459706068038940430e-01
1.902000000000000000e+03 1.315169715881347656e+01 5.507446765899658203e+00 -1.300303339958190918e-01 6.308785080909729004e-01 1.502544581890106201e-01 5.949500575661659241e-02
1.903000000000000000e+03 9.318425178527832031e+00 5.499021530151367188e+00 -4.905479401350021362e-02 1.088903099298477173e-01 1.795065402984619141e-02 2.823032438755035400e-01
1.904000000000000000e+03 5.229803466796875000e+01 -8.460080146789550781e+00 -1.825020194053649902e+00 -7.705566287040710449e-02 -5.706227421760559082e-01 -6.079978346824645996e-01
1.905000000000000000e+03 3.537015533447265625e+01 -1.389461994171142578e+01 -2.023321390151977539e+00 2.393264770507812500e-01 -5.351984500885009766e-01 -5.784112215042114258e-01
1.906000000000000000e+03 1.115302753448486328e+01 1.388031959533691406e+01 2.969302833080291748e-01 5.312939882278442383e-01 2.484672814607620239e-01 1.052947863936424255e-01
1.907000000000000000e+03 2.985159492492675781e+01 -1.359935855865478516e+01 -2.517291784286499023e+00 4.864083230495452881e-01 -6.092650890350341797e-01 -6.372067928314208984e-01
1.908000000000000000e+03 2.702515125274658203e+00 6.475490570068359375e+00 4.544603172689676285e-03 -2.620441913604736328e-01 -7.724987715482711792e-02 2.038839012384414673e-01
1.909000000000000000e+03 4.069407653808593750e+01 2.231226539611816406e+01 4.562480151653289795e-01 1.752530097961425781e+00 6.626334190368652344e-01 5.496850013732910156e-01
1.910000000000000000e+03 4.237424087524414062e+01 2.095101547241210938e+01 5.159446597099304199e-01 1.798259735107421875e+00 6.942613124847412109e-01 6.500321030616760254e-01
1.911000000000000000e+03 1.274857139587402344e+01 7.121110439300537109e+00 9.729040414094924927e-02 6.389503479003906250e-01 2.208722233772277832e-01 1.075596287846565247e-01
1.912000000000000000e+03 1.285807800292968750e+01 -9.019605636596679688e+00 1.054811954498291016e+00 -3.377273976802825928e-01 2.151253819465637207e-01 4.374512195587158203e+00
1.913000000000000000e+03 2.829168701171875000e+01 1.055373573303222656e+01 5.473707914352416992e-01 1.959199070930480957e+00 7.519709467887878418e-01 1.112391710281372070e+00
1.914000000000000000e+03 7.080435180664062500e+01 -6.801453590393066406e+00 9.040814042091369629e-01 1.239352416992187500e+01 3.989281654357910156e+00 5.669302940368652344e-01
1.915000000000000000e+03 7.375223541259765625e+01 -3.081682682037353516e+00 -8.389968872070312500e-01 9.393511772155761719e+00 2.566354513168334961e+00 9.098253846168518066e-01
1.916000000000000000e+03 2.901465225219726562e+01 4.731139183044433594e+00 6.701003909111022949e-01 2.136186838150024414e+00 8.418861627578735352e-01 1.085590481758117676e+00
1.917000000000000000e+03 2.745747375488281250e+01 5.416635513305664062e+00 6.315513849258422852e-01 2.554842710494995117e+00 9.559182524681091309e-01 1.002737402915954590e+00
1.918000000000000000e+03 4.091511917114257812e+01 -1.310386371612548828e+01 -1.741557359695434570e+00 1.170585900545120239e-01 -4.873496294021606445e-01 -5.837920308113098145e-01
1.919000000000000000e+03 3.735332489013671875e+01 -1.262004852294921875e+01 -1.621331214904785156e+00 1.859221458435058594e-01 -4.306227266788482666e-01 -6.008943915367126465e-01
1.920000000000000000e+03 7.239534759521484375e+01 -2.641210365295410156e+01 -6.831128001213073730e-01 8.555063247680664062e+00 2.361585140228271484e+00 -4.432607889175415039e-01
1.921000000000000000e+03 7.165696716308593750e+01 -2.264913177490234375e+01 -9.833205938339233398e-01 9.067565917968750000e+00 2.425273656845092773e+00 -7.747681736946105957e-01
1.922000000000000000e+03 5.331147384643554688e+01 -7.823750019073486328e+00 -1.853162884712219238e+00 -7.596249878406524658e-02 -5.787376165390014648e-01 -5.764048695564270020e-01
1.923000000000000000e+03 4.203412628173828125e+01 -1.279691028594970703e+01 -1.701786518096923828e+00 8.082617819309234619e-02 -4.862881004810333252e-01 -5.938021540641784668e-01
1.924000000000000000e+03 6.651332092285156250e+01 -2.629376173019409180e+00 -9.509853720664978027e-01 5.623835086822509766e+00 1.401854991912841797e+00 -3.547888517379760742e+00
1.925000000000000000e+03 6.713327026367187500e+01 -5.566910743713378906e+00 -2.575933218002319336e+00 9.396729469299316406e+00 2.046238899230957031e+00 -4.677934169769287109e+00
1.926000000000000000e+03 5.195942687988281250e+01 -1.002976226806640625e+01 -1.995422482490539551e+00 -1.607746779918670654e-01 -6.468591690063476562e-01 -7.798709273338317871e-01
1.927000000000000000e+03 3.787046051025390625e+01 -1.487466049194335938e+01 -2.112690448760986328e+00 1.707422286272048950e-01 -5.825845003128051758e-01 -5.435814261436462402e-01
1.928000000000000000e+03 6.888764953613281250e+01 -2.198056793212890625e+01 -1.077999353408813477e+00 8.420886993408203125e+00 2.202866315841674805e+00 2.203416526317596436e-01
1.929000000000000000e+03 6.795180511474609375e+01 -2.104464340209960938e+01 -8.457971811294555664e-01 7.932767868041992188e+00 2.126091241836547852e+00 7.047829627990722656e-01
1.930000000000000000e+03 6.867016601562500000e+01 -3.244939565658569336e+00 -1.702259898185729980e+00 8.810008049011230469e+00 2.132324457168579102e+00 -2.320212841033935547e+00
1.931000000000000000e+03 6.735364532470703125e+01 -4.239578723907470703e+00 -1.232032418251037598e+00 7.597782135009765625e+00 1.909724831581115723e+00 -3.770995855331420898e+00
1.932000000000000000e+03 7.478269958496093750e+01 3.254095840454101562e+01 3.921703249216079712e-02 5.698545455932617188e+00 1.721328735351562500e+00 -1.516965925693511963e-01
1.933000000000000000e+03 7.378177642822265625e+01 2.751160812377929688e+01 7.228830456733703613e-02 5.690089225769042969e+00 1.728713274002075195e+00 -2.678135633468627930e-01
1.934000000000000000e+03 7.503408050537109375e+01 -3.106953430175781250e+01 -2.190052270889282227e-01 9.199941635131835938e+00 2.694280862808227539e+00 -2.137867957353591919e-01
1.935000000000000000e+03 7.347528076171875000e+01 -3.110298538208007812e+01 -2.850730121135711670e-01 8.526258468627929688e+00 2.472355604171752930e+00 -1.351109445095062256e-01
1.936000000000000000e+03 7.516799163818359375e+01 -2.796561241149902344e+01 -3.627786934375762939e-01 9.299453735351562500e+00 2.681002616882324219e+00 -4.498637914657592773e-01
1.937000000000000000e+03 7.495445251464843750e+01 2.560059738159179688e+01 5.100287869572639465e-02 5.943758010864257812e+00 1.798428177833557129e+00 -2.654793262481689453e-01
1.938000000000000000e+03 7.064421844482421875e+01 -2.172215652465820312e+01 -1.039416670799255371e+00 9.227343559265136719e+00 2.456377983093261719e+00 -4.388465285301208496e-01
1.939000000000000000e+03 7.557847595214843750e+01 -2.062411880493164062e+01 -3.849075436592102051e-01 9.161301612854003906e+00 2.632918119430541992e+00 -1.447786808013916016e+00
1.940000000000000000e+03 7.431316375732421875e+01 -2.228468894958496094e+01 -5.943239927291870117e-01 9.289042472839355469e+00 2.608415603637695312e+00 -1.196651816368103027e+00
1.941000000000000000e+03 7.537392425537109375e+01 1.280521774291992188e+01 2.455567382276058197e-02 6.883502960205078125e+00 2.072417497634887695e+00 -4.950706064701080322e-01
1.942000000000000000e+03 7.402947998046875000e+01 1.567614459991455078e+01 6.669176369905471802e-02 6.362099170684814453e+00 1.928637266159057617e+00 -5.740894675254821777e-01
1.943000000000000000e+03 7.527876281738281250e+01 1.705838584899902344e+01 5.045316740870475769e-02 6.511394977569580078e+00 1.968554496765136719e+00 -4.414617717266082764e-01
1.944000000000000000e+03 7.424415588378906250e+01 8.684722900390625000e+00 -1.129575148224830627e-01 6.998665809631347656e+00 2.065712451934814453e+00 -5.950887203216552734e-01
1.945000000000000000e+03 7.426657867431640625e+01 4.334828376770019531e+00 -4.399840235710144043e-01 7.591379165649414062e+00 2.145418643951416016e+00 -4.050240516662597656e-01
1.946000000000000000e+03 7.372580718994140625e+01 -1.528551578521728516e+01 5.654171705245971680e-01 1.032203292846679688e+01 3.266235113143920898e+00 -1.660167336463928223e+00
1.947000000000000000e+03 7.451808929443359375e+01 1.421900749206542969e+00 -6.914955377578735352e-01 8.176937103271484375e+00 2.245632410049438477e+00 1.566339097917079926e-02
1.948000000000000000e+03 7.559359741210937500e+01 2.948494195938110352e+00 -4.062471985816955566e-01 7.974795818328857422e+00 2.270564556121826172e+00 -5.117310956120491028e-02
1.949000000000000000e+03 7.345518493652343750e+01 -7.400919437408447266e+00 9.793928265571594238e-01 1.030071735382080078e+01 3.384033203125000000e+00 1.143820047378540039e+00
1.950000000000000000e+03 7.591150665283203125e+01 -8.197596549987792969e+00 7.329020500183105469e-01 7.829583168029785156e+00 2.568745613098144531e+00 9.711242914199829102e-01
1.951000000000000000e+03 7.360343170166015625e+01 2.587362861633300781e+01 8.297012746334075928e-02 5.742633819580078125e+00 1.747681140899658203e+00 -3.219333589076995850e-01
1.952000000000000000e+03 7.413929748535156250e+01 1.143838405609130859e+01 -8.461909019388258457e-04 6.718317508697509766e+00 2.015241384506225586e+00 -6.075126528739929199e-01
1.953000000000000000e+03 7.567685699462890625e+01 -5.639584064483642578e+00 1.600415706634521484e-01 8.273463249206542969e+00 2.530051469802856445e+00 1.325655579566955566e+00
1.954000000000000000e+03 7.463346099853515625e+01 -7.138278007507324219e+00 7.552105188369750977e-01 8.940535545349121094e+00 2.908723831176757812e+00 1.307323694229125977e+00
1.955000000000000000e+03 7.262359619140625000e+01 -1.257281112670898438e+01 2.061188220977783203e+00 1.128674888610839844e+01 4.004381179809570312e+00 -9.706215858459472656e-01
1.956000000000000000e+03 6.970984649658203125e+01 -3.526159048080444336e+00 -1.945162296295166016e+00 1.028053379058837891e+01 2.500611305236816406e+00 -1.580450654029846191e+00
1.957000000000000000e+03 7.178034973144531250e+01 -5.204027652740478516e+00 -4.359083175659179688e-01 1.104367351531982422e+01 3.182329416275024414e+00 7.312493920326232910e-01
1.958000000000000000e+03 7.437233734130859375e+01 -1.430157089233398438e+01 1.085481047630310059e+00 9.603385925292968750e+00 3.206660270690917969e+00 -1.534482717514038086e+00
1.959000000000000000e+03 7.421909332275390625e+01 -4.427963256835937500e+00 -3.130118846893310547e-01 9.196934700012207031e+00 2.665176868438720703e+00 1.207115650177001953e+00
1.960000000000000000e+03 7.467032623291015625e+01 -1.782413864135742188e+01 -7.564695924520492554e-02 9.568213462829589844e+00 2.847769975662231445e+00 -1.713103175163269043e+00
1.961000000000000000e+03 7.573690795898437500e+01 -1.785998153686523438e+01 -8.465227484703063965e-02 8.762797355651855469e+00 2.603443384170532227e+00 -1.733652949333190918e+00
1.962000000000000000e+03 7.380613708496093750e+01 -2.116871643066406250e+01 -6.670099496841430664e-01 9.484021186828613281e+00 2.645103216171264648e+00 -1.294927358627319336e+00
1.963000000000000000e+03 7.393136596679687500e+01 1.860848617553710938e+01 8.985949307680130005e-02 6.149793148040771484e+00 1.871895790100097656e+00 -4.937669038772583008e-01
1.964000000000000000e+03 7.448950195312500000e+01 -1.262486171722412109e+01 1.440600991249084473e+00 9.214799880981445312e+00 3.196620464324951172e+00 -8.908094763755798340e-01
1.965000000000000000e+03 7.386801147460937500e+01 2.913916587829589844e+01 6.074052676558494568e-02 5.675370693206787109e+00 1.720833301544189453e+00 -2.288536727428436279e-01
1.966000000000000000e+03 7.427482604980468750e+01 -2.352897262573242188e+01 -6.217284798622131348e-01 9.225573539733886719e+00 2.581153631210327148e+00 -9.450761079788208008e-01
1.967000000000000000e+03 7.462112426757812500e+01 -2.315712928771972656e+00 -6.569007039070129395e-01 8.745223045349121094e+00 2.426496744155883789e+00 9.222179055213928223e-01
1.968000000000000000e+03 7.398415374755859375e+01 -2.494265747070312500e+01 -5.878220200538635254e-01 9.054164886474609375e+00 2.539902687072753906e+00 -7.772232294082641602e-01
1.969000000000000000e+03 7.419524383544921875e+01 7.287885665893554688e+00 -2.122509628534317017e-01 7.179762363433837891e+00 2.090253353118896484e+00 -5.854196548461914062e-01
1.970000000000000000e+03 7.152056121826171875e+01 3.425962829589843750e+01 1.093631535768508911e-01 5.243628978729248047e+00 1.605897665023803711e+00 -1.696634441614151001e-01
1.971000000000000000e+03 7.402706146240234375e+01 1.424990653991699219e+01 6.525333970785140991e-02 6.475958347320556641e+00 1.962363481521606445e+00 -5.867317318916320801e-01
1.972000000000000000e+03 7.443215179443359375e+01 -3.386231231689453125e+01 -1.310918033123016357e-01 8.942370414733886719e+00 2.643383741378784180e+00 -5.270029976963996887e-02
1.973000000000000000e+03 7.282928466796875000e+01 2.223929786682128906e+01 1.138701885938644409e-01 5.788809776306152344e+00 1.770804047584533691e+00 -4.399163722991943359e-01
1.974000000000000000e+03 7.395490264892578125e+01 1.996559715270996094e+01 8.902359753847122192e-02 6.047680854797363281e+00 1.841011285781860352e+00 -4.424008131027221680e-01
1.975000000000000000e+03 7.381735229492187500e+01 -2.806979370117187500e+01 -4.451785385608673096e-01 8.820769309997558594e+00 2.512677192687988281e+00 -3.570275306701660156e-01
1.976000000000000000e+03 7.423442077636718750e+01 3.083663558959960938e+01 5.047962814569473267e-02 5.681158542633056641e+00 1.719491362571716309e+00 -1.964343637228012085e-01
1.977000000000000000e+03 6.398233413696289062e+00 -2.886758804321289062e+01 -4.341472089290618896e-01 1.577907562255859375e+00 3.431281149387359619e-01 6.616076231002807617e-01
1.978000000000000000e+03 5.702030658721923828e+00 2.905909919738769531e+01 -1.431532949209213257e-02 -3.512509763240814209e-01 -1.096698939800262451e-01 4.004522413015365601e-02
1.979000000000000000e+03 4.473044395446777344e+00 -2.666731834411621094e+01 -3.980945646762847900e-01 1.126183748245239258e+00 2.184267491102218628e-01 9.198718070983886719e-01
1.980000000000000000e+03 4.820491313934326172e+00 -9.312264442443847656e+00 9.226872771978378296e-02 1.322251200675964355e+00 4.243559837341308594e-01 -1.732003092765808105e+00
1.981000000000000000e+03 3.718775033950805664e+00 -9.888511657714843750e+00 1.663347333669662476e-01 -5.239452719688415527e-01 -1.072831675410270691e-01 -1.610768675804138184e+00
1.982000000000000000e+03 5.900330734252929688e+01 -5.099161148071289062e+00 -1.680299639701843262e+00 -1.753798872232437134e-01 -5.567038655281066895e-01 -7.456511855125427246e-01
1.983000000000000000e+03 5.621754837036132812e+01 -7.332062244415283203e+00 -2.185581684112548828e+00 -1.971312761306762695e-01 -7.148138880729675293e-01 -7.239136695861816406e-01
1.984000000000000000e+03 5.091134071350097656e+00 -2.309380912780761719e+01 -5.519657731056213379e-01 1.533878564834594727e+00 2.945738136768341064e-01 1.349345684051513672e+00
1.985000000000000000e+03 6.251998424530029297e+00 2.462611770629882812e+01 -3.260778635740280151e-02 -2.351572662591934204e-01 -8.032951503992080688e-02 2.324538119137287140e-02
1.986000000000000000e+03 4.672294616699218750e+00 -1.863306808471679688e+01 1.285395175218582153e-01 1.475616812705993652e+00 4.812468886375427246e-01 1.714585542678833008e+00
1.987000000000000000e+03 4.005182266235351562e+00 -1.597270965576171875e+01 1.048856139183044434e+00 -1.001307666301727295e-01 2.846176326274871826e-01 1.212069392204284668e+00
1.988000000000000000e+03 4.698131561279296875e+00 -2.022100257873535156e+01 -2.081613987684249878e-01 1.393334269523620605e+00 3.555518686771392822e-01 1.750022649765014648e+00
1.989000000000000000e+03 6.035850524902343750e+00 -1.802867507934570312e+01 3.614776134490966797e-01 3.479984521865844727e+00 1.152438640594482422e+00 1.800753593444824219e+00
1.990000000000000000e+03 7.385097980499267578e+00 1.911795997619628906e+01 2.399655431509017944e-02 -4.744744673371315002e-02 -7.035267539322376251e-03 7.179563865065574646e-03
1.991000000000000000e+03 1.005229663848876953e+01 1.628710174560546875e+01 1.408821344375610352e-01 3.101015686988830566e-01 1.352951079607009888e-01 4.920734837651252747e-02
1.992000000000000000e+03 9.089417457580566406e+00 1.522454833984375000e+01 1.901819556951522827e-01 2.034572064876556396e-01 1.180917471647262573e-01 4.543174430727958679e-02
1.993000000000000000e+03 5.676763057708740234e+00 1.893005943298339844e+01 1.758265867829322815e-02 -2.417988479137420654e-01 -6.726486235857009888e-02 -8.294458501040935516e-03
1.994000000000000000e+03 8.817448616027832031e+00 -2.729305076599121094e+01 -6.480280756950378418e-01 2.131742954254150391e+00 4.451144933700561523e-01 4.465199410915374756e-01
1.995000000000000000e+03 6.127199649810791016e+00 2.623700141906738281e+01 -2.609018422663211823e-02 -2.773276269435882568e-01 -9.102534502744674683e-02 3.532601892948150635e-02
1.996000000000000000e+03 9.139183998107910156e+00 -2.388915634155273438e+01 -7.500912547111511230e-01 3.217164993286132812e+00 7.401221394538879395e-01 2.283262461423873901e-01
1.997000000000000000e+03 5.447017192840576172e+00 -1.105061912536621094e+01 1.288401484489440918e+00 2.129647254943847656e+00 1.025414705276489258e+00 -1.342166304588317871e+00
1.998000000000000000e+03 6.383269786834716797e+00 3.093025970458984375e+01 -3.047545906156301498e-03 -3.217024505138397217e-01 -9.742499887943267822e-02 4.920105636119842529e-02
1.999000000000000000e+03 6.562582969665527344e+00 1.785802650451660156e+01 4.746403545141220093e-02 -1.319385766983032227e-01 -2.534236200153827667e-02 4.798791836947202682e-03
2.000000000000000000e+03 5.400003910064697266e+00 1.436727905273437500e+01 1.070545166730880737e-01 -2.477691918611526489e-01 -4.221440106630325317e-02 6.542315334081649780e-02
2.001000000000000000e+03 5.337935447692871094e+00 1.562495517730712891e+01 7.179099321365356445e-02 -2.655659615993499756e-01 -5.813248828053474426e-02 3.019779548048973083e-02
2.002000000000000000e+03 5.762006282806396484e+00 2.145419692993164062e+01 -1.377693377435207367e-02 -2.508973479270935059e-01 -7.940229028463363647e-02 -7.949996739625930786e-03
2.003000000000000000e+03 6.418719291687011719e+00 1.979568099975585938e+01 8.419199846684932709e-03 -1.554746925830841064e-01 -4.411664605140686035e-02 -8.906083181500434875e-03
2.004000000000000000e+03 5.495894432067871094e+00 -2.201053047180175781e+01 -5.235849618911743164e-01 1.864599823951721191e+00 4.023044705390930176e-01 1.432247638702392578e+00
2.005000000000000000e+03 6.059430599212646484e+00 -2.065617752075195312e+01 -4.781900644302368164e-01 2.832907676696777344e+00 7.064152359962463379e-01 1.542516469955444336e+00
2.006000000000000000e+03 6.396857261657714844e+00 3.323688125610351562e+01 5.818845704197883606e-03 -3.504142165184020996e-01 -1.033786088228225708e-01 4.236704483628273010e-02
2.007000000000000000e+03 1.323258876800537109e+01 -2.573150634765625000e+01 -2.577883005142211914e-01 2.187645196914672852e+00 5.789570808410644531e-01 -5.159636735916137695e-01
2.008000000000000000e+03 1.383970355987548828e+01 -2.766766929626464844e+01 -3.430428504943847656e-01 1.841049909591674805e+00 4.494021236896514893e-01 -3.469139635562896729e-01
2.009000000000000000e+03 1.199040794372558594e+01 -3.273284912109375000e+01 -4.417254328727722168e-01 1.558069586753845215e+00 3.349032700061798096e-01 5.719371512532234192e-02
2.010000000000000000e+03 4.775285243988037109e+00 -3.351703643798828125e+01 -1.739144027233123779e-01 1.390874862670898438e+00 3.650881350040435791e-01 3.281210362911224365e-01
2.011000000000000000e+03 6.016658782958984375e+00 -2.745755195617675781e+01 -5.273731350898742676e-01 1.637508034706115723e+00 3.330404758453369141e-01 8.142868280410766602e-01
2.012000000000000000e+03 5.674880027770996094e+00 -2.618892669677734375e+01 -5.001904368400573730e-01 1.541981458663940430e+00 3.125373125076293945e-01 9.762657880783081055e-01
2.013000000000000000e+03 4.162451744079589844e+00 1.041273593902587891e+01 8.363208174705505371e-02 -3.127220869064331055e-01 -6.872700899839401245e-02 1.786400079727172852e-01
2.014000000000000000e+03 5.401147365570068359e+00 1.036616420745849609e+01 1.232755407691001892e-01 -2.063116878271102905e-01 -2.491084299981594086e-02 2.046758979558944702e-01
2.015000000000000000e+03 7.013910770416259766e+00 1.077591228485107422e+01 1.794311702251434326e-01 -7.260330021381378174e-02 3.204835951328277588e-02 2.029168456792831421e-01
2.016000000000000000e+03 5.573781967163085938e+00 -1.291000652313232422e+01 2.724043846130371094e+00 2.170819759368896484e+00 1.468459010124206543e+00 -7.400606870651245117e-01
2.017000000000000000e+03 4.611986637115478516e+00 -1.190835475921630859e+01 1.333618760108947754e+00 1.013738393783569336e+00 7.042071223258972168e-01 -1.303132772445678711e+00
2.018000000000000000e+03 5.057285308837890625e+00 -8.467803955078125000e+00 -1.283512115478515625e-01 1.188323140144348145e+00 3.179915845394134521e-01 -1.733456611633300781e+00
2.019000000000000000e+03 5.320810794830322266e+00 9.093289375305175781e+00 9.855424612760543823e-02 -1.931907385587692261e-01 -2.839094586670398712e-02 2.426905781030654907e-01
2.020000000000000000e+03 3.965740203857421875e+00 7.670908451080322266e+00 4.166839271783828735e-02 -2.446065098047256470e-01 -6.088143587112426758e-02 2.459285855293273926e-01
2.021000000000000000e+03 5.430334854125976562e+01 -7.133814811706542969e+00 -1.820502758026123047e+00 -6.704759597778320312e-02 -5.662651062011718750e-01 -5.407552719116210938e-01
2.022000000000000000e+03 5.508965301513671875e+01 9.987792968750000000e-01 2.356331795454025269e-01 4.876364767551422119e-01 2.169809043407440186e-01 -1.994368284940719604e-01
2.023000000000000000e+03 3.852167129516601562e+01 1.395638751983642578e+01 6.861622333526611328e-01 1.622568011283874512e+00 6.926190853118896484e-01 9.271869659423828125e-01
2.024000000000000000e+03 3.791177749633789062e+01 9.267428398132324219e+00 5.219458937644958496e-01 1.357719063758850098e+00 5.638995170593261719e-01 8.748624920845031738e-01
2.025000000000000000e+03 3.947669506072998047e+00 -5.853557109832763672e+00 -3.711203634738922119e-01 -9.356446564197540283e-02 -1.394054442644119263e-01 -1.407008409500122070e+00
2.026000000000000000e+03 1.045275592803955078e+01 -2.945196533203125000e+01 -5.571039915084838867e-01 1.890587687492370605e+00 4.000450968742370605e-01 1.995606571435928345e-01
2.027000000000000000e+03 5.860583877563476562e+01 -1.378177642822265625e+00 -2.524517774581909180e-01 4.942076802253723145e-01 7.252677530050277710e-02 -7.437745928764343262e-01
2.028000000000000000e+03 5.974337387084960938e+01 -4.306264400482177734e+00 -1.242915272712707520e+00 -1.368491910398006439e-02 -3.769800662994384766e-01 -7.418017983436584473e-01
2.029000000000000000e+03 6.011804199218750000e+01 -3.200827789306640625e+01 -1.664416044950485229e-01 1.713301897048950195e+00 4.640581011772155762e-01 2.960030734539031982e-01
2.030000000000000000e+03 1.111017417907714844e+01 -2.379080009460449219e+01 -4.538090825080871582e-01 3.127380609512329102e+00 8.020714521408081055e-01 -4.403105676174163818e-01
2.031000000000000000e+03 2.921126174926757812e+01 7.236516475677490234e+00 9.289217591285705566e-01 1.920211911201477051e+00 8.547400832176208496e-01 1.070392847061157227e+00
2.032000000000000000e+03 2.975570297241210938e+01 9.696631431579589844e+00 7.056174874305725098e-01 1.786285400390625000e+00 7.475708723068237305e-01 1.216869115829467773e+00
2.033000000000000000e+03 2.803404426574707031e+01 1.313222122192382812e+01 -1.024687513709068298e-01 1.817126750946044922e+00 5.143973827362060547e-01 7.964941859245300293e-01
2.034000000000000000e+03 2.473915672302246094e+01 -1.318729686737060547e+01 -3.836974620819091797e+00 1.051569700241088867e+00 -8.356214761734008789e-01 -2.588008642196655273e-01
2.035000000000000000e+03 7.193663597106933594e+00 -1.703673934936523438e+01 1.142506957054138184e+00 5.887571811676025391e+00 2.109023571014404297e+00 9.903876185417175293e-01
2.036000000000000000e+03 4.035924530029296875e+01 9.299769401550292969e+00 3.378562033176422119e-01 1.378532171249389648e+00 5.149165391921997070e-01 5.692729949951171875e-01
2.037000000000000000e+03 4.033626937866210938e+01 8.085497856140136719e+00 3.438101708889007568e-01 1.193736791610717773e+00 4.612641036510467529e-01 4.406471848487854004e-01
2.038000000000000000e+03 1.300959682464599609e+01 -2.363076972961425781e+01 9.021010249853134155e-03 2.527399539947509766e+00 7.609261870384216309e-01 -8.451460599899291992e-01
2.039000000000000000e+03 6.450514221191406250e+01 -2.599691772460937500e+01 -8.333437442779541016e-01 4.172793388366699219e+00 1.001834869384765625e+00 6.945037841796875000e-01
2.040000000000000000e+03 6.727432250976562500e+01 -2.433181571960449219e+01 -1.029399991035461426e+00 6.563860893249511719e+00 1.660338282585144043e+00 5.579528808593750000e-01
2.041000000000000000e+03 8.019930839538574219e+00 -2.486227035522460938e+01 -7.318386435508728027e-01 2.566071510314941406e+00 5.502699017524719238e-01 6.385124921798706055e-01
2.042000000000000000e+03 1.387926387786865234e+01 1.871562767028808594e+01 -7.352354377508163452e-02 6.297571063041687012e-01 1.668700724840164185e-01 2.457112371921539307e-01
2.043000000000000000e+03 1.393713760375976562e+01 1.736470222473144531e+01 5.176668986678123474e-02 7.616242766380310059e-01 2.440172880887985229e-01 2.321615219116210938e-01
2.044000000000000000e+03 4.648433303833007812e+01 2.773117065429687500e+00 6.394364237785339355e-01 1.434054225683212280e-01 2.348525524139404297e-01 1.109531074762344360e-01
2.045000000000000000e+03 5.012298965454101562e+01 1.723966717720031738e+00 4.395003616809844971e-01 1.920365691184997559e-01 1.894610822200775146e-01 7.824068516492843628e-02
2.046000000000000000e+03 6.106233596801757812e+01 -2.725244140625000000e+01 -7.161444425582885742e-01 1.666873097419738770e+00 2.852186262607574463e-01 3.017094433307647705e-01
2.047000000000000000e+03 6.485005187988281250e+01 -2.836931610107421875e+01 -6.577093601226806641e-01 4.480077743530273438e+00 1.146710515022277832e+00 5.569570064544677734e-01
2.048000000000000000e+03 2.879718399047851562e+01 1.669335746765136719e+01 -1.987780183553695679e-01 1.398450136184692383e+00 3.599016368389129639e-01 4.492361247539520264e-01
2.049000000000000000e+03 5.980393600463867188e+01 -2.910256958007812500e+01 -5.451796650886535645e-01 1.193209528923034668e+00 1.944089531898498535e-01 2.254514694213867188e-01
2.050000000000000000e+03 6.351946640014648438e+01 -2.750979804992675781e+01 -6.918871402740478516e-01 3.486106872558593750e+00 8.382658958435058594e-01 5.287588238716125488e-01
2.051000000000000000e+03 2.882082557678222656e+01 -1.341739845275878906e+01 -2.635216951370239258e+00 5.742918252944946289e-01 -6.182774901390075684e-01 -6.627160310745239258e-01
2.052000000000000000e+03 2.698156929016113281e+01 -1.280741500854492188e+01 -2.573442935943603516e+00 8.262530565261840820e-01 -5.241569876670837402e-01 -7.492462992668151855e-01
2.053000000000000000e+03 6.949475860595703125e+01 -1.893377113342285156e+01 -6.240536570549011230e-01 9.973131179809570312e+00 2.804723262786865234e+00 -3.235227242112159729e-02
2.054000000000000000e+03 3.667643737792968750e+01 1.469987678527832031e+01 5.888283252716064453e-01 1.568717598915100098e+00 6.472638249397277832e-01 9.130614995956420898e-01
2.055000000000000000e+03 3.424672317504882812e+01 -1.391011428833007812e+01 -2.110589981079101562e+00 2.807327508926391602e-01 -5.489571690559387207e-01 -5.864600539207458496e-01
2.056000000000000000e+03 1.809621429443359375e+01 2.069320487976074219e+01 -4.480613861232995987e-03 3.244709968566894531e-01 9.599711745977401733e-02 5.087052583694458008e-01
2.057000000000000000e+03 5.646601104736328125e+01 5.543597698211669922e+00 5.745901465415954590e-01 1.359520435333251953e+00 5.802331566810607910e-01 -2.064170986413955688e-01
2.058000000000000000e+03 7.220442295074462891e+00 -2.159167098999023438e+01 -6.551750302314758301e-01 3.522826194763183594e+00 8.602953553199768066e-01 9.236719012260437012e-01
2.059000000000000000e+03 8.068997383117675781e+00 -2.043710708618164062e+01 -5.011035203933715820e-01 4.405974864959716797e+00 1.171461343765258789e+00 6.336714029312133789e-01
2.060000000000000000e+03 5.918775177001953125e+01 -6.709952831268310547e+00 -2.630515336990356445e+00 -3.649373352527618408e-01 -8.986358046531677246e-01 -9.067714810371398926e-01
2.061000000000000000e+03 7.121852111816406250e+01 -1.726450157165527344e+01 -3.101520240306854248e-01 1.134204196929931641e+01 3.309566974639892578e+00 -1.087051630020141602e+00
2.062000000000000000e+03 7.030959320068359375e+01 -1.803188323974609375e+01 -3.476353883743286133e-01 1.097206020355224609e+01 3.187327384948730469e+00 -2.041016966104507446e-01
2.063000000000000000e+03 1.519342803955078125e+01 -3.103612518310546875e+01 -3.473433256149291992e-01 1.335340499877929688e+00 2.963991463184356689e-01 -1.953652501106262207e-01
2.064000000000000000e+03 1.424112224578857422e+01 -2.926702308654785156e+01 -3.970510959625244141e-01 1.648959994316101074e+00 3.755726814270019531e-01 -2.105621993541717529e-01
2.065000000000000000e+03 4.817856979370117188e+01 2.584025764465332031e+01 8.199637532234191895e-01 1.598464250564575195e+00 7.255283594131469727e-01 1.972604840993881226e-01
2.066000000000000000e+03 4.524594497680664062e+01 2.951231384277343750e+01 6.468921303749084473e-01 1.755996346473693848e+00 7.208665609359741211e-01 2.370913177728652954e-01
2.067000000000000000e+03 3.896374511718750000e+01 1.717463493347167969e+01 7.057049870491027832e-01 1.695734500885009766e+00 7.204318642616271973e-01 6.718521118164062500e-01
2.068000000000000000e+03 7.910500049591064453e+00 2.041603660583496094e+01 -1.162419188767671585e-02 -2.072959672659635544e-03 -4.109145607799291611e-03 2.628922462463378906e-02
2.069000000000000000e+03 4.668481063842773438e+01 -1.114580345153808594e+01 -1.665730118751525879e+00 -3.918851260095834732e-03 -5.008946657180786133e-01 -6.235855221748352051e-01
2.070000000000000000e+03 4.001399612426757812e+01 1.935235786437988281e+01 5.600687265396118164e-01 1.798312902450561523e+00 7.075145244598388672e-01 5.714801549911499023e-01
2.071000000000000000e+03 4.192436599731445312e+01 7.224120140075683594e+00 4.003830850124359131e-01 8.129792809486389160e-01 3.640086948871612549e-01 1.369357705116271973e-01
2.072000000000000000e+03 4.550857162475585938e+01 -1.160815429687500000e+01 -1.656596064567565918e+00 1.035661995410919189e-02 -4.938718378543853760e-01 -6.199408769607543945e-01
2.073000000000000000e+03 5.358834838867187500e+01 2.117846488952636719e+01 7.198482751846313477e-01 1.868933320045471191e+00 7.766345143318176270e-01 -7.364497780799865723e-01
2.074000000000000000e+03 5.112508010864257812e+01 2.573145675659179688e+01 8.302080631256103516e-01 1.860576152801513672e+00 8.072352409362792969e-01 -1.493529081344604492e-01
2.075000000000000000e+03 4.276110458374023438e+01 -4.115789413452148438e+01 1.990574784576892853e-02 -3.735242187976837158e-01 -1.060855463147163391e-01 -7.342331856489181519e-02
2.076000000000000000e+03 5.244744110107421875e+01 -4.135491561889648438e+01 5.138458609580993652e-01 -1.122614461928606033e-02 1.507859230041503906e-01 -4.704474285244941711e-02
2.077000000000000000e+03 6.962039184570312500e+01 -2.087044143676757812e+01 -9.771086573600769043e-01 9.042555809020996094e+00 2.419634103775024414e+00 -1.203165054321289062e-01
2.078000000000000000e+03 7.160486602783203125e+01 -1.979685783386230469e+01 -6.736561655998229980e-01 9.983711242675781250e+00 2.793016433715820312e+00 -8.909683823585510254e-01
2.079000000000000000e+03 7.226946258544921875e+01 -1.666128921508789062e+01 1.900794506072998047e-01 1.068449687957763672e+01 3.262372970581054688e+00 -1.478414058685302734e+00
2.080000000000000000e+03 6.115800094604492188e+01 1.098746013641357422e+01 5.300756096839904785e-01 3.448827981948852539e+00 1.193671107292175293e+00 -9.845839142799377441e-01
2.081000000000000000e+03 6.009232711791992188e+01 1.343642902374267578e+01 6.929110288619995117e-01 3.390355110168457031e+00 1.224979877471923828e+00 -8.592781424522399902e-01
2.082000000000000000e+03 2.942928123474121094e+01 1.889243316650390625e+01 -5.801663547754287720e-02 1.278196811676025391e+00 3.660540282726287842e-01 3.612762093544006348e-01
2.083000000000000000e+03 2.691689491271972656e+01 1.885170936584472656e+01 -1.523541510105133057e-01 9.673764109611511230e-01 2.445066720247268677e-01 1.891021132469177246e-01
2.084000000000000000e+03 7.169639587402343750e+01 4.084163665771484375e+01 9.991171211004257202e-02 5.239853858947753906e+00 1.601929664611816406e+00 -2.848679199814796448e-02
2.085000000000000000e+03 2.570959472656250000e+01 1.930609512329101562e+01 -1.116410121321678162e-01 7.160852551460266113e-01 1.813332587480545044e-01 1.337857544422149658e-01
2.086000000000000000e+03 2.541708946228027344e+01 2.127113533020019531e+01 4.753465950489044189e-02 6.234811544418334961e-01 2.013047486543655396e-01 1.563539803028106689e-01
2.087000000000000000e+03 2.188545417785644531e+01 -3.024632453918457031e+00 8.029490709304809570e-01 5.166106224060058594e+00 1.790716528892517090e+00 2.202257156372070312e+00
2.088000000000000000e+03 2.123359489440917969e+01 -3.139085531234741211e+00 2.980547845363616943e-01 5.502176284790039062e+00 1.740069270133972168e+00 1.398469448089599609e+00
2.089000000000000000e+03 2.305571937561035156e+01 1.397214651107788086e+00 -2.319814115762710571e-01 2.427118778228759766e+00 6.585412025451660156e-01 1.537822723388671875e+00
2.090000000000000000e+03 2.065913581848144531e+01 -2.790282011032104492e+00 1.056852377951145172e-02 4.414582729339599609e+00 1.327545404434204102e+00 3.544056713581085205e-01
2.091000000000000000e+03 2.233551025390625000e+01 -3.688959360122680664e+00 2.224250793457031250e+00 5.154415607452392578e+00 2.213599920272827148e+00 3.259202718734741211e+00
2.092000000000000000e+03 2.273739433288574219e+01 -4.326590538024902344e+00 4.012527465820312500e+00 4.371069908142089844e+00 2.515079259872436523e+00 3.671354770660400391e+00
2.093000000000000000e+03 2.271647453308105469e+01 -3.386621475219726562e+00 2.022673606872558594e+00 4.543588638305664062e+00 1.969878673553466797e+00 3.101114988327026367e+00
2.094000000000000000e+03 2.239749145507812500e+01 -4.023628234863281250e+00 3.004880428314208984e+00 5.108721256256103516e+00 2.434080600738525391e+00 3.618408918380737305e+00
2.095000000000000000e+03 1.957899475097656250e+01 -2.359213590621948242e+00 1.228367090225219727e-01 2.156921625137329102e+00 6.839274764060974121e-01 -4.800466597080230713e-01
2.096000000000000000e+03 1.986149024963378906e+01 -2.901170492172241211e+00 1.143525242805480957e-01 2.878148317337036133e+00 8.977502584457397461e-01 -4.970512986183166504e-01
2.097000000000000000e+03 2.258402442932128906e+01 -5.976008415222167969e+00 7.985055923461914062e+00 3.179766416549682617e+00 3.349446773529052734e+00 1.850528955459594727e+00
2.098000000000000000e+03 2.242847442626953125e+01 -4.991099357604980469e+00 6.113471984863281250e+00 4.413800239562988281e+00 3.158181667327880859e+00 3.892198085784912109e+00
2.099000000000000000e+03 1.845193481445312500e+01 -1.096769905090332031e+01 -2.338619709014892578e+00 1.412396728992462158e-01 -6.592139601707458496e-01 3.215740203857421875e+00
2.100000000000000000e+03 1.986486625671386719e+01 -8.354092597961425781e+00 2.960713386535644531e+00 5.081489562988281250e+00 2.412660837173461914e+00 2.816319704055786133e+00
2.101000000000000000e+03 1.824607276916503906e+01 -6.857516288757324219e+00 7.901115894317626953e+00 -3.941794335842132568e-01 2.252080917358398438e+00 2.852855443954467773e+00
2.102000000000000000e+03 1.698671722412109375e+01 -5.987950325012207031e+00 4.976318836212158203e+00 -1.660690307617187500e+00 9.946885704994201660e-01 1.000211954116821289e+00
2.103000000000000000e+03 1.623121452331542969e+01 -5.963546752929687500e+00 4.145638465881347656e+00 -1.728987336158752441e+00 7.249952554702758789e-01 1.192531108856201172e+00
2.104000000000000000e+03 1.998446464538574219e+01 -1.581368595361709595e-01 -8.331807702779769897e-02 1.721621632575988770e+00 4.914910495281219482e-01 7.721724361181259155e-02
2.105000000000000000e+03 2.488448333740234375e+01 2.652957439422607422e+00 -1.244797483086585999e-01 2.653581142425537109e+00 7.587304711341857910e-01 1.649640560150146484e+00
2.106000000000000000e+03 1.487465572357177734e+01 -5.603991985321044922e+00 2.586745023727416992e+00 -1.317004799842834473e+00 3.809220790863037109e-01 1.588953733444213867e+00
2.107000000000000000e+03 1.451987552642822266e+01 -9.264875411987304688e+00 1.311197757720947266e+00 -1.996701002120971680e+00 -2.056509703397750854e-01 4.149370193481445312e+00
2.108000000000000000e+03 2.001356887817382812e+01 1.304188847541809082e+00 -1.768811643123626709e-01 1.153890132904052734e+00 2.931027114391326904e-01 1.885985434055328369e-01
2.109000000000000000e+03 1.942543983459472656e+01 7.444071173667907715e-01 -1.193100064992904663e-01 1.040636658668518066e+00 2.763980031013488770e-01 -7.537008821964263916e-02
2.110000000000000000e+03 6.337584972381591797e+00 5.064578533172607422e+00 -5.689251795411109924e-02 -6.504546105861663818e-02 -3.658139333128929138e-02 3.166071176528930664e-01
2.111000000000000000e+03 7.936170101165771484e+00 5.408295631408691406e+00 -5.563167482614517212e-02 4.946368280798196793e-03 -1.520559191703796387e-02 3.130186498165130615e-01
2.112000000000000000e+03 7.827305316925048828e+00 6.601405620574951172e+00 4.604984447360038757e-02 1.729924976825714111e-02 1.900472864508628845e-02 3.185805976390838623e-01
2.113000000000000000e+03 9.370818138122558594e+00 4.802249431610107422e+00 -1.066415384411811829e-01 9.242407977581024170e-02 -4.265237133949995041e-03 2.773716747760772705e-01
2.114000000000000000e+03 4.740819931030273438e+00 5.329740047454833984e+00 -3.501110896468162537e-02 -1.373268365859985352e-01 -5.170138552784919739e-02 2.820971906185150146e-01
2.115000000000000000e+03 1.951488685607910156e+01 -1.089374446868896484e+01 -2.269492626190185547e+00 1.458849549293518066e+00 -2.431928962469100952e-01 2.302145481109619141e+00
2.116000000000000000e+03 6.097964763641357422e+00 5.826724052429199219e+00 -1.635075174272060394e-02 -9.144588559865951538e-02 -3.233899176120758057e-02 3.123975098133087158e-01
2.117000000000000000e+03 7.921480178833007812e+00 5.942030429840087891e+00 -6.171568296849727631e-03 9.505562484264373779e-03 1.000198302790522575e-03 3.112804889678955078e-01
2.118000000000000000e+03 1.337104129791259766e+01 -5.880806922912597656e+00 1.657554984092712402e+00 -8.009803295135498047e-01 2.569723725318908691e-01 2.176306724548339844e+00
2.119000000000000000e+03 1.517171955108642578e+01 -8.584600448608398438e+00 2.401681423187255859e+00 -2.044446229934692383e+00 1.071705818176269531e-01 3.738431453704833984e+00
2.120000000000000000e+03 1.870665359497070312e+01 -7.854031085968017578e+00 5.257522583007812500e+00 1.937928676605224609e+00 2.158635377883911133e+00 4.290210247039794922e+00
2.121000000000000000e+03 5.829827308654785156e+00 -6.081977844238281250e+00 -7.815205454826354980e-01 1.323013305664062500e+00 1.624478399753570557e-01 -1.142000317573547363e+00
2.122000000000000000e+03 5.537722587585449219e+00 -5.100252151489257812e+00 -8.005461692810058594e-01 8.426790833473205566e-01 1.263987086713314056e-02 -1.007965803146362305e+00
2.123000000000000000e+03 2.715620613098144531e+01 4.186251640319824219e+00 3.242293894290924072e-01 2.603406190872192383e+00 8.782906532287597656e-01 1.154364109039306641e+00
2.124000000000000000e+03 6.509274482727050781e+00 -6.177873611450195312e+00 -8.120110630989074707e-01 1.730945348739624023e+00 2.756802737712860107e-01 -7.370010018348693848e-01
2.125000000000000000e+03 9.354780197143554688e+00 -4.863121509552001953e+00 -7.549196481704711914e-01 1.261144876480102539e+00 1.518675535917282104e-01 6.107464432716369629e-01
2.126000000000000000e+03 1.178356075286865234e+01 -6.017292022705078125e+00 5.606787800788879395e-01 4.242167472839355469e-01 2.954686582088470459e-01 2.232310295104980469e+00
2.127000000000000000e+03 1.061698436737060547e+01 -5.158534049987792969e+00 -2.121720016002655029e-01 8.416737914085388184e-01 1.888505220413208008e-01 1.379058480262756348e+00
2.128000000000000000e+03 9.523015975952148438e+00 -5.538366317749023438e+00 -6.858401894569396973e-01 1.680904388427734375e+00 2.985192537307739258e-01 1.035491943359375000e+00
2.129000000000000000e+03 1.258902645111083984e+01 -7.080051422119140625e+00 1.203752875328063965e+00 -9.719859808683395386e-02 3.319662809371948242e-01 3.080521345138549805e+00
2.130000000000000000e+03 1.300324630737304688e+01 -6.550118446350097656e+00 1.511016011238098145e+00 -4.676544964313507080e-01 3.130084276199340820e-01 2.809555292129516602e+00
2.131000000000000000e+03 8.465508460998535156e+00 -5.230231761932373047e+00 -8.958546519279479980e-01 1.614572644233703613e+00 2.156154066324234009e-01 3.545637130737304688e-01
2.132000000000000000e+03 1.178831195831298828e+01 -7.547396183013916016e+00 6.352823972702026367e-01 8.504937887191772461e-01 4.457328617572784424e-01 3.174556255340576172e+00
2.133000000000000000e+03 1.839565849304199219e+01 2.331766128540039062e+00 -4.733534455299377441e-01 3.390721976757049561e-01 -4.028438031673431396e-02 -4.271070063114166260e-01
2.134000000000000000e+03 2.055477333068847656e+01 -1.216624546051025391e+01 -4.397760391235351562e+00 1.115573167800903320e+00 -9.846561551094055176e-01 1.515221357345581055e+00
2.135000000000000000e+03 3.205871963500976562e+01 -1.278499889373779297e+01 -1.838554859161376953e+00 3.430985510349273682e-01 -4.486368894577026367e-01 -7.133070230484008789e-01
2.136000000000000000e+03 9.073288917541503906e+00 9.020159721374511719e+00 2.177112996578216553e-01 1.685481965541839600e-01 1.158778518438339233e-01 2.561927735805511475e-01
2.137000000000000000e+03 1.345424365997314453e+01 -8.482975959777832031e+00 1.623364448547363281e+00 -1.259068369865417480e+00 1.092888340353965759e-01 4.198626518249511719e+00
2.138000000000000000e+03 2.013249778747558594e+01 -1.127183055877685547e+01 -2.814351081848144531e+00 1.591651797294616699e+00 -3.668097853660583496e-01 1.758863329887390137e+00
2.139000000000000000e+03 2.158772850036621094e+01 -1.153577709197998047e+01 -3.147578239440917969e+00 1.795310854911804199e+00 -4.056802093982696533e-01 4.919177889823913574e-01
2.140000000000000000e+03 7.063674163818359375e+01 -5.541119098663330078e+00 -6.540756821632385254e-01 1.238497066497802734e+01 3.519268512725830078e+00 5.026696324348449707e-01
2.141000000000000000e+03 1.880265808105468750e+01 1.675671815872192383e+00 -2.578354775905609131e-01 5.527056455612182617e-01 8.846104145050048828e-02 -3.007069826126098633e-01
2.142000000000000000e+03 1.764221382141113281e+01 -9.591680526733398438e+00 9.077978134155273438e-01 -4.874379336833953857e-01 1.261079609394073486e-01 3.810860157012939453e+00
2.143000000000000000e+03 6.911918640136718750e+01 -7.805401086807250977e-01 -1.387633323669433594e+00 7.737896919250488281e+00 1.905079126358032227e+00 -1.801111459732055664e+00
2.144000000000000000e+03 6.537699127197265625e+01 -2.174061536788940430e+00 -6.740893125534057617e-01 4.113755702972412109e+00 1.031899929046630859e+00 -3.140981435775756836e+00
2.145000000000000000e+03 2.466356849670410156e+01 -1.224808406829833984e+01 -2.780985593795776367e+00 1.345540165901184082e+00 -4.306336641311645508e-01 -6.883664727210998535e-01
2.146000000000000000e+03 2.523766136169433594e+01 -1.148606014251708984e+01 -1.688494682312011719e+00 1.265379548072814941e+00 -1.269345283508300781e-01 -9.859497547149658203e-01
2.147000000000000000e+03 1.596017074584960938e+01 -9.337640762329101562e+00 1.612090945243835449e+00 -2.084829807281494141e+00 -1.418216377496719360e-01 3.885037660598754883e+00
2.148000000000000000e+03 1.214068984985351562e+01 5.631352424621582031e+00 -6.847421079874038696e-02 4.402762949466705322e-01 1.115406230092048645e-01 1.371611952781677246e-01
2.149000000000000000e+03 1.193944549560546875e+01 7.702555179595947266e+00 1.773175150156021118e-01 5.685696601867675781e-01 2.237661480903625488e-01 1.664960086345672607e-01
2.150000000000000000e+03 1.043266105651855469e+01 9.552903175354003906e+00 2.730616629123687744e-01 3.825019001960754395e-01 1.966690719127655029e-01 2.160511463880538940e-01
2.151000000000000000e+03 2.392050170898437500e+01 -1.213177394866943359e+01 -2.909480810165405273e+00 1.457883358001708984e+00 -4.354791939258575439e-01 -5.059492588043212891e-01
2.152000000000000000e+03 2.214839363098144531e+01 -1.209595680236816406e+01 -3.737203121185302734e+00 1.566167235374450684e+00 -6.513107419013977051e-01 2.807084619998931885e-01
2.153000000000000000e+03 9.417596817016601562e+00 -8.583645820617675781e+00 -8.137423396110534668e-01 4.274767398834228516e+00 1.038307428359985352e+00 1.761307239532470703e+00
2.154000000000000000e+03 6.207480430603027344e+00 -1.027736282348632812e+01 6.803488731384277344e-01 3.262350320816040039e+00 1.182809710502624512e+00 -1.795979142189025879e+00
2.155000000000000000e+03 7.367950439453125000e+01 -8.615094184875488281e+00 1.612824201583862305e+00 9.745468139648437500e+00 3.407487630844116211e+00 1.032321095466613770e+00
2.156000000000000000e+03 7.300731658935546875e+01 -1.106946659088134766e+01 2.596646070480346680e+00 1.066674327850341797e+01 3.979016780853271484e+00 -5.031580924987792969e-01
2.157000000000000000e+03 2.954318809509277344e+01 1.081773090362548828e+01 4.690054655075073242e-01 1.901779055595397949e+00 7.112353444099426270e-01 1.167729854583740234e+00
2.158000000000000000e+03 2.939669227600097656e+01 1.201034450531005859e+01 2.792291343212127686e-01 1.783589243888854980e+00 6.188455224037170410e-01 1.065677404403686523e+00
2.159000000000000000e+03 4.317369461059570312e+01 -1.244183921813964844e+01 -1.680050969123840332e+00 5.943278595805168152e-02 -4.861854612827301025e-01 -5.961945652961730957e-01
2.160000000000000000e+03 3.946181106567382812e+01 -1.225883674621582031e+01 -1.557245731353759766e+00 1.459966599941253662e-01 -4.233747124671936035e-01 -5.758862495422363281e-01
2.161000000000000000e+03 1.060836696624755859e+01 -5.861122131347656250e+00 -1.819847226142883301e-01 1.237430334091186523e+00 3.166337013244628906e-01 1.735829830169677734e+00
2.162000000000000000e+03 1.041963863372802734e+01 -9.054935455322265625e+00 -1.970553696155548096e-01 3.896331310272216797e+00 1.109782814979553223e+00 3.590360164642333984e+00
2.163000000000000000e+03 4.902521896362304688e+01 -1.015987968444824219e+01 -1.718259572982788086e+00 -3.512956574559211731e-02 -5.260167121887207031e-01 -6.273284554481506348e-01
2.164000000000000000e+03 1.005922508239746094e+01 1.512363910675048828e+01 2.099463641643524170e-01 3.291589617729187012e-01 1.617316007614135742e-01 5.713490769267082214e-02
2.165000000000000000e+03 3.038606452941894531e+01 7.579817771911621094e+00 8.506121039390563965e-01 1.780934929847717285e+00 7.894641160964965820e-01 1.130350589752197266e+00
2.166000000000000000e+03 6.909543609619140625e+01 -2.408363723754882812e+01 -1.105258464813232422e+00 7.806375980377197266e+00 2.010335206985473633e+00 1.060137152671813965e-01
2.167000000000000000e+03 1.229842853546142578e+01 6.447854042053222656e+00 1.117224805057048798e-02 5.296485424041748047e-01 1.622462272644042969e-01 1.326649188995361328e-01
2.168000000000000000e+03 3.201401901245117188e+01 -1.382767486572265625e+01 -2.302237987518310547e+00 3.667661249637603760e-01 -5.806415677070617676e-01 -6.029985547065734863e-01
2.169000000000000000e+03 3.110654830932617188e+01 -1.171919441223144531e+01 -1.343224525451660156e+00 3.522286117076873779e-01 -2.972987592220306396e-01 -7.990698218345642090e-01
2.170000000000000000e+03 3.096433448791503906e+01 9.959353446960449219e+00 6.324534416198730469e-01 1.702031254768371582e+00 7.003454566001892090e-01 1.163054704666137695e+00
2.171000000000000000e+03 1.716458511352539062e+01 -6.911440849304199219e+00 5.745066165924072266e+00 -1.733715057373046875e+00 1.203405380249023438e+00 2.460597276687622070e+00
2.172000000000000000e+03 1.448423576354980469e+01 -8.608526229858398438e+00 2.192287445068359375e+00 -1.985315322875976562e+00 6.209164112806320190e-02 4.007056713104248047e+00
2.173000000000000000e+03 2.377297401428222656e+01 1.395195841789245605e+00 -1.536095738410949707e-01 2.605103254318237305e+00 7.354480624198913574e-01 1.691702723503112793e+00
2.174000000000000000e+03 1.507273197174072266e+01 2.023134613037109375e+01 -8.669522404670715332e-02 5.196924209594726562e-01 1.298991590738296509e-01 3.702202439308166504e-01
2.175000000000000000e+03 1.374954700469970703e+01 2.009180641174316406e+01 -1.000965088605880737e-01 5.218282938003540039e-01 1.265195310115814209e-01 2.756218910217285156e-01
2.176000000000000000e+03 4.774403095245361328e+00 -6.398045063018798828e+00 -5.785570740699768066e-01 6.813800334930419922e-01 3.084689937531948090e-02 -1.451011657714843750e+00
2.177000000000000000e+03 3.312702560424804688e+01 -1.388862419128417969e+01 -2.197854757308959961e+00 3.128209412097930908e-01 -5.655100941658020020e-01 -5.970545411109924316e-01
2.178000000000000000e+03 5.688085556030273438e+01 4.304815292358398438e+00 5.144365429878234863e-01 1.274085283279418945e+00 5.365565419197082520e-01 -3.470332026481628418e-01
2.179000000000000000e+03 5.340213394165039062e+01 -6.235889911651611328e+00 -1.495084643363952637e+00 -4.050675313919782639e-03 -4.497405886650085449e-01 -3.834287226200103760e-01
2.180000000000000000e+03 4.955621337890625000e+01 -8.655074119567871094e+00 -1.550624132156372070e+00 4.845771007239818573e-03 -4.637335240840911865e-01 -5.042575597763061523e-01
2.181000000000000000e+03 3.870178985595703125e+01 -1.356923770904541016e+01 -1.826895594596862793e+00 1.635770797729492188e-01 -4.989955425262451172e-01 -5.835803151130676270e-01
2.182000000000000000e+03 3.840430831909179688e+01 -1.246428489685058594e+01 -1.593821048736572266e+00 1.648779064416885376e-01 -4.286829531192779541e-01 -5.906820893287658691e-01
2.183000000000000000e+03 4.160280227661132812e+01 -1.168915748596191406e+01 -1.504750370979309082e+00 1.054770201444625854e-01 -4.197819828987121582e-01 -5.579173564910888672e-01
2.184000000000000000e+03 2.786403274536132812e+01 3.701912164688110352e+00 4.776295125484466553e-01 2.348649978637695312e+00 8.478838801383972168e-01 1.254444956779479980e+00
2.185000000000000000e+03 5.269334030151367188e+01 2.398356437683105469e+00 5.064246654510498047e-01 3.565287888050079346e-01 2.588860392570495605e-01 2.233422361314296722e-02
2.186000000000000000e+03 5.653937816619873047e+00 -9.251819610595703125e+00 1.543215960264205933e-01 2.079648971557617188e+00 6.701912283897399902e-01 -1.408313035964965820e+00
2.187000000000000000e+03 5.126008605957031250e+01 -9.061821937561035156e+00 -1.795479059219360352e+00 -6.828767806291580200e-02 -5.591300129890441895e-01 -6.214194893836975098e-01
2.188000000000000000e+03 8.413135528564453125e+00 -2.617329597473144531e+01 -7.232981324195861816e-01 2.430737495422363281e+00 5.122318267822265625e-01 5.303103327751159668e-01
2.189000000000000000e+03 6.556894683837890625e+01 -2.687132644653320312e+01 -8.754118084907531738e-01 5.012395381927490234e+00 1.241095185279846191e+00 6.219182014465332031e-01
2.190000000000000000e+03 7.163073730468750000e+01 -2.808233833312988281e+01 -6.490672230720520020e-01 8.113955497741699219e+00 2.239466667175292969e+00 -1.651894897222518921e-01
2.191000000000000000e+03 6.926918792724609375e+01 -3.178950119018554688e+01 -4.070434570312500000e-01 6.629045009613037109e+00 1.866600513458251953e+00 2.405563145875930786e-01
2.192000000000000000e+03 7.224547576904296875e+01 -7.717091560363769531e+00 1.639427542686462402e+00 1.102847194671630859e+01 3.800369739532470703e+00 1.143047928810119629e+00
2.193000000000000000e+03 7.296321105957031250e+01 -4.841088771820068359e+00 -5.042647719383239746e-01 1.035941314697265625e+01 2.956544399261474609e+00 1.160411596298217773e+00
2.194000000000000000e+03 7.117037200927734375e+01 -3.263598251342773438e+01 -2.777242362499237061e-01 7.396075248718261719e+00 2.135505437850952148e+00 9.038736671209335327e-02
2.195000000000000000e+03 7.210760498046875000e+01 -2.064817810058593750e+01 -9.288173317909240723e-01 9.685080528259277344e+00 2.626878976821899414e+00 -1.102608919143676758e+00
2.196000000000000000e+03 7.387541294097900391e+00 2.807636451721191406e+01 -1.862400583922863007e-02 -2.133972942829132080e-01 -6.960639357566833496e-02 6.611395627260208130e-02
2.197000000000000000e+03 8.977785110473632812e+00 3.301969146728515625e+01 1.653018593788146973e-02 -1.849068701267242432e-01 -5.051300302147865295e-02 7.716168463230133057e-02
2.198000000000000000e+03 7.074929046630859375e+01 1.697143745422363281e+01 1.867571324110031128e-01 5.574832439422607422e+00 1.728476881980895996e+00 -7.146852612495422363e-01
2.199000000000000000e+03 7.286389923095703125e+01 1.570472908020019531e+01 1.161975339055061340e-01 6.121835708618164062e+00 1.871410012245178223e+00 -6.230106949806213379e-01
2.200000000000000000e+03 7.170500183105468750e+01 2.557275581359863281e+01 1.262599825859069824e-01 5.487879753112792969e+00 1.684242010116577148e+00 -4.072579145431518555e-01
2.201000000000000000e+03 7.325571441650390625e+01 -1.886613130569458008e+00 -1.059612035751342773e+00 9.095606803894042969e+00 2.410798549652099609e+00 3.389707803726196289e-01
2.202000000000000000e+03 7.376463317871093750e+01 -2.659062004089355469e+01 -5.677399039268493652e-01 8.929204940795898438e+00 2.508439540863037109e+00 -5.293551683425903320e-01
2.203000000000000000e+03 7.192401885986328125e+01 9.944858551025390625e+00 -5.020153522491455078e-02 6.319279193878173828e+00 1.880723357200622559e+00 -8.520346879959106445e-01
2.204000000000000000e+03 7.310166931152343750e+01 8.752799034118652344e+00 -1.147355809807777405e-01 6.725855827331542969e+00 1.983336091041564941e+00 -7.264458537101745605e-01
2.205000000000000000e+03 7.461890411376953125e+01 -1.669515800476074219e+01 1.890316158533096313e-01 9.377571105957031250e+00 2.869980812072753906e+00 -1.834324598312377930e+00
2.206000000000000000e+03 7.222337341308593750e+01 -1.922812271118164062e+01 -7.333800792694091797e-01 1.009412288665771484e+01 2.808222770690917969e+00 -1.263535976409912109e+00
2.207000000000000000e+03 7.468006134033203125e+01 -1.905655097961425781e+01 -3.632794618606567383e-01 9.361889839172363281e+00 2.699583292007446289e+00 -1.678028345108032227e+00
2.208000000000000000e+03 7.142598724365234375e+01 3.899006366729736328e+00 -6.503287553787231445e-01 7.087903022766113281e+00 1.931272268295288086e+00 -8.841396570205688477e-01
2.209000000000000000e+03 7.502768707275390625e+01 -9.537592887878417969e+00 1.251739978790283203e+00 8.715031623840332031e+00 2.990031480789184570e+00 6.003226637840270996e-01
2.210000000000000000e+03 7.403922271728515625e+01 -1.099564170837402344e+01 1.880505323410034180e+00 9.546402931213378906e+00 3.428072452545166016e+00 -4.342446103692054749e-02
2.211000000000000000e+03 7.395967864990234375e+01 -9.839728355407714844e+00 1.899845719337463379e+00 9.633967399597167969e+00 3.460144042968750000e+00 1.391149908304214478e-01
2.212000000000000000e+03 7.409339141845703125e+01 -1.454848170280456543e+00 -9.116346836090087891e-01 8.940482139587402344e+00 2.408654212951660156e+00 6.349300742149353027e-01
2.213000000000000000e+03 7.349388885498046875e+01 -1.350302982330322266e+01 1.750340342521667480e+00 1.054123783111572266e+01 3.687473535537719727e+00 -1.414016366004943848e+00
2.214000000000000000e+03 7.379011535644531250e+01 -3.906339108943939209e-01 -9.160812497138977051e-01 8.561055183410644531e+00 2.293492317199707031e+00 2.049692124128341675e-01
2.215000000000000000e+03 7.300814819335937500e+01 -7.694719433784484863e-01 -1.180197119712829590e+00 8.888379096984863281e+00 2.312454700469970703e+00 1.201713457703590393e-01
2.216000000000000000e+03 7.414045715332031250e+01 5.831062793731689453e+00 -3.109733760356903076e-01 7.338296413421630859e+00 2.108196973800659180e+00 -4.829180836677551270e-01
2.217000000000000000e+03 7.155869293212890625e+01 4.952379703521728516e+00 -5.171824097633361816e-01 6.929963111877441406e+00 1.923834204673767090e+00 -9.101263284683227539e-01
2.218000000000000000e+03 7.451374053955078125e+01 -2.032450294494628906e+01 -4.647237658500671387e-01 9.412904739379882812e+00 2.684454202651977539e+00 -1.437734723091125488e+00
2.219000000000000000e+03 7.404875946044921875e+01 1.283897972106933594e+01 3.316572308540344238e-02 6.587436199188232422e+00 1.986180543899536133e+00 -6.189416050910949707e-01
2.220000000000000000e+03 7.208498382568359375e+01 8.830363273620605469e+00 -1.226656809449195862e-01 6.495217800140380859e+00 1.911765694618225098e+00 -8.080467581748962402e-01
2.221000000000000000e+03 2.605946159362792969e+01 2.942921161651611328e+00 1.113661155104637146e-01 2.629813671112060547e+00 8.223539590835571289e-01 1.448644518852233887e+00
2.222000000000000000e+03 8.859622001647949219e+00 2.001006126403808594e+01 -1.304054912179708481e-02 1.101890951395034790e-01 2.914456464350223541e-02 3.554167598485946655e-02
2.223000000000000000e+03 6.828569030761718750e+01 -2.529727745056152344e+01 -1.018300414085388184e+00 6.911997795104980469e+00 1.768109202384948730e+00 2.775901854038238525e-01
2.224000000000000000e+03 6.659613800048828125e+01 -2.761134910583496094e+01 -8.168216347694396973e-01 5.555276870727539062e+00 1.421536564826965332e+00 5.283612012863159180e-01
2.225000000000000000e+03 5.953260421752929688e+00 2.771317672729492188e+01 -2.056851051747798920e-02 -3.154482543468475342e-01 -1.008050292730331421e-01 3.830278292298316956e-02
2.226000000000000000e+03 5.801162719726562500e+01 -4.284697055816650391e+00 -1.191265940666198730e+00 -1.601948030292987823e-02 -3.621856272220611572e-01 -4.953165352344512939e-01
2.227000000000000000e+03 7.299859046936035156e+00 -2.366775321960449219e+01 -7.650671601295471191e-01 2.817825317382812500e+00 6.158274412155151367e-01 8.489688634872436523e-01
2.228000000000000000e+03 5.803922176361083984e+00 -2.356832885742187500e+01 -5.996964573860168457e-01 1.919769167900085449e+00 3.960218429565429688e-01 1.196710944175720215e+00
2.229000000000000000e+03 5.666227340698242188e+00 1.676067924499511719e+01 6.443498283624649048e-02 -2.246259152889251709e-01 -4.805728048086166382e-02 7.349764462560415268e-03
2.230000000000000000e+03 7.567652225494384766e+00 1.695286560058593750e+01 8.274701982736587524e-02 -8.605750277638435364e-03 2.224238030612468719e-02 1.234514825046062469e-02
2.231000000000000000e+03 8.686558723449707031e+00 1.743412399291992188e+01 6.668134033679962158e-02 1.176266968250274658e-01 5.529241263866424561e-02 2.284152992069721222e-02
2.232000000000000000e+03 6.291470050811767578e+00 1.575887775421142578e+01 9.569887071847915649e-02 -1.494208723306655884e-01 -1.611659862101078033e-02 3.489241749048233032e-02
2.233000000000000000e+03 5.546532154083251953e+00 1.305846405029296875e+01 1.281274110078811646e-01 -2.154043167829513550e-01 -2.618307061493396759e-02 1.121393740177154541e-01
2.234000000000000000e+03 5.507904052734375000e+00 2.013165664672851562e+01 -6.618847255595028400e-04 -2.717659771442413330e-01 -8.172835409641265869e-02 -1.279234327375888824e-02
2.235000000000000000e+03 7.205130100250244141e+00 1.591881656646728516e+01 1.098961904644966125e-01 -5.481020361185073853e-02 1.652579568326473236e-02 3.591050207614898682e-02
2.236000000000000000e+03 4.446316146850585938e+01 3.194386720657348633e+00 6.237037181854248047e-01 2.051819115877151489e-01 2.486657053232192993e-01 1.558012664318084717e-01
2.237000000000000000e+03 4.837442398071289062e+01 1.573271989822387695e+00 4.187533855438232422e-01 1.613962352275848389e-01 1.740448921918869019e-01 1.094201952219009399e-01
2.238000000000000000e+03 8.141494750976562500e+00 -3.210363388061523438e+01 -4.303919672966003418e-01 1.598055362701416016e+00 3.502990007400512695e-01 3.895040154457092285e-01
2.239000000000000000e+03 7.591257572174072266e+00 2.655068778991699219e+01 -3.438036516308784485e-02 -1.614161580801010132e-01 -5.873895809054374695e-02 6.448630988597869873e-02
2.240000000000000000e+03 5.931133651733398438e+01 -2.783049106597900391e+00 -6.401442289352416992e-01 2.927499413490295410e-01 -1.042182892560958862e-01 -7.920938730239868164e-01
2.241000000000000000e+03 5.836975479125976562e+01 -2.262106418609619141e+00 -4.244081676006317139e-01 2.765583097934722900e-01 -4.435495659708976746e-02 -6.122646331787109375e-01
2.242000000000000000e+03 8.989554405212402344e+00 7.067072391510009766e+00 9.313320368528366089e-02 1.367447227239608765e-01 6.896337866783142090e-02 2.985964417457580566e-01
2.243000000000000000e+03 4.982788085937500000e+00 7.309164047241210938e+00 4.960683733224868774e-02 -1.826363801956176758e-01 -3.990886360406875610e-02 2.766145467758178711e-01
2.244000000000000000e+03 6.557785511016845703e+00 8.468846321105957031e+00 1.178292632102966309e-01 -9.284038841724395752e-02 7.496662437915802002e-03 2.776260077953338623e-01
2.245000000000000000e+03 3.524324798583984375e+01 -1.279938983917236328e+01 -1.702030777931213379e+00 2.357508540153503418e-01 -4.398839771747589111e-01 -6.323891282081604004e-01
2.246000000000000000e+03 3.101583862304687500e+01 -1.270884990692138672e+01 -1.878591418266296387e+00 3.991208374500274658e-01 -4.438411891460418701e-01 -7.440645694732666016e-01
2.247000000000000000e+03 5.783557510375976562e+01 5.630292415618896484e+00 4.745779037475585938e-01 1.810732483863830566e+00 6.855931282043457031e-01 -4.731790721416473389e-01
2.248000000000000000e+03 9.778963088989257812e+00 1.177395153045654297e+01 2.931531667709350586e-01 2.919437289237976074e-01 1.755290776491165161e-01 1.559904813766479492e-01
2.249000000000000000e+03 6.379280090332031250e+00 -1.202215957641601562e+01 2.013062000274658203e+00 4.224086761474609375e+00 1.871144652366638184e+00 -1.512187004089355469e+00
2.250000000000000000e+03 7.783251285552978516e+00 8.603023529052734375e+00 1.654720902442932129e-01 2.724271453917026520e-02 5.781443789601325989e-02 2.762623727321624756e-01
2.251000000000000000e+03 6.294423580169677734e+00 9.210103034973144531e+00 1.373175084590911865e-01 -1.195916086435317993e-01 5.317770875990390778e-03 2.588261067867279053e-01
2.252000000000000000e+03 3.407216644287109375e+01 1.388988399505615234e+01 4.289190173149108887e-01 1.558748483657836914e+00 5.963002443313598633e-01 9.936411380767822266e-01
2.253000000000000000e+03 3.885461807250976562e+01 1.275734710693359375e+01 6.066306829452514648e-01 1.651053428649902344e+00 6.773052215576171875e-01 9.203080534934997559e-01
2.254000000000000000e+03 1.123966979980468750e+01 1.870722389221191406e+01 -2.434501191601157188e-03 4.013470709323883057e-01 1.196737736463546753e-01 8.557033538818359375e-02
2.255000000000000000e+03 1.256604480743408203e+01 1.741618156433105469e+01 4.951393231749534607e-02 6.124534606933593750e-01 1.985902190208435059e-01 1.240719482302665710e-01
2.256000000000000000e+03 5.901618194580078125e+01 7.665164470672607422e+00 4.313361048698425293e-01 2.572267770767211914e+00 9.010812044143676758e-01 -7.106432318687438965e-01
2.257000000000000000e+03 5.761856842041015625e+01 6.864037990570068359e+00 4.579959511756896973e-01 2.063524484634399414e+00 7.564561367034912109e-01 -4.425890147686004639e-01
2.258000000000000000e+03 5.404479026794433594e+00 -7.663531780242919922e+00 -5.143420696258544922e-01 1.526679515838623047e+00 3.037012219429016113e-01 -1.513025879859924316e+00
2.259000000000000000e+03 6.933264160156250000e+01 -2.628681755065917969e+01 -9.852502346038818359e-01 7.439280986785888672e+00 1.936209201812744141e+00 7.694158703088760376e-02
2.260000000000000000e+03 4.014322280883789062e+01 6.946009635925292969e+00 4.450374245643615723e-01 9.768576025962829590e-01 4.265685081481933594e-01 4.020492732524871826e-01
2.261000000000000000e+03 4.102695846557617188e+01 6.432072639465332031e+00 4.719434678554534912e-01 8.223100900650024414e-01 3.882760703563690186e-01 2.729038596153259277e-01
2.262000000000000000e+03 5.108202362060546875e+01 7.866857051849365234e-01 2.676631212234497070e-01 2.009903788566589355e-01 1.405960619449615479e-01 3.998383134603500366e-02
2.263000000000000000e+03 4.337828826904296875e+01 -9.846533775329589844e+00 -1.265389204025268555e+00 7.810639590024948120e-02 -3.561848402023315430e-01 -4.818127453327178955e-01
2.264000000000000000e+03 4.270844268798828125e+01 -1.133368682861328125e+01 -1.480778813362121582e+00 7.741561532020568848e-02 -4.210089445114135742e-01 -5.539919734001159668e-01
2.265000000000000000e+03 5.285289001464843750e+01 2.668906784057617188e+01 7.645924687385559082e-01 2.217637777328491211e+00 8.946691155433654785e-01 -3.027713000774383545e-01
2.266000000000000000e+03 4.995585250854492188e+01 2.754405975341796875e+01 7.985044121742248535e-01 1.906722784042358398e+00 8.115681409835815430e-01 -2.915713191032409668e-02
2.267000000000000000e+03 3.912531661987304688e+01 9.277180671691894531e+00 4.186712205410003662e-01 1.372827410697937012e+00 5.374495983123779297e-01 7.066044807434082031e-01
2.268000000000000000e+03 3.910511016845703125e+01 1.041829395294189453e+01 4.635063111782073975e-01 1.512969017028808594e+00 5.929425954818725586e-01 8.453397154808044434e-01
2.269000000000000000e+03 6.027263641357421875e+01 1.044849014282226562e+01 5.433351993560791016e-01 3.143387317657470703e+00 1.106016755104064941e+00 -9.327461123466491699e-01
2.270000000000000000e+03 3.747524642944335938e+01 1.671546936035156250e+01 6.021924614906311035e-01 1.638821125030517578e+00 6.723040938377380371e-01 7.452490925788879395e-01
2.271000000000000000e+03 8.212572097778320312e+00 -2.267795944213867188e+01 -7.293817996978759766e-01 3.354721784591674805e+00 7.876020073890686035e-01 5.921261906623840332e-01
2.272000000000000000e+03 6.475679874420166016e+00 -2.268742179870605469e+01 -7.008490562438964844e-01 2.541685581207275391e+00 5.522509813308715820e-01 1.256570816040039062e+00
2.273000000000000000e+03 3.000846481323242188e+01 -1.260371875762939453e+01 -1.919610142707824707e+00 4.662049710750579834e-01 -4.360215663909912109e-01 -7.928185462951660156e-01
2.274000000000000000e+03 2.534947967529296875e+01 -1.215398979187011719e+01 -2.499906301498413086e+00 1.159543752670288086e+00 -4.021087586879730225e-01 -8.065966963768005371e-01
2.275000000000000000e+03 5.933782577514648438e+01 1.028445148468017578e+01 4.966815412044525146e-01 3.063127994537353516e+00 1.067942857742309570e+00 -7.680527567863464355e-01
2.276000000000000000e+03 6.178276443481445312e+01 1.008848476409912109e+01 4.788742661476135254e-01 3.453526258468627930e+00 1.179720163345336914e+00 -1.080674648284912109e+00
2.277000000000000000e+03 5.720412445068359375e+01 -6.594571590423583984e+00 -2.140357971191406250e+00 -2.003071755170822144e-01 -7.021995782852172852e-01 -6.712842583656311035e-01
2.278000000000000000e+03 7.326590728759765625e+01 3.338673019409179688e+01 6.770616024732589722e-02 5.494534015655517578e+00 1.668672084808349609e+00 -1.686330139636993408e-01
2.279000000000000000e+03 7.086726379394531250e+01 2.900519943237304688e+01 1.383604854345321655e-01 5.239758491516113281e+00 1.613435626029968262e+00 -3.278165757656097412e-01
2.280000000000000000e+03 6.173796463012695312e+01 -3.069806098937988281e+01 -3.332460522651672363e-01 2.428333997726440430e+00 6.285263895988464355e-01 4.003891348838806152e-01
2.281000000000000000e+03 2.923520851135253906e+01 1.568675994873046875e+01 -1.254280954599380493e-01 1.577767848968505859e+00 4.357019066810607910e-01 6.721152663230895996e-01
2.282000000000000000e+03 5.650080108642578125e+01 -2.402240037918090820e+00 -5.349621176719665527e-01 2.261949628591537476e-01 -9.263014048337936401e-02 -3.258926868438720703e-01
2.283000000000000000e+03 5.425030136108398438e+01 -5.438088893890380859e+00 -1.336359024047851562e+00 1.857379451394081116e-02 -3.953355848789215088e-01 -3.290363252162933350e-01
2.284000000000000000e+03 4.333026885986328125e+01 3.257040739059448242e+00 6.170433163642883301e-01 2.852887213230133057e-01 2.706995904445648193e-01 1.591562926769256592e-01
2.285000000000000000e+03 5.733820724487304688e+01 -3.152241897583007812e+01 -3.024809658527374268e-01 5.060833096504211426e-01 6.108070164918899536e-02 -3.059889562427997589e-02
2.286000000000000000e+03 1.095913124084472656e+01 -3.565095138549804688e+01 -3.557527661323547363e-01 1.428238511085510254e+00 3.217457234859466553e-01 1.091812103986740112e-01
2.287000000000000000e+03 3.912940597534179688e+01 2.133737182617187500e+01 4.367597997188568115e-01 1.743564128875732422e+00 6.540971398353576660e-01 5.212299227714538574e-01
2.288000000000000000e+03 6.377798080444335938e+01 -2.803430795669555664e+00 -6.696473807096481323e-02 1.556427955627441406e+00 4.468389749526977539e-01 -2.712922096252441406e+00
2.289000000000000000e+03 5.974784469604492188e+01 -1.865768551826477051e+00 -2.356462478637695312e-01 4.950049221515655518e-01 7.780759781599044800e-02 -9.154153466224670410e-01
2.290000000000000000e+03 4.377517700195312500e+01 1.996148681640625000e+01 6.066055297851562500e-01 1.835784554481506348e+00 7.327170372009277344e-01 8.138650655746459961e-01
2.291000000000000000e+03 3.980448150634765625e+01 -1.336138439178466797e+01 -1.786890745162963867e+00 1.410232186317443848e-01 -4.937602877616882324e-01 -5.902831554412841797e-01
2.292000000000000000e+03 4.052250671386718750e+01 -1.199879837036132812e+01 -1.529348731040954590e+00 1.233736872673034668e-01 -4.217925071716308594e-01 -5.719613432884216309e-01
2.293000000000000000e+03 7.028533935546875000e+01 -1.985700607299804688e+01 -8.533971905708312988e-01 9.947182655334472656e+00 2.728135585784912109e+00 -2.936922013759613037e-01
2.294000000000000000e+03 5.515383148193359375e+01 2.520246696472167969e+01 6.560921669006347656e-01 2.559126377105712891e+00 9.645655155181884766e-01 -5.310650467872619629e-01
2.295000000000000000e+03 7.266796112060546875e+01 -2.175229644775390625e+01 -7.747576832771301270e-01 9.345317840576171875e+00 2.571167945861816406e+00 -9.882580637931823730e-01
2.296000000000000000e+03 7.277940368652343750e+01 -1.988469696044921875e+01 -6.057667732238769531e-01 9.756057739257812500e+00 2.745087385177612305e+00 -1.192675471305847168e+00
2.297000000000000000e+03 4.759586715698242188e+01 -4.126712417602539062e+01 2.719090580940246582e-01 -4.113938212394714355e-01 -4.184542968869209290e-02 -6.127866357564926147e-02
2.298000000000000000e+03 8.850015640258789062e+00 1.436076641082763672e+01 2.120571881532669067e-01 1.681109964847564697e-01 1.140504553914070129e-01 7.860961556434631348e-02
2.299000000000000000e+03 9.763844490051269531e+00 1.286857509613037109e+01 2.803104221820831299e-01 2.978218197822570801e-01 1.734396666288375854e-01 1.237847730517387390e-01
2.300000000000000000e+03 5.524522018432617188e+01 2.501243829727172852e+00 4.547569751739501953e-01 6.666813492774963379e-01 3.364315032958984375e-01 -1.869623064994812012e-01
2.301000000000000000e+03 4.465340423583984375e+01 2.641235542297363281e+01 6.557353138923645020e-01 1.611743927001953125e+00 6.802437901496887207e-01 4.055229425430297852e-01
2.302000000000000000e+03 4.193522644042968750e+01 2.342504501342773438e+01 4.775633513927459717e-01 1.721016168594360352e+00 6.595738530158996582e-01 5.447511076927185059e-01
2.303000000000000000e+03 6.104315185546875000e+01 1.437117576599121094e+01 7.031993269920349121e-01 3.599601745605468750e+00 1.290840387344360352e+00 -8.335222601890563965e-01
2.304000000000000000e+03 6.087762832641601562e+01 1.630092430114746094e+01 6.645313501358032227e-01 3.636486053466796875e+00 1.290305256843566895e+00 -6.978071331977844238e-01
2.305000000000000000e+03 3.901082992553710938e+01 6.986681461334228516e+00 4.727328121662139893e-01 1.095673918724060059e+00 4.705220460891723633e-01 5.857779383659362793e-01
2.306000000000000000e+03 6.613766670227050781e+00 -3.047599220275878906e+01 -4.376824498176574707e-01 1.570751905441284180e+00 3.399208486080169678e-01 5.514581203460693359e-01
2.307000000000000000e+03 3.949864959716796875e+01 -3.807155990600585938e+01 -1.759019047021865845e-01 -2.191668003797531128e-01 -1.185206100344657898e-01 -1.033189296722412109e-01
2.308000000000000000e+03 7.411248016357421875e+01 2.145917320251464844e+01 9.342140704393386841e-02 6.021087646484375000e+00 1.834352731704711914e+00 -4.059271216392517090e-01
2.309000000000000000e+03 7.167893981933593750e+01 2.080175399780273438e+01 1.583829224109649658e-01 5.628767490386962891e+00 1.736145138740539551e+00 -5.313084125518798828e-01
2.310000000000000000e+03 7.445257568359375000e+01 -5.840813159942626953e+00 1.305899918079376221e-01 9.327768325805664062e+00 2.837507486343383789e+00 1.389618277549743652e+00
2.311000000000000000e+03 2.245988845825195312e+01 1.095563292503356934e+00 -2.004612237215042114e-01 2.263872146606445312e+00 6.190232634544372559e-01 1.348836064338684082e+00
2.312000000000000000e+03 2.152190399169921875e+01 -2.929881572723388672e+00 4.189336895942687988e-01 5.162983417510986328e+00 1.674575209617614746e+00 1.664578199386596680e+00
2.313000000000000000e+03 2.265638160705566406e+01 -6.218163013458251953e+00 7.932170391082763672e+00 3.029054641723632812e+00 3.288367509841918945e+00 1.284695625305175781e+00
2.314000000000000000e+03 1.841887664794921875e+01 -7.087524890899658203e+00 7.528670787811279297e+00 2.075497657060623169e-01 2.320866107940673828e+00 3.583156347274780273e+00
2.315000000000000000e+03 2.285600471496582031e+01 -5.667318820953369141e+00 7.134313583374023438e+00 2.973906517028808594e+00 3.032465934753417969e+00 2.396191120147705078e+00
2.316000000000000000e+03 2.246971321105957031e+01 -6.824725151062011719e+00 7.363757133483886719e+00 3.448236465454101562e+00 3.243598222732543945e+00 -1.003829240798950195e-01
2.317000000000000000e+03 1.786731529235839844e+01 -8.531135559082031250e+00 3.275922536849975586e+00 -6.706006079912185669e-02 9.626587629318237305e-01 4.001856327056884766e+00
2.318000000000000000e+03 2.229411506652832031e+01 -7.567028999328613281e+00 5.413398742675781250e+00 4.021186351776123047e+00 2.830375671386718750e+00 -9.582133889198303223e-01
2.319000000000000000e+03 1.933030128479003906e+01 -1.005603885650634766e+01 -6.958284378051757812e-01 1.851717710494995117e+00 3.467667698860168457e-01 2.736192226409912109e+00
2.320000000000000000e+03 1.730298423767089844e+01 -7.404042243957519531e+00 5.451621055603027344e+00 -1.392554521560668945e+00 1.217720031738281250e+00 3.100081682205200195e+00
2.321000000000000000e+03 2.066702270507812500e+01 -8.638199806213378906e+00 2.025632858276367188e+00 5.505066871643066406e+00 2.259209871292114258e+00 1.154961466789245605e+00
2.322000000000000000e+03 2.026531791687011719e+01 -8.447546958923339844e+00 2.455909729003906250e+00 5.682147502899169922e+00 2.441417217254638672e+00 2.015422821044921875e+00
2.323000000000000000e+03 2.086060523986816406e+01 -9.869980812072753906e+00 -5.302172303199768066e-01 3.436416387557983398e+00 8.718597292900085449e-01 8.584991693496704102e-01
2.324000000000000000e+03 2.111490821838378906e+01 -8.800590515136718750e+00 1.760440230369567871e+00 5.095841407775878906e+00 2.056884527206420898e+00 3.107377290725708008e-01
2.325000000000000000e+03 1.876530075073242188e+01 -8.592329025268554688e+00 2.995951175689697266e+00 1.982729673385620117e+00 1.493604183197021484e+00 3.785280227661132812e+00
2.326000000000000000e+03 1.921045303344726562e+01 -8.227540969848632812e+00 3.702527761459350586e+00 3.447494029998779297e+00 2.145006656646728516e+00 3.867489814758300781e+00
2.327000000000000000e+03 2.093580436706542969e+01 -2.807173490524291992e+00 3.742174431681632996e-02 4.764776706695556641e+00 1.440659523010253906e+00 7.065675258636474609e-01
2.328000000000000000e+03 2.217658233642578125e+01 -2.567556381225585938e+00 6.700764894485473633e-01 4.601422786712646484e+00 1.581449747085571289e+00 2.155701398849487305e+00
2.329000000000000000e+03 1.538978481292724609e+01 -5.890082836151123047e+00 3.323547601699829102e+00 -1.695157647132873535e+00 4.885169863700866699e-01 1.575410127639770508e+00
2.330000000000000000e+03 2.095421409606933594e+01 1.108413040637969971e-01 -1.572471559047698975e-01 2.217305660247802734e+00 6.180175542831420898e-01 5.664971470832824707e-01
2.331000000000000000e+03 5.731570720672607422e+00 8.016536712646484375e+00 8.419021219015121460e-02 -1.463903486728668213e-01 -1.866004057228565216e-02 2.815311551094055176e-01
2.332000000000000000e+03 2.045586013793945312e+01 -1.662209630012512207e-02 -1.209867969155311584e-01 2.058257102966308594e+00 5.811810493469238281e-01 2.965242862701416016e-01
2.333000000000000000e+03 1.407861900329589844e+01 -6.761318206787109375e+00 2.427665233612060547e+00 -1.389906048774719238e+00 3.113277554512023926e-01 2.838950395584106445e+00
2.334000000000000000e+03 7.264344692230224609e+00 -6.161232948303222656e+00 -9.453290700912475586e-01 1.980496048927307129e+00 3.105500936508178711e-01 -4.239225685596466064e-01
2.335000000000000000e+03 6.947510719299316406e+00 6.332844257354736328e+00 2.634409815073013306e-02 -4.592768847942352295e-02 -5.875077564269304276e-03 3.223410546779632568e-01
2.336000000000000000e+03 7.372135162353515625e+00 5.664168834686279297e+00 -3.126709163188934326e-02 -2.242468483746051788e-02 -1.610753312706947327e-02 3.170519173145294189e-01
2.337000000000000000e+03 1.120184707641601562e+01 -5.837295055389404297e+00 2.119201719760894775e-01 6.381511688232421875e-01 2.550214231014251709e-01 1.903733253479003906e+00
2.338000000000000000e+03 1.093950843811035156e+01 -6.344276428222656250e+00 1.469856351613998413e-01 1.121256470680236816e+00 3.804726302623748779e-01 2.177173137664794922e+00
2.339000000000000000e+03 8.684644699096679688e+00 1.091864681243896484e+01 2.529546618461608887e-01 1.386664211750030518e-01 1.174863204360008240e-01 1.888895332813262939e-01
2.340000000000000000e+03 1.855476379394531250e+01 -9.927161216735839844e+00 -1.660318374633789062e-01 8.649471998214721680e-01 2.096746116876602173e-01 3.414907455444335938e+00
2.341000000000000000e+03 2.738146781921386719e+01 -1.200802803039550781e+01 -1.809878826141357422e+00 7.665234208106994629e-01 -3.130066096782684326e-01 -9.210925102233886719e-01
2.342000000000000000e+03 2.589875984191894531e+01 -1.189097976684570312e+01 -2.085136890411376953e+00 9.995279312133789062e-01 -3.256826996803283691e-01 -9.042493104934692383e-01
2.343000000000000000e+03 1.111631393432617188e+01 -7.308333396911621094e+00 2.413508743047714233e-01 1.496906638145446777e+00 5.214772224426269531e-01 2.887754678726196289e+00
2.344000000000000000e+03 1.292846775054931641e+01 -7.453052043914794922e+00 1.469866156578063965e+00 -3.731356263160705566e-01 3.290191590785980225e-01 3.663393497467041016e+00
2.345000000000000000e+03 2.124563026428222656e+01 1.289361596107482910e+00 -2.249997854232788086e-01 1.745110988616943359e+00 4.560333490371704102e-01 7.304195165634155273e-01
2.346000000000000000e+03 8.767895698547363281e+00 -4.757023334503173828e+00 -8.131884932518005371e-01 1.301168203353881836e+00 1.463939249515533447e-01 4.656181931495666504e-01
2.347000000000000000e+03 1.965069580078125000e+01 -9.159034729003906250e+00 1.233668804168701172e+00 3.741500854492187500e+00 1.492550969123840332e+00 2.690868616104125977e+00
2.348000000000000000e+03 1.395307922363281250e+01 -8.925286293029785156e+00 1.678771972656250000e+00 -1.744679093360900879e+00 -1.977212540805339813e-02 4.066116333007812500e+00
2.349000000000000000e+03 2.462654495239257812e+01 1.899447560310363770e+00 -7.372757047414779663e-02 2.642435073852539062e+00 7.706122398376464844e-01 1.710405230522155762e+00
2.350000000000000000e+03 1.113837909698486328e+01 5.805446147918701172e+00 -4.010118544101715088e-02 3.211341202259063721e-01 8.430987596511840820e-02 2.011979222297668457e-01
2.351000000000000000e+03 9.758361816406250000e+00 6.532818794250488281e+00 4.137447476387023926e-02 1.961064785718917847e-01 7.124428451061248779e-02 2.671777904033660889e-01
2.352000000000000000e+03 2.565515899658203125e+01 2.254103899002075195e+00 4.047789052128791809e-02 2.750677347183227539e+00 8.373466134071350098e-01 1.628528118133544922e+00
2.353000000000000000e+03 2.634454154968261719e+01 1.812206745147705078e+00 2.584056854248046875e-01 2.524308204650878906e+00 8.348141908645629883e-01 1.674903035163879395e+00
2.354000000000000000e+03 3.668949127197265625e+01 1.266618442535400391e+01 5.792158842086791992e-01 1.528833389282226562e+00 6.324147582054138184e-01 9.878529906272888184e-01
2.355000000000000000e+03 3.077528572082519531e+01 1.104605579376220703e+01 5.142475962638854980e-01 1.669122457504272461e+00 6.550110578536987305e-01 1.170723319053649902e+00
2.356000000000000000e+03 8.017568588256835938e+00 1.375943470001220703e+01 2.048833370208740234e-01 6.997971981763839722e-02 8.245892077684402466e-02 9.049731492996215820e-02
2.357000000000000000e+03 2.923969459533691406e+01 -1.155032539367675781e+01 -1.269470572471618652e+00 4.913725554943084717e-01 -2.334293872117996216e-01 -8.972507119178771973e-01
2.358000000000000000e+03 2.816383743286132812e+01 -1.226418972015380859e+01 -1.892018914222717285e+00 6.535922884941101074e-01 -3.715279996395111084e-01 -8.743012547492980957e-01
2.359000000000000000e+03 2.532944488525390625e+01 1.578241705894470215e+00 7.995973527431488037e-02 2.659536361694335938e+00 8.218488097190856934e-01 1.811891674995422363e+00
2.360000000000000000e+03 8.821823120117187500e+00 -5.903931617736816406e+00 -7.495880722999572754e-01 1.897404551506042480e+00 3.443449437618255615e-01 5.849965810775756836e-01
2.361000000000000000e+03 2.374407958984375000e+01 7.959888577461242676e-01 -3.205630555748939514e-02 2.696123600006103516e+00 7.992202043533325195e-01 1.776565432548522949e+00
2.362000000000000000e+03 2.443747520446777344e+01 1.232842206954956055e+00 -1.003830879926681519e-02 2.693720817565917969e+00 8.051047921180725098e-01 1.810489416122436523e+00
2.363000000000000000e+03 4.006375122070312500e+01 5.960422515869140625e+00 5.235451459884643555e-01 8.212783336639404297e-01 4.034470617771148682e-01 4.164865612983703613e-01
2.364000000000000000e+03 4.061223602294921875e+01 3.882849216461181641e+00 5.627270340919494629e-01 5.608032345771789551e-01 3.370590507984161377e-01 3.272014260292053223e-01
2.365000000000000000e+03 1.138737583160400391e+01 6.780787944793701172e+00 5.851657316088676453e-02 4.019766449928283691e-01 1.381479650735855103e-01 1.976407915353775024e-01
2.366000000000000000e+03 2.133492279052734375e+01 4.158603847026824951e-01 -1.876756697893142700e-01 2.271335840225219727e+00 6.250980496406555176e-01 8.357402682304382324e-01
2.367000000000000000e+03 2.054896545410156250e+01 -5.909423232078552246e-01 -1.165312975645065308e-01 2.424477577209472656e+00 6.923838257789611816e-01 3.025315403938293457e-01
2.368000000000000000e+03 6.438303947448730469e+00 -8.889019966125488281e+00 -2.549348771572113037e-01 3.093147516250610352e+00 8.514637947082519531e-01 -1.559275031089782715e+00
2.369000000000000000e+03 8.126105308532714844e+00 -9.300058364868164062e+00 -5.998896956443786621e-01 5.676013946533203125e+00 1.522837281227111816e+00 -2.728930413722991943e-01
2.370000000000000000e+03 1.240052032470703125e+01 -7.626626491546630859e+00 8.704196214675903320e-01 4.498830735683441162e-01 3.960908055305480957e-01 3.556989431381225586e+00
2.371000000000000000e+03 4.015604782104492188e+01 -1.094101715087890625e+01 -1.303122520446777344e+00 1.283944994211196899e-01 -3.524183928966522217e-01 -5.328742265701293945e-01
2.372000000000000000e+03 2.408123588562011719e+01 -1.135653305053710938e+01 -1.889362692832946777e+00 1.694772243499755859e+00 -5.837712436914443970e-02 -8.545612692832946777e-01
2.373000000000000000e+03 2.070930480957031250e+01 -1.161102485656738281e+01 -3.495419740676879883e+00 1.594747781753540039e+00 -5.702015757560729980e-01 1.248922467231750488e+00
2.374000000000000000e+03 1.016079902648925781e+01 5.741961002349853516e+00 -2.343729883432388306e-02 2.092511206865310669e-01 5.574414879083633423e-02 2.518720328807830811e-01
2.375000000000000000e+03 7.250779724121093750e+01 -2.366948509216308594e+01 -8.069145679473876953e-01 9.010497093200683594e+00 2.461074829101562500e+00 -7.506836652755737305e-01
2.376000000000000000e+03 3.213370132446289062e+01 -1.075641727447509766e+01 -8.796690106391906738e-01 2.568200230598449707e-01 -1.868546903133392334e-01 -7.245510816574096680e-01
2.377000000000000000e+03 9.677006721496582031e+00 1.077701187133789062e+01 2.892609238624572754e-01 2.746855020523071289e-01 1.691839247941970825e-01 2.003628611564636230e-01
2.378000000000000000e+03 3.893408203125000000e+01 5.787319660186767578e+00 5.462021827697753906e-01 9.200572967529296875e-01 4.398778378963470459e-01 5.424084067344665527e-01
2.379000000000000000e+03 2.232620620727539062e+01 -8.209583282470703125e+00 3.667333602905273438e+00 3.976077318191528320e+00 2.293023347854614258e+00 -1.043740272521972656e+00
2.380000000000000000e+03 4.615436553955078125e+01 -1.007004928588867188e+01 -1.483794689178466797e+00 3.595724701881408691e-02 -4.343512356281280518e-01 -5.381250977516174316e-01
2.381000000000000000e+03 4.845912170410156250e+01 -9.146011352539062500e+00 -1.528484463691711426e+00 6.043071392923593521e-03 -4.567324221134185791e-01 -5.253078937530517578e-01
2.382000000000000000e+03 7.266563415527343750e+01 1.284162235260009766e+01 6.381213665008544922e-02 6.260882854461669922e+00 1.897408485412597656e+00 -7.064690589904785156e-01
2.383000000000000000e+03 3.080029869079589844e+01 6.531599044799804688e+00 8.453404307365417480e-01 1.662070870399475098e+00 7.522234320640563965e-01 1.078659772872924805e+00
2.384000000000000000e+03 3.312009429931640625e+01 -1.282812881469726562e+01 -1.794141530990600586e+00 3.031449019908905029e-01 -4.472990036010742188e-01 -6.757999062538146973e-01
2.385000000000000000e+03 3.311454772949218750e+01 -1.178083133697509766e+01 -1.363289475440979004e+00 2.657344341278076172e-01 -3.292665183544158936e-01 -7.074934840202331543e-01
2.386000000000000000e+03 5.911660003662109375e+01 5.702404499053955078e+00 4.437707066535949707e-01 2.198920488357543945e+00 7.928073406219482422e-01 -7.799379825592041016e-01
2.387000000000000000e+03 3.697029113769531250e+01 -1.051374912261962891e+01 -1.058084130287170410e+00 1.558349579572677612e-01 -2.706747353076934814e-01 -5.539867877960205078e-01
2.388000000000000000e+03 3.788061141967773438e+01 1.037966823577880859e+01 5.363979339599609375e-01 1.425460696220397949e+00 5.885576009750366211e-01 9.019061326980590820e-01
2.389000000000000000e+03 3.673971176147460938e+01 8.165245056152343750e+00 5.919014811515808105e-01 1.269590377807617188e+00 5.584475994110107422e-01 9.115076661109924316e-01
2.390000000000000000e+03 3.418283843994140625e+01 -1.283209705352783203e+01 -1.745818376541137695e+00 2.606538236141204834e-01 -4.455493688583374023e-01 -6.516356468200683594e-01
2.391000000000000000e+03 8.070785522460937500e+00 -6.153298377990722656e+00 -8.915787935256958008e-01 2.177623987197875977e+00 3.858135938644409180e-01 2.660958766937255859e-01
2.392000000000000000e+03 8.325285911560058594e+00 -7.121478557586669922e+00 -8.884256482124328613e-01 2.943137645721435547e+00 6.164135932922363281e-01 4.306034445762634277e-01
2.393000000000000000e+03 4.384082794189453125e+01 -1.093791961669921875e+01 -1.475448846817016602e+00 6.431256234645843506e-02 -4.233408868312835693e-01 -5.473546981811523438e-01
2.394000000000000000e+03 4.119407653808593750e+01 -1.062234687805175781e+01 -1.287388563156127930e+00 1.087978035211563110e-01 -3.535772264003753662e-01 -5.185190439224243164e-01
2.395000000000000000e+03 5.165391540527343750e+01 -5.926020622253417969e+00 -1.254533052444458008e+00 5.140220746397972107e-02 -3.609392642974853516e-01 -2.880000174045562744e-01
2.396000000000000000e+03 4.899856185913085938e+01 -7.732832431793212891e+00 -1.357732415199279785e+00 2.974583208560943604e-02 -3.983959555625915527e-01 -4.144684374332427979e-01
2.397000000000000000e+03 7.338587951660156250e+01 2.783527135848999023e+00 -6.863238215446472168e-01 7.781806468963623047e+00 2.128644704818725586e+00 -4.106588363647460938e-01
2.398000000000000000e+03 7.228333282470703125e+01 1.557143449783325195e+00 -1.008548736572265625e+00 7.976768493652343750e+00 2.090465784072875977e+00 -6.133282184600830078e-01
2.399000000000000000e+03 2.795009803771972656e+01 4.495728969573974609e+00 5.080680847167968750e-01 2.339432716369628906e+00 8.542501926422119141e-01 1.108659744262695312e+00
2.400000000000000000e+03 7.212229156494140625e+01 -8.742166757583618164e-01 -1.368659377098083496e+00 8.924917221069335938e+00 2.266877412796020508e+00 -3.571449816226959229e-01
2.401000000000000000e+03 7.143522644042968750e+01 -3.850046396255493164e+00 -1.404285550117492676e+00 1.073552322387695312e+01 2.799371242523193359e+00 2.204435318708419800e-01
2.402000000000000000e+03 2.795064353942871094e+01 2.536645412445068359e+00 4.726760983467102051e-01 2.279447793960571289e+00 8.256372213363647461e-01 1.438266515731811523e+00
2.403000000000000000e+03 6.896553993225097656e+00 -9.667722702026367188e+00 1.096910759806632996e-01 4.328762054443359375e+00 1.331535935401916504e+00 -9.277863502502441406e-01
2.404000000000000000e+03 7.012414550781250000e+01 -2.499480438232421875e+01 -1.006760358810424805e+00 7.948053836822509766e+00 2.082387924194335938e+00 -1.402348130941390991e-01
2.405000000000000000e+03 7.395697593688964844e+00 2.252894592285156250e+01 -3.484807163476943970e-02 -9.509986639022827148e-02 -3.898438066244125366e-02 2.692907303571701050e-02
2.406000000000000000e+03 9.481796264648437500e+00 2.552520942687988281e+01 -4.958017542958259583e-02 -1.896533765830099583e-03 -1.544301304966211319e-02 9.841381758451461792e-02
2.407000000000000000e+03 7.279376220703125000e+01 6.008504390716552734e+00 -3.717348873615264893e-01 7.040042400360107422e+00 2.000492334365844727e+00 -7.340882420539855957e-01
2.408000000000000000e+03 7.027439880371093750e+01 2.893902778625488281e+00 -7.891300916671752930e-01 6.940232276916503906e+00 1.845330595970153809e+00 -1.171066045761108398e+00
2.409000000000000000e+03 2.763684272766113281e+01 -1.124352359771728516e+01 -1.103453874588012695e+00 6.951493024826049805e-01 -1.224913746118545532e-01 -1.005044221878051758e+00
2.410000000000000000e+03 2.905128479003906250e+01 -1.246192169189453125e+01 -1.925585508346557617e+00 5.482605099678039551e-01 -4.131975173950195312e-01 -8.360310792922973633e-01
2.411000000000000000e+03 1.163144397735595703e+01 -8.389199256896972656e+00 3.507936298847198486e-01 1.633431196212768555e+00 5.952674150466918945e-01 3.935497760772705078e+00
2.412000000000000000e+03 1.245642566680908203e+01 -8.334652900695800781e+00 1.146545290946960449e+00 2.944066822528839111e-01 4.322855770587921143e-01 4.184400081634521484e+00
2.413000000000000000e+03 7.322494506835937500e+01 4.046814441680908203e+00 -5.568224787712097168e-01 7.480205059051513672e+00 2.077014684677124023e+00 -5.023362040519714355e-01
2.414000000000000000e+03 7.172822570800781250e+01 1.822537231445312500e+01 1.602225750684738159e-01 5.756709098815917969e+00 1.775079488754272461e+00 -6.082608699798583984e-01
2.415000000000000000e+03 1.097970581054687500e+01 8.197997093200683594e+00 2.120417803525924683e-01 4.325109124183654785e-01 1.933658123016357422e-01 2.056481391191482544e-01
2.416000000000000000e+03 6.352641105651855469e+00 -2.446246147155761719e+01 -6.508361101150512695e-01 2.037753820419311523e+00 4.160752892494201660e-01 1.100380420684814453e+00
2.417000000000000000e+03 6.834063529968261719e+00 -2.557388687133789062e+01 -6.918681263923645020e-01 2.121915340423583984e+00 4.290141463279724121e-01 8.886821269989013672e-01
2.418000000000000000e+03 4.499058532714843750e+01 -1.051436233520507812e+01 -1.470148801803588867e+00 4.570072144269943237e-02 -4.273344278335571289e-01 -5.411506891250610352e-01
2.419000000000000000e+03 8.621779441833496094e+00 1.874291038513183594e+01 2.375338599085807800e-02 1.003058552742004395e-01 3.721777349710464478e-02 2.034354768693447113e-02
2.420000000000000000e+03 8.341367721557617188e+00 -3.396457672119140625e+01 -3.274373412132263184e-01 1.505563974380493164e+00 3.534379899501800537e-01 2.712096273899078369e-01
2.421000000000000000e+03 1.166450405120849609e+01 -2.844647026062011719e+01 -5.501313209533691406e-01 2.063731908798217773e+00 4.540801644325256348e-01 -1.519504189491271973e-02
2.422000000000000000e+03 9.976023674011230469e+00 1.748510742187500000e+01 6.896657496690750122e-02 2.916595041751861572e-01 1.081878244876861572e-01 3.787091374397277832e-02
2.423000000000000000e+03 5.818857955932617188e+01 4.416148185729980469e+00 4.796162843704223633e-01 1.582711935043334961e+00 6.186984777450561523e-01 -6.084645390510559082e-01
2.424000000000000000e+03 3.791070938110351562e+01 8.154425621032714844e+00 5.153586268424987793e-01 1.251936793327331543e+00 5.301886200904846191e-01 7.770001292228698730e-01
2.425000000000000000e+03 3.788309478759765625e+01 7.027481079101562500e+00 5.532185435295104980e-01 1.120527386665344238e+00 5.021237730979919434e-01 7.305390834808349609e-01
2.426000000000000000e+03 7.266704559326171875e+01 1.434476184844970703e+01 8.476892113685607910e-02 6.173966407775878906e+00 1.877620577812194824e+00 -6.918666958808898926e-01
2.427000000000000000e+03 7.166376495361328125e+01 1.118093109130859375e+01 2.278566733002662659e-02 6.168100833892822266e+00 1.857266068458557129e+00 -8.139321208000183105e-01
2.428000000000000000e+03 7.218091964721679688e+00 7.843107700347900391e+00 1.043918430805206299e-01 -2.775308676064014435e-02 2.299162745475769043e-02 3.007636666297912598e-01
2.429000000000000000e+03 6.389800548553466797e+00 -7.938462734222412109e+00 -4.017652869224548340e-01 2.394374132156372070e+00 5.977826714515686035e-01 -1.079330682754516602e+00
2.430000000000000000e+03 8.675744056701660156e+00 1.180324077606201172e+01 2.575342059135437012e-01 1.422661691904067993e-01 1.199401170015335083e-01 1.693061888217926025e-01
2.431000000000000000e+03 6.481325149536132812e+00 1.010840606689453125e+01 1.538922190666198730e-01 -1.083379760384559631e-01 1.366627402603626251e-02 2.232252508401870728e-01
2.432000000000000000e+03 1.254190731048583984e+01 1.869915199279785156e+01 -2.706825733184814453e-02 5.431956648826599121e-01 1.548382192850112915e-01 1.515527665615081787e-01
2.433000000000000000e+03 1.122714424133300781e+01 1.998589134216308594e+01 -5.180181562900543213e-02 3.561758697032928467e-01 9.131222218275070190e-02 1.075035706162452698e-01
2.434000000000000000e+03 5.715875244140625000e+01 -3.418799161911010742e+00 -8.954008817672729492e-01 7.931371778249740601e-02 -2.448261529207229614e-01 -4.666843116283416748e-01
2.435000000000000000e+03 7.338350772857666016e+00 1.239865303039550781e+01 1.855850368738174438e-01 -2.919717505574226379e-02 4.691635817289352417e-02 1.393871903419494629e-01
2.436000000000000000e+03 1.200910472869873047e+01 2.914819335937500000e+01 6.169685628265142441e-03 6.694313138723373413e-02 2.193384617567062378e-02 1.497801095247268677e-01
2.437000000000000000e+03 5.775959014892578125e+01 8.108631134033203125e+00 4.401955306529998779e-01 2.359238147735595703e+00 8.398301005363464355e-01 -4.604179263114929199e-01
2.438000000000000000e+03 5.274285507202148438e+01 7.536278963088989258e-01 2.244046926498413086e-01 2.820356488227844238e-01 1.519321054220199585e-01 -1.663647219538688660e-02
2.439000000000000000e+03 4.683244323730468750e+01 1.257124423980712891e+00 3.912124037742614746e-01 1.449861079454421997e-01 1.608595550060272217e-01 1.120846420526504517e-01
2.440000000000000000e+03 3.614194869995117188e+01 -1.165685749053955078e+01 -1.351296782493591309e+00 1.922473758459091187e-01 -3.477148115634918213e-01 -6.150749921798706055e-01
2.441000000000000000e+03 4.160695648193359375e+01 4.206338882446289062e+00 5.671114921569824219e-01 5.038442611694335938e-01 3.212867379188537598e-01 2.389850318431854248e-01
2.442000000000000000e+03 6.420744323730468750e+01 -1.613780260086059570e+00 -2.796131074428558350e-01 2.801212787628173828e+00 7.564798593521118164e-01 -2.901939868927001953e+00
2.443000000000000000e+03 6.256151580810546875e+01 -2.132199048995971680e+00 -1.912808865308761597e-01 1.103405594825744629e+00 2.736374139785766602e-01 -1.991892099380493164e+00
2.444000000000000000e+03 7.686945915222167969e+00 1.033724975585937500e+01 1.957865506410598755e-01 2.334866859018802643e-02 6.574057042598724365e-02 2.251064330339431763e-01
2.445000000000000000e+03 7.273107910156250000e+01 -2.891345977783203125e+01 -4.690477252006530762e-01 8.402870178222656250e+00 2.380146741867065430e+00 -2.617437541484832764e-01
2.446000000000000000e+03 6.796838378906250000e+01 -3.024558258056640625e+01 -5.574431419372558594e-01 6.079373359680175781e+00 1.656579136848449707e+00 3.239808380603790283e-01
2.447000000000000000e+03 7.371686553955078125e+01 -1.895368385314941406e+01 -4.019911885261535645e-01 9.837347030639648438e+00 2.830606937408447266e+00 -1.490676641464233398e+00
2.448000000000000000e+03 5.204257965087890625e+01 -2.555316686630249023e+00 -4.903223514556884766e-01 1.164355054497718811e-01 -1.121660545468330383e-01 -7.350178062915802002e-02
2.449000000000000000e+03 5.352392959594726562e+01 1.427296638488769531e+00 3.343913555145263672e-01 3.681113421916961670e-01 2.107508033514022827e-01 -4.310623556375503540e-02
2.450000000000000000e+03 4.601475143432617188e+01 1.609445810317993164e+00 4.301264286041259766e-01 1.605944037437438965e-01 1.772162467241287231e-01 1.379491239786148071e-01
2.451000000000000000e+03 4.933015823364257812e+01 6.782290935516357422e-01 2.754980921745300293e-01 1.545988023281097412e-01 1.290290653705596924e-01 7.574713230133056641e-02
2.452000000000000000e+03 4.731948471069335938e+01 -9.611725807189941406e+00 -1.507090568542480469e+00 2.460618503391742706e-02 -4.447453022003173828e-01 -5.323036909103393555e-01
2.453000000000000000e+03 2.931453704833984375e+01 1.325296401977539062e+01 7.492797076702117920e-02 1.785085201263427734e+00 5.580039620399475098e-01 9.863132834434509277e-01
2.454000000000000000e+03 8.516539573669433594e+00 -2.920035362243652344e+01 -5.594835281372070312e-01 1.823384284973144531e+00 3.791702091693878174e-01 4.689230918884277344e-01
2.455000000000000000e+03 7.156520080566406250e+01 2.747631072998046875e+01 1.255720853805541992e-01 5.379628181457519531e+00 1.651560068130493164e+00 -3.590604364871978760e-01
2.456000000000000000e+03 6.289767837524414062e+01 1.066096305847167969e+01 4.506965577602386475e-01 3.807520627975463867e+00 1.277465105056762695e+00 -1.110807538032531738e+00
2.457000000000000000e+03 7.085431671142578125e+01 -2.376488685607910156e+01 -1.026679635047912598e+00 8.625799179077148438e+00 2.279735803604125977e+00 -3.673411607742309570e-01
2.458000000000000000e+03 7.017218017578125000e+01 4.312797486782073975e-01 -1.226559519767761230e+00 7.675651550292968750e+00 1.934727549552917480e+00 -1.250906586647033691e+00
2.459000000000000000e+03 7.313735198974609375e+01 2.499954104423522949e-01 -1.072857260704040527e+00 8.536825180053710938e+00 2.239190340042114258e+00 -1.276310682296752930e-01
2.460000000000000000e+03 5.435873794555664062e+01 2.002979278564453125e+00 3.904511332511901855e-01 5.261879563331604004e-01 2.749917209148406982e-01 -9.883727133274078369e-02
2.461000000000000000e+03 5.620634841918945312e+01 -5.671275615692138672e+00 -1.627144217491149902e+00 -7.444439083337783813e-02 -5.104765892028808594e-01 -4.700744748115539551e-01
2.462000000000000000e+03 7.118773651123046875e+01 -2.384191036224365234e+00 -1.643612027168273926e+00 9.732553482055664062e+00 2.426682472229003906e+00 -5.970742702484130859e-01
2.463000000000000000e+03 3.832941055297851562e+01 1.886076545715332031e+01 5.516724586486816406e-01 1.719784498214721680e+00 6.814370751380920410e-01 5.819786787033081055e-01
2.464000000000000000e+03 6.987137603759765625e+01 -2.288800811767578125e+01 -1.075520992279052734e+00 8.390325546264648438e+00 2.194441318511962891e+00 -1.867530792951583862e-01
2.465000000000000000e+03 1.020390129089355469e+01 -2.502420234680175781e+01 -6.299456357955932617e-01 2.721595287322998047e+00 6.274949312210083008e-01 3.204684332013130188e-02
2.466000000000000000e+03 6.682562255859375000e+01 -1.423640489578247070e+00 -1.180219411849975586e+00 6.017711162567138672e+00 1.451247453689575195e+00 -2.830908775329589844e+00
2.467000000000000000e+03 7.202402496337890625e+01 -6.480298042297363281e+00 4.239752292633056641e-01 1.166795635223388672e+01 3.627579450607299805e+00 1.165640711784362793e+00
2.468000000000000000e+03 7.323464202880859375e+01 -6.145427227020263672e+00 4.150266945362091064e-01 1.002946186065673828e+01 3.133346557617187500e+00 1.291897773742675781e+00
2.469000000000000000e+03 7.154515075683593750e+01 6.050526142120361328e+00 -3.597967922687530518e-01 6.667006492614746094e+00 1.892162919044494629e+00 -8.999180793762207031e-01
2.470000000000000000e+03 6.742798614501953125e+01 -2.649600028991699219e+01 -9.669259786605834961e-01 6.250159263610839844e+00 1.584969878196716309e+00 4.527172744274139404e-01
2.471000000000000000e+03 6.641657257080078125e+01 -2.556002235412597656e+01 -9.509528279304504395e-01 5.638617992401123047e+00 1.406299471855163574e+00 6.253378987312316895e-01
2.472000000000000000e+03 5.942133712768554688e+01 9.308030128479003906e+00 4.891532957553863525e-01 2.850305795669555664e+00 1.001837730407714844e+00 -7.974808812141418457e-01
2.473000000000000000e+03 9.001439094543457031e+00 2.845336341857910156e+01 -1.801898330450057983e-02 -9.913228452205657959e-02 -3.514537960290908813e-02 9.548430889844894409e-02
2.474000000000000000e+03 7.498472690582275391e+00 1.477305603027343750e+01 1.520238518714904785e-01 -1.183299999684095383e-02 4.205725714564323425e-02 6.378328055143356323e-02
2.475000000000000000e+03 9.883719444274902344e+00 1.399641323089599609e+01 2.555125057697296143e-01 2.968210875988006592e-01 1.657000780105590820e-01 8.419869095087051392e-02
2.476000000000000000e+03 2.806887626647949219e+01 1.444511985778808594e+01 -2.079078108072280884e-01 1.643144011497497559e+00 4.305708408355712891e-01 6.840447187423706055e-01
2.477000000000000000e+03 1.768357276916503906e+01 -3.298091125488281250e+01 -2.858069837093353271e-01 9.991314411163330078e-01 2.139973342418670654e-01 -2.145675271749496460e-01
2.478000000000000000e+03 1.670339012145996094e+01 -3.008709907531738281e+01 -2.674747705459594727e-01 1.199988603591918945e+00 2.797541320323944092e-01 -2.872061431407928467e-01
2.479000000000000000e+03 3.035574340820312500e+01 1.599990463256835938e+01 -3.183726221323013306e-02 1.561710357666015625e+00 4.589619338512420654e-01 6.803292036056518555e-01
2.480000000000000000e+03 2.824888038635253906e+01 1.566347217559814453e+01 -2.981775104999542236e-01 1.500155091285705566e+00 3.605932593345642090e-01 5.101866722106933594e-01
2.481000000000000000e+03 2.762311553955078125e+01 1.994115257263183594e+01 -4.761443287134170532e-02 1.010397434234619141e+00 2.888348996639251709e-01 2.112235426902770996e-01
2.482000000000000000e+03 7.115990447998046875e+01 -2.062215042114257812e+01 -8.843043446540832520e-01 9.511918067932128906e+00 2.588284254074096680e+00 -8.051757216453552246e-01
2.483000000000000000e+03 7.168790435791015625e+01 2.304236984252929688e+01 1.443158388137817383e-01 5.572856903076171875e+00 1.715151786804199219e+00 -4.682567417621612549e-01
2.484000000000000000e+03 7.044968414306640625e+01 1.946566009521484375e+01 1.959927082061767578e-01 5.424537181854248047e+00 1.686158895492553711e+00 -6.229423284530639648e-01
2.485000000000000000e+03 1.270520114898681641e+01 -3.002363967895507812e+01 -4.665714502334594727e-01 1.716318488121032715e+00 3.749240934848785400e-01 -6.826291978359222412e-02
2.486000000000000000e+03 1.255751228332519531e+01 -2.712778854370117188e+01 -4.377362132072448730e-01 2.027793645858764648e+00 4.770172238349914551e-01 -2.220330834388732910e-01
2.487000000000000000e+03 5.520479202270507812e+01 -4.660017013549804688e+00 -1.210112929344177246e+00 3.865673020482063293e-02 -3.514368534088134766e-01 -3.180320858955383301e-01
2.488000000000000000e+03 6.013672256469726562e+01 -8.504557609558105469e-01 -6.200328469276428223e-02 8.576445579528808594e-01 2.386923879384994507e-01 -1.141210436820983887e+00
2.489000000000000000e+03 8.001543045043945312e+00 -3.045070075988769531e+01 -4.536695480346679688e-01 1.693773984909057617e+00 3.720313012599945068e-01 4.306476116180419922e-01
2.490000000000000000e+03 1.026083755493164062e+01 -3.351399612426757812e+01 -4.254936277866363525e-01 1.571357131004333496e+00 3.437590301036834717e-01 2.090210020542144775e-01
2.491000000000000000e+03 4.223624420166015625e+01 3.461071252822875977e+00 5.812207460403442383e-01 3.980728089809417725e-01 2.937880754470825195e-01 2.125661671161651611e-01
2.492000000000000000e+03 1.016907310485839844e+01 3.439672470092773438e+01 3.017875552177429199e-02 -1.178045198321342468e-01 -2.628772892057895660e-02 7.855650782585144043e-02
2.493000000000000000e+03 8.706092834472656250e+00 3.014775657653808594e+01 -4.728623665869235992e-03 -1.475515067577362061e-01 -4.568403959274291992e-02 8.769378066062927246e-02
2.494000000000000000e+03 8.554961204528808594e+00 -3.609659957885742188e+01 -3.098426163196563721e-01 1.439335465431213379e+00 3.388478457927703857e-01 2.131096422672271729e-01
2.495000000000000000e+03 3.886989974975585938e+01 -1.021105766296386719e+01 -1.081710338592529297e+00 1.400568634271621704e-01 -2.824960350990295410e-01 -5.069977045059204102e-01
2.496000000000000000e+03 5.246360397338867188e+01 -6.890416622161865234e+00 -1.543170452117919922e+00 -9.582951664924621582e-03 -4.658260047435760498e-01 -4.281435012817382812e-01
2.497000000000000000e+03 5.257213211059570312e+01 -5.431676387786865234e+00 -1.219330787658691406e+00 4.464223235845565796e-02 -3.524065613746643066e-01 -2.766354680061340332e-01
2.498000000000000000e+03 6.218094635009765625e+01 1.344432067871093750e+01 5.964670777320861816e-01 3.738662719726562500e+00 1.300538897514343262e+00 -9.445254802703857422e-01
2.499000000000000000e+03 6.289402008056640625e+01 1.628191757202148438e+01 5.692089200019836426e-01 3.964605331420898438e+00 1.360144257545471191e+00 -7.697570323944091797e-01
2.500000000000000000e+03 3.152072334289550781e+01 7.895293235778808594e+00 8.028419613838195801e-01 1.575001955032348633e+00 7.133531570434570312e-01 1.113973140716552734e+00
2.501000000000000000e+03 3.120928573608398438e+01 8.918007850646972656e+00 7.443874478340148926e-01 1.640854954719543457e+00 7.155727148056030273e-01 1.191461682319641113e+00
2.502000000000000000e+03 7.056903076171875000e+01 -2.982167243957519531e+01 -5.529354810714721680e-01 7.439510345458984375e+00 2.065972566604614258e+00 6.646300852298736572e-02
2.503000000000000000e+03 5.898236465454101562e+01 2.084344673156738281e+01 4.845217466354370117e-01 3.399603366851806641e+00 1.165237545967102051e+00 -6.344106197357177734e-01
2.504000000000000000e+03 4.366563796997070312e+01 2.843618202209472656e+01 5.875590443611145020e-01 1.665983319282531738e+00 6.760627031326293945e-01 3.188346028327941895e-01
2.505000000000000000e+03 5.428462982177734375e+01 5.182352662086486816e-01 1.502155065536499023e-01 3.787519633769989014e-01 1.586902439594268799e-01 -1.219893470406532288e-01
2.506000000000000000e+03 7.227185821533203125e+01 -2.185179948806762695e+00 -1.354777574539184570e+00 9.546792984008789062e+00 2.457604646682739258e+00 1.847038567066192627e-01
2.507000000000000000e+03 7.216271972656250000e+01 3.592877388000488281e-01 -1.129344940185546875e+00 8.269829750061035156e+00 2.142145633697509766e+00 -4.451563358306884766e-01
2.508000000000000000e+03 1.706657981872558594e+01 2.142686843872070312e+01 -4.615955799818038940e-02 3.944292664527893066e-01 1.044809073209762573e-01 4.494315683841705322e-01
2.509000000000000000e+03 3.670014953613281250e+01 1.038033866882324219e+01 5.721333622932434082e-01 1.431985259056091309e+00 6.012355685234069824e-01 1.002555012702941895e+00
2.510000000000000000e+03 5.471213150024414062e+01 2.729278945922851562e+01 6.686871647834777832e-01 2.579709529876708984e+00 9.745190143585205078e-01 -3.985467553138732910e-01
2.511000000000000000e+03 2.277278137207031250e+01 -4.908382892608642578e+00 5.604610443115234375e+00 3.828318834304809570e+00 2.829878807067871094e+00 3.543762207031250000e+00
2.512000000000000000e+03 2.307193374633789062e+01 -4.283105850219726562e+00 3.941030502319335938e+00 3.807919025421142578e+00 2.324684858322143555e+00 3.454526185989379883e+00
2.513000000000000000e+03 2.211817359924316406e+01 -7.804054737091064453e+00 4.752454280853271484e+00 4.358033657073974609e+00 2.733146190643310547e+00 -9.984972476959228516e-01
2.514000000000000000e+03 1.763706207275390625e+01 -6.801506996154785156e+00 6.580626487731933594e+00 -1.331513404846191406e+00 1.574733853340148926e+00 2.258653879165649414e+00
2.515000000000000000e+03 2.280060386657714844e+01 -5.166259288787841797e+00 6.234021663665771484e+00 3.508937597274780273e+00 2.922887802124023438e+00 3.286100625991821289e+00
2.516000000000000000e+03 1.778176307678222656e+01 -8.018518447875976562e+00 4.588628292083740234e+00 -5.272752046585083008e-01 1.218405842781066895e+00 3.766905546188354492e+00
2.517000000000000000e+03 2.289265251159667969e+01 -5.902095317840576172e+00 7.284518718719482422e+00 2.809263706207275391e+00 3.028134822845458984e+00 1.931467533111572266e+00
2.518000000000000000e+03 2.274447059631347656e+01 -4.633702278137207031e+00 4.830946922302246094e+00 4.136720657348632812e+00 2.690300464630126953e+00 3.681026458740234375e+00
2.519000000000000000e+03 2.286321258544921875e+01 -6.773805618286132812e+00 6.840130805969238281e+00 2.803411483764648438e+00 2.893062591552734375e+00 1.412774175405502319e-01
2.520000000000000000e+03 1.578158950805664062e+01 -6.268504619598388672e+00 3.768494844436645508e+00 -1.800110340118408203e+00 5.905153751373291016e-01 1.863455772399902344e+00
2.521000000000000000e+03 2.206374168395996094e+01 5.982745289802551270e-01 -1.615647971630096436e-01 2.394825935363769531e+00 6.699783205986022949e-01 1.120950222015380859e+00
2.522000000000000000e+03 1.888038825988769531e+01 -9.098332405090332031e+00 1.774110674858093262e+00 2.086576223373413086e+00 1.158206105232238770e+00 3.584838390350341797e+00
2.523000000000000000e+03 2.072302055358886719e+01 -1.037866401672363281e+01 -1.316660165786743164e+00 2.860848426818847656e+00 4.632565081119537354e-01 1.153295755386352539e+00
2.524000000000000000e+03 2.308264732360839844e+01 -4.000808238983154297e+00 3.346301317214965820e+00 3.906946182250976562e+00 2.175974130630493164e+00 3.376518487930297852e+00
2.525000000000000000e+03 2.016657447814941406e+01 -8.952208518981933594e+00 1.417374014854431152e+00 4.452826499938964844e+00 1.761060118675231934e+00 2.074743270874023438e+00
2.526000000000000000e+03 2.027008628845214844e+01 -1.029574966430664062e+01 -1.250481128692626953e+00 2.651668310165405273e+00 4.203561842441558838e-01 1.634854197502136230e+00
2.527000000000000000e+03 1.491426086425781250e+01 -6.608733654022216797e+00 3.156263113021850586e+00 -1.795805692672729492e+00 4.081372022628784180e-01 2.380566596984863281e+00
2.528000000000000000e+03 1.565119457244873047e+01 -6.894773483276367188e+00 3.795463800430297852e+00 -1.996772050857543945e+00 5.396075248718261719e-01 2.549008846282958984e+00
2.529000000000000000e+03 2.136623954772949219e+01 -2.711175203323364258e+00 2.113942652940750122e-01 4.909443855285644531e+00 1.536251425743103027e+00 1.322728157043457031e+00
2.530000000000000000e+03 1.746040534973144531e+01 -6.283813953399658203e+00 6.218007564544677734e+00 -1.591388940811157227e+00 1.387985587120056152e+00 1.348670601844787598e+00
2.531000000000000000e+03 2.073791313171386719e+01 -1.554089903831481934e+00 -7.158245891332626343e-02 3.152042150497436523e+00 9.241379499435424805e-01 3.800256550312042236e-01
2.532000000000000000e+03 2.076274490356445312e+01 -1.980023145675659180e+00 -2.154176682233810425e-02 3.595043897628784180e+00 1.072050690650939941e+00 4.331192672252655029e-01
2.533000000000000000e+03 1.368767261505126953e+01 -7.838670253753662109e+00 2.163834095001220703e+00 -1.436286330223083496e+00 2.182643115520477295e-01 3.661129474639892578e+00
2.534000000000000000e+03 1.538453769683837891e+01 -7.362944126129150391e+00 3.323821067810058594e+00 -2.021784782409667969e+00 3.906108438968658447e-01 3.028915643692016602e+00
2.535000000000000000e+03 1.533027935028076172e+01 -7.028237342834472656e+00 3.370431184768676758e+00 -1.920722365379333496e+00 4.349126517772674561e-01 2.668888092041015625e+00
2.536000000000000000e+03 2.033709526062011719e+01 6.336044669151306152e-01 -1.770454645156860352e-01 1.593962788581848145e+00 4.250752031803131104e-01 2.849995493888854980e-01
2.537000000000000000e+03 2.574764633178710938e+01 -1.140944671630859375e+01 -1.549470901489257812e+00 1.065302491188049316e+00 -1.452505141496658325e-01 -1.000757813453674316e+00
2.538000000000000000e+03 2.673237800598144531e+01 -1.172239685058593750e+01 -1.675875425338745117e+00 8.874762058258056641e-01 -2.365197837352752686e-01 -9.801720976829528809e-01
2.539000000000000000e+03 1.463223838806152344e+01 -6.108879566192626953e+00 2.801046609878540039e+00 -1.581522345542907715e+00 3.658572733402252197e-01 2.106096982955932617e+00
2.540000000000000000e+03 8.080355644226074219e+00 7.401183128356933594e+00 1.021724492311477661e-01 4.100254178047180176e-02 4.295249655842781067e-02 3.017569184303283691e-01
2.541000000000000000e+03 9.105667114257812500e+00 6.100454330444335938e+00 6.264445371925830841e-03 1.114888861775398254e-01 3.532600030303001404e-02 2.907879650592803955e-01
2.542000000000000000e+03 6.442857265472412109e+00 7.177116394042968750e+00 6.011493131518363953e-02 -8.327697217464447021e-02 -6.948611699044704437e-03 3.055724203586578369e-01
2.543000000000000000e+03 9.216826438903808594e+00 -6.812048435211181641e+00 -8.142676353454589844e-01 2.780056715011596680e+00 5.897367596626281738e-01 1.231597542762756348e+00
2.544000000000000000e+03 9.883198738098144531e+00 -7.608028411865234375e+00 -3.931133747100830078e-01 2.831531286239624023e+00 7.315253615379333496e-01 2.158482313156127930e+00
2.545000000000000000e+03 1.735270881652832031e+01 -8.903885841369628906e+00 2.583307027816772461e+00 -9.272747039794921875e-01 4.968097209930419922e-01 3.826406002044677734e+00
2.546000000000000000e+03 1.310880184173583984e+01 -8.012062072753906250e+00 1.526843905448913574e+00 -7.736406922340393066e-01 2.259609550237655640e-01 3.833562850952148438e+00
2.547000000000000000e+03 2.729780578613281250e+01 3.057303190231323242e+00 3.227696418762207031e-01 2.439965963363647461e+00 8.288206458091735840e-01 1.349421262741088867e+00
2.548000000000000000e+03 1.976846313476562500e+01 -1.028235340118408203e+01 -1.131956815719604492e+00 2.357510566711425781e+00 3.676660954952239990e-01 2.190517425537109375e+00
2.549000000000000000e+03 2.049033355712890625e+01 -1.079524517059326172e+01 -2.143299818038940430e+00 2.337569475173950195e+00 5.828090384602546692e-02 1.413535714149475098e+00
2.550000000000000000e+03 2.118983650207519531e+01 -1.058277893066406250e+01 -1.604365468025207520e+00 2.675543546676635742e+00 3.213534057140350342e-01 6.583455204963684082e-01
2.551000000000000000e+03 2.103916168212890625e+01 -9.349476814270019531e+00 6.609992384910583496e-01 4.274045467376708984e+00 1.480513334274291992e+00 5.818781256675720215e-01
2.552000000000000000e+03 2.164798545837402344e+01 9.048562049865722656e-01 -2.232971191406250000e-01 2.268495321273803711e+00 6.135594844818115234e-01 9.295204281806945801e-01
2.553000000000000000e+03 9.951197624206542969e+00 -6.241821289062500000e+00 -3.552902638912200928e-01 1.709428787231445312e+00 4.062415659427642822e-01 1.632589697837829590e+00
2.554000000000000000e+03 9.504347801208496094e+00 7.802113533020019531e+00 1.534182876348495483e-01 1.958787739276885986e-01 1.047891229391098022e-01 2.702797949314117432e-01
2.555000000000000000e+03 1.831069755554199219e+01 -9.311213493347167969e+00 1.480508685111999512e+00 6.737360954284667969e-01 6.462734341621398926e-01 3.716275930404663086e+00
2.556000000000000000e+03 1.940863609313964844e+01 -9.416010856628417969e+00 7.704119086265563965e-01 2.759551048278808594e+00 1.058988809585571289e+00 2.946884155273437500e+00
2.557000000000000000e+03 8.517852783203125000e+00 1.011458683013916016e+01 2.355674058198928833e-01 1.124505251646041870e-01 1.044053807854652405e-01 2.315880805253982544e-01
2.558000000000000000e+03 3.963656616210937500e+01 3.557516336441040039e+00 5.821391344070434570e-01 6.446175575256347656e-01 3.680270016193389893e-01 4.320501685142517090e-01
2.559000000000000000e+03 2.256656837463378906e+01 -1.147173023223876953e+01 -2.692142009735107422e+00 1.957842111587524414e+00 -2.202899605035781860e-01 -2.434885203838348389e-01
2.560000000000000000e+03 3.014849281311035156e+01 -1.165085601806640625e+01 -1.314465880393981934e+00 4.136737585067749023e-01 -2.702376246452331543e-01 -8.450097441673278809e-01
2.561000000000000000e+03 2.621471214294433594e+01 -1.147299385070800781e+01 -1.542296051979064941e+00 9.489983916282653809e-01 -1.779892891645431519e-01 -1.006761193275451660e+00
2.562000000000000000e+03 1.596877574920654297e+01 -8.010004997253417969e+00 3.441320419311523438e+00 -2.027403831481933594e+00 4.241749644279479980e-01 3.470111370086669922e+00
2.563000000000000000e+03 1.650425720214843750e+01 -8.585113525390625000e+00 3.126015901565551758e+00 -1.813162922859191895e+00 3.938559293746948242e-01 3.768886804580688477e+00
2.564000000000000000e+03 1.931587982177734375e+01 -9.007942199707031250e+00 1.682764530181884766e+00 3.109888315200805664e+00 1.437795877456665039e+00 3.259225130081176758e+00
2.565000000000000000e+03 3.863482284545898438e+01 -9.290043830871582031e+00 -8.573229908943176270e-01 1.283971369266510010e-01 -2.186777591705322266e-01 -4.576165676116943359e-01
2.566000000000000000e+03 7.117205047607421875e+01 3.913745582103729248e-01 -1.267116308212280273e+00 8.154207229614257812e+00 2.066127300262451172e+00 -9.235821962356567383e-01
2.567000000000000000e+03 7.235002899169921875e+01 2.743211269378662109e+00 -7.813250422477722168e-01 7.577212333679199219e+00 2.038766145706176758e+00 -6.096241474151611328e-01
2.568000000000000000e+03 8.372009277343750000e+00 -8.220957756042480469e+00 -7.667249441146850586e-01 4.228695392608642578e+00 1.038591146469116211e+00 7.664690017700195312e-01
2.569000000000000000e+03 2.322277259826660156e+01 7.887958288192749023e-01 -9.410741925239562988e-02 2.668444633483886719e+00 7.723011970520019531e-01 1.631254673004150391e+00
2.570000000000000000e+03 2.505209159851074219e+01 9.516466856002807617e-01 1.687898635864257812e-01 2.700849294662475586e+00 8.608917593955993652e-01 1.896697521209716797e+00
2.571000000000000000e+03 1.042432880401611328e+01 7.267076015472412109e+00 1.098686531186103821e-01 3.083954155445098877e-01 1.254792213439941406e-01 2.514104545116424561e-01
2.572000000000000000e+03 3.047518920898437500e+01 1.466776752471923828e+01 8.212245255708694458e-02 1.654110431671142578e+00 5.208698511123657227e-01 8.861015439033508301e-01
2.573000000000000000e+03 5.201892852783203125e+01 -4.664841294288635254e-02 8.773207664489746094e-02 2.045018821954727173e-01 8.767019212245941162e-02 -1.795756397768855095e-03
2.574000000000000000e+03 3.117283821105957031e+01 -1.075106334686279297e+01 -8.157666921615600586e-01 2.981811761856079102e-01 -1.552756577730178833e-01 -7.661045193672180176e-01
2.575000000000000000e+03 2.523914718627929688e+01 -1.092593955993652344e+01 -1.042969942092895508e+00 1.274692773818969727e+00 6.951685994863510132e-02 -1.079418301582336426e+00
2.576000000000000000e+03 4.226655578613281250e+01 -1.025428104400634766e+01 -1.276991486549377441e+00 9.768407791852951050e-02 -3.537922203540802002e-01 -4.983984231948852539e-01
2.577000000000000000e+03 3.259758758544921875e+01 8.176877021789550781e+00 7.427229285240173340e-01 1.503670811653137207e+00 6.739181280136108398e-01 1.132409691810607910e+00
2.578000000000000000e+03 3.559828948974609375e+01 9.302228927612304688e+00 6.161008477210998535e-01 1.377839326858520508e+00 5.981820821762084961e-01 1.036107301712036133e+00
2.579000000000000000e+03 4.795863342285156250e+01 -8.124050140380859375e+00 -1.336345791816711426e+00 4.791312292218208313e-02 -3.865298032760620117e-01 -4.209060966968536377e-01
2.580000000000000000e+03 4.567546844482421875e+01 -8.990132331848144531e+00 -1.280847072601318359e+00 6.143809854984283447e-02 -3.658226728439331055e-01 -4.490250349044799805e-01
2.581000000000000000e+03 2.154368400573730469e+01 -9.660464286804199219e+00 4.770671203732490540e-02 3.644932746887207031e+00 1.107791900634765625e+00 5.734791234135627747e-02
2.582000000000000000e+03 2.200970649719238281e+01 -1.100214004516601562e+01 -2.065150499343872070e+00 2.320984601974487305e+00 7.675027102231979370e-02 -1.991805434226989746e-02
2.583000000000000000e+03 7.046530914306640625e+01 3.996521949768066406e+00 -6.726268529891967773e-01 6.811220645904541016e+00 1.841578125953674316e+00 -1.144052028656005859e+00
2.584000000000000000e+03 3.015793228149414062e+01 5.104186058044433594e+00 7.589597702026367188e-01 1.812741160392761230e+00 7.715102434158325195e-01 1.051269531250000000e+00
2.585000000000000000e+03 3.127359199523925781e+01 5.478674888610839844e+00 8.201211690902709961e-01 1.634694576263427734e+00 7.364447712898254395e-01 1.050955891609191895e+00
2.586000000000000000e+03 9.437708854675292969e+00 9.867815971374511719e+00 2.513055205345153809e-01 2.365543097257614136e-01 1.463579535484313965e-01 2.213122993707656860e-01
2.587000000000000000e+03 2.846752738952636719e+01 1.986175775527954102e+00 5.615417361259460449e-01 2.109655618667602539e+00 8.013592362403869629e-01 1.425731897354125977e+00
2.588000000000000000e+03 4.757777404785156250e+01 -7.083513736724853516e+00 -1.100934624671936035e+00 7.716124504804611206e-02 -3.071320056915283203e-01 -3.121016919612884521e-01
2.589000000000000000e+03 4.978433227539062500e+01 -7.149572372436523438e+00 -1.309258460998535156e+00 3.994744643568992615e-02 -3.807933032512664795e-01 -3.653452396392822266e-01
2.590000000000000000e+03 2.839745712280273438e+01 -1.141315937042236328e+01 -1.204036593437194824e+00 5.906291604042053223e-01 -1.840222179889678955e-01 -9.521523118019104004e-01
2.591000000000000000e+03 7.051372528076171875e+00 9.013360023498535156e+00 1.526570618152618408e-01 -4.134586453437805176e-02 3.339335694909095764e-02 2.657362818717956543e-01
2.592000000000000000e+03 7.360715866088867188e+00 -8.052144050598144531e+00 -7.612068653106689453e-01 3.627279996871948242e+00 8.598219156265258789e-01 -7.615198493003845215e-01
2.593000000000000000e+03 8.205652236938476562e+00 9.355507850646972656e+00 1.988147199153900146e-01 7.903523743152618408e-02 8.335498720407485962e-02 2.526653409004211426e-01
2.594000000000000000e+03 2.677975654602050781e+01 2.440682649612426758e+00 2.699517607688903809e-01 2.566003084182739258e+00 8.507864475250244141e-01 1.545308232307434082e+00
2.595000000000000000e+03 6.574594116210937500e+01 -9.742333292961120605e-01 -6.282610893249511719e-01 4.592580318450927734e+00 1.189295649528503418e+00 -2.970815658569335938e+00
2.596000000000000000e+03 6.893909454345703125e+01 -2.032124996185302734e+00 -1.809831738471984863e+00 8.506250381469726562e+00 2.008925676345825195e+00 -2.184473037719726562e+00
2.597000000000000000e+03 3.287451553344726562e+01 4.852672576904296875e+00 7.895817756652832031e-01 1.368596196174621582e+00 6.474533677101135254e-01 1.010202884674072266e+00
2.598000000000000000e+03 3.814430236816406250e+01 -1.140563106536865234e+01 -1.332580447196960449e+00 1.589372605085372925e-01 -3.520929813385009766e-01 -5.689987540245056152e-01
2.599000000000000000e+03 3.602079772949218750e+01 -1.060357666015625000e+01 -1.033859252929687500e+00 1.661884635686874390e-01 -2.603012323379516602e-01 -5.800217390060424805e-01
2.600000000000000000e+03 7.178394317626953125e+01 -2.454005622863769531e+01 -9.013171195983886719e-01 8.656399726867675781e+00 2.326524734497070312e+00 -5.530120134353637695e-01
2.601000000000000000e+03 6.840750885009765625e+01 -2.756260681152343750e+01 -8.266243934631347656e-01 6.585899829864501953e+00 1.727782607078552246e+00 2.343284338712692261e-01
2.602000000000000000e+03 7.699635028839111328e+00 1.168086338043212891e+01 2.354741692543029785e-01 2.155991457402706146e-02 7.711022347211837769e-02 1.690200865268707275e-01
2.603000000000000000e+03 5.061689376831054688e+01 -6.460108757019042969e+00 -1.260595917701721191e+00 4.414755851030349731e-02 -3.649345040321350098e-01 -3.156701326370239258e-01
2.604000000000000000e+03 7.044454956054687500e+01 1.080798435211181641e+01 4.030894115567207336e-02 5.838209629058837891e+00 1.763555526733398438e+00 -9.521850943565368652e-01
2.605000000000000000e+03 7.121283721923828125e+01 8.625835418701171875e+00 -1.312340199947357178e-01 6.216882705688476562e+00 1.825694561004638672e+00 -9.668351411819458008e-01
2.606000000000000000e+03 7.184482574462890625e+01 1.611121559143066406e+01 1.400296837091445923e-01 5.883510589599609375e+00 1.807062029838562012e+00 -6.790407896041870117e-01
2.607000000000000000e+03 5.445490646362304688e+01 -3.578403949737548828e+00 -8.344821929931640625e-01 1.002759411931037903e-01 -2.202618718147277832e-01 -2.102655172348022461e-01
2.608000000000000000e+03 4.855576324462890625e+01 -5.639374256134033203e+00 -9.182883501052856445e-01 7.991987466812133789e-02 -2.515105307102203369e-01 -2.147708684206008911e-01
2.609000000000000000e+03 4.451784896850585938e+01 -9.421885490417480469e+00 -1.271134018898010254e+00 7.235725224018096924e-02 -3.596330285072326660e-01 -4.654050767421722412e-01
2.610000000000000000e+03 5.675497055053710938e+01 1.868470191955566406e+00 3.547487258911132812e-01 8.235897421836853027e-01 3.535015285015106201e-01 -4.210033416748046875e-01
2.611000000000000000e+03 1.118458080291748047e+01 2.611147880554199219e+01 -3.996395319700241089e-02 1.014420166611671448e-01 1.844342052936553955e-02 1.591068953275680542e-01
2.612000000000000000e+03 5.882720184326171875e+01 6.756678581237792969e+00 4.340043365955352783e-01 2.321628570556640625e+00 8.266898989677429199e-01 -6.595747470855712891e-01
2.613000000000000000e+03 7.131854248046875000e+01 1.253976821899414062e+01 8.653080463409423828e-02 5.947445392608642578e+00 1.810192823410034180e+00 -8.314270973205566406e-01
2.614000000000000000e+03 1.136434555053710938e+01 -2.606011199951171875e+01 -5.496644377708435059e-01 2.506962299346923828e+00 5.871893763542175293e-01 -1.627271473407745361e-01
2.615000000000000000e+03 8.061475753784179688e+00 1.603927230834960938e+01 1.370781958103179932e-01 6.907842308282852173e-02 6.184698641300201416e-02 3.091791830956935883e-02
2.616000000000000000e+03 3.296274948120117188e+01 1.594452095031738281e+01 2.452530413866043091e-01 1.563922643661499023e+00 5.427526831626892090e-01 7.969662547111511230e-01
2.617000000000000000e+03 4.422965240478515625e+01 2.064674377441406250e+00 5.151244997978210449e-01 2.005770802497863770e-01 2.147104740142822266e-01 1.418399363756179810e-01
2.618000000000000000e+03 4.514514160156250000e+01 1.878731250762939453e+00 5.086244344711303711e-01 1.553023308515548706e-01 1.991780251264572144e-01 1.388153135776519775e-01
2.619000000000000000e+03 6.931906700134277344e+00 2.106617736816406250e+01 -1.754460297524929047e-02 -1.183595210313796997e-01 -4.077123850584030151e-02 4.738498013466596603e-03
2.620000000000000000e+03 8.969245910644531250e+00 1.625774192810058594e+01 1.383443623781204224e-01 1.755885630846023560e-01 9.417987614870071411e-02 2.789115533232688904e-02
2.621000000000000000e+03 5.579560470581054688e+01 -4.035541415214538574e-02 2.772363089025020599e-02 4.742309749126434326e-01 1.505863815546035767e-01 -2.743265926837921143e-01
2.622000000000000000e+03 5.239017486572265625e+01 -1.596286177635192871e+00 -2.416451275348663330e-01 1.503239125013351440e-01 -2.739636413753032684e-02 -6.720739603042602539e-02
2.623000000000000000e+03 3.606620407104492188e+01 1.616290664672851562e+01 5.139186382293701172e-01 1.555686712265014648e+00 6.208816170692443848e-01 8.005084991455078125e-01
2.624000000000000000e+03 3.533565521240234375e+01 1.420453548431396484e+01 5.189515352249145508e-01 1.529552459716796875e+00 6.145511865615844727e-01 9.426639080047607422e-01
2.625000000000000000e+03 4.761054992675781250e+01 5.306569337844848633e-01 2.922194302082061768e-01 1.302257776260375977e-01 1.267335563898086548e-01 1.058537214994430542e-01
2.626000000000000000e+03 7.013595581054687500e+01 -8.999844789505004883e-01 -1.553952217102050781e+00 8.465841293334960938e+00 2.073566675186157227e+00 -1.363037109375000000e+00
2.627000000000000000e+03 9.953794479370117188e+00 1.871734619140625000e+01 1.618397235870361328e-02 2.666654884815216064e-01 8.485483378171920776e-02 4.298486560583114624e-02
2.628000000000000000e+03 7.056842803955078125e+01 5.751266956329345703e+00 -4.044435620307922363e-01 6.418189525604248047e+00 1.804123759269714355e+00 -1.104157686233520508e+00
2.629000000000000000e+03 6.066079711914062500e+01 9.623434066772460938e+00 4.789531230926513672e-01 3.223553419113159180e+00 1.110751986503601074e+00 -9.772934317588806152e-01
2.630000000000000000e+03 3.234062576293945312e+01 9.159591674804687500e+00 7.004804015159606934e-01 1.538482666015625000e+00 6.716889142990112305e-01 1.131976008415222168e+00
2.631000000000000000e+03 3.214599227905273438e+01 1.017451763153076172e+01 6.260671615600585938e-01 1.562905907630920410e+00 6.566919088363647461e-01 1.178663253784179688e+00
2.632000000000000000e+03 6.301414871215820312e+01 -9.860206842422485352e-01 3.392808511853218079e-02 1.943148493766784668e+00 5.931229591369628906e-01 -2.171498298645019531e+00
2.633000000000000000e+03 7.008446502685546875e+01 1.559259986877441406e+01 1.941311061382293701e-01 5.504192829132080078e+00 1.709497094154357910e+00 -7.924637794494628906e-01
2.634000000000000000e+03 3.914530563354492188e+01 -1.120378112792968750e+01 -1.322483539581298828e+00 1.416260451078414917e-01 -3.542572557926177979e-01 -5.558032989501953125e-01
2.635000000000000000e+03 4.079731750488281250e+01 -9.609300613403320312e+00 -1.067211627960205078e+00 1.137439385056495667e-01 -2.860403060913085938e-01 -4.626776278018951416e-01
2.636000000000000000e+03 8.314309120178222656e+00 1.509693622589111328e+01 1.602166891098022461e-01 9.050051867961883545e-02 7.521516084671020508e-02 4.943682998418807983e-02
2.637000000000000000e+03 9.719731330871582031e+00 -3.170110893249511719e+01 -4.661018550395965576e-01 1.681518435478210449e+00 3.646249771118164062e-01 2.523341178894042969e-01
2.638000000000000000e+03 5.591106033325195312e+01 1.455371022224426270e+00 2.784560620784759521e-01 6.585419178009033203e-01 2.810994088649749756e-01 -2.761124968528747559e-01
2.639000000000000000e+03 3.678583908081054688e+01 1.827923393249511719e+01 4.943895637989044189e-01 1.594315290451049805e+00 6.266114711761474609e-01 6.338891386985778809e-01
2.640000000000000000e+03 1.058620643615722656e+01 3.122743225097656250e+01 1.386412233114242554e-02 -4.104553908109664917e-02 -8.154424838721752167e-03 1.126171797513961792e-01
2.641000000000000000e+03 6.325104141235351562e+01 -3.206391143798828125e+01 -2.357581853866577148e-01 3.304544925689697266e+00 9.206359982490539551e-01 4.107140600681304932e-01
2.642000000000000000e+03 6.423027038574218750e+01 -3.014577102661132812e+01 -4.757472276687622070e-01 4.023947715759277344e+00 1.064460039138793945e+00 4.547325074672698975e-01
2.643000000000000000e+03 5.549300765991210938e+01 -2.950642585754394531e+00 -6.965957283973693848e-01 1.356127411127090454e-01 -1.682948917150497437e-01 -2.850511074066162109e-01
2.644000000000000000e+03 5.791996002197265625e+01 -2.901261329650878906e+00 -6.979714632034301758e-01 1.958018541336059570e-01 -1.506508886814117432e-01 -4.954271018505096436e-01
2.645000000000000000e+03 6.941203308105468750e+01 2.214582252502441406e+01 2.211163043975830078e-01 5.194873332977294922e+00 1.624796867370605469e+00 -5.475831627845764160e-01
2.646000000000000000e+03 3.791792678833007812e+01 -1.039045906066894531e+01 -1.076600193977355957e+00 1.441308259963989258e-01 -2.797407805919647217e-01 -5.328575372695922852e-01
2.647000000000000000e+03 3.344187164306640625e+01 9.323352813720703125e+00 6.688948869705200195e-01 1.465535044670104980e+00 6.403289437294006348e-01 1.137781739234924316e+00
2.648000000000000000e+03 3.169594764709472656e+01 1.622194862365722656e+01 1.295655816793441772e-01 1.555981516838073730e+00 5.056641101837158203e-01 7.550306916236877441e-01
2.649000000000000000e+03 7.070073699951171875e+01 2.664634704589843750e+01 1.569350063800811768e-01 5.287127494812011719e+00 1.633218765258789062e+00 -3.901731669902801514e-01
2.650000000000000000e+03 7.105072021484375000e+01 2.472996711730957031e+01 1.491362303495407104e-01 5.384603500366210938e+00 1.660121917724609375e+00 -4.501062631607055664e-01
2.651000000000000000e+03 3.673075485229492188e+01 9.273778915405273438e+00 5.777937173843383789e-01 1.348435640335083008e+00 5.778688192367553711e-01 9.384523034095764160e-01
2.652000000000000000e+03 6.940202331542968750e+01 -2.874901008605957031e+01 -6.940073966979980469e-01 7.133347988128662109e+00 1.931802153587341309e+00 1.272473037242889404e-01
2.653000000000000000e+03 1.755702972412109375e+01 2.260124206542968750e+01 1.031565759330987930e-02 3.438046276569366455e-01 1.062360852956771851e-01 4.261730611324310303e-01
2.654000000000000000e+03 1.508320140838623047e+01 2.469607734680175781e+01 -3.067039139568805695e-02 3.104909062385559082e-01 8.394615352153778076e-02 2.889761626720428467e-01
2.655000000000000000e+03 6.200123977661132812e+01 1.533064174652099609e+01 6.426518559455871582e-01 3.751392126083374023e+00 1.318213224411010742e+00 -8.190687298774719238e-01
2.656000000000000000e+03 6.188591384887695312e+01 1.726961517333984375e+01 5.919188857078552246e-01 3.794056177139282227e+00 1.315792560577392578e+00 -7.232664227485656738e-01
2.657000000000000000e+03 5.740171813964843750e+01 1.971465301513671875e+01 4.906924664974212646e-01 3.175641298294067383e+00 1.099900126457214355e+00 -6.753343343734741211e-01
2.658000000000000000e+03 7.797225952148437500e+00 1.096472454071044922e+01 2.175249606370925903e-01 3.857954218983650208e-02 7.683135569095611572e-02 1.954997330904006958e-01
2.659000000000000000e+03 6.942678833007812500e+01 1.789445686340332031e+01 2.493968904018402100e-01 5.283606052398681641e+00 1.659900903701782227e+00 -7.130544781684875488e-01
2.660000000000000000e+03 5.624795532226562500e+01 -4.009289264678955078e+00 -1.035882472991943359e+00 6.627386063337326050e-02 -2.908825874328613281e-01 -3.355736136436462402e-01
2.661000000000000000e+03 4.683435440063476562e+01 -8.552321434020996094e+00 -1.299821496009826660e+00 5.789546668529510498e-02 -3.725778162479400635e-01 -4.331091940402984619e-01
2.662000000000000000e+03 5.885717391967773438e+01 -3.268018066883087158e-01 3.855217620730400085e-02 7.364752888679504395e-01 2.325082272291183472e-01 -7.795037031173706055e-01
2.663000000000000000e+03 5.739367294311523438e+01 9.048594236373901367e-01 1.978718787431716919e-01 8.052791357040405273e-01 3.009453117847442627e-01 -5.284498929977416992e-01
2.664000000000000000e+03 6.540341186523437500e+01 -3.326797866821289062e+01 -2.083447724580764771e-01 4.707830429077148438e+00 1.349845767021179199e+00 3.757333159446716309e-01
2.665000000000000000e+03 6.318515014648437500e+01 1.439813327789306641e+01 5.688075423240661621e-01 3.984467267990112305e+00 1.365982413291931152e+00 -8.931132555007934570e-01
2.666000000000000000e+03 6.985293579101562500e+01 3.061174011230468750e+01 1.508338749408721924e-01 5.049673080444335938e+00 1.560152173042297363e+00 -2.966186404228210449e-01
2.667000000000000000e+03 3.235673904418945312e+01 5.873222351074218750e+00 7.973237037658691406e-01 1.445373415946960449e+00 6.728091239929199219e-01 1.049368858337402344e+00
2.668000000000000000e+03 3.190467262268066406e+01 6.882139205932617188e+00 8.098263144493103027e-01 1.560029029846191406e+00 7.109566330909729004e-01 1.087535738945007324e+00
2.669000000000000000e+03 7.043212127685546875e+01 -2.724305915832519531e+01 -8.083731532096862793e-01 7.698907852172851562e+00 2.067160367965698242e+00 -5.804412811994552612e-02
2.670000000000000000e+03 3.408345794677734375e+01 -1.071200275421142578e+01 -9.691619873046875000e-01 2.004705667495727539e-01 -2.306074202060699463e-01 -6.382199525833129883e-01
2.671000000000000000e+03 3.412776565551757812e+01 -1.176800537109375000e+01 -1.360787391662597656e+00 2.379701882600784302e-01 -3.368451595306396484e-01 -6.708019375801086426e-01
2.672000000000000000e+03 9.071359634399414062e+00 2.697344398498535156e+01 -3.920605406165122986e-02 -5.657795444130897522e-02 -2.873520180583000183e-02 9.225315600633621216e-02
2.673000000000000000e+03 4.641209793090820312e+01 -7.489991664886474609e+00 -1.081643223762512207e+00 7.167562097311019897e-02 -3.029902577400207520e-01 -3.365442454814910889e-01
2.674000000000000000e+03 4.040494155883789062e+01 2.769459486007690430e+00 5.600872039794921875e-01 4.872932732105255127e-01 3.142141401767730713e-01 3.317605555057525635e-01
2.675000000000000000e+03 1.055632305145263672e+01 -2.724331665039062500e+01 -6.163545846939086914e-01 2.257482290267944336e+00 4.923382997512817383e-01 1.054983362555503845e-01
2.676000000000000000e+03 1.356363773345947266e+01 -3.181365585327148438e+01 -4.418083131313323975e-01 1.535994529724121094e+00 3.282558619976043701e-01 -2.923545241355895996e-02
2.677000000000000000e+03 5.204700469970703125e+01 2.403219795227050781e+01 8.673917055130004883e-01 1.761791110038757324e+00 7.887548208236694336e-01 -3.384758830070495605e-01
2.678000000000000000e+03 4.953977584838867188e+01 -1.406322836875915527e+00 -1.286992579698562622e-01 1.259935647249221802e-01 -8.117066463455557823e-04 1.810849457979202271e-02
2.679000000000000000e+03 1.589576530456542969e+01 -3.287705612182617188e+01 -3.593063950538635254e-01 1.187256932258605957e+00 2.483851760625839233e-01 -1.320704966783523560e-01
2.680000000000000000e+03 9.786693572998046875e+00 2.403781509399414062e+01 -5.743295699357986450e-02 6.031380966305732727e-02 8.642566972412168980e-04 1.064670011401176453e-01
2.681000000000000000e+03 1.310453605651855469e+01 2.392129135131835938e+01 -6.322348117828369141e-02 2.739156782627105713e-01 6.320765614509582520e-02 2.309890687465667725e-01
2.682000000000000000e+03 1.248021221160888672e+01 1.999779510498046875e+01 -7.724517583847045898e-02 4.504216611385345459e-01 1.119529455900192261e-01 1.751080453395843506e-01
2.683000000000000000e+03 1.000599670410156250e+01 1.998658180236816406e+01 -3.057226352393627167e-02 2.254825681447982788e-01 5.847309157252311707e-02 6.295360624790191650e-02
2.684000000000000000e+03 6.869219207763671875e+01 2.650627136230468750e+01 2.083304822444915771e-01 4.983122825622558594e+00 1.557435989379882812e+00 -4.438914954662322998e-01
2.685000000000000000e+03 5.739059066772460938e+01 2.405456542968750000e+01 5.249726176261901855e-01 3.028877496719360352e+00 1.066155076026916504e+00 -6.096042990684509277e-01
2.686000000000000000e+03 5.653721237182617188e+01 2.747072982788085938e+01 5.950641632080078125e-01 2.892834901809692383e+00 1.046369671821594238e+00 -4.580358266830444336e-01
2.687000000000000000e+03 4.664376449584960938e+01 2.763689994812011719e+01 7.334631681442260742e-01 1.674283981323242188e+00 7.223241329193115234e-01 2.467669844627380371e-01
2.688000000000000000e+03 5.643835830688476562e+01 2.131091499328613281e+01 5.009688138961791992e-01 2.864817619323730469e+00 1.009735941886901855e+00 -7.223036289215087891e-01
2.689000000000000000e+03 5.812947845458984375e+01 2.235815811157226562e+01 4.851835370063781738e-01 3.228597640991210938e+00 1.114134430885314941e+00 -6.298472285270690918e-01
2.690000000000000000e+03 3.983179855346679688e+01 2.709315681457519531e+01 4.378438293933868408e-01 1.626898646354675293e+00 6.194227337837219238e-01 3.743382096290588379e-01
2.691000000000000000e+03 2.257898330688476562e+01 -7.187104225158691406e+00 6.423485279083251953e+00 3.439866304397583008e+00 2.959005594253540039e+00 -5.560892224311828613e-01
2.692000000000000000e+03 2.371235275268554688e+01 2.927851080894470215e-01 9.523158520460128784e-02 2.836925506591796875e+00 8.796471357345581055e-01 1.846793651580810547e+00
2.693000000000000000e+03 2.218715286254882812e+01 -3.433081865310668945e+00 1.571626424789428711e+00 5.242588520050048828e+00 2.044264554977416992e+00 2.900816679000854492e+00
2.694000000000000000e+03 2.184621238708496094e+01 -8.237307548522949219e+00 3.499712705612182617e+00 4.788334369659423828e+00 2.486414194107055664e+00 -7.761697173118591309e-01
2.695000000000000000e+03 2.270274543762207031e+01 -7.615934848785400391e+00 5.093626976013183594e+00 3.364973783493041992e+00 2.537580251693725586e+00 -9.131348133087158203e-01
2.696000000000000000e+03 2.333312606811523438e+01 -6.264715671539306641e+00 6.490362167358398438e+00 2.216965913772583008e+00 2.612198591232299805e+00 1.087873816490173340e+00
2.697000000000000000e+03 2.118327713012695312e+01 -1.000558137893676758e+00 -9.224060922861099243e-02 3.103552341461181641e+00 9.033935070037841797e-01 7.419372200965881348e-01
2.698000000000000000e+03 2.322453498840332031e+01 -6.055291175842285156e+00 6.713242530822753906e+00 2.330889701843261719e+00 2.713239669799804688e+00 1.478258132934570312e+00
2.699000000000000000e+03 1.680873870849609375e+01 -7.517132759094238281e+00 4.660318374633789062e+00 -1.825599074363708496e+00 8.504158258438110352e-01 3.171195983886718750e+00
2.700000000000000000e+03 2.283340644836425781e+01 -8.114625930786132812e+00 3.826788425445556641e+00 3.173719882965087891e+00 2.100152492523193359e+00 -1.029891967773437500e+00
2.701000000000000000e+03 2.319132423400878906e+01 -6.648987293243408203e+00 6.498041152954101562e+00 2.373835086822509766e+00 2.661562919616699219e+00 3.792726397514343262e-01
2.702000000000000000e+03 2.365470886230468750e+01 -1.046031570434570312e+01 -6.592903137207031250e-01 2.036426544189453125e+00 4.131408631801605225e-01 -1.007797718048095703e+00
2.703000000000000000e+03 2.511592102050781250e+01 -1.045277595520019531e+01 -4.207125008106231689e-01 1.356998443603515625e+00 2.808857858180999756e-01 -1.150301814079284668e+00
2.704000000000000000e+03 2.316268157958984375e+01 -5.106888294219970703e+00 5.689504623413085938e+00 3.009527921676635742e+00 2.609709739685058594e+00 2.974463701248168945e+00
2.705000000000000000e+03 2.304825592041015625e+01 -7.121142387390136719e+00 5.935866355895996094e+00 2.618397712707519531e+00 2.566279172897338867e+00 -3.169643282890319824e-01
2.706000000000000000e+03 2.343407630920410156e+01 -9.104112386703491211e-01 3.909036219120025635e-01 3.226708173751831055e+00 1.085283517837524414e+00 2.051351070404052734e+00
2.707000000000000000e+03 1.689251518249511719e+01 -7.970860004425048828e+00 4.198482513427734375e+00 -1.660339117050170898e+00 7.614430189132690430e-01 3.409836769104003906e+00
2.708000000000000000e+03 1.649870109558105469e+01 -6.521934032440185547e+00 4.799848079681396484e+00 -1.928878307342529297e+00 8.612909913063049316e-01 1.907719969749450684e+00
2.709000000000000000e+03 2.154525947570800781e+01 -8.799801826477050781e+00 1.864915370941162109e+00 4.590721607208251953e+00 1.936691045761108398e+00 -1.829205751419067383e-01
2.710000000000000000e+03 2.056727981567382812e+01 -9.148100852966308594e+00 1.020412921905517578e+00 4.575736522674560547e+00 1.678844809532165527e+00 1.356914877891540527e+00
2.711000000000000000e+03 2.130227088928222656e+01 -1.010199356079101562e+01 -6.677181124687194824e-01 3.353228569030761719e+00 8.056531548500061035e-01 4.433059394359588623e-01
2.712000000000000000e+03 2.074502944946289062e+01 -2.383739233016967773e+00 -4.767573252320289612e-02 3.998268365859985352e+00 1.185177803039550781e+00 4.144324958324432373e-01
2.713000000000000000e+03 2.133097457885742188e+01 -2.303493738174438477e+00 7.252580672502517700e-02 4.367157459259033203e+00 1.331905007362365723e+00 1.074371814727783203e+00
2.714000000000000000e+03 2.039589118957519531e+01 -9.692165374755859375e+00 -4.402070492506027222e-02 3.501684427261352539e+00 1.037299156188964844e+00 1.605434417724609375e+00
2.715000000000000000e+03 2.242998313903808594e+01 2.679163813591003418e-01 -9.285917878150939941e-02 2.647652387619018555e+00 7.664379477500915527e-01 1.386100411415100098e+00
2.716000000000000000e+03 1.543684005737304688e+01 -6.542846202850341797e+00 3.588413000106811523e+00 -1.893225908279418945e+00 5.085561275482177734e-01 2.125762701034545898e+00
2.717000000000000000e+03 1.667019844055175781e+01 -7.046527385711669922e+00 5.009373188018798828e+00 -1.894279360771179199e+00 9.345281720161437988e-01 2.520800352096557617e+00
2.718000000000000000e+03 2.174750709533691406e+01 1.087095141410827637e-01 -1.669480651617050171e-01 2.621262788772583008e+00 7.362943887710571289e-01 9.974669218063354492e-01
2.719000000000000000e+03 1.633483314514160156e+01 -7.669374942779541016e+00 4.133969783782958984e+00 -1.939296960830688477e+00 6.584018468856811523e-01 3.064746856689453125e+00
2.720000000000000000e+03 2.089883995056152344e+01 6.912844777107238770e-01 -1.862609535455703735e-01 1.791437506675720215e+00 4.815529584884643555e-01 5.468635559082031250e-01
2.721000000000000000e+03 1.497486686706542969e+01 -7.411379814147949219e+00 2.955696105957031250e+00 -1.837180614471435547e+00 3.355545997619628906e-01 3.038209438323974609e+00
2.722000000000000000e+03 1.504197978973388672e+01 -7.925643920898437500e+00 3.019340515136718750e+00 -2.111773252487182617e+00 2.722702026367187500e-01 3.554236650466918945e+00
2.723000000000000000e+03 2.065072631835937500e+01 -1.100408315658569336e+00 -8.099859952926635742e-02 2.767964839935302734e+00 8.060898184776306152e-01 3.530436158180236816e-01
2.724000000000000000e+03 1.435404777526855469e+01 -7.888547420501708984e+00 2.333501577377319336e+00 -1.692192435264587402e+00 1.923927664756774902e-01 3.546143531799316406e+00
2.725000000000000000e+03 1.556903934478759766e+01 -7.719581127166748047e+00 3.492352247238159180e+00 -2.115961313247680664e+00 4.129172861576080322e-01 3.198315620422363281e+00
2.726000000000000000e+03 1.644206047058105469e+01 -8.083021163940429688e+00 3.814454793930053711e+00 -1.920119881629943848e+00 5.683004856109619141e-01 3.593036174774169922e+00
2.727000000000000000e+03 1.705083656311035156e+01 -8.392047882080078125e+00 3.615084648132324219e+00 -1.303325295448303223e+00 6.935277581214904785e-01 3.921790599822998047e+00
2.728000000000000000e+03 2.198030662536621094e+01 -1.008902359008789062e+01 -5.479409098625183105e-01 2.990218400955200195e+00 7.326832413673400879e-01 -2.980938553810119629e-01
2.729000000000000000e+03 2.163138771057128906e+01 -1.049209308624267578e+01 -1.371465206146240234e+00 2.727927923202514648e+00 4.069387912750244141e-01 1.458219438791275024e-01
2.730000000000000000e+03 2.238926315307617188e+01 -1.052402305603027344e+01 -1.132185101509094238e+00 2.605780363082885742e+00 4.420785605907440186e-01 -4.761445820331573486e-01
2.731000000000000000e+03 2.479019355773925781e+01 3.976669907569885254e-01 2.629340589046478271e-01 2.737079143524169922e+00 9.000039100646972656e-01 2.005430698394775391e+00
2.732000000000000000e+03 2.478784942626953125e+01 -1.087198638916015625e+01 -9.907289147377014160e-01 1.526800751686096191e+00 1.608215421438217163e-01 -1.100791096687316895e+00
2.733000000000000000e+03 2.571265411376953125e+01 -1.030062675476074219e+01 -1.926452070474624634e-01 1.122479796409606934e+00 2.789503633975982666e-01 -1.165135502815246582e+00
2.734000000000000000e+03 2.346768760681152344e+01 -1.115389633178710938e+01 -1.821837663650512695e+00 1.874243974685668945e+00 1.572186313569545746e-02 -7.746322154998779297e-01
2.735000000000000000e+03 2.427422714233398438e+01 -1.063385200500488281e+01 -7.897897958755493164e-01 1.737332344055175781e+00 2.842627763748168945e-01 -1.098285436630249023e+00
2.736000000000000000e+03 4.136867904663085938e+01 -8.233746528625488281e+00 -8.455415964126586914e-01 1.083077788352966309e-01 -2.211701422929763794e-01 -3.752302527427673340e-01
2.737000000000000000e+03 8.605653762817382812e+00 8.210810661315917969e+00 1.572346389293670654e-01 1.121059954166412354e-01 8.080218732357025146e-02 2.802552878856658936e-01
2.738000000000000000e+03 7.365612983703613281e+00 9.697665214538574219e+00 1.951220780611038208e-01 -1.236488297581672668e-02 5.482715740799903870e-02 2.483430206775665283e-01
2.739000000000000000e+03 3.024768257141113281e+01 -1.072824668884277344e+01 -7.461067438125610352e-01 3.486781418323516846e-01 -1.192285791039466858e-01 -8.251860141754150391e-01
2.740000000000000000e+03 2.854180908203125000e+01 -1.060839366912841797e+01 -5.627972483634948730e-01 5.088776946067810059e-01 -1.617587171494960785e-02 -9.391258955001831055e-01
2.741000000000000000e+03 6.485878467559814453e+00 -7.023039817810058594e+00 -7.980196475982666016e-01 2.143863201141357422e+00 4.037530422210693359e-01 -1.073008298873901367e+00
2.742000000000000000e+03 7.368264675140380859e+00 -7.106220722198486328e+00 -8.684769868850708008e-01 2.862016677856445312e+00 5.980619192123413086e-01 -2.966910004615783691e-01
2.743000000000000000e+03 3.214336013793945312e+01 -9.766973495483398438e+00 -4.114290177822113037e-01 2.139499932527542114e-01 -5.924370884895324707e-02 -6.285651922225952148e-01
2.744000000000000000e+03 3.210280990600585938e+01 -1.176388072967529297e+01 -1.355014085769653320e+00 3.054469227790832520e-01 -3.148701488971710205e-01 -7.454941868782043457e-01
2.745000000000000000e+03 3.799364471435546875e+01 4.027001857757568359e+00 6.274752020835876465e-01 8.117281198501586914e-01 4.317609965801239014e-01 5.897344946861267090e-01
2.746000000000000000e+03 3.865853881835937500e+01 2.944280862808227539e+00 6.011741757392883301e-01 6.508662700653076172e-01 3.756121397018432617e-01 4.860021471977233887e-01
2.747000000000000000e+03 6.921181488037109375e+01 5.777655601501464844e+00 -3.402089178562164307e-01 5.959577560424804688e+00 1.685810565948486328e+00 -1.293670892715454102e+00
2.748000000000000000e+03 7.123783111572265625e+01 1.624392628669738770e+00 -1.007362484931945801e+00 7.619112968444824219e+00 1.983525156974792480e+00 -8.792751431465148926e-01
2.749000000000000000e+03 1.046332645416259766e+01 -6.889670848846435547e+00 -2.222185432910919189e-01 1.812508344650268555e+00 4.770869314670562744e-01 2.162213087081909180e+00
2.750000000000000000e+03 2.936640930175781250e+01 -1.068126964569091797e+01 -6.670289635658264160e-01 4.240002632141113281e-01 -7.290861010551452637e-02 -8.818736076354980469e-01
2.751000000000000000e+03 2.859831237792968750e+01 -9.159382820129394531e+00 5.027439594268798828e-01 3.738996684551239014e-01 2.629930973052978516e-01 -7.392316460609436035e-01
2.752000000000000000e+03 3.028894615173339844e+01 -9.832758903503417969e+00 -2.268833220005035400e-01 2.922748327255249023e-01 1.961744949221611023e-02 -7.343393564224243164e-01
2.753000000000000000e+03 2.778243827819824219e+01 -1.051759910583496094e+01 -4.590653181076049805e-01 6.152783036231994629e-01 4.686389490962028503e-02 -1.002639770507812500e+00
2.754000000000000000e+03 4.724225234985351562e+01 -6.006774425506591797e+00 -8.747317790985107422e-01 7.556582242250442505e-02 -2.397497892379760742e-01 -2.316623330116271973e-01
2.755000000000000000e+03 3.989527893066406250e+01 -7.731795787811279297e+00 -6.292337179183959961e-01 1.218605488538742065e-01 -1.522119641304016113e-01 -3.284968137741088867e-01
2.756000000000000000e+03 3.982529067993164062e+01 -9.949080467224121094e+00 -1.081190466880798340e+00 1.238014847040176392e-01 -2.872166931629180908e-01 -4.912161231040954590e-01
2.757000000000000000e+03 7.004857635498046875e+01 1.203104782104492188e+01 1.072188913822174072e-01 5.666585922241210938e+00 1.732141494750976562e+00 -9.201312065124511719e-01
2.758000000000000000e+03 6.920928192138671875e+01 1.032475471496582031e+01 6.263786554336547852e-02 5.548976421356201172e+00 1.683484196662902832e+00 -1.040594339370727539e+00
2.759000000000000000e+03 4.524150848388671875e+01 -7.912157535552978516e+00 -1.061439394950866699e+00 8.006795495748519897e-02 -2.944114506244659424e-01 -3.631982207298278809e-01
2.760000000000000000e+03 4.292948913574218750e+01 -8.774360656738281250e+00 -1.054488658905029297e+00 9.468477219343185425e-02 -2.879411578178405762e-01 -4.104159772396087646e-01
2.761000000000000000e+03 3.552960968017578125e+01 1.282093906402587891e+01 5.531351566314697266e-01 1.510165452957153320e+00 6.189901828765869141e-01 1.021989703178405762e+00
2.762000000000000000e+03 9.522807121276855469e+00 -2.628780174255371094e+01 -7.007591724395751953e-01 2.545765638351440430e+00 5.535019636154174805e-01 2.468680739402770996e-01
2.763000000000000000e+03 4.306285476684570312e+01 1.985670566558837891e+00 5.129315257072448730e-01 2.502417862415313721e-01 2.289519906044006348e-01 1.966962814331054688e-01
2.764000000000000000e+03 7.004621887207031250e+01 -2.308896303176879883e+00 -1.739797711372375488e+00 9.243021965026855469e+00 2.250967264175415039e+00 -1.236461281776428223e+00
2.765000000000000000e+03 4.182767868041992188e+01 -9.215486526489257812e+00 -1.055818319320678711e+00 1.002898663282394409e-01 -2.866585552692413330e-01 -4.370318949222564697e-01
2.766000000000000000e+03 2.794596862792968750e+01 1.509110093116760254e+00 5.631531476974487305e-01 2.195381641387939453e+00 8.275604248046875000e-01 1.589647412300109863e+00
2.767000000000000000e+03 2.862058258056640625e+01 3.153615236282348633e+00 5.217841267585754395e-01 2.169066667556762695e+00 8.072552084922790527e-01 1.266589879989624023e+00
2.768000000000000000e+03 3.396696472167968750e+01 7.625378608703613281e+00 7.146672010421752930e-01 1.379274606704711914e+00 6.281825304031372070e-01 1.048605203628540039e+00
2.769000000000000000e+03 3.665877151489257812e+01 1.150190639495849609e+01 5.821226239204406738e-01 1.461397528648376465e+00 6.130560636520385742e-01 1.003971099853515625e+00
2.770000000000000000e+03 5.965216827392578125e+01 1.921335220336914062e+00 3.189443051815032959e-01 1.498821377754211426e+00 5.453296899795532227e-01 -9.968643784523010254e-01
2.771000000000000000e+03 5.726100158691406250e+01 3.187933444976806641e+00 4.584539830684661865e-01 1.115703582763671875e+00 4.722472727298736572e-01 -4.662488996982574463e-01
2.772000000000000000e+03 5.355789566040039062e+01 -6.197793409228324890e-02 4.592508822679519653e-02 2.717287242412567139e-01 9.529614448547363281e-02 -7.276663184165954590e-02
2.773000000000000000e+03 3.288902282714843750e+01 1.367041110992431641e+01 3.671362698078155518e-01 1.564938783645629883e+00 5.796225070953369141e-01 1.000230789184570312e+00
2.774000000000000000e+03 3.552589035034179688e+01 1.154702091217041016e+01 5.737008452415466309e-01 1.475486516952514648e+00 6.147562265396118164e-01 1.052326679229736328e+00
2.775000000000000000e+03 3.296734237670898438e+01 7.229643821716308594e+00 7.685737609863281250e-01 1.409313797950744629e+00 6.533662676811218262e-01 1.069641113281250000e+00
2.776000000000000000e+03 6.788288879394531250e+01 -1.765638589859008789e+00 -1.295494318008422852e+00 7.066279411315917969e+00 1.731235623359680176e+00 -2.623730421066284180e+00
2.777000000000000000e+03 7.186217498779296875e+01 7.841131687164306641e+00 -2.034228444099426270e-01 6.565623283386230469e+00 1.908660054206848145e+00 -8.607252836227416992e-01
2.778000000000000000e+03 6.993021392822265625e+01 5.183988571166992188e+00 -4.688276052474975586e-01 6.366678237915039062e+00 1.769355177879333496e+00 -1.193790912628173828e+00
2.779000000000000000e+03 5.324590682983398438e+01 -3.758008241653442383e+00 -8.466770052909851074e-01 9.006750583648681641e-02 -2.269828468561172485e-01 -1.719314008951187134e-01
2.780000000000000000e+03 6.713840484619140625e+01 -2.867798507213592529e-01 -9.053044319152832031e-01 5.882323265075683594e+00 1.493105649948120117e+00 -2.533055305480957031e+00
2.781000000000000000e+03 6.613979339599609375e+01 1.799668520689010620e-01 -6.947431564331054688e-01 5.029956817626953125e+00 1.300564050674438477e+00 -2.478839159011840820e+00
2.782000000000000000e+03 6.812516021728515625e+01 1.899987030029296875e+01 2.898883521556854248e-01 4.987379550933837891e+00 1.583180308341979980e+00 -6.909524798393249512e-01
2.783000000000000000e+03 5.031914901733398438e+01 -2.356099933385848999e-01 8.231381326913833618e-02 1.552607566118240356e-01 7.127236574888229370e-02 4.067917540669441223e-02
2.784000000000000000e+03 4.985477447509765625e+01 -5.233241081237792969e+00 -9.561596512794494629e-01 7.256743311882019043e-02 -2.650776803493499756e-01 -2.016433030366897583e-01
2.785000000000000000e+03 3.505825042724609375e+01 -1.066851329803466797e+01 -1.007315635681152344e+00 1.859100759029388428e-01 -2.464216798543930054e-01 -6.087059974670410156e-01
2.786000000000000000e+03 7.032530975341796875e+01 8.097450256347656250e+00 -1.342554986476898193e-01 6.065943717956542969e+00 1.779506444931030273e+00 -1.019315838813781738e+00
2.787000000000000000e+03 7.082313537597656250e+01 9.650532722473144531e+00 -4.075532034039497375e-02 6.061319351196289062e+00 1.806169271469116211e+00 -9.273212552070617676e-01
2.788000000000000000e+03 3.172101402282714844e+01 1.353613567352294922e+01 2.759521603584289551e-01 1.649062037467956543e+00 5.775042772293090820e-01 1.023732781410217285e+00
2.789000000000000000e+03 3.063449668884277344e+01 1.219396209716796875e+01 3.281541764736175537e-01 1.744929552078247070e+00 6.219251155853271484e-01 1.116452455520629883e+00
2.790000000000000000e+03 3.513698196411132812e+01 -1.172639179229736328e+01 -1.356278777122497559e+00 2.085328698158264160e-01 -3.443237543106079102e-01 -6.388970017433166504e-01
2.791000000000000000e+03 4.165976715087890625e+01 2.209364652633666992e+00 5.278831720352172852e-01 3.633253872394561768e-01 2.673625648021697998e-01 2.505798935890197754e-01
2.792000000000000000e+03 7.067908477783203125e+01 1.372204399108886719e+01 1.344975531101226807e-01 5.777033805847167969e+00 1.773459315299987793e+00 -8.122710585594177246e-01
2.793000000000000000e+03 8.780648231506347656e+00 2.112701606750488281e+01 -3.578282147645950317e-02 7.216251641511917114e-02 1.091390848159790039e-02 4.821895807981491089e-02
2.794000000000000000e+03 8.601031303405761719e+00 2.234489631652832031e+01 -4.151368141174316406e-02 2.439918741583824158e-02 -5.134347826242446899e-03 5.397418513894081116e-02
2.795000000000000000e+03 9.603934288024902344e+00 -2.826470756530761719e+01 -6.280883550643920898e-01 2.122678518295288086e+00 4.483770430088043213e-01 3.095764219760894775e-01
2.796000000000000000e+03 3.555511856079101562e+01 8.171755790710449219e+00 6.431511044502258301e-01 1.305908679962158203e+00 5.847179293632507324e-01 9.720902442932128906e-01
2.797000000000000000e+03 3.678326416015625000e+01 5.934450149536132812e+00 6.386368274688720703e-01 1.088801145553588867e+00 5.182313919067382812e-01 7.966331243515014648e-01
2.798000000000000000e+03 6.604966735839843750e+01 1.059964370727539062e+01 2.432204931974411011e-01 4.630897998809814453e+00 1.462235569953918457e+00 -1.181161284446716309e+00
2.799000000000000000e+03 6.213915634155273438e+01 1.166342544555664062e+01 5.249105691909790039e-01 3.642480611801147461e+00 1.250217318534851074e+00 -1.038982987403869629e+00
2.800000000000000000e+03 1.619912910461425781e+01 2.303815269470214844e+01 -3.656606748700141907e-02 3.708284497261047363e-01 1.002787128090858459e-01 3.653796315193176270e-01
2.801000000000000000e+03 5.960839843750000000e+01 4.478312969207763672e+00 3.951338529586791992e-01 2.077415943145751953e+00 7.417649626731872559e-01 -9.208564758300781250e-01
2.802000000000000000e+03 5.491281890869140625e+01 -3.423983752727508545e-01 -2.829821780323982239e-02 3.216226100921630859e-01 8.799731731414794922e-02 -1.974564641714096069e-01
2.803000000000000000e+03 5.511826324462890625e+01 -1.234156131744384766e+00 -2.301611751317977905e-01 2.598431110382080078e-01 8.904580958187580109e-03 -2.065893411636352539e-01
2.804000000000000000e+03 5.748038101196289062e+01 -2.127885818481445312e+00 -4.740720689296722412e-01 2.742760777473449707e-01 -5.993879586458206177e-02 -5.264177918434143066e-01
2.805000000000000000e+03 7.720859050750732422e+00 -2.814887237548828125e+01 -6.017728447914123535e-01 1.951944351196289062e+00 4.050514698028564453e-01 5.668913722038269043e-01
2.806000000000000000e+03 7.105496215820312500e+01 7.115270614624023438e+00 -2.668265402317047119e-01 6.390740394592285156e+00 1.837174177169799805e+00 -9.825062155723571777e-01
2.807000000000000000e+03 9.935690879821777344e+00 2.261800384521484375e+01 -5.939309298992156982e-02 1.337184160947799683e-01 2.229759655892848969e-02 1.028345599770545959e-01
2.808000000000000000e+03 1.188411521911621094e+01 3.304460144042968750e+01 4.128723964095115662e-02 1.259384863078594208e-02 1.616432704031467438e-02 1.095633730292320251e-01
2.809000000000000000e+03 1.037540435791015625e+01 2.782787895202636719e+01 -2.563877403736114502e-02 -8.277223678305745125e-04 -7.939948700368404388e-03 1.276577711105346680e-01
2.810000000000000000e+03 3.950267410278320312e+01 -9.035684585571289062e+00 -8.601920008659362793e-01 1.289849877357482910e-01 -2.193621098995208740e-01 -4.270622730255126953e-01
2.811000000000000000e+03 6.462940979003906250e+01 -4.260166883468627930e-01 -3.059715032577514648e-01 3.557324409484863281e+00 9.754058718681335449e-01 -2.562148094177246094e+00
2.812000000000000000e+03 5.380368423461914062e+01 -1.415718436241149902e+00 -2.288074344396591187e-01 2.075823992490768433e-01 -6.367510650306940079e-03 -1.285701394081115723e-01
2.813000000000000000e+03 5.102710342407226562e+01 -4.828367233276367188e+00 -9.354742169380187988e-01 7.067715376615524292e-02 -2.594391405582427979e-01 -1.885079890489578247e-01
2.814000000000000000e+03 5.197534561157226562e+01 -3.600937843322753906e+00 -7.161058187484741211e-01 9.709804505109786987e-02 -1.857023388147354126e-01 -1.275412142276763916e-01
2.815000000000000000e+03 3.372174453735351562e+01 1.504289817810058594e+01 3.789644539356231689e-01 1.538300395011901855e+00 5.751794576644897461e-01 8.957609534263610840e-01
2.816000000000000000e+03 2.010885238647460938e+01 2.486756896972656250e+01 1.213339641690254211e-01 3.269140124320983887e-01 1.344743818044662476e-01 3.158702850341796875e-01
2.817000000000000000e+03 1.129972457885742188e+01 2.269927215576171875e+01 -7.343365997076034546e-02 2.315367460250854492e-01 4.743092507123947144e-02 1.579135209321975708e-01
2.818000000000000000e+03 5.971493530273437500e+01 6.933127880096435547e+00 4.384717643260955811e-01 2.602953672409057617e+00 9.124276041984558105e-01 -8.886629939079284668e-01
2.819000000000000000e+03 6.055091476440429688e+01 7.398899078369140625e+00 4.233030676841735840e-01 2.813067436218261719e+00 9.709111452102661133e-01 -9.986326694488525391e-01
2.820000000000000000e+03 6.945281982421875000e+01 2.394535064697265625e+01 1.969009041786193848e-01 5.157783031463623047e+00 1.606405138969421387e+00 -4.959568381309509277e-01
2.821000000000000000e+03 7.076539611816406250e+01 2.217080116271972656e+01 1.792831569910049438e-01 5.410609722137451172e+00 1.676967859268188477e+00 -5.142955183982849121e-01
2.822000000000000000e+03 3.088394165039062500e+01 1.931202697753906250e+01 5.725215375423431396e-02 1.371708035469055176e+00 4.286880493164062500e-01 4.400545358657836914e-01
2.823000000000000000e+03 2.994454765319824219e+01 1.737405395507812500e+01 -6.938447803258895874e-02 1.445848822593688965e+00 4.129392802715301514e-01 5.209854245185852051e-01
2.824000000000000000e+03 6.091412353515625000e+01 1.835057449340820312e+01 5.677407383918762207e-01 3.681260347366333008e+00 1.274700284004211426e+00 -6.410620808601379395e-01
2.825000000000000000e+03 6.045417404174804688e+01 2.180519485473632812e+01 4.574879109859466553e-01 3.629162311553955078e+00 1.225995063781738281e+00 -6.192839741706848145e-01
2.826000000000000000e+03 3.449495315551757812e+01 8.344382286071777344e+00 6.814640164375305176e-01 1.354392409324645996e+00 6.107569336891174316e-01 1.066876530647277832e+00
2.827000000000000000e+03 6.734633636474609375e+01 -2.861422348022460938e+01 -7.556585073471069336e-01 5.924236297607421875e+00 1.550573348999023438e+00 4.373637735843658447e-01
2.828000000000000000e+03 4.850521087646484375e+01 -3.748896718025207520e-01 1.037114337086677551e-01 1.263063400983810425e-01 6.900533288717269897e-02 6.513124704360961914e-02
2.829000000000000000e+03 4.673579406738281250e+01 -3.258892297744750977e-01 1.585006415843963623e-01 1.269492805004119873e-01 8.563497662544250488e-02 8.059271425008773804e-02
2.830000000000000000e+03 4.407381820678710938e+01 -8.331848144531250000e+00 -1.052511453628540039e+00 8.140881359577178955e-02 -2.913307845592498779e-01 -3.869476914405822754e-01
2.831000000000000000e+03 1.123603916168212891e+01 -3.096585083007812500e+01 -5.175892114639282227e-01 1.774805068969726562e+00 3.771647512912750244e-01 1.426341086626052856e-01
2.832000000000000000e+03 4.265092086791992188e+01 2.583539199829101562e+01 5.364586710929870605e-01 1.640737652778625488e+00 6.531589031219482422e-01 4.661061763763427734e-01
2.833000000000000000e+03 3.653004074096679688e+01 2.507666206359863281e+01 3.212041258811950684e-01 1.514083981513977051e+00 5.505864620208740234e-01 3.636325299739837646e-01
2.834000000000000000e+03 6.216506195068359375e+01 1.929345512390136719e+01 4.920435249805450439e-01 3.892562150955200195e+00 1.315381646156311035e+00 -6.674733757972717285e-01
2.835000000000000000e+03 6.131565856933593750e+01 2.050814819335937500e+01 4.741193354129791260e-01 3.771811485290527344e+00 1.273779273033142090e+00 -6.229732632637023926e-01
2.836000000000000000e+03 6.459841156005859375e+01 1.765739059448242188e+01 4.552245140075683594e-01 4.328133106231689453e+00 1.435007214546203613e+00 -7.465559244155883789e-01
2.837000000000000000e+03 3.781396484375000000e+01 5.873986244201660156e+00 5.820366144180297852e-01 9.977804422378540039e-01 4.739451110363006592e-01 6.683194637298583984e-01
2.838000000000000000e+03 5.331370162963867188e+01 -2.068703174591064453e+00 -3.889426589012145996e-01 1.779863536357879639e-01 -6.328688561916351318e-02 -9.930438548326492310e-02
2.839000000000000000e+03 5.989167022705078125e+01 8.311538696289062500e+00 4.504253864288330078e-01 2.838917970657348633e+00 9.868030548095703125e-01 -8.695590496063232422e-01
2.840000000000000000e+03 6.962194061279296875e+01 2.793473625183105469e+01 1.760051846504211426e-01 5.065553665161132812e+00 1.572467684745788574e+00 -3.882548809051513672e-01
2.841000000000000000e+03 6.742020416259765625e+01 2.353460311889648438e+01 2.713283896446228027e-01 4.819606781005859375e+00 1.527280569076538086e+00 -5.619415640830993652e-01
2.842000000000000000e+03 6.607738494873046875e+01 -3.078684234619140625e+01 -4.741849601268768311e-01 5.128609180450439453e+00 1.396327257156372070e+00 4.626788496971130371e-01
2.843000000000000000e+03 6.614664459228515625e+01 -2.889526367187500000e+01 -6.943415403366088867e-01 5.243438243865966797e+00 1.364729046821594238e+00 5.000683665275573730e-01
2.844000000000000000e+03 7.018852996826171875e+01 1.698103904724121094e+00 -1.055035710334777832e+00 7.331805229187011719e+00 1.883030891418457031e+00 -1.290836811065673828e+00
2.845000000000000000e+03 7.114763641357421875e+01 -9.336721301078796387e-01 -1.458060026168823242e+00 8.678131103515625000e+00 2.166021347045898438e+00 -7.353653907775878906e-01
2.846000000000000000e+03 3.594280624389648438e+01 1.987313652038574219e+01 3.806865513324737549e-01 1.588284611701965332e+00 5.906913280487060547e-01 5.348741412162780762e-01
2.847000000000000000e+03 3.745023727416992188e+01 2.061224555969238281e+01 4.188806712627410889e-01 1.642057538032531738e+00 6.182814240455627441e-01 5.134740471839904785e-01
2.848000000000000000e+03 5.965393447875976562e+01 2.327865409851074219e+01 4.609602689743041992e-01 3.499108552932739258e+00 1.188020706176757812e+00 -5.956492424011230469e-01
2.849000000000000000e+03 5.900598144531250000e+01 2.508337211608886719e+01 4.800754487514495850e-01 3.359797239303588867e+00 1.151961803436279297e+00 -5.466780066490173340e-01
2.850000000000000000e+03 1.947270774841308594e+01 2.334573936462402344e+01 9.584885835647583008e-02 2.871840894222259521e-01 1.149098873138427734e-01 3.801369667053222656e-01
2.851000000000000000e+03 2.332346916198730469e+01 2.085759925842285156e+01 6.852053105831146240e-02 3.104547858238220215e-01 1.136925891041755676e-01 1.928455084562301636e-01
2.852000000000000000e+03 5.672596740722656250e+01 2.573794364929199219e+01 5.725434422492980957e-01 2.888469219207763672e+00 1.038303732872009277e+00 -5.486606955528259277e-01
2.853000000000000000e+03 7.087502288818359375e+01 3.208576583862304688e+01 1.270248442888259888e-01 5.191112518310546875e+00 1.595441222190856934e+00 -2.500547468662261963e-01
2.854000000000000000e+03 8.391886711120605469e+00 3.637792968750000000e+01 2.608205936849117279e-02 -2.421192228794097900e-01 -6.481114774942398071e-02 4.666280001401901245e-02
2.855000000000000000e+03 2.652981567382812500e+01 2.067531967163085938e+01 1.962040923535823822e-02 8.347966670989990234e-01 2.563251256942749023e-01 1.882044970989227295e-01
2.856000000000000000e+03 2.004622268676757812e+01 2.118541526794433594e+01 7.507364451885223389e-02 1.911475807428359985e-01 7.986636459827423096e-02 4.281363189220428467e-01
2.857000000000000000e+03 1.470650577545166016e+01 2.178013420104980469e+01 -8.691441267728805542e-02 4.177173376083374023e-01 9.924087673425674438e-02 3.233962953090667725e-01
2.858000000000000000e+03 4.680085754394531250e+01 3.157902526855468750e+01 6.778998374938964844e-01 1.869096517562866211e+00 7.640988826751708984e-01 1.299477219581604004e-01
2.859000000000000000e+03 7.369474792480468750e+01 -3.727371978759765625e+01 -8.884002268314361572e-02 8.441538810729980469e+00 2.505809545516967773e+00 -4.193363338708877563e-02
2.860000000000000000e+03 7.081237792968750000e+01 -3.773220825195312500e+01 6.732109468430280685e-03 7.166803836822509766e+00 2.152060747146606445e+00 7.394599169492721558e-02
2.861000000000000000e+03 6.804099273681640625e+01 -3.433432769775390625e+01 -1.559562832117080688e-01 5.844409942626953125e+00 1.706536054611206055e+00 3.196273446083068848e-01
2.862000000000000000e+03 6.870860290527343750e+01 1.617627143859863281e+01 2.700977623462677002e-01 5.143094062805175781e+00 1.623957633972167969e+00 -8.007528781890869141e-01
2.863000000000000000e+03 6.838264465332031250e+01 1.449073600769042969e+01 2.601083815097808838e-01 5.146685600280761719e+00 1.622038245201110840e+00 -9.068304896354675293e-01
2.864000000000000000e+03 2.282450485229492188e+01 -5.420669555664062500e+00 6.779512882232666016e+00 3.190016984939575195e+00 2.990859031677246094e+00 2.858941078186035156e+00
2.865000000000000000e+03 2.314969825744628906e+01 -4.837826251983642578e+00 5.144941806793212891e+00 3.257517814636230469e+00 2.520737886428833008e+00 3.215150833129882812e+00
2.866000000000000000e+03 2.327935600280761719e+01 -1.761646382510662079e-02 1.010687425732612610e-01 2.960217952728271484e+00 9.183859825134277344e-01 1.793139219284057617e+00
2.867000000000000000e+03 2.345098876953125000e+01 -4.472120285034179688e+00 4.256641387939453125e+00 3.159549474716186523e+00 2.224857330322265625e+00 3.190318822860717773e+00
2.868000000000000000e+03 2.341844177246093750e+01 -6.934368133544921875e+00 5.698552131652832031e+00 2.154075622558593750e+00 2.355788469314575195e+00 1.577412709593772888e-02
2.869000000000000000e+03 2.573547172546386719e+01 -9.717329978942871094e+00 5.436586141586303711e-01 1.076141476631164551e+00 4.859400391578674316e-01 -1.128729343414306641e+00
2.870000000000000000e+03 2.108829879760742188e+01 -4.467581808567047119e-01 -1.111351400613784790e-01 2.602050542831420898e+00 7.472745776176452637e-01 6.588896512985229492e-01
2.871000000000000000e+03 2.145110893249511719e+01 -1.981084346771240234e+00 5.257748439908027649e-02 4.093159675598144531e+00 1.243721127510070801e+00 1.119763255119323730e+00
2.872000000000000000e+03 2.240982818603515625e+01 -6.977400779724121094e-01 8.012495934963226318e-02 3.186689138412475586e+00 9.800441861152648926e-01 1.525663852691650391e+00
2.873000000000000000e+03 1.618129539489746094e+01 -7.222719192504882812e+00 4.303115367889404297e+00 -2.036876678466796875e+00 6.798716187477111816e-01 2.834499120712280273e+00
2.874000000000000000e+03 2.250754165649414062e+01 -8.785244941711425781e+00 2.259620666503906250e+00 3.504099845886230469e+00 1.729116201400756836e+00 -9.863699078559875488e-01
2.875000000000000000e+03 2.449877738952636719e+01 -6.150640174746513367e-02 3.572050034999847412e-01 2.844684600830078125e+00 9.605668783187866211e-01 2.078049898147583008e+00
2.876000000000000000e+03 2.428135871887207031e+01 6.584463715553283691e-01 8.513927459716796875e-02 2.765110254287719727e+00 8.550748825073242188e-01 1.893418550491333008e+00
2.877000000000000000e+03 2.309231567382812500e+01 -1.036898231506347656e+01 -6.610857248306274414e-01 2.347271203994750977e+00 5.058556795120239258e-01 -8.825179934501647949e-01
2.878000000000000000e+03 2.562883567810058594e+01 5.880372524261474609e-01 3.687301576137542725e-01 2.591770648956298828e+00 8.881502747535705566e-01 1.975095629692077637e+00
2.879000000000000000e+03 2.276260757446289062e+01 -4.767682030797004700e-02 -1.234515197575092316e-02 2.944140195846557617e+00 8.795384764671325684e-01 1.577753543853759766e+00
2.880000000000000000e+03 2.466986274719238281e+01 -1.004451274871826172e+01 1.376240104436874390e-01 1.585108399391174316e+00 5.168197154998779297e-01 -1.206991195678710938e+00
2.881000000000000000e+03 2.335022735595703125e+01 -8.021378517150878906e+00 3.800427436828613281e+00 2.470573902130126953e+00 1.881300330162048340e+00 -9.718158841133117676e-01
2.882000000000000000e+03 1.348321533203125000e+01 -7.093432903289794922e+00 1.937709808349609375e+00 -1.024308204650878906e+00 2.740204632282257080e-01 3.091197013854980469e+00
2.883000000000000000e+03 1.503341770172119141e+01 -7.043611049652099609e+00 3.132210493087768555e+00 -1.857039332389831543e+00 3.825513720512390137e-01 2.804036855697631836e+00
2.884000000000000000e+03 2.258280754089355469e+01 -2.340069532394409180e+00 7.946623563766479492e-01 4.235723495483398438e+00 1.509115695953369141e+00 2.312566995620727539e+00
2.885000000000000000e+03 2.331899642944335938e+01 3.314910531044006348e-01 1.323219295591115952e-02 2.828012466430664062e+00 8.523733615875244141e-01 1.733488678932189941e+00
2.886000000000000000e+03 2.279388999938964844e+01 -2.801352262496948242e+00 1.352499604225158691e+00 4.266101837158203125e+00 1.685580492019653320e+00 2.721264123916625977e+00
2.887000000000000000e+03 2.707494163513183594e+01 -1.041731739044189453e+01 -3.492722511291503906e-01 7.319799661636352539e-01 1.148123145103454590e-01 -1.064774274826049805e+00
2.888000000000000000e+03 2.597342109680175781e+01 1.185747385025024414e+00 2.762585878372192383e-01 2.623929262161254883e+00 8.700563311576843262e-01 1.821567177772521973e+00
2.889000000000000000e+03 4.038986587524414062e+01 -8.654783248901367188e+00 -8.597405552864074707e-01 1.126075237989425659e-01 -2.241399139165878296e-01 -4.015112817287445068e-01
2.890000000000000000e+03 3.916020965576171875e+01 -8.242521286010742188e+00 -6.704753041267395020e-01 1.189888939261436462e-01 -1.654459238052368164e-01 -3.726823031902313232e-01
2.891000000000000000e+03 2.860571289062500000e+01 -9.856443405151367188e+00 5.851624067872762680e-03 4.351411163806915283e-01 1.322978287935256958e-01 -8.635489940643310547e-01
2.892000000000000000e+03 3.594623947143554688e+01 -9.562199592590332031e+00 -7.301514148712158203e-01 1.489377468824386597e-01 -1.743641048669815063e-01 -5.091823935508728027e-01
2.893000000000000000e+03 3.500661849975585938e+01 -9.618953704833984375e+00 -6.568708419799804688e-01 1.573803126811981201e-01 -1.498471647500991821e-01 -5.323268771171569824e-01
2.894000000000000000e+03 2.740697097778320312e+01 1.962193131446838379e+00 4.208973646163940430e-01 2.327128648757934570e+00 8.244078159332275391e-01 1.534322261810302734e+00
2.895000000000000000e+03 3.483153533935546875e+01 5.784858226776123047e+00 7.228715419769287109e-01 1.216158509254455566e+00 5.817090272903442383e-01 9.379993677139282227e-01
2.896000000000000000e+03 3.676022338867187500e+01 7.052316665649414062e+00 6.061512231826782227e-01 1.175776481628417969e+00 5.345783233642578125e-01 8.348749876022338867e-01
2.897000000000000000e+03 2.784885025024414062e+01 -9.833006858825683594e+00 1.304502785205841064e-01 5.325140357017517090e-01 1.988892853260040283e-01 -9.357584714889526367e-01
2.898000000000000000e+03 3.405504608154296875e+01 -9.659949302673339844e+00 -5.856745243072509766e-01 1.710887551307678223e-01 -1.243757382035255432e-01 -5.631678104400634766e-01
2.899000000000000000e+03 3.119918823242187500e+01 -9.802235603332519531e+00 -3.193204700946807861e-01 2.415135651826858521e-01 -2.334206923842430115e-02 -6.858673095703125000e-01
2.900000000000000000e+03 3.310817337036132812e+01 -1.074150753021240234e+01 -9.215030670166015625e-01 2.251686751842498779e-01 -2.089003175497055054e-01 -6.776126623153686523e-01
2.901000000000000000e+03 6.323236465454101562e+01 1.245894145965576172e+01 5.130395889282226562e-01 3.950763940811157227e+00 1.339141130447387695e+00 -1.022193789482116699e+00
2.902000000000000000e+03 6.859475708007812500e+01 8.492564201354980469e+00 -3.200831264257431030e-02 5.508098125457763672e+00 1.642826914787292480e+00 -1.170228838920593262e+00
2.903000000000000000e+03 6.133801651000976562e+01 2.721575021743774414e+00 2.922058403491973877e-01 2.255277633666992188e+00 7.642450332641601562e-01 -1.368755340576171875e+00
2.904000000000000000e+03 3.068207931518554688e+01 4.031306743621826172e+00 7.461648583412170410e-01 1.719909548759460449e+00 7.398223280906677246e-01 1.093244791030883789e+00
2.905000000000000000e+03 2.954897308349609375e+01 3.675832986831665039e+00 6.366744041442871094e-01 1.941544413566589355e+00 7.734656333923339844e-01 1.160354614257812500e+00
2.906000000000000000e+03 6.812132263183593750e+01 -5.995491743087768555e-01 -1.363655567169189453e+00 7.064642906188964844e+00 1.710296154022216797e+00 -2.267964124679565430e+00
2.907000000000000000e+03 4.853087997436523438e+01 -2.425862312316894531e+00 -2.864570617675781250e-01 1.036054566502571106e-01 -5.485548079013824463e-02 -1.573955081403255463e-02
2.908000000000000000e+03 3.814991760253906250e+01 1.300204873085021973e+00 5.831620097160339355e-01 5.454754233360290527e-01 3.385912477970123291e-01 4.704349040985107422e-01
2.909000000000000000e+03 3.164875793457031250e+01 1.480060291290283203e+01 1.810804754495620728e-01 1.606658101081848145e+00 5.363215804100036621e-01 8.921205997467041016e-01
2.910000000000000000e+03 4.246109390258789062e+01 -7.724208831787109375e+00 -8.186962604522705078e-01 9.471642971038818359e-02 -2.171939462423324585e-01 -3.360746204853057861e-01
2.911000000000000000e+03 6.933517456054687500e+01 7.441980361938476562e+00 -1.749195754528045654e-01 5.811880588531494141e+00 1.691088318824768066e+00 -1.185258269309997559e+00
2.912000000000000000e+03 5.818661880493164062e+01 1.390333771705627441e+00 2.818437218666076660e-01 9.949480891227722168e-01 3.830375373363494873e-01 -6.643096804618835449e-01
2.913000000000000000e+03 6.053929519653320312e+01 2.508946657180786133e-01 1.602022945880889893e-01 1.273844718933105469e+00 4.302141070365905762e-01 -1.239074707031250000e+00
2.914000000000000000e+03 6.681047058105468750e+01 1.957469367980957031e+01 3.321384191513061523e-01 4.748521804809570312e+00 1.524198055267333984e+00 -6.684864163398742676e-01
2.915000000000000000e+03 6.720846557617187500e+01 1.635383415222167969e+01 3.392395079135894775e-01 4.841555595397949219e+00 1.554238557815551758e+00 -8.180987834930419922e-01
2.916000000000000000e+03 3.448735809326171875e+01 4.412336826324462891e+00 7.441887259483337402e-01 1.142337083816528320e+00 5.659577250480651855e-01 8.966049551963806152e-01
2.917000000000000000e+03 4.190713500976562500e+01 -6.891222476959228516e+00 -6.383942961692810059e-01 1.129909977316856384e-01 -1.576209962368011475e-01 -2.618852555751800537e-01
2.918000000000000000e+03 4.443925094604492188e+01 1.073270916938781738e+00 4.026043713092803955e-01 1.792988479137420654e-01 1.745709627866744995e-01 1.630657911300659180e-01
2.919000000000000000e+03 3.774985504150390625e+01 -9.413371086120605469e+00 -8.249477744102478027e-01 1.338574886322021484e-01 -2.073270827531814575e-01 -4.730128645896911621e-01
2.920000000000000000e+03 4.802776718139648438e+01 -4.365532875061035156e+00 -6.273289918899536133e-01 9.008418023586273193e-02 -1.611734330654144287e-01 -1.173055097460746765e-01
2.921000000000000000e+03 4.365087127685546875e+01 -7.233478069305419922e+00 -8.212507963180541992e-01 9.273829311132431030e-02 -2.185537517070770264e-01 -3.002794981002807617e-01
2.922000000000000000e+03 3.357672500610351562e+01 8.409530639648437500e+00 7.119861245155334473e-01 1.421501040458679199e+00 6.400461196899414062e-01 1.082578420639038086e+00
2.923000000000000000e+03 3.556854248046875000e+01 1.040240764617919922e+01 5.971923470497131348e-01 1.422565460205078125e+00 6.059273481369018555e-01 1.036120295524597168e+00
2.924000000000000000e+03 5.292672348022460938e+01 -7.677597999572753906e-01 -8.498986810445785522e-02 2.199135720729827881e-01 4.047711193561553955e-02 -6.142316758632659912e-02
2.925000000000000000e+03 5.135669708251953125e+01 -1.007459998130798340e+00 -8.208974450826644897e-02 1.566429138183593750e-01 2.236595004796981812e-02 -4.061677027493715286e-03
2.926000000000000000e+03 4.930224990844726562e+01 -3.791065454483032227e+00 -5.767735242843627930e-01 9.409657120704650879e-02 -1.448030769824981689e-01 -8.952937275171279907e-02
2.927000000000000000e+03 4.734678268432617188e+01 -3.166862726211547852e+00 -3.622567057609558105e-01 9.432574361562728882e-02 -8.037929236888885498e-02 -4.577061161398887634e-02
2.928000000000000000e+03 3.478535461425781250e+01 1.558438301086425781e+01 4.334329962730407715e-01 1.566208481788635254e+00 5.998924374580383301e-01 8.654610514640808105e-01
2.929000000000000000e+03 3.146796226501464844e+01 1.776662826538085938e+01 7.566375285387039185e-02 1.468229651451110840e+00 4.631680250167846680e-01 5.783507823944091797e-01
2.930000000000000000e+03 3.198364639282226562e+01 1.124106693267822266e+01 5.066955089569091797e-01 1.630399584770202637e+00 6.411285400390625000e-01 1.143404722213745117e+00
2.931000000000000000e+03 3.331164932250976562e+01 1.032904720306396484e+01 6.084598302841186523e-01 1.511153101921081543e+00 6.358839273452758789e-01 1.121643066406250000e+00
2.932000000000000000e+03 5.210207366943359375e+01 -4.600384235382080078e+00 -9.329962730407714844e-01 8.679737895727157593e-02 -2.538596689701080322e-01 -1.839854270219802856e-01
2.933000000000000000e+03 5.311264419555664062e+01 -2.808418989181518555e+00 -5.777969956398010254e-01 1.307586580514907837e-01 -1.341115087270736694e-01 -1.204540207982063293e-01
2.934000000000000000e+03 3.451676940917968750e+01 9.351760864257812500e+00 6.448189020156860352e-01 1.404835224151611328e+00 6.148962378501892090e-01 1.061372876167297363e+00
2.935000000000000000e+03 6.518791961669921875e+01 8.540814399719238281e+00 1.769980341196060181e-01 4.410364151000976562e+00 1.376208662986755371e+00 -1.327279806137084961e+00
2.936000000000000000e+03 1.239119052886962891e+01 2.126448249816894531e+01 -9.123479574918746948e-02 3.768296539783477783e-01 8.567845821380615234e-02 1.904323846101760864e-01
2.937000000000000000e+03 1.470361137390136719e+01 2.333099746704101562e+01 -4.999256506562232971e-02 3.542842268943786621e-01 9.128750115633010864e-02 3.038362562656402588e-01
2.938000000000000000e+03 4.607180404663085938e+01 5.955023169517517090e-01 3.347635567188262939e-01 1.357236951589584351e-01 1.411461681127548218e-01 1.284421235322952271e-01
2.939000000000000000e+03 3.576559066772460938e+01 5.912126064300537109e+00 6.791817545890808105e-01 1.128103137016296387e+00 5.421854853630065918e-01 8.597619533538818359e-01
2.940000000000000000e+03 4.171001815795898438e+01 2.791427612304687500e+01 5.201381444931030273e-01 1.637493371963500977e+00 6.472894549369812012e-01 3.660105466842651367e-01
2.941000000000000000e+03 5.078083801269531250e+01 -2.167722225189208984e+00 -3.265621960163116455e-01 1.152573674917221069e-01 -6.339144706726074219e-02 -3.364933282136917114e-02
2.942000000000000000e+03 5.618731689453125000e+01 -1.212135672569274902e+00 -2.422607690095901489e-01 3.390732109546661377e-01 2.904373407363891602e-02 -3.537604808807373047e-01
2.943000000000000000e+03 5.660048294067382812e+01 4.571544229984283447e-01 1.279407292604446411e-01 5.439611673355102539e-01 2.015705704689025879e-01 -3.796325027942657471e-01
2.944000000000000000e+03 6.508348846435546875e+01 7.399302721023559570e-01 -3.540660440921783447e-01 4.091013908386230469e+00 1.121084451675415039e+00 -2.442050457000732422e+00
2.945000000000000000e+03 3.938409423828125000e+01 1.907588481903076172e+00 5.641754865646362305e-01 5.040459036827087402e-01 3.204663991928100586e-01 3.981246650218963623e-01
2.946000000000000000e+03 3.982793807983398438e+01 7.705403566360473633e-01 4.905663728713989258e-01 3.906601965427398682e-01 2.643679678440093994e-01 3.221534192562103271e-01
2.947000000000000000e+03 6.908361053466796875e+01 1.767475485801696777e+00 -8.942481279373168945e-01 6.672943115234375000e+00 1.733608484268188477e+00 -1.563326954841613770e+00
2.948000000000000000e+03 1.347266101837158203e+01 2.149989700317382812e+01 -8.752765506505966187e-02 4.067490696907043457e-01 9.576642513275146484e-02 2.611394226551055908e-01
2.949000000000000000e+03 1.122255325317382812e+01 2.131156921386718750e+01 -7.566924393177032471e-02 2.939342260360717773e-01 6.547948718070983887e-02 1.345729529857635498e-01
2.950000000000000000e+03 1.000046157836914062e+01 2.127535057067871094e+01 -5.272319912910461426e-02 1.851374208927154541e-01 3.972426801919937134e-02 8.576618134975433350e-02
2.951000000000000000e+03 6.651551055908203125e+01 2.136292839050292969e+01 3.190138638019561768e-01 4.673296928405761719e+00 1.497693181037902832e+00 -6.170758008956909180e-01
2.952000000000000000e+03 6.903574371337890625e+01 2.052024459838867188e+01 2.502776682376861572e-01 5.164541244506835938e+00 1.624445557594299316e+00 -6.142657995223999023e-01
2.953000000000000000e+03 5.065212631225585938e+01 -3.514295101165771484e+00 -6.091063022613525391e-01 9.697235375642776489e-02 -1.536401808261871338e-01 -9.462665766477584839e-02
2.954000000000000000e+03 6.996811676025390625e+01 2.548387145996093750e+01 1.836359947919845581e-01 5.184658527374267578e+00 1.610488414764404297e+00 -4.416592419147491455e-01
2.955000000000000000e+03 7.067316436767578125e+01 2.353169631958007812e+01 1.784290373325347900e-01 5.335852622985839844e+00 1.654284477233886719e+00 -4.772496521472930908e-01
2.956000000000000000e+03 2.163554000854492188e+01 2.404094886779785156e+01 1.518890410661697388e-01 3.508327305316925049e-01 1.508165299892425537e-01 2.876583933830261230e-01
2.957000000000000000e+03 3.722692489624023438e+01 4.976528644561767578e+00 6.235789060592651367e-01 9.563355445861816406e-01 4.739743471145629883e-01 6.944543123245239258e-01
2.958000000000000000e+03 3.691042709350585938e+01 3.300899267196655273e+00 6.633926033973693848e-01 8.220048546791076660e-01 4.456192255020141602e-01 6.630621552467346191e-01
2.959000000000000000e+03 3.274426269531250000e+01 1.481323337554931641e+01 2.665621638298034668e-01 1.586453795433044434e+00 5.559048056602478027e-01 9.220113158226013184e-01
2.960000000000000000e+03 4.105253982543945312e+01 -3.801608979701995850e-01 3.462572693824768066e-01 2.685126662254333496e-01 1.844309717416763306e-01 2.152040898799896240e-01
2.961000000000000000e+03 1.677071571350097656e+01 2.593214988708496094e+01 3.425059467554092407e-02 2.971439361572265625e-01 9.941836446523666382e-02 2.974830567836761475e-01
2.962000000000000000e+03 6.841058349609375000e+01 1.299689769744873047e+01 2.242179363965988159e-01 5.212251186370849609e+00 1.630940794944763184e+00 -9.621358513832092285e-01
2.963000000000000000e+03 6.966038513183593750e+01 1.319918251037597656e+01 1.710466295480728149e-01 5.502221107482910156e+00 1.701980352401733398e+00 -9.104174971580505371e-01
2.964000000000000000e+03 1.143142700195312500e+01 2.429478263854980469e+01 -6.096009910106658936e-02 1.777083724737167358e-01 3.502447903156280518e-02 1.674824506044387817e-01
2.965000000000000000e+03 3.938176727294921875e+01 2.417677116394042969e+01 3.908798992633819580e-01 1.672497749328613281e+00 6.190133094787597656e-01 4.465013146400451660e-01
2.966000000000000000e+03 4.603693389892578125e+01 -6.435365676879882812e+00 -8.622700572013854980e-01 8.429470658302307129e-02 -2.333926111459732056e-01 -2.567291855812072754e-01
2.967000000000000000e+03 1.292367172241210938e+01 2.696799659729003906e+01 -1.686519570648670197e-02 1.806652694940567017e-01 4.914002120494842529e-02 1.991687417030334473e-01
2.968000000000000000e+03 2.893171691894531250e+01 2.059818077087402344e+01 2.148587256669998169e-02 1.109007358551025391e+00 3.391479551792144775e-01 2.567527890205383301e-01
2.969000000000000000e+03 6.574510192871093750e+01 1.783742332458496094e+01 4.023004472255706787e-01 4.555943965911865234e+00 1.487473368644714355e+00 -7.526901960372924805e-01
2.970000000000000000e+03 3.532481765747070312e+01 1.763427162170410156e+01 4.024577736854553223e-01 1.573385357856750488e+00 5.927529335021972656e-01 6.842834949493408203e-01
2.971000000000000000e+03 1.294537734985351562e+01 -3.465488052368164062e+01 -3.963941931724548340e-01 1.431744456291198730e+00 3.106050789356231689e-01 5.282822251319885254e-02
2.972000000000000000e+03 2.668830490112304688e+01 2.219025421142578125e+01 8.508226275444030762e-02 8.118549585342407227e-01 2.690811753273010254e-01 1.841810494661331177e-01
2.973000000000000000e+03 5.397048950195312500e+01 -2.657663106918334961e+00 -5.757502317428588867e-01 1.421333849430084229e-01 -1.300850510597229004e-01 -1.640218645334243774e-01
2.974000000000000000e+03 6.159510803222656250e+01 -3.388859939575195312e+01 1.956589333713054657e-02 2.535820960998535156e+00 7.666160464286804199e-01 3.045183718204498291e-01
2.975000000000000000e+03 6.399647903442382812e+01 2.240810585021972656e+01 3.714592754840850830e-01 4.253977775573730469e+00 1.387631058692932129e+00 -5.884141325950622559e-01
2.976000000000000000e+03 6.803618621826171875e+01 2.191671562194824219e+01 2.702534496784210205e-01 4.920651912689208984e+00 1.557271599769592285e+00 -6.062849164009094238e-01
2.977000000000000000e+03 6.836942291259765625e+01 6.592820644378662109e+00 -2.125061601400375366e-01 5.617066383361816406e+00 1.621368050575256348e+00 -1.314611911773681641e+00
2.978000000000000000e+03 7.004946899414062500e+01 6.540298938751220703e+00 -2.986057698726654053e-01 6.195431709289550781e+00 1.769047856330871582e+00 -1.108832120895385742e+00
2.979000000000000000e+03 6.628176879882812500e+01 2.661305236816406250e+01 2.770591676235198975e-01 4.592514991760253906e+00 1.460872292518615723e+00 -4.872178137302398682e-01
2.980000000000000000e+03 6.557997131347656250e+01 2.839023399353027344e+01 2.830510437488555908e-01 4.471459388732910156e+00 1.426353096961975098e+00 -4.313311576843261719e-01
2.981000000000000000e+03 6.267813491821289062e+01 2.144032096862792969e+01 4.192759096622467041e-01 4.007641315460205078e+00 1.328075170516967773e+00 -6.222602128982543945e-01
2.982000000000000000e+03 3.184198760986328125e+01 1.236181354522705078e+01 4.054667651653289795e-01 1.605728268623352051e+00 6.033585071563720703e-01 1.092566132545471191e+00
2.983000000000000000e+03 6.950479888916015625e+01 4.252797603607177734e+00 -5.270476937294006348e-01 6.279323577880859375e+00 1.725682735443115234e+00 -1.319411516189575195e+00
2.984000000000000000e+03 7.066549682617187500e+01 4.948094844818115234e+00 -4.659282565116882324e-01 6.580091476440429688e+00 1.834249019622802734e+00 -1.058389544486999512e+00
2.985000000000000000e+03 6.689524841308593750e+01 1.449760055541992188e+01 3.497288823127746582e-01 4.782280921936035156e+00 1.539602875709533691e+00 -9.285553097724914551e-01
2.986000000000000000e+03 6.399721527099609375e+01 2.749228668212890625e+01 3.355119824409484863e-01 4.231423854827880859e+00 1.370080709457397461e+00 -4.633305668830871582e-01
2.987000000000000000e+03 6.118183517456054688e+01 2.746238899230957031e+01 4.174976050853729248e-01 3.736971139907836914e+00 1.246340632438659668e+00 -4.572855830192565918e-01
2.988000000000000000e+03 5.807543563842773438e+01 2.676806831359863281e+01 5.205854177474975586e-01 3.193222284317016602e+00 1.114142298698425293e+00 -5.080903172492980957e-01
2.989000000000000000e+03 1.179700183868408203e+01 3.523089981079101562e+01 5.850195139646530151e-02 -1.461960375308990479e-02 1.316470466554164886e-02 8.367656916379928589e-02
2.990000000000000000e+03 1.801988601684570312e+01 2.397056961059570312e+01 4.371981322765350342e-02 3.157775402069091797e-01 1.078492030501365662e-01 3.729264736175537109e-01
2.991000000000000000e+03 1.846811485290527344e+01 2.552981185913085938e+01 8.303295075893402100e-02 3.172389864921569824e-01 1.200815811753273010e-01 3.212283253669738770e-01
2.992000000000000000e+03 6.931291198730468750e+01 3.479312896728515625e+01 1.578471660614013672e-01 4.944842815399169922e+00 1.530807018280029297e+00 -2.119774073362350464e-01
2.993000000000000000e+03 6.648681640625000000e+01 3.462865829467773438e+01 2.388794869184494019e-01 4.541528701782226562e+00 1.434122562408447266e+00 -2.240210920572280884e-01
2.994000000000000000e+03 2.314341545104980469e+01 -5.367261409759521484e+00 6.222332000732421875e+00 2.806299209594726562e+00 2.708589315414428711e+00 2.706254005432128906e+00
2.995000000000000000e+03 2.527871704101562500e+01 4.288658127188682556e-02 4.745899736881256104e-01 2.671572208404541016e+00 9.438486695289611816e-01 2.070151329040527344e+00
2.996000000000000000e+03 2.341623115539550781e+01 -4.208358287811279297e+00 3.798421382904052734e+00 3.344586372375488281e+00 2.142902374267578125e+00 3.239880323410034180e+00
2.997000000000000000e+03 2.200006675720214844e+01 -5.522343516349792480e-01 -5.083036050200462341e-02 3.106082677841186523e+00 9.165756702423095703e-01 1.277667045593261719e+00
2.998000000000000000e+03 2.390770530700683594e+01 -6.813215732574462891e+00 5.264051437377929688e+00 1.699444174766540527e+00 2.089048624038696289e+00 2.506113648414611816e-01
2.999000000000000000e+03 2.402818679809570312e+01 -6.642652153968811035e-01 4.797615706920623779e-01 3.010397434234619141e+00 1.047047734260559082e+00 2.146030426025390625e+00
3.000000000000000000e+03 2.321780014038085938e+01 -7.543590545654296875e+00 4.927920341491699219e+00 2.517359495162963867e+00 2.233583927154541016e+00 -6.754723787307739258e-01
3.001000000000000000e+03 2.426501274108886719e+01 -7.495129108428955078e+00 4.027001857757568359e+00 1.513078451156616211e+00 1.662024140357971191e+00 -3.961215317249298096e-01
3.002000000000000000e+03 2.426801681518554688e+01 -7.856878280639648438e+00 3.632074117660522461e+00 1.585044384002685547e+00 1.565135598182678223e+00 -6.796060800552368164e-01
3.003000000000000000e+03 2.381739234924316406e+01 -9.025532722473144531e+00 1.813590526580810547e+00 2.136590957641601562e+00 1.185054421424865723e+00 -1.202228307723999023e+00
3.004000000000000000e+03 2.383821487426757812e+01 -7.926235675811767578e+00 3.759048938751220703e+00 1.974550247192382812e+00 1.720079779624938965e+00 -8.110390901565551758e-01
3.005000000000000000e+03 2.119952392578125000e+01 -1.494406938552856445e+00 -5.233196541666984558e-02 3.480249404907226562e+00 1.028375267982482910e+00 7.866253256797790527e-01
3.006000000000000000e+03 2.409987258911132812e+01 -2.266788482666015625e-01 3.423953354358673096e-01 2.917011499404907227e+00 9.778220057487487793e-01 2.044904232025146484e+00
3.007000000000000000e+03 2.384607696533203125e+01 -2.946906328201293945e+00 1.964655399322509766e+00 3.311520338058471680e+00 1.582852721214294434e+00 2.866376161575317383e+00
3.008000000000000000e+03 2.216963386535644531e+01 -1.266021728515625000e-01 -6.419176608324050903e-02 2.850435733795166016e+00 8.358731865882873535e-01 1.287580966949462891e+00
3.009000000000000000e+03 2.158810043334960938e+01 -3.979035913944244385e-01 -1.234683170914649963e-01 2.798570394515991211e+00 8.025306463241577148e-01 9.363605976104736328e-01
3.010000000000000000e+03 2.231736946105957031e+01 -9.666734695434570312e+00 2.913322746753692627e-01 3.142741918563842773e+00 1.030222296714782715e+00 -6.679075360298156738e-01
3.011000000000000000e+03 2.310407257080078125e+01 -3.374661803245544434e-01 1.383564174175262451e-01 3.066159725189208984e+00 9.613548517227172852e-01 1.802237153053283691e+00
3.012000000000000000e+03 2.509478569030761719e+01 -9.554804801940917969e+00 8.288075327873229980e-01 1.334338307380676270e+00 6.489437818527221680e-01 -1.154840707778930664e+00
3.013000000000000000e+03 2.696374320983886719e+01 1.368959069252014160e+00 4.291643798351287842e-01 2.428219079971313477e+00 8.572150468826293945e-01 1.711339592933654785e+00
3.014000000000000000e+03 2.324137496948242188e+01 -3.734880447387695312e+00 2.928664922714233398e+00 3.811138391494750977e+00 2.021940946578979492e+00 3.286993741989135742e+00
3.015000000000000000e+03 2.643812751770019531e+01 -9.756841659545898438e+00 3.792497217655181885e-01 8.204485177993774414e-01 3.599094748497009277e-01 -1.064682602882385254e+00
3.016000000000000000e+03 2.352866363525390625e+01 -5.315408110618591309e-01 2.837531566619873047e-01 3.106254100799560547e+00 1.017002105712890625e+00 1.975661754608154297e+00
3.017000000000000000e+03 2.786118507385253906e+01 -9.193663597106933594e+00 6.540018916130065918e-01 4.750311970710754395e-01 3.387099206447601318e-01 -8.033792972564697266e-01
3.018000000000000000e+03 2.942059707641601562e+01 -9.858245849609375000e+00 -1.086594164371490479e-01 3.554797172546386719e-01 7.404609024524688721e-02 -7.924948334693908691e-01
3.019000000000000000e+03 2.304904174804687500e+01 -9.888722419738769531e+00 4.733930528163909912e-02 2.552140951156616211e+00 7.798440456390380859e-01 -9.520621299743652344e-01
3.020000000000000000e+03 2.416376304626464844e+01 -9.568860054016113281e+00 8.490875363349914551e-01 1.883403062820434570e+00 8.197471499443054199e-01 -1.208849668502807617e+00
3.021000000000000000e+03 2.754017257690429688e+01 9.616503715515136719e-01 5.945389270782470703e-01 2.188508033752441406e+00 8.349140882492065430e-01 1.675903558731079102e+00
3.022000000000000000e+03 2.713359832763671875e+01 -9.797835350036621094e+00 2.688269913196563721e-01 6.673012971878051758e-01 2.808384895324707031e-01 -1.000024199485778809e+00
3.023000000000000000e+03 2.647803878784179688e+01 -9.192011833190917969e+00 1.030260443687438965e+00 7.602384090423583984e-01 5.371496677398681641e-01 -9.542086124420166016e-01
3.024000000000000000e+03 2.939090919494628906e+01 -9.092691421508789062e+00 3.835313916206359863e-01 3.025235533714294434e-01 2.058164924383163452e-01 -6.678049564361572266e-01
3.025000000000000000e+03 5.851792144775390625e+01 2.235590457916259766e+00 3.577382266521453857e-01 1.244806766510009766e+00 4.807634949684143066e-01 -7.521632909774780273e-01
3.026000000000000000e+03 5.925123596191406250e+01 7.800645828247070312e-01 1.761701703071594238e-01 1.071968793869018555e+00 3.744416832923889160e-01 -9.267991781234741211e-01
3.027000000000000000e+03 3.004050064086914062e+01 -8.193259239196777344e+00 6.923668384552001953e-01 2.267355918884277344e-01 2.757307291030883789e-01 -4.203993082046508789e-01
3.028000000000000000e+03 3.307289505004882812e+01 -8.672082901000976562e+00 -1.100108623504638672e-01 1.651207059621810913e-01 1.653295382857322693e-02 -4.564946889877319336e-01
3.029000000000000000e+03 3.025363922119140625e+01 -8.958422660827636719e+00 2.808928191661834717e-01 2.418502420186996460e-01 1.568229198455810547e-01 -5.839922428131103516e-01
3.030000000000000000e+03 4.503160476684570312e+01 3.755113855004310608e-02 2.623121738433837891e-01 1.474236249923706055e-01 1.229207366704940796e-01 1.110216602683067322e-01
3.031000000000000000e+03 4.325914001464843750e+01 6.441946625709533691e-01 3.842958807945251465e-01 2.081354707479476929e-01 1.777293980121612549e-01 1.648348420858383179e-01
3.032000000000000000e+03 3.914681625366210938e+01 -7.014651775360107422e+00 -4.219859540462493896e-01 1.234093457460403442e-01 -8.957298845052719116e-02 -2.666457593441009521e-01
3.033000000000000000e+03 3.861972427368164062e+01 -7.736014842987060547e+00 -5.240922570228576660e-01 1.250976473093032837e-01 -1.196983829140663147e-01 -3.272367715835571289e-01
3.034000000000000000e+03 3.499856948852539062e+01 -8.596091270446777344e+00 -3.572500646114349365e-01 1.450030207633972168e-01 -6.367410719394683838e-02 -4.215280115604400635e-01
3.035000000000000000e+03 3.685623168945312500e+01 -9.491207122802734375e+00 -7.821817398071289062e-01 1.384520828723907471e-01 -1.931189000606536865e-01 -4.923782646656036377e-01
3.036000000000000000e+03 3.341301345825195312e+01 6.291461944580078125e+00 7.728579044342041016e-01 1.372193098068237305e+00 6.435152888298034668e-01 1.029872179031372070e+00
3.037000000000000000e+03 4.486013412475585938e+01 -6.846006393432617188e+00 -8.490461111068725586e-01 8.774644136428833008e-02 -2.283899039030075073e-01 -2.769671976566314697e-01
3.038000000000000000e+03 4.086681747436523438e+01 -7.290752410888671875e+00 -6.261020898818969727e-01 1.133016720414161682e-01 -1.538401246070861816e-01 -2.962623834609985352e-01
3.039000000000000000e+03 2.842449760437011719e+01 1.113199234008789062e+00 6.799374818801879883e-01 1.999208688735961914e+00 8.037438392639160156e-01 1.542277812957763672e+00
3.040000000000000000e+03 2.915261840820312500e+01 2.397322177886962891e+00 6.411933302879333496e-01 1.938570380210876465e+00 7.739291191101074219e-01 1.323375225067138672e+00
3.041000000000000000e+03 3.560667037963867188e+01 7.020382404327392578e+00 6.637660264968872070e-01 1.240468025207519531e+00 5.712702274322509766e-01 9.406757950782775879e-01
3.042000000000000000e+03 3.180055236816406250e+01 4.407440185546875000e+00 7.709881663322448730e-01 1.502328395843505859e+00 6.819949746131896973e-01 1.045847535133361816e+00
3.043000000000000000e+03 2.306205940246582031e+01 2.314042854309082031e+01 1.493165343999862671e-01 4.033706188201904297e-01 1.658061444759368896e-01 2.369391024112701416e-01
3.044000000000000000e+03 3.404572296142578125e+01 -8.599243164062500000e+00 -2.259222418069839478e-01 1.481679528951644897e-01 -2.332628890872001648e-02 -4.316115379333496094e-01
3.045000000000000000e+03 4.653595733642578125e+01 -2.082184314727783203e+00 -1.242145895957946777e-01 1.062714233994483948e-01 -5.382950417697429657e-03 2.222893573343753815e-02
3.046000000000000000e+03 3.426652526855468750e+01 1.268970966339111328e+01 5.052275657653808594e-01 1.518787622451782227e+00 6.072045564651489258e-01 1.045358180999755859e+00
3.047000000000000000e+03 5.984257888793945312e+01 3.168616533279418945e+00 3.770095705986022949e-01 1.834933638572692871e+00 6.635829806327819824e-01 -1.031820178031921387e+00
3.048000000000000000e+03 6.346630096435546875e+01 1.883944123983383179e-01 -6.123396381735801697e-02 2.733873844146728516e+00 8.017919063568115234e-01 -2.264850139617919922e+00
3.049000000000000000e+03 6.153976821899414062e+01 7.847605228424072266e+00 3.980849385261535645e-01 3.169516801834106445e+00 1.070280551910400391e+00 -1.126117348670959473e+00
3.050000000000000000e+03 6.113170623779296875e+01 6.498153209686279297e+00 4.002230465412139893e-01 2.866159915924072266e+00 9.799149036407470703e-01 -1.133008837699890137e+00
3.051000000000000000e+03 6.108971405029296875e+01 8.740136146545410156e+00 4.449492692947387695e-01 3.162890911102294922e+00 1.082352042198181152e+00 -1.045874118804931641e+00
3.052000000000000000e+03 4.430089950561523438e+01 -4.655397415161132812e+00 -4.230066835880279541e-01 1.082036420702934265e-01 -9.444090723991394043e-02 -1.189115941524505615e-01
3.053000000000000000e+03 3.780141448974609375e+01 -7.462356090545654297e+00 -3.739338517189025879e-01 1.301003247499465942e-01 -7.315006107091903687e-02 -2.930454909801483154e-01
3.054000000000000000e+03 3.847778320312500000e+01 -8.461754798889160156e+00 -6.548445820808410645e-01 1.258307844400405884e-01 -1.587041318416595459e-01 -3.936973810195922852e-01
3.055000000000000000e+03 3.304599380493164062e+01 1.252441501617431641e+01 4.452186524868011475e-01 1.580196976661682129e+00 6.076247096061706543e-01 1.081096887588500977e+00
3.056000000000000000e+03 5.757398605346679688e+01 -5.914696305990219116e-02 1.220366172492504120e-02 6.367370486259460449e-01 1.946822106838226318e-01 -5.760161280632019043e-01
3.057000000000000000e+03 3.310068130493164062e+01 -9.709863662719726562e+00 -5.151643753051757812e-01 1.864050328731536865e-01 -9.862779825925827026e-02 -5.924274921417236328e-01
3.058000000000000000e+03 4.385566329956054688e+01 -6.668894290924072266e-01 2.042941153049468994e-01 1.595148295164108276e-01 1.091426834464073181e-01 1.182333007454872131e-01
3.059000000000000000e+03 6.875340270996093750e+01 1.161202144622802734e+01 1.398315429687500000e-01 5.342916011810302734e+00 1.644824266433715820e+00 -1.032633066177368164e+00
3.060000000000000000e+03 6.226992416381835938e+01 9.143962860107421875e+00 4.135954082012176514e-01 3.533475637435913086e+00 1.184121251106262207e+00 -1.151490807533264160e+00
3.061000000000000000e+03 6.295592117309570312e+01 1.815081787109375000e+01 5.149030685424804688e-01 4.010429382324218750e+00 1.357599735260009766e+00 -6.952631473541259766e-01
3.062000000000000000e+03 6.490676879882812500e+01 2.090419006347656250e+01 3.652688562870025635e-01 4.399037361145019531e+00 1.429291844367980957e+00 -6.400898694992065430e-01
3.063000000000000000e+03 6.194670867919921875e+01 7.016605854034423828e+00 3.485948443412780762e-01 3.188049316406250000e+00 1.060993194580078125e+00 -1.231270909309387207e+00
3.064000000000000000e+03 1.263627147674560547e+01 2.244870758056640625e+01 -8.459030836820602417e-02 3.220025897026062012e-01 7.122368365526199341e-02 2.140889912843704224e-01
3.065000000000000000e+03 6.444027709960937500e+01 1.343598937988281250e+01 4.560872018337249756e-01 4.232660770416259766e+00 1.406624317169189453e+00 -9.959929585456848145e-01
3.066000000000000000e+03 6.408978271484375000e+01 1.133510589599609375e+01 4.021215140819549561e-01 4.092029094696044922e+00 1.348245143890380859e+00 -1.123562932014465332e+00
3.067000000000000000e+03 3.702129364013671875e+01 6.830047965049743652e-01 6.283426880836486816e-01 5.941497087478637695e-01 3.667477071285247803e-01 5.341402292251586914e-01
3.068000000000000000e+03 3.757060623168945312e+01 2.304328680038452148e+00 6.361388564109802246e-01 6.833589673042297363e-01 3.958493471145629883e-01 5.668883323669433594e-01
3.069000000000000000e+03 3.807078933715820312e+01 -5.292806625366210938e+00 -1.959595270454883575e-02 1.624960303306579590e-01 4.287002608180046082e-02 -7.484272122383117676e-02
3.070000000000000000e+03 5.469807815551757812e+01 -2.063548803329467773e+00 -4.382688701152801514e-01 2.176852524280548096e-01 -6.617508828639984131e-02 -1.801687330007553101e-01
3.071000000000000000e+03 3.389849472045898438e+01 5.329895496368408203e+00 7.535882592201232910e-01 1.249134778976440430e+00 6.008169054985046387e-01 9.679293036460876465e-01
3.072000000000000000e+03 7.132098388671875000e+01 2.789095640182495117e+00 -8.731931447982788086e-01 7.392587661743164062e+00 1.955818414688110352e+00 -9.576181173324584961e-01
3.073000000000000000e+03 6.972478485107421875e+01 9.154852867126464844e+00 -4.381066560745239258e-02 5.764093875885009766e+00 1.716084957122802734e+00 -1.075855493545532227e+00
3.074000000000000000e+03 6.472922515869140625e+01 1.003186130523681641e+01 3.172617852687835693e-01 4.281476020812988281e+00 1.379621386528015137e+00 -1.187163710594177246e+00
3.075000000000000000e+03 4.681299591064453125e+01 -4.901866436004638672e+00 -6.553272604942321777e-01 8.629473298788070679e-02 -1.707097589969635010e-01 -1.469759941101074219e-01
3.076000000000000000e+03 4.624021148681640625e+01 -3.819644451141357422e+00 -4.236108958721160889e-01 9.395003318786621094e-02 -9.889825433492660522e-02 -7.785408943891525269e-02
3.077000000000000000e+03 6.413806152343750000e+01 1.884615707397460938e+01 4.482438862323760986e-01 4.243667125701904297e+00 1.407573342323303223e+00 -7.052353620529174805e-01
3.078000000000000000e+03 6.706076049804687500e+01 1.803401756286621094e+01 3.478057682514190674e-01 4.817583084106445312e+00 1.549616575241088867e+00 -7.474718093872070312e-01
3.079000000000000000e+03 6.686204528808593750e+01 4.282869338989257812e+00 -3.278664350509643555e-01 5.173162937164306641e+00 1.453588962554931641e+00 -1.672060132026672363e+00
3.080000000000000000e+03 6.798192596435546875e+01 3.552785634994506836e+00 -5.258846879005432129e-01 5.778378963470458984e+00 1.575748324394226074e+00 -1.662657499313354492e+00
3.081000000000000000e+03 6.747857666015625000e+01 7.463080883026123047e-01 -9.176096320152282715e-01 6.033677577972412109e+00 1.534820437431335449e+00 -2.145156145095825195e+00
3.082000000000000000e+03 6.918585968017578125e+01 4.760976433753967285e-01 -1.274424791336059570e+00 7.339549541473388672e+00 1.819537520408630371e+00 -1.741131544113159180e+00
3.083000000000000000e+03 3.227677917480468750e+01 1.985487174987792969e+01 1.443030834197998047e-01 1.413390874862670898e+00 4.673081934452056885e-01 4.525062143802642822e-01
3.084000000000000000e+03 6.536514282226562500e+01 1.478291416168212891e+01 4.319994747638702393e-01 4.466004371643066406e+00 1.469401240348815918e+00 -9.180127382278442383e-01
3.085000000000000000e+03 4.566233062744140625e+01 -5.391466617584228516e+00 -6.474179029464721680e-01 8.974337577819824219e-02 -1.673023700714111328e-01 -1.781807541847229004e-01
3.086000000000000000e+03 6.272056198120117188e+01 2.011932134628295898e+00 1.188134774565696716e-01 2.735807895660400391e+00 8.563864231109619141e-01 -1.814553260803222656e+00
3.087000000000000000e+03 6.224151229858398438e+01 8.311111927032470703e-01 1.542862206697463989e-01 2.160149335861206055e+00 6.943306922912597656e-01 -1.742278456687927246e+00
3.088000000000000000e+03 6.403151702880859375e+01 1.545751094818115234e+01 5.179104208946228027e-01 4.137906551361083984e+00 1.396745085716247559e+00 -8.645408153533935547e-01
3.089000000000000000e+03 2.081587600708007812e+01 2.653191566467285156e+01 1.519163399934768677e-01 3.826978802680969238e-01 1.603842675685882568e-01 2.646768391132354736e-01
3.090000000000000000e+03 1.571312904357910156e+01 -3.471126937866210938e+01 -3.424190580844879150e-01 1.151396155357360840e+00 2.426931411027908325e-01 -9.372740983963012695e-02
3.091000000000000000e+03 4.093087387084960938e+01 2.511085700988769531e+01 4.507151544094085693e-01 1.680476307868957520e+00 6.393574476242065430e-01 4.707909822463989258e-01
3.092000000000000000e+03 6.293022537231445312e+01 2.370491600036621094e+01 3.770611882209777832e-01 4.056720256805419922e+00 1.330134510993957520e+00 -5.607567429542541504e-01
3.093000000000000000e+03 2.084598541259765625e+01 2.258140182495117188e+01 1.196393221616744995e-01 2.593775689601898193e-01 1.137050688266754150e-01 3.427678942680358887e-01
3.094000000000000000e+03 2.638797378540039062e+01 2.506667327880859375e+01 1.674382984638214111e-01 7.690796256065368652e-01 2.809553742408752441e-01 1.859931647777557373e-01
3.095000000000000000e+03 6.377058410644531250e+01 -3.596588897705078125e+01 1.540770530700683594e-01 3.673103809356689453e+00 1.148154258728027344e+00 2.542984485626220703e-01
3.096000000000000000e+03 5.920684814453125000e+01 2.879371070861816406e+01 4.868793189525604248e-01 3.360130071640014648e+00 1.154102802276611328e+00 -4.286218583583831787e-01
3.097000000000000000e+03 2.319373512268066406e+01 -5.845891475677490234e+00 6.618406772613525391e+00 2.464450836181640625e+00 2.724857330322265625e+00 1.883225798606872559e+00
3.098000000000000000e+03 2.374123764038085938e+01 -6.346014022827148438e+00 5.736539840698242188e+00 1.816444039344787598e+00 2.265895128250122070e+00 8.957575559616088867e-01
3.099000000000000000e+03 2.449422264099121094e+01 -9.220082759857177734e-01 7.084026336669921875e-01 2.910638809204101562e+00 1.085712432861328125e+00 2.252873897552490234e+00
3.100000000000000000e+03 2.299020767211914062e+01 -3.574325799942016602e+00 2.529635667800903320e+00 4.175865650177001953e+00 2.011650562286376953e+00 3.240243911743164062e+00
3.101000000000000000e+03 2.363952636718750000e+01 -6.708605289459228516e+00 5.660535812377929688e+00 1.901044726371765137e+00 2.268474102020263672e+00 3.658060729503631592e-01
3.102000000000000000e+03 2.374568939208984375e+01 -4.500284194946289062e+00 4.197489261627197266e+00 2.766623497009277344e+00 2.089233875274658203e+00 2.955923795700073242e+00
3.103000000000000000e+03 2.447546577453613281e+01 -1.719343900680541992e+00 1.143638253211975098e+00 2.975922107696533203e+00 1.235868096351623535e+00 2.473204851150512695e+00
3.104000000000000000e+03 2.372332191467285156e+01 -4.934713840484619141e+00 4.915554046630859375e+00 2.521574258804321289e+00 2.231138467788696289e+00 2.711031675338745117e+00
3.105000000000000000e+03 2.375966644287109375e+01 -7.492955684661865234e+00 4.551401615142822266e+00 1.943731427192687988e+00 1.948539972305297852e+00 -5.124067068099975586e-01
3.106000000000000000e+03 2.199203872680664062e+01 -2.178638458251953125e+00 3.514015972614288330e-01 4.282104969024658203e+00 1.390051960945129395e+00 1.751167654991149902e+00
3.107000000000000000e+03 2.198289489746093750e+01 -8.789684295654296875e+00 2.005324602127075195e+00 4.126176357269287109e+00 1.839450240135192871e+00 -6.762484908103942871e-01
3.108000000000000000e+03 2.185554504394531250e+01 -9.248101234436035156e+00 1.065160989761352539e+00 3.889532327651977539e+00 1.486407995223999023e+00 -4.284801781177520752e-01
3.109000000000000000e+03 2.401056289672851562e+01 -8.361577033996582031e+00 2.876999616622924805e+00 1.897424459457397461e+00 1.432327270507812500e+00 -9.932702183723449707e-01
3.110000000000000000e+03 2.304484367370605469e+01 -8.660362243652343750e+00 2.532925844192504883e+00 2.837281703948974609e+00 1.611062288284301758e+00 -1.152051925659179688e+00
3.111000000000000000e+03 2.276472854614257812e+01 -9.372995376586914062e+00 1.039759516716003418e+00 2.974420547485351562e+00 1.204254031181335449e+00 -9.934758543968200684e-01
3.112000000000000000e+03 2.330522155761718750e+01 -9.211150169372558594e+00 1.537204265594482422e+00 2.558642864227294922e+00 1.228754162788391113e+00 -1.170189976692199707e+00
3.113000000000000000e+03 2.359008026123046875e+01 -9.797389030456542969e+00 4.015923738479614258e-01 2.228700637817382812e+00 7.890878915786743164e-01 -1.153589606285095215e+00
3.114000000000000000e+03 2.461363220214843750e+01 -9.208039283752441406e+00 1.397678613662719727e+00 1.566837668418884277e+00 8.893548846244812012e-01 -1.150758862495422363e+00
3.115000000000000000e+03 2.163459777832031250e+01 -1.612644195556640625e+00 5.463415384292602539e-02 3.736860513687133789e+00 1.137448430061340332e+00 1.174048185348510742e+00
3.116000000000000000e+03 2.193386650085449219e+01 -1.877570986747741699e+00 2.409597784280776978e-01 4.019568443298339844e+00 1.278158545494079590e+00 1.583044648170471191e+00
3.117000000000000000e+03 2.657811355590820312e+01 7.583105564117431641e-01 5.033119916915893555e-01 2.392983913421630859e+00 8.688887953758239746e-01 1.852321624755859375e+00
3.118000000000000000e+03 2.488254737854003906e+01 -4.473214149475097656e-01 5.788656473159790039e-01 2.746556758880615234e+00 9.976267814636230469e-01 2.173696279525756836e+00
3.119000000000000000e+03 2.327624130249023438e+01 -3.209526062011718750e+00 2.105119705200195312e+00 3.849608898162841797e+00 1.786418557167053223e+00 3.013805150985717773e+00
3.120000000000000000e+03 2.584271621704101562e+01 -9.160341262817382812e+00 1.224534869194030762e+00 9.772248864173889160e-01 6.605279445648193359e-01 -1.014348149299621582e+00
3.121000000000000000e+03 2.495252990722656250e+01 -8.884397506713867188e+00 1.794453978538513184e+00 1.322235703468322754e+00 9.350069165229797363e-01 -1.040781617164611816e+00
3.122000000000000000e+03 2.534368515014648438e+01 -8.592356443405151367e-01 8.603053092956542969e-01 2.616044759750366211e+00 1.042904973030090332e+00 2.238902807235717773e+00
3.123000000000000000e+03 2.619389724731445312e+01 1.644359976053237915e-01 5.913861393928527832e-01 2.477107524871826172e+00 9.205481410026550293e-01 1.988436818122863770e+00
3.124000000000000000e+03 2.170073127746582031e+01 -8.691709041595458984e-01 -3.004973009228706360e-02 3.179613828659057617e+00 9.448692202568054199e-01 1.090816020965576172e+00
3.125000000000000000e+03 2.249242210388183594e+01 -1.106891870498657227e+00 1.713177859783172607e-01 3.434125900268554688e+00 1.081633090972900391e+00 1.660503506660461426e+00
3.126000000000000000e+03 2.883870506286621094e+01 1.454103231430053711e+00 6.864018440246582031e-01 1.923103094100952148e+00 7.828514575958251953e-01 1.454341053962707520e+00
3.127000000000000000e+03 2.946331787109375000e+01 1.682389736175537109e+00 7.013617753982543945e-01 1.842760086059570312e+00 7.632365226745605469e-01 1.378881931304931641e+00
3.128000000000000000e+03 2.719187545776367188e+01 3.336458206176757812e-01 6.913240551948547363e-01 2.230365276336669922e+00 8.765067458152770996e-01 1.827385663986206055e+00
3.129000000000000000e+03 2.853272628784179688e+01 -8.510777473449707031e+00 9.450745582580566406e-01 3.458629250526428223e-01 3.872812390327453613e-01 -5.716069340705871582e-01
3.130000000000000000e+03 2.715845108032226562e+01 -9.206136703491210938e+00 8.202064037322998047e-01 5.935953855514526367e-01 4.241405129432678223e-01 -8.805631995201110840e-01
3.131000000000000000e+03 2.927293777465820312e+01 -8.404330253601074219e+00 7.873054146766662598e-01 2.707653343677520752e-01 3.174212276935577393e-01 -5.063000917434692383e-01
3.132000000000000000e+03 3.117949295043945312e+01 -8.870314598083496094e+00 1.373336315155029297e-01 2.054738104343414307e-01 1.028422340750694275e-01 -5.282493233680725098e-01
3.133000000000000000e+03 3.212292861938476562e+01 -8.819172859191894531e+00 -1.890768483281135559e-02 1.802479177713394165e-01 4.840207099914550781e-02 -4.978627562522888184e-01
3.134000000000000000e+03 2.912581253051757812e+01 -7.793343067169189453e+00 1.131849884986877441e+00 2.782595157623291016e-01 4.230328500270843506e-01 -3.045552670955657959e-01
3.135000000000000000e+03 6.854801940917968750e+01 4.766542434692382812e+00 -4.483043551445007324e-01 5.927089214324951172e+00 1.643635511398315430e+00 -1.424180030822753906e+00
3.136000000000000000e+03 4.572437667846679688e+01 -1.059247493743896484e+00 9.362886101007461548e-02 1.222563758492469788e-01 6.476557254791259766e-02 8.198338001966476440e-02
3.137000000000000000e+03 3.004650115966796875e+01 2.715064287185668945e+00 6.954855322837829590e-01 1.792331576347351074e+00 7.463451027870178223e-01 1.238286256790161133e+00
3.138000000000000000e+03 3.965763473510742188e+01 -6.122915744781494141e+00 -3.000936210155487061e-01 1.302846372127532959e-01 -5.094269663095474243e-02 -1.914570778608322144e-01
3.139000000000000000e+03 3.685052871704101562e+01 -7.398816108703613281e+00 -2.642351686954498291e-01 1.308995485305786133e-01 -4.000068828463554382e-02 -2.868879139423370361e-01
3.140000000000000000e+03 3.591577529907226562e+01 -8.531482696533203125e+00 -4.438635110855102539e-01 1.373320817947387695e-01 -9.195943176746368408e-02 -4.120410680770874023e-01
3.141000000000000000e+03 4.462084579467773438e+01 -1.840142130851745605e+00 1.209266018122434616e-02 1.284452527761459351e-01 4.216137528419494629e-02 5.510555207729339600e-02
3.142000000000000000e+03 4.340432357788085938e+01 -6.074492454528808594e+00 -6.204056143760681152e-01 9.936924278736114502e-02 -1.563109159469604492e-01 -2.183790802955627441e-01
3.143000000000000000e+03 4.454505920410156250e+01 -5.771521568298339844e+00 -6.406378149986267090e-01 9.561169147491455078e-02 -1.635078340768814087e-01 -2.052495479583740234e-01
3.144000000000000000e+03 3.027255058288574219e+01 1.836433529853820801e+00 7.562059164047241211e-01 1.628686547279357910e+00 7.154677510261535645e-01 1.256648302078247070e+00
3.145000000000000000e+03 6.094792175292968750e+01 1.443178892135620117e+00 2.370758205652236938e-01 1.728995800018310547e+00 5.898214578628540039e-01 -1.368321180343627930e+00
3.146000000000000000e+03 3.674382781982421875e+01 -6.341905117034912109e+00 -3.579159453511238098e-02 1.495481431484222412e-01 3.412696719169616699e-02 -1.576826870441436768e-01
3.147000000000000000e+03 3.859127807617187500e+01 3.076991736888885498e-01 5.393993854522705078e-01 4.536956846714019775e-01 2.979285120964050293e-01 3.972474932670593262e-01
3.148000000000000000e+03 3.445135498046875000e+01 1.039924907684326172e+01 6.068457961082458496e-01 1.452412605285644531e+00 6.177775263786315918e-01 1.103110551834106445e+00
3.149000000000000000e+03 4.077161788940429688e+01 -5.494692325592041016e+00 -2.804405391216278076e-01 1.292931586503982544e-01 -4.534421116113662720e-02 -1.539281010627746582e-01
3.150000000000000000e+03 3.618599319458007812e+01 4.261661052703857422e+00 6.894541382789611816e-01 9.720676541328430176e-01 4.984565377235412598e-01 7.619807124137878418e-01
3.151000000000000000e+03 3.517168045043945312e+01 3.535171508789062500e+00 7.266121506690979004e-01 9.962381124496459961e-01 5.168550610542297363e-01 8.216754198074340820e-01
3.152000000000000000e+03 4.367991256713867188e+01 -2.871484041213989258e+00 -9.313296526670455933e-02 1.337843090295791626e-01 1.219540275633335114e-02 8.550613187253475189e-03
3.153000000000000000e+03 6.662171173095703125e+01 1.299326419830322266e+00 -6.356078982353210449e-01 5.268599987030029297e+00 1.389897584915161133e+00 -2.272762060165405273e+00
3.154000000000000000e+03 6.808670043945312500e+01 1.512556076049804688e+00 -8.895143270492553711e-01 6.276150703430175781e+00 1.615990877151489258e+00 -1.936903357505798340e+00
3.155000000000000000e+03 6.281093597412109375e+01 4.916682243347167969e+00 2.255643457174301147e-01 3.294165372848510742e+00 1.055918931961059570e+00 -1.460259675979614258e+00
3.156000000000000000e+03 6.184611892700195312e+01 5.647670745849609375e+00 3.181962072849273682e-01 3.012996912002563477e+00 9.993579387664794922e-01 -1.313334345817565918e+00
3.157000000000000000e+03 6.661174011230468750e+01 9.015678405761718750e+00 1.266856342554092407e-01 4.838813781738281250e+00 1.489649772644042969e+00 -1.259259939193725586e+00
3.158000000000000000e+03 6.346872711181640625e+01 9.561841011047363281e+00 3.609343171119689941e-01 3.884572744369506836e+00 1.273652076721191406e+00 -1.216766834259033203e+00
3.159000000000000000e+03 6.254299163818359375e+01 6.411185741424560547e+00 2.945764958858489990e-01 3.358231306076049805e+00 1.095842361450195312e+00 -1.320199012756347656e+00
3.160000000000000000e+03 3.540120697021484375e+01 5.035097122192382812e+00 6.957893371582031250e-01 1.093803644180297852e+00 5.368778705596923828e-01 8.512408733367919922e-01
3.161000000000000000e+03 6.754747772216796875e+01 5.509672641754150391e+00 -2.527952790260314941e-01 5.370119094848632812e+00 1.535197138786315918e+00 -1.512477159500122070e+00
3.162000000000000000e+03 6.693821716308593750e+01 1.275102329254150391e+01 2.929506599903106689e-01 4.820182323455810547e+00 1.533939957618713379e+00 -1.032942652702331543e+00
3.163000000000000000e+03 6.740885162353515625e+01 1.116114044189453125e+01 2.002831697463989258e-01 4.997064590454101562e+00 1.559204339981079102e+00 -1.109937310218811035e+00
3.164000000000000000e+03 3.502391815185546875e+01 -7.628530502319335938e+00 -9.503734856843948364e-02 1.329814642667770386e-01 1.138323545455932617e-02 -3.114313185214996338e-01
3.165000000000000000e+03 3.447607040405273438e+01 6.753034591674804688e+00 7.250954508781433105e-01 1.265114307403564453e+00 5.970629453659057617e-01 9.882732629776000977e-01
3.166000000000000000e+03 6.394990921020507812e+01 1.354389190673828125e+00 -6.900246441364288330e-02 3.347277641296386719e+00 9.834825396537780762e-01 -2.091431379318237305e+00
3.167000000000000000e+03 4.117971801757812500e+01 8.345972895622253418e-01 4.661651253700256348e-01 3.180068135261535645e-01 2.352515757083892822e-01 2.595236599445343018e-01
3.168000000000000000e+03 3.992087173461914062e+01 -4.517771005630493164e-01 4.008930623531341553e-01 3.004209101200103760e-01 2.103941887617111206e-01 2.540908753871917725e-01
3.169000000000000000e+03 3.318295669555664062e+01 1.140254306793212891e+01 5.425131320953369141e-01 1.526098728179931641e+00 6.205835938453674316e-01 1.123635888099670410e+00
3.170000000000000000e+03 6.542599487304687500e+01 1.215253543853759766e+01 3.689936399459838867e-01 4.470365524291992188e+00 1.451807856559753418e+00 -1.062391400337219238e+00
3.171000000000000000e+03 6.349284744262695312e+01 2.013897323608398438e+01 4.332857131958007812e-01 4.138048171997070312e+00 1.371400237083435059e+00 -6.489729881286621094e-01
3.172000000000000000e+03 6.576922607421875000e+01 1.634690856933593750e+01 4.119754433631896973e-01 4.539746761322021484e+00 1.485516548156738281e+00 -8.263700604438781738e-01
3.173000000000000000e+03 3.449972534179687500e+01 1.911537551879882812e+01 3.140630125999450684e-01 1.515740394592285156e+00 5.489410161972045898e-01 5.728646516799926758e-01
3.174000000000000000e+03 2.863703727722167969e+01 2.262753868103027344e+01 1.062559336423873901e-01 1.014477610588073730e+00 3.362200856208801270e-01 2.188103646039962769e-01
3.175000000000000000e+03 3.392613220214843750e+01 1.690323066711425781e+01 3.083328902721405029e-01 1.532221198081970215e+00 5.521662235260009766e-01 7.379075884819030762e-01
3.176000000000000000e+03 6.542679595947265625e+01 1.931703567504882812e+01 3.918575346469879150e-01 4.501802444458007812e+00 1.468098044395446777e+00 -6.825730800628662109e-01
3.177000000000000000e+03 3.036995506286621094e+01 2.081043052673339844e+01 6.404422968626022339e-02 1.231965661048889160e+00 3.888029754161834717e-01 3.300088346004486084e-01
3.178000000000000000e+03 6.722734069824218750e+01 2.789479064941406250e+01 2.429153174161911011e-01 4.705605030059814453e+00 1.484556078910827637e+00 -4.289072751998901367e-01
3.179000000000000000e+03 1.895323181152343750e+01 2.731343078613281250e+01 1.108812615275382996e-01 3.348969817161560059e-01 1.337334662675857544e-01 2.670977115631103516e-01
3.180000000000000000e+03 1.691131401062011719e+01 2.774612808227539062e+01 6.767767667770385742e-02 2.806499898433685303e-01 1.044983044266700745e-01 2.544338703155517578e-01
3.181000000000000000e+03 1.941765213012695312e+01 -3.268854522705078125e+01 -2.339468598365783691e-01 7.497519850730895996e-01 1.547415256500244141e-01 -1.993157118558883667e-01
3.182000000000000000e+03 5.439021682739257812e+01 2.971339988708496094e+01 6.656477451324462891e-01 2.642472743988037109e+00 9.924361109733581543e-01 -2.831611633300781250e-01
3.183000000000000000e+03 6.058514022827148438e+01 2.553158569335937500e+01 4.411948621273040771e-01 3.607677221298217773e+00 1.214661598205566406e+00 -5.199213027954101562e-01
3.184000000000000000e+03 1.383679485321044922e+01 2.538604736328125000e+01 -2.990069612860679626e-02 2.477572411298751831e-01 6.535696238279342651e-02 2.393664568662643433e-01
3.185000000000000000e+03 3.522332763671875000e+01 2.866587829589843750e+01 3.240378201007843018e-01 1.384258985519409180e+00 5.124890208244323730e-01 2.671945691108703613e-01
3.186000000000000000e+03 3.546885299682617188e+01 2.682240104675292969e+01 3.124492168426513672e-01 1.419399738311767578e+00 5.195546746253967285e-01 3.021191656589508057e-01
3.187000000000000000e+03 6.262193679809570312e+01 2.939094161987304688e+01 3.591068387031555176e-01 4.002380371093750000e+00 1.308446049690246582e+00 -4.141463637351989746e-01
3.188000000000000000e+03 5.753216171264648438e+01 3.285616302490234375e+01 5.284989476203918457e-01 3.192440748214721680e+00 1.116281986236572266e+00 -2.662289440631866455e-01
3.189000000000000000e+03 4.419823074340820312e+01 3.304307174682617188e+01 5.993589162826538086e-01 1.805715441703796387e+00 7.215222716331481934e-01 1.571857333183288574e-01
3.190000000000000000e+03 1.443494796752929688e+01 2.994358253479003906e+01 4.670454189181327820e-02 1.714764833450317383e-01 6.545430421829223633e-02 1.837367266416549683e-01
3.191000000000000000e+03 2.343763160705566406e+01 -5.915556430816650391e+00 6.277851104736328125e+00 2.179510831832885742e+00 2.537208557128906250e+00 1.652934789657592773e+00
3.192000000000000000e+03 2.360162544250488281e+01 -6.117974758148193359e+00 6.020825386047363281e+00 1.946944475173950195e+00 2.390331029891967773e+00 1.295924663543701172e+00
3.193000000000000000e+03 2.360920524597167969e+01 -3.305191516876220703e+00 2.404243707656860352e+00 3.525394678115844727e+00 1.778891563415527344e+00 3.039390325546264648e+00
3.194000000000000000e+03 2.431358146667480469e+01 -7.123833656311035156e+00 4.437862396240234375e+00 1.421310067176818848e+00 1.757751822471618652e+00 -6.974993646144866943e-02
3.195000000000000000e+03 2.526460838317871094e+01 -1.701225280761718750e+00 1.322579979896545410e+00 2.571037292480468750e+00 1.168085217475891113e+00 2.422329664230346680e+00
3.196000000000000000e+03 2.429652214050292969e+01 -6.772183418273925781e+00 4.856366157531738281e+00 1.425609469413757324e+00 1.884592771530151367e+00 3.077422678470611572e-01
3.197000000000000000e+03 2.585544967651367188e+01 -8.637069702148437500e+00 1.858446002006530762e+00 8.994537591934204102e-01 8.273699283599853516e-01 -8.316957354545593262e-01
3.198000000000000000e+03 2.714765548706054688e+01 -8.154541015625000000e+00 1.718860864639282227e+00 5.015658736228942871e-01 6.661279797554016113e-01 -5.135676264762878418e-01
3.199000000000000000e+03 2.354871177673339844e+01 -8.519117355346679688e+00 2.775119543075561523e+00 2.365298748016357422e+00 1.542125463485717773e+00 -1.117491841316223145e+00
3.200000000000000000e+03 2.412212371826171875e+01 -2.121923446655273438e+00 1.306400537490844727e+00 3.148069858551025391e+00 1.336341142654418945e+00 2.590310335159301758e+00
3.201000000000000000e+03 2.199263191223144531e+01 -1.289335846900939941e+00 6.761673092842102051e-02 3.540068864822387695e+00 1.082305669784545898e+00 1.378243207931518555e+00
3.202000000000000000e+03 3.120429611206054688e+01 -7.339613914489746094e+00 7.400373816490173340e-01 1.954251080751419067e-01 2.806387543678283691e-01 -1.780587583780288696e-01
3.203000000000000000e+03 2.468702697753906250e+01 -8.530083656311035156e+00 2.373530626296997070e+00 1.417003035545349121e+00 1.137160062789916992e+00 -9.624647498130798340e-01
3.204000000000000000e+03 2.531434249877929688e+01 -9.094590187072753906e+00 1.427479147911071777e+00 1.185833215713500977e+00 7.839936614036560059e-01 -1.044225215911865234e+00
3.205000000000000000e+03 2.490259742736816406e+01 -1.297728419303894043e+00 9.945676326751708984e-01 2.729775190353393555e+00 1.117302775382995605e+00 2.355649948120117188e+00
3.206000000000000000e+03 2.372722434997558594e+01 -4.048643112182617188e+00 3.550036907196044922e+00 3.053584814071655273e+00 1.981086492538452148e+00 3.061100721359252930e+00
3.207000000000000000e+03 2.347390365600585938e+01 -2.429452657699584961e+00 1.356898784637451172e+00 3.624354362487792969e+00 1.494375944137573242e+00 2.662604093551635742e+00
3.208000000000000000e+03 2.678328704833984375e+01 -2.968355417251586914e-01 8.369609713554382324e-01 2.195673704147338867e+00 9.097903966903686523e-01 1.962612509727478027e+00
3.209000000000000000e+03 2.812211799621582031e+01 6.241797208786010742e-01 7.264511585235595703e-01 2.048597097396850586e+00 8.325145244598388672e-01 1.672863125801086426e+00
3.210000000000000000e+03 2.974120903015136719e+01 -7.627795696258544922e+00 1.016826510429382324e+00 2.370659857988357544e-01 3.761677742004394531e-01 -2.591644823551177979e-01
3.211000000000000000e+03 3.205166244506835938e+01 -7.957338333129882812e+00 3.141386806964874268e-01 1.690683215856552124e-01 1.449621021747589111e-01 -3.519637286663055420e-01
3.212000000000000000e+03 3.887906646728515625e+01 -7.164624929428100586e-01 4.516807794570922852e-01 3.585073053836822510e-01 2.430564314126968384e-01 2.975396215915679932e-01
3.213000000000000000e+03 3.123972129821777344e+01 -8.039274215698242188e+00 4.575497806072235107e-01 1.836941838264465332e-01 1.923731863498687744e-01 -3.761202394962310791e-01
3.214000000000000000e+03 3.018180847167968750e+01 -7.240921497344970703e+00 1.032820940017700195e+00 2.179675400257110596e-01 3.752365708351135254e-01 -1.550291627645492554e-01
3.215000000000000000e+03 2.960043525695800781e+01 9.967635273933410645e-01 8.169996738433837891e-01 1.667781114578247070e+00 7.454342246055603027e-01 1.402050614356994629e+00
3.216000000000000000e+03 6.740524291992187500e+01 7.628938198089599609e+00 -4.090250656008720398e-02 5.134702682495117188e+00 1.528139948844909668e+00 -1.347410440444946289e+00
3.217000000000000000e+03 6.794756317138671875e+01 9.733240127563476562e+00 7.369946688413619995e-02 5.227404594421386719e+00 1.590331196784973145e+00 -1.179671168327331543e+00
3.218000000000000000e+03 3.685476684570312500e+01 -1.048201918601989746e+00 5.757709145545959473e-01 4.485205709934234619e-01 3.072874546051025391e-01 4.323389828205108643e-01
3.219000000000000000e+03 3.823600769042968750e+01 -6.547984600067138672e+00 -2.263657897710800171e-01 1.364925056695938110e-01 -2.696198411285877228e-02 -2.069408744573593140e-01
3.220000000000000000e+03 3.358965682983398438e+01 -7.258788585662841797e+00 2.179142832756042480e-01 1.558722704648971558e-01 1.121359691023826599e-01 -2.289558351039886475e-01
3.221000000000000000e+03 3.288906097412109375e+01 -7.719494819641113281e+00 2.307974547147750854e-01 1.603035330772399902e-01 1.173302978277206421e-01 -3.000681698322296143e-01
3.222000000000000000e+03 4.156172943115234375e+01 -6.199163913726806641e+00 -4.728892743587493896e-01 1.073229387402534485e-01 -1.096699014306068420e-01 -2.198688834905624390e-01
3.223000000000000000e+03 6.197948455810546875e+01 3.893653154373168945e+00 2.560127973556518555e-01 2.744618892669677734e+00 9.001895189285278320e-01 -1.443274855613708496e+00
3.224000000000000000e+03 6.730335998535156250e+01 2.376803636550903320e+00 -6.314520835876464844e-01 5.672856807708740234e+00 1.512421369552612305e+00 -1.855835437774658203e+00
3.225000000000000000e+03 3.118253517150878906e+01 2.916799783706665039e+00 7.467122673988342285e-01 1.529672622680664062e+00 6.829155087471008301e-01 1.114657402038574219e+00
3.226000000000000000e+03 3.399020767211914062e+01 1.351219058036804199e+00 7.902750372886657715e-01 9.402594566345214844e-01 5.191603302955627441e-01 8.620609641075134277e-01
3.227000000000000000e+03 3.752463531494140625e+01 -2.182131856679916382e-01 5.856590867042541504e-01 4.748045802116394043e-01 3.181391060352325439e-01 4.411191046237945557e-01
3.228000000000000000e+03 3.130161857604980469e+01 1.816889405250549316e+00 8.041366338729858398e-01 1.419082999229431152e+00 6.669659018516540527e-01 1.147961020469665527e+00
3.229000000000000000e+03 4.549936676025390625e+01 -2.822859287261962891e+00 -1.911861300468444824e-01 1.044661030173301697e-01 -2.601600810885429382e-02 -1.056315377354621887e-02
3.230000000000000000e+03 3.487737655639648438e+01 1.999379158020019531e+00 7.478026151657104492e-01 8.964910507202148438e-01 4.932880997657775879e-01 7.958731055259704590e-01
3.231000000000000000e+03 3.650043869018554688e+01 1.689602375030517578e+00 6.751925349235534668e-01 7.134530544281005859e-01 4.165936708450317383e-01 6.316360235214233398e-01
3.232000000000000000e+03 4.260963058471679688e+01 -1.148327708244323730e+00 1.924736499786376953e-01 1.834399700164794922e-01 1.127740889787673950e-01 1.170707941055297852e-01
3.233000000000000000e+03 4.216082763671875000e+01 -3.120244026184082031e+00 -5.104021728038787842e-02 1.512681245803833008e-01 3.006837144494056702e-02 2.784435823559761047e-02
3.234000000000000000e+03 3.346577835083007812e+01 3.845995664596557617e+00 7.636228203773498535e-01 1.211352586746215820e+00 5.924925804138183594e-01 9.521548151969909668e-01
3.235000000000000000e+03 6.621562957763671875e+01 3.070462226867675781e+00 -3.423503041267395020e-01 4.855639934539794922e+00 1.353986859321594238e+00 -1.932927846908569336e+00
3.236000000000000000e+03 6.509429168701171875e+01 3.702839851379394531e+00 -1.281002014875411987e-01 4.263590335845947266e+00 1.240647077560424805e+00 -1.809164285659790039e+00
3.237000000000000000e+03 6.279838562011718750e+01 7.238722801208496094e+00 3.060828745365142822e-01 3.517168045043945312e+00 1.146975278854370117e+00 -1.298404097557067871e+00
3.238000000000000000e+03 4.118550109863281250e+01 -4.886940479278564453e+00 -2.328281998634338379e-01 1.296301186084747314e-01 -3.095942549407482147e-02 -9.470985084772109985e-02
3.239000000000000000e+03 4.227952957153320312e+01 -5.212052822113037109e+00 -3.784744143486022949e-01 1.031142920255661011e-01 -8.260803669691085815e-02 -1.442315429449081421e-01
3.240000000000000000e+03 4.212743377685546875e+01 8.749523758888244629e-02 3.574973344802856445e-01 2.487356960773468018e-01 1.818699091672897339e-01 1.870811283588409424e-01
3.241000000000000000e+03 4.135145187377929688e+01 -1.503496885299682617e+00 2.370329499244689941e-01 2.225111126899719238e-01 1.378632187843322754e-01 1.420288830995559692e-01
3.242000000000000000e+03 4.459643554687500000e+01 -3.639153003692626953e+00 -2.735298871994018555e-01 1.060266122221946716e-01 -5.025098100304603577e-02 -5.073948204517364502e-02
3.243000000000000000e+03 1.482447338104248047e+01 2.768642425537109375e+01 2.126411534845829010e-02 2.237802892923355103e-01 7.351332157850265503e-02 2.300351262092590332e-01
3.244000000000000000e+03 6.560650634765625000e+01 1.900309801101684570e+00 -3.704766631126403809e-01 4.570559501647949219e+00 1.260024905204772949e+00 -2.107024908065795898e+00
3.245000000000000000e+03 3.302654266357421875e+01 1.833357238769531250e+01 2.075923979282379150e-01 1.508474111557006836e+00 5.148199796676635742e-01 6.042583584785461426e-01
3.246000000000000000e+03 6.458646392822265625e+01 1.655571937561035156e+01 4.748883843421936035e-01 4.314496040344238281e+00 1.436815261840820312e+00 -8.132833242416381836e-01
3.247000000000000000e+03 6.263068008422851562e+01 8.173216819763183594e+00 3.437742292881011963e-01 3.547694683074951172e+00 1.167440652847290039e+00 -1.245252251625061035e+00
3.248000000000000000e+03 6.615905761718750000e+01 2.308333587646484375e+01 3.071577250957489014e-01 4.608916282653808594e+00 1.474822163581848145e+00 -5.750746130943298340e-01
3.249000000000000000e+03 3.260282135009765625e+01 2.197841072082519531e+01 1.792263984680175781e-01 1.369968414306640625e+00 4.647584259510040283e-01 3.551078438758850098e-01
3.250000000000000000e+03 6.581078338623046875e+01 2.446366500854492188e+01 3.024546802043914795e-01 4.545169830322265625e+00 1.454287409782409668e+00 -5.347185730934143066e-01
3.251000000000000000e+03 6.501698303222656250e+01 2.585392189025878906e+01 3.062505125999450684e-01 4.431948661804199219e+00 1.421459674835205078e+00 -5.145927667617797852e-01
3.252000000000000000e+03 2.607140350341796875e+01 2.681105232238769531e+01 2.076612561941146851e-01 7.551869153976440430e-01 2.888544499874114990e-01 1.865233033895492554e-01
3.253000000000000000e+03 2.557099342346191406e+01 2.352566528320312500e+01 1.386012285947799683e-01 6.830087900161743164e-01 2.464829981327056885e-01 1.863003671169281006e-01
3.254000000000000000e+03 6.448989105224609375e+01 2.513576507568359375e+00 -1.123192757368087769e-01 3.818257808685302734e+00 1.111781597137451172e+00 -2.015543937683105469e+00
3.255000000000000000e+03 6.914253234863281250e+01 3.074864864349365234e+00 -7.608350515365600586e-01 6.494520664215087891e+00 1.720105648040771484e+00 -1.481532216072082520e+00
3.256000000000000000e+03 1.958485794067382812e+01 2.933177185058593750e+01 1.434050798416137695e-01 3.686251640319824219e-01 1.536090672016143799e-01 2.175044119358062744e-01
3.257000000000000000e+03 6.190736389160156250e+01 2.487810325622558594e+01 3.948273658752441406e-01 3.889018058776855469e+00 1.285153627395629883e+00 -5.130754709243774414e-01
3.258000000000000000e+03 5.393310546875000000e+01 3.263262557983398438e+01 6.417728066444396973e-01 2.658171176910400391e+00 9.899832010269165039e-01 -1.724803447723388672e-01
3.259000000000000000e+03 3.360873413085937500e+01 2.060373687744140625e+01 2.371372431516647339e-01 1.464680433273315430e+00 5.105453133583068848e-01 4.600220024585723877e-01
3.260000000000000000e+03 2.417178153991699219e+01 -6.473483562469482422e+00 5.157486915588378906e+00 1.529650211334228516e+00 2.006141185760498047e+00 6.877428293228149414e-01
3.261000000000000000e+03 2.403940773010253906e+01 -5.124859333038330078e+00 4.855485916137695312e+00 2.097413778305053711e+00 2.085870027542114258e+00 2.323283195495605469e+00
3.262000000000000000e+03 2.340528106689453125e+01 -2.857365131378173828e+00 1.704507946968078613e+00 3.731728792190551758e+00 1.630871057510375977e+00 2.843839645385742188e+00
3.263000000000000000e+03 2.366272354125976562e+01 -5.710895538330078125e+00 5.833749294281005859e+00 2.047458648681640625e+00 2.364362478256225586e+00 1.866181850433349609e+00
3.264000000000000000e+03 2.501679992675781250e+01 -7.987198352813720703e+00 2.961763143539428711e+00 1.165853857994079590e+00 1.238285064697265625e+00 -6.389874219894409180e-01
3.265000000000000000e+03 2.532567787170410156e+01 -8.693737983703613281e+00 1.974589347839355469e+00 1.126856327056884766e+00 9.304336905479431152e-01 -9.380804896354675293e-01
3.266000000000000000e+03 2.470715904235839844e+01 -7.536438465118408203e+00 3.651922702789306641e+00 1.243152260780334473e+00 1.468522429466247559e+00 -3.811430037021636963e-01
3.267000000000000000e+03 2.426965904235839844e+01 -8.790815353393554688e+00 2.104107618331909180e+00 1.753511548042297363e+00 1.157285690307617188e+00 -1.123016119003295898e+00
3.268000000000000000e+03 2.649568939208984375e+01 -8.647855758666992188e+00 1.593146324157714844e+00 6.921058893203735352e-01 6.855756640434265137e-01 -7.567346692085266113e-01
3.269000000000000000e+03 2.656682777404785156e+01 -8.154839515686035156e+00 1.954391002655029297e+00 6.423767209053039551e-01 7.790303230285644531e-01 -5.597499608993530273e-01
3.270000000000000000e+03 2.412540435791015625e+01 -1.354737162590026855e+00 8.217102885246276855e-01 3.076766014099121094e+00 1.169542908668518066e+00 2.340023994445800781e+00
3.271000000000000000e+03 2.312456321716308594e+01 -1.374671101570129395e+00 5.064506530761718750e-01 3.486501693725585938e+00 1.197885751724243164e+00 2.101362466812133789e+00
3.272000000000000000e+03 2.782842254638671875e+01 7.498672604560852051e-02 8.345066308975219727e-01 1.986037254333496094e+00 8.461631536483764648e-01 1.751780033111572266e+00
3.273000000000000000e+03 2.511687278747558594e+01 -8.334284782409667969e+00 2.474375247955322266e+00 1.156017541885375977e+00 1.089117765426635742e+00 -8.048082590103149414e-01
3.274000000000000000e+03 2.716088104248046875e+01 -8.653189659118652344e+00 1.314162611961364746e+00 5.431626439094543457e-01 5.571975708007812500e-01 -6.965180635452270508e-01
3.275000000000000000e+03 2.783190345764160156e+01 -8.593699455261230469e+00 1.103066682815551758e+00 4.312788248062133789e-01 4.603036642074584961e-01 -6.351413726806640625e-01
3.276000000000000000e+03 2.630139160156250000e+01 -8.735206723213195801e-01 1.019257664680480957e+00 2.282893657684326172e+00 9.906454086303710938e-01 2.124643087387084961e+00
3.277000000000000000e+03 2.964402008056640625e+01 -6.546122074127197266e+00 1.459877252578735352e+00 2.799468636512756348e-01 5.219472646713256836e-01 1.131641939282417297e-01
3.278000000000000000e+03 3.064210510253906250e+01 -7.716557502746582031e+00 7.230753898620605469e-01 2.013356834650039673e-01 2.773233354091644287e-01 -2.813490331172943115e-01
3.279000000000000000e+03 2.685796737670898438e+01 -1.345784544944763184e+00 1.248673081398010254e+00 1.993163466453552246e+00 9.725509881973266602e-01 2.053446531295776367e+00
3.280000000000000000e+03 3.190960884094238281e+01 -7.206394672393798828e+00 6.173279881477355957e-01 1.801673024892807007e-01 2.392485886812210083e-01 -1.589716970920562744e-01
3.281000000000000000e+03 2.827360534667968750e+01 -9.644616246223449707e-01 1.158627271652221680e+00 1.676758766174316406e+00 8.506158590316772461e-01 1.738334894180297852e+00
3.282000000000000000e+03 3.558382415771484375e+01 -4.491592407226562500e+00 4.286238551139831543e-01 2.443900853395462036e-01 2.019041776657104492e-01 1.357314437627792358e-01
3.283000000000000000e+03 3.947837066650390625e+01 -1.474718570709228516e+00 3.444086611270904541e-01 2.799586653709411621e-01 1.873101890087127686e-01 2.173835486173629761e-01
3.284000000000000000e+03 6.643081665039062500e+01 6.389343738555908203e+00 -6.310992687940597534e-02 4.871470928192138672e+00 1.442508339881896973e+00 -1.472025156021118164e+00
3.285000000000000000e+03 3.839238357543945312e+01 -4.347698688507080078e+00 1.088148579001426697e-01 1.891792267560958862e-01 8.939822763204574585e-02 2.024063281714916229e-02
3.286000000000000000e+03 3.652038192749023438e+01 -4.331145286560058594e+00 3.323875665664672852e-01 2.362526357173919678e-01 1.705920696258544922e-01 1.088721528649330139e-01
3.287000000000000000e+03 3.422444152832031250e+01 -6.865905284881591797e+00 2.174456268548965454e-01 1.635864973068237305e-01 1.143096387386322021e-01 -1.590326875448226929e-01
3.288000000000000000e+03 3.418140792846679688e+01 -7.655787944793701172e+00 3.090963885188102722e-02 1.449688822031021118e-01 5.276355519890785217e-02 -3.051754534244537354e-01
3.289000000000000000e+03 3.927919769287109375e+01 -4.680883407592773438e+00 -3.579298034310340881e-02 1.698232442140579224e-01 4.020908102393150330e-02 -3.785765543580055237e-02
3.290000000000000000e+03 3.415071868896484375e+01 2.896808624267578125e+00 7.654181122779846191e-01 1.072347760200500488e+00 5.513297915458679199e-01 8.873943090438842773e-01
3.291000000000000000e+03 3.237318801879882812e+01 3.280305624008178711e+00 7.833321690559387207e-01 1.359247207641601562e+00 6.427738070487976074e-01 1.030871391296386719e+00
3.292000000000000000e+03 6.573956298828125000e+01 4.974812507629394531e+00 -1.070113629102706909e-01 4.543107509613037109e+00 1.330828785896301270e+00 -1.674170017242431641e+00
3.293000000000000000e+03 3.586560821533203125e+01 2.630573511123657227e+00 7.090251445770263672e-01 8.638964295387268066e-01 4.718764722347259521e-01 7.325973510742187500e-01
3.294000000000000000e+03 3.784407043457031250e+01 -1.112401962280273438e+00 4.909658432006835938e-01 3.768021762371063232e-01 2.603304088115692139e-01 3.411890566349029541e-01
3.295000000000000000e+03 4.170403671264648438e+01 -2.432755470275878906e+00 1.002055853605270386e-01 1.798820793628692627e-01 8.402629941701889038e-02 7.574657350778579712e-02
3.296000000000000000e+03 4.325646209716796875e+01 -4.858542919158935547e+00 -3.803012073040008545e-01 1.127182543277740479e-01 -8.027487993240356445e-02 -1.215315014123916626e-01
3.297000000000000000e+03 4.082034683227539062e+01 -2.993117570877075195e+00 7.231810688972473145e-02 1.901033967733383179e-01 7.872644811868667603e-02 7.384263724088668823e-02
3.298000000000000000e+03 4.191609573364257812e+01 -4.402186870574951172e+00 -2.202991694211959839e-01 1.228663772344589233e-01 -2.922983653843402863e-02 -7.787112146615982056e-02
3.299000000000000000e+03 3.498582077026367188e+01 -6.689744949340820312e+00 1.452044546604156494e-01 1.571509838104248047e-01 9.070663154125213623e-02 -1.595214605331420898e-01
3.300000000000000000e+03 3.489687347412109375e+01 2.147365760803222656e+01 2.951179146766662598e-01 1.503902792930603027e+00 5.397062301635742188e-01 4.501487612724304199e-01
3.301000000000000000e+03 6.513406372070312500e+01 6.966237068176269531e+00 1.069515347480773926e-01 4.345971584320068359e+00 1.335876941680908203e+00 -1.439718484878540039e+00
3.302000000000000000e+03 6.382562637329101562e+01 8.375267028808593750e+00 2.871088981628417969e-01 3.929233551025390625e+00 1.264902710914611816e+00 -1.289071202278137207e+00
3.303000000000000000e+03 4.026293563842773438e+01 -2.159262657165527344e+00 2.241778373718261719e-01 2.136610746383666992e-01 1.313516795635223389e-01 1.372370421886444092e-01
3.304000000000000000e+03 4.062440109252929688e+01 -4.359926700592041016e+00 -1.171011552214622498e-01 1.563078910112380981e-01 1.176202110946178436e-02 -4.561808705329895020e-02
3.305000000000000000e+03 2.851751899719238281e+01 2.502573204040527344e+01 1.798122525215148926e-01 9.560611844062805176e-01 3.407620191574096680e-01 2.032880038022994995e-01
3.306000000000000000e+03 3.046229934692382812e+01 2.232271957397460938e+01 1.389563232660293579e-01 1.185986280441284180e+00 3.974827826023101807e-01 2.808027565479278564e-01
3.307000000000000000e+03 3.349056625366210938e+01 2.619770240783691406e+01 2.632924914360046387e-01 1.332412600517272949e+00 4.787115454673767090e-01 2.777877151966094971e-01
3.308000000000000000e+03 1.710562896728515625e+01 2.990357780456542969e+01 9.674779325723648071e-02 2.796149849891662598e-01 1.129088327288627625e-01 2.093818187713623047e-01
3.309000000000000000e+03 6.278298187255859375e+01 2.618839263916015625e+01 3.696874380111694336e-01 4.052484512329101562e+00 1.326651573181152344e+00 -5.054115653038024902e-01
3.310000000000000000e+03 2.496499824523925781e+01 -6.783560752868652344e+00 4.117937564849853516e+00 1.080219030380249023e+00 1.559446930885314941e+00 2.829243540763854980e-01
3.311000000000000000e+03 2.387501525878906250e+01 -5.946954250335693359e+00 5.585839271545410156e+00 1.822947859764099121e+00 2.222636222839355469e+00 1.460676908493041992e+00
3.312000000000000000e+03 2.421119880676269531e+01 -5.563768386840820312e+00 5.051484584808349609e+00 1.750423192977905273e+00 2.040572404861450195e+00 1.788775324821472168e+00
3.313000000000000000e+03 2.479653930664062500e+01 -7.157528400421142578e+00 3.962830543518066406e+00 1.171450376510620117e+00 1.540284276008605957e+00 -4.587328433990478516e-02
3.314000000000000000e+03 2.424584770202636719e+01 -4.379950523376464844e+00 3.799354076385498047e+00 2.383539199829101562e+00 1.854868054389953613e+00 2.685856342315673828e+00
3.315000000000000000e+03 2.400478172302246094e+01 -4.667492866516113281e+00 4.257861137390136719e+00 2.415338754653930664e+00 2.001960039138793945e+00 2.692067146301269531e+00
3.316000000000000000e+03 2.442222213745117188e+01 -2.437045574188232422e+00 1.677591562271118164e+00 2.931546926498413086e+00 1.382741570472717285e+00 2.656250000000000000e+00
3.317000000000000000e+03 2.843067359924316406e+01 -7.884696960449218750e+00 1.347781538963317871e+00 3.330483734607696533e-01 5.042489767074584961e-01 -3.450495898723602295e-01
3.318000000000000000e+03 2.580222892761230469e+01 -8.188529014587402344e+00 2.296270370483398438e+00 8.834027051925659180e-01 9.539019465446472168e-01 -6.331461668014526367e-01
3.319000000000000000e+03 2.577685165405273438e+01 -1.332698345184326172e+00 1.169219374656677246e+00 2.359738349914550781e+00 1.058687329292297363e+00 2.263429641723632812e+00
3.320000000000000000e+03 2.904859161376953125e+01 -7.225699424743652344e+00 1.422927618026733398e+00 2.853435575962066650e-01 5.124813318252563477e-01 -9.865227341651916504e-02
3.321000000000000000e+03 2.397485733032226562e+01 -2.531529664993286133e+00 1.665466308593750000e+00 3.216422796249389648e+00 1.464566707611083984e+00 2.710272550582885742e+00
3.322000000000000000e+03 2.548562240600585938e+01 -7.731564521789550781e+00 2.909238100051879883e+00 9.007293581962585449e-01 1.142990231513977051e+00 -4.174972772598266602e-01
3.323000000000000000e+03 2.842091178894042969e+01 -7.286030292510986328e+00 1.667130351066589355e+00 3.302545249462127686e-01 5.992154479026794434e-01 -1.132984161376953125e-01
3.324000000000000000e+03 2.860466194152832031e+01 -1.431508898735046387e+00 1.271866798400878906e+00 1.491559267044067383e+00 8.290277719497680664e-01 1.643846035003662109e+00
3.325000000000000000e+03 3.122968482971191406e+01 -5.875583171844482422e+00 1.080750942230224609e+00 2.766556441783905029e-01 4.072219729423522949e-01 2.032373845577239990e-01
3.326000000000000000e+03 3.569995880126953125e+01 -5.512176036834716797e+00 2.631646692752838135e-01 1.899314522743225098e-01 1.359288394451141357e-01 -3.862825455144047737e-03
3.327000000000000000e+03 2.994699668884277344e+01 4.674392342567443848e-01 8.767828941345214844e-01 1.517167687416076660e+00 7.181851863861083984e-01 1.358375310897827148e+00
3.328000000000000000e+03 2.877282714843750000e+01 3.237906098365783691e-01 8.539758324623107910e-01 1.775357246398925781e+00 7.887998819351196289e-01 1.551367998123168945e+00
3.329000000000000000e+03 3.025683784484863281e+01 1.069196343421936035e+00 8.264387845993041992e-01 1.538097620010375977e+00 7.093608975410461426e-01 1.292150139808654785e+00
3.330000000000000000e+03 2.897289657592773438e+01 8.992958068847656250e-01 7.727150917053222656e-01 1.837857127189636230e+00 7.831716537475585938e-01 1.507147550582885742e+00
3.331000000000000000e+03 3.528814315795898438e+01 -1.790490001440048218e-01 7.345485091209411621e-01 6.569379568099975586e-01 4.174459278583526611e-01 6.410913467407226562e-01
3.332000000000000000e+03 3.755397796630859375e+01 -3.273024559020996094e+00 3.241217136383056641e-01 2.564239203929901123e-01 1.741636991500854492e-01 1.667413413524627686e-01
3.333000000000000000e+03 3.879734420776367188e+01 -5.671957492828369141e+00 -1.278473138809204102e-01 1.494673043489456177e-01 6.485997233539819717e-03 -1.240690350532531738e-01
3.334000000000000000e+03 3.313597869873046875e+01 2.231610298156738281e+00 7.885481715202331543e-01 1.148990154266357422e+00 5.812615156173706055e-01 9.643117189407348633e-01
3.335000000000000000e+03 3.874811935424804688e+01 -2.384382009506225586e+00 3.178170621395111084e-01 2.631061971187591553e-01 1.742769777774810791e-01 1.929157078266143799e-01
3.336000000000000000e+03 3.366925048828125000e+01 -5.195065021514892578e+00 6.426984071731567383e-01 2.496429830789566040e-01 2.677024006843566895e-01 1.587837040424346924e-01
3.337000000000000000e+03 3.325700759887695312e+01 -6.497415065765380859e+00 4.738910198211669922e-01 1.837078630924224854e-01 1.972796618938446045e-01 -7.121913880109786987e-02
3.338000000000000000e+03 3.338646697998046875e+01 -4.278100490570068359e+00 8.045533299446105957e-01 3.430145680904388428e-01 3.442703783512115479e-01 3.486884832382202148e-01
3.339000000000000000e+03 3.483466339111328125e+01 -5.741728782653808594e+00 3.477702140808105469e-01 1.951233148574829102e-01 1.628680676221847534e-01 -7.951334118843078613e-03
3.340000000000000000e+03 3.553195190429687500e+01 1.129653811454772949e+00 7.179952263832092285e-01 7.534809708595275879e-01 4.414428472518920898e-01 6.965556144714355469e-01
3.341000000000000000e+03 3.185335350036621094e+01 4.661902189254760742e-01 8.946649432182312012e-01 1.159990668296813965e+00 6.163966655731201172e-01 1.094554781913757324e+00
3.342000000000000000e+03 6.394333648681640625e+01 4.295853614807128906e+00 6.403222680091857910e-02 3.676467418670654297e+00 1.122149825096130371e+00 -1.692033171653747559e+00
3.343000000000000000e+03 3.744239425659179688e+01 -4.276418685913085938e+00 2.282145917415618896e-01 2.100799381732940674e-01 1.314883679151535034e-01 6.632489711046218872e-02
3.344000000000000000e+03 4.137818145751953125e+01 -3.709098815917968750e+00 -7.335641235113143921e-02 1.520373076200485229e-01 2.360426820814609528e-02 -6.536528933793306351e-03
3.345000000000000000e+03 2.246876716613769531e+01 2.555824279785156250e+01 1.682265400886535645e-01 4.350206255912780762e-01 1.809741556644439697e-01 2.437037676572799683e-01
3.346000000000000000e+03 2.417383956909179688e+01 -5.844435691833496094e+00 5.222361087799072266e+00 1.661852598190307617e+00 2.065264225006103516e+00 1.505171537399291992e+00
3.347000000000000000e+03 2.600746345520019531e+01 -1.868760108947753906e+00 1.461025357246398926e+00 2.186504602432250977e+00 1.094258904457092285e+00 2.267967939376831055e+00
3.348000000000000000e+03 2.517065620422363281e+01 -2.491260051727294922e+00 1.832792162895202637e+00 2.457328796386718750e+00 1.287036299705505371e+00 2.510123252868652344e+00
3.349000000000000000e+03 2.555640029907226562e+01 -2.102402448654174805e+00 1.582259654998779297e+00 2.332188129425048828e+00 1.174334287643432617e+00 2.389210224151611328e+00
3.350000000000000000e+03 2.900564956665039062e+01 -6.678909778594970703e+00 1.670645475387573242e+00 3.060500621795654297e-01 5.930086374282836914e-01 1.004785448312759399e-01
3.351000000000000000e+03 2.963772773742675781e+01 -7.131257534027099609e+00 1.246928095817565918e+00 2.655050754547119141e-01 4.537299275398254395e-01 -8.848935365676879883e-02
3.352000000000000000e+03 2.419855880737304688e+01 -3.882946729660034180e+00 3.181788206100463867e+00 2.695708036422729492e+00 1.763248801231384277e+00 2.849276304244995117e+00
3.353000000000000000e+03 2.429091072082519531e+01 -4.842980384826660156e+00 4.335022926330566406e+00 2.072049140930175781e+00 1.922121644020080566e+00 2.414988994598388672e+00
3.354000000000000000e+03 2.666843414306640625e+01 -7.736025810241699219e+00 2.216860294342041016e+00 6.004875898361206055e-01 8.452043533325195312e-01 -3.229907453060150146e-01
3.355000000000000000e+03 2.614320182800292969e+01 -7.999084949493408203e+00 2.284706592559814453e+00 7.251273393630981445e-01 9.029501676559448242e-01 -5.095499753952026367e-01
3.356000000000000000e+03 3.110677719116210938e+01 -6.620293617248535156e+00 9.310507774353027344e-01 2.189742028713226318e-01 3.450074791908264160e-01 -4.243695642799139023e-03
3.357000000000000000e+03 2.947823143005371094e+01 -6.002563953399658203e+00 1.593887448310852051e+00 3.435230553150177002e-01 5.812231898307800293e-01 3.305793702602386475e-01
3.358000000000000000e+03 2.483586692810058594e+01 -2.088246583938598633e+00 1.508714199066162109e+00 2.715938806533813477e+00 1.267395853996276855e+00 2.552026748657226562e+00
3.359000000000000000e+03 2.422634124755859375e+01 -3.200920581817626953e+00 2.392977714538574219e+00 2.923827648162841797e+00 1.595041513442993164e+00 2.841169118881225586e+00
3.360000000000000000e+03 2.442051696777343750e+01 -8.186462402343750000e+00 2.990459442138671875e+00 1.538423299789428711e+00 1.358664870262145996e+00 -8.541960120201110840e-01
3.361000000000000000e+03 2.775618553161621094e+01 -8.018357276916503906e+00 1.547540068626403809e+00 4.165379405021667480e-01 5.892233848571777344e-01 -4.128330945968627930e-01
3.362000000000000000e+03 2.788802337646484375e+01 -4.728463590145111084e-01 9.782691597938537598e-01 1.875483512878417969e+00 8.561257719993591309e-01 1.772662162780761719e+00
3.363000000000000000e+03 2.657297515869140625e+01 -1.953138947486877441e+00 1.515106201171875000e+00 1.971707940101623535e+00 1.046044230461120605e+00 2.134713411331176758e+00
3.364000000000000000e+03 2.614167976379394531e+01 -7.165943622589111328e+00 2.936596155166625977e+00 6.798242330551147461e-01 1.084926128387451172e+00 -1.953015848994255066e-02
3.365000000000000000e+03 2.740284729003906250e+01 -1.735771775245666504e+00 1.430768370628356934e+00 1.733065128326416016e+00 9.491500258445739746e-01 1.921664118766784668e+00
3.366000000000000000e+03 2.839037132263183594e+01 -1.679981499910354614e-01 9.317457079887390137e-01 1.791401147842407227e+00 8.169440627098083496e-01 1.646324157714843750e+00
3.367000000000000000e+03 3.114097213745117188e+01 -3.004472494125366211e+00 1.221932888031005859e+00 6.818084120750427246e-01 5.711223483085632324e-01 8.855812549591064453e-01
3.368000000000000000e+03 3.224161529541015625e+01 -5.319278240203857422e+00 9.162787199020385742e-01 2.855375707149505615e-01 3.605448901653289795e-01 2.501104474067687988e-01
3.369000000000000000e+03 3.399658203125000000e+01 -6.060738563537597656e+00 4.118534922599792480e-01 1.878081560134887695e-01 1.798985004425048828e-01 -3.267678990960121155e-02
3.370000000000000000e+03 2.888154029846191406e+01 -6.205302476882934570e-01 1.059428930282592773e+00 1.580316305160522461e+00 7.919235825538635254e-01 1.581538677215576172e+00
3.371000000000000000e+03 2.945164489746093750e+01 -1.069212257862091064e-01 9.791570901870727539e-01 1.530900001525878906e+00 7.530171275138854980e-01 1.468335509300231934e+00
3.372000000000000000e+03 3.036481285095214844e+01 -6.557033538818359375e+00 1.177715420722961426e+00 2.426546812057495117e-01 4.261110424995422363e-01 5.958248674869537354e-02
3.373000000000000000e+03 3.287444686889648438e+01 -5.763080120086669922e+00 7.013610005378723145e-01 2.392637431621551514e-01 2.821874022483825684e-01 1.027991697192192078e-01
3.374000000000000000e+03 3.259438705444335938e+01 -6.933100700378417969e+00 5.308908820152282715e-01 1.885957419872283936e-01 2.158459872007369995e-01 -1.226070746779441833e-01
3.375000000000000000e+03 3.469970703125000000e+01 5.482707023620605469e-01 7.627449631690979004e-01 7.655794620513916016e-01 4.584973454475402832e-01 7.435441017150878906e-01
3.376000000000000000e+03 3.654762649536132812e+01 -3.294558763504028320e+00 4.277189970016479492e-01 2.977480590343475342e-01 2.176401168107986450e-01 2.240543067455291748e-01
3.377000000000000000e+03 3.774694442749023438e+01 -2.194670915603637695e+00 4.051086902618408203e-01 3.198346197605133057e-01 2.174829840660095215e-01 2.621792256832122803e-01
3.378000000000000000e+03 3.662905120849609375e+01 -2.188282489776611328e+00 5.347419977188110352e-01 3.738239705562591553e-01 2.725697755813598633e-01 3.503482341766357422e-01
3.379000000000000000e+03 3.736335754394531250e+01 -5.190686225891113281e+00 1.043247655034065247e-01 1.795664429664611816e-01 8.516736328601837158e-02 -3.238563612103462219e-02
3.380000000000000000e+03 3.102416992187500000e+01 8.666540384292602539e-01 8.525752425193786621e-01 1.348487973213195801e+00 6.603189706802368164e-01 1.198442935943603516e+00
3.381000000000000000e+03 3.939648056030273438e+01 -2.996233224868774414e+00 1.817933619022369385e-01 2.173642814159393311e-01 1.197472885251045227e-01 1.062826365232467651e-01
3.382000000000000000e+03 3.852581024169921875e+01 -3.341487646102905273e+00 2.161603868007659912e-01 2.250738441944122314e-01 1.323702633380889893e-01 1.122667714953422546e-01
3.383000000000000000e+03 3.597530746459960938e+01 -7.005376815795898438e-01 6.686465144157409668e-01 5.331009626388549805e-01 3.605242371559143066e-01 5.312892198562622070e-01
3.384000000000000000e+03 3.398866653442382812e+01 -1.069410070776939392e-01 8.203341960906982422e-01 7.821230888366699219e-01 4.807371795177459717e-01 7.861308455467224121e-01
3.385000000000000000e+03 3.236632537841796875e+01 1.385444045066833496e+00 8.222929239273071289e-01 1.189908266067504883e+00 6.036603450775146484e-01 1.034317970275878906e+00
3.386000000000000000e+03 3.325392150878906250e+01 6.348983049392700195e-01 8.359839916229248047e-01 9.516920447349548340e-01 5.363028049468994141e-01 9.071089029312133789e-01
3.387000000000000000e+03 2.346374702453613281e+01 2.709289932250976562e+01 1.935525238513946533e-01 5.303009748458862305e-01 2.171560525894165039e-01 2.106994837522506714e-01
3.388000000000000000e+03 2.467057991027832031e+01 -6.590672016143798828e+00 4.513262748718261719e+00 1.211264133453369141e+00 1.717357993125915527e+00 4.944651126861572266e-01
3.389000000000000000e+03 2.454698562622070312e+01 -5.649554252624511719e+00 4.681668281555175781e+00 1.492228269577026367e+00 1.852169036865234375e+00 1.544333100318908691e+00
3.390000000000000000e+03 2.538475990295410156e+01 -8.092477798461914062e+00 2.565550088882446289e+00 9.864124059677124023e-01 1.065588712692260742e+00 -6.318643689155578613e-01
3.391000000000000000e+03 2.886536407470703125e+01 -6.150246620178222656e+00 1.842073917388916016e+00 3.847557008266448975e-01 6.680489182472229004e-01 3.403353393077850342e-01
3.392000000000000000e+03 2.511080932617187500e+01 -7.622607707977294922e+00 3.293288707733154297e+00 1.066275954246520996e+00 1.307869434356689453e+00 -3.776889145374298096e-01
3.393000000000000000e+03 2.456676673889160156e+01 -4.546526432037353516e+00 3.829729795455932617e+00 2.016438245773315430e+00 1.753850340843200684e+00 2.431468009948730469e+00
3.394000000000000000e+03 2.784597015380859375e+01 -7.131482124328613281e+00 1.972973942756652832e+00 3.955637812614440918e-01 7.105613350868225098e-01 -2.132412791252136230e-02
3.395000000000000000e+03 2.751897048950195312e+01 -7.545274734497070312e+00 1.948441386222839355e+00 4.250224828720092773e-01 7.120391726493835449e-01 -2.245144248008728027e-01
3.396000000000000000e+03 2.709993743896484375e+01 -7.735713005065917969e+00 1.983930706977844238e+00 4.934779703617095947e-01 7.432225942611694336e-01 -3.371621072292327881e-01
3.397000000000000000e+03 2.777600669860839844e+01 -1.308962821960449219e+00 1.266776800155639648e+00 1.705996751785278320e+00 8.918320536613464355e-01 1.830864667892456055e+00
3.398000000000000000e+03 3.050193977355957031e+01 -5.773775100708007812e+00 1.307700276374816895e+00 3.079023063182830811e-01 4.846807420253753662e-01 3.089516460895538330e-01
3.399000000000000000e+03 3.462913513183593750e+01 -4.780758857727050781e+00 5.252290964126586914e-01 2.563689649105072021e-01 2.344794273376464844e-01 1.594780385494232178e-01
3.400000000000000000e+03 3.554299926757812500e+01 -2.317658662796020508e+00 6.351437568664550781e-01 4.115664958953857422e-01 3.140130639076232910e-01 4.119362533092498779e-01
3.401000000000000000e+03 3.016090583801269531e+01 -5.877324342727661133e-01 1.042985558509826660e+00 1.280740022659301758e+00 6.971176862716674805e-01 1.326516985893249512e+00
3.402000000000000000e+03 3.465184783935546875e+01 -8.128203153610229492e-01 7.690908908843994141e-01 6.265320777893066406e-01 4.186868667602539062e-01 6.587398052215576172e-01
3.403000000000000000e+03 3.088676452636718750e+01 -1.006230235099792480e+00 1.081125140190124512e+00 1.077099204063415527e+00 6.474673151969909668e-01 1.185544133186340332e+00
3.404000000000000000e+03 3.548691558837890625e+01 -3.424271821975708008e+00 5.547491908073425293e-01 3.329794406890869141e-01 2.663185894489288330e-01 2.951481044292449951e-01
3.405000000000000000e+03 3.062783432006835938e+01 9.221673011779785156e-02 9.560475945472717285e-01 1.314869523048400879e+00 6.812751293182373047e-01 1.269302368164062500e+00
3.406000000000000000e+03 2.563177108764648438e+01 -6.505947113037109375e+00 3.639127016067504883e+00 8.661937713623046875e-01 1.351596236228942871e+00 5.149644017219543457e-01
3.407000000000000000e+03 2.523110580444335938e+01 -7.259285926818847656e+00 3.503192901611328125e+00 9.740684628486633301e-01 1.343178391456604004e+00 -1.176098808646202087e-01
3.408000000000000000e+03 2.472774505615234375e+01 -6.043290138244628906e+00 4.566641807556152344e+00 1.256984949111938477e+00 1.747087955474853516e+00 1.085577487945556641e+00
3.409000000000000000e+03 2.579406738281250000e+01 -7.018638134002685547e+00 3.219991683959960938e+00 7.906965613365173340e-01 1.203206419944763184e+00 8.832909911870956421e-02
3.410000000000000000e+03 2.836348533630371094e+01 -6.345713138580322266e+00 2.003103494644165039e+00 3.980470895767211914e-01 7.203451991081237793e-01 3.124670982360839844e-01
3.411000000000000000e+03 2.666656494140625000e+01 -7.074651718139648438e+00 2.663449048995971680e+00 5.687077641487121582e-01 9.696470499038696289e-01 4.902639240026473999e-02
3.412000000000000000e+03 2.451929664611816406e+01 -3.552250862121582031e+00 2.785978317260742188e+00 2.526156187057495117e+00 1.593640327453613281e+00 2.736762762069702148e+00
3.413000000000000000e+03 2.474282836914062500e+01 -4.222533702850341797e+00 3.461021661758422852e+00 2.036357164382934570e+00 1.649213671684265137e+00 2.467174291610717773e+00
3.414000000000000000e+03 2.602032661437988281e+01 -6.658284187316894531e+00 3.275792121887207031e+00 7.339321970939636230e-01 1.202917337417602539e+00 3.469976484775543213e-01
3.415000000000000000e+03 2.456100463867187500e+01 -5.018704891204833984e+00 4.311012268066406250e+00 1.781191468238830566e+00 1.827661037445068359e+00 2.145235776901245117e+00
3.416000000000000000e+03 2.618614578247070312e+01 -3.105934381484985352e+00 2.237693309783935547e+00 1.753996133804321289e+00 1.197506785392761230e+00 2.179349422454833984e+00
3.417000000000000000e+03 2.848086738586425781e+01 -6.770372867584228516e+00 1.832632422447204590e+00 3.592540621757507324e-01 6.575659513473510742e-01 1.242869645357131958e-01
3.418000000000000000e+03 2.555684852600097656e+01 -3.566369533538818359e+00 2.645895242691040039e+00 1.880951046943664551e+00 1.358053922653198242e+00 2.314070463180541992e+00
3.419000000000000000e+03 2.471991920471191406e+01 -3.885187387466430664e+00 3.066541671752929688e+00 2.230812788009643555e+00 1.589206337928771973e+00 2.604695320129394531e+00
3.420000000000000000e+03 2.536533355712890625e+01 -3.234892845153808594e+00 2.403960466384887695e+00 2.127602577209472656e+00 1.359468936920166016e+00 2.459025382995605469e+00
3.421000000000000000e+03 2.815632438659667969e+01 -1.706462740898132324e+00 1.380682468414306641e+00 1.534626960754394531e+00 8.745928406715393066e-01 1.738932967185974121e+00
3.422000000000000000e+03 2.807057189941406250e+01 -6.683428287506103516e+00 2.041174411773681641e+00 3.939968347549438477e-01 7.305513620376586914e-01 1.898186355829238892e-01
3.423000000000000000e+03 2.931896781921386719e+01 -5.029748916625976562e+00 1.783994436264038086e+00 4.968720078468322754e-01 6.842599511146545410e-01 7.029916644096374512e-01
3.424000000000000000e+03 3.032528114318847656e+01 -3.112876653671264648e+00 1.391130805015563965e+00 7.514141201972961426e-01 6.427634954452514648e-01 1.016587972640991211e+00
3.425000000000000000e+03 3.440815353393554688e+01 -3.782831192016601562e+00 6.728153228759765625e-01 3.374828696250915527e-01 3.030894398689270020e-01 3.290770351886749268e-01
3.426000000000000000e+03 3.263731765747070312e+01 -1.181189641356468201e-01 8.947569131851196289e-01 9.598678350448608398e-01 5.563874244689941406e-01 9.528282284736633301e-01
3.427000000000000000e+03 2.917693328857421875e+01 -1.163979530334472656e+00 1.184379100799560547e+00 1.390815138816833496e+00 7.725582718849182129e-01 1.513277053833007812e+00
3.428000000000000000e+03 2.885078048706054688e+01 -1.900991916656494141e+00 1.420183897018432617e+00 1.267076492309570312e+00 8.061781525611877441e-01 1.535522222518920898e+00
3.429000000000000000e+03 3.336566925048828125e+01 -2.125908136367797852e+00 9.027176499366760254e-01 5.953828096389770508e-01 4.494301378726959229e-01 6.818593144416809082e-01
3.430000000000000000e+03 3.467191314697265625e+01 -2.140612363815307617e+00 7.399110794067382812e-01 4.754821956157684326e-01 3.646179735660552979e-01 5.179857015609741211e-01
3.431000000000000000e+03 3.334970474243164062e+01 -7.873678207397460938e-01 8.796182870864868164e-01 7.677950263023376465e-01 4.942239820957183838e-01 8.190644383430480957e-01
3.432000000000000000e+03 2.939101600646972656e+01 -1.676450848579406738e+00 1.306475877761840820e+00 1.199066042900085449e+00 7.516626119613647461e-01 1.427004933357238770e+00
3.433000000000000000e+03 3.145051574707031250e+01 -5.168929100036621094e+00 1.132133483886718750e+00 3.372058868408203125e-01 4.408017992973327637e-01 3.716206848621368408e-01
3.434000000000000000e+03 3.274351119995117188e+01 -1.441426634788513184e+00 9.436864256858825684e-01 7.585216164588928223e-01 5.106624364852905273e-01 8.374514579772949219e-01
3.435000000000000000e+03 2.539681625366210938e+01 -6.881688117980957031e+00 3.673703908920288086e+00 9.179564118385314941e-01 1.377498149871826172e+00 1.967200487852096558e-01
3.436000000000000000e+03 2.469384002685546875e+01 -2.852749347686767578e+00 2.074502468109130859e+00 2.650006055831909180e+00 1.417352557182312012e+00 2.671440124511718750e+00
3.437000000000000000e+03 2.428468704223632812e+01 -6.080565452575683594e+00 5.121282100677490234e+00 1.534317731857299805e+00 1.996679902076721191e+00 1.149506092071533203e+00
3.438000000000000000e+03 2.707324409484863281e+01 -6.982272624969482422e+00 2.497237682342529297e+00 5.140159130096435547e-01 9.033761024475097656e-01 8.531440049409866333e-02
3.439000000000000000e+03 2.801185798645019531e+01 -6.046285629272460938e+00 2.201978445053100586e+00 4.568563103675842285e-01 7.976504564285278320e-01 4.764342606067657471e-01
3.440000000000000000e+03 2.561810874938964844e+01 -2.849681138992309570e+00 2.101310729980468750e+00 2.100885391235351562e+00 1.260658860206604004e+00 2.386008977890014648e+00
3.441000000000000000e+03 2.462952613830566406e+01 -5.402978420257568359e+00 4.531508445739746094e+00 1.542502641677856445e+00 1.822203278541564941e+00 1.749763131141662598e+00
3.442000000000000000e+03 2.872965431213378906e+01 -5.071743488311767578e+00 2.001859188079833984e+00 5.465376377105712891e-01 7.645190358161926270e-01 8.026278018951416016e-01
3.443000000000000000e+03 2.708238220214843750e+01 -6.586650371551513672e+00 2.618480205535888672e+00 5.503576993942260742e-01 9.506513476371765137e-01 3.106076121330261230e-01
3.444000000000000000e+03 2.514143371582031250e+01 -4.204221725463867188e+00 3.293931961059570312e+00 1.834112286567687988e+00 1.538413286209106445e+00 2.299702167510986328e+00
3.445000000000000000e+03 2.544900512695312500e+01 -3.967540979385375977e+00 2.986349344253540039e+00 1.746878504753112793e+00 1.419968366622924805e+00 2.247398853302001953e+00
3.446000000000000000e+03 2.874090766906738281e+01 -5.608493328094482422e+00 1.956341743469238281e+00 4.643371701240539551e-01 7.262036800384521484e-01 5.959109663963317871e-01
3.447000000000000000e+03 2.933174324035644531e+01 -5.535843372344970703e+00 1.743671059608459473e+00 4.269578456878662109e-01 6.511886715888977051e-01 5.412828922271728516e-01
3.448000000000000000e+03 2.523908042907714844e+01 -4.557693958282470703e+00 3.512193441390991211e+00 1.624703407287597656e+00 1.541069030761718750e+00 2.123769283294677734e+00
3.449000000000000000e+03 2.639852905273437500e+01 -2.560293912887573242e+00 1.873860836029052734e+00 1.855970501899719238e+00 1.118949413299560547e+00 2.184303522109985352e+00
3.450000000000000000e+03 2.986936378479003906e+01 -5.604369640350341797e+00 1.519827365875244141e+00 3.552856147289276123e-01 5.625339150428771973e-01 4.143424034118652344e-01
3.451000000000000000e+03 3.205995559692382812e+01 -3.093476057052612305e+00 1.082429289817810059e+00 5.748562812805175781e-01 4.971856772899627686e-01 7.297555804252624512e-01
3.452000000000000000e+03 3.136079025268554688e+01 -3.194951713085174561e-01 9.709703922271728516e-01 1.115604162216186523e+00 6.259723901748657227e-01 1.138132095336914062e+00
3.453000000000000000e+03 2.694665145874023438e+01 -2.774170398712158203e+00 1.932092785835266113e+00 1.581193923950195312e+00 1.053985953330993652e+00 1.974387049674987793e+00
3.454000000000000000e+03 3.401155090332031250e+01 -1.476223945617675781e+00 8.174560070037841797e-01 6.160861253738403320e-01 4.300626516342163086e-01 6.684850454330444336e-01
3.455000000000000000e+03 2.767631530761718750e+01 -2.504261970520019531e+00 1.697320222854614258e+00 1.445861935615539551e+00 9.429546594619750977e-01 1.797707080841064453e+00
3.456000000000000000e+03 2.892488098144531250e+01 -4.128314018249511719e+00 1.864518880844116211e+00 7.192114591598510742e-01 7.751190662384033203e-01 1.092665553092956543e+00
3.457000000000000000e+03 3.107797050476074219e+01 -2.060973405838012695e+00 1.177471399307250977e+00 8.525936603546142578e-01 6.090195178985595703e-01 1.048005461692810059e+00
3.458000000000000000e+03 3.044819641113281250e+01 -1.651037931442260742e+00 1.184258222579956055e+00 1.028411388397216797e+00 6.638008952140808105e-01 1.207272648811340332e+00
3.459000000000000000e+03 3.152583885192871094e+01 -3.422389745712280273e+00 1.168753623962402344e+00 5.756481289863586426e-01 5.233204960823059082e-01 7.578586339950561523e-01
3.460000000000000000e+03 3.187593269348144531e+01 -5.989284992218017578e+00 8.740397691726684570e-01 2.388041168451309204e-01 3.338531553745269775e-01 1.024244502186775208e-01
3.461000000000000000e+03 3.231401062011718750e+01 -6.318186283111572266e+00 7.268702387809753418e-01 2.125551700592041016e-01 2.818276286125183105e-01 1.714370585978031158e-02
3.462000000000000000e+03 3.311595916748046875e+01 -3.410079002380371094e+00 9.107186794281005859e-01 4.417836368083953857e-01 4.057506918907165527e-01 5.276836156845092773e-01
3.463000000000000000e+03 2.666604804992675781e+01 -6.434611320495605469e+00 2.916661262512207031e+00 6.145699024200439453e-01 1.059369325637817383e+00 4.328431785106658936e-01
3.464000000000000000e+03 2.764630699157714844e+01 -5.749495029449462891e+00 2.447351932525634766e+00 5.590748190879821777e-01 9.019280076026916504e-01 7.157106995582580566e-01
3.465000000000000000e+03 2.626037216186523438e+01 -6.277087688446044922e+00 3.215435266494750977e+00 7.180961966514587402e-01 1.180059432983398438e+00 5.949139595031738281e-01
3.466000000000000000e+03 2.531105232238769531e+01 -4.874454498291015625e+00 3.679284334182739258e+00 1.422939896583557129e+00 1.530667185783386230e+00 1.867510676383972168e+00
3.467000000000000000e+03 2.812796401977539062e+01 -5.592556953430175781e+00 2.240058183670043945e+00 5.219990611076354980e-01 8.286171555519104004e-01 6.921701431274414062e-01
3.468000000000000000e+03 2.812477874755859375e+01 -5.035470008850097656e+00 2.238788366317749023e+00 6.304861903190612793e-01 8.607823252677917480e-01 9.368047118186950684e-01
3.469000000000000000e+03 2.639876174926757812e+01 -4.360174179077148438e+00 2.848391056060791016e+00 1.205998897552490234e+00 1.216316938400268555e+00 1.720074653625488281e+00
3.470000000000000000e+03 2.493785667419433594e+01 -3.260240316390991211e+00 2.467959642410278320e+00 2.346062183380126953e+00 1.444206595420837402e+00 2.571194171905517578e+00
3.471000000000000000e+03 2.875393867492675781e+01 -4.581175804138183594e+00 1.987163543701171875e+00 6.414777636528015137e-01 7.885923981666564941e-01 9.704144001007080078e-01
3.472000000000000000e+03 3.067945098876953125e+01 -5.019866943359375000e+00 1.356019139289855957e+00 4.014175236225128174e-01 5.272309780120849609e-01 5.109217762947082520e-01
3.473000000000000000e+03 3.163270187377929688e+01 -4.496107578277587891e+00 1.148372173309326172e+00 4.046598076820373535e-01 4.659095704555511475e-01 4.994954168796539307e-01
3.474000000000000000e+03 2.980363845825195312e+01 -1.248718261718750000e+00 1.186207652091979980e+00 1.240055322647094727e+00 7.278789281845092773e-01 1.381733775138854980e+00
3.475000000000000000e+03 2.836830139160156250e+01 -2.123635530471801758e+00 1.523454308509826660e+00 1.358330845832824707e+00 8.645355701446533203e-01 1.649484395980834961e+00
3.476000000000000000e+03 2.805009078979492188e+01 -2.910759687423706055e+00 1.783934950828552246e+00 1.213588714599609375e+00 8.992571234703063965e-01 1.605749845504760742e+00
3.477000000000000000e+03 2.954725837707519531e+01 -2.198503971099853516e+00 1.375088334083557129e+00 1.066484332084655762e+00 7.324717640876770020e-01 1.338312625885009766e+00
3.478000000000000000e+03 3.207519149780273438e+01 -8.316619992256164551e-01 9.790729880332946777e-01 9.319888949394226074e-01 5.733186006546020508e-01 1.002179861068725586e+00
3.479000000000000000e+03 3.398131179809570312e+01 -2.876950025558471680e+00 7.963110208511352539e-01 4.567802250385284424e-01 3.759273588657379150e-01 5.030947327613830566e-01
3.480000000000000000e+03 3.216125106811523438e+01 -2.025551319122314453e+00 1.042208909988403320e+00 7.308421134948730469e-01 5.319153070449829102e-01 8.696346282958984375e-01
3.481000000000000000e+03 3.161972808837890625e+01 -2.536989688873291016e+00 1.120342612266540527e+00 7.075828909873962402e-01 5.483776330947875977e-01 8.804038166999816895e-01
3.482000000000000000e+03 3.245113754272460938e+01 -4.517134666442871094e+00 9.549151659011840820e-01 3.446727693080902100e-01 3.898763656616210938e-01 3.897909522056579590e-01
3.483000000000000000e+03 3.169633674621582031e+01 -3.903412580490112305e+00 1.153226852416992188e+00 4.684643149375915527e-01 4.865073561668395996e-01 6.234391331672668457e-01
3.484000000000000000e+03 3.234788131713867188e+01 -3.746769666671752930e+00 1.020458579063415527e+00 4.598092138767242432e-01 4.440803229808807373e-01 5.669631958007812500e-01
3.485000000000000000e+03 2.824786376953125000e+01 -4.477833271026611328e+00 2.122968912124633789e+00 7.302007079124450684e-01 8.559508919715881348e-01 1.109894871711730957e+00
3.486000000000000000e+03 2.521181297302246094e+01 -5.838270664215087891e+00 4.120761394500732422e+00 1.134820818901062012e+00 1.576674699783325195e+00 1.176626324653625488e+00
3.487000000000000000e+03 2.532294273376464844e+01 -6.313292980194091797e+00 3.957953214645385742e+00 9.901496767997741699e-01 1.484430789947509766e+00 7.195581793785095215e-01
3.488000000000000000e+03 2.639622879028320312e+01 -6.828999519348144531e+00 2.907734632492065430e+00 6.377376914024353027e-01 1.063641667366027832e+00 2.058143913745880127e-01
3.489000000000000000e+03 2.677516174316406250e+01 -3.317293882369995117e+00 2.226518630981445312e+00 1.450768113136291504e+00 1.103186011314392090e+00 1.934887290000915527e+00
3.490000000000000000e+03 2.602627563476562500e+01 -3.640150308609008789e+00 2.582813978195190430e+00 1.625817418098449707e+00 1.262589454650878906e+00 2.132903814315795898e+00
3.491000000000000000e+03 2.560114097595214844e+01 -4.874241828918457031e+00 3.517847061157226562e+00 1.293928623199462891e+00 1.443532705307006836e+00 1.749528169631958008e+00
3.492000000000000000e+03 2.991160011291503906e+01 -3.445207118988037109e+00 1.540184140205383301e+00 7.375646233558654785e-01 6.833246350288391113e-01 1.055105686187744141e+00
3.493000000000000000e+03 2.995548820495605469e+01 -4.957939624786376953e+00 1.548476219177246094e+00 4.394841194152832031e-01 5.963881015777587891e-01 6.256104707717895508e-01
3.494000000000000000e+03 3.117156982421875000e+01 -3.806324481964111328e+00 1.266963243484497070e+00 5.514360666275024414e-01 5.455197691917419434e-01 7.370002865791320801e-01
3.495000000000000000e+03 3.072868156433105469e+01 -3.477725744247436523e+00 1.328119277954101562e+00 6.332781314849853516e-01 5.884192585945129395e-01 8.702821135520935059e-01
3.496000000000000000e+03 3.011866760253906250e+01 -2.299813985824584961e+00 1.331541180610656738e+00 9.734477400779724121e-01 6.914966702461242676e-01 1.221655249595642090e+00
3.497000000000000000e+03 2.856762695312500000e+01 -2.632606744766235352e+00 1.628324985504150391e+00 1.175508975982666016e+00 8.411501646041870117e-01 1.530304431915283203e+00
3.498000000000000000e+03 2.771120262145996094e+01 -4.306800842285156250e+00 2.280972957611083984e+00 9.014962315559387207e-01 9.547407627105712891e-01 1.331753015518188477e+00
3.499000000000000000e+03 3.155318260192871094e+01 -1.475293755531311035e+00 1.062283754348754883e+00 8.958154320716857910e-01 5.874297618865966797e-01 1.023288130760192871e+00
3.500000000000000000e+03 2.587736892700195312e+01 -6.148176193237304688e+00 3.509683132171630859e+00 8.533558845520019531e-01 1.308911681175231934e+00 7.766423821449279785e-01
3.501000000000000000e+03 2.564020347595214844e+01 -5.276454925537109375e+00 3.649313926696777344e+00 1.150519132614135742e+00 1.439949989318847656e+00 1.478656053543090820e+00
3.502000000000000000e+03 2.690995788574218750e+01 -5.941922187805175781e+00 2.861940145492553711e+00 6.513273119926452637e-01 1.053980231285095215e+00 7.337880730628967285e-01
3.503000000000000000e+03 2.732605934143066406e+01 -6.170477390289306641e+00 2.579046487808227539e+00 5.626150369644165039e-01 9.424984455108642578e-01 5.369002223014831543e-01
3.504000000000000000e+03 2.752089881896972656e+01 -4.870970249176025391e+00 2.461790323257446289e+00 7.620346546173095703e-01 9.671474695205688477e-01 1.140387535095214844e+00
3.505000000000000000e+03 2.543701934814453125e+01 -5.100229740142822266e+00 3.727392911911010742e+00 1.257082819938659668e+00 1.495342731475830078e+00 1.668610811233520508e+00
3.506000000000000000e+03 2.586027145385742188e+01 -5.432539463043212891e+00 3.539658308029174805e+00 1.035449385643005371e+00 1.372532248497009277e+00 1.310798287391662598e+00
3.507000000000000000e+03 2.613435935974121094e+01 -4.754383563995361328e+00 3.135383129119873047e+00 1.153486132621765137e+00 1.286660790443420410e+00 1.629585385322570801e+00
3.508000000000000000e+03 2.936675262451171875e+01 -3.727964401245117188e+00 1.696322798728942871e+00 7.546162009239196777e-01 7.352817058563232422e-01 1.105551838874816895e+00
3.509000000000000000e+03 2.738321685791015625e+01 -3.523787736892700195e+00 2.158447265625000000e+00 1.202374815940856934e+00 1.008246660232543945e+00 1.677708625793457031e+00
3.510000000000000000e+03 2.792401695251464844e+01 -3.778027296066284180e+00 2.078962326049804688e+00 1.003007650375366211e+00 9.245910048484802246e-01 1.452620744705200195e+00
3.511000000000000000e+03 3.031319808959960938e+01 -3.961323499679565430e+00 1.484954833984375000e+00 5.830975770950317383e-01 6.204157471656799316e-01 8.360491394996643066e-01
3.512000000000000000e+03 2.659554100036621094e+01 -3.848821640014648438e+00 2.516689777374267578e+00 1.335978984832763672e+00 1.155800700187683105e+00 1.841851472854614258e+00
3.513000000000000000e+03 2.586826133728027344e+01 -4.138993740081787109e+00 2.965553522109985352e+00 1.502649664878845215e+00 1.340460896492004395e+00 2.022638082504272461e+00
3.514000000000000000e+03 3.066903114318847656e+01 -2.611212968826293945e+00 1.279113054275512695e+00 7.936964631080627441e-01 6.218428611755371094e-01 1.035005688667297363e+00
3.515000000000000000e+03 2.937898635864257812e+01 -2.739109754562377930e+00 1.514508724212646484e+00 9.723468422889709473e-01 7.460566759109497070e-01 1.286577939987182617e+00
3.516000000000000000e+03 2.893394660949707031e+01 -3.172213315963745117e+00 1.686367392539978027e+00 9.489956498146057129e-01 7.906089425086975098e-01 1.319335699081420898e+00
3.517000000000000000e+03 2.553633308410644531e+01 -5.999869346618652344e+00 3.797281265258789062e+00 9.634285569190979004e-01 1.428213000297546387e+00 9.433878064155578613e-01
3.518000000000000000e+03 2.645977783203125000e+01 -5.836267948150634766e+00 3.137134075164794922e+00 7.452795505523681641e-01 1.164724111557006836e+00 8.692700862884521484e-01
3.519000000000000000e+03 2.571242523193359375e+01 -5.696521759033203125e+00 3.686961889266967773e+00 9.941498637199401855e-01 1.404333591461181641e+00 1.143892765045166016e+00
3.520000000000000000e+03 2.834318542480468750e+01 -3.440038204193115234e+00 1.878129363059997559e+00 9.981395006179809570e-01 8.628806471824645996e-01 1.416253089904785156e+00
3.521000000000000000e+03 2.716166687011718750e+01 -4.078915119171142578e+00 2.430961608886718750e+00 1.073839783668518066e+00 1.051440477371215820e+00 1.581753015518188477e+00
3.522000000000000000e+03 2.723171043395996094e+01 -5.418810367584228516e+00 2.683505058288574219e+00 6.921415328979492188e-01 1.012694001197814941e+00 9.533565044403076172e-01
3.523000000000000000e+03 2.570562744140625000e+01 -4.553696632385253906e+00 3.236544609069824219e+00 1.404848456382751465e+00 1.392417907714843750e+00 1.912981629371643066e+00
3.524000000000000000e+03 2.694845581054687500e+01 -4.621963024139404297e+00 2.689273595809936523e+00 9.746225476264953613e-01 1.099168896675109863e+00 1.426357626914978027e+00
3.525000000000000000e+03 2.842487144470214844e+01 -3.948360204696655273e+00 1.959705471992492676e+00 8.447794318199157715e-01 8.413454890251159668e-01 1.241943836212158203e+00
3.526000000000000000e+03 2.977496147155761719e+01 -4.318115234375000000e+00 1.623360037803649902e+00 5.551615953445434570e-01 6.535564661026000977e-01 8.268119692802429199e-01
3.527000000000000000e+03 2.986990928649902344e+01 -2.910521268844604492e+00 1.476940393447875977e+00 8.514209389686584473e-01 6.985083818435668945e-01 1.171726107597351074e+00
3.528000000000000000e+03 2.172294235229492188e+01 2.832698440551757812e+01 1.764302402734756470e-01 4.486246407032012939e-01 1.875164657831192017e-01 2.185898572206497192e-01
3.529000000000000000e+03 2.605405616760253906e+01 -5.239645957946777344e+00 3.312575101852416992e+00 1.047471404075622559e+00 1.308013916015625000e+00 1.399342894554138184e+00
3.530000000000000000e+03 2.604813575744628906e+01 -5.800373077392578125e+00 3.429399490356445312e+00 8.653241395950317383e-01 1.288417100906372070e+00 9.735962152481079102e-01
3.531000000000000000e+03 2.636154747009277344e+01 -5.080520629882812500e+00 3.097319364547729492e+00 1.001510620117187500e+00 1.229649066925048828e+00 1.406548142433166504e+00
3.532000000000000000e+03 2.675179100036621094e+01 -5.138053417205810547e+00 2.923590183258056641e+00 8.638885021209716797e-01 1.136243581771850586e+00 1.237934708595275879e+00
3.533000000000000000e+03 6.828381347656250000e+01 2.951838874816894531e+01 2.105323225259780884e-01 4.851379394531250000e+00 1.518573522567749023e+00 -3.734835982322692871e-01
3.534000000000000000e+03 6.708650207519531250e+01 3.176749801635742188e+01 2.299654632806777954e-01 4.632960796356201172e+00 1.458877801895141602e+00 -3.195458054542541504e-01
3.535000000000000000e+03 1.254494571685791016e+01 -4.102854919433593750e+01 -2.918173372745513916e-01 1.229657649993896484e+00 2.813520729541778564e-01 -5.849909037351608276e-03
3.536000000000000000e+03 1.808643531799316406e+01 -3.134322166442871094e+01 -2.524121403694152832e-01 9.315146803855895996e-01 2.037307620048522949e-01 -2.588097453117370605e-01
3.537000000000000000e+03 1.455973529815673828e+01 -3.670389938354492188e+01 -3.339017033576965332e-01 1.163056373596191406e+00 2.487463951110839844e-01 -1.499734260141849518e-02
3.538000000000000000e+03 5.940477371215820312e+00 -3.824414443969726562e+01 -1.795483976602554321e-01 1.427083253860473633e+00 3.742604553699493408e-01 1.762522161006927490e-01
3.539000000000000000e+03 1.388976383209228516e+01 3.819260025024414062e+01 8.298477530479431152e-02 7.118654996156692505e-02 4.625139757990837097e-02 5.979501828551292419e-02
3.540000000000000000e+03 5.202056121826171875e+01 2.889861869812011719e+01 7.410923242568969727e-01 2.253684997558593750e+00 8.984332084655761719e-01 -1.671734303236007690e-01
3.541000000000000000e+03 4.857298660278320312e+01 2.955488777160644531e+01 7.434845566749572754e-01 1.926450848579406738e+00 8.009806275367736816e-01 7.707738876342773438e-02
3.542000000000000000e+03 2.138304519653320312e+01 -3.779590606689453125e+01 -2.134210467338562012e-01 5.522559285163879395e-01 1.016504690051078796e-01 -6.824914366006851196e-02
3.543000000000000000e+03 2.407617950439453125e+01 -3.654165649414062500e+01 -1.700322180986404419e-01 3.103075921535491943e-01 4.208261147141456604e-02 -7.250029593706130981e-02
3.544000000000000000e+03 3.163506507873535156e+01 -4.086740875244140625e+01 -1.380663365125656128e-01 -6.029598042368888855e-02 -5.950869619846343994e-02 -8.268970996141433716e-03
3.545000000000000000e+03 2.697769165039062500e+01 -3.780934143066406250e+01 -1.636970937252044678e-01 1.567564755678176880e-01 -2.082187216728925705e-03 -3.126150369644165039e-02
3.546000000000000000e+03 4.587662887573242188e+01 3.630802154541015625e+01 6.119018197059631348e-01 1.985538721084594727e+00 7.792321443557739258e-01 6.683614850044250488e-02
3.547000000000000000e+03 6.914955139160156250e+01 3.240149688720703125e+01 1.710982918739318848e-01 4.934579372406005859e+00 1.531703233718872070e+00 -2.566539645195007324e-01
3.548000000000000000e+03 3.666355514526367188e+01 3.403129577636718750e+01 4.222954213619232178e-01 1.416331291198730469e+00 5.515879988670349121e-01 1.630596965551376343e-01
3.549000000000000000e+03 4.068558502197265625e+01 3.363294601440429688e+01 5.133532285690307617e-01 1.634935855865478516e+00 6.444867253303527832e-01 1.808194816112518311e-01
3.550000000000000000e+03 3.176605224609375000e+01 2.341037750244140625e+01 1.936651170253753662e-01 1.269680619239807129e+00 4.390037357807159424e-01 2.948561012744903564e-01
3.551000000000000000e+03 5.296610641479492188e+01 3.613404083251953125e+01 6.195470690727233887e-01 2.608970642089843750e+00 9.685552716255187988e-01 -8.851416409015655518e-02
3.552000000000000000e+03 4.915925598144531250e+01 3.423419952392578125e+01 6.622336506843566895e-01 2.189890623092651367e+00 8.556373119354248047e-01 1.112740673124790192e-02
3.553000000000000000e+03 2.051365470886230469e+01 3.164900207519531250e+01 1.698276400566101074e-01 4.245725572109222412e-01 1.783200651407241821e-01 1.714150458574295044e-01
3.554000000000000000e+03 2.680782127380371094e+01 2.991316413879394531e+01 2.509167194366455078e-01 8.152788281440734863e-01 3.198586702346801758e-01 1.666512787342071533e-01
3.555000000000000000e+03 2.184109115600585938e+01 3.436651229858398438e+01 2.035424858331680298e-01 5.160747766494750977e-01 2.158851772546768188e-01 1.213666424155235291e-01
3.556000000000000000e+03 1.800577163696289062e+01 3.809379196166992188e+01 1.464411169290542603e-01 2.912547290325164795e-01 1.313087493181228638e-01 6.503208726644515991e-02
3.557000000000000000e+03 1.446035099029541016e+01 3.537652969360351562e+01 8.777837455272674561e-02 1.097465530037879944e-01 5.925747752189636230e-02 9.722474217414855957e-02
3.558000000000000000e+03 3.286621856689453125e+01 2.861879920959472656e+01 2.895198166370391846e-01 1.236050605773925781e+00 4.576711356639862061e-01 2.196461856365203857e-01
3.559000000000000000e+03 5.910269546508789062e+01 -3.532648468017578125e+01 2.120383679866790771e-01 1.571713566780090332e+00 5.351256132125854492e-01 1.979741007089614868e-01
3.560000000000000000e+03 3.031244277954101562e+01 2.813048553466796875e+01 2.623818218708038330e-01 1.057014226913452148e+00 3.958188295364379883e-01 1.958825886249542236e-01
3.561000000000000000e+03 2.794958114624023438e+01 2.747409057617187500e+01 2.251301407814025879e-01 8.939078450202941895e-01 3.357114195823669434e-01 1.857339292764663696e-01
3.562000000000000000e+03 3.594721221923828125e+01 3.099024009704589844e+01 3.772362172603607178e-01 1.401229143142700195e+00 5.335395932197570801e-01 2.177430093288421631e-01
3.563000000000000000e+03 2.829841232299804688e+01 3.397924041748046875e+01 2.881851494312286377e-01 8.834329247474670410e-01 3.514854013919830322e-01 1.184381693601608276e-01
3.564000000000000000e+03 3.703451919555664062e+01 3.743561553955078125e+01 4.532271325588226318e-01 1.417909979820251465e+00 5.613411664962768555e-01 9.308644384145736694e-02
3.565000000000000000e+03 6.231081390380859375e+01 3.712850952148437500e+01 3.730658292770385742e-01 3.919135332107543945e+00 1.287660360336303711e+00 -1.683643311262130737e-01
3.566000000000000000e+03 6.653571319580078125e+01 3.771861267089843750e+01 2.405143380165100098e-01 4.557851314544677734e+00 1.439509630203247070e+00 -1.357769668102264404e-01
3.567000000000000000e+03 2.263353919982910156e+01 3.755703735351562500e+01 2.201076596975326538e-01 5.594515204429626465e-01 2.338677495718002319e-01 7.452487200498580933e-02
3.568000000000000000e+03 2.757411003112792969e+01 3.737379455566406250e+01 2.890594601631164551e-01 8.376009464263916016e-01 3.379981219768524170e-01 7.544560730457305908e-02
3.569000000000000000e+03 3.249944305419921875e+01 3.433943557739257812e+01 3.446506559848785400e-01 1.153671860694885254e+00 4.494967460632324219e-01 1.292620301246643066e-01
3.570000000000000000e+03 3.264065170288085938e+01 3.133379554748535156e+01 3.253722786903381348e-01 1.177679181098937988e+00 4.509154558181762695e-01 1.791218966245651245e-01
3.571000000000000000e+03 1.957658958435058594e+01 -2.647788524627685547e+00 1.689622849225997925e-01 2.195917367935180664e+00 7.094638943672180176e-01 -5.259482860565185547e-01
3.572000000000000000e+03 1.986244964599609375e+01 -2.531716346740722656e+00 9.263659268617630005e-02 2.721476793289184570e+00 8.442340493202209473e-01 -4.097297787666320801e-01
3.573000000000000000e+03 2.017592811584472656e+01 -2.747387409210205078e+00 4.445105418562889099e-02 3.506599187850952148e+00 1.065315008163452148e+00 -2.550790011882781982e-01
3.574000000000000000e+03 2.045230293273925781e+01 -3.459769010543823242e+00 2.093373984098434448e-02 5.150556087493896484e+00 1.551447033882141113e+00 6.565590202808380127e-02
3.575000000000000000e+03 2.135176658630371094e+01 -4.128496646881103516e+00 1.647452235221862793e+00 7.428565502166748047e+00 2.722805261611938477e+00 3.017570018768310547e+00
3.576000000000000000e+03 2.204937362670898438e+01 -4.825601577758789062e+00 5.540819644927978516e+00 5.609222412109375000e+00 3.345012664794921875e+00 4.396090984344482422e+00
3.577000000000000000e+03 2.179866409301757812e+01 -5.226113319396972656e+00 7.741365432739257812e+00 5.695510387420654297e+00 4.031062602996826172e+00 4.522850513458251953e+00
3.578000000000000000e+03 2.214966011047363281e+01 -5.338678836822509766e+00 7.765941143035888672e+00 4.584709167480468750e+00 3.705195188522338867e+00 3.808496952056884766e+00
3.579000000000000000e+03 2.224890136718750000e+01 -6.061629295349121094e+00 9.022018432617187500e+00 3.666172742843627930e+00 3.806457281112670898e+00 1.674752116203308105e+00
3.580000000000000000e+03 2.193881416320800781e+01 -6.959905624389648438e+00 7.761986732482910156e+00 4.821252822875976562e+00 3.774971961975097656e+00 -5.422892570495605469e-01
3.581000000000000000e+03 2.174845504760742188e+01 -7.147614955902099609e+00 7.195093154907226562e+00 5.569148540496826172e+00 3.829272508621215820e+00 -8.818316459655761719e-01
3.582000000000000000e+03 2.012976264953613281e+01 -7.711321830749511719e+00 4.491973876953125000e+00 7.202880382537841797e+00 3.508456230163574219e+00 2.733771085739135742e+00
3.583000000000000000e+03 1.890378379821777344e+01 -6.861296176910400391e+00 9.263198852539062500e+00 1.518517613410949707e+00 3.234514951705932617e+00 4.038156032562255859e+00
3.584000000000000000e+03 1.848174858093261719e+01 -6.360957622528076172e+00 8.887070655822753906e+00 -5.319144725799560547e-01 2.506546735763549805e+00 1.755904555320739746e+00
3.585000000000000000e+03 1.816660499572753906e+01 -6.608434200286865234e+00 7.903637886047363281e+00 -9.032582044601440430e-01 2.100113868713378906e+00 2.251244068145751953e+00
3.586000000000000000e+03 7.500984191894531250e+01 4.029421997070312500e+01 5.251793190836906433e-02 5.635550022125244141e+00 1.706420421600341797e+00 -1.433037593960762024e-02
3.587000000000000000e+03 4.350698471069335938e+01 7.768107891082763672e+00 3.144408166408538818e-01 6.734653115272521973e-01 2.963718473911285400e-01 -1.396096199750900269e-01
3.588000000000000000e+03 4.408481597900390625e+01 1.828821754455566406e+01 7.037295103073120117e-01 2.054179191589355469e+00 8.273726701736450195e-01 9.983497858047485352e-01
3.589000000000000000e+03 3.491707229614257812e+01 -3.950118637084960938e+01 -1.872196197509765625e-01 -1.155325695872306824e-01 -9.082565456628799438e-02 -5.749711301177740097e-03
3.590000000000000000e+03 1.736860466003417969e+01 -5.964152812957763672e+00 5.650885105133056641e+00 -1.444579362869262695e+00 1.261891722679138184e+00 7.111859917640686035e-01
3.591000000000000000e+03 1.703415679931640625e+01 -5.663455486297607422e+00 4.663812637329101562e+00 -1.371619343757629395e+00 9.876580238342285156e-01 2.979223430156707764e-01
3.592000000000000000e+03 1.779029083251953125e+01 -6.080485820770263672e+00 6.819839954376220703e+00 -1.378255963325500488e+00 1.632475256919860840e+00 7.141520380973815918e-01
3.593000000000000000e+03 1.791146469116210938e+01 -6.629445075988769531e+00 7.321702957153320312e+00 -1.140733838081359863e+00 1.854290723800659180e+00 2.221486568450927734e+00
3.594000000000000000e+03 1.780120849609375000e+01 -7.183800220489501953e+00 6.329902172088623047e+00 -9.588311314582824707e-01 1.611321330070495605e+00 3.142481088638305664e+00
3.595000000000000000e+03 6.500421905517578125e+01 -3.410219192504882812e+00 -5.338883996009826660e-01 3.143649101257324219e+00 7.829281687736511230e-01 -3.891091823577880859e+00
3.596000000000000000e+03 1.651302719116210938e+01 1.854120063781738281e+01 -5.103931576013565063e-02 5.505478978157043457e-01 1.498525738716125488e-01 4.649978876113891602e-01
3.597000000000000000e+03 2.168049812316894531e+01 -4.280648231506347656e+00 2.776402711868286133e+00 6.849445819854736328e+00 2.887754678726196289e+00 3.768132448196411133e+00
3.598000000000000000e+03 2.111655807495117188e+01 -2.944064855575561523e+00 1.560099124908447266e-01 5.201519966125488281e+00 1.607258915901184082e+00 1.098623752593994141e+00
3.599000000000000000e+03 2.020749664306640625e+01 -2.480737209320068359e+00 1.118866354227066040e-02 3.353326082229614258e+00 1.009354472160339355e+00 -1.842142343521118164e-01
3.600000000000000000e+03 1.991789436340332031e+01 -2.244632244110107422e+00 9.830911457538604736e-02 2.676880836486816406e+00 8.325570225715637207e-01 -3.300877213478088379e-01
3.601000000000000000e+03 1.972626304626464844e+01 -2.265071630477905273e+00 1.081221550703048706e-01 2.356852293014526367e+00 7.394922971725463867e-01 -4.414723217487335205e-01
3.602000000000000000e+03 1.964907646179199219e+01 -2.018991708755493164e+00 1.320966929197311401e-01 2.262391090393066406e+00 7.183463573455810547e-01 -4.077231585979461670e-01
3.603000000000000000e+03 1.932207298278808594e+01 -2.377128839492797852e+00 1.745616644620895386e-01 1.647711515426635742e+00 5.466819405555725098e-01 -5.154034495353698730e-01
3.604000000000000000e+03 1.930715942382812500e+01 -2.093791723251342773e+00 2.214660197496414185e-01 1.618784189224243164e+00 5.520750880241394043e-01 -4.423804879188537598e-01
3.605000000000000000e+03 1.947272300720214844e+01 -2.200387001037597656e+00 1.683972179889678955e-01 1.976959586143493652e+00 6.436070203781127930e-01 -4.100454747676849365e-01
3.606000000000000000e+03 2.501621246337890625e+01 1.688027572631835938e+01 -4.023062586784362793e-01 6.480002999305725098e-01 7.370822131633758545e-02 5.106676369905471802e-02
3.607000000000000000e+03 2.092735862731933594e+01 -7.874676704406738281e+00 4.019549846649169922e+00 6.984584808349609375e+00 3.301240444183349609e+00 3.856318593025207520e-01
3.608000000000000000e+03 2.108048820495605469e+01 -8.287214279174804688e+00 2.955260276794433594e+00 5.948336601257324219e+00 2.671079158782958984e+00 2.406712919473648071e-01
3.609000000000000000e+03 2.177572250366210938e+01 -7.816995620727539062e+00 4.658866405487060547e+00 5.252245903015136719e+00 2.973333835601806641e+00 -8.244965076446533203e-01
3.610000000000000000e+03 2.142737197875976562e+01 -8.246905326843261719e+00 3.176288366317749023e+00 5.508348941802978516e+00 2.605391025543212891e+00 -2.919474840164184570e-01
3.611000000000000000e+03 2.186429405212402344e+01 -7.572605133056640625e+00 5.844205379486083984e+00 5.259922981262207031e+00 3.331238508224487305e+00 -9.387204051017761230e-01
3.612000000000000000e+03 2.221714782714843750e+01 -7.243463039398193359e+00 6.567045211791992188e+00 4.148511886596679688e+00 3.214667081832885742e+00 -7.436180710792541504e-01
3.613000000000000000e+03 2.244048118591308594e+01 -6.536424160003662109e+00 8.057577133178710938e+00 3.407052516937255859e+00 3.439388990402221680e+00 4.452947378158569336e-01
3.614000000000000000e+03 2.214919090270996094e+01 -6.466492176055908203e+00 8.843785285949707031e+00 3.960437536239624023e+00 3.841266870498657227e+00 5.351468920707702637e-01
3.615000000000000000e+03 2.234852409362792969e+01 -6.299986362457275391e+00 8.622272491455078125e+00 3.548688173294067383e+00 3.651288270950317383e+00 1.007887125015258789e+00
3.616000000000000000e+03 2.250230216979980469e+01 -5.495124816894531250e+00 7.549287796020507812e+00 3.674861192703247070e+00 3.367244720458984375e+00 3.059801340103149414e+00
3.617000000000000000e+03 2.239674949645996094e+01 -4.713930606842041016e+00 5.111801624298095703e+00 4.776459217071533203e+00 2.966478109359741211e+00 3.994260311126708984e+00
3.618000000000000000e+03 2.238549995422363281e+01 -4.393319129943847656e+00 4.095601081848144531e+00 5.021848201751708984e+00 2.735234737396240234e+00 3.909837722778320312e+00
3.619000000000000000e+03 2.200971412658691406e+01 -4.164646625518798828e+00 2.921463966369628906e+00 5.986302852630615234e+00 2.672330141067504883e+00 3.735101222991943359e+00
3.620000000000000000e+03 1.701347732543945312e+01 -6.407858848571777344e+00 5.542829036712646484e+00 -1.739724516868591309e+00 1.140931248664855957e+00 1.539299845695495605e+00
3.621000000000000000e+03 2.874483108520507812e+01 -3.471696472167968750e+01 -2.163478732109069824e-01 2.460267394781112671e-02 -5.752356350421905518e-02 1.605732738971710205e-02
3.622000000000000000e+03 7.580962371826171875e+01 3.678079986572265625e+01 1.066417992115020752e-02 5.744110584259033203e+00 1.726432442665100098e+00 -6.823109835386276245e-02
3.623000000000000000e+03 2.463867425918579102e+00 3.681744003295898438e+01 1.067248918116092682e-02 -6.707453131675720215e-01 -1.980218440294265747e-01 -3.535085823386907578e-03
3.624000000000000000e+03 2.229088592529296875e+01 -3.208401107788085938e+01 -1.824279427528381348e-01 4.260727465152740479e-01 7.309344410896301270e-02 -1.380266994237899780e-01
3.625000000000000000e+03 1.427891445159912109e+01 -5.384604454040527344e+00 2.040898799896240234e+00 -1.128596901893615723e+00 2.736906111240386963e-01 1.594204783439636230e+00
3.626000000000000000e+03 7.039077758789062500e+01 -4.300769805908203125e+00 -1.640136480331420898e+00 1.118849086761474609e+01 2.864506244659423828e+00 -6.351106166839599609e-01
3.627000000000000000e+03 4.552136230468750000e+01 3.050126552581787109e+00 5.943371653556823730e-01 1.824608892202377319e-01 2.330394089221954346e-01 1.199465468525886536e-01
3.628000000000000000e+03 2.928641700744628906e+01 1.449939537048339844e+01 -7.639971375465393066e-02 1.665109395980834961e+00 4.766128957271575928e-01 7.751026749610900879e-01
3.629000000000000000e+03 4.331911849975585938e+01 2.400372886657714844e+01 5.500968694686889648e-01 1.643265247344970703e+00 6.580086350440979004e-01 5.743079781532287598e-01
3.630000000000000000e+03 2.499533653259277344e+01 3.246666717529296875e+01 2.392938435077667236e-01 6.801619529724121094e-01 2.758367359638214111e-01 1.422618329524993896e-01
3.631000000000000000e+03 1.986666488647460938e+01 -1.940128684043884277e+00 7.043135911226272583e-02 2.394119977951049805e+00 7.393653988838195801e-01 -2.999350130558013916e-01
3.632000000000000000e+03 1.952306747436523438e+01 -1.689040780067443848e+00 1.007003486156463623e-01 1.915436148643493652e+00 6.048409342765808105e-01 -3.311059474945068359e-01
3.633000000000000000e+03 1.985806083679199219e+01 -1.597018361091613770e+00 2.779816277325153351e-02 2.234815359115600586e+00 6.787840723991394043e-01 -1.995187699794769287e-01
3.634000000000000000e+03 2.008043861389160156e+01 -1.850535154342651367e+00 1.561853755265474319e-02 2.654822111129760742e+00 8.011321425437927246e-01 -7.861170917749404907e-02
3.635000000000000000e+03 2.035687828063964844e+01 -1.687124013900756836e+00 -2.898702584207057953e-02 2.967789649963378906e+00 8.816407322883605957e-01 9.041433036327362061e-02
3.636000000000000000e+03 1.849819374084472656e+01 -8.300547599792480469e+00 4.121952056884765625e+00 1.397876262664794922e+00 1.655948400497436523e+00 4.106274127960205078e+00
3.637000000000000000e+03 1.904484748840332031e+01 -7.848251342773437500e+00 5.082526206970214844e+00 2.994184017181396484e+00 2.423013210296630859e+00 4.269534587860107422e+00
3.638000000000000000e+03 3.626631927490234375e+01 2.237308883666992188e+01 3.307755887508392334e-01 1.574237823486328125e+00 5.715039968490600586e-01 4.384131431579589844e-01
3.639000000000000000e+03 4.142329788208007812e+01 5.366671562194824219e+00 5.284833312034606934e-01 6.400420665740966797e-01 3.505576252937316895e-01 2.334740757942199707e-01
3.640000000000000000e+03 1.949802017211914062e+01 -8.565140724182128906e+00 2.669050216674804688e+00 3.949415683746337891e+00 1.985539793968200684e+00 3.304984092712402344e+00
3.641000000000000000e+03 2.275031089782714844e+01 -6.480669498443603516e+00 7.519864082336425781e+00 2.913201093673706055e+00 3.129919528961181641e+00 5.858294367790222168e-01
3.642000000000000000e+03 2.295159149169921875e+01 -6.138376235961914062e+00 7.216757297515869141e+00 2.643801450729370117e+00 2.958167791366577148e+00 1.367965817451477051e+00
3.643000000000000000e+03 2.162730407714843750e+01 -3.175192117691040039e+00 6.905277967453002930e-01 5.523498535156250000e+00 1.864207863807678223e+00 2.055874347686767578e+00
3.644000000000000000e+03 1.603889465332031250e+01 -6.721899032592773438e+00 4.209219932556152344e+00 -1.955081701278686523e+00 6.762415170669555664e-01 2.128554821014404297e+00
3.645000000000000000e+03 1.404141616821289062e+01 -6.046547889709472656e+00 2.125745773315429688e+00 -1.095693826675415039e+00 3.090155720710754395e-01 2.220908403396606445e+00
3.646000000000000000e+03 2.846500635147094727e+00 -1.341753387451171875e+01 1.038151741027832031e+00 -2.168620347976684570e+00 -3.391405642032623291e-01 -2.345671355724334717e-01
3.647000000000000000e+03 6.575174331665039062e+00 -4.951310157775878906e+00 -9.386225938796997070e-01 1.167523860931396484e+00 6.867039203643798828e-02 -6.458442211151123047e-01
3.648000000000000000e+03 2.498399162292480469e+01 -3.269239425659179688e+01 -2.077098339796066284e-01 1.333370506763458252e-01 -2.231183834373950958e-02 -2.800584957003593445e-02
3.649000000000000000e+03 2.380210304260253906e+01 -3.221890258789062500e+01 -1.807340383529663086e-01 2.088043391704559326e-01 8.421088568866252899e-03 -6.084283441305160522e-02
3.650000000000000000e+03 2.407699966430664062e+01 -3.359688568115234375e+01 -1.785866469144821167e-01 2.321957200765609741e-01 1.608272269368171692e-02 -8.139062672853469849e-02
3.651000000000000000e+03 4.933465957641601562e+00 -4.577041625976562500e+00 -6.546297073364257812e-01 3.766613900661468506e-01 -8.339049667119979858e-02 -1.078941464424133301e+00
3.652000000000000000e+03 1.733736419677734375e+01 -7.953231334686279297e+00 4.557668685913085938e+00 -1.195121169090270996e+00 1.008764266967773438e+00 3.626041889190673828e+00
3.653000000000000000e+03 1.815459060668945312e+01 -8.132111549377441406e+00 4.660171031951904297e+00 6.337831020355224609e-01 1.588186264038085938e+00 4.091572761535644531e+00
3.654000000000000000e+03 1.828892517089843750e+01 -8.748195648193359375e+00 2.739120006561279297e+00 6.505183577537536621e-01 1.016891598701477051e+00 3.865987777709960938e+00
3.655000000000000000e+03 1.000624084472656250e+01 8.642608642578125000e+00 2.090601623058319092e-01 2.978976070880889893e-01 1.520873308181762695e-01 2.402278035879135132e-01
3.656000000000000000e+03 1.574717521667480469e+01 -7.308403015136718750e+00 3.735087633132934570e+00 -2.015498638153076172e+00 5.158766508102416992e-01 2.856543540954589844e+00
3.657000000000000000e+03 3.673896789550781250e+00 3.501954269409179688e+01 1.077504362910985947e-02 -5.567752718925476074e-01 -1.638000756502151489e-01 2.465109340846538544e-02
3.658000000000000000e+03 3.053957748413085938e+01 1.340096473693847656e+01 1.874580979347229004e-01 1.676444649696350098e+00 5.591708421707153320e-01 9.858670234680175781e-01
3.659000000000000000e+03 1.652375030517578125e+01 2.439950942993164062e+01 5.552866961807012558e-03 3.289069533348083496e-01 1.003379449248313904e-01 3.397606909275054932e-01
3.660000000000000000e+03 3.781786346435546875e+01 1.148728370666503906e+01 5.592064261436462402e-01 1.528701424598693848e+00 6.263723373413085938e-01 9.601349830627441406e-01
3.661000000000000000e+03 1.981211090087890625e+01 -8.781732559204101562e+00 1.702838897705078125e+00 4.204623699188232422e+00 1.772238850593566895e+00 2.613144397735595703e+00
3.662000000000000000e+03 2.044318962097167969e+01 -2.070672988891601562e+00 -4.467462375760078430e-02 3.342120409011840820e+00 9.892337322235107422e-01 1.253229826688766479e-01
3.663000000000000000e+03 3.427489280700683594e+00 3.308957815170288086e+00 -8.130700141191482544e-02 -9.272743761539459229e-02 -5.221033096313476562e-02 1.914501041173934937e-01
3.664000000000000000e+03 1.895801353454589844e+01 -1.047283458709716797e+01 -1.233213782310485840e+00 1.074419379234313965e+00 -4.763833805918693542e-02 2.900724649429321289e+00
3.665000000000000000e+03 5.715159988403320312e+01 -4.969150066375732422e+00 -1.477025866508483887e+00 -6.173769384622573853e-02 -4.616290628910064697e-01 -5.049900412559509277e-01
3.666000000000000000e+03 2.305051803588867188e+01 -6.385419368743896484e+00 6.967391967773437500e+00 2.490494489669799805e+00 2.837365865707397461e+00 8.857944607734680176e-01
3.667000000000000000e+03 2.154907798767089844e+01 -3.782306909561157227e+00 1.329708695411682129e+00 6.470800399780273438e+00 2.340152740478515625e+00 2.717881441116333008e+00
3.668000000000000000e+03 1.861223220825195312e+01 3.150032758712768555e-01 -2.438617683947086334e-02 7.957514524459838867e-01 2.314095795154571533e-01 -3.280145227909088135e-01
3.669000000000000000e+03 2.317893600463867188e+01 -5.615569591522216797e+00 6.486217021942138672e+00 2.604735612869262695e+00 2.727285861968994141e+00 2.296330690383911133e+00
3.670000000000000000e+03 2.278249549865722656e+01 -3.965133190155029297e+00 3.155860900878906250e+00 4.429141044616699219e+00 2.275500535964965820e+00 3.494045257568359375e+00
3.671000000000000000e+03 2.158078193664550781e+01 -2.422712326049804688e+00 2.216334193944931030e-01 4.529930114746093750e+00 1.425469040870666504e+00 1.424504160881042480e+00
3.672000000000000000e+03 2.114821434020996094e+01 -2.549896240234375000e+00 3.651827946305274963e-02 4.553641319274902344e+00 1.377047777175903320e+00 9.065682888031005859e-01
3.673000000000000000e+03 2.807129859924316406e+01 1.863617134094238281e+01 -1.134163513779640198e-01 1.164145112037658691e+00 3.152186572551727295e-01 2.906649112701416016e-01
3.674000000000000000e+03 1.998218536376953125e+01 -9.447786331176757812e+00 4.481299817562103271e-01 3.587011575698852539e+00 1.210542440414428711e+00 2.173822402954101562e+00
3.675000000000000000e+03 5.908729553222656250e+00 -4.593668460845947266e+00 -7.774010896682739258e-01 7.249579429626464844e-01 -1.573294959962368011e-02 -8.499097824096679688e-01
3.676000000000000000e+03 1.509503555297851562e+01 -6.271681308746337891e+00 3.124153375625610352e+00 -1.637039065361022949e+00 4.461342394351959229e-01 2.067180871963500977e+00
3.677000000000000000e+03 3.818354034423828125e+01 2.604759025573730469e+01 3.799299299716949463e-01 1.572637319564819336e+00 5.857701301574707031e-01 3.827197849750518799e-01
3.678000000000000000e+03 7.176869201660156250e+01 -1.832377243041992188e+01 -3.320069015026092529e-01 1.038952732086181641e+01 3.017256259918212891e+00 -1.087315917015075684e+00
3.679000000000000000e+03 1.600363922119140625e+01 2.177380943298339844e+01 -5.300512909889221191e-02 4.209522008895874023e-01 1.103841215372085571e-01 3.929605185985565186e-01
3.680000000000000000e+03 2.487290191650390625e+01 2.585327720642089844e+01 1.827872991561889648e-01 6.113716363906860352e-01 2.382476925849914551e-01 2.008891254663467407e-01
3.681000000000000000e+03 6.369826889038085938e+01 1.714939498901367188e+01 5.207146406173706055e-01 4.102929592132568359e+00 1.387093305587768555e+00 -7.696725130081176758e-01
3.682000000000000000e+03 2.185914993286132812e+01 -3.628097295761108398e+00 1.525661826133728027e+00 5.865040302276611328e+00 2.217210769653320312e+00 2.860045433044433594e+00
3.683000000000000000e+03 2.203204727172851562e+01 -3.216775894165039062e+00 1.145797133445739746e+00 5.253005504608154297e+00 1.919640898704528809e+00 2.549965620040893555e+00
3.684000000000000000e+03 1.967186164855957031e+01 -9.782575607299804688e+00 -7.990493625402450562e-02 2.849711894989013672e+00 8.309420943260192871e-01 2.402327060699462891e+00
3.685000000000000000e+03 1.456425094604492188e+01 -6.574492454528808594e+00 2.784155130386352539e+00 -1.560665130615234375e+00 3.670470118522644043e-01 2.388854980468750000e+00
3.686000000000000000e+03 2.111477088928222656e+01 -1.933064818382263184e+00 -2.575646154582500458e-02 3.847190380096435547e+00 1.146430134773254395e+00 7.423089146614074707e-01
3.687000000000000000e+03 5.150032043457031250e+01 -7.490111351013183594e+00 -1.576404571533203125e+00 -4.133791662752628326e-03 -4.741615056991577148e-01 -4.542076587677001953e-01
3.688000000000000000e+03 2.346814346313476562e+01 -6.492592811584472656e+00 6.084484100341796875e+00 2.023188114166259766e+00 2.432301759719848633e+00 6.897028088569641113e-01
3.689000000000000000e+03 2.381248855590820312e+01 -7.110656261444091797e+00 5.062858104705810547e+00 1.830403566360473633e+00 2.067978620529174805e+00 -1.324756145477294922e-01
3.690000000000000000e+03 7.289361572265625000e+01 -1.894646263122558594e+01 -4.829796850681304932e-01 9.891106605529785156e+00 2.822438001632690430e+00 -1.489324092864990234e+00
3.691000000000000000e+03 3.694654464721679688e+01 2.775181007385253906e+01 3.492935001850128174e-01 1.485071301460266113e+00 5.503094196319580078e-01 3.098207712173461914e-01
3.692000000000000000e+03 2.102863121032714844e+01 -1.111927127838134766e+01 -2.553251266479492188e+00 2.161857366561889648e+00 -1.174181327223777771e-01 9.180777668952941895e-01
3.693000000000000000e+03 5.845625305175781250e+01 3.267193555831909180e+00 4.124344587326049805e-01 1.462123632431030273e+00 5.623674392700195312e-01 -6.842865943908691406e-01
3.694000000000000000e+03 5.760381317138671875e+01 2.206183195114135742e+00 3.451637327671051025e-01 1.063374519348144531e+00 4.225614666938781738e-01 -5.262558460235595703e-01
3.695000000000000000e+03 1.239133262634277344e+01 -6.244957923889160156e+00 9.890383481979370117e-01 -6.067785993218421936e-02 2.785081565380096436e-01 2.369042396545410156e+00
3.696000000000000000e+03 2.339806938171386719e+01 -5.346557140350341797e+00 5.959626197814941406e+00 2.602427244186401367e+00 2.568616151809692383e+00 2.610071897506713867e+00
3.697000000000000000e+03 2.345636940002441406e+01 -5.530822753906250000e+00 5.931085109710693359e+00 2.393776893615722656e+00 2.497458696365356445e+00 2.222991943359375000e+00
3.698000000000000000e+03 2.348526191711425781e+01 -5.154477596282958984e+00 5.470565319061279297e+00 2.588828325271606445e+00 2.417818069458007812e+00 2.690275669097900391e+00
3.699000000000000000e+03 2.309800529479980469e+01 -4.560931205749511719e+00 4.535323143005371094e+00 3.580125093460083008e+00 2.434634447097778320e+00 3.400201797485351562e+00
3.700000000000000000e+03 2.350813674926757812e+01 -4.720510959625244141e+00 4.761129379272460938e+00 2.883746623992919922e+00 2.293462753295898438e+00 3.028963327407836914e+00
3.701000000000000000e+03 2.334743690490722656e+01 -3.957466363906860352e+00 3.336910486221313477e+00 3.577929496765136719e+00 2.074451923370361328e+00 3.275910377502441406e+00
3.702000000000000000e+03 7.655542373657226562e+00 -4.839151859283447266e+00 -9.398564696311950684e-01 1.280612230300903320e+00 1.022267118096351624e-01 -1.126875355839729309e-01
3.703000000000000000e+03 7.895423889160156250e+00 -5.421093940734863281e+00 -9.077335596084594727e-01 1.659547209739685059e+00 2.255440801382064819e-01 -6.393707543611526489e-02
3.704000000000000000e+03 2.304202651977539062e+01 -3.014087438583374023e+00 1.710439205169677734e+00 4.087610244750976562e+00 1.739414811134338379e+00 2.887585163116455078e+00
3.705000000000000000e+03 2.250291252136230469e+01 -3.158635139465332031e+00 1.525683522224426270e+00 4.746533393859863281e+00 1.881665110588073730e+00 2.850926637649536133e+00
3.706000000000000000e+03 2.105791282653808594e+01 -2.305824041366577148e+00 -3.181130159646272659e-03 4.236996173858642578e+00 1.270144462585449219e+00 7.486646175384521484e-01
3.707000000000000000e+03 2.187086868286132812e+01 -2.506887912750244141e+00 4.297075569629669189e-01 4.639773845672607422e+00 1.520844459533691406e+00 1.801653265953063965e+00
3.708000000000000000e+03 6.021471405029296875e+01 5.992450714111328125e+00 3.988904058933258057e-01 2.532954692840576172e+00 8.795535564422607422e-01 -9.802710413932800293e-01
3.709000000000000000e+03 1.518212795257568359e+01 -6.781970500946044922e+00 3.249565362930297852e+00 -1.781450867652893066e+00 4.404343366622924805e-01 2.512236833572387695e+00
3.710000000000000000e+03 1.473484611511230469e+01 -6.892545223236083984e+00 2.834755420684814453e+00 -1.618186831474304199e+00 3.649705648422241211e-01 2.719105005264282227e+00
3.711000000000000000e+03 7.559565734863281250e+01 -1.660976600646972656e+01 1.663637161254882812e-01 8.879446983337402344e+00 2.713743209838867188e+00 -1.599033236503601074e+00
3.712000000000000000e+03 3.477250671386718750e+01 2.415068626403808594e+01 2.729071676731109619e-01 1.432584285736083984e+00 5.116474032402038574e-01 3.439236879348754883e-01
3.713000000000000000e+03 3.353488922119140625e+01 2.299886131286621094e+01 2.226959615945816040e-01 1.395043492317199707e+00 4.853218197822570801e-01 3.488864302635192871e-01
3.714000000000000000e+03 9.240400314331054688e+00 -3.022662544250488281e+01 -5.371769070625305176e-01 1.826958775520324707e+00 3.869345784187316895e-01 3.409346640110015869e-01
3.715000000000000000e+03 5.305238723754882812e+00 3.024619674682617188e+01 -9.801574982702732086e-03 -3.924022614955902100e-01 -1.206611543893814087e-01 3.841445967555046082e-02
3.716000000000000000e+03 3.630281066894531250e+01 -1.273136329650878906e+01 -1.662021160125732422e+00 2.055395990610122681e-01 -4.369444847106933594e-01 -6.118600964546203613e-01
3.717000000000000000e+03 2.632310485839843750e+01 -1.236096954345703125e+01 -2.386184930801391602e+00 9.119321107864379883e-01 -4.422758221626281738e-01 -8.108264207839965820e-01
3.718000000000000000e+03 2.228227996826171875e+01 -2.975783586502075195e+00 1.121253490447998047e+00 4.797277927398681641e+00 1.775559425354003906e+00 2.538754463195800781e+00
3.719000000000000000e+03 2.277587318420410156e+01 6.007818579673767090e-01 -1.152261346578598022e-01 2.672225236892700195e+00 7.670997381210327148e-01 1.512708306312561035e+00
3.720000000000000000e+03 5.429429626464843750e+01 -7.783017754554748535e-01 -1.397413015365600586e-01 2.682215869426727295e-01 3.854408860206604004e-02 -1.400602012872695923e-01
3.721000000000000000e+03 3.151606559753417969e+01 2.123781013488769531e+01 1.402637511491775513e-01 1.360845685005187988e+00 4.503328204154968262e-01 3.718801736831665039e-01
3.722000000000000000e+03 6.095586776733398438e+01 2.398537826538085938e+01 4.298494756221771240e-01 3.681705713272094727e+00 1.233466625213623047e+00 -5.697274208068847656e-01
3.723000000000000000e+03 2.354395484924316406e+01 -3.587034702301025391e+00 2.822838544845581055e+00 3.554250955581665039e+00 1.913126826286315918e+00 3.176702976226806641e+00
3.724000000000000000e+03 2.300993728637695312e+01 2.163323462009429932e-01 -1.893646456301212311e-02 2.838668823242187500e+00 8.459197282791137695e-01 1.639716029167175293e+00
3.725000000000000000e+03 2.387092208862304688e+01 -6.574398517608642578e+00 5.434528350830078125e+00 1.698883056640625000e+00 2.140023469924926758e+00 5.774438381195068359e-01
3.726000000000000000e+03 2.181174468994140625e+01 -2.802429914474487305e+00 5.401388406753540039e-01 4.954532623291015625e+00 1.648401379585266113e+00 1.929429769515991211e+00
3.727000000000000000e+03 6.328888320922851562e+01 3.152114391326904297e+00 1.078511774539947510e-01 3.234045028686523438e+00 1.002568840980529785e+00 -1.732914924621582031e+00
3.728000000000000000e+03 2.413746261596679688e+01 1.915781497955322266e-01 1.800158470869064331e-01 2.816387414932250977e+00 8.989210128784179688e-01 1.944636702537536621e+00
3.729000000000000000e+03 2.365296745300292969e+01 -1.377712190151214600e-01 2.014000713825225830e-01 2.969460725784301758e+00 9.512582421302795410e-01 1.922140598297119141e+00
3.730000000000000000e+03 1.447757625579833984e+01 -7.255477428436279297e+00 2.759268999099731445e+00 -1.705185890197753906e+00 3.162249624729156494e-01 3.042700290679931641e+00
3.731000000000000000e+03 3.436907958984375000e+01 1.151249885559082031e+01 5.581254363059997559e-01 1.499655008316040039e+00 6.173341274261474609e-01 1.083357572555541992e+00
3.732000000000000000e+03 2.253409194946289062e+01 -3.471469879150390625e-01 1.374614890664815903e-02 2.977917909622192383e+00 8.974992036819458008e-01 1.515456557273864746e+00
3.733000000000000000e+03 6.815859985351562500e+01 2.475888824462890625e+01 2.364965826272964478e-01 4.898154735565185547e+00 1.540395379066467285e+00 -5.038315057754516602e-01
3.734000000000000000e+03 5.317063903808593750e+01 -4.737384319305419922e+00 -1.068633437156677246e+00 5.663425102829933167e-02 -3.035997450351715088e-01 -2.347216010093688965e-01
3.735000000000000000e+03 6.458869934082031250e+01 5.534858703613281250e+00 5.786357447504997253e-02 4.108383178710937500e+00 1.249873995780944824e+00 -1.561390399932861328e+00
3.736000000000000000e+03 6.384820556640625000e+01 7.151498317718505859e+00 2.148501873016357422e-01 3.888617515563964844e+00 1.231040239334106445e+00 -1.375676155090332031e+00
3.737000000000000000e+03 2.206162452697753906e+01 -2.837594509124755859e+00 7.803484201431274414e-01 4.839349269866943359e+00 1.685909271240234375e+00 2.222544431686401367e+00
3.738000000000000000e+03 2.228327369689941406e+01 -2.253883838653564453e+00 5.368312597274780273e-01 4.305629730224609375e+00 1.452738285064697266e+00 2.014899730682373047e+00
3.739000000000000000e+03 2.288509941101074219e+01 -1.088998699188232422e+01 -1.554206132888793945e+00 2.186220169067382812e+00 1.896042078733444214e-01 -6.047471165657043457e-01
3.740000000000000000e+03 2.402144622802734375e+01 -6.212562561035156250e+00 5.358603000640869141e+00 1.633594751358032227e+00 2.097659349441528320e+00 1.044562816619873047e+00
3.741000000000000000e+03 4.268694305419921875e+01 -2.299561500549316406e+00 6.002997979521751404e-02 1.562628895044326782e-01 6.488785892724990845e-02 5.902294442057609558e-02
3.742000000000000000e+03 3.714458847045898438e+01 -1.155352210998535156e+01 -1.345846176147460938e+00 1.712335348129272461e-01 -3.523837924003601074e-01 -5.910932421684265137e-01
3.743000000000000000e+03 2.695683097839355469e+01 -1.106144714355468750e+01 -9.847229123115539551e-01 8.043894171714782715e-01 -5.410005152225494385e-02 -1.054938793182373047e+00
3.744000000000000000e+03 2.633831024169921875e+01 -1.091826629638671875e+01 -9.192340373992919922e-01 9.464813470840454102e-01 8.174199610948562622e-03 -1.107461571693420410e+00
3.745000000000000000e+03 2.268420028686523438e+01 -1.011350345611572266e+01 -3.737334012985229492e-01 2.652438163757324219e+00 6.836113929748535156e-01 -7.568481564521789551e-01
3.746000000000000000e+03 2.359358406066894531e+01 -5.344678401947021484e+00 5.515347003936767578e+00 2.351852178573608398e+00 2.360159873962402344e+00 2.397489786148071289e+00
3.747000000000000000e+03 2.228065681457519531e+01 -1.688910722732543945e+00 3.108478486537933350e-01 3.888822078704833984e+00 1.259900927543640137e+00 1.750072598457336426e+00
3.748000000000000000e+03 8.487340927124023438e+00 1.277725505828857422e+01 2.370328605175018311e-01 1.126056239008903503e-01 1.048915460705757141e-01 1.253824532032012939e-01
3.749000000000000000e+03 6.509386539459228516e+00 1.450437164306640625e+01 1.353446245193481445e-01 -1.185885518789291382e-01 5.026822444051504135e-03 6.705425679683685303e-02
3.750000000000000000e+03 2.247391128540039062e+01 -2.670051336288452148e+00 9.590557813644409180e-01 4.441807746887207031e+00 1.620259046554565430e+00 2.410735368728637695e+00
3.751000000000000000e+03 6.964974212646484375e+01 1.432167625427246094e+01 2.087704837322235107e-01 5.426739215850830078e+00 1.690652966499328613e+00 -8.444952964782714844e-01
3.752000000000000000e+03 7.487784576416015625e+01 -1.232349872589111328e+00 -6.583544015884399414e-01 8.532365798950195312e+00 2.362203359603881836e+00 6.436154842376708984e-01
3.753000000000000000e+03 7.468938446044921875e+01 8.784726262092590332e-03 -7.582376003265380859e-01 8.444934844970703125e+00 2.306009292602539062e+00 4.231313765048980713e-01
3.754000000000000000e+03 2.448677253723144531e+01 -6.305867195129394531e+00 4.831661224365234375e+00 1.361935019493103027e+00 1.858078956604003906e+00 8.501392602920532227e-01
3.755000000000000000e+03 1.515787506103515625e+01 2.600573539733886719e+01 5.278491415083408356e-03 2.667441666126251221e-01 8.160679787397384644e-02 2.651405632495880127e-01
3.756000000000000000e+03 2.250841331481933594e+01 -2.029655933380126953e+00 5.521277189254760742e-01 4.072092533111572266e+00 1.387266039848327637e+00 2.068619489669799805e+00
3.757000000000000000e+03 2.464084625244140625e+01 -7.905847072601318359e+00 3.247087717056274414e+00 1.317381858825683594e+00 1.369340896606445312e+00 -6.230927705764770508e-01
3.758000000000000000e+03 2.386187362670898438e+01 -5.435197830200195312e+00 5.318974494934082031e+00 2.055027723312377930e+00 2.212200641632080078e+00 2.107128143310546875e+00
3.759000000000000000e+03 7.235081195831298828e+00 -2.682626342773437500e+01 -6.183340549468994141e-01 1.983847737312316895e+00 4.096541106700897217e-01 7.425220608711242676e-01
3.760000000000000000e+03 7.120580291748046875e+01 -2.580700683593750000e+01 -9.019775986671447754e-01 8.304680824279785156e+00 2.220810890197753906e+00 -2.988429963588714600e-01
3.761000000000000000e+03 7.277622222900390625e+01 -2.487107276916503906e+01 -7.976334095001220703e-01 8.924263000488281250e+00 2.437988996505737305e+00 -6.716247200965881348e-01
3.762000000000000000e+03 5.740266799926757812e+01 -1.122494935989379883e+00 -1.759230345487594604e-01 4.278316795825958252e-01 7.557259500026702881e-02 -4.637606739997863770e-01
3.763000000000000000e+03 2.395525550842285156e+01 -4.215104103088378906e+00 3.749346971511840820e+00 2.750514030456542969e+00 1.949958324432373047e+00 2.946070194244384766e+00
3.764000000000000000e+03 2.172248649597167969e+01 -2.109954833984375000e+00 2.008789330720901489e-01 4.193643093109130859e+00 1.318356513977050781e+00 1.420672535896301270e+00
3.765000000000000000e+03 2.270010375976562500e+01 -1.516956925392150879e+00 3.931015729904174805e-01 3.638030052185058594e+00 1.209339499473571777e+00 1.937003970146179199e+00
3.766000000000000000e+03 2.435403633117675781e+01 -5.280615806579589844e+00 4.696384906768798828e+00 1.785374999046325684e+00 1.944527864456176758e+00 2.003597021102905273e+00
3.767000000000000000e+03 2.390638923645019531e+01 -3.777571201324462891e+00 3.083429098129272461e+00 2.991627931594848633e+00 1.822517037391662598e+00 3.012187004089355469e+00
3.768000000000000000e+03 2.297779846191406250e+01 -2.368215560913085938e+00 1.053766727447509766e+00 3.958759069442749023e+00 1.503757715225219727e+00 2.504738807678222656e+00
3.769000000000000000e+03 2.575744628906250000e+01 -1.087338161468505859e+01 -9.589594006538391113e-01 1.094457387924194336e+00 4.064938053488731384e-02 -1.084869980812072754e+00
3.770000000000000000e+03 2.639677238464355469e+01 -1.033282566070556641e+01 -2.110177278518676758e-01 8.848506808280944824e-01 2.021498829126358032e-01 -1.115734696388244629e+00
3.771000000000000000e+03 6.828065490722656250e+01 4.918650984764099121e-01 -1.025990486145019531e+00 6.669942378997802734e+00 1.693185567855834961e+00 -1.960882544517517090e+00
3.772000000000000000e+03 7.135340118408203125e+01 1.483899784088134766e+01 1.490835696458816528e-01 5.813627243041992188e+00 1.788813352584838867e+00 -7.448800206184387207e-01
3.773000000000000000e+03 2.501581382751464844e+01 -6.461480140686035156e+00 4.194376468658447266e+00 1.079455137252807617e+00 1.582149505615234375e+00 6.322095394134521484e-01
3.774000000000000000e+03 2.478003311157226562e+01 -5.202653884887695312e+00 4.227517127990722656e+00 1.565259695053100586e+00 1.737833142280578613e+00 1.880517721176147461e+00
3.775000000000000000e+03 2.298184776306152344e+01 -9.775337576866149902e-01 2.874820530414581299e-01 3.303602695465087891e+00 1.077325463294982910e+00 1.899437904357910156e+00
3.776000000000000000e+03 2.281789588928222656e+01 -6.071643233299255371e-01 1.391914784908294678e-01 3.218281984329223633e+00 1.007241964340209961e+00 1.752943754196166992e+00
3.777000000000000000e+03 6.347504806518554688e+01 5.981704711914062500e+00 2.069474011659622192e-01 3.650419235229492188e+00 1.157209992408752441e+00 -1.453525424003601074e+00
3.778000000000000000e+03 2.713963508605957031e+01 -2.234109401702880859e+00 1.626263380050659180e+00 1.670331954956054688e+00 9.889785647392272949e-01 1.969100952148437500e+00
3.779000000000000000e+03 6.496495056152343750e+01 2.354235076904296875e+01 3.337530493736267090e-01 4.416013240814208984e+00 1.424929976463317871e+00 -5.752934813499450684e-01
3.780000000000000000e+03 2.445460891723632812e+01 -4.089992523193359375e+00 3.399041414260864258e+00 2.356286764144897461e+00 1.726598381996154785e+00 2.678712129592895508e+00
3.781000000000000000e+03 2.291468429565429688e+01 -1.924310088157653809e+00 7.090600728988647461e-01 3.801204681396484375e+00 1.353079438209533691e+00 2.246713399887084961e+00
3.782000000000000000e+03 2.331531143188476562e+01 -1.753913998603820801e+00 7.752323746681213379e-01 3.564217090606689453e+00 1.301834821701049805e+00 2.334137439727783203e+00
3.783000000000000000e+03 2.361959648132324219e+01 -3.836134195327758789e+00 3.178392410278320312e+00 3.376461744308471680e+00 1.966456294059753418e+00 3.178563833236694336e+00
3.784000000000000000e+03 4.756965637207031250e+00 6.349144458770751953e+00 3.291853936389088631e-03 -1.693942546844482422e-01 -4.983072355389595032e-02 2.837219834327697754e-01
3.785000000000000000e+03 2.445622253417968750e+01 -5.896680831909179688e+00 4.848622798919677734e+00 1.486873149871826172e+00 1.900648713111877441e+00 1.360031604766845703e+00
3.786000000000000000e+03 2.502587127685546875e+01 -5.025800228118896484e+00 3.957485198974609375e+00 1.503810167312622070e+00 1.638388633728027344e+00 1.900895833969116211e+00
3.787000000000000000e+03 2.484216690063476562e+01 -4.758627891540527344e+00 3.876392841339111328e+00 1.754861235618591309e+00 1.689376235008239746e+00 2.188596248626708984e+00
3.788000000000000000e+03 3.995913696289062500e+01 -3.743675231933593750e+00 4.508851841092109680e-02 1.823286563158035278e-01 6.822515279054641724e-02 2.936384826898574829e-02
3.789000000000000000e+03 6.765247344970703125e+00 1.163502311706542969e+01 1.788938790559768677e-01 -8.825228363275527954e-02 2.719247899949550629e-02 1.740335673093795776e-01
3.790000000000000000e+03 2.504018020629882812e+01 -6.161978721618652344e+00 4.265491008758544922e+00 1.117866754531860352e+00 1.615007281303405762e+00 9.139900803565979004e-01
3.791000000000000000e+03 6.693671417236328125e+01 2.502162933349609375e+01 2.724137604236602783e-01 4.680436134338378906e+00 1.485854983329772949e+00 -5.126215815544128418e-01
3.792000000000000000e+03 2.487575721740722656e+01 -5.728310108184814453e+00 4.348955154418945312e+00 1.295767664909362793e+00 1.693416833877563477e+00 1.372620582580566406e+00
3.793000000000000000e+03 2.387037467956542969e+01 -3.478614568710327148e+00 2.712178945541381836e+00 3.130687952041625977e+00 1.752860069274902344e+00 2.988755941390991211e+00
3.794000000000000000e+03 2.561690139770507812e+01 -7.376075267791748047e+00 3.167632818222045898e+00 8.605945110321044922e-01 1.208468198776245117e+00 -1.840545088052749634e-01
3.795000000000000000e+03 8.536993980407714844e+00 5.950987339019775391e+00 -1.158966310322284698e-02 5.573019385337829590e-02 1.324215903878211975e-02 3.057869672775268555e-01
3.796000000000000000e+03 2.518916893005371094e+01 -3.520730495452880859e+00 2.779579639434814453e+00 2.127128362655639648e+00 1.472012400627136230e+00 2.546748638153076172e+00
3.797000000000000000e+03 2.751611518859863281e+01 -2.975875616073608398e+00 1.913356781005859375e+00 1.318519830703735352e+00 9.695630073547363281e-01 1.751285076141357422e+00
3.798000000000000000e+03 2.351737022399902344e+01 -1.249398350715637207e+00 5.865496993064880371e-01 3.290321350097656250e+00 1.163061261177062988e+00 2.202951669692993164e+00
3.799000000000000000e+03 2.490714836120605469e+01 -5.433784961700439453e+00 4.257149696350097656e+00 1.362610340118408203e+00 1.685927987098693848e+00 1.577942728996276855e+00
3.800000000000000000e+03 2.518960380554199219e+01 -5.301066875457763672e+00 3.988591194152832031e+00 1.294716477394104004e+00 1.584992289543151855e+00 1.592990279197692871e+00
3.801000000000000000e+03 2.381458854675292969e+01 -1.042129874229431152e+00 5.916284322738647461e-01 3.121216773986816406e+00 1.113853573799133301e+00 2.191107988357543945e+00
3.802000000000000000e+03 2.583454513549804688e+01 -7.835752010345458984e+00 2.673427104949951172e+00 8.491736650466918945e-01 1.056780219078063965e+00 -4.445620477199554443e-01
3.803000000000000000e+03 3.681878662109375000e+01 -8.464598655700683594e+00 -5.241289734840393066e-01 1.324495673179626465e-01 -1.175038143992424011e-01 -4.019364714622497559e-01
3.804000000000000000e+03 2.789202690124511719e+01 -2.071738243103027344e+00 1.537446856498718262e+00 1.481193304061889648e+00 9.055920243263244629e-01 1.772787928581237793e+00
3.805000000000000000e+03 4.005034255981445312e+01 -5.165500640869140625e+00 -1.747987717390060425e-01 1.462763398885726929e-01 -8.556729182600975037e-03 -1.000813096761703491e-01
3.806000000000000000e+03 3.269251632690429688e+01 -2.670327425003051758e+00 9.729575514793395996e-01 5.851975679397583008e-01 4.674465656280517578e-01 6.982632875442504883e-01
3.807000000000000000e+03 7.256537628173828125e+01 4.807614326477050781e+00 -4.877460002899169922e-01 7.150236606597900391e+00 1.998747229576110840e+00 -7.049199938774108887e-01
3.808000000000000000e+03 3.603448486328125000e+01 2.506802976131439209e-01 6.691428422927856445e-01 6.060060262680053711e-01 3.825446665287017822e-01 5.915462970733642578e-01
3.809000000000000000e+03 3.530942535400390625e+01 -1.459088563919067383e+00 6.751367449760437012e-01 5.198828577995300293e-01 3.585058748722076416e-01 5.298306941986083984e-01
3.810000000000000000e+03 4.239513397216796875e+01 -6.150941371917724609e+00 -5.538565516471862793e-01 1.058398410677909851e-01 -1.344050168991088867e-01 -2.153277397155761719e-01
3.811000000000000000e+03 3.656306457519531250e+01 -5.334416389465332031e+00 1.829056143760681152e-01 1.860459744930267334e-01 1.106854751706123352e-01 -2.149820700287818909e-02
3.812000000000000000e+03 2.366735649108886719e+01 -1.976706981658935547e+00 1.053477168083190918e+00 3.405524492263793945e+00 1.337700486183166504e+00 2.489065408706665039e+00
3.813000000000000000e+03 2.370608139038085938e+01 -1.587351441383361816e+00 8.355737924575805664e-01 3.282324314117431641e+00 1.235369443893432617e+00 2.344030618667602539e+00
3.814000000000000000e+03 2.590716361999511719e+01 -2.377171277999877930e+00 1.778364777565002441e+00 2.089058637619018555e+00 1.160227060317993164e+00 2.291463851928710938e+00
3.815000000000000000e+03 2.541388320922851562e+01 -5.534640312194824219e+00 3.896294593811035156e+00 1.135634541511535645e+00 1.509578704833984375e+00 1.369987249374389648e+00
3.816000000000000000e+03 4.147945404052734375e+01 -5.475629329681396484e+00 -3.601935207843780518e-01 1.116810888051986694e-01 -7.455373555421829224e-02 -1.663546711206436157e-01
3.817000000000000000e+03 2.596785354614257812e+01 -7.505840301513671875e+00 2.798547267913818359e+00 7.535444498062133789e-01 1.065627455711364746e+00 -2.367803901433944702e-01
3.818000000000000000e+03 2.629851913452148438e+01 -7.642373561859130859e+00 2.490056753158569336e+00 6.608219742774963379e-01 9.452635645866394043e-01 -2.864939272403717041e-01
3.819000000000000000e+03 2.611884498596191406e+01 -5.491816043853759766e+00 3.326827287673950195e+00 9.270661473274230957e-01 1.276167988777160645e+00 1.159348845481872559e+00
3.820000000000000000e+03 7.294163513183593750e+01 7.428496837615966797e+00 -2.186667323112487793e-01 6.822484016418457031e+00 1.981145262718200684e+00 -7.239056825637817383e-01
3.821000000000000000e+03 2.509215736389160156e+01 -3.848533868789672852e+00 2.969780683517456055e+00 2.076879501342773438e+00 1.513998031616210938e+00 2.487483263015747070e+00
3.822000000000000000e+03 2.711572265625000000e+01 -7.365040302276611328e+00 2.238705873489379883e+00 5.102704763412475586e-01 8.246929645538330078e-01 -1.044897735118865967e-01
3.823000000000000000e+03 2.586207389831542969e+01 -5.028539180755615234e+00 3.415816783905029297e+00 1.151600360870361328e+00 1.370225191116333008e+00 1.595497250556945801e+00
3.824000000000000000e+03 2.642953109741210938e+01 -7.319753646850585938e+00 2.658571481704711914e+00 6.285356283187866211e-01 9.861321449279785156e-01 -9.790639579296112061e-02
3.825000000000000000e+03 2.672776222229003906e+01 -7.384783744812011719e+00 2.412057876586914062e+00 5.709176063537597656e-01 8.948926329612731934e-01 -1.207901760935783386e-01
3.826000000000000000e+03 2.744455146789550781e+01 -6.806600570678710938e+00 2.334279537200927734e+00 4.568920433521270752e-01 8.373515009880065918e-01 1.480036377906799316e-01
3.827000000000000000e+03 4.064050674438476562e+01 -6.341043472290039062e+00 -4.193691313266754150e-01 1.181937232613563538e-01 -9.035262465476989746e-02 -2.178823202848434448e-01
3.828000000000000000e+03 3.590397262573242188e+01 -7.521113872528076172e+00 -1.769396811723709106e-01 1.389155685901641846e-01 -1.140723377466201782e-02 -2.936558425426483154e-01
3.829000000000000000e+03 3.756647109985351562e+01 -5.977827548980712891e+00 -6.609462946653366089e-02 1.491142511367797852e-01 2.490588463842868805e-02 -1.440142244100570679e-01
3.830000000000000000e+03 2.770936012268066406e+01 -6.429548263549804688e+00 2.255831480026245117e+00 4.354456663131713867e-01 8.073831200599670410e-01 3.088312149047851562e-01
3.831000000000000000e+03 2.646598243713378906e+01 -5.433248996734619141e+00 3.081223011016845703e+00 8.340068459510803223e-01 1.174569010734558105e+00 1.093204498291015625e+00
3.832000000000000000e+03 2.905508995056152344e+01 -2.365568637847900391e+00 1.500992894172668457e+00 1.133423924446105957e+00 7.903250455856323242e-01 1.441780090332031250e+00
3.833000000000000000e+03 3.089952087402343750e+01 -4.345374584197998047e+00 1.336340308189392090e+00 4.713709354400634766e-01 5.423133969306945801e-01 6.449420452117919922e-01
3.834000000000000000e+03 3.177333068847656250e+01 -6.567749977111816406e+00 7.896084785461425781e-01 2.161096185445785522e-01 3.017154335975646973e-01 -1.407895423471927643e-02
3.835000000000000000e+03 2.922659873962402344e+01 -4.531331062316894531e+00 1.784789085388183594e+00 5.887687206268310547e-01 7.120673656463623047e-01 8.767935633659362793e-01
3.836000000000000000e+03 1.109471797943115234e+01 -1.421144604682922363e+00 -1.264680504798889160e+00 6.600318104028701782e-02 -3.596031963825225830e-01 4.391536116600036621e-01
3.837000000000000000e+03 1.178201866149902344e+01 -7.772919535636901855e-01 -1.643847346305847168e+00 -1.841844618320465088e-02 -4.986797273159027100e-01 4.618028104305267334e-01
3.838000000000000000e+03 1.027668380737304688e+01 -1.233754158020019531e+00 -1.492220163345336914e+00 9.681661427021026611e-02 -4.186210930347442627e-01 3.045673966407775879e-01
3.839000000000000000e+03 1.217507266998291016e+01 -1.835481405258178711e+00 -1.000253796577453613e+00 -9.486153721809387207e-02 -3.285346031188964844e-01 5.624756813049316406e-01
3.840000000000000000e+03 1.247813129425048828e+01 -9.059029817581176758e-01 -1.426851153373718262e+00 -1.913078725337982178e-01 -4.854477047920227051e-01 4.351681768894195557e-01
3.841000000000000000e+03 1.107212448120117188e+01 -6.525825858116149902e-01 -1.699459791183471680e+00 -1.285523623228073120e-01 -5.484036207199096680e-01 3.933241963386535645e-01
3.842000000000000000e+03 1.033004570007324219e+01 -4.842335283756256104e-01 -1.605970382690429688e+00 6.564805656671524048e-02 -4.620966911315917969e-01 3.018752336502075195e-01
3.843000000000000000e+03 1.178715801239013672e+01 -1.412433624267578125e+00 -1.182677388191223145e+00 -1.211750134825706482e-01 -3.911557197570800781e-01 5.100309848785400391e-01
3.844000000000000000e+03 1.237739849090576172e+01 -1.387354135513305664e+00 -1.172669649124145508e+00 -1.066763922572135925e-01 -3.838038146495819092e-01 5.137252211570739746e-01
3.845000000000000000e+03 8.700727462768554688e+00 -1.117709517478942871e+00 -1.578726649284362793e+00 1.002010628581047058e-01 -4.435576796531677246e-01 9.647583216428756714e-02
3.846000000000000000e+03 8.733464241027832031e+00 -3.777095377445220947e-01 -1.938905000686645508e+00 6.238627433776855469e-02 -5.629556179046630859e-01 3.367861360311508179e-02
3.847000000000000000e+03 9.545720100402832031e+00 -3.852295279502868652e-01 -1.705776333808898926e+00 2.715235203504562378e-02 -5.035871863365173340e-01 1.296555101871490479e-01
3.848000000000000000e+03 7.920477867126464844e+00 -3.782893717288970947e-01 -1.984259128570556641e+00 -9.770445525646209717e-03 -5.982088446617126465e-01 -3.116252087056636810e-02
3.849000000000000000e+03 6.325181007385253906e+00 -4.120943248271942139e-01 -1.723626613616943359e+00 -6.857913918793201447e-03 -5.191453695297241211e-01 -1.149279847741127014e-01
3.850000000000000000e+03 5.626715183258056641e+00 -6.589151620864868164e-01 -1.457540273666381836e+00 -2.805866533890366554e-03 -4.381038546562194824e-01 -1.983892470598220825e-01
3.851000000000000000e+03 5.109978199005126953e+00 -1.194857835769653320e+00 -1.056497097015380859e+00 6.212273240089416504e-02 -2.983123064041137695e-01 -4.107167720794677734e-01
3.852000000000000000e+03 4.560545921325683594e+00 -3.007295429706573486e-01 -1.089323282241821289e+00 -2.525799162685871124e-02 -3.343743681907653809e-01 -1.152664497494697571e-01
3.853000000000000000e+03 3.814361572265625000e+00 -3.559346497058868408e-01 -7.806378602981567383e-01 3.810584917664527893e-02 -2.227596044540405273e-01 -1.383896768093109131e-01
3.854000000000000000e+03 3.024296522140502930e+00 -3.709946572780609131e-01 -4.619150161743164062e-01 -2.830006927251815796e-02 -1.470645219087600708e-01 -1.381979137659072876e-01
3.855000000000000000e+03 2.217694997787475586e+00 -3.767684400081634521e-01 -2.107318788766860962e-01 -1.283750962466001511e-02 -6.707081198692321777e-02 -9.331668168306350708e-02
3.856000000000000000e+03 1.421629071235656738e+00 -3.827523589134216309e-01 -5.707779526710510254e-02 -2.133029885590076447e-02 -2.352242916822433472e-02 -5.575393512845039368e-02
3.857000000000000000e+03 3.660075068473815918e-01 -9.624075293540954590e-01 -6.905924063175916672e-03 -2.833821438252925873e-02 -1.057324092835187912e-02 -2.165460400283336639e-02
3.858000000000000000e+03 1.049754977226257324e+00 -1.145848751068115234e+00 -8.981476724147796631e-02 -1.212018132209777832e-01 -6.330497562885284424e-02 -1.171890050172805786e-01
3.859000000000000000e+03 9.473914146423339844e+00 -1.125229477882385254e+00 -1.585361719131469727e+00 2.157426178455352783e-01 -4.108857214450836182e-01 2.547282874584197998e-01
3.860000000000000000e+03 7.926810741424560547e+00 -1.118289351463317871e+00 -1.597047209739685059e+00 1.382298469543457031e-01 -4.376452267169952393e-01 -2.868743054568767548e-02
3.861000000000000000e+03 7.156938076019287109e+00 -1.128846406936645508e+00 -1.539625883102416992e+00 6.587526202201843262e-02 -4.421251714229583740e-01 -1.754342615604400635e-01
3.862000000000000000e+03 6.409653186798095703e+00 -1.152094364166259766e+00 -1.403299331665039062e+00 1.053876727819442749e-01 -3.893734812736511230e-01 -2.703719735145568848e-01
3.863000000000000000e+03 5.709451675415039062e+00 -1.214052677154541016e+00 -1.280936717987060547e+00 2.698661386966705322e-02 -3.761850297451019287e-01 -3.954967260360717773e-01
3.864000000000000000e+03 4.692424297332763672e+00 -8.555920124053955078e-01 -1.045419335365295410e+00 2.458990551531314850e-02 -3.062488138675689697e-01 -3.827517032623291016e-01
3.865000000000000000e+03 4.016042709350585938e+00 -1.095934629440307617e+00 -8.032390475273132324e-01 -7.182536646723747253e-03 -2.431264668703079224e-01 -4.399843513965606689e-01
3.866000000000000000e+03 3.265047311782836914e+00 -1.110994696617126465e+00 -5.724363923072814941e-01 -2.794269472360610962e-02 -1.801137328147888184e-01 -3.948962092399597168e-01
3.867000000000000000e+03 2.497515201568603516e+00 -1.116768479347229004e+00 -3.489917814731597900e-01 -1.113019734621047974e-01 -1.380881220102310181e-01 -3.305311203002929688e-01
3.868000000000000000e+03 1.740518808364868164e+00 -1.122752308845520020e+00 -1.878204047679901123e-01 -9.584834426641464233e-02 -8.510062843561172485e-02 -1.954264342784881592e-01
3.869000000000000000e+03 5.208349704742431641e+00 -3.231946229934692383e-01 -1.425116181373596191e+00 1.972770690917968750e-02 -4.216165542602539062e-01 -1.012775301933288574e-01
3.870000000000000000e+03 6.917955279350280762e-01 -4.058488011360168457e-01 -1.254760101437568665e-02 -1.967878267168998718e-02 -9.667915292084217072e-03 -6.093611940741539001e-03
3.871000000000000000e+03 7.111535072326660156e+00 -3.888463973999023438e-01 -1.901604175567626953e+00 4.612780362367630005e-02 -5.566429495811462402e-01 -7.328832894563674927e-02
3.872000000000000000e+03 2.013944435119628906e+01 -5.656637191772460938e+00 2.490751647949218750e+01 1.063360595703125000e+01 1.066233634948730469e+01 -1.454233360290527344e+01
3.873000000000000000e+03 2.012805175781250000e+01 -5.672424793243408203e+00 3.626805877685546875e+01 5.544990062713623047e+00 1.254391479492187500e+01 -1.014630699157714844e+01
3.874000000000000000e+03 2.011994934082031250e+01 -5.690128326416015625e+00 4.260754013061523438e+01 5.035130977630615234e+00 1.429280090332031250e+01 -5.401254177093505859e+00
3.875000000000000000e+03 2.011544990539550781e+01 -5.709070205688476562e+00 4.658227157592773438e+01 5.821304798126220703e+00 1.572107315063476562e+01 2.624523043632507324e-01
3.876000000000000000e+03 2.011472320556640625e+01 -5.728525638580322266e+00 4.826069259643554688e+01 8.876379013061523438e+00 1.714112091064453125e+01 5.623979568481445312e+00
3.877000000000000000e+03 2.011779975891113281e+01 -5.747750759124755859e+00 4.735354232788085938e+01 1.271406364440917969e+01 1.802028274536132812e+01 1.057135105133056641e+01
3.878000000000000000e+03 2.012455940246582031e+01 -5.766008853912353516e+00 4.502981567382812500e+01 1.813388061523437500e+01 1.894911003112792969e+01 1.398004436492919922e+01
3.879000000000000000e+03 2.013474464416503906e+01 -5.782601356506347656e+00 4.096765518188476562e+01 2.349824905395507812e+01 1.933977127075195312e+01 1.598784446716308594e+01
3.880000000000000000e+03 2.014796638488769531e+01 -5.796893119812011719e+00 3.701103973388671875e+01 2.901432037353515625e+01 1.980760765075683594e+01 1.598201370239257812e+01
3.881000000000000000e+03 2.016371536254882812e+01 -5.808337688446044922e+00 3.267665863037109375e+01 3.328935241699218750e+01 1.978980255126953125e+01 1.454584217071533203e+01
3.882000000000000000e+03 2.018139266967773438e+01 -5.816496849060058594e+00 2.991258621215820312e+01 3.656460571289062500e+01 1.994315910339355469e+01 1.179214859008789062e+01
3.883000000000000000e+03 2.020032119750976562e+01 -5.821058273315429688e+00 2.771875381469726562e+01 3.809064865112304688e+01 1.974282073974609375e+01 8.393277168273925781e+00
3.884000000000000000e+03 2.021977424621582031e+01 -5.821847438812255859e+00 2.735483741760253906e+01 3.830622100830078125e+01 1.969831848144531250e+01 4.959284782409667969e+00
3.885000000000000000e+03 2.023900794982910156e+01 -5.818834304809570312e+00 2.793117904663085938e+01 3.710236740112304688e+01 1.951006317138671875e+01 1.827714443206787109e+00
3.886000000000000000e+03 2.025728797912597656e+01 -5.812133789062500000e+00 2.980586624145507812e+01 3.507612228393554688e+01 1.946459770202636719e+01 -5.026427507400512695e-01
3.887000000000000000e+03 2.027391433715820312e+01 -5.802002429962158203e+00 3.224893951416015625e+01 3.230214691162109375e+01 1.936532592773437500e+01 -1.909875154495239258e+00
3.888000000000000000e+03 2.028824806213378906e+01 -5.788828372955322266e+00 3.522828292846679688e+01 2.939437484741210938e+01 1.938679695129394531e+01 -2.133931636810302734e+00
3.889000000000000000e+03 2.029974365234375000e+01 -5.773115158081054688e+00 3.821590805053710938e+01 2.653028106689453125e+01 1.942385673522949219e+01 -1.168631911277770996e+00
3.890000000000000000e+03 2.030796051025390625e+01 -5.755464553833007812e+00 4.076686859130859375e+01 2.411884307861328125e+01 1.946571350097656250e+01 9.658205509185791016e-01
3.891000000000000000e+03 2.031258392333984375e+01 -5.736552238464355469e+00 4.243941497802734375e+01 2.259868621826171875e+01 1.951143074035644531e+01 4.113313674926757812e+00
3.892000000000000000e+03 2.031343650817871094e+01 -5.717101573944091797e+00 4.274188995361328125e+01 2.218525886535644531e+01 1.947814559936523438e+01 7.938180446624755859e+00
3.893000000000000000e+03 2.031048583984375000e+01 -5.697856903076171875e+00 4.135773849487304688e+01 2.308716201782226562e+01 1.933346939086914062e+01 1.192483329772949219e+01
3.894000000000000000e+03 2.030384445190429688e+01 -5.679555416107177734e+00 3.820083618164062500e+01 2.527676773071289062e+01 1.904328155517578125e+01 1.545350456237792969e+01
3.895000000000000000e+03 2.029376602172851562e+01 -5.662897109985351562e+00 3.339056396484375000e+01 2.841594314575195312e+01 1.854195213317871094e+01 1.795007133483886719e+01
3.896000000000000000e+03 2.028063964843750000e+01 -5.648519515991210938e+00 2.743379020690917969e+01 3.187289237976074219e+01 1.779200553894042969e+01 1.892814636230468750e+01
3.897000000000000000e+03 2.026496315002441406e+01 -5.636972904205322266e+00 2.095929718017578125e+01 3.515704345703125000e+01 1.683490180969238281e+01 1.814830017089843750e+01
3.898000000000000000e+03 2.024733924865722656e+01 -5.628699302673339844e+00 1.455984115600585938e+01 3.730605316162109375e+01 1.555976772308349609e+01 1.580600833892822266e+01
3.899000000000000000e+03 2.022844123840332031e+01 -5.624014854431152344e+00 8.959370613098144531e+00 3.804627609252929688e+01 1.410169410705566406e+01 1.208490562438964844e+01
3.900000000000000000e+03 2.020899391174316406e+01 -5.623099803924560547e+00 4.417937755584716797e+00 3.683753204345703125e+01 1.237664031982421875e+01 7.741333961486816406e+00
3.901000000000000000e+03 2.018973922729492188e+01 -5.625988483428955078e+00 1.537749052047729492e+00 3.369979858398437500e+01 1.057126426696777344e+01 2.813199758529663086e+00
3.902000000000000000e+03 2.017141723632812500e+01 -5.632570266723632812e+00 1.942999102175235748e-02 2.859267616271972656e+01 8.583631515502929688e+00 -1.641438245773315430e+00
3.903000000000000000e+03 2.015472602844238281e+01 -5.642593860626220703e+00 3.419701099395751953e+00 1.903305053710937500e+01 6.735825538635253906e+00 -6.754202365875244141e+00
