# el_label, x, y, sXX, sYY, sZZ, sXY
1.000000000000000000e+00 6.958551788330078125e+01 -1.215869903564453125e+01 -6.849751949310302734e+00 -2.113503217697143555e+00 -2.688976526260375977e+00 -2.578143835067749023e+00
2.000000000000000000e+00 6.938658142089843750e+01 -1.216531085968017578e+01 -1.498649001121520996e+00 8.093124032020568848e-01 -2.068009972572326660e-01 7.580021619796752930e-01
3.000000000000000000e+00 6.918765258789062500e+01 -1.217192363739013672e+01 -2.293690204620361328e+00 -3.154576122760772705e-01 -7.827444076538085938e-01 -7.611710578203201294e-02
4.000000000000000000e+00 6.898871612548828125e+01 -1.217853546142578125e+01 -1.992308974266052246e+00 1.941287964582443237e-01 -5.394540429115295410e-01 5.222611874341964722e-02
5.000000000000000000e+00 6.959314727783203125e+01 -1.221654129028320312e+01 8.785927772521972656e+00 -2.567635059356689453e+00 1.865487813949584961e+00 7.244806885719299316e-01
6.000000000000000000e+00 6.939929199218750000e+01 -1.226171493530273438e+01 2.445324182510375977e+00 1.367823928594589233e-01 7.746319770812988281e-01 7.320961356163024902e-01
7.000000000000000000e+00 6.920544433593750000e+01 -1.230688953399658203e+01 2.803818702697753906e+00 6.106824278831481934e-01 1.024350404739379883e+00 1.462414622306823730e+00
8.000000000000000000e+00 6.901159667968750000e+01 -1.235206317901611328e+01 1.738737225532531738e+00 2.227109074592590332e-01 5.884344577789306641e-01 5.531147718429565430e-01
9.000000000000000000e+00 6.961186981201171875e+01 -1.227179622650146484e+01 1.484677791595458984e+01 1.272456049919128418e+00 4.835770130157470703e+00 7.326431751251220703e+00
1.000000000000000000e+01 6.943051147460937500e+01 -1.235380744934082031e+01 8.671622276306152344e+00 9.026754498481750488e-01 2.872289419174194336e+00 4.004681110382080078e+00
1.100000000000000000e+01 6.924914550781250000e+01 -1.243581771850585938e+01 5.763192653656005859e+00 1.462113380432128906e+00 2.167591810226440430e+00 3.037078857421875000e+00
1.200000000000000000e+01 6.906778717041015625e+01 -1.251782894134521484e+01 5.045695781707763672e+00 1.631422162055969238e+00 2.003135204315185547e+00 2.837614297866821289e+00
1.300000000000000000e+01 6.964099121093750000e+01 -1.232235336303710938e+01 1.726202774047851562e+01 7.351062774658203125e+00 7.383926868438720703e+00 1.277589988708496094e+01
1.400000000000000000e+01 6.947904205322265625e+01 -1.243806934356689453e+01 1.084600925445556641e+01 4.473659515380859375e+00 4.595900535583496094e+00 8.084410667419433594e+00
1.500000000000000000e+01 6.931709289550781250e+01 -1.255378532409667969e+01 8.426572799682617188e+00 3.898230314254760742e+00 3.697440862655639648e+00 6.049027442932128906e+00
1.600000000000000000e+01 6.915514373779296875e+01 -1.266950225830078125e+01 6.529591560363769531e+00 3.405530452728271484e+00 2.980536699295043945e+00 4.936202049255371094e+00
1.700000000000000000e+01 6.967938995361328125e+01 -1.236628341674804688e+01 1.597506713867187500e+01 1.521210384368896484e+01 9.356151580810546875e+00 1.661870765686035156e+01
1.800000000000000000e+01 6.954302978515625000e+01 -1.251128578186035156e+01 1.128296089172363281e+01 9.822159767150878906e+00 6.331536293029785156e+00 1.130821418762207031e+01
1.900000000000000000e+01 6.940667724609375000e+01 -1.265628814697265625e+01 8.610533714294433594e+00 7.893997192382812500e+00 4.951359272003173828e+00 8.745991706848144531e+00
2.000000000000000000e+01 6.927032470703125000e+01 -1.280129051208496094e+01 7.059025287628173828e+00 6.942950248718261719e+00 4.200592517852783203e+00 7.337219238281250000e+00
2.100000000000000000e+01 6.972558593750000000e+01 -1.240190792083740234e+01 1.335793399810791016e+01 2.378754806518554688e+01 1.114364433288574219e+01 1.801158523559570312e+01
2.200000000000000000e+01 6.962004089355468750e+01 -1.257065963745117188e+01 9.766315460205078125e+00 1.611757659912109375e+01 7.765167713165283203e+00 1.294143486022949219e+01
2.300000000000000000e+01 6.951448822021484375e+01 -1.273941040039062500e+01 7.746027469635009766e+00 1.299269390106201172e+01 6.221616268157958984e+00 1.052479267120361328e+01
2.400000000000000000e+01 6.940893554687500000e+01 -1.290816211700439453e+01 6.338309764862060547e+00 1.132913017272949219e+01 5.300231933593750000e+00 8.889428138732910156e+00
2.500000000000000000e+01 6.977783966064453125e+01 -1.242786502838134766e+01 1.009812450408935547e+01 3.195915222167968750e+01 1.261718273162841797e+01 1.682329177856445312e+01
2.600000000000000000e+01 6.970712280273437500e+01 -1.261392307281494141e+01 7.821286678314208984e+00 2.253263473510742188e+01 9.106176376342773438e+00 1.282817363739013672e+01
2.700000000000000000e+01 6.963640594482421875e+01 -1.279997920989990234e+01 6.084947586059570312e+00 1.829224967956542969e+01 7.313158988952636719e+00 1.073626995086669922e+01
2.800000000000000000e+01 6.956568908691406250e+01 -1.298603630065917969e+01 4.968166828155517578e+00 1.601471519470214844e+01 6.294864654541015625e+00 9.292391777038574219e+00
2.900000000000000000e+01 6.983414459228515625e+01 -1.244316577911376953e+01 7.785115718841552734e+00 3.870307159423828125e+01 1.394645690917968750e+01 1.351021671295166016e+01
3.000000000000000000e+01 6.980095672607421875e+01 -1.263942432403564453e+01 5.904324054718017578e+00 2.819802856445312500e+01 1.023070621490478516e+01 1.100636863708496094e+01
3.100000000000000000e+01 6.976777648925781250e+01 -1.283568096160888672e+01 4.609063625335693359e+00 2.324410438537597656e+01 8.355950355529785156e+00 9.441529273986816406e+00
3.200000000000000000e+01 6.973458862304687500e+01 -1.303193855285644531e+01 3.426880359649658203e+00 2.019195175170898438e+01 7.085649490356445312e+00 8.324440002441406250e+00
3.300000000000000000e+01 6.989234161376953125e+01 -1.244722557067871094e+01 6.919535160064697266e+00 4.325352478027343750e+01 1.505191802978515625e+01 8.808458328247070312e+00
3.400000000000000000e+01 6.989796447753906250e+01 -1.264618968963623047e+01 4.953067302703857422e+00 3.255115890502929688e+01 1.125126743316650391e+01 7.976221084594726562e+00
3.500000000000000000e+01 6.990357971191406250e+01 -1.284515285491943359e+01 3.617313146591186523e+00 2.718257522583007812e+01 9.239966392517089844e+00 6.912536621093750000e+00
3.600000000000000000e+01 6.990919494628906250e+01 -1.304411697387695312e+01 2.617263078689575195e+00 2.374861907958984375e+01 7.909764289855957031e+00 6.212549686431884766e+00
3.700000000000000000e+01 6.995022583007812500e+01 -1.243988895416259766e+01 7.951218128204345703e+00 4.541897583007812500e+01 1.601105880737304688e+01 3.819271802902221680e+00
3.800000000000000000e+01 6.999443054199218750e+01 -1.263396072387695312e+01 5.217684745788574219e+00 3.516330718994140625e+01 1.211429786682128906e+01 4.256692886352539062e+00
3.900000000000000000e+01 7.003863525390625000e+01 -1.282803344726562500e+01 3.636931657791137695e+00 2.977671432495117188e+01 1.002409362792968750e+01 3.822268009185791016e+00
4.000000000000000000e+01 7.008283233642578125e+01 -1.302210617065429688e+01 2.719207048416137695e+00 2.633436775207519531e+01 8.716072082519531250e+00 3.418324470520019531e+00
4.100000000000000000e+01 7.000556945800781250e+01 -1.242143535614013672e+01 1.062669277191162109e+01 4.536658859252929688e+01 1.679798507690429688e+01 -5.918602347373962402e-01
4.200000000000000000e+01 7.008667755126953125e+01 -1.260320568084716797e+01 6.813494205474853516e+00 3.605573272705078125e+01 1.286076831817626953e+01 6.156592369079589844e-01
4.300000000000000000e+01 7.016777801513671875e+01 -1.278497600555419922e+01 4.849567890167236328e+00 3.079628181457519531e+01 1.069375514984130859e+01 7.123510837554931641e-01
4.400000000000000000e+01 7.024887847900390625e+01 -1.296674633026123047e+01 3.703868389129638672e+00 2.751120567321777344e+01 9.364521980285644531e+00 6.894682049751281738e-01
4.500000000000000000e+01 7.005627441406250000e+01 -1.239257049560546875e+01 1.445004272460937500e+01 4.375193405151367188e+01 1.746059417724609375e+01 -3.703753948211669922e+00
4.600000000000000000e+01 7.017118072509765625e+01 -1.255509757995605469e+01 9.478558540344238281e+00 3.537751007080078125e+01 1.345682048797607422e+01 -2.345319032669067383e+00
4.700000000000000000e+01 7.028608703613281250e+01 -1.271762466430664062e+01 7.145805835723876953e+00 3.046221733093261719e+01 1.128240680694580078e+01 -1.847692251205444336e+00
4.800000000000000000e+01 7.040099334716796875e+01 -1.288015174865722656e+01 5.590773582458496094e+00 2.711264991760253906e+01 9.811026573181152344e+00 -1.571886658668518066e+00
4.900000000000000000e+01 7.010039520263671875e+01 -1.235439586639404297e+01 1.866154861450195312e+01 4.123773193359375000e+01 1.796978378295898438e+01 -5.252558231353759766e+00
5.000000000000000000e+01 7.024471282958984375e+01 -1.249147415161132812e+01 1.282150650024414062e+01 3.366818237304687500e+01 1.394690704345703125e+01 -4.112039566040039062e+00
5.100000000000000000e+01 7.038903045654296875e+01 -1.262855148315429688e+01 1.002963352203369141e+01 2.904816627502441406e+01 1.172334003448486328e+01 -3.471019506454467773e+00
5.200000000000000000e+01 7.053335571289062500e+01 -1.276562881469726562e+01 8.229580879211425781e+00 2.592515945434570312e+01 1.024642181396484375e+01 -3.120211124420166016e+00
5.300000000000000000e+01 7.013624572753906250e+01 -1.230837059020996094e+01 2.253183937072753906e+01 3.857726669311523438e+01 1.833273124694824219e+01 -5.260942459106445312e+00
5.400000000000000000e+01 7.030447387695312500e+01 -1.241476440429687500e+01 1.628218460083007812e+01 3.149188423156738281e+01 1.433222007751464844e+01 -4.480505466461181641e+00
5.500000000000000000e+01 7.047269439697265625e+01 -1.252115821838378906e+01 1.296472644805908203e+01 2.715228271484375000e+01 1.203510284423828125e+01 -3.939744710922241211e+00
5.600000000000000000e+01 7.064091491699218750e+01 -1.262755107879638672e+01 1.091238212585449219e+01 2.445224380493164062e+01 1.060938739776611328e+01 -3.569679260253906250e+00
5.700000000000000000e+01 7.016246795654296875e+01 -1.225625038146972656e+01 2.562619018554687500e+01 3.641374588012695312e+01 1.861198043823242188e+01 -3.949494838714599609e+00
5.800000000000000000e+01 7.034816741943359375e+01 -1.232789802551269531e+01 1.915698051452636719e+01 2.938426589965820312e+01 1.456237411499023438e+01 -3.586702585220336914e+00
5.900000000000000000e+01 7.053387451171875000e+01 -1.239954471588134766e+01 1.550618457794189453e+01 2.546795272827148438e+01 1.229224109649658203e+01 -3.187065601348876953e+00
6.000000000000000000e+01 7.071957397460937500e+01 -1.247119140625000000e+01 1.304404258728027344e+01 2.276922798156738281e+01 1.074398136138916016e+01 -2.860765218734741211e+00
6.100000000000000000e+01 7.017805480957031250e+01 -1.220002651214599609e+01 2.747414970397949219e+01 3.498069763183593750e+01 1.873645401000976562e+01 -1.775906324386596680e+00
6.200000000000000000e+01 7.037413787841796875e+01 -1.223419094085693359e+01 2.102285194396972656e+01 2.802767753601074219e+01 1.471515846252441406e+01 -1.690194487571716309e+00
6.300000000000000000e+01 7.057022857666015625e+01 -1.226835536956787109e+01 1.710818290710449219e+01 2.425982666015625000e+01 1.241040325164794922e+01 -1.507916450500488281e+00
6.400000000000000000e+01 7.076631927490234375e+01 -1.230251979827880859e+01 1.453682899475097656e+01 2.156999015808105469e+01 1.083204650878906250e+01 -1.351675748825073242e+00
6.500000000000000000e+01 7.018240356445312500e+01 -1.214184570312500000e+01 2.798343849182128906e+01 3.462388992309570312e+01 1.878219795227050781e+01 8.614821434020996094e-01
6.600000000000000000e+01 7.038139343261718750e+01 -1.213722324371337891e+01 2.142774391174316406e+01 2.764644241333007812e+01 1.472225570678710938e+01 6.846815943717956543e-01
6.700000000000000000e+01 7.058037567138671875e+01 -1.213259983062744141e+01 1.756673431396484375e+01 2.391030120849609375e+01 1.244311141967773438e+01 6.211182475090026855e-01
6.800000000000000000e+01 7.077936553955078125e+01 -1.212797737121582031e+01 1.502413368225097656e+01 2.131747055053710938e+01 1.090248107910156250e+01 4.615093171596527100e-01
6.900000000000000000e+01 7.017535400390625000e+01 -1.208393001556396484e+01 2.695995712280273438e+01 3.520823669433593750e+01 1.865045738220214844e+01 3.399197101593017578e+00
7.000000000000000000e+01 7.036964416503906250e+01 -1.204069614410400391e+01 2.042797470092773438e+01 2.849521255493164062e+01 1.467695617675781250e+01 3.037394285202026367e+00
7.100000000000000000e+01 7.056393432617187500e+01 -1.199746322631835938e+01 1.663877677917480469e+01 2.445544052124023438e+01 1.232826519012451172e+01 2.569808959960937500e+00
7.200000000000000000e+01 7.075822448730468750e+01 -1.195422935485839844e+01 1.422542667388916016e+01 2.206487083435058594e+01 1.088708972930908203e+01 2.230062961578369141e+00
7.300000000000000000e+01 7.015718078613281250e+01 -1.202849006652832031e+01 2.461847114562988281e+01 3.710984420776367188e+01 1.851849365234375000e+01 5.445061206817626953e+00
7.400000000000000000e+01 7.033935546875000000e+01 -1.194829750061035156e+01 1.803763771057128906e+01 2.998868751525878906e+01 1.440789699554443359e+01 4.707187175750732422e+00
7.500000000000000000e+01 7.052152252197265625e+01 -1.186810398101806641e+01 1.456704425811767578e+01 2.615286254882812500e+01 1.221597194671630859e+01 3.940666198730468750e+00
7.600000000000000000e+01 7.070369720458984375e+01 -1.178791046142578125e+01 1.219998359680175781e+01 2.323456573486328125e+01 1.063036441802978516e+01 3.462898015975952148e+00
7.700000000000000000e+01 7.012857055664062500e+01 -1.197764396667480469e+01 2.096528244018554688e+01 3.940950775146484375e+01 1.811243629455566406e+01 6.531544685363769531e+00
7.800000000000000000e+01 7.029167175292968750e+01 -1.186355304718017578e+01 1.480745220184326172e+01 3.241035079956054688e+01 1.416534137725830078e+01 5.199696540832519531e+00
7.900000000000000000e+01 7.045476531982421875e+01 -1.174946212768554688e+01 1.158429050445556641e+01 2.791798782348632812e+01 1.185068321228027344e+01 4.392103195190429688e+00
8.000000000000000000e+01 7.061785888671875000e+01 -1.163537216186523438e+01 9.633654594421386719e+00 2.518391418457031250e+01 1.044527053833007812e+01 3.765855550765991211e+00
8.100000000000000000e+01 7.009061431884765625e+01 -1.193333244323730469e+01 1.673695564270019531e+01 4.235868835449218750e+01 1.772869300842285156e+01 6.098679542541503906e+00
8.200000000000000000e+01 7.022840881347656250e+01 -1.178970146179199219e+01 1.103947830200195312e+01 3.449766159057617188e+01 1.366114234924316406e+01 4.437672615051269531e+00
8.300000000000000000e+01 7.036621093750000000e+01 -1.164606952667236328e+01 8.436810493469238281e+00 2.991883277893066406e+01 1.150669288635253906e+01 3.531851053237915039e+00
8.400000000000000000e+01 7.050400543212890625e+01 -1.150243854522705078e+01 6.762610435485839844e+00 2.667854690551757812e+01 1.003234672546386719e+01 3.045968532562255859e+00
8.500000000000000000e+01 7.004476928710937500e+01 -1.189724826812744141e+01 1.220418071746826172e+01 4.477331542968750000e+01 1.709324836730957031e+01 4.090568065643310547e+00
8.600000000000000000e+01 7.015200042724609375e+01 -1.172956085205078125e+01 7.655063152313232422e+00 3.613514709472656250e+01 1.313706302642822266e+01 2.217677116394042969e+00
8.700000000000000000e+01 7.025923156738281250e+01 -1.156187343597412109e+01 5.457713603973388672e+00 3.103969192504882812e+01 1.094922161102294922e+01 1.618854641914367676e+00
8.800000000000000000e+01 7.036647033691406250e+01 -1.139418601989746094e+01 4.190354824066162109e+00 2.780467987060546875e+01 9.598510742187500000e+00 1.170311808586120605e+00
8.900000000000000000e+01 6.999278259277343750e+01 -1.187076950073242188e+01 8.404009819030761719e+00 4.618025970458984375e+01 1.637528038024902344e+01 4.418278336524963379e-01
9.000000000000000000e+01 7.006535339355468750e+01 -1.168542861938476562e+01 4.988020896911621094e+00 3.641893005371093750e+01 1.242208576202392578e+01 -1.026381254196166992e+00
9.100000000000000000e+01 7.013792419433593750e+01 -1.150008869171142578e+01 3.326363086700439453e+00 3.108616828918457031e+01 1.032375907897949219e+01 -1.254162907600402832e+00
9.200000000000000000e+01 7.021050262451171875e+01 -1.131474781036376953e+01 2.279990911483764648e+00 2.771280670166015625e+01 8.997838973999023438e+00 -1.295569062232971191e+00
9.300000000000000000e+01 6.993663787841796875e+01 -1.185490608215332031e+01 5.892595291137695312e+00 4.563450622558593750e+01 1.545812988281250000e+01 -4.320456504821777344e+00
9.400000000000000000e+01 6.997177886962890625e+01 -1.165899085998535156e+01 3.573530435562133789e+00 3.511627960205078125e+01 1.160694217681884766e+01 -4.840765953063964844e+00
9.500000000000000000e+01 7.000691986083984375e+01 -1.146307468414306641e+01 2.263809680938720703e+00 2.961432456970214844e+01 9.563440322875976562e+00 -4.495636463165283203e+00
9.600000000000000000e+01 7.004206848144531250e+01 -1.126715850830078125e+01 1.376820683479309082e+00 2.613871002197265625e+01 8.254659652709960938e+00 -4.160959720611572266e+00
9.700000000000000000e+01 6.987847137451171875e+01 -1.185026550292968750e+01 5.290797233581542969e+00 4.279176712036132812e+01 1.442476940155029297e+01 -9.521494865417480469e+00
9.800000000000000000e+01 6.987484741210937500e+01 -1.165125465393066406e+01 3.453330993652343750e+00 3.186173439025878906e+01 1.059451961517333984e+01 -8.436113357543945312e+00
9.900000000000000000e+01 6.987121582031250000e+01 -1.145224475860595703e+01 2.382608890533447266e+00 2.668712234497070312e+01 8.720919609069824219e+00 -7.550802707672119141e+00
1.000000000000000000e+02 6.986759185791015625e+01 -1.125323486328125000e+01 1.498397469520568848e+00 2.335545349121093750e+01 7.456155300140380859e+00 -6.786381244659423828e+00
1.010000000000000000e+02 6.982052612304687500e+01 -1.185702323913574219e+01 6.347592830657958984e+00 3.737594985961914062e+01 1.311706256866455078e+01 -1.398507595062255859e+01
1.020000000000000000e+02 6.977826690673828125e+01 -1.166251850128173828e+01 4.744542121887207031e+00 2.696661567687988281e+01 9.513347625732421875e+00 -1.127021217346191406e+01
1.030000000000000000e+02 6.973600006103515625e+01 -1.146801376342773438e+01 3.261766672134399414e+00 2.226343536376953125e+01 7.657560825347900391e+00 -9.603824615478515625e+00
1.040000000000000000e+02 6.969374084472656250e+01 -1.127350902557373047e+01 2.563891172409057617e+00 1.976193618774414062e+01 6.697748184204101562e+00 -8.527947425842285156e+00
1.050000000000000000e+02 6.976499938964843750e+01 -1.187492179870605469e+01 9.069294929504394531e+00 2.991517066955566406e+01 1.169533920288085938e+01 -1.684188461303710938e+01
1.060000000000000000e+02 6.968571472167968750e+01 -1.169234943389892578e+01 6.487670421600341797e+00 2.075217247009277344e+01 8.171953201293945312e+00 -1.259083461761474609e+01
1.070000000000000000e+02 6.960643005371093750e+01 -1.150977706909179688e+01 4.947567939758300781e+00 1.696037864685058594e+01 6.572383403778076172e+00 -1.034804058074951172e+01
1.080000000000000000e+02 6.952715301513671875e+01 -1.132720470428466797e+01 3.720532894134521484e+00 1.499075222015380859e+01 5.613385677337646484e+00 -8.764768600463867188e+00
1.090000000000000000e+02 6.971400451660156250e+01 -1.190327835083007812e+01 1.198909473419189453e+01 2.114661598205566406e+01 9.940713882446289062e+00 -1.724113082885742188e+01
1.100000000000000000e+02 6.960073089599609375e+01 -1.173961067199707031e+01 8.411046028137207031e+00 1.404295444488525391e+01 6.736199855804443359e+00 -1.212823009490966797e+01
1.110000000000000000e+02 6.948745727539062500e+01 -1.157594203948974609e+01 6.289980411529541016e+00 1.136478424072265625e+01 5.296429634094238281e+00 -9.478242874145507812e+00
1.120000000000000000e+02 6.937418365478515625e+01 -1.141227436065673828e+01 4.959937095642089844e+00 9.805109977722167969e+00 4.429513931274414062e+00 -7.863841533660888672e+00
1.130000000000000000e+02 6.966950988769531250e+01 -1.194100952148437500e+01 1.446384429931640625e+01 1.220123577117919922e+01 7.999524116516113281e+00 -1.495106983184814453e+01
1.140000000000000000e+02 6.952656555175781250e+01 -1.180249595642089844e+01 8.970495223999023438e+00 7.676366329193115234e+00 4.994058609008789062e+00 -9.696208953857421875e+00
1.150000000000000000e+02 6.938362121582031250e+01 -1.166398143768310547e+01 6.874417304992675781e+00 6.428514957427978516e+00 3.990879535675048828e+00 -7.312539100646972656e+00
1.160000000000000000e+02 6.924068450927734375e+01 -1.152546787261962891e+01 5.246920108795166016e+00 5.624209880828857422e+00 3.261338949203491211e+00 -6.118471622467041016e+00
1.170000000000000000e+02 6.963319396972656250e+01 -1.198667430877685547e+01 1.383016204833984375e+01 4.202212333679199219e+00 5.409712314605712891e+00 -1.024610328674316406e+01
1.180000000000000000e+02 6.946604156494140625e+01 -1.187860393524169922e+01 8.172328948974609375e+00 2.856902122497558594e+00 3.308769226074218750e+00 -5.794007778167724609e+00
1.190000000000000000e+02 6.929889678955078125e+01 -1.177053356170654297e+01 5.213553428649902344e+00 2.771008253097534180e+00 2.395368337631225586e+00 -4.366609096527099609e+00
1.200000000000000000e+02 6.913174438476562500e+01 -1.166246318817138672e+01 4.242853641510009766e+00 3.138288021087646484e+00 2.214342355728149414e+00 -3.703761577606201172e+00
1.210000000000000000e+02 6.960645294189453125e+01 -1.203852939605712891e+01 1.031243324279785156e+01 -1.577726721763610840e+00 2.620412111282348633e+00 -3.267564773559570312e+00
1.220000000000000000e+02 6.942147827148437500e+01 -1.196502971649169922e+01 3.073351144790649414e+00 4.231336116790771484e-01 1.048945426940917969e+00 -1.742332816123962402e+00
1.230000000000000000e+02 6.923650360107421875e+01 -1.189152908325195312e+01 2.791442632675170898e+00 1.593223452568054199e+00 1.315399885177612305e+00 -2.165743589401245117e+00
1.240000000000000000e+02 6.905152893066406250e+01 -1.181802845001220703e+01 1.838335633277893066e+00 2.667827904224395752e-01 6.315355300903320312e-01 -1.196782350540161133e+00
1.250000000000000000e+02 6.959030914306640625e+01 -1.209459495544433594e+01 -3.809602022171020508e+00 -3.414345741271972656e+00 -2.167184352874755859e+00 2.623991250991821289e+00
1.260000000000000000e+02 6.939456939697265625e+01 -1.205847167968750000e+01 -6.236590743064880371e-01 1.533372282981872559e+00 2.729139626026153564e-01 -6.519069075584411621e-01
1.270000000000000000e+02 6.919883728027343750e+01 -1.202234840393066406e+01 -1.800157189369201660e+00 -7.632810473442077637e-01 -7.690314650535583496e-01 1.198938116431236267e-01
1.280000000000000000e+02 6.900309753417968750e+01 -1.198622417449951172e+01 -1.908953309059143066e+00 5.598925948143005371e-01 -4.047182202339172363e-01 1.539928019046783447e-01
1.290000000000000000e+02 6.796940612792968750e+01 -1.232530498504638672e+01 -1.593410819768905640e-01 -4.574205875396728516e-01 -1.850285083055496216e-01 -3.473741114139556885e-01
1.300000000000000000e+02 7.129993438720703125e+01 -1.216987895965576172e+01 1.088668537139892578e+01 1.737729835510253906e+01 8.479194641113281250e+00 -8.224128186702728271e-02
1.310000000000000000e+02 6.810568237304687500e+01 -1.060564899444580078e+01 -1.578722596168518066e+00 4.720618247985839844e+00 9.425687193870544434e-01 -1.123858213424682617e+00
1.320000000000000000e+02 6.830530548095703125e+01 -1.162954998016357422e+01 8.364371210336685181e-02 -3.848074376583099365e-02 1.354889106005430222e-02 4.868780374526977539e-01
1.330000000000000000e+02 6.795879364013671875e+01 -1.060254859924316406e+01 -3.687860012054443359e+00 -3.772242307662963867e+00 -2.238030672073364258e+00 2.537552356719970703e+00
1.340000000000000000e+02 7.008498382568359375e+01 -1.340597534179687500e+01 1.294259309768676758e+00 2.167950630187988281e+01 6.892129898071289062e+00 3.653074502944946289e+00
1.350000000000000000e+02 6.828292846679687500e+01 -1.339304542541503906e+01 2.544763803482055664e+00 2.937746524810791016e+00 1.644753098487854004e+00 3.243346452713012695e+00
1.360000000000000000e+02 6.771593475341796875e+01 -1.306759548187255859e+01 -2.815189957618713379e-02 -5.295761823654174805e-01 -1.673184335231781006e-01 1.111227367073297501e-02
1.370000000000000000e+02 6.895700836181640625e+01 -1.281104278564453125e+01 5.271135330200195312e+00 3.398723602294921875e+00 2.600957632064819336e+00 4.281830787658691406e+00
1.380000000000000000e+02 6.909939575195312500e+01 -1.296920871734619141e+01 5.623658657073974609e+00 5.952552318572998047e+00 3.472863197326660156e+00 6.184054851531982422e+00
1.390000000000000000e+02 6.967380523681640625e+01 -1.341972064971923828e+01 2.184549093246459961e+00 1.678292655944824219e+01 5.690242767333984375e+00 6.724766254425048828e+00
1.400000000000000000e+02 7.083197021484375000e+01 -1.273571109771728516e+01 9.221155166625976562e+00 2.209186744689941406e+01 9.393906593322753906e+00 -3.155243635177612305e+00
1.410000000000000000e+02 7.114901733398437500e+01 -1.214310073852539062e+01 1.185182666778564453e+01 1.839254951477050781e+01 9.073312759399414062e+00 1.450267285108566284e-01
1.420000000000000000e+02 7.091127777099609375e+01 -1.253261566162109375e+01 1.146446704864501953e+01 2.067824745178222656e+01 9.642814636230468750e+00 -2.568680524826049805e+00
1.430000000000000000e+02 7.096853637695312500e+01 -1.190698719024658203e+01 1.223496150970458984e+01 1.999146652221679688e+01 9.667928695678710938e+00 1.979201078414916992e+00
1.440000000000000000e+02 7.080119323730468750e+01 -1.135913658142089844e+01 6.349787712097167969e+00 2.286534690856933594e+01 8.764540672302246094e+00 2.883993625640869141e+00
1.450000000000000000e+02 7.041684722900390625e+01 -1.085673332214355469e+01 1.049666523933410645e+00 2.277574157714843750e+01 7.147622585296630859e+00 -1.114259839057922363e+00
1.460000000000000000e+02 6.802001190185546875e+01 -1.119709777832031250e+01 6.203462481498718262e-01 -1.351559162139892578e+00 -2.193638682365417480e-01 -1.018439829349517822e-01
1.470000000000000000e+02 6.802861785888671875e+01 -1.187401580810546875e+01 -1.250620633363723755e-01 -1.905649304389953613e-01 -9.468810260295867920e-02 1.549399346113204956e-01
1.480000000000000000e+02 6.909341430664062500e+01 -1.137893009185791016e+01 4.022003173828125000e+00 5.728976726531982422e+00 2.925294160842895508e+00 -5.166197299957275391e+00
1.490000000000000000e+02 6.881320190429687500e+01 -1.195549488067626953e+01 -1.823839545249938965e+00 -3.297738134860992432e-01 -6.460840106010437012e-01 2.687449157238006592e-01
1.500000000000000000e+02 7.090786743164062500e+01 -1.171461772918701172e+01 1.064832782745361328e+01 2.127723121643066406e+01 9.577668190002441406e+00 3.066622972488403320e+00
1.510000000000000000e+02 7.046181488037109375e+01 -1.119408798217773438e+01 2.973336935043334961e+00 2.516209983825683594e+01 8.440630912780761719e+00 6.917546987533569336e-01
1.520000000000000000e+02 6.972730255126953125e+01 -1.073494434356689453e+01 7.243222594261169434e-01 1.768023109436035156e+01 5.521365642547607422e+00 -6.335882186889648438e+00
1.530000000000000000e+02 6.887465667724609375e+01 -1.175768947601318359e+01 1.289387345314025879e+00 1.059619545936584473e+00 7.047020792961120605e-01 -8.037192821502685547e-01
1.540000000000000000e+02 6.879057312011718750e+01 -1.218540668487548828e+01 -1.734548687934875488e+00 -2.627255395054817200e-02 -5.282464027404785156e-01 -1.045848354697227478e-01
1.550000000000000000e+02 6.858867645263671875e+01 -1.219280910491943359e+01 -1.386528372764587402e+00 8.717261254787445068e-02 -3.898067176342010498e-01 -1.477873176336288452e-01
1.560000000000000000e+02 6.905854034423828125e+01 -1.329701900482177734e+01 4.287399768829345703e+00 7.978589057922363281e+00 3.679796695709228516e+00 6.381939411163330078e+00
1.570000000000000000e+02 6.945629119873046875e+01 -1.321126461029052734e+01 3.983417987823486328e+00 1.354541206359863281e+01 5.258648872375488281e+00 8.034776687622070312e+00
1.580000000000000000e+02 6.968288421630859375e+01 -1.323966312408447266e+01 2.882683992385864258e+00 1.786489105224609375e+01 6.224272251129150391e+00 7.472457408905029297e+00
1.590000000000000000e+02 6.799858093261718750e+01 -1.212676525115966797e+01 -1.374294161796569824e-01 -1.019478514790534973e-01 -7.181318104267120361e-02 -1.183132603764533997e-01
1.600000000000000000e+02 6.778980255126953125e+01 -1.329272174835205078e+01 4.147677123546600342e-01 7.111749053001403809e-01 3.377828001976013184e-01 8.100587725639343262e-01
1.610000000000000000e+02 6.770991516113281250e+01 -1.342062950134277344e+01 -1.323470920324325562e-01 1.335777878761291504e+00 3.610292673110961914e-01 1.211034774780273438e+00
1.620000000000000000e+02 6.755356597900390625e+01 -1.339442253112792969e+01 -7.596266865730285645e-01 1.975502073764801025e-01 -1.686229407787322998e-01 4.235455393791198730e-02
1.630000000000000000e+02 6.763312530517578125e+01 -1.323271751403808594e+01 4.974624812602996826e-01 -5.856615304946899414e-02 1.316688954830169678e-01 2.165263146162033081e-01
1.640000000000000000e+02 6.787341308593750000e+01 -1.341643905639648438e+01 1.268614888191223145e+00 1.610785126686096191e+00 8.638200163841247559e-01 2.164132833480834961e+00
1.650000000000000000e+02 6.818917083740234375e+01 -1.214767169952392578e+01 -5.391896963119506836e-01 -2.549318037927150726e-02 -1.694048643112182617e-01 -2.510248720645904541e-01
1.660000000000000000e+02 6.838488769531250000e+01 -1.217766857147216797e+01 -1.029438376426696777e+00 5.533449351787567139e-02 -2.922311723232269287e-01 -2.345439046621322632e-01
1.670000000000000000e+02 6.896714782714843750e+01 -1.156741905212402344e+01 3.282742261886596680e+00 1.976489186286926270e+00 1.577769517898559570e+00 -2.659372568130493164e+00
1.680000000000000000e+02 6.869956970214843750e+01 -1.171280193328857422e+01 9.794784784317016602e-01 1.638916432857513428e-01 3.430110216140747070e-01 -1.733592152595520020e-01
1.690000000000000000e+02 6.843501281738281250e+01 -1.190460968017578125e+01 -1.033936619758605957e+00 3.503219783306121826e-02 -2.996713221073150635e-01 5.083616375923156738e-01
1.700000000000000000e+02 7.097035980224609375e+01 -1.302886772155761719e+01 6.551919937133789062e+00 2.092060470581054688e+01 8.241757392883300781e+00 -2.801174640655517578e+00
1.710000000000000000e+02 7.026697540283203125e+01 -1.093618583679199219e+01 9.404642581939697266e-01 2.333268928527832031e+01 7.281946182250976562e+00 -2.077998638153076172e+00
1.720000000000000000e+02 6.886206817626953125e+01 -1.261334705352783203e+01 3.803241252899169922e+00 1.221921324729919434e+00 1.507548809051513672e+00 1.988397955894470215e+00
1.730000000000000000e+02 6.847269439697265625e+01 -1.065402221679687500e+01 -2.274608612060546875e-02 6.013764381408691406e+00 1.797305583953857422e+00 -2.813859701156616211e+00
1.740000000000000000e+02 6.910540008544921875e+01 -1.347714805603027344e+01 3.698627471923828125e+00 9.210756301879882812e+00 3.872815132141113281e+00 6.710053920745849609e+00
1.750000000000000000e+02 6.888824462890625000e+01 -1.316893196105957031e+01 4.498618125915527344e+00 5.389522552490234375e+00 2.966442108154296875e+00 5.297235012054443359e+00
1.760000000000000000e+02 7.099296569824218750e+01 -1.130218029022216797e+01 6.565704345703125000e+00 2.084077835083007812e+01 8.221944808959960938e+00 2.957051992416381836e+00
1.770000000000000000e+02 6.926013946533203125e+01 -1.310984230041503906e+01 5.009902000427246094e+00 9.614871025085449219e+00 4.387432098388671875e+00 7.604752063751220703e+00
1.780000000000000000e+02 6.961672210693359375e+01 -1.104779148101806641e+01 1.909064292907714844e+00 1.695825386047363281e+01 5.660195350646972656e+00 -7.583156108856201172e+00
1.790000000000000000e+02 6.984689331054687500e+01 -1.104416084289550781e+01 1.051307439804077148e+00 2.092002105712890625e+01 6.591398239135742188e+00 -6.265347480773925781e+00
1.800000000000000000e+02 7.117359924316406250e+01 -1.268357563018798828e+01 9.470943450927734375e+00 1.875724983215332031e+01 8.468458175659179688e+00 -2.712453603744506836e+00
1.810000000000000000e+02 7.011302185058593750e+01 -1.322383117675781250e+01 1.884149074554443359e+00 2.364017868041992188e+01 7.657298564910888672e+00 3.413960695266723633e+00
1.820000000000000000e+02 6.872749328613281250e+01 -1.341791057586669922e+01 3.455195903778076172e+00 5.259263515472412109e+00 2.614337682723999023e+00 4.944533348083496094e+00
1.830000000000000000e+02 7.114646148681640625e+01 -1.163506507873535156e+01 9.329610824584960938e+00 1.924502182006835938e+01 8.572389602661132812e+00 2.637738943099975586e+00
1.840000000000000000e+02 7.082688140869140625e+01 -1.154421901702880859e+01 8.530456542968750000e+00 2.252709007263183594e+01 9.317264556884765625e+00 3.395231962203979492e+00
1.850000000000000000e+02 7.088610839843750000e+01 -1.117685699462890625e+01 4.766563415527343750e+00 2.193786621093750000e+01 8.011328697204589844e+00 2.372788429260253906e+00
1.860000000000000000e+02 6.879258728027343750e+01 -1.097594547271728516e+01 2.059971809387207031e+00 5.318387031555175781e+00 2.213507652282714844e+00 -4.116989135742187500e+00
1.870000000000000000e+02 6.952899932861328125e+01 -1.076749992370605469e+01 1.380738854408264160e+00 1.497683334350585938e+01 4.907271862030029297e+00 -6.827055931091308594e+00
1.880000000000000000e+02 7.032611083984375000e+01 -1.317441654205322266e+01 2.818324089050292969e+00 2.454981803894042969e+01 8.210442543029785156e+00 7.907525897026062012e-01
1.890000000000000000e+02 7.051457214355468750e+01 -1.305325508117675781e+01 4.462188243865966797e+00 2.468919372558593750e+01 8.745414733886718750e+00 -1.470459461212158203e+00
1.900000000000000000e+02 7.063745117187500000e+01 -1.318341827392578125e+01 4.111912727355957031e+00 2.317223739624023438e+01 8.185245513916015625e+00 -1.548039197921752930e+00
1.910000000000000000e+02 7.068539428710937500e+01 -1.290468025207519531e+01 6.864954948425292969e+00 2.368830299377441406e+01 9.165977478027343750e+00 -2.933912754058837891e+00
1.920000000000000000e+02 7.057386779785156250e+01 -1.096864318847656250e+01 2.143450021743774414e+00 2.297380065917968750e+01 7.535175323486328125e+00 2.913644015789031982e-01
1.930000000000000000e+02 7.124972534179687500e+01 -1.253014469146728516e+01 9.999569892883300781e+00 1.793668556213378906e+01 8.380876541137695312e+00 -1.941915392875671387e+00
1.940000000000000000e+02 7.073995208740234375e+01 -1.107511425018310547e+01 3.372819185256958008e+00 2.244794082641601562e+01 7.746228218078613281e+00 1.639657497406005859e+00
1.950000000000000000e+02 7.097882843017578125e+01 -1.211732006072998047e+01 1.315516376495361328e+01 1.958578681945800781e+01 9.822284698486328125e+00 4.706026613712310791e-01
1.960000000000000000e+02 7.040338897705078125e+01 -1.341401767730712891e+01 1.872148513793945312e+00 2.220947837829589844e+01 7.224487781524658203e+00 1.057885050773620605e+00
1.970000000000000000e+02 7.105607604980468750e+01 -1.284986114501953125e+01 7.959406375885009766e+00 1.978425598144531250e+01 8.323099136352539062e+00 -2.819540023803710938e+00
1.980000000000000000e+02 7.022105407714843750e+01 -1.350588417053222656e+01 1.111247897148132324e+00 2.164985847473144531e+01 6.828331470489501953e+00 2.647238731384277344e+00
1.990000000000000000e+02 7.127961730957031250e+01 -1.235142421722412109e+01 1.071438789367675781e+01 1.749586868286132812e+01 8.463076591491699219e+00 -1.069834828376770020e+00
2.000000000000000000e+02 7.079332733154296875e+01 -1.304712963104248047e+01 5.833825111389160156e+00 2.247901535034179688e+01 8.493852615356445312e+00 -2.703522920608520508e+00
2.010000000000000000e+02 7.120745086669921875e+01 -1.182802009582519531e+01 1.048969936370849609e+01 1.848617172241210938e+01 8.692761421203613281e+00 1.818318009376525879e+00
2.020000000000000000e+02 7.107067108154296875e+01 -1.146121692657470703e+01 7.683722019195556641e+00 2.009074783325195312e+01 8.332341194152832031e+00 2.903731584548950195e+00
2.030000000000000000e+02 7.026832580566406250e+01 -1.111938953399658203e+01 1.511352539062500000e+00 2.517235183715820312e+01 8.005110740661621094e+00 -1.521823167800903320e+00
2.040000000000000000e+02 7.005725097656250000e+01 -1.355896282196044922e+01 9.021651744842529297e-01 1.988068771362304688e+01 6.234855651855468750e+00 4.079390525817871094e+00
2.050000000000000000e+02 7.008465576171875000e+01 -1.075014591217041016e+01 2.141842693090438843e-01 2.085465621948242188e+01 6.320652008056640625e+00 -3.957878351211547852e+00
2.060000000000000000e+02 6.989894104003906250e+01 -1.072318935394287109e+01 3.949657976627349854e-01 1.923920059204101562e+01 5.890250205993652344e+00 -5.038395404815673828e+00
2.070000000000000000e+02 6.932785797119140625e+01 -1.347539329528808594e+01 3.224579811096191406e+00 1.191007614135742188e+01 4.540396690368652344e+00 7.005419731140136719e+00
2.080000000000000000e+02 6.951846313476562500e+01 -1.352822303771972656e+01 2.528963327407836914e+00 1.438791084289550781e+01 5.075062274932861328e+00 7.042673110961914062e+00
2.090000000000000000e+02 6.968608856201171875e+01 -1.356366539001464844e+01 1.751976847648620605e+00 1.649929618835449219e+01 5.475381851196289062e+00 5.905706882476806641e+00
2.100000000000000000e+02 6.929429626464843750e+01 -1.076039505004882812e+01 1.770583391189575195e+00 1.217989444732666016e+01 4.185143470764160156e+00 -6.591832160949707031e+00
2.110000000000000000e+02 6.827907562255859375e+01 -1.311716365814208984e+01 2.084649801254272461e+00 1.894808769226074219e+00 1.193837523460388184e+00 2.255722522735595703e+00
2.120000000000000000e+02 6.886550140380859375e+01 -1.070921802520751953e+01 1.508060216903686523e+00 8.081296920776367188e+00 2.876807212829589844e+00 -5.044476032257080078e+00
2.130000000000000000e+02 6.901238250732421875e+01 -1.101637649536132812e+01 2.598433971405029297e+00 7.778034687042236328e+00 3.112940549850463867e+00 -5.351185321807861328e+00
2.140000000000000000e+02 6.924592590332031250e+01 -1.103913307189941406e+01 2.885838747024536133e+00 1.029382324218750000e+01 3.953898668289184570e+00 -6.825527191162109375e+00
2.150000000000000000e+02 6.866404724121093750e+01 -1.068430042266845703e+01 1.142281413078308105e+00 6.112154960632324219e+00 2.176331043243408203e+00 -4.237899303436279297e+00
2.160000000000000000e+02 6.942678070068359375e+01 -1.113756465911865234e+01 2.933156013488769531e+00 1.330638408660888672e+01 4.871861934661865234e+00 -7.822423934936523438e+00
2.170000000000000000e+02 6.810851287841796875e+01 -1.078446960449218750e+01 -9.631989598274230957e-01 -3.459436595439910889e-01 -3.927427828311920166e-01 1.952665001153945923e-01
2.180000000000000000e+02 6.806929779052734375e+01 -1.339523792266845703e+01 1.831068515777587891e+00 2.090679883956909180e+00 1.176524519920349121e+00 2.501691579818725586e+00
2.190000000000000000e+02 6.987424468994140625e+01 -1.356346321105957031e+01 9.416443705558776855e-01 1.855073165893554688e+01 5.847712993621826172e+00 5.168604850769042969e+00
2.200000000000000000e+02 6.797010803222656250e+01 -1.080524349212646484e+01 1.775352835655212402e+00 -3.280839622020721436e-01 4.341806769371032715e-01 -4.058793485164642334e-01
2.210000000000000000e+02 6.798876190185546875e+01 -1.100267982482910156e+01 -1.156255841255187988e+00 -1.045652866363525391e+00 -6.605725884437561035e-01 -1.154043972492218018e-01
2.220000000000000000e+02 6.805529785156250000e+01 -1.140384387969970703e+01 1.064668148756027222e-01 -1.022173404693603516e+00 -2.747119665145874023e-01 3.187021017074584961e-01
2.230000000000000000e+02 6.881308746337890625e+01 -1.239809513092041016e+01 1.411500334739685059e+00 3.132097125053405762e-01 5.174130201339721680e-01 4.746606349945068359e-01
2.240000000000000000e+02 6.787686920166015625e+01 -1.314443492889404297e+01 7.663367986679077148e-01 5.361463427543640137e-01 3.907449543476104736e-01 1.000277519226074219e+00
2.250000000000000000e+02 6.806745147705078125e+01 -1.280670166015625000e+01 6.941477060317993164e-01 3.019666969776153564e-01 2.988343238830566406e-01 4.445257186889648438e-01
2.260000000000000000e+02 6.857709503173828125e+01 -1.094570446014404297e+01 1.121386766433715820e+00 4.724058151245117188e+00 1.753633499145507812e+00 -2.723207712173461914e+00
2.270000000000000000e+02 6.852075195312500000e+01 -1.311254501342773438e+01 3.265029430389404297e+00 2.953839063644409180e+00 1.865660548210144043e+00 3.221606969833374023e+00
2.280000000000000000e+02 6.787295532226562500e+01 -1.271775150299072266e+01 -6.790879368782043457e-02 -1.097036242485046387e+00 -3.494834899902343750e-01 -3.126467466354370117e-01
2.290000000000000000e+02 6.841637420654296875e+01 -1.139757156372070312e+01 1.251240253448486328e+00 1.098136425018310547e+00 7.048130035400390625e-01 -4.633481204509735107e-01
2.300000000000000000e+02 6.861077880859375000e+01 -1.243533611297607422e+01 1.102901458740234375e+00 3.221554458141326904e-01 4.275170862674713135e-01 1.090504974126815796e-01
2.310000000000000000e+02 6.925926208496093750e+01 -1.124433803558349609e+01 3.784593105316162109e+00 8.966818809509277344e+00 3.825423717498779297e+00 -6.971749782562255859e+00
2.320000000000000000e+02 6.851132202148437500e+01 -1.167140007019042969e+01 5.433048009872436523e-01 6.206945180892944336e-01 3.491998016834259033e-01 1.200285926461219788e-01
2.330000000000000000e+02 6.870822906494140625e+01 -1.122082042694091797e+01 1.952765703201293945e+00 4.007514476776123047e+00 1.788084030151367188e+00 -2.619451284408569336e+00
2.340000000000000000e+02 6.860867309570312500e+01 -1.144691467285156250e+01 1.686278343200683594e+00 1.122968077659606934e+00 8.427739143371582031e-01 -9.137566089630126953e-01
2.350000000000000000e+02 6.805895996093750000e+01 -1.315689468383789062e+01 1.400729298591613770e+00 1.258845806121826172e+00 7.978725433349609375e-01 1.648306846618652344e+00
2.360000000000000000e+02 6.842308807373046875e+01 -1.281892299652099609e+01 2.213261604309082031e+00 1.241165995597839355e+00 1.036328315734863281e+00 1.394630789756774902e+00
2.370000000000000000e+02 6.796912384033203125e+01 -1.298805904388427734e+01 6.857767701148986816e-01 3.325147032737731934e-01 3.054874539375305176e-01 7.770521044731140137e-01
2.380000000000000000e+02 6.779787445068359375e+01 -1.289701843261718750e+01 8.729360252618789673e-02 -9.225720167160034180e-01 -2.505835294723510742e-01 -1.877091228961944580e-01
2.390000000000000000e+02 6.828848266601562500e+01 -1.062272644042968750e+01 9.540029168128967285e-01 2.493072748184204102e+00 1.034122705459594727e+00 -2.774487018585205078e+00
2.400000000000000000e+02 6.814369201660156250e+01 -1.093544197082519531e+01 1.298347711563110352e+00 2.205429673194885254e-01 4.556671977043151855e-01 -9.980270266532897949e-01
2.410000000000000000e+02 6.811278533935546875e+01 -1.257671928405761719e+01 3.515473008155822754e-01 1.019620075821876526e-01 1.360527873039245605e-01 -2.027770280838012695e-01
2.420000000000000000e+02 6.792876434326171875e+01 -1.252432537078857422e+01 -4.370940476655960083e-02 -9.209453463554382324e-01 -2.893964350223541260e-01 -4.208602011203765869e-01
2.430000000000000000e+02 6.850746154785156250e+01 -1.339053821563720703e+01 2.903175115585327148e+00 3.865882873535156250e+00 2.030717372894287109e+00 3.923905134201049805e+00
2.440000000000000000e+02 6.874085998535156250e+01 -1.300495243072509766e+01 4.091845035552978516e+00 3.180938243865966797e+00 2.181834936141967773e+00 3.749283552169799805e+00
2.450000000000000000e+02 6.891377258300781250e+01 -1.347219276428222656e+01 3.524627447128295898e+00 6.910074234008789062e+00 3.130410671234130859e+00 5.800349235534667969e+00
2.460000000000000000e+02 6.828448486328125000e+01 -1.257559585571289062e+01 6.834444999694824219e-01 3.761272728443145752e-01 3.178715109825134277e-01 8.404703438282012939e-02
2.470000000000000000e+02 7.074417877197265625e+01 -1.328316116333007812e+01 4.185492515563964844e+00 2.191131210327148438e+01 7.829041004180908203e+00 -1.766728520393371582e+00
2.480000000000000000e+02 7.059318542480468750e+01 -1.335566616058349609e+01 2.984899520874023438e+00 2.254979515075683594e+01 7.660408496856689453e+00 -6.002159118652343750e-01
2.490000000000000000e+02 7.087695312500000000e+01 -1.316795635223388672e+01 4.871158123016357422e+00 2.158679771423339844e+01 7.937386989593505859e+00 -2.103463649749755859e+00
2.500000000000000000e+02 7.109174346923828125e+01 -1.253453254699707031e+01 1.064768314361572266e+01 1.907914924621582031e+01 8.918049812316894531e+00 -2.225255012512207031e+00
2.510000000000000000e+02 7.127025604248046875e+01 -1.200550174713134766e+01 1.102272510528564453e+01 1.768407058715820312e+01 8.612038612365722656e+00 9.085589051246643066e-01
2.520000000000000000e+02 7.062342071533203125e+01 -1.130556678771972656e+01 5.190010547637939453e+00 2.444622802734375000e+01 8.890871047973632812e+00 2.360713958740234375e+00
2.530000000000000000e+02 7.026434326171875000e+01 -1.078114223480224609e+01 4.498651027679443359e-01 2.178773307800292969e+01 6.671279430389404297e+00 -2.620427608489990234e+00
2.540000000000000000e+02 6.986492156982421875e+01 -1.086773490905761719e+01 6.891586780548095703e-01 1.969137763977050781e+01 6.114161014556884766e+00 -5.708898067474365234e+00
2.550000000000000000e+02 6.907282257080078125e+01 -1.073327636718750000e+01 1.849780797958374023e+00 9.449828147888183594e+00 3.389882802963256836e+00 -6.063881874084472656e+00
2.560000000000000000e+02 6.839049530029296875e+01 -1.088587093353271484e+01 1.090484023094177246e+00 2.353825330734252930e+00 1.033292770385742188e+00 -2.212747335433959961e+00
2.570000000000000000e+02 6.814971160888671875e+01 -1.235784912109375000e+01 -2.475968003273010254e-01 -5.778077617287635803e-02 -9.161327034235000610e-02 -5.529853701591491699e-01
2.580000000000000000e+02 6.843714141845703125e+01 -1.250021553039550781e+01 9.404850602149963379e-01 5.726084709167480469e-01 4.539280533790588379e-01 1.743942312896251678e-02
2.590000000000000000e+02 6.864481353759765625e+01 -1.266565513610839844e+01 2.874263286590576172e+00 1.258972406387329102e+00 1.239970684051513672e+00 1.478879451751708984e+00
2.600000000000000000e+02 6.857685852050781250e+01 -1.288632488250732422e+01 3.132016181945800781e+00 1.955137252807617188e+00 1.526146054267883301e+00 2.321100950241088867e+00
2.610000000000000000e+02 6.805904388427734375e+01 -1.163566875457763672e+01 -4.943840950727462769e-02 -5.951458215713500977e-01 -1.933752745389938354e-01 3.185725212097167969e-01
2.620000000000000000e+02 6.823834991455078125e+01 -1.188228321075439453e+01 -4.519471526145935059e-01 -1.770532578229904175e-01 -1.887001246213912964e-01 4.001515507698059082e-01
2.630000000000000000e+02 6.823162841796875000e+01 -1.107990646362304688e+01 -3.118930160999298096e-01 1.306949019432067871e+00 2.985167801380157471e-01 -3.210204541683197021e-01
2.640000000000000000e+02 6.862664031982421875e+01 -1.192990779876708984e+01 -1.577300786972045898e+00 1.686976850032806396e-01 -4.225809276103973389e-01 3.069438934326171875e-01
2.650000000000000000e+02 6.879552459716796875e+01 -1.149831390380859375e+01 2.366122484207153320e+00 2.345352649688720703e+00 1.413442492485046387e+00 -1.815248370170593262e+00
2.660000000000000000e+02 7.006237030029296875e+01 -1.108094215393066406e+01 8.151080012321472168e-01 2.395321464538574219e+01 7.430496692657470703e+00 -4.050779342651367188e+00
2.670000000000000000e+02 7.094802856445312500e+01 -1.232647037506103516e+01 1.297102832794189453e+01 1.984918212890625000e+01 9.846062660217285156e+00 -1.320607900619506836e+00
2.680000000000000000e+02 6.990157318115234375e+01 -1.323282718658447266e+01 1.926161646842956543e+00 2.158582115173339844e+01 7.053594589233398438e+00 5.790746212005615234e+00
2.690000000000000000e+02 6.847165679931640625e+01 -1.266930103302001953e+01 1.707721710205078125e+00 9.335727691650390625e-01 7.923883795738220215e-01 7.340897917747497559e-01
2.700000000000000000e+02 6.832402038574218750e+01 -1.239033126831054688e+01 1.446292847394943237e-01 1.925280988216400146e-01 1.011472120881080627e-01 -5.092250108718872070e-01
2.710000000000000000e+02 6.824668121337890625e+01 -1.080590343475341797e+01 -1.280866265296936035e+00 3.767256736755371094e+00 7.459172010421752930e-01 -7.966528534889221191e-01
2.720000000000000000e+02 6.830145263671875000e+01 -1.126469135284423828e+01 6.926624178886413574e-01 9.616191387176513672e-01 4.962844550609588623e-01 -7.054604291915893555e-01
2.730000000000000000e+02 6.891341400146484375e+01 -1.127169418334960938e+01 3.105060338973999023e+00 4.532469749450683594e+00 2.291259050369262695e+00 -4.033199310302734375e+00
2.740000000000000000e+02 6.850876617431640625e+01 -1.118647003173828125e+01 1.083588004112243652e+00 1.950662255287170410e+00 9.102751016616821289e-01 -1.309661269187927246e+00
2.750000000000000000e+02 7.111244201660156250e+01 -1.233920764923095703e+01 1.198609638214111328e+01 1.878312301635742188e+01 9.230766296386718750e+00 -1.172840595245361328e+00
2.760000000000000000e+02 6.988473510742187500e+01 -1.340173816680908203e+01 1.667992472648620605e+00 2.003916931152343750e+01 6.512148380279541016e+00 5.592452049255371094e+00
2.770000000000000000e+02 7.007075500488281250e+01 -1.091316032409667969e+01 5.415869951248168945e-01 2.247336006164550781e+01 6.904484272003173828e+00 -4.066773414611816406e+00
2.780000000000000000e+02 6.833469390869140625e+01 -1.272128391265869141e+01 1.082285881042480469e+00 7.032623887062072754e-01 5.356644988059997559e-01 5.236113071441650391e-01
2.790000000000000000e+02 6.826860046386718750e+01 -1.287420368194580078e+01 1.707418680191040039e+00 1.062541007995605469e+00 8.309878706932067871e-01 1.052129626274108887e+00
2.800000000000000000e+02 6.735562896728515625e+01 -1.395659732818603516e+01 9.280395507812500000e-01 2.442234516143798828e+00 1.011082291603088379e+00 1.403452992439270020e+00
2.810000000000000000e+02 7.155436706542968750e+01 -1.235157108306884766e+01 9.334522247314453125e+00 1.616602325439453125e+01 7.650163650512695312e+00 -9.074645042419433594e-01
2.820000000000000000e+02 7.574533843994140625e+01 -1.758282852172851562e+01 -2.875372171401977539e-01 9.125040054321289062e+00 2.651251077651977539e+00 -2.010736703872680664e+00
2.830000000000000000e+02 6.427113342285156250e+01 -3.159222412109375000e+01 -1.148511320352554321e-01 3.396694183349609375e+00 9.845529198646545410e-01 4.763419926166534424e-01
2.840000000000000000e+02 6.443067932128906250e+01 -3.975293731689453125e+01 4.597887992858886719e-01 3.557410001754760742e+00 1.205159664154052734e+00 7.420390844345092773e-02
2.850000000000000000e+02 6.780286407470703125e+01 -4.096357727050781250e+01 3.458636701107025146e-01 4.966553688049316406e+00 1.593725204467773438e+00 7.637276500463485718e-02
2.860000000000000000e+02 7.197948455810546875e+01 -4.107482528686523438e+01 1.627679318189620972e-01 7.096098423004150391e+00 2.177659988403320312e+00 2.757789567112922668e-02
2.870000000000000000e+02 7.932361602783203125e+01 -3.333346557617187500e+01 -2.024592459201812744e-02 1.061539268493652344e+01 3.178544044494628906e+00 8.697808720171451569e-03
2.880000000000000000e+02 7.806832122802734375e+01 -3.042246055603027344e+01 -4.215231537818908691e-02 9.996979713439941406e+00 2.986448287963867188e+00 -4.190382733941078186e-02
2.890000000000000000e+02 7.938591003417968750e+01 -2.640044212341308594e+01 -2.174154110252857208e-02 1.036711978912353516e+01 3.103613615036010742e+00 -1.165453195571899414e-01
2.900000000000000000e+02 7.819914245605468750e+01 -2.347349739074707031e+01 -1.280401051044464111e-01 9.373018264770507812e+00 2.773493528366088867e+00 -5.618797540664672852e-01
2.910000000000000000e+02 7.942205047607421875e+01 -2.222805023193359375e+01 -2.987306192517280579e-02 9.223204612731933594e+00 2.757999420166015625e+00 -2.783600389957427979e-01
2.920000000000000000e+02 7.851873779296875000e+01 -1.659050941467285156e+01 4.628909006714820862e-02 6.342019557952880859e+00 1.916492581367492676e+00 -1.172629237174987793e+00
2.930000000000000000e+02 7.828998565673828125e+01 -2.725310564041137695e+00 -1.641906946897506714e-01 8.284301757812500000e+00 2.436033487319946289e+00 6.569366455078125000e-01
2.940000000000000000e+02 7.815642547607421875e+01 4.239307880401611328e+00 -5.593471229076385498e-02 8.668061256408691406e+00 2.583637952804565430e+00 -1.311884820461273193e-01
2.950000000000000000e+02 7.803485870361328125e+01 1.118592834472656250e+01 3.690637415274977684e-03 7.825843811035156250e+00 2.348860263824462891e+00 -2.654317617416381836e-01
2.960000000000000000e+02 7.795169067382812500e+01 1.964249992370605469e+01 1.491616759449243546e-02 6.915167331695556641e+00 2.079025030136108398e+00 -1.779924482107162476e-01
2.970000000000000000e+02 7.652729797363281250e+01 2.263627243041992188e+01 2.947112359106540680e-02 6.453404426574707031e+00 1.944862604141235352e+00 -2.378384619951248169e-01
2.980000000000000000e+02 7.924032592773437500e+01 3.213738250732421875e+01 8.954686112701892853e-03 6.393383026123046875e+00 1.920701384544372559e+00 -2.154403738677501678e-02
2.990000000000000000e+02 7.765601348876953125e+01 3.792098236083984375e+01 -1.150191389024257660e-02 6.059353351593017578e+00 1.814355492591857910e+00 -8.792275190353393555e-02
3.000000000000000000e+02 7.940975189208984375e+01 3.747297668457031250e+01 -8.188562467694282532e-03 6.220381736755371094e+00 1.863657951354980469e+00 -1.942192763090133667e-02
3.010000000000000000e+02 7.149957275390625000e+01 3.810564041137695312e+01 1.013036668300628662e-01 5.207389831542968750e+00 1.592608094215393066e+00 -8.384048938751220703e-02
3.020000000000000000e+02 7.319243621826171875e+01 3.169373703002929688e+01 7.470548897981643677e-02 5.544398307800292969e+00 1.685731172561645508e+00 -2.115719616413116455e-01
3.030000000000000000e+02 7.232991027832031250e+01 2.310380172729492188e+01 1.228074878454208374e-01 5.658457756042480469e+00 1.734379529953002930e+00 -4.214794337749481201e-01
3.040000000000000000e+02 7.219857025146484375e+01 1.715530014038085938e+01 1.560452878475189209e-01 5.853706836700439453e+00 1.802925705909729004e+00 -6.041590571403503418e-01
3.050000000000000000e+02 7.335055541992187500e+01 1.069443035125732422e+01 5.644208937883377075e-02 6.535718441009521484e+00 1.977648138999938965e+00 -7.179519534111022949e-01
3.060000000000000000e+02 7.323235321044921875e+01 1.465078711509704590e+00 -7.823234796524047852e-01 7.743116378784179688e+00 2.088238000869750977e+00 -4.889834225177764893e-01
3.070000000000000000e+02 6.783747100830078125e+01 -8.150691986083984375e+00 3.342653274536132812e+00 1.053649711608886719e+01 4.163745403289794922e+00 -4.853262424468994141e+00
3.080000000000000000e+02 6.620168304443359375e+01 -6.186360359191894531e+00 -1.689499855041503906e+00 2.491348981857299805e+00 2.405547201633453369e-01 -2.846923351287841797e+00
3.090000000000000000e+02 7.054890441894531250e+01 -1.063473510742187500e+01 8.927394151687622070e-01 2.107433509826660156e+01 6.590122222900390625e+00 -8.713464140892028809e-01
3.100000000000000000e+02 7.948460388183593750e+01 -1.249010848999023438e+01 8.049112558364868164e-02 2.893025159835815430e+00 8.920548558235168457e-01 -6.790061295032501221e-02
3.110000000000000000e+02 6.544744110107421875e+01 -1.808072471618652344e+01 1.196116328239440918e+00 3.427413702011108398e+00 1.387059092521667480e+00 1.984000086784362793e+00
3.120000000000000000e+02 6.459442138671875000e+01 -1.918750762939453125e+01 7.874556779861450195e-01 2.325501680374145508e+00 9.338871836662292480e-01 1.394099593162536621e+00
3.130000000000000000e+02 5.992661666870117188e+01 -2.440625572204589844e+01 -9.157634377479553223e-01 -2.499149143695831299e-01 -3.497035205364227295e-01 -5.508651733398437500e-01
3.140000000000000000e+02 5.639820861816406250e+01 -2.899877548217773438e+01 -7.910658717155456543e-01 -2.318478375673294067e-01 -3.068741261959075928e-01 -4.213128983974456787e-01
3.150000000000000000e+02 5.629055786132812500e+01 -3.769919586181640625e+01 5.873813033103942871e-01 6.215264797210693359e-01 3.626723289489746094e-01 1.990741863846778870e-02
3.160000000000000000e+02 6.098358535766601562e+01 -2.547253036499023438e+01 -7.555717229843139648e-01 8.196039795875549316e-01 1.920967921614646912e-02 2.391199953854084015e-02
3.170000000000000000e+02 5.533472824096679688e+01 -2.765335273742675781e+01 -1.474048137664794922e+00 -4.978626668453216553e-01 -5.915732383728027344e-01 -8.297362923622131348e-01
3.180000000000000000e+02 4.880270385742187500e+01 -3.065129852294921875e+01 -1.026404023170471191e+00 -2.431089878082275391e-01 -3.808539211750030518e-01 -4.677493274211883545e-01
3.190000000000000000e+02 4.327636337280273438e+01 -3.220421218872070312e+01 -3.500244915485382080e-01 -6.078011915087699890e-02 -1.232413873076438904e-01 -1.598890870809555054e-01
3.200000000000000000e+02 3.750198364257812500e+01 -3.242141723632812500e+01 -2.615536376833915710e-02 1.077108085155487061e-03 -7.523476611822843552e-03 -1.645636931061744690e-02
3.210000000000000000e+02 3.328530883789062500e+01 -3.219264984130859375e+01 2.049083262681961060e-02 -7.484780158847570419e-03 3.901815740391612053e-03 -7.067424245178699493e-03
3.220000000000000000e+02 3.052650833129882812e+01 -3.165076828002929688e+01 2.113690786063671112e-02 -2.403588965535163879e-03 5.619995296001434326e-03 -5.821472965180873871e-03
3.230000000000000000e+02 3.542564773559570312e+01 -3.998530197143554688e+01 1.158375758677721024e-02 -7.728576660156250000e-02 -1.971060410141944885e-02 -2.124109491705894470e-02
3.240000000000000000e+02 3.752074432373046875e+01 -3.822405624389648438e+01 2.045357599854469299e-02 -9.845741093158721924e-02 -2.340115047991275787e-02 -5.692195519804954529e-02
3.250000000000000000e+02 5.015321731567382812e+01 -3.015032577514648438e+01 -1.179463028907775879e+00 -3.159124255180358887e-01 -4.486126601696014404e-01 -5.838543176651000977e-01
3.260000000000000000e+02 2.776600265502929688e+01 -3.081872367858886719e+01 1.474424917250871658e-02 2.848552539944648743e-04 4.508731421083211899e-03 -4.742378368973731995e-03
3.270000000000000000e+02 2.521343231201171875e+01 -2.949720382690429688e+01 8.137964643537998199e-03 -2.087122265947982669e-04 2.378775738179683685e-03 -3.125375602394342422e-03
3.280000000000000000e+02 2.231358146667480469e+01 -3.817260360717773438e+01 -3.565999912098050117e-03 -4.110998415853828192e-04 -1.193129923194646835e-03 1.754517666995525360e-03
3.290000000000000000e+02 2.203823852539062500e+01 -3.537292861938476562e+01 -5.343927768990397453e-04 2.133778471034020185e-04 -9.630447311792522669e-05 4.203107673674821854e-03
3.300000000000000000e+02 2.282087707519531250e+01 -2.815604400634765625e+01 4.399073775857686996e-03 -1.042969874106347561e-03 1.006831182166934013e-03 -2.388319233432412148e-03
3.310000000000000000e+02 1.746952819824218750e+01 -2.750140571594238281e+01 7.480460917577147484e-04 -6.181875942274928093e-04 3.895755799021571875e-05 -1.255583047168329358e-04
3.320000000000000000e+02 1.652081489562988281e+01 -2.612873649597167969e+01 2.068805741146206856e-03 -5.487395810632733628e-06 6.189955165609717369e-04 2.298335311934351921e-04
3.330000000000000000e+02 1.407622718811035156e+01 -2.081637382507324219e+01 -2.309224801138043404e-04 -2.789325953926891088e-04 -1.529565197415649891e-04 -3.063626645598560572e-04
3.340000000000000000e+02 1.220169448852539062e+01 -1.881381034851074219e+01 -3.342590935062617064e-04 -3.593447618186473846e-04 -2.080811536870896816e-04 -3.140863263979554176e-04
3.350000000000000000e+02 1.026221370697021484e+01 -1.675213813781738281e+01 -3.676270134747028351e-04 -1.371864636894315481e-04 -1.514440373284742236e-04 -2.570531214587390423e-04
3.360000000000000000e+02 8.289850234985351562e+00 -1.585570621490478516e+01 -4.870331322308629751e-04 -1.421567576471716166e-04 -1.887569669634103775e-04 -3.366916280356235802e-05
3.370000000000000000e+02 8.980262756347656250e+00 -1.306081199645996094e+01 4.472782893572002649e-04 2.252990088891237974e-04 2.017731894738972187e-04 2.995729737449437380e-04
3.380000000000000000e+02 3.687635421752929688e+00 -1.988716363906860352e+00 -1.349467038380680606e-05 -2.758857044682372361e-05 -1.232497288583545014e-05 -2.832460086210630834e-05
3.390000000000000000e+02 6.072195172309875488e-01 -1.065702629089355469e+01 -3.238545614294707775e-04 -7.634208486706484109e-06 -9.944663179339841008e-05 -3.353891588631086051e-05
3.400000000000000000e+02 1.814103364944458008e+00 -1.059861564636230469e+01 3.617999027483165264e-04 -1.787191831681411713e-05 1.031783904181793332e-04 6.250965816434472799e-05
3.410000000000000000e+02 6.463892459869384766e-01 -1.771137619018554688e+01 4.759502189699560404e-04 -2.165236219298094511e-05 1.362893526675179601e-04 3.922281393897719681e-05
3.420000000000000000e+02 1.944772958755493164e+00 -1.762154197692871094e+01 -4.686999600380659103e-04 -2.759777635219506919e-05 -1.488893176428973675e-04 -5.931277701165527105e-05
3.430000000000000000e+02 6.684448122978210449e-01 -2.475346565246582031e+01 -5.362715455703437328e-04 -1.266846766156959347e-06 -1.612615305930376053e-04 -1.781634455255698413e-05
3.440000000000000000e+02 8.474183082580566406e-01 -3.182410240173339844e+01 3.243698156438767910e-04 5.441270768642425537e-04 2.605490735732018948e-04 6.049430157872848213e-05
3.450000000000000000e+02 2.602969884872436523e+00 -3.824124526977539062e+01 8.652779797557741404e-05 1.225142274051904678e-03 3.935010172426700592e-04 2.094807859975844622e-04
3.460000000000000000e+02 8.040323257446289062e-01 -3.742542266845703125e+01 2.195991546614095569e-04 1.091171754524111748e-03 3.932312538381665945e-04 4.472191722015850246e-05
3.470000000000000000e+02 6.199708938598632812e+00 -3.196261405944824219e+01 6.641763029620051384e-04 2.628053771331906319e-04 2.780944923870265484e-04 6.018904387019574642e-04
3.480000000000000000e+02 1.476590156555175781e+01 -2.376113891601562500e+01 9.045634069480001926e-04 1.738020946504548192e-04 3.235096519347280264e-04 1.750938099576160312e-04
3.490000000000000000e+02 1.276066970825195312e+01 -2.340407943725585938e+01 8.217431604862213135e-04 1.351851824438199401e-04 2.870784956030547619e-04 2.412604953860864043e-04
3.500000000000000000e+02 6.557331681251525879e-01 -2.334687232971191406e+01 5.502100684680044651e-04 -2.551922989368904382e-05 1.574072521179914474e-04 4.701232319348491728e-05
3.510000000000000000e+02 1.011403083801269531e+01 -1.222980213165283203e+01 1.554392365505918860e-04 -1.234416995430365205e-04 9.599261829862371087e-06 -9.255758777726441622e-05
3.520000000000000000e+02 1.292355346679687500e+01 -1.185008716583251953e+01 -4.616272053681313992e-05 1.824469509301707149e-04 4.088526839041151106e-05 1.921893635881133378e-05
3.530000000000000000e+02 1.894472122192382812e+01 -7.130409240722656250e+00 -1.381179172312840819e-04 -1.501476708654081449e-05 -4.593980338540859520e-05 -5.565503306570462883e-05
3.540000000000000000e+02 1.863816642761230469e+01 -1.085732936859130859e+01 -5.809055437566712499e-05 -6.215773464646190405e-05 -3.607448525144718587e-05 -5.163519381312653422e-05
3.550000000000000000e+02 1.973590087890625000e+01 -8.281904220581054688e+00 -1.077429187716916203e-04 -2.013504490605555475e-05 -3.836338873952627182e-05 -5.831518137711100280e-05
3.560000000000000000e+02 1.880314826965332031e+01 -8.044287681579589844e+00 -1.318625872954726219e-04 -7.562503924418706447e-06 -4.182752672932110727e-05 -8.008346048882231116e-05
3.570000000000000000e+02 2.115303230285644531e+01 -1.074754428863525391e+01 -5.532164868782274425e-05 -2.769349885056726635e-05 -2.490454426151700318e-05 -1.577803050167858601e-05
3.580000000000000000e+02 1.901336860656738281e+01 -1.387006282806396484e+01 -3.611049032770097256e-05 -9.550588583806529641e-05 -3.948491212213411927e-05 -3.211737202946096659e-05
3.590000000000000000e+02 2.216721343994140625e+01 -1.280642700195312500e+01 5.792915180791169405e-05 -3.944295485780457966e-07 1.726041591609828174e-05 2.247464726679027081e-05
3.600000000000000000e+02 2.346977424621582031e+01 -1.483860778808593750e+01 -4.268929478712379932e-05 6.257020572775218170e-07 -1.261907800653716549e-05 -3.534030838636681437e-05
3.610000000000000000e+02 2.480687522888183594e+01 -1.699405860900878906e+01 4.132346657570451498e-05 3.974060746259056032e-06 1.358925874228589237e-05 1.542793143016751856e-05
3.620000000000000000e+02 1.724261856079101562e+01 -5.301473140716552734e+00 1.109472796088084579e-04 2.432381006656214595e-05 4.058132617501541972e-05 3.906803976860828698e-05
3.630000000000000000e+02 1.587878036499023438e+01 -4.257610797882080078e+00 5.860249439137987792e-05 3.921647657989524305e-05 2.934569056378677487e-05 3.205147004337050021e-05
3.640000000000000000e+02 1.275540542602539062e+01 -2.728155612945556641e+00 8.617193816462531686e-05 1.281685672438470647e-05 2.969663728435989469e-05 1.212687129736877978e-05
3.650000000000000000e+02 1.106572341918945312e+01 -2.240079164505004883e+00 4.596470171236433089e-05 3.573561116354539990e-05 2.451009459036868066e-05 1.102286114473827183e-05
3.660000000000000000e+02 9.386322975158691406e+00 -1.940474510192871094e+00 3.388996265130117536e-05 5.179177969694137573e-05 2.570452306827064604e-05 -1.674252303018874954e-06
3.670000000000000000e+02 1.153975391387939453e+01 -1.075566768646240234e+01 -3.209691785741597414e-04 -1.499523059464991093e-04 -1.412764395354315639e-04 -1.433505967725068331e-04
3.680000000000000000e+02 8.578759193420410156e+00 -1.922822475433349609e+00 -3.627226760727353394e-05 -5.723369031329639256e-05 -2.805178701237309724e-05 3.301562628621468320e-06
3.690000000000000000e+02 1.767466545104980469e+01 -4.093302154541015625e+01 -2.999093616381287575e-03 1.126217539422214031e-03 -5.618628347292542458e-04 -1.113953840103931725e-04
3.700000000000000000e+02 2.136475563049316406e+01 -3.090206527709960938e+01 3.372613573446869850e-03 -5.426453426480293274e-04 8.489904575981199741e-04 1.804464962333440781e-03
3.710000000000000000e+02 1.992065429687500000e+01 -3.288166046142578125e+01 1.709954696707427502e-03 -5.678146844729781151e-04 3.426420153118669987e-04 3.226782428100705147e-03
3.720000000000000000e+02 7.797782897949218750e+01 -4.163958740234375000e+01 1.999252140522003174e-01 9.835996627807617188e+00 3.010776519775390625e+00 5.621742829680442810e-02
3.730000000000000000e+02 7.782484436035156250e+01 -3.703213119506835938e+01 4.374166019260883331e-03 9.806171417236328125e+00 2.943163633346557617e+00 1.059049442410469055e-01
3.740000000000000000e+02 6.237828826904296875e+01 4.037001419067382812e+01 3.629637956619262695e-01 3.738699674606323242e+00 1.230499029159545898e+00 -6.928861141204833984e-02
3.750000000000000000e+02 6.326535034179687500e+01 2.920773506164550781e+01 3.247352540493011475e-01 3.872483253479003906e+00 1.259165525436401367e+00 -4.041668474674224854e-01
3.760000000000000000e+02 6.206651306152343750e+01 2.127800178527832031e+01 3.566089272499084473e-01 3.691865921020507812e+00 1.214542388916015625e+00 -5.602579712867736816e-01
3.770000000000000000e+02 6.034761047363281250e+01 1.864811706542968750e+01 4.521799981594085693e-01 3.399811506271362305e+00 1.155597448348999023e+00 -5.367755889892578125e-01
3.780000000000000000e+02 6.196403503417968750e+01 1.248998737335205078e+01 5.736216306686401367e-01 3.420497179031372070e+00 1.198235630989074707e+00 -7.277249097824096680e-01
3.790000000000000000e+02 6.236210250854492188e+01 2.007015705108642578e+00 1.701405271887779236e-02 2.248538017272949219e+00 6.796656250953674316e-01 -1.077371120452880859e+00
3.800000000000000000e+02 6.388232803344726562e+01 -6.987756252288818359e+00 -5.716853618621826172e+00 -1.125919818878173828e+00 -2.052831888198852539e+00 -1.890664696693420410e+00
3.810000000000000000e+02 6.704971313476562500e+01 -7.258563518524169922e+00 8.792121410369873047e-01 4.774555683135986328e+00 1.696130275726318359e+00 -3.462215185165405273e+00
3.820000000000000000e+02 5.722955703735351562e+01 4.025128173828125000e+01 5.266668796539306641e-01 2.838851213455200195e+00 1.009655356407165527e+00 -6.682352721691131592e-02
3.830000000000000000e+02 6.178297042846679688e+01 3.626764678955078125e+01 3.725224137306213379e-01 3.636850118637084961e+00 1.202811837196350098e+00 -1.934246271848678589e-01
3.840000000000000000e+02 5.833829498291015625e+01 2.918745422363281250e+01 4.548080861568450928e-01 2.981069087982177734e+00 1.030763149261474609e+00 -4.327475428581237793e-01
3.850000000000000000e+02 5.494151306152343750e+01 2.163683891296386719e+01 3.869186639785766602e-01 2.140688419342041016e+00 7.582821249961853027e-01 -6.831092238426208496e-01
3.860000000000000000e+02 5.387034225463867188e+01 1.749954605102539062e+01 5.999701619148254395e-01 1.363349795341491699e+00 5.889959931373596191e-01 -9.460096955299377441e-01
3.870000000000000000e+02 5.525856018066406250e+01 1.860076904296875000e+01 2.753355801105499268e-01 2.693552970886230469e+00 8.906665444374084473e-01 -8.484226465225219727e-01
3.880000000000000000e+02 5.756604003906250000e+01 1.493784332275390625e+01 6.983001232147216797e-01 3.053926706314086914e+00 1.125668048858642578e+00 -5.083490610122680664e-01
3.890000000000000000e+02 5.553461456298828125e+01 1.447628498077392578e+01 5.427334904670715332e-01 3.927280902862548828e+00 1.341004252433776855e+00 -7.929143905639648438e-01
3.900000000000000000e+02 5.542418289184570312e+01 1.329758739471435547e+01 2.123970352113246918e-02 3.657048702239990234e+00 1.103486537933349609e+00 -2.318884581327438354e-01
3.910000000000000000e+02 5.622944641113281250e+01 1.116170978546142578e+01 3.403241634368896484e-01 3.034111022949218750e+00 1.012330532073974609e+00 -7.362341973930597305e-03
3.920000000000000000e+02 5.725023651123046875e+01 1.210835456848144531e+01 4.979718923568725586e-01 2.961233854293823242e+00 1.037761807441711426e+00 -4.071882069110870361e-01
3.930000000000000000e+02 5.354807281494140625e+01 7.811890125274658203e+00 5.276838541030883789e-01 7.950644493103027344e-01 3.968245089054107666e-01 5.246303677558898926e-01
3.940000000000000000e+02 5.462525558471679688e+01 8.859598159790039062e+00 4.802509248256683350e-01 1.555966377258300781e+00 6.108651757240295410e-01 6.241580247879028320e-01
3.950000000000000000e+02 5.227400588989257812e+01 7.050426483154296875e+00 4.944159090518951416e-01 3.060639202594757080e-01 2.401439547538757324e-01 3.381075859069824219e-01
3.960000000000000000e+02 4.993754959106445312e+01 3.794642210006713867e+00 6.760906428098678589e-02 1.843059509992599487e-01 7.557450234889984131e-02 3.163192868232727051e-01
3.970000000000000000e+02 4.764750289916992188e+01 -1.248292803764343262e+00 -4.877695143222808838e-01 2.826093137264251709e-01 -6.154806166887283325e-02 3.168359100818634033e-01
3.980000000000000000e+02 4.354269027709960938e+01 -1.251432895660400391e+01 -8.331460952758789062e-01 1.562004238367080688e-01 -2.030837088823318481e-01 7.774348836392164230e-03
3.990000000000000000e+02 3.594950103759765625e+01 -1.268301391601562500e+01 -6.191282272338867188e-01 1.379074305295944214e-01 -1.443662345409393311e-01 2.063109725713729858e-01
4.000000000000000000e+02 2.709058380126953125e+01 -1.346199321746826172e+01 -2.744673490524291992e-01 -1.825461983680725098e-01 -1.371040642261505127e-01 2.899806797504425049e-01
4.010000000000000000e+02 2.718599510192871094e+01 -1.246231269836425781e+01 -3.398784697055816650e-01 -1.923412829637527466e-01 -1.596659272909164429e-01 3.467322289943695068e-01
4.020000000000000000e+02 3.392520141601562500e+01 -1.800022888183593750e+01 -3.640713393688201904e-01 1.627562195062637329e-02 -1.043387129902839661e-01 1.052201241254806519e-01
4.030000000000000000e+02 3.476362609863281250e+01 -1.648026275634765625e+01 -4.508248567581176758e-01 3.874130547046661377e-02 -1.236250624060630798e-01 1.273071765899658203e-01
4.040000000000000000e+02 3.907829284667968750e+01 -1.846607208251953125e+01 -5.130746364593505859e-01 1.020491123199462891e-02 -1.508609205484390259e-01 -2.290580607950687408e-02
4.050000000000000000e+02 4.440254974365234375e+01 -1.733343124389648438e+01 -7.388584017753601074e-01 -5.082079023122787476e-02 -2.369037568569183350e-01 -1.914121806621551514e-01
4.060000000000000000e+02 4.296902847290039062e+01 -1.644361686706542969e+01 -7.106053233146667480e-01 3.046904318034648895e-02 -2.040408849716186523e-01 -9.295790642499923706e-02
4.070000000000000000e+02 4.308865737915039062e+01 -1.773581314086914062e+01 -6.383246779441833496e-01 -1.896904967725276947e-02 -1.971881240606307983e-01 -1.517027914524078369e-01
4.080000000000000000e+02 5.322890090942382812e+01 -1.349864959716796875e+01 -1.250861763954162598e+00 -2.981545329093933105e-01 -4.647048711776733398e-01 -6.229521632194519043e-01
4.090000000000000000e+02 5.744177627563476562e+01 -9.528184890747070312e+00 -2.149682998657226562e+00 -3.230835199356079102e-01 -7.418299317359924316e-01 -8.490731120109558105e-01
4.100000000000000000e+02 5.911485671997070312e+01 -9.847555160522460938e+00 -2.466180801391601562e+00 -7.908763885498046875e-01 -9.771171212196350098e-01 -1.351716160774230957e+00
4.110000000000000000e+02 5.803344726562500000e+01 -7.731954097747802734e+00 -2.275733470916748047e+00 -5.655875056982040405e-02 -6.996876597404479980e-01 -5.677720308303833008e-01
4.120000000000000000e+02 5.915669631958007812e+01 -6.973759651184082031e+00 -2.404355287551879883e+00 -3.031967207789421082e-02 -7.304025292396545410e-01 -5.850195884704589844e-01
4.130000000000000000e+02 5.356546020507812500e+01 3.340611219406127930e+00 3.392455726861953735e-02 7.028250098228454590e-01 2.210248559713363647e-01 3.375467956066131592e-01
4.140000000000000000e+02 5.101291275024414062e+01 6.458165645599365234e+00 3.404527604579925537e-01 1.245988309383392334e-01 1.395154744386672974e-01 2.009287476539611816e-01
4.150000000000000000e+02 5.210600662231445312e+01 4.032804107666015625e+01 6.360130310058593750e-01 2.124814033508300781e+00 8.282480835914611816e-01 -3.410657867789268494e-02
4.160000000000000000e+02 5.141685485839843750e+01 3.182744789123535156e+01 6.643547415733337402e-01 1.794185757637023926e+00 7.375621795654296875e-01 -1.424908339977264404e-01
4.170000000000000000e+02 4.840264129638671875e+01 2.269327163696289062e+01 6.630550026893615723e-01 6.984959244728088379e-01 4.084652662277221680e-01 1.262196302413940430e-01
4.180000000000000000e+02 4.922911834716796875e+01 1.905378532409667969e+01 7.250078767538070679e-02 1.220499202609062195e-01 5.836521089076995850e-02 4.960772395133972168e-02
4.190000000000000000e+02 5.193820953369140625e+01 1.868501281738281250e+01 3.702828586101531982e-01 6.237024068832397461e-01 2.981955707073211670e-01 -4.624318480491638184e-01
4.200000000000000000e+02 4.227478027343750000e+01 4.058618164062500000e+01 6.640374660491943359e-01 1.003410458564758301e+00 5.002343654632568359e-01 1.485185232013463974e-02
4.210000000000000000e+02 4.223591995239257812e+01 3.305726242065429688e+01 6.332675814628601074e-01 9.393035173416137695e-01 4.717713296413421631e-01 9.317126870155334473e-02
4.220000000000000000e+02 4.710733032226562500e+01 2.321564865112304688e+01 6.231580972671508789e-01 7.930626273155212402e-01 4.248662292957305908e-01 2.252911925315856934e-01
4.230000000000000000e+02 4.113932800292968750e+01 1.567587280273437500e+01 4.798423349857330322e-01 1.278065443038940430e+00 5.273723602294921875e-01 2.848141193389892578e-01
4.240000000000000000e+02 4.261361312866210938e+01 1.593868923187255859e+01 6.185936331748962402e-01 1.756046652793884277e+00 7.123920917510986328e-01 5.682989954948425293e-01
4.250000000000000000e+02 4.387265777587890625e+01 1.650370979309082031e+01 8.151070475578308105e-01 1.685390114784240723e+00 7.501491308212280273e-01 8.839860558509826660e-01
4.260000000000000000e+02 3.734997558593750000e+01 4.049055099487304688e+01 6.114915013313293457e-01 6.287314891815185547e-01 3.720668852329254150e-01 2.722267247736454010e-02
4.270000000000000000e+02 4.190763473510742188e+01 3.671518325805664062e+01 6.531227827072143555e-01 9.506257176399230957e-01 4.811245501041412354e-01 5.452021211385726929e-02
4.280000000000000000e+02 3.513793563842773438e+01 3.044352912902832031e+01 4.919642210006713867e-01 4.345237314701080322e-01 2.779463827610015869e-01 1.684046089649200439e-01
4.290000000000000000e+02 3.750751113891601562e+01 2.405284881591796875e+01 3.697991073131561279e-01 6.305029392242431641e-01 3.000906109809875488e-01 1.877381056547164917e-01
4.300000000000000000e+02 4.070896911621093750e+01 1.702618408203125000e+01 4.455575942993164062e-01 1.180049061775207520e+00 4.876819849014282227e-01 2.598595023155212402e-01
4.310000000000000000e+02 3.875606536865234375e+01 1.204663085937500000e+01 2.532303929328918457e-01 7.709401249885559082e-01 3.072511553764343262e-01 4.448788464069366455e-01
4.320000000000000000e+02 2.892785263061523438e+01 5.588580608367919922e+00 2.210865318775177002e-01 -1.435971260070800781e-01 2.324682287871837616e-02 4.254624843597412109e-01
4.330000000000000000e+02 2.615673637390136719e+01 -5.003274917602539062e+00 -7.920860648155212402e-01 -9.888280183076858521e-02 -2.672906517982482910e-01 4.594357311725616455e-01
4.340000000000000000e+02 2.552972030639648438e+01 -1.089147281646728516e+01 -3.757007420063018799e-01 -3.506268262863159180e-01 -2.178982645273208618e-01 4.206757247447967529e-01
4.350000000000000000e+02 2.660180091857910156e+01 -1.283100986480712891e+01 -2.925462126731872559e-01 -2.252814769744873047e-01 -1.553483009338378906e-01 3.196610212326049805e-01
4.360000000000000000e+02 3.223308181762695312e+01 4.022631835937500000e+01 5.227100253105163574e-01 2.859122157096862793e-01 2.425866723060607910e-01 4.686583951115608215e-02
4.370000000000000000e+02 2.972312927246093750e+01 2.350035858154296875e+01 3.839230537414550781e-01 -5.422712117433547974e-02 9.890878200531005859e-02 2.433297783136367798e-01
4.380000000000000000e+02 2.734193229675292969e+01 1.634031867980957031e+01 -8.463761955499649048e-02 -4.910514950752258301e-01 -1.727067381143569946e-01 2.567594945430755615e-01
4.390000000000000000e+02 2.702902793884277344e+01 1.016177082061767578e+01 -4.652216657996177673e-02 -5.009657144546508789e-01 -1.642463505268096924e-01 5.908908843994140625e-01
4.400000000000000000e+02 2.584278488159179688e+01 5.510265827178955078e+00 4.762918055057525635e-01 -2.198220789432525635e-02 1.362928748130798340e-01 2.611865997314453125e-01
4.410000000000000000e+02 2.358603096008300781e+01 4.167484283447265625e+00 4.103023111820220947e-01 2.965274751186370850e-01 2.120489478111267090e-01 2.612107098102569580e-01
4.420000000000000000e+02 1.968210792541503906e+01 3.470262527465820312e+00 -8.752944320440292358e-02 -1.037214547395706177e-01 -5.737527087330818176e-02 5.578124523162841797e-01
4.430000000000000000e+02 1.713731384277343750e+01 5.010905861854553223e-01 -6.068022847175598145e-01 -9.109408259391784668e-01 -4.553229510784149170e-01 8.786254525184631348e-01
4.440000000000000000e+02 1.994767951965332031e+01 1.855785608291625977e+00 -3.592962920665740967e-01 -2.707237005233764648e-01 -1.890060007572174072e-01 7.156155109405517578e-01
4.450000000000000000e+02 1.759668922424316406e+01 -7.832087874412536621e-01 -9.278355836868286133e-01 -9.189609289169311523e-01 -5.540389418601989746e-01 9.282587766647338867e-01
4.460000000000000000e+02 1.970192909240722656e+01 -2.315815925598144531e+00 -1.128124713897705078e+00 -8.673108816146850586e-01 -5.986306667327880859e-01 8.705030083656311035e-01
4.470000000000000000e+02 2.139743232727050781e+01 -4.239960670471191406e+00 -1.052006602287292480e+00 -7.818934917449951172e-01 -5.501700043678283691e-01 8.275804519653320312e-01
4.480000000000000000e+02 2.171504020690917969e+01 4.559676647186279297e+00 8.710917234420776367e-01 2.269819676876068115e-01 3.294220864772796631e-01 3.989075422286987305e-01
4.490000000000000000e+02 2.209744262695312500e+01 4.065700531005859375e+01 2.941961884498596191e-01 -2.047005295753479004e-01 2.684869430959224701e-02 4.102806746959686279e-02
4.500000000000000000e+02 2.600996971130371094e+01 3.121674537658691406e+01 3.867005705833435059e-01 -8.935584872961044312e-02 8.920341730117797852e-02 2.566200494766235352e-01
4.510000000000000000e+02 2.287758064270019531e+01 2.136159896850585938e+01 3.324444591999053955e-01 -4.015278816223144531e-01 -2.072502486407756805e-02 5.602415800094604492e-01
4.520000000000000000e+02 1.925022888183593750e+01 1.764303588867187500e+01 5.743235945701599121e-01 1.104669570922851562e-01 2.054371684789657593e-01 5.319793820381164551e-01
4.530000000000000000e+02 2.136465835571289062e+01 1.809180641174316406e+01 2.612204253673553467e-01 -3.912762403488159180e-01 -3.901674598455429077e-02 7.036835551261901855e-01
4.540000000000000000e+02 2.245789337158203125e+01 1.562865543365478516e+01 -7.181704640388488770e-01 -5.346727967262268066e-01 -3.758529722690582275e-01 5.913524627685546875e-01
4.550000000000000000e+02 2.420577430725097656e+01 1.592606258392333984e+01 -3.062470853328704834e-01 -8.701982498168945312e-01 -3.529335856437683105e-01 5.338094830513000488e-01
4.560000000000000000e+02 2.356847572326660156e+01 1.488048076629638672e+01 -8.269876837730407715e-01 -8.222849369049072266e-01 -4.947817921638488770e-01 7.678973078727722168e-01
4.570000000000000000e+02 2.546869468688964844e+01 1.272250366210937500e+01 -5.846593379974365234e-01 -1.546172499656677246e+00 -6.392495632171630859e-01 6.597050428390502930e-01
4.580000000000000000e+02 2.570403099060058594e+01 1.128335857391357422e+01 -1.206008642911911011e-01 -1.223871469497680664e+00 -4.033417105674743652e-01 3.594377040863037109e-01
4.590000000000000000e+02 2.575474929809570312e+01 9.925088882446289062e+00 -4.470971971750259399e-02 -6.745010018348693848e-01 -2.157632112503051758e-01 2.040414065122604370e-01
4.600000000000000000e+02 2.577549934387207031e+01 8.640869140625000000e+00 1.632902920246124268e-01 -1.505528688430786133e-01 3.821228398010134697e-03 3.066770434379577637e-01
4.610000000000000000e+02 2.616935920715332031e+01 7.362309932708740234e+00 3.588246405124664307e-01 -1.729369163513183594e-02 1.024592891335487366e-01 4.039212167263031006e-01
4.620000000000000000e+02 2.498374557495117188e+01 6.696539402008056641e+00 5.043694972991943359e-01 3.530363738536834717e-01 2.572217583656311035e-01 4.478830397129058838e-01
4.630000000000000000e+02 2.401719665527343750e+01 5.846486091613769531e+00 7.757751345634460449e-01 4.944255650043487549e-01 3.810602128505706787e-01 5.441595315933227539e-01
4.640000000000000000e+02 1.728851318359375000e+01 4.089695358276367188e+01 1.839346736669540405e-01 -4.023236036300659180e-01 -6.551668047904968262e-02 3.482400998473167419e-02
4.650000000000000000e+02 2.104788017272949219e+01 3.690422058105468750e+01 2.719520032405853271e-01 -2.399665713310241699e-01 9.595635347068309784e-03 1.416776627302169800e-01
4.660000000000000000e+02 1.750051689147949219e+01 3.217595672607421875e+01 1.886509209871292114e-01 -3.388561308383941650e-01 -4.506156221032142639e-02 2.381280213594436646e-01
4.670000000000000000e+02 1.594495201110839844e+01 2.178381156921386719e+01 1.607870906591415405e-01 -7.783405482769012451e-02 2.488590963184833527e-02 3.720048367977142334e-01
4.680000000000000000e+02 1.808769035339355469e+01 1.667494392395019531e+01 1.051719784736633301e+00 2.811105251312255859e-01 3.998490869998931885e-01 5.057941079139709473e-01
4.690000000000000000e+02 1.837224197387695312e+01 1.881842994689941406e+01 3.349997997283935547e-01 1.836640238761901855e-01 1.555991470813751221e-01 6.032102704048156738e-01
4.700000000000000000e+02 1.753766632080078125e+01 1.798147964477539062e+01 3.774191737174987793e-01 3.890714347362518311e-01 2.299471795558929443e-01 5.065692663192749023e-01
4.710000000000000000e+02 1.257945346832275391e+01 4.111775588989257812e+01 9.058675169944763184e-02 -6.450896263122558594e-01 -1.663508564233779907e-01 1.936714351177215576e-02
4.720000000000000000e+02 8.103307723999023438e+00 4.115832901000976562e+01 2.899836748838424683e-02 -9.396082162857055664e-01 -2.731829583644866943e-01 1.319532375782728195e-02
4.730000000000000000e+02 7.253282546997070312e+00 3.192008972167968750e+01 3.267064318060874939e-02 -9.097128510475158691e-01 -2.631126642227172852e-01 8.462973684072494507e-02
4.740000000000000000e+02 8.214593887329101562e+00 2.241370582580566406e+01 1.290302127599716187e-01 -7.007281780242919922e-01 -1.715093851089477539e-01 1.963800489902496338e-01
4.750000000000000000e+02 1.254581928253173828e+01 1.491806030273437500e+01 5.206079483032226562e-01 -4.889578223228454590e-01 9.495034813880920410e-03 4.512434601783752441e-01
4.760000000000000000e+02 1.320956420898437500e+01 9.721132278442382812e+00 -3.251924812793731689e-01 -1.007293820381164551e+00 -3.997458815574645996e-01 7.018165588378906250e-01
4.770000000000000000e+02 6.193767070770263672e+00 1.872124433517456055e+00 -8.726538717746734619e-02 -1.211319584399461746e-02 -2.981357462704181671e-02 3.592941164970397949e-02
4.780000000000000000e+02 1.066155052185058594e+01 1.746328234672546387e+00 -3.395636677742004395e-01 -1.520581692457199097e-01 -1.474865525960922241e-01 2.290206551551818848e-01
4.790000000000000000e+02 1.226527023315429688e+01 1.371154904365539551e+00 -4.318876564502716064e-01 -3.091120421886444092e-01 -2.222999036312103271e-01 3.818117082118988037e-01
4.800000000000000000e+02 1.406021690368652344e+01 1.704252958297729492e+00 -4.651697576045989990e-01 -7.062579393386840820e-01 -3.514283001422882080e-01 6.266497969627380371e-01
4.810000000000000000e+02 1.482135200500488281e+01 1.440406084060668945e+00 -4.802835881710052490e-01 -7.898524403572082520e-01 -3.810408115386962891e-01 7.270073890686035156e-01
4.820000000000000000e+02 1.449680233001708984e+01 8.361795425415039062e+00 -5.496434569358825684e-01 -1.980806946754455566e+00 -7.591351270675659180e-01 7.622870802879333496e-01
4.830000000000000000e+02 1.438739395141601562e+01 1.094094085693359375e+01 -4.386856406927108765e-02 -8.558275103569030762e-01 -2.699088156223297119e-01 2.002259790897369385e-01
4.840000000000000000e+02 1.442568111419677734e+01 1.231816291809082031e+01 1.733947247266769409e-01 -2.846149504184722900e-01 -3.336606547236442566e-02 2.684990763664245605e-01
4.850000000000000000e+02 1.478926181793212891e+01 1.364450645446777344e+01 3.232933282852172852e-01 2.151426225900650024e-01 1.615307927131652832e-01 4.348451793193817139e-01
4.860000000000000000e+02 1.562233638763427734e+01 1.605049896240234375e+01 8.774840235710144043e-01 3.913743793964385986e-01 3.806575238704681396e-01 4.779143333435058594e-01
4.870000000000000000e+02 1.543148422241210938e+01 1.478040504455566406e+01 7.866268157958984375e-01 5.475955605506896973e-01 4.002667367458343506e-01 5.870707035064697266e-01
4.880000000000000000e+02 1.403288650512695312e+01 1.527929306030273438e+01 6.949326395988464355e-01 -2.136745452880859375e-01 1.443774253129959106e-01 3.644204437732696533e-01
4.890000000000000000e+02 2.001951694488525391e+00 4.164490509033203125e+01 -2.994383126497268677e-02 -1.401409506797790527e+00 -4.294060170650482178e-01 -8.498512208461761475e-03
4.900000000000000000e+02 4.420116424560546875e+00 3.772787857055664062e+01 2.105829119682312012e-02 -1.221387505531311035e+00 -3.600987792015075684e-01 4.124179482460021973e-02
4.910000000000000000e+02 2.045169353485107422e+00 3.593556594848632812e+01 8.894547820091247559e-03 -1.375222325325012207e+00 -4.098983407020568848e-01 -9.228519164025783539e-03
4.920000000000000000e+02 2.205456972122192383e+00 2.899244308471679688e+01 5.053886212408542633e-03 -1.293432712554931641e+00 -3.865136504173278809e-01 2.780266292393207550e-02
4.930000000000000000e+02 1.986235618591308594e+00 2.323843955993652344e+01 1.114521175622940063e-02 -1.198793411254882812e+00 -3.562944829463958740e-01 5.541154369711875916e-02
4.940000000000000000e+02 1.744779825210571289e+00 1.768596267700195312e+01 1.995072141289710999e-02 -9.730682373046875000e-01 -2.859352529048919678e-01 1.253646463155746460e-01
4.950000000000000000e+02 6.082534790039062500e-01 6.463881015777587891e+00 -8.713872171938419342e-03 -2.545897103846073151e-02 -1.025185268372297287e-02 2.771445550024509430e-02
4.960000000000000000e+02 1.752376914024353027e+00 9.425676345825195312e+00 -1.304889377206563950e-02 -2.886016666889190674e-01 -9.049516916275024414e-02 1.538450866937637329e-01
4.970000000000000000e+02 4.749572753906250000e+00 2.572586774826049805e+00 -8.072096109390258789e-02 -3.151457756757736206e-02 -3.367066010832786560e-02 3.657866641879081726e-02
4.980000000000000000e+02 1.461151027679443359e+01 6.427448987960815430e-01 -5.840086936950683594e-01 -6.684142947196960449e-01 -3.757269084453582764e-01 6.985062360763549805e-01
4.990000000000000000e+02 1.537013149261474609e+01 3.501243591308593750e-01 -6.399529576301574707e-01 -7.686368227005004883e-01 -4.225769340991973877e-01 8.025735020637512207e-01
5.000000000000000000e+02 2.189949035644531250e+01 -4.895552158355712891e+00 -9.916325807571411133e-01 -7.550233006477355957e-01 -5.239967703819274902e-01 7.908906936645507812e-01
5.010000000000000000e+02 2.396247673034667969e+01 -5.450898170471191406e+00 -8.637329339981079102e-01 -3.913485705852508545e-01 -3.765244483947753906e-01 6.058522462844848633e-01
5.020000000000000000e+02 2.404950904846191406e+01 -8.240109443664550781e+00 -5.829235911369323730e-01 -5.521612763404846191e-01 -3.405254483222961426e-01 5.900834798812866211e-01
5.030000000000000000e+02 3.454904937744140625e+01 -1.878721809387207031e+01 -3.414259552955627441e-01 -8.535109227523207664e-04 -1.026838421821594238e-01 2.316047437489032745e-02
5.040000000000000000e+02 6.835121154785156250e+01 -1.027663612365722656e+01 3.812282681465148926e-01 6.345808982849121094e+00 2.018111228942871094e+00 -2.717717409133911133e+00
5.050000000000000000e+02 4.979248809814453125e+01 6.040158271789550781e+00 1.232080832123756409e-01 4.250290617346763611e-02 4.971329495310783386e-02 1.340559422969818115e-01
5.060000000000000000e+02 4.421069717407226562e+01 8.886834144592285156e+00 7.844930887222290039e-02 5.356036424636840820e-01 1.842158734798431396e-01 -1.729919910430908203e-01
5.070000000000000000e+02 3.934637451171875000e+01 5.052311420440673828e+00 -2.716554105281829834e-01 5.080056190490722656e-01 7.090506702661514282e-02 3.478876948356628418e-01
5.080000000000000000e+02 4.025112533569335938e+01 5.033959388732910156e+00 -2.810834646224975586e-01 5.515512228012084961e-01 8.114033192396163940e-02 3.112719953060150146e-01
5.090000000000000000e+02 3.999533081054687500e+01 -4.133793830871582031e+00 -6.373768448829650879e-01 3.131788969039916992e-01 -9.725938737392425537e-02 2.835208177566528320e-01
5.100000000000000000e+02 3.643152236938476562e+01 -2.921727180480957031e+00 -5.677887797355651855e-01 2.854451239109039307e-01 -8.470308780670166016e-02 3.192335069179534912e-01
5.110000000000000000e+02 2.638121414184570312e+01 -3.923557519912719727e+00 -7.744882106781005859e-01 -3.966211527585983276e-02 -2.442450970411300659e-01 4.068997502326965332e-01
5.120000000000000000e+02 4.514628982543945312e+01 8.050388336181640625e+00 -1.593266241252422333e-02 1.493372023105621338e-01 4.002136364579200745e-02 -6.959616392850875854e-02
5.130000000000000000e+02 4.282843017578125000e+01 1.188951110839843750e+01 1.379568278789520264e-01 1.931838393211364746e+00 6.209385991096496582e-01 -3.489892557263374329e-02
5.140000000000000000e+02 4.152140045166015625e+01 1.192463874816894531e+01 2.460377216339111328e-01 1.330737829208374023e+00 4.730326533317565918e-01 2.710880637168884277e-01
5.150000000000000000e+02 4.289431762695312500e+01 1.459244537353515625e+01 4.092076420783996582e-01 2.232204437255859375e+00 7.924236059188842773e-01 5.970221757888793945e-01
5.160000000000000000e+02 4.487258529663085938e+01 1.731332588195800781e+01 8.306012749671936035e-01 8.310502171516418457e-01 4.984954595565795898e-01 7.834526896476745605e-01
5.170000000000000000e+02 4.499668121337890625e+01 2.015009498596191406e+01 3.696615695953369141e-01 9.275671839714050293e-01 3.891686201095581055e-01 5.465178489685058594e-01
5.180000000000000000e+02 4.787075042724609375e+01 1.905519104003906250e+01 2.565944194793701172e-01 1.789833158254623413e-01 1.306733191013336182e-01 2.401987910270690918e-01
5.190000000000000000e+02 4.118429183959960938e+01 -3.575561523437500000e+01 -2.616200409829616547e-02 -1.474241465330123901e-01 -5.207584425806999207e-02 -1.609471142292022705e-01
5.200000000000000000e+02 4.468908309936523438e+01 -3.184855270385742188e+01 -4.685484170913696289e-01 -9.719699621200561523e-02 -1.697236299514770508e-01 -2.052012979984283447e-01
5.210000000000000000e+02 6.573068237304687500e+01 -2.414808654785156250e+01 -6.415456533432006836e-01 4.284571170806884766e+00 1.092907547950744629e+00 7.359021902084350586e-01
5.220000000000000000e+02 6.461253356933593750e+01 -2.967555046081542969e+01 -3.293069005012512207e-01 3.585537433624267578e+00 9.768691658973693848e-01 5.437337756156921387e-01
5.230000000000000000e+02 7.441441345214843750e+01 -3.157681274414062500e+01 -1.505891531705856323e-01 8.349153518676757812e+00 2.459569454193115234e+00 2.691330574452877045e-02
5.240000000000000000e+02 7.246535491943359375e+01 -3.036576461791992188e+01 -3.412062823772430420e-01 7.514123439788818359e+00 2.151875019073486328e+00 1.050775647163391113e-01
5.250000000000000000e+02 6.093648910522460938e+01 -2.342197036743164062e+01 -6.089377403259277344e-01 4.292750358581542969e-02 -1.698030829429626465e-01 -2.828636467456817627e-01
5.260000000000000000e+02 7.814126610755920410e-01 -3.039577484130859375e+01 -4.003837821073830128e-04 4.152564797550439835e-04 4.461811840883456171e-06 8.885536226443946362e-05
5.270000000000000000e+02 1.891954612731933594e+01 -2.614217567443847656e+01 2.201402792707085609e-03 6.221340154297649860e-04 8.470609900541603565e-04 -4.198512469884008169e-04
5.280000000000000000e+02 6.649250030517578125e+01 -4.404363632202148438e+00 -1.566591024398803711e+00 4.024425506591796875e+00 7.373503446578979492e-01 -3.223104715347290039e+00
5.290000000000000000e+02 7.946086120605468750e+01 -5.540090084075927734e+00 -7.345221005380153656e-03 6.691513538360595703e+00 2.005250453948974609e+00 4.015704691410064697e-01
5.300000000000000000e+02 5.080389785766601562e+01 -1.484708976745605469e+01 -9.577510356903076172e-01 -1.647660881280899048e-01 -3.367551267147064209e-01 -4.420503079891204834e-01
5.310000000000000000e+02 4.875270462036132812e+01 -1.291467761993408203e+01 -1.058173894882202148e+00 6.051399931311607361e-02 -2.992979586124420166e-01 -2.387659400701522827e-01
5.320000000000000000e+02 4.220766830444335938e+01 -6.817205429077148438e+00 -7.674229145050048828e-01 2.950238287448883057e-01 -1.417197287082672119e-01 2.236837446689605713e-01
5.330000000000000000e+02 4.766270446777343750e+01 -4.290084362030029297e+00 -7.620741724967956543e-01 3.156408369541168213e-01 -1.339299976825714111e-01 2.726736962795257568e-01
5.340000000000000000e+02 4.596646499633789062e+01 7.146593093872070312e+00 -1.048908233642578125e-01 6.048353016376495361e-02 -1.332218758761882782e-02 1.917655020952224731e-02
5.350000000000000000e+02 3.644833755493164062e+01 -1.849216651916503906e+01 -4.387517273426055908e-01 1.143110450357198715e-02 -1.281961947679519653e-01 1.851605810225009918e-02
5.360000000000000000e+02 3.557713317871093750e+01 -1.353639507293701172e+01 -5.810247659683227539e-01 1.113626435399055481e-01 -1.408986449241638184e-01 1.910255849361419678e-01
5.370000000000000000e+02 4.151028442382812500e+01 -1.424540042877197266e+01 -7.292686104774475098e-01 1.220256388187408447e-01 -1.821728944778442383e-01 1.887999661266803741e-02
5.380000000000000000e+02 7.320229339599609375e+01 2.818116188049316406e+00 -5.541478395462036133e-01 7.439730644226074219e+00 2.065674781799316406e+00 -6.077622771263122559e-01
5.390000000000000000e+02 7.939336395263671875e+01 2.811852455139160156e+00 -1.414165552705526352e-02 9.217035293579101562e+00 2.760868072509765625e+00 2.363057574257254601e-03
5.400000000000000000e+02 6.318746185302734375e+01 -5.853630542755126953e+00 -2.456050872802734375e+00 -5.495268106460571289e-01 -9.016733169555664062e-01 -8.837230801582336426e-01
5.410000000000000000e+02 4.862469482421875000e+01 -6.474659919738769531e+00 -9.966881871223449707e-01 3.120484054088592529e-01 -2.053919285535812378e-01 1.684456169605255127e-01
5.420000000000000000e+02 7.303503417968750000e+01 1.154101848602294922e+01 7.765527069568634033e-02 6.357761859893798828e+00 1.930625081062316895e+00 -7.365458607673645020e-01
5.430000000000000000e+02 7.936749267578125000e+01 8.373248100280761719e+00 -1.244812388904392719e-03 8.616048812866210938e+00 2.584441184997558594e+00 -8.114959299564361572e-02
5.440000000000000000e+02 6.389642333984375000e+01 1.107189178466796875e+00 -1.250797063112258911e-01 2.712971925735473633e+00 7.763676643371582031e-01 -1.499183893203735352e+00
5.450000000000000000e+02 5.449580383300781250e+01 5.561073780059814453e+00 2.180258631706237793e-01 1.039186239242553711e+00 3.771636188030242920e-01 2.861821353435516357e-01
5.460000000000000000e+02 7.226428985595703125e+01 1.862785720825195312e+01 1.481434404850006104e-01 5.803892135620117188e+00 1.785610675811767578e+00 -5.492379069328308105e-01
5.470000000000000000e+02 7.932641601562500000e+01 1.675271987915039062e+01 8.850858284858986735e-05 7.450483322143554688e+00 2.235171556472778320e+00 -6.903228908777236938e-02
5.480000000000000000e+02 6.041011047363281250e+01 1.155162811279296875e+01 5.638559460639953613e-01 3.101656913757324219e+00 1.099653840065002441e+00 -6.489961147308349609e-01
5.490000000000000000e+02 7.229380035400390625e+01 2.629421043395996094e+01 1.044548824429512024e-01 5.558786869049072266e+00 1.698972582817077637e+00 -3.438246846199035645e-01
5.500000000000000000e+02 7.931235504150390625e+01 2.376128768920898438e+01 3.579346230253577232e-03 6.816859245300292969e+00 2.046131610870361328e+00 -4.328139126300811768e-02
5.510000000000000000e+02 5.941255569458007812e+01 1.732828712463378906e+01 5.278134346008300781e-01 3.197746515274047852e+00 1.117668032646179199e+00 -4.809978902339935303e-01
5.520000000000000000e+02 3.812117767333984375e+01 1.627250480651855469e+01 3.570778369903564453e-01 7.459772229194641113e-01 3.309165239334106445e-01 2.734499573707580566e-01
5.530000000000000000e+02 2.632608032226562500e+01 1.819352912902832031e+01 1.594889312982559204e-01 -5.503708124160766602e-01 -1.172645688056945801e-01 3.092125356197357178e-01
5.540000000000000000e+02 1.201462554931640625e+01 9.788545608520507812e+00 -3.328234553337097168e-01 -6.197618842124938965e-01 -2.857756018638610840e-01 7.213828563690185547e-01
5.550000000000000000e+02 2.687114334106445312e+01 1.306460380554199219e+01 -5.346358418464660645e-01 -6.357095837593078613e-01 -3.511036336421966553e-01 4.699043035507202148e-01
5.560000000000000000e+02 3.757144927978515625e+01 1.083566474914550781e+01 1.203431710600852966e-01 6.006121039390563965e-01 2.162865847349166870e-01 5.053136944770812988e-01
5.570000000000000000e+02 1.742127418518066406e+00 1.632196426391601562e+01 1.393768005073070526e-02 -8.775981664657592773e-01 -2.590981423854827881e-01 1.466239392757415771e-01
5.580000000000000000e+02 7.178035736083984375e+01 3.093258476257324219e+01 1.030140146613121033e-01 5.359586238861083984e+00 1.638780117034912109e+00 -2.618395686149597168e-01
5.590000000000000000e+02 7.932298278808593750e+01 2.931431007385253906e+01 7.805848028510808945e-03 6.498162746429443359e+00 1.951790571212768555e+00 -2.770206332206726074e-02
5.600000000000000000e+02 6.314026260375976562e+01 2.473641204833984375e+01 3.261028528213500977e-01 3.872662782669067383e+00 1.259629726409912109e+00 -5.104769468307495117e-01
5.610000000000000000e+02 5.856633377075195312e+01 2.138702964782714844e+01 3.683125972747802734e-01 3.044691324234008789e+00 1.023901104927062988e+00 -5.615311264991760254e-01
5.620000000000000000e+02 4.416743850708007812e+01 2.422951698303222656e+01 4.713405668735504150e-01 9.202762246131896973e-01 4.174850583076477051e-01 3.176922202110290527e-01
5.630000000000000000e+02 3.868473052978515625e+01 2.779701614379882812e+01 4.735473990440368652e-01 6.769638061523437500e-01 3.451533615589141846e-01 1.972126364707946777e-01
5.640000000000000000e+02 3.107782554626464844e+01 2.361214256286621094e+01 3.720932304859161377e-01 6.693511456251144409e-02 1.317085027694702148e-01 2.072436064481735229e-01
5.650000000000000000e+02 2.053647041320800781e+01 2.382178497314453125e+01 2.640015184879302979e-01 -2.162556052207946777e-01 1.432377658784389496e-02 5.293616056442260742e-01
5.660000000000000000e+02 1.936183166503906250e+01 2.256556129455566406e+01 2.197771072387695312e-01 -1.221680343151092529e-01 2.928271889686584473e-02 5.607290863990783691e-01
5.670000000000000000e+02 8.185574531555175781e+00 2.396302032470703125e+01 9.209259599447250366e-02 -7.185317873954772949e-01 -1.879317611455917358e-01 1.687607020139694214e-01
5.680000000000000000e+02 6.534761810302734375e+01 2.865316963195800781e+01 2.681787610054016113e-01 4.259377956390380859e+00 1.358267068862915039e+00 -3.902112245559692383e-01
5.690000000000000000e+02 5.804895401000976562e+01 3.241782760620117188e+01 4.908722937107086182e-01 2.967236518859863281e+00 1.037432670593261719e+00 -3.195585012435913086e-01
5.700000000000000000e+02 5.520084762573242188e+01 3.144147300720214844e+01 5.754525065422058105e-01 2.469155073165893555e+00 9.133822917938232422e-01 -2.800366282463073730e-01
5.710000000000000000e+02 4.568184661865234375e+01 3.015271949768066406e+01 6.511481404304504395e-01 1.134465813636779785e+00 5.356841683387756348e-01 6.660488992929458618e-02
5.720000000000000000e+02 3.723063659667968750e+01 2.917148017883300781e+01 4.853892624378204346e-01 5.530198812484741211e-01 3.115227520465850830e-01 1.751175224781036377e-01
5.730000000000000000e+02 2.866436195373535156e+01 3.407197570800781250e+01 4.509756267070770264e-01 7.923415303230285645e-02 1.590629369020462036e-01 1.671961694955825806e-01
5.740000000000000000e+02 2.354978752136230469e+01 3.287231826782226562e+01 3.321023583412170410e-01 -1.526526212692260742e-01 5.383492261171340942e-02 2.428490668535232544e-01
5.750000000000000000e+02 1.501299285888671875e+01 3.406827545166015625e+01 1.349885314702987671e-01 -4.700250923633575439e-01 -1.005109623074531555e-01 1.644710600376129150e-01
5.760000000000000000e+02 2.212373971939086914e+00 3.183492469787597656e+01 3.212702460587024689e-03 -1.326275825500488281e+00 -3.969189226627349854e-01 2.064382098615169525e-02
5.770000000000000000e+02 2.663158416748046875e+01 4.401710033416748047e+00 2.618248164653778076e-01 -2.469120733439922333e-02 7.114008069038391113e-02 2.341568320989608765e-01
5.780000000000000000e+02 6.781407165527343750e+01 -1.410415840148925781e+01 2.125729799270629883e+00 3.335680484771728516e+00 1.638423085212707520e+00 3.064155817031860352e+00
5.790000000000000000e+02 6.908879089355468750e+01 -1.399862957000732422e+01 1.931654095649719238e+00 1.002044200897216797e+01 3.585628986358642578e+00 5.749043464660644531e+00
5.800000000000000000e+02 6.369918060302734375e+01 -2.025590324401855469e+01 3.873417675495147705e-01 1.510300040245056152e+00 5.692925453186035156e-01 8.428813815116882324e-01
5.810000000000000000e+02 6.188907623291015625e+01 -2.238200187683105469e+01 -2.604628205299377441e-01 4.738990962505340576e-01 6.403087824583053589e-02 4.293927177786827087e-02
5.820000000000000000e+02 5.886058425903320312e+01 -2.532096481323242188e+01 -1.222531199455261230e+00 -4.364358782768249512e-01 -4.976901412010192871e-01 -7.202456593513488770e-01
5.830000000000000000e+02 5.773035812377929688e+01 -2.615313339233398438e+01 -1.399000167846679688e+00 -4.907243549823760986e-01 -5.669173598289489746e-01 -8.375850915908813477e-01
5.840000000000000000e+02 5.149922180175781250e+01 -2.960894775390625000e+01 -1.300154089927673340e+00 -3.806343972682952881e-01 -5.042365789413452148e-01 -6.821777224540710449e-01
5.850000000000000000e+02 5.280841064453125000e+01 -2.900154304504394531e+01 -1.356010556221008301e+00 -4.084126651287078857e-01 -5.293269753456115723e-01 -7.376844882965087891e-01
5.860000000000000000e+02 4.743801498413085938e+01 -3.106621932983398438e+01 -8.151960372924804688e-01 -1.618393212556838989e-01 -2.931106090545654297e-01 -3.446935415267944336e-01
5.870000000000000000e+02 4.605604171752929688e+01 -3.143046951293945312e+01 -6.072788238525390625e-01 -9.962275624275207520e-02 -2.120704650878906250e-01 -2.654636502265930176e-01
5.880000000000000000e+02 4.033480834960937500e+01 -3.421562194824218750e+01 -8.346130698919296265e-02 -8.341509103775024414e-02 -5.006292089819908142e-02 -1.129842922091484070e-01
5.890000000000000000e+02 3.888004302978515625e+01 -3.254982757568359375e+01 -7.336579263210296631e-02 -1.744280569255352020e-02 -2.724257856607437134e-02 -3.339050710201263428e-02
5.900000000000000000e+02 4.034224700927734375e+01 -3.250571060180664062e+01 -1.377934664487838745e-01 -2.299028262495994568e-02 -4.823512583971023560e-02 -6.073890253901481628e-02
5.910000000000000000e+02 3.619964218139648438e+01 -3.250281524658203125e+01 3.854269394651055336e-03 -8.028415031731128693e-03 -1.252243760973215103e-03 -6.510200444608926773e-03
5.920000000000000000e+02 3.475776290893554688e+01 -3.253035736083984375e+01 1.221210509538650513e-02 7.393714040517807007e-03 5.881745833903551102e-03 -6.670841481536626816e-03
5.930000000000000000e+02 3.033604812622070312e+01 -3.311851501464843750e+01 1.166067365556955338e-02 2.414461690932512283e-03 4.222540650516748428e-03 1.142393797636032104e-03
5.940000000000000000e+02 2.913555526733398438e+01 -3.131145668029785156e+01 1.942323520779609680e-02 3.503028303384780884e-03 6.877879146486520767e-03 -3.329937113448977470e-03
5.950000000000000000e+02 2.345561981201171875e+01 -2.992373657226562500e+01 5.936708301305770874e-03 -1.654068008065223694e-03 1.284792087972164154e-03 -8.921876433305442333e-04
5.960000000000000000e+02 2.246050643920898438e+01 -2.939241027832031250e+01 4.528350196778774261e-03 1.000018557533621788e-03 1.658510649576783180e-03 -2.445342834107577801e-04
5.970000000000000000e+02 2.019226264953613281e+01 -2.705983924865722656e+01 2.408468164503574371e-03 -2.473331696819514036e-04 6.483405013568699360e-04 -1.584281679242849350e-03
5.980000000000000000e+02 1.691233253479003906e+01 -2.389842414855957031e+01 7.702366565354168415e-04 3.365129814483225346e-04 3.320248797535896301e-04 -2.215811400674283504e-05
5.990000000000000000e+02 1.562956619262695312e+01 -2.490880203247070312e+01 3.998465545009821653e-04 -2.960676210932433605e-04 3.113368074991740286e-05 -5.072709755040705204e-04
6.000000000000000000e+02 1.501699638366699219e+01 -2.182931137084960938e+01 4.249619378242641687e-04 2.536538813728839159e-04 2.035847428487613797e-04 1.900090137496590614e-04
6.010000000000000000e+02 1.314426803588867188e+01 -1.981069946289062500e+01 3.240549704059958458e-04 2.901728148572146893e-04 1.842683413997292519e-04 3.304111014585942030e-04
6.020000000000000000e+02 1.123536109924316406e+01 -1.781718635559082031e+01 2.985619066748768091e-04 2.281029737787321210e-04 1.579994714120402932e-04 3.760423278436064720e-04
6.030000000000000000e+02 9.529048919677734375e+00 -1.547473049163818359e+01 3.427327319514006376e-04 1.141318862210027874e-04 1.370593818137422204e-04 2.011424076044932008e-04
6.040000000000000000e+02 1.555673980712890625e+01 -1.274965095520019531e+01 1.734819852572400123e-05 1.272634399356320500e-04 4.338349026511423290e-05 4.580730455927550793e-05
6.050000000000000000e+02 1.827516555786132812e+01 -8.348162651062011719e+00 1.477403275202959776e-04 -3.344954529893584549e-05 3.428723357501439750e-05 6.267433491302654147e-05
6.060000000000000000e+02 1.967747879028320312e+01 -1.466671371459960938e+01 1.157315728050889447e-05 1.547694409964606166e-05 8.115031050692778081e-06 1.882542346720583737e-05
6.070000000000000000e+02 2.076667022705078125e+01 -1.526369762420654297e+01 -1.316389625571900979e-05 -1.829915504458767828e-06 -4.498143425735179335e-06 -1.823438469727989286e-05
6.080000000000000000e+02 2.312522125244140625e+01 -1.543030452728271484e+01 -7.941694093460682780e-06 -8.003852599358651787e-06 -4.783663825946860015e-06 2.468302227498497814e-05
6.090000000000000000e+02 2.684943008422851562e+01 -1.795527076721191406e+01 -4.711122528533451259e-05 -3.945996286347508430e-05 -2.597135789983440191e-05 2.697451236599590629e-05
6.100000000000000000e+02 2.594019126892089844e+01 -1.770586013793945312e+01 -2.585289621492847800e-05 2.863060217350721359e-05 8.333120149472961202e-07 -1.252319088962394744e-05
6.110000000000000000e+02 2.290175247192382812e+01 -1.422030735015869141e+01 4.733659807243384421e-05 9.621799108572304249e-07 1.448963303118944168e-05 1.955907646333798766e-05
6.120000000000000000e+02 2.389064025878906250e+01 -1.545771598815917969e+01 5.715995212085545063e-05 8.190293556253891438e-06 1.960507324838545173e-05 2.779783426376525313e-05
6.130000000000000000e+02 2.418940162658691406e+01 -1.625665283203125000e+01 -5.421422247309237719e-05 -3.659784124465659261e-05 -2.724361911532469094e-05 -9.153186510957311839e-06
6.140000000000000000e+02 2.252077102661132812e+01 -1.348779869079589844e+01 -4.729792271973565221e-05 -1.185108067147666588e-05 -1.774470183590892702e-05 -1.636462729948107153e-05
6.150000000000000000e+02 2.177581214904785156e+01 -1.212616729736328125e+01 -5.664921627612784505e-05 -1.581954529683571309e-05 -2.174062865378800780e-05 -9.094569577428046614e-06
6.160000000000000000e+02 2.148243904113769531e+01 -1.140354633331298828e+01 5.840700032422319055e-05 1.353840252704685554e-05 2.158362076443154365e-05 1.368711855320725590e-05
6.170000000000000000e+02 2.047465896606445312e+01 -9.470215797424316406e+00 -6.962547922739759088e-05 -3.414194361539557576e-05 -3.113022830802947283e-05 -4.364400228951126337e-05
6.180000000000000000e+02 2.081581687927246094e+01 -1.010623359680175781e+01 5.694357969332486391e-05 3.775793084059841931e-05 2.841045352397486567e-05 3.150778502458706498e-05
6.190000000000000000e+02 1.935081100463867188e+01 -7.703818321228027344e+00 1.219910482177510858e-04 8.377885933441575617e-06 3.911068051820620894e-05 6.082171239540912211e-05
6.200000000000000000e+02 1.682273864746093750e+01 -1.327731513977050781e+01 -2.153719105990603566e-05 -1.065848264261148870e-04 -3.843660670099779963e-05 -2.450515603413805366e-05
6.210000000000000000e+02 1.844530296325683594e+01 -6.535740852355957031e+00 1.442796492483466864e-04 2.472945379849988967e-05 5.070272891316562891e-05 3.314916830277070403e-05
6.220000000000000000e+02 1.658559608459472656e+01 -4.748553276062011719e+00 -7.337284478126093745e-05 -2.995308386744000018e-05 -3.099777677562087774e-05 -4.429168257047422230e-05
6.230000000000000000e+02 1.544685077667236328e+01 -4.946103572845458984e+00 -8.339329360751435161e-05 -2.707584462768863887e-05 -3.314074274385347962e-05 -3.245844345656223595e-05
6.240000000000000000e+02 1.515853214263916016e+01 -3.785076379776000977e+00 -5.677695662598125637e-05 -3.559237666195258498e-05 -2.771079925878439099e-05 -2.745059100561775267e-05
6.250000000000000000e+02 1.191829204559326172e+01 -2.459224939346313477e+00 -6.699523510178551078e-05 -2.489333928679116070e-05 -2.756657340796664357e-05 -2.100143683492206037e-05
6.260000000000000000e+02 1.172943496704101562e+01 -3.277351856231689453e+00 9.177419269690290093e-05 1.673631777521222830e-05 3.255315095884725451e-05 5.762068212789017707e-06
6.270000000000000000e+02 7.760340690612792969e+00 -2.764608383178710938e+00 -5.428324948297813535e-05 -4.461940989131107926e-05 -2.967079853988252580e-05 -2.791668066493002698e-06
6.280000000000000000e+02 6.954888343811035156e+00 -1.927085757255554199e+00 -4.773777254740707576e-05 -4.087573688593693078e-05 -2.658405173860955983e-05 4.335054654802661389e-06
6.290000000000000000e+02 6.141054153442382812e+00 -1.933521509170532227e+00 4.313993485993705690e-05 3.405689130886457860e-05 2.315904748684260994e-05 3.417933157834340818e-06
6.300000000000000000e+02 5.322938919067382812e+00 -1.943060398101806641e+00 -2.844057416950818151e-05 -3.314928471809253097e-05 -1.847695784817915410e-05 -8.523560609319247305e-06
6.310000000000000000e+02 4.504167556762695312e+00 -1.961178898811340332e+00 1.989531119761522859e-05 2.454659625072963536e-05 1.333257205260451883e-05 2.390110239502973855e-05
6.320000000000000000e+02 2.869330406188964844e+00 -2.027968168258666992e+00 2.114132985298056155e-05 2.956234675366431475e-05 1.521110334579134360e-05 2.164525722037069499e-05
6.330000000000000000e+02 2.922748804092407227e+00 -3.058122634887695312e+00 -4.978382639819756150e-05 -1.802897168090566993e-05 -2.034383942373096943e-05 -2.026258334808517247e-05
6.340000000000000000e+02 2.050242900848388672e+00 -2.081479072570800781e+00 -4.748395076603628695e-05 -2.420026794425211847e-05 -2.150526597688440233e-05 -3.352322164573706686e-05
6.350000000000000000e+02 1.231310486793518066e+00 -2.139614820480346680e+00 8.433283801423385739e-05 2.873906669265124947e-05 3.392156941117718816e-05 4.351495590526610613e-05
6.360000000000000000e+02 4.105581045150756836e-01 -2.187133789062500000e+00 -1.521662052255123854e-04 -1.682303081906866282e-05 -5.069677354185841978e-05 -2.388524262642022222e-05
6.370000000000000000e+02 2.000570058822631836e+00 -4.164379501342773438e+01 -2.218021545559167862e-04 1.262992038391530514e-03 3.123569476883858442e-04 7.250786438817158341e-05
6.380000000000000000e+02 9.106728553771972656e+00 -3.812781906127929688e+01 -7.923367666080594063e-04 6.380172562785446644e-04 -4.629584509530104697e-05 8.712873095646500587e-04
6.390000000000000000e+02 9.490447640419006348e-01 -3.876563262939453125e+01 -2.384280669502913952e-04 1.098921406082808971e-03 2.581479784566909075e-04 -1.932540544657967985e-05
6.400000000000000000e+02 8.667578697204589844e-01 -3.467642593383789062e+01 2.442503464408218861e-04 8.388310670852661133e-04 3.249244182370603085e-04 9.319460514234378934e-05
6.410000000000000000e+02 8.951050043106079102e-01 -3.325567245483398438e+01 -2.545191091485321522e-04 6.807832978665828705e-04 1.278792478842660785e-04 1.083644601749256253e-04
6.420000000000000000e+02 7.280381917953491211e-01 -2.897312355041503906e+01 4.781451425515115261e-04 2.502743445802479982e-04 2.185258490499109030e-04 8.740599878365173936e-05
6.430000000000000000e+02 6.963002681732177734e-01 -2.755891227722167969e+01 -4.986047861166298389e-04 1.434681180398911238e-04 -1.065410106093622744e-04 7.105779786797938868e-06
6.440000000000000000e+02 6.802130341529846191e-01 -2.615486717224121094e+01 5.353951710276305676e-04 6.932209362275898457e-05 1.814151910366490483e-04 7.436067971866577864e-05
6.450000000000000000e+02 6.449106335639953613e-01 -2.193587875366210938e+01 -5.441575776785612106e-04 -4.343855107435956597e-05 -1.762788451742380857e-04 -3.849836502922698855e-05
6.460000000000000000e+02 6.400951743125915527e-01 -2.052586936950683594e+01 5.381866358220577240e-04 -4.185500802122987807e-05 1.488994894316419959e-04 4.435248774825595319e-05
6.470000000000000000e+02 1.916254758834838867e+00 -2.040889549255371094e+01 -5.282738129608333111e-04 3.176320433340151794e-06 -1.575292408233508468e-04 -4.166035068919882178e-05
6.480000000000000000e+02 6.471259593963623047e-01 -1.630319976806640625e+01 -4.409832763485610485e-04 -2.887304981413763016e-05 -1.409568940289318562e-04 -3.759574246942065656e-05
6.490000000000000000e+02 6.382921934127807617e-01 -1.489401245117187500e+01 4.123355029150843620e-04 -8.826948942441958934e-06 1.210525661008432508e-04 2.286473500134889036e-05
6.500000000000000000e+02 6.232692599296569824e-01 -1.348250579833984375e+01 -3.904402547050267458e-04 -9.683570169727317989e-06 -1.200371480081230402e-04 -2.465071702317800373e-05
6.510000000000000000e+02 1.862583279609680176e+00 -1.340323638916015625e+01 4.151084576733410358e-04 -1.109967342927120626e-05 1.212026327266357839e-04 3.157328683300875127e-05
6.520000000000000000e+02 6.074180603027343750e-01 -9.238964080810546875e+00 2.776807232294231653e-04 -5.113279257784597576e-06 8.177023119060322642e-05 3.437505438341759145e-05
6.530000000000000000e+02 6.038894653320312500e-01 -7.815246105194091797e+00 -2.329278504475951195e-04 -9.717721695778891444e-06 -7.279367127921432257e-05 -3.394996747374534607e-05
6.540000000000000000e+02 3.725781202316284180e+00 -2.949613809585571289e+00 4.020507549284957349e-05 3.087182631134055555e-05 2.132307054125703871e-05 4.164167330600321293e-05
6.550000000000000000e+02 3.801306247711181641e+00 -3.890397310256958008e+00 -6.201736687216907740e-05 -4.274449747754260898e-05 -3.142856076010502875e-05 -8.852916653268039227e-05
6.560000000000000000e+02 7.123158264160156250e+01 -3.823934555053710938e+01 1.398330330848693848e-01 6.673697471618652344e+00 2.044059276580810547e+00 1.335185617208480835e-01
6.570000000000000000e+02 5.699779510498046875e+01 -4.083206558227539062e+01 7.191076874732971191e-01 8.535357117652893066e-01 4.717930257320404053e-01 -7.672388106584548950e-03
6.580000000000000000e+02 2.738100242614746094e+01 -4.114478302001953125e+01 -9.381362237036228180e-03 -5.701715126633644104e-03 -4.524922929704189301e-03 -1.609165774425491691e-04
6.590000000000000000e+02 7.877758789062500000e+01 4.008266830444335938e+01 -2.689627930521965027e-02 6.098833084106445312e+00 1.821581006050109863e+00 -5.684464424848556519e-02
6.600000000000000000e+02 7.915188598632812500e+01 3.872240066528320312e+01 -2.641328144818544388e-03 6.169433116912841797e+00 1.850037455558776855e+00 -2.783859334886074066e-02
6.610000000000000000e+02 7.927626037597656250e+01 3.499130249023437500e+01 1.613187836483120918e-03 6.318172454833984375e+00 1.895935773849487305e+00 -2.171764522790908813e-02
6.620000000000000000e+02 7.767041015625000000e+01 3.381596755981445312e+01 7.632647641003131866e-03 6.131970405578613281e+00 1.841880917549133301e+00 -6.158585101366043091e-02
6.630000000000000000e+02 7.922604370117187500e+01 3.357119750976562500e+01 -5.680609028786420822e-03 6.354694366455078125e+00 1.904704213142395020e+00 -1.658428832888603210e-02
6.640000000000000000e+02 7.927910614013671875e+01 3.071828460693359375e+01 -5.014882422983646393e-03 6.440822124481201172e+00 1.930742144584655762e+00 -2.392365597188472748e-02
6.650000000000000000e+02 7.810002136230468750e+01 2.800138854980468750e+01 1.061229035258293152e-02 6.392122745513916016e+00 1.920820474624633789e+00 -8.815879374742507935e-02
6.660000000000000000e+02 7.935375976562500000e+01 2.653466033935546875e+01 4.846700001507997513e-03 6.642116069793701172e+00 1.994088768959045410e+00 -3.126526996493339539e-02
6.670000000000000000e+02 7.657572937011718750e+01 2.561910438537597656e+01 2.790720388293266296e-02 6.294304370880126953e+00 1.896663427352905273e+00 -1.921485066413879395e-01
6.680000000000000000e+02 7.932983398437500000e+01 2.515345382690429688e+01 1.540126046165823936e-03 6.724448680877685547e+00 2.017796516418457031e+00 -3.784978017210960388e-02
6.690000000000000000e+02 7.931436157226562500e+01 2.095648193359375000e+01 4.309305455535650253e-03 7.032264232635498047e+00 2.110972166061401367e+00 -5.329983681440353394e-02
6.700000000000000000e+02 7.932009124755859375e+01 1.955373573303222656e+01 4.595316131599247456e-04 7.158452510833740234e+00 2.147673606872558594e+00 -5.810292810201644897e-02
6.710000000000000000e+02 7.932460784912109375e+01 1.815261650085449219e+01 4.872641060501337051e-03 7.297801017761230469e+00 2.190802097320556641e+00 -6.387136131525039673e-02
6.720000000000000000e+02 7.933090209960937500e+01 1.395674991607666016e+01 1.390068442560732365e-03 7.795435905456542969e+00 2.339047908782958984e+00 -8.087796717882156372e-02
6.730000000000000000e+02 7.933531188964843750e+01 1.256138610839843750e+01 1.520806923508644104e-03 7.987917423248291016e+00 2.396831512451171875e+00 -8.398479223251342773e-02
6.740000000000000000e+02 7.934511566162109375e+01 1.116517353057861328e+01 1.605099532753229141e-03 8.191804885864257812e+00 2.458023071289062500e+00 -8.768656104803085327e-02
6.750000000000000000e+02 7.937548065185546875e+01 6.981882572174072266e+00 -7.383716758340597153e-03 8.819052696228027344e+00 2.643500804901123047e+00 -7.153828442096710205e-02
6.760000000000000000e+02 7.938154602050781250e+01 5.592189311981201172e+00 -6.756311282515525818e-03 8.999181747436523438e+00 2.697727441787719727e+00 -5.603170767426490784e-02
6.770000000000000000e+02 7.938696289062500000e+01 4.202696800231933594e+00 -1.511095464229583740e-02 9.139234542846679688e+00 2.737237215042114258e+00 -3.094749525189399719e-02
6.780000000000000000e+02 7.941065216064453125e+01 2.793751657009124756e-02 -2.627077884972095490e-02 9.074872016906738281e+00 2.714580297470092773e+00 1.095404252409934998e-01
6.790000000000000000e+02 7.942016601562500000e+01 -1.367208480834960938e+00 -3.577034920454025269e-02 8.778729438781738281e+00 2.622887849807739258e+00 1.854171901941299438e-01
6.800000000000000000e+02 7.832223510742187500e+01 -4.114757537841796875e+00 -1.474185585975646973e-01 7.850297927856445312e+00 2.310863733291625977e+00 8.623672723770141602e-01
6.810000000000000000e+02 7.944315338134765625e+01 -4.153536319732666016e+00 -3.537647798657417297e-02 7.590463638305664062e+00 2.266525983810424805e+00 3.459312915802001953e-01
6.820000000000000000e+02 7.949391174316406250e+01 -8.311716079711914062e+00 2.697547338902950287e-02 4.516285419464111328e+00 1.362978339195251465e+00 4.131731390953063965e-01
6.830000000000000000e+02 7.847837829589843750e+01 -1.098460960388183594e+01 3.193440437316894531e-01 4.788785934448242188e+00 1.532438993453979492e+00 3.918920755386352539e-01
6.840000000000000000e+02 7.948999023437500000e+01 -1.109344100952148438e+01 7.073349505662918091e-02 2.964568614959716797e+00 9.105906486511230469e-01 1.378204822540283203e-01
6.850000000000000000e+02 7.949347686767578125e+01 -1.528182029724121094e+01 3.329762443900108337e-02 4.232877254486083984e+00 1.279852509498596191e+00 -3.913752734661102295e-01
6.860000000000000000e+02 7.850308227539062500e+01 -1.795855331420898438e+01 -6.982217729091644287e-02 7.151245594024658203e+00 2.124427080154418945e+00 -1.133916139602661133e+00
6.870000000000000000e+02 7.949690246582031250e+01 -1.806199264526367188e+01 -5.737530067563056946e-03 6.571608543395996094e+00 1.969761252403259277e+00 -4.425775110721588135e-01
6.880000000000000000e+02 7.940275573730468750e+01 -2.361923980712890625e+01 -2.251703850924968719e-02 9.736484527587890625e+00 2.914190292358398438e+00 -2.153282463550567627e-01
6.890000000000000000e+02 7.816825103759765625e+01 -2.486563110351562500e+01 -1.070064976811408997e-01 9.636683464050292969e+00 2.858903169631958008e+00 -4.043074548244476318e-01
6.900000000000000000e+02 7.939183807373046875e+01 -2.501027488708496094e+01 -1.995027624070644379e-02 1.010867023468017578e+01 3.026615858078002930e+00 -1.653104871511459351e-01
6.910000000000000000e+02 7.936608886718750000e+01 -2.919052505493164062e+01 -6.463817786425352097e-03 1.060386657714843750e+01 3.179220676422119141e+00 -4.648053646087646484e-02
6.920000000000000000e+02 7.801779174804687500e+01 -3.176381874084472656e+01 -1.642817072570323944e-02 9.968392372131347656e+00 2.985589265823364258e+00 -7.026763167232275009e-03
6.930000000000000000e+02 7.934304046630859375e+01 -3.195877647399902344e+01 1.195284421555697918e-03 1.064316082000732422e+01 3.193306684494018555e+00 -1.433199923485517502e-02
6.940000000000000000e+02 7.927907562255859375e+01 -3.606990432739257812e+01 2.687459066510200500e-02 1.043178558349609375e+01 3.137598037719726562e+00 3.096194751560688019e-02
6.950000000000000000e+02 7.923244476318359375e+01 -3.742948913574218750e+01 -6.201348826289176941e-02 1.029473018646240234e+01 3.069814920425415039e+00 8.559636771678924561e-02
6.960000000000000000e+02 7.906246185302734375e+01 -3.875554275512695312e+01 2.165677584707736969e-02 1.011875534057617188e+01 3.042123556137084961e+00 9.819678962230682373e-02
6.970000000000000000e+02 7.869210052490234375e+01 -4.009272003173828125e+01 -8.362295478582382202e-02 9.920434951782226562e+00 2.951043605804443359e+00 1.686776578426361084e-01
6.980000000000000000e+02 1.248952198028564453e+01 3.822589492797851562e+01 8.344019204378128052e-02 -6.441216468811035156e-01 -1.682044416666030884e-01 6.562354415655136108e-02
6.990000000000000000e+02 2.706190681457519531e+01 4.028028488159179688e+01 4.214289486408233643e-01 3.298663347959518433e-02 1.363246738910675049e-01 5.535975471138954163e-02
7.000000000000000000e+02 5.066850280761718750e+01 3.634057617187500000e+01 6.573314666748046875e-01 1.892293572425842285e+00 7.648875117301940918e-01 -7.855061441659927368e-02
7.010000000000000000e+02 6.736013031005859375e+01 4.063008117675781250e+01 2.184141725301742554e-01 4.517151355743408203e+00 1.420669674873352051e+00 -5.742190778255462646e-02
7.020000000000000000e+02 3.854526877403259277e-01 2.187801599502563477e+00 3.407595504540950060e-04 2.826821245253086090e-02 8.582691662013530731e-03 -7.370806764811277390e-03
7.030000000000000000e+02 2.676981925964355469e+00 2.756470680236816406e+00 -3.283460810780525208e-02 -1.268464978784322739e-02 -1.365577708929777145e-02 -6.738696829415857792e-04
7.040000000000000000e+02 1.836653113365173340e+00 6.509252548217773438e+00 -3.353391215205192566e-02 -1.020248234272003174e-01 -4.066761955618858337e-02 8.385939896106719971e-02
7.050000000000000000e+02 5.852603912353515625e-01 9.319576263427734375e+00 -6.444423459470272064e-03 -2.236941903829574585e-01 -6.904157996177673340e-02 5.507581308484077454e-02
7.060000000000000000e+02 5.842852592468261719e-01 1.212900924682617188e+01 -5.081941373646259308e-03 -5.153847336769104004e-01 -1.561400145292282104e-01 6.369235366582870483e-02
7.070000000000000000e+02 1.761141300201416016e+00 1.218807792663574219e+01 1.726576243527233601e-03 -5.248034000396728516e-01 -1.569230556488037109e-01 1.824268996715545654e-01
7.080000000000000000e+02 5.806862711906433105e-01 1.633542823791503906e+01 6.839827168732881546e-03 -9.532344937324523926e-01 -2.839184105396270752e-01 5.162430182099342346e-02
7.090000000000000000e+02 5.821458697319030762e-01 1.773478126525878906e+01 1.097068772651255131e-03 -1.069144487380981445e+00 -3.204142153263092041e-01 4.228430986404418945e-02
7.100000000000000000e+02 6.338867545127868652e-01 2.194881820678710938e+01 3.517718054354190826e-03 -1.293523550033569336e+00 -3.870017528533935547e-01 2.120653912425041199e-02
7.110000000000000000e+02 6.621526479721069336e-01 2.336341667175292969e+01 7.847548113204538822e-04 -1.336227416992187500e+00 -4.006327986717224121e-01 1.679812744259834290e-02
7.120000000000000000e+02 6.885446310043334961e-01 2.478087806701660156e+01 2.282140310853719711e-03 -1.369059801101684570e+00 -4.100332856178283691e-01 1.346726622432470322e-02
7.130000000000000000e+02 7.301970720291137695e-01 2.904195785522460938e+01 -5.923940334469079971e-04 -1.435517907142639160e+00 -4.308331012725830078e-01 7.997917011380195618e-03
7.140000000000000000e+02 7.339075207710266113e-01 3.045815849304199219e+01 1.205846201628446579e-03 -1.451131224632263184e+00 -4.349776208400726318e-01 7.339873816817998886e-03
7.150000000000000000e+02 2.224101305007934570e+00 3.042242240905761719e+01 1.607664278708398342e-03 -1.310176730155944824e+00 -3.925707042217254639e-01 2.299269661307334900e-02
7.160000000000000000e+02 7.283049821853637695e-01 3.186805343627929688e+01 6.155019218567758799e-05 -1.465046167373657227e+00 -4.394953846931457520e-01 6.169868167489767075e-03
7.170000000000000000e+02 6.828618049621582031e-01 3.605792236328125000e+01 -3.008975647389888763e-03 -1.475565910339355469e+00 -4.435724914073944092e-01 -1.319413189776241779e-03
7.180000000000000000e+02 3.147889137268066406e+00 3.723006057739257812e+01 1.789214089512825012e-02 -1.323802232742309570e+00 -3.917730152606964111e-01 -6.119303405284881592e-03
7.190000000000000000e+02 8.777458071708679199e-01 3.875531768798828125e+01 -5.173543933779001236e-03 -1.441804885864257812e+00 -4.340935349464416504e-01 -1.159879285842180252e-02
7.200000000000000000e+02 1.257791996002197266e+00 4.010039520263671875e+01 1.552569214254617691e-02 -1.414106130599975586e+00 -4.195741415023803711e-01 -2.411753498017787933e-02
7.210000000000000000e+02 9.882480621337890625e+00 1.853483319282531738e+00 -2.909344136714935303e-01 -1.204142943024635315e-01 -1.234046071767807007e-01 1.796640604734420776e-01
7.220000000000000000e+02 9.135647773742675781e+00 1.880191564559936523e+00 -2.440845519304275513e-01 -6.274829059839248657e-02 -9.204985201358795166e-02 1.292213350534439087e-01
7.230000000000000000e+02 8.395709037780761719e+00 1.889471292495727539e+00 -1.978825479745864868e-01 -5.179941281676292419e-02 -7.490459084510803223e-02 9.916515648365020752e-02
7.240000000000000000e+02 7.699283123016357422e+00 2.664900302886962891e+00 -2.281696498394012451e-01 -6.270303577184677124e-02 -8.726180344820022583e-02 1.188566088676452637e-01
7.250000000000000000e+02 6.925123691558837891e+00 1.881917238235473633e+00 -1.175247579813003540e-01 -2.662253566086292267e-02 -4.324418678879737854e-02 5.342494696378707886e-02
7.260000000000000000e+02 4.733603000640869141e+00 1.859608769416809082e+00 -4.093258082866668701e-02 -1.187842711806297302e-02 -1.584330201148986816e-02 1.170569658279418945e-02
7.270000000000000000e+02 4.007191658020019531e+00 1.869534015655517578e+00 -2.392495051026344299e-02 -1.661255210638046265e-02 -1.216125115752220154e-02 1.070207101292908192e-03
7.280000000000000000e+02 3.288204431533813477e+00 1.892168879508972168e+00 -1.726070418953895569e-02 -7.355745416134595871e-03 -7.384934928268194199e-03 -7.781884167343378067e-03
7.290000000000000000e+02 1.863094925880432129e+00 2.021986722946166992e+00 -2.950977301225066185e-03 2.460687188431620598e-03 -1.470870629418641329e-04 -1.886624656617641449e-02
7.300000000000000000e+02 1.140739440917968750e+00 2.125327348709106445e+00 3.507470246404409409e-04 1.120861340314149857e-02 3.467808011919260025e-03 -1.485004555433988571e-02
7.310000000000000000e+02 1.146468830108642578e+01 1.563844680786132812e+00 -3.784071505069732666e-01 -2.467280775308609009e-01 -1.875405758619308472e-01 3.041844964027404785e-01
7.320000000000000000e+02 1.306697368621826172e+01 1.168848156929016113e+00 -4.708110392093658447e-01 -4.471131563186645508e-01 -2.753772735595703125e-01 4.800507724285125732e-01
7.330000000000000000e+02 1.385096073150634766e+01 9.266700148582458496e-01 -5.343434810638427734e-01 -5.253566503524780273e-01 -3.179100453853607178e-01 5.919208526611328125e-01
7.340000000000000000e+02 1.668703460693359375e+01 2.826825857162475586e+00 -3.833645284175872803e-01 -1.043206095695495605e+00 -4.279711842536926270e-01 8.719124794006347656e-01
7.350000000000000000e+02 1.613458251953125000e+01 4.574786871671676636e-02 -7.220389842987060547e-01 -8.560141324996948242e-01 -4.734159409999847412e-01 8.456093668937683105e-01
7.360000000000000000e+02 1.831221771240234375e+01 -1.255732536315917969e+00 -9.909018278121948242e-01 -9.350063204765319824e-01 -5.777724385261535645e-01 9.277159571647644043e-01
7.370000000000000000e+02 1.903431510925292969e+01 -1.747510910034179688e+00 -1.083310723304748535e+00 -8.923165798187255859e-01 -5.926882028579711914e-01 8.979095816612243652e-01
7.380000000000000000e+02 2.085090065002441406e+01 -3.598409891128540039e+00 -1.129973530769348145e+00 -8.045990467071533203e-01 -5.803717374801635742e-01 8.567244410514831543e-01
7.390000000000000000e+02 2.247155952453613281e+01 -4.461507320404052734e+00 -9.756756424903869629e-01 -5.673550963401794434e-01 -4.629092216491699219e-01 6.972482204437255859e-01
7.400000000000000000e+02 2.280030059814453125e+01 -6.229535579681396484e+00 -8.240795731544494629e-01 -6.938727498054504395e-01 -4.553857147693634033e-01 7.314695119857788086e-01
7.410000000000000000e+02 2.324161911010742188e+01 -6.895484447479248047e+00 -7.244384288787841797e-01 -6.506250500679016113e-01 -4.125190675258636475e-01 6.827704906463623047e-01
7.420000000000000000e+02 2.365823936462402344e+01 -7.566363334655761719e+00 -6.589923501014709473e-01 -6.051589250564575195e-01 -3.792454004287719727e-01 6.320396661758422852e-01
7.430000000000000000e+02 2.443594932556152344e+01 -8.911176681518554688e+00 -5.242887139320373535e-01 -5.073885321617126465e-01 -3.095031678676605225e-01 5.461863875389099121e-01
7.440000000000000000e+02 2.481728172302246094e+01 -9.580397605895996094e+00 -4.598233997821807861e-01 -4.538876712322235107e-01 -2.741133272647857666e-01 5.008808970451354980e-01
7.450000000000000000e+02 2.587006759643554688e+01 -1.154050159454345703e+01 -3.413245081901550293e-01 -3.115524947643280029e-01 -1.958630979061126709e-01 3.856138885021209717e-01
7.460000000000000000e+02 2.620550155639648438e+01 -1.218280887603759766e+01 -3.045098185539245605e-01 -2.679150700569152832e-01 -1.717274636030197144e-01 3.504820764064788818e-01
7.470000000000000000e+02 2.820900726318359375e+01 -1.458028507232666016e+01 -2.763154506683349609e-01 -1.195682883262634277e-01 -1.187651231884956360e-01 2.476598471403121948e-01
7.480000000000000000e+02 2.761170387268066406e+01 -1.406537723541259766e+01 -2.690851688385009766e-01 -1.465102732181549072e-01 -1.246786341071128845e-01 2.632177174091339111e-01
7.490000000000000000e+02 2.960587882995605469e+01 -1.540662097930908203e+01 -3.122294247150421143e-01 -7.822781801223754883e-02 -1.171371787786483765e-01 2.093420326709747314e-01
7.500000000000000000e+02 3.033102989196777344e+01 -1.580979251861572266e+01 -3.296753764152526855e-01 -5.875387415289878845e-02 -1.165287792682647705e-01 1.879075020551681519e-01
7.510000000000000000e+02 3.106920623779296875e+01 -1.621382713317871094e+01 -3.454062342643737793e-01 -2.774232812225818634e-02 -1.119445711374282837e-01 1.683191359043121338e-01
7.520000000000000000e+02 3.180702781677246094e+01 -1.662763214111328125e+01 -3.551616072654724121e-01 -1.149513479322195053e-02 -1.099970266222953796e-01 1.536427736282348633e-01
7.530000000000000000e+02 3.321539306640625000e+01 -1.749327850341796875e+01 -3.717045783996582031e-01 2.346036955714225769e-02 -1.044732630252838135e-01 1.099749580025672913e-01
7.540000000000000000e+02 3.383619689941406250e+01 -1.537015628814697266e+01 -4.674603343009948730e-01 4.846906661987304688e-02 -1.256973892450332642e-01 1.746208220720291138e-01
7.550000000000000000e+02 3.773661041259765625e+01 -1.851292800903320312e+01 -4.946140348911285400e-01 9.140738286077976227e-03 -1.456419825553894043e-01 -1.815431751310825348e-03
7.560000000000000000e+02 4.042636108398437500e+01 -1.833770370483398438e+01 -5.177455544471740723e-01 1.696799136698246002e-02 -1.502332687377929688e-01 -5.865365266799926758e-02
7.570000000000000000e+02 4.161537551879882812e+01 -1.548124217987060547e+01 -7.018140554428100586e-01 8.378422260284423828e-02 -1.854089498519897461e-01 -2.128002233803272247e-02
7.580000000000000000e+02 4.571747207641601562e+01 -1.692547225952148438e+01 -7.972127795219421387e-01 -5.018764734268188477e-02 -2.542201280593872070e-01 -2.138439118862152100e-01
7.590000000000000000e+02 4.702484512329101562e+01 -1.651115608215332031e+01 -7.844779491424560547e-01 -5.162240564823150635e-02 -2.508301138877868652e-01 -2.459361702203750610e-01
7.600000000000000000e+02 4.955894470214843750e+01 -1.544970226287841797e+01 -9.050427675247192383e-01 -1.350579857826232910e-01 -3.120302259922027588e-01 -3.672087192535400391e-01
7.610000000000000000e+02 5.157802200317382812e+01 -1.292999649047851562e+01 -1.201524138450622559e+00 -8.029770106077194214e-02 -3.845465481281280518e-01 -4.242549836635589600e-01
7.620000000000000000e+02 5.444049835205078125e+01 -1.282088184356689453e+01 -1.335991978645324707e+00 -3.429745733737945557e-01 -5.036900043487548828e-01 -6.992129087448120117e-01
7.630000000000000000e+02 5.678587722778320312e+01 -1.135959625244140625e+01 -1.759946584701538086e+00 -5.821390748023986816e-01 -7.026256918907165527e-01 -9.934144616127014160e-01
7.640000000000000000e+02 5.794873809814453125e+01 -1.060232543945312500e+01 -2.069969177246093750e+00 -6.561463475227355957e-01 -8.178346157073974609e-01 -1.183094859123229980e+00
7.650000000000000000e+02 6.028927993774414062e+01 -9.100536346435546875e+00 -2.879754066467285156e+00 -8.474847674369812012e-01 -1.118171691894531250e+00 -1.583474516868591309e+00
7.660000000000000000e+02 6.147304534912109375e+01 -8.369245529174804688e+00 -3.437169790267944336e+00 -9.952090382575988770e-01 -1.329713702201843262e+00 -1.748835682868957520e+00
7.670000000000000000e+02 6.266447067260742188e+01 -7.644384384155273438e+00 -4.320682525634765625e+00 -1.041653156280517578e+00 -1.608700633049011230e+00 -2.091643571853637695e+00
7.680000000000000000e+02 6.511482238769531250e+01 -6.625696659088134766e+00 -4.087366104125976562e+00 -1.976725012063980103e-01 -1.285511493682861328e+00 -1.654723167419433594e+00
7.690000000000000000e+02 7.016159057617187500e+01 -1.052317237854003906e+01 1.911365240812301636e-01 1.972300148010253906e+01 5.974241256713867188e+00 -3.577032566070556641e+00
7.700000000000000000e+02 6.873416900634765625e+01 -1.036398029327392578e+01 1.166702270507812500e+00 8.557234764099121094e+00 2.917181015014648438e+00 -5.006255626678466797e+00
7.710000000000000000e+02 7.068389892578125000e+01 -1.371046543121337891e+01 1.392557621002197266e+00 1.975030136108398438e+01 6.342857837677001953e+00 -1.191352754831314087e-01
7.720000000000000000e+02 7.129462432861328125e+01 -1.321864986419677734e+01 5.289979457855224609e+00 1.832392311096191406e+01 7.084170818328857422e+00 -2.751955270767211914e+00
7.730000000000000000e+02 7.173426818847656250e+01 -1.308545780181884766e+01 6.199106216430664062e+00 1.622508621215820312e+01 6.727257728576660156e+00 -2.524099111557006836e+00
7.740000000000000000e+02 7.158526611328125000e+01 -1.190348339080810547e+01 9.303276062011718750e+00 1.623077201843261719e+01 7.660214424133300781e+00 1.038129568099975586e+00
7.750000000000000000e+02 7.125340270996093750e+01 -1.110399341583251953e+01 5.333891868591308594e+00 1.899811363220214844e+01 7.299601554870605469e+00 2.564731359481811523e+00
7.760000000000000000e+02 7.109297943115234375e+01 -1.095413589477539062e+01 3.874393939971923828e+00 1.983101844787597656e+01 7.111623764038085938e+00 2.099418640136718750e+00
7.770000000000000000e+02 6.751754760742187500e+01 -1.474232196807861328e+01 1.440816521644592285e+00 4.118286132812500000e+00 1.667730808258056641e+00 2.864341497421264648e+00
7.780000000000000000e+02 6.806639099121093750e+01 -1.369764709472656250e+01 2.371428012847900391e+00 2.644824028015136719e+00 1.504875659942626953e+00 3.118345260620117188e+00
7.790000000000000000e+02 6.846975708007812500e+01 -1.377612400054931641e+01 2.867599487304687500e+00 5.191246509552001953e+00 2.417653799057006836e+00 4.541023731231689453e+00
7.800000000000000000e+02 6.825670623779296875e+01 -1.371712017059326172e+01 2.488427877426147461e+00 4.004632472991943359e+00 1.947918057441711426e+00 3.665438652038574219e+00
7.810000000000000000e+02 6.868624877929687500e+01 -1.375342655181884766e+01 2.902573108673095703e+00 6.026062011718750000e+00 2.678590536117553711e+00 4.937805652618408203e+00
7.820000000000000000e+02 6.906227874755859375e+01 -1.373078346252441406e+01 2.776379585266113281e+00 9.023662567138671875e+00 3.540012836456298828e+00 6.145339965820312500e+00
7.830000000000000000e+02 2.133152770996093750e+01 1.625197601318359375e+01 -2.922956049442291260e-01 -2.434003353118896484e-01 -1.607087850570678711e-01 3.412764370441436768e-01
7.840000000000000000e+02 2.468016052246093750e+01 1.396535110473632812e+01 -7.607150673866271973e-01 -1.221683025360107422e+00 -5.947194099426269531e-01 8.191759586334228516e-01
7.850000000000000000e+02 2.055798721313476562e+01 4.109493732452392578e+00 4.335453808307647705e-01 9.653842449188232422e-02 1.590251475572586060e-01 3.669730722904205322e-01
7.860000000000000000e+02 1.434804344177246094e+01 7.165418148040771484e+00 -8.773986101150512695e-01 -1.617198348045349121e+00 -7.483790516853332520e-01 8.192358613014221191e-01
7.870000000000000000e+02 5.061851501464843750e+01 1.890515899658203125e+01 1.143297478556632996e-01 1.432610601186752319e-01 7.727724313735961914e-02 -1.465825736522674561e-01
7.880000000000000000e+02 5.480160903930664062e+01 1.654057121276855469e+01 9.231581687927246094e-01 2.642674922943115234e+00 1.069749951362609863e+00 -1.146769523620605469e+00
7.890000000000000000e+02 4.621400833129882812e+01 5.852075099945068359e+00 -1.117801442742347717e-01 9.652205556631088257e-02 -4.577426239848136902e-03 3.360926359891891479e-02
7.900000000000000000e+02 4.292295455932617188e+01 9.382607460021972656e+00 1.889783330261707306e-02 9.235485196113586426e-01 2.827339172363281250e-01 -6.112235412001609802e-02
7.910000000000000000e+02 4.646493530273437500e+01 1.945005607604980469e+01 3.955511152744293213e-01 4.889505803585052490e-01 2.653505206108093262e-01 4.501310288906097412e-01
7.920000000000000000e+02 6.766990661621093750e+01 -1.374798011779785156e+01 1.654473543167114258e+00 2.452827453613281250e+00 1.232190251350402832e+00 2.175927162170410156e+00
7.930000000000000000e+02 6.622537994384765625e+01 -1.693191337585449219e+01 1.405708670616149902e+00 4.615036010742187500e+00 1.806223392486572266e+00 2.439772129058837891e+00
7.940000000000000000e+02 6.946507263183593750e+01 -1.382151031494140625e+01 1.789826273918151855e+00 1.323400878906250000e+01 4.507150173187255859e+00 6.271956920623779297e+00
7.950000000000000000e+02 6.882691955566406250e+01 -1.399063587188720703e+01 2.166682958602905273e+00 7.902034759521484375e+00 3.020615339279174805e+00 5.276906490325927734e+00
7.960000000000000000e+02 6.980198669433593750e+01 -1.402967739105224609e+01 7.032011747360229492e-01 1.586872768402099609e+01 4.971578598022460938e+00 4.524318218231201172e+00
7.970000000000000000e+02 7.147989654541015625e+01 -1.147762680053710938e+01 7.490198612213134766e+00 1.728149223327636719e+01 7.431507110595703125e+00 2.305761575698852539e+00
7.980000000000000000e+02 7.191350555419921875e+01 -1.125813579559326172e+01 5.984054088592529297e+00 1.542921733856201172e+01 6.423981189727783203e+00 2.075834035873413086e+00
7.990000000000000000e+02 7.073838043212890625e+01 -1.071724414825439453e+01 1.619374632835388184e+00 2.086770057678222656e+01 6.746122360229492188e+00 3.184489607810974121e-01
8.000000000000000000e+02 7.045050811767578125e+01 -1.375754451751708984e+01 7.520565986633300781e-01 1.974772262573242188e+01 6.149933815002441406e+00 1.317876696586608887e+00
8.010000000000000000e+02 7.144132232666015625e+01 -1.277632713317871094e+01 8.046786308288574219e+00 1.723581314086914062e+01 7.584779739379882812e+00 -2.508337736129760742e+00
8.020000000000000000e+02 7.150489044189453125e+01 -1.256723976135253906e+01 9.043674468994140625e+00 1.653559875488281250e+01 7.673782348632812500e+00 -1.726513624191284180e+00
8.030000000000000000e+02 7.136792755126953125e+01 -1.298432445526123047e+01 6.794273853302001953e+00 1.773765373229980469e+01 7.359578609466552734e+00 -2.765286922454833984e+00
8.040000000000000000e+02 7.154840087890625000e+01 -1.168823337554931641e+01 8.469771385192871094e+00 1.653861236572265625e+01 7.502514839172363281e+00 1.727726221084594727e+00
8.050000000000000000e+02 7.158345794677734375e+01 -1.212772464752197266e+01 9.572370529174804688e+00 1.605720520019531250e+01 7.688872337341308594e+00 3.877207264304161072e-02
8.060000000000000000e+02 7.006984710693359375e+01 -1.405489921569824219e+01 4.247636795043945312e-01 1.731642341613769531e+01 5.322356224060058594e+00 3.536393642425537109e+00
8.070000000000000000e+02 6.997118377685546875e+01 -1.046973896026611328e+01 1.538735479116439819e-01 1.867819976806640625e+01 5.649621963500976562e+00 -4.535708904266357422e+00
8.080000000000000000e+02 6.850843811035156250e+01 -9.786417961120605469e+00 1.535675764083862305e+00 9.838264465332031250e+00 3.412182092666625977e+00 -4.792372703552246094e+00
8.090000000000000000e+02 6.854114532470703125e+01 -1.035157203674316406e+01 1.105831623077392578e+00 7.043927192687988281e+00 2.444927692413330078e+00 -4.374317646026611328e+00
8.100000000000000000e+02 6.977449035644531250e+01 -1.039930725097656250e+01 3.560501933097839355e-01 1.667651748657226562e+01 5.109770298004150391e+00 -5.511257171630859375e+00
8.110000000000000000e+02 6.720960998535156250e+01 -1.967428398132324219e+01 -1.525609642267227173e-01 5.732163906097412109e+00 1.673880934715270996e+00 1.477197647094726562e+00
8.120000000000000000e+02 6.954801940917968750e+01 -1.425867938995361328e+01 7.621885538101196289e-01 1.328667259216308594e+01 4.214658260345458984e+00 5.052668094635009766e+00
8.130000000000000000e+02 6.891840362548828125e+01 -9.841027259826660156e+00 1.350201368331909180e+00 1.083039093017578125e+01 3.654177665710449219e+00 -5.599941730499267578e+00
8.140000000000000000e+02 6.834751892089843750e+01 -1.429588603973388672e+01 1.807142138481140137e+00 5.642734527587890625e+00 2.234962940216064453e+00 4.119851589202880859e+00
8.150000000000000000e+02 6.913500976562500000e+01 -1.037705516815185547e+01 1.142781972885131836e+00 1.133104228973388672e+01 3.742147207260131836e+00 -5.986271381378173828e+00
8.160000000000000000e+02 6.869050598144531250e+01 -1.005489826202392578e+01 1.016769766807556152e+00 8.939150810241699219e+00 2.986776351928710938e+00 -4.912858486175537109e+00
8.170000000000000000e+02 6.952990722656250000e+01 -1.002581214904785156e+01 5.695910453796386719e-01 1.380100536346435547e+01 4.311179161071777344e+00 -5.572616100311279297e+00
8.180000000000000000e+02 6.955564880371093750e+01 -1.038728332519531250e+01 6.792284846305847168e-01 1.462760448455810547e+01 4.592050075531005859e+00 -5.801571846008300781e+00
8.190000000000000000e+02 6.934084320068359375e+01 -1.038254070281982422e+01 9.555476307868957520e-01 1.262058830261230469e+01 4.072840690612792969e+00 -6.136929988861083984e+00
8.200000000000000000e+02 6.693221282958984375e+01 -1.576243209838867188e+01 1.368209838867187500e+00 4.843537807464599609e+00 1.863524317741394043e+00 2.646564960479736328e+00
8.210000000000000000e+02 6.924728393554687500e+01 -1.378379058837890625e+01 2.164215803146362305e+00 1.116817378997802734e+01 3.999716997146606445e+00 6.112145900726318359e+00
8.220000000000000000e+02 6.787098693847656250e+01 -1.370135879516601562e+01 2.071990966796875000e+00 2.188596248626708984e+00 1.278176069259643555e+00 2.733814477920532227e+00
8.230000000000000000e+02 1.686575317382812500e+01 -1.203275108337402344e+01 4.786932186107151210e-05 5.685026189894415438e-05 3.141587512800469995e-05 -3.847044354188255966e-06
8.240000000000000000e+02 1.790305709838867188e+01 -6.992743015289306641e+00 -1.440866035409271717e-04 -2.865744590963004157e-06 -4.408570748637430370e-05 -3.220012877136468887e-05
8.250000000000000000e+02 1.982869720458984375e+01 -9.770999908447265625e+00 7.972092134878039360e-05 3.465921690803952515e-05 3.431404184084385633e-05 6.069383744033984840e-05
8.260000000000000000e+02 2.011355018615722656e+01 -8.862445831298828125e+00 8.893624180927872658e-05 3.107542215730063617e-05 3.600349737098440528e-05 5.267124288366176188e-05
8.270000000000000000e+02 1.801460456848144531e+01 -1.384766578674316406e+01 1.316466750722611323e-06 9.504054469289258122e-05 2.890710311476141214e-05 2.322536056453827769e-05
8.280000000000000000e+02 2.725601959228515625e+01 -1.087098312377929688e+01 -4.633993804454803467e-01 -1.785652786493301392e-01 -1.925894021987915039e-01 4.164124727249145508e-01
8.290000000000000000e+02 2.687778663635253906e+01 -1.184838867187500000e+01 -3.714249730110168457e-01 -2.152753919363021851e-01 -1.760101020336151123e-01 3.744588792324066162e-01
8.300000000000000000e+02 2.655632591247558594e+01 -1.119855880737304688e+01 -4.038245081901550293e-01 -2.405197322368621826e-01 -1.933032721281051636e-01 4.060596525669097900e-01
8.310000000000000000e+02 2.621474838256835938e+01 -1.053190231323242188e+01 -4.470382630825042725e-01 -2.760133445262908936e-01 -2.169154882431030273e-01 4.395415782928466797e-01
8.320000000000000000e+02 2.518232154846191406e+01 -1.024042415618896484e+01 -4.201501905918121338e-01 -4.035581946372985840e-01 -2.471125125885009766e-01 4.561806023120880127e-01
8.330000000000000000e+02 2.585631752014160156e+01 -9.859650611877441406e+00 -4.866277277469635010e-01 -3.086770474910736084e-01 -2.385914325714111328e-01 4.735941886901855469e-01
8.340000000000000000e+02 9.335163116455078125e+00 3.416048288345336914e+00 -3.800552189350128174e-01 -1.596709787845611572e-01 -1.619178503751754761e-01 2.337008565664291382e-01
8.350000000000000000e+02 8.459111213684082031e+00 2.666695833206176758e+00 -2.739520967006683350e-01 -7.370456308126449585e-02 -1.042969971895217896e-01 1.451017707586288452e-01
8.360000000000000000e+02 1.773113369941711426e+00 8.013432502746582031e+00 -2.894371934235095978e-02 -1.863334476947784424e-01 -6.458315253257751465e-02 1.291657388210296631e-01
8.370000000000000000e+02 5.463453769683837891e+00 1.862521409988403320e+00 -6.112450733780860901e-02 -1.948687806725502014e-02 -2.418341673910617828e-02 2.556727267801761627e-02
8.380000000000000000e+02 9.228637695312500000e+00 2.642608642578125000e+00 -3.193382918834686279e-01 -1.279230713844299316e-01 -1.341784149408340454e-01 1.898726224899291992e-01
8.390000000000000000e+02 7.658881664276123047e+00 1.888721466064453125e+00 -1.546741724014282227e-01 -2.313922904431819916e-02 -5.334401875734329224e-02 6.887515634298324585e-02
8.400000000000000000e+02 6.949802398681640625e+00 2.645746707916259766e+00 -1.847762912511825562e-01 -3.533628210425376892e-02 -6.603377312421798706e-02 8.760105073451995850e-02
8.410000000000000000e+02 8.530983924865722656e+00 3.446929454803466797e+00 -3.338023722171783447e-01 -1.283738315105438232e-01 -1.386528611183166504e-01 2.043026238679885864e-01
8.420000000000000000e+02 1.364662289619445801e+00 3.421280860900878906e+00 -1.418467611074447632e-02 6.655665114521980286e-03 -2.258703112602233887e-03 -4.591198638081550598e-03
8.430000000000000000e+02 4.092780590057373047e+00 3.320859193801879883e+00 -8.565995097160339355e-02 -4.799809306859970093e-02 -4.009741544723510742e-02 5.136531218886375427e-02
8.440000000000000000e+02 2.573277711868286133e+00 1.934156537055969238e+00 -6.109442096203565598e-03 -1.185441389679908752e-02 -5.389156751334667206e-03 -1.251645851880311966e-02
8.450000000000000000e+02 2.081352949142456055e+00 3.050326824188232422e+00 -1.999785192310810089e-02 -1.537415664643049240e-02 -1.061160210520029068e-02 -2.146837534382939339e-03
8.460000000000000000e+02 1.798207473754882812e+01 -1.201255130767822266e+01 -9.751161996973678470e-05 -9.256081830244511366e-05 -5.702173075405880809e-05 -2.817454515025019646e-05
8.470000000000000000e+02 1.920030593872070312e+01 -1.003069496154785156e+01 -7.566335261799395084e-05 -3.438295607338659465e-05 -3.301389369880780578e-05 -9.408661571796983480e-05
8.480000000000000000e+02 2.043389129638671875e+01 -1.105614471435546875e+01 4.112741225981153548e-05 5.705140574718825519e-05 2.945364576589781791e-05 6.042339009582065046e-06
8.490000000000000000e+02 2.012829589843750000e+01 -1.205380249023437500e+01 4.301104854675941169e-05 6.096203287597745657e-05 3.119192479061894119e-05 -2.101366044371388853e-05
8.500000000000000000e+02 2.466506385803222656e+01 -7.861549377441406250e+00 -6.504749655723571777e-01 -4.269987046718597412e-01 -3.232420980930328369e-01 5.740712285041809082e-01
8.510000000000000000e+02 2.547824096679687500e+01 -9.189917564392089844e+00 -5.402047038078308105e-01 -3.480740487575531006e-01 -2.664836049079895020e-01 5.069808959960937500e-01
8.520000000000000000e+02 2.507896614074707031e+01 -8.526652336120605469e+00 -5.864757299423217773e-01 -3.839210867881774902e-01 -2.911190390586853027e-01 5.411688685417175293e-01
8.530000000000000000e+02 2.190106582641601562e+01 -1.584116840362548828e+01 1.305294699704973027e-05 -1.080095353245269507e-05 6.755980734851618763e-07 5.793207492388319224e-06
8.540000000000000000e+02 2.235487556457519531e+01 -5.563616275787353516e+00 -9.057909250259399414e-01 -7.195789217948913574e-01 -4.876109659671783447e-01 7.645964026451110840e-01
8.550000000000000000e+02 2.424573516845703125e+01 -7.188023567199707031e+00 -7.075434923171997070e-01 -4.620936810970306396e-01 -3.508911430835723877e-01 6.072406768798828125e-01
8.560000000000000000e+02 2.381915664672851562e+01 -6.511056900024414062e+00 -7.854683995246887207e-01 -4.988507032394409180e-01 -3.852957487106323242e-01 6.403195858001708984e-01
8.570000000000000000e+02 2.143634223937988281e+01 -3.062245368957519531e+00 -1.046650052070617676e+00 -6.005669236183166504e-01 -4.941650629043579102e-01 7.126440405845642090e-01
8.580000000000000000e+02 1.687909317016601562e+01 -3.313932716846466064e-01 -8.102360963821411133e-01 -9.052475690841674805e-01 -5.146450996398925781e-01 9.122464656829833984e-01
8.590000000000000000e+02 1.697356414794921875e+01 3.902277708053588867e+00 -4.895523488521575928e-01 -1.006623148918151855e+00 -4.488526582717895508e-01 7.688500881195068359e-01
8.600000000000000000e+02 1.557451438903808594e+01 1.158734083175659180e+00 -4.901341497898101807e-01 -8.871858119964599609e-01 -4.131959974765777588e-01 7.941103577613830566e-01
8.610000000000000000e+02 1.549181842803955078e+01 6.565562248229980469e+00 -1.026929497718811035e+00 -1.664040684700012207e+00 -8.072910308837890625e-01 1.125306367874145508e+00
8.620000000000000000e+02 1.643914794921875000e+01 5.696333408355712891e+00 -1.032937407493591309e+00 -1.117823600769042969e+00 -6.452283263206481934e-01 1.082877755165100098e+00
8.630000000000000000e+02 4.527330875396728516e+00 -2.869539499282836914e+00 -1.496174354542745277e-05 -5.586797851719893515e-05 -2.124891580024268478e-05 -3.492883843136951327e-05
8.640000000000000000e+02 7.767359733581542969e+00 -1.921228885650634766e+00 4.405023719300515950e-05 5.901422628085128963e-05 3.091933831456117332e-05 -2.723198804233106785e-06
8.650000000000000000e+02 1.816574811935424805e+00 -9.174770355224609375e+00 -3.057471185456961393e-04 -3.020334816028480418e-06 -9.263023821404203773e-05 -7.576242933282628655e-05
8.660000000000000000e+02 5.764654278755187988e-01 -6.385583400726318359e+00 2.041888656094670296e-04 9.086353202292229980e-06 6.398256664397194982e-05 2.148776547983288765e-05
8.670000000000000000e+02 3.052257299423217773e+00 -4.007473468780517578e+00 1.264585007447749376e-04 -2.320318890269845724e-05 3.097659282502718270e-05 3.796034434344619513e-05
8.680000000000000000e+02 4.362412393093109131e-01 -3.567228794097900391e+00 1.806376094464212656e-04 1.524142874131939607e-07 5.423700713436119258e-05 3.243380342610180378e-05
8.690000000000000000e+02 1.135814857482910156e+01 -7.223866462707519531e+00 -2.218420559074729681e-04 -1.906079160107765347e-05 -7.227085006888955832e-05 -5.940373284829547629e-06
8.700000000000000000e+02 8.553736686706542969e+00 -2.760328292846679688e+00 5.240274913376197219e-05 4.906702815787866712e-05 3.044093318749219179e-05 -2.403677854090346955e-06
8.710000000000000000e+02 6.154142379760742188e+00 -2.799956321716308594e+00 -6.048283830750733614e-05 -4.577571235131472349e-05 -3.187756738043390214e-05 1.001153577817603946e-06
8.720000000000000000e+02 5.339821338653564453e+00 -2.816230297088623047e+00 2.890505857067182660e-05 5.359292117645964026e-05 2.474939356034155935e-05 1.032862928695976734e-05
8.730000000000000000e+02 1.021329879760742188e+01 -2.044724702835083008e+00 -3.536300937412306666e-05 -4.629215254681184888e-05 -2.449654857628047466e-05 -9.635855349188204855e-07
8.740000000000000000e+02 1.325821018218994141e+01 1.919286012649536133e+00 -4.724439680576324463e-01 -5.520166754722595215e-01 -3.073381781578063965e-01 5.288966298103332520e-01
8.750000000000000000e+02 1.163292407989501953e+01 2.300141334533691406e+00 -4.302315115928649902e-01 -3.197736144065856934e-01 -2.250015288591384888e-01 3.545135557651519775e-01
8.760000000000000000e+02 2.197006607055664062e+01 -3.764641761779785156e+00 -1.028327107429504395e+00 -5.876070857048034668e-01 -4.847802221775054932e-01 7.111992239952087402e-01
8.770000000000000000e+02 2.086879920959472656e+01 -2.346610069274902344e+00 -1.024483084678649902e+00 -6.225736141204833984e-01 -4.941170215606689453e-01 7.213070988655090332e-01
8.780000000000000000e+02 2.029056358337402344e+01 -2.955293655395507812e+00 -1.157191753387451172e+00 -8.144375085830688477e-01 -5.914887785911560059e-01 8.640028834342956543e-01
8.790000000000000000e+02 2.023097610473632812e+01 -1.597710490226745605e+00 -9.612340927124023438e-01 -6.575731039047241211e-01 -4.856421649456024170e-01 7.496427297592163086e-01
8.800000000000000000e+02 3.251041030883789062e+01 -1.706096076965332031e+01 -3.462241888046264648e-01 1.744704879820346832e-02 -9.863314032554626465e-02 1.302261650562286377e-01
8.810000000000000000e+02 3.155000495910644531e+01 -1.553432750701904297e+01 -3.864040076732635498e-01 -1.278234738856554031e-02 -1.197559013962745667e-01 1.931385248899459839e-01
8.820000000000000000e+02 2.889563941955566406e+01 -1.499909305572509766e+01 -2.950275242328643799e-01 -9.963371604681015015e-02 -1.183983683586120605e-01 2.277957648038864136e-01
8.830000000000000000e+02 2.780173873901367188e+01 -1.227315330505371094e+01 -3.887200951576232910e-01 -1.461562216281890869e-01 -1.604629009962081909e-01 3.561289310455322266e-01
8.840000000000000000e+02 3.007591247558593750e+01 -1.472146892547607422e+01 -3.546939194202423096e-01 -6.096859648823738098e-02 -1.246987506747245789e-01 2.340388596057891846e-01
8.850000000000000000e+02 3.363148880004882812e+01 -1.692915725708007812e+01 -3.972906470298767090e-01 2.582905814051628113e-02 -1.114384755492210388e-01 1.298575401306152344e-01
8.860000000000000000e+02 3.237524032592773438e+01 -1.595570087432861328e+01 -3.976359069347381592e-01 1.692454144358634949e-02 -1.142134070396423340e-01 1.689293831586837769e-01
8.870000000000000000e+02 1.865916442871093750e+01 -4.427472352981567383e-01 -7.888375520706176758e-01 -8.190141916275024414e-01 -4.823555052280426025e-01 8.635444641113281250e-01
8.880000000000000000e+02 1.790436363220214844e+01 5.166901648044586182e-02 -6.625803112983703613e-01 -9.073932170867919922e-01 -4.709920585155487061e-01 8.914756178855895996e-01
8.890000000000000000e+02 2.880685997009277344e+01 -1.282028102874755859e+01 -3.979731500148773193e-01 -9.705054014921188354e-02 -1.485071033239364624e-01 3.288336396217346191e-01
8.900000000000000000e+02 2.820049095153808594e+01 -1.338137531280517578e+01 -3.396356403827667236e-01 -1.261885315179824829e-01 -1.397472470998764038e-01 3.079345226287841797e-01
8.910000000000000000e+02 2.304381179809570312e+01 -1.631295585632324219e+01 7.607539373566396534e-06 2.796411718009039760e-05 1.067149696609703824e-05 -9.614149348635692149e-06
8.920000000000000000e+02 2.227267456054687500e+01 -1.495688247680664062e+01 -2.663224950083531439e-05 8.728258762857876718e-06 -5.371196948544820771e-06 -1.284935569856315851e-05
8.930000000000000000e+02 1.439258098602294922e+01 -3.381738424301147461e+00 5.675404463545419276e-05 3.010463660757523030e-05 2.605760346341412514e-05 2.168323044315911829e-05
8.940000000000000000e+02 1.476228141784667969e+01 -4.512969017028808594e+00 7.825669308658689260e-05 3.040848969249054790e-05 3.259955701651051641e-05 2.920907354564405978e-05
8.950000000000000000e+02 1.402564907073974609e+01 -5.874805927276611328e+00 6.912121898494660854e-05 5.845483610755763948e-05 3.827281398116610944e-05 -1.242851158167468384e-05
8.960000000000000000e+02 1.673244094848632812e+01 -5.929863452911376953e+00 -1.295806869165971875e-04 -1.152983350038994104e-05 -4.233315485180355608e-05 -1.762413921824190766e-05
8.970000000000000000e+02 1.785308456420898438e+01 -5.915462493896484375e+00 -1.464286324335262179e-04 -2.021281034103594720e-05 -4.999243537895381451e-05 -3.153231955366209149e-05
8.980000000000000000e+02 1.564384174346923828e+01 -6.074627399444580078e+00 -1.267138723051175475e-04 -3.122434691249509342e-06 -3.895088957506231964e-05 -2.249278622912243009e-05
8.990000000000000000e+02 1.854591941833496094e+01 -1.006573772430419922e+01 5.832514216308481991e-05 -4.844204886467196047e-05 2.964927716675447300e-06 2.941581988125108182e-05
9.000000000000000000e+02 1.012546253204345703e+01 -2.893368721008300781e+00 6.352995114866644144e-05 4.158907177043147385e-05 3.153570651193149388e-05 -1.727599283185554668e-06
9.010000000000000000e+02 1.328946590423583984e+01 -3.820405006408691406e+00 9.347657032776623964e-05 1.292043998546432704e-05 3.191910218447446823e-05 2.624767512315884233e-05
9.020000000000000000e+02 1.152910518646240234e+01 -4.102346420288085938e+00 -1.128221483668312430e-04 -1.758949838404078037e-05 -3.912349347956478596e-05 4.543431714409962296e-06
9.030000000000000000e+02 1.251627731323242188e+01 -3.533740282058715820e+00 -1.014387016766704619e-04 -1.246747797267744318e-05 -3.417185507714748383e-05 -1.398327731294557452e-05
9.040000000000000000e+02 1.357873630523681641e+01 -3.045915603637695312e+00 -7.251025090226903558e-05 -2.058662903436925262e-05 -2.792906525428406894e-05 -1.284405061596771702e-05
9.050000000000000000e+02 1.858194160461425781e+01 4.224823951721191406e+00 -5.263895392417907715e-01 -3.904855251312255859e-01 -2.750625014305114746e-01 6.169204115867614746e-01
9.060000000000000000e+02 1.746004295349121094e+01 4.861054420471191406e+00 -1.084952116012573242e+00 -9.671854376792907715e-01 -6.156412363052368164e-01 9.055281281471252441e-01
9.070000000000000000e+02 6.845388793945312500e+01 -7.309002399444580078e+00 -1.022859439253807068e-01 9.273005485534667969e+00 2.751215696334838867e+00 -2.181923151016235352e+00
9.080000000000000000e+02 2.833537864685058594e+01 9.176614761352539062e+00 7.131770998239517212e-02 -3.140840232372283936e-01 -7.282988727092742920e-02 6.361019015312194824e-01
9.090000000000000000e+02 6.437857055664062500e+01 -5.320725917816162109e+00 -1.409922719001770020e+00 -5.990578327327966690e-03 -4.247739911079406738e-01 -2.123142957687377930e+00
9.100000000000000000e+02 1.694032096862792969e+01 1.618776512145996094e+01 1.140565514564514160e+00 5.142609477043151855e-01 4.964479207992553711e-01 6.406607627868652344e-01
9.110000000000000000e+02 1.354319190979003906e+01 1.424866199493408203e+01 6.028149127960205078e-01 -2.974418997764587402e-01 9.161189943552017212e-02 5.040681362152099609e-01
9.120000000000000000e+02 2.021578979492187500e+01 1.676692008972167969e+01 4.154476225376129150e-01 -4.039453342556953430e-02 1.125159263610839844e-01 3.591085374355316162e-01
9.130000000000000000e+02 1.617361831665039062e+01 1.884996223449707031e+01 3.382337093353271484e-01 1.325341910123825073e-01 1.412303745746612549e-01 3.729728162288665771e-01
9.140000000000000000e+02 2.036961555480957031e+01 1.902693367004394531e+01 2.389997243881225586e-01 -1.510315984487533569e-01 2.639043703675270081e-02 7.027682065963745117e-01
9.150000000000000000e+02 1.343248653411865234e+01 2.683155775070190430e+00 -4.523265361785888672e-01 -6.968228220939636230e-01 -3.447448313236236572e-01 5.484777092933654785e-01
9.160000000000000000e+02 2.239260673522949219e+01 1.922395896911621094e+01 2.882849276065826416e-01 -4.813486337661743164e-01 -5.791911482810974121e-02 6.188766360282897949e-01
9.170000000000000000e+02 1.575951480865478516e+01 1.988486766815185547e+00 -4.169608354568481445e-01 -9.616885185241699219e-01 -4.135948121547698975e-01 8.285869956016540527e-01
9.180000000000000000e+02 2.139217948913574219e+01 3.071922063827514648e+00 -5.366769433021545410e-02 1.384203881025314331e-01 2.542580664157867432e-02 4.578808248043060303e-01
9.190000000000000000e+02 2.290147018432617188e+01 5.128042697906494141e+00 9.186303019523620605e-01 3.613799214363098145e-01 3.840030729770660400e-01 5.183673501014709473e-01
9.200000000000000000e+02 2.475093650817871094e+01 4.819993019104003906e+00 4.448606073856353760e-01 2.051839977502822876e-01 1.950133889913558960e-01 2.203851938247680664e-01
9.210000000000000000e+02 6.783479309082031250e+01 -6.425659656524658203e+00 -1.632035374641418457e+00 8.220550537109375000e+00 1.976554632186889648e+00 -3.046758174896240234e+00
9.220000000000000000e+02 1.531775569915771484e+01 1.743248367309570312e+01 5.809282064437866211e-01 1.137943044304847717e-01 2.084167599678039551e-01 2.675868868827819824e-01
9.230000000000000000e+02 2.696455764770507812e+01 1.152489852905273438e+01 -3.856229186058044434e-01 -6.768568158149719238e-01 -3.187439143657684326e-01 6.264458894729614258e-01
9.240000000000000000e+02 1.318148517608642578e+01 1.098841762542724609e+01 -3.401000984013080597e-03 -7.425339221954345703e-01 -2.237804681062698364e-01 5.723492503166198730e-01
9.250000000000000000e+02 1.265866947174072266e+01 1.346722316741943359e+01 3.863243460655212402e-01 -4.777567386627197266e-01 -2.742972224950790405e-02 6.038088202476501465e-01
9.260000000000000000e+02 2.241829299926757812e+01 3.601675748825073242e+00 2.144851237535476685e-01 2.579275667667388916e-01 1.417238116264343262e-01 3.128336668014526367e-01
9.270000000000000000e+02 2.549932289123535156e+01 1.521172142028808594e+01 -3.457634150981903076e-01 -9.113230109214782715e-01 -3.771259188652038574e-01 3.971786499023437500e-01
9.280000000000000000e+02 2.219416236877441406e+01 1.721093940734863281e+01 1.560589820146560669e-01 -5.772579312324523926e-01 -1.263596713542938232e-01 5.471966266632080078e-01
9.290000000000000000e+02 2.752850723266601562e+01 7.772088527679443359e+00 2.719196081161499023e-01 -3.093807697296142578e-01 -1.123835239559412003e-02 5.330272316932678223e-01
9.300000000000000000e+02 2.717215156555175781e+01 8.930997848510742188e+00 1.315894871950149536e-01 -3.710571825504302979e-01 -7.184030860662460327e-02 5.948251485824584961e-01
9.310000000000000000e+02 1.244232368469238281e+01 2.116632699966430664e+00 -4.417022764682769775e-01 -4.561363160610198975e-01 -2.693515717983245850e-01 4.411783218383789062e-01
9.320000000000000000e+02 1.655388641357421875e+01 1.784954786300659180e+00 -4.064387381076812744e-01 -9.520402550697326660e-01 -4.075437188148498535e-01 8.346047401428222656e-01
9.330000000000000000e+02 2.089185905456542969e+01 -1.002583861351013184e+00 -8.244422674179077148e-01 -4.709894955158233643e-01 -3.886295258998870850e-01 6.456382870674133301e-01
9.340000000000000000e+02 1.319225311279296875e+01 8.535479545593261719e+00 -6.165858507156372070e-01 -8.921194076538085938e-01 -4.526115655899047852e-01 7.038300037384033203e-01
9.350000000000000000e+02 1.439173316955566406e+01 9.616559028625488281e+00 -6.132472306489944458e-02 -1.464305520057678223e+00 -4.576890766620635986e-01 3.223080337047576904e-01
9.360000000000000000e+02 6.820422363281250000e+01 -9.583250045776367188e+00 1.167364358901977539e+00 1.027164745330810547e+01 3.431703567504882812e+00 -2.887922763824462891e+00
9.370000000000000000e+02 1.145135593414306641e+01 -1.172427177429199219e+01 1.450158015359193087e-04 -1.118008513003587723e-04 9.964484888769220561e-06 1.272197114303708076e-04
9.380000000000000000e+02 3.014234542846679688e+00 -1.193371963500976562e+01 4.649412003345787525e-04 -4.814629937754943967e-05 1.250384666491299868e-04 8.847492426866665483e-05
9.390000000000000000e+02 7.976990699768066406e+00 -1.367494201660156250e+01 -4.586143768392503262e-04 3.448310962994582951e-05 -1.272393856197595596e-04 -1.213296491187065840e-04
9.400000000000000000e+02 9.264161109924316406e+00 -1.413013172149658203e+01 -4.927692352794110775e-04 -2.712262794375419617e-04 -2.291986602358520031e-04 -3.381196002010256052e-04
9.410000000000000000e+02 5.546507644653320312e+01 1.217550277709960938e+01 1.466758102178573608e-01 3.265436649322509766e+00 1.023633718490600586e+00 7.101470977067947388e-02
9.420000000000000000e+02 5.714935684204101562e+01 2.090081977844238281e+01 3.408474922180175781e-01 2.824910640716552734e+00 9.497274756431579590e-01 -6.313754320144653320e-01
9.430000000000000000e+02 1.187412834167480469e+01 -9.689496994018554688e+00 2.764243108686059713e-04 6.998030130489496514e-06 8.502670243615284562e-05 4.820081812795251608e-05
9.440000000000000000e+02 4.242417907714843750e+01 8.247666358947753906e+00 -1.492783725261688232e-01 7.685656547546386719e-01 1.857861876487731934e-01 1.249714121222496033e-01
9.450000000000000000e+02 4.302855300903320312e+01 1.060120773315429688e+01 1.168026030063629150e-01 1.341937422752380371e+00 4.376220107078552246e-01 -1.965203434228897095e-01
9.460000000000000000e+02 7.696646213531494141e+00 -1.832991790771484375e+01 1.106164418160915375e-04 3.751057374756783247e-05 4.443810394150204957e-05 3.489804512355476618e-04
9.470000000000000000e+02 4.587780761718750000e+01 1.809089851379394531e+01 5.306612849235534668e-01 4.509787261486053467e-01 2.944920063018798828e-01 4.869838654994964600e-01
9.480000000000000000e+02 1.437909603118896484e+01 -1.134159374237060547e+01 -5.210767631069757044e-05 -7.726356125203892589e-05 -3.881136944983154535e-05 -3.207710324204526842e-05
9.490000000000000000e+02 5.654649734497070312e+01 -2.691996192932128906e+01 -1.444024920463562012e+00 -5.130389928817749023e-01 -5.871191620826721191e-01 -8.503040075302124023e-01
9.500000000000000000e+02 3.191003799438476562e+01 -3.189544677734375000e+01 2.265446819365024567e-02 6.408156361430883408e-03 8.718787692487239838e-03 -2.058021957054734230e-03
9.510000000000000000e+02 3.611407470703125000e+01 -3.501389694213867188e+01 -2.490819431841373444e-02 -1.796437241137027740e-02 -1.286177057772874832e-02 -3.140873461961746216e-02
9.520000000000000000e+02 4.180529403686523438e+01 -3.238032150268554688e+01 -2.344978153705596924e-01 -5.712300911545753479e-02 -8.748624473810195923e-02 -1.071740612387657166e-01
9.530000000000000000e+02 4.657063674926757812e+01 -3.300135040283203125e+01 -3.843709826469421387e-01 -2.365229576826095581e-01 -1.862681806087493896e-01 -3.659401834011077881e-01
9.540000000000000000e+02 1.141083526611328125e+01 -1.957491683959960938e+01 2.321945503354072571e-04 2.143883757526054978e-04 1.339748705504462123e-04 3.086532815359532833e-04
9.550000000000000000e+02 4.941914749145507812e+01 -3.214310073852539062e+01 -5.214844942092895508e-01 -3.674513101577758789e-01 -2.666807472705841064e-01 -4.629456102848052979e-01
9.560000000000000000e+02 1.226118183135986328e+01 -2.053749465942382812e+01 -1.491025759605690837e-04 -3.375829255674034357e-04 -1.460056519135832787e-04 -3.098685701843351126e-04
9.570000000000000000e+02 1.681758689880371094e+01 -7.079224586486816406e+00 -1.468905829824507236e-04 8.966516134023549967e-07 -4.379817983135581017e-05 -9.129005775321274996e-06
9.580000000000000000e+02 1.427750968933105469e+01 -1.224403381347656250e+01 -3.101015181528055109e-06 -1.608620077604427934e-04 -4.918890772387385368e-05 -4.825790892937220633e-05
9.590000000000000000e+02 3.194552040100097656e+01 -3.442227172851562500e+01 -1.414519152604043484e-03 9.547158260829746723e-04 -1.379410095978528261e-04 -1.693213242106139660e-03
9.600000000000000000e+02 7.661471557617187500e+01 -3.699816131591796875e+01 -6.065883859992027283e-02 9.417962074279785156e+00 2.807191133499145508e+00 1.441874653100967407e-01
9.610000000000000000e+02 7.930227661132812500e+01 -3.470360183715820312e+01 -1.889132335782051086e-02 1.052686691284179688e+01 3.152392864227294922e+00 4.861588403582572937e-02
9.620000000000000000e+02 7.937805938720703125e+01 -2.779489707946777344e+01 -1.738766208291053772e-02 1.052189540863037109e+01 3.151352405548095703e+00 -7.219106703996658325e-02
9.630000000000000000e+02 7.772969055175781250e+01 3.227188491821289062e+01 7.133153267204761505e-03 6.189113616943359375e+00 1.858874082565307617e+00 -6.801990419626235962e-02
9.640000000000000000e+02 7.943208312988281250e+01 3.629440307617187500e+01 5.806825589388608932e-03 6.275568008422851562e+00 1.884412407875061035e+00 -1.499318797141313553e-02
9.650000000000000000e+02 7.944896697998046875e+01 -2.083989143371582031e+01 -1.528761722147464752e-02 8.535216331481933594e+00 2.555978536605834961e+00 -3.380897343158721924e-01
9.660000000000000000e+02 7.814660644531250000e+01 -2.764466476440429688e+01 -8.570833504199981689e-02 9.936080932617187500e+00 2.955111742019653320e+00 -1.756295412778854370e-01
9.670000000000000000e+02 7.816014099121093750e+01 -2.625062370300292969e+01 -8.878760784864425659e-02 9.811369895935058594e+00 2.916774749755859375e+00 -2.836291491985321045e-01
9.680000000000000000e+02 7.935669708251953125e+01 -3.057967758178710938e+01 -1.247873995453119278e-02 1.063755512237548828e+01 3.187523126602172852e+00 -2.503701858222484589e-02
9.690000000000000000e+02 7.787977600097656250e+01 -3.442337799072265625e+01 -5.876862630248069763e-02 9.939668655395507812e+00 2.964269876480102539e+00 5.529283359646797180e-02
9.700000000000000000e+02 7.795033264160156250e+01 -3.309681320190429688e+01 -4.911908134818077087e-02 9.927209854125976562e+00 2.963427066802978516e+00 2.585704624652862549e-02
9.710000000000000000e+02 7.748041534423828125e+01 -3.807906341552734375e+01 -8.570739626884460449e-02 9.635398864746093750e+00 2.864907503128051758e+00 1.720655709505081177e-01
9.720000000000000000e+02 7.657518005371093750e+01 -3.906529617309570312e+01 -3.403593599796295166e-02 9.546085357666015625e+00 2.853614807128906250e+00 9.106722474098205566e-02
9.730000000000000000e+02 7.797737884521484375e+01 1.399710559844970703e+01 1.487393677234649658e-02 7.476259708404541016e+00 2.247340202331542969e+00 -2.442739605903625488e-01
9.740000000000000000e+02 7.932830810546875000e+01 1.535375976562500000e+01 4.745280835777521133e-03 7.615496635437011719e+00 2.286072492599487305e+00 -7.426544278860092163e-02
9.750000000000000000e+02 7.793577575683593750e+01 2.106539154052734375e+01 1.158856600522994995e-02 6.799746036529541016e+00 2.043400287628173828e+00 -1.623910367488861084e-01
9.760000000000000000e+02 7.930937194824218750e+01 2.235993766784667969e+01 9.242760133929550648e-04 6.918659210205078125e+00 2.075875043869018555e+00 -4.771719127893447876e-02
9.770000000000000000e+02 7.785623168945312500e+01 3.079456138610839844e+01 9.488996118307113647e-03 6.255126476287841797e+00 1.879384517669677734e+00 -7.165487110614776611e-02
9.780000000000000000e+02 7.935469055175781250e+01 2.791950225830078125e+01 -4.590762779116630554e-03 6.566744327545166016e+00 1.968646049499511719e+00 -3.026016242802143097e-02
9.790000000000000000e+02 7.797723388671875000e+01 2.532917594909667969e+01 1.378837600350379944e-02 6.528405189514160156e+00 1.962658047676086426e+00 -1.163423508405685425e-01
9.800000000000000000e+02 7.792725372314453125e+01 2.392296600341796875e+01 1.010665576905012131e-02 6.599812507629394531e+00 1.982975840568542480e+00 -1.338115930557250977e-01
9.810000000000000000e+02 7.796441650390625000e+01 1.822698974609375000e+01 1.324873045086860657e-02 7.039608478546142578e+00 2.115857124328613281e+00 -1.947539150714874268e-01
9.820000000000000000e+02 7.797217559814453125e+01 1.540486145019531250e+01 1.255431678146123886e-02 7.322325706481933594e+00 2.200464010238647461e+00 -2.300602346658706665e-01
9.830000000000000000e+02 7.797008514404296875e+01 1.681563186645507812e+01 1.456060912460088730e-02 7.174746990203857422e+00 2.156792402267456055e+00 -2.124511003494262695e-01
9.840000000000000000e+02 7.799566650390625000e+01 1.259274196624755859e+01 1.050182431936264038e-02 7.642553806304931641e+00 2.295916795730590820e+00 -2.625790238380432129e-01
9.850000000000000000e+02 7.673139953613281250e+01 1.116752243041992188e+01 1.265480648726224899e-02 7.450353622436523438e+00 2.238902568817138672e+00 -4.205870330333709717e-01
9.860000000000000000e+02 7.810501861572265625e+01 8.385313987731933594e+00 -1.105580851435661316e-02 8.202844619750976562e+00 2.457536697387695312e+00 -2.543885707855224609e-01
9.870000000000000000e+02 7.935698699951171875e+01 9.767930984497070312e+00 -3.381715156137943268e-03 8.404256820678710938e+00 2.520262479782104492e+00 -8.575383573770523071e-02
9.880000000000000000e+02 7.947699737548828125e+01 -1.945150947570800781e+01 -2.589775249361991882e-02 7.652249336242675781e+00 2.287905454635620117e+00 -3.936150968074798584e-01
9.890000000000000000e+02 7.948567199707031250e+01 -1.388776397705078125e+01 6.463973969221115112e-02 3.350339412689208984e+00 1.024493694305419922e+00 -2.623669803142547607e-01
9.900000000000000000e+02 7.850576782226562500e+01 -9.598309516906738281e+00 2.334103584289550781e-01 5.173928260803222656e+00 1.622201681137084961e+00 8.354716897010803223e-01
9.910000000000000000e+02 7.948011016845703125e+01 -6.925501823425292969e+00 -1.332325674593448639e-02 5.635205745697021484e+00 1.686564803123474121e+00 4.325563013553619385e-01
9.920000000000000000e+02 7.823300933837890625e+01 7.370547950267791748e-02 -1.362771242856979370e-01 8.736800193786621094e+00 2.580157041549682617e+00 2.346069961786270142e-01
9.930000000000000000e+02 7.940143585205078125e+01 1.420415043830871582e+00 -2.505749091506004333e-02 9.207917213439941406e+00 2.754858016967773438e+00 4.862803593277931213e-02
9.940000000000000000e+02 7.812516021728515625e+01 7.000700950622558594e+00 -2.202280424535274506e-02 8.380381584167480469e+00 2.507507562637329102e+00 -2.332697063684463501e-01
9.950000000000000000e+02 7.799744415283203125e+01 2.937572860717773438e+01 8.929320611059665680e-03 6.323575019836425781e+00 1.899751424789428711e+00 -7.902988046407699585e-02
9.960000000000000000e+02 7.801562500000000000e+01 4.163451385498046875e+01 6.445926427841186523e-02 6.070717811584472656e+00 1.840553164482116699e+00 -1.806973665952682495e-02
9.970000000000000000e+02 7.835760498046875000e+01 3.678447341918945312e+01 -1.911233877763152122e-03 6.172455787658691406e+00 1.851163387298583984e+00 -5.286866053938865662e-02
9.980000000000000000e+02 7.607074737548828125e+01 3.577944183349609375e+01 5.822529550641775131e-03 5.891989707946777344e+00 1.769343614578247070e+00 -7.736027240753173828e-02
9.990000000000000000e+02 7.807537841796875000e+01 9.780302047729492188e+00 -2.336876234039664268e-03 8.013540267944335938e+00 2.403361082077026367e+00 -2.649101018905639648e-01
1.000000000000000000e+03 7.705788421630859375e+01 9.538902342319488525e-02 -3.019425272941589355e-01 8.529824256896972656e+00 2.468364715576171875e+00 2.621015012264251709e-01
1.001000000000000000e+03 7.817629241943359375e+01 2.852536916732788086e+00 -8.103328943252563477e-02 8.756685256958007812e+00 2.602695465087890625e+00 -4.014611244201660156e-02
1.002000000000000000e+03 7.826322174072265625e+01 -1.324225783348083496e+00 -1.557221114635467529e-01 8.581956863403320312e+00 2.527870416641235352e+00 4.317556321620941162e-01
1.003000000000000000e+03 7.943029785156250000e+01 -2.762614488601684570e+00 -2.817112021148204803e-02 8.289513587951660156e+00 2.478402853012084961e+00 2.644129097461700439e-01
1.004000000000000000e+03 7.849398803710937500e+01 -8.228388786315917969e+00 6.194902211427688599e-02 5.831007003784179688e+00 1.767886757850646973e+00 1.060560345649719238e+00
1.005000000000000000e+03 7.837657165527343750e+01 -5.491569519042968750e+00 -1.090505272150039673e-01 7.276018619537353516e+00 2.150090456008911133e+00 1.037221431732177734e+00
1.006000000000000000e+03 7.949697113037109375e+01 -9.700753211975097656e+00 4.975982755422592163e-02 3.549175262451171875e+00 1.079680562019348145e+00 3.058509230613708496e-01
1.007000000000000000e+03 7.848604583740234375e+01 -1.520895862579345703e+01 1.572217345237731934e-01 5.598052978515625000e+00 1.726582407951354980e+00 -1.031117677688598633e+00
1.008000000000000000e+03 7.846012115478515625e+01 -1.239239788055419922e+01 3.789679408073425293e-01 4.746461391448974609e+00 1.537628769874572754e+00 -1.511401981115341187e-01
1.009000000000000000e+03 7.950189971923828125e+01 -1.667260742187500000e+01 8.087852969765663147e-03 5.371385574340820312e+00 1.613842010498046875e+00 -4.440743029117584229e-01
1.010000000000000000e+03 7.843682861328125000e+01 -1.932739067077636719e+01 -1.037845835089683533e-01 7.897226810455322266e+00 2.338032722473144531e+00 -1.026580452919006348e+00
1.011000000000000000e+03 2.131025886535644531e+01 -1.442140674591064453e+01 1.165134926850441843e-05 -1.140551557909930125e-05 7.374996613407347468e-08 2.220974420197308064e-05
1.012000000000000000e+03 2.645775222778320312e+01 -3.019071197509765625e+01 1.127791590988636017e-02 2.204644726589322090e-03 4.044767934828996658e-03 -2.972215414047241211e-03
1.013000000000000000e+03 2.724434852600097656e+01 -3.238721847534179688e+01 1.009105890989303589e-02 3.852271183859556913e-04 3.142885863780975342e-03 1.900371164083480835e-03
1.014000000000000000e+03 6.287225341796875000e+01 -2.328820610046386719e+01 -4.543527066707611084e-01 1.670813083648681641e+00 3.649381101131439209e-01 4.032984673976898193e-01
1.015000000000000000e+03 5.509623336791992188e+01 -2.974483299255371094e+01 -7.575272917747497559e-01 -2.792791724205017090e-01 -3.110419511795043945e-01 -4.855945706367492676e-01
1.016000000000000000e+03 6.646053314208984375e+01 -2.088409233093261719e+01 -3.356699049472808838e-01 4.892065525054931641e+00 1.366918683052062988e+00 1.202351927757263184e+00
1.017000000000000000e+03 1.564330768585205078e+01 -1.171422863006591797e+01 -5.122285074321553111e-06 -3.433657184359617531e-06 -2.566782768553821370e-06 -1.587956035109527875e-06
1.018000000000000000e+03 4.800249862670898438e+01 -3.264843750000000000e+01 -4.446609318256378174e-01 -2.945250570774078369e-01 -2.217558026313781738e-01 -4.341911077499389648e-01
1.019000000000000000e+03 6.549238586425781250e+01 -2.001396942138671875e+01 1.470771282911300659e-01 3.716997861862182617e+00 1.159222483634948730e+00 1.359218358993530273e+00
1.020000000000000000e+03 5.080862426757812500e+01 -3.159004402160644531e+01 -6.081062555313110352e-01 -3.707734644412994385e-01 -2.936639189720153809e-01 -5.140526890754699707e-01
1.021000000000000000e+03 3.699276351928710938e+01 -3.358685302734375000e+01 -2.672215923666954041e-02 -1.488923467695713043e-02 -1.248341798782348633e-02 -3.513665497303009033e-02
1.022000000000000000e+03 1.817083740234375000e+01 -2.919601058959960938e+01 3.402625909075140953e-03 -2.732965222094208002e-04 9.387988247908651829e-04 3.477305290289223194e-04
1.023000000000000000e+03 1.788039970397949219e+01 -2.497622108459472656e+01 7.678317488171160221e-04 1.088701992557616904e-05 2.336156321689486504e-04 -6.887058843858540058e-04
1.024000000000000000e+03 5.762416458129882812e+01 -2.819451141357421875e+01 -8.020843267440795898e-01 -5.025939643383026123e-02 -2.557031214237213135e-01 -3.857487738132476807e-01
1.025000000000000000e+03 2.448348617553710938e+01 -3.084169960021972656e+01 7.864410988986492157e-03 4.793687257915735245e-04 2.503133844584226608e-03 3.367252938915044069e-04
1.026000000000000000e+03 2.401548767089843750e+01 -2.879553031921386719e+01 6.381289567798376083e-03 2.530152210965752602e-03 2.673432463780045509e-03 -1.756426179781556129e-03
1.027000000000000000e+03 6.475865936279296875e+01 -2.312331199645996094e+01 -5.002809166908264160e-01 3.370341777801513672e+00 8.610182404518127441e-01 7.933530807495117188e-01
1.028000000000000000e+03 6.280030822753906250e+01 -2.131859588623046875e+01 4.676223173737525940e-02 9.428141117095947266e-01 2.968729138374328613e-01 4.203425943851470947e-01
1.029000000000000000e+03 4.187564468383789062e+01 -3.413011169433593750e+01 -1.108019724488258362e-01 -1.166497692465782166e-01 -6.823552399873733521e-02 -1.809372454881668091e-01
1.030000000000000000e+03 1.941018295288085938e+01 -1.253396511077880859e+01 -6.524080527015030384e-05 -6.503034092020243406e-05 -3.908134385710582137e-05 1.022170545184053481e-05
1.031000000000000000e+03 2.012960624694824219e+01 -1.040825176239013672e+01 -5.030180182075127959e-05 -5.644680277328006923e-05 -3.202458174200728536e-05 -4.482827716856263578e-05
1.032000000000000000e+03 3.171638107299804688e+01 -3.318787384033203125e+01 1.109257061034440994e-02 -3.865733975544571877e-03 2.168050967156887054e-03 -5.772814154624938965e-03
1.033000000000000000e+03 2.576612091064453125e+01 -3.171110153198242188e+01 8.211717940866947174e-03 -2.089409157633781433e-03 1.836692448705434799e-03 -2.401022065896540880e-04
1.034000000000000000e+03 3.291136169433593750e+01 -3.353917694091796875e+01 9.569822810590267181e-03 1.330551458522677422e-03 3.270112210884690285e-03 -7.801991887390613556e-04
1.035000000000000000e+03 5.228747177124023438e+01 -3.112557601928710938e+01 -6.481062769889831543e-01 -3.409709930419921875e-01 -2.967231869697570801e-01 -5.017492175102233887e-01
1.036000000000000000e+03 5.408386611938476562e+01 -2.834068489074707031e+01 -1.424664735794067383e+00 -4.451503157615661621e-01 -5.609444975852966309e-01 -7.851716279983520508e-01
1.037000000000000000e+03 6.464618682861328125e+01 -2.113117218017578125e+01 -7.260969281196594238e-02 2.921863794326782227e+00 8.547762632369995117e-01 1.024415612220764160e+00
1.038000000000000000e+03 4.367594909667968750e+01 -3.422095870971679688e+01 -1.541142910718917847e-01 -1.753292977809906006e-01 -9.883307665586471558e-02 -2.562428414821624756e-01
1.039000000000000000e+03 2.156517982482910156e+01 -2.761528015136718750e+01 3.650321159511804581e-03 1.824059756472706795e-03 1.642314251512289047e-03 -6.274877232499420643e-04
1.040000000000000000e+03 2.125605583190917969e+01 -2.918221664428710938e+01 4.280732944607734680e-03 -6.855826359242200851e-04 1.078544999472796917e-03 -1.051610801368951797e-03
1.041000000000000000e+03 5.881502914428710938e+01 -2.737208747863769531e+01 -7.913800477981567383e-01 1.763480305671691895e-01 -1.845096051692962646e-01 -2.399568259716033936e-01
1.042000000000000000e+03 5.995329284667968750e+01 -2.648795127868652344e+01 -7.962859869003295898e-01 4.655145406723022461e-01 -9.923142939805984497e-02 -1.051941663026809692e-01
1.043000000000000000e+03 3.430643844604492188e+01 -3.435978698730468750e+01 -1.136592496186494827e-02 -9.328974410891532898e-03 -6.208470091223716736e-03 -1.864377409219741821e-02
1.044000000000000000e+03 5.374888992309570312e+01 -3.051951217651367188e+01 -6.974812150001525879e-01 -3.215002715587615967e-01 -3.056944310665130615e-01 -4.991219639778137207e-01
1.045000000000000000e+03 6.377009582519531250e+01 -2.220702552795410156e+01 -2.478704750537872314e-01 2.231978416442871094e+00 5.952323675155639648e-01 6.790864467620849609e-01
1.046000000000000000e+03 1.596166706085205078e+01 -2.285597801208496094e+01 2.077594945149030536e-05 -1.392942940583452582e-04 -3.555550574674271047e-05 -3.898500872310250998e-04
1.047000000000000000e+03 1.390980911254882812e+01 -2.265238571166992188e+01 -1.083620554709341377e-05 -2.619826409500092268e-04 -8.184565376723185182e-05 -3.593282890506088734e-04
1.048000000000000000e+03 4.465037155151367188e+01 4.353765010833740234e+00 -2.050266414880752563e-01 2.884209752082824707e-01 2.501830272376537323e-02 8.376587927341461182e-02
1.049000000000000000e+03 4.483179855346679688e+01 5.577850818634033203e+00 -1.625361442565917969e-01 2.966291606426239014e-01 4.022791236639022827e-02 1.151946187019348145e-02
1.050000000000000000e+03 5.535036849975585938e+01 1.009869766235351562e+01 3.581152558326721191e-01 2.600711584091186523e+00 8.876481056213378906e-01 4.775232970714569092e-01
1.051000000000000000e+03 6.205884933471679688e+01 -6.626820564270019531e+00 -3.598751783370971680e+00 -4.338617026805877686e-01 -1.209784030914306641e+00 -8.895544409751892090e-01
1.052000000000000000e+03 6.090296554565429688e+01 -7.337025165557861328e+00 -3.126395702362060547e+00 -4.217875897884368896e-01 -1.064454913139343262e+00 -1.143877267837524414e+00
1.053000000000000000e+03 4.879882431030273438e+01 5.062468528747558594e+00 2.282959409058094025e-02 4.736892879009246826e-02 2.105955593287944794e-02 1.720238029956817627e-01
1.054000000000000000e+03 5.179103088378906250e+01 5.349053859710693359e+00 2.245907038450241089e-01 3.560045957565307617e-01 1.741785854101181030e-01 3.319585919380187988e-01
1.055000000000000000e+03 4.758092117309570312e+01 5.895399093627929688e+00 -7.474245876073837280e-02 -3.617958864197134972e-03 -2.350812591612339020e-02 8.330007642507553101e-02
1.056000000000000000e+03 4.176249313354492188e+01 -1.808174705505371094e+01 -5.676440000534057617e-01 -4.691150970757007599e-03 -1.717005372047424316e-01 -1.050099432468414307e-01
1.057000000000000000e+03 3.793497085571289062e+01 -1.717351341247558594e+01 -5.173776745796203613e-01 3.641851246356964111e-02 -1.442877501249313354e-01 3.254304826259613037e-02
1.058000000000000000e+03 5.067863082885742188e+01 2.061371040344238281e+01 6.313756108283996582e-01 5.844799876213073730e-01 3.647566735744476318e-01 -3.230045735836029053e-01
1.059000000000000000e+03 4.805205154418945312e+01 2.093750190734863281e+01 5.691601634025573730e-01 4.809068441390991211e-01 3.150200843811035156e-01 2.825755774974822998e-01
1.060000000000000000e+03 4.829958724975585938e+01 -1.601155662536621094e+01 -8.340395689010620117e-01 -9.023303538560867310e-02 -2.772817909717559814e-01 -3.086957037448883057e-01
1.061000000000000000e+03 3.916476821899414062e+01 -1.713496017456054688e+01 -5.561744570732116699e-01 4.711049422621726990e-02 -1.527191996574401855e-01 -7.524800952523946762e-03
1.062000000000000000e+03 4.169536590576171875e+01 -1.675619316101074219e+01 -6.486315727233886719e-01 5.133841186761856079e-02 -1.791879534721374512e-01 -6.245236098766326904e-02
1.063000000000000000e+03 5.197129440307617188e+01 2.073440170288085938e+01 5.594466328620910645e-01 1.002908229827880859e+00 4.687064588069915771e-01 -5.810402631759643555e-01
1.064000000000000000e+03 4.423949432373046875e+01 -1.607412528991699219e+01 -7.533003687858581543e-01 1.235515624284744263e-02 -2.222835570573806763e-01 -1.244480088353157043e-01
1.065000000000000000e+03 4.794461441040039062e+01 -1.471736431121826172e+01 -9.210408329963684082e-01 -8.920520544052124023e-03 -2.789883911609649658e-01 -2.580357491970062256e-01
1.066000000000000000e+03 5.201910781860351562e+01 -1.418346118927001953e+01 -1.095456361770629883e+00 -2.557123303413391113e-01 -4.053505957126617432e-01 -5.318554043769836426e-01
1.067000000000000000e+03 5.562359237670898438e+01 -1.210899543762207031e+01 -1.481044769287109375e+00 -4.322307705879211426e-01 -5.739826560020446777e-01 -8.396883606910705566e-01
1.068000000000000000e+03 5.277723312377929688e+01 -1.226675605773925781e+01 -1.304239034652709961e+00 -1.402311623096466064e-01 -4.333410561084747314e-01 -4.950659573078155518e-01
1.069000000000000000e+03 3.443317413330078125e+01 -1.736110687255859375e+01 -3.950765132904052734e-01 2.832521498203277588e-02 -1.100253909826278687e-01 1.031451821327209473e-01
1.070000000000000000e+03 4.549938583374023438e+01 -1.566302013397216797e+01 -7.921593785285949707e-01 -4.393937531858682632e-03 -2.389659881591796875e-01 -1.793799996376037598e-01
1.071000000000000000e+03 5.232567596435546875e+01 -1.104208946228027344e+01 -1.376811981201171875e+00 2.955397777259349823e-02 -4.041773974895477295e-01 -3.802096843719482422e-01
1.072000000000000000e+03 5.351679229736328125e+01 -1.039486598968505859e+01 -1.526493549346923828e+00 6.992740556597709656e-03 -4.558502435684204102e-01 -4.183120131492614746e-01
1.073000000000000000e+03 4.673164749145507812e+01 -1.521552944183349609e+01 -8.661718964576721191e-01 2.836917061358690262e-03 -2.590004801750183105e-01 -2.307134270668029785e-01
1.074000000000000000e+03 5.514030456542968750e+01 -1.093879127502441406e+01 -1.668309211730957031e+00 -1.985563635826110840e-01 -5.600596666336059570e-01 -6.714540123939514160e-01
1.075000000000000000e+03 5.629368591308593750e+01 -1.024711418151855469e+01 -1.865212440490722656e+00 -2.437992393970489502e-01 -6.327034831047058105e-01 -7.696988582611083984e-01
1.076000000000000000e+03 4.916174316406250000e+01 -1.416484832763671875e+01 -9.807694554328918457e-01 -2.834586612880229950e-02 -3.027346134185791016e-01 -3.189364373683929443e-01
1.077000000000000000e+03 5.858994674682617188e+01 -8.792030334472656250e+00 -2.422772169113159180e+00 -3.377231359481811523e-01 -8.281486034393310547e-01 -9.702023863792419434e-01
1.078000000000000000e+03 5.396973037719726562e+01 -1.160391807556152344e+01 -1.462928533554077148e+00 -1.593250483274459839e-01 -4.866760671138763428e-01 -6.067494153976440430e-01
1.079000000000000000e+03 4.476624679565429688e+01 1.890940284729003906e+01 3.454436063766479492e-01 1.027374863624572754e+00 4.118455350399017334e-01 6.640343070030212402e-01
1.080000000000000000e+03 4.280781173706054688e+01 1.326127624511718750e+01 1.194896250963211060e-01 2.191895008087158203e+00 6.934154033660888672e-01 2.400230020284652710e-01
1.081000000000000000e+03 4.152637481689453125e+01 1.320428657531738281e+01 3.652596771717071533e-01 1.529171586036682129e+00 5.683293938636779785e-01 3.864070475101470947e-01
1.082000000000000000e+03 4.143783569335937500e+01 1.443758678436279297e+01 5.030064582824707031e-01 1.350580930709838867e+00 5.560762286186218262e-01 3.783762753009796143e-01
1.083000000000000000e+03 5.496920394897460938e+01 1.984739494323730469e+01 3.590822815895080566e-01 2.306831598281860352e+00 7.997741699218750000e-01 -8.626112341880798340e-01
1.084000000000000000e+03 4.672656631469726562e+01 2.133222198486328125e+01 4.779303669929504395e-01 6.534041166305541992e-01 3.394003510475158691e-01 3.985054194927215576e-01
1.085000000000000000e+03 5.340100860595703125e+01 1.904984855651855469e+01 4.847978651523590088e-01 1.263504505157470703e+00 5.244907140731811523e-01 -7.116606831550598145e-01
1.086000000000000000e+03 4.379823303222656250e+01 1.908914375305175781e+01 2.794811725616455078e-01 1.189669132232666016e+00 4.407451152801513672e-01 4.648887217044830322e-01
1.087000000000000000e+03 5.690568542480468750e+01 1.387083435058593750e+01 6.796479225158691406e-01 3.024337053298950195e+00 1.111195445060729980e+00 -6.156601309776306152e-01
1.088000000000000000e+03 5.096812820434570312e+01 2.704158306121826172e+00 -3.656658530235290527e-02 3.194038271903991699e-01 8.485117554664611816e-02 3.747876882553100586e-01
1.089000000000000000e+03 4.426437759399414062e+01 7.281751632690429688e+00 -1.433240771293640137e-01 4.778704345226287842e-01 1.003639027476310730e-01 -7.393486052751541138e-02
1.090000000000000000e+03 4.475795364379882812e+01 6.581554889678955078e+00 -1.352979391813278198e-01 3.169451355934143066e-01 5.449416115880012512e-02 -6.010336801409721375e-02
1.091000000000000000e+03 1.275682806968688965e+00 -4.011078262329101562e+01 2.980922290589660406e-04 1.186676789075136185e-03 4.454306908883154392e-04 1.061713264789432287e-04
1.092000000000000000e+03 7.118734121322631836e-01 3.742264175415039062e+01 9.872296825051307678e-03 -1.462903618812561035e+00 -4.359093904495239258e-01 -1.031467970460653305e-02
1.093000000000000000e+03 6.948936581611633301e-01 3.467212677001953125e+01 3.272420028224587440e-03 -1.478219747543334961e+00 -4.424842000007629395e-01 -1.601559924893081188e-03
1.094000000000000000e+03 7.133381962776184082e-01 3.327252197265625000e+01 2.152045955881476402e-03 -1.475409150123596191e+00 -4.419771134853363037e-01 3.910501953214406967e-03
1.095000000000000000e+03 7.225815057754516602e-01 2.762167930603027344e+01 2.289417898282408714e-03 -1.417430281639099121e+00 -4.245422482490539551e-01 9.508957155048847198e-03
1.096000000000000000e+03 7.096404433250427246e-01 2.620025062561035156e+01 -2.711956913117319345e-04 -1.395601749420166016e+00 -4.187618792057037354e-01 1.164272055029869080e-02
1.097000000000000000e+03 7.924029231071472168e-01 -3.606761550903320312e+01 -2.714011643547564745e-04 9.810030460357666016e-04 2.128805499523878098e-04 7.603121775900945067e-05
1.098000000000000000e+03 2.763126373291015625e+00 -3.314864730834960938e+01 3.355563094373792410e-04 6.608348339796066284e-04 2.989173226524144411e-04 1.754237891873344779e-04
1.099000000000000000e+03 3.590118408203125000e+00 2.598955726623535156e+01 1.748182252049446106e-02 -1.117188215255737305e+00 -3.299119174480438232e-01 6.695147603750228882e-02
1.100000000000000000e+03 3.478455066680908203e+00 2.450976181030273438e+01 2.127348817884922028e-02 -1.095997929573059082e+00 -3.224173188209533691e-01 7.948713749647140503e-02
1.101000000000000000e+03 2.102078676223754883e+00 3.460235977172851562e+01 9.547434747219085693e-03 -1.366968154907226562e+00 -4.072262048721313477e-01 8.147812448441982269e-03
1.102000000000000000e+03 2.163405179977416992e+00 3.322579574584960938e+01 7.401923649013042450e-03 -1.344950675964355469e+00 -4.012646377086639404e-01 1.445921696722507477e-02
1.103000000000000000e+03 2.355792284011840820e+00 3.818338775634765625e+01 1.848040334880352020e-02 -1.356735825538635254e+00 -4.014766514301300049e-01 -1.744732260704040527e-02
1.104000000000000000e+03 3.283026695251464844e+00 3.916928863525390625e+01 9.155036881566047668e-03 -1.348332762718200684e+00 -4.017533063888549805e-01 3.090018406510353088e-03
1.105000000000000000e+03 2.156612157821655273e+00 -2.875370788574218750e+01 -4.586013965308666229e-04 2.920592378359287977e-04 -4.996264760848134756e-05 1.913025480462238193e-04
1.106000000000000000e+03 2.054140329360961914e+00 -2.597433090209960938e+01 -5.026563885621726513e-04 9.471436351304873824e-05 -1.223826111527159810e-04 8.730774425202980638e-05
1.107000000000000000e+03 1.949255824089050293e+00 -1.621637725830078125e+01 4.431628622114658356e-04 1.310287188971415162e-05 1.368797238683328032e-04 2.946835775219369680e-05
1.108000000000000000e+03 2.292580842971801758e+00 -3.714688110351562500e+01 -2.325998066226020455e-04 8.943782304413616657e-04 1.985335256904363632e-04 2.327548281755298376e-04
1.109000000000000000e+03 6.080329418182373047e-01 2.053943443298339844e+01 1.329932943917810917e-03 -1.237322568893432617e+00 -3.707977831363677979e-01 2.692628838121891022e-02
1.110000000000000000e+03 5.902388691902160645e-01 1.913524627685546875e+01 5.271086934953927994e-03 -1.163390636444091797e+00 -3.474358618259429932e-01 3.435676917433738708e-02
1.111000000000000000e+03 5.822842121124267578e-01 1.493520927429199219e+01 -1.578451250679790974e-03 -8.181684017181396484e-01 -2.459240555763244629e-01 5.804348737001419067e-02
1.112000000000000000e+03 5.841162204742431641e-01 1.353262042999267578e+01 5.855093710124492645e-03 -6.699000000953674316e-01 -1.992134749889373779e-01 6.313318759202957153e-02
1.113000000000000000e+03 5.963159799575805664e-01 7.902389526367187500e+00 -3.878804855048656464e-03 -1.070617362856864929e-01 -3.328216075897216797e-02 4.260835796594619751e-02
1.114000000000000000e+03 3.283133506774902344e+00 -3.923553466796875000e+01 -1.802203041734173894e-04 9.318372467532753944e-04 2.254850842291489244e-04 -3.004738937306683511e-05
1.115000000000000000e+03 6.184110641479492188e+00 -3.574365997314453125e+01 -6.090248934924602509e-04 4.766613419633358717e-04 -3.970905891037546098e-05 6.895909318700432777e-04
1.116000000000000000e+03 2.682693481445312500e+00 -3.469980239868164062e+01 -2.421645767753943801e-04 7.346629281528294086e-04 1.477495097788050771e-04 3.390769707038998604e-04
1.117000000000000000e+03 2.523721456527709961e+00 -3.161938476562500000e+01 -4.414787399582564831e-04 5.265020881779491901e-04 2.550700628489721566e-05 3.449592331890016794e-04
1.118000000000000000e+03 2.082078695297241211e+00 -2.735373687744140625e+01 5.515716038644313812e-04 1.500018406659364700e-04 2.104720333591103554e-04 1.240192796103656292e-04
1.119000000000000000e+03 3.453608989715576172e+00 -2.715400886535644531e+01 -4.707644984591752291e-04 2.044797874987125397e-04 -7.988541619852185249e-05 2.301281492691487074e-04
1.120000000000000000e+03 1.930187821388244629e+00 -2.180577468872070312e+01 5.600147414952516556e-04 -2.049166323558893055e-05 1.618569222046062350e-04 2.655970456544309855e-05
1.121000000000000000e+03 2.020843505859375000e+00 -2.459633636474609375e+01 5.628240178339183331e-04 5.882087862119078636e-05 1.864934602053835988e-04 5.793122545583173633e-05
1.122000000000000000e+03 3.173973083496093750e+00 -2.030564689636230469e+01 5.618371069431304932e-04 -2.164603574783541262e-05 1.620573311811313033e-04 3.580249904189258814e-05
1.123000000000000000e+03 6.416529417037963867e-01 -1.911838722229003906e+01 -5.120657151564955711e-04 -4.244092997396364808e-05 -1.663519797148182988e-04 -5.164069079910404980e-05
1.124000000000000000e+03 1.926058769226074219e+00 -1.901712608337402344e+01 5.069408216513693333e-04 -1.009976040222682059e-05 1.490523281972855330e-04 4.510363942245021462e-05
1.125000000000000000e+03 3.081160306930541992e+00 -1.329502296447753906e+01 -4.945174441672861576e-04 4.813206032849848270e-05 -1.339156005997210741e-04 -4.166252983850426972e-05
1.126000000000000000e+03 6.112803816795349121e-01 -1.207025146484375000e+01 3.629032289609313011e-04 -1.068442998075624928e-05 1.056656401487998664e-04 2.817280255840159953e-05
1.127000000000000000e+03 1.824204444885253906e+00 -1.200183391571044922e+01 -3.988718963228166103e-04 9.590084118826780468e-06 -1.167845475720241666e-04 -4.678193363361060619e-05
1.128000000000000000e+03 1.748658895492553711e+00 -6.221171379089355469e+00 -1.905568205984309316e-04 -2.006845352298114449e-05 -6.318758096313104033e-05 -6.127209053374826908e-05
1.129000000000000000e+03 1.295246243476867676e+00 -3.426507234573364258e+00 -1.027806720230728388e-04 -2.199229675170499831e-05 -3.743189154192805290e-05 -5.220310777076520026e-05
1.130000000000000000e+03 5.066271424293518066e-01 -4.964641094207763672e+00 -1.956813066499307752e-04 7.421295777021441609e-06 -5.647800207952968776e-05 -2.379664510954171419e-05
1.131000000000000000e+03 5.654935836791992188e-01 5.009428501129150391e+00 -4.370801616460084915e-03 2.085465565323829651e-02 4.945156164467334747e-03 1.235887128859758377e-02
1.132000000000000000e+03 6.974257946014404297e+00 4.197431087493896484e+00 -2.687867879867553711e-01 -9.309210628271102905e-02 -1.085636690258979797e-01 1.782888472080230713e-01
1.133000000000000000e+03 1.754266142845153809e+00 1.080770397186279297e+01 -1.270983275026082993e-02 -3.998641669750213623e-01 -1.237721964716911316e-01 1.746928244829177856e-01
1.134000000000000000e+03 5.830156803131103516e-01 1.072559070587158203e+01 2.393759321421384811e-03 -3.643094003200531006e-01 -1.085746884346008301e-01 6.056542322039604187e-02
1.135000000000000000e+03 1.760707974433898926e+00 1.357162189483642578e+01 3.080555237829685211e-03 -6.477828621864318848e-01 -1.934106945991516113e-01 1.790974885225296021e-01
1.136000000000000000e+03 1.816250920295715332e+00 2.042851638793945312e+01 1.608480885624885559e-02 -1.114084720611572266e+00 -3.293999731540679932e-01 8.361760526895523071e-02
1.137000000000000000e+03 1.766151070594787598e+00 1.905194282531738281e+01 1.515228021889925003e-02 -1.052082180976867676e+00 -3.110789954662322998e-01 1.014528498053550720e-01
1.138000000000000000e+03 2.073042869567871094e+00 2.466790199279785156e+01 7.282097358256578445e-03 -1.228105068206787109e+00 -3.662469089031219482e-01 4.589993134140968323e-02
1.139000000000000000e+03 5.416433715820312500e+01 6.660570621490478516e+00 3.325899243354797363e-01 1.049965620040893555e+00 4.147666692733764648e-01 4.044322371482849121e-01
1.140000000000000000e+03 5.554979705810546875e+01 6.768838882446289062e+00 2.614064812660217285e-01 1.496370792388916016e+00 5.273331999778747559e-01 2.258685380220413208e-01
1.141000000000000000e+03 6.893181610107421875e+01 -1.037435245513916016e+01 1.319391608238220215e+00 9.285654067993164062e+00 3.181513786315917969e+00 -5.647452354431152344e+00
1.142000000000000000e+03 6.812477874755859375e+01 -1.504080104827880859e+01 1.524805903434753418e+00 6.093424320220947266e+00 2.285469055175781250e+00 3.800447702407836914e+00
1.143000000000000000e+03 6.934591674804687500e+01 -9.755841255187988281e+00 9.381580352783203125e-01 1.281379604339599609e+01 4.125586032867431641e+00 -5.467920780181884766e+00
1.144000000000000000e+03 6.701187133789062500e+01 -1.769973945617675781e+01 7.981321215629577637e-01 5.328407764434814453e+00 1.837961912155151367e+00 2.129013061523437500e+00
1.145000000000000000e+03 6.968312072753906250e+01 -1.378010272979736328e+01 1.296059608459472656e+00 1.548544216156005859e+01 5.034450531005859375e+00 5.434408664703369141e+00
1.146000000000000000e+03 7.024382019042968750e+01 -1.378578186035156250e+01 5.775128006935119629e-01 1.943923377990722656e+01 6.005023956298828125e+00 2.458651065826416016e+00
1.147000000000000000e+03 7.091999816894531250e+01 -1.082434749603271484e+01 2.615830659866333008e+00 2.058744812011718750e+01 6.960983753204345703e+00 1.210866808891296387e+00
1.148000000000000000e+03 7.138558197021484375e+01 -1.127768230438232422e+01 6.559784412384033203e+00 1.809833717346191406e+01 7.397436618804931641e+00 2.619364261627197266e+00
1.149000000000000000e+03 7.116043853759765625e+01 -1.345367336273193359e+01 3.790465116500854492e+00 1.892536544799804688e+01 6.814749240875244141e+00 -2.163144826889038086e+00
1.150000000000000000e+03 7.744905853271484375e+01 -1.375586795806884766e+01 7.264584302902221680e-01 6.447288990020751953e+00 2.152124166488647461e+00 -1.003977894783020020e+00
1.151000000000000000e+03 7.035393524169921875e+01 -1.057451438903808594e+01 3.267590403556823730e-01 2.069672775268554688e+01 6.307045936584472656e+00 -2.347081899642944336e+00
1.152000000000000000e+03 1.949154281616210938e+01 -9.177409172058105469e+00 -1.032125583151355386e-04 -3.072699837503023446e-05 -4.018186882603913546e-05 -5.861294630449265242e-05
1.153000000000000000e+03 1.914321708679199219e+01 -8.611248970031738281e+00 1.116305793402716517e-04 2.535098610678687692e-05 4.109447036171332002e-05 6.863906310172751546e-05
1.154000000000000000e+03 9.337613105773925781e+00 -2.795691013336181641e+00 -5.290487388265319169e-05 -4.908539631287567317e-05 -3.059707887587137520e-05 3.049302222279948182e-06
1.155000000000000000e+03 1.077496528625488281e+01 -3.874475955963134766e+00 9.621817298466339707e-05 2.554165439505595714e-05 3.652794839581474662e-05 -6.120715170254698023e-06
1.156000000000000000e+03 2.797823524475097656e+01 -1.055219745635986328e+01 -5.066529512405395508e-01 -1.169476956129074097e-01 -1.870801895856857300e-01 4.168284833431243896e-01
1.157000000000000000e+03 1.840295791625976562e+01 -7.508559703826904297e+00 1.511090667918324471e-04 6.291190857155015692e-06 4.722007724922150373e-05 6.354021024890244007e-05
1.158000000000000000e+03 1.886283874511718750e+01 -9.510223388671875000e+00 1.177935409941710532e-04 4.679607809521257877e-05 4.937688572681508958e-05 8.667760994285345078e-05
1.159000000000000000e+03 1.733142852783203125e+01 -6.463364601135253906e+00 1.376074797008186579e-04 7.025428203633055091e-06 4.338987491792067885e-05 1.512764356448315084e-05
1.160000000000000000e+03 1.677222633361816406e+01 -1.086148834228515625e+01 -5.172003147890791297e-05 3.850384746328927577e-05 -3.964855295635061339e-06 2.913826392614282668e-05
1.161000000000000000e+03 1.610643577575683594e+01 -5.419585704803466797e+00 1.016808018903248012e-04 2.215166568930726498e-05 3.714974081958644092e-05 2.918174322985578328e-05
1.162000000000000000e+03 1.772719764709472656e+01 -9.958637237548828125e+00 -8.129517664201557636e-05 7.073448068695142865e-05 -3.168209104842389934e-06 1.642173265281599015e-05
1.163000000000000000e+03 1.502132701873779297e+01 -5.624943256378173828e+00 1.100101217161864042e-04 1.417992916685761884e-05 3.725701753864996135e-05 1.428577797923935577e-05
1.164000000000000000e+03 1.404358100891113281e+01 -4.138862609863281250e+00 -8.093636279227212071e-05 -2.250814031867776066e-05 -3.103335257037542760e-05 -3.431769073358736932e-05
1.165000000000000000e+03 2.691387557983398438e+01 -1.017182540893554688e+01 -5.010414719581604004e-01 -1.972378641366958618e-01 -2.094838023185729980e-01 4.455851614475250244e-01
1.166000000000000000e+03 2.756602668762207031e+01 -1.156505584716796875e+01 -4.228972792625427246e-01 -1.583826690912246704e-01 -1.743839830160140991e-01 3.854397535324096680e-01
1.167000000000000000e+03 5.476158142089843750e+00 2.583545446395874023e+00 -1.112012863159179688e-01 -2.488094754517078400e-02 -4.082467034459114075e-02 4.883634299039840698e-02
1.168000000000000000e+03 4.775370121002197266e+00 3.261142253875732422e+00 -1.164248883724212646e-01 -3.984456881880760193e-02 -4.688083752989768982e-02 6.115781143307685852e-02
1.169000000000000000e+03 3.404750108718872070e+00 3.469103574752807617e+00 -6.079728156328201294e-02 -4.353535175323486328e-02 -3.129978850483894348e-02 3.473557904362678528e-02
1.170000000000000000e+03 3.337213516235351562e+00 2.678501605987548828e+00 -3.743215277791023254e-02 -2.415342628955841064e-02 -1.847567409276962280e-02 6.273023784160614014e-03
1.171000000000000000e+03 4.033738136291503906e+00 2.606801986694335938e+00 -5.739170685410499573e-02 -2.563870325684547424e-02 -2.490912377834320068e-02 1.925305090844631195e-02
1.172000000000000000e+03 5.480187892913818359e+00 3.297676563262939453e+00 -1.492708921432495117e-01 -4.936825856566429138e-02 -5.959174409508705139e-02 8.489911258220672607e-02
1.173000000000000000e+03 6.210261821746826172e+00 3.361108064651489258e+00 -1.894603222608566284e-01 -4.871288314461708069e-02 -7.145196199417114258e-02 1.027988716959953308e-01
1.174000000000000000e+03 1.001209831237792969e+01 2.579774141311645508e+00 -3.604298532009124756e-01 -1.604097932577133179e-01 -1.562518924474716187e-01 2.267465144395828247e-01
1.175000000000000000e+03 6.208905220031738281e+00 2.615406036376953125e+00 -1.449682712554931641e-01 -3.730774298310279846e-02 -5.468280240893363953e-02 7.072025537490844727e-02
1.176000000000000000e+03 7.740882396697998047e+00 3.443906784057617188e+00 -2.836092710494995117e-01 -8.146848529577255249e-02 -1.095233261585235596e-01 1.619795411825180054e-01
1.177000000000000000e+03 6.966874599456787109e+00 3.414053440093994141e+00 -2.343540042638778687e-01 -7.198449224233627319e-02 -9.190154820680618286e-02 1.374884843826293945e-01
1.178000000000000000e+03 1.081862258911132812e+01 2.462221860885620117e+00 -3.945383429527282715e-01 -2.558733522891998291e-01 -1.951235085725784302e-01 2.941000759601593018e-01
1.179000000000000000e+03 1.098066902160644531e+01 3.219150066375732422e+00 -4.506551623344421387e-01 -3.138365447521209717e-01 -2.293475121259689331e-01 3.276224732398986816e-01
1.180000000000000000e+03 1.891588973999023438e+01 -1.170338726043701172e+01 4.470817293622530997e-05 9.627277904655784369e-05 4.229428668622858822e-05 1.636504384805448353e-05
1.181000000000000000e+03 2.166834068298339844e+01 -1.350965785980224609e+01 -5.772557869931915775e-06 2.198938273068051785e-05 4.865047230850905180e-06 -2.003969711950048804e-05
1.182000000000000000e+03 2.085162734985351562e+01 -1.237382698059082031e+01 3.771609408431686461e-05 7.700115929765161127e-06 1.362486273137619719e-05 -1.613326094229705632e-05
1.183000000000000000e+03 2.526572608947753906e+01 -7.464221954345703125e+00 -6.902184486389160156e-01 -3.117414414882659912e-01 -3.005879819393157959e-01 5.515052676200866699e-01
1.184000000000000000e+03 2.338344955444335938e+01 -5.833200454711914062e+00 -8.490800261497497559e-01 -5.221477150917053223e-01 -4.113683104515075684e-01 6.646255254745483398e-01
1.185000000000000000e+03 2.616156959533691406e+01 -8.770837783813476562e+00 -5.934360623359680176e-01 -2.482805699110031128e-01 -2.525149881839752197e-01 5.023484230041503906e-01
1.186000000000000000e+03 2.040189170837402344e+01 -1.396249198913574219e+01 -2.131420842488296330e-05 -3.376848326297476888e-06 -7.407316843455191702e-06 -3.582152203307487071e-05
1.187000000000000000e+03 1.986323738098144531e+01 -1.333544254302978516e+01 5.795268589281477034e-05 6.419444252969697118e-05 3.664413816295564175e-05 1.830539986258372664e-05
1.188000000000000000e+03 2.075501823425292969e+01 -1.319107055664062500e+01 -9.537526239000726491e-06 -3.683591785375028849e-05 -1.391203295497689396e-05 2.281950946780852973e-05
1.189000000000000000e+03 3.534510803222656250e+01 -1.804441642761230469e+01 -4.116781353950500488e-01 9.111068211495876312e-03 -1.207701265811920166e-01 5.585575848817825317e-02
1.190000000000000000e+03 2.293837547302246094e+01 -5.151451110839843750e+00 -9.225500822067260742e-01 -5.494775772094726562e-01 -4.416082799434661865e-01 6.840578317642211914e-01
1.191000000000000000e+03 1.227427673339843750e+01 -4.363111972808837891e+00 1.303034223383292556e-04 -1.445820657863805536e-06 3.865727921947836876e-05 1.011111999105196446e-05
1.192000000000000000e+03 1.092737197875976562e+01 -3.060160398483276367e+00 -7.093817839631810784e-05 -3.346583616803400218e-05 -3.132120400550775230e-05 -3.934833785024238750e-06
1.193000000000000000e+03 1.281096076965332031e+01 6.436091423034667969e+00 -7.615808844566345215e-01 -8.907068967819213867e-01 -4.956863522529602051e-01 5.524313449859619141e-01
1.194000000000000000e+03 1.635249328613281250e+01 8.690160512924194336e-01 -5.317271351814270020e-01 -9.228722453117370605e-01 -4.363798201084136963e-01 8.811675310134887695e-01
1.195000000000000000e+03 4.574974060058593750e+00 -3.747675657272338867e+00 -4.108188477403018624e-06 8.750611596042290330e-05 2.501937888155225664e-05 5.518685793504118919e-05
1.196000000000000000e+03 2.118226766586303711e+00 -3.230635404586791992e+00 3.590723645174875855e-05 3.703659967868588865e-05 2.188315193052403629e-05 3.126171577605418861e-05
1.197000000000000000e+03 4.304713726043701172e+00 -7.834933280944824219e+00 3.069299273192882538e-04 1.921585317177232355e-05 9.784373833099380136e-05 5.320357740856707096e-05
1.198000000000000000e+03 1.521171331405639648e+00 -4.762682914733886719e+00 1.338252186542376876e-04 1.450528998248046264e-06 4.058272315887734294e-05 6.784401921322569251e-05
1.199000000000000000e+03 6.959562301635742188e+00 -2.788393020629882812e+00 6.020294313202612102e-05 4.625710062100552022e-05 3.193801239831373096e-05 1.054841595760080963e-05
1.200000000000000000e+03 8.524385452270507812e+00 -3.577707052230834961e+00 -6.870722427265718579e-05 -3.965684663853608072e-05 -3.250922236475162208e-05 3.848227152047911659e-06
1.201000000000000000e+03 5.353874206542968750e+00 -3.644506692886352539e+00 -1.285406870010774583e-05 -9.293970651924610138e-05 -3.173813092871569097e-05 -8.140764293784741312e-06
1.202000000000000000e+03 6.964256286621093750e+00 -3.680196762084960938e+00 -7.365500641753897071e-05 -4.038035331177525222e-05 -3.421060682740062475e-05 -8.765994607529137284e-06
1.203000000000000000e+03 6.149505615234375000e+00 -3.670635223388671875e+00 8.575878746341913939e-05 6.993237911956384778e-05 4.670735143008641899e-05 -1.939291541930288076e-05
1.204000000000000000e+03 1.261403465270996094e+01 2.868114471435546875e+00 -4.778031110763549805e-01 -5.289170145988464355e-01 -3.020160496234893799e-01 4.664858579635620117e-01
1.205000000000000000e+03 1.488917064666748047e+01 5.495764732360839844e+00 -6.495119333267211914e-01 -1.244190692901611328e+00 -5.681107640266418457e-01 6.874560117721557617e-01
1.206000000000000000e+03 1.180400943756103516e+01 3.056282281875610352e+00 -4.568827152252197266e-01 -4.473782181739807129e-01 -2.712782919406890869e-01 4.042053818702697754e-01
1.207000000000000000e+03 2.129668807983398438e+01 1.613538622856140137e+00 -3.855090439319610596e-01 -8.003894984722137451e-02 -1.396643966436386108e-01 5.156496167182922363e-01
1.208000000000000000e+03 2.148113250732421875e+01 -1.817323565483093262e+00 -9.307755827903747559e-01 -4.573479294776916504e-01 -4.164370596408843994e-01 6.180281639099121094e-01
1.209000000000000000e+03 1.946202087402343750e+01 -9.546049237251281738e-01 -8.604420423507690430e-01 -7.437537908554077148e-01 -4.812587499618530273e-01 8.015855550765991211e-01
1.210000000000000000e+03 2.255692672729492188e+01 -3.325621366500854492e+00 -9.730181097984313965e-01 -4.277240931987762451e-01 -4.202226698398590088e-01 6.088083386421203613e-01
1.211000000000000000e+03 2.876420021057128906e+01 -1.389070701599121094e+01 -3.381923139095306396e-01 -1.024485826492309570e-01 -1.321922689676284790e-01 2.802823483943939209e-01
1.212000000000000000e+03 2.939568901062011719e+01 -1.431453514099121094e+01 -3.414507806301116943e-01 -7.995472103357315063e-02 -1.264216452836990356e-01 2.575687766075134277e-01
1.213000000000000000e+03 3.232127761840820312e+01 -1.421205139160156250e+01 -4.641856551170349121e-01 3.035718202590942383e-02 -1.301485449075698853e-01 2.293487638235092163e-01
1.214000000000000000e+03 3.079167556762695312e+01 -1.512802982330322266e+01 -3.699306249618530273e-01 -3.317834809422492981e-02 -1.209326907992362976e-01 2.125692963600158691e-01
1.215000000000000000e+03 3.303513336181640625e+01 -1.646987533569335938e+01 -4.070082902908325195e-01 2.402004785835742950e-02 -1.148964762687683105e-01 1.560948640108108521e-01
1.216000000000000000e+03 3.280562210083007812e+01 -1.523326587677001953e+01 -4.401201605796813965e-01 3.189465403556823730e-02 -1.224676519632339478e-01 1.915438920259475708e-01
1.217000000000000000e+03 3.379624176025390625e+01 -1.624244499206542969e+01 -4.307357072830200195e-01 4.183023422956466675e-02 -1.166716441512107849e-01 1.459929198026657104e-01
1.218000000000000000e+03 1.771945190429687500e+01 2.343152523040771484e+00 -3.845481276512145996e-01 -8.508432507514953613e-01 -3.706174194812774658e-01 8.673813939094543457e-01
1.219000000000000000e+03 1.974730491638183594e+01 -1.365436613559722900e-01 -7.183334231376647949e-01 -5.909499526023864746e-01 -3.927850127220153809e-01 7.664893269538879395e-01
1.220000000000000000e+03 2.482250785827636719e+01 -6.801820755004882812e+00 -7.534437775611877441e-01 -3.465698659420013428e-01 -3.300040960311889648e-01 5.758069157600402832e-01
1.221000000000000000e+03 2.439297866821289062e+01 -6.130321025848388672e+00 -8.039512038230895996e-01 -3.678734302520751953e-01 -3.515473902225494385e-01 5.928877592086791992e-01
1.222000000000000000e+03 2.763848114013671875e+01 -1.292434310913085938e+01 -3.396176695823669434e-01 -1.555460095405578613e-01 -1.485491096973419189e-01 3.233670294284820557e-01
1.223000000000000000e+03 1.438917350769042969e+01 -5.213888645172119141e+00 -8.735863957554101944e-05 -3.083641422563232481e-05 -3.545851723174564540e-05 -2.445665450068190694e-05
1.224000000000000000e+03 1.002169418334960938e+01 -3.706047296524047852e+00 -8.693576091900467873e-05 -3.638392445282079279e-05 -3.699590524774976075e-05 5.169986252440139651e-06
1.225000000000000000e+03 9.274023056030273438e+00 -3.607287168502807617e+00 7.790583913447335362e-05 3.599533010856248438e-05 3.417034895392134786e-05 -3.706300958583597094e-06
1.226000000000000000e+03 1.777023315429687500e+01 -1.092724704742431641e+01 1.017800241243094206e-04 9.114872227655723691e-06 3.326846854179166257e-05 2.658675293787382543e-05
1.227000000000000000e+03 2.305197525024414062e+01 -4.051339626312255859e+00 -9.519665241241455078e-01 -4.202895462512969971e-01 -4.116768240928649902e-01 6.135101318359375000e-01
1.228000000000000000e+03 1.506935214996337891e+01 2.279934406280517578e+00 -4.228641092777252197e-01 -9.395663738250732422e-01 -4.087291657924652100e-01 7.004139423370361328e-01
1.229000000000000000e+03 1.382021617889404297e+01 4.014193534851074219e+00 -4.907062351703643799e-01 -9.004085659980773926e-01 -4.173344373703002930e-01 5.484080314636230469e-01
1.230000000000000000e+03 1.129867458343505859e+01 -4.933907508850097656e+00 1.269286731258034706e-04 2.859553205780684948e-05 4.665726009989157319e-05 -2.283341746078804135e-05
1.231000000000000000e+03 1.115633964538574219e+01 4.012274265289306641e+00 -5.025260448455810547e-01 -4.159134626388549805e-01 -2.755318582057952881e-01 3.827888667583465576e-01
1.232000000000000000e+03 3.680062103271484375e+01 -1.708778572082519531e+01 -5.011508464813232422e-01 3.892812505364418030e-02 -1.386668235063552856e-01 6.798111647367477417e-02
1.233000000000000000e+03 2.047411918640136719e+01 -1.596890240907669067e-01 -7.184298634529113770e-01 -4.604021608829498291e-01 -3.536496162414550781e-01 6.724768280982971191e-01
1.234000000000000000e+03 6.842253875732421875e+01 -8.772933006286621094e+00 2.694338083267211914e+00 1.176532840728759766e+01 4.337899684906005859e+00 -4.217283248901367188e+00
1.235000000000000000e+03 7.014514923095703125e+01 -1.016599464416503906e+01 -1.547583192586898804e-01 1.804604911804199219e+01 5.367387294769287109e+00 -3.623093605041503906e+00
1.236000000000000000e+03 2.854568672180175781e+01 -1.209601402282714844e+01 -4.229673445224761963e-01 -1.059110686182975769e-01 -1.586635261774063110e-01 3.578588068485260010e-01
1.237000000000000000e+03 1.163586997985839844e+01 1.616226768493652344e+01 4.813511967658996582e-01 -5.146644115447998047e-01 -9.993959218263626099e-03 4.084866642951965332e-01
1.238000000000000000e+03 6.768484497070312500e+01 -1.661371040344238281e+01 1.091747283935546875e+00 6.162168979644775391e+00 2.176174879074096680e+00 2.860129594802856445e+00
1.239000000000000000e+03 3.922239303588867188e+01 -1.585658645629882812e+01 -6.119135022163391113e-01 8.152690529823303223e-02 -1.591159850358963013e-01 3.473722562193870544e-02
1.240000000000000000e+03 4.042568206787109375e+01 -1.699267578125000000e+01 -6.069783568382263184e-01 5.080735310912132263e-02 -1.668512970209121704e-01 -3.561853617429733276e-02
1.241000000000000000e+03 1.025013828277587891e+01 -2.126530838012695312e+01 -7.930500578368082643e-05 -6.836771353846415877e-05 -4.430181434145197272e-05 1.982470421353355050e-04
1.242000000000000000e+03 1.306634902954101562e+01 -2.157427787780761719e+01 4.522509407252073288e-04 2.558612322900444269e-04 2.124336460838094354e-04 2.279803593410179019e-04
1.243000000000000000e+03 3.010470581054687500e+01 6.200067520141601562e+00 1.360826641321182251e-01 -1.014323383569717407e-01 1.039509940892457962e-02 5.117338299751281738e-01
1.244000000000000000e+03 2.697019386291503906e+01 6.125155448913574219e+00 4.164485931396484375e-01 -1.260092854499816895e-01 8.713179826736450195e-02 3.957805335521697998e-01
1.245000000000000000e+03 5.080450820922851562e+01 4.655459880828857422e+00 1.404853016138076782e-01 2.429779320955276489e-01 1.150389686226844788e-01 3.417883515357971191e-01
1.246000000000000000e+03 5.178410720825195312e+01 3.546955585479736328e+00 6.839918345212936401e-02 4.020837545394897461e-01 1.411448866128921509e-01 3.703725337982177734e-01
1.247000000000000000e+03 2.827704429626464844e+01 1.159658145904541016e+01 -3.235669136047363281e-01 -2.805029153823852539e-01 -1.812209486961364746e-01 6.103117465972900391e-01
1.248000000000000000e+03 4.756502914428710938e+01 -1.344186305999755859e+01 -9.686279892921447754e-01 6.655389070510864258e-02 -2.706222236156463623e-01 -2.083173245191574097e-01
1.249000000000000000e+03 5.037595367431640625e+01 -1.356744384765625000e+01 -1.098291993141174316e+00 -5.711472034454345703e-02 -3.466220200061798096e-01 -3.750236630439758301e-01
1.250000000000000000e+03 4.404950332641601562e+01 -1.482305240631103516e+01 -7.881652712821960449e-01 6.585523486137390137e-02 -2.166930139064788818e-01 -8.889771252870559692e-02
1.251000000000000000e+03 5.068305587768554688e+01 -1.054891014099121094e+01 -1.252693772315979004e+00 1.360529065132141113e-01 -3.349922597408294678e-01 -2.113126367330551147e-01
1.252000000000000000e+03 4.040744781494140625e+01 -1.570778560638427734e+01 -6.500563621520996094e-01 8.780319988727569580e-02 -1.686759591102600098e-01 4.168608691543340683e-03
1.253000000000000000e+03 1.993100166320800781e+01 -3.088479804992675781e+01 3.681925823912024498e-03 -8.838268113322556019e-04 8.394296746701002121e-04 1.757822610670700669e-04
1.254000000000000000e+03 2.488488960266113281e+01 -3.334677886962890625e+01 5.018795374780893326e-03 -5.936523666605353355e-04 1.327542937360703945e-03 4.268086981028318405e-03
1.255000000000000000e+03 4.529025650024414062e+01 -3.364649200439453125e+01 -2.335685789585113525e-01 -1.842891275882720947e-01 -1.253573149442672729e-01 -3.037569224834442139e-01
1.256000000000000000e+03 5.012578964233398438e+01 -3.369635772705078125e+01 -1.409704387187957764e-01 -3.717384934425354004e-01 -1.538126915693283081e-01 -4.183224141597747803e-01
1.257000000000000000e+03 4.631433188915252686e-01 3.577972173690795898e+00 -4.464056808501482010e-03 3.953579813241958618e-02 1.052152272313833237e-02 5.276996525935828686e-04
1.258000000000000000e+03 6.563774871826171875e+01 -2.206008720397949219e+01 -4.448414146900177002e-01 4.045200347900390625e+00 1.080107688903808594e+00 9.929648637771606445e-01
1.259000000000000000e+03 5.695441055297851562e+01 -3.272326278686523438e+01 4.919548332691192627e-02 3.254835903644561768e-01 1.124037280678749084e-01 -1.987704262137413025e-02
1.260000000000000000e+03 1.020554447174072266e+01 -1.038259220123291016e+01 4.097001510672271252e-04 1.394054852426052094e-04 1.647316967137157917e-04 -1.686590258032083511e-05
1.261000000000000000e+03 9.405298233032226562e+00 -1.139773750305175781e+01 -4.298070562072098255e-04 -1.960470763151533902e-05 -1.348235236946493387e-04 2.098218974424526095e-04
1.262000000000000000e+03 7.436577320098876953e+00 -1.295757961273193359e+01 1.084402611013501883e-04 2.262913312733871862e-06 3.321095209685154259e-05 2.716782619245350361e-04
1.263000000000000000e+03 4.377329635620117188e+01 6.481921672821044922e+00 -2.183458209037780762e-01 5.164685845375061035e-01 8.943682909011840820e-02 3.484963253140449524e-02
1.264000000000000000e+03 3.673907089233398438e+01 -1.306046581268310547e+01 -6.254979372024536133e-01 1.384419649839401245e-01 -1.461167931556701660e-01 1.779512017965316772e-01
1.265000000000000000e+03 1.309472846984863281e+01 1.229602527618408203e+01 1.917524188756942749e-01 -5.304744243621826172e-01 -1.016165986657142639e-01 5.806894302368164062e-01
1.266000000000000000e+03 1.195688343048095703e+01 1.095133876800537109e+01 -8.800622820854187012e-02 -6.651390790939331055e-01 -2.259435802698135376e-01 7.562410235404968262e-01
1.267000000000000000e+03 5.804261779785156250e+01 1.310790634155273438e+01 5.992045402526855469e-01 3.086991548538208008e+00 1.105858802795410156e+00 -4.919948875904083252e-01
1.268000000000000000e+03 1.507988834381103516e+01 -2.710162353515625000e+01 3.859481366816908121e-04 -4.466737445909529924e-04 -1.821768273657653481e-05 3.926243880414403975e-05
1.269000000000000000e+03 4.855727005004882812e+01 -3.434608459472656250e+01 -8.741100132465362549e-02 -3.638853728771209717e-01 -1.353889107704162598e-01 -3.778646886348724365e-01
1.270000000000000000e+03 7.385652923583984375e+01 -3.408802032470703125e+01 -1.157580465078353882e-01 7.935812473297119141e+00 2.346016407012939453e+00 1.122696325182914734e-01
1.271000000000000000e+03 7.782717895507812500e+01 -3.575257492065429688e+01 -3.172558546066284180e-02 9.868913650512695312e+00 2.951156377792358398e+00 1.488986909389495850e-01
1.272000000000000000e+03 7.448890686035156250e+01 -2.295779418945312500e+01 -7.214714288711547852e-01 8.961009025573730469e+00 2.471861362457275391e+00 -8.140493035316467285e-01
1.273000000000000000e+03 7.810063171386718750e+01 -2.904292488098144531e+01 -4.271486401557922363e-02 9.987034797668457031e+00 2.983296155929565430e+00 -9.101889282464981079e-02
1.274000000000000000e+03 7.517969512939453125e+01 1.555108642578125000e+01 6.833466142416000366e-02 6.650029182434082031e+00 2.015509128570556641e+00 -4.781459271907806396e-01
1.275000000000000000e+03 7.658621215820312500e+01 1.546183490753173828e+01 3.465073928236961365e-02 6.997104644775390625e+00 2.109526634216308594e+00 -3.660570085048675537e-01
1.276000000000000000e+03 7.778041839599609375e+01 3.542589187622070312e+01 -5.603133700788021088e-03 6.125731945037841797e+00 1.836038708686828613e+00 -4.596091806888580322e-02
1.277000000000000000e+03 7.621877288818359375e+01 3.229018020629882812e+01 2.138641104102134705e-02 5.970796585083007812e+00 1.797654867172241211e+00 -1.111037805676460266e-01
1.278000000000000000e+03 7.825782775878906250e+01 -2.207943916320800781e+01 -1.342841982841491699e-01 9.006358146667480469e+00 2.661622285842895508e+00 -7.190945744514465332e-01
1.279000000000000000e+03 7.697406005859375000e+01 -2.331508064270019531e+01 -3.158448636531829834e-01 9.167807579040527344e+00 2.655588865280151367e+00 -7.842170000076293945e-01
1.280000000000000000e+03 7.678553771972656250e+01 -3.027728462219238281e+01 -8.388514071702957153e-02 9.416512489318847656e+00 2.799787998199462891e+00 -5.418192222714424133e-02
1.281000000000000000e+03 7.682302093505859375e+01 -2.889703369140625000e+01 -1.269995570182800293e-01 9.425616264343261719e+00 2.789585113525390625e+00 -1.244956552982330322e-01
1.282000000000000000e+03 7.696679687500000000e+01 -2.749669265747070312e+01 -1.838527023792266846e-01 9.448182106018066406e+00 2.779298782348632812e+00 -2.417540252208709717e-01
1.283000000000000000e+03 7.693841552734375000e+01 -2.611985588073730469e+01 -2.143191546201705933e-01 9.403829574584960938e+00 2.756853103637695312e+00 -3.938289284706115723e-01
1.284000000000000000e+03 7.666014862060546875e+01 -3.153581619262695312e+01 -7.057175040245056152e-02 9.336285591125488281e+00 2.779714107513427734e+00 1.915622316300868988e-02
1.285000000000000000e+03 7.639578247070312500e+01 -3.410328292846679688e+01 -1.175189092755317688e-01 9.117891311645507812e+00 2.700111627578735352e+00 5.939139425754547119e-02
1.286000000000000000e+03 7.341513061523437500e+01 -2.880114555358886719e+01 -4.105373919010162354e-01 8.034730911254882812e+00 2.287258148193359375e+00 -8.196844160556793213e-02
1.287000000000000000e+03 7.503488922119140625e+01 -4.032232666015625000e+01 1.120946183800697327e-01 8.630126953125000000e+00 2.622666358947753906e+00 -7.709076255559921265e-02
1.288000000000000000e+03 7.792158508300781250e+01 2.249375343322753906e+01 1.311257947236299515e-02 6.693356513977050781e+00 2.011940717697143555e+00 -1.491160094738006592e-01
1.289000000000000000e+03 7.656590270996093750e+01 1.973219108581542969e+01 3.331159055233001709e-02 6.652014255523681641e+00 2.005597591400146484e+00 -2.814599871635437012e-01
1.290000000000000000e+03 7.513179779052734375e+01 2.278933334350585938e+01 5.401679873466491699e-02 6.202282428741455078e+00 1.876889705657958984e+00 -3.096395134925842285e-01
1.291000000000000000e+03 7.654541778564453125e+01 2.117687797546386719e+01 3.143007308244705200e-02 6.549610137939453125e+00 1.974312067031860352e+00 -2.596436738967895508e-01
1.292000000000000000e+03 7.663061523437500000e+01 1.259692573547363281e+01 2.832617796957492828e-02 7.283058166503906250e+00 2.193415164947509766e+00 -4.072548449039459229e-01
1.293000000000000000e+03 7.560041046142578125e+01 8.340353012084960938e+00 -3.959046304225921631e-02 7.430128097534179688e+00 2.217161417007446289e+00 -5.377935171127319336e-01
1.294000000000000000e+03 7.658177185058593750e+01 1.403003215789794922e+01 3.431988134980201721e-02 7.137201786041259766e+00 2.151456594467163086e+00 -3.935088515281677246e-01
1.295000000000000000e+03 7.652996063232421875e+01 2.411167526245117188e+01 2.903497964143753052e-02 6.367494106292724609e+00 1.918958663940429688e+00 -2.151129096746444702e-01
1.296000000000000000e+03 7.807572937011718750e+01 2.667180824279785156e+01 3.612541360780596733e-03 6.464302062988281250e+00 1.940374374389648438e+00 -1.047254651784896851e-01
1.297000000000000000e+03 7.834387207031250000e+01 -2.069938850402832031e+01 -1.309210062026977539e-01 8.528920173645019531e+00 2.519399881362915039e+00 -8.852487206459045410e-01
1.298000000000000000e+03 7.707094573974609375e+01 -2.189523887634277344e+01 -3.273695707321166992e-01 8.979573249816894531e+00 2.595661163330078125e+00 -1.032211899757385254e+00
1.299000000000000000e+03 7.696223449707031250e+01 2.803593826293945312e+01 2.279673703014850616e-02 6.241430759429931641e+00 1.879268288612365723e+00 -1.342318058013916016e-01
1.300000000000000000e+03 7.686937713623046875e+01 7.000805854797363281e+00 -5.203183740377426147e-02 7.970455169677734375e+00 2.375526905059814453e+00 -3.731496930122375488e-01
1.301000000000000000e+03 7.641921997070312500e+01 -1.895800399780273438e+01 -4.132855832576751709e-01 8.784756660461425781e+00 2.511441469192504883e+00 -1.710258126258850098e+00
1.302000000000000000e+03 7.600119781494140625e+01 -1.298781514167785645e+00 -6.072393655776977539e-01 8.538738250732421875e+00 2.379449605941772461e+00 4.885372519493103027e-01
1.303000000000000000e+03 7.752727508544921875e+01 -8.182932853698730469e+00 1.576651930809020996e-01 6.920015811920166016e+00 2.123304367065429688e+00 1.474269986152648926e+00
1.304000000000000000e+03 7.814073181152343750e+01 5.620635032653808594e+00 -4.058592766523361206e-02 8.539250373840332031e+00 2.549599170684814453e+00 -1.919023841619491577e-01
1.305000000000000000e+03 7.694902038574218750e+01 2.871528863906860352e+00 -1.856257319450378418e-01 8.385723114013671875e+00 2.460029125213623047e+00 -1.121649593114852905e-01
1.306000000000000000e+03 7.688874816894531250e+01 5.633154869079589844e+00 -8.901706337928771973e-02 8.120873451232910156e+00 2.409556865692138672e+00 -3.247416317462921143e-01
1.307000000000000000e+03 7.715153503417968750e+01 -2.706325531005859375e+00 -3.960325717926025391e-01 8.457967758178710938e+00 2.418580532073974609e+00 8.525193929672241211e-01
1.308000000000000000e+03 7.755690765380859375e+01 -9.503128051757812500e+00 4.489569365978240967e-01 6.468184471130371094e+00 2.075142383575439453e+00 1.205456376075744629e+00
1.309000000000000000e+03 7.757785797119140625e+01 -1.654996490478515625e+01 5.752700939774513245e-02 7.280753135681152344e+00 2.201483964920043945e+00 -1.627333402633666992e+00
1.310000000000000000e+03 7.605079650878906250e+01 3.396041107177734375e+01 2.003631554543972015e-02 5.923902511596679688e+00 1.783181548118591309e+00 -9.525515884160995483e-02
1.311000000000000000e+03 7.409197235107421875e+01 3.586491394042968750e+01 4.396216571331024170e-02 5.610401153564453125e+00 1.696308970451354980e+00 -9.209486842155456543e-02
1.312000000000000000e+03 7.647098541259765625e+01 3.075088691711425781e+01 2.607964538037776947e-02 6.056777477264404297e+00 1.824857115745544434e+00 -1.274484544992446899e-01
1.313000000000000000e+03 7.658040618896484375e+01 1.830455017089843750e+01 3.841785341501235962e-02 6.758737087249755859e+00 2.039146423339843750e+00 -3.071314394474029541e-01
1.314000000000000000e+03 7.680953216552734375e+01 9.756568908691406250e+00 -1.582514843903481960e-03 7.638597965240478516e+00 2.291104555130004883e+00 -4.187993109226226807e-01
1.315000000000000000e+03 7.846213531494140625e+01 -1.380745697021484375e+01 3.063291013240814209e-01 5.044964313507080078e+00 1.605388045310974121e+00 -6.937124133110046387e-01
1.316000000000000000e+03 7.748602294921875000e+01 -1.518538665771484375e+01 3.748072981834411621e-01 6.850595951080322266e+00 2.167620897293090820e+00 -1.476041674613952637e+00
1.317000000000000000e+03 7.844402313232421875e+01 -6.862316608428955078e+00 -2.664214558899402618e-02 6.564181327819824219e+00 1.961261749267578125e+00 1.111166000366210938e+00
1.318000000000000000e+03 7.820229339599609375e+01 1.463875293731689453e+00 -1.003819406032562256e-01 8.783679008483886719e+00 2.604989290237426758e+00 7.831654697656631470e-02
1.319000000000000000e+03 7.711727142333984375e+01 -1.300100922584533691e+00 -3.716634809970855713e-01 8.535101890563964844e+00 2.449031352996826172e+00 5.271271467208862305e-01
1.320000000000000000e+03 7.691447448730468750e+01 4.257668972015380859e+00 -1.386017203330993652e-01 8.264953613281250000e+00 2.437905550003051758e+00 -2.359139025211334229e-01
1.321000000000000000e+03 7.727861785888671875e+01 -5.490923404693603516e+00 -2.718668878078460693e-01 7.938397884368896484e+00 2.299959421157836914e+00 1.401602029800415039e+00
1.322000000000000000e+03 7.718173980712890625e+01 -4.106075763702392578e+00 -3.562593162059783936e-01 8.252571105957031250e+00 2.368893384933471680e+00 1.169142842292785645e+00
1.323000000000000000e+03 7.229787445068359375e+01 -1.241810131072998047e+01 7.079390048980712891e+00 1.367176914215087891e+01 6.225347995758056641e+00 -8.175024986267089844e-01
1.324000000000000000e+03 7.662722778320312500e+01 -1.774644851684570312e+01 -1.946854144334793091e-01 8.455780029296875000e+00 2.478328227996826172e+00 -1.859636545181274414e+00
1.325000000000000000e+03 7.722776031494140625e+01 -2.051262855529785156e+01 -3.159888684749603271e-01 8.700146675109863281e+00 2.515247344970703125e+00 -1.249212265014648438e+00
1.326000000000000000e+03 6.028430175781250000e+01 -6.250343799591064453e+00 -2.591254949569702148e+00 -6.270416080951690674e-02 -7.961877584457397461e-01 -5.186985731124877930e-01
1.327000000000000000e+03 5.974520492553710938e+01 -8.052953720092773438e+00 -2.797056436538696289e+00 -3.962838947772979736e-01 -9.580020904541015625e-01 -1.039674520492553711e+00
1.328000000000000000e+03 1.429428577423095703e+01 -2.579390335083007812e+01 1.636460656300187111e-03 -1.153398989117704332e-04 4.563362163025885820e-04 3.292348410468548536e-04
1.329000000000000000e+03 5.665299606323242188e+01 9.230457305908203125e+00 3.539237976074218750e-01 2.343830585479736328e+00 8.093263506889343262e-01 -1.101079657673835754e-01
1.330000000000000000e+03 1.586864280700683594e+01 4.678771018981933594e+00 -6.919435858726501465e-01 -1.236479401588439941e+00 -5.785269141197204590e-01 8.414229154586791992e-01
1.331000000000000000e+03 3.284272384643554688e+01 -3.583768844604492188e+01 -8.736077696084976196e-03 -1.423078775405883789e-02 -6.890059448778629303e-03 -1.465685013681650162e-02
1.332000000000000000e+03 1.388110733032226562e+01 6.077535629272460938e+00 -7.569006681442260742e-01 -1.064053177833557129e+00 -5.462861657142639160e-01 5.920532941818237305e-01
1.333000000000000000e+03 1.429633808135986328e+01 2.558864831924438477e+00 -4.623381495475769043e-01 -8.184873461723327637e-01 -3.842476308345794678e-01 6.462796330451965332e-01
1.334000000000000000e+03 2.595200347900390625e+01 1.671138954162597656e+01 -2.973862178623676300e-02 -6.543887257575988770e-01 -2.052382081747055054e-01 3.010100722312927246e-01
1.335000000000000000e+03 2.333762359619140625e+01 1.752356147766113281e+01 1.604155749082565308e-01 -7.059239745140075684e-01 -1.636525243520736694e-01 5.622100830078125000e-01
1.336000000000000000e+03 5.692337036132812500e+01 -8.463613510131835938e+00 -2.048511981964111328e+00 -4.209729284048080444e-02 -6.271827816963195801e-01 -5.714083313941955566e-01
1.337000000000000000e+03 5.581062316894531250e+01 -9.143370628356933594e+00 -1.887249708175659180e+00 -2.787709422409534454e-02 -5.745380520820617676e-01 -5.156775712966918945e-01
1.338000000000000000e+03 5.468165588378906250e+01 -9.777295112609863281e+00 -1.676543951034545898e+00 -3.870922140777111053e-03 -5.041244626045227051e-01 -4.861848056316375732e-01
1.339000000000000000e+03 3.808427047729492188e+01 -1.591589927673339844e+01 -5.763794183731079102e-01 7.854386419057846069e-02 -1.493506580591201782e-01 6.081801652908325195e-02
1.340000000000000000e+03 4.888294696807861328e+00 3.617191314697265625e+01 1.544759050011634827e-02 -1.142807006835937500e+00 -3.382078409194946289e-01 3.619291260838508606e-02
1.341000000000000000e+03 2.177704572677612305e+00 2.755188369750976562e+01 3.953135572373867035e-03 -1.272976398468017578e+00 -3.807069957256317139e-01 3.287717700004577637e-02
1.342000000000000000e+03 3.772644281387329102e+00 3.041319656372070312e+01 9.585238061845302582e-03 -1.171783208847045898e+00 -3.486593663692474365e-01 4.719114676117897034e-02
1.343000000000000000e+03 2.137818098068237305e+00 2.610593032836914062e+01 6.409611087292432785e-03 -1.251345634460449219e+00 -3.734807968139648438e-01 3.795698657631874084e-02
1.344000000000000000e+03 3.646451473236083984e+00 2.747881126403808594e+01 1.265424024313688278e-02 -1.135049581527709961e+00 -3.367186188697814941e-01 5.447139590978622437e-02
1.345000000000000000e+03 6.905404090881347656e+00 2.878555107116699219e+01 2.734103798866271973e-02 -8.878491520881652832e-01 -2.581524252891540527e-01 9.525763243436813354e-02
1.346000000000000000e+03 3.776382923126220703e+00 3.186745262145996094e+01 9.965952485799789429e-03 -1.194101572036743164e+00 -3.552406728267669678e-01 3.636447340250015259e-02
1.347000000000000000e+03 3.712989330291748047e+00 2.895044136047363281e+01 6.838779896497726440e-03 -1.150233626365661621e+00 -3.430184423923492432e-01 5.070584267377853394e-02
1.348000000000000000e+03 6.211873531341552734e+00 3.827569198608398438e+01 2.205275185406208038e-02 -1.040156960487365723e+00 -3.054312467575073242e-01 3.630064427852630615e-02
1.349000000000000000e+03 4.956215381622314453e+00 3.473691558837890625e+01 1.472535636276006699e-02 -1.135236382484436035e+00 -3.361532986164093018e-01 4.016184434294700623e-02
1.350000000000000000e+03 3.553290843963623047e+00 -3.657544326782226562e+01 1.991960016312077641e-04 1.023970777168869972e-03 3.669500292744487524e-04 1.759664737619459629e-04
1.351000000000000000e+03 2.308784246444702148e+00 -3.017420196533203125e+01 5.158970598131418228e-04 3.024314355570822954e-04 2.454985515214502811e-04 1.760356972226873040e-04
1.352000000000000000e+03 3.512732028961181641e+00 -2.849730110168457031e+01 6.292298785410821438e-04 1.445635862182825804e-04 2.321380452485755086e-04 1.821453333832323551e-04
1.353000000000000000e+03 3.480497837066650391e+00 -2.579770278930664062e+01 5.799695500172674656e-04 1.221488637384027243e-04 2.106355095747858286e-04 1.022249125526286662e-04
1.354000000000000000e+03 1.894719839096069336e+00 2.182279205322265625e+01 1.194501109421253204e-02 -1.162108063697814941e+00 -3.450489342212677002e-01 6.763687729835510254e-02
1.355000000000000000e+03 3.301163911819458008e+00 2.305508041381835938e+01 2.709852717816829681e-02 -1.075156331062316895e+00 -3.144173324108123779e-01 9.394779056310653687e-02
1.356000000000000000e+03 8.515458106994628906e+00 -1.072256088256835938e+01 2.512890205252915621e-04 2.419875090708956122e-05 8.264633652288466692e-05 -1.113555699703283608e-04
1.357000000000000000e+03 4.627681255340576172e+00 -1.604620742797851562e+01 4.729648062493652105e-04 6.091159229981712997e-05 1.601629192009568214e-04 -2.580147338449023664e-05
1.358000000000000000e+03 1.917861819267272949e+00 -1.480923843383789062e+01 -4.353751719463616610e-04 -1.674070881563238800e-05 -1.356347638648003340e-04 -3.573165668058209121e-05
1.359000000000000000e+03 3.133181095123291016e+00 2.164285850524902344e+01 3.224207460880279541e-02 -1.047738432884216309e+00 -3.046489059925079346e-01 1.126382350921630859e-01
1.360000000000000000e+03 2.961259365081787109e+00 1.226500988006591797e+01 -4.754125606268644333e-03 -5.275683403015136719e-01 -1.596967428922653198e-01 2.823659479618072510e-01
1.361000000000000000e+03 4.048903465270996094e+00 1.760659217834472656e+01 7.746431976556777954e-02 -8.432728052139282227e-01 -2.297425419092178345e-01 2.496089637279510498e-01
1.362000000000000000e+03 3.002642869949340820e+00 2.028068351745605469e+01 3.490302711725234985e-02 -1.012522697448730469e+00 -2.932859063148498535e-01 1.325645148754119873e-01
1.363000000000000000e+03 8.729008674621582031e+00 -1.898076248168945312e+01 -9.857635450316593051e-05 6.649168790318071842e-05 -9.625399798096623272e-06 -2.913358330260962248e-04
1.364000000000000000e+03 1.814803957939147949e+00 -7.723243713378906250e+00 2.531482896301895380e-04 1.747783244354650378e-05 8.118783443933352828e-05 6.296563515206798911e-05
1.365000000000000000e+03 3.888400077819824219e+00 -4.839113235473632812e+00 3.178837141604162753e-05 9.553384734317660332e-05 3.819666744675487280e-05 1.278211129829287529e-04
1.366000000000000000e+03 2.780142545700073242e+00 4.652489185333251953e+00 -6.346786022186279297e-02 -5.731781199574470520e-02 -3.623570129275321960e-02 5.732655152678489685e-02
1.367000000000000000e+03 2.944871664047241211e+00 8.221742630004882812e+00 -5.380074679851531982e-02 -2.393583208322525024e-01 -8.794771879911422729e-02 2.031402289867401123e-01
1.368000000000000000e+03 1.751193165779113770e+00 1.495215892791748047e+01 1.451685465872287750e-02 -7.682940959930419922e-01 -2.261331677436828613e-01 1.680471301078796387e-01
1.369000000000000000e+03 2.907272577285766602e+00 1.632459640502929688e+01 4.090009257197380066e-02 -8.223660588264465332e-01 -2.344397902488708496e-01 2.284711003303527832e-01
1.370000000000000000e+03 2.929372072219848633e+00 9.572015762329101562e+00 -4.381079971790313721e-02 -3.250371813774108887e-01 -1.106543987989425659e-01 2.468151450157165527e-01
1.371000000000000000e+03 3.069827795028686523e+00 -7.664563179016113281e+00 -2.870567841455340385e-04 -1.379137393087148666e-05 -9.025444887811318040e-05 -9.318224329035729170e-05
1.372000000000000000e+03 2.359135389328002930e+00 -4.341914653778076172e+00 1.358335521217668429e-05 9.007175322039984167e-06 6.777158887416590005e-06 -2.867140574380755424e-05
1.373000000000000000e+03 3.196283578872680664e+00 -2.166841125488281250e+01 -5.528396577574312687e-04 7.077102054608985782e-05 -1.446206006221473217e-04 9.091683637052483391e-07
1.374000000000000000e+03 3.012857437133789062e+00 -9.148101806640625000e+00 3.373280924279242754e-04 -8.723644896235782653e-06 9.858133125817403197e-05 8.140678255585953593e-05
1.375000000000000000e+03 3.272950887680053711e+00 -1.612433624267578125e+01 -4.386410873848944902e-04 -4.121346864849328995e-05 -1.439563638996332884e-04 -4.421923949848860502e-05
1.376000000000000000e+03 4.047070980072021484e+00 -3.785304641723632812e+01 -2.095613162964582443e-04 7.235626690089702606e-04 1.542004029033705592e-04 2.435016067465767264e-04
1.377000000000000000e+03 1.971029162406921387e+00 -2.320571708679199219e+01 -5.240754107944667339e-04 2.439454510749783367e-05 -1.499042555224150419e-04 2.944364132417831570e-05
1.378000000000000000e+03 2.306073427200317383e+00 -3.603545379638671875e+01 1.065649266820400953e-04 8.569048368372023106e-04 2.890409377869218588e-04 6.677204510197043419e-05
1.379000000000000000e+03 4.599971771240234375e+00 -3.272462081909179688e+01 -4.910697462037205696e-04 4.859741893596947193e-04 -1.528671191408648156e-06 5.011685425415635109e-04
1.380000000000000000e+03 4.880400657653808594e+00 -2.417425537109375000e+01 7.693631923757493496e-04 -3.072409526794217527e-05 2.215917193097993731e-04 6.551964906975626945e-05
1.381000000000000000e+03 3.213780641555786133e+00 -1.469085025787353516e+01 4.418901226017624140e-04 2.100663914461620152e-05 1.388690288877114654e-04 3.099420837315847166e-06
1.382000000000000000e+03 2.948237895965576172e+00 1.091079330444335938e+01 -1.843531057238578796e-02 -4.286448061466217041e-01 -1.341240406036376953e-01 2.719483375549316406e-01
1.383000000000000000e+03 2.956228971481323242e+00 1.363274478912353516e+01 1.660595275461673737e-02 -6.340956091880798340e-01 -1.852468997240066528e-01 2.789067924022674561e-01
1.384000000000000000e+03 2.926187276840209961e+00 1.895272827148437500e+01 4.321602731943130493e-02 -9.632300734519958496e-01 -2.760041952133178711e-01 1.623863577842712402e-01
1.385000000000000000e+03 1.850169754028320312e+01 -1.298344326019287109e+01 1.016373062157072127e-04 7.654313230887055397e-05 5.345412864699028432e-05 2.570718061178922653e-05
1.386000000000000000e+03 5.875836944580078125e+01 -2.953059196472167969e+01 -3.881647586822509766e-01 5.082054138183593750e-01 3.601218760013580322e-02 -1.304256357252597809e-02
1.387000000000000000e+03 5.995293807983398438e+01 -2.873283767700195312e+01 -4.403991401195526123e-01 1.002707123756408691e+00 1.686923950910568237e-01 1.247226074337959290e-01
1.388000000000000000e+03 1.658024215698242188e+01 -3.005794906616210938e+01 1.079100067727267742e-03 -1.094131381250917912e-03 -4.509395239438163117e-06 9.740654495544731617e-04
1.389000000000000000e+03 1.980169296264648438e+01 -2.895402145385742188e+01 2.801917726173996925e-03 -5.393501487560570240e-04 6.787702441215515137e-04 8.314080769196152687e-04
1.390000000000000000e+03 4.357920837402343750e+01 -3.652527999877929688e+01 4.445509612560272217e-02 -2.392933368682861328e-01 -5.845147371292114258e-02 -2.285858243703842163e-01
1.391000000000000000e+03 1.045285415649414062e+01 -1.867766380310058594e+01 -1.650734775466844440e-04 -1.081406298908405006e-04 -8.196423004847019911e-05 -2.684179926291108131e-04
1.392000000000000000e+03 9.738819122314453125e+00 -1.966723442077636719e+01 1.970741141121834517e-04 -2.299174229847267270e-05 5.222471008892171085e-05 2.613817632663995028e-04
1.393000000000000000e+03 2.341695976257324219e+01 -3.215514755249023438e+01 3.395380219444632530e-03 -1.369293197058141232e-03 6.078261067159473896e-04 1.550410524941980839e-03
1.394000000000000000e+03 6.216930389404296875e+01 -2.654669570922851562e+01 -5.688143968582153320e-01 1.850883841514587402e+00 3.846208453178405762e-01 3.549574613571166992e-01
1.395000000000000000e+03 1.181953811645507812e+01 1.207753944396972656e+01 1.484989970922470093e-01 -6.170272231101989746e-01 -1.405584663152694702e-01 6.867833733558654785e-01
1.396000000000000000e+03 6.194885635375976562e+01 -2.438838768005371094e+01 -6.144915819168090820e-01 1.233652472496032715e+00 1.857482641935348511e-01 1.898543536663055420e-01
1.397000000000000000e+03 2.260912322998046875e+01 -3.066759490966796875e+01 6.209927145391702652e-03 -6.512065301649272442e-04 1.667616190388798714e-03 5.229291855357587337e-04
1.398000000000000000e+03 6.388593292236328125e+01 -2.417943382263183594e+01 -5.582549571990966797e-01 2.730724811553955078e+00 6.517409682273864746e-01 6.191514730453491211e-01
1.399000000000000000e+03 3.972533416748046875e+01 -3.891172027587890625e+01 5.049703270196914673e-02 -1.576791554689407349e-01 -3.215463832020759583e-02 -9.286445379257202148e-02
1.400000000000000000e+03 5.229410934448242188e+01 -3.407394409179687500e+01 8.657051622867584229e-02 -2.390907555818557739e-01 -4.575607553124427795e-02 -3.622901737689971924e-01
1.401000000000000000e+03 5.138459014892578125e+01 -3.298789596557617188e+01 -2.161369472742080688e-01 -3.954440653324127197e-01 -1.834743022918701172e-01 -4.307928681373596191e-01
1.402000000000000000e+03 5.268013381958007812e+01 -3.268647003173828125e+01 -2.219743579626083374e-01 -2.128583043813705444e-01 -1.304498016834259033e-01 -4.114553034305572510e-01
1.403000000000000000e+03 2.880265808105468750e+01 -3.286870193481445312e+01 9.207246825098991394e-03 -2.044200198724865913e-03 2.148913918063044548e-03 -1.202916027978062630e-03
1.404000000000000000e+03 4.912135696411132812e+01 -1.005485057830810547e+01 -1.149682760238647461e+00 2.003953456878662109e-01 -2.847861945629119873e-01 -9.331134706735610962e-02
1.405000000000000000e+03 5.479564285278320312e+01 -3.187122154235839844e+01 -2.700242698192596436e-01 -1.148156747221946716e-01 -1.154519841074943542e-01 -2.858099639415740967e-01
1.406000000000000000e+03 6.628737640380859375e+01 -1.885479927062988281e+01 4.361565113067626953e-01 4.645962715148925781e+00 1.524635791778564453e+00 1.705601453781127930e+00
1.407000000000000000e+03 2.308084487915039062e+01 2.608076810836791992e+00 -1.112939119338989258e-01 1.857121586799621582e-01 2.232547476887702942e-02 2.865489721298217773e-01
1.408000000000000000e+03 4.661676788330078125e+01 -3.663895797729492188e+01 1.499082893133163452e-01 -3.295773863792419434e-01 -5.390072613954544067e-02 -2.946257591247558594e-01
1.409000000000000000e+03 1.970767021179199219e+01 -1.137602233886718750e+01 -3.618167829699814320e-05 -8.883498230716213584e-05 -3.750499672605656087e-05 -1.109044660552171990e-05
1.410000000000000000e+03 1.460029125213623047e+01 -9.310819625854492188e+00 -1.492435694672167301e-04 -1.527460517536383122e-05 -4.935545075568370521e-05 -7.037579780444502831e-05
1.411000000000000000e+03 2.058640670776367188e+01 2.502343177795410156e+00 -1.948145329952239990e-01 -5.930140241980552673e-02 -7.623478025197982788e-02 6.149694919586181641e-01
1.412000000000000000e+03 2.213836097717285156e+01 -1.357740163803100586e+00 -8.259319067001342773e-01 -3.062383830547332764e-01 -3.396510779857635498e-01 5.216765403747558594e-01
1.413000000000000000e+03 6.120353698730468750e+01 -2.782452392578125000e+01 -4.929704368114471436e-01 1.417182683944702148e+00 2.772636711597442627e-01 2.829819321632385254e-01
1.414000000000000000e+03 6.350051879882812500e+01 -2.746485900878906250e+01 -4.936031997203826904e-01 2.807816505432128906e+00 6.942639946937561035e-01 5.328490138053894043e-01
1.415000000000000000e+03 2.620667266845703125e+01 -3.578081512451171875e+01 -5.092000355944037437e-04 -2.167507773265242577e-03 -8.030123426578938961e-04 4.431305918842554092e-03
1.416000000000000000e+03 2.671016883850097656e+01 -3.404627227783203125e+01 3.100858535617589951e-03 -3.452454227954149246e-03 -1.054787062457762659e-04 1.751497969962656498e-03
1.417000000000000000e+03 4.700617599487304688e+01 4.070405483245849609e+00 -4.275377094745635986e-02 1.263552308082580566e-01 2.508043684065341949e-02 1.477161049842834473e-01
1.418000000000000000e+03 4.524271392822265625e+01 -1.439872074127197266e+01 -8.485704660415649414e-01 6.997954845428466797e-02 -2.335772663354873657e-01 -1.286832839250564575e-01
1.419000000000000000e+03 4.266580200195312500e+01 -1.396776580810546875e+01 -7.719227671623229980e-01 1.162258982658386230e-01 -1.967090666294097900e-01 -1.050049252808094025e-02
1.420000000000000000e+03 2.815711021423339844e+01 6.650049686431884766e+00 2.911564409732818604e-01 -1.871473640203475952e-01 3.120271861553192139e-02 4.758829176425933838e-01
1.421000000000000000e+03 2.863275337219238281e+01 8.129954338073730469e+00 1.430009603500366211e-01 -2.355318963527679443e-01 -2.775928005576133728e-02 6.158573031425476074e-01
1.422000000000000000e+03 4.666480636596679688e+01 -3.459063720703125000e+01 -1.118366122245788574e-01 -2.926593720912933350e-01 -1.213487982749938965e-01 -3.515362143516540527e-01
1.423000000000000000e+03 9.417169570922851562e+00 -1.779085922241210938e+01 1.171601106761954725e-04 -1.251058438356267288e-05 3.139485852443613112e-05 2.448630402795970440e-04
1.424000000000000000e+03 9.144245147705078125e+00 -2.074881362915039062e+01 8.321173663716763258e-05 8.671762770973145962e-05 5.097881148685701191e-05 -2.645318454597145319e-04
1.425000000000000000e+03 2.305692481994628906e+01 1.650189018249511719e+01 -2.156030237674713135e-01 -6.845785379409790039e-01 -2.700544595718383789e-01 4.769919514656066895e-01
1.426000000000000000e+03 1.301766204833984375e+01 -1.099767684936523438e+01 1.695283572189509869e-04 1.598260132595896721e-04 9.880631114356219769e-05 9.417858382221311331e-05
1.427000000000000000e+03 2.552262687683105469e+01 3.680724620819091797e+00 1.841398477554321289e-01 6.046118959784507751e-02 7.338031381368637085e-02 1.561312526464462280e-01
1.428000000000000000e+03 4.199603652954101562e+01 1.732614326477050781e+01 4.349708855152130127e-01 1.263724803924560547e+00 5.096086859703063965e-01 3.015735149383544922e-01
1.429000000000000000e+03 5.603840637207031250e+01 4.155721187591552734e+00 1.100956350564956665e-01 1.185166239738464355e+00 3.885785639286041260e-01 1.127661541104316711e-01
1.430000000000000000e+03 5.291042327880859375e+01 6.031271934509277344e+00 3.423281311988830566e-01 5.594652295112609863e-01 2.705380022525787354e-01 3.989564180374145508e-01
1.431000000000000000e+03 2.464512443542480469e+01 1.718304061889648438e+01 4.668242111802101135e-02 -7.816367149353027344e-01 -2.204862833023071289e-01 3.864294886589050293e-01
1.432000000000000000e+03 3.863738250732421875e+01 1.492262935638427734e+01 3.621969223022460938e-01 7.847967147827148438e-01 3.440980911254882812e-01 3.064088225364685059e-01
1.433000000000000000e+03 4.151865386962890625e+01 1.068702220916748047e+01 1.088601723313331604e-01 1.166527390480041504e+00 3.826162517070770264e-01 3.215576708316802979e-01
1.434000000000000000e+03 7.274959087371826172e+00 -1.438402557373046875e+01 1.407998788636177778e-04 -1.323010947089642286e-04 2.549633109083515592e-06 9.329649765277281404e-05
1.435000000000000000e+03 7.025110244750976562e+00 -1.612096786499023438e+01 2.015877980738878250e-04 3.352773783262819052e-04 1.610595500096678734e-04 1.424685615347698331e-04
1.436000000000000000e+03 5.608443069458007812e+01 1.774810981750488281e+01 2.681594491004943848e-01 2.809062242507934570e+00 9.231665134429931641e-01 -5.007910132408142090e-01
1.437000000000000000e+03 5.616956710815429688e+01 1.973390197753906250e+01 3.360322117805480957e-01 2.573968172073364258e+00 8.730000853538513184e-01 -5.693829655647277832e-01
1.438000000000000000e+03 6.658214092254638672e+00 -2.572772979736328125e+01 5.922674899920821190e-04 1.781382597982883453e-04 2.311217249371111393e-04 9.064161531568970531e-06
1.439000000000000000e+03 1.290018558502197266e+01 -2.658255004882812500e+01 7.327760249609127641e-05 -3.088579687755554914e-04 -7.067411206662654877e-05 1.135834972956217825e-04
1.440000000000000000e+03 5.334563827514648438e+01 2.108957481384277344e+01 4.511106610298156738e-01 1.540799140930175781e+00 5.975729823112487793e-01 -6.851526498794555664e-01
1.441000000000000000e+03 5.316616439819335938e+01 2.302020072937011719e+01 5.736533403396606445e-01 1.631013274192810059e+00 6.614000201225280762e-01 -5.241211652755737305e-01
1.442000000000000000e+03 1.502014255523681641e+01 1.864473533630371094e+01 3.713493645191192627e-01 7.417717576026916504e-02 1.336579620838165283e-01 2.623871564865112305e-01
1.443000000000000000e+03 1.649538993835449219e+01 1.762076187133789062e+01 4.756462872028350830e-01 3.109589517116546631e-01 2.359815686941146851e-01 3.003062009811401367e-01
1.444000000000000000e+03 5.276173782348632812e+01 2.494154739379882812e+01 6.241480112075805664e-01 1.683221697807312012e+00 6.922109127044677734e-01 -3.814229965209960938e-01
1.445000000000000000e+03 5.063094329833984375e+01 2.214895439147949219e+01 6.798189878463745117e-01 8.768755197525024414e-01 4.670083522796630859e-01 -2.700188457965850830e-01
1.446000000000000000e+03 1.285036087036132812e+01 1.579808807373046875e+01 5.545656681060791016e-01 -3.683863580226898193e-01 5.585378780961036682e-02 3.785009086132049561e-01
1.447000000000000000e+03 1.427733802795410156e+01 1.628608322143554688e+01 6.447765231132507324e-01 -6.921862065792083740e-02 1.726673692464828491e-01 2.659409940242767334e-01
1.448000000000000000e+03 5.717047882080078125e+01 1.690715980529785156e+01 5.868115425109863281e-01 2.884848594665527344e+00 1.041498064994812012e+00 -4.469478726387023926e-01
1.449000000000000000e+03 1.929104232788085938e+01 2.009602928161621094e+01 2.633970975875854492e-01 1.327774114906787872e-02 8.300244808197021484e-02 6.211163401603698730e-01
1.450000000000000000e+03 5.746795272827148438e+01 1.027683448791503906e+01 4.906646013259887695e-01 2.592296838760375977e+00 9.248883724212646484e-01 -2.645440399646759033e-01
1.451000000000000000e+03 1.810813522338867188e+01 3.282607078552246094e+00 -3.039204776287078857e-01 -8.188301920890808105e-01 -3.368252217769622803e-01 8.786793947219848633e-01
1.452000000000000000e+03 4.143593597412109375e+01 9.510750770568847656e+00 -5.038953199982643127e-02 1.059258460998535156e+00 3.026606738567352295e-01 2.664319574832916260e-01
1.453000000000000000e+03 4.315909194946289062e+01 1.770521354675292969e+01 3.388220071792602539e-01 1.377342104911804199e+00 5.148492455482482910e-01 3.895843029022216797e-01
1.454000000000000000e+03 9.981896400451660156e+00 -7.957140445709228516e+00 -2.577205304987728596e-04 -7.538512727478519082e-05 -9.993169805966317654e-05 -1.491909642936661839e-06
1.455000000000000000e+03 4.275979614257812500e+01 1.890820312500000000e+01 3.030926585197448730e-01 1.179117679595947266e+00 4.446630775928497314e-01 3.880474269390106201e-01
1.456000000000000000e+03 4.157430267333984375e+01 1.875381660461425781e+01 2.935510873794555664e-01 1.179340720176696777e+00 4.418675601482391357e-01 2.934901714324951172e-01
1.457000000000000000e+03 1.910567474365234375e+01 2.610263347625732422e+00 -3.796728551387786865e-01 -4.706857800483703613e-01 -2.551075816154479980e-01 8.435372114181518555e-01
1.458000000000000000e+03 4.013063812255859375e+01 1.203686523437500000e+01 2.671097815036773682e-01 1.040176272392272949e+00 3.921858072280883789e-01 4.465483725070953369e-01
1.459000000000000000e+03 4.013823318481445312e+01 1.077939224243164062e+01 1.166105121374130249e-01 9.674959182739257812e-01 3.252319097518920898e-01 3.986875116825103760e-01
1.460000000000000000e+03 6.552836608886718750e+01 -4.989573001861572266e+00 -1.718270659446716309e+00 1.754155635833740234e+00 1.076549384742975235e-02 -3.121372222900390625e+00
1.461000000000000000e+03 1.195246982574462891e+01 1.432910633087158203e+01 4.963190853595733643e-01 -5.352694988250732422e-01 -1.168512087315320969e-02 5.233833193778991699e-01
1.462000000000000000e+03 4.562498569488525391e+00 -1.449049186706542969e+01 -5.178083665668964386e-04 1.295592119276989251e-05 -1.514557370683178306e-04 -1.627383608138188720e-05
1.463000000000000000e+03 5.843991851806640625e+01 1.609414291381835938e+01 7.278901934623718262e-01 3.138036966323852539e+00 1.159778237342834473e+00 -5.289890766143798828e-01
1.464000000000000000e+03 4.903809547424316406e+00 -4.032033157348632812e+01 1.100614754250273108e-04 1.054242253303527832e-03 3.492911055218428373e-04 3.730106109287589788e-04
1.465000000000000000e+03 8.185590744018554688e+00 -4.102267837524414062e+01 -5.565871833823621273e-04 8.096937090158462524e-04 7.593195914523676038e-05 -1.414589642081409693e-04
1.466000000000000000e+03 4.588459777832031250e+01 4.294660091400146484e+00 -1.262266635894775391e-01 1.717017292976379395e-01 1.364252343773841858e-02 9.047008305788040161e-02
1.467000000000000000e+03 4.911276817321777344e+00 4.041004562377929688e+01 2.498420653864741325e-04 -1.189276933670043945e+00 -3.567081391811370850e-01 3.213031962513923645e-02
1.468000000000000000e+03 7.208225250244140625e+01 -1.313763809204101562e+01 5.568470478057861328e+00 1.467957592010498047e+01 6.074413776397705078e+00 -2.243162870407104492e+00
1.469000000000000000e+03 7.162667083740234375e+01 -1.393363380432128906e+01 2.515007734298706055e+00 1.637322044372558594e+01 5.666468620300292969e+00 -2.100194692611694336e+00
1.470000000000000000e+03 7.209553527832031250e+01 -1.289473533630371094e+01 6.494988918304443359e+00 1.457005977630615234e+01 6.319514751434326172e+00 -1.971107840538024902e+00
1.471000000000000000e+03 7.160528564453125000e+01 -1.077495574951171875e+01 3.867214918136596680e+00 1.691509628295898438e+01 6.234693050384521484e+00 2.188594341278076172e+00
1.472000000000000000e+03 7.652288055419921875e+01 -1.238984680175781250e+01 1.457868933677673340e+00 7.284081459045410156e+00 2.622585058212280273e+00 -2.363477200269699097e-01
1.473000000000000000e+03 7.182297515869140625e+01 -1.097674465179443359e+01 4.895184040069580078e+00 1.606453895568847656e+01 6.287916660308837891e+00 2.288677215576171875e+00
1.474000000000000000e+03 7.231515502929687500e+01 -1.123164844512939453e+01 5.590400695800781250e+00 1.417569732666015625e+01 5.929829120635986328e+00 1.864954233169555664e+00
1.475000000000000000e+03 7.000419616699218750e+01 -1.534811973571777344e+01 -3.459824621677398682e-01 1.304592514038085938e+01 3.809983015060424805e+00 2.853255510330200195e+00
1.476000000000000000e+03 6.873954772949218750e+01 -1.442831993103027344e+01 1.630896210670471191e+00 8.119343757629394531e+00 2.925071954727172852e+00 4.913593292236328125e+00
1.477000000000000000e+03 7.000041961669921875e+01 -1.002426624298095703e+01 -5.788679793477058411e-02 1.645018768310546875e+01 4.917689800262451172e+00 -4.101495265960693359e+00
1.478000000000000000e+03 7.047876739501953125e+01 -1.030952167510986328e+01 3.220534324645996094e-01 1.912720870971679688e+01 5.834778308868408203e+00 -1.812901973724365234e+00
1.479000000000000000e+03 7.045040130615234375e+01 -1.492191600799560547e+01 -3.847657442092895508e-01 1.497075366973876953e+01 4.375796318054199219e+00 1.933600783348083496e+00
1.480000000000000000e+03 1.794710540771484375e+01 -7.910288333892822266e+00 -1.562971883686259389e-04 1.321866693615447730e-05 -4.292355879442766309e-05 -7.338693831115961075e-05
1.481000000000000000e+03 1.741877555847167969e+01 -7.530320167541503906e+00 1.544806291349232197e-04 -1.188524038298055530e-05 4.277861808077432215e-05 4.270255521987564862e-05
1.482000000000000000e+03 2.872942543029785156e+01 -1.021620750427246094e+01 -5.482330918312072754e-01 -6.271704286336898804e-02 -1.832850426435470581e-01 4.122613668441772461e-01
1.483000000000000000e+03 1.849213600158691406e+01 -8.951724052429199219e+00 -1.285475445911288261e-04 -5.512101779459044337e-06 -4.021789209218695760e-05 -6.632737495237961411e-05
1.484000000000000000e+03 1.572705268859863281e+01 -9.609260559082031250e+00 1.012605935102328658e-04 4.253655424690805376e-05 4.313914541853591800e-05 8.091904601315036416e-05
1.485000000000000000e+03 1.588529491424560547e+01 -8.629160881042480469e+00 -1.363100745948031545e-04 -2.417933683318551630e-05 -4.814682324649766088e-05 -5.472347766044549644e-05
1.486000000000000000e+03 1.372197055816650391e+01 -4.881071090698242188e+00 8.945466106524690986e-05 2.234260500699747354e-05 3.353917782078497112e-05 5.023345875088125467e-05
1.487000000000000000e+03 8.608428955078125000e+00 4.241435050964355469e+00 -3.815288543701171875e-01 -1.521090567111968994e-01 -1.600913703441619873e-01 2.514948546886444092e-01
1.488000000000000000e+03 1.015236949920654297e+01 3.341623783111572266e+00 -4.217775762081146240e-01 -2.450174242258071899e-01 -2.000385075807571411e-01 2.883467376232147217e-01
1.489000000000000000e+03 2.763446998596191406e+01 -9.814668655395507812e+00 -5.508059263229370117e-01 -1.306653767824172974e-01 -2.044413983821868896e-01 4.429507255554199219e-01
1.490000000000000000e+03 2.655102539062500000e+01 -9.466847419738769531e+00 -5.507195591926574707e-01 -2.231482714414596558e-01 -2.321603596210479736e-01 4.751667678356170654e-01
1.491000000000000000e+03 1.941151618957519531e+01 -1.067679977416992188e+01 3.763995482586324215e-05 7.416342123178765178e-05 3.354101136210374534e-05 5.097930261399596930e-05
1.492000000000000000e+03 5.444802284240722656e+00 4.012074470520019531e+00 -1.746484041213989258e-01 -6.350485235452651978e-02 -7.144597917795181274e-02 1.130927652120590210e-01
1.493000000000000000e+03 9.447908401489257812e+00 4.211673259735107422e+00 -4.349735081195831299e-01 -2.249011099338531494e-01 -1.979623883962631226e-01 2.965731322765350342e-01
1.494000000000000000e+03 4.630126476287841797e+00 6.360071182250976562e+00 -1.556483209133148193e-01 -1.586271077394485474e-01 -9.428262710571289062e-02 2.197454273700714111e-01
1.495000000000000000e+03 4.185593128204345703e+00 5.017463207244873047e+00 -1.284235268831253052e-01 -8.613143861293792725e-02 -6.436648964881896973e-02 1.217557787895202637e-01
1.496000000000000000e+03 5.051179409027099609e+00 5.522185802459716797e+00 -1.696100234985351562e-01 -1.303251087665557861e-01 -8.998053520917892456e-02 1.835876405239105225e-01
1.497000000000000000e+03 9.204306602478027344e+00 -4.378778934478759766e+00 -1.059672940755262971e-04 -2.182471689593512565e-05 -3.833760274574160576e-05 1.947027340065687895e-05
1.498000000000000000e+03 1.710234284400939941e+00 4.908682823181152344e+00 -2.779624052345752716e-02 -4.096671193838119507e-02 -2.062888629734516144e-02 4.012040421366691589e-02
1.499000000000000000e+03 2.653423547744750977e+00 3.554729700088500977e+00 -3.308265283703804016e-02 -3.202442079782485962e-02 -1.953212171792984009e-02 1.937077380716800690e-02
1.500000000000000000e+03 2.572603607177734375e+01 -8.110334396362304688e+00 -6.436614990234375000e-01 -2.806907594203948975e-01 -2.773056626319885254e-01 5.265690088272094727e-01
1.501000000000000000e+03 3.053395080566406250e+01 -1.403087711334228516e+01 -4.026676714420318604e-01 -3.362898156046867371e-02 -1.308889985084533691e-01 2.605865299701690674e-01
1.502000000000000000e+03 3.027974510192871094e+01 -1.285831356048583984e+01 -4.506210982799530029e-01 -2.693647891283035278e-02 -1.432672739028930664e-01 3.097017109394073486e-01
1.503000000000000000e+03 2.582368850708007812e+01 -7.040546417236328125e+00 -7.294231057167053223e-01 -2.249908000230789185e-01 -2.863241732120513916e-01 5.281930565834045410e-01
1.504000000000000000e+03 2.637186813354492188e+01 -7.623754501342773438e+00 -6.807775497436523438e-01 -1.803116649389266968e-01 -2.583267688751220703e-01 5.055020451545715332e-01
1.505000000000000000e+03 2.727459144592285156e+01 -9.067873954772949219e+00 -5.908283591270446777e-01 -1.403677463531494141e-01 -2.193588316440582275e-01 4.645667970180511475e-01
1.506000000000000000e+03 2.688636970520019531e+01 -8.295157432556152344e+00 -6.442627310752868652e-01 -1.557829380035400391e-01 -2.400137037038803101e-01 4.854959249496459961e-01
1.507000000000000000e+03 2.454121208190917969e+01 -5.080512046813964844e+00 -8.537889719009399414e-01 -2.751094996929168701e-01 -3.386695384979248047e-01 5.488657951354980469e-01
1.508000000000000000e+03 1.277451229095458984e+01 -5.481077194213867188e+00 1.433598372386768460e-04 -2.291456439706962556e-05 3.613358057918958366e-05 6.564959767274558544e-05
1.509000000000000000e+03 1.567489147186279297e+01 2.875082969665527344e+00 -3.705159425735473633e-01 -1.061105370521545410e+00 -4.294863641262054443e-01 7.634747028350830078e-01
1.510000000000000000e+03 1.704563903808593750e+01 -8.178192138671875000e+00 -1.281719742109999061e-04 -9.515115380054339767e-06 -4.130612796870991588e-05 -7.045384700177237391e-05
1.511000000000000000e+03 1.513027286529541016e+01 3.835404157638549805e+00 -4.861804246902465820e-01 -1.045016765594482422e+00 -4.593591392040252686e-01 6.527232527732849121e-01
1.512000000000000000e+03 7.761992931365966797e+00 -3.605150461196899414e+00 6.125195795902982354e-05 4.268206248525530100e-05 3.118020686088129878e-05 5.793470336357131600e-06
1.513000000000000000e+03 5.980540275573730469e+00 -4.407505989074707031e+00 -1.079257490346208215e-04 -1.073120292858220637e-04 -6.457132985815405846e-05 5.137699918122962117e-05
1.514000000000000000e+03 6.437054634094238281e+00 -4.850202560424804688e+00 -1.313900156674208120e-05 7.847383676562458277e-05 1.960045119631104171e-05 -6.463917088694870472e-05
1.515000000000000000e+03 5.368834495544433594e+00 -4.362351417541503906e+00 -1.243160022568190470e-05 1.072687882697209716e-04 2.845115523086860776e-05 3.729411764652468264e-05
1.516000000000000000e+03 4.126953125000000000e+00 -5.879801273345947266e+00 4.912472286378033459e-05 -7.016817835392430425e-05 -6.313036010396899655e-06 -8.403858373640105128e-05
1.517000000000000000e+03 3.002962350845336914e+00 -4.921470642089843750e+00 -2.680039033293724060e-04 -2.963433189506758936e-06 -8.129019988700747490e-05 -7.838826422812417150e-05
1.518000000000000000e+03 2.203421401977539062e+01 -2.583159923553466797e+00 -9.619444012641906738e-01 -4.441381692886352539e-01 -4.218247830867767334e-01 6.106744408607482910e-01
1.519000000000000000e+03 2.429579734802246094e+01 3.066808938980102539e+00 2.969511412084102631e-02 1.755121648311614990e-01 6.156218424439430237e-02 1.643637269735336304e-01
1.520000000000000000e+03 1.307452106475830078e+01 4.382826328277587891e+00 -5.858512520790100098e-01 -7.439195513725280762e-01 -3.989312648773193359e-01 4.987514317035675049e-01
1.521000000000000000e+03 3.080303573608398438e+01 -1.211695766448974609e+01 -5.026733279228210449e-01 7.467898074537515640e-03 -1.485616415739059448e-01 3.221327960491180420e-01
1.522000000000000000e+03 2.265248107910156250e+01 -2.153244018554687500e+00 -8.919568657875061035e-01 -3.034944832324981689e-01 -3.586353957653045654e-01 5.234502553939819336e-01
1.523000000000000000e+03 3.122607421875000000e+01 -1.445385169982910156e+01 -4.136464297771453857e-01 -1.332793850451707840e-02 -1.280923187732696533e-01 2.353405952453613281e-01
1.524000000000000000e+03 3.196013450622558594e+01 -1.486375713348388672e+01 -4.218346178531646729e-01 1.001993939280509949e-02 -1.235444024205207825e-01 2.093221545219421387e-01
1.525000000000000000e+03 2.363828086853027344e+01 -3.670455455780029297e+00 -9.107673168182373047e-01 -2.952918410301208496e-01 -3.618177473545074463e-01 5.380892753601074219e-01
1.526000000000000000e+03 3.300282287597656250e+01 -1.454883575439453125e+01 -4.709926247596740723e-01 4.291136935353279114e-02 -1.284243762493133545e-01 2.079399526119232178e-01
1.527000000000000000e+03 1.899624061584472656e+01 3.610733747482299805e-01 -5.956096053123474121e-01 -7.386512756347656250e-01 -4.002782404422760010e-01 8.284397125244140625e-01
1.528000000000000000e+03 2.351913833618164062e+01 -4.759615421295166016e+00 -9.095355868339538574e-01 -4.028425514698028564e-01 -3.937134444713592529e-01 6.105101704597473145e-01
1.529000000000000000e+03 2.315468406677246094e+01 -2.924401760101318359e+00 -9.106107354164123535e-01 -3.062393963336944580e-01 -3.650550544261932373e-01 5.278295278549194336e-01
1.530000000000000000e+03 1.433102798461914062e+01 4.648951053619384766e+00 -6.463844776153564453e-01 -1.015627741813659668e+00 -4.986036717891693115e-01 6.303729414939880371e-01
1.531000000000000000e+03 1.280210781097412109e+01 3.624325275421142578e+00 -4.827226102352142334e-01 -6.740350723266601562e-01 -3.470273017883300781e-01 4.931814670562744141e-01
1.532000000000000000e+03 6.988602447509765625e+01 -9.691281318664550781e+00 2.086132615804672241e-01 1.506058883666992188e+01 4.580760955810546875e+00 -4.216753959655761719e+00
1.533000000000000000e+03 1.301017284393310547e+01 -4.619948387145996094e+00 -1.190091716125607491e-04 -2.687731694095418788e-06 -3.650907092378474772e-05 -4.393986091599799693e-05
1.534000000000000000e+03 1.623341178894042969e+01 -6.572207927703857422e+00 1.274320820812135935e-04 1.893347325676586479e-05 4.390966569189913571e-05 6.198833489179378375e-06
1.535000000000000000e+03 1.495351982116699219e+01 -7.397023677825927734e+00 -1.488624693593010306e-04 3.174525772919878364e-05 -3.513516276143491268e-05 -7.475355960195884109e-05
1.536000000000000000e+03 1.199722957611083984e+01 3.838243007659912109e+00 -5.176598429679870605e-01 -5.108347535133361816e-01 -3.085483908653259277e-01 4.149816334247589111e-01
1.537000000000000000e+03 2.116172218322753906e+01 2.787650525569915771e-01 -6.210288405418395996e-01 -2.783962786197662354e-01 -2.698275148868560791e-01 5.684549808502197266e-01
1.538000000000000000e+03 1.741051292419433594e+01 1.400761365890502930e+00 -4.226019978523254395e-01 -9.419699311256408691e-01 -4.093715846538543701e-01 8.989471197128295898e-01
1.539000000000000000e+03 2.163396263122558594e+01 -5.422111749649047852e-01 -7.344560027122497559e-01 -2.850683629512786865e-01 -3.058573007583618164e-01 5.495767593383789062e-01
1.540000000000000000e+03 1.862621498107910156e+01 1.762733101844787598e+00 -3.667953014373779297e-01 -7.246468067169189453e-01 -3.274326324462890625e-01 8.622382879257202148e-01
1.541000000000000000e+03 6.844167327880859375e+01 -1.743505668640136719e+01 1.807830482721328735e-01 7.568807601928710938e+00 2.324877262115478516e+00 2.349108457565307617e+00
1.542000000000000000e+03 3.923020935058593750e+01 -1.463149166107177734e+01 -6.509107947349548340e-01 1.171492412686347961e-01 -1.601284742355346680e-01 6.972731649875640869e-02
1.543000000000000000e+03 9.155153274536132812e+00 -9.843432426452636719e+00 -2.828527649398893118e-04 -1.969098957488313317e-04 -1.439288025721907616e-04 3.571497654775157571e-05
1.544000000000000000e+03 6.469485759735107422e+00 -9.948385238647460938e+00 1.251398407475790009e-05 1.333097898168489337e-04 4.374713171273469925e-05 6.909874355187639594e-05
1.545000000000000000e+03 3.941081237792968750e+01 1.669573974609375000e+01 3.980740904808044434e-01 9.236350059509277344e-01 3.965127170085906982e-01 2.274210602045059204e-01
1.546000000000000000e+03 3.983761215209960938e+01 1.537702369689941406e+01 4.414994716644287109e-01 1.020671010017395020e+00 4.386511445045471191e-01 3.122837245464324951e-01
1.547000000000000000e+03 1.076115894317626953e+01 1.089504146575927734e+01 -1.087148711085319519e-01 -5.499483346939086914e-01 -1.975989639759063721e-01 7.201296687126159668e-01
1.548000000000000000e+03 5.964837074279785156e+00 -1.309862613677978516e+01 -4.130098968744277954e-04 8.115343371173366904e-05 -9.955693531082943082e-05 1.985490380320698023e-04
1.549000000000000000e+03 8.373110771179199219e+00 -1.224005222320556641e+01 1.379356544930487871e-04 4.557354623102582991e-05 5.505276203621178865e-05 -3.886443446390330791e-04
1.550000000000000000e+03 1.600179672241210938e+01 -3.277224731445312500e+01 1.564351405249908566e-04 -6.557302549481391907e-04 -1.497885241406038404e-04 1.244888291694223881e-03
1.551000000000000000e+03 5.787055206298828125e+01 8.503437042236328125e+00 3.688194453716278076e-01 2.320330858230590820e+00 8.067451119422912598e-01 -2.800689637660980225e-01
1.552000000000000000e+03 5.593616867065429688e+01 8.052436828613281250e+00 2.797033488750457764e-01 1.923584103584289551e+00 6.609862446784973145e-01 1.576494574546813965e-01
1.553000000000000000e+03 4.283190917968750000e+01 -1.518563556671142578e+01 -7.404522299766540527e-01 7.824549823999404907e-02 -1.986620277166366577e-01 -4.659762978553771973e-02
1.554000000000000000e+03 4.035830307006835938e+01 -1.446805667877197266e+01 -6.939818859100341797e-01 1.207590326666831970e-01 -1.719668656587600708e-01 4.622403904795646667e-02
1.555000000000000000e+03 3.206244707107543945e+00 -1.893965530395507812e+01 -5.180470179766416550e-04 1.738475475576706231e-05 -1.501986698713153601e-04 -5.090469130664132535e-05
1.556000000000000000e+03 2.925488471984863281e+01 -1.328109550476074219e+01 -3.853148221969604492e-01 -7.688579708337783813e-02 -1.386601924896240234e-01 3.013496696949005127e-01
1.557000000000000000e+03 4.994927215576171875e+01 -1.233688259124755859e+01 -1.138950705528259277e+00 5.187325552105903625e-02 -3.261232376098632812e-01 -2.759212553501129150e-01
1.558000000000000000e+03 4.715769195556640625e+01 -1.214728164672851562e+01 -1.000152468681335449e+00 1.350818723440170288e-01 -2.595211863517761230e-01 -1.183357387781143188e-01
1.559000000000000000e+03 5.850034332275390625e+01 -5.900595188140869141e+00 -1.992659091949462891e+00 1.700660884380340576e-01 -5.467779040336608887e-01 -2.273321449756622314e-01
1.560000000000000000e+03 5.488621139526367188e+01 -6.945320606231689453e+00 -1.612200379371643066e+00 2.564442753791809082e-01 -4.067268371582031250e-01 -8.524052798748016357e-02
1.561000000000000000e+03 1.159122180938720703e+01 1.514081668853759766e+01 4.433512389659881592e-01 -5.128437280654907227e-01 -2.084774523973464966e-02 4.757322669029235840e-01
1.562000000000000000e+03 4.381575393676757812e+01 -1.361481285095214844e+01 -8.203189969062805176e-01 1.250258088111877441e-01 -2.085879594087600708e-01 -3.613594174385070801e-02
1.563000000000000000e+03 4.834624099731445312e+01 -1.169162273406982422e+01 -1.071269273757934570e+00 1.383979767560958862e-01 -2.798613905906677246e-01 -1.538012325763702393e-01
1.564000000000000000e+03 5.056600570678710938e+01 -7.844885349273681641e+00 -1.224811911582946777e+00 2.771258950233459473e-01 -2.843058109283447266e-01 2.038086764514446259e-02
1.565000000000000000e+03 1.045335960388183594e+01 4.969848632812500000e+00 -5.323491692543029785e-01 -3.638518452644348145e-01 -2.688603103160858154e-01 3.847932219505310059e-01
1.566000000000000000e+03 3.330683135986328125e+01 -1.402466583251953125e+01 -5.079817175865173340e-01 6.256230920553207397e-02 -1.336258351802825928e-01 2.224660217761993408e-01
1.567000000000000000e+03 5.425695419311523438e+01 -8.613972663879394531e+00 -1.660380482673645020e+00 1.394883692264556885e-01 -4.562676250934600830e-01 -2.742872834205627441e-01
1.568000000000000000e+03 1.352799892425537109e+01 -2.457240676879882812e+01 1.231255155289545655e-04 -3.127696691080927849e-04 -5.689325189450755715e-05 -2.953582734335213900e-04
1.569000000000000000e+03 5.113700103759765625e+01 -1.170790386199951172e+01 -1.247795701026916504e+00 2.929233945906162262e-02 -3.655509948730468750e-01 -3.185503184795379639e-01
1.570000000000000000e+03 1.360223197937011719e+01 -2.797939682006835938e+01 1.868520746938884258e-03 -2.281499037053436041e-04 4.921112558804452419e-04 5.189456860534846783e-04
1.571000000000000000e+03 5.265206146240234375e+01 4.305388450622558594e+00 1.514600813388824463e-01 5.383583903312683105e-01 2.069455385208129883e-01 3.922877609729766846e-01
1.572000000000000000e+03 7.511199188232421875e+01 1.406240653991699219e+01 6.520411372184753418e-02 6.751028537750244141e+00 2.044869899749755859e+00 -5.191452503204345703e-01
1.573000000000000000e+03 7.588407135009765625e+01 7.717561721801757812e-02 -5.143343806266784668e-01 8.399694442749023438e+00 2.365607976913452148e+00 1.962945014238357544e-01
1.574000000000000000e+03 7.247117614746093750e+01 3.350374221801757812e+01 9.202505648136138916e-02 5.392539978027343750e+00 1.645369410514831543e+00 -1.883482784032821655e-01
1.575000000000000000e+03 7.514159393310546875e+01 3.054297065734863281e+01 4.162413999438285828e-02 5.866716861724853516e+00 1.772502303123474121e+00 -1.757709980010986328e-01
1.576000000000000000e+03 7.684899902343750000e+01 8.371323585510253906e+00 -2.557457052171230316e-02 7.811479091644287109e+00 2.335771322250366211e+00 -4.062164723873138428e-01
1.577000000000000000e+03 7.559706878662109375e+01 6.988586425781250000e+00 -8.886460959911346436e-02 7.574559688568115234e+00 2.245708465576171875e+00 -5.141982436180114746e-01
1.578000000000000000e+03 7.699604034423828125e+01 1.482642292976379395e+00 -2.439883649349212646e-01 8.479702949523925781e+00 2.470714330673217773e+00 5.629276856780052185e-02
1.579000000000000000e+03 7.577240753173828125e+01 1.465854763984680176e+00 -4.096710383892059326e-01 8.236634254455566406e+00 2.348088979721069336e+00 -3.721992298960685730e-02
1.580000000000000000e+03 7.558164978027343750e+01 9.696594238281250000e+00 -5.617885384708642960e-03 7.282649517059326172e+00 2.183109521865844727e+00 -5.519664883613586426e-01
1.581000000000000000e+03 7.547472381591796875e+01 1.108050727844238281e+01 2.924559451639652252e-02 7.110090255737304688e+00 2.141800642013549805e+00 -5.525197386741638184e-01
1.582000000000000000e+03 7.441399383544921875e+01 9.629886627197265625e+00 5.306375212967395782e-03 6.929604053497314453e+00 2.080473184585571289e+00 -6.608068346977233887e-01
1.583000000000000000e+03 7.565705108642578125e+01 4.256157875061035156e+00 -2.306252568960189819e-01 7.889705657958984375e+00 2.297724008560180664e+00 -3.730145692825317383e-01
1.584000000000000000e+03 7.561555480957031250e+01 5.630902767181396484e+00 -1.489627361297607422e-01 7.725969791412353516e+00 2.273102045059204102e+00 -4.558192491531372070e-01
1.585000000000000000e+03 7.445822143554687500e+01 2.838776350021362305e+00 -4.571454226970672607e-01 7.751792430877685547e+00 2.188394069671630859e+00 -4.135892391204833984e-01
1.586000000000000000e+03 7.658859252929687500e+01 1.688585662841796875e+01 3.739359974861145020e-02 6.873073101043701172e+00 2.073139905929565430e+00 -3.377643525600433350e-01
1.587000000000000000e+03 7.517269134521484375e+01 1.839311408996582031e+01 6.567265838384628296e-02 6.465872764587402344e+00 1.959463596343994141e+00 -4.051252007484436035e-01
1.588000000000000000e+03 7.514456939697265625e+01 2.130258178710937500e+01 5.760067701339721680e-02 6.279353618621826172e+00 1.901086330413818359e+00 -3.403973877429962158e-01
1.589000000000000000e+03 7.516121673583984375e+01 1.983417510986328125e+01 6.242313981056213379e-02 6.369242668151855469e+00 1.929499745368957520e+00 -3.739497363567352295e-01
1.590000000000000000e+03 7.374654388427734375e+01 1.708403587341308594e+01 1.058430299162864685e-01 6.238925933837890625e+00 1.903430700302124023e+00 -5.260087847709655762e-01
1.591000000000000000e+03 7.570461273193359375e+01 -2.608242225646972656e+01 -3.819635510444641113e-01 9.005051612854003906e+00 2.586926460266113281e+00 -4.344838559627532959e-01
1.592000000000000000e+03 7.492988586425781250e+01 -2.940889167785644531e+01 -2.362878322601318359e-01 8.642561912536621094e+00 2.521882295608520508e+00 -1.100228503346443176e-01
1.593000000000000000e+03 7.745295715332031250e+01 -1.230266189575195312e+01 8.991471529006958008e-01 6.194694042205810547e+00 2.128152370452880859e+00 -1.609253734350204468e-01
1.594000000000000000e+03 7.607411193847656250e+01 -1.447785949707031250e+01 1.016364693641662598e+00 8.219723701477050781e+00 2.770826578140258789e+00 -1.701243281364440918e+00
1.595000000000000000e+03 7.748237609863281250e+01 -1.086858463287353516e+01 7.766979932785034180e-01 6.237129688262939453e+00 2.104148387908935547e+00 6.269457936286926270e-01
1.596000000000000000e+03 7.660711669921875000e+01 -8.190387725830078125e+00 2.877155840396881104e-01 7.914644718170166016e+00 2.460708141326904297e+00 1.745570778846740723e+00
1.597000000000000000e+03 7.375977325439453125e+01 2.593492698669433594e+01 7.468649744987487793e-02 5.831162929534912109e+00 1.771754741668701172e+00 -3.069264888763427734e-01
1.598000000000000000e+03 7.370186614990234375e+01 2.448193740844726562e+01 7.980772852897644043e-02 5.876720428466796875e+00 1.786958456039428711e+00 -3.331511616706848145e-01
1.599000000000000000e+03 7.683789825439453125e+01 2.690937995910644531e+01 2.096002921462059021e-02 6.265208721160888672e+00 1.885850667953491211e+00 -1.580015867948532104e-01
1.600000000000000000e+03 7.673519897460937500e+01 2.932346153259277344e+01 1.770824752748012543e-02 6.159861087799072266e+00 1.853270888328552246e+00 -1.323121190071105957e-01
1.601000000000000000e+03 7.556842803955078125e+01 2.909679031372070312e+01 3.885983303189277649e-02 5.979352474212646484e+00 1.805463671684265137e+00 -1.873989701271057129e-01
1.602000000000000000e+03 7.600151824951171875e+01 2.773394012451171875e+01 3.065336495637893677e-02 6.113145351409912109e+00 1.843139529228210449e+00 -1.900984197854995728e-01
1.603000000000000000e+03 7.564817810058593750e+01 -3.070848274230957031e+01 -1.308035403490066528e-01 8.978438377380371094e+00 2.654290437698364258e+00 -2.862909249961376190e-02
1.604000000000000000e+03 7.475975799560546875e+01 -3.567102050781250000e+01 5.061984993517398834e-03 8.435438156127929688e+00 2.532150030136108398e+00 7.476124912500381470e-02
1.605000000000000000e+03 7.628071594238281250e+01 -3.551060867309570312e+01 -6.214237213134765625e-02 9.195240974426269531e+00 2.739929676055908203e+00 3.087547048926353455e-02
1.606000000000000000e+03 7.603311920166015625e+01 -2.686695337295532227e+00 -6.794226169586181641e-01 8.681436538696289062e+00 2.400604009628295898e+00 8.361290097236633301e-01
1.607000000000000000e+03 7.742350769042968750e+01 -6.852717876434326172e+00 -8.029673993587493896e-02 7.485262393951416016e+00 2.221489667892456055e+00 1.543338418006896973e+00
1.608000000000000000e+03 7.644995117187500000e+01 -6.929566383361816406e+00 -1.434765160083770752e-01 8.327877998352050781e+00 2.455320358276367188e+00 1.792151451110839844e+00
1.609000000000000000e+03 7.512213897705078125e+01 -1.590860557556152344e+01 4.447625577449798584e-01 9.631160736083984375e+00 3.022777080535888672e+00 -2.190586566925048828e+00
1.610000000000000000e+03 7.573910522460937500e+01 -2.314896965026855469e+01 -5.325641036033630371e-01 9.055276870727539062e+00 2.556813955307006836e+00 -8.590396642684936523e-01
1.611000000000000000e+03 7.592466735839843750e+01 -2.738738059997558594e+01 -2.593591809272766113e-01 9.103056907653808594e+00 2.653109312057495117e+00 -2.758209407329559326e-01
1.612000000000000000e+03 7.691977691650390625e+01 -2.472864532470703125e+01 -2.623699903488159180e-01 9.294095993041992188e+00 2.709517955780029297e+00 -5.759137868881225586e-01
1.613000000000000000e+03 7.584516143798828125e+01 -2.166518402099609375e+01 -5.887893438339233398e-01 9.083197593688964844e+00 2.548322677612304688e+00 -1.157137393951416016e+00
1.614000000000000000e+03 7.430825042724609375e+01 3.389366149902343750e+01 4.226772114634513855e-02 5.651021957397460938e+00 1.707986950874328613e+00 -1.318351924419403076e-01
1.615000000000000000e+03 7.572892761230468750e+01 -2.850221252441406250e+01 -2.283614277839660645e-01 9.022783279418945312e+00 2.638326406478881836e+00 -1.807420998811721802e-01
1.616000000000000000e+03 7.652851104736328125e+01 -3.282321929931640625e+01 -3.833613917231559753e-02 9.272075653076171875e+00 2.770121812820434570e+00 2.543275803327560425e-02
1.617000000000000000e+03 7.522587585449218750e+01 -3.316010284423828125e+01 -8.348006755113601685e-02 8.714872360229492188e+00 2.589417695999145508e+00 8.352521806955337524e-02
1.618000000000000000e+03 7.615647888183593750e+01 -5.566874027252197266e+00 -4.825012683868408203e-01 8.692106246948242188e+00 2.462881565093994141e+00 1.572351932525634766e+00
1.619000000000000000e+03 7.599545288085937500e+01 -4.118164062500000000e+00 -6.588224172592163086e-01 8.781939506530761719e+00 2.436934947967529297e+00 1.244064927101135254e+00
1.620000000000000000e+03 7.741329956054687500e+01 -1.917348861694335938e+01 -2.511220872402191162e-01 8.307271003723144531e+00 2.416844844818115234e+00 -1.457095503807067871e+00
1.621000000000000000e+03 7.608173370361328125e+01 -2.023965072631835938e+01 -5.560014843940734863e-01 9.028569221496582031e+00 2.541770219802856445e+00 -1.453603744506835938e+00
1.622000000000000000e+03 7.754418945312500000e+01 -1.785845565795898438e+01 -1.339679211378097534e-01 7.782892227172851562e+00 2.294677257537841797e+00 -1.585095047950744629e+00
1.623000000000000000e+03 7.655518341064453125e+01 -1.538919734954833984e+01 5.443654656410217285e-01 7.944867610931396484e+00 2.546769857406616211e+00 -1.804648041725158691e+00
1.624000000000000000e+03 6.489323425292968750e+01 -2.501858711242675781e+01 -6.912702918052673340e-01 3.523110151290893555e+00 8.495519161224365234e-01 6.979314088821411133e-01
1.625000000000000000e+03 3.618453598022460938e+01 -1.470009040832519531e+01 -5.572419762611389160e-01 9.242332726716995239e-02 -1.394456028938293457e-01 1.463742107152938843e-01
1.626000000000000000e+03 3.702010726928710938e+01 -1.587464809417724609e+01 -5.401946306228637695e-01 6.914518773555755615e-02 -1.413148343563079834e-01 9.146000444889068604e-02
1.627000000000000000e+03 5.308567047119140625e+01 -9.174724578857421875e+00 -1.496344566345214844e+00 1.533915847539901733e-01 -4.028859138488769531e-01 -2.533460557460784912e-01
1.628000000000000000e+03 4.338073730468750000e+00 2.139382362365722656e+01 5.405027791857719421e-02 -9.526531100273132324e-01 -2.695808410644531250e-01 1.498340964317321777e-01
1.629000000000000000e+03 3.251153707504272461e+00 -1.755082511901855469e+01 4.788562946487218142e-04 2.336321995244361460e-05 1.506658591097220778e-04 4.227217868901789188e-05
1.630000000000000000e+03 4.417333602905273438e+00 -2.151529121398925781e+01 6.465262267738580704e-04 -2.696993396966718137e-05 1.858668838394805789e-04 3.573996218619868159e-05
1.631000000000000000e+03 6.994952201843261719e+00 -1.942997360229492188e+01 9.169262921204790473e-05 6.458615825977176428e-05 4.688363696914166212e-05 -1.502066879766061902e-04
1.632000000000000000e+03 4.556542873382568359e+00 -1.752913856506347656e+01 -4.659964761231094599e-04 -3.352603380335494876e-05 -1.498567435191944242e-04 -1.020755735225975513e-05
1.633000000000000000e+03 4.078789710998535156e+00 1.636071395874023438e+01 7.403533160686492920e-02 -7.809072732925415039e-01 -2.120615839958190918e-01 2.945549190044403076e-01
1.634000000000000000e+03 4.068332195281982422e+00 1.884272193908691406e+01 7.196983695030212402e-02 -8.889986276626586914e-01 -2.451086342334747314e-01 2.121481746435165405e-01
1.635000000000000000e+03 2.899998903274536133e+00 1.763996505737304688e+01 4.167204722762107849e-02 -8.993706107139587402e-01 -2.573095560073852539e-01 1.935260444879531860e-01
1.636000000000000000e+03 4.930694103240966797e+00 2.428766441345214844e+01 4.142308607697486877e-02 -9.678683876991271973e-01 -2.779335975646972656e-01 1.105347499251365662e-01
1.637000000000000000e+03 5.258543014526367188e+00 2.890155220031738281e+01 1.221080590039491653e-02 -1.026797771453857422e+00 -3.043760657310485840e-01 7.307461649179458618e-02
1.638000000000000000e+03 4.732633113861083984e+00 -2.824342346191406250e+01 -4.064594395458698273e-04 2.501321723684668541e-04 -4.689817797043360770e-05 4.514038155321031809e-04
1.639000000000000000e+03 3.288305997848510742e+00 -2.303791236877441406e+01 6.301253451965749264e-04 -1.185882683785166591e-05 1.854799629654735327e-04 2.051561932603362948e-05
1.640000000000000000e+03 4.575156688690185547e+00 -2.280403709411621094e+01 -5.417221691459417343e-04 1.095994521165266633e-04 -1.296368136536329985e-04 1.974143197003286332e-05
1.641000000000000000e+03 2.933560371398925781e+00 1.499191665649414062e+01 2.918069250881671906e-02 -7.326465845108032227e-01 -2.110397666692733765e-01 2.567518353462219238e-01
1.642000000000000000e+03 4.197511672973632812e+00 1.236373615264892578e+01 -3.538583405315876007e-04 -5.359244346618652344e-01 -1.608834862709045410e-01 3.763262927532196045e-01
1.643000000000000000e+03 4.178845405578613281e+00 1.372460842132568359e+01 3.284740075469017029e-02 -6.257132291793823242e-01 -1.778597533702850342e-01 3.604981601238250732e-01
1.644000000000000000e+03 4.178166866302490234e+00 -9.184588432312011719e+00 -3.522636543493717909e-04 1.257792337128194049e-05 -1.019057235680520535e-04 -9.124659118242561817e-05
1.645000000000000000e+03 3.012093544006347656e+00 -1.056222057342529297e+01 -3.825676103588193655e-04 1.414499820384662598e-05 -1.105267801904119551e-04 -9.874198440229520202e-05
1.646000000000000000e+03 7.660265922546386719e+00 -1.150217247009277344e+01 -2.235770953120663762e-04 9.499619045527651906e-05 -3.857427145703695714e-05 2.494139480404555798e-04
1.647000000000000000e+03 5.779932975769042969e+00 2.240378379821777344e+01 7.722712308168411255e-02 -8.776237368583679199e-01 -2.401189804077148438e-01 1.574217230081558228e-01
1.648000000000000000e+03 5.086019515991210938e+00 2.586898422241210938e+01 3.342096135020256042e-02 -9.784240722656250000e-01 -2.835009396076202393e-01 9.523627161979675293e-02
1.649000000000000000e+03 4.581310272216796875e+00 2.278637695312500000e+01 5.122883617877960205e-02 -9.643933176994323730e-01 -2.739493548870086670e-01 1.297303885221481323e-01
1.650000000000000000e+03 7.137324333190917969e+00 -2.434346580505371094e+01 2.810520236380398273e-04 -1.580975804245099425e-04 3.688632932608015835e-05 4.836778389289975166e-04
1.651000000000000000e+03 3.417536020278930664e+00 -2.441695404052734375e+01 -4.802773182746022940e-04 6.057776772649958730e-05 -1.259098644368350506e-04 1.501619844930246472e-04
1.652000000000000000e+03 5.048206806182861328e+00 -2.569140815734863281e+01 -3.642185765784233809e-04 5.935858644079416990e-05 -9.145800140686333179e-05 3.284418489784002304e-04
1.653000000000000000e+03 6.762694835662841797e+00 1.268331336975097656e+01 3.830934315919876099e-02 -5.658556222915649414e-01 -1.582638770341873169e-01 5.308799147605895996e-01
1.654000000000000000e+03 3.749450922012329102e+00 -2.985218048095703125e+01 -4.518110654316842556e-04 3.621664072852581739e-04 -2.689339999051298946e-05 3.668272111099213362e-04
1.655000000000000000e+03 5.080777168273925781e+00 -2.941637802124023438e+01 6.303674308583140373e-04 2.204590418841689825e-04 2.552479272708296776e-04 3.169577394146472216e-04
1.656000000000000000e+03 5.495166301727294922e+00 3.202175140380859375e+01 2.029260806739330292e-02 -1.041471242904663086e+00 -3.063535690307617188e-01 5.951333791017532349e-02
1.657000000000000000e+03 6.624647140502929688e+00 3.626288986206054688e+01 2.241014875471591949e-02 -1.011557102203369141e+00 -2.967440783977508545e-01 4.437123239040374756e-02
1.658000000000000000e+03 3.536064147949218750e+00 3.462858581542968750e+01 1.440259814262390137e-02 -1.234763622283935547e+00 -3.661083281040191650e-01 2.205612696707248688e-02
1.659000000000000000e+03 5.992815971374511719e+00 -1.143499660491943359e+01 -6.047963688615709543e-05 6.631518772337585688e-05 1.750666342559270561e-06 2.264333161292597651e-04
1.660000000000000000e+03 4.190330505371093750e+00 1.102875328063964844e+01 -3.981284424662590027e-02 -4.378562569618225098e-01 -1.433007270097732544e-01 3.622350096702575684e-01
1.661000000000000000e+03 4.959724903106689453e+00 -5.345210075378417969e+00 -5.779051934950985014e-05 2.070989012281643227e-06 -1.671585960139054805e-05 4.557696956908330321e-05
1.662000000000000000e+03 7.539425849914550781e+00 -3.115374183654785156e+01 -2.331606374355033040e-04 1.450602721888571978e-04 -2.643011066538747400e-05 4.816672008018940687e-04
1.663000000000000000e+03 5.560988903045654297e+00 -3.066623497009277344e+01 -3.594366717152297497e-04 2.642034669406712055e-04 -2.856995888578239828e-05 4.373669216874986887e-04
1.664000000000000000e+03 4.115532875061035156e+00 -3.123584556579589844e+01 5.764827365055680275e-04 3.302184341009706259e-04 2.720103366300463676e-04 3.675749467220157385e-04
1.665000000000000000e+03 6.350043773651123047e+00 3.446360015869140625e+01 2.327505871653556824e-02 -1.004823088645935059e+00 -2.944644093513488770e-01 5.299349874258041382e-02
1.666000000000000000e+03 3.668797016143798828e+00 3.326315689086914062e+01 1.481876708567142487e-02 -1.213869452476501465e+00 -3.597152233123779297e-01 2.899111621081829071e-02
1.667000000000000000e+03 5.384586811065673828e+00 3.040583992004394531e+01 1.825249567627906799e-02 -1.028792381286621094e+00 -3.031619489192962646e-01 6.582721322774887085e-02
1.668000000000000000e+03 4.100235462188720703e+00 8.486604690551757812e+00 -1.028791442513465881e-01 -2.672350704669952393e-01 -1.110342666506767273e-01 2.917799055576324463e-01
1.669000000000000000e+03 2.994555234909057617e+00 -6.144684791564941406e+00 2.063745050691068172e-04 1.737120328471064568e-05 6.712371396133676171e-05 7.579266093671321869e-05
1.670000000000000000e+03 3.552899122238159180e+00 5.722465038299560547e+00 -9.097039699554443359e-02 -1.174085363745689392e-01 -6.251367926597595215e-02 1.284850686788558960e-01
1.671000000000000000e+03 5.412644958496093750e+01 -3.306991195678710938e+01 -8.276665955781936646e-02 -1.242830157279968262e-01 -6.211490184068679810e-02 -2.529419660568237305e-01
1.672000000000000000e+03 6.220020675659179688e+01 -4.861160278320312500e+00 -1.490656614303588867e+00 -1.049183607101440430e-01 -4.786725044250488281e-01 -8.358103036880493164e-01
1.673000000000000000e+03 1.272471141815185547e+01 -3.036952781677246094e+01 1.533348695375025272e-03 -7.446628296747803688e-05 4.376647411845624447e-04 9.307338623329997063e-04
1.674000000000000000e+03 1.585846138000488281e+01 -2.852354812622070312e+01 2.412657486274838448e-03 -2.065705630229786038e-04 6.618261104449629784e-04 4.925467655993998051e-04
1.675000000000000000e+03 1.446972465515136719e+01 -1.034197902679443359e+01 1.310946245212107897e-04 6.329586904030293226e-05 5.831714588566683233e-05 9.526708163321018219e-05
1.676000000000000000e+03 1.318119621276855469e+01 -1.001758193969726562e+01 -2.083847793983295560e-04 -2.036051773757208139e-05 -6.862358713988214731e-05 -8.918978710426017642e-05
1.677000000000000000e+03 6.922737121582031250e+01 -6.620735168457031250e+00 -1.293354988098144531e+00 1.035304164886474609e+01 2.717906236648559570e+00 -2.159678220748901367e+00
1.678000000000000000e+03 6.716160583496093750e+01 -5.405591964721679688e+00 -1.473647236824035645e+00 5.767825603485107422e+00 1.288253426551818848e+00 -3.598443508148193359e+00
1.679000000000000000e+03 5.555625915527343750e+01 -3.324059295654296875e+01 6.032259017229080200e-02 1.179396361112594604e-01 5.347866937518119812e-02 -1.305226385593414307e-01
1.680000000000000000e+03 5.609769439697265625e+01 -3.116540718078613281e+01 -3.212871253490447998e-01 -1.920970156788825989e-02 -1.021490544080734253e-01 -2.226096987724304199e-01
1.681000000000000000e+03 1.131277561187744141e+01 -2.118728256225585938e+01 5.313929868862032890e-04 2.194560220232233405e-04 2.252546983072534204e-04 2.688820532057434320e-04
1.682000000000000000e+03 4.491983032226562500e+01 -1.314648723602294922e+01 -8.770143389701843262e-01 1.258960962295532227e-01 -2.253354638814926147e-01 -6.527037918567657471e-02
1.683000000000000000e+03 5.186035156250000000e+01 -9.832730293273925781e+00 -1.375123381614685059e+00 1.421738266944885254e-01 -3.698848783969879150e-01 -2.166499942541122437e-01
1.684000000000000000e+03 7.132616996765136719e+00 -1.737308311462402344e+01 -2.741094795055687428e-04 -2.397300850134342909e-04 -1.541518722660839558e-04 -2.045061555691063404e-04
1.685000000000000000e+03 6.466003417968750000e+00 -1.516716766357421875e+01 -2.589648356661200523e-04 6.477059650933369994e-05 -5.825827247463166714e-05 -2.676373987924307585e-04
1.686000000000000000e+03 5.835921478271484375e+01 -3.202330017089843750e+01 2.258455008268356323e-02 6.184899210929870605e-01 1.923223435878753662e-01 5.850659683346748352e-02
1.687000000000000000e+03 4.915364074707031250e+01 2.689233541488647461e+00 -7.000564038753509521e-02 1.728633046150207520e-01 3.085729852318763733e-02 3.077689111232757568e-01
1.688000000000000000e+03 4.807145690917968750e+01 3.533563375473022461e+00 -5.117924511432647705e-02 1.123661845922470093e-01 1.835608109831809998e-02 2.281213104724884033e-01
1.689000000000000000e+03 3.396252441406250000e+01 -3.774431228637695312e+01 -8.940769359469413757e-03 -2.912635169923305511e-02 -1.142013631761074066e-02 -2.172587998211383820e-02
1.690000000000000000e+03 4.311544799804687500e+01 -3.902841949462890625e+01 1.635754257440567017e-01 -2.904491126537322998e-01 -3.806210681796073914e-02 -1.358539909124374390e-01
1.691000000000000000e+03 6.511702728271484375e+01 -4.031352996826171875e+00 -8.405952453613281250e-01 1.695436120033264160e+00 2.564522922039031982e-01 -2.534557580947875977e+00
1.692000000000000000e+03 5.357210922241210938e+01 5.006697654724121094e+00 1.835667639970779419e-01 8.019706606864929199e-01 2.956612110137939453e-01 3.670769631862640381e-01
1.693000000000000000e+03 4.697731399536132812e+01 -3.906621170043945312e+01 3.497735857963562012e-01 -3.562807440757751465e-01 -1.952147576957941055e-03 -1.759872734546661377e-01
1.694000000000000000e+03 2.178954315185546875e+01 -3.290752410888671875e+01 3.844330320134758949e-03 -1.251682173460721970e-03 7.777944556437432766e-04 1.755721983499825001e-03
1.695000000000000000e+03 4.273238754272460938e+01 6.750700950622558594e+00 -2.155794352293014526e-01 5.918985009193420410e-01 1.128957197070121765e-01 1.193531304597854614e-01
1.696000000000000000e+03 4.237720489501953125e+01 4.530388832092285156e+00 -2.853225767612457275e-01 4.634701609611511230e-01 5.344427749514579773e-02 1.775383204221725464e-01
1.697000000000000000e+03 1.063110923767089844e+01 1.198916721343994141e+01 4.691417142748832703e-02 -6.025393009185791016e-01 -1.666875481605529785e-01 7.155732512474060059e-01
1.698000000000000000e+03 1.158573246002197266e+01 1.308061027526855469e+01 2.624566555023193359e-01 -6.039667725563049316e-01 -1.024530306458473206e-01 6.485788226127624512e-01
1.699000000000000000e+03 6.303847122192382812e+01 -2.533012580871582031e+01 -6.437456011772155762e-01 2.247224569320678711e+00 4.810436666011810303e-01 4.727600514888763428e-01
1.700000000000000000e+03 5.836286163330078125e+01 1.128445243835449219e+01 5.266019105911254883e-01 2.917588949203491211e+00 1.033257246017456055e+00 -4.355070292949676514e-01
1.701000000000000000e+03 4.129965591430664062e+01 8.329643249511718750e+00 -1.338957995176315308e-01 8.275420665740966797e-01 2.080938816070556641e-01 2.487484514713287354e-01
1.702000000000000000e+03 1.771479225158691406e+01 -9.098649024963378906e+00 5.459043677547015250e-05 -5.156948100193403661e-05 9.062870276466128416e-07 -3.973305138060823083e-05
1.703000000000000000e+03 1.144322776794433594e+01 -2.727626419067382812e+01 1.532732509076595306e-03 -1.876062742667272687e-04 4.035378515254706144e-04 3.498724545352160931e-04
1.704000000000000000e+03 5.387250900268554688e+01 -3.487045669555664062e+01 2.434614747762680054e-01 6.211837753653526306e-02 9.167395532131195068e-02 -2.229816764593124390e-01
1.705000000000000000e+03 4.524655914306640625e+01 2.183427238464355469e+01 4.167778491973876953e-01 8.472229242324829102e-01 3.792002201080322266e-01 4.343182146549224854e-01
1.706000000000000000e+03 2.699926185607910156e+01 1.472704792022705078e+01 -3.560194075107574463e-01 -5.979566574096679688e-01 -2.861928343772888184e-01 3.091098070144653320e-01
1.707000000000000000e+03 1.852921104431152344e+01 -3.091991043090820312e+01 1.634146785363554955e-03 -8.719232864677906036e-04 2.286670496687293053e-04 1.861575408838689327e-03
1.708000000000000000e+03 6.221739196777343750e+01 -3.081719398498535156e+01 -1.529148668050765991e-01 2.307096958160400391e+00 6.462546586990356445e-01 3.963378965854644775e-01
1.709000000000000000e+03 6.420887756347656250e+01 -2.617252349853515625e+01 -5.948034524917602539e-01 3.182788372039794922e+00 7.763954401016235352e-01 6.075890660285949707e-01
1.710000000000000000e+03 4.361752319335937500e+01 5.519922733306884766e+00 -2.301543951034545898e-01 4.524149596691131592e-01 6.667817384004592896e-02 7.037068158388137817e-02
1.711000000000000000e+03 5.880450057983398438e+01 1.415078639984130859e+01 6.861344575881958008e-01 3.098218441009521484e+00 1.135305881500244141e+00 -5.945371389389038086e-01
1.712000000000000000e+03 6.668529510498046875e+01 -2.314072418212890625e+01 -7.180526256561279297e-01 5.051093578338623047e+00 1.299912333488464355e+00 8.667964339256286621e-01
1.713000000000000000e+03 6.787509155273437500e+01 -1.850226783752441406e+01 5.475247651338577271e-02 6.633892536163330078e+00 2.006593465805053711e+00 1.927024126052856445e+00
1.714000000000000000e+03 8.078599929809570312e+00 -2.012190055847167969e+01 1.282592711504548788e-04 -7.444251241395249963e-05 1.614502798474859446e-05 2.439346571918576956e-04
1.715000000000000000e+03 7.688571166992187500e+01 3.911202621459960938e+01 -3.092278726398944855e-03 6.046692371368408203e+00 1.813079953193664551e+00 -4.550410807132720947e-02
1.716000000000000000e+03 7.617966461181640625e+01 3.759778594970703125e+01 -8.189521729946136475e-03 5.948956489562988281e+00 1.782230138778686523e+00 -2.747448906302452087e-02
1.717000000000000000e+03 6.137087249755859375e+01 -5.639049053192138672e+00 -2.210783004760742188e+00 -2.984309792518615723e-01 -7.527641654014587402e-01 -4.361530244350433350e-01
1.718000000000000000e+03 6.093011474609375000e+01 -4.546471118927001953e+00 -1.484972238540649414e+00 1.470695137977600098e-01 -4.013708233833312988e-01 -4.836174845695495605e-01
1.719000000000000000e+03 2.852996444702148438e+01 -3.456483459472656250e+01 2.927514258772134781e-03 -1.122702029533684254e-03 5.414436454884707928e-04 2.562812063843011856e-03
1.720000000000000000e+03 4.932229995727539062e+01 -3.626736831665039062e+01 2.132876813411712646e-01 -3.529005646705627441e-01 -4.188387095928192139e-02 -3.054087460041046143e-01
1.721000000000000000e+03 5.180685806274414062e+01 2.251695442199707031e+01 6.348936557769775391e-01 1.206064343452453613e+00 5.522873997688293457e-01 -4.146026670932769775e-01
1.722000000000000000e+03 4.566803741455078125e+01 2.370225906372070312e+01 5.441691875457763672e-01 8.859145641326904297e-01 4.290251135826110840e-01 2.949199676513671875e-01
1.723000000000000000e+03 2.824820899963378906e+01 -3.645946121215820312e+01 -4.352563992142677307e-03 -5.715390201658010483e-03 -3.020386211574077606e-03 -2.098451295751146972e-05
1.724000000000000000e+03 2.328906250000000000e+01 -1.771054983139038086e+00 -8.132137060165405273e-01 -1.964660286903381348e-01 -3.029039204120635986e-01 4.421229660511016846e-01
1.725000000000000000e+03 2.208948898315429688e+01 2.124636173248291016e+00 -2.292260527610778809e-01 7.288505882024765015e-02 -4.690229892730712891e-02 4.092994630336761475e-01
1.726000000000000000e+03 1.566684150695800781e+01 -1.064201068878173828e+01 -3.842264413833618164e-05 -6.183225195854902267e-05 -3.007646773767191917e-05 -6.486673373728990555e-05
1.727000000000000000e+03 2.352267646789550781e+01 1.873399162292480469e+01 2.421209365129470825e-01 -6.110448241233825684e-01 -1.106771603226661682e-01 5.327734947204589844e-01
1.728000000000000000e+03 2.469975471496582031e+01 1.892447590827941895e+00 -1.988480985164642334e-01 9.235689043998718262e-02 -3.194735944271087646e-02 1.878208965063095093e-01
1.729000000000000000e+03 5.915811157226562500e+01 1.231077003479003906e+01 6.014702916145324707e-01 2.991721630096435547e+00 1.077957630157470703e+00 -5.930561423301696777e-01
1.730000000000000000e+03 5.886666297912597656e+00 -1.757557487487792969e+01 4.177323426119983196e-04 1.290140498895198107e-04 1.640239206608384848e-04 -2.743632103374693543e-05
1.731000000000000000e+03 2.348327064514160156e+01 1.998557853698730469e+01 3.566030859947204590e-01 -5.132097601890563965e-01 -4.698199778795242310e-02 5.325915813446044922e-01
1.732000000000000000e+03 7.352260589599609375e+01 -1.956049728393554688e+01 -1.074006915092468262e+00 9.886992454528808594e+00 2.643895864486694336e+00 -1.140219569206237793e+00
1.733000000000000000e+03 2.498959350585937500e+01 1.864521598815917969e+01 2.514659464359283447e-01 -6.141125559806823730e-01 -1.087939813733100891e-01 4.024369716644287109e-01
1.734000000000000000e+03 3.062596702575683594e+01 -3.652725601196289062e+01 -5.403361748903989792e-03 -7.560987491160631180e-03 -3.889304818585515022e-03 -3.653764491900801659e-03
1.735000000000000000e+03 7.042980194091796875e+00 1.809540939331054688e+01 1.953480392694473267e-01 -7.240692973136901855e-01 -1.586163789033889771e-01 3.178449869155883789e-01
1.736000000000000000e+03 5.665732192993164062e+01 2.235099411010742188e+01 3.712057471275329590e-01 2.607505559921264648e+00 8.936133980751037598e-01 -6.444476246833801270e-01
1.737000000000000000e+03 5.132378005981445312e+01 2.419955635070800781e+01 6.849544644355773926e-01 1.297242283821105957e+00 5.946590304374694824e-01 -2.836261987686157227e-01
1.738000000000000000e+03 4.026155471801757812e+01 1.321258926391601562e+01 3.941491544246673584e-01 1.024244904518127441e+00 4.255182147026062012e-01 3.612647056579589844e-01
1.739000000000000000e+03 3.845211410522460938e+01 1.322742652893066406e+01 2.952760756015777588e-01 7.900856733322143555e-01 3.256085216999053955e-01 3.995725214481353760e-01
1.740000000000000000e+03 2.950628471374511719e+01 8.412792205810546875e+00 9.839907288551330566e-02 -2.039457559585571289e-01 -3.166400268673896790e-02 6.352310180664062500e-01
1.741000000000000000e+03 2.823573875427246094e+01 1.032052135467529297e+01 -1.221576407551765442e-01 -3.548125028610229492e-01 -1.430910527706146240e-01 7.046233415603637695e-01
1.742000000000000000e+03 2.754767799377441406e+01 1.782859039306640625e+01 1.024359911680221558e-01 -4.267602860927581787e-01 -9.729728847742080688e-02 2.468436807394027710e-01
1.743000000000000000e+03 2.151352310180664062e+01 2.025903320312500000e+01 3.244676291942596436e-01 -3.256781697273254395e-01 -3.631655999924987555e-04 6.539403796195983887e-01
1.744000000000000000e+03 1.730840873718261719e+01 1.917567825317382812e+01 2.854948639869689941e-01 1.752412617206573486e-01 1.382208466529846191e-01 4.451728761196136475e-01
1.745000000000000000e+03 3.882550811767578125e+01 1.082596111297607422e+01 1.365399807691574097e-01 7.780050039291381836e-01 2.743634879589080811e-01 4.987806677818298340e-01
1.746000000000000000e+03 7.170040130615234375e+01 -1.335353755950927734e+01 4.837475776672363281e+00 1.630186653137207031e+01 6.341802597045898438e+00 -2.483757495880126953e+00
1.747000000000000000e+03 7.128340148925781250e+01 -1.422782135009765625e+01 1.114367127418518066e+00 1.699581527709960938e+01 5.433054924011230469e+00 -1.097972869873046875e+00
1.748000000000000000e+03 7.092045593261718750e+01 -1.040755844116210938e+01 1.240411281585693359e+00 1.914061164855957031e+01 6.114306926727294922e+00 2.922375313937664032e-02
1.749000000000000000e+03 7.020475769042968750e+01 -1.444246959686279297e+01 -8.253292739391326904e-02 1.608112525939941406e+01 4.799578189849853516e+00 2.828604936599731445e+00
1.750000000000000000e+03 7.058667755126953125e+01 -1.412156391143798828e+01 4.537151455879211426e-01 1.839684867858886719e+01 5.655169486999511719e+00 9.961889386177062988e-01
1.751000000000000000e+03 7.135923767089843750e+01 -1.063884258270263672e+01 2.916707992553710938e+00 1.805990409851074219e+01 6.292984008789062500e+00 1.806244492530822754e+00
1.752000000000000000e+03 7.217845153808593750e+01 -1.267614650726318359e+01 6.871766567230224609e+00 1.412100601196289062e+01 6.297832012176513672e+00 -1.456004381179809570e+00
1.753000000000000000e+03 7.200337982177734375e+01 -1.151156425476074219e+01 6.891015052795410156e+00 1.486985778808593750e+01 6.528261661529541016e+00 1.629315137863159180e+00
1.754000000000000000e+03 7.178606414794921875e+01 -9.744649887084960938e+00 1.163997888565063477e+00 1.530598926544189453e+01 4.940996170043945312e+00 1.161756157875061035e+00
1.755000000000000000e+03 7.244253540039062500e+01 -1.314927196502685547e+01 5.181520938873291016e+00 1.372049522399902344e+01 5.670604705810546875e+00 -2.064663648605346680e+00
1.756000000000000000e+03 7.199974060058593750e+01 -1.208035469055175781e+01 7.928413867950439453e+00 1.445544338226318359e+01 6.715157032012939453e+00 1.258259266614913940e-01
1.757000000000000000e+03 7.110106658935546875e+01 -1.005054473876953125e+01 8.446288108825683594e-01 1.727251052856445312e+01 5.435141563415527344e+00 1.047339066863059998e-01
1.758000000000000000e+03 7.612197113037109375e+01 -1.146287727355957031e+01 1.659374237060546875e+00 7.757342338562011719e+00 2.825015068054199219e+00 4.381127953529357910e-01
1.759000000000000000e+03 6.967289733886718750e+01 -9.270790100097656250e+00 6.074382066726684570e-01 1.326087188720703125e+01 4.160492897033691406e+00 -4.156620502471923828e+00
1.760000000000000000e+03 6.911049652099609375e+01 -9.546053886413574219e+00 1.309274554252624512e+00 1.160676479339599609e+01 3.874811887741088867e+00 -5.002821922302246094e+00
1.761000000000000000e+03 6.867360687255859375e+01 -1.515016269683837891e+01 1.076822042465209961e+00 8.410663604736328125e+00 2.846245765686035156e+00 4.232964038848876953e+00
1.762000000000000000e+03 6.914906311035156250e+01 -1.442368698120117188e+01 1.260238170623779297e+00 1.054977321624755859e+01 3.543003320693969727e+00 5.213905334472656250e+00
1.763000000000000000e+03 6.921868133544921875e+01 -1.512251567840576172e+01 5.490667819976806641e-01 1.045159339904785156e+01 3.300198078155517578e+00 4.234678745269775391e+00
1.764000000000000000e+03 7.037558746337890625e+01 -9.465862274169921875e+00 3.636908158659934998e-02 1.569217491149902344e+01 4.718563079833984375e+00 -2.676787376403808594e+00
1.765000000000000000e+03 7.093157958984375000e+01 -1.363992023468017578e+01 2.433261871337890625e+00 1.950067710876464844e+01 6.580181598663330078e+00 -1.256341934204101562e+00
1.766000000000000000e+03 6.888521575927734375e+01 -8.988618850708007812e+00 2.028483390808105469e+00 1.047324371337890625e+01 3.750518321990966797e+00 -4.305174350738525391e+00
1.767000000000000000e+03 6.879489135742187500e+01 -9.509455680847167969e+00 1.785779476165771484e+00 1.030324172973632812e+01 3.626706361770629883e+00 -5.049874305725097656e+00
1.768000000000000000e+03 2.829546165466308594e+01 -1.130034065246582031e+01 -4.700011610984802246e-01 -1.089716702699661255e-01 -1.736918538808822632e-01 3.893162012100219727e-01
1.769000000000000000e+03 2.802842521667480469e+01 -8.692119598388671875e+00 -6.257221102714538574e-01 -7.422363758087158203e-02 -2.099837213754653931e-01 4.508762657642364502e-01
1.770000000000000000e+03 1.771326255798339844e+01 -8.410501480102539062e+00 2.172355743823572993e-05 4.678664845414459705e-05 2.055306140391621739e-05 7.778630970278754830e-05
1.771000000000000000e+03 1.627842330932617188e+01 -7.778739929199218750e+00 1.693754020379856229e-04 2.111498815793311223e-06 5.144606984686106443e-05 2.490206679794937372e-05
1.772000000000000000e+03 2.837725067138671875e+01 -9.458638191223144531e+00 -5.830832123756408691e-01 -6.703005731105804443e-02 -1.950339674949645996e-01 4.321584403514862061e-01
1.773000000000000000e+03 6.118793487548828125e+00 4.911470890045166016e+00 -2.288819253444671631e-01 -1.098898649215698242e-01 -1.016315370798110962e-01 1.876755207777023315e-01
1.774000000000000000e+03 1.030021190643310547e+01 4.137277126312255859e+00 -4.732713699340820312e-01 -2.894184887409210205e-01 -2.288069576025009155e-01 3.238507509231567383e-01
1.775000000000000000e+03 1.941105651855468750e+01 1.139968752861022949e+00 -5.093231201171875000e-01 -5.361072421073913574e-01 -3.136290907859802246e-01 8.145011663436889648e-01
1.776000000000000000e+03 2.006688308715820312e+01 5.419065356254577637e-01 -5.707840323448181152e-01 -4.273727536201477051e-01 -2.994470298290252686e-01 7.214760184288024902e-01
1.777000000000000000e+03 3.619748115539550781e+00 4.288594245910644531e+00 -9.444916993379592896e-02 -6.882413476705551147e-02 -4.898199066519737244e-02 7.591710984706878662e-02
1.778000000000000000e+03 4.793326854705810547e+00 3.896050214767456055e+00 -1.386917382478713989e-01 -6.277190893888473511e-02 -6.043909490108489990e-02 9.481417387723922729e-02
1.779000000000000000e+03 6.184810161590576172e+00 4.123249053955078125e+00 -2.189098149538040161e-01 -8.196689933538436890e-02 -9.026301652193069458e-02 1.515316963195800781e-01
1.780000000000000000e+03 7.784474372863769531e+00 4.235674858093261719e+00 -3.238472044467926025e-01 -1.295024901628494263e-01 -1.360049098730087280e-01 2.254048883914947510e-01
1.781000000000000000e+03 8.686516761779785156e+00 5.057471275329589844e+00 -4.135423600673675537e-01 -2.069883495569229126e-01 -1.861592084169387817e-01 3.234894275665283203e-01
1.782000000000000000e+03 4.626490116119384766e+00 4.453579902648925781e+00 -1.438735425472259521e-01 -7.953993231058120728e-02 -6.702404469251632690e-02 1.112944185733795166e-01
1.783000000000000000e+03 6.832989501953125000e+01 -1.582975578308105469e+01 1.000798463821411133e+00 7.354548931121826172e+00 2.506604194641113281e+00 3.641298770904541016e+00
1.784000000000000000e+03 1.346628379821777344e+01 -5.613425254821777344e+00 -6.028027928550727665e-05 -3.971795376855880022e-05 -2.999946991621982306e-05 -9.335542563349008560e-05
1.785000000000000000e+03 1.350105094909667969e+01 -6.372098922729492188e+00 -6.523507909150794148e-05 -1.170636187453055754e-05 -2.308243347215466201e-05 8.382452506339177489e-05
1.786000000000000000e+03 3.166182708740234375e+01 -1.378781986236572266e+01 -4.554257690906524658e-01 1.380345784127712250e-02 -1.324866861104965210e-01 2.522169947624206543e-01
1.787000000000000000e+03 1.339613151550292969e+01 -8.976424217224121094e+00 1.846325176302343607e-04 1.500907910667592660e-05 5.989247802062891424e-05 5.025598147767595947e-05
1.788000000000000000e+03 9.897338867187500000e+00 -4.486237049102783203e+00 1.306443882640451193e-04 6.424240382330026478e-06 4.112059104954823852e-05 -6.901433152961544693e-06
1.789000000000000000e+03 1.458018589019775391e+01 -6.309921264648437500e+00 -1.434114674339070916e-04 1.170463656308129430e-05 -3.951204780605621636e-05 3.012232082255650312e-05
1.790000000000000000e+03 1.480411815643310547e+01 -8.293196678161621094e+00 1.350586826447397470e-04 1.987288487725891173e-05 4.647946843761019409e-05 6.674170435871928930e-05
1.791000000000000000e+03 2.679047584533691406e+01 -7.011697769165039062e+00 -7.154259085655212402e-01 -1.198831424117088318e-01 -2.505927085876464844e-01 4.860663115978240967e-01
1.792000000000000000e+03 4.680030822753906250e+00 -4.582767486572265625e+00 2.782201772788539529e-05 -9.280127414967864752e-05 -1.949377656274009496e-05 -5.261332262307405472e-05
1.793000000000000000e+03 2.537746810913085938e+01 -6.409637451171875000e+00 -7.680809497833251953e-01 -2.469583153724670410e-01 -3.045117855072021484e-01 5.410673022270202637e-01
1.794000000000000000e+03 2.592498970031738281e+01 -6.022133827209472656e+00 -7.749984264373779297e-01 -1.689536422491073608e-01 -2.831856310367584229e-01 5.038439631462097168e-01
1.795000000000000000e+03 8.510259628295898438e+00 -4.368453979492187500e+00 7.966232806211337447e-05 2.654476338648237288e-05 3.186212779837660491e-05 1.437279024685267359e-06
1.796000000000000000e+03 8.877863883972167969e+00 -5.695416927337646484e+00 -2.253401617053896189e-04 -1.635334592720028013e-05 -7.250805356306955218e-05 1.004083533189259470e-04
1.797000000000000000e+03 7.896681785583496094e+00 -5.237874507904052734e+00 1.507896959083154798e-04 -1.406934870828990825e-06 4.481482756091281772e-05 -1.048956892191199586e-05
1.798000000000000000e+03 7.075788021087646484e+00 -4.561855792999267578e+00 5.459095700643956661e-05 3.754212912099319510e-06 1.750355113472323865e-05 3.701189052662812173e-05
1.799000000000000000e+03 5.986534595489501953e+00 -5.330218791961669922e+00 -6.666071567451581359e-05 -1.259694981854408979e-04 -5.778906415798701346e-05 6.344845314742997289e-05
1.800000000000000000e+03 2.940224647521972656e+01 -1.180842304229736328e+01 -4.759479761123657227e-01 -5.008032172918319702e-02 -1.578084826469421387e-01 3.545590341091156006e-01
1.801000000000000000e+03 2.496177864074707031e+01 -5.753248214721679688e+00 -8.152481913566589355e-01 -2.671777904033660889e-01 -3.247278034687042236e-01 5.480773448944091797e-01
1.802000000000000000e+03 2.392303848266601562e+01 6.204831600189208984e-01 -4.645745456218719482e-01 2.446527220308780670e-02 -1.320327818393707275e-01 2.803984880447387695e-01
1.803000000000000000e+03 1.355204582214355469e+01 3.403857946395874023e+00 -4.991800189018249512e-01 -7.391388416290283203e-01 -3.714956641197204590e-01 5.533486604690551758e-01
1.804000000000000000e+03 1.202045440673828125e+01 -5.243169307708740234e+00 -1.610422186786308885e-04 1.060568411048734561e-05 -4.513095700531266630e-05 4.787022135133156553e-06
1.805000000000000000e+03 9.746806144714355469e+00 -5.240240097045898438e+00 -2.103242586599662900e-04 4.129569060751236975e-05 -5.070857150712981820e-05 1.587683436810038984e-05
1.806000000000000000e+03 2.410147094726562500e+01 -4.388656139373779297e+00 -8.891238570213317871e-01 -2.907761931419372559e-01 -3.539700210094451904e-01 5.470809340476989746e-01
1.807000000000000000e+03 1.519741439819335938e+01 -6.700928211212158203e+00 1.705448084976524115e-04 -4.525426993495784700e-05 3.758716047741472721e-05 2.559560198278632015e-05
1.808000000000000000e+03 1.569069004058837891e+01 -7.207569122314453125e+00 -1.406269147992134094e-04 -2.679508270375663415e-06 -4.299192733014933765e-05 6.063691216695588082e-06
1.809000000000000000e+03 2.376070976257324219e+01 -2.561842203140258789e+00 -8.525969982147216797e-01 -2.000746428966522217e-01 -3.158015012741088867e-01 4.610067903995513916e-01
1.810000000000000000e+03 1.223428916931152344e+01 4.652289867401123047e+00 -5.662700533866882324e-01 -6.423831582069396973e-01 -3.625959753990173340e-01 4.695625603199005127e-01
1.811000000000000000e+03 1.135049819946289062e+01 4.844433307647705078e+00 -5.556445717811584473e-01 -4.695852994918823242e-01 -3.075689673423767090e-01 4.020415842533111572e-01
1.812000000000000000e+03 5.436645984649658203e+00 -1.037641811370849609e+01 -1.567339350003749132e-04 -8.749232802074402571e-05 -7.326788181671872735e-05 -1.680757559370249510e-04
1.813000000000000000e+03 1.249331092834472656e+01 -7.539183616638183594e+00 1.944163668667897582e-04 -1.572634801050298847e-06 5.785311805084347725e-05 4.553300095722079277e-05
1.814000000000000000e+03 3.099181556701660156e+01 -1.333082675933837891e+01 -4.544418454170227051e-01 -4.789157770574092865e-03 -1.377693116664886475e-01 2.798575758934020996e-01
1.815000000000000000e+03 2.986822128295898438e+01 -1.362625408172607422e+01 -3.929836452007293701e-01 -5.935496836900711060e-02 -1.357015818357467651e-01 2.826398313045501709e-01
1.816000000000000000e+03 7.865328311920166016e+00 5.864566802978515625e+00 -3.639569282531738281e-01 -1.993613839149475098e-01 -1.689954996109008789e-01 3.493066728115081787e-01
1.817000000000000000e+03 6.102541732788085938e+01 -3.144255876541137695e+00 -8.617489933967590332e-01 4.554762840270996094e-01 -1.218818053603172302e-01 -5.298805236816406250e-01
1.818000000000000000e+03 4.241980743408203125e+01 5.628061294555664062e+00 -2.585710883140563965e-01 5.434312820434570312e-01 8.545805513858795166e-02 1.516169011592864990e-01
1.819000000000000000e+03 4.343572616577148438e+01 4.402592658996582031e+00 -2.593409717082977295e-01 4.142200946807861328e-01 4.646373167634010315e-02 1.198645308613777161e-01
1.820000000000000000e+03 5.519095420837402344e+00 1.112882518768310547e+01 -4.976283386349678040e-02 -4.627512693405151367e-01 -1.537542343139648438e-01 4.564273953437805176e-01
1.821000000000000000e+03 1.085080623626708984e+01 9.796309471130371094e+00 -2.771499752998352051e-01 -5.721490979194641113e-01 -2.547897398471832275e-01 7.191019654273986816e-01
1.822000000000000000e+03 4.745734405517578125e+01 2.183637857437133789e+00 -1.623186022043228149e-01 1.913262754678726196e-01 8.702304214239120483e-03 2.427080273628234863e-01
1.823000000000000000e+03 3.215536880493164062e+01 -1.313218879699707031e+01 -4.992869496345520020e-01 3.911359235644340515e-02 -1.380520015954971313e-01 2.683539688587188721e-01
1.824000000000000000e+03 2.648376083374023438e+01 2.661757946014404297e+00 -3.730959445238113403e-02 4.239130765199661255e-02 1.524514518678188324e-03 1.664056181907653809e-01
1.825000000000000000e+03 2.952142906188964844e+01 -1.261515522003173828e+01 -4.387225806713104248e-01 -5.715186148881912231e-02 -1.487623304128646851e-01 3.291181921958923340e-01
1.826000000000000000e+03 6.930261230468750000e+01 -1.808989143371582031e+01 -5.373557209968566895e-01 8.774927139282226562e+00 2.471271276473999023e+00 1.681589841842651367e+00
1.827000000000000000e+03 1.306476974487304688e+01 7.448888301849365234e+00 -7.184566259384155273e-01 -9.131172895431518555e-01 -4.894721806049346924e-01 5.785100460052490234e-01
1.828000000000000000e+03 1.199937534332275391e+01 8.670248985290527344e+00 -5.008683204650878906e-01 -7.075423002243041992e-01 -3.625231981277465820e-01 6.655830740928649902e-01
1.829000000000000000e+03 4.952700424194335938e+01 -1.116312694549560547e+01 -1.166779756546020508e+00 1.297812163829803467e-01 -3.110995590686798096e-01 -1.816897839307785034e-01
1.830000000000000000e+03 4.799710464477539062e+01 -1.051378631591796875e+01 -1.084540367126464844e+00 1.963291913270950317e-01 -2.664633393287658691e-01 -6.678806245326995850e-02
1.831000000000000000e+03 3.882868194580078125e+01 9.644643783569335938e+00 1.508912909775972366e-02 7.343702316284179688e-01 2.248378098011016846e-01 4.750205278396606445e-01
1.832000000000000000e+03 7.004452514648437500e+01 -8.802911758422851562e+00 4.065649211406707764e-01 1.377437114715576172e+01 4.254281044006347656e+00 -3.098863601684570312e+00
1.833000000000000000e+03 6.928620147705078125e+01 -8.519590377807617188e+00 1.565578341484069824e+00 1.162222671508789062e+01 3.956341505050659180e+00 -3.578260898590087891e+00
1.834000000000000000e+03 5.969718551635742188e+01 1.527285861968994141e+01 6.521970033645629883e-01 3.186809539794921875e+00 1.151701927185058594e+00 -5.686085820198059082e-01
1.835000000000000000e+03 2.352161407470703125e+01 -5.935016274452209473e-01 -6.625853776931762695e-01 -8.430550247430801392e-02 -2.240672707557678223e-01 3.636003732681274414e-01
1.836000000000000000e+03 1.683692932128906250e+01 -8.948592185974121094e+00 6.028556890669278800e-05 4.988925866200588644e-05 3.305244899820536375e-05 7.278440898517146707e-05
1.837000000000000000e+03 5.802806091308593750e+01 2.007106590270996094e+01 3.397971689701080322e-01 3.046967506408691406e+00 1.016029357910156250e+00 -5.626173019409179688e-01
1.838000000000000000e+03 3.375022125244140625e+01 -1.455393218994140625e+01 -4.955438375473022461e-01 6.139794364571571350e-02 -1.302437633275985718e-01 1.964805126190185547e-01
1.839000000000000000e+03 3.494259643554687500e+01 -1.547515010833740234e+01 -4.975221157073974609e-01 6.563179939985275269e-02 -1.295670866966247559e-01 1.508334130048751831e-01
1.840000000000000000e+03 5.195323944091796875e+01 1.715458393096923828e+00 -1.356288641691207886e-01 4.253231883049011230e-01 8.690828830003738403e-02 3.865857422351837158e-01
1.841000000000000000e+03 5.437169265747070312e+01 4.087051391601562500e+00 1.053539812564849854e-01 8.804060816764831543e-01 2.957280278205871582e-01 2.793076932430267334e-01
1.842000000000000000e+03 1.345072078704833984e+01 5.174352169036865234e+00 -6.045740842819213867e-01 -9.410583376884460449e-01 -4.636897146701812744e-01 5.610096454620361328e-01
1.843000000000000000e+03 1.251501464843750000e+01 5.508750915527343750e+00 -6.383122801780700684e-01 -7.168818712234497070e-01 -4.065582454204559326e-01 4.696843922138214111e-01
1.844000000000000000e+03 1.067581844329833984e+01 -9.321220397949218750e+00 -3.292901965323835611e-04 -1.036133180605247617e-04 -1.298710558330640197e-04 2.358261190238408744e-05
1.845000000000000000e+03 9.599421501159667969e+00 -8.910426139831542969e+00 2.508946345187723637e-04 1.610124745639041066e-04 1.235721283592283726e-04 -5.458410214487230405e-06
1.846000000000000000e+03 2.264640808105468750e+01 1.201919317245483398e+00 -4.238004386425018311e-01 1.903773285448551178e-02 -1.214288100600242615e-01 3.685984015464782715e-01
1.847000000000000000e+03 5.123553085327148438e+01 -8.781756401062011719e+00 -1.299297094345092773e+00 2.170217186212539673e-01 -3.246825933456420898e-01 -9.697252511978149414e-02
1.848000000000000000e+03 9.667199134826660156e+00 5.897713184356689453e+00 -4.968177378177642822e-01 -3.131583333015441895e-01 -2.429928332567214966e-01 4.274197220802307129e-01
1.849000000000000000e+03 6.586843109130859375e+01 -3.629491090774536133e+00 -1.070491075515747070e+00 2.900681257247924805e+00 5.490571260452270508e-01 -2.946955442428588867e+00
1.850000000000000000e+03 1.056359004974365234e+01 1.308714771270751953e+01 2.177720516920089722e-01 -5.921573638916015625e-01 -1.123155951499938965e-01 6.499509215354919434e-01
1.851000000000000000e+03 3.080178737640380859e+00 6.829327583312988281e+00 -7.901570200920104980e-02 -1.537616103887557983e-01 -6.983319669961929321e-02 1.598109304904937744e-01
1.852000000000000000e+03 5.018965911865234375e+01 -9.476803779602050781e+00 -1.239375710487365723e+00 2.040266096591949463e-01 -3.106047213077545166e-01 -1.003410816192626953e-01
1.853000000000000000e+03 4.188278579711914062e+01 2.167635536193847656e+01 3.206613957881927490e-01 9.918884038925170898e-01 3.937649428844451904e-01 3.220405876636505127e-01
1.854000000000000000e+03 4.266980361938476562e+01 2.010647010803222656e+01 2.732073068618774414e-01 1.139396786689758301e+00 4.237812161445617676e-01 3.709025979042053223e-01
1.855000000000000000e+03 7.118008422851562500e+01 -2.636137580871582031e+01 -7.335842847824096680e-01 7.458229064941406250e+00 2.017393350601196289e+00 1.043785661458969116e-01
1.856000000000000000e+03 7.264456939697265625e+01 -2.315130424499511719e+01 -9.899213314056396484e-01 8.604613304138183594e+00 2.284407615661621094e+00 -4.006584882736206055e-01
1.857000000000000000e+03 6.783477020263671875e+01 -2.405589485168457031e+01 -8.654544353485107422e-01 5.775175094604492188e+00 1.472916245460510254e+00 6.625183224678039551e-01
1.858000000000000000e+03 3.576040649414062500e+01 -1.683244705200195312e+01 -4.732636511325836182e-01 4.432853311300277710e-02 -1.286805421113967896e-01 9.152594208717346191e-02
1.859000000000000000e+03 3.714857864379882812e+01 -1.477649116516113281e+01 -5.895901322364807129e-01 1.026030629873275757e-01 -1.460961252450942993e-01 1.199874579906463623e-01
1.860000000000000000e+03 2.062999153137207031e+01 1.079163670539855957e+00 -5.001846551895141602e-01 -2.652905583381652832e-01 -2.296425700187683105e-01 6.434147357940673828e-01
1.861000000000000000e+03 1.675896644592285156e+01 -9.843748092651367188e+00 3.005239932463155128e-06 -6.771095650037750602e-05 -1.941171467478852719e-05 -5.914511712035164237e-05
1.862000000000000000e+03 1.213088226318359375e+01 -2.874993896484375000e+01 -4.730102955363690853e-05 -2.631125680636614561e-04 -9.312407928518950939e-05 5.674478597939014435e-04
1.863000000000000000e+03 1.224317455291748047e+01 -2.529066848754882812e+01 1.290518790483474731e-03 -4.278850610717199743e-05 3.743190900422632694e-04 2.891511539928615093e-04
1.864000000000000000e+03 6.965348052978515625e+01 -7.424236297607421875e+00 -4.571090936660766602e-01 1.115029335021972656e+01 3.207955121994018555e+00 -1.567864656448364258e+00
1.865000000000000000e+03 7.094266510009765625e+01 -5.717774868011474609e+00 -1.717979550361633301e+00 1.072591686248779297e+01 2.702381372451782227e+00 -6.877316236495971680e-01
1.866000000000000000e+03 5.533618164062500000e+01 -8.054452896118164062e+00 -1.753963947296142578e+00 1.334526538848876953e-01 -4.861533939838409424e-01 -3.089292347431182861e-01
1.867000000000000000e+03 5.283112716674804688e+01 -8.019581794738769531e+00 -1.431540369987487793e+00 2.309143841266632080e-01 -3.601877987384796143e-01 -9.433337301015853882e-02
1.868000000000000000e+03 5.787112712860107422e+00 -1.420408248901367188e+01 5.049615283496677876e-04 4.783146505360491574e-05 1.658378896536305547e-04 1.013040673569776118e-06
1.869000000000000000e+03 4.027043533325195312e+01 -1.326703262329101562e+01 -7.170161604881286621e-01 1.540891081094741821e-01 -1.688781231641769409e-01 8.329012989997863770e-02
1.870000000000000000e+03 4.138233566284179688e+01 -1.303598308563232422e+01 -7.593263387680053711e-01 1.583247482776641846e-01 -1.803004741668701172e-01 5.954539030790328979e-02
1.871000000000000000e+03 2.357167625427246094e+01 1.602877140045166016e+00 -2.989505827426910400e-01 9.637817740440368652e-02 -6.077172607183456421e-02 2.615303695201873779e-01
1.872000000000000000e+03 6.748558044433593750e+01 -2.178114318847656250e+01 -6.783395409584045410e-01 5.842240333557128906e+00 1.549170255661010742e+00 9.787802696228027344e-01
1.873000000000000000e+03 6.819594573974609375e+01 -2.050019836425781250e+01 -6.379303932189941406e-01 6.711983680725097656e+00 1.822215914726257324e+00 1.143157720565795898e+00
1.874000000000000000e+03 3.815184783935546875e+01 -1.473365306854248047e+01 -6.151637434959411621e-01 1.065344065427780151e-01 -1.525887995958328247e-01 9.691999852657318115e-02
1.875000000000000000e+03 7.469513702392578125e+01 3.212316131591796875e+01 5.359364300966262817e-02 5.757931709289550781e+00 1.743457674980163574e+00 -1.584033221006393433e-01
1.876000000000000000e+03 7.448772430419921875e+01 2.874597549438476562e+01 5.480357632040977478e-02 5.827467441558837891e+00 1.764681339263916016e+00 -2.271586209535598755e-01
1.877000000000000000e+03 2.967011451721191406e+01 4.532168865203857422e+00 9.441698342561721802e-02 -7.031475752592086792e-02 7.230668328702449799e-03 3.735044598579406738e-01
1.878000000000000000e+03 2.775292778015136719e+01 5.022201538085937500e+00 2.605863511562347412e-01 -1.121820285916328430e-01 4.452129825949668884e-02 3.080167472362518311e-01
1.879000000000000000e+03 7.651412200927734375e+01 -1.358532238006591797e+01 1.221418976783752441e+00 7.482096672058105469e+00 2.611054658889770508e+00 -1.147690653800964355e+00
1.880000000000000000e+03 7.669206237792968750e+01 -1.657156562805175781e+01 4.773851856589317322e-02 8.101759910583496094e+00 2.444849491119384766e+00 -1.918222188949584961e+00
1.881000000000000000e+03 7.378735351562500000e+01 -3.005392074584960938e+01 -2.700798809528350830e-01 8.144422531127929688e+00 2.362302780151367188e+00 1.369417738169431686e-02
1.882000000000000000e+03 7.116049957275390625e+01 -1.716009902954101562e+01 -1.054945230484008789e+00 1.150247383117675781e+01 3.134258747100830078e+00 3.190612494945526123e-01
1.883000000000000000e+03 5.884923934936523438e+00 -1.617380905151367188e+01 -3.269875596743077040e-04 -1.466889807488769293e-04 -1.421029592165723443e-04 1.053883606800809503e-04
1.884000000000000000e+03 4.477576732635498047e+00 -1.891249847412109375e+01 5.254786228761076927e-04 2.229354095106828026e-06 1.583123957971110940e-04 3.717875733855180442e-05
1.885000000000000000e+03 7.555582427978515625e+01 -7.123905658721923828e+00 -1.399441510438919067e-01 9.096537590026855469e+00 2.686978101730346680e+00 1.867998123168945312e+00
1.886000000000000000e+03 7.561227416992187500e+01 -2.461935806274414062e+01 -4.550624191761016846e-01 9.001907348632812500e+00 2.564053535461425781e+00 -6.256099939346313477e-01
1.887000000000000000e+03 1.194332408905029297e+01 -2.226582527160644531e+01 -8.540518319932743907e-05 -2.405462000751867890e-04 -9.778541425475850701e-05 -2.740902709774672985e-04
1.888000000000000000e+03 1.088384532928466797e+01 -2.587547492980957031e+01 -1.219665864482522011e-04 -2.629020600579679012e-04 -1.154605924966745079e-04 2.268128446303308010e-04
1.889000000000000000e+03 7.372283935546875000e+01 2.295536994934082031e+01 8.455672860145568848e-02 5.930286407470703125e+00 1.804452896118164062e+00 -3.667730689048767090e-01
1.890000000000000000e+03 7.513566589355468750e+01 2.429084396362304688e+01 5.248242616653442383e-02 6.134027957916259766e+00 1.855953216552734375e+00 -2.804381847381591797e-01
1.891000000000000000e+03 7.427005767822265625e+01 -2.825373649597167969e+01 -3.780507445335388184e-01 8.410799980163574219e+00 2.409824848175048828e+00 -1.401347517967224121e-01
1.892000000000000000e+03 7.522285461425781250e+01 1.253771972656250000e+01 5.322163924574851990e-02 6.892352104187011719e+00 2.083672046661376953e+00 -5.459399223327636719e-01
1.893000000000000000e+03 7.377232360839843750e+01 1.571448421478271484e+01 1.064444333314895630e-01 6.316810607910156250e+00 1.926976561546325684e+00 -5.555820465087890625e-01
1.894000000000000000e+03 7.518345642089843750e+01 1.697518539428710938e+01 7.174428552389144897e-02 6.556785106658935547e+00 1.988558888435363770e+00 -4.358353912830352783e-01
1.895000000000000000e+03 7.450659942626953125e+01 1.398686647415161133e+00 -6.168796420097351074e-01 8.027296066284179688e+00 2.223124980926513672e+00 -2.064925581216812134e-01
1.896000000000000000e+03 7.570748138427734375e+01 2.865184307098388672e+00 -3.294580280780792236e-01 8.071028709411621094e+00 2.322471141815185547e+00 -2.262469977140426636e-01
1.897000000000000000e+03 7.469893646240234375e+01 -2.374069392681121826e-02 -7.377166748046875000e-01 8.282457351684570312e+00 2.263422250747680664e+00 4.148200154304504395e-02
1.898000000000000000e+03 7.435404205322265625e+01 8.330740928649902344e+00 -5.851028114557266235e-02 7.046809673309326172e+00 2.096489667892456055e+00 -6.693562269210815430e-01
1.899000000000000000e+03 7.496845245361328125e+01 2.733195304870605469e+01 4.774228110909461975e-02 5.972546100616455078e+00 1.806086421012878418e+00 -2.333677262067794800e-01
1.900000000000000000e+03 7.516294860839843750e+01 2.581904602050781250e+01 4.903079196810722351e-02 6.069093227386474609e+00 1.835437297821044922e+00 -2.493365257978439331e-01
1.901000000000000000e+03 7.433049774169921875e+01 1.089446163177490234e+01 4.427101090550422668e-02 6.812462806701660156e+00 2.057020187377929688e+00 -6.391297578811645508e-01
1.902000000000000000e+03 7.312450408935546875e+01 4.157886505126953125e+00 -4.185520708560943604e-01 7.175469875335693359e+00 2.027075290679931641e+00 -7.280597090721130371e-01
1.903000000000000000e+03 7.373712921142578125e+01 1.849631118774414062e+01 1.004815921187400818e-01 6.148663997650146484e+00 1.874743700027465820e+00 -4.896222352981567383e-01
1.904000000000000000e+03 7.655874633789062500e+01 -1.059132003784179688e+01 1.243847131729125977e+00 7.400688648223876953e+00 2.593360662460327148e+00 9.142937660217285156e-01
1.905000000000000000e+03 7.576191711425781250e+01 -1.029230403900146484e+01 1.622402548789978027e+00 8.488896369934082031e+00 3.033389806747436523e+00 1.316882371902465820e+00
1.906000000000000000e+03 7.428229522705078125e+01 6.984277725219726562e+00 -1.147894263267517090e-01 7.166427612304687500e+00 2.115491390228271484e+00 -6.504796743392944336e-01
1.907000000000000000e+03 7.198458862304687500e+01 -2.518604278564453125e+01 -8.289366364479064941e-01 7.987559318542480469e+00 2.147586822509765625e+00 -1.186238527297973633e-01
1.908000000000000000e+03 7.458018493652343750e+01 -2.646668815612792969e+01 -4.666310846805572510e-01 8.629254341125488281e+00 2.448786973953247070e+00 -3.326097726821899414e-01
1.909000000000000000e+03 7.400841522216796875e+01 -1.468020796775817871e+00 -1.018857121467590332e+00 8.572225570678710938e+00 2.266010522842407227e+00 1.975082159042358398e-01
1.910000000000000000e+03 7.183148956298828125e+01 3.563003921508789062e+01 9.145111590623855591e-02 5.232632637023925781e+00 1.597225189208984375e+00 -1.477742195129394531e-01
1.911000000000000000e+03 7.287299346923828125e+01 -2.014245605468750000e+01 -1.129359960556030273e+00 9.624421119689941406e+00 2.548518419265747070e+00 -7.716558575630187988e-01
1.912000000000000000e+03 7.446527862548828125e+01 -6.449402332305908203e+00 -7.028470039367675781e-01 1.002374362945556641e+01 2.796268939971923828e+00 1.551442027091979980e+00
1.913000000000000000e+03 7.438758850097656250e+01 4.229217052459716797e+00 -3.222895264625549316e-01 7.523572444915771484e+00 2.160384893417358398e+00 -5.217151641845703125e-01
1.914000000000000000e+03 7.365952301025390625e+01 1.433196353912353516e+01 1.061551868915557861e-01 6.362959384918212891e+00 1.940734386444091797e+00 -6.200654506683349609e-01
1.915000000000000000e+03 7.396521759033203125e+01 1.215494537353515625e+01 7.356709241867065430e-02 6.594276428222656250e+00 2.000353097915649414e+00 -6.512804627418518066e-01
1.916000000000000000e+03 7.280921936035156250e+01 -3.231023406982421875e+01 -1.439762860536575317e-01 7.581118106842041016e+00 2.231142520904541016e+00 1.571309864521026611e-01
1.917000000000000000e+03 7.374256134033203125e+01 2.144076156616210938e+01 9.380611777305603027e-02 5.998120307922363281e+00 1.827577948570251465e+00 -4.083996117115020752e-01
1.918000000000000000e+03 7.665695190429687500e+01 -9.404997825622558594e+00 6.592207551002502441e-01 7.525730609893798828e+00 2.455485343933105469e+00 1.480256438255310059e+00
1.919000000000000000e+03 7.467182159423828125e+01 -2.159582901000976562e+01 -8.281472921371459961e-01 9.191941261291503906e+00 2.509138107299804688e+00 -1.081722140312194824e+00
1.920000000000000000e+03 7.389060211181640625e+01 3.014068984985351562e+01 6.746722012758255005e-02 5.699994087219238281e+00 1.730238437652587891e+00 -2.157732248306274414e-01
1.921000000000000000e+03 6.264714241027832031e+00 -2.885603713989257812e+01 -2.836899366229772568e-04 1.005766753223724663e-04 -5.493398202816024423e-05 4.143341793678700924e-04
1.922000000000000000e+03 7.507186126708984375e+01 -2.764505004882812500e+01 -3.310837745666503906e-01 8.706259727478027344e+00 2.512552738189697266e+00 -2.641021311283111572e-01
1.923000000000000000e+03 5.772020339965820312e+01 -4.908237934112548828e+00 -1.518498659133911133e+00 2.581340372562408447e-01 -3.781093657016754150e-01 -1.445771660655736923e-02
1.924000000000000000e+03 5.742109298706054688e+01 -6.706575393676757812e+00 -1.957476139068603516e+00 1.363733559846878052e-01 -5.463308095932006836e-01 -2.761279642581939697e-01
1.925000000000000000e+03 7.495201873779296875e+01 -2.600750207901000977e+00 -9.289372563362121582e-01 8.825163841247558594e+00 2.368868112564086914e+00 6.718076467514038086e-01
1.926000000000000000e+03 5.103111267089843750e+00 2.741698455810546875e+01 2.361731603741645813e-02 -1.008420586585998535e+00 -2.954409718513488770e-01 8.201346546411514282e-02
1.927000000000000000e+03 4.798354148864746094e+00 -2.709072303771972656e+01 5.897604860365390778e-04 5.889563908567652106e-05 1.945968397194519639e-04 9.084554221772123128e-06
1.928000000000000000e+03 7.501447296142578125e+01 -1.966861724853515625e+01 -7.768910527229309082e-01 9.427825927734375000e+00 2.595280408859252930e+00 -1.513351917266845703e+00
1.929000000000000000e+03 7.429068756103515625e+01 -2.042221260070800781e+01 -9.072093367576599121e-01 9.438346862792968750e+00 2.559341192245483398e+00 -1.223222613334655762e+00
1.930000000000000000e+03 4.243319034576416016e+00 -1.056787681579589844e+01 3.663884708657860756e-04 8.768775842327158898e-06 1.125471681007184088e-04 1.014959416352212429e-04
1.931000000000000000e+03 4.181893348693847656e+00 -1.189852809906005859e+01 -4.922843654640018940e-04 6.897038110764697194e-05 -1.269941858481615782e-04 -1.300757430726662278e-04
1.932000000000000000e+03 7.314037322998046875e+01 -3.568111038208007812e+01 -6.785538978874683380e-03 7.602026462554931641e+00 2.278572320938110352e+00 1.221288964152336121e-01
1.933000000000000000e+03 5.794015884399414062e+00 -2.245137786865234375e+01 5.683657946065068245e-04 6.855566607555374503e-05 1.910764403874054551e-04 1.217389653902500868e-04
1.934000000000000000e+03 6.275046825408935547e+00 2.376957893371582031e+01 6.708909571170806885e-02 -8.607364296913146973e-01 -2.380941957235336304e-01 1.427701115608215332e-01
1.935000000000000000e+03 6.446411132812500000e+00 -2.064138793945312500e+01 1.652910868870094419e-04 -1.961047200893517584e-05 4.370418537291698158e-05 1.214369767694734037e-04
1.936000000000000000e+03 5.144122123718261719e+00 -1.239631843566894531e+01 1.320787851000204682e-04 1.856868948379997164e-05 4.519424328464083374e-05 -1.397423329763114452e-04
1.937000000000000000e+03 1.194386482238769531e+01 1.735956764221191406e+01 4.545869231224060059e-01 -4.286564886569976807e-01 7.779129780828952789e-03 3.052252233028411865e-01
1.938000000000000000e+03 1.024767780303955078e+01 1.624469375610351562e+01 3.631669878959655762e-01 -5.855004787445068359e-01 -6.670005619525909424e-02 4.181512296199798584e-01
1.939000000000000000e+03 8.865537643432617188e+00 1.592113971710205078e+01 2.923695445060729980e-01 -6.412496566772460938e-01 -1.046640276908874512e-01 4.527443051338195801e-01
1.940000000000000000e+03 5.251474857330322266e+00 1.647170829772949219e+01 1.182137653231620789e-01 -7.467079162597656250e-01 -1.885482519865036011e-01 3.467470705509185791e-01
1.941000000000000000e+03 4.387955665588378906e+00 -2.023518562316894531e+01 -5.542114959098398685e-04 9.922729077516123652e-05 -1.364952477160841227e-04 -8.352377335540950298e-06
1.942000000000000000e+03 5.775560379028320312e+00 -1.899022865295410156e+01 -4.261075227987021208e-04 5.585435064858756959e-05 -1.110759549192152917e-04 2.030244468187447637e-05
1.943000000000000000e+03 4.142974376678466797e+00 1.507006645202636719e+01 5.608355998992919922e-02 -7.079951167106628418e-01 -1.955734640359878540e-01 3.338983952999114990e-01
1.944000000000000000e+03 4.157240867614746094e+00 2.009149932861328125e+01 6.892749667167663574e-02 -9.279145002365112305e-01 -2.576960921287536621e-01 1.782775223255157471e-01
1.945000000000000000e+03 8.106018066406250000e+00 -2.586197471618652344e+01 1.580494426889345050e-04 -3.063207550439983606e-04 -4.448139588930644095e-05 3.573604335542768240e-04
1.946000000000000000e+03 7.223965167999267578e+00 2.492539787292480469e+01 6.700231134891510010e-02 -8.081941604614257812e-01 -2.223575562238693237e-01 1.365817040205001831e-01
1.947000000000000000e+03 1.092949771881103516e+01 -2.297003555297851562e+01 5.749852862209081650e-04 1.375289139105007052e-04 2.137542614946141839e-04 1.788916124496608973e-04
1.948000000000000000e+03 7.056356906890869141e+00 3.033962821960449219e+01 2.121314778923988342e-02 -8.998884558677673340e-01 -2.636026144027709961e-01 9.138191491365432739e-02
1.949000000000000000e+03 6.205188751220703125e+00 1.710100746154785156e+01 1.570068448781967163e-01 -7.488517761230468750e-01 -1.775534749031066895e-01 3.489916622638702393e-01
1.950000000000000000e+03 5.420413017272949219e+00 1.384178829193115234e+01 5.997887253761291504e-02 -6.236276030540466309e-01 -1.690946221351623535e-01 4.371049702167510986e-01
1.951000000000000000e+03 5.587498664855957031e+00 -2.131860923767089844e+01 -5.297485622577369213e-04 7.902186189312487841e-05 -1.352180115645751357e-04 2.802411654556635767e-05
1.952000000000000000e+03 5.527141571044921875e+00 2.105248832702636719e+01 9.030944108963012695e-02 -8.661264181137084961e-01 -2.327450960874557495e-01 1.902859359979629517e-01
1.953000000000000000e+03 6.164520740509033203e+00 1.913375091552734375e+01 1.367498934268951416e-01 -7.936952114105224609e-01 -1.970836073160171509e-01 2.613364160060882568e-01
1.954000000000000000e+03 5.272822380065917969e+00 1.984513664245605469e+01 1.014428436756134033e-01 -8.533201813697814941e-01 -2.255631983280181885e-01 2.137707322835922241e-01
1.955000000000000000e+03 5.246675014495849609e+00 3.346942520141601562e+01 2.412169612944126129e-02 -1.079285502433776855e+00 -3.165491521358489990e-01 4.980119317770004272e-02
1.956000000000000000e+03 9.596696853637695312e+00 -3.566676712036132812e+01 1.524286490166559815e-04 4.435598384588956833e-04 1.787965447874739766e-04 5.365177639760077000e-04
1.957000000000000000e+03 7.031960010528564453e+00 -3.331449127197265625e+01 -5.697391461580991745e-04 4.589451418723911047e-04 -3.323820419609546661e-05 5.947242025285959244e-04
1.958000000000000000e+03 1.505073451995849609e+01 -3.111005973815917969e+01 1.624016324058175087e-03 3.708371514221653342e-05 4.983299877494573593e-04 1.351271755993366241e-03
1.959000000000000000e+03 6.455249786376953125e+00 2.734598541259765625e+01 3.171445056796073914e-02 -9.032116532325744629e-01 -2.614491581916809082e-01 1.018859818577766418e-01
1.960000000000000000e+03 5.736617565155029297e+00 -2.769956016540527344e+01 5.742519861087203026e-04 1.501071965321898460e-04 2.173077518818899989e-04 3.540119796525686979e-04
1.961000000000000000e+03 5.545586776733398438e+01 1.562911987304687500e+00 -1.527844667434692383e-01 7.943078279495239258e-01 1.924570053815841675e-01 2.004151642322540283e-01
1.962000000000000000e+03 5.372431755065917969e+00 9.810159683227539062e+00 -1.073094382882118225e-01 -3.680578470230102539e-01 -1.426101773977279663e-01 4.251265823841094971e-01
1.963000000000000000e+03 4.134545803070068359e+00 9.734782218933105469e+00 -6.549397855997085571e-02 -3.602132797241210938e-01 -1.277121752500534058e-01 3.318973779678344727e-01
1.964000000000000000e+03 6.900141716003417969e+00 1.137947368621826172e+01 -5.431544035673141479e-02 -4.738748967647552490e-01 -1.584571003913879395e-01 5.414247512817382812e-01
1.965000000000000000e+03 4.249538421630859375e+00 -1.311474800109863281e+01 5.493615171872079372e-04 -1.191657211165875196e-04 1.290587388211861253e-04 1.513511524535715580e-04
1.966000000000000000e+03 5.385250091552734375e+01 -7.406000137329101562e+00 -1.506443023681640625e+00 2.386129200458526611e-01 -3.803490400314331055e-01 -9.214323014020919800e-02
1.967000000000000000e+03 5.638235855102539062e+01 -7.439037322998046875e+00 -1.905307888984680176e+00 1.364716589450836182e-01 -5.306508541107177734e-01 -2.938560843467712402e-01
1.968000000000000000e+03 3.932765579223632812e+01 1.379392147064208984e+01 3.804776072502136230e-01 8.913961648941040039e-01 3.815621137619018555e-01 4.069134294986724854e-01
1.969000000000000000e+03 3.762643432617187500e+01 9.705551147460937500e+00 3.870122879743576050e-02 5.959035158157348633e-01 1.903814226388931274e-01 5.287650227546691895e-01
1.970000000000000000e+03 5.149230480194091797e+00 8.648967742919921875e+00 -1.432264596223831177e-01 -2.944563329219818115e-01 -1.313048452138900757e-01 3.560079336166381836e-01
1.971000000000000000e+03 4.820372104644775391e+00 -6.728244781494140625e+00 -2.965382009278982878e-04 5.055945439380593598e-05 -7.379362068604677916e-05 3.141718843835406005e-05
1.972000000000000000e+03 5.386293888092041016e+00 -8.131630897521972656e+00 -3.066136850975453854e-04 -1.944000905496068299e-05 -9.781611151993274689e-05 -1.407626259606331587e-04
1.973000000000000000e+03 6.689818382263183594e+00 -7.574250698089599609e+00 -2.841274254024028778e-04 -1.252224774361820891e-05 -8.899490785552188754e-05 -1.306474150624126196e-04
1.974000000000000000e+03 5.965352249145507812e+01 -5.045216560363769531e+00 -1.658366918563842773e+00 1.352247148752212524e-01 -4.569426774978637695e-01 -2.060204148292541504e-01
1.975000000000000000e+03 5.591171646118164062e+01 -3.513814926147460938e+01 3.279025256633758545e-01 3.236406147480010986e-01 1.954629421234130859e-01 -3.148542717099189758e-03
1.976000000000000000e+03 6.873831939697265625e+01 -5.668922901153564453e+00 -1.559175372123718262e+00 8.661208152770996094e+00 2.130609989166259766e+00 -2.373491287231445312e+00
1.977000000000000000e+03 6.818573760986328125e+01 -4.545913219451904297e+00 -1.954204440116882324e+00 7.365019321441650391e+00 1.623244524002075195e+00 -2.595436096191406250e+00
1.978000000000000000e+03 5.826183319091796875e+01 -2.153372764587402344e+00 -7.188247442245483398e-01 5.558426976203918457e-01 -4.889461025595664978e-02 -5.816308781504631042e-02
1.979000000000000000e+03 9.904299736022949219e+00 -2.235533332824707031e+01 5.731892888434231281e-04 -1.466991088818758726e-04 1.279470598092302680e-04 -2.621866588015109301e-04
1.980000000000000000e+03 1.161293029785156250e+01 -2.407613563537597656e+01 -3.083274714299477637e-05 -2.566844341345131397e-04 -8.625516056781634688e-05 -1.440437044948339462e-04
1.981000000000000000e+03 4.009788131713867188e+01 9.573328971862792969e+00 1.803914830088615417e-02 8.602986335754394531e-01 2.635013163089752197e-01 4.170540571212768555e-01
1.982000000000000000e+03 4.002494430541992188e+01 8.322721481323242188e+00 -1.275212913751602173e-01 7.866148948669433594e-01 1.977280825376510620e-01 3.873709142208099365e-01
1.983000000000000000e+03 2.935772323608398438e+01 9.298478126525878906e+00 -2.009625546634197235e-03 -2.101506441831588745e-01 -6.364808231592178345e-02 6.900886893272399902e-01
1.984000000000000000e+03 2.840122795104980469e+01 1.300835514068603516e+01 -3.352445662021636963e-01 -2.907993793487548828e-01 -1.878131777048110962e-01 4.682129621505737305e-01
1.985000000000000000e+03 2.921611404418945312e+01 7.153435230255126953e+00 1.907013654708862305e-01 -2.027276456356048584e-01 -3.607883583754301071e-03 5.750363469123840332e-01
1.986000000000000000e+03 4.640245437622070312e+01 -1.393286991119384766e+01 -9.016443490982055664e-01 6.272520869970321655e-02 -2.516757249832153320e-01 -1.595549732446670532e-01
1.987000000000000000e+03 1.947796249389648438e+01 -3.517309570312500000e+01 -2.914970973506569862e-04 -4.788452934008091688e-04 -2.311027201358228922e-04 1.910878694616258144e-03
1.988000000000000000e+03 2.436470794677734375e+01 -3.529578399658203125e+01 7.248997571878135204e-04 -1.953413942828774452e-03 -3.685542324092239141e-04 2.809789730235934258e-03
1.989000000000000000e+03 5.074846649169921875e+01 -3.851031875610351562e+01 4.928892254829406738e-01 -2.337668389081954956e-01 7.773671299219131470e-02 -1.695510596036911011e-01
1.990000000000000000e+03 5.120743179321289062e+01 -3.528575515747070312e+01 1.875392645597457886e-01 -3.395299911499023438e-01 -4.559721797704696655e-02 -3.125104904174804688e-01
1.991000000000000000e+03 1.370950984954833984e+01 1.856634330749511719e+01 4.083573818206787109e-01 -1.735799759626388550e-01 7.043322920799255371e-02 2.250875830650329590e-01
1.992000000000000000e+03 1.404947662353515625e+01 1.734913444519042969e+01 5.844212174415588379e-01 -7.705490291118621826e-02 1.522098928689956665e-01 2.407698631286621094e-01
1.993000000000000000e+03 4.648201751708984375e+01 2.632499217987060547e+00 -1.891743838787078857e-01 1.947054564952850342e-01 1.659323344938457012e-03 2.102987915277481079e-01
1.994000000000000000e+03 5.018489456176757812e+01 1.723789572715759277e+00 -1.413965076208114624e-01 2.778280377388000488e-01 4.092945531010627747e-02 3.681439161300659180e-01
1.995000000000000000e+03 2.884177017211914062e+01 1.616117858886718750e+01 -9.060125052928924561e-02 -2.778709530830383301e-01 -1.105416640639305115e-01 2.401383221149444580e-01
1.996000000000000000e+03 1.692895889282226562e+01 2.050191497802734375e+01 2.144094705581665039e-01 6.908590346574783325e-02 8.504860848188400269e-02 4.421488642692565918e-01
1.997000000000000000e+03 3.739739990234375000e+01 1.313928318023681641e+01 2.418656796216964722e-01 6.126207113265991211e-01 2.563459277153015137e-01 4.301510453224182129e-01
1.998000000000000000e+03 7.965141773223876953e+00 -2.314465522766113281e+01 -2.224361378466710448e-05 1.804047933546826243e-04 4.744835314340889454e-05 -2.960767887998372316e-04
1.999000000000000000e+03 5.730942153930664062e+01 7.448732852935791016e+00 2.919521033763885498e-01 2.041038990020751953e+00 6.998973488807678223e-01 -1.979379653930664062e-01
2.000000000000000000e+03 1.816713523864746094e+01 2.136018943786621094e+01 1.917596906423568726e-01 -1.014049071818590164e-02 5.448576062917709351e-02 5.257568359375000000e-01
2.001000000000000000e+03 6.736085510253906250e+01 -2.580107307434082031e+01 -7.409982085227966309e-01 5.336648464202880859e+00 1.378695130348205566e+00 5.970205068588256836e-01
2.002000000000000000e+03 4.600919723510742188e+01 -1.261930561065673828e+01 -9.350671768188476562e-01 1.334974914789199829e-01 -2.404709011316299438e-01 -9.959188103675842285e-02
2.003000000000000000e+03 4.913427734375000000e+01 2.448299789428710938e+01 7.060419917106628418e-01 1.031617522239685059e+00 5.212978720664978027e-01 -4.449903219938278198e-02
2.004000000000000000e+03 4.601887893676757812e+01 2.756223487854003906e+01 6.224662661552429199e-01 1.046306133270263672e+00 5.006317496299743652e-01 1.218827962875366211e-01
2.005000000000000000e+03 5.016828155517578125e+01 2.337602233886718750e+01 6.998171806335449219e-01 1.016121387481689453e+00 5.147815942764282227e-01 -1.564964652061462402e-01
2.006000000000000000e+03 3.899598312377929688e+01 1.822391891479492188e+01 3.445212244987487793e-01 8.825361132621765137e-01 3.681172132492065430e-01 2.018692791461944580e-01
2.007000000000000000e+03 1.320353984832763672e+01 1.678883743286132812e+01 5.689364075660705566e-01 -3.157861232757568359e-01 7.594507932662963867e-02 3.203323185443878174e-01
2.008000000000000000e+03 7.494894027709960938e+00 2.056158638000488281e+01 1.652168780565261841e-01 -7.362063527107238770e-01 -1.712968498468399048e-01 2.414785176515579224e-01
2.009000000000000000e+03 4.143330764770507812e+01 2.032894897460937500e+01 2.746860682964324951e-01 1.037602186203002930e+00 3.936864733695983887e-01 2.879988849163055420e-01
2.010000000000000000e+03 3.998591995239257812e+01 2.032208633422851562e+01 2.897456586360931396e-01 9.470244646072387695e-01 3.710310459136962891e-01 2.366952449083328247e-01
2.011000000000000000e+03 4.443729019165039062e+01 -1.196403789520263672e+01 -8.785529732704162598e-01 1.803668290376663208e-01 -2.094558328390121460e-01 -1.014394336380064487e-03
2.012000000000000000e+03 3.108385848999023438e+01 -3.865485000610351562e+01 -7.397180888801813126e-03 -2.103076502680778503e-02 -8.528383448719978333e-03 -8.766071870923042297e-03
2.013000000000000000e+03 4.170346832275390625e+01 7.324265480041503906e+00 -2.169860601425170898e-01 7.162929773330688477e-01 1.497920751571655273e-01 2.006039470434188843e-01
2.014000000000000000e+03 5.046905136108398438e+01 2.585268974304199219e+01 6.972416043281555176e-01 1.320595145225524902e+00 6.053510308265686035e-01 -1.559923887252807617e-01
2.015000000000000000e+03 7.440547943115234375e+00 -2.132046127319335938e+01 3.394138911971822381e-05 1.380440371576696634e-04 5.159562715562060475e-05 -1.890449202619493008e-04
2.016000000000000000e+03 3.939628601074218750e+01 -3.700964355468750000e+01 6.126397754997014999e-03 -1.281849592924118042e-01 -3.661756962537765503e-02 -1.084630116820335388e-01
2.017000000000000000e+03 1.740616035461425781e+01 -3.423574447631835938e+01 7.000945624895393848e-04 6.656860205112025142e-05 2.299989573657512665e-04 2.753752283751964569e-03
2.018000000000000000e+03 5.783045959472656250e+01 -3.452077484130859375e+01 3.159083127975463867e-01 7.074292302131652832e-01 3.070012629032135010e-01 6.777303665876388550e-02
2.019000000000000000e+03 6.764155387878417969e+00 -1.223830032348632812e+01 2.321875799680128694e-04 -7.951119914650917053e-05 4.580291715683415532e-05 -3.217905468773096800e-04
2.020000000000000000e+03 6.967923641204833984e+00 -1.076294136047363281e+01 7.633955101482570171e-05 -4.782276300829835236e-05 8.555035492463503033e-06 -1.870053674792870879e-04
2.021000000000000000e+03 5.989669418334960938e+01 1.336273002624511719e+01 6.361438035964965820e-01 3.142630577087402344e+00 1.133632302284240723e+00 -6.104789376258850098e-01
2.022000000000000000e+03 1.430544948577880859e+01 -2.949444770812988281e+01 3.846729232463985682e-04 -6.354963406920433044e-04 -7.524702959926798940e-05 7.168654701672494411e-04
2.023000000000000000e+03 2.813937759399414062e+01 2.117053031921386719e+01 3.319711387157440186e-01 -2.333944737911224365e-01 2.957299537956714630e-02 2.783436179161071777e-01
2.024000000000000000e+03 2.721865272521972656e+01 1.917595100402832031e+01 2.343516498804092407e-01 -4.173055291175842285e-01 -5.488616973161697388e-02 2.791206836700439453e-01
2.025000000000000000e+03 7.197685241699218750e+01 4.096568679809570312e+01 9.591160714626312256e-02 5.298362255096435547e+00 1.618282198905944824e+00 -2.195453457534313202e-02
2.026000000000000000e+03 2.496432685852050781e+01 2.029185676574707031e+01 3.217208683490753174e-01 -4.950064420700073242e-01 -5.198567360639572144e-02 4.398124217987060547e-01
2.027000000000000000e+03 5.690422058105468750e+01 6.327925205230712891e+00 2.223952412605285645e-01 1.813158273696899414e+00 6.106660366058349609e-01 -6.809220463037490845e-02
2.028000000000000000e+03 5.897217559814453125e+01 7.892179965972900391e+00 3.459435403347015381e-01 2.405093193054199219e+00 8.253110051155090332e-01 -4.806276261806488037e-01
2.029000000000000000e+03 7.205233764648437500e+01 -1.339956951141357422e+01 4.672441005706787109e+00 1.506831455230712891e+01 5.922226905822753906e+00 -2.470190048217773438e+00
2.030000000000000000e+03 7.183358001708984375e+01 -1.040725421905517578e+01 2.828654289245605469e+00 1.601871681213378906e+01 5.654211044311523438e+00 1.949136018753051758e+00
2.031000000000000000e+03 7.133980560302734375e+01 -1.017421531677246094e+01 1.504364132881164551e+00 1.729575347900390625e+01 5.640035629272460938e+00 1.016842842102050781e+00
2.032000000000000000e+03 7.157745361328125000e+01 -1.029586124420166016e+01 2.145839691162109375e+00 1.681381797790527344e+01 5.687897205352783203e+00 1.535412430763244629e+00
2.033000000000000000e+03 7.049957275390625000e+01 -1.004101943969726562e+01 2.258848026394844055e-02 1.780928230285644531e+01 5.349561214447021484e+00 -2.153715610504150391e+00
2.034000000000000000e+03 7.238024139404296875e+01 -1.285950469970703125e+01 6.108023166656494141e+00 1.363549232482910156e+01 5.923054695129394531e+00 -1.720702528953552246e+00
2.035000000000000000e+03 7.270489501953125000e+01 -1.276272201538085938e+01 5.687309741973876953e+00 1.294309520721435547e+01 5.589121341705322266e+00 -1.382636547088623047e+00
2.036000000000000000e+03 7.279192352294921875e+01 -1.131792449951171875e+01 5.052015304565429688e+00 1.277931976318359375e+01 5.349400520324707031e+00 1.301982641220092773e+00
2.037000000000000000e+03 7.252838897705078125e+01 -1.087410449981689453e+01 4.304350852966308594e+00 1.379991436004638672e+01 5.431279659271240234e+00 1.946258425712585449e+00
2.038000000000000000e+03 7.133123016357421875e+01 -1.547145271301269531e+01 -4.274269938468933105e-01 1.415131950378417969e+01 4.117167949676513672e+00 -1.097954437136650085e-01
2.039000000000000000e+03 6.997916412353515625e+01 -1.637175559997558594e+01 -5.660772919654846191e-01 1.119511318206787109e+01 3.188710689544677734e+00 2.179817676544189453e+00
2.040000000000000000e+03 6.949407196044921875e+01 -1.583733844757080078e+01 -7.458732277154922485e-02 1.072264385223388672e+01 3.194416999816894531e+00 3.254759550094604492e+00
2.041000000000000000e+03 7.157503509521484375e+01 -1.481155872344970703e+01 3.936738669872283936e-01 1.521663570404052734e+01 4.683092594146728516e+00 -1.019823431968688965e+00
2.042000000000000000e+03 7.086699676513671875e+01 -1.452732086181640625e+01 1.274182796478271484e-01 1.663923645019531250e+01 5.029996395111083984e+00 4.624885022640228271e-01
2.043000000000000000e+03 2.913478660583496094e+01 -9.085504531860351562e+00 -6.141962409019470215e-01 -1.186865940690040588e-02 -1.878194659948348999e-01 4.199313223361968994e-01
2.044000000000000000e+03 5.306861400604248047e+00 4.741054534912109375e+00 -1.854986697435379028e-01 -9.085434675216674805e-02 -8.290590345859527588e-02 1.538328230381011963e-01
2.045000000000000000e+03 5.184039592742919922e+00 7.676713943481445312e+00 -1.719370335340499878e-01 -2.283042520284652710e-01 -1.200723871588706970e-01 3.153434991836547852e-01
2.046000000000000000e+03 2.768731117248535156e+01 -7.886328697204589844e+00 -6.658136844635009766e-01 -7.501779496669769287e-02 -2.222494333982467651e-01 4.620022177696228027e-01
2.047000000000000000e+03 6.976935863494873047e+00 5.799774169921875000e+00 -3.003464043140411377e-01 -1.682441085577011108e-01 -1.405771523714065552e-01 2.879266142845153809e-01
2.048000000000000000e+03 9.561872482299804688e+00 5.037216663360595703e+00 -4.763072431087493896e-01 -2.505883872509002686e-01 -2.180686891078948975e-01 3.456341922283172607e-01
2.049000000000000000e+03 6.973162651062011719e+00 4.996532440185546875e+00 -2.899760305881500244e-01 -1.364208310842514038e-01 -1.279190629720687866e-01 2.450580447912216187e-01
2.050000000000000000e+03 6.030937194824218750e+00 5.740779876708984375e+00 -2.355343401432037354e-01 -1.492371410131454468e-01 -1.154314428567886353e-01 2.520962953567504883e-01
2.051000000000000000e+03 6.894477844238281250e+01 -7.984920024871826172e+00 1.813146352767944336e+00 1.054092884063720703e+01 3.706222534179687500e+00 -2.959554195404052734e+00
2.052000000000000000e+03 7.827790737152099609e+00 5.042491912841796875e+00 -3.534891605377197266e-01 -1.538261622190475464e-01 -1.521946042776107788e-01 2.725547850131988525e-01
2.053000000000000000e+03 2.879235076904296875e+01 -8.332828521728515625e+00 -6.459451913833618164e-01 -1.105514075607061386e-02 -1.971001029014587402e-01 4.314399063587188721e-01
2.054000000000000000e+03 1.096829032897949219e+01 -5.738456249237060547e+00 -1.244704908458516002e-04 -6.056323036318644881e-05 -5.551011417992413044e-05 3.814421506831422448e-05
2.055000000000000000e+03 1.039112281799316406e+01 -5.393612384796142578e+00 1.671937643550336361e-04 -2.113056143571157008e-05 4.381896360428072512e-05 5.086641249363310635e-05
2.056000000000000000e+03 8.543286323547363281e+00 -8.518097877502441406e+00 -2.177668939111754298e-04 -1.646478340262547135e-04 -1.147244183812290430e-04 -4.684744999394752085e-05
2.057000000000000000e+03 1.175322341918945312e+01 6.645967960357666016e+00 -6.642031073570251465e-01 -5.659106969833374023e-01 -3.690341413021087646e-01 5.212881565093994141e-01
2.058000000000000000e+03 2.849216842651367188e+01 -7.570886611938476562e+00 -6.779677867889404297e-01 -8.006989955902099609e-03 -2.057924270629882812e-01 4.370602965354919434e-01
2.059000000000000000e+03 2.750110626220703125e+01 -7.026441097259521484e+00 -7.067725062370300293e-01 -6.400819867849349976e-02 -2.312342077493667603e-01 4.635691642761230469e-01
2.060000000000000000e+03 5.508358478546142578e+00 -5.953716278076171875e+00 1.786920765880495310e-04 2.754595880105625838e-05 6.187141116242855787e-05 -3.375036249053664505e-05
2.061000000000000000e+03 5.566397666931152344e+00 -4.903673648834228516e+00 4.590224853018298745e-05 5.892091576242819428e-05 3.144695074297487736e-05 -8.583359158365055919e-05
2.062000000000000000e+03 2.513019561767578125e+01 -4.715378284454345703e+00 -8.367706537246704102e-01 -1.860524415969848633e-01 -3.068469464778900146e-01 4.985514879226684570e-01
2.063000000000000000e+03 7.673731803894042969e+00 -5.971899509429931641e+00 -2.660578757058829069e-04 -5.808293735753977671e-06 -8.155985415214672685e-05 5.966187472949968651e-06
2.064000000000000000e+03 6.289944171905517578e+00 -6.354398727416992188e+00 -2.693056012503802776e-04 -4.380180143925826997e-06 -8.210573287215083838e-05 -7.946423284010961652e-05
2.065000000000000000e+03 9.564588546752929688e+00 -5.976469039916992188e+00 2.657426812220364809e-04 -3.030062907782848924e-05 7.063261728035286069e-05 -2.182546813855879009e-05
2.066000000000000000e+03 6.570391178131103516e+00 -5.552397727966308594e+00 1.201563063659705222e-04 7.712370279477909207e-05 5.918400347582064569e-05 7.773486140649765730e-05
2.067000000000000000e+03 2.629368782043457031e+01 -6.614544391632080078e+00 -7.393215298652648926e-01 -1.560893803834915161e-01 -2.686232924461364746e-01 5.013384222984313965e-01
2.068000000000000000e+03 3.274434280395507812e+01 -1.359948158264160156e+01 -5.009188055992126465e-01 5.159387737512588501e-02 -1.347974836826324463e-01 2.457487285137176514e-01
2.069000000000000000e+03 2.554189300537109375e+01 -5.377901077270507812e+00 -8.079579472541809082e-01 -1.726276129484176636e-01 -2.941756844520568848e-01 5.021430253982543945e-01
2.070000000000000000e+03 2.424736022949218750e+01 -3.103325068950653076e-01 -5.889607071876525879e-01 -2.458682656288146973e-02 -1.840642690658569336e-01 3.078661262989044189e-01
2.071000000000000000e+03 2.468980598449707031e+01 -4.032906055450439453e+00 -8.558198809623718262e-01 -1.906972378492355347e-01 -3.139551281929016113e-01 4.890000820159912109e-01
2.072000000000000000e+03 2.310387420654296875e+01 2.939188480377197266e-01 -5.496509671211242676e-01 -3.920272737741470337e-02 -1.766561120748519897e-01 3.631969988346099854e-01
2.073000000000000000e+03 7.044149780273437500e+01 -6.913805007934570312e+00 -1.042110800743103027e+00 1.150844478607177734e+01 3.139899969100952148e+00 -1.220724463462829590e+00
2.074000000000000000e+03 2.282091903686523438e+01 -9.484815597534179688e-01 -7.406179308891296387e-01 -1.756770461797714233e-01 -2.748884856700897217e-01 4.438709914684295654e-01
2.075000000000000000e+03 2.481818580627441406e+01 8.078913688659667969e-01 -4.034905731678009033e-01 4.805551096796989441e-02 -1.066305264830589294e-01 2.297399938106536865e-01
2.076000000000000000e+03 3.105927467346191406e+01 -1.090232563018798828e+01 -5.641939640045166016e-01 4.501547664403915405e-02 -1.557535380125045776e-01 3.472107648849487305e-01
2.077000000000000000e+03 2.422970390319824219e+01 -3.317034244537353516e+00 -8.628388047218322754e-01 -2.021175622940063477e-01 -3.194869160652160645e-01 4.749493002891540527e-01
2.078000000000000000e+03 2.393850898742675781e+01 -1.440253853797912598e+00 -7.422685027122497559e-01 -1.101564317941665649e-01 -2.557274997234344482e-01 3.842163980007171631e-01
2.079000000000000000e+03 8.808528900146484375e+00 8.637356758117675781e+00 -3.326596021652221680e-01 -3.546052277088165283e-01 -2.061794549226760864e-01 5.835846662521362305e-01
2.080000000000000000e+03 3.599515914916992188e+01 -1.572098445892333984e+01 -5.224999189376831055e-01 6.663339585065841675e-02 -1.367599517107009888e-01 1.254648864269256592e-01
2.081000000000000000e+03 8.536079406738281250e+00 -5.139551162719726562e+00 -4.812666156794875860e-05 -7.363922122749499977e-06 -1.664717456151265651e-05 -2.224478521384298801e-05
2.082000000000000000e+03 7.805943489074707031e+00 -4.431309223175048828e+00 -8.231824176618829370e-05 -2.076923010463360697e-05 -3.092624319833703339e-05 -1.278249328606761992e-06
2.083000000000000000e+03 3.521271896362304688e+01 -1.446591949462890625e+01 -5.376912355422973633e-01 8.347029983997344971e-02 -1.362662762403488159e-01 1.766887605190277100e-01
2.084000000000000000e+03 3.636409759521484375e+01 -1.379655551910400391e+01 -5.921566486358642578e-01 1.142969354987144470e-01 -1.433579176664352417e-01 1.700491458177566528e-01
2.085000000000000000e+03 7.543319702148437500e+01 -1.395044612884521484e+01 1.709529399871826172e+00 8.918197631835937500e+00 3.188318014144897461e+00 -1.602512121200561523e+00
2.086000000000000000e+03 7.306919097900390625e+01 -1.264955139160156250e+01 5.175315856933593750e+00 1.197400951385498047e+01 5.144797801971435547e+00 -9.740369319915771484e-01
2.087000000000000000e+03 1.219015121459960938e+01 -8.627863883972167969e+00 -2.389017754467204213e-04 -1.360812984785297886e-05 -7.575297058792784810e-05 -4.880609048996120691e-05
2.088000000000000000e+03 1.155610179901123047e+01 5.719555377960205078e+00 -6.382868885993957520e-01 -5.604970455169677734e-01 -3.596351742744445801e-01 4.631167352199554443e-01
2.089000000000000000e+03 1.191025638580322266e+01 7.627686023712158203e+00 -6.271276473999023438e-01 -6.375824809074401855e-01 -3.794130384922027588e-01 6.474521756172180176e-01
2.090000000000000000e+03 7.469513702392578125e+01 -1.174151802062988281e+01 3.091753244400024414e+00 9.504477500915527344e+00 3.778869152069091797e+00 2.341475188732147217e-01
2.091000000000000000e+03 7.078738403320312500e+01 -1.619087600708007812e+01 -8.393582105636596680e-01 1.262010574340820312e+01 3.534224271774291992e+00 9.883055090904235840e-01
2.092000000000000000e+03 6.885881805419921875e+01 -1.927091598510742188e+01 -6.174851655960083008e-01 7.745333194732666016e+00 2.138354301452636719e+00 1.344121932983398438e+00
2.093000000000000000e+03 7.586367034912109375e+01 -1.660769844055175781e+01 6.685240566730499268e-02 8.973153114318847656e+00 2.712001800537109375e+00 -2.079181671142578125e+00
2.094000000000000000e+03 2.935232734680175781e+01 1.031111240386962891e+01 -1.221134066581726074e-01 -1.605473458766937256e-01 -8.479822427034378052e-02 6.560862660408020020e-01
2.095000000000000000e+03 3.146334457397460938e+01 1.132805919647216797e+01 -9.186802059412002563e-02 5.060733854770660400e-02 -1.237820368260145187e-02 5.780298113822937012e-01
2.096000000000000000e+03 7.572676086425781250e+01 -8.256991386413574219e+00 3.501126766204833984e-01 8.853092193603515625e+00 2.760961294174194336e+00 1.919870972633361816e+00
2.097000000000000000e+03 4.676536560058593750e+01 -1.078503704071044922e+01 -1.001218080520629883e+00 2.062417268753051758e-01 -2.384928911924362183e-01 -3.342260047793388367e-02
2.098000000000000000e+03 1.048663997650146484e+01 1.488017654418945312e+01 3.764690458774566650e-01 -6.068174242973327637e-01 -6.910452246665954590e-02 5.241982936859130859e-01
2.099000000000000000e+03 1.104471302032470703e+01 1.389023971557617188e+01 3.327273130416870117e-01 -5.903644561767578125e-01 -7.729114592075347900e-02 6.054638028144836426e-01
2.100000000000000000e+03 2.950429725646972656e+01 -9.838192939758300781e+00 -5.796352624893188477e-01 -7.429634686559438705e-03 -1.761194616556167603e-01 4.007126688957214355e-01
2.101000000000000000e+03 2.907484436035156250e+01 -1.098926067352294922e+01 -5.103513002395629883e-01 -5.498756840825080872e-02 -1.696016639471054077e-01 3.861326575279235840e-01
2.102000000000000000e+03 2.186719703674316406e+01 7.493438720703125000e-01 -5.232219099998474121e-01 -1.105865314602851868e-01 -1.901425272226333618e-01 4.836063385009765625e-01
2.103000000000000000e+03 4.249038314819335938e+01 -1.277729797363281250e+01 -7.986056804656982422e-01 1.620882749557495117e-01 -1.909552216529846191e-01 3.091173060238361359e-02
2.104000000000000000e+03 4.014270401000976562e+01 -1.210951614379882812e+01 -7.387418150901794434e-01 1.838651895523071289e-01 -1.664629876613616943e-01 1.221738755702972412e-01
2.105000000000000000e+03 2.997826004028320312e+01 7.701855659484863281e+00 1.105659678578376770e-01 -1.408792287111282349e-01 -9.093979373574256897e-03 6.000408530235290527e-01
2.106000000000000000e+03 8.908347129821777344e+00 -2.390440559387207031e+01 7.864497019909322262e-04 -1.682464353507384658e-04 1.854609727161005139e-04 3.259270451962947845e-04
2.107000000000000000e+03 7.156915664672851562e+00 -6.739789962768554688e+00 2.386145788477733731e-04 4.556592830340377986e-05 8.525415614712983370e-05 6.868375930935144424e-05
2.108000000000000000e+03 7.214065551757812500e+01 -1.942858505249023438e+01 -1.220639228820800781e+00 9.934264183044433594e+00 2.614087581634521484e+00 -4.511397182941436768e-01
2.109000000000000000e+03 3.030418586730957031e+01 9.262961387634277344e+00 -1.502352301031351089e-02 -8.676959574222564697e-02 -3.053793497383594513e-02 6.482729911804199219e-01
2.110000000000000000e+03 6.603834533691406250e+01 -2.554628372192382812e+01 -7.393847107887268066e-01 4.484984874725341797e+00 1.123679995536804199e+00 7.170785665512084961e-01
2.111000000000000000e+03 7.141078186035156250e+01 -2.290567779541015625e+01 -1.072551369667053223e+00 8.248022079467773438e+00 2.152641296386718750e+00 -9.570043534040451050e-02
2.112000000000000000e+03 1.485913467407226562e+01 1.977691268920898438e+01 2.779364287853240967e-01 -4.838851839303970337e-02 6.886436790227890015e-02 2.811897099018096924e-01
2.113000000000000000e+03 1.370535469055175781e+01 1.988826179504394531e+01 2.920584082603454590e-01 -1.581350266933441162e-01 4.017701372504234314e-02 2.533859312534332275e-01
2.114000000000000000e+03 4.234981060028076172e+00 7.330978870391845703e+00 -1.242172494530677795e-01 -2.105070203542709351e-01 -1.004172787070274353e-01 2.422965764999389648e-01
2.115000000000000000e+03 1.407426071166992188e+01 -7.021708965301513672e+00 2.082875726046040654e-04 -1.687327494437340647e-05 5.742429129895754158e-05 -3.209579881513491273e-05
2.116000000000000000e+03 2.235450363159179688e+01 -1.044692546129226685e-01 -6.444457769393920898e-01 -1.491593122482299805e-01 -2.380815297365188599e-01 4.467568099498748779e-01
2.117000000000000000e+03 7.437191009521484375e+01 -5.037831783294677734e+00 -1.002165317535400391e+00 9.622559547424316406e+00 2.586118221282958984e+00 1.202310919761657715e+00
2.118000000000000000e+03 3.810343170166015625e+01 -1.358063411712646484e+01 -6.497048139572143555e-01 1.396848112344741821e-01 -1.530060023069381714e-01 1.302215456962585449e-01
2.119000000000000000e+03 6.895740509033203125e+01 -1.652029800415039062e+01 1.851417124271392822e-01 8.861952781677246094e+00 2.714128255844116211e+00 2.891683816909790039e+00
2.120000000000000000e+03 6.960464477539062500e+01 -1.710010528564453125e+01 -5.178399682044982910e-01 9.975053787231445312e+00 2.837164163589477539e+00 2.081440210342407227e+00
2.121000000000000000e+03 5.178982543945312500e+01 -6.631895542144775391e+00 -1.257702231407165527e+00 3.143545389175415039e-01 -2.830043137073516846e-01 8.392336219549179077e-02
2.122000000000000000e+03 4.966825485229492188e+01 -8.449774742126464844e+00 -1.164985537528991699e+00 2.599133551120758057e-01 -2.715216577053070068e-01 6.515887100249528885e-03
2.123000000000000000e+03 5.773427963256835938e+01 4.643737792968750000e+00 1.560738384723663330e-01 1.660385370254516602e+00 5.449377894401550293e-01 -1.874425709247589111e-01
2.124000000000000000e+03 3.747650909423828125e+01 1.198954868316650391e+01 1.751335114240646362e-01 6.233899593353271484e-01 2.395570427179336548e-01 4.813828170299530029e-01
2.125000000000000000e+03 7.300669097900390625e+01 -2.136084556579589844e+01 -1.078000664710998535e+00 9.154422760009765625e+00 2.422926425933837891e+00 -6.615616679191589355e-01
2.126000000000000000e+03 6.854613494873046875e+01 -2.261421585083007812e+01 -8.976902961730957031e-01 6.588397979736328125e+00 1.707212328910827637e+00 6.925088167190551758e-01
2.127000000000000000e+03 2.590933227539062500e+01 1.728447079658508301e+00 -1.908693611621856689e-01 6.501309573650360107e-02 -3.775687888264656067e-02 1.710262596607208252e-01
2.128000000000000000e+03 5.274779891967773438e+01 2.556986331939697266e+00 -3.991115093231201172e-02 5.305064320564270020e-01 1.471785753965377808e-01 3.791034817695617676e-01
2.129000000000000000e+03 3.917939376831054688e+01 -1.345369243621826172e+01 -6.849937438964843750e-01 1.467789113521575928e-01 -1.614644527435302734e-01 1.080027744174003601e-01
2.130000000000000000e+03 7.884814262390136719e+00 6.716814517974853516e+00 -3.536221683025360107e-01 -2.391213327646255493e-01 -1.778230518102645874e-01 3.918760418891906738e-01
2.131000000000000000e+03 1.365574741363525391e+01 -7.916657447814941406e+00 -1.907951955217868090e-04 -5.994233561068540439e-06 -5.903682904317975044e-05 -2.933893847512081265e-05
2.132000000000000000e+03 2.744462394714355469e+01 3.386779069900512695e+00 8.445829153060913086e-02 -2.892599254846572876e-02 1.665969006717205048e-02 2.037952989339828491e-01
2.133000000000000000e+03 6.954749298095703125e+01 -2.898587989807128906e+01 -5.049158930778503418e-01 6.309707164764404297e+00 1.741437315940856934e+00 3.577857613563537598e-01
2.134000000000000000e+03 7.081205749511718750e+01 -3.249084854125976562e+01 -1.683551520109176636e-01 6.687682151794433594e+00 1.955798149108886719e+00 2.544958591461181641e-01
2.135000000000000000e+03 7.052841186523437500e+01 -1.678338813781738281e+01 -8.674988150596618652e-01 1.143086051940917969e+01 3.169008493423461914e+00 1.274873614311218262e+00
2.136000000000000000e+03 7.518685150146484375e+01 -5.936509132385253906e+00 -6.411456465721130371e-01 9.355525970458984375e+00 2.614314079284667969e+00 1.613075494766235352e+00
2.137000000000000000e+03 7.218408203125000000e+01 -1.532715797424316406e+01 1.081005185842514038e-01 1.367826271057128906e+01 4.135909080505371094e+00 -1.376339554786682129e+00
2.138000000000000000e+03 7.303718566894531250e+01 -2.436298942565917969e+01 -8.348929882049560547e-01 8.442763328552246094e+00 2.282361030578613281e+00 -3.604931235313415527e-01
2.139000000000000000e+03 7.087474060058593750e+01 -2.419689178466796875e+01 -9.866738319396972656e-01 7.724294185638427734e+00 2.021286010742187500e+00 8.126446604728698730e-02
2.140000000000000000e+03 8.429881095886230469e+00 2.816543388366699219e+01 4.411441460251808167e-02 -7.679735422134399414e-01 -2.171577513217926025e-01 1.316994577646255493e-01
2.141000000000000000e+03 7.055046844482421875e+01 1.737835311889648438e+01 2.177481502294540405e-01 5.456123828887939453e+00 1.702161550521850586e+00 -6.520672440528869629e-01
2.142000000000000000e+03 7.236688232421875000e+01 1.583479976654052734e+01 1.528540402650833130e-01 5.942709922790527344e+00 1.828669190406799316e+00 -6.485354900360107422e-01
2.143000000000000000e+03 7.473680114746093750e+01 -3.895457029342651367e+00 -9.993634819984436035e-01 9.217601776123046875e+00 2.465471506118774414e+00 1.004705548286437988e+00
2.144000000000000000e+03 7.396459960937500000e+01 -5.805620670318603516e+00 -9.851876497268676758e-01 1.012277126312255859e+01 2.741275072097778320e+00 1.359729290008544922e+00
2.145000000000000000e+03 7.459568786621093750e+01 -1.816794013977050781e+01 -6.798323392868041992e-01 9.942521095275878906e+00 2.778806447982788086e+00 -1.762828469276428223e+00
2.146000000000000000e+03 7.546835327148437500e+01 -1.861643981933593750e+01 -5.401408076286315918e-01 9.330204963684082031e+00 2.637019157409667969e+00 -1.813285708427429199e+00
2.147000000000000000e+03 7.277397155761718750e+01 2.756506538391113281e+01 9.108331799507141113e-02 5.601688385009765625e+00 1.707831501960754395e+00 -3.011985421180725098e-01
2.148000000000000000e+03 7.217319488525390625e+01 2.472072410583496094e+01 1.126731187105178833e-01 5.572825431823730469e+00 1.705649495124816895e+00 -3.789658248424530029e-01
2.149000000000000000e+03 7.332338714599609375e+01 9.640795707702636719e+00 2.802128903567790985e-02 6.604337692260742188e+00 1.989707708358764648e+00 -7.317134141921997070e-01
2.150000000000000000e+03 7.363365936279296875e+01 -4.523827731609344482e-01 -9.941869974136352539e-01 8.293038368225097656e+00 2.189655303955078125e+00 -1.139587983489036560e-01
2.151000000000000000e+03 7.190113067626953125e+01 2.786725044250488281e+00 -6.398084759712219238e-01 6.994717121124267578e+00 1.906472563743591309e+00 -8.936614394187927246e-01
2.152000000000000000e+03 7.430600738525390625e+01 5.610867023468017578e+00 -2.128460705280303955e-01 7.324178218841552734e+00 2.133399486541748047e+00 -6.142807006835937500e-01
2.153000000000000000e+03 8.447370529174804688e+00 2.001007270812988281e+01 2.084804475307464600e-01 -6.685879230499267578e-01 -1.380322426557540894e-01 2.498591095209121704e-01
2.154000000000000000e+03 7.353720188140869141e+00 2.303946304321289062e+01 1.032594665884971619e-01 -7.663741707801818848e-01 -1.989344209432601929e-01 1.662848740816116333e-01
2.155000000000000000e+03 7.374361419677734375e+01 1.995512771606445312e+01 9.776063263416290283e-02 6.072035312652587891e+00 1.850938796997070312e+00 -4.501242935657501221e-01
2.156000000000000000e+03 7.089668273925781250e+01 2.720801162719726562e+01 1.289615631103515625e-01 5.314252376556396484e+00 1.632964253425598145e+00 -3.649718165397644043e-01
2.157000000000000000e+03 8.126005172729492188e+00 3.377915954589843750e+01 4.048331081867218018e-02 -8.782111406326293945e-01 -2.513183355331420898e-01 7.726901769638061523e-02
2.158000000000000000e+03 6.481788635253906250e+00 2.606328010559082031e+01 4.444529488682746887e-02 -8.804852962493896484e-01 -2.508119940757751465e-01 1.148839071393013000e-01
2.159000000000000000e+03 5.671096038818359375e+01 -5.740275382995605469e+00 -1.679173707962036133e+00 2.672317922115325928e-01 -4.235825538635253906e-01 -7.170642912387847900e-02
2.160000000000000000e+03 7.366644287109375000e+01 -2.719075012207031250e+01 -5.161285400390625000e-01 8.212905883789062500e+00 2.309033155441284180e+00 -1.975342482328414917e-01
2.161000000000000000e+03 6.978055477142333984e+00 -8.764118194580078125e+00 -1.538966607768088579e-04 5.464334026328288019e-05 -2.977599615405779332e-05 -5.391830563894473016e-05
2.162000000000000000e+03 6.887467861175537109e+00 -2.253429031372070312e+01 2.749870182015001774e-04 -2.237115695606917143e-04 1.538263677502982318e-05 2.946357999462634325e-04
2.163000000000000000e+03 6.152009010314941406e+00 -2.358035850524902344e+01 -3.256645577494055033e-04 1.604035496711730957e-04 -4.957830242346972227e-05 -1.062545634340494871e-04
2.164000000000000000e+03 7.079813957214355469e+00 1.627481269836425781e+01 1.976130157709121704e-01 -6.951910257339477539e-01 -1.492733955383300781e-01 4.061760604381561279e-01
2.165000000000000000e+03 5.409945011138916016e+00 1.521810722351074219e+01 9.678246080875396729e-02 -6.944418549537658691e-01 -1.792978197336196899e-01 3.915718793869018555e-01
2.166000000000000000e+03 6.662931919097900391e+00 1.397360897064208984e+01 9.667273610830307007e-02 -6.232489347457885742e-01 -1.579728573560714722e-01 4.858347177505493164e-01
2.167000000000000000e+03 5.467453479766845703e+00 1.249014663696289062e+01 7.759250700473785400e-03 -5.412147045135498047e-01 -1.600366383790969849e-01 4.545968174934387207e-01
2.168000000000000000e+03 5.216443061828613281e+00 1.873990058898925781e+01 1.099196895956993103e-01 -8.241108059883117676e-01 -2.142573297023773193e-01 2.555249631404876709e-01
2.169000000000000000e+03 5.262670516967773438e+00 -9.202486038208007812e+00 2.342082443647086620e-04 6.514110282296314836e-05 8.980480197351425886e-05 1.422798668500036001e-04
2.170000000000000000e+03 5.507438182830810547e+00 -2.024012374877929688e+01 5.573889939114451408e-04 -8.527878526365384459e-05 1.416330487700179219e-04 -4.009488839074037969e-05
2.171000000000000000e+03 4.434325790405273438e+01 3.120860815048217773e+00 -2.499444931745529175e-01 2.935170829296112061e-01 1.307177729904651642e-02 1.513355672359466553e-01
2.172000000000000000e+03 4.844814300537109375e+01 1.524851322174072266e+00 -1.958989351987838745e-01 2.072225660085678101e-01 3.397089662030339241e-03 3.060586154460906982e-01
2.173000000000000000e+03 8.402667999267578125e+00 -2.781895637512207031e+01 -4.127910360693931580e-04 2.473155327606946230e-04 -4.964265099260956049e-05 4.976825439371168613e-04
2.174000000000000000e+03 7.494668579101562500e+01 -1.334951996803283691e+00 -8.471009731292724609e-01 8.579840660095214844e+00 2.319822072982788086e+00 3.575256168842315674e-01
2.175000000000000000e+03 7.355137634277343750e+01 -3.352581501007080078e+00 -1.329051375389099121e+00 9.359288215637207031e+00 2.409070968627929688e+00 4.621651172637939453e-01
2.176000000000000000e+03 6.938851165771484375e+01 -3.912175655364990234e+00 -1.862096309661865234e+00 8.198985099792480469e+00 1.901066541671752930e+00 -1.958474397659301758e+00
2.177000000000000000e+03 8.447093963623046875e+00 2.589581680297851562e+01 6.644653528928756714e-02 -7.258428931236267090e-01 -1.978189051151275635e-01 1.504903435707092285e-01
2.178000000000000000e+03 7.525670528411865234e+00 2.686563682556152344e+01 4.731192067265510559e-02 -8.028054237365722656e-01 -2.266480475664138794e-01 1.234904900193214417e-01
2.179000000000000000e+03 7.373392486572265625e+01 -2.162001991271972656e+01 -9.754085540771484375e-01 9.178386688232421875e+00 2.460893630981445312e+00 -8.925886154174804688e-01
2.180000000000000000e+03 5.469158649444580078e+00 6.878936767578125000e+00 -1.903418302536010742e-01 -2.019262760877609253e-01 -1.176804304122924805e-01 2.829003930091857910e-01
2.181000000000000000e+03 5.961296081542968750e+00 7.872534275054931641e+00 -2.044731974601745605e-01 -2.618682384490966797e-01 -1.399024277925491333e-01 3.648520112037658691e-01
2.182000000000000000e+03 5.876409912109375000e+01 -3.958398103713989258e+00 -1.210038900375366211e+00 3.126995563507080078e-01 -2.692017853260040283e-01 -1.310147494077682495e-01
2.183000000000000000e+03 5.766205978393554688e+01 -3.138723611831665039e+00 -9.742605090141296387e-01 4.693884551525115967e-01 -1.514616161584854126e-01 2.746573090553283691e-02
2.184000000000000000e+03 5.820359039306640625e+01 1.812576484680175781e+01 4.125620126724243164e-01 3.140608310699462891e+00 1.065951108932495117e+00 -5.359787344932556152e-01
2.185000000000000000e+03 5.713158798217773438e+01 1.891293334960937500e+01 4.303894042968750000e-01 2.876694440841674805e+00 9.921251535415649414e-01 -6.107290387153625488e-01
2.186000000000000000e+03 9.604953765869140625e+00 1.080812644958496094e+01 -1.186625212430953979e-01 -5.331025123596191406e-01 -1.955295056104660034e-01 6.919831037521362305e-01
2.187000000000000000e+03 5.783593177795410156e+00 -7.198059558868408203e+00 3.424664901103824377e-04 -3.997683961642906070e-05 9.074690024135634303e-05 1.037296678987331688e-04
2.188000000000000000e+03 6.006546974182128906e+00 8.589152336120605469e+00 -1.776041388511657715e-01 -3.045564591884613037e-01 -1.446481794118881226e-01 4.152564704418182373e-01
2.189000000000000000e+03 1.082806968688964844e+01 1.905956840515136719e+01 3.193263411521911621e-01 -5.111500620841979980e-01 -5.754711478948593140e-02 2.616573870182037354e-01
2.190000000000000000e+03 3.338126754760742188e+01 1.393876266479492188e+01 4.483896866440773010e-02 2.388998568058013916e-01 8.512164652347564697e-02 4.282676875591278076e-01
2.191000000000000000e+03 4.223826599121093750e+01 -1.045002460479736328e+01 -8.118430972099304199e-01 2.290885001420974731e-01 -1.748263686895370483e-01 1.175505965948104858e-01
2.192000000000000000e+03 6.543868255615234375e+01 -2.688528251647949219e+01 -5.775780677795410156e-01 4.128820419311523438e+00 1.065372586250305176e+00 6.121702790260314941e-01
2.193000000000000000e+03 6.856568908691406250e+01 -2.605071449279785156e+01 -7.599793672561645508e-01 6.061445713043212891e+00 1.590439915657043457e+00 4.668604731559753418e-01
2.194000000000000000e+03 5.117869567871093750e+01 7.720938920974731445e-01 -2.535007596015930176e-01 3.569383025169372559e-01 3.103126026690006256e-02 3.855989277362823486e-01
2.195000000000000000e+03 4.124163055419921875e+01 -1.186031723022460938e+01 -7.723255157470703125e-01 1.932314634323120117e-01 -1.737282276153564453e-01 9.988238662481307983e-02
2.196000000000000000e+03 3.972766876220703125e+01 7.179927349090576172e+00 -1.825025230646133423e-01 6.825945973396301270e-01 1.500276327133178711e-01 3.628071844577789307e-01
2.197000000000000000e+03 4.070760345458984375e+01 6.490966796875000000e+00 -2.277575731277465820e-01 6.360787749290466309e-01 1.224963665008544922e-01 2.860620021820068359e-01
2.198000000000000000e+03 5.133081436157226562e+01 2.854412460327148438e+01 6.823776960372924805e-01 1.651743888854980469e+00 7.002364993095397949e-01 -2.019106596708297729e-01
2.199000000000000000e+03 5.961487960815429688e+01 8.660585403442382812e+00 4.220566153526306152e-01 2.657773017883300781e+00 9.239488840103149414e-01 -5.884577631950378418e-01
2.200000000000000000e+03 5.864037322998046875e+01 9.474801063537597656e+00 4.244424998760223389e-01 2.643968343734741211e+00 9.205232858657836914e-01 -4.651039242744445801e-01
2.201000000000000000e+03 4.029549407958984375e+01 1.855038452148437500e+01 3.158371150493621826e-01 1.024870872497558594e+00 4.022123813629150391e-01 2.113326489925384521e-01
2.202000000000000000e+03 3.773279953002929688e+01 1.779361915588378906e+01 3.210843801498413086e-01 6.992761492729187012e-01 3.061081767082214355e-01 2.086480855941772461e-01
2.203000000000000000e+03 6.068127441406250000e+01 9.365594863891601562e+00 4.492708444595336914e-01 2.934583902359008789e+00 1.015156388282775879e+00 -6.839202046394348145e-01
2.204000000000000000e+03 5.654191970825195312e+01 5.196990966796875000e+00 1.733615994453430176e-01 1.465548157691955566e+00 4.916729331016540527e-01 3.375429287552833557e-02
2.205000000000000000e+03 5.859742736816406250e+01 6.908751010894775391e+00 3.011968433856964111e-01 2.203183889389038086e+00 7.513142228126525879e-01 -3.655318021774291992e-01
2.206000000000000000e+03 2.510781860351562500e+01 -3.737876510620117188e+01 -6.292058154940605164e-03 -8.291378617286682129e-04 -2.136358758434653282e-03 3.514769487082958221e-03
2.207000000000000000e+03 6.620819854736328125e+01 -2.807376098632812500e+01 -5.476782321929931641e-01 4.603030204772949219e+00 1.216605663299560547e+00 5.638033747673034668e-01
2.208000000000000000e+03 6.751694488525390625e+01 -2.774052047729492188e+01 -6.379122734069824219e-01 5.266219139099121094e+00 1.388491988182067871e+00 5.345350503921508789e-01
2.209000000000000000e+03 6.743285369873046875e+01 3.308800125122070312e+01 1.994461268186569214e-01 4.645647525787353516e+00 1.453528165817260742e+00 -2.646593451499938965e-01
2.210000000000000000e+03 6.278511428833007812e+01 -2.898381042480468750e+01 -3.694403171539306641e-01 2.434738874435424805e+00 6.195895671844482422e-01 4.566425383090972900e-01
2.211000000000000000e+03 2.898150253295898438e+01 1.789055252075195312e+01 1.048940792679786682e-01 -2.526881694793701172e-01 -4.433822631835937500e-02 2.182184010744094849e-01
2.212000000000000000e+03 4.306801223754882812e+01 3.173823356628417969e+00 -3.031829893589019775e-01 3.757558465003967285e-01 2.177185751497745514e-02 1.850173771381378174e-01
2.213000000000000000e+03 4.547570037841796875e+01 2.961267232894897461e+00 -1.944373100996017456e-01 2.307381480932235718e-01 1.089025102555751801e-02 1.744929254055023193e-01
2.214000000000000000e+03 5.950393676757812500e+01 -2.754233598709106445e+00 -8.834471702575683594e-01 5.048768520355224609e-01 -1.135710924863815308e-01 -2.378764003515243530e-01
2.215000000000000000e+03 5.665866088867187500e+01 -2.393447160720825195e+00 -7.859022617340087891e-01 5.120176076889038086e-01 -8.216539770364761353e-02 1.171680241823196411e-01
2.216000000000000000e+03 4.374413299560546875e+01 2.021488952636718750e+01 3.088674545288085938e-01 1.074636936187744141e+00 4.150513410568237305e-01 4.606306552886962891e-01
2.217000000000000000e+03 3.974419784545898438e+01 -9.918567657470703125e+00 -7.479161620140075684e-01 2.325991839170455933e-01 -1.545950919389724731e-01 1.894386559724807739e-01
2.218000000000000000e+03 5.638635253906250000e+01 2.426270866394042969e+01 4.320133328437805176e-01 2.551963090896606445e+00 8.951929211616516113e-01 -5.881819128990173340e-01
2.219000000000000000e+03 1.046644878387451172e+01 -2.458207511901855469e+01 1.080728834494948387e-03 -7.706347969360649586e-05 3.010996151715517044e-04 1.624274154892191291e-04
2.220000000000000000e+03 8.557704925537109375e+00 -3.033311271667480469e+01 6.336469668895006180e-04 2.430992753943428397e-04 2.630238886922597885e-04 4.718571435660123825e-04
2.221000000000000000e+03 5.471818542480468750e+01 2.362910461425781250e+01 4.988649189472198486e-01 2.090430259704589844e+00 7.767885327339172363e-01 -5.737010836601257324e-01
2.222000000000000000e+03 8.220795631408691406e+00 -9.406160354614257812e+00 1.935223117470741272e-04 2.273203572258353233e-04 1.262527948711067438e-04 8.311985766340512782e-06
2.223000000000000000e+03 8.632031440734863281e+00 -2.194278335571289062e+01 1.658841210883110762e-04 -9.615987801225855947e-05 2.091727401420939714e-05 3.207617555744946003e-04
2.224000000000000000e+03 9.384016036987304688e+00 1.315250301361083984e+01 1.544686257839202881e-01 -6.077104806900024414e-01 -1.359725594520568848e-01 6.351572275161743164e-01
2.225000000000000000e+03 5.533563613891601562e+01 3.257688999176025391e+00 3.355172649025917053e-02 9.782490134239196777e-01 3.035402297973632812e-01 1.893384903669357300e-01
2.226000000000000000e+03 4.469153976440429688e+01 2.629145050048828125e+01 5.757912993431091309e-01 9.702942371368408203e-01 4.638256728649139404e-01 2.080440372228622437e-01
2.227000000000000000e+03 4.241381454467773438e+01 2.291440010070800781e+01 3.632338345050811768e-01 9.535158276557922363e-01 3.950248956680297852e-01 3.183919489383697510e-01
2.228000000000000000e+03 3.862152481079101562e+01 7.288911819458007812e+00 -1.477280706167221069e-01 6.065849661827087402e-01 1.376570612192153931e-01 4.531244337558746338e-01
2.229000000000000000e+03 3.875556564331054688e+01 8.464511871337890625e+00 -6.038745492696762085e-02 6.567942500114440918e-01 1.789220273494720459e-01 4.718105196952819824e-01
2.230000000000000000e+03 6.081019592285156250e+01 1.441788101196289062e+01 6.423295736312866211e-01 3.327572107315063477e+00 1.190970540046691895e+00 -6.416271328926086426e-01
2.231000000000000000e+03 1.835027694702148438e+01 -3.248151779174804688e+01 1.336018205620348454e-03 -8.656011195853352547e-04 1.411251287208870053e-04 1.212193048559129238e-03
2.232000000000000000e+03 6.821145534515380859e+00 -3.000233078002929688e+01 7.018419564701616764e-04 2.266624069306999445e-04 2.785513061098754406e-04 4.830310062970966101e-04
2.233000000000000000e+03 6.469960784912109375e+01 -2.135564565658569336e+00 -5.431540608406066895e-01 2.171091556549072266e+00 4.883812665939331055e-01 -1.969764828681945801e+00
2.234000000000000000e+03 7.233053588867187500e+01 2.010368347167968750e+01 1.342342644929885864e-01 5.771339416503906250e+00 1.771672129631042480e+00 -4.987719655036926270e-01
2.235000000000000000e+03 7.310467529296875000e+01 1.314305305480957031e+01 1.057718023657798767e-01 6.317813396453857422e+00 1.927075624465942383e+00 -6.814301609992980957e-01
2.236000000000000000e+03 7.173371124267578125e+01 2.851487541198730469e+01 1.068777441978454590e-01 5.419005393981933594e+00 1.657764911651611328e+00 -3.131966292858123779e-01
2.237000000000000000e+03 2.593527793884277344e+01 2.252858734130859375e+01 3.877939283847808838e-01 -3.287847638130187988e-01 1.770275458693504333e-02 3.844152987003326416e-01
2.238000000000000000e+03 7.213544464111328125e+01 -1.426013469696044922e+01 1.952990055084228516e+00 1.472229576110839844e+01 5.002585887908935547e+00 -2.123424291610717773e+00
2.239000000000000000e+03 7.246603393554687500e+01 -1.348470497131347656e+01 4.297624111175537109e+00 1.383806610107421875e+01 5.440706729888916016e+00 -2.284898996353149414e+00
2.240000000000000000e+03 7.136204528808593750e+01 -9.434914588928222656e+00 3.934187591075897217e-01 1.559611415863037109e+01 4.796859741210937500e+00 1.439399719238281250e-01
2.241000000000000000e+03 7.229807281494140625e+01 -1.065298366546630859e+01 3.828599691390991211e+00 1.455241680145263672e+01 5.514305114746093750e+00 2.119300842285156250e+00
2.242000000000000000e+03 7.290119934082031250e+01 -1.091858482360839844e+01 4.177067756652832031e+00 1.276285171508789062e+01 5.081975936889648438e+00 1.718026638031005859e+00
2.243000000000000000e+03 7.577694702148437500e+01 -9.345059394836425781e+00 9.941004514694213867e-01 8.652894020080566406e+00 2.894098281860351562e+00 1.664598226547241211e+00
2.244000000000000000e+03 7.548148345947265625e+01 -1.192474460601806641e+01 2.293903350830078125e+00 8.522936820983886719e+00 3.245052099227905273e+00 4.580928012728691101e-02
2.245000000000000000e+03 7.260509490966796875e+01 -1.173997116088867188e+01 6.128793239593505859e+00 1.300776958465576172e+01 5.740968704223632812e+00 7.977386713027954102e-01
2.246000000000000000e+03 7.551774597167968750e+01 -1.095882320404052734e+01 1.988710999488830566e+00 8.609607696533203125e+00 3.179495573043823242e+00 9.205710291862487793e-01
2.247000000000000000e+03 7.089580535888671875e+01 -9.451959609985351562e+00 1.121724992990493774e-01 1.587479591369628906e+01 4.796090602874755859e+00 -1.007295608520507812e+00
2.248000000000000000e+03 7.072628021240234375e+01 -8.747827529907226562e+00 3.949879854917526245e-02 1.390675163269042969e+01 4.183875083923339844e+00 -1.450219750404357910e+00
2.249000000000000000e+03 7.235263061523437500e+01 -1.385269451141357422e+01 3.293553829193115234e+00 1.427571773529052734e+01 5.270781517028808594e+00 -2.432317733764648438e+00
2.250000000000000000e+03 7.208216094970703125e+01 -1.476339626312255859e+01 9.205790162086486816e-01 1.445623207092285156e+01 4.613043308258056641e+00 -1.671508431434631348e+00
2.251000000000000000e+03 7.035932159423828125e+01 -1.581250095367431641e+01 -6.428271532058715820e-01 1.272156620025634766e+01 3.623621702194213867e+00 1.930420637130737305e+00
2.252000000000000000e+03 7.073342895507812500e+01 -1.536570835113525391e+01 -5.476447939872741699e-01 1.427255249023437500e+01 4.117472171783447266e+00 1.186761975288391113e+00
2.253000000000000000e+03 7.336458587646484375e+01 -1.825694465637207031e+01 -9.685041904449462891e-01 1.055296039581298828e+01 2.875336885452270508e+00 -1.291973114013671875e+00
2.254000000000000000e+03 2.988434791564941406e+01 -8.669349670410156250e+00 -6.349566578865051270e-01 4.104098677635192871e-02 -1.781747043132781982e-01 4.036849737167358398e-01
2.255000000000000000e+03 6.113250732421875000e+00 6.534045219421386719e+00 -2.321937978267669678e-01 -1.876537203788757324e-01 -1.259542554616928101e-01 2.910857498645782471e-01
2.256000000000000000e+03 7.048908996582031250e+01 -8.088328361511230469e+00 -1.706498712301254272e-01 1.255625343322753906e+01 3.715681076049804688e+00 -1.321472048759460449e+00
2.257000000000000000e+03 7.008171081542968750e+01 -6.084150314331054688e+00 -1.470293998718261719e+00 1.033241844177246094e+01 2.658637523651123047e+00 -1.293620109558105469e+00
2.258000000000000000e+03 7.333965301513671875e+01 -1.587091350555419922e+01 1.370146721601486206e-01 1.178331947326660156e+01 3.576100111007690430e+00 -2.006383419036865234e+00
2.259000000000000000e+03 7.172277832031250000e+01 -1.536864757537841797e+01 -1.666635274887084961e-01 1.404417610168457031e+01 4.163253784179687500e+00 -7.563440203666687012e-01
2.260000000000000000e+03 7.542189788818359375e+01 -1.497911071777343750e+01 9.247620105743408203e-01 9.145871162414550781e+00 3.021189928054809570e+00 -2.037447690963745117e+00
2.261000000000000000e+03 7.251463317871093750e+01 -9.528691291809082031e+00 1.270455002784729004e+00 1.368607234954833984e+01 4.486958503723144531e+00 1.690985321998596191e+00
2.262000000000000000e+03 8.755453109741210938e+00 5.900369167327880859e+00 -4.317401647567749023e-01 -2.330514490604400635e-01 -1.994374841451644897e-01 3.719725906848907471e-01
2.263000000000000000e+03 7.575517272949218750e+01 -1.336513805389404297e+01 1.875011563301086426e+00 8.409399986267089844e+00 3.085323572158813477e+00 -1.116244435310363770e+00
2.264000000000000000e+03 2.953268623352050781e+01 -7.946424961090087891e+00 -6.599274277687072754e-01 3.882679343223571777e-02 -1.863301992416381836e-01 4.122134745121002197e-01
2.265000000000000000e+03 7.513704681396484375e+01 -1.045562648773193359e+01 2.039490461349487305e+00 9.168945312500000000e+00 3.362530708312988281e+00 1.347913265228271484e+00
2.266000000000000000e+03 7.264550018310546875e+01 -1.011284351348876953e+01 2.525690317153930664e+00 1.343951988220214844e+01 4.789563179016113281e+00 2.021359682083129883e+00
2.267000000000000000e+03 7.486275482177734375e+01 -8.374329566955566406e+00 4.355757534503936768e-01 9.873624801635742188e+00 3.092760086059570312e+00 1.945068836212158203e+00
2.268000000000000000e+03 8.693421363830566406e+00 9.612232208251953125e+00 -2.250878363847732544e-01 -4.341753721237182617e-01 -1.977789700031280518e-01 6.083104014396667480e-01
2.269000000000000000e+03 1.034999847412109375e+01 -6.105837821960449219e+00 -1.939548092195764184e-04 6.018555723130702972e-05 -4.013077705167233944e-05 -7.888753316365182400e-05
2.270000000000000000e+03 2.682708740234375000e+01 -4.613254547119140625e+00 -7.667549252510070801e-01 -2.722783759236335754e-02 -2.381948381662368774e-01 4.196875989437103271e-01
2.271000000000000000e+03 3.059215545654296875e+01 -8.198771476745605469e+00 -6.509487032890319824e-01 8.238941431045532227e-02 -1.705677807331085205e-01 3.875791728496551514e-01
2.272000000000000000e+03 2.574132537841796875e+01 -4.340624809265136719e+00 -8.089174032211303711e-01 -1.014038026332855225e-01 -2.730963528156280518e-01 4.497058391571044922e-01
2.273000000000000000e+03 6.988561248779296875e+01 -8.185606956481933594e+00 6.432902216911315918e-01 1.203294277191162109e+01 3.802869796752929688e+00 -2.507339477539062500e+00
2.274000000000000000e+03 7.128340911865234375e+01 -8.473795890808105469e+00 -2.559004426002502441e-01 1.361303138732910156e+01 4.007139205932617188e+00 -2.678720355033874512e-01
2.275000000000000000e+03 2.437046051025390625e+01 -2.236176967620849609e+00 -7.926841974258422852e-01 -1.219341754913330078e-01 -2.743855118751525879e-01 3.995125889778137207e-01
2.276000000000000000e+03 2.528492736816406250e+01 -3.679947137832641602e+00 -8.168141841888427734e-01 -1.155231520533561707e-01 -2.797012031078338623e-01 4.395259916782379150e-01
2.277000000000000000e+03 2.677934455871582031e+01 -6.341835975646972656e+00 -7.429462671279907227e-01 -9.012723714113235474e-02 -2.499220669269561768e-01 4.734045267105102539e-01
2.278000000000000000e+03 2.651025962829589844e+01 -5.677507877349853516e+00 -7.692175507545471191e-01 -9.022602438926696777e-02 -2.578330636024475098e-01 4.673216640949249268e-01
2.279000000000000000e+03 1.060251426696777344e+01 5.842277050018310547e+00 -5.705711245536804199e-01 -3.824709057807922363e-01 -2.859126031398773193e-01 4.381307065486907959e-01
2.280000000000000000e+03 9.802179336547851562e+00 7.731941223144531250e+00 -4.603753685951232910e-01 -3.746307790279388428e-01 -2.505018413066864014e-01 5.805992484092712402e-01
2.281000000000000000e+03 7.024565124511718750e+01 -1.744495964050292969e+01 -8.205138444900512695e-01 1.041032695770263672e+01 2.876943826675415039e+00 1.368855118751525879e+00
2.282000000000000000e+03 2.482076072692871094e+01 -2.984223604202270508e+00 -8.123177289962768555e-01 -1.207873448729515076e-01 -2.799315154552459717e-01 4.229216575622558594e-01
2.283000000000000000e+03 2.497881507873535156e+01 -1.944399595260620117e+00 -7.371624708175659180e-01 -5.910465866327285767e-02 -2.388801276683807373e-01 3.571696579456329346e-01
2.284000000000000000e+03 1.265812206268310547e+01 -6.459972381591796875e+00 -1.537204807391390204e-04 2.434588350297417492e-05 -3.881237716996110976e-05 -7.137683860491961241e-05
2.285000000000000000e+03 1.169226646423339844e+01 -6.188997745513916016e+00 1.988058502320200205e-04 -3.010052523677586578e-06 5.873874033568426967e-05 -1.154142228187993169e-05
2.286000000000000000e+03 3.478511810302734375e+01 -1.320415401458740234e+01 -5.725090503692626953e-01 1.059567108750343323e-01 -1.399656981229782104e-01 2.186521440744400024e-01
2.287000000000000000e+03 8.968119621276855469e+00 -7.614616870880126953e+00 2.150345826521515846e-04 9.870400390354916453e-05 9.412157669430598617e-05 1.283505298488307744e-05
2.288000000000000000e+03 3.624449920654296875e+01 1.201100158691406250e+01 1.348185688257217407e-01 4.718072712421417236e-01 1.819877475500106812e-01 4.912883341312408447e-01
2.289000000000000000e+03 3.061191177368164062e+01 1.092822837829589844e+01 -1.072266325354576111e-01 -2.366654202342033386e-02 -3.926794975996017456e-02 6.158130168914794922e-01
2.290000000000000000e+03 6.610195636749267578e+00 1.523049736022949219e+01 1.391079127788543701e-01 -6.799045205116271973e-01 -1.622389853000640869e-01 4.477315843105316162e-01
2.291000000000000000e+03 8.072240829467773438e+00 1.293666553497314453e+01 8.217568695545196533e-02 -5.699469447135925293e-01 -1.463313698768615723e-01 5.852164626121520996e-01
2.292000000000000000e+03 2.574348640441894531e+01 7.440486550331115723e-01 -3.771542906761169434e-01 5.923682823777198792e-02 -9.537523984909057617e-02 2.028239667415618896e-01
2.293000000000000000e+03 2.850695610046386719e+01 3.990710258483886719e+00 1.153155490756034851e-01 -6.804690510034561157e-02 1.418059412389993668e-02 2.974517643451690674e-01
2.294000000000000000e+03 4.039001083374023438e+01 3.999708175659179688e+00 -3.197892606258392334e-01 4.887190461158752441e-01 5.067893490195274353e-02 2.865284681320190430e-01
2.295000000000000000e+03 7.406795501708984375e+01 -1.641044616699218750e+01 -4.696786776185035706e-02 1.078509807586669922e+01 3.221438884735107422e+00 -2.079144239425659180e+00
2.296000000000000000e+03 7.017742919921875000e+01 -1.827258300781250000e+01 -9.306312799453735352e-01 9.618005752563476562e+00 2.606212139129638672e+00 1.033768773078918457e+00
2.297000000000000000e+03 6.987441253662109375e+01 -2.013323020935058594e+01 -9.955037236213684082e-01 8.386808395385742188e+00 2.217391490936279297e+00 7.315219640731811523e-01
2.298000000000000000e+03 7.569548130035400391e+00 -8.050048828125000000e+00 1.872011198429390788e-04 1.076758053386583924e-04 8.846307900967076421e-05 9.812682401388883591e-05
2.299000000000000000e+03 3.908471298217773438e+01 -1.233166790008544922e+01 -7.014201283454895020e-01 1.736705005168914795e-01 -1.583248823881149292e-01 1.400840580463409424e-01
2.300000000000000000e+03 6.903506469726562500e+01 -2.470635795593261719e+01 -8.918684720993041992e-01 6.558212757110595703e+00 1.699903249740600586e+00 4.261674880981445312e-01
2.301000000000000000e+03 3.276646041870117188e+01 -1.247209167480468750e+01 -5.410809516906738281e-01 7.096344977617263794e-02 -1.410352587699890137e-01 2.772571146488189697e-01
2.302000000000000000e+03 3.826750183105468750e+01 5.502478599548339844e+00 -2.288790047168731689e-01 4.835077524185180664e-01 7.638861984014511108e-02 4.089016616344451904e-01
2.303000000000000000e+03 9.456765174865722656e+00 1.191881370544433594e+01 1.374593283981084824e-02 -5.453290343284606934e-01 -1.594749242067337036e-01 6.711632609367370605e-01
2.304000000000000000e+03 6.921146392822265625e+01 -2.132490539550781250e+01 -9.398406147956848145e-01 7.380669116973876953e+00 1.932248592376708984e+00 7.346159219741821289e-01
2.305000000000000000e+03 5.818623352050781250e+01 5.815431118011474609e+00 2.403291165828704834e-01 1.936870932579040527e+00 6.531600356101989746e-01 -2.999266982078552246e-01
2.306000000000000000e+03 4.871621322631835938e+01 -9.011597633361816406e+00 -1.120025157928466797e+00 2.461361438035964966e-01 -2.621667087078094482e-01 -1.354532083496451378e-03
2.307000000000000000e+03 3.328752899169921875e+01 -1.303887176513671875e+01 -5.390367507934570312e-01 7.659309357404708862e-02 -1.387330889701843262e-01 2.534529268741607666e-01
2.308000000000000000e+03 6.973811340332031250e+01 -5.094557762145996094e+00 -1.955150008201599121e+00 9.511838912963867188e+00 2.267006635665893555e+00 -1.611451148986816406e+00
2.309000000000000000e+03 7.137667846679687500e+01 1.287427520751953125e+01 1.596959382295608521e-01 5.839281558990478516e+00 1.799693226814270020e+00 -7.872962355613708496e-01
2.310000000000000000e+03 3.122852134704589844e+01 8.167070388793945312e+00 2.913116104900836945e-02 -1.699229888617992401e-02 3.641658695414662361e-03 6.242668032646179199e-01
2.311000000000000000e+03 3.715771484375000000e+01 -1.376642799377441406e+01 -6.171325445175170898e-01 1.252325922250747681e-01 -1.475699841976165771e-01 1.517269760370254517e-01
2.312000000000000000e+03 3.150165939331054688e+01 -1.265088558197021484e+01 -4.962489008903503418e-01 2.550258301198482513e-02 -1.412238925695419312e-01 2.914005815982818604e-01
2.313000000000000000e+03 5.858412170410156250e+01 2.867011547088623047e+00 5.497609823942184448e-02 1.473087549209594727e+00 4.584190845489501953e-01 -2.894368469715118408e-01
2.314000000000000000e+03 5.721466445922851562e+01 3.420384645462036133e+00 6.116034835577011108e-02 1.308508396148681641e+00 4.109006226062774658e-01 -6.443130970001220703e-02
2.315000000000000000e+03 8.121335983276367188e+00 1.713463973999023438e+01 2.447089701890945435e-01 -6.808887720108032227e-01 -1.308539360761642456e-01 3.735651075839996338e-01
2.316000000000000000e+03 1.104946136474609375e+01 -8.287766456604003906e+00 2.745248202700167894e-04 1.847300700319465250e-05 8.789935236563906074e-05 9.638772098696790636e-06
2.317000000000000000e+03 4.237092208862304688e+01 -1.160859203338623047e+01 -8.149974346160888672e-01 1.995262354612350464e-01 -1.846413612365722656e-01 7.927190512418746948e-02
2.318000000000000000e+03 7.294374847412109375e+01 5.544787883758544922e+00 -2.508818209171295166e-01 6.868170261383056641e+00 1.985186576843261719e+00 -7.934032082557678223e-01
2.319000000000000000e+03 7.311106109619140625e+01 8.427171707153320312e+00 -4.110110551118850708e-02 6.610468864440917969e+00 1.970810294151306152e+00 -7.810552120208740234e-01
2.320000000000000000e+03 3.635223388671875000e+01 1.082246494293212891e+01 8.917179703712463379e-02 4.841103851795196533e-01 1.719846576452255249e-01 5.304809808731079102e-01
2.321000000000000000e+03 3.760049438476562500e+01 8.570479393005371094e+00 -4.841906949877738953e-02 5.733668208122253418e-01 1.574843227863311768e-01 5.130081772804260254e-01
2.322000000000000000e+03 1.029062557220458984e+01 -6.977181434631347656e+00 2.237712615169584751e-04 1.125693597714416683e-05 7.050846033962443471e-05 2.633727126521989703e-05
2.323000000000000000e+03 1.087241268157958984e+01 8.728245735168457031e+00 -4.470445811748504639e-01 -4.860045909881591797e-01 -2.799147367477416992e-01 6.834928393363952637e-01
2.324000000000000000e+03 9.740424156188964844e+00 9.743403434753417969e+00 -2.607721388339996338e-01 -4.514782428741455078e-01 -2.136751115322113037e-01 6.733092069625854492e-01
2.325000000000000000e+03 4.915254974365234375e+01 -7.443951129913330078e+00 -1.088015556335449219e+00 2.946061789989471436e-01 -2.380228340625762939e-01 9.827899932861328125e-02
2.326000000000000000e+03 7.347601318359375000e+01 -2.256172561645507812e+01 -9.284198284149169922e-01 8.913985252380371094e+00 2.395669460296630859e+00 -6.937141418457031250e-01
2.327000000000000000e+03 7.083882141113281250e+01 -2.103590583801269531e+01 -1.168486475944519043e+00 8.654431343078613281e+00 2.245783567428588867e+00 1.443657577037811279e-01
2.328000000000000000e+03 7.298789978027343750e+01 -4.142560482025146484e+00 -1.441395163536071777e+00 9.695434570312500000e+00 2.476212024688720703e+00 4.512025713920593262e-01
2.329000000000000000e+03 9.934687614440917969e+00 -2.344509506225585938e+01 -3.876435512211173773e-04 8.140931458910927176e-05 -9.187027171719819307e-05 1.382240734528750181e-04
2.330000000000000000e+03 7.148344421386718750e+01 -2.848961448669433594e+01 -5.237829089164733887e-01 7.288115978240966797e+00 2.029299974441528320e+00 1.427540183067321777e-01
2.331000000000000000e+03 7.291326904296875000e+01 -2.793012046813964844e+01 -5.017892718315124512e-01 7.919883251190185547e+00 2.225428342819213867e+00 -6.836701184511184692e-02
2.332000000000000000e+03 7.015742492675781250e+01 -2.545662689208984375e+01 -8.357367515563964844e-01 7.093590259552001953e+00 1.877356052398681641e+00 2.159946858882904053e-01
2.333000000000000000e+03 6.855360031127929688e+00 2.196594619750976562e+01 1.046654880046844482e-01 -7.948464751243591309e-01 -2.070543020963668823e-01 1.904444694519042969e-01
2.334000000000000000e+03 2.459780120849609375e+01 -1.164472222328186035e+00 -6.785775423049926758e-01 -4.904521256685256958e-02 -2.182868272066116333e-01 3.313986063003540039e-01
2.335000000000000000e+03 4.353983688354492188e+01 -1.144481277465820312e+01 -8.586261868476867676e-01 2.022169828414916992e-01 -1.969227492809295654e-01 4.656020924448966980e-02
2.336000000000000000e+03 7.201936340332031250e+01 1.542908191680908203e+00 -8.738219738006591797e-01 7.335555553436279297e+00 1.938520073890686035e+00 -8.300100564956665039e-01
2.337000000000000000e+03 7.294910430908203125e+01 3.326717913150787354e-01 -9.644119143486022949e-01 7.972683429718017578e+00 2.102481365203857422e+00 -4.031723439693450928e-01
2.338000000000000000e+03 7.246924591064453125e+01 1.079594612121582031e+01 7.176710665225982666e-02 6.257759571075439453e+00 1.898858070373535156e+00 -7.992433309555053711e-01
2.339000000000000000e+03 7.388259887695312500e+01 -6.762399673461914062e+00 -7.046850323677062988e-01 1.055914402008056641e+01 2.956337690353393555e+00 1.566060781478881836e+00
2.340000000000000000e+03 1.073358535766601562e+01 6.756938457489013672e+00 -5.726727247238159180e-01 -4.519657492637634277e-01 -3.073915243148803711e-01 5.359146595001220703e-01
2.341000000000000000e+03 7.412097167968750000e+01 -1.892530059814453125e+01 -9.015429019927978516e-01 9.953299522399902344e+00 2.715526819229125977e+00 -1.465293288230895996e+00
2.342000000000000000e+03 2.694070243835449219e+01 1.145806074142456055e+00 -2.659500539302825928e-01 5.247043445706367493e-02 -6.404387950897216797e-02 1.900061070919036865e-01
2.343000000000000000e+03 2.921812248229980469e+01 2.971561431884765625e+00 -3.847603499889373779e-02 -1.209125481545925140e-02 -1.517018675804138184e-02 2.740594744682312012e-01
2.344000000000000000e+03 5.210695266723632812e+00 1.759233093261718750e+01 1.173200234770774841e-01 -7.950326800346374512e-01 -2.033137828111648560e-01 2.896144092082977295e-01
2.345000000000000000e+03 1.104121875762939453e+01 -3.104745864868164062e+01 -3.061094321310520172e-04 -1.398493986926041543e-05 -9.602831414667889476e-05 9.695728076621890068e-04
2.346000000000000000e+03 7.397645568847656250e+01 -2.401358366012573242e+00 -1.175908565521240234e+00 8.921080589294433594e+00 2.323551416397094727e+00 4.005324542522430420e-01
2.347000000000000000e+03 7.189495086669921875e+01 4.046648502349853516e+00 -4.439523220062255859e-01 6.766638278961181641e+00 1.896805763244628906e+00 -9.026565551757812500e-01
2.348000000000000000e+03 9.011862754821777344e+00 1.821320915222167969e+01 2.761586010456085205e-01 -6.297653913497924805e-01 -1.060820370912551880e-01 3.247290253639221191e-01
2.349000000000000000e+03 5.913738632202148438e+01 1.942867469787597656e+01 4.318559467792510986e-01 3.144599914550781250e+00 1.072936773300170898e+00 -5.374547839164733887e-01
2.350000000000000000e+03 3.421292877197265625e+01 -1.208204078674316406e+01 -5.898931622505187988e-01 1.162774190306663513e-01 -1.420847177505493164e-01 2.586978673934936523e-01
2.351000000000000000e+03 3.438951873779296875e+01 -1.402130508422851562e+01 -5.290497541427612305e-01 8.013882488012313843e-02 -1.346732676029205322e-01 2.023619115352630615e-01
2.352000000000000000e+03 6.262538146972656250e+01 -3.616563081741333008e+00 -9.786000847816467285e-01 4.606472253799438477e-01 -1.553858518600463867e-01 -1.121657967567443848e+00
2.353000000000000000e+03 3.745813751220703125e+01 7.365937232971191406e+00 -1.114225015044212341e-01 5.143642425537109375e-01 1.208825260400772095e-01 4.956574440002441406e-01
2.354000000000000000e+03 6.941780567169189453e+00 7.449742317199707031e+00 -2.616966366767883301e-01 -2.662358880043029785e-01 -1.583797633647918701e-01 4.021067321300506592e-01
2.355000000000000000e+03 7.356562137603759766e+00 -9.474916458129882812e+00 6.513797416118904948e-05 -2.077666576951742172e-04 -4.278860433259978890e-05 -1.900892129924613982e-05
2.356000000000000000e+03 7.239499664306640625e+01 1.475128746032714844e+01 1.521161347627639771e-01 6.022682189941406250e+00 1.852439522743225098e+00 -6.833293437957763672e-01
2.357000000000000000e+03 8.224037170410156250e+00 1.172431564331054688e+01 -1.844304241240024567e-02 -5.335659980773925781e-01 -1.656026989221572876e-01 6.279707551002502441e-01
2.358000000000000000e+03 6.418373107910156250e+00 9.485019683837890625e+00 -1.531561315059661865e-01 -3.629709780216217041e-01 -1.548381298780441284e-01 4.638160169124603271e-01
2.359000000000000000e+03 7.350908660888671875e+01 -2.082495880126953125e+01 -1.060857176780700684e+00 9.398738861083984375e+00 2.501364469528198242e+00 -9.038349390029907227e-01
2.360000000000000000e+03 1.225196075439453125e+01 1.870490646362304688e+01 3.963559865951538086e-01 -3.478870093822479248e-01 1.454069651663303375e-02 2.515138685703277588e-01
2.361000000000000000e+03 1.115327453613281250e+01 2.046189689636230469e+01 2.633424997329711914e-01 -4.441553056240081787e-01 -5.424383655190467834e-02 2.267543524503707886e-01
2.362000000000000000e+03 5.684104156494140625e+01 -4.027653694152832031e+00 -1.185756683349609375e+00 3.721825778484344482e-01 -2.440722435712814331e-01 7.697266340255737305e-02
2.363000000000000000e+03 1.149920177459716797e+01 3.113360595703125000e+01 7.748739421367645264e-02 -6.111391782760620117e-01 -1.600955277681350708e-01 1.594863682985305786e-01
2.364000000000000000e+03 7.031475067138671875e+01 -1.136573314666748047e+00 -1.445782542228698730e+00 7.476542472839355469e+00 1.809227943420410156e+00 -1.327591776847839355e+00
2.365000000000000000e+03 7.271606445312500000e+01 -1.141274452209472656e+00 -1.279461264610290527e+00 8.394680023193359375e+00 2.134565591812133789e+00 -3.170576989650726318e-01
2.366000000000000000e+03 3.996616363525390625e+01 -1.099837779998779297e+01 -7.443858981132507324e-01 2.111292630434036255e-01 -1.599769890308380127e-01 1.562043279409408569e-01
2.367000000000000000e+03 5.318340682983398438e+01 -6.390916347503662109e+00 -1.361961841583251953e+00 3.178552389144897461e-01 -3.132320046424865723e-01 6.147642061114311218e-02
2.368000000000000000e+03 5.291860198974609375e+01 8.053069710731506348e-01 -2.543385326862335205e-01 4.962941706180572510e-01 7.258668541908264160e-02 3.643620312213897705e-01
2.369000000000000000e+03 7.092742919921875000e+01 2.031274414062500000e+01 1.778808385133743286e-01 5.464486598968505859e+00 1.692710280418395996e+00 -5.310394763946533203e-01
2.370000000000000000e+03 6.641187286376953125e+01 -2.800736427307128906e+00 -1.120188832283020020e+00 3.897140026092529297e+00 8.330853581428527832e-01 -2.741388320922851562e+00
2.371000000000000000e+03 6.639598083496093750e+01 -3.212656402587890625e+01 -1.591043323278427124e-01 4.538806915283203125e+00 1.313910722732543945e+00 4.494427144527435303e-01
2.372000000000000000e+03 4.145322799682617188e+01 4.389805793762207031e+00 -3.017055988311767578e-01 4.865023195743560791e-01 5.543901026248931885e-02 2.291572242975234985e-01
2.373000000000000000e+03 5.192039871215820312e+01 -2.980404376983642578e+00 -7.826640009880065918e-01 3.762473464012145996e-01 -1.219249963760375977e-01 3.217749893665313721e-01
2.374000000000000000e+03 5.370038986206054688e+01 1.641455292701721191e+00 -1.551258414983749390e-01 6.179926395416259766e-01 1.388600468635559082e-01 3.334282040596008301e-01
2.375000000000000000e+03 4.941912460327148438e+01 6.497973799705505371e-01 -2.732483446598052979e-01 2.581733465194702148e-01 -4.522500094026327133e-03 3.564933538436889648e-01
2.376000000000000000e+03 6.839658260345458984e+00 -2.711699867248535156e+01 -3.277616051491349936e-04 5.340428833733312786e-05 -8.230718958657234907e-05 3.808801411651074886e-04
2.377000000000000000e+03 9.480033874511718750e+00 -2.603067779541015625e+01 7.546235574409365654e-04 1.884390221675857902e-04 2.829187724273651838e-04 2.336819125048350543e-05
2.378000000000000000e+03 2.861065864562988281e+01 1.454156017303466797e+01 -2.598270773887634277e-01 -2.705519497394561768e-01 -1.591137051582336426e-01 3.437926471233367920e-01
2.379000000000000000e+03 2.959916496276855469e+01 1.144374084472656250e+01 -1.819344013929367065e-01 -1.351204067468643188e-01 -9.511644393205642700e-02 5.967548489570617676e-01
2.380000000000000000e+03 6.797617340087890625e+01 2.972305679321289062e+01 1.868305504322052002e-01 4.758716106414794922e+00 1.483664035797119141e+00 -3.404394090175628662e-01
2.381000000000000000e+03 5.962464904785156250e+01 1.043573474884033203e+01 5.195308327674865723e-01 2.873784303665161133e+00 1.017994523048400879e+00 -6.107010245323181152e-01
2.382000000000000000e+03 6.351809692382812500e+01 1.018951416015625000e+01 4.271793961524963379e-01 3.608183145523071289e+00 1.210608720779418945e+00 -9.237060546875000000e-01
2.383000000000000000e+03 5.452070999145507812e+01 2.444752693176269531e+00 -4.800028726458549500e-02 7.684577107429504395e-01 2.161372154951095581e-01 2.717097103595733643e-01
2.384000000000000000e+03 4.738392257690429688e+01 -8.650873184204101562e+00 -1.023941874504089355e+00 2.726654708385467529e-01 -2.253829091787338257e-01 7.006949931383132935e-02
2.385000000000000000e+03 4.776502990722656250e+01 -9.463473320007324219e+00 -1.057333707809448242e+00 2.359098345041275024e-01 -2.464271485805511475e-01 -2.195114037021994591e-03
2.386000000000000000e+03 3.853060150146484375e+01 1.993892478942871094e+01 2.997146546840667725e-01 7.923386096954345703e-01 3.276159763336181641e-01 1.898624151945114136e-01
2.387000000000000000e+03 5.581331634521484375e+01 -6.493183135986328125e+00 -1.676363229751586914e+00 2.468059509992599487e-01 -4.288671910762786865e-01 -9.541499614715576172e-02
2.388000000000000000e+03 6.951505279541015625e+01 -2.663665390014648438e+01 -7.310543060302734375e-01 6.596462249755859375e+00 1.759622335433959961e+00 3.044422566890716553e-01
2.389000000000000000e+03 7.289325714111328125e+01 -2.622530364990234375e+01 -6.192407608032226562e-01 8.131798744201660156e+00 2.253767251968383789e+00 -1.829777359962463379e-01
2.390000000000000000e+03 4.955368041992187500e+01 -5.892845630645751953e+00 -1.013938307762145996e+00 3.249324560165405273e-01 -2.067017704248428345e-01 1.899318695068359375e-01
2.391000000000000000e+03 7.154190063476562500e+01 7.165916442871093750e+00 -1.171014755964279175e-01 6.261130332946777344e+00 1.843208670616149902e+00 -9.296669363975524902e-01
2.392000000000000000e+03 7.287138366699218750e+01 7.020383834838867188e+00 -1.284196674823760986e-01 6.685922145843505859e+00 1.967250704765319824e+00 -8.098208904266357422e-01
2.393000000000000000e+03 1.430562019348144531e+01 -3.416863632202148438e+01 9.260138031095266342e-04 1.887120743049308658e-04 3.344177675899118185e-04 1.750874216668307781e-03
2.394000000000000000e+03 1.073301410675048828e+01 -2.938035583496093750e+01 1.430108677595853806e-03 -1.302681193919852376e-04 3.899521543644368649e-04 4.824090865440666676e-04
2.395000000000000000e+03 6.187168884277343750e+01 1.125038051605224609e+01 5.268833041191101074e-01 3.286359548568725586e+00 1.143972873687744141e+00 -7.750695943832397461e-01
2.396000000000000000e+03 7.092956542968750000e+01 -3.013320732116699219e+01 -4.141914844512939453e-01 6.817695617675781250e+00 1.921051263809204102e+00 2.518486976623535156e-01
2.397000000000000000e+03 9.721773147583007812e+00 2.964139747619628906e+01 4.683431982994079590e-02 -7.066043615341186523e-01 -1.979310065507888794e-01 1.415766775608062744e-01
2.398000000000000000e+03 7.919711112976074219e+00 1.419564151763916016e+01 1.623415946960449219e-01 -6.312341690063476562e-01 -1.406677663326263428e-01 5.406376123428344727e-01
2.399000000000000000e+03 7.196501159667968750e+01 1.377874946594238281e+01 1.454392671585083008e-01 5.964840412139892578e+00 1.833083868026733398e+00 -7.215974330902099609e-01
2.400000000000000000e+03 7.162737274169921875e+01 1.133373451232910156e+01 1.081825420260429382e-01 5.992439746856689453e+00 1.830186605453491211e+00 -8.300260305404663086e-01
2.401000000000000000e+03 6.488464355468750000e+01 -2.808576774597167969e+01 -4.977316856384277344e-01 3.671100139617919922e+00 9.520105123519897461e-01 5.801909565925598145e-01
2.402000000000000000e+03 3.022172355651855469e+01 1.431947231292724609e+01 -1.354108601808547974e-01 -5.925219878554344177e-02 -5.839891731739044189e-02 3.821217417716979980e-01
2.403000000000000000e+03 3.046934700012207031e+01 1.774317359924316406e+01 1.124692037701606750e-01 -7.826725393533706665e-02 1.026058569550514221e-02 2.105912715196609497e-01
2.404000000000000000e+03 7.099095153808593750e+01 -3.537184524536132812e+01 -1.572753302752971649e-02 6.592339992523193359e+00 1.972983717918395996e+00 2.497807741165161133e-01
2.405000000000000000e+03 2.869037628173828125e+01 1.957188606262207031e+01 2.490832358598709106e-01 -2.427255213260650635e-01 1.907315105199813843e-03 2.357343435287475586e-01
2.406000000000000000e+03 7.078083801269531250e+01 1.885503196716308594e+01 1.948233246803283691e-01 5.469187259674072266e+00 1.699203252792358398e+00 -5.849354863166809082e-01
2.407000000000000000e+03 6.111163711547851562e+01 -1.591870665550231934e+00 -4.478792548179626465e-01 9.103199839591979980e-01 1.387322098016738892e-01 -7.142843604087829590e-01
2.408000000000000000e+03 9.212208747863769531e+00 -2.712981224060058594e+01 7.441595080308616161e-04 -2.791421429719775915e-04 1.395052095176652074e-04 5.785840330645442009e-04
2.409000000000000000e+03 9.529577255249023438e+00 -3.106990051269531250e+01 3.544392820913344622e-04 2.111757203238084912e-04 1.696844992693513632e-04 3.932013351004570723e-04
2.410000000000000000e+03 5.500143432617187500e+01 -5.818852901458740234e+00 -1.446320176124572754e+00 3.130849301815032959e-01 -3.399705886840820312e-01 3.916784003376960754e-02
2.411000000000000000e+03 8.303244590759277344e+00 -2.478702545166015625e+01 2.952591166831552982e-04 2.095203817589208484e-04 1.514338509878143668e-04 1.701365908957086504e-05
2.412000000000000000e+03 9.360055923461914062e+00 -2.487664794921875000e+01 -1.157364531536586583e-04 -1.382561022182926536e-04 -7.619776442879810929e-05 2.190147497458383441e-04
2.413000000000000000e+03 5.440419387817382812e+01 2.570183563232421875e+01 5.623438358306884766e-01 2.110858201980590820e+00 8.019606471061706543e-01 -4.580692946910858154e-01
2.414000000000000000e+03 5.212657546997070312e+01 2.681307029724121094e+01 6.594598889350891113e-01 1.699101805686950684e+00 7.075685262680053711e-01 -2.696878612041473389e-01
2.415000000000000000e+03 7.925201892852783203e+00 -2.933684539794921875e+01 -3.163237124681472778e-04 9.572052658768370748e-05 -6.618096085730940104e-05 6.688513094559311867e-04
2.416000000000000000e+03 4.197031021118164062e+01 3.546250581741333008e+00 -3.217454552650451660e-01 4.317812025547027588e-01 3.301072120666503906e-02 2.108140289783477783e-01
2.417000000000000000e+03 5.923147964477539062e+01 -3.343737792968750000e+01 1.897576004266738892e-01 1.238869667053222656e+00 4.285881817340850830e-01 1.364583075046539307e-01
2.418000000000000000e+03 1.021187686920166016e+01 3.275610733032226562e+01 5.962564796209335327e-02 -7.057383060455322266e-01 -1.938337981700897217e-01 1.167868450284004211e-01
2.419000000000000000e+03 8.892123222351074219e+00 3.602236175537109375e+01 4.145341739058494568e-02 -8.447851538658142090e-01 -2.409995198249816895e-01 6.141690164804458618e-02
2.420000000000000000e+03 5.098907470703125000e+01 -6.440361976623535156e+00 -1.158338427543640137e+00 3.240883350372314453e-01 -2.502750456333160400e-01 1.407362818717956543e-01
2.421000000000000000e+03 8.594761848449707031e+00 3.102137756347656250e+01 3.407689929008483887e-02 -8.019914031028747559e-01 -2.303743362426757812e-01 1.099811792373657227e-01
2.422000000000000000e+03 7.940925121307373047e+00 -3.484032821655273438e+01 2.696188748814165592e-04 6.483760662376880646e-04 2.753984881564974785e-04 6.615222082473337650e-04
2.423000000000000000e+03 6.289179611206054688e+01 1.421102714538574219e+01 5.630313754081726074e-01 3.677833080291748047e+00 1.272259354591369629e+00 -7.207291126251220703e-01
2.424000000000000000e+03 6.308557510375976562e+01 1.690432739257812500e+01 5.121072530746459961e-01 3.804994344711303711e+00 1.295130491256713867e+00 -6.337096095085144043e-01
2.425000000000000000e+03 3.029645156860351562e+01 8.407430648803710938e+00 4.348940774798393250e-02 -1.172430813312530518e-01 -2.212610095739364624e-02 6.511218547821044922e-01
2.426000000000000000e+03 7.272900390625000000e+01 2.949371147155761719e+01 8.856657147407531738e-02 5.545344829559326172e+00 1.690173387527465820e+00 -2.651474177837371826e-01
2.427000000000000000e+03 6.953804016113281250e+01 2.848936080932617188e+01 1.586750894784927368e-01 5.018201828002929688e+00 1.553063035011291504e+00 -3.596938848495483398e-01
2.428000000000000000e+03 7.211357116699218750e+01 -2.722393417358398438e+01 -6.180971264839172363e-01 7.717143535614013672e+00 2.129713773727416992e+00 2.192225838371086866e-05
2.429000000000000000e+03 6.070231246948242188e+01 1.647876358032226562e+01 6.090579628944396973e-01 3.392612934112548828e+00 1.200501203536987305e+00 -5.581487417221069336e-01
2.430000000000000000e+03 4.769208526611328125e+01 2.528885078430175781e+01 6.687428951263427734e-01 9.932054281234741211e-01 4.985845088958740234e-01 8.941492438316345215e-02
2.431000000000000000e+03 4.297746658325195312e+01 2.687367439270019531e+01 5.237614512443542480e-01 9.269481301307678223e-01 4.352128803730010986e-01 2.124161571264266968e-01
2.432000000000000000e+03 5.461747741699218750e+01 7.699265480041503906e-01 -2.601189911365509033e-01 6.466659307479858398e-01 1.159640848636627197e-01 2.774519920349121094e-01
2.433000000000000000e+03 7.249955749511718750e+01 -2.891864395141601562e+01 -4.616102576255798340e-01 7.615670204162597656e+00 2.146218061447143555e+00 4.371954500675201416e-02
2.434000000000000000e+03 9.653650283813476562e+00 2.698126792907714844e+01 6.497900187969207764e-02 -6.492899656295776367e-01 -1.752932816743850708e-01 1.665798127651214600e-01
2.435000000000000000e+03 2.660946083068847656e+01 2.079134559631347656e+01 3.422456085681915283e-01 -3.720058500766754150e-01 -8.928074501454830170e-03 3.358812034130096436e-01
2.436000000000000000e+03 7.055104064941406250e+01 2.982725715637207031e+01 1.323937326669692993e-01 5.191425323486328125e+00 1.597145676612854004e+00 -3.138032853603363037e-01
2.437000000000000000e+03 3.654432678222656250e+01 8.702489852905273438e+00 -2.079614624381065369e-02 4.557783305644989014e-01 1.304946541786193848e-01 5.439196825027465820e-01
2.438000000000000000e+03 1.710629081726074219e+01 2.269543457031250000e+01 1.602255254983901978e-01 -9.435778111219406128e-02 1.976032368838787079e-02 4.321149289608001709e-01
2.439000000000000000e+03 7.138966369628906250e+01 -9.833102226257324219e+00 8.298165202140808105e-01 1.646555709838867188e+01 5.188611984252929688e+00 6.099820137023925781e-01
2.440000000000000000e+03 7.180189514160156250e+01 -8.321869850158691406e+00 -2.754244804382324219e-01 1.328884601593017578e+01 3.904026508331298828e+00 3.789065182209014893e-01
2.441000000000000000e+03 7.217008972167968750e+01 -9.632602691650390625e+00 1.267149329185485840e+00 1.440309810638427734e+01 4.701074123382568359e+00 1.544285416603088379e+00
2.442000000000000000e+03 7.318278503417968750e+01 -1.008862876892089844e+01 2.433285236358642578e+00 1.242295551300048828e+01 4.456872463226318359e+00 1.952393531799316406e+00
2.443000000000000000e+03 7.275015258789062500e+01 -1.036726570129394531e+01 2.934314489364624023e+00 1.315379810333251953e+01 4.826433658599853516e+00 1.948398232460021973e+00
2.444000000000000000e+03 7.378457641601562500e+01 -1.242244052886962891e+01 4.218208312988281250e+00 1.068515396118164062e+01 4.471008777618408203e+00 -5.593022108078002930e-01
2.445000000000000000e+03 7.105216217041015625e+01 -8.925427436828613281e+00 -9.356064721941947937e-03 1.457897186279296875e+01 4.370884895324707031e+00 -8.155034184455871582e-01
2.446000000000000000e+03 7.350407409667968750e+01 -1.163248634338378906e+01 4.489593505859375000e+00 1.124232578277587891e+01 4.719575881958007812e+00 6.629913449287414551e-01
2.447000000000000000e+03 7.339960479736328125e+01 -1.122307777404785156e+01 4.277252197265625000e+00 1.159777164459228516e+01 4.762506961822509766e+00 1.186277151107788086e+00
2.448000000000000000e+03 7.363920593261718750e+01 -9.723358154296875000e+00 1.792572379112243652e+00 1.153852748870849609e+01 3.999329805374145508e+00 1.966084957122802734e+00
2.449000000000000000e+03 7.260581207275390625e+01 -1.440469741821289062e+01 1.992971897125244141e+00 1.355760002136230469e+01 4.665171623229980469e+00 -2.277426004409790039e+00
2.450000000000000000e+03 7.125000762939453125e+01 -7.862287998199462891e+00 -5.275827050209045410e-01 1.274844169616699219e+01 3.666257858276367188e+00 -4.053156971931457520e-01
2.451000000000000000e+03 7.094527435302734375e+01 -8.284204483032226562e+00 -3.826017975807189941e-01 1.337728595733642578e+01 3.898405313491821289e+00 -8.032953739166259766e-01
2.452000000000000000e+03 7.433507537841796875e+01 -1.405849266052246094e+01 2.206125020980834961e+00 1.036121273040771484e+01 3.770201206207275391e+00 -1.907716870307922363e+00
2.453000000000000000e+03 2.988133049011230469e+01 -1.060208797454833984e+01 -5.499100685119628906e-01 -7.247489877045154572e-03 -1.671472638845443726e-01 3.800418674945831299e-01
2.454000000000000000e+03 7.489725494384765625e+01 -1.732263946533203125e+01 -3.230881392955780029e-01 9.899271011352539062e+00 2.872854709625244141e+00 -2.019193410873413086e+00
2.455000000000000000e+03 7.368399047851562500e+01 -8.025658607482910156e+00 3.475642576813697815e-02 1.112849426269531250e+01 3.348975181579589844e+00 1.726943492889404297e+00
2.456000000000000000e+03 6.996096611022949219e+00 6.609921455383300781e+00 -2.972235381603240967e-01 -2.065319120883941650e-01 -1.511266380548477173e-01 3.586107790470123291e-01
2.457000000000000000e+03 8.802156448364257812e+00 6.778230190277099609e+00 -4.220136702060699463e-01 -2.807706296443939209e-01 -2.108352929353713989e-01 4.636152386665344238e-01
2.458000000000000000e+03 7.137818908691406250e+01 -1.590385532379150391e+01 -6.954107284545898438e-01 1.332059860229492188e+01 3.787556409835815430e+00 -3.020532429218292236e-02
2.459000000000000000e+03 7.348454284667968750e+01 -6.226304531097412109e+00 -9.789636135101318359e-01 1.055861759185791016e+01 2.873896360397338867e+00 1.188238620758056641e+00
2.460000000000000000e+03 7.572689056396484375e+01 -1.260415077209472656e+01 2.192359685897827148e+00 8.324590682983398438e+00 3.155085086822509766e+00 -5.206710100173950195e-01
2.461000000000000000e+03 7.488151550292968750e+01 -1.220835304260253906e+01 2.998477935791015625e+00 9.285024642944335938e+00 3.685050725936889648e+00 -2.637453079223632812e-01
2.462000000000000000e+03 7.128633117675781250e+01 -1.644858169555664062e+01 -8.940488696098327637e-01 1.252159500122070312e+01 3.488263845443725586e+00 1.579277962446212769e-01
2.463000000000000000e+03 7.576534271240234375e+01 -1.571371555328369141e+01 5.452426671981811523e-01 8.967139244079589844e+00 2.853714704513549805e+00 -2.086936712265014648e+00
2.464000000000000000e+03 7.512061309814453125e+01 -1.340657234191894531e+01 2.401994466781616211e+00 9.181241989135742188e+00 3.474970817565917969e+00 -1.272239685058593750e+00
2.465000000000000000e+03 7.438320922851562500e+01 -1.037890434265136719e+01 2.427444696426391602e+00 1.015081596374511719e+01 3.773478269577026367e+00 1.564509391784667969e+00
2.466000000000000000e+03 2.739168548583984375e+01 -6.172942161560058594e+00 -7.375685572624206543e-01 -3.886189311742782593e-02 -2.329291254281997681e-01 4.509517252445220947e-01
2.467000000000000000e+03 7.087071990966796875e+01 -7.497118473052978516e+00 -8.268922567367553711e-01 1.237974929809570312e+01 3.465857267379760742e+00 -7.392981052398681641e-01
2.468000000000000000e+03 9.750949859619140625e+00 6.795662403106689453e+00 -4.984613358974456787e-01 -3.383300602436065674e-01 -2.510374188423156738e-01 4.768778979778289795e-01
2.469000000000000000e+03 8.820013999938964844e+00 7.692395687103271484e+00 -3.867639899253845215e-01 -3.298873603343963623e-01 -2.149953991174697876e-01 5.067157149314880371e-01
2.470000000000000000e+03 3.025634574890136719e+01 -1.140928077697753906e+01 -5.184586048126220703e-01 -3.550801426172256470e-03 -1.566028296947479248e-01 3.533963561058044434e-01
2.471000000000000000e+03 3.206740570068359375e+01 -1.198330402374267578e+01 -5.420237183570861816e-01 5.598807334899902344e-02 -1.458106935024261475e-01 3.049374520778656006e-01
2.472000000000000000e+03 2.758510017395019531e+01 -4.178916454315185547e+00 -7.262514829635620117e-01 3.153638169169425964e-02 -2.084145247936248779e-01 3.804395794868469238e-01
2.473000000000000000e+03 7.768773555755615234e+00 9.375506401062011719e+00 -2.273258268833160400e-01 -3.641778230667114258e-01 -1.774510890245437622e-01 5.527203083038330078e-01
2.474000000000000000e+03 8.453613281250000000e+00 1.062534236907958984e+01 -1.298358589410781860e-01 -4.591257572174072266e-01 -1.766884922981262207e-01 6.244434714317321777e-01
2.475000000000000000e+03 7.472238922119140625e+01 -7.371326923370361328e+00 -1.558785140514373779e-01 9.964626312255859375e+00 2.942624330520629883e+00 1.866830229759216309e+00
2.476000000000000000e+03 7.400428009033203125e+01 -7.408841609954833984e+00 -2.831599414348602295e-01 1.073778247833251953e+01 3.136386632919311523e+00 1.727814674377441406e+00
2.477000000000000000e+03 3.924285125732421875e+01 4.081409454345703125e+00 -2.995893359184265137e-01 4.712469279766082764e-01 5.149727687239646912e-02 3.426511287689208984e-01
2.478000000000000000e+03 3.981680679321289062e+01 5.770573616027832031e+00 -2.576639056205749512e-01 5.601084828376770020e-01 9.073337167501449585e-02 3.368524014949798584e-01
2.479000000000000000e+03 7.178619384765625000e+01 -2.173601341247558594e+01 -1.158891320228576660e+00 8.821186065673828125e+00 2.298688411712646484e+00 -2.324812263250350952e-01
2.480000000000000000e+03 2.587003707885742188e+01 -3.306995153427124023e+00 -7.682753801345825195e-01 -4.777649044990539551e-02 -2.448155730962753296e-01 3.957450985908508301e-01
2.481000000000000000e+03 2.591954231262207031e+01 -2.370914936065673828e+00 -7.208845615386962891e-01 -1.373486407101154327e-02 -2.203858196735382080e-01 3.455191254615783691e-01
2.482000000000000000e+03 7.151553344726562500e+01 -7.113393783569335938e+00 -9.616098999977111816e-01 1.189955520629882812e+01 3.281383514404296875e+00 -7.519790530204772949e-02
2.483000000000000000e+03 1.082887458801269531e+01 7.716291427612304688e+00 -5.344396233558654785e-01 -4.833290874958038330e-01 -3.053306043148040771e-01 5.753579735755920410e-01
2.484000000000000000e+03 3.890828323364257812e+01 -1.127396965026855469e+01 -7.168160080909729004e-01 1.984998136758804321e-01 -1.554948538541793823e-01 1.760129481554031372e-01
2.485000000000000000e+03 4.107175064086914062e+01 -1.072473621368408203e+01 -7.797401547431945801e-01 2.201756983995437622e-01 -1.678693294525146484e-01 1.396777778863906860e-01
2.486000000000000000e+03 5.216795730590820312e+01 -1.126813217997550964e-01 -3.679999113082885742e-01 4.199354946613311768e-01 1.558067928999662399e-02 3.796116709709167480e-01
2.487000000000000000e+03 7.065653991699218750e+01 -1.924643135070800781e+01 -1.122609853744506836e+00 9.417201995849609375e+00 2.488377571105957031e+00 5.312552452087402344e-01
2.488000000000000000e+03 7.414775085449218750e+01 -1.709848213195800781e+01 -3.818392455577850342e-01 1.054171657562255859e+01 3.047963142395019531e+00 -1.926313757896423340e+00
2.489000000000000000e+03 2.526263427734375000e+01 -9.450051188468933105e-01 -6.232823133468627930e-01 -4.503600299358367920e-03 -1.883357763290405273e-01 2.970757186412811279e-01
2.490000000000000000e+03 2.498830795288085938e+01 -1.265597492456436157e-01 -5.277426838874816895e-01 1.627339608967304230e-02 -1.534407883882522583e-01 2.624214291572570801e-01
2.491000000000000000e+03 2.728389549255371094e+01 -5.387305468320846558e-02 -4.177618920803070068e-01 6.434813886880874634e-02 -1.060241311788558960e-01 2.210490256547927856e-01
2.492000000000000000e+03 3.374885940551757812e+01 1.068539524078369141e+01 9.166019968688488007e-03 2.507751882076263428e-01 7.798235863447189331e-02 5.748720765113830566e-01
2.493000000000000000e+03 3.509588623046875000e+01 1.069401168823242188e+01 5.329241603612899780e-02 3.518275916576385498e-01 1.215360015630722046e-01 5.484355092048645020e-01
2.494000000000000000e+03 4.481665420532226562e+01 -9.749094009399414062e+00 -9.076450467109680176e-01 2.452681213617324829e-01 -1.987130790948867798e-01 7.488732784986495972e-02
2.495000000000000000e+03 6.869650268554687500e+01 -2.742129325866699219e+01 -6.770557165145874023e-01 5.949937820434570312e+00 1.581864714622497559e+00 4.325160384178161621e-01
2.496000000000000000e+03 9.807133674621582031e+00 8.713415145874023438e+00 -3.684620261192321777e-01 -4.421225190162658691e-01 -2.431753724813461304e-01 6.158400774002075195e-01
2.497000000000000000e+03 4.059672927856445312e+01 -8.534838676452636719e+00 -7.645698189735412598e-01 2.630394101142883301e-01 -1.504591256380081177e-01 2.052466720342636108e-01
2.498000000000000000e+03 4.768336105346679688e+01 -7.105901718139648438e+00 -9.851365685462951660e-01 3.053949177265167236e-01 -2.039224952459335327e-01 1.497362107038497925e-01
2.499000000000000000e+03 5.008140182495117188e+01 -6.812908172607421875e+00 -1.105141401290893555e+00 3.073705732822418213e-01 -2.393312454223632812e-01 1.236991286277770996e-01
2.500000000000000000e+03 3.092794609069824219e+01 5.076966762542724609e+00 5.443599447607994080e-02 -3.228886052966117859e-02 6.644139531999826431e-03 4.625209271907806396e-01
2.501000000000000000e+03 3.220712280273437500e+01 6.726161956787109375e+00 2.257955819368362427e-02 4.677097499370574951e-02 2.080515958368778229e-02 5.620093941688537598e-01
2.502000000000000000e+03 6.923364257812500000e+01 -2.578447580337524414e+00 -1.713994145393371582e+00 7.398105621337890625e+00 1.705233454704284668e+00 -1.876549005508422852e+00
2.503000000000000000e+03 7.088027954101562500e+01 4.418215751647949219e+00 -4.028656780719757080e-01 6.318151473999023438e+00 1.774585843086242676e+00 -1.064703345298767090e+00
2.504000000000000000e+03 7.774930477142333984e+00 -1.014172840118408203e+01 -2.254703576909378171e-04 5.596295522991567850e-05 -5.085222073830664158e-05 1.173408381873741746e-04
2.505000000000000000e+03 7.141071796417236328e+00 8.833931922912597656e+00 -2.237990796566009521e-01 -3.384976089000701904e-01 -1.686890125274658203e-01 5.033702254295349121e-01
2.506000000000000000e+03 6.626673698425292969e+00 8.187394142150878906e+00 -2.305893599987030029e-01 -2.863122820854187012e-01 -1.550704985857009888e-01 4.270898699760437012e-01
2.507000000000000000e+03 7.886324405670166016e+00 8.545260429382324219e+00 -2.770754098892211914e-01 -3.394015729427337646e-01 -1.849430948495864868e-01 5.101037025451660156e-01
2.508000000000000000e+03 7.324563598632812500e+01 -1.920546650886535645e+00 -1.283234953880310059e+00 8.734712600708007812e+00 2.235443115234375000e+00 1.719734398648142815e-03
2.509000000000000000e+03 7.203657531738281250e+01 4.947451353073120117e-01 -1.040871262550354004e+00 7.632287025451660156e+00 1.977424740791320801e+00 -7.804476618766784668e-01
2.510000000000000000e+03 9.314874649047851562e+00 -6.756256580352783203e+00 -2.285628725076094270e-04 -5.203675027587451041e-05 -8.417989010922610760e-05 1.463092667108867317e-05
2.511000000000000000e+03 8.458155632019042969e+00 -6.373952388763427734e+00 2.187294885516166687e-04 5.200185842113569379e-05 8.121940481942147017e-05 -1.794736454030498862e-05
2.512000000000000000e+03 5.641726303100585938e+01 2.378559112548828125e+00 -2.969279699027538300e-02 1.026025414466857910e+00 2.988997995853424072e-01 6.453802436590194702e-02
2.513000000000000000e+03 5.899684524536132812e+01 4.142783641815185547e+00 1.490387916564941406e-01 1.794894337654113770e+00 5.831799507141113281e-01 -4.012230038642883301e-01
2.514000000000000000e+03 6.549598693847656250e+01 -2.431859970092773438e+00 -7.108922004699707031e-01 2.847667217254638672e+00 6.410325169563293457e-01 -2.353053331375122070e+00
2.515000000000000000e+03 6.738787841796875000e+01 -3.534860372543334961e+00 -1.535830140113830566e+00 5.680378437042236328e+00 1.243364453315734863e+00 -2.933531761169433594e+00
2.516000000000000000e+03 3.028701400756835938e+01 -9.396868705749511719e+00 -6.115819811820983887e-01 4.184087365865707397e-02 -1.709223389625549316e-01 3.893598914146423340e-01
2.517000000000000000e+03 3.900114059448242188e+01 6.384953975677490234e+00 -2.074570804834365845e-01 5.616213083267211914e-01 1.062492728233337402e-01 4.002500474452972412e-01
2.518000000000000000e+03 3.405808258056640625e+01 4.358316898345947266e+00 -1.465985029935836792e-01 1.988435536623001099e-01 1.567351445555686951e-02 4.650978147983551025e-01
2.519000000000000000e+03 2.825980949401855469e+01 2.436584472656250000e+00 -8.925479650497436523e-02 8.631844073534011841e-03 -2.418688498437404633e-02 2.268600761890411377e-01
2.520000000000000000e+03 7.008862304687500000e+01 3.578519582748413086e+00 -4.798470735549926758e-01 6.092922687530517578e+00 1.683922767639160156e+00 -1.205461978912353516e+00
2.521000000000000000e+03 7.077487945556640625e+01 1.201208305358886719e+01 1.624858081340789795e-01 5.712064743041992188e+00 1.762365221977233887e+00 -8.554031848907470703e-01
2.522000000000000000e+03 7.130794525146484375e+01 8.210401535034179688e+00 -2.543362975120544434e-02 6.119150638580322266e+00 1.828115105628967285e+00 -9.256246089935302734e-01
2.523000000000000000e+03 4.350875473022460938e+01 -1.020959377288818359e+01 -8.611604571342468262e-01 2.306832820177078247e-01 -1.891431659460067749e-01 9.317544102668762207e-02
2.524000000000000000e+03 6.934504699707031250e+01 1.921627235412597656e+01 2.453859895467758179e-01 5.136569976806640625e+00 1.614586830139160156e+00 -6.056521534919738770e-01
2.525000000000000000e+03 5.385491561889648438e+01 -5.279067039489746094e+00 -1.258145689964294434e+00 3.500429689884185791e-01 -2.724308073520660400e-01 1.476355046033859253e-01
2.526000000000000000e+03 4.812099456787109375e+01 -5.444798946380615234e+00 -8.884397149085998535e-01 3.218472599983215332e-01 -1.699777394533157349e-01 2.326091378927230835e-01
2.527000000000000000e+03 1.073390674591064453e+01 2.556473159790039062e+01 8.463515341281890869e-02 -5.385398268699645996e-01 -1.361714005470275879e-01 1.946612447500228882e-01
2.528000000000000000e+03 1.097478199005126953e+01 2.822569465637207031e+01 6.794449687004089355e-02 -5.806519389152526855e-01 -1.538122445344924927e-01 1.831940114498138428e-01
2.529000000000000000e+03 7.026064300537109375e+01 -2.215178489685058594e+01 -1.086110830307006836e+00 7.909984588623046875e+00 2.047162055969238281e+00 3.113283216953277588e-01
2.530000000000000000e+03 6.966166687011718750e+01 -2.339127159118652344e+01 -1.024141311645507812e+00 7.183304309844970703e+00 1.847748994827270508e+00 3.820034563541412354e-01
2.531000000000000000e+03 7.687395572662353516e+00 1.538063621520996094e+01 2.044139802455902100e-01 -6.686136126518249512e-01 -1.392598897218704224e-01 4.666956067085266113e-01
2.532000000000000000e+03 6.845509338378906250e+01 3.657288312911987305e+00 -3.753688931465148926e-01 5.402471542358398438e+00 1.508130788803100586e+00 -1.370587944984436035e+00
2.533000000000000000e+03 3.121354293823242188e+01 1.909605216979980469e+01 2.085033208131790161e-01 1.782556297257542610e-03 6.308576464653015137e-02 1.943400800228118896e-01
2.534000000000000000e+03 3.650608062744140625e+01 1.473924446105957031e+01 2.578290104866027832e-01 5.398859977722167969e-01 2.393145114183425903e-01 3.501008749008178711e-01
2.535000000000000000e+03 5.690226745605468750e+01 -1.899611204862594604e-01 -3.741601705551147461e-01 7.810910940170288086e-01 1.220792829990386963e-01 7.796207815408706665e-02
2.536000000000000000e+03 5.625904464721679688e+01 6.553351879119873047e-01 -2.540063261985778809e-01 7.845023274421691895e-01 1.591487973928451538e-01 1.423373967409133911e-01
2.537000000000000000e+03 7.341606903076171875e+01 -4.837270259857177734e+00 -1.303973674774169922e+00 9.922278404235839844e+00 2.585491418838500977e+00 7.731490731239318848e-01
2.538000000000000000e+03 4.294215011596679688e+01 1.847844719886779785e+00 -3.450524508953094482e-01 3.456094861030578613e-01 1.671056670602411032e-04 2.195023149251937866e-01
2.539000000000000000e+03 4.507394790649414062e+01 1.851616859436035156e+00 -2.914533317089080811e-01 2.659862935543060303e-01 -7.640117779374122620e-03 2.121111154556274414e-01
2.540000000000000000e+03 6.929904937744140625e+00 1.983966064453125000e+01 1.581702679395675659e-01 -7.554742693901062012e-01 -1.791912019252777100e-01 2.504611909389495850e-01
2.541000000000000000e+03 7.862385272979736328e+00 1.900979804992675781e+01 2.037236094474792480e-01 -7.082669734954833984e-01 -1.513630002737045288e-01 2.932663857936859131e-01
2.542000000000000000e+03 1.040819835662841797e+01 1.767305564880371094e+01 3.625069260597229004e-01 -5.644042491912841797e-01 -6.056919321417808533e-02 3.423773050308227539e-01
2.543000000000000000e+03 5.354468536376953125e+01 -2.587433576583862305e+00 -7.688972949981689453e-01 4.229392409324645996e-01 -1.037874147295951843e-01 3.011879026889801025e-01
2.544000000000000000e+03 5.417213439941406250e+01 -4.100562572479248047e+00 -1.080513954162597656e+00 3.849926888942718506e-01 -2.086563706398010254e-01 2.224675565958023071e-01
2.545000000000000000e+03 3.659237289428710938e+01 1.731794929504394531e+01 3.039592504501342773e-01 5.885283350944519043e-01 2.677462697029113770e-01 2.354368567466735840e-01
2.546000000000000000e+03 4.691308593750000000e+01 9.547379016876220703e-01 -2.956867516040802002e-01 2.327168881893157959e-01 -1.889095641672611237e-02 2.782916128635406494e-01
2.547000000000000000e+03 4.779007339477539062e+01 4.835559129714965820e-01 -3.129573464393615723e-01 2.418683767318725586e-01 -2.132669091224670410e-02 3.087705671787261963e-01
2.548000000000000000e+03 3.687542343139648438e+01 1.607743835449218750e+01 2.989005744457244873e-01 6.078707575798034668e-01 2.720313966274261475e-01 2.763606905937194824e-01
2.549000000000000000e+03 3.618621826171875000e+01 1.334923744201660156e+01 1.843549460172653198e-01 5.001487731933593750e-01 2.053511142730712891e-01 4.364639520645141602e-01
2.550000000000000000e+03 7.852345466613769531e+00 7.631690502166748047e+00 -3.288767933845520020e-01 -2.772987484931945801e-01 -1.818526685237884521e-01 4.768762588500976562e-01
2.551000000000000000e+03 6.164997863769531250e+01 1.352454948425292969e+01 5.915010571479797363e-01 3.393867492675781250e+00 1.195610523223876953e+00 -6.906477808952331543e-01
2.552000000000000000e+03 7.206050109863281250e+01 8.855333328247070312e+00 -3.723778994753956795e-03 6.279880523681640625e+00 1.882846951484680176e+00 -8.557769656181335449e-01
2.553000000000000000e+03 7.001673126220703125e+01 5.247393131256103516e+00 -2.740784883499145508e-01 5.861794948577880859e+00 1.676314949989318848e+00 -1.155338406562805176e+00
2.554000000000000000e+03 6.235071563720703125e+01 -1.366159200668334961e+00 -3.793268501758575439e-01 1.267536759376525879e+00 2.664629518985748291e-01 -1.098667860031127930e+00
2.555000000000000000e+03 6.098630142211914062e+01 -1.484814286231994629e-01 -1.792604774236679077e-01 1.354870676994323730e+00 3.526830673217773438e-01 -7.260416150093078613e-01
2.556000000000000000e+03 3.808379745483398438e+01 -1.250240707397460938e+01 -6.729406118392944336e-01 1.621904075145721436e-01 -1.532250642776489258e-01 1.607665717601776123e-01
2.557000000000000000e+03 6.538378143310546875e+01 -1.575228214263916016e+00 -6.216077804565429688e-01 3.035504102706909180e+00 7.241688966751098633e-01 -2.177704811096191406e+00
2.558000000000000000e+03 6.516371154785156250e+01 -3.237498998641967773e+00 -9.131947159767150879e-01 2.285598993301391602e+00 4.117212593555450439e-01 -2.321161746978759766e+00
2.559000000000000000e+03 3.126552772521972656e+01 9.203284263610839844e+00 -1.482181623578071594e-02 -6.819389760494232178e-03 -6.492361426353454590e-03 6.464429497718811035e-01
2.560000000000000000e+03 7.136904907226562500e+01 1.533274650573730469e+01 1.870807558298110962e-01 5.741925239562988281e+00 1.778701782226562500e+00 -6.900936961174011230e-01
2.561000000000000000e+03 8.560218811035156250e+00 -3.230895996093750000e+01 7.675380329601466656e-04 1.391896366840228438e-04 2.720182819757610559e-04 9.255649638362228870e-04
2.562000000000000000e+03 7.387136840820312500e+01 -1.770221328735351562e+01 -7.257224917411804199e-01 1.058127498626708984e+01 2.956665754318237305e+00 -1.655736684799194336e+00
2.563000000000000000e+03 7.144659423828125000e+01 -1.860858345031738281e+01 -1.190592288970947266e+00 1.041814708709716797e+01 2.768266439437866211e+00 1.432621572166681290e-02
2.564000000000000000e+03 3.136726570129394531e+01 1.247925949096679688e+01 -1.004677116870880127e-01 4.169425368309020996e-02 -1.763203740119934082e-02 5.199227929115295410e-01
2.565000000000000000e+03 3.168289375305175781e+01 1.382133007049560547e+01 -5.978505685925483704e-02 9.021091461181640625e-02 9.127757512032985687e-03 4.309050142765045166e-01
2.566000000000000000e+03 3.962500762939453125e+01 2.228371429443359375e+01 3.252567946910858154e-01 8.435003757476806641e-01 3.506271541118621826e-01 2.317591011524200439e-01
2.567000000000000000e+03 3.717021560668945312e+01 1.934332847595214844e+01 3.104141354560852051e-01 6.638026237487792969e-01 2.922650277614593506e-01 1.893421560525894165e-01
2.568000000000000000e+03 6.816580200195312500e+01 -2.981844711303710938e+01 -3.855142593383789062e-01 5.569730281829833984e+00 1.555264830589294434e+00 4.187137186527252197e-01
2.569000000000000000e+03 6.641950988769531250e+01 -2.994999885559082031e+01 -3.418054580688476562e-01 4.606557846069335938e+00 1.279425740242004395e+00 5.167676210403442383e-01
2.570000000000000000e+03 4.103232192993164062e+01 2.457320594787597656e+01 4.055144190788269043e-01 8.751422762870788574e-01 3.841970264911651611e-01 2.509371638298034668e-01
2.571000000000000000e+03 7.100148010253906250e+01 2.175594902038574219e+01 1.584189683198928833e-01 5.458367824554443359e+00 1.685035943984985352e+00 -4.837292134761810303e-01
2.572000000000000000e+03 6.746124267578125000e+01 1.853825950622558594e+01 3.264608383178710938e-01 4.740440845489501953e+00 1.520070552825927734e+00 -6.496655941009521484e-01
2.573000000000000000e+03 7.044042968750000000e+01 -2.763922309875488281e+01 -6.216063499450683594e-01 6.965790271759033203e+00 1.903255224227905273e+00 2.266241610050201416e-01
2.574000000000000000e+03 5.516847991943359375e+01 -3.958051681518554688e+00 -1.102737426757812500e+00 3.973936140537261963e-01 -2.116031497716903687e-01 1.829161047935485840e-01
2.575000000000000000e+03 6.985177612304687500e+01 2.598909187316894531e+01 1.554816514253616333e-01 5.149758815765380859e+00 1.591572165489196777e+00 -4.071255922317504883e-01
2.576000000000000000e+03 7.103784179687500000e+01 2.315857696533203125e+01 1.554882079362869263e-01 5.451722145080566406e+00 1.682163119316101074e+00 -4.552866518497467041e-01
2.577000000000000000e+03 3.042242240905761719e+01 1.601875686645507812e+01 -3.048755414783954620e-02 -5.891185626387596130e-02 -2.681982330977916718e-02 2.852704823017120361e-01
2.578000000000000000e+03 3.339769744873046875e+01 1.799936485290527344e+01 1.973110437393188477e-01 2.429272383451461792e-01 1.320714801549911499e-01 2.163491100072860718e-01
2.579000000000000000e+03 3.538040161132812500e+01 9.618012428283691406e+00 1.835760287940502167e-02 3.635132014751434326e-01 1.145612448453903198e-01 5.646736621856689453e-01
2.580000000000000000e+03 3.648430252075195312e+01 9.735090255737304688e+00 3.288679942488670349e-02 4.724465608596801758e-01 1.516000032424926758e-01 5.388268828392028809e-01
2.581000000000000000e+03 3.234887695312500000e+01 9.291632652282714844e+00 -9.260622784495353699e-03 1.024461165070533752e-01 2.795564755797386169e-02 6.161223053932189941e-01
2.582000000000000000e+03 1.820371055603027344e+01 2.382711601257324219e+01 1.779114454984664917e-01 -1.432310193777084351e-01 1.040412764996290207e-02 4.652768075466156006e-01
2.583000000000000000e+03 1.561122417449951172e+01 2.522008895874023438e+01 1.357047557830810547e-01 -2.535327374935150146e-01 -3.534838929772377014e-02 3.389136195182800293e-01
2.584000000000000000e+03 6.200020599365234375e+01 1.550903511047363281e+01 5.647216439247131348e-01 3.561956882476806641e+00 1.238003611564636230e+00 -6.413560509681701660e-01
2.585000000000000000e+03 6.120683288574218750e+01 2.002043914794921875e+01 4.114505052566528320e-01 3.524895668029785156e+00 1.180903792381286621e+00 -5.402743220329284668e-01
2.586000000000000000e+03 4.547232055664062500e+01 -1.120238018035888672e+01 -9.391078948974609375e-01 1.956106871366500854e-01 -2.230491638183593750e-01 -2.729090629145503044e-03
2.587000000000000000e+03 4.588228225708007812e+01 -8.839903831481933594e+00 -9.526852965354919434e-01 2.642354965209960938e-01 -2.065349370241165161e-01 8.867242187261581421e-02
2.588000000000000000e+03 6.895590972900390625e+01 1.787301445007324219e+01 2.779535651206970215e-01 5.055636882781982422e+00 1.600077033042907715e+00 -6.668590307235717773e-01
2.589000000000000000e+03 7.007563781738281250e+01 1.593398761749267578e+01 2.356403172016143799e-01 5.363833427429199219e+00 1.679842114448547363e+00 -7.281541228294372559e-01
2.590000000000000000e+03 6.857986450195312500e+01 -3.231435394287109375e+01 -1.983389258384704590e-01 5.604637622833251953e+00 1.621889591217041016e+00 3.812964558601379395e-01
2.591000000000000000e+03 9.518220901489257812e+00 -2.979377937316894531e+01 -1.993409823626279831e-04 -1.035289242281578481e-04 -9.086097270483151078e-05 1.106101553887128830e-03
2.592000000000000000e+03 1.012864780426025391e+01 -2.802603912353515625e+01 -2.146222977899014950e-04 -6.167970423121005297e-05 -8.289059769595041871e-05 5.290759727358818054e-04
2.593000000000000000e+03 5.859645843505859375e+01 -1.041160941123962402e+00 -4.840975403785705566e-01 7.354972958564758301e-01 7.541993260383605957e-02 -1.449103355407714844e-01
2.594000000000000000e+03 2.748697853088378906e+01 1.829000353813171387e+00 -1.715135425329208374e-01 2.280393987894058228e-02 -4.461288079619407654e-02 1.966657787561416626e-01
2.595000000000000000e+03 2.862528991699218750e+01 -1.874322772026062012e+00 -5.576792955398559570e-01 9.542538225650787354e-02 -1.386761814355850220e-01 2.869527637958526611e-01
2.596000000000000000e+03 5.982256317138671875e+01 1.324324250221252441e+00 -3.618970140814781189e-02 1.444604992866516113e+00 4.225246012210845947e-01 -5.024989247322082520e-01
2.597000000000000000e+03 5.586063385009765625e+01 -4.856593608856201172e+00 -1.335846900939941406e+00 3.446410894393920898e-01 -2.973617315292358398e-01 1.120076179504394531e-01
2.598000000000000000e+03 7.058863067626953125e+01 9.074636459350585938e+00 4.908929020166397095e-02 5.769077777862548828e+00 1.745450139045715332e+00 -9.632790684700012207e-01
2.599000000000000000e+03 2.465504455566406250e+01 2.354483604431152344e+01 3.798776865005493164e-01 -3.113795816898345947e-01 2.054943516850471497e-02 4.383954107761383057e-01
2.600000000000000000e+03 2.390621566772460938e+01 2.620409011840820312e+01 3.521474003791809082e-01 -2.333729416131973267e-01 3.563233464956283569e-02 4.011121392250061035e-01
2.601000000000000000e+03 2.050375938415527344e+01 2.138183212280273438e+01 2.527825832366943359e-01 -2.099134027957916260e-01 1.286075450479984283e-02 6.391655802726745605e-01
2.602000000000000000e+03 1.338350296020507812e+01 -3.217576980590820312e+01 -2.235397987533360720e-04 -2.153145760530605912e-04 -1.316563138971105218e-04 9.806619491428136826e-04
2.603000000000000000e+03 1.144885063171386719e+01 -3.303799819946289062e+01 1.086949720047414303e-03 1.897007314255461097e-05 3.317759255878627300e-04 9.538287413306534290e-04
2.604000000000000000e+03 5.435540676116943359e+00 -3.416719055175781250e+01 5.135748651809990406e-04 4.005036898888647556e-04 2.742235665209591389e-04 5.536284297704696655e-04
2.605000000000000000e+03 4.365600585937500000e+00 -3.534848785400390625e+01 -3.685529227368533611e-04 9.353645727969706059e-04 1.700434950180351734e-04 4.160747339483350515e-04
2.606000000000000000e+03 9.508877754211425781e+00 -3.375357437133789062e+01 -7.011478301137685776e-04 3.416155814193189144e-04 -1.078596760635264218e-04 1.065604505129158497e-03
2.607000000000000000e+03 5.995838928222656250e+01 2.092983245849609375e+01 3.509214222431182861e-01 3.340606212615966797e+00 1.107458233833312988e+00 -5.472366213798522949e-01
2.608000000000000000e+03 3.091986274719238281e+01 7.079905033111572266e+00 7.726069539785385132e-02 -6.071121245622634888e-02 4.964844323694705963e-03 5.893044471740722656e-01
2.609000000000000000e+03 3.234342956542968750e+01 8.009075164794921875e+00 1.151216402649879456e-02 7.514636963605880737e-02 2.599756047129631042e-02 6.159620285034179688e-01
2.610000000000000000e+03 6.012522125244140625e+01 7.669013977050781250e+00 3.580770492553710938e-01 2.627095222473144531e+00 8.955516815185546875e-01 -6.271448731422424316e-01
2.611000000000000000e+03 6.205049133300781250e+01 9.925816535949707031e+00 4.681081175804138184e-01 3.246196746826171875e+00 1.114291429519653320e+00 -8.270980715751647949e-01
2.612000000000000000e+03 4.087221145629882812e+01 2.814033746719360352e+00 -3.458227217197418213e-01 4.235794246196746826e-01 2.332701161503791809e-02 2.657189369201660156e-01
2.613000000000000000e+03 4.953680038452148438e+01 -1.454766988754272461e+00 -5.243506431579589844e-01 3.081188499927520752e-01 -6.486953794956207275e-02 3.497304618358612061e-01
2.614000000000000000e+03 4.678096008300781250e+01 -9.521912574768066406e+00 -9.998526573181152344e-01 2.416909039020538330e-01 -2.274485379457473755e-01 3.516978770494461060e-02
2.615000000000000000e+03 6.943378448486328125e+01 3.474378585815429688e+01 1.549319624900817871e-01 4.908605098724365234e+00 1.519061207771301270e+00 -2.256812751293182373e-01
2.616000000000000000e+03 6.914823913574218750e+01 3.135875129699707031e+01 1.627074480056762695e-01 4.920213699340820312e+00 1.524876356124877930e+00 -3.039351403713226318e-01
2.617000000000000000e+03 8.878130912780761719e+00 2.305228233337402344e+01 1.273961663246154785e-01 -6.496043205261230469e-01 -1.566624492406845093e-01 1.835623830556869507e-01
2.618000000000000000e+03 1.219983100891113281e+01 2.674848747253417969e+01 8.214884251356124878e-02 -4.715888202190399170e-01 -1.168319880962371826e-01 2.179879993200302124e-01
2.619000000000000000e+03 1.242802810668945312e+01 2.012923240661621094e+01 2.768256068229675293e-01 -3.342427313327789307e-01 -1.722513698041439056e-02 2.307204157114028931e-01
2.620000000000000000e+03 9.953656196594238281e+00 2.075758552551269531e+01 2.263879328966140747e-01 -5.593172311782836914e-01 -9.987878799438476562e-02 2.290963977575302124e-01
2.621000000000000000e+03 5.844628906250000000e+01 2.303431892395019531e+01 3.704095184803009033e-01 3.030610799789428711e+00 1.020306110382080078e+00 -5.699942111968994141e-01
2.622000000000000000e+03 5.947277832031250000e+01 2.571044158935546875e+01 3.825331032276153564e-01 3.193955421447753906e+00 1.072946548461914062e+00 -5.149030685424804688e-01
2.623000000000000000e+03 4.100964736938476562e+01 2.666130828857421875e+01 4.656997025012969971e-01 8.566753864288330078e-01 3.967125415802001953e-01 2.198311984539031982e-01
2.624000000000000000e+03 4.612279510498046875e+01 2.561883544921875000e+01 6.271393299102783203e-01 9.722575545310974121e-01 4.798190593719482422e-01 1.737970113754272461e-01
2.625000000000000000e+03 7.255136871337890625e+01 -8.800836563110351562e+00 4.654151499271392822e-01 1.301656723022460938e+01 4.044594764709472656e+00 1.336502790451049805e+00
2.626000000000000000e+03 7.293191528320312500e+01 -1.342302989959716797e+01 4.150892734527587891e+00 1.262502193450927734e+01 5.032774448394775391e+00 -2.063824653625488281e+00
2.627000000000000000e+03 7.337963104248046875e+01 -1.324589729309082031e+01 4.063152313232421875e+00 1.161686038970947266e+01 4.704003810882568359e+00 -1.723864078521728516e+00
2.628000000000000000e+03 7.282322692871093750e+01 -1.307911205291748047e+01 4.969744682312011719e+00 1.277565002441406250e+01 5.323618412017822266e+00 -1.802589297294616699e+00
2.629000000000000000e+03 7.361405181884765625e+01 -1.274382019042968750e+01 4.229807853698730469e+00 1.096458530426025391e+01 4.558318138122558594e+00 -9.971262216567993164e-01
2.630000000000000000e+03 7.337882232666015625e+01 -1.079455280303955078e+01 3.630660057067871094e+00 1.179899692535400391e+01 4.628897190093994141e+00 1.622491836547851562e+00
2.631000000000000000e+03 7.378167724609375000e+01 -1.015983676910400391e+01 2.357064008712768555e+00 1.120609188079833984e+01 4.068946838378906250e+00 1.827677607536315918e+00
2.632000000000000000e+03 7.407614898681640625e+01 -1.144554042816162109e+01 3.600511074066162109e+00 1.042032337188720703e+01 4.206250190734863281e+00 7.670200467109680176e-01
2.633000000000000000e+03 7.184681701660156250e+01 -6.255319118499755859e+00 -1.401864647865295410e+00 1.118388366699218750e+01 2.934605598449707031e+00 4.157764837145805359e-02
2.634000000000000000e+03 7.233747863769531250e+01 -1.652388763427734375e+01 -7.028652429580688477e-01 1.213062477111816406e+01 3.428327798843383789e+00 -9.912061095237731934e-01
2.635000000000000000e+03 7.461773681640625000e+01 -1.617943763732910156e+01 2.085482627153396606e-01 1.026014995574951172e+01 3.140609502792358398e+00 -2.180485725402832031e+00
2.636000000000000000e+03 7.511223602294921875e+01 -1.143586444854736328e+01 2.450278520584106445e+00 8.968319892883300781e+00 3.425579547882080078e+00 5.646656751632690430e-01
2.637000000000000000e+03 2.862300109863281250e+01 -4.854732990264892578e+00 -7.107552289962768555e-01 6.465066224336624146e-02 -1.938313692808151245e-01 3.828519582748413086e-01
2.638000000000000000e+03 7.463376617431640625e+01 -1.129766654968261719e+01 2.796214342117309570e+00 9.651919364929199219e+00 3.734440088272094727e+00 7.968252897262573242e-01
2.639000000000000000e+03 7.503701019287109375e+01 -1.277434444427490234e+01 2.840218782424926758e+00 9.150541305541992188e+00 3.597228050231933594e+00 -8.036515712738037109e-01
2.640000000000000000e+03 7.478948974609375000e+01 -1.000776195526123047e+01 1.859453678131103516e+00 9.759806632995605469e+00 3.485778093338012695e+00 1.665553092956542969e+00
2.641000000000000000e+03 7.260243225097656250e+01 -1.479773521423339844e+01 1.198030233383178711e+00 1.335865020751953125e+01 4.367004394531250000e+00 -2.091709613800048828e+00
2.642000000000000000e+03 7.214546203613281250e+01 -1.809352493286132812e+01 -1.154019832611083984e+00 1.089292526245117188e+01 2.921671867370605469e+00 -5.225000977516174316e-01
2.643000000000000000e+03 7.449879455566406250e+01 -1.486494541168212891e+01 1.259529829025268555e+00 1.032043933868408203e+01 3.473990678787231445e+00 -2.193452596664428711e+00
2.644000000000000000e+03 7.495346069335937500e+01 -9.308078765869140625e+00 1.271777510643005371e+00 9.672759056091308594e+00 3.283360958099365234e+00 1.871050834655761719e+00
2.645000000000000000e+03 7.336730957031250000e+01 -9.463802337646484375e+00 1.478534579277038574e+00 1.192505836486816406e+01 4.021077632904052734e+00 1.952449560165405273e+00
2.646000000000000000e+03 6.147174358367919922e+00 7.219953060150146484e+00 -2.293941676616668701e-01 -2.249920219182968140e-01 -1.363158524036407471e-01 3.480018377304077148e-01
2.647000000000000000e+03 7.258972167968750000e+01 -7.207703590393066406e+00 -7.487445473670959473e-01 1.168490505218505859e+01 3.280848264694213867e+00 8.719722032546997070e-01
2.648000000000000000e+03 7.118606567382812500e+01 -6.492384433746337891e+00 -1.352951526641845703e+00 1.125866794586181641e+01 2.971714735031127930e+00 -3.063954412937164307e-01
2.649000000000000000e+03 7.178639221191406250e+01 -9.361102104187011719e+00 6.055774688720703125e-01 1.479754829406738281e+01 4.620937824249267578e+00 9.071394205093383789e-01
2.650000000000000000e+03 3.073898315429687500e+01 -1.013775157928466797e+01 -5.852123498916625977e-01 4.625088721513748169e-02 -1.616884320974349976e-01 3.682868480682373047e-01
2.651000000000000000e+03 3.102299308776855469e+01 -8.873328208923339844e+00 -6.328888535499572754e-01 8.650117367506027222e-02 -1.639163047075271606e-01 3.763225376605987549e-01
2.652000000000000000e+03 7.347128295898437500e+01 -7.114644527435302734e+00 -5.518783330917358398e-01 1.108608531951904297e+01 3.160261869430541992e+00 1.441642642021179199e+00
2.653000000000000000e+03 7.331861877441406250e+01 -5.617540359497070312e+00 -1.146950483322143555e+00 1.025733280181884766e+01 2.733114719390869141e+00 9.896028041839599609e-01
2.654000000000000000e+03 2.807701683044433594e+01 -5.944271087646484375e+00 -7.250857949256896973e-01 9.975934401154518127e-03 -2.145329564809799194e-01 4.234469830989837646e-01
2.655000000000000000e+03 2.826265716552734375e+01 -6.778338432312011719e+00 -7.022925019264221191e-01 -3.384921583347022533e-04 -2.107893079519271851e-01 4.343169629573822021e-01
2.656000000000000000e+03 7.181029510498046875e+01 -1.654143714904785156e+01 -8.475746512413024902e-01 1.239896392822265625e+01 3.465416669845581055e+00 -4.346215426921844482e-01
2.657000000000000000e+03 2.705704498291015625e+01 -2.167518377304077148e+00 -6.599960923194885254e-01 4.181221127510070801e-02 -1.854551583528518677e-01 3.128643929958343506e-01
2.658000000000000000e+03 2.705218887329101562e+01 -3.385231256484985352e+00 -7.195509672164916992e-01 2.400023117661476135e-02 -2.086652070283889771e-01 3.611464798450469971e-01
2.659000000000000000e+03 2.715925407409667969e+01 -5.372250556945800781e+00 -7.536378502845764160e-01 -2.789953723549842834e-02 -2.344612181186676025e-01 4.362346529960632324e-01
2.660000000000000000e+03 2.786777496337890625e+01 -5.081411838531494141e+00 -7.311064600944519043e-01 2.489824034273624420e-02 -2.118624746799468994e-01 4.065197408199310303e-01
2.661000000000000000e+03 8.030896186828613281e+00 -7.202740669250488281e+00 -2.112101064994931221e-04 -9.703644172986969352e-05 -9.247396519640460610e-05 -2.409213448117952794e-05
2.662000000000000000e+03 7.177364349365234375e+01 -5.553841590881347656e+00 -1.567682147026062012e+00 1.059158229827880859e+01 2.707170009613037109e+00 -6.106982752680778503e-02
2.663000000000000000e+03 7.257421112060546875e+01 -5.592064380645751953e+00 -1.425675392150878906e+00 1.058204269409179688e+01 2.746910095214843750e+00 5.049428343772888184e-01
2.664000000000000000e+03 2.559560585021972656e+01 -1.691869139671325684e+00 -6.815159916877746582e-01 -1.404756307601928711e-02 -2.086690664291381836e-01 3.186194300651550293e-01
2.665000000000000000e+03 3.511371612548828125e+01 -1.237333202362060547e+01 -6.046481132507324219e-01 1.304927319288253784e-01 -1.422466188669204712e-01 2.303267121315002441e-01
2.666000000000000000e+03 7.083898925781250000e+01 -1.786527252197265625e+01 -1.110137939453125000e+00 1.063606452941894531e+01 2.857778072357177734e+00 5.093416571617126465e-01
2.667000000000000000e+03 2.539421463012695312e+01 -2.665055274963378906e+00 -7.629789710044860840e-01 -6.061508134007453918e-02 -2.470782101154327393e-01 3.751429915428161621e-01
2.668000000000000000e+03 2.569840049743652344e+01 -7.199078053236007690e-02 -4.899698197841644287e-01 3.835517168045043945e-02 -1.354843974113464355e-01 2.420391589403152466e-01
2.669000000000000000e+03 2.648452568054199219e+01 -2.262312412261962891e+00 -6.839483976364135742e-01 1.996179856359958649e-02 -1.991959810256958008e-01 3.220803737640380859e-01
2.670000000000000000e+03 2.591195678710937500e+01 -7.583249807357788086e-01 -5.679253339767456055e-01 2.918872795999050140e-02 -1.616209894418716431e-01 2.646564245223999023e-01
2.671000000000000000e+03 4.084986114501953125e+01 -9.618997573852539062e+00 -7.719992399215698242e-01 2.446434795856475830e-01 -1.582067161798477173e-01 1.725492030382156372e-01
2.672000000000000000e+03 3.866195678710937500e+01 -1.024227046966552734e+01 -7.203671932220458984e-01 2.207344621419906616e-01 -1.498898267745971680e-01 2.020881772041320801e-01
2.673000000000000000e+03 3.696554565429687500e+01 4.019273757934570312e+00 -2.528992295265197754e-01 3.759370446205139160e-01 3.691134974360466003e-02 4.218642115592956543e-01
2.674000000000000000e+03 3.868869781494140625e+01 3.276849985122680664e+00 -3.209327161312103271e-01 4.169137775897979736e-01 2.879431284964084625e-02 3.549165725708007812e-01
2.675000000000000000e+03 6.921639251708984375e+01 4.432041168212890625e+00 -3.200491070747375488e-01 5.630485057830810547e+00 1.593130707740783691e+00 -1.235388636589050293e+00
2.676000000000000000e+03 3.143257522583007812e+01 -1.152097129821777344e+01 -5.428597927093505859e-01 4.336136579513549805e-02 -1.498495340347290039e-01 3.263061344623565674e-01
2.677000000000000000e+03 3.462596130371093750e+01 -1.121375274658203125e+01 -6.213812232017517090e-01 1.428333520889282227e-01 -1.435643583536148071e-01 2.686673998832702637e-01
2.678000000000000000e+03 2.922461509704589844e+01 -7.227996349334716797e+00 -6.802260279655456543e-01 4.154271259903907776e-02 -1.916050016880035400e-01 4.142113924026489258e-01
2.679000000000000000e+03 3.382481765747070312e+01 -1.084380912780761719e+01 -6.166213750839233398e-01 1.331807971000671387e-01 -1.450321674346923828e-01 2.912201583385467529e-01
2.680000000000000000e+03 4.708902740478515625e+01 -6.086113452911376953e+00 -8.888682126998901367e-01 3.116423189640045166e-01 -1.731677651405334473e-01 2.041739523410797119e-01
2.681000000000000000e+03 3.334508514404296875e+01 -1.170735931396484375e+01 -5.811572670936584473e-01 1.020642220973968506e-01 -1.437279134988784790e-01 2.835260033607482910e-01
2.682000000000000000e+03 3.950151824951171875e+01 -8.837787628173828125e+00 -7.399368882179260254e-01 2.534492909908294678e-01 -1.459462791681289673e-01 2.158470153808593750e-01
2.683000000000000000e+03 7.071528625488281250e+01 -3.605401754379272461e+00 -1.848750948905944824e+00 9.037605285644531250e+00 2.156656265258789062e+00 -9.680668711662292480e-01
2.684000000000000000e+03 7.278515625000000000e+01 -1.883542251586914062e+01 -1.119390487670898438e+00 1.033178329467773438e+01 2.763717889785766602e+00 -8.713506460189819336e-01
2.685000000000000000e+03 7.295874786376953125e+01 -1.714138984680175781e+01 -7.631014585494995117e-01 1.137509727478027344e+01 3.183598756790161133e+00 -1.341613531112670898e+00
2.686000000000000000e+03 7.174646759033203125e+01 -1.840744018554687500e+00 -1.548639416694641113e+00 8.523185729980468750e+00 2.092363834381103516e+00 -6.276463866233825684e-01
2.687000000000000000e+03 7.224873352050781250e+01 -3.421306312084197998e-01 -1.224104881286621094e+00 8.071664810180664062e+00 2.054268121719360352e+00 -5.598120093345642090e-01
2.688000000000000000e+03 6.945189666748046875e+01 1.162329769134521484e+01 1.991593688726425171e-01 5.307477951049804688e+00 1.651991128921508789e+00 -9.265885949134826660e-01
2.689000000000000000e+03 6.976633453369140625e+01 1.263042259216308594e+01 2.227337062358856201e-01 5.374441623687744141e+00 1.679152607917785645e+00 -8.682583570480346680e-01
2.690000000000000000e+03 7.283171176910400391e+00 1.024856090545654297e+01 -1.329343169927597046e-01 -4.295710027217864990e-01 -1.687515974044799805e-01 5.547169446945190430e-01
2.691000000000000000e+03 7.194961547851562500e+01 -3.678458690643310547e+00 -1.673828244209289551e+00 9.400491714477539062e+00 2.317999124526977539e+00 -3.075776696205139160e-01
2.692000000000000000e+03 7.250405120849609375e+01 -2.708184957504272461e+00 -1.516665935516357422e+00 8.975867271423339844e+00 2.237760305404663086e+00 -1.933119446039199829e-01
2.693000000000000000e+03 4.594859313964843750e+01 1.333926320075988770e+00 -2.745684683322906494e-01 2.437384277582168579e-01 -9.249009191989898682e-03 2.371173053979873657e-01
2.694000000000000000e+03 4.824110412597656250e+01 -8.043334960937500000e+00 -1.048421740531921387e+00 2.788940072059631348e-01 -2.308583110570907593e-01 8.192912489175796509e-02
2.695000000000000000e+03 4.421042633056640625e+01 -8.443173408508300781e+00 -8.672171831130981445e-01 2.765498161315917969e-01 -1.772002130746841431e-01 1.497158706188201904e-01
2.696000000000000000e+03 4.199238204956054688e+01 -9.301440238952636719e+00 -8.081096410751342773e-01 2.539494037628173828e-01 -1.662480831146240234e-01 1.593512743711471558e-01
2.697000000000000000e+03 6.717196655273437500e+01 -8.505153656005859375e-01 -9.566965103149414062e-01 4.951328277587890625e+00 1.198389649391174316e+00 -2.201645851135253906e+00
2.698000000000000000e+03 6.820748138427734375e+01 -1.184926509857177734e+00 -1.182072997093200684e+00 5.956182479858398438e+00 1.432232856750488281e+00 -2.016272068023681641e+00
2.699000000000000000e+03 3.490681457519531250e+01 1.328894805908203125e+01 1.315239369869232178e-01 3.682884275913238525e-01 1.499437093734741211e-01 4.531968235969543457e-01
2.700000000000000000e+03 7.147203826904296875e+01 -2.013150787353515625e+01 -1.222755908966064453e+00 9.355979919433593750e+00 2.439967155456542969e+00 -8.410627394914627075e-02
2.701000000000000000e+03 3.232495498657226562e+01 5.419319629669189453e+00 -1.611698046326637268e-02 6.339268386363983154e-02 1.418271102011203766e-02 5.051487088203430176e-01
2.702000000000000000e+03 7.227771759033203125e+01 -2.083172225952148438e+01 -1.198515176773071289e+00 9.246813774108886719e+00 2.414489507675170898e+00 -4.225935339927673340e-01
2.703000000000000000e+03 3.360925674438476562e+01 9.282271385192871094e+00 -2.022218424826860428e-03 2.010133713483810425e-01 5.969734489917755127e-02 5.993269085884094238e-01
2.704000000000000000e+03 6.920668029785156250e+01 -2.491872906684875488e-01 -1.117492914199829102e+00 6.470700263977050781e+00 1.605962276458740234e+00 -1.589819550514221191e+00
2.705000000000000000e+03 7.065979766845703125e+01 2.518992662429809570e+00 -6.806000471115112305e-01 6.554727554321289062e+00 1.762238264083862305e+00 -1.129637598991394043e+00
2.706000000000000000e+03 5.142655944824218750e+01 -1.150501608848571777e+00 -4.988486170768737793e-01 3.701663911342620850e-01 -3.860466182231903076e-02 3.686000406742095947e-01
2.707000000000000000e+03 5.386475753784179688e+01 -4.620146006345748901e-02 -3.740302324295043945e-01 5.455639958381652832e-01 5.146013200283050537e-02 3.249818682670593262e-01
2.708000000000000000e+03 9.222348213195800781e+00 1.450730323791503906e+01 2.632686495780944824e-01 -6.218624114990234375e-01 -1.075781360268592834e-01 5.472766757011413574e-01
2.709000000000000000e+03 7.053898620605468750e+01 7.646715164184570312e+00 -6.676440685987472534e-02 5.839048862457275391e+00 1.731685400009155273e+00 -1.027082800865173340e+00
2.710000000000000000e+03 6.985879516601562500e+01 6.866019248962402344e+00 -8.985589444637298584e-02 5.647006034851074219e+00 1.667145013809204102e+00 -1.104494214057922363e+00
2.711000000000000000e+03 3.790481948852539062e+01 -1.158168506622314453e+01 -6.869265437126159668e-01 1.852296739816665649e-01 -1.505090743303298950e-01 1.886816024780273438e-01
2.712000000000000000e+03 6.623181915283203125e+01 -1.029802441596984863e+00 -6.744458079338073730e-01 3.881916999816894531e+00 9.622413516044616699e-01 -2.211229324340820312e+00
2.713000000000000000e+03 2.827379417419433594e+01 1.009362339973449707e+00 -2.729256749153137207e-01 5.382559821009635925e-02 -6.573002040386199951e-02 2.274144887924194336e-01
2.714000000000000000e+03 2.898475837707519531e+01 1.492136240005493164e+00 -2.186132073402404785e-01 4.238616675138473511e-02 -5.286811292171478271e-02 2.433677017688751221e-01
2.715000000000000000e+03 5.264877319335937500e+01 -4.675475597381591797e+00 -1.054237127304077148e+00 3.637462556362152100e-01 -2.071472704410552979e-01 2.214769572019577026e-01
2.716000000000000000e+03 5.597910308837890625e+01 -3.204900264739990234e+00 -9.615566730499267578e-01 4.429442286491394043e-01 -1.555837392807006836e-01 1.749670654535293579e-01
2.717000000000000000e+03 3.722517395019531250e+01 -1.224483394622802734e+01 -6.592329740524291992e-01 1.633046865463256836e-01 -1.487784832715988159e-01 1.888292133808135986e-01
2.718000000000000000e+03 6.803381347656250000e+01 1.968979644775390625e+01 2.812387049198150635e-01 4.829424858093261719e+00 1.533199191093444824e+00 -6.058479547500610352e-01
2.719000000000000000e+03 3.502579879760742188e+01 1.196912479400634766e+01 8.806139230728149414e-02 3.771433234214782715e-01 1.395614147186279297e-01 5.123172402381896973e-01
2.720000000000000000e+03 5.039572525024414062e+01 -2.897102534770965576e-01 -3.774559795856475830e-01 3.223330378532409668e-01 -1.653688028454780579e-02 3.769260942935943604e-01
2.721000000000000000e+03 4.913300323486328125e+01 -4.980181217193603516e+00 -8.887617588043212891e-01 3.280339241027832031e-01 -1.682183593511581421e-01 2.492604106664657593e-01
2.722000000000000000e+03 6.888253784179687500e+01 7.694603443145751953e+00 1.530558243393898010e-02 5.276190280914306641e+00 1.587448835372924805e+00 -1.109555482864379883e+00
2.723000000000000000e+03 7.022306823730468750e+01 1.123573112487792969e+01 1.556750386953353882e-01 5.577578067779541016e+00 1.719975829124450684e+00 -8.899998068809509277e-01
2.724000000000000000e+03 5.996816635131835938e+01 6.508954524993896484e+00 3.036527037620544434e-01 2.432029724121093750e+00 8.207046985626220703e-01 -6.192904114723205566e-01
2.725000000000000000e+03 6.596315860748291016e+00 2.084537315368652344e+01 1.207668483257293701e-01 -7.962502837181091309e-01 -2.026450186967849731e-01 2.072775512933731079e-01
2.726000000000000000e+03 7.092020416259765625e+01 1.433961105346679688e+01 2.026805281639099121e-01 5.631011009216308594e+00 1.750107407569885254e+00 -7.335686087608337402e-01
2.727000000000000000e+03 7.230220031738281250e+01 1.223313522338867188e+01 1.131618469953536987e-01 6.157675743103027344e+00 1.881251335144042969e+00 -7.584357261657714844e-01
2.728000000000000000e+03 2.658991622924804688e+01 4.057332575321197510e-01 -3.794917166233062744e-01 6.394326686859130859e-02 -9.466453641653060913e-02 2.043858170509338379e-01
2.729000000000000000e+03 3.253268432617187500e+01 1.107920360565185547e+01 -2.966821379959583282e-02 1.333399564027786255e-01 3.110152296721935272e-02 5.763323903083801270e-01
2.730000000000000000e+03 6.068799972534179688e+01 4.849996566772460938e+00 2.075645178556442261e-01 2.284632921218872070e+00 7.476592063903808594e-01 -7.119114398956298828e-01
2.731000000000000000e+03 5.977437210083007812e+01 -1.365935325622558594e+00 -4.601396918296813965e-01 7.579244971275329590e-01 8.933544903993606567e-02 -3.464296460151672363e-01
2.732000000000000000e+03 8.842203140258789062e+00 2.107756805419921875e+01 1.910363286733627319e-01 -6.407309174537658691e-01 -1.349083781242370605e-01 2.305956780910491943e-01
2.733000000000000000e+03 7.834281921386718750e+00 2.150301361083984375e+01 1.467756479978561401e-01 -7.161231040954589844e-01 -1.708042323589324951e-01 2.051655650138854980e-01
2.734000000000000000e+03 6.617884826660156250e+01 1.043051719665527344e+01 3.169637620449066162e-01 4.333098411560058594e+00 1.395018577575683594e+00 -1.005913734436035156e+00
2.735000000000000000e+03 5.478953552246093750e+01 -8.566323518753051758e-01 -4.920438528060913086e-01 5.535007715225219727e-01 1.843707077205181122e-02 2.718262374401092529e-01
2.736000000000000000e+03 5.547590255737304688e+01 -7.577899843454360962e-02 -3.732746243476867676e-01 6.597142815589904785e-01 8.593188971281051636e-02 2.206052541732788086e-01
2.737000000000000000e+03 1.495452594757080078e+01 2.307140541076660156e+01 1.455156356096267700e-01 -1.940774321556091309e-01 -1.456854026764631271e-02 3.302026093006134033e-01
2.738000000000000000e+03 8.081309318542480469e+00 -2.690727615356445312e+01 7.823523483239114285e-04 7.326007471419870853e-05 2.566837356425821781e-04 1.814195275073871017e-04
2.739000000000000000e+03 7.355257511138916016e+00 -2.828973770141601562e+01 9.275376796722412109e-04 1.044477357936557382e-05 2.813947212416678667e-04 3.730881144292652607e-04
2.740000000000000000e+03 1.014616203308105469e+01 2.208447647094726562e+01 1.772376298904418945e-01 -5.399498939514160156e-01 -1.088136881589889526e-01 2.114673852920532227e-01
2.741000000000000000e+03 4.152329635620117188e+01 1.489557147026062012e+00 -3.898943066596984863e-01 3.715475201606750488e-01 -5.504039116203784943e-03 2.608292102813720703e-01
2.742000000000000000e+03 6.558404541015625000e+01 -3.128067776560783386e-02 -4.666132330894470215e-01 3.550035715103149414e+00 9.250267744064331055e-01 -1.951495289802551270e+00
2.743000000000000000e+03 6.396782302856445312e+01 -1.534425020217895508e+00 -4.498279690742492676e-01 2.078900814056396484e+00 4.887218177318572998e-01 -1.707664608955383301e+00
2.744000000000000000e+03 6.716651916503906250e+01 2.791328620910644531e+01 2.121583372354507446e-01 4.624162673950195312e+00 1.450896263122558594e+00 -3.874436914920806885e-01
2.745000000000000000e+03 6.870958709716796875e+01 2.712948799133300781e+01 1.778216511011123657e-01 4.910539150238037109e+00 1.526508212089538574e+00 -3.905161619186401367e-01
2.746000000000000000e+03 5.721470260620117188e+01 -1.564027309417724609e+00 -6.264660358428955078e-01 6.356327533721923828e-01 2.750001149252057076e-03 5.887835472822189331e-02
2.747000000000000000e+03 4.676185989379882812e+01 -7.864928722381591797e+00 -9.646585583686828613e-01 2.884545624256134033e-01 -2.028611898422241211e-01 1.226186007261276245e-01
2.748000000000000000e+03 2.771515464782714844e+01 5.029134750366210938e-01 -3.372399210929870605e-01 5.321448296308517456e-02 -8.520763367414474487e-02 2.160192430019378662e-01
2.749000000000000000e+03 2.748416137695312500e+01 -1.501599788665771484e+00 -5.673485398292541504e-01 7.151983678340911865e-02 -1.487486064434051514e-01 2.688936889171600342e-01
2.750000000000000000e+03 5.009685134887695312e+01 -5.007650852203369141e+00 -9.548524022102355957e-01 3.307185471057891846e-01 -1.872401535511016846e-01 2.383784651756286621e-01
2.751000000000000000e+03 5.148274230957031250e+01 -4.139775753021240234e+00 -9.143199920654296875e-01 3.569416701793670654e-01 -1.672134846448898315e-01 2.786813974380493164e-01
2.752000000000000000e+03 2.184458923339843750e+01 2.268527221679687500e+01 3.264478743076324463e-01 -2.877187430858612061e-01 1.161874644458293915e-02 5.574731230735778809e-01
2.753000000000000000e+03 1.933124351501464844e+01 2.508291625976562500e+01 2.132647633552551270e-01 -1.850664019584655762e-01 8.459506556391716003e-03 4.680042266845703125e-01
2.754000000000000000e+03 1.141964912414550781e+01 2.381622314453125000e+01 1.246529072523117065e-01 -4.521479606628417969e-01 -9.824851900339126587e-02 2.159203439950942993e-01
2.755000000000000000e+03 3.194958305358886719e+01 1.619307136535644531e+01 6.512252986431121826e-02 1.124711781740188599e-01 5.327811092138290405e-02 2.880660891532897949e-01
2.756000000000000000e+03 6.962755584716796875e+01 2.201993370056152344e+01 2.059174180030822754e-01 5.148832321166992188e+00 1.606424927711486816e+00 -5.045666694641113281e-01
2.757000000000000000e+03 5.414369964599609375e+01 -1.683923602104187012e+00 -6.252883672714233398e-01 4.911826848983764648e-01 -4.023170098662376404e-02 3.024480640888214111e-01
2.758000000000000000e+03 6.100724411010742188e+01 1.133157730102539062e+00 -4.401958361268043518e-02 1.650937914848327637e+00 4.820755124092102051e-01 -7.713244557380676270e-01
2.759000000000000000e+03 3.756874084472656250e+01 2.790262460708618164e+00 -3.283926844596862793e-01 3.670459687709808350e-01 1.159598864614963531e-02 3.741632699966430664e-01
2.760000000000000000e+03 3.013075637817382812e+01 2.027061462402343750e+01 2.722626924514770508e-01 -8.441060781478881836e-02 5.635562166571617126e-02 2.074930667877197266e-01
2.761000000000000000e+03 6.336264038085937500e+01 1.141096019744873047e+01 4.812717139720916748e-01 3.657322645187377930e+00 1.241578340530395508e+00 -8.777664899826049805e-01
2.762000000000000000e+03 1.342422485351562500e+01 2.556530570983886719e+01 1.026992499828338623e-01 -3.788281679153442383e-01 -8.283866941928863525e-02 2.525003254413604736e-01
2.763000000000000000e+03 3.601625442504882812e+01 2.685556030273437500e+01 4.367605149745941162e-01 4.969160556793212891e-01 2.801029682159423828e-01 1.767685264348983765e-01
2.764000000000000000e+03 3.560169219970703125e+01 7.843888282775878906e+00 -4.489554837346076965e-02 3.593415021896362305e-01 9.433378279209136963e-02 5.563470721244812012e-01
2.765000000000000000e+03 4.313385009765625000e+01 -8.924563407897949219e+00 -8.397343754768371582e-01 2.661494612693786621e-01 -1.720754802227020264e-01 1.463524401187896729e-01
2.766000000000000000e+03 6.166469573974609375e+01 1.780423164367675781e+01 4.848129153251647949e-01 3.565955162048339844e+00 1.215230345726013184e+00 -5.501782894134521484e-01
2.767000000000000000e+03 6.249723815917968750e+01 1.922313880920410156e+01 4.351200759410858154e-01 3.769870758056640625e+00 1.261497259140014648e+00 -5.782517194747924805e-01
2.768000000000000000e+03 4.860519409179687500e+01 -3.979403376579284668e-01 -3.830402493476867676e-01 2.673217952251434326e-01 -3.471553325653076172e-02 3.355648517608642578e-01
2.769000000000000000e+03 4.696403884887695312e+01 -1.711837053298950195e-01 -3.759900927543640137e-01 2.577368915081024170e-01 -3.547595813870429993e-02 2.968184649944305420e-01
2.770000000000000000e+03 4.375515747070312500e+01 2.242723655700683594e+01 3.804325461387634277e-01 9.728887081146240234e-01 4.059963822364807129e-01 3.827871382236480713e-01
2.771000000000000000e+03 4.263520050048828125e+01 2.460837554931640625e+01 4.291669130325317383e-01 9.315725564956665039e-01 4.082218408584594727e-01 2.898936569690704346e-01
2.772000000000000000e+03 3.543461608886718750e+01 2.427392387390136719e+01 3.781543076038360596e-01 4.511687457561492920e-01 2.487969100475311279e-01 1.792100816965103149e-01
2.773000000000000000e+03 3.934772109985351562e+01 2.427977561950683594e+01 3.795258998870849609e-01 7.915904521942138672e-01 3.513348996639251709e-01 2.302253246307373047e-01
2.774000000000000000e+03 6.467796325683593750e+01 1.623418617248535156e+01 4.647569358348846436e-01 4.085832118988037109e+00 1.365176677703857422e+00 -7.023257613182067871e-01
2.775000000000000000e+03 3.812211608886718750e+01 4.319820404052734375e+00 -2.712051272392272949e-01 4.339001178741455078e-01 4.880849644541740417e-02 3.981193900108337402e-01
2.776000000000000000e+03 3.524389266967773438e+01 1.538625335693359375e+01 1.974921524524688721e-01 4.214379787445068359e-01 1.856790482997894287e-01 3.317537307739257812e-01
2.777000000000000000e+03 1.243309783935546875e+01 2.958388137817382812e+01 7.247236371040344238e-02 -5.168585181236267090e-01 -1.333158612251281738e-01 1.913352161645889282e-01
2.778000000000000000e+03 9.567705154418945312e+00 1.948660659790039062e+01 2.653879821300506592e-01 -5.893879532814025879e-01 -9.719999134540557861e-02 2.737784087657928467e-01
2.779000000000000000e+03 5.316171264648437500e+01 -9.243831634521484375e-01 -4.907582700252532959e-01 4.564990997314453125e-01 -1.027775462716817856e-02 3.418951034545898438e-01
2.780000000000000000e+03 5.449600219726562500e+01 -3.195813179016113281e+00 -8.921855688095092773e-01 4.386662542819976807e-01 -1.360557973384857178e-01 2.598565518856048584e-01
2.781000000000000000e+03 1.207239341735839844e+01 -3.525987625122070312e+01 -1.107459538616240025e-03 5.390197038650512695e-04 -1.705319591565057635e-04 1.240124343894422054e-03
2.782000000000000000e+03 3.353335189819335938e+01 7.916359424591064453e+00 -1.051116082817316055e-02 1.724959313869476318e-01 4.859543219208717346e-02 5.851393938064575195e-01
2.783000000000000000e+03 3.465763092041015625e+01 7.824875354766845703e+00 -3.834635391831398010e-02 2.741469740867614746e-01 7.074018567800521851e-02 5.769730806350708008e-01
2.784000000000000000e+03 3.357444000244140625e+01 6.686960697174072266e+00 -4.002765193581581116e-02 1.657677739858627319e-01 3.772203624248504639e-02 5.544922351837158203e-01
2.785000000000000000e+03 5.802348709106445312e+01 2.478542518615722656e+01 4.017566144466400146e-01 2.889170646667480469e+00 9.872782230377197266e-01 -5.708591341972351074e-01
2.786000000000000000e+03 5.296733856201171875e+01 2.996702957153320312e+01 6.346331834793090820e-01 2.001899480819702148e+00 7.909598350524902344e-01 -2.271658480167388916e-01
2.787000000000000000e+03 7.314976501464843750e+01 -1.376393795013427734e+01 3.383858203887939453e+00 1.228348827362060547e+01 4.700203895568847656e+00 -2.160384893417358398e+00
2.788000000000000000e+03 7.217025756835937500e+01 -9.271909713745117188e+00 7.682700753211975098e-01 1.407543563842773438e+01 4.453111648559570312e+00 1.274075150489807129e+00
2.789000000000000000e+03 7.287565612792968750e+01 -9.658953666687011719e+00 1.663068890571594238e+00 1.285036945343017578e+01 4.354031562805175781e+00 1.889529943466186523e+00
2.790000000000000000e+03 7.422473907470703125e+01 -9.393729209899902344e+00 1.446215271949768066e+00 1.067439365386962891e+01 3.636182785034179688e+00 1.943223476409912109e+00
2.791000000000000000e+03 7.382065582275390625e+01 -1.383096122741699219e+01 2.859269618988037109e+00 1.110402488708496094e+01 4.188988685607910156e+00 -2.001269578933715820e+00
2.792000000000000000e+03 7.384139251708984375e+01 -1.305824851989746094e+01 3.774618387222290039e+00 1.074059295654296875e+01 4.354563236236572266e+00 -1.296936392784118652e+00
2.793000000000000000e+03 7.388932037353515625e+01 -1.059700775146484375e+01 2.991861581802368164e+00 1.088096237182617188e+01 4.161847114562988281e+00 1.592415571212768555e+00
2.794000000000000000e+03 7.418263244628906250e+01 -1.188828468322753906e+01 3.692501544952392578e+00 1.014747524261474609e+01 4.151993274688720703e+00 1.238182187080383301e-01
2.795000000000000000e+03 7.179791259765625000e+01 -1.592226696014404297e+01 -5.608425140380859375e-01 1.315799427032470703e+01 3.779145479202270508e+00 -5.903657674789428711e-01
2.796000000000000000e+03 7.344981384277343750e+01 -1.646694564819335938e+01 -2.899256944656372070e-01 1.144080924987792969e+01 3.345264911651611328e+00 -1.805962562561035156e+00
2.797000000000000000e+03 7.457667541503906250e+01 -1.081099033355712891e+01 2.725754022598266602e+00 9.886818885803222656e+00 3.783771753311157227e+00 1.283553957939147949e+00
2.798000000000000000e+03 7.428186035156250000e+01 -9.956412315368652344e+00 1.981773257255554199e+00 1.044818019866943359e+01 3.728986024856567383e+00 1.835476517677307129e+00
2.799000000000000000e+03 7.399004364013671875e+01 -1.102193164825439453e+01 3.390812397003173828e+00 1.054738616943359375e+01 4.181459426879882812e+00 1.218534231185913086e+00
2.800000000000000000e+03 7.299877166748046875e+01 -6.652828693389892578e+00 -9.827644228935241699e-01 1.108412456512451172e+01 3.030407905578613281e+00 1.063917517662048340e+00
2.801000000000000000e+03 7.271546936035156250e+01 -1.530458450317382812e+01 5.217438936233520508e-01 1.294882965087890625e+01 4.041172027587890625e+00 -1.926089644432067871e+00
2.802000000000000000e+03 7.448912811279296875e+01 -1.349099922180175781e+01 2.783279657363891602e+00 9.953497886657714844e+00 3.821033239364624023e+00 -1.519961953163146973e+00
2.803000000000000000e+03 7.403556823730468750e+01 -1.454374313354492188e+01 1.659068942070007324e+00 1.093043327331542969e+01 3.776850700378417969e+00 -2.181402444839477539e+00
2.804000000000000000e+03 7.353132629394531250e+01 -1.712542152404785156e+01 -5.844612121582031250e-01 1.106310939788818359e+01 3.143594503402709961e+00 -1.659933686256408691e+00
2.805000000000000000e+03 7.436496734619140625e+01 -1.562765121459960938e+01 5.955966711044311523e-01 1.057091617584228516e+01 3.349953889846801758e+00 -2.221896409988403320e+00
2.806000000000000000e+03 7.406635284423828125e+01 -8.655983924865722656e+00 6.894727945327758789e-01 1.089160060882568359e+01 3.474321842193603516e+00 1.939227104187011719e+00
2.807000000000000000e+03 7.375045776367187500e+01 -1.533834648132324219e+01 7.710673213005065918e-01 1.133696937561035156e+01 3.632411003112792969e+00 -2.230275869369506836e+00
2.808000000000000000e+03 7.413278198242187500e+01 -1.519613075256347656e+01 9.519209861755371094e-01 1.084574222564697266e+01 3.539299011230468750e+00 -2.232641220092773438e+00
2.809000000000000000e+03 7.156872558593750000e+01 -8.611086845397949219e+00 -1.410650610923767090e-01 1.388254737854003906e+01 4.122444629669189453e+00 8.610083162784576416e-02
2.810000000000000000e+03 3.023363494873046875e+01 -7.510883808135986328e+00 -6.667358875274658203e-01 8.450165390968322754e-02 -1.746702641248703003e-01 3.939432799816131592e-01
2.811000000000000000e+03 2.936684226989746094e+01 -3.888759613037109375e+00 -6.583839654922485352e-01 1.151471808552742004e-01 -1.629710346460342407e-01 3.399007618427276611e-01
2.812000000000000000e+03 7.274385833740234375e+01 -1.769206237792968750e+01 -9.667737483978271484e-01 1.113939952850341797e+01 3.051787853240966797e+00 -1.076805710792541504e+00
2.813000000000000000e+03 2.761031341552734375e+01 -2.041953563690185547e+00 -6.029431819915771484e-01 7.217366993427276611e-02 -1.592308580875396729e-01 2.944342195987701416e-01
2.814000000000000000e+03 7.313878631591796875e+01 -7.604173183441162109e+00 -4.220049381256103516e-01 1.160202789306640625e+01 3.354006767272949219e+00 1.413598179817199707e+00
2.815000000000000000e+03 2.638195800781250000e+01 -2.870606899261474609e+00 -7.231567502021789551e-01 -2.300925087183713913e-03 -2.176373153924942017e-01 3.536821007728576660e-01
2.816000000000000000e+03 7.183344268798828125e+01 -1.728858566284179688e+01 -1.047013998031616211e+00 1.154734325408935547e+01 3.150098800659179688e+00 -3.625241219997406006e-01
2.817000000000000000e+03 7.288417816162109375e+01 -1.649729537963867188e+01 -4.702475965023040771e-01 1.185454559326171875e+01 3.415289402008056641e+00 -1.527776598930358887e+00
2.818000000000000000e+03 7.227424621582031250e+01 -1.591061687469482422e+01 -3.325855433940887451e-01 1.287936305999755859e+01 3.764033317565917969e+00 -1.182296276092529297e+00
2.819000000000000000e+03 7.263543701171875000e+01 -4.823057651519775391e+00 -1.507503390312194824e+00 1.005616378784179688e+01 2.564598083496093750e+00 3.397547900676727295e-01
2.820000000000000000e+03 7.177486419677734375e+01 -4.684117317199707031e+00 -1.749498844146728516e+00 1.009715843200683594e+01 2.504297971725463867e+00 -1.745477765798568726e-01
2.821000000000000000e+03 2.689511108398437500e+01 -1.429923057556152344e+00 -5.877893567085266113e-01 5.030628293752670288e-02 -1.612449139356613159e-01 2.734712660312652588e-01
2.822000000000000000e+03 2.633884239196777344e+01 -3.194854855537414551e-01 -4.991947412490844727e-01 5.513554438948631287e-02 -1.332177519798278809e-01 2.372875809669494629e-01
2.823000000000000000e+03 2.624119377136230469e+01 -1.487625122070312500e+00 -6.260645985603332520e-01 2.772310003638267517e-02 -1.795024573802947998e-01 2.919945716857910156e-01
2.824000000000000000e+03 2.878155136108398438e+01 -5.705171585083007812e+00 -7.092295289039611816e-01 5.579707771539688110e-02 -1.960297375917434692e-01 4.004066884517669678e-01
2.825000000000000000e+03 2.896672630310058594e+01 -6.491598606109619141e+00 -6.989999413490295410e-01 4.694525152444839478e-02 -1.956164091825485229e-01 4.119244813919067383e-01
2.826000000000000000e+03 6.698300933837890625e+01 3.557235002517700195e+00 -2.681951224803924561e-01 4.687109947204589844e+00 1.325674533843994141e+00 -1.481541752815246582e+00
2.827000000000000000e+03 6.837859344482421875e+01 -1.557754874229431152e-01 -1.037547588348388672e+00 5.851142406463623047e+00 1.444078564643859863e+00 -1.834958076477050781e+00
2.828000000000000000e+03 5.762186050415039062e+01 -7.268690466880798340e-01 -4.406438171863555908e-01 7.310283780097961426e-01 8.711537718772888184e-02 -6.649977527558803558e-03
2.829000000000000000e+03 3.225304794311523438e+01 -1.003792858123779297e+01 -6.110911369323730469e-01 1.043288782238960266e-01 -1.520286798477172852e-01 3.374260365962982178e-01
2.830000000000000000e+03 3.637778091430664062e+01 -1.180305957794189453e+01 -6.467379927635192871e-01 1.621471941471099854e-01 -1.453772336244583130e-01 2.173427194356918335e-01
2.831000000000000000e+03 7.077831268310546875e+01 -4.759322643280029297e+00 -1.815402030944824219e+00 9.764442443847656250e+00 2.384712219238281250e+00 -9.073239564895629883e-01
2.832000000000000000e+03 2.986344337463378906e+01 1.932652473449707031e+00 -1.764653176069259644e-01 4.396350681781768799e-02 -3.975054249167442322e-02 2.819368839263916016e-01
2.833000000000000000e+03 6.459364318847656250e+01 1.295236015319824219e+01 4.709855318069458008e-01 3.988594770431518555e+00 1.337874054908752441e+00 -8.530566692352294922e-01
2.834000000000000000e+03 6.893815612792968750e+01 9.372982978820800781e+00 1.315871626138687134e-01 5.206631183624267578e+00 1.601465463638305664e+00 -1.036905288696289062e+00
2.835000000000000000e+03 7.133541870117187500e+01 -7.838782072067260742e-01 -1.370832681655883789e+00 7.861311435699462891e+00 1.947143673896789551e+00 -9.427045583724975586e-01
2.836000000000000000e+03 3.257772827148437500e+01 -1.125495243072509766e+01 -5.811622738838195801e-01 9.063645452260971069e-02 -1.471577435731887817e-01 3.107997477054595947e-01
2.837000000000000000e+03 4.842317581176757812e+01 -2.414060354232788086e+00 -6.093499064445495605e-01 3.056797385215759277e-01 -9.110104292631149292e-02 3.232231438159942627e-01
2.838000000000000000e+03 5.850149154663085938e+01 1.502219200134277344e+00 -6.326870620250701904e-02 1.192793846130371094e+00 3.388575613498687744e-01 -2.375681102275848389e-01
2.839000000000000000e+03 6.203414154052734375e+01 -1.391023993492126465e-01 -1.538576930761337280e-01 1.573896884918212891e+00 4.260117709636688232e-01 -9.996281862258911133e-01
2.840000000000000000e+03 3.660691452026367188e+01 -1.087154388427734375e+01 -6.699756979942321777e-01 1.862221807241439819e-01 -1.451260447502136230e-01 2.303688228130340576e-01
2.841000000000000000e+03 4.168347167968750000e+01 -8.218939781188964844e+00 -7.820548415184020996e-01 2.741910815238952637e-01 -1.523591130971908569e-01 1.944952160120010376e-01
2.842000000000000000e+03 6.925147247314453125e+01 -1.307056069374084473e+00 -1.410720825195312500e+00 6.809546947479248047e+00 1.619647860527038574e+00 -1.761741280555725098e+00
2.843000000000000000e+03 7.056491088867187500e+01 -2.346966266632080078e+00 -1.696226119995117188e+00 8.271045684814453125e+00 1.972445726394653320e+00 -1.189186811447143555e+00
2.844000000000000000e+03 5.981900405883789062e+01 3.359079360961914062e-03 -2.099555879831314087e-01 1.104799866676330566e+00 2.684532701969146729e-01 -4.608213901519775391e-01
2.845000000000000000e+03 5.764561462402343750e+01 1.832020878791809082e-01 -2.797897756099700928e-01 8.624427914619445801e-01 1.747959107160568237e-01 -4.770915582776069641e-02
2.846000000000000000e+03 3.822739410400390625e+01 1.667288422584533691e+00 -3.810639083385467529e-01 3.600135743618011475e-01 -6.315104663372039795e-03 3.455924689769744873e-01
2.847000000000000000e+03 7.107909393310546875e+01 2.724346816539764404e-01 -1.121314764022827148e+00 7.309193134307861328e+00 1.856363534927368164e+00 -1.050996065139770508e+00
2.848000000000000000e+03 3.547174453735351562e+01 -1.153574752807617188e+01 -6.327518224716186523e-01 1.539561897516250610e-01 -1.436387002468109131e-01 2.456873655319213867e-01
2.849000000000000000e+03 3.151742362976074219e+01 3.830049753189086914e+00 -6.423421949148178101e-02 4.779132828116416931e-02 -4.932867363095283508e-03 4.021597504615783691e-01
2.850000000000000000e+03 3.031944274902343750e+01 3.435314893722534180e+00 -3.059608675539493561e-02 -4.007276613265275955e-03 -1.038100849837064743e-02 3.500958085060119629e-01
2.851000000000000000e+03 6.906822204589843750e+01 6.044483184814453125e+00 -1.253238022327423096e-01 5.440825462341308594e+00 1.594650506973266602e+00 -1.172607898712158203e+00
2.852000000000000000e+03 6.604365539550781250e+01 1.946620750427246094e+01 3.467641174793243408e-01 4.414759159088134766e+00 1.428457021713256836e+00 -6.055019497871398926e-01
2.853000000000000000e+03 6.979373931884765625e+01 1.454773902893066406e+01 2.490911334753036499e-01 5.316803455352783203e+00 1.669768333435058594e+00 -8.010240197181701660e-01
2.854000000000000000e+03 6.843743896484375000e+01 1.649411773681640625e+01 3.056916594505310059e-01 4.967799186706542969e+00 1.582047224044799805e+00 -7.195640802383422852e-01
2.855000000000000000e+03 3.183396911621093750e+01 -1.085710048675537109e+01 -5.805807709693908691e-01 7.302981615066528320e-02 -1.522652953863143921e-01 3.341700732707977295e-01
2.856000000000000000e+03 4.278313446044921875e+01 -5.812767505645751953e+00 -7.451334595680236816e-01 3.068584203720092773e-01 -1.314825117588043213e-01 2.389604747295379639e-01
2.857000000000000000e+03 4.441708374023437500e+01 1.084409475326538086e+00 -3.376621603965759277e-01 2.926961481571197510e-01 -1.348980609327554703e-02 2.298348844051361084e-01
2.858000000000000000e+03 4.062249374389648438e+01 -3.238248825073242188e-01 -4.801760017871856689e-01 3.492725789546966553e-01 -3.927103057503700256e-02 2.897237539291381836e-01
2.859000000000000000e+03 4.272901153564453125e+01 -7.729088306427001953e+00 -8.046779036521911621e-01 2.847276031970977783e-01 -1.559850871562957764e-01 1.949498802423477173e-01
2.860000000000000000e+03 7.089353179931640625e+01 1.362946629524230957e+00 -8.986096978187561035e-01 6.915154457092285156e+00 1.804963350296020508e+00 -1.117611289024353027e+00
2.861000000000000000e+03 6.919941711425781250e+01 2.946915864944458008e+00 -5.195611119270324707e-01 5.783387184143066406e+00 1.579147815704345703e+00 -1.331606507301330566e+00
2.862000000000000000e+03 6.103032302856445312e+01 2.234837341308593750e+01 3.673659861087799072e-01 3.496116638183593750e+00 1.159044742584228516e+00 -5.576354861259460449e-01
2.863000000000000000e+03 6.015549087524414062e+01 2.384620094299316406e+01 3.651770055294036865e-01 3.351699829101562500e+00 1.115063071250915527e+00 -5.325717329978942871e-01
2.864000000000000000e+03 5.249854660034179688e+01 -1.901518344879150391e+00 -6.327872872352600098e-01 4.049358367919921875e-01 -6.835542619228363037e-02 3.489045798778533936e-01
2.865000000000000000e+03 4.717124176025390625e+01 -3.091411590576171875e+00 -6.684061288833618164e-01 3.022371232509613037e-01 -1.098506972193717957e-01 2.914588451385498047e-01
2.866000000000000000e+03 4.892970657348632812e+01 -3.737946748733520508e+00 -7.631436586380004883e-01 3.218282759189605713e-01 -1.323946118354797363e-01 2.961410284042358398e-01
2.867000000000000000e+03 3.436982345581054688e+01 1.448632431030273438e+01 1.187914982438087463e-01 3.309645056724548340e-01 1.349268108606338501e-01 3.796866834163665771e-01
2.868000000000000000e+03 3.424755477905273438e+01 1.620196533203125000e+01 1.661085486412048340e-01 3.072220385074615479e-01 1.419991701841354370e-01 2.916765213012695312e-01
2.869000000000000000e+03 6.374513244628906250e+01 9.116342544555664062e+00 3.837788403034210205e-01 3.608868360519409180e+00 1.197794079780578613e+00 -9.639824628829956055e-01
2.870000000000000000e+03 5.306143951416015625e+01 -3.591472387313842773e+00 -9.315918087959289551e-01 3.838399648666381836e-01 -1.643255501985549927e-01 2.851111292839050293e-01
2.871000000000000000e+03 6.286367034912109375e+01 8.025643825531005859e-01 -6.738828867673873901e-02 2.122739791870117188e+00 6.166054606437683105e-01 -1.200912117958068848e+00
2.872000000000000000e+03 5.946703720092773438e+01 5.337473869323730469e+00 2.337289452552795410e-01 2.124768495559692383e+00 7.075492739677429199e-01 -5.004709362983703613e-01
2.873000000000000000e+03 3.264902877807617188e+01 1.217947387695312500e+01 -1.608487777411937714e-02 1.788382381200790405e-01 4.882600903511047363e-02 5.188031792640686035e-01
2.874000000000000000e+03 1.361445999145507812e+01 2.247978782653808594e+01 1.591707319021224976e-01 -2.643575370311737061e-01 -3.155604004859924316e-02 2.750761508941650391e-01
2.875000000000000000e+03 4.515708541870117188e+01 2.660122215747833252e-01 -3.834649622440338135e-01 2.789922058582305908e-01 -3.134182840585708618e-02 2.679066359996795654e-01
2.876000000000000000e+03 4.334554290771484375e+01 4.831660389900207520e-01 -4.108393490314483643e-01 3.182838559150695801e-01 -2.776664867997169495e-02 2.609407007694244385e-01
2.877000000000000000e+03 3.250996780395507812e+01 1.485423851013183594e+01 2.644145302474498749e-02 1.639314144849777222e-01 5.711185932159423828e-02 3.572897315025329590e-01
2.878000000000000000e+03 5.068376159667968750e+01 -2.342110633850097656e+00 -6.510488390922546387e-01 3.449810743331909180e-01 -9.182032197713851929e-02 3.484917283058166504e-01
2.879000000000000000e+03 5.630897140502929688e+01 -8.757516145706176758e-01 -4.858765900135040283e-01 6.438971757888793945e-01 4.740617796778678894e-02 1.566516607999801636e-01
2.880000000000000000e+03 5.724610900878906250e+01 1.289765596389770508e+00 -1.321329474449157715e-01 9.985455274581909180e-01 2.599237859249114990e-01 -1.818653382360935211e-02
2.881000000000000000e+03 3.278630447387695312e+01 4.127113342285156250e+00 -9.527977555990219116e-02 1.072232425212860107e-01 3.583040321245789528e-03 4.423115253448486328e-01
2.882000000000000000e+03 3.695791625976562500e+01 6.165942192077636719e+00 -1.661502122879028320e-01 4.328263401985168457e-01 8.000283688306808472e-02 4.836457073688507080e-01
2.883000000000000000e+03 3.380057525634765625e+01 1.304795646667480469e+01 5.717580765485763550e-02 2.716715931892395020e-01 9.865421801805496216e-02 4.702506065368652344e-01
2.884000000000000000e+03 3.472227859497070312e+01 8.949741363525390625e+00 -2.207290614023804665e-03 3.025315701961517334e-01 9.009727835655212402e-02 5.829202532768249512e-01
2.885000000000000000e+03 6.476191711425781250e+01 -7.921044826507568359e-01 -3.758799135684967041e-01 2.780097723007202148e+00 7.212653160095214844e-01 -1.866380691528320312e+00
2.886000000000000000e+03 6.486668395996093750e+01 9.117301940917968750e+00 3.273221850395202637e-01 3.958866357803344727e+00 1.285856485366821289e+00 -1.031840443611145020e+00
2.887000000000000000e+03 6.322590255737304688e+01 1.274372196197509766e+01 5.207861065864562988e-01 3.669810771942138672e+00 1.257179141044616699e+00 -8.119058609008789062e-01
2.888000000000000000e+03 1.144259929656982422e+01 2.200757408142089844e+01 1.814280748367309570e-01 -4.287911951541900635e-01 -7.420893758535385132e-02 2.213178575038909912e-01
2.889000000000000000e+03 3.949153137207031250e+01 2.228776693344116211e+00 -3.740700781345367432e-01 4.016127884387969971e-01 8.262816816568374634e-03 3.187592029571533203e-01
2.890000000000000000e+03 4.013008117675781250e+01 9.820992946624755859e-01 -4.225595295429229736e-01 3.735729455947875977e-01 -1.469597406685352325e-02 2.979088723659515381e-01
2.891000000000000000e+03 6.701412963867187500e+01 2.059214973449707031e+01 2.958806455135345459e-01 4.612332344055175781e+00 1.472463846206665039e+00 -5.790318250656127930e-01
2.892000000000000000e+03 1.494661808013916016e+01 2.679132461547851562e+01 1.077521294355392456e-01 -3.360853493213653564e-01 -6.849996745586395264e-02 2.918616235256195068e-01
2.893000000000000000e+03 5.024724197387695312e+01 -3.695022821426391602e+00 -7.984801530838012695e-01 3.402056992053985596e-01 -1.374823451042175293e-01 3.001358211040496826e-01
2.894000000000000000e+03 2.304843902587890625e+01 2.425542831420898438e+01 3.483371436595916748e-01 -2.810347080230712891e-01 2.019073069095611572e-02 4.757744371891021729e-01
2.895000000000000000e+03 3.617812728881835938e+01 5.172204017639160156e+00 -1.849830299615859985e-01 3.521767854690551758e-01 5.015812814235687256e-02 4.663425087928771973e-01
2.896000000000000000e+03 3.578112792968750000e+01 3.518468618392944336e+00 -2.431335449218750000e-01 2.897989451885223389e-01 1.399961672723293304e-02 4.265276491641998291e-01
2.897000000000000000e+03 3.372496795654296875e+01 5.527960777282714844e+00 -7.322372496128082275e-02 1.716802716255187988e-01 2.953696250915527344e-02 5.173794627189636230e-01
2.898000000000000000e+03 3.928177642822265625e+01 2.618551445007324219e+01 4.329082071781158447e-01 7.510510683059692383e-01 3.551877737045288086e-01 2.094401717185974121e-01
2.899000000000000000e+03 9.072985649108886719e+00 2.210901641845703125e+01 1.571214348077774048e-01 -6.327606439590454102e-01 -1.426917612552642822e-01 2.034343928098678589e-01
2.900000000000000000e+03 4.536981582641601562e+01 -5.799072742462158203e+00 -8.008948564529418945e-01 3.081981241703033447e-01 -1.478090286254882812e-01 2.248530387878417969e-01
2.901000000000000000e+03 2.445368957519531250e+01 2.193922805786132812e+01 3.830910921096801758e-01 -3.820753693580627441e-01 3.047160862479358912e-04 4.562008976936340332e-01
2.902000000000000000e+03 2.849159431457519531e+01 2.258337211608886719e+01 3.841008245944976807e-01 -1.684954762458801270e-01 6.468160450458526611e-02 2.735884785652160645e-01
2.903000000000000000e+03 1.373046016693115234e+01 2.827937126159667969e+01 9.785245358943939209e-02 -4.360480606555938721e-01 -1.014586836099624634e-01 2.374562472105026245e-01
2.904000000000000000e+03 6.981037902832031250e+01 2.349440765380859375e+01 1.827432662248611450e-01 5.165195465087890625e+00 1.604381680488586426e+00 -4.528928399085998535e-01
2.905000000000000000e+03 6.685606384277343750e+01 1.720069313049316406e+01 3.584016859531402588e-01 4.577890396118164062e+00 1.480887651443481445e+00 -6.899890899658203125e-01
2.906000000000000000e+03 3.581199645996093750e+01 1.856447219848632812e+01 2.823768556118011475e-01 4.873896241188049316e-01 2.309299409389495850e-01 2.000975906848907471e-01
2.907000000000000000e+03 3.788369750976562500e+01 2.186418342590332031e+01 3.210652470588684082e-01 7.080771923065185547e-01 3.087427318096160889e-01 1.919169127941131592e-01
2.908000000000000000e+03 6.204250717163085938e+01 9.731789827346801758e-01 -5.497036129236221313e-02 1.918895483016967773e+00 5.591775178909301758e-01 -9.920797944068908691e-01
2.909000000000000000e+03 3.594803237915039062e+01 6.978620529174804688e+00 -9.729607403278350830e-02 3.666802942752838135e-01 8.081526309251785278e-02 5.263429284095764160e-01
2.910000000000000000e+03 7.067320251464843750e+01 2.454203224182128906e+01 1.481378525495529175e-01 5.320484161376953125e+00 1.640586614608764648e+00 -4.244104325771331787e-01
2.911000000000000000e+03 6.375433349609375000e+01 -3.373646163940429688e+01 1.066011190414428711e-01 3.170318126678466797e+00 9.830757975578308105e-01 3.692500889301300049e-01
2.912000000000000000e+03 6.851408386230468750e+01 -3.510103225708007812e+01 3.573815152049064636e-02 5.532064437866210938e+00 1.670340657234191895e+00 3.138360381126403809e-01
2.913000000000000000e+03 6.828070068359375000e+01 5.208463191986083984e+00 -1.934577971696853638e-01 5.171050548553466797e+00 1.493277907371520996e+00 -1.290157794952392578e+00
2.914000000000000000e+03 7.354246520996093750e+01 -1.355699062347412109e+01 3.543913364410400391e+00 1.149286937713623047e+01 4.511034965515136719e+00 -1.913239836692810059e+00
2.915000000000000000e+03 7.280867767333984375e+01 -9.429795265197753906e+00 1.301515102386474609e+00 1.306025695800781250e+01 4.308531761169433594e+00 1.860102295875549316e+00
2.916000000000000000e+03 7.279816436767578125e+01 -1.589212799072265625e+01 -1.255957335233688354e-01 1.236301994323730469e+01 3.671227216720581055e+00 -1.654844999313354492e+00
2.917000000000000000e+03 7.326653289794921875e+01 -1.531623840332031250e+01 7.428886294364929199e-01 1.204710769653320312e+01 3.836998939514160156e+00 -2.169960498809814453e+00
2.918000000000000000e+03 7.171369171142578125e+01 -7.658320426940917969e+00 -6.868858933448791504e-01 1.247977733612060547e+01 3.537867307662963867e+00 2.559342682361602783e-01
2.919000000000000000e+03 7.251599884033203125e+01 -9.185195922851562500e+00 9.140009284019470215e-01 1.341776275634765625e+01 4.299529075622558594e+00 1.596151113510131836e+00
2.920000000000000000e+03 7.335783386230468750e+01 -1.483163166046142578e+01 1.320342898368835449e+00 1.198494148254394531e+01 3.991585254669189453e+00 -2.259190082550048828e+00
2.921000000000000000e+03 7.381140136718750000e+01 -1.495204067230224609e+01 1.216949820518493652e+00 1.125147533416748047e+01 3.740527629852294922e+00 -2.249179363250732422e+00
2.922000000000000000e+03 7.209576416015625000e+01 -6.788948059082031250e+00 -1.109690904617309570e+00 1.161456775665283203e+01 3.151463031768798828e+00 4.731033146381378174e-01
2.923000000000000000e+03 7.245151519775390625e+01 -6.287786960601806641e+00 -1.178898572921752930e+00 1.097944545745849609e+01 2.940164089202880859e+00 6.264319419860839844e-01
2.924000000000000000e+03 3.305224609375000000e+01 -1.044126415252685547e+01 -6.124735474586486816e-01 1.205824315547943115e-01 -1.475673317909240723e-01 3.123707473278045654e-01
2.925000000000000000e+03 2.991236305236816406e+01 -6.833385944366455078e+00 -6.822189092636108398e-01 8.164324611425399780e-02 -1.801726967096328735e-01 3.957097828388214111e-01
2.926000000000000000e+03 2.847229385375976562e+01 -2.876861572265625000e+00 -6.446158885955810547e-01 9.071776270866394043e-02 -1.661694347858428955e-01 3.192263841629028320e-01
2.927000000000000000e+03 7.246582031250000000e+01 -8.434818267822265625e+00 5.814548581838607788e-02 1.284189510345458984e+01 3.870012044906616211e+00 1.142335891723632812e+00
2.928000000000000000e+03 7.215869140625000000e+01 -8.577342033386230469e+00 9.497521817684173584e-02 1.352033519744873047e+01 4.084593296051025391e+00 8.911067843437194824e-01
2.929000000000000000e+03 2.961221885681152344e+01 -6.200406074523925781e+00 -6.920174360275268555e-01 8.211113512516021729e-02 -1.829718947410583496e-01 3.928360641002655029e-01
2.930000000000000000e+03 3.509377288818359375e+01 -1.036235332489013672e+01 -6.490002870559692383e-01 1.702065616846084595e-01 -1.436381191015243530e-01 2.727205753326416016e-01
2.931000000000000000e+03 3.433263015747070312e+01 -9.970514297485351562e+00 -6.439536213874816895e-01 1.633632630109786987e-01 -1.441771090030670166e-01 2.952106297016143799e-01
2.932000000000000000e+03 3.165665245056152344e+01 -8.295078277587890625e+00 -6.492595076560974121e-01 1.203672215342521667e-01 -1.586676836013793945e-01 3.629568219184875488e-01
2.933000000000000000e+03 3.123101425170898438e+01 -7.698894500732421875e+00 -6.595648527145385742e-01 1.211048811674118042e-01 -1.615379899740219116e-01 3.727237880229949951e-01
2.934000000000000000e+03 2.697142410278320312e+01 -6.960229873657226562e-01 -5.132923722267150879e-01 6.291910260915756226e-02 -1.351119875907897949e-01 2.442106753587722778e-01
2.935000000000000000e+03 3.012373352050781250e+01 -5.731297492980957031e+00 -6.824589371681213379e-01 1.143943890929222107e-01 -1.704193800687789917e-01 3.739079535007476807e-01
2.936000000000000000e+03 2.757539367675781250e+01 -2.685893535614013672e+00 -6.643509268760681152e-01 6.038030609488487244e-02 -1.811911910772323608e-01 3.225583434104919434e-01
2.937000000000000000e+03 6.024914550781250000e+01 3.726771354675292969e+00 1.397433280944824219e-01 1.986115694046020508e+00 6.377577185630798340e-01 -6.214618086814880371e-01
2.938000000000000000e+03 5.995122909545898438e+01 2.565507411956787109e+00 6.353782862424850464e-02 1.689243793487548828e+00 5.258345007896423340e-01 -5.623776316642761230e-01
2.939000000000000000e+03 4.201058959960937500e+01 2.024233341217041016e-03 -4.531045556068420410e-01 3.358108401298522949e-01 -3.518811985850334167e-02 2.718412876129150391e-01
2.940000000000000000e+03 2.828072166442871094e+01 -1.969398707151412964e-01 -4.129507541656494141e-01 7.831694930791854858e-02 -1.003901436924934387e-01 2.410526424646377563e-01
2.941000000000000000e+03 3.357557678222656250e+01 -9.565377235412597656e+00 -6.402915120124816895e-01 1.517067700624465942e-01 -1.465754210948944092e-01 3.171534240245819092e-01
2.942000000000000000e+03 3.382606506347656250e+01 1.195882797241210938e+01 4.964461177587509155e-02 2.639608681201934814e-01 9.408164769411087036e-02 5.199436545372009277e-01
2.943000000000000000e+03 3.814191055297851562e+01 -8.155944824218750000e+00 -7.090327143669128418e-01 2.543667852878570557e-01 -1.363997906446456909e-01 2.529326677322387695e-01
2.944000000000000000e+03 3.730337524414062500e+01 -9.583974838256835938e+00 -6.952196955680847168e-01 2.199795246124267578e-01 -1.425720453262329102e-01 2.449195235967636108e-01
2.945000000000000000e+03 3.636414337158203125e+01 -1.005880451202392578e+01 -6.782748699188232422e-01 1.999678164720535278e-01 -1.434921175241470337e-01 2.543299794197082520e-01
2.946000000000000000e+03 3.758676147460937500e+01 -1.062515163421630859e+01 -6.931857466697692871e-01 2.001698762178421021e-01 -1.479047685861587524e-01 2.169751226902008057e-01
2.947000000000000000e+03 2.887120246887207031e+01 1.442594379186630249e-01 -3.681353032588958740e-01 7.623896002769470215e-02 -8.756890147924423218e-02 2.430881112813949585e-01
2.948000000000000000e+03 3.040291213989257812e+01 8.726910352706909180e-01 -2.972623705863952637e-01 9.239245951175689697e-02 -6.146097183227539062e-02 2.840228378772735596e-01
2.949000000000000000e+03 5.865443420410156250e+01 1.759879738092422485e-01 -2.276268005371093750e-01 9.517323374748229980e-01 2.172316610813140869e-01 -2.014358937740325928e-01
2.950000000000000000e+03 4.038436508178710938e+01 -7.430328369140625000e+00 -7.416660785675048828e-01 2.819473147392272949e-01 -1.379156261682510376e-01 2.329252213239669800e-01
2.951000000000000000e+03 6.887005615234375000e+01 6.045910120010375977e-01 -9.123378396034240723e-01 5.969070911407470703e+00 1.517019867897033691e+00 -1.644395112991333008e+00
2.952000000000000000e+03 4.371616363525390625e+01 -7.300408840179443359e+00 -8.157750964164733887e-01 2.928289771080017090e-01 -1.568838357925415039e-01 1.904370933771133423e-01
2.953000000000000000e+03 4.139974212646484375e+01 -7.287411689758300781e+00 -7.664881944656372070e-01 2.876711189746856689e-01 -1.436451226472854614e-01 2.222614735364913940e-01
2.954000000000000000e+03 2.943803977966308594e+01 -1.853103518486022949e+00 -5.431933403015136719e-01 1.195226535201072693e-01 -1.271011978387832642e-01 2.897483110427856445e-01
2.955000000000000000e+03 6.803703308105468750e+01 1.289473772048950195e+00 -7.116028666496276855e-01 5.363937854766845703e+00 1.395700573921203613e+00 -1.667161345481872559e+00
2.956000000000000000e+03 6.259797286987304688e+01 8.681780815124511719e+00 3.849241733551025391e-01 3.273816347122192383e+00 1.097622156143188477e+00 -9.033347368240356445e-01
2.957000000000000000e+03 6.957080078125000000e+01 2.094266891479492188e+00 -7.233369350433349609e-01 6.068889617919921875e+00 1.603665828704833984e+00 -1.398218035697937012e+00
2.958000000000000000e+03 6.442652893066406250e+01 4.960474491119384766e+00 8.877339959144592285e-02 3.509652137756347656e+00 1.079527735710144043e+00 -1.237326145172119141e+00
2.959000000000000000e+03 4.656602096557617188e+01 -1.933106303215026855e+00 -5.442912578582763672e-01 2.891135215759277344e-01 -7.655332237482070923e-02 3.076162636280059814e-01
2.960000000000000000e+03 6.137709045410156250e+01 8.067394256591796875e+00 3.838495016098022461e-01 2.924921512603759766e+00 9.926313161849975586e-01 -7.952037453651428223e-01
2.961000000000000000e+03 6.130181503295898438e+01 5.945189476013183594e+00 2.881846427917480469e-01 2.649699449539184570e+00 8.813652396202087402e-01 -8.020836710929870605e-01
2.962000000000000000e+03 3.281867599487304688e+01 1.320987033843994141e+01 1.074513327330350876e-02 1.938136070966720581e-01 6.136761978268623352e-02 4.637337625026702881e-01
2.963000000000000000e+03 7.036772155761718750e+01 1.352278900146484375e+01 2.147929519414901733e-01 5.488897800445556641e+00 1.711107134819030762e+00 -8.146650195121765137e-01
2.964000000000000000e+03 6.857466888427734375e+01 1.293100357055664062e+01 2.762491106986999512e-01 5.062762737274169922e+00 1.601703524589538574e+00 -8.692253232002258301e-01
2.965000000000000000e+03 4.545293426513671875e+01 -2.597750425338745117e+00 -5.933821797370910645e-01 3.043577671051025391e-01 -8.670731633901596069e-02 2.855682373046875000e-01
2.966000000000000000e+03 4.591160964965820312e+01 -7.583111524581909180e-01 -4.515897333621978760e-01 2.803921401500701904e-01 -5.135927721858024597e-02 2.859954237937927246e-01
2.967000000000000000e+03 4.376150131225585938e+01 -6.189141273498535156e+00 -7.822055816650390625e-01 3.019914031028747559e-01 -1.440642476081848145e-01 2.264096289873123169e-01
2.968000000000000000e+03 4.479350280761718750e+01 -3.636169672012329102e+00 -6.622505187988281250e-01 3.086601793766021729e-01 -1.060770899057388306e-01 2.733434140682220459e-01
2.969000000000000000e+03 3.636672592163085938e+01 2.339722156524658203e+00 -3.183337748050689697e-01 3.155443072319030762e-01 -8.368424023501574993e-04 3.892853558063507080e-01
2.970000000000000000e+03 3.568155670166015625e+01 -9.528347969055175781e+00 -6.704843640327453613e-01 1.985536962747573853e-01 -1.415791958570480347e-01 2.746667861938476562e-01
2.971000000000000000e+03 3.581754684448242188e+01 -1.072825431823730469e+01 -6.517111659049987793e-01 1.731397956609725952e-01 -1.435714215040206909e-01 2.529891133308410645e-01
2.972000000000000000e+03 3.089394187927246094e+01 2.306019067764282227e+00 -1.669406890869140625e-01 6.479082256555557251e-02 -3.064495883882045746e-02 3.211768269538879395e-01
2.973000000000000000e+03 6.792417144775390625e+01 8.621735572814941406e+00 1.299010962247848511e-01 4.903178215026855469e+00 1.509923815727233887e+00 -1.104054927825927734e+00
2.974000000000000000e+03 6.596371459960937500e+01 1.300333881378173828e+01 4.003389775753021240e-01 4.316367626190185547e+00 1.415012001991271973e+00 -8.760804533958435059e-01
2.975000000000000000e+03 6.473842620849609375e+01 1.156946277618408203e+01 4.247966408729553223e-01 3.983159303665161133e+00 1.322386860847473145e+00 -9.168670177459716797e-01
2.976000000000000000e+03 6.288664627075195312e+01 2.972044423222541809e-02 -1.862005442380905151e-01 1.936139464378356934e+00 5.249816775321960449e-01 -1.266353845596313477e+00
2.977000000000000000e+03 1.271759033203125000e+01 2.156775474548339844e+01 2.029750049114227295e-01 -3.142228722572326660e-01 -3.337436169385910034e-02 2.390747815370559692e-01
2.978000000000000000e+03 1.614120674133300781e+01 2.387990570068359375e+01 1.420565694570541382e-01 -1.679620891809463501e-01 -7.771655451506376266e-03 3.704696595668792725e-01
2.979000000000000000e+03 4.180234909057617188e+01 -5.435575485229492188e+00 -7.080004215240478516e-01 3.063588142395019531e-01 -1.204924806952476501e-01 2.563438713550567627e-01
2.980000000000000000e+03 5.509550094604492188e+01 -2.425844430923461914e+00 -7.721759080886840820e-01 4.773627519607543945e-01 -8.844395726919174194e-02 2.394078522920608521e-01
2.981000000000000000e+03 3.510911178588867188e+01 1.873230934143066406e+00 -3.136293292045593262e-01 2.526237368583679199e-01 -1.830168254673480988e-02 3.820978999137878418e-01
2.982000000000000000e+03 6.855679321289062500e+01 1.427542114257812500e+01 2.883376479148864746e-01 5.042517662048339844e+00 1.599256515502929688e+00 -8.065865635871887207e-01
2.983000000000000000e+03 3.364940261840820312e+01 1.978432083129882812e+01 2.567586600780487061e-01 2.843099534511566162e-01 1.623205840587615967e-01 1.798214316368103027e-01
2.984000000000000000e+03 5.571158599853515625e+01 -1.638519763946533203e+00 -6.341454982757568359e-01 5.581571459770202637e-01 -2.279650978744029999e-02 2.131776958703994751e-01
2.985000000000000000e+03 4.643922424316406250e+01 -4.932459831237792969e+00 -7.837516069412231445e-01 3.087593019008636475e-01 -1.424976885318756104e-01 2.503491938114166260e-01
2.986000000000000000e+03 6.533028411865234375e+01 1.787204360961914062e+01 4.114291667938232422e-01 4.253172397613525391e+00 1.399380564689636230e+00 -6.480939388275146484e-01
2.987000000000000000e+03 2.937327194213867188e+01 2.155645370483398438e+01 3.357114493846893311e-01 -1.232015714049339294e-01 6.375296413898468018e-02 2.278474569320678711e-01
2.988000000000000000e+03 1.296655559539794922e+01 2.401553916931152344e+01 1.223694756627082825e-01 -3.633730113506317139e-01 -7.230105996131896973e-02 2.505175173282623291e-01
2.989000000000000000e+03 6.740517425537109375e+01 2.799761295318603516e-01 -7.716281414031982422e-01 5.032328605651855469e+00 1.278210043907165527e+00 -1.954619765281677246e+00
2.990000000000000000e+03 6.806397247314453125e+01 6.857217788696289062e+00 -8.390447124838829041e-03 4.997307777404785156e+00 1.496675133705139160e+00 -1.198484420776367188e+00
2.991000000000000000e+03 3.356192016601562500e+01 1.543330860137939453e+01 1.180542483925819397e-01 2.585124075412750244e-01 1.129700019955635071e-01 3.212288618087768555e-01
2.992000000000000000e+03 1.429092502593994141e+01 2.445332908630371094e+01 1.291890293359756470e-01 -2.857260704040527344e-01 -4.696111008524894714e-02 2.925427556037902832e-01
2.993000000000000000e+03 6.824158477783203125e+01 2.082833480834960938e+01 2.532599270343780518e-01 4.882360458374023438e+00 1.540686130523681641e+00 -5.635823607444763184e-01
2.994000000000000000e+03 3.925269699096679688e+01 -7.710553646087646484e+00 -7.261939644813537598e-01 2.703115940093994141e-01 -1.367647051811218262e-01 2.448263019323348999e-01
2.995000000000000000e+03 6.600256347656250000e+01 1.439961719512939453e+01 4.101927876472473145e-01 4.385247230529785156e+00 1.438632011413574219e+00 -8.046569228172302246e-01
2.996000000000000000e+03 6.444351196289062500e+01 1.453471469879150391e+01 4.918540716171264648e-01 3.986526966094970703e+00 1.343514323234558105e+00 -7.639051079750061035e-01
2.997000000000000000e+03 3.234907913208007812e+01 2.034090423583984375e+01 2.790649831295013428e-01 1.223842948675155640e-01 1.204347833991050720e-01 1.860449463129043579e-01
2.998000000000000000e+03 3.187157058715820312e+01 1.780785179138183594e+01 1.423954665660858154e-01 9.381362795829772949e-02 7.086272537708282471e-02 2.217184752225875854e-01
2.999000000000000000e+03 4.456168746948242188e+01 -6.755157470703125000e+00 -8.296890258789062500e-01 3.008224964141845703e-01 -1.586599498987197876e-01 2.013740986585617065e-01
3.000000000000000000e+03 6.480258178710937500e+01 2.435933494567871094e+01 2.956185340881347656e-01 4.190065383911132812e+00 1.345705270767211914e+00 -5.049761533737182617e-01
3.001000000000000000e+03 6.816949462890625000e+01 2.225506401062011719e+01 2.436790466308593750e-01 4.872923851013183594e+00 1.534980893135070801e+00 -5.285593867301940918e-01
3.002000000000000000e+03 6.630786132812500000e+01 1.581048297882080078e+01 4.063084423542022705e-01 4.460403919219970703e+00 1.460013747215270996e+00 -7.494533658027648926e-01
3.003000000000000000e+03 6.757227325439453125e+01 4.373774051666259766e+00 -2.244857847690582275e-01 4.910926818847656250e+00 1.405932307243347168e+00 -1.392427206039428711e+00
3.004000000000000000e+03 2.215958213806152344e+01 2.662701797485351562e+01 3.102380931377410889e-01 -2.307544648647308350e-01 2.384509332478046417e-02 4.218966960906982422e-01
3.005000000000000000e+03 6.316024017333984375e+01 2.063467597961425781e+01 3.763234615325927734e-01 3.899580240249633789e+00 1.282771110534667969e+00 -5.552753806114196777e-01
3.006000000000000000e+03 6.656042480468750000e+01 2.414640235900878906e+01 2.522788643836975098e-01 4.514366149902343750e+00 1.429993510246276855e+00 -4.928731620311737061e-01
3.007000000000000000e+03 2.991255378723144531e+01 1.276994037628173828e+01 -2.138477116823196411e-01 -7.199300825595855713e-02 -8.575221896171569824e-02 5.097990632057189941e-01
3.008000000000000000e+03 3.773174285888671875e+01 2.618556404113769531e+01 4.283695816993713379e-01 6.059008836746215820e-01 3.102811574935913086e-01 1.945425719022750854e-01
3.009000000000000000e+03 7.156118011474609375e+01 -8.095802307128906250e+00 -4.405989050865173340e-01 1.313744735717773438e+01 3.809054613113403320e+00 5.423456430435180664e-02
3.010000000000000000e+03 3.089185142517089844e+01 -7.039459228515625000e+00 -6.700389385223388672e-01 1.191039234399795532e-01 -1.652805060148239136e-01 3.765637874603271484e-01
3.011000000000000000e+03 3.066643905639648438e+01 -5.080821990966796875e+00 -6.629075407981872559e-01 1.459840983152389526e-01 -1.550770252943038940e-01 3.549794256687164307e-01
3.012000000000000000e+03 3.055862808227539062e+01 -6.360375881195068359e+00 -6.765395402908325195e-01 1.226548925042152405e-01 -1.661653965711593628e-01 3.759360611438751221e-01
3.013000000000000000e+03 3.264831542968750000e+01 -8.061826705932617188e+00 -6.564766168594360352e-01 1.592683941125869751e-01 -1.491624712944030762e-01 3.459738492965698242e-01
3.014000000000000000e+03 2.950421142578125000e+01 -5.516573429107666016e+00 -6.922671794891357422e-01 9.325196593999862671e-02 -1.797045618295669556e-01 3.804197013378143311e-01
3.015000000000000000e+03 3.132327842712402344e+01 -4.411120414733886719e+00 -6.380290389060974121e-01 1.669599711894989014e-01 -1.413207203149795532e-01 3.377586007118225098e-01
3.016000000000000000e+03 2.846265411376953125e+01 -3.909680128097534180e+00 -6.879696846008300781e-01 7.778264582157135010e-02 -1.830561012029647827e-01 3.547856807708740234e-01
3.017000000000000000e+03 3.172919082641601562e+01 -3.136949241161346436e-02 -3.854428529739379883e-01 1.507890224456787109e-01 -7.039615511894226074e-02 3.072846829891204834e-01
3.018000000000000000e+03 3.078594398498535156e+01 -1.872587949037551880e-01 -3.913756906986236572e-01 1.261147558689117432e-01 -7.957828044891357422e-02 2.904592156410217285e-01
3.019000000000000000e+03 2.956989669799804688e+01 5.234737396240234375e-01 -3.267157673835754395e-01 8.133823424577713013e-02 -7.361326366662979126e-02 2.634763419628143311e-01
3.020000000000000000e+03 3.226678085327148438e+01 -6.656003952026367188e+00 -6.625286340713500977e-01 1.720556020736694336e-01 -1.471419185400009155e-01 3.486294448375701904e-01
3.021000000000000000e+03 6.517285156250000000e+01 2.790662288665771484e+00 -1.526793241500854492e-01 3.687473773956298828e+00 1.060438275337219238e+00 -1.513593673706054688e+00
3.022000000000000000e+03 6.331295394897460938e+01 -7.768473029136657715e-01 -2.654244899749755859e-01 1.949925065040588379e+00 5.053501725196838379e-01 -1.456794023513793945e+00
3.023000000000000000e+03 6.628576660156250000e+01 9.857392311096191406e-01 -4.673939049243927002e-01 4.169924259185791016e+00 1.110759019851684570e+00 -1.825944781303405762e+00
3.024000000000000000e+03 7.010567474365234375e+01 -1.221253722906112671e-02 -1.165870666503906250e+00 6.902093887329101562e+00 1.720866918563842773e+00 -1.396145462989807129e+00
3.025000000000000000e+03 3.706378936767578125e+01 -8.556197166442871094e+00 -6.953727602958679199e-01 2.345833331346511841e-01 -1.382368355989456177e-01 2.660605907440185547e-01
3.026000000000000000e+03 3.538589859008789062e+01 -8.392121315002441406e+00 -6.712518334388732910e-01 2.091644704341888428e-01 -1.386262029409408569e-01 2.953761816024780273e-01
3.027000000000000000e+03 3.218677902221679688e+01 -8.787879943847656250e+00 -6.430369019508361816e-01 1.318523734807968140e-01 -1.533553451299667358e-01 3.507467806339263916e-01
3.028000000000000000e+03 3.840606689453125000e+01 -9.200090408325195312e+00 -7.195203900337219238e-01 2.386770248413085938e-01 -1.442530155181884766e-01 2.312384247779846191e-01
3.029000000000000000e+03 3.315204620361328125e+01 -4.884917736053466797e+00 -6.349033117294311523e-01 2.145006060600280762e-01 -1.261208206415176392e-01 3.313445746898651123e-01
3.030000000000000000e+03 3.883750915527343750e+01 5.087534189224243164e-01 -4.406399726867675781e-01 3.545624613761901855e-01 -2.582325413823127747e-02 3.224126696586608887e-01
3.031000000000000000e+03 4.412304687500000000e+01 -5.585138201713562012e-01 -4.546700716018676758e-01 3.036752641201019287e-01 -4.529844596982002258e-02 2.686000168323516846e-01
3.032000000000000000e+03 6.725487518310546875e+01 5.968954563140869141e+00 -2.168278768658638000e-02 4.690676689147949219e+00 1.400698184967041016e+00 -1.263612508773803711e+00
3.033000000000000000e+03 4.436149215698242188e+01 -4.982950210571289062e+00 -7.333171963691711426e-01 3.113966882228851318e-01 -1.265761554241180420e-01 2.485335171222686768e-01
3.034000000000000000e+03 6.861013031005859375e+01 2.201540946960449219e+00 -6.045156121253967285e-01 5.572957038879394531e+00 1.490532398223876953e+00 -1.505675673484802246e+00
3.035000000000000000e+03 2.860365867614746094e+01 -9.832197427749633789e-01 -4.880099296569824219e-01 9.143842756748199463e-02 -1.189714521169662476e-01 2.617692351341247559e-01
3.036000000000000000e+03 6.980156707763671875e+01 1.062083959579467773e+00 -8.908998966217041016e-01 6.403889656066894531e+00 1.653896927833557129e+00 -1.369724392890930176e+00
3.037000000000000000e+03 3.204866409301757812e+01 2.609846353530883789e+00 -1.717854291200637817e-01 9.955376386642456055e-02 -2.166950143873691559e-02 3.666487634181976318e-01
3.038000000000000000e+03 4.363823318481445312e+01 -1.689178466796875000e+00 -5.393725633621215820e-01 3.127475976943969727e-01 -6.798749417066574097e-02 2.819146215915679932e-01
3.039000000000000000e+03 4.228205871582031250e+01 -1.514049768447875977e+00 -5.281446576118469238e-01 3.244144022464752197e-01 -6.111908704042434692e-02 2.811346948146820068e-01
3.040000000000000000e+03 6.118835067749023438e+01 2.290114641189575195e+00 5.665639415383338928e-02 1.980640649795532227e+00 6.111891269683837891e-01 -7.887428402900695801e-01
3.041000000000000000e+03 4.598015213012695312e+01 -3.692527532577514648e+00 -6.845600008964538574e-01 3.062022924423217773e-01 -1.135073155164718628e-01 2.748034894466400146e-01
3.042000000000000000e+03 6.428219604492187500e+01 8.284410476684570312e+00 2.978633046150207520e-01 3.729892015457153320e+00 1.208326578140258789e+00 -1.041103243827819824e+00
3.043000000000000000e+03 3.523730468750000000e+01 4.609839439392089844e+00 -1.777651011943817139e-01 2.691273391246795654e-01 2.740867063403129578e-02 4.606181383132934570e-01
3.044000000000000000e+03 3.455136489868164062e+01 3.147043228149414062e+00 -2.214328795671463013e-01 2.196362316608428955e-01 -5.389938014559447765e-04 4.137331247329711914e-01
3.045000000000000000e+03 6.223858261108398438e+01 6.878140449523925781e+00 2.965728938579559326e-01 3.004595994949340820e+00 9.903506636619567871e-01 -9.052219390869140625e-01
3.046000000000000000e+03 6.333511352539062500e+01 7.614706039428710938e+00 3.171513676643371582e-01 3.396967649459838867e+00 1.114235758781433105e+00 -9.946439862251281738e-01
3.047000000000000000e+03 6.534757232666015625e+01 5.794085979461669922e+00 1.025016084313392639e-01 3.906820297241210938e+00 1.202796578407287598e+00 -1.232394218444824219e+00
3.048000000000000000e+03 3.584576416015625000e+01 6.854224801063537598e-01 -3.911037743091583252e-01 2.801400125026702881e-01 -3.328913077712059021e-02 3.561654686927795410e-01
3.049000000000000000e+03 6.844345855712890625e+01 1.169708824157714844e+01 2.536438703536987305e-01 5.032672405242919922e+00 1.585894942283630371e+00 -9.240006208419799805e-01
3.050000000000000000e+03 6.729222869873046875e+01 1.296644592285156250e+01 3.378022909164428711e-01 4.682182312011718750e+00 1.505995392799377441e+00 -8.771216273307800293e-01
3.051000000000000000e+03 6.408792877197265625e+01 -1.179411113262176514e-01 -2.867588102817535400e-01 2.603896856307983398e+00 6.951414346694946289e-01 -1.649483799934387207e+00
3.052000000000000000e+03 6.470540618896484375e+01 6.696931719779968262e-01 -2.529767453670501709e-01 3.115431785583496094e+00 8.587365150451660156e-01 -1.650110602378845215e+00
3.053000000000000000e+03 6.734377288818359375e+01 1.418744754791259766e+01 3.498194515705108643e-01 4.677954196929931641e+00 1.508332133293151855e+00 -8.381497263908386230e-01
3.054000000000000000e+03 6.727972412109375000e+01 1.171664619445800781e+01 3.070705235004425049e-01 4.704023838043212891e+00 1.503328323364257812e+00 -9.389594197273254395e-01
3.055000000000000000e+03 2.578454589843750000e+01 2.536339187622070312e+01 3.930513560771942139e-01 -2.104352563619613647e-01 5.478483065962791443e-02 3.712318241596221924e-01
3.056000000000000000e+03 6.776100921630859375e+01 1.528283214569091797e+01 3.362588584423065186e-01 4.828496456146240234e+00 1.549426555633544922e+00 -7.739866971969604492e-01
3.057000000000000000e+03 3.921086883544921875e+01 -5.258360385894775391e+00 -6.674997806549072266e-01 2.984876334667205811e-01 -1.107036471366882324e-01 2.803750038146972656e-01
3.058000000000000000e+03 1.537875270843505859e+01 3.002567672729492188e+01 1.147849634289741516e-01 -4.076566398143768311e-01 -8.786150068044662476e-02 2.526158988475799561e-01
3.059000000000000000e+03 3.502101516723632812e+01 5.616109848022460938e+00 -1.270575672388076782e-01 2.841273248195648193e-01 4.712092503905296326e-02 5.095698833465576172e-01
3.060000000000000000e+03 3.322730255126953125e+01 1.649430084228515625e+01 1.340666860342025757e-01 2.353658825159072876e-01 1.108297705650329590e-01 2.800119817256927490e-01
3.061000000000000000e+03 3.478919982910156250e+01 1.743934059143066406e+01 2.380943745374679565e-01 3.795781731605529785e-01 1.853017657995223999e-01 2.401221096515655518e-01
3.062000000000000000e+03 4.145333099365234375e+01 -6.432970523834228516e+00 -7.372182607650756836e-01 2.984168529510498047e-01 -1.316404193639755249e-01 2.417410761117935181e-01
3.063000000000000000e+03 3.685250473022460938e+01 -7.566609382629394531e+00 -6.874539852142333984e-01 2.507410943508148193e-01 -1.310138702392578125e-01 2.821396887302398682e-01
3.064000000000000000e+03 6.165689468383789062e+01 2.469454383850097656e+01 3.473652005195617676e-01 3.618402957916259766e+00 1.189730405807495117e+00 -5.303729176521301270e-01
3.065000000000000000e+03 6.241430282592773438e+01 2.337234115600585938e+01 3.383821547031402588e-01 3.785395145416259766e+00 1.237133145332336426e+00 -5.383156538009643555e-01
3.066000000000000000e+03 6.839721679687500000e+01 2.565578842163085938e+01 1.945324093103408813e-01 4.884090423583984375e+00 1.523586869239807129e+00 -4.375977814197540283e-01
3.067000000000000000e+03 6.499201965332031250e+01 2.647092437744140625e+01 2.784610390663146973e-01 4.208705902099609375e+00 1.346150159835815430e+00 -4.483359158039093018e-01
3.068000000000000000e+03 6.480412292480468750e+01 2.222286224365234375e+01 3.122567534446716309e-01 4.188423633575439453e+00 1.350204110145568848e+00 -5.401034951210021973e-01
3.069000000000000000e+03 6.387915420532226562e+01 1.853894233703613281e+01 4.191214442253112793e-01 4.008222103118896484e+00 1.328202962875366211e+00 -6.097975373268127441e-01
3.070000000000000000e+03 6.176745986938476562e+01 4.345335960388183594e+00 1.756266951560974121e-01 2.486942291259765625e+00 7.987707257270812988e-01 -8.889757990837097168e-01
3.071000000000000000e+03 6.393194961547851562e+01 4.031420230865478516e+00 7.877689599990844727e-02 3.184467554092407227e+00 9.789733886718750000e-01 -1.237920999526977539e+00
3.072000000000000000e+03 3.933673095703125000e+01 -6.882279515266418457e-01 -4.936251044273376465e-01 3.420743942260742188e-01 -4.546520859003067017e-02 3.072025477886199951e-01
3.073000000000000000e+03 5.593719482421875000e+01 2.873466682434082031e+01 5.274790525436401367e-01 2.519105195999145508e+00 9.139752388000488281e-01 -3.959089517593383789e-01
3.074000000000000000e+03 6.314213943481445312e+01 2.677972030639648438e+01 3.201690614223480225e-01 3.877329349517822266e+00 1.259249567985534668e+00 -4.689478278160095215e-01
3.075000000000000000e+03 8.903849601745605469e+00 3.852294921875000000e+01 3.839052468538284302e-02 -8.740089535713195801e-01 -2.506855428218841553e-01 3.956029936671257019e-02
3.076000000000000000e+03 3.839899063110351562e+01 -4.124499893188476562e+01 5.927937105298042297e-02 -1.462846249341964722e-01 -2.610157430171966553e-02 -3.234833106398582458e-02
3.077000000000000000e+03 6.077557754516601562e+01 -3.471321487426757812e+01 3.024687767028808594e-01 1.860078573226928711e+00 6.487641930580139160e-01 2.764504849910736084e-01
3.078000000000000000e+03 4.273394775390625000e+01 -4.140203857421875000e+01 1.981159895658493042e-01 -2.872582376003265381e-01 -2.674267254769802094e-02 -3.028538636863231659e-02
3.079000000000000000e+03 4.817034149169921875e+01 3.018067932128906250e+01 6.779683232307434082e-01 1.370523095130920410e+00 6.145474314689636230e-01 -3.195778280496597290e-02
3.080000000000000000e+03 3.384214401245117188e+01 2.781232643127441406e+01 4.534532129764556885e-01 3.435851931571960449e-01 2.391115278005599976e-01 1.811447292566299438e-01
3.081000000000000000e+03 7.366499328613281250e+01 -3.799901580810546875e+01 1.534917019307613373e-02 7.732683658599853516e+00 2.324409961700439453e+00 7.352250814437866211e-02
3.082000000000000000e+03 6.826358795166015625e+01 -3.796701049804687500e+01 2.270525693893432617e-01 5.330274581909179688e+00 1.667198181152343750e+00 2.229975759983062744e-01
3.083000000000000000e+03 3.156642913818359375e+01 -6.603706359863281250e+00 -6.638763546943664551e-01 1.533890366554260254e-01 -1.531461924314498901e-01 3.608867824077606201e-01
3.084000000000000000e+03 3.487031555175781250e+01 -9.121386528015136719e+00 -6.630718111991882324e-01 1.919185221195220947e-01 -1.413459926843643188e-01 2.972539365291595459e-01
3.085000000000000000e+03 3.412656784057617188e+01 -8.623605728149414062e+00 -6.599569320678710938e-01 1.839645504951477051e-01 -1.427977085113525391e-01 3.152647018432617188e-01
3.086000000000000000e+03 2.940896606445312500e+01 -4.726730823516845703e+00 -6.888895630836486816e-01 1.036482006311416626e-01 -1.755724102258682251e-01 3.650209009647369385e-01
3.087000000000000000e+03 3.007070159912109375e+01 -4.310110569000244141e+00 -6.554439663887023926e-01 1.299629509449005127e-01 -1.576443165540695190e-01 3.436923623085021973e-01
3.088000000000000000e+03 3.125735664367675781e+01 -5.837944984436035156e+00 -6.652930378913879395e-01 1.518929898738861084e-01 -1.540200114250183105e-01 3.567002415657043457e-01
3.089000000000000000e+03 2.942854881286621094e+01 -2.921504974365234375e+00 -6.154420375823974609e-01 1.198082268238067627e-01 -1.486901342868804932e-01 3.181833028793334961e-01
3.090000000000000000e+03 3.609514236450195312e+01 -8.689926147460937500e+00 -6.818373203277587891e-01 2.205858826637268066e-01 -1.383754462003707886e-01 2.789363563060760498e-01
3.091000000000000000e+03 3.023176765441894531e+01 -1.921144247055053711e+00 -5.337651371955871582e-01 1.335275918245315552e-01 -1.200712621212005615e-01 2.977693676948547363e-01
3.092000000000000000e+03 6.704937744140625000e+01 7.688345909118652344e+00 1.205284520983695984e-01 4.615464687347412109e+00 1.420797944068908691e+00 -1.152376890182495117e+00
3.093000000000000000e+03 3.884006118774414062e+01 -6.648799419403076172e+00 -7.008971571922302246e-01 2.823093831539154053e-01 -1.255763471126556396e-01 2.668348550796508789e-01
3.094000000000000000e+03 2.929910469055175781e+01 -8.124362230300903320e-01 -4.546794295310974121e-01 1.035646870732307434e-01 -1.053344234824180603e-01 2.711734175682067871e-01
3.095000000000000000e+03 6.281156539916992188e+01 4.151633739471435547e+00 1.374535113573074341e-01 2.835962533950805664e+00 8.920248150825500488e-01 -1.087092280387878418e+00
3.096000000000000000e+03 6.625486755371093750e+01 2.949256181716918945e+00 -2.271701991558074951e-01 4.194414615631103516e+00 1.190173387527465820e+00 -1.560938596725463867e+00
3.097000000000000000e+03 6.599311065673828125e+01 8.527865409851074219e+00 2.319338619709014893e-01 4.275058269500732422e+00 1.352097630500793457e+00 -1.103725552558898926e+00
3.098000000000000000e+03 6.775842285156250000e+01 2.848297834396362305e+00 -4.222243130207061768e-01 5.072395324707031250e+00 1.395051240921020508e+00 -1.504189968109130859e+00
3.099000000000000000e+03 3.515814971923828125e+01 2.008870506286621094e+01 2.865117788314819336e-01 4.097166955471038818e-01 2.088685482740402222e-01 1.641983985900878906e-01
3.100000000000000000e+03 6.685424804687500000e+01 9.468409538269042969e+00 2.456913143396377563e-01 4.556204319000244141e+00 1.440568685531616211e+00 -1.049241185188293457e+00
3.101000000000000000e+03 6.491806030273437500e+01 1.026875400543212891e+01 3.751605153083801270e-01 4.010992527008056641e+00 1.315845847129821777e+00 -9.879393577575683594e-01
3.102000000000000000e+03 4.482503509521484375e+01 -1.531342983245849609e+00 -5.218987464904785156e-01 2.977793812751770020e-01 -6.723581254482269287e-02 2.859570384025573730e-01
3.103000000000000000e+03 3.700938415527343750e+01 1.193525671958923340e+00 -3.869012892246246338e-01 3.210817873477935791e-01 -1.974584534764289856e-02 3.549549877643585205e-01
3.104000000000000000e+03 4.320124053955078125e+01 -4.534158229827880859e+00 -6.912121772766113281e-01 3.117627203464508057e-01 -1.138348281383514404e-01 2.638900279998779297e-01
3.105000000000000000e+03 3.561540985107421875e+01 -3.375079870223999023e+00 -5.800233483314514160e-01 2.687429189682006836e-01 -9.338413178920745850e-02 3.189020156860351562e-01
3.106000000000000000e+03 3.329354476928710938e+01 2.864853143692016602e+00 -2.011809647083282471e-01 1.621524989604949951e-01 -1.170853711664676666e-02 3.983972668647766113e-01
3.107000000000000000e+03 6.603680419921875000e+01 1.168156623840332031e+01 3.787985742092132568e-01 4.315800189971923828e+00 1.408379554748535156e+00 -9.459206461906433105e-01
3.108000000000000000e+03 3.510118484497070312e+01 2.193511772155761719e+01 3.252886235713958740e-01 4.090593159198760986e-01 2.203043848276138306e-01 1.677750945091247559e-01
3.109000000000000000e+03 4.225239181518554688e+01 -2.951254606246948242e+00 -6.051712036132812500e-01 3.197125494480133057e-01 -8.563759177923202515e-02 2.793187797069549561e-01
3.110000000000000000e+03 4.209013366699218750e+01 -4.253355503082275391e+00 -6.620866060256958008e-01 3.146359324455261230e-01 -1.042352095246315002e-01 2.696465551853179932e-01
3.111000000000000000e+03 3.763940811157226562e+01 6.002438813447952271e-02 -4.484480619430541992e-01 3.245416581630706787e-01 -3.717191889882087708e-02 3.336340188980102539e-01
3.112000000000000000e+03 6.238954544067382812e+01 5.120215415954589844e+00 1.992481350898742676e-01 2.854654788970947266e+00 9.161708950996398926e-01 -9.959434866905212402e-01
3.113000000000000000e+03 6.145703125000000000e+01 3.353420495986938477e+00 1.223234087228775024e-01 2.220122575759887695e+00 7.027338147163391113e-01 -8.423568606376647949e-01
3.114000000000000000e+03 4.051097106933593750e+01 -6.323948860168457031e+00 -7.189733982086181641e-01 2.949321269989013672e-01 -1.272123754024505615e-01 2.545355260372161865e-01
3.115000000000000000e+03 4.084693145751953125e+01 -5.241681098937988281e+00 -6.845364570617675781e-01 3.085030615329742432e-01 -1.128100156784057617e-01 2.671034932136535645e-01
3.116000000000000000e+03 3.063846969604492188e+01 -1.092344164848327637e+00 -4.706971943378448486e-01 1.412260234355926514e-01 -9.884134680032730103e-02 2.933636903762817383e-01
3.117000000000000000e+03 1.806551933288574219e+01 2.651351165771484375e+01 1.708878576755523682e-01 -2.230266332626342773e-01 -1.564162969589233398e-02 3.888346552848815918e-01
3.118000000000000000e+03 1.674972152709960938e+01 2.822308921813964844e+01 1.449926644563674927e-01 -2.971607744693756104e-01 -4.565043374896049500e-02 3.233606219291687012e-01
3.119000000000000000e+03 2.734893989562988281e+01 2.394043731689453125e+01 4.005115926265716553e-01 -1.960672736167907715e-01 6.133329868316650391e-02 3.221588432788848877e-01
3.120000000000000000e+03 6.323006820678710938e+01 1.562442898750305176e+00 -3.802461922168731689e-02 2.507860183715820312e+00 7.409507036209106445e-01 -1.242953181266784668e+00
3.121000000000000000e+03 6.320978164672851562e+01 2.210002136230468750e+01 3.433994054794311523e-01 3.893614768981933594e+00 1.271104216575622559e+00 -5.592613220214843750e-01
3.122000000000000000e+03 6.289197158813476562e+01 -3.596751785278320312e+01 3.488411307334899902e-01 2.689974784851074219e+00 9.116448163986206055e-01 2.546809613704681396e-01
3.123000000000000000e+03 2.255493354797363281e+01 -4.105465698242187500e+01 -6.190939340740442276e-03 4.159949603490531445e-04 -1.732483273372054100e-03 2.023258479312062263e-03
3.124000000000000000e+03 1.848891067504882812e+01 -3.788525772094726562e+01 -2.100778277963399887e-03 8.380818762816488743e-04 -3.788089379668235779e-04 2.880706219002604485e-03
3.125000000000000000e+03 5.620758438110351562e+01 2.636390495300292969e+01 5.042840838432312012e-01 2.530418872833251953e+00 9.104108810424804688e-01 -4.877847135066986084e-01
3.126000000000000000e+03 6.606620788574218750e+01 -3.455027770996093750e+01 7.531498372554779053e-02 4.314327239990234375e+00 1.316892743110656738e+00 3.530280888080596924e-01
3.127000000000000000e+03 1.173140525817871094e+01 3.523421096801757812e+01 7.558257132768630981e-02 -6.610117554664611816e-01 -1.756287515163421631e-01 1.024087890982627869e-01
3.128000000000000000e+03 3.180130958557128906e+01 -7.229586601257324219e+00 -6.641759872436523438e-01 1.434939503669738770e-01 -1.562046110630035400e-01 3.590305447578430176e-01
3.129000000000000000e+03 3.195248031616210938e+01 -5.166341304779052734e+00 -6.490308642387390137e-01 1.801406443119049072e-01 -1.406670659780502319e-01 3.436418771743774414e-01
3.130000000000000000e+03 3.217550277709960938e+01 -7.727643013000488281e+00 -6.590624451637268066e-01 1.484728604555130005e-01 -1.531768590211868286e-01 3.558845221996307373e-01
3.131000000000000000e+03 3.284256744384765625e+01 -9.183928489685058594e+00 -6.409097909927368164e-01 1.411422044038772583e-01 -1.499302685260772705e-01 3.342376947402954102e-01
3.132000000000000000e+03 3.255596542358398438e+01 -4.380290508270263672e+00 -6.212399601936340332e-01 2.002791166305541992e-01 -1.262882500886917114e-01 3.293936252593994141e-01
3.133000000000000000e+03 3.738490295410156250e+01 -6.117367267608642578e+00 -6.716526746749877930e-01 2.744812965393066406e-01 -1.191514134407043457e-01 2.912057042121887207e-01
3.134000000000000000e+03 3.084246063232421875e+01 -2.357105731964111328e+00 -5.518699884414672852e-01 1.582146883010864258e-01 -1.180965900421142578e-01 3.091759085655212402e-01
3.135000000000000000e+03 3.001468849182128906e+01 -4.513614773750305176e-01 -4.216696918010711670e-01 1.095996648073196411e-01 -9.362100064754486084e-02 2.730688452720642090e-01
3.136000000000000000e+03 3.646179580688476562e+01 -6.681910037994384766e+00 -6.739909648895263672e-01 2.577328681945800781e-01 -1.248774379491806030e-01 2.968250513076782227e-01
3.137000000000000000e+03 3.781351089477539062e+01 -7.131417751312255859e+00 -6.960897445678710938e-01 2.652597725391387939e-01 -1.292489916086196899e-01 2.740177512168884277e-01
3.138000000000000000e+03 3.815050888061523438e+01 -1.077474713325500488e+00 -5.056867599487304688e-01 3.249931633472442627e-01 -5.420808121562004089e-02 3.192929327487945557e-01
3.139000000000000000e+03 3.572086334228515625e+01 -8.221626281738281250e-01 -4.672111272811889648e-01 2.803504765033721924e-01 -5.605819448828697205e-02 3.383974134922027588e-01
3.140000000000000000e+03 3.271960067749023438e+01 -7.300269126892089844e+00 -6.615281701087951660e-01 1.738393455743789673e-01 -1.463066488504409790e-01 3.441937267780303955e-01
3.141000000000000000e+03 6.607980346679687500e+01 4.018491268157958984e+00 -9.875328838825225830e-02 4.103567123413085938e+00 1.201444149017333984e+00 -1.429352164268493652e+00
3.142000000000000000e+03 6.649707031250000000e+01 5.037738800048828125e+00 -5.716964974999427795e-02 4.348801136016845703e+00 1.287489533424377441e+00 -1.352398872375488281e+00
3.143000000000000000e+03 6.513151550292968750e+01 1.635854840278625488e+00 -2.185191363096237183e-01 3.487439155578613281e+00 9.806759953498840332e-01 -1.616370797157287598e+00
3.144000000000000000e+03 6.699667358398437500e+01 2.008867263793945312e+00 -4.439351558685302734e-01 4.639152526855468750e+00 1.258565306663513184e+00 -1.663495659828186035e+00
3.145000000000000000e+03 6.519319915771484375e+01 7.545872211456298828e+00 2.220246493816375732e-01 3.945927619934082031e+00 1.250385642051696777e+00 -1.128690004348754883e+00
3.146000000000000000e+03 4.104773712158203125e+01 -2.922762632369995117e+00 -5.945789813995361328e-01 3.235398828983306885e-01 -8.131171762943267822e-02 2.851247191429138184e-01
3.147000000000000000e+03 3.989488601684570312e+01 -3.042092561721801758e+00 -5.936036705970764160e-01 3.204014003276824951e-01 -8.196068555116653442e-02 2.921289205551147461e-01
3.148000000000000000e+03 3.249049377441406250e+01 1.392065405845642090e+00 -2.851417958736419678e-01 1.481570154428482056e-01 -4.109543189406394958e-02 3.395100831985473633e-01
3.149000000000000000e+03 3.377921295166015625e+01 1.562859296798706055e+00 -2.989840209484100342e-01 1.976745724678039551e-01 -3.039283677935600281e-02 3.634800016880035400e-01
3.150000000000000000e+03 6.620616912841796875e+01 6.749347686767578125e+00 1.028814092278480530e-01 4.296681880950927734e+00 1.319869041442871094e+00 -1.211879372596740723e+00
3.151000000000000000e+03 3.332371139526367188e+01 2.499542999267578125e+01 3.916940093040466309e-01 2.658981978893280029e-01 1.972776651382446289e-01 1.803768873214721680e-01
3.152000000000000000e+03 3.348886108398437500e+01 2.154248046875000000e+01 3.364365398883819580e-01 2.814459800720214844e-01 1.853647530078887939e-01 1.789867877960205078e-01
3.153000000000000000e+03 3.745199966430664062e+01 -2.552376270294189453e+00 -5.599906444549560547e-01 3.042860031127929688e-01 -7.671138644218444824e-02 3.140135705471038818e-01
3.154000000000000000e+03 3.836305236816406250e+01 -5.673788070678710938e+00 -6.690509915351867676e-01 2.899565696716308594e-01 -1.137283369898796082e-01 2.856705784797668457e-01
3.155000000000000000e+03 4.353414535522460938e+01 -3.153477191925048828e+00 -6.206257343292236328e-01 3.147487640380859375e-01 -9.176309406757354736e-02 2.732371985912322998e-01
3.156000000000000000e+03 6.655216979980468750e+01 2.220976829528808594e+01 2.862025797367095947e-01 4.532763957977294922e+00 1.445690035820007324e+00 -5.444990992546081543e-01
3.157000000000000000e+03 6.457530975341796875e+01 2.024670410156250000e+01 3.691677451133728027e-01 4.157581806182861328e+00 1.358024954795837402e+00 -5.870897173881530762e-01
3.158000000000000000e+03 2.669745254516601562e+01 2.752341079711914062e+01 4.050515592098236084e-01 -1.318050771951675415e-01 8.197394013404846191e-02 3.096625208854675293e-01
3.159000000000000000e+03 6.400402069091796875e+01 1.883076548576354980e+00 -9.723338484764099121e-02 2.903762340545654297e+00 8.419587016105651855e-01 -1.405209779739379883e+00
3.160000000000000000e+03 3.601058959960937500e+01 -7.924533843994140625e+00 -6.816968917846679688e-01 2.324516028165817261e-01 -1.347735822200775146e-01 2.913058400154113770e-01
3.161000000000000000e+03 3.481832504272460938e+01 -7.829238891601562500e+00 -6.695324182510375977e-01 2.109050899744033813e-01 -1.375882029533386230e-01 3.098721206188201904e-01
3.162000000000000000e+03 3.658209991455078125e+01 -3.904742896556854248e-01 -4.627246856689453125e-01 2.985372543334960938e-01 -4.925622418522834778e-02 3.352456390857696533e-01
3.163000000000000000e+03 6.267405319213867188e+01 3.052307367324829102e+00 6.846011430025100708e-02 2.590044736862182617e+00 7.975515127182006836e-01 -1.095938205718994141e+00
3.164000000000000000e+03 3.968484878540039062e+01 -1.882174849510192871e+00 -5.458531379699707031e-01 3.307282030582427979e-01 -6.453748792409896851e-02 2.988750934600830078e-01
3.165000000000000000e+03 3.852562332153320312e+01 -2.196230173110961914e+00 -5.517166256904602051e-01 3.188115656375885010e-01 -6.987151503562927246e-02 3.088099658489227295e-01
3.166000000000000000e+03 3.278657531738281250e+01 1.941826790571212769e-01 -3.723680675029754639e-01 1.788860708475112915e-01 -5.804460123181343079e-02 3.286678791046142578e-01
3.167000000000000000e+03 3.137515258789062500e+01 1.156228780746459961e+00 -2.768488526344299316e-01 1.114604994654655457e-01 -4.961650818586349487e-02 3.129684627056121826e-01
3.168000000000000000e+03 1.882043075561523438e+01 2.981934738159179688e+01 2.088241726160049438e-01 -2.623948752880096436e-01 -1.607120968401432037e-02 3.204271495342254639e-01
3.169000000000000000e+03 6.333073043823242188e+01 5.848364830017089844e+00 2.207935899496078491e-01 3.217012166976928711e+00 1.031341671943664551e+00 -1.065043926239013672e+00
3.170000000000000000e+03 6.115970611572265625e+01 2.665313911437988281e+01 3.626613020896911621e-01 3.486413002014160156e+00 1.154722332954406738e+00 -4.972336292266845703e-01
3.171000000000000000e+03 7.423635864257812500e+01 3.800666046142578125e+01 4.028232395648956299e-02 5.586314678192138672e+00 1.687979102134704590e+00 -5.463555082678794861e-02
3.172000000000000000e+03 7.068266296386718750e+01 3.266349411010742188e+01 1.299447715282440186e-01 5.140882015228271484e+00 1.581248044967651367e+00 -2.478960752487182617e-01
3.173000000000000000e+03 1.354978084564208984e+01 3.138003540039062500e+01 9.015577286481857300e-02 -5.072403550148010254e-01 -1.251253783702850342e-01 1.942504048347473145e-01
3.174000000000000000e+03 3.127426528930664062e+01 2.547259902954101562e+01 4.153896272182464600e-01 1.262066811323165894e-01 1.624788939952850342e-01 2.098152786493301392e-01
3.175000000000000000e+03 6.610989379882812500e+01 3.092768287658691406e+01 2.347839921712875366e-01 4.401525497436523438e+00 1.390892863273620605e+00 -3.120643496513366699e-01
3.176000000000000000e+03 3.510754013061523438e+01 -4.468270778656005859e+00 -6.176859140396118164e-01 2.520565986633300781e-01 -1.096887961030006409e-01 3.185753822326660156e-01
3.177000000000000000e+03 3.705199432373046875e+01 -5.047418594360351562e+00 -6.432758569717407227e-01 2.807982265949249268e-01 -1.087432950735092163e-01 3.028459846973419189e-01
3.178000000000000000e+03 3.495091247558593750e+01 -2.921885967254638672e+00 -5.634618997573852539e-01 2.576515674591064453e-01 -9.174310415983200073e-02 3.228611350059509277e-01
3.179000000000000000e+03 3.707231521606445312e+01 -1.476281523704528809e+00 -5.116482377052307129e-01 3.039869964122772217e-01 -6.229837983846664429e-02 3.254403173923492432e-01
3.180000000000000000e+03 3.242440414428710938e+01 -2.909971952438354492e+00 -5.657954216003417969e-01 1.982333809137344360e-01 -1.102686077356338501e-01 3.191091418266296387e-01
3.181000000000000000e+03 3.564104843139648438e+01 -7.273828029632568359e+00 -6.730278730392456055e-01 2.343576848506927490e-01 -1.316010504961013794e-01 3.008343279361724854e-01
3.182000000000000000e+03 3.135022544860839844e+01 -3.038653135299682617e+00 -5.767044425010681152e-01 1.718501150608062744e-01 -1.214562952518463135e-01 3.178563117980957031e-01
3.183000000000000000e+03 3.069822120666503906e+01 -3.648326158523559570e+00 -6.194021701812744141e-01 1.550845652818679810e-01 -1.392952948808670044e-01 3.303562700748443604e-01
3.184000000000000000e+03 3.269406509399414062e+01 -5.802612304687500000e+00 -6.531320810317993164e-01 1.917929649353027344e-01 -1.384017318487167358e-01 3.400331735610961914e-01
3.185000000000000000e+03 3.136208152770996094e+01 -1.665192842483520508e+00 -5.050163269042968750e-01 1.624861806631088257e-01 -1.027590408921241760e-01 3.042420744895935059e-01
3.186000000000000000e+03 3.443836975097656250e+01 -5.342681407928466797e+00 -6.412339806556701660e-01 2.337567955255508423e-01 -1.222431585192680359e-01 3.237814307212829590e-01
3.187000000000000000e+03 6.428761291503906250e+01 6.686785697937011719e+00 2.054762989282608032e-01 3.604329347610473633e+00 1.142941713333129883e+00 -1.120872855186462402e+00
3.188000000000000000e+03 3.335018539428710938e+01 -8.251370429992675781e+00 -6.581522226333618164e-01 1.734801530838012695e-01 -1.454016268253326416e-01 3.313185274600982666e-01
3.189000000000000000e+03 3.443739700317382812e+01 -7.040700912475585938e+00 -6.643955707550048828e-01 2.162454575300216675e-01 -1.344450265169143677e-01 3.196214735507965088e-01
3.190000000000000000e+03 3.396350479125976562e+01 2.790674865245819092e-01 -3.852945864200592041e-01 2.201388627290725708e-01 -4.954671859741210938e-02 3.443540334701538086e-01
3.191000000000000000e+03 4.101959991455078125e+01 -4.121924877166748047e+00 -6.476770639419555664e-01 3.158414959907531738e-01 -9.955066442489624023e-02 2.770170867443084717e-01
3.192000000000000000e+03 3.777045822143554688e+01 -3.619629144668579102e+00 -6.025261878967285156e-01 2.996611297130584717e-01 -9.085952490568161011e-02 3.060072064399719238e-01
3.193000000000000000e+03 3.900835418701171875e+01 -4.324941635131835938e+00 -6.360315680503845215e-01 3.052529692649841309e-01 -9.923358261585235596e-02 2.912066578865051270e-01
3.194000000000000000e+03 6.392578125000000000e+01 2.883060693740844727e+00 9.253138676285743713e-03 2.997392892837524414e+00 9.019938111305236816e-01 -1.317012667655944824e+00
3.195000000000000000e+03 6.502394866943359375e+01 3.994878053665161133e+00 -2.916130761150270700e-04 3.718973636627197266e+00 1.115604639053344727e+00 -1.353097915649414062e+00
3.196000000000000000e+03 2.458746337890625000e+01 2.854668807983398438e+01 3.559269607067108154e-01 -1.746373027563095093e-01 5.438689514994621277e-02 3.369390964508056641e-01
3.197000000000000000e+03 3.326549148559570312e+01 -3.996908187866210938e+00 -6.060424447059631348e-01 2.180159240961074829e-01 -1.164079532027244568e-01 3.260080218315124512e-01
3.198000000000000000e+03 3.243152999877929688e+01 -2.076043844223022461e+00 -5.270416140556335449e-01 1.991572976112365723e-01 -9.836529940366744995e-02 3.177010715007781982e-01
3.199000000000000000e+03 3.436712646484375000e+01 -6.137827873229980469e+00 -6.536742448806762695e-01 2.255084216594696045e-01 -1.284497529268264771e-01 3.242609500885009766e-01
3.200000000000000000e+03 3.527126693725585938e+01 -6.672452449798583984e+00 -6.669057011604309082e-01 2.377510815858840942e-01 -1.287463903427124023e-01 3.094366192817687988e-01
3.201000000000000000e+03 3.299956130981445312e+01 -9.362809062004089355e-01 -4.559893906116485596e-01 2.042219191789627075e-01 -7.553024590015411377e-02 3.214471638202667236e-01
3.202000000000000000e+03 3.605231475830078125e+01 -1.847874164581298828e+00 -5.222413539886474609e-01 2.822713255882263184e-01 -7.199101895093917847e-02 3.247954547405242920e-01
3.203000000000000000e+03 3.379944610595703125e+01 -5.196107864379882812e+00 -6.385635733604431152e-01 2.208977639675140381e-01 -1.252997368574142456e-01 3.276629447937011719e-01
3.204000000000000000e+03 3.186957931518554688e+01 -2.424717664718627930e+00 -5.445024967193603516e-01 1.843122541904449463e-01 -1.080570742487907410e-01 3.186396360397338867e-01
3.205000000000000000e+03 3.506060791015625000e+01 -3.310536593198776245e-02 -4.146317541599273682e-01 2.545093297958374023e-01 -4.803672805428504944e-02 3.446523249149322510e-01
3.206000000000000000e+03 3.316770553588867188e+01 -1.984570741653442383e+00 -5.172412991523742676e-01 2.129052579402923584e-01 -9.130081534385681152e-02 3.173507452011108398e-01
3.207000000000000000e+03 3.353780746459960938e+01 -6.120619297027587891e+00 -6.545059680938720703e-01 2.087550163269042969e-01 -1.337252855300903320e-01 3.324171602725982666e-01
3.208000000000000000e+03 3.607561492919921875e+01 -5.225086688995361328e+00 -6.438695788383483887e-01 2.656500935554504395e-01 -1.134658381342887878e-01 3.082343935966491699e-01
3.209000000000000000e+03 3.804206848144531250e+01 -4.665476799011230469e+00 -6.398783922195434570e-01 2.955754697322845459e-01 -1.032908707857131958e-01 2.956836521625518799e-01
3.210000000000000000e+03 4.093111419677734375e+01 -1.645446419715881348e+00 -5.363060832023620605e-01 3.326952457427978516e-01 -6.108323857188224792e-02 2.873237133026123047e-01
3.211000000000000000e+03 3.208960342407226562e+01 -1.148333430290222168e+00 -4.660907685756683350e-01 1.772891581058502197e-01 -8.664048463106155396e-02 3.099895715713500977e-01
3.212000000000000000e+03 3.593194961547851562e+01 -4.259416103363037109e+00 -6.132839322090148926e-01 2.716979980468750000e-01 -1.024757847189903259e-01 3.154770433902740479e-01
3.213000000000000000e+03 3.249302673339843750e+01 2.289869117736816406e+01 3.548174202442169189e-01 1.875679492950439453e-01 1.627156138420104980e-01 1.800203174352645874e-01
3.214000000000000000e+03 3.405604171752929688e+01 -2.930615901947021484e+00 -5.606954097747802734e-01 2.368079423904418945e-01 -9.716624021530151367e-02 3.243170678615570068e-01
3.215000000000000000e+03 3.501884841918945312e+01 -1.980683088302612305e+00 -5.206555128097534180e-01 2.580818533897399902e-01 -7.877210527658462524e-02 3.264804780483245850e-01
3.216000000000000000e+03 3.489753723144531250e+01 -9.597823619842529297e-01 -4.658252596855163574e-01 2.497217804193496704e-01 -6.483104079961776733e-02 3.324877917766571045e-01
3.217000000000000000e+03 3.403351974487304688e+01 -1.946093678474426270e+00 -5.161674618721008301e-01 2.315970063209533691e-01 -8.537112921476364136e-02 3.217962086200714111e-01
3.218000000000000000e+03 3.515188217163085938e+01 -6.022183418273925781e+00 -6.535709500312805176e-01 2.423351556062698364e-01 -1.233707368373870850e-01 3.160208761692047119e-01
3.219000000000000000e+03 3.396005630493164062e+01 -8.841973543167114258e-01 -4.593479335308074951e-01 2.252147197723388672e-01 -7.023996859788894653e-02 3.258744478225708008e-01
3.220000000000000000e+03 3.432670593261718750e+01 -4.664791584014892578e+00 -6.253065466880798340e-01 2.355846613645553589e-01 -1.169165596365928650e-01 3.220114111900329590e-01
3.221000000000000000e+03 3.680989837646484375e+01 -3.966148614883422852e+00 -6.094169616699218750e-01 2.858596146106719971e-01 -9.706720709800720215e-02 3.094180822372436523e-01
3.222000000000000000e+03 3.040670394897460938e+01 2.241608238220214844e+01 3.563965857028961182e-01 -2.489410527050495148e-02 9.945074468851089478e-02 2.112604230642318726e-01
3.223000000000000000e+03 3.491923904418945312e+01 -3.702404260635375977e+00 -5.943793058395385742e-01 2.512826919555664062e-01 -1.029289886355400085e-01 3.201077580451965332e-01
3.224000000000000000e+03 3.410811996459960938e+01 -3.877095699310302734e+00 -6.014330983161926270e-01 2.378713637590408325e-01 -1.090685278177261353e-01 3.235444128513336182e-01
3.225000000000000000e+03 3.519716262817382812e+01 -5.259065151214599609e+00 -6.412470936775207520e-01 2.484318315982818604e-01 -1.178445741534233093e-01 3.178878128528594971e-01
3.226000000000000000e+03 3.587633514404296875e+01 -6.109887123107910156e+00 -6.606642007827758789e-01 2.548956871032714844e-01 -1.217305436730384827e-01 3.072813451290130615e-01
3.227000000000000000e+03 2.916037178039550781e+01 2.516951751708984375e+01 4.158068001270294189e-01 -4.228157177567481995e-02 1.120575666427612305e-01 2.650569975376129150e-01
3.228000000000000000e+03 3.128338432312011719e+01 2.807811355590820312e+01 4.517133831977844238e-01 1.635237485170364380e-01 1.845711320638656616e-01 2.066862732172012329e-01
3.229000000000000000e+03 2.880599403381347656e+01 2.739502334594726562e+01 4.316902458667755127e-01 -1.055121049284934998e-02 1.263417154550552368e-01 2.675239145755767822e-01
3.230000000000000000e+03 3.049988365173339844e+01 3.107222557067871094e+01 4.742861092090606689e-01 1.557573527097702026e-01 1.890130490064620972e-01 1.984634548425674438e-01
3.231000000000000000e+03 3.669738769531250000e+01 3.305699157714843750e+01 5.538219809532165527e-01 5.634969472885131836e-01 3.351956903934478760e-01 1.347220093011856079e-01
3.232000000000000000e+03 7.534314727783203125e+01 -3.746800231933593750e+01 -6.013407185673713684e-02 8.839596748352050781e+00 2.633838891983032227e+00 -5.215078592300415039e-02
3.233000000000000000e+03 4.584778213500976562e+01 3.341942977905273438e+01 6.675338745117187500e-01 1.276705503463745117e+00 5.832718014717102051e-01 2.693465910851955414e-02
3.234000000000000000e+03 6.385942077636718750e+01 3.199711036682128906e+01 3.046158552169799805e-01 3.944555759429931641e+00 1.274751424789428711e+00 -3.140600919723510742e-01
3.235000000000000000e+03 6.089234542846679688e+01 2.933091545104980469e+01 3.894486725330352783e-01 3.428313016891479492e+00 1.145328521728515625e+00 -4.347045719623565674e-01
3.236000000000000000e+03 4.735847854614257812e+01 -4.139014434814453125e+01 4.177569448947906494e-01 -3.954658508300781250e-01 6.687325425446033478e-03 -6.324702501296997070e-02
3.237000000000000000e+03 1.281140518188476562e+01 -4.091987228393554688e+01 -1.628712401725351810e-03 1.092389109544456005e-03 -1.608969760127365589e-04 9.374906658194959164e-04
3.238000000000000000e+03 1.659391975402832031e+01 3.747076797485351562e+01 1.639168560504913330e-01 -4.229274392127990723e-01 -7.770317792892456055e-02 1.050140187144279480e-01
3.239000000000000000e+03 2.799604415893554688e+01 2.949955558776855469e+01 4.258957207202911377e-01 -1.651384681463241577e-02 1.228145584464073181e-01 2.586247920989990234e-01
3.240000000000000000e+03 5.371638870239257812e+01 3.435285949707031250e+01 6.175901889801025391e-01 2.256122350692749023e+00 8.621137738227844238e-01 -1.628881245851516724e-01
3.241000000000000000e+03 4.979556655883789062e+01 2.769677543640136719e+01 6.819093823432922363e-01 1.374487280845642090e+00 6.169189810752868652e-01 -1.018813624978065491e-01
3.242000000000000000e+03 1.572389602661132812e+01 -3.636251831054687500e+01 -1.838585478253662586e-03 4.044769157189875841e-04 -4.302325833123177290e-04 1.240044832229614258e-03
3.243000000000000000e+03 2.161014175415039062e+01 2.509659576416015625e+01 2.972126007080078125e-01 -2.361075133085250854e-01 1.833152770996093750e-02 4.788677692413330078e-01
3.244000000000000000e+03 4.294918441772460938e+01 2.976262855529785156e+01 5.868418812751770020e-01 9.565458893775939941e-01 4.630163311958312988e-01 1.472798734903335571e-01
3.245000000000000000e+03 5.919181823730468750e+01 -3.661940383911132812e+01 4.824759662151336670e-01 1.429007768630981445e+00 5.734450817108154297e-01 1.183099970221519470e-01
3.246000000000000000e+03 6.088770389556884766e+00 -3.790309524536132812e+01 -1.699365966487675905e-04 9.223480592481791973e-04 2.257234446005895734e-04 2.916275116149336100e-04
3.247000000000000000e+03 3.192667770385742188e+01 -4.115097045898437500e+01 -3.977459389716386795e-03 -3.292636573314666748e-02 -1.107114739716053009e-02 -2.241948619484901428e-03
3.248000000000000000e+03 2.767366218566894531e+01 -3.863070678710937500e+01 -5.879940465092658997e-03 -6.283830385655164719e-03 -3.649131162092089653e-03 2.546241739764809608e-03
3.249000000000000000e+03 5.208886337280273438e+01 -4.111023712158203125e+01 6.486508846282958984e-01 -8.737002313137054443e-02 1.683842688798904419e-01 -4.586720094084739685e-02
3.250000000000000000e+03 5.312590789794921875e+01 -3.694458770751953125e+01 4.849048256874084473e-01 -2.633930370211601257e-02 1.375696510076522827e-01 -2.095339447259902954e-01
3.251000000000000000e+03 2.053656959533691406e+01 3.352889633178710938e+01 2.590292692184448242e-01 -2.484087795019149780e-01 3.186147427186369896e-03 2.206239700317382812e-01
3.252000000000000000e+03 2.215132522583007812e+01 2.872739982604980469e+01 2.993445396423339844e-01 -2.194927036762237549e-01 2.395555004477500916e-02 3.545061349868774414e-01
3.253000000000000000e+03 1.273938655853271484e+01 -3.788372421264648438e+01 -2.102345606544986367e-04 6.289694574661552906e-04 1.256204704986885190e-04 7.526554400101304054e-04
3.254000000000000000e+03 6.112079238891601562e+01 3.258368301391601562e+01 3.908976614475250244e-01 3.462567329406738281e+00 1.156039476394653320e+00 -3.269775509834289551e-01
3.255000000000000000e+03 3.921155929565429688e+01 3.147366142272949219e+01 5.549794435501098633e-01 7.113559246063232422e-01 3.799006044864654541e-01 1.516257971525192261e-01
3.256000000000000000e+03 6.542919158935546875e+01 -3.711817932128906250e+01 2.955866158008575439e-01 4.036937236785888672e+00 1.299757122993469238e+00 2.175848931074142456e-01
3.257000000000000000e+03 6.167039871215820312e+01 -4.093255996704101562e+01 5.923028588294982910e-01 2.464771032333374023e+00 9.171221852302551270e-01 7.810243219137191772e-02
3.258000000000000000e+03 6.799422454833984375e+01 3.732208251953125000e+01 2.007770836353302002e-01 4.626344680786132812e+00 1.448136448860168457e+00 -1.483179777860641479e-01
3.259000000000000000e+03 6.159860992431640625e+01 -3.822549819946289062e+01 5.236589908599853516e-01 2.187159776687622070e+00 8.132456541061401367e-01 1.963929980993270874e-01
3.260000000000000000e+03 6.520436859130859375e+01 3.506462860107421875e+01 2.714189589023590088e-01 4.202860355377197266e+00 1.342283844947814941e+00 -2.129137068986892700e-01
3.261000000000000000e+03 5.739494323730468750e+01 3.606148910522460938e+01 5.193380117416381836e-01 2.850608110427856445e+00 1.010983824729919434e+00 -1.797403991222381592e-01
3.262000000000000000e+03 4.640789794921875000e+01 3.689740753173828125e+01 6.882308125495910645e-01 1.385354280471801758e+00 6.220754981040954590e-01 1.048247329890727997e-02
3.263000000000000000e+03 3.722065734863281250e+01 3.652102279663085938e+01 5.895274281501770020e-01 6.102488040924072266e-01 3.599328696727752686e-01 8.544582128524780273e-02
3.264000000000000000e+03 2.547137069702148438e+01 3.618334197998046875e+01 3.907734155654907227e-01 -4.468421638011932373e-02 1.038267612457275391e-01 1.468802243471145630e-01
3.265000000000000000e+03 2.137883186340332031e+01 3.100372886657714844e+01 2.787630856037139893e-01 -2.251968532800674438e-01 1.606987044215202332e-02 2.985325157642364502e-01
3.266000000000000000e+03 3.865341949462890625e+01 -3.417757034301757812e+01 -6.118208542466163635e-02 -3.563335910439491272e-02 -2.904463373124599457e-02 -7.599303126335144043e-02
3.267000000000000000e+03 5.009148788452148438e+01 2.968683052062988281e+01 6.885084509849548340e-01 1.538066506385803223e+00 6.679724454879760742e-01 -1.195047423243522644e-01
3.268000000000000000e+03 4.798242187500000000e+01 2.761526870727539062e+01 6.812912225723266602e-01 1.191670775413513184e+00 5.618885755538940430e-01 -1.473245327360928059e-03
3.269000000000000000e+03 4.051456069946289062e+01 2.900413513183593750e+01 5.291644930839538574e-01 8.130143880844116211e-01 4.026536643505096436e-01 1.822269111871719360e-01
3.270000000000000000e+03 4.715176010131835938e+01 4.060552597045898438e+01 6.850348711013793945e-01 1.466562986373901367e+00 6.454793214797973633e-01 2.269507851451635361e-03
3.271000000000000000e+03 4.902063369750976562e+01 3.302661132812500000e+01 6.783830523490905762e-01 1.568709731101989746e+00 6.741278171539306641e-01 -7.121524214744567871e-02
3.272000000000000000e+03 3.351570892333984375e+01 3.260649490356445312e+01 5.187450647354125977e-01 3.361769020557403564e-01 2.564765810966491699e-01 1.566891670227050781e-01
3.273000000000000000e+03 3.253383636474609375e+01 3.606270217895507812e+01 5.103941559791564941e-01 2.818324863910675049e-01 2.376679927110671997e-01 1.101738736033439636e-01
3.274000000000000000e+03 2.640732383728027344e+01 -1.767584419250488281e+01 1.453172808396629989e-05 -2.301003951288294047e-05 -2.543493792472872883e-06 2.673089875315781683e-05
3.275000000000000000e+03 2.569843482971191406e+01 -1.739976501464843750e+01 1.561848148412536830e-05 1.948976569110527635e-05 1.053247433446813375e-05 -3.733253834070637822e-05
3.276000000000000000e+03 6.797797393798828125e+01 -1.001583957672119141e+01 8.310351967811584473e-01 7.237955093383789062e+00 2.420696973800659180e+00 -1.136920332908630371e+00
3.277000000000000000e+03 6.810812377929687500e+01 -1.405140876770019531e+01 2.166117906570434570e+00 3.815104007720947266e+00 1.794366598129272461e+00 3.510184526443481445e+00
3.278000000000000000e+03 6.887555694580078125e+01 -1.371995353698730469e+01 3.119189023971557617e+00 7.739182949066162109e+00 3.257511615753173828e+00 5.871240615844726562e+00
3.279000000000000000e+03 6.986595916748046875e+01 -1.377232074737548828e+01 8.787412047386169434e-01 1.795621681213378906e+01 5.650487422943115234e+00 4.546486377716064453e+00
3.280000000000000000e+03 7.005436706542968750e+01 -1.377303409576416016e+01 5.417476296424865723e-01 1.888867950439453125e+01 5.829128265380859375e+00 4.181212902069091797e+00
3.281000000000000000e+03 7.178414916992187500e+01 -1.284461307525634766e+01 7.062858581542968750e+00 1.562369346618652344e+01 6.805965423583984375e+00 -2.117330312728881836e+00
3.282000000000000000e+03 7.185111236572265625e+01 -1.260740566253662109e+01 7.809881687164306641e+00 1.516291904449462891e+01 6.891840457916259766e+00 -1.537463545799255371e+00
3.283000000000000000e+03 7.192762756347656250e+01 -1.235767269134521484e+01 8.220410346984863281e+00 1.474377536773681641e+01 6.889256000518798828e+00 -7.814450263977050781e-01
3.284000000000000000e+03 7.206004333496093750e+01 -1.177584934234619141e+01 7.353465080261230469e+00 1.447485160827636719e+01 6.548494815826416016e+00 1.054681777954101562e+00
3.285000000000000000e+03 7.113790893554687500e+01 -1.051372146606445312e+01 2.080530166625976562e+00 1.859674263000488281e+01 6.203181743621826172e+00 1.135908007621765137e+00
3.286000000000000000e+03 7.069670867919921875e+01 -1.033497238159179688e+01 5.633417963981628418e-01 1.944927215576171875e+01 6.003784179687500000e+00 -7.887926697731018066e-01
3.287000000000000000e+03 7.030667877197265625e+01 -9.892956733703613281e+00 -1.602211743593215942e-01 1.714098358154296875e+01 5.094228267669677734e+00 -2.898458242416381836e+00
3.288000000000000000e+03 6.908679962158203125e+01 -1.006891059875488281e+01 9.134162068367004395e-01 1.112846374511718750e+01 3.612564086914062500e+00 -5.699715614318847656e+00
3.289000000000000000e+03 6.814910125732421875e+01 -1.021792888641357422e+01 9.502192139625549316e-01 4.461130142211914062e+00 1.623404741287231445e+00 -2.296457767486572266e+00
3.290000000000000000e+03 8.175081253051757812e+00 -1.457051563262939453e+01 5.346942343749105930e-04 1.185309520224109292e-04 1.959675573743879795e-04 1.709377247607335448e-04
3.291000000000000000e+03 4.341084289550781250e+01 7.806315898895263672e+00 -1.836739927530288696e-01 6.883606910705566406e-01 1.514060050249099731e-01 1.587031595408916473e-02
3.292000000000000000e+03 4.413623809814453125e+01 1.818701553344726562e+01 3.226184248924255371e-01 1.291983485221862793e+00 4.843805730342864990e-01 5.998145341873168945e-01
3.293000000000000000e+03 4.934901428222656250e+01 2.069276428222656250e+01 6.061824560165405273e-01 3.363918960094451904e-01 2.827723026275634766e-01 3.929447382688522339e-02
3.294000000000000000e+03 5.608937454223632812e+01 1.569009971618652344e+01 8.952185511589050293e-01 3.308112621307373047e+00 1.260999321937561035e+00 -7.942637801170349121e-01
3.295000000000000000e+03 7.030520629882812500e+01 -1.025684547424316406e+01 -7.709189504384994507e-02 1.873805046081542969e+01 5.598287582397460938e+00 -3.068715333938598633e+00
3.296000000000000000e+03 7.241606140136718750e+01 -1.210365867614746094e+01 6.909602165222167969e+00 1.333547496795654297e+01 6.073523521423339844e+00 -4.842794442083686590e-04
3.297000000000000000e+03 6.974125671386718750e+01 -1.479488086700439453e+01 6.729821860790252686e-02 1.330279445648193359e+01 4.011027812957763672e+00 3.846796751022338867e+00
3.298000000000000000e+03 7.189257049560546875e+01 -1.363923072814941406e+01 3.854669809341430664e+00 1.574367237091064453e+01 5.879502773284912109e+00 -2.476911306381225586e+00
3.299000000000000000e+03 2.074283790588378906e+01 -1.168777656555175781e+01 -6.184000812936574221e-05 -1.441110362065955997e-05 -2.287533425260335207e-05 1.899858943943399936e-05
3.300000000000000000e+03 7.523188781738281250e+01 4.029071426391601562e+01 4.425020888447761536e-02 5.775427341461181641e+00 1.745903253555297852e+00 3.074963111430406570e-03
3.301000000000000000e+03 1.729446411132812500e+01 -3.153170967102050781e+01 1.951726386323571205e-03 -1.702636473055463284e-05 5.804100073873996735e-04 1.711394637823104858e-03
3.302000000000000000e+03 6.930104064941406250e+01 -9.071373939514160156e+00 1.139955401420593262e+00 1.209605121612548828e+01 3.970801830291748047e+00 -4.320790290832519531e+00
3.303000000000000000e+03 5.633348464965820312e+01 1.288329982757568359e+01 3.443236649036407471e-01 3.437894821166992188e+00 1.134665489196777344e+00 -4.249778091907501221e-01
3.304000000000000000e+03 7.264428710937500000e+01 -1.246811103820800781e+01 6.246629238128662109e+00 1.294281291961669922e+01 5.756832599639892578e+00 -8.361887931823730469e-01
3.305000000000000000e+03 7.275317382812500000e+01 -1.220033740997314453e+01 6.263166904449462891e+00 1.269224834442138672e+01 5.686624526977539062e+00 -2.477767020463943481e-01
3.306000000000000000e+03 7.294519042968750000e+01 -1.238297939300537109e+01 5.656560420989990234e+00 1.220029258728027344e+01 5.357055664062500000e+00 -6.496423482894897461e-01
3.307000000000000000e+03 2.016963481903076172e+00 3.715930938720703125e+01 -1.348137273453176022e-03 -1.381174325942993164e+00 -4.147567451000213623e-01 -1.035911147482693195e-03
3.308000000000000000e+03 6.658630847930908203e+00 -1.367439460754394531e+01 -8.560882270103320479e-05 -1.729122232063673437e-05 -3.087001459789462388e-05 2.847830728569533676e-05
3.309000000000000000e+03 7.113284301757812500e+01 -1.503010654449462891e+01 -2.305099219083786011e-01 1.524003696441650391e+01 4.502858161926269531e+00 8.534861356019973755e-02
3.310000000000000000e+03 3.623345565795898438e+01 -3.671314239501953125e+01 -6.587702315300703049e-03 -6.023193895816802979e-02 -2.004589140415191650e-02 -4.818860813975334167e-02
3.311000000000000000e+03 4.311409759521484375e+01 2.114076995849609375e+01 2.828539609909057617e-01 1.037660956382751465e+00 3.961544632911682129e-01 3.876240551471710205e-01
3.312000000000000000e+03 8.289211273193359375e+00 -1.723754119873046875e+01 2.811984741128981113e-04 7.995143096195533872e-05 1.083449678844772279e-04 -1.399127213517203927e-04
3.313000000000000000e+03 6.171052169799804688e+01 -3.280745315551757812e+01 1.027866080403327942e-01 2.118830680847167969e+00 6.664851903915405273e-01 3.337912559509277344e-01
3.314000000000000000e+03 3.786390686035156250e+01 -3.568996047973632812e+01 -3.323903307318687439e-02 -6.658782064914703369e-02 -2.994805574417114258e-02 -8.795958012342453003e-02
3.315000000000000000e+03 4.415054702758789062e+01 2.009518861770629883e+00 -3.077321946620941162e-01 3.027949333190917969e-01 -1.481175073422491550e-03 2.079019546508789062e-01
3.316000000000000000e+03 7.103008270263671875e+01 -1.572834205627441406e+01 -7.063344120979309082e-01 1.367461585998535156e+01 3.890484333038330078e+00 5.432559251785278320e-01
3.317000000000000000e+03 7.303418731689453125e+01 -1.190327930450439453e+01 5.398950099945068359e+00 1.206383323669433594e+01 5.238834857940673828e+00 2.960553765296936035e-01
3.318000000000000000e+03 7.080975341796875000e+01 -9.952807426452636719e+00 3.320535719394683838e-01 1.755822563171386719e+01 5.367083549499511719e+00 -1.025219082832336426e+00
3.319000000000000000e+03 3.035514259338378906e+01 -3.471540069580078125e+01 -8.301195921376347542e-04 -3.940915688872337341e-03 -1.431310549378395081e-03 -3.191749332472681999e-03
3.320000000000000000e+03 3.415786743164062500e+00 3.597818374633789062e+01 1.665521785616874695e-02 -1.282159447669982910e+00 -3.796512782573699951e-01 2.465794421732425690e-02
3.321000000000000000e+03 4.954777908325195312e+01 2.220730209350585938e+01 7.035900950431823730e-01 7.434351444244384766e-01 4.341075718402862549e-01 -6.541045755147933960e-02
3.322000000000000000e+03 5.546150970458984375e+01 5.625553607940673828e+00 2.089744806289672852e-01 1.264490008354187012e+00 4.420393407344818115e-01 1.927895247936248779e-01
3.323000000000000000e+03 5.508498382568359375e+01 4.792119026184082031e+00 1.494445204734802246e-01 1.090515971183776855e+00 3.719881474971771240e-01 2.170959860086441040e-01
3.324000000000000000e+03 7.221726226806640625e+01 -1.032734298706054688e+01 2.883954286575317383e+00 1.486456012725830078e+01 5.324554443359375000e+00 2.021097660064697266e+00
3.325000000000000000e+03 7.183879852294921875e+01 -1.007940959930419922e+01 1.817279219627380371e+00 1.570523929595947266e+01 5.256755352020263672e+00 1.572965145111083984e+00
3.326000000000000000e+03 7.219661712646484375e+01 -9.976984024047851562e+00 1.903817176818847656e+00 1.461677837371826172e+01 4.956178665161132812e+00 1.746480941772460938e+00
3.327000000000000000e+03 7.326623535156250000e+01 -1.219085025787353516e+01 5.088636398315429688e+00 1.151233196258544922e+01 4.980290412902832031e+00 -2.511353194713592529e-01
3.328000000000000000e+03 7.280937957763671875e+01 -1.405245590209960938e+01 2.714618206024169922e+00 1.311672878265380859e+01 4.749403953552246094e+00 -2.296074867248535156e+00
3.329000000000000000e+03 7.295705413818359375e+01 -1.462018108367919922e+01 1.647312641143798828e+00 1.274655151367187500e+01 4.318159103393554688e+00 -2.245985984802246094e+00
3.330000000000000000e+03 7.316458892822265625e+01 -1.429508399963378906e+01 2.212432861328125000e+00 1.229339504241943359e+01 4.351748466491699219e+00 -2.262733697891235352e+00
3.331000000000000000e+03 4.125460433959960938e+01 5.452296257019042969e+00 -2.792698442935943604e-01 5.608453750610351562e-01 8.447264879941940308e-02 2.375317960977554321e-01
3.332000000000000000e+03 1.823195457458496094e+01 9.018559455871582031e-01 -5.363426804542541504e-01 -8.040118813514709473e-01 -4.021063745021820068e-01 8.761217594146728516e-01
3.333000000000000000e+03 7.321956634521484375e+01 -1.294150733947753906e+01 4.604701519012451172e+00 1.180476284027099609e+01 4.922839164733886719e+00 -1.429564118385314941e+00
3.334000000000000000e+03 6.089544677734375000e+01 1.268327236175537109e+01 6.052225232124328613e-01 3.234868049621582031e+00 1.152027130126953125e+00 -6.937069892883300781e-01
3.335000000000000000e+03 1.429331111907958984e+01 3.406018257141113281e+00 -4.501480162143707275e-01 -9.294168949127197266e-01 -4.138694703578948975e-01 6.409376263618469238e-01
3.336000000000000000e+03 1.584098434448242188e+01 1.997407722473144531e+01 2.453090697526931763e-01 5.590550974011421204e-02 9.036437422037124634e-02 3.411748409271240234e-01
3.337000000000000000e+03 1.508499050140380859e+01 2.085223197937011719e+01 2.151356786489486694e-01 -6.760788708925247192e-02 4.425833746790885925e-02 3.161945343017578125e-01
3.338000000000000000e+03 1.391738796234130859e+01 2.119727897644042969e+01 2.076235264539718628e-01 -1.926080733537673950e-01 4.504634533077478409e-03 2.722364366054534912e-01
3.339000000000000000e+03 7.039343261718750000e+01 -8.999429702758789062e+00 4.461523890495300293e-02 1.446642494201660156e+01 4.353312015533447266e+00 -2.544707298278808594e+00
3.340000000000000000e+03 7.041185760498046875e+01 -8.619439125061035156e+00 5.914981961250305176e-01 1.295850086212158203e+01 4.064999580383300781e+00 -2.128327131271362305e+00
3.341000000000000000e+03 4.023536300659179688e+01 1.425403881072998047e+01 4.245936870574951172e-01 1.115097284317016602e+00 4.619072973728179932e-01 3.227772116661071777e-01
3.342000000000000000e+03 1.985018348693847656e+01 2.784236717224121094e+01 2.215273976325988770e-01 -2.320558875799179077e-01 -3.158545587211847305e-03 3.815298974514007568e-01
3.343000000000000000e+03 2.062454605102539062e+01 2.620712089538574219e+01 2.596008181571960449e-01 -2.225513607263565063e-01 1.111483480781316757e-02 4.416670501232147217e-01
3.344000000000000000e+03 6.798857879638671875e+01 -2.396837711334228516e+00 -1.548391461372375488e+00 6.117444992065429688e+00 1.370716094970703125e+00 -2.413951158523559570e+00
3.345000000000000000e+03 7.341043853759765625e+01 -1.248850345611572266e+01 4.816405296325683594e+00 1.135112380981445312e+01 4.850258350372314453e+00 -6.666865348815917969e-01
3.346000000000000000e+03 7.368281555175781250e+01 -1.201928520202636719e+01 4.382377624511718750e+00 1.089493846893310547e+01 4.583194732666015625e+00 3.864318132400512695e-02
3.347000000000000000e+03 6.288112163543701172e+00 -8.347145080566406250e+00 2.951846399810165167e-04 2.037919102804153226e-06 8.916676597436890006e-05 1.652698992984369397e-04
3.348000000000000000e+03 1.067315769195556641e+01 -2.034500503540039062e+01 -7.289080531336367130e-05 -7.022430509096011519e-05 -4.293453093850985169e-05 -3.456378472037613392e-04
3.349000000000000000e+03 7.144013977050781250e+01 -8.994239807128906250e+00 5.539185181260108948e-02 1.459515571594238281e+01 4.395164012908935547e+00 4.314850270748138428e-02
3.350000000000000000e+03 7.181385040283203125e+01 -8.983568191528320312e+00 2.479186356067657471e-01 1.433126831054687500e+01 4.373755931854248047e+00 7.065753936767578125e-01
3.351000000000000000e+03 5.992022705078125000e+01 -3.199900436401367188e+01 -3.997203748440369964e-05 1.366619706153869629e+00 4.099739193916320801e-01 2.275026440620422363e-01
3.352000000000000000e+03 7.354788970947265625e+01 -1.441960525512695312e+01 1.969779491424560547e+00 1.165731716156005859e+01 4.088129043579101562e+00 -2.223959445953369141e+00
3.353000000000000000e+03 7.346949768066406250e+01 -1.407165050506591797e+01 2.491598129272460938e+00 1.171882534027099609e+01 4.263127326965332031e+00 -2.161867618560791016e+00
3.354000000000000000e+03 5.388691711425781250e+01 2.783033943176269531e+01 6.041365265846252441e-01 2.101644992828369141e+00 8.117344379425048828e-01 -3.448886871337890625e-01
3.355000000000000000e+03 7.256138610839843750e+01 -9.836584091186523438e+00 1.873893618583679199e+00 1.376196384429931641e+01 4.690757274627685547e+00 1.910149216651916504e+00
3.356000000000000000e+03 7.302755737304687500e+01 -9.850763320922851562e+00 2.046862363815307617e+00 1.264136028289794922e+01 4.406466484069824219e+00 1.914274096488952637e+00
3.357000000000000000e+03 1.059799098968505859e+01 -4.666034221649169922e+00 -1.191007468150928617e-04 -2.592351302155293524e-05 -4.350727613200433552e-05 -5.104986030346481130e-06
3.358000000000000000e+03 5.753498458862304688e+01 -3.044895935058593750e+01 -3.483538627624511719e-01 2.767454087734222412e-01 -2.148253098130226135e-02 -1.175632998347282410e-01
3.359000000000000000e+03 6.027595520019531250e+01 -3.030154991149902344e+01 -2.037294805049896240e-01 1.267501831054687500e+00 3.191317021846771240e-01 2.361617386341094971e-01
3.360000000000000000e+03 4.112660598754882812e+01 2.276399993896484375e+01 3.296094834804534912e-01 9.360094070434570312e-01 3.796856701374053955e-01 2.751754522323608398e-01
3.361000000000000000e+03 6.402397155761718750e+01 -4.056606292724609375e+00 -1.014463186264038086e+00 8.154292106628417969e-01 -5.971018597483634949e-02 -1.716271519660949707e+00
3.362000000000000000e+03 6.316051864624023438e+01 -2.403962373733520508e+00 -4.891416728496551514e-01 1.220000267028808594e+00 2.192575931549072266e-01 -1.391886472702026367e+00
3.363000000000000000e+03 7.287268066406250000e+01 -1.061455726623535156e+01 3.471739292144775391e+00 1.298103141784667969e+01 4.935831069946289062e+00 1.932226061820983887e+00
3.364000000000000000e+03 7.330735778808593750e+01 -1.040582752227783203e+01 2.898976087570190430e+00 1.208388042449951172e+01 4.494856834411621094e+00 1.854811072349548340e+00
3.365000000000000000e+03 1.699054336547851562e+01 2.502672576904296875e+01 1.459258049726486206e-01 -1.983572691679000854e-01 -1.572943665087223053e-02 3.931211829185485840e-01
3.366000000000000000e+03 3.109833717346191406e+01 1.012586688995361328e+01 -3.936008363962173462e-02 1.711449772119522095e-02 -6.673675961792469025e-03 6.212196946144104004e-01
3.367000000000000000e+03 3.029645919799804688e+01 1.013833522796630859e+01 -7.236267626285552979e-02 -9.822064638137817383e-02 -5.117499455809593201e-02 6.556074619293212891e-01
3.368000000000000000e+03 6.692331695556640625e+01 -1.865849852561950684e+00 -1.042673826217651367e+00 4.569452762603759766e+00 1.058033585548400879e+00 -2.574109077453613281e+00
3.369000000000000000e+03 3.488755035400390625e+01 6.688157558441162109e+00 -7.554893195629119873e-02 2.810684144496917725e-01 6.165584549307823181e-02 5.433948040008544922e-01
3.370000000000000000e+03 6.673731231689453125e+01 2.604197692871093750e+01 2.422808706760406494e-01 4.536656379699707031e+00 1.433681130409240723e+00 -4.501301944255828857e-01
3.371000000000000000e+03 6.830773925781250000e+01 2.394595909118652344e+01 2.098177075386047363e-01 4.872794628143310547e+00 1.524783730506896973e+00 -4.867134094238281250e-01
3.372000000000000000e+03 7.386940765380859375e+01 -1.580984401702880859e+01 4.096698462963104248e-01 1.117467403411865234e+01 3.475303173065185547e+00 -2.181593656539916992e+00
3.373000000000000000e+03 3.375488281250000000e+01 -1.353795623779296875e+01 -5.284659862518310547e-01 7.585073262453079224e-02 -1.357845664024353027e-01 2.287924140691757202e-01
3.374000000000000000e+03 3.197247695922851562e+01 1.038217830657958984e+01 -3.064430132508277893e-02 7.877432554960250854e-02 1.443900819867849350e-02 6.187842488288879395e-01
3.375000000000000000e+03 7.218093872070312500e+01 -8.909713745117187500e+00 3.538573384284973145e-01 1.371803855895996094e+01 4.221568584442138672e+00 1.079947471618652344e+00
3.376000000000000000e+03 7.184922790527343750e+01 -8.636702537536621094e+00 -2.473506331443786621e-02 1.373477077484130859e+01 4.113010883331298828e+00 5.820258855819702148e-01
3.377000000000000000e+03 7.439826965332031250e+01 -1.291010189056396484e+01 3.348226547241210938e+00 9.931176185607910156e+00 3.983820915222167969e+00 -9.940006136894226074e-01
3.378000000000000000e+03 7.428805541992187500e+01 -1.237880802154541016e+01 3.678357124328613281e+00 1.000908660888671875e+01 4.106233119964599609e+00 -5.055842995643615723e-01
3.379000000000000000e+03 4.231880664825439453e+00 3.974937438964843750e+00 -1.151860430836677551e-01 -5.405792966485023499e-02 -5.077319219708442688e-02 7.720569521188735962e-02
3.380000000000000000e+03 3.771531295776367188e+01 1.417320728302001953e+01 3.087060451507568359e-01 6.910188198089599609e-01 2.999174594879150391e-01 3.778183162212371826e-01
3.381000000000000000e+03 5.811637115478515625e+01 2.665349578857421875e+01 4.320757687091827393e-01 2.931563377380371094e+00 1.009091734886169434e+00 -5.093161463737487793e-01
3.382000000000000000e+03 7.394215393066406250e+01 -1.346380710601806641e+01 3.216357231140136719e+00 1.073931980133056641e+01 4.186703205108642578e+00 -1.630058407783508301e+00
3.383000000000000000e+03 3.399221801757812500e+01 -1.289693737030029297e+01 -5.578833818435668945e-01 9.426759183406829834e-02 -1.390847414731979370e-01 2.429512143135070801e-01
3.384000000000000000e+03 9.005172729492187500e+00 -2.873554039001464844e+01 1.186974579468369484e-03 -1.160707179224118590e-04 3.212711308151483536e-04 2.143703168258070946e-04
3.385000000000000000e+03 9.129528999328613281e+00 -5.090019702911376953e+00 1.511837908765301108e-04 -1.843020982050802559e-06 4.480223287828266621e-05 -6.731054600095376372e-05
3.386000000000000000e+03 7.239857196807861328e+00 -5.393406391143798828e+00 2.834585211530793458e-05 -6.486249912995845079e-05 -1.095499374059727415e-05 -2.908256828959565610e-05
3.387000000000000000e+03 7.306405639648437500e+01 -9.400954246520996094e+00 1.331765174865722656e+00 1.249479293823242188e+01 4.147967338562011719e+00 1.843070030212402344e+00
3.388000000000000000e+03 3.134768104553222656e+01 2.145411109924316406e+01 3.205951750278472900e-01 3.838860988616943359e-02 1.076951399445533752e-01 1.900482773780822754e-01
3.389000000000000000e+03 7.215969848632812500e+01 -8.239982604980468750e+00 -2.715426683425903320e-01 1.297711467742919922e+01 3.811671495437622070e+00 7.362454533576965332e-01
3.390000000000000000e+03 7.228149414062500000e+01 -7.763856410980224609e+00 -5.641684532165527344e-01 1.239679241180419922e+01 3.549787044525146484e+00 7.336675524711608887e-01
3.391000000000000000e+03 6.424221038818359375e+01 -2.977660417556762695e+00 -6.909099221229553223e-01 1.571655988693237305e+00 2.642238438129425049e-01 -1.945316910743713379e+00
3.392000000000000000e+03 7.278575134277343750e+01 -8.084303855895996094e+00 -1.531288176774978638e-01 1.214565658569335938e+01 3.597758293151855469e+00 1.297369241714477539e+00
3.393000000000000000e+03 5.112721633911132812e+01 -5.340607166290283203e+00 -1.035647988319396973e+00 3.365018367767333984e-01 -2.097438573837280273e-01 2.056165188550949097e-01
3.394000000000000000e+03 7.241716766357421875e+01 -1.714728927612304688e+01 -8.992617130279541016e-01 1.159436225891113281e+01 3.208530187606811523e+00 -9.333025217056274414e-01
3.395000000000000000e+03 9.346044540405273438e+00 2.475582695007324219e+01 9.276111423969268799e-02 -6.352313160896301270e-01 -1.627410650253295898e-01 1.738688051700592041e-01
3.396000000000000000e+03 3.644141387939453125e+01 7.723798751831054688e+00 -7.375773787498474121e-02 4.262501299381256104e-01 1.057477146387100220e-01 5.244322419166564941e-01
3.397000000000000000e+03 3.560064697265625000e+01 8.738937377929687500e+00 -1.092284545302391052e-02 3.672229051589965820e-01 1.068900153040885925e-01 5.569605827331542969e-01
3.398000000000000000e+03 9.973068237304687500e+00 2.345988655090332031e+01 1.204238161444664001e-01 -5.773808360099792480e-01 -1.370871067047119141e-01 1.963672935962677002e-01
3.399000000000000000e+03 6.202309608459472656e+00 -9.117225646972656250e+00 -1.157008373411372304e-04 -9.745419083628803492e-05 -6.394650699803605676e-05 -9.568000677973031998e-05
3.400000000000000000e+03 7.345946502685546875e+01 -8.938820838928222656e+00 9.358618855476379395e-01 1.179258918762207031e+01 3.818535327911376953e+00 1.889607429504394531e+00
3.401000000000000000e+03 7.280769348144531250e+01 -9.140585899353027344e+00 9.724428057670593262e-01 1.301051521301269531e+01 4.194887638092041016e+00 1.681979060173034668e+00
3.402000000000000000e+03 7.307830047607421875e+01 -9.072011947631835938e+00 9.853233695030212402e-01 1.240484714508056641e+01 4.017051219940185547e+00 1.844897627830505371e+00
3.403000000000000000e+03 2.755815315246582031e+01 -9.520223736763000488e-01 -5.184634923934936523e-01 6.848783046007156372e-02 -1.349927037954330444e-01 2.519091963768005371e-01
3.404000000000000000e+03 2.781173896789550781e+01 -5.216239094734191895e-01 -4.606274664402008057e-01 6.899421662092208862e-02 -1.174899712204933167e-01 2.400665134191513062e-01
3.405000000000000000e+03 7.348950195312500000e+01 2.832929229736328125e+01 7.452211529016494751e-02 5.704015254974365234e+00 1.733561158180236816e+00 -2.637457549571990967e-01
3.406000000000000000e+03 7.492780303955078125e+01 -1.441886425018310547e+01 1.513063907623291016e+00 9.609573364257812500e+00 3.336791276931762695e+00 -1.921573996543884277e+00
3.407000000000000000e+03 3.643431472778320312e+01 2.099563407897949219e+01 3.092572689056396484e-01 5.666774511337280273e-01 2.627803981304168701e-01 1.812185794115066528e-01
3.408000000000000000e+03 3.581602096557617188e+01 1.653362655639648438e+01 2.656624615192413330e-01 4.815053641796112061e-01 2.241503447294235229e-01 2.722301185131072998e-01
3.409000000000000000e+03 7.267650604248046875e+01 -2.214904022216796875e+01 -1.131157279014587402e+00 8.871833801269531250e+00 2.322202920913696289e+00 -4.720357656478881836e-01
3.410000000000000000e+03 5.220083999633789062e+01 -5.734036445617675781e+00 -1.173203825950622559e+00 3.421550393104553223e-01 -2.493146210908889771e-01 1.672138124704360962e-01
3.411000000000000000e+03 3.879949188232421875e+01 -3.288645267486572266e+00 -5.973821282386779785e-01 3.131406009197235107e-01 -8.527246117591857910e-02 2.988379895687103271e-01
3.412000000000000000e+03 6.848725891113281250e+01 1.048788070678710938e+01 2.033848613500595093e-01 5.049845218658447266e+00 1.575968980789184570e+00 -9.874541759490966797e-01
3.413000000000000000e+03 7.236457061767578125e+01 2.158286285400390625e+01 1.290711462497711182e-01 5.732394695281982422e+00 1.758439779281616211e+00 -4.616874456405639648e-01
3.414000000000000000e+03 7.486145019531250000e+01 -1.533722496032714844e+01 8.270769715309143066e-01 9.870217323303222656e+00 3.209188461303710938e+00 -2.190517425537109375e+00
3.415000000000000000e+03 7.511043548583984375e+01 -1.654781341552734375e+01 6.020491197705268860e-02 9.747150421142578125e+00 2.942206382751464844e+00 -2.155637502670288086e+00
3.416000000000000000e+03 7.289026641845703125e+01 -8.821631431579589844e+00 6.547346711158752441e-01 1.256076049804687500e+01 3.964648485183715820e+00 1.628114104270935059e+00
3.417000000000000000e+03 6.955036163330078125e+01 2.058915519714355469e+01 2.147045731544494629e-01 5.162209510803222656e+00 1.613074183464050293e+00 -5.516215562820434570e-01
3.418000000000000000e+03 7.381866455078125000e+01 2.722149276733398438e+01 6.686352193355560303e-02 5.791498661041259766e+00 1.757508635520935059e+00 -2.823410630226135254e-01
3.419000000000000000e+03 6.732054901123046875e+01 1.048408508300781250e+01 2.595241665840148926e-01 4.733290195465087891e+00 1.497844338417053223e+00 -1.007110118865966797e+00
3.420000000000000000e+03 3.154836654663085938e+01 -9.520631790161132812e+00 -6.181377768516540527e-01 9.076591581106185913e-02 -1.582115590572357178e-01 3.577954769134521484e-01
3.421000000000000000e+03 7.171375274658203125e+01 5.203047752380371094e+00 -2.915866672992706299e-01 6.524741172790527344e+00 1.869946360588073730e+00 -9.280241131782531738e-01
3.422000000000000000e+03 7.319456481933593750e+01 -8.465863227844238281e+00 3.214033544063568115e-01 1.200536537170410156e+01 3.698030710220336914e+00 1.671412110328674316e+00
3.423000000000000000e+03 7.379951477050781250e+01 -2.541077995300292969e+01 -6.145060658454895020e-01 8.462328910827636719e+00 2.354346990585327148e+00 -3.694063425064086914e-01
3.424000000000000000e+03 7.429701995849609375e+01 -2.433719444274902344e+01 -6.900221705436706543e-01 8.796038627624511719e+00 2.431804895401000977e+00 -5.773574113845825195e-01
3.425000000000000000e+03 6.348367691040039062e+01 4.530996978282928467e-01 -1.659357547760009766e-01 2.433588266372680664e+00 6.802957653999328613e-01 -1.430640697479248047e+00
3.426000000000000000e+03 5.130233764648437500e+01 -7.284377098083496094e+00 -1.241724371910095215e+00 2.769760489463806152e-01 -2.894244790077209473e-01 2.893416769802570343e-02
3.427000000000000000e+03 5.246920013427734375e+01 -7.174854755401611328e+00 -1.345273733139038086e+00 2.851502001285552979e-01 -3.180370628833770752e-01 7.440359797328710556e-03
3.428000000000000000e+03 4.518339157104492188e+01 -7.743958473205566406e+00 -8.780652880668640137e-01 2.885180711746215820e-01 -1.768641620874404907e-01 1.571386307477951050e-01
3.429000000000000000e+03 4.610898971557617188e+01 -6.880289554595947266e+00 -8.952221870422363281e-01 2.990002334117889404e-01 -1.788665801286697388e-01 1.790081560611724854e-01
3.430000000000000000e+03 2.799208831787109375e+01 -1.699130773544311523e+00 -5.661439895629882812e-01 8.536834269762039185e-02 -1.442326903343200684e-01 2.781434357166290283e-01
3.431000000000000000e+03 6.972065734863281250e+01 8.443696975708007812e+00 3.976938128471374512e-02 5.511519908905029297e+00 1.665386795997619629e+00 -1.043846011161804199e+00
3.432000000000000000e+03 3.998930358886718750e+01 -5.117175102233886719e+00 -6.740249991416931152e-01 3.045668900012969971e-01 -1.108374372124671936e-01 2.746944129467010498e-01
3.433000000000000000e+03 2.805111503601074219e+01 -1.057125210762023926e+00 -5.086693763732910156e-01 8.240055292844772339e-02 -1.278806477785110474e-01 2.633469104766845703e-01
3.434000000000000000e+03 6.996921539306640625e+01 9.924294471740722656e+00 1.079664155840873718e-01 5.535021781921386719e+00 1.692896485328674316e+00 -9.621275663375854492e-01
3.435000000000000000e+03 6.951064300537109375e+01 1.075596809387207031e+01 1.705365628004074097e-01 5.380293846130371094e+00 1.665249109268188477e+00 -9.581814408302307129e-01
3.436000000000000000e+03 5.195029067993164062e+01 -7.948137283325195312e+00 -1.356706500053405762e+00 2.531647980213165283e-01 -3.310624957084655762e-01 -5.629133060574531555e-02
3.437000000000000000e+03 3.350447463989257812e+01 -7.186789512634277344e+00 -6.622990965843200684e-01 1.946200728416442871e-01 -1.403037160634994507e-01 3.322478830814361572e-01
3.438000000000000000e+03 3.025220108032226562e+01 -2.813014984130859375e+00 -5.930458903312683105e-01 1.401609480381011963e-01 -1.358654648065567017e-01 3.116413950920104980e-01
3.439000000000000000e+03 7.231661987304687500e+01 9.823897361755371094e+00 4.056971520185470581e-02 6.283723831176757812e+00 1.897288084030151367e+00 -8.185354471206665039e-01
3.440000000000000000e+03 7.088495635986328125e+01 1.052608585357666016e+01 1.055161356925964355e-01 5.814506530761718750e+00 1.776006817817687988e+00 -8.975677490234375000e-01
3.441000000000000000e+03 7.143013000488281250e+01 9.663183212280273438e+00 4.751124605536460876e-02 5.996586322784423828e+00 1.813229203224182129e+00 -8.964709639549255371e-01
3.442000000000000000e+03 7.090470123291015625e+01 6.114813804626464844e+00 -1.891620904207229614e-01 6.170953750610351562e+00 1.794537544250488281e+00 -1.004340767860412598e+00
3.443000000000000000e+03 3.319053649902343750e+01 -3.009706497192382812e+00 -5.685394406318664551e-01 2.173046916723251343e-01 -1.053704172372817993e-01 3.227565288543701172e-01
3.444000000000000000e+03 3.196925735473632812e+01 -3.696801662445068359e+00 -6.049757599830627441e-01 1.902584880590438843e-01 -1.244151741266250610e-01 3.273640871047973633e-01
3.445000000000000000e+03 3.966196060180664062e+01 -5.984243869781494141e+00 -6.969604492187500000e-01 2.948327362537384033e-01 -1.206383183598518372e-01 2.662685513496398926e-01
3.446000000000000000e+03 1.760791015625000000e+01 -3.592630624771118164e+00 -2.040896288235671818e-05 -1.798739140213001519e-05 -1.151890592154813930e-05 -2.216681605204939842e-05
3.447000000000000000e+03 1.641983032226562500e+01 -3.659779310226440430e+00 -6.950450915610417724e-05 -2.255716754007153213e-05 -2.761850373644847423e-05 -3.182204818585887551e-05
3.448000000000000000e+03 1.596709632873535156e+01 -3.138501405715942383e+00 7.637927774339914322e-05 1.472724488849053159e-05 2.733195651671849191e-05 2.965817293443251401e-05
3.449000000000000000e+03 1.586659336090087891e+01 -2.276184797286987305e+00 2.752481668721884489e-05 2.709874024731107056e-05 1.638706635276321322e-05 2.542928632465191185e-05
3.450000000000000000e+03 1.709290885925292969e+01 -4.137548923492431641e+00 5.351538857212290168e-05 2.480276089045219123e-05 2.349544411117676646e-05 4.058601916767656803e-05
3.451000000000000000e+03 1.699184036254882812e+01 -3.153491020202636719e+00 3.153542274958454072e-05 2.384031904512085021e-05 1.661272108322009444e-05 1.893280750664416701e-05
3.452000000000000000e+03 1.642672538757324219e+01 -2.708522081375122070e+00 -2.549433520471211523e-05 -3.056566129089333117e-05 -1.681799949437845498e-05 -2.433498048048932105e-05
3.453000000000000000e+03 1.559137153625488281e+01 -2.682137489318847656e+00 -7.506980909965932369e-05 -7.270307833096012473e-06 -2.470203435223083943e-05 -3.248404755140654743e-05
3.454000000000000000e+03 1.540681362152099609e+01 -3.142266035079956055e+00 5.744315421907231212e-05 2.327356378373224288e-05 2.421501449134666473e-05 1.321941272180993110e-05
3.455000000000000000e+03 1.907761001586914062e+01 -6.133498668670654297e+00 -1.123280380852520466e-04 -3.374464358785189688e-05 -4.382180486572906375e-05 -1.668517325015272945e-05
3.456000000000000000e+03 1.901972579956054688e+01 -4.883155345916748047e+00 8.309623081004247069e-05 9.365486766910180449e-05 5.302532736095599830e-05 1.087978744180873036e-04
3.457000000000000000e+03 1.771518135070800781e+01 -4.684031486511230469e+00 -6.369253242155537009e-05 -3.902973185176961124e-05 -3.081667819060385227e-05 -4.070072827744297683e-05
3.458000000000000000e+03 1.884217071533203125e+01 -5.487794399261474609e+00 3.373947038198821247e-05 4.695212282967986539e-06 1.153040466306265444e-05 -2.421008503006305546e-05
3.459000000000000000e+03 1.971106910705566406e+01 -5.729177474975585938e+00 6.561835471075028181e-05 5.303884972818195820e-05 3.559716060408391058e-05 3.457974526099860668e-05
3.460000000000000000e+03 1.859158897399902344e+01 -4.527535915374755859e+00 -6.159715849207714200e-05 -3.621926589403301477e-05 -2.934492658823728561e-05 -4.240873749949969351e-05
3.461000000000000000e+03 1.826020622253417969e+01 -5.260548591613769531e+00 7.900079071987420321e-05 3.919239679817110300e-05 3.545795698300935328e-05 3.629250568337738514e-05
3.462000000000000000e+03 1.814997482299804688e+01 -4.063538074493408203e+00 2.455415415170136839e-05 2.705981387407518923e-05 1.548419095342978835e-05 1.887257167254574597e-05
3.463000000000000000e+03 1.937162017822265625e+01 -5.260223388671875000e+00 -6.533905980177223682e-05 -1.161084364866837859e-04 -5.443424743134528399e-05 -8.537926623830571771e-05
3.464000000000000000e+03 2.053260231018066406e+01 -6.879840850830078125e+00 7.319576252484694123e-05 2.601770938781555742e-05 2.976403993670828640e-05 4.363659172668121755e-05
3.465000000000000000e+03 1.993260192871093750e+01 -7.313529014587402344e+00 -9.056396811502054334e-05 -1.733672070258762687e-05 -3.237020791857503355e-05 -4.822196933673694730e-05
3.466000000000000000e+03 1.952820014953613281e+01 -6.721570968627929688e+00 1.020890631480142474e-04 1.571632492414209992e-05 3.534161805873736739e-05 4.933234595227986574e-05
3.467000000000000000e+03 2.073616981506347656e+01 -8.501105308532714844e+00 -7.135987107176333666e-05 -3.244011168135330081e-05 -3.113999628112651408e-05 -4.472609361982904375e-05
3.468000000000000000e+03 2.033558845520019531e+01 -7.906519412994384766e+00 7.891304267104715109e-05 2.673130802577361465e-05 3.169330739183351398e-05 4.776934656547382474e-05
3.469000000000000000e+03 2.136049652099609375e+01 -8.103272438049316406e+00 6.827052129665389657e-05 3.036858288396615535e-05 2.959173070848919451e-05 4.354393968242220581e-05
3.470000000000000000e+03 2.011603736877441406e+01 -6.269954204559326172e+00 -6.584649963770061731e-05 -1.441828408133005723e-05 -2.407943429716397077e-05 -3.592089706216938794e-05
3.471000000000000000e+03 2.094775009155273438e+01 -7.490758895874023438e+00 -7.307881605811417103e-05 -2.951968781417235732e-05 -3.077955261687748134e-05 -4.657233148464001715e-05
3.472000000000000000e+03 2.211177825927734375e+01 -9.384786605834960938e+00 5.363656964618712664e-05 2.211525861639529467e-05 2.272554775117896497e-05 3.274800837971270084e-05
3.473000000000000000e+03 2.111507797241210938e+01 -9.119487762451171875e+00 6.026730989105999470e-05 3.375140659045428038e-05 2.820561530825216323e-05 4.051954965689219534e-05
3.474000000000000000e+03 2.147401618957519531e+01 -9.760485649108886719e+00 -5.486938607646152377e-05 -3.097445733146741986e-05 -2.575315374997444451e-05 -3.266326893935911357e-05
3.475000000000000000e+03 2.247536849975585938e+01 -1.003463172912597656e+01 -4.734410686069168150e-05 -1.910614446387626231e-05 -1.993507612496614456e-05 -2.690775363589636981e-05
3.476000000000000000e+03 2.219019126892089844e+01 -1.104334068298339844e+01 -5.253201379673555493e-05 -2.161610063922125846e-05 -2.224443414888810366e-05 -2.288926771143451333e-05
3.477000000000000000e+03 2.283775901794433594e+01 -1.068520069122314453e+01 4.294501195545308292e-05 1.473715838073985651e-05 1.730465010041370988e-05 2.240268440800718963e-05
3.478000000000000000e+03 2.174793815612792969e+01 -8.735008239746093750e+00 -6.124649371486157179e-05 -2.663838313310407102e-05 -2.636546378198545426e-05 -3.781285704462788999e-05
3.479000000000000000e+03 2.183270454406738281e+01 -1.040155124664306641e+01 5.275780131341889501e-05 2.443656376271974295e-05 2.315830897714477032e-05 2.781842704280279577e-05
3.480000000000000000e+03 2.319392776489257812e+01 -1.134591865539550781e+01 -3.905496487277559936e-05 -1.180699200631352141e-05 -1.525858715467620641e-05 -1.946971133293118328e-05
3.481000000000000000e+03 2.326423454284667969e+01 -1.306139087677001953e+01 5.426782809081487358e-05 8.997833901958074421e-06 1.897969923447817564e-05 2.237938133475836366e-05
3.482000000000000000e+03 2.254657173156738281e+01 -1.170469474792480469e+01 5.683487688656896353e-05 1.464422985009150580e-05 2.144373138435184956e-05 1.756468009261880070e-05
3.483000000000000000e+03 2.362532424926757812e+01 -1.373823738098144531e+01 -4.908797200187109411e-05 -8.459397577098570764e-06 -1.726421032799407840e-05 -2.440409298287704587e-05
3.484000000000000000e+03 2.390093421936035156e+01 -1.268251132965087891e+01 -3.986975934822112322e-05 -8.907230949262157083e-06 -1.463309763494180515e-05 -1.971168239833787084e-05
3.485000000000000000e+03 2.354633140563964844e+01 -1.201502132415771484e+01 3.961576658184640110e-05 1.082639028027188033e-05 1.513264760433230549e-05 1.750996307237073779e-05
3.486000000000000000e+03 2.425669479370117188e+01 -1.334930610656738281e+01 3.771233969018794596e-05 1.185035671369405463e-05 1.486880864831618965e-05 2.107672298734541982e-05
3.487000000000000000e+03 2.290430450439453125e+01 -1.238384914398193359e+01 -5.883338963030837476e-05 -9.271778253605589271e-06 -2.043155109276995063e-05 -2.062726525764446706e-05
3.488000000000000000e+03 2.466052436828613281e+01 -1.399974441528320312e+01 -2.295595368195790797e-05 -1.261719808098860085e-05 -1.067194534698501229e-05 -2.263459100504405797e-05
3.489000000000000000e+03 2.453465080261230469e+01 -1.509176063537597656e+01 -2.882631815737113357e-05 -3.287605431978590786e-05 -1.851071101555135101e-05 -3.107754673692397773e-05
3.490000000000000000e+03 2.502702331542968750e+01 -1.576423931121826172e+01 3.397966793272644281e-05 3.484830085653811693e-05 2.064839100057724863e-05 6.924807621544459835e-06
3.491000000000000000e+03 2.404776763916015625e+01 -1.441548252105712891e+01 4.064317181473597884e-05 8.498715033056214452e-06 1.474256623623659834e-05 3.343426214996725321e-05
3.492000000000000000e+03 2.511550712585449219e+01 -1.463246059417724609e+01 2.050109833362512290e-05 1.815348150557838380e-05 1.159637395176105201e-05 1.183868516818620265e-05
3.493000000000000000e+03 2.552395820617675781e+01 -1.643102645874023438e+01 -3.954421845264732838e-05 6.504454631794942543e-06 -9.911929737427271903e-06 -9.417642104381229728e-06
3.494000000000000000e+03 2.604132461547851562e+01 -1.588424587249755859e+01 2.891046278818976134e-05 1.295667607337236404e-05 1.256014184036757797e-05 1.775531018211040646e-05
3.495000000000000000e+03 2.557597732543945312e+01 -1.526137638092041016e+01 -2.198123365815263242e-05 -8.023385817068628967e-06 -9.001386388263199478e-06 -1.376163800159702078e-05
3.496000000000000000e+03 2.685541343688964844e+01 -1.736337089538574219e+01 -1.565116508572828025e-05 -3.320219911984167993e-05 -1.465600962546886876e-05 -1.141891425504582003e-05
3.497000000000000000e+03 2.962472152709960938e+01 -1.787146186828613281e+01 -2.975772076752036810e-06 -3.377717803232371807e-05 -1.102588521462166682e-05 -2.110555760737042874e-05
3.498000000000000000e+03 2.734983825683593750e+01 -1.678857994079589844e+01 1.561358840262982994e-05 2.391904672549571842e-05 1.185979090223554522e-05 1.009812785923713818e-05
3.499000000000000000e+03 3.080405235290527344e+01 -1.850280952453613281e+01 -1.509345656813820824e-05 -1.745529061736306176e-06 -5.051695552538149059e-06 -1.790103965504385997e-06
3.500000000000000000e+03 3.130167770385742188e+01 -1.882423973083496094e+01 4.605714366334723309e-06 -1.077300794349866919e-06 1.058524048858089373e-06 -7.524612897213955875e-07
3.501000000000000000e+03 3.019455528259277344e+01 -1.864775276184082031e+01 1.175954184873262420e-05 3.032723043361329474e-06 4.437679308466613293e-06 3.685768660943722352e-06
3.502000000000000000e+03 2.885134124755859375e+01 -1.756889533996582031e+01 1.230262296303408220e-05 1.866904858616180718e-05 9.291501555708236992e-06 2.264162503706756979e-05
3.503000000000000000e+03 2.758355712890625000e+01 -1.776513671875000000e+01 2.567267802078276873e-05 1.971565689018461853e-05 1.361650083708809689e-05 -2.077139015455031767e-06
3.504000000000000000e+03 2.663327598571777344e+01 -1.639202117919921875e+01 -7.966991688590496778e-06 -1.926116055983584374e-05 -8.168445674527902156e-06 -2.491725717845838517e-05
3.505000000000000000e+03 2.613398170471191406e+01 -1.696289443969726562e+01 -1.347263264506182168e-06 1.220802232637652196e-06 -3.793828895481965446e-08 3.765173823921941221e-05
3.506000000000000000e+03 2.855906486511230469e+01 -1.814636802673339844e+01 -1.751909167069243267e-06 1.004638488666387275e-05 2.488342715878388844e-06 -6.823935564170824364e-06
3.507000000000000000e+03 3.022897911071777344e+01 -1.815928840637207031e+01 1.886086647573392838e-05 2.925286571553442627e-05 1.443411929358262569e-05 5.774905275757191703e-06
3.508000000000000000e+03 2.958772468566894531e+01 -1.828534126281738281e+01 -1.862331009760964662e-05 -2.325138302694540471e-05 -1.256240830116439611e-05 4.971810540155274794e-06
3.509000000000000000e+03 2.807311248779296875e+01 -1.718642997741699219e+01 -2.378417229920160025e-05 -1.398597032675752416e-05 -1.133104342443402857e-05 -1.535591763968113810e-05
3.510000000000000000e+03 2.805256843566894531e+01 -1.599539375305175781e+01 -2.313734889030456543e-01 -1.049477383494377136e-01 -1.008963659405708313e-01 1.683884263038635254e-01
3.511000000000000000e+03 2.771710586547851562e+01 -1.629158973693847656e+01 -2.340473532676696777e-01 -8.477388322353363037e-02 -9.564636647701263428e-02 1.442007273435592651e-01
3.512000000000000000e+03 3.209578704833984375e+01 -1.767966651916503906e+01 -3.252032995223999023e-01 -8.015080355107784271e-03 -9.996552020311355591e-02 1.268509924411773682e-01
3.513000000000000000e+03 2.906910705566406250e+01 -1.685614395141601562e+01 -2.822066545486450195e-01 -8.902368694543838501e-02 -1.113691031932830811e-01 1.632080078125000000e-01
3.514000000000000000e+03 3.341270828247070312e+01 -1.870440673828125000e+01 -2.769186794757843018e-01 4.373414441943168640e-03 -8.176358044147491455e-02 4.364713281393051147e-02
3.515000000000000000e+03 2.706196594238281250e+01 -1.589187431335449219e+01 -1.596679091453552246e-01 -7.876915484666824341e-02 -7.153111696243286133e-02 1.236959323287010193e-01
3.516000000000000000e+03 2.923283767700195312e+01 -1.609536933898925781e+01 -2.829313874244689941e-01 -9.281714260578155518e-02 -1.127245575189590454e-01 1.799180507659912109e-01
3.517000000000000000e+03 2.999985885620117188e+01 -1.651846694946289062e+01 -3.030316531658172607e-01 -6.846181303262710571e-02 -1.114480346441268921e-01 1.668124198913574219e-01
3.518000000000000000e+03 3.072626876831054688e+01 -1.692644691467285156e+01 -3.074456155300140381e-01 -5.527075752615928650e-02 -1.088149100542068481e-01 1.513238698244094849e-01
3.519000000000000000e+03 3.143663406372070312e+01 -1.732215881347656250e+01 -3.085420727729797363e-01 -1.852284930646419525e-02 -9.811948239803314209e-02 1.292510479688644409e-01
3.520000000000000000e+03 2.774296760559082031e+01 -1.514274120330810547e+01 -2.259674966335296631e-01 -1.255192160606384277e-01 -1.054460108280181885e-01 2.134008109569549561e-01
3.521000000000000000e+03 2.846567535400390625e+01 -1.561615467071533203e+01 -2.550972700119018555e-01 -1.089378818869590759e-01 -1.092105433344841003e-01 1.985592246055603027e-01
3.522000000000000000e+03 3.260166549682617188e+01 -1.817698669433593750e+01 -2.605740129947662354e-01 6.963947322219610214e-03 -7.608301937580108643e-02 9.912867844104766846e-02
3.523000000000000000e+03 2.739274024963378906e+01 -1.552256393432617188e+01 -1.946401000022888184e-01 -1.146127507090568542e-01 -9.277585893869400024e-02 1.850136965513229370e-01
3.524000000000000000e+03 2.835108566284179688e+01 -1.656591796875000000e+01 -2.705575525760650635e-01 -9.591627120971679688e-02 -1.099421456456184387e-01 1.602541208267211914e-01
3.525000000000000000e+03 3.125172996520996094e+01 -1.807483100891113281e+01 -2.545431256294250488e-01 -5.865017324686050415e-02 -9.395799040794372559e-02 1.242069602012634277e-01
3.526000000000000000e+03 3.190382575988769531e+01 -1.842963600158691406e+01 -2.150396108627319336e-01 -9.751858189702033997e-03 -6.743744015693664551e-02 8.759032934904098511e-02
3.527000000000000000e+03 2.982906913757324219e+01 -1.727654266357421875e+01 -2.855866253376007080e-01 -8.347826451063156128e-02 -1.107194647192955017e-01 1.577130407094955444e-01
3.528000000000000000e+03 3.054842185974121094e+01 -1.768181991577148438e+01 -2.769258916378021240e-01 -6.775001436471939087e-02 -1.034027710556983948e-01 1.445685923099517822e-01
3.529000000000000000e+03 2.535528373718261719e+01 -1.361763191223144531e+01 -1.580070704221725464e-01 -2.734829187393188477e-01 -1.294469982385635376e-01 2.164501547813415527e-01
3.530000000000000000e+03 2.599957847595214844e+01 -1.324495983123779297e+01 -2.175108939409255981e-01 -2.602055072784423828e-01 -1.433149129152297974e-01 2.726781964302062988e-01
3.531000000000000000e+03 2.628301239013671875e+01 -1.444043636322021484e+01 -1.840505301952362061e-01 -1.895363330841064453e-01 -1.120760664343833923e-01 2.023102045059204102e-01
3.532000000000000000e+03 2.572153282165527344e+01 -1.427359294891357422e+01 -1.644349992275238037e-01 -2.488951385021209717e-01 -1.239990442991256714e-01 2.014997601509094238e-01
3.533000000000000000e+03 2.649452018737792969e+01 -1.539540863037109375e+01 -1.130751296877861023e-01 -1.248012781143188477e-01 -7.136292010545730591e-02 1.333988308906555176e-01
3.534000000000000000e+03 2.713354682922363281e+01 -1.460084247589111328e+01 -2.239312827587127686e-01 -1.416398137807846069e-01 -1.096713319420814514e-01 2.281061112880706787e-01
3.535000000000000000e+03 2.657628631591796875e+01 -1.394268703460693359e+01 -2.242715656757354736e-01 -1.932336539030075073e-01 -1.252515614032745361e-01 2.415306419134140015e-01
3.536000000000000000e+03 2.681144523620605469e+01 -1.500777053833007812e+01 -1.837361603975296021e-01 -1.386204808950424194e-01 -9.670699387788772583e-02 1.966868638992309570e-01
3.537000000000000000e+03 2.604991912841796875e+01 -1.483973693847656250e+01 -1.323529332876205444e-01 -2.021452039480209351e-01 -1.003494411706924438e-01 1.644352674484252930e-01
3.538000000000000000e+03 2.387622833251953125e+01 -1.096773529052734375e+01 -2.432190775871276855e-01 -6.081658601760864258e-01 -2.554154992103576660e-01 3.792463541030883789e-01
3.539000000000000000e+03 2.422143554687500000e+01 -1.162815856933593750e+01 -2.019207626581192017e-01 -5.192952752113342285e-01 -2.163648158311843872e-01 3.291901648044586182e-01
3.540000000000000000e+03 2.456985282897949219e+01 -1.228557014465332031e+01 -1.787389963865280151e-01 -4.375286698341369629e-01 -1.848803013563156128e-01 2.803251743316650391e-01
3.541000000000000000e+03 2.520655250549316406e+01 -1.190669059753417969e+01 -2.621156871318817139e-01 -3.673307597637176514e-01 -1.888339370489120483e-01 3.458724915981292725e-01
3.542000000000000000e+03 2.492157745361328125e+01 -1.293985366821289062e+01 -1.496553421020507812e-01 -3.400108814239501953e-01 -1.468998640775680542e-01 2.437850683927536011e-01
3.543000000000000000e+03 2.555294799804687500e+01 -1.255092239379882812e+01 -2.384200692176818848e-01 -3.183173835277557373e-01 -1.670212447643280029e-01 3.127606809139251709e-01
3.544000000000000000e+03 2.452358436584472656e+01 -1.060895919799804688e+01 -3.323533236980438232e-01 -4.989535808563232422e-01 -2.493920624256134033e-01 4.277725815773010254e-01
3.545000000000000000e+03 2.486346435546875000e+01 -1.125933074951171875e+01 -2.991441786289215088e-01 -4.383186399936676025e-01 -2.212388515472412109e-01 3.819204866886138916e-01
3.546000000000000000e+03 2.278476524353027344e+01 -8.988129615783691406e+00 -3.635425269603729248e-01 -8.767176270484924316e-01 -3.720780313014984131e-01 5.664831399917602539e-01
3.547000000000000000e+03 2.241554069519042969e+01 -8.329325675964355469e+00 -4.676901996135711670e-01 -1.003784894943237305e+00 -4.414425194263458252e-01 6.574930548667907715e-01
3.548000000000000000e+03 2.379572296142578125e+01 -9.280672073364257812e+00 -4.216766357421875000e-01 -6.413688659667968750e-01 -3.189136683940887451e-01 5.347350835800170898e-01
3.549000000000000000e+03 2.315305709838867188e+01 -9.647591590881347656e+00 -3.216899335384368896e-01 -7.759182453155517578e-01 -3.292824625968933105e-01 4.940367639064788818e-01
3.550000000000000000e+03 2.352040100097656250e+01 -1.030764293670654297e+01 -2.774435281753540039e-01 -6.897512674331665039e-01 -2.901584506034851074e-01 4.382597804069519043e-01
3.551000000000000000e+03 2.416796875000000000e+01 -9.949502944946289062e+00 -3.794403076171875000e-01 -5.699134469032287598e-01 -2.848061323165893555e-01 4.735400974750518799e-01
3.552000000000000000e+03 2.304839897155761719e+01 -7.944846630096435547e+00 -5.798349380493164062e-01 -7.616868019104003906e-01 -4.024565219879150391e-01 6.506745219230651855e-01
3.553000000000000000e+03 2.342252731323242188e+01 -8.612430572509765625e+00 -5.050426721572875977e-01 -7.103595733642578125e-01 -3.646206855773925781e-01 5.979694128036499023e-01
3.554000000000000000e+03 2.176358604431152344e+01 -5.991405963897705078e+00 -8.745003342628479004e-01 -9.503961205482482910e-01 -5.474689602851867676e-01 8.754780888557434082e-01
3.555000000000000000e+03 2.073557853698730469e+01 -5.794119834899902344e+00 -9.232342839241027832e-01 -1.361839175224304199e+00 -6.855220198631286621e-01 1.055020451545715332e+00
3.556000000000000000e+03 2.159106254577636719e+01 -7.055338859558105469e+00 -6.274322271347045898e-01 -1.121547460556030273e+00 -5.246939063072204590e-01 8.250055313110351562e-01
3.557000000000000000e+03 2.201800537109375000e+01 -7.684557914733886719e+00 -5.580072402954101562e-01 -1.073897838592529297e+00 -4.895715117454528809e-01 7.545206546783447266e-01
3.558000000000000000e+03 2.264233016967773438e+01 -7.286725521087646484e+00 -6.542257666587829590e-01 -8.416255116462707520e-01 -4.487553834915161133e-01 7.048661112785339355e-01
3.559000000000000000e+03 2.132341575622558594e+01 -5.342503070831298828e+00 -9.912939667701721191e-01 -9.625377655029296875e-01 -5.861495137214660645e-01 9.004054069519042969e-01
3.560000000000000000e+03 2.116358566284179688e+01 -6.425094127655029297e+00 -7.017275691032409668e-01 -1.220430612564086914e+00 -5.766474604606628418e-01 9.232363700866699219e-01
3.561000000000000000e+03 2.220322418212890625e+01 -6.639578342437744141e+00 -7.221769690513610840e-01 -9.136358499526977539e-01 -4.907438457012176514e-01 7.962721586227416992e-01
3.562000000000000000e+03 1.974656295776367188e+01 -3.537436008453369141e+00 -1.320003032684326172e+00 -1.038685798645019531e+00 -7.076066732406616211e-01 1.095163464546203613e+00
3.563000000000000000e+03 1.870244216918945312e+01 -3.497282505035400391e+00 -1.579321742057800293e+00 -1.396492838859558105e+00 -8.927443623542785645e-01 1.370922565460205078e+00
3.564000000000000000e+03 1.974456596374511719e+01 -4.629005432128906250e+00 -1.175014495849609375e+00 -1.279156327247619629e+00 -7.362512350082397461e-01 1.205482363700866699e+00
3.565000000000000000e+03 2.026276969909667969e+01 -5.195233345031738281e+00 -1.104172706604003906e+00 -1.348822593688964844e+00 -7.358985543251037598e-01 1.167340397834777832e+00
3.566000000000000000e+03 2.083261680603027344e+01 -4.721695899963378906e+00 -1.064194083213806152e+00 -1.037568926811218262e+00 -6.305289268493652344e-01 9.406006336212158203e-01
3.567000000000000000e+03 1.920084571838378906e+01 -2.946005821228027344e+00 -1.364186048507690430e+00 -1.018515944480895996e+00 -7.148106098175048828e-01 1.014997005462646484e+00
3.568000000000000000e+03 1.922434425354003906e+01 -4.062799930572509766e+00 -1.257154107093811035e+00 -1.315490484237670898e+00 -7.717933654785156250e-01 1.281566500663757324e+00
3.569000000000000000e+03 2.029059791564941406e+01 -4.129554748535156250e+00 -1.141296982765197754e+00 -1.072251677513122559e+00 -6.640645861625671387e-01 1.054736375808715820e+00
3.570000000000000000e+03 1.724629974365234375e+01 -1.505973219871520996e+00 -1.253680467605590820e+00 -8.689215779304504395e-01 -6.367806196212768555e-01 1.027059197425842285e+00
3.571000000000000000e+03 1.620514488220214844e+01 -1.697480440139770508e+00 -1.536953449249267578e+00 -7.540051937103271484e-01 -6.872876286506652832e-01 1.017991423606872559e+00
3.572000000000000000e+03 1.748624420166015625e+01 -2.562495470046997070e+00 -1.629785895347595215e+00 -8.898947834968566895e-01 -7.559041976928710938e-01 1.201467871665954590e+00
3.573000000000000000e+03 1.812313652038574219e+01 -2.997157573699951172e+00 -1.768759012222290039e+00 -1.183333873748779297e+00 -8.856278657913208008e-01 1.338712453842163086e+00
3.574000000000000000e+03 1.859226417541503906e+01 -2.421155929565429688e+00 -1.276900053024291992e+00 -1.089929103851318359e+00 -7.100487351417541504e-01 1.025977969169616699e+00
3.575000000000000000e+03 1.657006454467773438e+01 -1.050868153572082520e+00 -1.112078309059143066e+00 -8.365135192871093750e-01 -5.845775604248046875e-01 8.877754807472229004e-01
3.576000000000000000e+03 1.792063713073730469e+01 -1.962957024574279785e+00 -1.290043354034423828e+00 -1.013357996940612793e+00 -6.910204291343688965e-01 1.101066708564758301e+00
3.577000000000000000e+03 1.684664344787597656e+01 -2.129048585891723633e+00 -1.528354763984680176e+00 -8.180202245712280273e-01 -7.039124965667724609e-01 1.105963468551635742e+00
3.578000000000000000e+03 1.437439537048339844e+01 -8.830149471759796143e-02 -7.328183650970458984e-01 -4.424451887607574463e-01 -3.525790870189666748e-01 6.266177892684936523e-01
3.579000000000000000e+03 1.338726615905761719e+01 -4.958960413932800293e-01 -6.667081713676452637e-01 -1.790265887975692749e-01 -2.537204325199127197e-01 3.564779758453369141e-01
3.580000000000000000e+03 1.481616306304931641e+01 -1.058209896087646484e+00 -1.080089211463928223e+00 -3.058293461799621582e-01 -4.157755672931671143e-01 6.026740074157714844e-01
3.581000000000000000e+03 1.552819252014160156e+01 -1.340840697288513184e+00 -1.416106462478637695e+00 -5.596925616264343262e-01 -5.927397012710571289e-01 8.015241622924804688e-01
3.582000000000000000e+03 1.586064529418945312e+01 -6.765008568763732910e-01 -9.326205849647521973e-01 -7.758942842483520508e-01 -5.125544667243957520e-01 8.599644899368286133e-01
3.583000000000000000e+03 1.362912273406982422e+01 2.041978091001510620e-01 -5.915349721908569336e-01 -3.964825272560119629e-01 -2.964052557945251465e-01 4.912043809890747070e-01
3.584000000000000000e+03 1.511841678619384766e+01 -3.819521367549896240e-01 -8.671954870223999023e-01 -6.253238916397094727e-01 -4.477558135986328125e-01 7.658483982086181641e-01
3.585000000000000000e+03 1.410233974456787109e+01 -7.764772772789001465e-01 -8.423775434494018555e-01 -2.719162106513977051e-01 -3.342881202697753906e-01 4.523215293884277344e-01
3.586000000000000000e+03 1.131013679504394531e+01 8.408998847007751465e-01 -3.232749998569488525e-01 -1.189723163843154907e-01 -1.326742023229598999e-01 2.145254015922546387e-01
3.587000000000000000e+03 1.042135906219482422e+01 2.992311716079711914e-01 -1.413654685020446777e-01 -1.986330561339855194e-02 -4.836862906813621521e-02 7.070127874612808228e-02
3.588000000000000000e+03 1.191366195678710938e+01 -7.340838760137557983e-02 -3.274971842765808105e-01 -5.615729093551635742e-02 -1.150963455438613892e-01 1.575664281845092773e-01
3.589000000000000000e+03 1.265766906738281250e+01 -2.614961266517639160e-01 -4.951234161853790283e-01 -1.475038379430770874e-01 -1.927881836891174316e-01 2.375801354646682739e-01
3.590000000000000000e+03 1.286749935150146484e+01 4.488001465797424316e-01 -4.877260029315948486e-01 -2.734893858432769775e-01 -2.283646166324615479e-01 3.984823524951934814e-01
3.591000000000000000e+03 1.052962684631347656e+01 1.034987807273864746e+00 -2.551305294036865234e-01 -1.030914038419723511e-01 -1.074665784835815430e-01 1.623660326004028320e-01
3.592000000000000000e+03 1.116801452636718750e+01 1.136300638318061829e-01 -2.167045623064041138e-01 -6.284581869840621948e-02 -8.386511355638504028e-02 1.018068566918373108e-01
3.593000000000000000e+03 1.208963775634765625e+01 6.453746557235717773e-01 -4.002713859081268311e-01 -2.142558693885803223e-01 -1.843581795692443848e-01 2.983229160308837891e-01
3.594000000000000000e+03 9.769897460937500000e+00 1.127334833145141602e+00 -1.993051469326019287e-01 -4.635395854711532593e-02 -7.369773089885711670e-02 1.124806255102157593e-01
3.595000000000000000e+03 8.908253669738769531e+00 3.834945559501647949e-01 -3.766322508454322815e-03 2.543297596275806427e-03 -3.669074212666600943e-04 2.165633998811244965e-02
3.596000000000000000e+03 8.148585319519042969e+00 3.813134729862213135e-01 3.095427900552749634e-02 -9.308809414505958557e-03 6.493640597909688950e-03 1.226461306214332581e-02
3.597000000000000000e+03 7.389538288116455078e+00 3.804203569889068604e-01 5.149498581886291504e-02 2.930587390437722206e-03 1.632767170667648315e-02 8.063488639891147614e-03
3.598000000000000000e+03 5.871651172637939453e+00 3.774017989635467529e-01 6.950457394123077393e-02 2.465456491336226463e-03 2.159100770950317383e-02 2.683205995708703995e-03
3.599000000000000000e+03 5.112813949584960938e+00 3.713777065277099609e-01 7.001200318336486816e-02 -4.387947265058755875e-03 1.968721672892570496e-02 -1.455581630580127239e-03
3.600000000000000000e+03 4.353719234466552734e+00 3.684233725070953369e-01 6.613178551197052002e-02 2.153573092073202133e-03 2.048560790717601776e-02 -1.734435325488448143e-03
3.601000000000000000e+03 2.836394548416137695e+00 3.605927824974060059e-01 4.332605376839637756e-02 1.635014661587774754e-03 1.348832063376903534e-02 -6.045844405889511108e-03
3.602000000000000000e+03 2.079856634140014648e+00 3.581516146659851074e-01 2.691048569977283478e-02 -1.948073739185929298e-03 7.488723844289779663e-03 -7.957835681736469269e-03
3.603000000000000000e+03 2.391224622726440430e+00 1.098151683807373047e+00 1.419909391552209854e-02 9.780423715710639954e-05 4.289069212973117828e-03 -1.674055494368076324e-02
3.604000000000000000e+03 1.335687994956970215e+00 3.668014705181121826e-01 1.113444752991199493e-02 1.829636748880147934e-03 3.889225190505385399e-03 -6.345879752188920975e-03
3.605000000000000000e+03 1.668010950088500977e+00 1.106801509857177734e+00 1.140628475695848465e-02 -1.828268141252920032e-04 3.367037279531359673e-03 -1.688658259809017181e-02
3.606000000000000000e+03 6.565449833869934082e-01 3.952373564243316650e-01 2.044068183749914169e-03 9.859302081167697906e-04 9.089994709938764572e-04 -3.712929785251617432e-03
3.607000000000000000e+03 3.126807689666748047e+00 1.100592732429504395e+00 1.755659841001033783e-02 -7.361655123531818390e-03 3.058482892811298370e-03 -1.337492465972900391e-02
3.608000000000000000e+03 3.594516992568969727e+00 3.669931590557098389e-01 5.689490213990211487e-02 -3.826380940154194832e-03 1.592055708169937134e-02 -5.731393117457628250e-03
3.609000000000000000e+03 5.340361595153808594e+00 1.111377716064453125e+00 1.976660219952464104e-03 -2.525269519537687302e-03 -1.645827869651839137e-04 5.903391633182764053e-03
3.610000000000000000e+03 6.078244209289550781e+00 1.117401838302612305e+00 -1.259269472211599350e-02 -9.874389506876468658e-03 -6.740125361829996109e-03 1.225778274238109589e-02
3.611000000000000000e+03 6.630734443664550781e+00 3.795940577983856201e-01 6.326457113027572632e-02 -5.261112935841083527e-03 1.740103773772716522e-02 3.586834296584129333e-03
3.612000000000000000e+03 8.292313575744628906e+00 1.121313452720642090e+00 -9.349460899829864502e-02 -9.983434341847896576e-03 -3.104341216385364532e-02 4.672814160585403442e-02
3.613000000000000000e+03 9.031026840209960938e+00 1.123494505882263184e+00 -1.413818597793579102e-01 -3.706509992480278015e-02 -5.353408679366111755e-02 7.510559260845184326e-02
3.614000000000000000e+03 9.668079376220703125e+00 3.873348236083984375e-01 -6.689414381980895996e-02 -2.538685500621795654e-02 -2.768429927527904510e-02 4.139111191034317017e-02
3.615000000000000000e+03 7.554221630096435547e+00 1.120420336723327637e+00 -5.819587782025337219e-02 -1.626277901232242584e-02 -2.233759686350822449e-02 3.196344524621963501e-02
3.616000000000000000e+03 6.816372394561767578e+00 1.119594097137451172e+00 -3.237596154212951660e-02 -2.753019332885742188e-03 -1.053869351744651794e-02 2.118555828928947449e-02
3.617000000000000000e+03 4.602222442626953125e+00 1.108423352241516113e+00 1.118989288806915283e-02 -8.328605443239212036e-03 8.583862218074500561e-04 -2.087627537548542023e-03
3.618000000000000000e+03 3.863975048065185547e+00 1.106993198394775391e+00 1.457992382347583771e-02 -2.228296594694256783e-03 3.705488052219152451e-03 -6.929098162800073624e-03
3.619000000000000000e+03 1.009822845458984375e+00 1.135237336158752441e+00 5.970115773379802704e-03 9.785290807485580444e-03 4.726621787995100021e-03 -1.403416786342859268e-02
3.620000000000000000e+03 3.536950945854187012e-01 9.578678607940673828e-01 1.571160973981022835e-03 7.442440371960401535e-03 2.704080427065491676e-03 -3.216970711946487427e-03
3.621000000000000000e+03 1.388111495971679688e+01 -2.388393163681030273e+00 1.065641336026601493e-04 3.651858060038648546e-05 4.292481389711610973e-05 2.134310307155828923e-05
3.622000000000000000e+03 1.426281070709228516e+01 -1.972140312194824219e+00 -1.081617956515401602e-04 -6.392281193257076666e-06 -3.436622500885277987e-05 2.485015647835098207e-05
3.623000000000000000e+03 1.301526165008544922e+01 -1.988485813140869141e+00 -8.042289118748158216e-05 -4.298530984669923782e-05 -3.702245885506272316e-05 -3.457059938227757812e-05
3.624000000000000000e+03 1.456621360778808594e+01 -1.633289217948913574e+00 3.569783075363375247e-05 7.047325198072940111e-05 3.185132663929834962e-05 -9.923084689944516867e-06
3.625000000000000000e+03 1.470362663269042969e+01 -2.776672124862670898e+00 -7.948752318043261766e-05 -2.397854768787510693e-05 -3.103982089669443667e-05 -2.672304617590270936e-05
3.626000000000000000e+03 1.522682380676269531e+01 -1.924743771553039551e+00 -3.239764191675931215e-05 -2.807124110404402018e-05 -1.814066490624099970e-05 -1.652455648581963032e-05
3.627000000000000000e+03 1.320408344268798828e+01 -1.267461419105529785e+00 2.543123810028191656e-05 3.166654278174974024e-05 1.712933408271055669e-05 1.193341267935466021e-05
3.628000000000000000e+03 1.497323989868164062e+01 -2.346927881240844727e+00 7.683752482989802957e-05 1.120467823056969792e-05 2.641265928104985505e-05 1.428991799912182614e-05
3.629000000000000000e+03 1.393587779998779297e+01 -1.459229350090026855e+00 2.257175401609856635e-05 -7.116819324437528849e-05 -1.457893176848301664e-05 -2.382043203397188336e-05
3.630000000000000000e+03 1.109428310394287109e+01 -9.500241279602050781e-01 -2.586014943517511711e-06 1.201559257424378302e-06 -4.153367285653075669e-07 2.636712451931089163e-05
3.631000000000000000e+03 1.165381717681884766e+01 -7.241671085357666016e-01 2.881777254515327513e-05 4.180690666544251144e-05 2.118740303558297455e-05 1.682037873251829296e-05
3.632000000000000000e+03 1.027435588836669922e+01 -1.351947069168090820e+00 5.228015288594178855e-05 4.898066254099830985e-05 3.037824535567779094e-05 7.907462531875353307e-06
3.633000000000000000e+03 1.030054473876953125e+01 -8.435348272323608398e-01 -5.137021071277558804e-05 -2.767667865555267781e-05 -2.371406662859953940e-05 -2.734600093390326947e-05
3.634000000000000000e+03 1.209442901611328125e+01 -1.691910147666931152e+00 3.367343742866069078e-05 4.389417881611734629e-05 2.327028596482705325e-05 2.616605343064293265e-05
3.635000000000000000e+03 1.235916519165039062e+01 -9.953780174255371094e-01 -4.503640866460045800e-06 -2.389580367889720947e-05 -8.519833500031381845e-06 -1.690729914116673172e-05
3.636000000000000000e+03 1.103997993469238281e+01 -4.984331727027893066e-01 -4.129309672862291336e-06 -3.002626908710226417e-05 -1.024667380988830701e-05 -3.522288898238912225e-05
3.637000000000000000e+03 1.033364486694335938e+01 -3.521796166896820068e-01 3.066570934606716037e-05 -1.426871222065528855e-06 8.771651664574164897e-06 2.512769424356520176e-05
3.638000000000000000e+03 1.116429042816162109e+01 -1.513366341590881348e+00 -1.806111504265572876e-05 -4.419542892719618976e-05 -1.867696300905663520e-05 -9.566821972839534283e-06
3.639000000000000000e+03 8.929869651794433594e+00 -3.257387280464172363e-01 -7.230629125842824578e-05 -2.203555595770012587e-06 -2.235295323771424592e-05 1.444227655156282708e-05
3.640000000000000000e+03 9.405135154724121094e+00 -1.207431554794311523e+00 -3.328508319100365043e-05 -8.191365486709401011e-05 -3.455962360021658242e-05 -3.594363442971371114e-05
3.641000000000000000e+03 9.509044647216796875e+00 -6.957387328147888184e-01 1.182540727313607931e-04 5.506942216015886515e-06 3.712830221047624946e-05 5.206086279940791428e-05
3.642000000000000000e+03 8.311937332153320312e+00 -6.852564215660095215e-01 1.298220158787444234e-04 6.324596324702724814e-05 5.792039519292302430e-05 1.638452545194013510e-06
3.643000000000000000e+03 7.644789695739746094e+00 -4.091947972774505615e-01 -7.416922744596377015e-05 -7.525779801653698087e-05 -4.482810618355870247e-05 -5.945993325440213084e-05
3.644000000000000000e+03 6.843236923217773438e+00 -3.888793289661407471e-01 3.072142862947657704e-05 7.365172496065497398e-05 3.131194534944370389e-05 4.365637505543418229e-05
3.645000000000000000e+03 5.179682731628417969e+00 -3.839172124862670898e-01 4.357464058557525277e-05 8.217238064389675856e-05 3.772410855162888765e-05 5.705246076104231179e-05
3.646000000000000000e+03 4.313897609710693359e+00 -3.908450603485107422e-01 -5.194001278141513467e-05 -6.335684156510978937e-05 -3.458905848674476147e-05 -6.399785343091934919e-05
3.647000000000000000e+03 2.978018999099731445e+00 -6.541122794151306152e-01 -7.318039570236578584e-05 4.601084583555348217e-06 -2.057379424513783306e-05 8.329947741003707051e-05
3.648000000000000000e+03 1.116362333297729492e+00 -3.878802657127380371e-01 -6.655721517745405436e-05 -9.762673869317950448e-08 -1.999645246542058885e-05 -2.225643220299389213e-05
3.649000000000000000e+03 3.952576816082000732e-01 -5.600912570953369141e-01 4.688316437295725336e-07 -1.083719507732894272e-05 -3.110508941972511820e-06 -5.570568191615166143e-06
3.650000000000000000e+03 6.959925889968872070e-01 -1.127880215644836426e+00 2.157311828341335058e-04 1.781555454272165662e-07 6.477280112449079752e-05 3.550841574906371534e-05
3.651000000000000000e+03 8.588925361633300781e+00 -1.222332477569580078e+00 -2.764740384009201080e-05 1.345868950011208653e-04 3.208185080438852310e-05 -2.443262474116636440e-06
3.652000000000000000e+03 7.880912780761718750e+00 -1.224491596221923828e+00 -7.917149923741817474e-05 -1.118245636462233961e-04 -5.729882104787975550e-05 2.444147321511991322e-05
3.653000000000000000e+03 7.163526535034179688e+00 -1.149194836616516113e+00 9.364427387481555343e-05 7.296186231542378664e-05 4.998184158466756344e-05 4.297160921851173043e-05
3.654000000000000000e+03 6.369585514068603516e+00 -1.128879308700561523e+00 -5.480743493535555899e-05 -8.180920849554240704e-05 -4.098499266547150910e-05 -5.148526179254986346e-05
3.655000000000000000e+03 5.550294876098632812e+00 -1.121867775917053223e+00 5.514533040695823729e-05 7.582952093798667192e-05 3.929245576728135347e-05 4.838224776904098690e-05
3.656000000000000000e+03 4.721254825592041016e+00 -1.123917222023010254e+00 -5.167667404748499393e-05 -6.975726137170568109e-05 -3.643018135335296392e-05 -5.641590541927143931e-05
3.657000000000000000e+03 3.863081216812133789e+00 -1.130845069885253906e+00 4.060363426106050611e-05 5.923673597862944007e-05 2.995211070810910314e-05 6.952667172299697995e-05
3.658000000000000000e+03 2.967671394348144531e+00 -1.180732727050781250e+00 -1.230103316629538313e-05 -7.553093018941581249e-05 -2.634958764247130603e-05 -6.863388989586383104e-05
3.659000000000000000e+03 2.120916366577148438e+00 -1.226537704467773438e+00 9.450628567719832063e-05 7.643471326446160674e-05 5.128229895490221679e-05 5.955173037364147604e-05
3.660000000000000000e+03 9.597342491149902344e+00 -2.483072280883789062e-01 -5.569851418840698898e-05 3.242661932745249942e-06 -1.573675581312272698e-05 8.437141332251485437e-06
3.661000000000000000e+03 3.571783065795898438e+00 -3.039060533046722412e-01 7.574584014946594834e-05 6.937138095963746309e-05 4.353516851551830769e-05 3.797824683715589345e-05
3.662000000000000000e+03 2.233603715896606445e+00 -7.216347455978393555e-01 -8.392984454985707998e-06 -5.148916170583106577e-05 -1.796464312064927071e-05 -1.082234448404051363e-04
3.663000000000000000e+03 1.673935413360595703e+00 -5.692175030708312988e-01 1.699768617982044816e-04 9.865297033684328198e-05 8.058895036811009049e-05 4.059536877321079373e-06
3.664000000000000000e+03 1.373850703239440918e+00 -1.189781188964843750e+00 -1.937950873980298638e-04 -2.160158692277036607e-05 -6.461900193244218826e-05 -6.085312270442955196e-05
3.665000000000000000e+03 6.016335010528564453e+00 -3.818677961826324463e-01 -4.265992902219295502e-05 -8.121857536025345325e-05 -3.716355058713816106e-05 -5.142838563187979162e-05
3.666000000000000000e+03 2.176476955413818359e+00 -2.550970613956451416e-01 -8.366888505406677723e-05 -2.338242848054505885e-05 -3.211539660696871579e-05 1.014446897897869349e-04
3.667000000000000000e+03 2.899653196334838867e+00 -2.333795428276062012e-01 1.084741234080865979e-05 -5.415801570052281022e-05 -1.299318046221742406e-05 -4.053452357766218483e-05
3.668000000000000000e+03 6.978445434570312500e+01 -1.215208625793457031e+01 3.101867294311523438e+01 4.558388233184814453e+00 1.067311859130859375e+01 9.895592689514160156e+00
3.669000000000000000e+03 6.978699493408203125e+01 -1.217136669158935547e+01 3.003126716613769531e+01 1.498739910125732422e+01 1.350559997558593750e+01 2.150285148620605469e+01
3.670000000000000000e+03 6.979323577880859375e+01 -1.218978500366210938e+01 2.847966957092285156e+01 2.615837478637695312e+01 1.639141273498535156e+01 2.607842445373535156e+01
3.671000000000000000e+03 6.980294799804687500e+01 -1.220663833618164062e+01 2.515139579772949219e+01 3.792983627319335938e+01 1.892436981201171875e+01 2.813643646240234375e+01
3.672000000000000000e+03 6.981574249267578125e+01 -1.222128105163574219e+01 2.190904235839843750e+01 4.923620605468750000e+01 2.134357452392578125e+01 2.721920776367187500e+01
3.673000000000000000e+03 6.983113861083984375e+01 -1.223315620422363281e+01 1.848397445678710938e+01 5.925186538696289062e+01 2.332075119018554688e+01 2.383583641052246094e+01
3.674000000000000000e+03 6.984856414794921875e+01 -1.224180889129638672e+01 1.628061103820800781e+01 6.703631591796875000e+01 2.499507713317871094e+01 1.839296722412109375e+01
3.675000000000000000e+03 6.986732482910156250e+01 -1.224690914154052734e+01 1.550089836120605469e+01 7.191362762451171875e+01 2.622435760498046875e+01 1.162654018402099609e+01
3.676000000000000000e+03 6.988672637939453125e+01 -1.224826240539550781e+01 1.675416374206542969e+01 7.367174530029296875e+01 2.712777328491210938e+01 4.595026969909667969e+00
3.677000000000000000e+03 6.990602111816406250e+01 -1.224581623077392578e+01 1.980026626586914062e+01 7.247814178466796875e+01 2.768352317810058594e+01 -1.799345374107360840e+00
3.678000000000000000e+03 6.992446899414062500e+01 -1.223966503143310547e+01 2.427181053161621094e+01 6.900906372070312500e+01 2.798426246643066406e+01 -6.665368080139160156e+00
3.679000000000000000e+03 6.994136810302734375e+01 -1.223004341125488281e+01 2.944081115722656250e+01 6.409428405761718750e+01 2.806052780151367188e+01 -9.562265396118164062e+00
3.680000000000000000e+03 6.995607757568359375e+01 -1.221731853485107422e+01 3.463017272949218750e+01 5.878533172607421875e+01 2.802465248107910156e+01 -1.033299255371093750e+01
3.681000000000000000e+03 6.996803283691406250e+01 -1.220197677612304688e+01 3.926024627685546875e+01 5.389514541625976562e+01 2.794661712646484375e+01 -9.178614616394042969e+00
3.682000000000000000e+03 6.997676849365234375e+01 -1.218460369110107422e+01 4.274460220336914062e+01 5.000730514526367188e+01 2.782557296752929688e+01 -6.539745330810546875e+00
3.683000000000000000e+03 6.998196411132812500e+01 -1.216586208343505859e+01 4.491405105590820312e+01 4.769962310791015625e+01 2.778410339355468750e+01 -2.863379240036010742e+00
3.684000000000000000e+03 6.998341369628906250e+01 -1.214646911621093750e+01 4.552507400512695312e+01 4.705541229248046875e+01 2.777414703369140625e+01 1.272619724273681641e+00
3.685000000000000000e+03 6.998106384277343750e+01 -1.212716293334960938e+01 4.461050796508789062e+01 4.837088012695312500e+01 2.789441680908203125e+01 5.445042610168457031e+00
3.686000000000000000e+03 6.997500610351562500e+01 -1.210868358612060547e+01 4.203565597534179688e+01 5.110422134399414062e+01 2.794196319580078125e+01 9.001969337463378906e+00
3.687000000000000000e+03 6.996546936035156250e+01 -1.209173488616943359e+01 3.819522476196289062e+01 5.566701889038085938e+01 2.815867233276367188e+01 1.138615226745605469e+01
3.688000000000000000e+03 6.995281982421875000e+01 -1.207696437835693359e+01 3.306061935424804688e+01 6.084692764282226562e+01 2.817226409912109375e+01 1.218736171722412109e+01
3.689000000000000000e+03 6.993753814697265625e+01 -1.206493663787841797e+01 2.756610679626464844e+01 6.642071533203125000e+01 2.819604873657226562e+01 1.085532665252685547e+01
3.690000000000000000e+03 6.992020416259765625e+01 -1.205610942840576172e+01 2.210589408874511719e+01 7.115186309814453125e+01 2.797732543945312500e+01 7.382559299468994141e+00
3.691000000000000000e+03 6.990148925781250000e+01 -1.205082225799560547e+01 1.762326431274414062e+01 7.422635650634765625e+01 2.755488586425781250e+01 1.902735710144042969e+00
3.692000000000000000e+03 6.988210296630859375e+01 -1.204927539825439453e+01 1.461045742034912109e+01 7.464709472656250000e+01 2.677726554870605469e+01 -4.850424289703369141e+00
3.693000000000000000e+03 6.986278533935546875e+01 -1.205152797698974609e+01 1.375550460815429688e+01 7.206015014648437500e+01 2.574469757080078125e+01 -1.214810180664062500e+01
3.694000000000000000e+03 6.984427642822265625e+01 -1.205749416351318359e+01 1.460233879089355469e+01 6.621389770507812500e+01 2.424487113952636719e+01 -1.883671188354492188e+01
3.695000000000000000e+03 6.982727813720703125e+01 -1.206694602966308594e+01 1.731303977966308594e+01 5.755565261840820312e+01 2.246060752868652344e+01 -2.404318618774414062e+01
3.696000000000000000e+03 6.981244659423828125e+01 -1.207952308654785156e+01 2.061663055419921875e+01 4.677996063232421875e+01 2.021897697448730469e+01 -2.699628639221191406e+01
3.697000000000000000e+03 6.980034637451171875e+01 -1.209474468231201172e+01 2.500240135192871094e+01 3.468836212158203125e+01 1.790723037719726562e+01 -2.700774765014648438e+01
3.698000000000000000e+03 6.979143524169921875e+01 -1.211203002929687500e+01 2.799781799316406250e+01 2.188745307922363281e+01 1.496558094024658203e+01 -2.423252105712890625e+01
3.699000000000000000e+03 6.978604888916015625e+01 -1.213071823120117188e+01 3.276065444946289062e+01 8.794050216674804688e+00 1.246641159057617188e+01 -1.432526969909667969e+01
